 # Version information for this restart file 
 # current date 2019-07-10 01:12:43.543
 # current working dir /lustre04/scratch/rzk/rzk/GaN-carbene/443-adatoms-both-2x2/09-BondBreaking-CH/03-0501-CH-to-Nsur-PES
 # Program compiled at                              Sun Apr  7 00:48:11 EDT 2019
 # Program compiled on                          beluga2.int.ets1.calculquebec.ca
 # Program compiled for                        Beluga-Linux-x86-64-intel-openmpi
 # Source code revision number                                         svn:18619
 &GLOBAL
   PRINT_LEVEL  MEDIUM
   PROJECT_NAME TEST
   RUN_TYPE  GEO_OPT
 &END GLOBAL
 &MOTION
   &GEO_OPT
     MAX_ITER  500
     !STEP_START_VAL  57
   &END GEO_OPT
   &CONSTRAINT
     &COLLECTIVE
       COLVAR  1
       INTERMOLECULAR  T
       TARGET [angstrom] 3.30 !     6.8030140783883146E+00
       &RESTRAINT
         K     2.0000000000000000E+00
       &END RESTRAINT
     &END COLLECTIVE
   &END CONSTRAINT
 &END MOTION
 &FORCE_EVAL
   METHOD  QS
   STRESS_TENSOR  ANALYTICAL
   &DFT
     BASIS_SET_FILE_NAME BASIS_MOLOPT
     POTENTIAL_FILE_NAME GTH_POTENTIALS
     UKS  T
     SURFACE_DIPOLE_CORRECTION  T
     SURF_DIP_DIR  Z
     &SCF
       MAX_SCF  80
       EPS_SCF     5.0000000000000004E-06
       &OT  T
         PRECONDITIONER  FULL_ALL
       &END OT
       &OUTER_SCF  T
         OPTIMIZER  NONE
         EPS_SCF     5.0000000000000004E-06
         MAX_SCF  4
       &END OUTER_SCF
       &PRINT
         &RESTART  OFF
           BACKUP_COPIES  1
           &EACH
             JUST_ENERGY  0
             QS_SCF  0
             MD  20
           &END EACH
         &END RESTART
       &END PRINT
     &END SCF
     &QS
       EPS_DEFAULT     1.0000000000000000E-14
       METHOD  GPW
     &END QS
     &MGRID
       NGRIDS  5
       CUTOFF     1.2000000000000000E+03
     &END MGRID
     &XC
       DENSITY_CUTOFF     1.0000000000000000E-10
       GRADIENT_CUTOFF     1.0000000000000000E-10
       TAU_CUTOFF     1.0000000000000000E-10
       &XC_FUNCTIONAL  NO_SHORTCUT
         &PBE  T
         &END PBE
       &END XC_FUNCTIONAL
       &VDW_POTENTIAL
         POTENTIAL_TYPE  PAIR_POTENTIAL
         &PAIR_POTENTIAL
           R_CUTOFF     1.0000000000000005E+01
           TYPE  DFTD3
           PARAMETER_FILE_NAME dftd3.dat
           REFERENCE_FUNCTIONAL PBE
           EPS_CN     9.9999999999999995E-07
           CALCULATE_C9_TERM  T
           REFERENCE_C9_TERM  T
           LONG_RANGE_CORRECTION  F
           VERBOSE_OUTPUT  F
         &END PAIR_POTENTIAL
       &END VDW_POTENTIAL
     &END XC
   &END DFT
   &SUBSYS
     &CELL
       A     1.2864472766435110E+01    0.0000000000000000E+00    0.0000000000000000E+00
       B    -6.4322363581020028E+00    1.1140960178524475E+01    0.0000000000000000E+00
       C     0.0000000000000000E+00    0.0000000000000000E+00    3.2000000000000000E+01
       MULTIPLE_UNIT_CELL  1 1 1
       &CELL_REF
         A     1.2982353780853531E+01    0.0000000000000000E+00    0.0000000000000000E+00
         B    -6.4911768904267628E+00    1.1243048175136114E+01    0.0000000000000000E+00
         C     0.0000000000000000E+00    0.0000000000000000E+00    3.2000000000000000E+01
         MULTIPLE_UNIT_CELL  1 1 1
       &END CELL_REF
     &END CELL
     &COORD
N    3.6175072435536220E-03    2.0474784839400630E+00    2.4970806718841332E+00
Ga    2.1309701240308680E-02    8.0855885750170720E-02    2.8366653205109462E+00
N   -8.1083438143835559E-03    5.4604968905109762E-02    5.0095188743844838E+00
Ga   -4.2855535091557290E-03    1.8822418078932786E+00    5.7939806943412666E+00
N   -6.2698378859709454E-03    1.8946521448202907E+00    7.7954431143480907E+00
Ga   -1.7423667844999123E-03    4.9267423038288245E-02    8.4346985016193408E+00
N   -4.3241950221295398E-03    4.9647221685088332E-02    1.0412795743734225E+01
Ga   -4.3518660433123219E-03    1.8878936773910571E+00    1.1067841724488227E+01
N   -5.8758569120921297E-03    1.8697987609750260E+00    1.3063674131355127E+01
Ga   -2.6644907292289739E-03    4.9537587981660185E-02    1.3872904889782758E+01
N   -3.7324093954044148E-03    4.9645221048833885E-02    1.6066842102251485E+01
Ga   -5.6613450159903270E-03    2.0911929761886712E+00    1.6483816218075528E+01
Ga    5.0417749786684188E-02    3.7349261036637937E+00    1.3646554223009861E+00
N   -1.4701196907094543E+00    4.6268194340429210E+00    2.4654618037710332E+00
Ga   -1.6746194723003511E+00    2.7926708964533482E+00    3.2555379959049979E+00
N   -1.6129972801079688E+00    2.8379024719549997E+00    5.2391011037872541E+00
Ga   -1.6424708550093772E+00    4.7003804620727108E+00    5.8064778501074601E+00
N   -1.6234677270702633E+00    4.6981383182984349E+00    7.8004783719629964E+00
Ga   -1.6008912094714411E+00    2.8394750659931587E+00    8.4366605869304614E+00
N   -1.6019021654196428E+00    2.8419067389115722E+00    1.0431348673642665E+01
Ga   -1.6295341185473280E+00    4.7013516249264429E+00    1.1067033002426740E+01
N   -1.6453539644879547E+00    4.7113499419449756E+00    1.3060709951654907E+01
Ga   -1.6023304906976632E+00    2.8428626098173506E+00    1.3618635004125395E+01
N   -1.6356190098090362E+00    2.8307428144974391E+00    1.5579779709400938E+01
Ga   -1.4406449777244248E+00    4.5955997384836991E+00    1.6485212338353122E+01
N   -4.9485731365346147E-03    3.7535361259510762E+00    1.7624354684182610E+01
N   -3.2153817613958755E+00    7.5878644526305283E+00    2.4914213176915707E+00
Ga   -3.1917367025662622E+00    5.6156224959751286E+00    2.8334568411083558E+00
N   -3.2154916524989812E+00    5.6130517264137465E+00    5.0097097899407395E+00
Ga   -3.2292339282978992E+00    7.4433895281468292E+00    5.7801286920642063E+00
N   -3.2203565779707595E+00    7.4673613039521127E+00    7.7809990218980909E+00
Ga   -3.2222740995695198E+00    5.6227782766149561E+00    8.4384266706353426E+00
N   -3.2218529824101840E+00    5.6226708338766942E+00    1.0414675271087280E+01
Ga   -3.2231084239663086E+00    7.4630729364014030E+00    1.1063514802295796E+01
N   -3.2216552829484693E+00    7.4440634150787339E+00    1.3056903191515190E+01
Ga   -3.2140858162486956E+00    5.6285188190788524E+00    1.3859164418433409E+01
N   -3.2125568051201796E+00    5.6286529516945958E+00    1.6065879632754243E+01
Ga   -3.2205186379149970E+00    7.6882348826324467E+00    1.6499491404372005E+01
Ga   -3.2528318909418612E+00    9.3583088795049765E+00    1.2863485688153697E+00
N   -4.7271893773026274E+00    1.0203470976098421E+01    2.4998578207585012E+00
Ga   -4.9139836342125829E+00    8.3545376691656923E+00    3.2283497359148692E+00
N   -4.8328138709633892E+00    8.4004881967528959E+00    5.2152639979846116E+00
Ga   -4.8522996316403502E+00    1.0275085478781982E+01    5.7699137831470706E+00
N   -4.8378410473347140E+00    1.0267244748726098E+01    7.7777271359988429E+00
Ga   -4.8210114976425329E+00    8.4130793878812415E+00    8.4215676702152056E+00
N   -4.8183674601248772E+00    8.4131932855261802E+00    1.0420132840655249E+01
Ga   -4.8439707076039866E+00    1.0271178543577701E+01    1.1064013653228566E+01
N   -4.8606531665180484E+00    1.0281157940203441E+01    1.3059190983394819E+01
Ga   -4.8172080153680232E+00    8.4141897286933460E+00    1.3621564324544430E+01
N   -4.8463421868141499E+00    8.3923014242508582E+00    1.5578944141407858E+01
Ga   -4.6569095820806909E+00    1.0163876447236586E+01    1.6498371847944156E+01
N   -3.2262717651551496E+00    9.3380120296465208E+00    1.7651533805964874E+01
N    3.1952375623793601E+00    1.9162821809820840E+00    2.5999911015702137E+00
Ga    3.2073508389395333E+00    1.4829936568777680E-01    3.2413592468941812E+00
N    3.2143483482912685E+00    5.3116240523352773E-02    5.2260835598078312E+00
Ga    3.2093553733769742E+00    1.9075419170110448E+00    5.8626191157957761E+00
N    3.2139136786379261E+00    1.9071275149024116E+00    7.8431978969058731E+00
Ga    3.2086799902233594E+00    3.9707570863166376E-02    8.4246056602867689E+00
N    3.2103724383609182E+00    3.6967990800702948E-02    1.0422682297470491E+01
Ga    3.2104117970172465E+00    1.9045140417263073E+00    1.1023375943188395E+01
N    3.2123389523340311E+00    1.9075583458006036E+00    1.2997861370931385E+01
Ga    3.2105057257976979E+00    3.6478336241446828E-02    1.3620788403011652E+01
N    3.2146885476776736E+00    7.2594263306046292E-02    1.5578405396388980E+01
Ga    3.2090887437404998E+00    1.9056581689071945E+00    1.5857098877626855E+01
N    1.4726124085719157E+00    4.6314833415631664E+00    2.5318132300920091E+00
Ga    1.6855086855468884E+00    2.7974942495742687E+00    3.2957460149801934E+00
N    1.6034587424585525E+00    2.8386684457786791E+00    5.2610169295443656E+00
Ga    1.6519510155255690E+00    4.7136382153449201E+00    5.8158482654292998E+00
N    1.6027949657848948E+00    4.6946481342652602E+00    7.8212703049906906E+00
Ga    1.5930794900134340E+00    2.8379235561954177E+00    8.4356400876738125E+00
N    1.5924445804697340E+00    2.8384680927346837E+00    1.0433022509695961E+01
Ga    1.6180163151855469E+00    4.7000865695135667E+00    1.1062777114436598E+01
N    1.6326552850256633E+00    4.7109038398684522E+00    1.3058795987081618E+01
Ga    1.5910169548784110E+00    2.8428808956101914E+00    1.3617741521600305E+01
N    1.6237113202365996E+00    2.8308553715965048E+00    1.5579695988880170E+01
Ga    1.4292035491242003E+00    4.5950944602962727E+00    1.6485158209762801E+01
N   -1.2057313616989637E-02    7.4670295601774654E+00    2.6890005962135985E+00
Ga    6.1627999370038029E-04    5.6162363973806064E+00    3.3386263419310107E+00
N   -7.8419740944205719E-03    5.6338433324459434E+00    5.2672169037184569E+00
Ga   -7.8102008337719037E-03    7.4751384116654123E+00    5.8997185660649478E+00
N   -4.0448458781143833E-03    7.4801742371013962E+00    7.8588525006029553E+00
Ga   -6.2773531307404682E-03    5.6065367765592109E+00    8.4470846628971241E+00
N   -8.0580008617112935E-03    5.6107094656910208E+00    1.0437395817548261E+01
Ga   -8.0469647285175468E-03    7.4794464679718571E+00    1.1027514780589893E+01
N   -6.7626979997562724E-03    7.4791986822347161E+00    1.2997352218978760E+01
Ga   -5.7003268276686458E-03    5.6095923143246607E+00    1.3617385751639274E+01
N   -5.5417538155259913E-03    5.6408864378865582E+00    1.5577586787022241E+01
Ga   -7.2998610253127098E-03    7.4794712908100092E+00    1.5855174121092796E+01
N   -1.7066643339160863E+00    1.0204031882764081E+01    2.5023727600685581E+00
Ga   -1.6223565880104283E+00    8.4078765817065300E+00    3.2943412499668856E+00
N   -1.5995522826602628E+00    8.3993980113393718E+00    5.2365146117079906E+00
Ga   -1.5924692897895021E+00    1.0283504303263525E+01    5.7893885561363696E+00
N   -1.6030161559846248E+00    1.0267258635826494E+01    7.7862889857426234E+00
Ga   -1.6272257304658428E+00    8.4137936905747051E+00    8.4341011357465927E+00
N   -1.6257096308357009E+00    8.4133891590040708E+00    1.0426106116767375E+01
Ga   -1.6008039801798488E+00    1.0271990154596603E+01    1.1063586444724015E+01
N   -1.5832914199600319E+00    1.0280786325563788E+01    1.3056914994760517E+01
Ga   -1.6255289835616782E+00    8.4137679063363127E+00    1.3620969093035933E+01
N   -1.5970603794605871E+00    8.3971379262372974E+00    1.5577896152255931E+01
Ga   -1.7948006755887604E+00    1.0157816981911374E+01    1.6499221037109798E+01
N    6.4297285589448840E+00    2.0300776988312581E+00    2.5396383851840576E+00
Ga    6.4103372327470964E+00    4.9473250600594695E-02    2.8777771615457133E+00
N    6.4339686302617221E+00    5.1646708860860119E-02    5.0217100399804462E+00
Ga    6.4231923367613790E+00    1.8862060440180428E+00    5.7960720298071093E+00
N    6.4271445786725394E+00    1.8956497208901943E+00    7.7934129429895203E+00
Ga    6.4260150878500895E+00    5.1044366273325890E-02    8.4389072267670482E+00
N    6.4268164086539965E+00    5.0292162969614515E-02    1.0414494768867833E+01
Ga    6.4280004535454776E+00    1.8892478694528185E+00    1.1065256089074765E+01
N    6.4275076207518618E+00    1.8688746776565206E+00    1.3065256321780000E+01
Ga    6.4247465281237455E+00    4.1126678282985683E-02    1.3859604377744212E+01
N    6.4253330345471538E+00    3.9501110390927900E-02    1.6065804892692530E+01
Ga    6.4255682098469142E+00    2.0444007978106979E+00    1.6434628574429478E+01
Ga    6.4610074649253884E+00    3.7348936269675272E+00    1.5157734967729750E+00
N    4.9247584166136686E+00    4.6287653213570890E+00    2.4342046117215177E+00
Ga    4.6947795969465140E+00    2.7963225026314467E+00    3.2807971913681890E+00
N    4.8196203517700091E+00    2.8424571143183726E+00    5.2399776065261081E+00
Ga    4.7782821242591478E+00    4.7174809355516745E+00    5.8116375379130956E+00
N    4.8210608557464667E+00    4.6922795670585211E+00    7.8179679385059346E+00
Ga    4.8293155889707409E+00    2.8392574810579121E+00    8.4400125634469152E+00
N    4.8306917877079920E+00    2.8394127549628574E+00    1.0436019598397158E+01
Ga    4.8040490168893513E+00    4.7023070904844078E+00    1.1061572390671914E+01
N    4.7867400403591391E+00    4.7119751465118771E+00    1.3063310259950246E+01
Ga    4.8291701954262658E+00    2.8422215409823628E+00    1.3608795653101094E+01
N    4.8099818096369207E+00    2.8330539853057357E+00    1.5585627444316071E+01
Ga    4.9416115757125390E+00    4.6222296589972673E+00    1.6434674748115093E+01
N    6.4313476055859713E+00    3.7617734540535483E+00    1.7557262028368903E+01
N    3.2041470975498503E+00    7.5975796479037481E+00    2.4338278329625953E+00
N    3.2141402380923290E+00    5.6245902947132222E+00    5.1416843652921429E+00
Ga    3.2202821987565535E+00    7.4219254048647514E+00    5.8228879570622523E+00
N    3.2107499901038801E+00    7.4813264563336661E+00    7.8206855018269330E+00
Ga    3.2122134640093742E+00    5.6202534929816608E+00    8.4362068361401867E+00
N    3.2114117823941051E+00    5.6220112014165000E+00    1.0418533523295048E+01
Ga    3.2128152519758215E+00    7.4612241303163120E+00    1.1064509054674389E+01
N    3.2105763220592300E+00    7.4439671276903256E+00    1.3059424343306006E+01
Ga    3.2035776727052432E+00    5.6257425146004447E+00    1.3853566410726897E+01
N    3.2021995092583402E+00    5.6266315505097921E+00    1.6065884597235389E+01
Ga    3.2087672355507650E+00    7.6782149094403653E+00    1.6485990130789816E+01
Ga    3.2348721619088145E+00    9.3774701268317617E+00    1.4913452338903157E+00
N    1.7104464551538501E+00    1.0188932506229596E+01    2.5234869242853213E+00
Ga    1.5876256890346323E+00    8.3609305208236684E+00    3.3237243867717763E+00
N    1.5976240373088912E+00    8.3957875506541271E+00    5.2466245436684078E+00
Ga    1.5792757388395675E+00    1.0279305763290747E+01    5.8042685396892839E+00
N    1.5934806842335800E+00    1.0266762042331871E+01    7.7946318312406069E+00
Ga    1.6144717852341195E+00    8.4153548046546547E+00    8.4512641971269140E+00
N    1.6115373391563177E+00    8.4149496036547173E+00    1.0438768939425932E+01
Ga    1.5884581822496404E+00    1.0274039395185772E+01    1.1067988322842796E+01
N    1.5714445292550390E+00    1.0282206560620560E+01    1.3060882127496772E+01
Ga    1.6126203615862724E+00    8.4130658821385289E+00    1.3617733711059092E+01
N    1.5857316135391266E+00    8.3971936388537678E+00    1.5577576275431959E+01
Ga    1.7740243997948237E+00    1.0162248626807429E+01    1.6486300785124534E+01
N    3.2203379114512467E+00    9.3399188770393184E+00    1.7625548857830879E+01
N    9.6557882956035765E+00    1.9119979103451039E+00    2.6078565139953680E+00
Ga    9.6553720040576447E+00    1.7745927879556914E-01    3.2960144541687844E+00
N    9.6438112555186741E+00    4.9221851612530357E-02    5.2518851929870305E+00
Ga    9.6547210268219814E+00    1.9119392886880193E+00    5.8732556427590605E+00
N    9.6445614233479997E+00    1.9068354457600794E+00    7.8475533005655986E+00
Ga    9.6471557718535479E+00    3.8434680750569432E-02    8.4320616755689830E+00
N    9.6441143524691633E+00    3.7680704519042839E-02    1.0427486013123302E+01
Ga    9.6435910453633298E+00    1.9073683188917911E+00    1.1021661471295596E+01
N    9.6406982614629619E+00    1.9087069921142554E+00    1.2996698172805708E+01
Ga    9.6429250287196986E+00    3.8111516114072576E-02    1.3619948052542378E+01
N    9.6367554609470751E+00    7.3240176388632422E-02    1.5580536843900795E+01
Ga    9.6435960116872295E+00    1.9076882746378581E+00    1.5860829169886452E+01
N    7.9312820111388440E+00    4.6258374513462313E+00    2.5245154368771034E+00
Ga    8.1522090268181788E+00    2.7761587246879857E+00    3.3027195026251239E+00
N    8.0403743195067356E+00    2.8334279048980320E+00    5.2570867411915083E+00
Ga    8.0576167310851279E+00    4.7111233499406771E+00    5.7886336261951730E+00
N    8.0453243561151098E+00    4.7002791051100798E+00    7.7891202644895259E+00
Ga    8.0256853619192690E+00    2.8428709688157019E+00    8.4297266916661968E+00
N    8.0242106832924005E+00    2.8429140237376651E+00    1.0427912147850728E+01
Ga    8.0514405123244863E+00    4.7021204940261763E+00    1.1065105211231488E+01
N    8.0686893264175783E+00    4.7121938964490440E+00    1.3065197531299333E+01
Ga    8.0240552295846026E+00    2.8426305715309321E+00    1.3611236182316226E+01
N    8.0424824135634552E+00    2.8320774261564767E+00    1.5588035601709047E+01
Ga    7.9157931994392934E+00    4.6258799064179339E+00    1.6434934883011632E+01
N    6.4211508405992745E+00    7.4701793858719006E+00    2.5620822882699570E+00
Ga    6.4057343466992887E+00    5.7376230887775650E+00    3.2702703300776408E+00
N    6.4226798317983365E+00    5.6173289811877023E+00    5.2306131365936865E+00
Ga    6.4277220978360887E+00    7.4761504647351291E+00    5.8545198215703298E+00
N    6.4259036241165717E+00    7.4768728911358107E+00    7.8340922551353165E+00
Ga    6.4298520572203932E+00    5.6108512533988941E+00    8.4371138652371922E+00
N    6.4303092371712109E+00    5.6107590757993719E+00    1.0433640829650187E+01
Ga    6.4303668956866975E+00    7.4799362567833096E+00    1.1024146349024539E+01
N    6.4278961007547002E+00    7.4770155991763723E+00    1.2998000018988327E+01
Ga    6.4269886488434471E+00    5.6095264993180871E+00    1.3609657005875190E+01
N    6.4253269079355775E+00    5.6310244389821360E+00    1.5586165682100290E+01
Ga    6.4278718127042840E+00    7.4809937503621535E+00    1.5858079575514537E+01
N    4.7167721339831763E+00    1.0202388802408258E+01    2.5199727426723251E+00
Ga    4.9188862378216065E+00    8.3267569808927870E+00    3.2712633486877229E+00
N    4.8113938692723179E+00    8.4032978803823113E+00    5.2301743843715078E+00
Ga    4.8517507481739361E+00    1.0273704815159537E+01    5.7900548818186470E+00
N    4.8307809420789605E+00    1.0267166604620163E+01    7.7886888038146065E+00
Ga    4.8140020689017051E+00    8.4147699396054474E+00    8.4395179925616706E+00
N    4.8122553696375450E+00    8.4146124896254335E+00    1.0433418813870222E+01
Ga    4.8363357045042221E+00    1.0273316669417920E+01    1.1068615242799073E+01
N    4.8511213888793545E+00    1.0283009955971663E+01    1.3063756161695487E+01
Ga    4.8075439463144685E+00    8.4137684712182956E+00    1.3618606494326093E+01
N    4.8341757887426455E+00    8.3911606666394043E+00    1.5580001134525112E+01
Ga    4.6590148202677613E+00    1.0171475193896203E+01    1.6485069703985960E+01
O    7.6009822517934278E-01    3.8675448290593608E+00   -3.6533363756636666E-01
H   -8.0492169271818084E-03    7.4502705902436146E+00    1.6628892926645744E+00
C    1.1540112867253054E+00    2.6068756116509446E+00   -9.5525354000810248E-01
H    1.8567912095873675E+00    2.0544440930192707E+00   -3.0898602468608616E-01
H    2.7987547220291742E-01    1.9685275301566088E+00   -1.1513352269855834E+00
H    1.6438201908926682E+00    2.8243754937855621E+00   -1.9151073562267726E+00
Ga    3.1671154021317056E+00    5.5827703931966672E+00    2.2989136642484058E+00
O    2.8530962877504740E+00    5.5034995153360500E+00    1.7960805349112619E-01
H    2.1154657966384542E+00    4.8455556326244311E+00   -7.0568853192656392E-02
C    3.9760112694992440E+00    5.4305852294029835E+00   -7.2106005339725365E-01
H    3.6811206542811696E+00    5.7720853058875434E+00   -1.7222547142763192E+00
H    4.7565237562810543E+00    6.0912027159376745E+00   -3.1699303474116580E-01
H    4.3694628164845124E+00    4.4042445264211718E+00   -7.8228730207610953E-01
     &END COORD
     &KIND C
       BASIS_SET DZVP-MOLOPT-SR-GTH-q4
       POTENTIAL GTH-PBE-q4
       &POTENTIAL
2 2
0.3384712400000000E+00 2 -0.8803673979999999E+01  0.1339210850000000E+01
2
0.3025757500000000E+00 1  0.9622486650000001E+01
0.2915069400000000E+00 0
       &END POTENTIAL
     &END KIND
     &KIND O
       BASIS_SET DZVP-MOLOPT-SR-GTH-q6
       POTENTIAL GTH-PBE-q6
       &POTENTIAL
2 4
0.2445543000000000E+00 2 -0.1666721480000000E+02  0.2487311320000000E+01
2
0.2209559200000000E+00 1  0.1833745811000000E+02
0.2113324700000000E+00 0
       &END POTENTIAL
     &END KIND
     &KIND H
       BASIS_SET DZVP-MOLOPT-SR-GTH-q1
       POTENTIAL GTH-PBE-q1
       &POTENTIAL
1
0.2000000000000000E+00 2 -0.4178900440000000E+01  0.7244633100000000E+00
0
       &END POTENTIAL
     &END KIND
     &KIND N
       BASIS_SET DZVP-MOLOPT-SR-GTH
       POTENTIAL GTH-PBE-q5
       &POTENTIAL
2 3
0.2837905100000000E+00 2 -0.1241522559000000E+02  0.1868095920000000E+01
2
0.2554050000000000E+00 1  0.1363026257000000E+02
0.2454945300000000E+00 0
       &END POTENTIAL
     &END KIND
     &KIND Ga
       BASIS_SET DZVP-MOLOPT-SR-GTH
       POTENTIAL GTH-PBE-q13
       &POTENTIAL
2 1 10
0.4900000000000000E+00 0
3
0.4167772300000000E+00 3  0.1047568975000000E+02 -0.4921768140000000E+01  0.8707055900000000E+00
0.7770178090000000E+01 -0.2248152160000000E+01
0.1784415450000000E+01
0.5696265200000000E+00 2  0.1777985340000000E+01  0.1958597600000000E+00
-0.2317443900000000E+00
0.2381265000000000E+00 1 -0.1624868022000000E+02
       &END POTENTIAL
     &END KIND
     &TOPOLOGY
       NUMBER_OF_ATOMS  212
       MULTIPLE_UNIT_CELL  1 1 1
     &END TOPOLOGY
     &COLVAR
       &DISTANCE
         ATOMS  176 211
       &END DISTANCE
       &PRINT
       &END PRINT
     &END COLVAR
   &END SUBSYS
 &END FORCE_EVAL
