 # Version information for this restart file 
 # current date 2019-07-10 17:08:11.332
 # current working dir /lustre04/scratch/rzk/rzk/GaN-carbene/443-adatoms-both-2x2/09-BondBreaking-CH/03-0501-CH-to-Nsur-PES
 # Program compiled at                              Sun Apr  7 00:48:11 EDT 2019
 # Program compiled on                          beluga2.int.ets1.calculquebec.ca
 # Program compiled for                        Beluga-Linux-x86-64-intel-openmpi
 # Source code revision number                                         svn:18619
 &GLOBAL
   PRINT_LEVEL  MEDIUM
   PROJECT_NAME TEST
   RUN_TYPE  GEO_OPT
 &END GLOBAL
 &MOTION
   &GEO_OPT
     MAX_ITER  500
     !STEP_START_VAL  120
   &END GEO_OPT
   &CONSTRAINT
     &COLLECTIVE
       COLVAR  1
       INTERMOLECULAR  T
       TARGET [angstrom] 2.70 !     5.6691783986569284E+00
       &RESTRAINT
         K     2.0000000000000000E+00
       &END RESTRAINT
     &END COLLECTIVE
   &END CONSTRAINT
 &END MOTION
 &FORCE_EVAL
   METHOD  QS
   STRESS_TENSOR  ANALYTICAL
   &DFT
     BASIS_SET_FILE_NAME BASIS_MOLOPT
     POTENTIAL_FILE_NAME GTH_POTENTIALS
     UKS  T
     SURFACE_DIPOLE_CORRECTION  T
     SURF_DIP_DIR  Z
     &SCF
       MAX_SCF  80
       EPS_SCF     5.0000000000000004E-06
       &OT  T
         PRECONDITIONER  FULL_ALL
       &END OT
       &OUTER_SCF  T
         OPTIMIZER  NONE
         EPS_SCF     5.0000000000000004E-06
         MAX_SCF  4
       &END OUTER_SCF
       &PRINT
         &RESTART  OFF
           BACKUP_COPIES  1
           &EACH
             JUST_ENERGY  0
             QS_SCF  0
             MD  20
           &END EACH
         &END RESTART
       &END PRINT
     &END SCF
     &QS
       EPS_DEFAULT     1.0000000000000000E-14
       METHOD  GPW
     &END QS
     &MGRID
       NGRIDS  5
       CUTOFF     1.2000000000000000E+03
     &END MGRID
     &XC
       DENSITY_CUTOFF     1.0000000000000000E-10
       GRADIENT_CUTOFF     1.0000000000000000E-10
       TAU_CUTOFF     1.0000000000000000E-10
       &XC_FUNCTIONAL  NO_SHORTCUT
         &PBE  T
         &END PBE
       &END XC_FUNCTIONAL
       &VDW_POTENTIAL
         POTENTIAL_TYPE  PAIR_POTENTIAL
         &PAIR_POTENTIAL
           R_CUTOFF     1.0000000000000009E+01
           TYPE  DFTD3
           PARAMETER_FILE_NAME dftd3.dat
           REFERENCE_FUNCTIONAL PBE
           EPS_CN     9.9999999999999995E-07
           CALCULATE_C9_TERM  T
           REFERENCE_C9_TERM  T
           LONG_RANGE_CORRECTION  F
           VERBOSE_OUTPUT  F
         &END PAIR_POTENTIAL
       &END VDW_POTENTIAL
     &END XC
   &END DFT
   &SUBSYS
     &CELL
       A     1.2864472766435110E+01    0.0000000000000000E+00    0.0000000000000000E+00
       B    -6.4322363581020028E+00    1.1140960178524477E+01    0.0000000000000000E+00
       C     0.0000000000000000E+00    0.0000000000000000E+00    3.2000000000000000E+01
       MULTIPLE_UNIT_CELL  1 1 1
       &CELL_REF
         A     1.2982353780853531E+01    0.0000000000000000E+00    0.0000000000000000E+00
         B    -6.4911768904267628E+00    1.1243048175136114E+01    0.0000000000000000E+00
         C     0.0000000000000000E+00    0.0000000000000000E+00    3.2000000000000000E+01
         MULTIPLE_UNIT_CELL  1 1 1
       &END CELL_REF
     &END CELL
     &COORD
N    8.8826139574375348E-03    2.0411815973147038E+00    2.4897312471089235E+00
Ga    2.3262043811827525E-02    7.7195462048880295E-02    2.8295962912213999E+00
N   -6.6346048607918411E-03    4.7417965484452103E-02    5.0103963886166909E+00
Ga   -5.1812430834503329E-03    1.8738951125742020E+00    5.7952214759694511E+00
N   -5.9504225678448696E-03    1.8867317548408586E+00    7.7967818332951930E+00
Ga    2.7967250027369998E-05    4.0811609644238939E-02    8.4345148047753788E+00
N   -2.4658496737079739E-03    4.1041469563000858E-02    1.0412751900642037E+01
Ga   -2.3840131292064506E-03    1.8806499269955810E+00    1.1065033028499906E+01
N   -3.0787340679751178E-03    1.8617731496474990E+00    1.3061557213104589E+01
Ga   -2.8733847917491741E-03    4.1556915497094907E-02    1.3862808319765669E+01
N   -4.0942705443698007E-03    4.0358628195859940E-02    1.6067445070763434E+01
Ga   -2.7884165390030641E-03    2.0777283569761527E+00    1.6475599233143345E+01
Ga    8.6495983271559898E-02    3.7395657737485304E+00    1.3550327819879275E+00
N   -1.4661908657185811E+00    4.6211660621200981E+00    2.4582244797789667E+00
Ga   -1.6669991128853163E+00    2.7895533813366789E+00    3.2443656179047755E+00
N   -1.6101995356231456E+00    2.8308512311727201E+00    5.2336314575085243E+00
Ga   -1.6427413524079475E+00    4.6910433366937703E+00    5.8073826572827913E+00
N   -1.6222869724093112E+00    4.6892217814837007E+00    7.8015868412273752E+00
Ga   -1.6006022344149016E+00    2.8311175639159569E+00    8.4377543763028857E+00
N   -1.6010727912656235E+00    2.8335351270936702E+00    1.0432120822668272E+01
Ga   -1.6283047663904591E+00    4.6929444025729339E+00    1.1068180882945546E+01
N   -1.6437484159560527E+00    4.7025883283475789E+00    1.3063430428818165E+01
Ga   -1.6000824898185635E+00    2.8332446488877356E+00    1.3617318825316270E+01
N   -1.6272391538382467E+00    2.8174259005599693E+00    1.5581937755212667E+01
Ga   -1.4555411160234120E+00    4.5936804744102444E+00    1.6476045204283075E+01
N   -1.1025920679949669E-02    3.7500922756742714E+00    1.7608704190546007E+01
N   -3.2174764012392831E+00    7.5781779233640369E+00    2.4883275128286453E+00
Ga   -3.1872295478944310E+00    5.6044922936008517E+00    2.8261894283426292E+00
N   -3.2139797129741421E+00    5.6047206852813032E+00    5.0099354572915447E+00
Ga   -3.2312003956850681E+00    7.4348727966860029E+00    5.7772640881880886E+00
N   -3.2202923242433976E+00    7.4594142751591752E+00    7.7798524166674232E+00
Ga   -3.2210441516493877E+00    5.6149324547130979E+00    8.4389298332627085E+00
N   -3.2202810525890513E+00    5.6140675397217779E+00    1.0414872843217157E+01
Ga   -3.2219276910848755E+00    7.4527122059677842E+00    1.1066466198950401E+01
N   -3.2196856499193598E+00    7.4332120066189571E+00    1.3061621075278968E+01
Ga   -3.2202910992022784E+00    5.6125669337337110E+00    1.3864389219002987E+01
N   -3.2211954616332830E+00    5.6117711008726321E+00    1.6068055589429040E+01
Ga   -3.2195656441815301E+00    7.6513229232786699E+00    1.6478650926667274E+01
Ga   -3.2495614268188016E+00    9.3509276511191235E+00    1.2892296660995308E+00
N   -4.7288221136052186E+00    1.0191482924731844E+01    2.4975594510849937E+00
Ga   -4.9242390370157230E+00    8.3385087053825995E+00    3.2140360384344646E+00
N   -4.8347852711639572E+00    8.3902071077602134E+00    5.2055184578133948E+00
Ga   -4.8535025747294966E+00    1.0263831152886260E+01    5.7677499088031796E+00
N   -4.8372246304682074E+00    1.0257040614409631E+01    7.7770465853475388E+00
Ga   -4.8189128112682917E+00    8.4046517861169594E+00    8.4244582044892020E+00
N   -4.8167304000432614E+00    8.4039308574738598E+00    1.0422434431586344E+01
Ga   -4.8420751618960836E+00    1.0262510721590088E+01    1.1063262655728590E+01
N   -4.8586095777336373E+00    1.0272546758203664E+01    1.3059664756385942E+01
Ga   -4.8162449612580227E+00    8.4047837291625758E+00    1.3618517570896167E+01
N   -4.8438557699305411E+00    8.3880607010572916E+00    1.5581958350538972E+01
Ga   -4.6694985004862160E+00    1.0163076200304067E+01    1.6478223192659243E+01
N   -3.2272808562550406E+00    9.3217177106968911E+00    1.7612399892040152E+01
N    3.1971547841729695E+00    1.9022379080498029E+00    2.6105819497902485E+00
Ga    3.2062387824331782E+00    1.3407330111542831E-01    3.2452302468492924E+00
N    3.2144976878236644E+00    4.0424636479195711E-02    5.2292827006245144E+00
Ga    3.2094107588083820E+00    1.8938935046761327E+00    5.8674093130676050E+00
N    3.2146625768756154E+00    1.8966672720470701E+00    7.8462471950875567E+00
Ga    3.2093719511297727E+00    2.9357366413822944E-02    8.4255145918926981E+00
N    3.2120337609920799E+00    2.7959389870418457E-02    1.0423542962802234E+01
Ga    3.2119490309943339E+00    1.8970988336052135E+00    1.1021769409970290E+01
N    3.2129594366497649E+00    1.8978881622319668E+00    1.2995816511155491E+01
Ga    3.2131021534327711E+00    2.9297720032119799E-02    1.3617529679427157E+01
N    3.2141771776182271E+00    6.0011895152143044E-02    1.5580091385952077E+01
Ga    3.2132757191359915E+00    1.8985497673648490E+00    1.5858939465899603E+01
N    1.4736218297725805E+00    4.6193325508500447E+00    2.5669078803861685E+00
Ga    1.6834133571283534E+00    2.7794960617076483E+00    3.3024661942734044E+00
N    1.6057203727190317E+00    2.8270069842513359E+00    5.2678871557082330E+00
Ga    1.6514339966956018E+00    4.7047291517777099E+00    5.8059696436828512E+00
N    1.6086150063242919E+00    4.6892910398553047E+00    7.8116777889034479E+00
Ga    1.5946757903512849E+00    2.8310710991309018E+00    8.4318842897479254E+00
N    1.5938807627173548E+00    2.8320101848649561E+00    1.0430129162194433E+01
Ga    1.6206302745856291E+00    4.6916004140985219E+00    1.1065408815722380E+01
N    1.6368198546564392E+00    4.7022834594576546E+00    1.3061720708017740E+01
Ga    1.5945718515549161E+00    2.8336330760394026E+00    1.3616539557395836E+01
N    1.6214741063270381E+00    2.8190149299186023E+00    1.5580178177243887E+01
Ga    1.4423874287942322E+00    4.5894955311796757E+00    1.6476651438608492E+01
N   -1.0411814570515942E-02    7.4600701772024074E+00    2.6960170730994175E+00
Ga   -8.0585652180633020E-03    5.6071843411294324E+00    3.3434904336305640E+00
N   -8.8600520045368746E-03    5.6279538036608310E+00    5.2727462790059567E+00
Ga   -1.1370393758473348E-02    7.4676890355459928E+00    5.9052475441103525E+00
N   -4.4129098528027603E-03    7.4719269565384892E+00    7.8634439532687903E+00
Ga   -3.8526880306070980E-03    5.5971285343114356E+00    8.4451307287026296E+00
N   -5.2313950082975586E-03    5.6008835345806043E+00    1.0436944941660045E+01
Ga   -5.8551765009085535E-03    7.4700013710182533E+00    1.1027230821234239E+01
N   -4.0011062171359003E-03    7.4699940292742504E+00    1.2999320778054154E+01
Ga   -2.5294100903076383E-03    5.5993943230280960E+00    1.3617744256756914E+01
N   -1.6510711969863132E-03    5.6304314693844315E+00    1.5581129730027746E+01
Ga   -3.1494849144589492E-03    7.4692170364793551E+00    1.5859937327687277E+01
N   -1.7062310693585312E+00    1.0193415360441739E+01    2.5043648375970857E+00
Ga   -1.6242339180574570E+00    8.3967181194018536E+00    3.2952023513385531E+00
N   -1.6010835905651819E+00    8.3907810050878986E+00    5.2373084458651515E+00
Ga   -1.5915738041090868E+00    1.0273750517914269E+01    5.7923508933146985E+00
N   -1.6014632919631773E+00    1.0258081391503817E+01    7.7888352367201010E+00
Ga   -1.6277900580350693E+00    8.4051314714221501E+00    8.4368932250383022E+00
N   -1.6248012612127816E+00    8.4044781205566235E+00    1.0429328406667114E+01
Ga   -1.5986129972590015E+00    1.0264247635169900E+01    1.1065625127172819E+01
N   -1.5796452862152406E+00    1.0273206439010234E+01    1.3060533495922561E+01
Ga   -1.6227723629356809E+00    8.4052365848575086E+00    1.3618795671586557E+01
N   -1.5947590776421474E+00    8.3895338875178549E+00    1.5581033193209732E+01
Ga   -1.7760812188966575E+00    1.0159429262342744E+01    1.6479243475407074E+01
N    6.4321573896016577E+00    2.0195573047764510E+00    2.5447614611065390E+00
Ga    6.4101662462528139E+00    4.2319520648006037E-02    2.8782113161925098E+00
N    6.4337346117548089E+00    4.2841994971082653E-02    5.0255275764690364E+00
Ga    6.4266270068696674E+00    1.8764219080933651E+00    5.8005525201826975E+00
N    6.4293859888581775E+00    1.8871082224953353E+00    7.7963286444122044E+00
Ga    6.4269501360420769E+00    4.2680729689677642E-02    8.4424839097387725E+00
N    6.4283863520715716E+00    4.1816215408888892E-02    1.0416738640063926E+01
Ga    6.4291554016868337E+00    1.8825538641705777E+00    1.1066414338651363E+01
N    6.4299050288581547E+00    1.8625369625110433E+00    1.3061854131296199E+01
Ga    6.4285970261154066E+00    4.2550593294732042E-02    1.3864131250215811E+01
N    6.4273393102084100E+00    4.0983177042975022E-02    1.6067597656184621E+01
Ga    6.4288183554642879E+00    2.0796876651245189E+00    1.6477060103731809E+01
Ga    6.4492847356192131E+00    3.7314544487360064E+00    1.5309619677220045E+00
N    4.9304814058939117E+00    4.6133656415009945E+00    2.4874675063996952E+00
Ga    4.6992083785526839E+00    2.7748399710948712E+00    3.2940277007284280E+00
N    4.8200151346542723E+00    2.8298483963435839E+00    5.2515088194546449E+00
Ga    4.7808851495848401E+00    4.7086093148274228E+00    5.8029906123305297E+00
N    4.8178863020303409E+00    4.6867571420979468E+00    7.8083411144216912E+00
Ga    4.8299870703079844E+00    2.8319954679079089E+00    8.4371048881304187E+00
N    4.8317280675169787E+00    2.8321267970904831E+00    1.0432549954738921E+01
Ga    4.8064788394579567E+00    4.6929824833348235E+00    1.1064985096535194E+01
N    4.7902611831878881E+00    4.7024295672402836E+00    1.3061425413715058E+01
Ga    4.8321191545588764E+00    2.8337193059509365E+00    1.3616318457089625E+01
N    4.8049444180543368E+00    2.8177015251995505E+00    1.5580794343517407E+01
Ga    4.9781100731576080E+00    4.5926731615463687E+00    1.6476815963980101E+01
N    6.4210593504465114E+00    3.7505645094238571E+00    1.7612070919206609E+01
N    3.2071534496624241E+00    7.6065520784699316E+00    2.4975491022319742E+00
N    3.2158033399319943E+00    5.6176114784966149E+00    5.0875012404009015E+00
Ga    3.2216105213505433E+00    7.4159352305710859E+00    5.8138387744652720E+00
N    3.2118779324701747E+00    7.4681222636526021E+00    7.8115980705645898E+00
Ga    3.2137000010406505E+00    5.6121191408864588E+00    8.4402813291285064E+00
N    3.2132773575757403E+00    5.6134480538699103E+00    1.0419257015517308E+01
Ga    3.2146007333703084E+00    7.4517128082554080E+00    1.1067937406029317E+01
N    3.2136427052943439E+00    7.4335926030713964E+00    1.3063259806426691E+01
Ga    3.2134943107425249E+00    5.6121510977229097E+00    1.3862245879573377E+01
N    3.2119383870724714E+00    5.6112216669202963E+00    1.6067696923339181E+01
Ga    3.2132126527905425E+00    7.6497252583322917E+00    1.6477307217555897E+01
Ga    3.2355392320440055E+00    9.3609830151058713E+00    1.5095524615406011E+00
N    1.7088991734030978E+00    1.0187096448526887E+01    2.5288465245010023E+00
Ga    1.5781641103143171E+00    8.3677354178358101E+00    3.3400606876670520E+00
N    1.5941277442897577E+00    8.3906449919289852E+00    5.2604501535190931E+00
Ga    1.5799769061804319E+00    1.0275304889909687E+01    5.8101970956461511E+00
N    1.5952044099653180E+00    1.0259282127381530E+01    7.7990407787539997E+00
Ga    1.6165321875307908E+00    8.4060399744069088E+00    8.4497629839802748E+00
N    1.6143876525369374E+00    8.4055559014868066E+00    1.0438898603187429E+01
Ga    1.5899797663518214E+00    1.0265622778880777E+01    1.1069596355054763E+01
N    1.5736895997203941E+00    1.0273946644839125E+01    1.3063787012743584E+01
Ga    1.6165163673038219E+00    8.4046927396679330E+00    1.3618524060950703E+01
N    1.5890510020485369E+00    8.3881385473350569E+00    1.5582639720104487E+01
Ga    1.7616305073243479E+00    1.0163787399627370E+01    1.6477591757615304E+01
N    3.2054874207388604E+00    9.3214127506026827E+00    1.7612469998828210E+01
N    9.6591067795189129E+00    1.9070096602549527E+00    2.6091071685060072E+00
Ga    9.6584725645590872E+00    1.7394465192718719E-01    3.2974582617956831E+00
N    9.6449138602969740E+00    4.1373130288001755E-02    5.2532868658912903E+00
Ga    9.6578300650451840E+00    1.9057824565798720E+00    5.8700971070712891E+00
N    9.6465202916425969E+00    1.8989199898342530E+00    7.8455306987270212E+00
Ga    9.6483164313808469E+00    3.1946589966946451E-02    8.4335965041340533E+00
N    9.6451379265577106E+00    2.9498931288053275E-02    1.0428201165797558E+01
Ga    9.6442103417608536E+00    1.8990459614921669E+00    1.1023316041160916E+01
N    9.6447656481975450E+00    1.8986411275213340E+00    1.2996438722968785E+01
Ga    9.6464518091526035E+00    2.9798387267979249E-02    1.3618668819112148E+01
N    9.6472036876139224E+00    5.9947988625292679E-02    1.5581497712070783E+01
Ga    9.6452623801475319E+00    1.8987001445294089E+00    1.5860321016461814E+01
N    7.9337490689076056E+00    4.6193862313696608E+00    2.5262933713840496E+00
Ga    8.1551917602796760E+00    2.7698288640018460E+00    3.3024890978163497E+00
N    8.0411283890143714E+00    2.8258109465197960E+00    5.2574854149391328E+00
Ga    8.0615615975513801E+00    4.7025370779782358E+00    5.7908901117298752E+00
N    8.0467093130677920E+00    4.6915028336781290E+00    7.7902715618522951E+00
Ga    8.0283890355321983E+00    2.8341518640068761E+00    8.4308199607651009E+00
N    8.0261972400575541E+00    2.8340904470419086E+00    1.0426856541316427E+01
Ga    8.0516087310332676E+00    4.6929927064602674E+00    1.1065675648298871E+01
N    8.0691792821205262E+00    4.7022804503144924E+00    1.3060782545938578E+01
Ga    8.0267095429468149E+00    2.8342866254320271E+00    1.3617893323798961E+01
N    8.0539344097068746E+00    2.8193725899083431E+00    1.5580724277572868E+01
Ga    7.8730962521686090E+00    4.5892669621594946E+00    1.6478159972245940E+01
N    6.4056707687661714E+00    7.4543264193744845E+00    2.5355796162340591E+00
Ga    6.4157067407798323E+00    5.7316706942518572E+00    3.2804273288056360E+00
N    6.4269978056837180E+00    5.6134904206781302E+00    5.2381329945573576E+00
Ga    6.4326532759863007E+00    7.4701345000717874E+00    5.8623537002739292E+00
N    6.4282865758299481E+00    7.4691307937830071E+00    7.8384074479984180E+00
Ga    6.4299210926409014E+00    5.6015618048734908E+00    8.4351121544372258E+00
N    6.4304557510668614E+00    5.6014961669362791E+00    1.0430269171880738E+01
Ga    6.4301767963107919E+00    7.4700211620375665E+00    1.1023340812229478E+01
N    6.4297127043296527E+00    7.4697436546447440E+00    1.2996497038763234E+01
Ga    6.4298378822053381E+00    5.5997549169982701E+00    1.3616948649800309E+01
N    6.4306095726071213E+00    5.6302794156589062E+00    1.5580122725129300E+01
Ga    6.4289810667470535E+00    7.4688896187591967E+00    1.5859431781751271E+01
N    4.7213425919942793E+00    1.0199597282956436E+01    2.5241257530810093E+00
Ga    4.9287461531886301E+00    8.3311786439264548E+00    3.2858274188611314E+00
N    4.8185654642781612E+00    8.3976360078041576E+00    5.2410361409823700E+00
Ga    4.8537854157677458E+00    1.0269908707646129E+01    5.7938222580412200E+00
N    4.8312556432039786E+00    1.0259557125920260E+01    7.7913442187811466E+00
Ga    4.8139066422551933E+00    8.4056352478505669E+00    8.4369106564137244E+00
N    4.8117531580480586E+00    8.4050793089762141E+00    1.0431088641231300E+01
Ga    4.8369532824469506E+00    1.0264105461274001E+01    1.1065682830649477E+01
N    4.8529236941841027E+00    1.0273482275573139E+01    1.3060796855001939E+01
Ga    4.8109531189774035E+00    8.4051688781067195E+00    1.3617644162460277E+01
N    4.8374433119234803E+00    8.3899812421718352E+00    1.5580749036768671E+01
Ga    4.6580402937356551E+00    1.0159836922738467E+01    1.6478159751663558E+01
O    8.0255161088984428E-01    3.8957987147691560E+00   -3.6056336726483590E-01
H    1.1267094187870767E-03    7.4429803953252707E+00    1.6698535822571685E+00
C    1.1306593068477002E+00    2.6472978833501175E+00   -1.0070692826364631E+00
H    1.8087520768766554E+00    2.0320147936567521E+00   -3.9164292690191893E-01
H    2.2874506430522268E-01    2.0577718695783349E+00   -1.2324260664911035E+00
H    1.6306420300228817E+00    2.8834230182007019E+00   -1.9577984592705431E+00
Ga    3.1708056204178865E+00    5.5838534808761313E+00    2.4758394558609127E+00
O    2.9446904272977079E+00    5.6509731553069580E+00    3.1418003496492236E-01
H    2.3208895178082507E+00    4.9616141663519766E+00   -5.9799130376484509E-02
C    4.1434540940197531E+00    5.8712392796106281E+00   -4.5825048393488355E-01
H    3.9126387164078489E+00    6.4419692364139340E+00   -1.3682582552905542E+00
H    4.8365686322858217E+00    6.4451766183473946E+00    1.8536697270517632E-01
H    4.6215661003508099E+00    4.9193197512127957E+00   -7.3457460725575607E-01
     &END COORD
     &KIND C
       BASIS_SET DZVP-MOLOPT-SR-GTH-q4
       POTENTIAL GTH-PBE-q4
       &POTENTIAL
2 2
0.3384712400000000E+00 2 -0.8803673979999999E+01  0.1339210850000000E+01
2
0.3025757500000000E+00 1  0.9622486650000001E+01
0.2915069400000000E+00 0
       &END POTENTIAL
     &END KIND
     &KIND O
       BASIS_SET DZVP-MOLOPT-SR-GTH-q6
       POTENTIAL GTH-PBE-q6
       &POTENTIAL
2 4
0.2445543000000000E+00 2 -0.1666721480000000E+02  0.2487311320000000E+01
2
0.2209559200000000E+00 1  0.1833745811000000E+02
0.2113324700000000E+00 0
       &END POTENTIAL
     &END KIND
     &KIND H
       BASIS_SET DZVP-MOLOPT-SR-GTH-q1
       POTENTIAL GTH-PBE-q1
       &POTENTIAL
1
0.2000000000000000E+00 2 -0.4178900440000000E+01  0.7244633100000000E+00
0
       &END POTENTIAL
     &END KIND
     &KIND N
       BASIS_SET DZVP-MOLOPT-SR-GTH
       POTENTIAL GTH-PBE-q5
       &POTENTIAL
2 3
0.2837905100000000E+00 2 -0.1241522559000000E+02  0.1868095920000000E+01
2
0.2554050000000000E+00 1  0.1363026257000000E+02
0.2454945300000000E+00 0
       &END POTENTIAL
     &END KIND
     &KIND Ga
       BASIS_SET DZVP-MOLOPT-SR-GTH
       POTENTIAL GTH-PBE-q13
       &POTENTIAL
2 1 10
0.4900000000000000E+00 0
3
0.4167772300000000E+00 3  0.1047568975000000E+02 -0.4921768140000000E+01  0.8707055900000000E+00
0.7770178090000000E+01 -0.2248152160000000E+01
0.1784415450000000E+01
0.5696265200000000E+00 2  0.1777985340000000E+01  0.1958597600000000E+00
-0.2317443900000000E+00
0.2381265000000000E+00 1 -0.1624868022000000E+02
       &END POTENTIAL
     &END KIND
     &TOPOLOGY
       NUMBER_OF_ATOMS  212
       MULTIPLE_UNIT_CELL  1 1 1
     &END TOPOLOGY
     &COLVAR
       &DISTANCE
         ATOMS  176 211
       &END DISTANCE
       &PRINT
       &END PRINT
     &END COLVAR
   &END SUBSYS
 &END FORCE_EVAL
