 # Version information for this restart file 
 # current date 2019-07-09 19:08:57.547
 # current working dir /lustre04/scratch/rzk/rzk/GaN-carbene/443-adatoms-both-2x2/09-BondBreaking-CH/03-0501-CH-to-Nsur-PES
 # Program compiled at                              Sun Apr  7 00:48:11 EDT 2019
 # Program compiled on                          beluga2.int.ets1.calculquebec.ca
 # Program compiled for                        Beluga-Linux-x86-64-intel-openmpi
 # Source code revision number                                         svn:18619
 &GLOBAL
   PRINT_LEVEL  MEDIUM
   PROJECT_NAME TEST
   RUN_TYPE  GEO_OPT
 &END GLOBAL
 &MOTION
   &GEO_OPT
     MAX_ITER  500
     !STEP_START_VAL  13
   &END GEO_OPT
   &CONSTRAINT
     &COLLECTIVE
       COLVAR  1
       INTERMOLECULAR  T
       TARGET [angstrom] 3.60 !     7.3699319182540073E+00
       &RESTRAINT
         K     2.0000000000000000E+00
       &END RESTRAINT
     &END COLLECTIVE
   &END CONSTRAINT
 &END MOTION
 &FORCE_EVAL
   METHOD  QS
   STRESS_TENSOR  ANALYTICAL
   &DFT
     BASIS_SET_FILE_NAME BASIS_MOLOPT
     POTENTIAL_FILE_NAME GTH_POTENTIALS
     UKS  T
     SURFACE_DIPOLE_CORRECTION  T
     SURF_DIP_DIR  Z
     &SCF
       MAX_SCF  80
       EPS_SCF     5.0000000000000004E-06
       &OT  T
         PRECONDITIONER  FULL_ALL
       &END OT
       &OUTER_SCF  T
         OPTIMIZER  NONE
         EPS_SCF     5.0000000000000004E-06
         MAX_SCF  4
       &END OUTER_SCF
       &PRINT
         &RESTART  OFF
           BACKUP_COPIES  1
           &EACH
             JUST_ENERGY  0
             QS_SCF  0
             MD  20
           &END EACH
         &END RESTART
       &END PRINT
     &END SCF
     &QS
       EPS_DEFAULT     1.0000000000000000E-14
       METHOD  GPW
     &END QS
     &MGRID
       NGRIDS  5
       CUTOFF     1.2000000000000000E+03
     &END MGRID
     &XC
       DENSITY_CUTOFF     1.0000000000000000E-10
       GRADIENT_CUTOFF     1.0000000000000000E-10
       TAU_CUTOFF     1.0000000000000000E-10
       &XC_FUNCTIONAL  NO_SHORTCUT
         &PBE  T
         &END PBE
       &END XC_FUNCTIONAL
       &VDW_POTENTIAL
         POTENTIAL_TYPE  PAIR_POTENTIAL
         &PAIR_POTENTIAL
           R_CUTOFF     1.0000000000000004E+01
           TYPE  DFTD3
           PARAMETER_FILE_NAME dftd3.dat
           REFERENCE_FUNCTIONAL PBE
           EPS_CN     9.9999999999999995E-07
           CALCULATE_C9_TERM  T
           REFERENCE_C9_TERM  T
           LONG_RANGE_CORRECTION  F
           VERBOSE_OUTPUT  F
         &END PAIR_POTENTIAL
       &END VDW_POTENTIAL
     &END XC
   &END DFT
   &SUBSYS
     &CELL
       A     1.2864472766435110E+01    0.0000000000000000E+00    0.0000000000000000E+00
       B    -6.4322363581020028E+00    1.1140960178524473E+01    0.0000000000000000E+00
       C     0.0000000000000000E+00    0.0000000000000000E+00    3.2000000000000000E+01
       MULTIPLE_UNIT_CELL  1 1 1
       &CELL_REF
         A     1.2982353780853531E+01    0.0000000000000000E+00    0.0000000000000000E+00
         B    -6.4911768904267628E+00    1.1243048175136114E+01    0.0000000000000000E+00
         C     0.0000000000000000E+00    0.0000000000000000E+00    3.2000000000000000E+01
         MULTIPLE_UNIT_CELL  1 1 1
       &END CELL_REF
     &END CELL
     &COORD
N    2.0175529860408724E-03    2.0533487086333952E+00    2.5032209402793075E+00
Ga   -2.0321399318252859E-03    9.2579083390050207E-02    2.8545226420533139E+00
N   -5.2496163643230209E-03    5.9228921817028962E-02    5.0083490397242434E+00
Ga   -3.3778047385793044E-03    1.8908162272800220E+00    5.7982773761058057E+00
N   -5.7954100445004623E-03    1.8999633527368147E+00    7.7939620018022602E+00
Ga   -4.2983824471929544E-03    5.5656727996958449E-02    8.4403944390022581E+00
N   -4.6648415801320000E-03    5.5099340296858305E-02    1.0412603974685867E+01
Ga   -4.7454315714889651E-03    1.8939404167509823E+00    1.1071880679727458E+01
N   -5.7801105847269810E-03    1.8754560796349202E+00    1.3062170814617824E+01
Ga   -4.4836120604487542E-03    5.5874049747572749E-02    1.3873097954331755E+01
N   -4.0539856535020636E-03    5.5914940190310992E-02    1.6066668355958154E+01
Ga   -5.9219220308472003E-03    2.0970221900347261E+00    1.6482842597905314E+01
Ga    3.1506495108587738E-02    3.7351726761191753E+00    1.3686311079013547E+00
N   -1.4720694804494296E+00    4.6345574410793153E+00    2.4727092537909807E+00
Ga   -1.6799249624053392E+00    2.7957502006171802E+00    3.2637813200501316E+00
N   -1.6139680953009852E+00    2.8438257452088389E+00    5.2410371656786312E+00
Ga   -1.6400234691669353E+00    4.7061019404711724E+00    5.8106619053879385E+00
N   -1.6238476040713079E+00    4.7047583254242626E+00    7.7990256752859102E+00
Ga   -1.6019389623040368E+00    2.8448659464316712E+00    8.4399425475918104E+00
N   -1.6015704067214789E+00    2.8478798146678823E+00    1.0429048838592193E+01
Ga   -1.6304466018885659E+00    4.7061986367418065E+00    1.1075071057498095E+01
N   -1.6465365817214912E+00    4.7165232684841722E+00    1.3063736775013112E+01
Ga   -1.6029059610065122E+00    2.8473397947808867E+00    1.3621808323052216E+01
N   -1.6281287645299889E+00    2.8341102709326402E+00    1.5581157410873214E+01
Ga   -1.4513817296832940E+00    4.6047794660492283E+00    1.6482621050275661E+01
N   -2.4639043760213121E-04    3.7668885162256669E+00    1.7625373457373257E+01
N   -3.2115162432401796E+00    7.6023086131275139E+00    2.5044953051335916E+00
Ga   -3.1956629210155141E+00    5.6033916451073988E+00    2.8516439860830176E+00
N   -3.2154394235195496E+00    5.6236695961685692E+00    5.0067650997705924E+00
Ga   -3.2275921480787271E+00    7.4467722105875849E+00    5.7987305771862694E+00
N   -3.2192640643919352E+00    7.4725596196960726E+00    7.7868227879028176E+00
Ga   -3.2226680478515930E+00    5.6256960756785643E+00    8.4463959873525880E+00
N   -3.2216966133818552E+00    5.6273914628942716E+00    1.0415766652093975E+01
Ga   -3.2231703753560930E+00    7.4661524523962157E+00    1.1072671487194668E+01
N   -3.2221062635912983E+00    7.4465488660032468E+00    1.3061906481146210E+01
Ga   -3.2217255788376553E+00    5.6266701375421810E+00    1.3877273559062358E+01
N   -3.2220055409645436E+00    5.6269513393067783E+00    1.6065577832699660E+01
Ga   -3.2222231702787267E+00    7.6745024546153457E+00    1.6485349438834699E+01
Ga   -3.2482571181337589E+00    9.3601746253287867E+00    1.4368245376817430E+00
N   -4.7256413386083516E+00    1.0210948111181514E+01    2.5145293486640385E+00
Ga   -4.9340161419725357E+00    8.3519052508676968E+00    3.2658251702354613E+00
N   -4.8296810572116122E+00    8.4083410919726731E+00    5.2300231192027491E+00
Ga   -4.8544668990775302E+00    1.0284314383510484E+01    5.7878079672993650E+00
N   -4.8374285203557799E+00    1.0273568066333292E+01    7.7827355805521199E+00
Ga   -4.8221348122653334E+00    8.4175231458564017E+00    8.4305099962436696E+00
N   -4.8174040013065786E+00    8.4181749481841148E+00    1.0421148852509207E+01
Ga   -4.8442587858670763E+00    1.0276550952244671E+01    1.1068805371843039E+01
N   -4.8614681172340317E+00    1.0287023083560156E+01    1.3059154238974443E+01
Ga   -4.8191719958724999E+00    8.4188303343366879E+00    1.3622967502889056E+01
N   -4.8495756330754789E+00    8.4036931211967989E+00    1.5579502487081855E+01
Ga   -4.6595483606874497E+00    1.0171231432115583E+01    1.6486708660165050E+01
N   -3.2165450887765821E+00    9.3381353019662079E+00    1.7613526713652071E+01
N    3.1961478128804131E+00    1.9289876929468102E+00    2.5923316764872952E+00
Ga    3.2071655108597836E+00    1.8321381157792782E-01    3.2718646199707280E+00
N    3.2148666687681726E+00    5.9335026800242170E-02    5.2354813320465476E+00
Ga    3.2105076087651168E+00    1.9223438186119655E+00    5.8713711721737392E+00
N    3.2140026263881394E+00    1.9133011982219439E+00    7.8443054211034120E+00
Ga    3.2095573674291491E+00    4.6985611571589099E-02    8.4352175221661501E+00
N    3.2112989069878903E+00    4.1861058663732097E-02    1.0424674543704674E+01
Ga    3.2111657040133910E+00    1.9107573888941887E+00    1.1029230128265519E+01
N    3.2100137497291277E+00    1.9122808157799898E+00    1.2995349229206516E+01
Ga    3.2101344343435350E+00    4.3993232335056490E-02    1.3622258209209395E+01
N    3.2082290275056886E+00    7.8114648805000853E-02    1.5578951223620519E+01
Ga    3.2087220706638195E+00    1.9144877070928261E+00    1.5862997184971247E+01
N    1.4719874409556566E+00    4.6376427525823178E+00    2.5136120171520808E+00
Ga    1.6860954329883537E+00    2.8119338443989625E+00    3.2945849180231090E+00
N    1.6040906154106542E+00    2.8458193433460166E+00    5.2571779401340706E+00
Ga    1.6543116741411217E+00    4.7202925048004465E+00    5.8243718557583462E+00
N    1.6018844586078322E+00    4.6996581061936604E+00    7.8237098897154551E+00
Ga    1.5924428207755041E+00    2.8439761513935866E+00    8.4439271935323372E+00
N    1.5923210650208959E+00    2.8443074125483543E+00    1.0433716444535891E+01
Ga    1.6200264467123748E+00    4.7059239622428413E+00    1.1071183358256501E+01
N    1.6349139153315597E+00    4.7165854550206348E+00    1.3062733400708284E+01
Ga    1.5914607469585582E+00    2.8476976687649875E+00    1.3621712192789207E+01
N    1.6157752684706859E+00    2.8338484475395567E+00    1.5582316021925065E+01
Ga    1.4438389671345198E+00    4.6072720904239084E+00    1.6483036343048340E+01
N   -4.1663668560987010E-03    7.4711726324201804E+00    2.6893293330596570E+00
Ga    9.6928949104308163E-03    5.6188056777082984E+00    3.3403132584748505E+00
N   -6.3554223961689426E-03    5.6393491737016213E+00    5.2657229742401190E+00
Ga    2.2212068962354958E-03    7.4781791036719323E+00    5.9069077821005198E+00
N   -3.0330044423678587E-03    7.4855910638321586E+00    7.8608149421937883E+00
Ga   -6.3115116336737460E-03    5.6112689781901288E+00    8.4549713877147141E+00
N   -7.9823761271265292E-03    5.6153592581982679E+00    1.0439864532745242E+01
Ga   -6.3723645297109645E-03    7.4839955781615881E+00    1.1034821149701019E+01
N   -5.5160129588397574E-03    7.4840794233385068E+00    1.3000667189295831E+01
Ga   -5.4850126585492759E-03    5.6127840271487992E+00    1.3622499905234045E+01
N   -6.4220816008303478E-03    5.6433492155910630E+00    1.5582028358617519E+01
Ga   -4.1281392663617801E-03    7.4831651164434385E+00    1.5859968011454615E+01
N   -1.7111646617312231E+00    1.0205015076146999E+01    2.5108531993146701E+00
Ga   -1.5952682763353869E+00    8.4005231676273997E+00    3.3248620454314244E+00
N   -1.5982261461687293E+00    8.4055184038699533E+00    5.2496199343468684E+00
Ga   -1.5887674797613927E+00    1.0292153712335455E+01    5.8050649062933006E+00
N   -1.6031608974979279E+00    1.0272490956521461E+01    7.7909086184259539E+00
Ga   -1.6251210437106711E+00    8.4187204686427464E+00    8.4456566535048179E+00
N   -1.6251032951468019E+00    8.4186173087057750E+00    1.0430775351172416E+01
Ga   -1.5982751135813145E+00    1.0278808539250116E+01    1.1072812814844905E+01
N   -1.5810145719548230E+00    1.0288109795409499E+01    1.3061949225195306E+01
Ga   -1.6257592781500589E+00    8.4193325083205508E+00    1.3623711180038569E+01
N   -1.5942857635781791E+00    8.4012918671819268E+00    1.5581117020486188E+01
Ga   -1.7787283610837299E+00    1.0174770934837298E+01    1.6485089491393911E+01
N    6.4282238164032286E+00    2.0367051126757225E+00    2.5329683583519418E+00
Ga    6.4302532221820945E+00    6.3693061930655617E-02    2.8839692806658719E+00
N    6.4299338777123705E+00    5.5843515187763315E-02    5.0178141072754459E+00
Ga    6.4219437478334962E+00    1.8945112166649483E+00    5.7973774706770937E+00
N    6.4266381372927901E+00    1.9005675386087926E+00    7.7899803071007012E+00
Ga    6.4281130883426911E+00    5.7685348891340783E-02    8.4451016683608895E+00
N    6.4276072201553891E+00    5.5891146677060986E-02    1.0414612141008034E+01
Ga    6.4286129397309786E+00    1.8953197178320571E+00    1.1073431950467631E+01
N    6.4277227659806595E+00    1.8754222259705176E+00    1.3062661451014160E+01
Ga    6.4270545498379903E+00    5.6785645866184994E-02    1.3877583611593195E+01
N    6.4269332582784831E+00    5.7197377565916932E-02    1.6065597092452851E+01
Ga    6.4263737762543247E+00    2.1049255869454320E+00    1.6484358142417825E+01
Ga    6.4686682998600338E+00    3.7411750191084421E+00    1.4886907222542871E+00
N    4.9252044427510491E+00    4.6367969707352445E+00    2.4137069352684808E+00
Ga    4.6993779269140408E+00    2.8128269592032318E+00    3.2730268174171004E+00
N    4.8191040490421653E+00    2.8496590167496598E+00    5.2326024125035060E+00
Ga    4.7764470495373512E+00    4.7241904635706948E+00    5.8161683126369237E+00
N    4.8217783363558837E+00    4.6972915352170643E+00    7.8178930268238531E+00
Ga    4.8309086380485837E+00    2.8454493784585755E+00    8.4475185468336118E+00
N    4.8310826168100416E+00    2.8445853761601270E+00    1.0435121645052725E+01
Ga    4.8045684111807834E+00    4.7074181822618311E+00    1.1069907843944861E+01
N    4.7874503060094575E+00    4.7169500098739476E+00    1.3061137963339226E+01
Ga    4.8292188754018373E+00    2.8477359201573451E+00    1.3620768341673894E+01
N    4.7984357053322597E+00    2.8322874476095530E+00    1.5577643760900900E+01
Ga    4.9895349140476020E+00    4.6000901292283691E+00    1.6485738687889445E+01
N    6.4320622133704113E+00    3.7673103167832247E+00    1.7613713018948093E+01
N    3.2057825868947809E+00    7.6005860714553846E+00    2.4107790104683895E+00
N    3.2131461336195630E+00    5.6298657327599839E+00    5.1474175018092510E+00
Ga    3.2202124491334021E+00    7.4266348821152173E+00    5.8267438816197910E+00
N    3.2105109858888756E+00    7.4875220228868251E+00    7.8209801557281242E+00
Ga    3.2128002264959798E+00    5.6258509115662720E+00    8.4420924122855041E+00
N    3.2118076481155016E+00    5.6273590117295216E+00    1.0419085751413428E+01
Ga    3.2134963428571006E+00    7.4651113831525739E+00    1.1072455376215821E+01
N    3.2114859113515624E+00    7.4472421273448610E+00    1.3063158445417898E+01
Ga    3.2118620000292375E+00    5.6262580654023227E+00    1.3872535372143913E+01
N    3.2125440663177844E+00    5.6262198521757707E+00    1.6066909968615366E+01
Ga    3.2105650544780029E+00    7.6676792788508497E+00    1.6483295223118926E+01
Ga    3.2380946388236884E+00    9.3902868418119247E+00    1.4418141626482868E+00
N    1.7088701149952830E+00    1.0194524685037784E+01    2.5166443864625676E+00
Ga    1.6048392159667160E+00    8.3681080584393914E+00    3.3141430115414519E+00
N    1.5992739758030121E+00    8.4012175682077430E+00    5.2390667537801656E+00
Ga    1.5808891040686885E+00    1.0283065722371107E+01    5.8043625532054488E+00
N    1.5925714430387821E+00    1.0271855771311646E+01    7.7913007395229332E+00
Ga    1.6160206378564954E+00    8.4217607292326768E+00    8.4579206537700102E+00
N    1.6122728164704812E+00    8.4205649698189173E+00    1.0440625230586338E+01
Ga    1.5881756831848808E+00    1.0280173716034492E+01    1.1075563838952601E+01
N    1.5708256987127867E+00    1.0288736861750117E+01    1.3063692056359818E+01
Ga    1.6148867331874113E+00    8.4195013193595383E+00    1.3622849554588308E+01
N    1.5880021091473160E+00    8.4052223144013585E+00    1.5582227007808013E+01
Ga    1.7653665373002909E+00    1.0175868959348280E+01    1.6483110413653350E+01
N    3.2164107366510080E+00    9.3381092860407495E+00    1.7625731641617630E+01
N    9.6542348339985899E+00    1.9167854413381338E+00    2.6075483277397797E+00
Ga    9.6528584677678282E+00    1.7661165851090319E-01    3.2891430624892246E+00
N    9.6428005845284375E+00    5.5120889965441247E-02    5.2465105404815686E+00
Ga    9.6523872388201148E+00    1.9158147966519814E+00    5.8752280036924711E+00
N    9.6440932358503346E+00    1.9120208857116043E+00    7.8452590337490618E+00
Ga    9.6462849010306471E+00    4.3869595481556188E-02    8.4348746546570883E+00
N    9.6436907400405936E+00    4.1923367740065609E-02    1.0424998193593209E+01
Ga    9.6435110795765961E+00    1.9122946763214128E+00    1.1024651168100661E+01
N    9.6435771690249865E+00    1.9123549390906647E+00    1.2992863117506486E+01
Ga    9.6432853556368823E+00    4.4328002688930702E-02    1.3622729444884220E+01
N    9.6425418690968332E+00    7.3412346536300049E-02    1.5581673387148976E+01
Ga    9.6444570701062169E+00    1.9127400653087732E+00    1.5861784949326486E+01
N    7.9310713492214662E+00    4.6337455928739191E+00    2.5237101511080748E+00
Ga    8.1487083007175354E+00    2.7818354493611803E+00    3.2998031290748289E+00
N    8.0396433336208162E+00    2.8393989566854478E+00    5.2530724999193072E+00
Ga    8.0541155915319909E+00    4.7156326319288580E+00    5.7910780319863617E+00
N    8.0461039620224213E+00    4.7064157683216328E+00    7.7861285176589989E+00
Ga    8.0254321000174738E+00    2.8480369630039668E+00    8.4336420044695011E+00
N    8.0243965961937072E+00    2.8481274050674057E+00    1.0425021514742056E+01
Ga    8.0510063165225816E+00    4.7064008447971002E+00    1.1073451944242633E+01
N    8.0677732909344293E+00    4.7166739667546578E+00    1.3062686140767250E+01
Ga    8.0247389407486711E+00    2.8474433065310558E+00    1.3622233118710874E+01
N    8.0553152945052027E+00    2.8301752747814932E+00    1.5579376703434376E+01
Ga    7.8689433097758750E+00    4.6034650816518905E+00    1.6484538951244552E+01
N    6.4222544659833298E+00    7.4783254764734561E+00    2.5740792041872589E+00
Ga    6.3986146416233121E+00    5.7377262404837710E+00    3.2660684159108926E+00
N    6.4214197634476680E+00    5.6225741913928831E+00    5.2263044509482324E+00
Ga    6.4196393053197696E+00    7.4787298946766319E+00    5.8598321175073931E+00
N    6.4257569321561041E+00    7.4825796735659758E+00    7.8336884086126997E+00
Ga    6.4299813007182012E+00    5.6154818819123475E+00    8.4436325475754561E+00
N    6.4308346182625682E+00    5.6158204496591448E+00    1.0432165375019668E+01
Ga    6.4298855300609619E+00    7.4842884409644483E+00    1.1029007413659009E+01
N    6.4274502430516138E+00    7.4849073968591204E+00    1.2994832966346127E+01
Ga    6.4268484172590288E+00    5.6150385624514492E+00    1.3621245078637438E+01
N    6.4249947395268290E+00    5.6496177913947028E+00    1.5577910652845855E+01
Ga    6.4248762227857590E+00    7.4850742221465891E+00    1.5863901784799507E+01
N    4.7161656594021792E+00    1.0207287619698109E+01    2.5173583719551620E+00
Ga    4.9054933894302613E+00    8.3327472704990200E+00    3.2623102240839867E+00
N    4.8097113095046637E+00    8.4086100413823974E+00    5.2241209388195857E+00
Ga    4.8476212430172305E+00    1.0277241074232345E+01    5.7908774335311657E+00
N    4.8309913552056152E+00    1.0272793571854468E+01    7.7855889665452667E+00
Ga    4.8129725436390656E+00    8.4205106748993082E+00    8.4450851295581284E+00
N    4.8117990339007664E+00    8.4198316619548894E+00    1.0432641824613798E+01
Ga    4.8354891271946761E+00    1.0278181690676130E+01    1.1072209854433400E+01
N    4.8508790625941964E+00    1.0288031156633130E+01    1.3061998723799542E+01
Ga    4.8082740692441330E+00    8.4189068325961678E+00    1.3622327221129845E+01
N    4.8325667267090022E+00    8.4051729784056146E+00    1.5582572334942684E+01
Ga    4.6596661935967072E+00    1.0178062608701911E+01    1.6483374093489598E+01
O    7.1223778319008235E-01    3.8562830022964456E+00   -3.7335495248852951E-01
H   -1.0550714114892688E-02    7.4570718558172784E+00    1.6634929347639071E+00
C    1.1416619740326346E+00    2.5950128855545738E+00   -9.3669146525755642E-01
H    1.8462482334613839E+00    2.0679100095233749E+00   -2.7142366845766264E-01
H    2.8374585828367388E-01    1.9359136622173132E+00   -1.1344267082911126E+00
H    1.6419653832023748E+00    2.8069770506107927E+00   -1.8921827794461952E+00
Ga    3.1703014522576476E+00    5.5904616005087950E+00    2.2604136004954238E+00
O    2.8244768298990595E+00    5.4630627624557428E+00    1.3332797152168044E-01
H    2.0495291635102757E+00    4.8299123049132096E+00   -6.5152686795395348E-02
C    3.8915260171057660E+00    5.2548095477516696E+00   -8.1251510350339662E-01
H    3.5272419913415227E+00    5.4315805824470269E+00   -1.8331072263286470E+00
H    4.6857145483243805E+00    5.9735939544581047E+00   -5.7715123967181170E-01
H    4.2946083153148091E+00    4.2330073028870139E+00   -7.3702607502228623E-01
     &END COORD
     &KIND C
       BASIS_SET DZVP-MOLOPT-SR-GTH-q4
       POTENTIAL GTH-PBE-q4
       &POTENTIAL
 2 2
  0.3384712400000000E+00 2 -0.8803673979999999E+01  0.1339210850000000E+01
 2
  0.3025757500000000E+00 1  0.9622486650000001E+01
  0.2915069400000000E+00 0
         # Potential name:  GTH-PBE-Q4  for symbol:  C
         # Potential read from the potential filename: GTH_POTENTIALS
       &END POTENTIAL
     &END KIND
     &KIND O
       BASIS_SET DZVP-MOLOPT-SR-GTH-q6
       POTENTIAL GTH-PBE-q6
       &POTENTIAL
 2 4
  0.2445543000000000E+00 2 -0.1666721480000000E+02  0.2487311320000000E+01
 2
  0.2209559200000000E+00 1  0.1833745811000000E+02
  0.2113324700000000E+00 0
         # Potential name:  GTH-PBE-Q6  for symbol:  O
         # Potential read from the potential filename: GTH_POTENTIALS
       &END POTENTIAL
     &END KIND
     &KIND H
       BASIS_SET DZVP-MOLOPT-SR-GTH-q1
       POTENTIAL GTH-PBE-q1
       &POTENTIAL
 1
  0.2000000000000000E+00 2 -0.4178900440000000E+01  0.7244633100000000E+00
 0
         # Potential name:  GTH-PBE-Q1  for symbol:  H
         # Potential read from the potential filename: GTH_POTENTIALS
       &END POTENTIAL
     &END KIND
     &KIND N
       BASIS_SET DZVP-MOLOPT-SR-GTH
       POTENTIAL GTH-PBE-q5
       &POTENTIAL
 2 3
  0.2837905100000000E+00 2 -0.1241522559000000E+02  0.1868095920000000E+01
 2
  0.2554050000000000E+00 1  0.1363026257000000E+02
  0.2454945300000000E+00 0
         # Potential name:  GTH-PBE-Q5  for symbol:  N
         # Potential read from the potential filename: GTH_POTENTIALS
       &END POTENTIAL
     &END KIND
     &KIND Ga
       BASIS_SET DZVP-MOLOPT-SR-GTH
       POTENTIAL GTH-PBE-q13
       &POTENTIAL
 2 1 10
  0.4900000000000000E+00 0
 3
  0.4167772300000000E+00 3  0.1047568975000000E+02 -0.4921768140000000E+01  0.8707055900000000E+00
  0.7770178090000000E+01 -0.2248152160000000E+01
  0.1784415450000000E+01
  0.5696265200000000E+00 2  0.1777985340000000E+01  0.1958597600000000E+00
 -0.2317443900000000E+00
  0.2381265000000000E+00 1 -0.1624868022000000E+02
         # Potential name:  GTH-PBE-Q13  for symbol:  GA
         # Potential read from the potential filename: GTH_POTENTIALS
       &END POTENTIAL
     &END KIND
     &TOPOLOGY
       NUMBER_OF_ATOMS  212
       MULTIPLE_UNIT_CELL  1 1 1
     &END TOPOLOGY
     &COLVAR
       &DISTANCE
         ATOMS  176 211
       &END DISTANCE
       &PRINT
       &END PRINT
     &END COLVAR
   &END SUBSYS
 &END FORCE_EVAL
