 # Version information for this restart file 
 # current date 2019-07-12 09:13:59.363
 # current working dir /lustre04/scratch/rzk/rzk/GaN-carbene/443-adatoms-both-2x2/09-BondBreaking-CH/03-0501-CH-to-Nsur-PES
 # Program compiled at                              Sun Apr  7 00:48:11 EDT 2019
 # Program compiled on                          beluga2.int.ets1.calculquebec.ca
 # Program compiled for                        Beluga-Linux-x86-64-intel-openmpi
 # Source code revision number                                         svn:18619
 &GLOBAL
   PRINT_LEVEL  MEDIUM
   PROJECT_NAME TEST
   RUN_TYPE  GEO_OPT
 &END GLOBAL
 &MOTION
   &GEO_OPT
     MAX_ITER  500
     STEP_START_VAL  52
   &END GEO_OPT
   &CONSTRAINT
     &COLLECTIVE
       COLVAR  1
       INTERMOLECULAR  T
       TARGET     3.4015070391941573E+00
       &RESTRAINT
         K     2.0000000000000000E+00
       &END RESTRAINT
     &END COLLECTIVE
     &COLVAR_RESTART
           3.4015070391941573E+00
     &END COLVAR_RESTART
   &END CONSTRAINT
 &END MOTION
 &FORCE_EVAL
   METHOD  QS
   STRESS_TENSOR  ANALYTICAL
   &DFT
     BASIS_SET_FILE_NAME BASIS_MOLOPT
     POTENTIAL_FILE_NAME GTH_POTENTIALS
     UKS  T
     SURFACE_DIPOLE_CORRECTION  T
     SURF_DIP_DIR  Z
     &SCF
       MAX_SCF  80
       EPS_SCF     5.0000000000000004E-06
       &OT  T
         PRECONDITIONER  FULL_ALL
       &END OT
       &OUTER_SCF  T
         OPTIMIZER  NONE
         EPS_SCF     5.0000000000000004E-06
         MAX_SCF  4
       &END OUTER_SCF
       &PRINT
         &RESTART  OFF
           BACKUP_COPIES  1
           &EACH
             JUST_ENERGY  0
             QS_SCF  0
             MD  20
           &END EACH
         &END RESTART
       &END PRINT
     &END SCF
     &QS
       EPS_DEFAULT     1.0000000000000000E-14
       METHOD  GPW
     &END QS
     &MGRID
       NGRIDS  5
       CUTOFF     1.2000000000000000E+03
     &END MGRID
     &XC
       DENSITY_CUTOFF     1.0000000000000000E-10
       GRADIENT_CUTOFF     1.0000000000000000E-10
       TAU_CUTOFF     1.0000000000000000E-10
       &XC_FUNCTIONAL  NO_SHORTCUT
         &PBE  T
         &END PBE
       &END XC_FUNCTIONAL
       &VDW_POTENTIAL
         POTENTIAL_TYPE  PAIR_POTENTIAL
         &PAIR_POTENTIAL
           R_CUTOFF     1.0000000000000009E+01
           TYPE  DFTD3
           PARAMETER_FILE_NAME dftd3.dat
           REFERENCE_FUNCTIONAL PBE
           EPS_CN     9.9999999999999995E-07
           CALCULATE_C9_TERM  T
           REFERENCE_C9_TERM  T
           LONG_RANGE_CORRECTION  F
           VERBOSE_OUTPUT  F
         &END PAIR_POTENTIAL
       &END VDW_POTENTIAL
     &END XC
   &END DFT
   &SUBSYS
     &CELL
       A     1.2864472766435110E+01    0.0000000000000000E+00    0.0000000000000000E+00
       B    -6.4322363581020028E+00    1.1140960178524477E+01    0.0000000000000000E+00
       C     0.0000000000000000E+00    0.0000000000000000E+00    3.2000000000000000E+01
       MULTIPLE_UNIT_CELL  1 1 1
       &CELL_REF
         A     1.2982353780853531E+01    0.0000000000000000E+00    0.0000000000000000E+00
         B    -6.4911768904267628E+00    1.1243048175136114E+01    0.0000000000000000E+00
         C     0.0000000000000000E+00    0.0000000000000000E+00    3.2000000000000000E+01
         MULTIPLE_UNIT_CELL  1 1 1
       &END CELL_REF
     &END CELL
     &COORD
N    2.5540412017727599E-03    2.0464201966558053E+00    2.4612803405672738E+00
Ga    1.9459321033291510E-02    8.9009218989113834E-02    2.7980123471344212E+00
N   -7.8634712866976157E-03    5.0616592525289189E-02    4.9761317187215530E+00
Ga    4.5070265455404365E-03    1.8829402057934572E+00    5.7457181415073526E+00
N   -8.4152409342880068E-04    1.8914661509816741E+00    7.7521404279454629E+00
Ga    1.3642390985017390E-03    4.6342907841871755E-02    8.3950618045543592E+00
N   -2.5565226145270472E-03    4.5254011947076518E-02    1.0373762559477035E+01
Ga   -2.4246960738902447E-03    1.8839998686957486E+00    1.1025494483807014E+01
N   -4.1057119508940291E-03    1.8644884951747625E+00    1.3024970122005334E+01
Ga   -5.4817979535763655E-03    3.9452452519703599E-02    1.3822133430777463E+01
N   -4.6138988851454291E-03    3.8671834963589793E-02    1.6028807011413921E+01
Ga   -4.6184257219598337E-03    2.0561724903537262E+00    1.6415441341388906E+01
Ga   -1.3896707399111035E-02    3.7134549929806711E+00    1.2596074379739308E+00
N   -1.4722202397008777E+00    4.6222616382950390E+00    2.4452433673569125E+00
Ga   -1.6661568429882823E+00    2.7926285960642314E+00    3.2258626798129821E+00
N   -1.6113662762287921E+00    2.8323372586671178E+00    5.2091556004366808E+00
Ga   -1.6320538422919482E+00    4.6986630997486900E+00    5.7570948206646744E+00
N   -1.6179949207884234E+00    4.6954055389546294E+00    7.7561103895941912E+00
Ga   -1.5965137288265236E+00    2.8362904381949390E+00    8.3932545830853797E+00
N   -1.5992780879313431E+00    2.8373799712030134E+00    1.0390450762685481E+01
Ga   -1.6273205690378330E+00    4.6957399254794261E+00    1.1026951408472600E+01
N   -1.6443934266302365E+00    4.7059685038081440E+00    1.3024698281212313E+01
Ga   -1.6014059670097842E+00    2.8367696021586788E+00    1.3575565355659274E+01
N   -1.6249968272295654E+00    2.8263721497481660E+00    1.5546110604778518E+01
Ga   -1.4702924826369705E+00    4.6058317445388441E+00    1.6416468242725948E+01
N    4.7163656783978814E-03    3.7539706342326085E+00    1.7538800929797873E+01
N   -3.2311030888458174E+00    7.5760339598785160E+00    2.4523108851323241E+00
Ga   -3.1818337355387403E+00    5.6022114235153646E+00    2.8015219814181243E+00
N   -3.2142367463262711E+00    5.6076796008034737E+00    4.9789277601785527E+00
Ga   -3.2355870955464177E+00    7.4375132741844068E+00    5.7399361966962115E+00
N   -3.2225555331570539E+00    7.4631680950864094E+00    7.7422002403728873E+00
Ga   -3.2179372805908946E+00    5.6177506260911718E+00    8.3986032656827927E+00
N   -3.2190289847233435E+00    5.6167877343614103E+00    1.0375349426717598E+01
Ga   -3.2211321436123863E+00    7.4559856354328531E+00    1.1025848229876557E+01
N   -3.2206340188014893E+00    7.4372933861021391E+00    1.3020439787212910E+01
Ga   -3.2234612719641667E+00    5.6182319610218840E+00    1.3818279228506675E+01
N   -3.2234651068146247E+00    5.6178389903779449E+00    1.6028581643820807E+01
Ga   -3.2217141631604576E+00    7.6623776687825274E+00    1.6440868683252180E+01
Ga   -3.2537307591493398E+00    9.3530133960481248E+00    1.2531059435371839E+00
N   -4.7401079225894840E+00    1.0188459229669293E+01    2.4593413860716642E+00
Ga   -4.9409960935557145E+00    8.3341757313246951E+00    3.1675317485871579E+00
N   -4.8417220595840238E+00    8.3895685789455126E+00    5.1615327057242713E+00
Ga   -4.8564241699550150E+00    1.0264041296610625E+01    5.7281550232200624E+00
N   -4.8380768122364826E+00    1.0258098364718345E+01    7.7381853861370358E+00
Ga   -4.8184958504354398E+00    8.4083274305752802E+00    8.3908194591154057E+00
N   -4.8163854307288023E+00    8.4075950580212293E+00    1.0386021053555087E+01
Ga   -4.8421470712663082E+00    1.0266630024382058E+01    1.1023620318934224E+01
N   -4.8594287044689164E+00    1.0275682582643665E+01    1.3019378590426362E+01
Ga   -4.8179457973531843E+00    8.4079667416796902E+00    1.3578115975715018E+01
N   -4.8437579608532442E+00    8.3921769838799154E+00    1.5539646408683602E+01
Ga   -4.6636957306136271E+00    1.0161367384841405E+01    1.6440931351045347E+01
N   -3.2109789613255315E+00    9.3313237139140579E+00    1.7576439053792242E+01
N    3.2050100554712779E+00    1.8980103492555989E+00    2.5699671761890053E+00
Ga    3.1971531822139596E+00    1.3272963490523379E-01    3.2065902974525069E+00
N    3.2105270562643398E+00    4.1297709054415259E-02    5.1907951512277615E+00
Ga    3.2007145343773296E+00    1.9001134983943624E+00    5.8166587195150177E+00
N    3.2110747217631230E+00    1.9002846549684564E+00    7.8001219676531326E+00
Ga    3.2080642355127189E+00    3.3331702099138626E-02    8.3834660929125864E+00
N    3.2117934686673197E+00    3.1653263128609749E-02    1.0383169989272375E+01
Ga    3.2123482077853138E+00    1.8998783041960783E+00    1.0982283071689441E+01
N    3.2111522634307295E+00    1.9017277085389288E+00    1.2957967522069971E+01
Ga    3.2111623250783143E+00    3.1897153873433004E-02    1.3578631414862125E+01
N    3.2072724624633033E+00    6.5035451258524807E-02    1.5540949392351180E+01
Ga    3.2123865738956607E+00    1.9018381736964178E+00    1.5821379937064078E+01
N    1.4905631476724830E+00    4.6337226967857230E+00    2.3811011931372792E+00
Ga    1.6847438461674369E+00    2.8036422787081308E+00    3.2056585740115531E+00
N    1.6077852651262687E+00    2.8414552969114935E+00    5.1915012255593220E+00
Ga    1.6545386846288190E+00    4.7069403722487726E+00    5.7602694055502592E+00
N    1.6095990801179121E+00    4.6920908135940911E+00    7.7672819048323261E+00
Ga    1.5956905578400944E+00    2.8350735623329135E+00    8.3933118706501375E+00
N    1.5943129057056888E+00    2.8359076927700579E+00    1.0392301739549964E+01
Ga    1.6211393156783929E+00    4.6951887475279417E+00    1.1027444740316652E+01
N    1.6367245873372716E+00    4.7064013431609730E+00    1.3026534794802377E+01
Ga    1.5929698382832185E+00    2.8369647087807888E+00    1.3575025221280073E+01
N    1.6157336950976444E+00    2.8242120265242008E+00    1.5547189849574570E+01
Ga    1.4703942180631575E+00    4.6115603910511727E+00    1.6415471995179985E+01
N   -1.5961545797478958E-02    7.4692169949986811E+00    2.6502339307781848E+00
Ga    1.9778765424742887E-02    5.6024071650885405E+00    3.2580395417312182E+00
N    5.0252782331847374E-03    5.6276520398441061E+00    5.1999473008269765E+00
Ga   -1.3442130872667494E-02    7.4621927858646169E+00    5.8582058240455162E+00
N   -6.0597232172732423E-03    7.4714122468068203E+00    7.8187973386884400E+00
Ga   -2.0399634513590843E-03    5.5996826588731778E+00    8.4053639962973783E+00
N   -3.9446111312457302E-03    5.6036666493757670E+00    1.0397798862042256E+01
Ga   -5.2434993234779228E-03    7.4731813622309078E+00    1.0987874380884362E+01
N   -5.1220078579974739E-03    7.4721926084954093E+00    1.2960465537194297E+01
Ga   -4.1485927339771122E-03    5.6035423918456893E+00    1.3575739380008500E+01
N   -6.7003243395702189E-03    5.6296244009652465E+00    1.5546251759803756E+01
Ga   -3.3423487567210493E-03    7.4750820236404181E+00    1.5820646260616011E+01
N   -1.7125969845464171E+00    1.0191786048218534E+01    2.4689490405628387E+00
Ga   -1.6348375158960435E+00    8.3932274629855996E+00    3.2572301737510139E+00
N   -1.6047276861401949E+00    8.3905450575875040E+00    5.1992886114993482E+00
Ga   -1.5945260466180962E+00    1.0274818884439155E+01    5.7540127942063224E+00
N   -1.6026167684880774E+00    1.0260238904554194E+01    7.7506085123346784E+00
Ga   -1.6277500335227466E+00    8.4067661543469043E+00    8.3963172554685297E+00
N   -1.6240071119835389E+00    8.4072259368907698E+00    1.0389506088140163E+01
Ga   -1.5995364618880450E+00    1.0266909599883562E+01    1.1027391515927508E+01
N   -1.5808044762138880E+00    1.0276435604703639E+01    1.3023029689635564E+01
Ga   -1.6243054662231347E+00    8.4081875745506505E+00    1.3579603743258881E+01
N   -1.5981100649652147E+00    8.3879720622605092E+00    1.5542483874637671E+01
Ga   -1.7678925449778118E+00    1.0168434505587951E+01    1.6439559632813083E+01
N    6.4368620542094357E+00    2.0161057241273395E+00    2.5156764074194302E+00
Ga    6.4050052004206472E+00    4.2470046289203769E-02    2.8436732608364794E+00
N    6.4310025092465688E+00    4.3818333776777296E-02    4.9908830735796030E+00
Ga    6.4259950820465335E+00    1.8762555340586664E+00    5.7673011821387101E+00
N    6.4292214153717921E+00    1.8891365431273015E+00    7.7624622616213124E+00
Ga    6.4250315741563639E+00    4.4597053814659178E-02    8.4065541007986830E+00
N    6.4272756908090676E+00    4.4139770254790094E-02    1.0379935790416923E+01
Ga    6.4278476688570327E+00    1.8845831986769370E+00    1.1028834551339333E+01
N    6.4284791118912477E+00    1.8650814802094247E+00    1.3024537169825644E+01
Ga    6.4304601245956379E+00    4.3866636796214803E-02    1.3830252952123081E+01
N    6.4302516930205948E+00    4.3629490128967531E-02    1.6028270663941314E+01
Ga    6.4275979688968974E+00    2.0797712790017253E+00    1.6437685369788948E+01
Ga    6.4553949808416267E+00    3.7245468648793105E+00    1.5042242745834065E+00
N    4.9409000143957593E+00    4.5998384622786439E+00    2.4805888690617079E+00
Ga    4.7020078762056130E+00    2.7656863907309366E+00    3.2648286467983341E+00
N    4.8207876996889976E+00    2.8294739363358472E+00    5.2200023947496810E+00
Ga    4.7795926314569765E+00    4.7092226448024661E+00    5.7634302288875068E+00
N    4.8172208897507431E+00    4.6899508522187636E+00    7.7690692751423578E+00
Ga    4.8272389283110106E+00    2.8336783149334299E+00    8.3952796496779314E+00
N    4.8308389997930217E+00    2.8346983809854653E+00    1.0392106690364001E+01
Ga    4.8057058134818753E+00    4.6952885318328930E+00    1.1025409706402190E+01
N    4.7892648991264970E+00    4.7057095158458591E+00    1.3021522870218806E+01
Ga    4.8310889607904466E+00    2.8375817118038831E+00    1.3577625676856748E+01
N    4.8006029777417876E+00    2.8245611417434717E+00    1.5540694914104551E+01
Ga    4.9852306348289055E+00    4.5932071860316910E+00    1.6439245496721067E+01
N    6.4313120063271549E+00    3.7491549779971085E+00    1.7573662323815984E+01
N    3.1950796956307497E+00    7.6208096824836655E+00    2.4951149550756035E+00
N    3.2181367255537756E+00    5.6209959298661758E+00    5.0363781436621053E+00
Ga    3.2182443475722051E+00    7.4176372432936875E+00    5.7746878964698727E+00
N    3.2114301630203665E+00    7.4698365234636865E+00    7.7723507104607403E+00
Ga    3.2132866168072924E+00    5.6145704298434662E+00    8.4014126053824913E+00
N    3.2126009571595802E+00    5.6164712505111281E+00    1.0380141072259631E+01
Ga    3.2134242712238144E+00    7.4555670812762500E+00    1.1028989088649888E+01
N    3.2124461417720136E+00    7.4382253954089999E+00    1.3022376665583471E+01
Ga    3.2167298272371343E+00    5.6210057826332580E+00    1.3822404012749791E+01
N    3.2177601916847669E+00    5.6202812009821299E+00    1.6029324979826768E+01
Ga    3.2129292589670038E+00    7.6779752333783131E+00    1.6460140565329112E+01
Ga    3.2280863931025272E+00    9.3638582475449130E+00    1.4851014658275008E+00
N    1.7042771482582038E+00    1.0193706933574603E+01    2.4978228806946126E+00
Ga    1.5639137603708797E+00    8.3781687324383025E+00    3.3126360058496847E+00
N    1.5903827595645361E+00    8.3954567886511029E+00    5.2305609501780213E+00
Ga    1.5771283101606126E+00    1.0279177309809377E+01    5.7779343622595860E+00
N    1.5944986832646346E+00    1.0262560500236829E+01    7.7655017949886043E+00
Ga    1.6141863315773384E+00    8.4070784328939254E+00    8.4080636285743271E+00
N    1.6134824143472295E+00    8.4081181218532812E+00    1.0397719365983855E+01
Ga    1.5889392175889452E+00    1.0267599747272428E+01    1.1032223237161601E+01
N    1.5728409575647833E+00    1.0276658057520351E+01    1.3024321393798061E+01
Ga    1.6157928264647266E+00    8.4084832607610700E+00    1.3583348989048007E+01
N    1.5861414593783232E+00    8.3895830084275147E+00    1.5541518647867662E+01
Ga    1.7806473179049653E+00    1.0156292703708543E+01    1.6459875510334115E+01
N    3.2142119434208452E+00    9.3291040856925189E+00    1.7607834175124658E+01
N    9.6620088751662347E+00    1.9111827150235423E+00    2.5809233495768615E+00
Ga    9.6566146804220008E+00    1.7875125045963072E-01    3.2664099800674702E+00
N    9.6430900921096789E+00    4.4008669954021605E-02    5.2219444076279062E+00
Ga    9.6577223037341842E+00    1.9078784273609144E+00    5.8420446536081494E+00
N    9.6469656333531635E+00    1.9018343391415000E+00    7.8151604267925707E+00
Ga    9.6474391991331423E+00    3.4784211463676690E-02    8.4012094861620490E+00
N    9.6445229128845380E+00    3.2359998641919435E-02    1.0393366304145633E+01
Ga    9.6460914383918421E+00    1.9026227577989894E+00    1.0983958110162217E+01
N    9.6456565092792772E+00    1.9033331483588261E+00    1.2957973104490909E+01
Ga    9.6447370783501256E+00    3.2411250529421530E-02    1.3582841249146913E+01
N    9.6457382822251656E+00    6.7095433758414771E-02    1.5541054850199144E+01
Ga    9.6432113472643781E+00    1.9007046143916098E+00    1.5821256772864588E+01
N    7.9356476742444055E+00    4.6215228553484238E+00    2.4996353748147677E+00
Ga    8.1579547336299036E+00    2.7701464695068956E+00    3.2752642183397400E+00
N    8.0408761911342683E+00    2.8273717899423327E+00    5.2286209313373702E+00
Ga    8.0661620572346209E+00    4.7032546551954759E+00    5.7616949840442935E+00
N    8.0473614552376116E+00    4.6933881800628967E+00    7.7585616514715872E+00
Ga    8.0278627787329206E+00    2.8360248998747561E+00    8.3978320008799905E+00
N    8.0258725373914768E+00    2.8363323858710801E+00    1.0392273290364349E+01
Ga    8.0519062635989638E+00    4.6961223840451378E+00    1.1025948442069184E+01
N    8.0678753807658889E+00    4.7056626066661700E+00    1.3021120928054444E+01
Ga    8.0254159027317957E+00    2.8373518262778488E+00    1.3578476214591404E+01
N    8.0549127817377002E+00    2.8246551450163571E+00    1.5542201705074172E+01
Ga    7.8720168234790089E+00    4.5939149299857549E+00    1.6439247938926240E+01
N    6.3745138377526969E+00    7.4425955643247113E+00    2.4773212523724264E+00
Ga    6.4242761722457766E+00    5.7232785226925209E+00    3.2644281635992582E+00
N    6.4301287610867179E+00    5.6184436216438423E+00    5.2131276130562698E+00
Ga    6.4336109942568891E+00    7.4738252306775106E+00    5.8381663210176482E+00
N    6.4282458822220052E+00    7.4719698167855810E+00    7.8090853367178878E+00
Ga    6.4294298344590937E+00    5.6029494715573183E+00    8.4000827704893304E+00
N    6.4299062938480551E+00    5.6040338359270621E+00    1.0393441365419811E+01
Ga    6.4301022414650619E+00    7.4732306628304110E+00    1.0984776619585318E+01
N    6.4291698954971324E+00    7.4729003103320997E+00    1.2957002029419602E+01
Ga    6.4281592010877038E+00    5.6037361597028461E+00    1.3577309216090473E+01
N    6.4282786554416882E+00    5.6338035673892231E+00    1.5539633807381117E+01
Ga    6.4270777208740979E+00    7.4734417525386840E+00    1.5818035558801226E+01
N    4.7195920097744510E+00    1.0201416590017978E+01    2.4937345192482487E+00
Ga    4.9205474273822398E+00    8.3453373186488022E+00    3.2728077615521793E+00
N    4.8208409113117350E+00    8.4020120503289668E+00    5.2179681044039654E+00
Ga    4.8536346560043189E+00    1.0278007259828611E+01    5.7637260921447959E+00
N    4.8307338167209055E+00    1.0263785658681192E+01    7.7590956493699235E+00
Ga    4.8121321379399324E+00    8.4089074462600699E+00    8.4015696376361060E+00
N    4.8112340692786439E+00    8.4080358672742168E+00    1.0393921751482516E+01
Ga    4.8369093361963884E+00    1.0267123235280687E+01    1.1027782759921100E+01
N    4.8512723500681538E+00    1.0276131174722494E+01    1.3021158547376842E+01
Ga    4.8093594092581124E+00    8.4082928823040390E+00    1.3582253501721596E+01
N    4.8381716243102586E+00    8.3911698184713757E+00    1.5541068659064608E+01
Ga    4.6434704792958339E+00    1.0155430199445735E+01    1.6459950195299736E+01
O    1.0355708210070594E-01    3.6913922442370337E+00   -5.5847587168967694E-01
H   -9.2207738442063171E-04    7.4748738982179583E+00    1.6239971735820902E+00
C    1.8859460103110265E-01    2.3960385866524225E+00   -1.1722843628147046E+00
H    1.0044888966548788E+00    1.7821762570003759E+00   -7.5531043739546244E-01
H   -7.5093928529461851E-01    1.8282049358627290E+00   -1.0747893122057484E+00
H    3.8714318021486427E-01    2.5523196193660591E+00   -2.2429890384710722E+00
Ga    3.2094499287897507E+00    5.6055738322577939E+00    2.4278679159875267E+00
O    3.7257266878069522E+00    6.0713713975010819E+00    2.1533075570051224E-01
H    3.5136764647988388E+00    5.3794056857253363E+00   -4.3394239467129103E-01
C    5.0874690179219106E+00    6.5719997545871989E+00   -1.7848747579441243E-02
H    5.0474122916685005E+00    7.3672962149372339E+00   -7.7548347991100097E-01
H    5.5479152410952235E+00    6.9625231003177728E+00    9.4891652091583445E-01
H    5.7311055869871739E+00    5.7635696425163818E+00   -4.0042743640602141E-01
     &END COORD
     &KIND C
       BASIS_SET DZVP-MOLOPT-SR-GTH-q4
       POTENTIAL GTH-PBE-q4
       &POTENTIAL
2 2
0.3384712400000000E+00 2 -0.8803673979999999E+01  0.1339210850000000E+01
2
0.3025757500000000E+00 1  0.9622486650000001E+01
0.2915069400000000E+00 0
       &END POTENTIAL
     &END KIND
     &KIND O
       BASIS_SET DZVP-MOLOPT-SR-GTH-q6
       POTENTIAL GTH-PBE-q6
       &POTENTIAL
2 4
0.2445543000000000E+00 2 -0.1666721480000000E+02  0.2487311320000000E+01
2
0.2209559200000000E+00 1  0.1833745811000000E+02
0.2113324700000000E+00 0
       &END POTENTIAL
     &END KIND
     &KIND H
       BASIS_SET DZVP-MOLOPT-SR-GTH-q1
       POTENTIAL GTH-PBE-q1
       &POTENTIAL
1
0.2000000000000000E+00 2 -0.4178900440000000E+01  0.7244633100000000E+00
0
       &END POTENTIAL
     &END KIND
     &KIND N
       BASIS_SET DZVP-MOLOPT-SR-GTH
       POTENTIAL GTH-PBE-q5
       &POTENTIAL
2 3
0.2837905100000000E+00 2 -0.1241522559000000E+02  0.1868095920000000E+01
2
0.2554050000000000E+00 1  0.1363026257000000E+02
0.2454945300000000E+00 0
       &END POTENTIAL
     &END KIND
     &KIND Ga
       BASIS_SET DZVP-MOLOPT-SR-GTH
       POTENTIAL GTH-PBE-q13
       &POTENTIAL
2 1 10
0.4900000000000000E+00 0
3
0.4167772300000000E+00 3  0.1047568975000000E+02 -0.4921768140000000E+01  0.8707055900000000E+00
0.7770178090000000E+01 -0.2248152160000000E+01
0.1784415450000000E+01
0.5696265200000000E+00 2  0.1777985340000000E+01  0.1958597600000000E+00
-0.2317443900000000E+00
0.2381265000000000E+00 1 -0.1624868022000000E+02
       &END POTENTIAL
     &END KIND
     &TOPOLOGY
       NUMBER_OF_ATOMS  212
       MULTIPLE_UNIT_CELL  1 1 1
     &END TOPOLOGY
     &COLVAR
       &DISTANCE
         ATOMS  176 211
       &END DISTANCE
       &PRINT
       &END PRINT
     &END COLVAR
   &END SUBSYS
 &END FORCE_EVAL
