 # Version information for this restart file 
 # current date 2019-07-12 09:12:04.501
 # current working dir /lustre04/scratch/rzk/rzk/GaN-carbene/443-adatoms-both-2x2/09-BondBreaking-CH/03-0501-CH-to-Nsur-PES
 # Program compiled at                              Sun Apr  7 00:48:11 EDT 2019
 # Program compiled on                          beluga2.int.ets1.calculquebec.ca
 # Program compiled for                        Beluga-Linux-x86-64-intel-openmpi
 # Source code revision number                                         svn:18619
 &GLOBAL
   PRINT_LEVEL  MEDIUM
   PROJECT_NAME TEST
   RUN_TYPE  GEO_OPT
 &END GLOBAL
 &MOTION
   &GEO_OPT
     MAX_ITER  500
     STEP_START_VAL  51
   &END GEO_OPT
   &CONSTRAINT
     &COLLECTIVE
       COLVAR  1
       INTERMOLECULAR  T
       TARGET     3.4015070391941573E+00
       &RESTRAINT
         K     2.0000000000000000E+00
       &END RESTRAINT
     &END COLLECTIVE
     &COLVAR_RESTART
           3.4015070391941573E+00
     &END COLVAR_RESTART
   &END CONSTRAINT
 &END MOTION
 &FORCE_EVAL
   METHOD  QS
   STRESS_TENSOR  ANALYTICAL
   &DFT
     BASIS_SET_FILE_NAME BASIS_MOLOPT
     POTENTIAL_FILE_NAME GTH_POTENTIALS
     UKS  T
     SURFACE_DIPOLE_CORRECTION  T
     SURF_DIP_DIR  Z
     &SCF
       MAX_SCF  80
       EPS_SCF     5.0000000000000004E-06
       &OT  T
         PRECONDITIONER  FULL_ALL
       &END OT
       &OUTER_SCF  T
         OPTIMIZER  NONE
         EPS_SCF     5.0000000000000004E-06
         MAX_SCF  4
       &END OUTER_SCF
       &PRINT
         &RESTART  OFF
           BACKUP_COPIES  1
           &EACH
             JUST_ENERGY  0
             QS_SCF  0
             MD  20
           &END EACH
         &END RESTART
       &END PRINT
     &END SCF
     &QS
       EPS_DEFAULT     1.0000000000000000E-14
       METHOD  GPW
     &END QS
     &MGRID
       NGRIDS  5
       CUTOFF     1.2000000000000000E+03
     &END MGRID
     &XC
       DENSITY_CUTOFF     1.0000000000000000E-10
       GRADIENT_CUTOFF     1.0000000000000000E-10
       TAU_CUTOFF     1.0000000000000000E-10
       &XC_FUNCTIONAL  NO_SHORTCUT
         &PBE  T
         &END PBE
       &END XC_FUNCTIONAL
       &VDW_POTENTIAL
         POTENTIAL_TYPE  PAIR_POTENTIAL
         &PAIR_POTENTIAL
           R_CUTOFF     1.0000000000000009E+01
           TYPE  DFTD3
           PARAMETER_FILE_NAME dftd3.dat
           REFERENCE_FUNCTIONAL PBE
           EPS_CN     9.9999999999999995E-07
           CALCULATE_C9_TERM  T
           REFERENCE_C9_TERM  T
           LONG_RANGE_CORRECTION  F
           VERBOSE_OUTPUT  F
         &END PAIR_POTENTIAL
       &END VDW_POTENTIAL
     &END XC
   &END DFT
   &SUBSYS
     &CELL
       A     1.2864472766435110E+01    0.0000000000000000E+00    0.0000000000000000E+00
       B    -6.4322363581020028E+00    1.1140960178524477E+01    0.0000000000000000E+00
       C     0.0000000000000000E+00    0.0000000000000000E+00    3.2000000000000000E+01
       MULTIPLE_UNIT_CELL  1 1 1
       &CELL_REF
         A     1.2982353780853531E+01    0.0000000000000000E+00    0.0000000000000000E+00
         B    -6.4911768904267628E+00    1.1243048175136114E+01    0.0000000000000000E+00
         C     0.0000000000000000E+00    0.0000000000000000E+00    3.2000000000000000E+01
         MULTIPLE_UNIT_CELL  1 1 1
       &END CELL_REF
     &END CELL
     &COORD
N    2.5689758232112034E-03    2.0462814734713075E+00    2.4611217323239987E+00
Ga    1.9274681258912883E-02    8.8963585167911863E-02    2.7981523028676314E+00
N   -7.9586379151531800E-03    5.0630777051058770E-02    4.9760487666471187E+00
Ga    4.4401701082646692E-03    1.8828711275175773E+00    5.7458265671930624E+00
N   -9.7270363920641967E-04    1.8913623098968719E+00    7.7521486630579046E+00
Ga    1.2989359077961039E-03    4.6321140634249872E-02    8.3952377793138826E+00
N   -2.5662013735992680E-03    4.5247835711396123E-02    1.0373845076513485E+01
Ga   -2.5171040616140668E-03    1.8839968244868459E+00    1.1025384441007690E+01
N   -4.2357565702350383E-03    1.8645462543761966E+00    1.3024882108900009E+01
Ga   -5.4481305565244331E-03    3.9453021210047928E-02    1.3821992419628137E+01
N   -4.9202373387084693E-03    3.8422959374288239E-02    1.6028635349551958E+01
Ga   -4.6437338016203237E-03    2.0551670382362599E+00    1.6414550014033757E+01
Ga   -1.4426918097629474E-02    3.7133006952229932E+00    1.2596026967534755E+00
N   -1.4723969137479005E+00    4.6222357136569565E+00    2.4451768581880753E+00
Ga   -1.6662173223906052E+00    2.7924687610187822E+00    3.2257517136376732E+00
N   -1.6114645220007118E+00    2.8322443726183568E+00    5.2090442163849833E+00
Ga   -1.6321782389309898E+00    4.6985271632803531E+00    5.7572959934074488E+00
N   -1.6181633995009985E+00    4.6953553617287778E+00    7.7562123854169558E+00
Ga   -1.5965520519422725E+00    2.8362458499630723E+00    8.3933508862887791E+00
N   -1.5993585912997030E+00    2.8373935308348552E+00    1.0390485412284002E+01
Ga   -1.6274408545481247E+00    4.6957208962399228E+00    1.1027003533074819E+01
N   -1.6445059977839647E+00    4.7059597721250066E+00    1.3024678442642923E+01
Ga   -1.6013779267450099E+00    2.8369012766444928E+00    1.3575872299810804E+01
N   -1.6248679578660912E+00    2.8263411490908732E+00    1.5546685071203610E+01
Ga   -1.4712806342644584E+00    4.6063629442840739E+00    1.6415505123314848E+01
N    4.5089884132598103E-03    3.7541101006260447E+00    1.7537493302969178E+01
N   -3.2312059706016920E+00    7.5757865903794794E+00    2.4521284308060527E+00
Ga   -3.1818420569608938E+00    5.6020961109081870E+00    2.8016064875193210E+00
N   -3.2143238315229516E+00    5.6075324124810830E+00    4.9788290612177128E+00
Ga   -3.2356527548246428E+00    7.4374626133897994E+00    5.7400816308831448E+00
N   -3.2225712079654349E+00    7.4629613408377846E+00    7.7422573565755872E+00
Ga   -3.2180311582288406E+00    5.6176421814199431E+00    8.3988756555810440E+00
N   -3.2191041561813223E+00    5.6167184635625986E+00    1.0375460525003074E+01
Ga   -3.2211845500421141E+00    7.4559478813163560E+00    1.1025862080911701E+01
N   -3.2207190067720259E+00    7.4370185817045673E+00    1.3020233187158814E+01
Ga   -3.2236455810262754E+00    5.6181845795472594E+00    1.3818329000758499E+01
N   -3.2237103933691555E+00    5.6179787360972666E+00    1.6028573740487300E+01
Ga   -3.2218524402529378E+00    7.6624785526739547E+00    1.6441060614966116E+01
Ga   -3.2540698352395485E+00    9.3529411242776952E+00    1.2526423762743826E+00
N   -4.7403555306041971E+00    1.0188585945652585E+01    2.4591757216923082E+00
Ga   -4.9409088882550432E+00    8.3343583206570031E+00    3.1675905439514485E+00
N   -4.8419164478136913E+00    8.3894477891434089E+00    5.1615879829651519E+00
Ga   -4.8564652132843111E+00    1.0264030902568319E+01    5.7282318435847310E+00
N   -4.8381999284888000E+00    1.0258094732283951E+01    7.7381772676917731E+00
Ga   -4.8184012287685052E+00    8.4083365242361126E+00    8.3909435266952048E+00
N   -4.8164286972526353E+00    8.4075172278890289E+00    1.0385939254648413E+01
Ga   -4.8421143832308111E+00    1.0266547892583956E+01    1.1023491739438292E+01
N   -4.8596282655019420E+00    1.0275650528870159E+01    1.3019133555379488E+01
Ga   -4.8178093628939536E+00    8.4079296530212915E+00    1.3578115251832701E+01
N   -4.8436056512698347E+00    8.3922428420685051E+00    1.5539593222005852E+01
Ga   -4.6639007928370164E+00    1.0161180710158149E+01    1.6441179010206415E+01
N   -3.2109633845196517E+00    9.3314640748635043E+00    1.7576871794006053E+01
N    3.2049615859663736E+00    1.8978359700331466E+00    2.5695287202816908E+00
Ga    3.1970862910695197E+00    1.3257567277760757E-01    3.2063603165449281E+00
N    3.2104477474698117E+00    4.1464500571008957E-02    5.1905951099577683E+00
Ga    3.2005884359771386E+00    1.9001504165034167E+00    5.8167207896485849E+00
N    3.2109751783338574E+00    1.9001856958893719E+00    7.8000751145053675E+00
Ga    3.2080431619739018E+00    3.3233926067549796E-02    8.3835190651444460E+00
N    3.2117373038046022E+00    3.1653658152626128E-02    1.0383100718673280E+01
Ga    3.2122672325008170E+00    1.8998488053244664E+00    1.0982241829407084E+01
N    3.2108929161342590E+00    1.9018082370394036E+00    1.2958016942146516E+01
Ga    3.2110493385834760E+00    3.1778052009392189E-02    1.3578699667528028E+01
N    3.2071966314945786E+00    6.4869028026066991E-02    1.5541180169342697E+01
Ga    3.2125077468217751E+00    1.9018133356006159E+00    1.5821077726241919E+01
N    1.4904716674407279E+00    4.6336389901207395E+00    2.3809259741587323E+00
Ga    1.6847378223920697E+00    2.8035342912923840E+00    3.2055345987966555E+00
N    1.6076810485956832E+00    2.8414074042301571E+00    5.1913446132926753E+00
Ga    1.6544578942964057E+00    4.7068547077077936E+00    5.7603354369107249E+00
N    1.6095323554300862E+00    4.6920555426831472E+00    7.7672684860895274E+00
Ga    1.5955881095752051E+00    2.8349932598542256E+00    8.3932917550565183E+00
N    1.5942058389013933E+00    2.8358779045634419E+00    1.0392293846312970E+01
Ga    1.6209988422125872E+00    4.6951251558842975E+00    1.1027381076487865E+01
N    1.6365574866565813E+00    4.7063879668070401E+00    1.3026476285886313E+01
Ga    1.5927388700362182E+00    2.8370327621326981E+00    1.3575160123913886E+01
N    1.6156390165907921E+00    2.8241767111207934E+00    1.5547585899095228E+01
Ga    1.4712295920672147E+00    4.6120343144848475E+00    1.6414550106660407E+01
N   -1.6368747235138204E-02    7.4691864132730865E+00    2.6500569761960149E+00
Ga    1.9674126189113472E-02    5.6023226665490871E+00    3.2579806314537278E+00
N    4.8827278779644883E-03    5.6274990155085369E+00    5.1998852443825259E+00
Ga   -1.3464005997521908E-02    7.4619925409195957E+00    5.8584301048339391E+00
N   -6.2924320643328027E-03    7.4712899931053540E+00    7.8189546322924723E+00
Ga   -2.1411462012964817E-03    5.5995390150566307E+00    8.4054460224782286E+00
N   -4.0754149014988784E-03    5.6035550609780707E+00    1.0397814716817225E+01
Ga   -5.3836282106418699E-03    7.4731022014541333E+00    1.0987876442989057E+01
N   -5.4145059488463565E-03    7.4718297022832223E+00    1.2960387250670911E+01
Ga   -4.3103449855729113E-03    5.6033151428262764E+00    1.3576034337307476E+01
N   -6.6913477150740332E-03    5.6294619969685202E+00    1.5546806858219306E+01
Ga   -3.5171579220921161E-03    7.4751078184409261E+00    1.5820553206063067E+01
N   -1.7124807481156730E+00    1.0191841685277732E+01    2.4686160188766939E+00
Ga   -1.6351484216479888E+00    8.3933380933451609E+00    3.2571961874863722E+00
N   -1.6046354436592092E+00    8.3903834817175031E+00    5.1993131328949875E+00
Ga   -1.5947218834530290E+00    1.0274747489950494E+01    5.7540402271571773E+00
N   -1.6025988792555388E+00    1.0260186516752494E+01    7.7505567523988432E+00
Ga   -1.6279120161692755E+00    8.4067870641169051E+00    8.3964659827788104E+00
N   -1.6241009727915598E+00    8.4071555456992808E+00    1.0389468649886199E+01
Ga   -1.5996782552911915E+00    1.0266820076521450E+01    1.1027357548828459E+01
N   -1.5808458050035123E+00    1.0276349755961112E+01    1.3022924682460065E+01
Ga   -1.6245446144649800E+00    8.4080704449137098E+00    1.3579685080923390E+01
N   -1.5983838237341841E+00    8.3880111965167359E+00    1.5542549578657059E+01
Ga   -1.7676892446016383E+00    1.0168395959867395E+01    1.6439896400271095E+01
N    6.4367488789852789E+00    2.0160924240657314E+00    2.5155954289010234E+00
Ga    6.4050368183764803E+00    4.2342854925490107E-02    2.8436385637520227E+00
N    6.4309336655544289E+00    4.3820561440824836E-02    4.9907208968305303E+00
Ga    6.4257924287280952E+00    1.8762000116455964E+00    5.7675024449490131E+00
N    6.4291266663775479E+00    1.8889858524778260E+00    7.7624960982317335E+00
Ga    6.4248713608794450E+00    4.4543076727277246E-02    8.4068049581149271E+00
N    6.4271041939597575E+00    4.4120887297291612E-02    1.0380043261855288E+01
Ga    6.4277411337337815E+00    1.8845603579982739E+00    1.1028856896883388E+01
N    6.4284697641165502E+00    1.8651324237327331E+00    1.3024422768313755E+01
Ga    6.4302616202512199E+00    4.4005162560922038E-02    1.3830245490254296E+01
N    6.4303463141984150E+00    4.3516434273394557E-02    1.6027965109509843E+01
Ga    6.4277347897746173E+00    2.0796932648105719E+00    1.6438177677866392E+01
Ga    6.4554577348979603E+00    3.7245675694680602E+00    1.5046192216443386E+00
N    4.9409091998498411E+00    4.5998420008172554E+00    2.4804987964702767E+00
Ga    4.7017549547603750E+00    2.7656533271110120E+00    3.2647358368615409E+00
N    4.8206871815519490E+00    2.8294027846611338E+00    5.2198335515483887E+00
Ga    4.7795082595678613E+00    4.7090999033895251E+00    5.7635370124660135E+00
N    4.8170474447160387E+00    4.6898705590502123E+00    7.7690399114841222E+00
Ga    4.8271170663280625E+00    2.8335597351653297E+00    8.3953608769712478E+00
N    4.8307601569859573E+00    2.8346157353256092E+00    1.0392057161062386E+01
Ga    4.8056728183410797E+00    4.6951705076705013E+00    1.1025330044240524E+01
N    4.7891860064174221E+00    4.7057585371425841E+00    1.3021261496211141E+01
Ga    4.8310796175540478E+00    2.8376479138055126E+00    1.3577770747187108E+01
N    4.8007840091443441E+00    2.8246871540502378E+00    1.5540960064832561E+01
Ga    4.9853141309727098E+00    4.5934441259720158E+00    1.6439616619354872E+01
N    6.4311261459383893E+00    3.7490845087474685E+00    1.7574368834892631E+01
N    3.1950466343776096E+00    7.6207527553748502E+00    2.4952653649895522E+00
N    3.2181054350141074E+00    5.6208762574547828E+00    5.0361734340929276E+00
Ga    3.2180798532574886E+00    7.4174546136839421E+00    5.7749134111377733E+00
N    3.2112514010535285E+00    7.4696628066052195E+00    7.7724688008901106E+00
Ga    3.2131702428772360E+00    5.6144307432424316E+00    8.4016625347950900E+00
N    3.2124759236736140E+00    5.6163082440717087E+00    1.0380249436817397E+01
Ga    3.2132846712220693E+00    7.4554898446477651E+00    1.1028757872010711E+01
N    3.2123797228653732E+00    7.4380155318912200E+00    1.3022058659295485E+01
Ga    3.2167621680416691E+00    5.6208243079987517E+00    1.3822332976490635E+01
N    3.2177413552215093E+00    5.6206097545498537E+00    1.6029143362745629E+01
Ga    3.2131637657146443E+00    7.6787780407889921E+00    1.6460781900498684E+01
Ga    3.2282266865429947E+00    9.3638733737460420E+00    1.4854388516185590E+00
N    1.7042359384798711E+00    1.0193535430611488E+01    2.4979367029189374E+00
Ga    1.5636393509530047E+00    8.3779314571423473E+00    3.3126700025033990E+00
N    1.5902894704961104E+00    8.3954154259843445E+00    5.2305628326938898E+00
Ga    1.5769442376553273E+00    1.0279099842725254E+01    5.7782073051343552E+00
N    1.5942674881970607E+00    1.0262498816147572E+01    7.7656688229589212E+00
Ga    1.6139903587134341E+00    8.4069756126306494E+00    8.4080849605525465E+00
N    1.6133246293560020E+00    8.4080749767125393E+00    1.0397593758909803E+01
Ga    1.5887672765111114E+00    1.0267562531426242E+01    1.1032117278084183E+01
N    1.5727381442780501E+00    1.0276643095848238E+01    1.3024198495474339E+01
Ga    1.6155611438952331E+00    8.4082628326012934E+00    1.3583284123852504E+01
N    1.5859631006723831E+00    8.3893018304906732E+00    1.5541351294310468E+01
Ga    1.7810406504454706E+00    1.0156042950052544E+01    1.6460617788720374E+01
N    3.2138091126762593E+00    9.3292254330211168E+00    1.7608612482910644E+01
N    9.6618527564481234E+00    1.9110809394318251E+00    2.5808019561080653E+00
Ga    9.6565868018697927E+00    1.7874706678158672E-01    3.2666046409242249E+00
N    9.6429477558600762E+00    4.3784953592243575E-02    5.2220739291655311E+00
Ga    9.6576193056594057E+00    1.9077657181074865E+00    5.8422006045145807E+00
N    9.6468333194006188E+00    1.9018213740332839E+00    7.8152956526035826E+00
Ga    9.6472658792268930E+00    3.4715100158238400E-02    8.4012734060232646E+00
N    9.6443573547326444E+00    3.2354046169592782E-02    1.0393278919548541E+01
Ga    9.6459900007847228E+00    1.9026313760809836E+00    1.0983978219894709E+01
N    9.6457631158848720E+00    1.9036539449930867E+00    1.2957873120803608E+01
Ga    9.6447507910132639E+00    3.2644262900257064E-02    1.3582763983161385E+01
N    9.6458951729585589E+00    6.7334411106391823E-02    1.5540870702606066E+01
Ga    9.6430136714185011E+00    1.9008084116986850E+00    1.5821072276393277E+01
N    7.9355715802377427E+00    4.6215095618885789E+00    2.4997074405600026E+00
Ga    8.1579548336072811E+00    2.7700178778289688E+00    3.2754266354058807E+00
N    8.0406631422082793E+00    2.8273169957693010E+00    5.2287261938135936E+00
Ga    8.0660041134964331E+00    4.7032466102076036E+00    5.7618782498738161E+00
N    8.0473443475965141E+00    4.6932550527724333E+00    7.7586192582219384E+00
Ga    8.0276780565621841E+00    2.8359223770425301E+00    8.3980671647979097E+00
N    8.0257545579348708E+00    2.8362871673939787E+00    1.0392299442084580E+01
Ga    8.0518129178774061E+00    4.6960521238848214E+00    1.1026004668977153E+01
N    8.0679376863386487E+00    4.7057288326832856E+00    1.3020896033337676E+01
Ga    8.0253700870603737E+00    2.8375027587418362E+00    1.3578624231565048E+01
N    8.0546602544082955E+00    2.8248633840138657E+00    1.5542285111453511E+01
Ga    7.8717810470540659E+00    4.5938972289410298E+00    1.6439602766238050E+01
N    6.3747243367571276E+00    7.4427939953156628E+00    2.4769962198117468E+00
Ga    6.4241981567628326E+00    5.7235448129714674E+00    3.2644253151621334E+00
N    6.4299698032833277E+00    5.6183572316975123E+00    5.2130953545035421E+00
Ga    6.4334715240429627E+00    7.4737130905268065E+00    5.8385033412869243E+00
N    6.4282767029351966E+00    7.4718616736649244E+00    7.8093285214651988E+00
Ga    6.4293259258413782E+00    5.6027374825203626E+00    8.4002266785484032E+00
N    6.4298425946263089E+00    5.6039256165198212E+00    1.0393371874200591E+01
Ga    6.4300683856592924E+00    7.4731340429174997E+00    1.0984820325027719E+01
N    6.4293213539426990E+00    7.4727603693884195E+00    1.2956912397615298E+01
Ga    6.4281944093778467E+00    5.6035465672694906E+00    1.3577369179343577E+01
N    6.4283291018418147E+00    5.6335065633246622E+00    1.5539585282643495E+01
Ga    6.4271808268711057E+00    7.4732813926746591E+00    1.5817615560301800E+01
N    4.7195563983908349E+00    1.0201340546932515E+01    2.4940334423526069E+00
Ga    4.9207558085291323E+00    8.3452423996545448E+00    3.2730561542645411E+00
N    4.8206386518426712E+00    8.4018745755468291E+00    5.2181235968981294E+00
Ga    4.8536429161551720E+00    1.0277916518500312E+01    5.7639174531024375E+00
N    4.8306425788201350E+00    1.0263802706879167E+01    7.7592059143846672E+00
Ga    4.8119963762884446E+00    8.4088389273407742E+00    8.4015607909484107E+00
N    4.8111573641393370E+00    8.4079446687381569E+00    1.0393762317451756E+01
Ga    4.8367989541582279E+00    1.0267090097924134E+01    1.1027524611406564E+01
N    4.8513415587879631E+00    1.0276161445749343E+01    1.3020825150771222E+01
Ga    4.8094204072856241E+00    8.4081752011716020E+00    1.3581940149032171E+01
N    4.8384417228567429E+00    8.3910332902655806E+00    1.5540461418588603E+01
Ga    4.6427912149724966E+00    1.0154756432812803E+01    1.6460635431160966E+01
O    1.0341754620107786E-01    3.6916923833005817E+00   -5.5844123489682040E-01
H   -6.9948413633734994E-04    7.4746635657249154E+00    1.6237281489366078E+00
C    1.8943236132710201E-01    2.3966164599290396E+00   -1.1726926760168723E+00
H    1.0050885782571126E+00    1.7829859721300618E+00   -7.5489350839326008E-01
H   -7.4989024327248677E-01    1.8282581749678990E+00   -1.0762342726886918E+00
H    3.8890155241450536E-01    2.5529079839438045E+00   -2.2432005579988945E+00
Ga    3.2093622461115747E+00    5.6055796406651632E+00    2.4276295145613727E+00
O    3.7265476120355152E+00    6.0707213857542222E+00    2.1506744707814610E-01
H    3.5146335006085354E+00    5.3787859159915365E+00   -4.3435049755455873E-01
C    5.0877314444268285E+00    6.5725607920396554E+00   -1.8216663261481809E-02
H    5.0476687918281744E+00    7.3677259373468837E+00   -7.7599510947383177E-01
H    5.5483029489553202E+00    6.9625377390275904E+00    9.4863796797244271E-01
H    5.7315842542840363E+00    5.7643796328395736E+00   -4.0110260601449216E-01
     &END COORD
     &KIND C
       BASIS_SET DZVP-MOLOPT-SR-GTH-q4
       POTENTIAL GTH-PBE-q4
       &POTENTIAL
2 2
0.3384712400000000E+00 2 -0.8803673979999999E+01  0.1339210850000000E+01
2
0.3025757500000000E+00 1  0.9622486650000001E+01
0.2915069400000000E+00 0
       &END POTENTIAL
     &END KIND
     &KIND O
       BASIS_SET DZVP-MOLOPT-SR-GTH-q6
       POTENTIAL GTH-PBE-q6
       &POTENTIAL
2 4
0.2445543000000000E+00 2 -0.1666721480000000E+02  0.2487311320000000E+01
2
0.2209559200000000E+00 1  0.1833745811000000E+02
0.2113324700000000E+00 0
       &END POTENTIAL
     &END KIND
     &KIND H
       BASIS_SET DZVP-MOLOPT-SR-GTH-q1
       POTENTIAL GTH-PBE-q1
       &POTENTIAL
1
0.2000000000000000E+00 2 -0.4178900440000000E+01  0.7244633100000000E+00
0
       &END POTENTIAL
     &END KIND
     &KIND N
       BASIS_SET DZVP-MOLOPT-SR-GTH
       POTENTIAL GTH-PBE-q5
       &POTENTIAL
2 3
0.2837905100000000E+00 2 -0.1241522559000000E+02  0.1868095920000000E+01
2
0.2554050000000000E+00 1  0.1363026257000000E+02
0.2454945300000000E+00 0
       &END POTENTIAL
     &END KIND
     &KIND Ga
       BASIS_SET DZVP-MOLOPT-SR-GTH
       POTENTIAL GTH-PBE-q13
       &POTENTIAL
2 1 10
0.4900000000000000E+00 0
3
0.4167772300000000E+00 3  0.1047568975000000E+02 -0.4921768140000000E+01  0.8707055900000000E+00
0.7770178090000000E+01 -0.2248152160000000E+01
0.1784415450000000E+01
0.5696265200000000E+00 2  0.1777985340000000E+01  0.1958597600000000E+00
-0.2317443900000000E+00
0.2381265000000000E+00 1 -0.1624868022000000E+02
       &END POTENTIAL
     &END KIND
     &TOPOLOGY
       NUMBER_OF_ATOMS  212
       MULTIPLE_UNIT_CELL  1 1 1
     &END TOPOLOGY
     &COLVAR
       &DISTANCE
         ATOMS  176 211
       &END DISTANCE
       &PRINT
       &END PRINT
     &END COLVAR
   &END SUBSYS
 &END FORCE_EVAL
