 # Version information for this restart file 
 # current date 2019-05-28 03:25:04.194
 # current working dir /lustre03/project/6004141/rzk/GaN-carbene/334-native/08-2Methanol-Htransfer/03-CO-constraint/1.44
 # Program compiled at                              Sun Apr  7 00:48:11 EDT 2019
 # Program compiled on                          beluga2.int.ets1.calculquebec.ca
 # Program compiled for                        Beluga-Linux-x86-64-intel-openmpi
 # Source code revision number                                         svn:18619
 &GLOBAL
   PRINT_LEVEL  MEDIUM
   PROJECT_NAME TEST
   RUN_TYPE  GEO_OPT
 &END GLOBAL
 &MOTION
   &GEO_OPT
     MAX_ITER  500
     STEP_START_VAL  251
   &END GEO_OPT
   &CONSTRAINT
     &COLLECTIVE
       COLVAR  1
       INTERMOLECULAR  T
       TARGET     2.7212056313553257E+00
       &RESTRAINT
         K     1.0000000000000001E-01
       &END RESTRAINT
     &END COLLECTIVE
     &COLVAR_RESTART
           2.7212056313553257E+00
     &END COLVAR_RESTART
   &END CONSTRAINT
 &END MOTION
 &FORCE_EVAL
   METHOD  QS
   STRESS_TENSOR  ANALYTICAL
   &DFT
     BASIS_SET_FILE_NAME BASIS_MOLOPT
     POTENTIAL_FILE_NAME GTH_POTENTIALS
     &SCF
       MAX_SCF  100
       EPS_SCF     5.0000000000000004E-06
       &OT  T
         PRECONDITIONER  FULL_ALL
       &END OT
       &OUTER_SCF  T
         OPTIMIZER  NONE
         EPS_SCF     5.0000000000000004E-06
         MAX_SCF  4
       &END OUTER_SCF
       &PRINT
         &RESTART  OFF
           BACKUP_COPIES  1
           &EACH
             JUST_ENERGY  0
             QS_SCF  0
             MD  20
           &END EACH
         &END RESTART
       &END PRINT
     &END SCF
     &QS
       EPS_DEFAULT     1.0000000000000000E-14
       ALMO_SCF  F
       METHOD  GPW
     &END QS
     &MGRID
       NGRIDS  5
       CUTOFF     1.2000000000000000E+03
     &END MGRID
     &XC
       DENSITY_CUTOFF     1.0000000000000000E-10
       GRADIENT_CUTOFF     1.0000000000000000E-10
       TAU_CUTOFF     1.0000000000000000E-10
       &XC_FUNCTIONAL  NO_SHORTCUT
         &PBE  T
         &END PBE
       &END XC_FUNCTIONAL
       &VDW_POTENTIAL
         POTENTIAL_TYPE  PAIR_POTENTIAL
         &PAIR_POTENTIAL
           R_CUTOFF     1.0000000000000005E+01
           TYPE  DFTD3
           PARAMETER_FILE_NAME dftd3.dat
           REFERENCE_FUNCTIONAL PBE
           EPS_CN     9.9999999999999995E-07
           CALCULATE_C9_TERM  T
           REFERENCE_C9_TERM  T
           LONG_RANGE_CORRECTION  F
           VERBOSE_OUTPUT  F
         &END PAIR_POTENTIAL
       &END VDW_POTENTIAL
     &END XC
   &END DFT
   &SUBSYS
     &CELL
       A     9.7367653356401487E+00    0.0000000000000000E+00    0.0000000000000000E+00
       B    -4.8591341382960209E+00    8.4162672083210595E+00    0.0000000000000000E+00
       C     0.0000000000000000E+00    0.0000000000000000E+00    3.0744000000000000E+01
       MULTIPLE_UNIT_CELL  1 1 1
       &CELL_REF
         A     9.5580000000000052E+00    0.0000000000000000E+00    0.0000000000000000E+00
         B    -4.7790000000000026E+00    8.2774708093716640E+00    0.0000000000000000E+00
         C     0.0000000000000000E+00    0.0000000000000000E+00    3.0744000000000000E+01
         MULTIPLE_UNIT_CELL  1 1 1
       &END CELL_REF
     &END CELL
     &COORD
Ga    5.5169287420612195E-02   -1.3279818399164206E-01   -6.4166250116656076E-01
N    5.8925079465230651E-02    1.7429817648416688E+00    5.1422945760060046E-01
Ga    5.8316439279699747E-02    1.7098640734548931E+00    2.5419431815091094E+00
N    5.5320603330057373E-02   -1.3415804578001700E-01    3.1756591464387882E+00
Ga    5.5420096435979373E-02   -1.3389077023485074E-01    5.1633197140703961E+00
N    5.8542581154948106E-02    1.7398568939534982E+00    5.7564935489950253E+00
Ga    5.8087582427396825E-02    1.7372188011480418E+00    7.7525845996497189E+00
N    5.6129125297803492E-02   -1.3608613677220296E-01    8.3594194150115495E+00
Ga    5.7233417626662855E-02   -1.3575735761614771E-01    1.0354431813363574E+01
N    5.7412236236735678E-02    1.7341675770687213E+00    1.0965523826745159E+01
Ga    5.3794625262275887E-02    1.7344002498936177E+00    1.2965458075528472E+01
N    5.6091512239379679E-02   -1.3475972567076544E-01    1.3587297032675473E+01
Ga    8.7889496733143530E-02   -1.1245337853740947E-01    1.5611122186713622E+01
N    7.4586825944385274E-02    1.7557675780865274E+00    1.6182484785499295E+01
Ga    3.9630902824123952E-02    1.7881896043810253E+00    1.8346771850231583E+01
N    8.5387755869507073E-02   -8.4415703004600398E-02    1.8795795823462282E+01
Ga   -1.5635287186954254E+00    2.6721421483102774E+00    2.2803756102579764E-01
N   -1.5658958904022602E+00    4.5415258659453910E+00    5.1377163473725107E-01
Ga   -1.5370032772326132E+00    4.5569668330524999E+00    2.5415798367154565E+00
N   -1.5640741290048628E+00    2.6715315736101393E+00    3.1375303138094810E+00
Ga   -1.5639881558467794E+00    2.6713279114075443E+00    5.1455329677565853E+00
N   -1.5636154823309432E+00    4.5417597070592848E+00    5.7562347490070902E+00
Ga   -1.5633790797298577E+00    4.5404261692914725E+00    7.7518992635107429E+00
N   -1.5636047325313438E+00    2.6705137483599093E+00    8.3604773499671747E+00
Ga   -1.5620204925101335E+00    2.6698474293638967E+00    1.0353485962700194E+01
N   -1.5663179128619396E+00    4.5446256777483018E+00    1.0961494036783099E+01
Ga   -1.5653226977374459E+00    4.5350104344379192E+00    1.2951830234129639E+01
N   -1.5570425209959746E+00    2.6818252632691713E+00    1.3570063075790396E+01
Ga   -1.5266725376815247E+00    2.6978085869197499E+00    1.5589282440594300E+01
N   -1.5585327607812478E+00    4.5813138345534190E+00    1.6213229382895079E+01
Ga   -1.5721154238462944E+00    4.6055409619874386E+00    1.8297886435664697E+01
N   -1.5716766444795316E+00    2.7675439077027639E+00    1.8707389863186329E+01
Ga   -3.1840869918360148E+00    5.4780455386023812E+00    2.2848183145422429E-01
N   -3.1762841024473834E+00    7.3475589585459424E+00    5.1396739051887275E-01
Ga   -3.2050034239904681E+00    7.3625263892260771E+00    2.5418697143010802E+00
N   -3.1837737956659540E+00    5.4768022517611676E+00    3.1366333752607014E+00
Ga   -3.1836562475406929E+00    5.4766699601116011E+00    5.1442320418245719E+00
N   -3.1789165292158263E+00    7.3468597066770940E+00    5.7548644675216352E+00
Ga   -3.1809612474954405E+00    7.3456130030283910E+00    7.7497826570780681E+00
N   -3.1855495008365926E+00    5.4751806379393475E+00    8.3587551421961290E+00
Ga   -3.1853909099526341E+00    5.4774315899402266E+00    1.0349006663384605E+01
N   -3.1833859019882880E+00    7.3421225410973987E+00    1.0973161332217460E+01
Ga   -3.1890690389764198E+00    7.3508996223749454E+00    1.2970846617085497E+01
N   -3.2002503559662419E+00    5.4634908983398276E+00    1.3598864918328964E+01
Ga   -3.0841511198457705E+00    5.5545218144011130E+00    1.5573411937324812E+01
N   -3.1873441382480570E+00    7.3411548677159502E+00    1.6232929485025529E+01
Ga   -3.1225547825997704E+00    7.4672753213701446E+00    1.8379235758230362E+01
N   -2.8797906225977874E+00    5.7097878780097870E+00    1.9115655666543237E+01
Ga    3.3018698520420435E+00   -1.3343878655474736E-01    2.2824737408717657E-01
N    3.2989945280016340E+00    1.7358942166884912E+00    5.1431406214224307E-01
Ga    3.3280273596048575E+00    1.7513787837162502E+00    2.5419397659962848E+00
N    3.3012582238693611E+00   -1.3388394321981323E-01    3.1377028377526903E+00
Ga    3.3017673987644831E+00   -1.3385194197372094E-01    5.1456765610065798E+00
N    3.3017194270255161E+00    1.7359452650168827E+00    5.7582203216838170E+00
Ga    3.3020006539371805E+00    1.7343620068125944E+00    7.7550251638547367E+00
N    3.2990600465909212E+00   -1.3805519994954527E-01    8.3605796205674743E+00
Ga    3.2984560806876742E+00   -1.4099762359752430E-01    1.0353782825652020E+01
N    3.3015182022347025E+00    1.7315360735498257E+00    1.0953108185929588E+01
Ga    3.2926487334772481E+00    1.7189610253785095E+00    1.2941336410441609E+01
N    3.2959195655675719E+00   -1.4207779659745970E-01    1.3577987147709278E+01
Ga    3.2991812109234773E+00   -1.5617613606664937E-01    1.5603734405541141E+01
N    3.3008743023898264E+00    1.7474146915661217E+00    1.6121870273411051E+01
Ga    3.1090957735170264E+00    1.7003784300012568E+00    1.8112023553419121E+01
N    3.3785311038721604E+00   -1.9669709293804637E-02    1.8693618090026877E+01
Ga    1.6810995037717427E+00    2.6728827862579965E+00    2.2854025734475578E-01
N    1.6890289593312300E+00    4.5422130647224090E+00    5.1472504726466328E-01
Ga    1.6602137952003082E+00    4.5572909575850300E+00    2.5422402255429111E+00
N    1.6815594478621125E+00    2.6714567822244750E+00    3.1376312293151334E+00
Ga    1.6817766834522254E+00    2.6714199448790787E+00    5.1456884972246870E+00
N    1.6864667314288198E+00    4.5416071659868749E+00    5.7564989254395655E+00
Ga    1.6840680523419467E+00    4.5400575246596597E+00    7.7523095326469171E+00
N    1.6802974076953254E+00    2.6699813495618927E+00    8.3609006399621286E+00
Ga    1.6785386720334465E+00    2.6685576703462428E+00    1.0353916120915686E+01
N    1.6857770319249188E+00    4.5447491306428516E+00    1.0956233051045418E+01
Ga    1.6800273737545659E+00    4.5405146226908109E+00    1.2942150862906157E+01
N    1.6837141703318030E+00    2.6753525515871530E+00    1.3541415037593266E+01
Ga    1.6656838525831605E+00    2.6585954845334703E+00    1.5527607547962686E+01
N    1.6753015210285207E+00    4.5635360372154592E+00    1.6130768295448615E+01
Ga    1.4548598353528805E+00    4.3925751393577590E+00    1.8054576694618586E+01
N    1.7002376565903072E+00    2.7280423669931788E+00    1.8783872420755699E+01
Ga    6.3012130443054148E-02    5.4794962835578636E+00   -6.4194147589536343E-01
N    6.5153304223509109E-02    7.3540163732583874E+00    5.1500851098943234E-01
Ga    6.4795314593854500E-02    7.3207338743231354E+00    2.5423134374958023E+00
N    6.1602169912963495E-02    5.4768941114321565E+00    3.1764972193115768E+00
Ga    6.1958000580450361E-02    5.4772260431206403E+00    5.1645209650369175E+00
N    6.4865566325620280E-02    7.3511077169226615E+00    5.7572791523003861E+00
Ga    6.4172617185261391E-02    7.3481205960615243E+00    7.7534748171111136E+00
N    6.0476977895272538E-02    5.4748498475804412E+00    8.3589263681328134E+00
Ga    5.9406432664837902E-02    5.4791159272610930E+00    1.0353321551025521E+01
N    6.4006302283706365E-02    7.3487959383890260E+00    1.0961839954038657E+01
Ga    6.1842142335716568E-02    7.3535936067107528E+00    1.2957037681829707E+01
N    5.7877461973767384E-02    5.4744563282067125E+00    1.3547942862352759E+01
Ga    3.8623078059735111E-02    5.5184230493598889E+00    1.5533648750469608E+01
N    7.9684051612631673E-02    7.3523203347229513E+00    1.6146949073010020E+01
Ga    1.0035427237906767E-01    7.5014285410267103E+00    1.8202444205029948E+01
N    1.5657876731222087E-01    5.5832026168987401E+00    1.8742422605928461E+01
Ga    6.5464046551915827E+00   -1.3291231408092030E-01    2.2796825571564847E-01
N    6.5545348316955874E+00    1.7363747086607659E+00    5.1443798642375993E-01
Ga    6.5256366144815017E+00    1.7512457697550412E+00    2.5420940949801523E+00
N    6.5468207632510120E+00   -1.3391642796930420E-01    3.1379612765856453E+00
Ga    6.5469665870126343E+00   -1.3408093098909024E-01    5.1458937549720369E+00
N    6.5522229090641000E+00    1.7358883485321410E+00    5.7577169101216805E+00
Ga    6.5514313804568918E+00    1.7346920250741842E+00    7.7542300612831205E+00
N    6.5472203485741769E+00   -1.3677270569009703E-01    8.3619493280038437E+00
Ga    6.5483729608127437E+00   -1.3733407068678133E-01    1.0356000525148945E+01
N    6.5543636221454378E+00    1.7348448124801961E+00    1.0959555630409801E+01
Ga    6.5731402935091054E+00    1.7308438979666929E+00    1.2952681991684742E+01
N    6.5555129238951366E+00   -1.4277163515673535E-01    1.3555944660478973E+01
Ga    6.5528756772907153E+00   -1.4471513905287967E-01    1.5560410992636292E+01
N    6.5753814185921584E+00    1.7381296406347806E+00    1.6090515838100718E+01
Ga    6.6589076708381532E+00    1.8273480314408874E+00    1.8100134009150796E+01
N    6.5358415618081569E+00    2.0030009441204873E-02    1.8689630566464533E+01
Ga    4.9273875269042016E+00    2.6725914005458900E+00   -6.4159206218370135E-01
N    4.9301532823460432E+00    4.5482458863296040E+00    5.1452664679486437E-01
Ga    4.9296593620445393E+00    4.5149570780382877E+00    2.5421354925256763E+00
N    4.9270689705110247E+00    2.6709918621973370E+00    3.1765646881129204E+00
Ga    4.9271324330132558E+00    2.6704551191958181E+00    5.1646806122499456E+00
N    4.9300389791024140E+00    4.5450862917720460E+00    5.7553055692204547E+00
Ga    4.9297203571609778E+00    4.5410555561347552E+00    7.7502893243079454E+00
N    4.9271926057967761E+00    2.6692744151989061E+00    8.3598696359762190E+00
Ga    4.9284529063702056E+00    2.6650736778557182E+00    1.0354174471067992E+01
N    4.9287087649088210E+00    4.5416069123455136E+00    1.0960530580253598E+01
Ga    4.9281886642071564E+00    4.5348550975719588E+00    1.2942159178373881E+01
N    4.9261828474659444E+00    2.6597346436571061E+00    1.3521935445214488E+01
Ga    4.9438616355796459E+00    2.5417993315055485E+00    1.5475353560819586E+01
N    4.8340287845770655E+00    4.4087401272235143E+00    1.6213527875524122E+01
Ga    5.3043130427028062E+00    4.9166361358925759E+00    1.9603785601511269E+01
N    4.9914150762166853E+00    3.3527017257026688E+00    1.8300575041678481E+01
Ga    3.3077452789775075E+00    5.4776678703543666E+00    2.2846062781642579E-01
N    3.3051187695299937E+00    7.3468830489444636E+00    5.1434305935628954E-01
Ga    3.3336640379963760E+00    7.3622438807568988E+00    2.5419524298837932E+00
N    3.3073603515592782E+00    5.4769216277944590E+00    3.1375735146365442E+00
Ga    3.3071205903842631E+00    5.4769476096062473E+00    5.1454182190082065E+00
N    3.3081425169587977E+00    7.3471121152728518E+00    5.7563094296014894E+00
Ga    3.3091458620500207E+00    7.3465738180757540E+00    7.7518131584627854E+00
N    3.3076126087076037E+00    5.4746509181356338E+00    8.3569291758317839E+00
Ga    3.3073125942531370E+00    5.4771628030422130E+00    1.0346074188316276E+01
N    3.3138727826939869E+00    7.3436329040559203E+00    1.0963257659546462E+01
Ga    3.3219895594629185E+00    7.3546691019026733E+00    1.2955024168186267E+01
N    3.3128886401896431E+00    5.4714313287394107E+00    1.3574156510188331E+01
Ga    3.2517228094745434E+00    5.5354753685865727E+00    1.5537687118339980E+01
N    3.3274542554151076E+00    7.3403694420545538E+00    1.6200697409051379E+01
Ga    3.3289277288308101E+00    7.7608808141782371E+00    1.8164967644270192E+01
N    4.7035187538676624E+00    4.3846510952666682E+00    1.7551106480301996E+01
O    1.1183365210419540E+00    4.7136289434699332E+00    2.1400992437650189E+01
H    2.5490276626410308E-01    5.4955510809734456E+00    1.9772900405138326E+01
C    5.6750300365115780E-01    3.4742702855745646E+00    2.1886073002507551E+01
H    8.4912868265886998E-01    2.6318738363413132E+00    2.1237943809925596E+01
H    8.9517086163201742E-01    3.2721090126430763E+00    2.2917152303337421E+01
H   -5.2482354012028554E-01    3.5736305337654741E+00    2.1871053953685717E+01
O    3.7882392605852742E+00    5.2817097624189095E+00    2.0539610762039040E+01
H    2.0422391722036735E+00    4.5500483569117467E+00    2.1113084104854497E+01
C    3.8471830839677787E+00    6.4020934783736125E+00    2.1475402220275967E+01
H    4.3411765677752010E+00    6.0931310170859998E+00    2.2406724886465121E+01
H    4.3677608195352038E+00    7.2684289684111496E+00    2.1039397320583713E+01
H    2.8086655767028881E+00    6.6837376483367015E+00    2.1694496814195297E+01
     &END COORD
     &KIND C
       BASIS_SET DZVP-MOLOPT-SR-GTH-q4
       POTENTIAL GTH-PBE-q4
       &POTENTIAL
 2 2
  0.3384712400000000E+00 2 -0.8803673979999999E+01  0.1339210850000000E+01
 2
  0.3025757500000000E+00 1  0.9622486650000001E+01
  0.2915069400000000E+00 0
         # Potential name:  GTH-PBE-Q4  for symbol:  C
         # Potential read from the potential filename: GTH_POTENTIALS
       &END POTENTIAL
     &END KIND
     &KIND O
       BASIS_SET DZVP-MOLOPT-SR-GTH-q6
       POTENTIAL GTH-PBE-q6
       &POTENTIAL
 2 4
  0.2445543000000000E+00 2 -0.1666721480000000E+02  0.2487311320000000E+01
 2
  0.2209559200000000E+00 1  0.1833745811000000E+02
  0.2113324700000000E+00 0
         # Potential name:  GTH-PBE-Q6  for symbol:  O
         # Potential read from the potential filename: GTH_POTENTIALS
       &END POTENTIAL
     &END KIND
     &KIND H
       BASIS_SET DZVP-MOLOPT-SR-GTH-q1
       POTENTIAL GTH-PBE-q1
       &POTENTIAL
 1
  0.2000000000000000E+00 2 -0.4178900440000000E+01  0.7244633100000000E+00
 0
         # Potential name:  GTH-PBE-Q1  for symbol:  H
         # Potential read from the potential filename: GTH_POTENTIALS
       &END POTENTIAL
     &END KIND
     &KIND N
       BASIS_SET DZVP-MOLOPT-SR-GTH-q5
       POTENTIAL GTH-PBE-q5
       &POTENTIAL
 2 3
  0.2837905100000000E+00 2 -0.1241522559000000E+02  0.1868095920000000E+01
 2
  0.2554050000000000E+00 1  0.1363026257000000E+02
  0.2454945300000000E+00 0
         # Potential name:  GTH-PBE-Q5  for symbol:  N
         # Potential read from the potential filename: GTH_POTENTIALS
       &END POTENTIAL
     &END KIND
     &KIND Ga
       BASIS_SET DZVP-MOLOPT-SR-GTH-q13
       POTENTIAL GTH-PBE-q13
       &POTENTIAL
 2 1 10
  0.4900000000000000E+00 0
 3
  0.4167772300000000E+00 3  0.1047568975000000E+02 -0.4921768140000000E+01  0.8707055900000000E+00
  0.7770178090000000E+01 -0.2248152160000000E+01
  0.1784415450000000E+01
  0.5696265200000000E+00 2  0.1777985340000000E+01  0.1958597600000000E+00
 -0.2317443900000000E+00
  0.2381265000000000E+00 1 -0.1624868022000000E+02
         # Potential name:  GTH-PBE-Q13  for symbol:  GA
         # Potential read from the potential filename: GTH_POTENTIALS
       &END POTENTIAL
     &END KIND
     &TOPOLOGY
       COORD_FILE_NAME ../start-first.xyz
       COORD_FILE_FORMAT  XYZ
       NUMBER_OF_ATOMS  156
       MULTIPLE_UNIT_CELL  1 1 1
     &END TOPOLOGY
     &COLVAR
       &DISTANCE
         ATOMS  145 147
       &END DISTANCE
       &PRINT
       &END PRINT
     &END COLVAR
   &END SUBSYS
 &END FORCE_EVAL
