 # Version information for this restart file 
 # current date 2019-05-28 03:25:54.596
 # current working dir /lustre03/project/6004141/rzk/GaN-carbene/334-native/08-2Methanol-Htransfer/03-CO-constraint/1.44
 # Program compiled at                              Sun Apr  7 00:48:11 EDT 2019
 # Program compiled on                          beluga2.int.ets1.calculquebec.ca
 # Program compiled for                        Beluga-Linux-x86-64-intel-openmpi
 # Source code revision number                                         svn:18619
 &GLOBAL
   PRINT_LEVEL  MEDIUM
   PROJECT_NAME TEST
   RUN_TYPE  GEO_OPT
 &END GLOBAL
 &MOTION
   &GEO_OPT
     MAX_ITER  500
     STEP_START_VAL  252
   &END GEO_OPT
   &CONSTRAINT
     &COLLECTIVE
       COLVAR  1
       INTERMOLECULAR  T
       TARGET     2.7212056313553257E+00
       &RESTRAINT
         K     1.0000000000000001E-01
       &END RESTRAINT
     &END COLLECTIVE
     &COLVAR_RESTART
           2.7212056313553257E+00
     &END COLVAR_RESTART
   &END CONSTRAINT
 &END MOTION
 &FORCE_EVAL
   METHOD  QS
   STRESS_TENSOR  ANALYTICAL
   &DFT
     BASIS_SET_FILE_NAME BASIS_MOLOPT
     POTENTIAL_FILE_NAME GTH_POTENTIALS
     &SCF
       MAX_SCF  100
       EPS_SCF     5.0000000000000004E-06
       &OT  T
         PRECONDITIONER  FULL_ALL
       &END OT
       &OUTER_SCF  T
         OPTIMIZER  NONE
         EPS_SCF     5.0000000000000004E-06
         MAX_SCF  4
       &END OUTER_SCF
       &PRINT
         &RESTART  OFF
           BACKUP_COPIES  1
           &EACH
             JUST_ENERGY  0
             QS_SCF  0
             MD  20
           &END EACH
         &END RESTART
       &END PRINT
     &END SCF
     &QS
       EPS_DEFAULT     1.0000000000000000E-14
       ALMO_SCF  F
       METHOD  GPW
     &END QS
     &MGRID
       NGRIDS  5
       CUTOFF     1.2000000000000000E+03
     &END MGRID
     &XC
       DENSITY_CUTOFF     1.0000000000000000E-10
       GRADIENT_CUTOFF     1.0000000000000000E-10
       TAU_CUTOFF     1.0000000000000000E-10
       &XC_FUNCTIONAL  NO_SHORTCUT
         &PBE  T
         &END PBE
       &END XC_FUNCTIONAL
       &VDW_POTENTIAL
         POTENTIAL_TYPE  PAIR_POTENTIAL
         &PAIR_POTENTIAL
           R_CUTOFF     1.0000000000000005E+01
           TYPE  DFTD3
           PARAMETER_FILE_NAME dftd3.dat
           REFERENCE_FUNCTIONAL PBE
           EPS_CN     9.9999999999999995E-07
           CALCULATE_C9_TERM  T
           REFERENCE_C9_TERM  T
           LONG_RANGE_CORRECTION  F
           VERBOSE_OUTPUT  F
         &END PAIR_POTENTIAL
       &END VDW_POTENTIAL
     &END XC
   &END DFT
   &SUBSYS
     &CELL
       A     9.7367653356401487E+00    0.0000000000000000E+00    0.0000000000000000E+00
       B    -4.8591341382960209E+00    8.4162672083210595E+00    0.0000000000000000E+00
       C     0.0000000000000000E+00    0.0000000000000000E+00    3.0744000000000000E+01
       MULTIPLE_UNIT_CELL  1 1 1
       &CELL_REF
         A     9.5580000000000052E+00    0.0000000000000000E+00    0.0000000000000000E+00
         B    -4.7790000000000026E+00    8.2774708093716640E+00    0.0000000000000000E+00
         C     0.0000000000000000E+00    0.0000000000000000E+00    3.0744000000000000E+01
         MULTIPLE_UNIT_CELL  1 1 1
       &END CELL_REF
     &END CELL
     &COORD
Ga    5.5210966220255148E-02   -1.3283389541917009E-01   -6.4152444646697537E-01
N    5.8955491900381261E-02    1.7428868144245946E+00    5.1439432551761244E-01
Ga    5.8353079601939306E-02    1.7098117204354348E+00    2.5421015374876563E+00
N    5.5389968120278348E-02   -1.3419740145689382E-01    3.1758357369125836E+00
Ga    5.5482427414007142E-02   -1.3392511615529645E-01    5.1634977188669469E+00
N    5.8598529706932447E-02    1.7398211806065274E+00    5.7566805405813692E+00
Ga    5.8164793870177749E-02    1.7372120876504005E+00    7.7527547046574190E+00
N    5.6216699968091317E-02   -1.3611456277735440E-01    8.3595126441518470E+00
Ga    5.7294141551557758E-02   -1.3579911223758809E-01    1.0354512113178181E+01
N    5.7470451401071432E-02    1.7341261612919769E+00    1.0965494837282820E+01
Ga    5.3712485588892342E-02    1.7343213918510456E+00    1.2965444993455325E+01
N    5.5975409364209298E-02   -1.3483563509777377E-01    1.3587382397183577E+01
Ga    8.7647852074889607E-02   -1.1246105131646168E-01    1.5611195373655109E+01
N    7.4398949589207938E-02    1.7557497060874392E+00    1.6182581973855935E+01
Ga    3.9457434352303367E-02    1.7882622359191327E+00    1.8347040821006434E+01
N    8.5182615538265699E-02   -8.4329129958386345E-02    1.8796195683233019E+01
Ga   -1.5634960299748457E+00    2.6720673316688428E+00    2.2809174839620550E-01
N   -1.5658250482109612E+00    4.5414658663239171E+00    5.1388991983455212E-01
Ga   -1.5369785782404828E+00    4.5568838428270135E+00    2.5417275149796286E+00
N   -1.5640604909849807E+00    2.6714645113931055E+00    3.1376913753701752E+00
Ga   -1.5639263177970357E+00    2.6712868982627409E+00    5.1457078030600814E+00
N   -1.5635534135703528E+00    4.5417336323481798E+00    5.7563814480428439E+00
Ga   -1.5632474927813800E+00    4.5404230236094714E+00    7.7520584484689801E+00
N   -1.5635091074904208E+00    2.6705225921749935E+00    8.3605822932054092E+00
Ga   -1.5619771689534354E+00    2.6698245266013143E+00    1.0353581428338115E+01
N   -1.5662211484176112E+00    4.5446134076043725E+00    1.0961524819321614E+01
Ga   -1.5653860277156917E+00    4.5349660129673577E+00    1.2951822655955342E+01
N   -1.5571293146991050E+00    2.6817565304518904E+00    1.3570053575161454E+01
Ga   -1.5267775743082834E+00    2.6978079255132479E+00    1.5589297151806816E+01
N   -1.5586740789090823E+00    4.5812850760540194E+00    1.6213333601865997E+01
Ga   -1.5721483126276981E+00    4.6055989581547880E+00    1.8297991711857598E+01
N   -1.5718297656206652E+00    2.7676596914842335E+00    1.8707591177700657E+01
Ga   -3.1840586117619356E+00    5.4779786821168885E+00    2.2859670415341801E-01
N   -3.1762611976424169E+00    7.3474970238338955E+00    5.1416986686845867E-01
Ga   -3.2049604770915097E+00    7.3624498596564694E+00    2.5420242939239497E+00
N   -3.1837343850352946E+00    5.4767325034987993E+00    3.1367896812085880E+00
Ga   -3.1836068456843520E+00    5.4766221737679226E+00    5.1444071370333830E+00
N   -3.1788471419100626E+00    7.3468196743353698E+00    5.7550360733753951E+00
Ga   -3.1808386855153077E+00    7.3456189064027546E+00    7.7499587048872769E+00
N   -3.1854199949273081E+00    5.4751572320617274E+00    8.3588459192497773E+00
Ga   -3.1852826923613855E+00    5.4773943912679321E+00    1.0349062779497210E+01
N   -3.1833074020802394E+00    7.3421001057758470E+00    1.0973170777179854E+01
Ga   -3.1891284423171089E+00    7.3508683921273068E+00    1.2970848500825575E+01
N   -3.2002936686412817E+00    5.4634563878130002E+00    1.3598894445824305E+01
Ga   -3.0842756996048561E+00    5.5545134543530841E+00    1.5573500040003870E+01
N   -3.1875612511808944E+00    7.3411449997800933E+00    1.6233047447615316E+01
Ga   -3.1227379473407004E+00    7.4673785673206776E+00    1.8379454772224864E+01
N   -2.8797393409337393E+00    5.7098537225516584E+00    1.9115940818087044E+01
Ga    3.3019301068644555E+00   -1.3354299030952821E-01    2.2834326838257343E-01
N    3.2990875602040002E+00    1.7358370170173618E+00    5.1441239194164479E-01
Ga    3.3280660982378856E+00    1.7512884589931366E+00    2.5420874689756321E+00
N    3.3013214200369796E+00   -1.3398100379346056E-01    3.1378324894510117E+00
Ga    3.3018227439731040E+00   -1.3390855841992488E-01    5.1458082429187932E+00
N    3.3017788690415033E+00    1.7358849583953258E+00    5.7583659686970847E+00
Ga    3.3020934406978202E+00    1.7343505568430770E+00    7.7551583488845761E+00
N    3.2991720579536419E+00   -1.3805221705486992E-01    8.3607177326766848E+00
Ga    3.2985546284482443E+00   -1.4096286787602927E-01    1.0353887925905022E+01
N    3.3015547541545391E+00    1.7315483242910410E+00    1.0953160442710864E+01
Ga    3.2925129768994066E+00    1.7189469064067988E+00    1.2941403035674833E+01
N    3.2957931470202020E+00   -1.4207140672958227E-01    1.3578100465122455E+01
Ga    3.2989287449441211E+00   -1.5608295903554464E-01    1.5603765066526144E+01
N    3.3006712427820841E+00    1.7474525072958906E+00    1.6121955388514770E+01
Ga    3.1087770176776055E+00    1.7004415260812109E+00    1.8112089051230878E+01
N    3.3783037120664852E+00   -1.9535348710229855E-02    1.8693736878412096E+01
Ga    1.6811624423113076E+00    2.6728129672799401E+00    2.2861347278974006E-01
N    1.6890830649710833E+00    4.5421284857346702E+00    5.1487368889553342E-01
Ga    1.6602574105907832E+00    4.5572069963062880E+00    2.5424226415186615E+00
N    1.6816130136291774E+00    2.6713786175924854E+00    3.1377999667908489E+00
Ga    1.6818310476785674E+00    2.6713776512033753E+00    5.1458787029550006E+00
N    1.6865114473431035E+00    4.5415877816840000E+00    5.7566744390386440E+00
Ga    1.6841622935349676E+00    4.5400655784000801E+00    7.7524695017102001E+00
N    1.6804018055961485E+00    2.6699804579802433E+00    8.3609588830630504E+00
Ga    1.6785994109071798E+00    2.6685536342043079E+00    1.0353967515533972E+01
N    1.6858604636123105E+00    4.5447230509334027E+00    1.0956284960146650E+01
Ga    1.6799136776005921E+00    4.5404805694231456E+00    1.2942186068555998E+01
N    1.6835865804932413E+00    2.6753189870692253E+00    1.3541468687920279E+01
Ga    1.6654963496286439E+00    2.6585877566150087E+00    1.5527693966276948E+01
N    1.6750572315017529E+00    4.5635545083522953E+00    1.6130823187336922E+01
Ga    1.4545836419773150E+00    4.3926572098241383E+00    1.8054686347450701E+01
N    1.7000648985162579E+00    2.7281861398756320E+00    1.8783942496346544E+01
Ga    6.3092030270624044E-02    5.4793299610083670E+00   -6.4188714677203695E-01
N    6.5207209814483622E-02    7.3538764723570944E+00    5.1509244864110626E-01
Ga    6.4858986143389752E-02    7.3206469399826117E+00    2.5424281034903826E+00
N    6.1646625746139529E-02    5.4768209129128262E+00    3.1766561797199686E+00
Ga    6.2009652191179647E-02    5.4771941690663706E+00    5.1646662282943749E+00
N    6.4930749183266440E-02    7.3510726200427721E+00    5.7574199105055026E+00
Ga    6.4280319733553637E-02    7.3481095723956820E+00    7.7536190573240624E+00
N    6.0587356233745497E-02    5.4748694965880205E+00    8.3590440454400401E+00
Ga    5.9511291211718539E-02    5.4791473770860728E+00    1.0353435252248241E+01
N    6.4103080915800789E-02    7.3488001680327368E+00    1.0961927788380493E+01
Ga    6.1763978419810413E-02    7.3536001418815751E+00    1.2957127232510752E+01
N    5.7744503587648523E-02    5.4744649783370738E+00    1.3547995322343793E+01
Ga    3.8436448327098069E-02    5.5185163831689819E+00    1.5533724528239722E+01
N    7.9428802249924157E-02    7.3523753174480886E+00    1.6147051151328270E+01
Ga    1.0014017222042403E-01    7.5016139795150085E+00    1.8202538656748956E+01
N    1.5647181904191662E-01    5.5834633734334282E+00    1.8742480942442885E+01
Ga    6.5464323726063274E+00   -1.3298578636640929E-01    2.2804056064944708E-01
N    6.5545006673126336E+00    1.7363372591467634E+00    5.1452562137284397E-01
Ga    6.5256907971774956E+00    1.7511838050762782E+00    2.5422240969287473E+00
N    6.5468482566586710E+00   -1.3397468492991904E-01    3.1381240381015427E+00
Ga    6.5470152909935253E+00   -1.3410387957063030E-01    5.1460669870574307E+00
N    6.5522871790215973E+00    1.7358686371649814E+00    5.7578812112657216E+00
Ga    6.5515108776505109E+00    1.7346961896929785E+00    7.7543968580722469E+00
N    6.5473331761953153E+00   -1.3677810501554094E-01    8.3620072225106874E+00
Ga    6.5484509235752046E+00   -1.3734059202408747E-01    1.0356058350141588E+01
N    6.5544100789366748E+00    1.7347980773056417E+00    1.0959567809390014E+01
Ga    6.5730464914718647E+00    1.7307621404309448E+00    1.2952736720884301E+01
N    6.5554063048677342E+00   -1.4282532236983056E-01    1.3556082842256311E+01
Ga    6.5526520663751153E+00   -1.4472340761903327E-01    1.5560651377414649E+01
N    6.5752577018541194E+00    1.7381516192182280E+00    1.6090585339438451E+01
Ga    6.6588023225183104E+00    1.8275364972103252E+00    1.8100129497445174E+01
N    6.5356119597019058E+00    2.0258318918072091E-02    1.8689507583259878E+01
Ga    4.9274203239708223E+00    2.6725714005082355E+00   -6.4139824390115485E-01
N    4.9301831535729770E+00    4.5481717893231686E+00    5.1468837974051740E-01
Ga    4.9296778984819198E+00    4.5148856728790863E+00    2.5423164320491334E+00
N    4.9270975129574062E+00    2.6708967271493385E+00    3.1767042057627481E+00
Ga    4.9271963619134063E+00    2.6704125590240775E+00    5.1648437560093514E+00
N    4.9300769255206571E+00    4.5450273685596851E+00    5.7554738735916438E+00
Ga    4.9298204801420606E+00    4.5410337325780779E+00    7.7504710391356584E+00
N    4.9272707946732810E+00    2.6692515166263004E+00    8.3599835614462759E+00
Ga    4.9285101647384568E+00    2.6650398559629598E+00    1.0354285561658459E+01
N    4.9287975765817125E+00    4.5415943032203661E+00    1.0960548866704769E+01
Ga    4.9281455870243063E+00    4.5348357278653690E+00    1.2942188789299630E+01
N    4.9261030220931206E+00    2.6596714515718154E+00    1.3521952855972994E+01
Ga    4.9436960290174952E+00    2.5417485302583605E+00    1.5475387436592154E+01
N    4.8337148241254111E+00    4.4086915595326390E+00    1.6213661997037409E+01
Ga    5.3046246380314068E+00    4.9162083194667821E+00    1.9604193039100640E+01
N    4.9914467988962494E+00    3.3526882018817581E+00    1.8300623294472693E+01
Ga    3.3077756767881437E+00    5.4776224388759678E+00    2.2851074088582082E-01
N    3.3051920863466080E+00    7.3468432704979865E+00    5.1449328008477080E-01
Ga    3.3337189011983082E+00    7.3621953890930261E+00    2.5421202415172401E+00
N    3.3074004322181723E+00    5.4768583662763790E+00    3.1377481762091066E+00
Ga    3.3071691835601054E+00    5.4769159601769246E+00    5.1456033224893156E+00
N    3.3082314848018721E+00    7.3470822706595271E+00    5.7564477866239399E+00
Ga    3.3092553585319364E+00    7.3465708571008568E+00    7.7519553096944573E+00
N    3.3077192221597738E+00    5.4746544022243171E+00    8.3570288419827463E+00
Ga    3.3074140578770419E+00    5.4771380205262874E+00    1.0346155451514804E+01
N    3.3139177781838853E+00    7.3436148285467695E+00    1.0963308746709563E+01
Ga    3.3218588163610709E+00    7.3546065984780959E+00    1.2955066031254569E+01
N    3.3128190050979467E+00    5.4713623902902695E+00    1.3574208044562980E+01
Ga    3.2515062686266361E+00    5.5354724506512225E+00    1.5537779749399013E+01
N    3.3272650296330837E+00    7.3403475421709947E+00    1.6200918446221561E+01
Ga    3.3287510330481784E+00    7.7610788869343583E+00    1.8165162004583145E+01
N    4.7031582358667450E+00    4.3845546369301482E+00    1.7551252638048631E+01
O    1.1173038548857344E+00    4.7142247837553857E+00    2.1400647953890960E+01
H    2.5466247794771479E-01    5.4957999512262150E+00    1.9772948543240094E+01
C    5.6748371277310283E-01    3.4745973111350845E+00    2.1886422768623014E+01
H    8.4944918068340225E-01    2.6323315178718745E+00    2.1238340752139351E+01
H    8.9582828489437460E-01    3.2730782517186956E+00    2.2917350000968117E+01
H   -5.2499768100203892E-01    3.5731673250568998E+00    2.1871899402291920E+01
O    3.7887982410075494E+00    5.2812797444817550E+00    2.0540517596235720E+01
H    2.0414715224746809E+00    4.5512325308105339E+00    2.1113274759639609E+01
C    3.8482639827090863E+00    6.4019525053989641E+00    2.1476073546891701E+01
H    4.3421769581892038E+00    6.0929289934463133E+00    2.2407449403357731E+01
H    4.3692538347113663E+00    7.2677591063945810E+00    2.1039745556664471E+01
H    2.8098691923256598E+00    6.6842364648687411E+00    2.1695134283635376E+01
     &END COORD
     &KIND C
       BASIS_SET DZVP-MOLOPT-SR-GTH-q4
       POTENTIAL GTH-PBE-q4
       &POTENTIAL
 2 2
  0.3384712400000000E+00 2 -0.8803673979999999E+01  0.1339210850000000E+01
 2
  0.3025757500000000E+00 1  0.9622486650000001E+01
  0.2915069400000000E+00 0
         # Potential name:  GTH-PBE-Q4  for symbol:  C
         # Potential read from the potential filename: GTH_POTENTIALS
       &END POTENTIAL
     &END KIND
     &KIND O
       BASIS_SET DZVP-MOLOPT-SR-GTH-q6
       POTENTIAL GTH-PBE-q6
       &POTENTIAL
 2 4
  0.2445543000000000E+00 2 -0.1666721480000000E+02  0.2487311320000000E+01
 2
  0.2209559200000000E+00 1  0.1833745811000000E+02
  0.2113324700000000E+00 0
         # Potential name:  GTH-PBE-Q6  for symbol:  O
         # Potential read from the potential filename: GTH_POTENTIALS
       &END POTENTIAL
     &END KIND
     &KIND H
       BASIS_SET DZVP-MOLOPT-SR-GTH-q1
       POTENTIAL GTH-PBE-q1
       &POTENTIAL
 1
  0.2000000000000000E+00 2 -0.4178900440000000E+01  0.7244633100000000E+00
 0
         # Potential name:  GTH-PBE-Q1  for symbol:  H
         # Potential read from the potential filename: GTH_POTENTIALS
       &END POTENTIAL
     &END KIND
     &KIND N
       BASIS_SET DZVP-MOLOPT-SR-GTH-q5
       POTENTIAL GTH-PBE-q5
       &POTENTIAL
 2 3
  0.2837905100000000E+00 2 -0.1241522559000000E+02  0.1868095920000000E+01
 2
  0.2554050000000000E+00 1  0.1363026257000000E+02
  0.2454945300000000E+00 0
         # Potential name:  GTH-PBE-Q5  for symbol:  N
         # Potential read from the potential filename: GTH_POTENTIALS
       &END POTENTIAL
     &END KIND
     &KIND Ga
       BASIS_SET DZVP-MOLOPT-SR-GTH-q13
       POTENTIAL GTH-PBE-q13
       &POTENTIAL
 2 1 10
  0.4900000000000000E+00 0
 3
  0.4167772300000000E+00 3  0.1047568975000000E+02 -0.4921768140000000E+01  0.8707055900000000E+00
  0.7770178090000000E+01 -0.2248152160000000E+01
  0.1784415450000000E+01
  0.5696265200000000E+00 2  0.1777985340000000E+01  0.1958597600000000E+00
 -0.2317443900000000E+00
  0.2381265000000000E+00 1 -0.1624868022000000E+02
         # Potential name:  GTH-PBE-Q13  for symbol:  GA
         # Potential read from the potential filename: GTH_POTENTIALS
       &END POTENTIAL
     &END KIND
     &TOPOLOGY
       COORD_FILE_NAME ../start-first.xyz
       COORD_FILE_FORMAT  XYZ
       NUMBER_OF_ATOMS  156
       MULTIPLE_UNIT_CELL  1 1 1
     &END TOPOLOGY
     &COLVAR
       &DISTANCE
         ATOMS  145 147
       &END DISTANCE
       &PRINT
       &END PRINT
     &END COLVAR
   &END SUBSYS
 &END FORCE_EVAL
