 # Version information for this restart file 
 # current date 2019-05-28 03:24:07.002
 # current working dir /lustre03/project/6004141/rzk/GaN-carbene/334-native/08-2Methanol-Htransfer/03-CO-constraint/1.44
 # Program compiled at                              Sun Apr  7 00:48:11 EDT 2019
 # Program compiled on                          beluga2.int.ets1.calculquebec.ca
 # Program compiled for                        Beluga-Linux-x86-64-intel-openmpi
 # Source code revision number                                         svn:18619
 &GLOBAL
   PRINT_LEVEL  MEDIUM
   PROJECT_NAME TEST
   RUN_TYPE  GEO_OPT
 &END GLOBAL
 &MOTION
   &GEO_OPT
     MAX_ITER  500
     STEP_START_VAL  250
   &END GEO_OPT
   &CONSTRAINT
     &COLLECTIVE
       COLVAR  1
       INTERMOLECULAR  T
       TARGET     2.7212056313553257E+00
       &RESTRAINT
         K     1.0000000000000001E-01
       &END RESTRAINT
     &END COLLECTIVE
     &COLVAR_RESTART
           2.7212056313553257E+00
     &END COLVAR_RESTART
   &END CONSTRAINT
 &END MOTION
 &FORCE_EVAL
   METHOD  QS
   STRESS_TENSOR  ANALYTICAL
   &DFT
     BASIS_SET_FILE_NAME BASIS_MOLOPT
     POTENTIAL_FILE_NAME GTH_POTENTIALS
     &SCF
       MAX_SCF  100
       EPS_SCF     5.0000000000000004E-06
       &OT  T
         PRECONDITIONER  FULL_ALL
       &END OT
       &OUTER_SCF  T
         OPTIMIZER  NONE
         EPS_SCF     5.0000000000000004E-06
         MAX_SCF  4
       &END OUTER_SCF
       &PRINT
         &RESTART  OFF
           BACKUP_COPIES  1
           &EACH
             JUST_ENERGY  0
             QS_SCF  0
             MD  20
           &END EACH
         &END RESTART
       &END PRINT
     &END SCF
     &QS
       EPS_DEFAULT     1.0000000000000000E-14
       ALMO_SCF  F
       METHOD  GPW
     &END QS
     &MGRID
       NGRIDS  5
       CUTOFF     1.2000000000000000E+03
     &END MGRID
     &XC
       DENSITY_CUTOFF     1.0000000000000000E-10
       GRADIENT_CUTOFF     1.0000000000000000E-10
       TAU_CUTOFF     1.0000000000000000E-10
       &XC_FUNCTIONAL  NO_SHORTCUT
         &PBE  T
         &END PBE
       &END XC_FUNCTIONAL
       &VDW_POTENTIAL
         POTENTIAL_TYPE  PAIR_POTENTIAL
         &PAIR_POTENTIAL
           R_CUTOFF     1.0000000000000005E+01
           TYPE  DFTD3
           PARAMETER_FILE_NAME dftd3.dat
           REFERENCE_FUNCTIONAL PBE
           EPS_CN     9.9999999999999995E-07
           CALCULATE_C9_TERM  T
           REFERENCE_C9_TERM  T
           LONG_RANGE_CORRECTION  F
           VERBOSE_OUTPUT  F
         &END PAIR_POTENTIAL
       &END VDW_POTENTIAL
     &END XC
   &END DFT
   &SUBSYS
     &CELL
       A     9.7367653356401487E+00    0.0000000000000000E+00    0.0000000000000000E+00
       B    -4.8591341382960209E+00    8.4162672083210595E+00    0.0000000000000000E+00
       C     0.0000000000000000E+00    0.0000000000000000E+00    3.0744000000000000E+01
       MULTIPLE_UNIT_CELL  1 1 1
       &CELL_REF
         A     9.5580000000000052E+00    0.0000000000000000E+00    0.0000000000000000E+00
         B    -4.7790000000000026E+00    8.2774708093716640E+00    0.0000000000000000E+00
         C     0.0000000000000000E+00    0.0000000000000000E+00    3.0744000000000000E+01
         MULTIPLE_UNIT_CELL  1 1 1
       &END CELL_REF
     &END CELL
     &COORD
Ga    5.4382024680161491E-02   -1.3221163734546756E-01   -6.4180056245568495E-01
N    5.8282788738200357E-02    1.7437089421836314E+00    5.1392480758428816E-01
Ga    5.7746138199762445E-02    1.7104030749878372E+00    2.5416550745097086E+00
N    5.4751671871158106E-02   -1.3366297142434583E-01    3.1756056409354820E+00
Ga    5.4818058018907059E-02   -1.3350971549529275E-01    5.1633413184294943E+00
N    5.7850274040781101E-02    1.7402117538284143E+00    5.7564256374265916E+00
Ga    5.7456160871001249E-02    1.7374087042366035E+00    7.7525338088805915E+00
N    5.5475936585069344E-02   -1.3575806096604034E-01    8.3593995881947514E+00
Ga    5.6764023950730005E-02   -1.3546622545125933E-01    1.0354316317327701E+01
N    5.7055357024840207E-02    1.7344259836180687E+00    1.0965773319480443E+01
Ga    5.4199914887487828E-02    1.7347625349571936E+00    1.2965658235346496E+01
N    5.6601592192336049E-02   -1.3444661428164784E-01    1.3587110540612313E+01
Ga    8.8966475689162133E-02   -1.1247950331295373E-01    1.5611093785469858E+01
N    7.5436264624349700E-02    1.7557355227716118E+00    1.6181987710254734E+01
Ga    4.0013137371732801E-02    1.7875586281659113E+00    1.8345457145849153E+01
N    8.6065981195616315E-02   -8.5163589575814116E-02    1.8793574288788825E+01
Ga   -1.5641648080081778E+00    2.6729001075637475E+00    2.2780712835390515E-01
N   -1.5666459394173808E+00    4.5422025921212459E+00    5.1362172478238355E-01
Ga   -1.5375761115493436E+00    4.5575306990883719E+00    2.5413589281018578E+00
N   -1.5645042975937842E+00    2.6720826221976868E+00    3.1374115470043895E+00
Ga   -1.5646954246894997E+00    2.6717024074823557E+00    5.1454611186215971E+00
N   -1.5643499912954324E+00    4.5420462874210825E+00    5.7562777539985062E+00
Ga   -1.5641918302085285E+00    4.5405724546331436E+00    7.7518613296359025E+00
N   -1.5643049088999996E+00    2.6706236499574310E+00    8.3604808790083247E+00
Ga   -1.5623776080136880E+00    2.6699347476111424E+00    1.0353389610719431E+01
N   -1.5667762940796675E+00    4.5447398201944775E+00    1.0961537049751719E+01
Ga   -1.5650483797545052E+00    4.5350615928007407E+00    1.2952065894448900E+01
N   -1.5568201866273919E+00    2.6819188688336810E+00    1.3570283798288081E+01
Ga   -1.5264196684704483E+00    2.6974430382246490E+00    1.5589571379682022E+01
N   -1.5580640754596637E+00    4.5810731022599649E+00    1.6212852262855531E+01
Ga   -1.5723825566921292E+00    4.6045137459927412E+00    1.8297074487669509E+01
N   -1.5712020762879908E+00    2.7663192937683121E+00    1.8706219567278183E+01
Ga   -3.1847261199851067E+00    5.4787692610354464E+00    2.2850504351501166E-01
N   -3.1769462350296798E+00    7.3482650671163929E+00    5.1383054074241785E-01
Ga   -3.2055162314318784E+00    7.3630974500097643E+00    2.5418254145219485E+00
N   -3.1843050665708246E+00    5.4773567976915247E+00    3.1365482095081760E+00
Ga   -3.1842749590418733E+00    5.4770932372079448E+00    5.1441326318584917E+00
N   -3.1795718685163457E+00    7.3472318869714757E+00    5.7548386322824729E+00
Ga   -3.1816991814291105E+00    7.3458787763027766E+00    7.7497218449352934E+00
N   -3.1863425400632468E+00    5.4754728590394395E+00    8.3587367830778376E+00
Ga   -3.1860010371751391E+00    5.4775860358215489E+00    1.0349068646103641E+01
N   -3.1838029947965789E+00    7.3422485959752057E+00    1.0973233967627047E+01
Ga   -3.1888236595041852E+00    7.3509512150446206E+00    1.2970905179797661E+01
N   -3.2001280457961445E+00    5.4635184411142745E+00    1.3598804193017632E+01
Ga   -3.0842633338950454E+00    5.5538805421264419E+00    1.5573508508801806E+01
N   -3.1863625583453614E+00    7.3409215873685341E+00    1.6232554046931767E+01
Ga   -3.1216784627729131E+00    7.4664537479780586E+00    1.8378126606536942E+01
N   -2.8792040225844531E+00    5.7094949671655089E+00    1.9115466299902863E+01
Ga    3.3011482320493171E+00   -1.3269845914173958E-01    2.2838596296865293E-01
N    3.2983214370033846E+00    1.7365775653170135E+00    5.1439156089677940E-01
Ga    3.3274972834819949E+00    1.7520163860444522E+00    2.5418748447095414E+00
N    3.3006424373745817E+00   -1.3321464211224585E-01    3.1377493587363849E+00
Ga    3.3011554109232444E+00   -1.3341493501218521E-01    5.1458038348027548E+00
N    3.3010647393732100E+00    1.7363769406828184E+00    5.7582947037134762E+00
Ga    3.3013444352002232E+00    1.7346170809269537E+00    7.7551463905748959E+00
N    3.2984351172515489E+00   -1.3787744582939834E-01    8.3604860212699137E+00
Ga    3.2980184298371911E+00   -1.4101381434612698E-01    1.0353659309025566E+01
N    3.3011693616645252E+00    1.7315474597166487E+00    1.0953141067742608E+01
Ga    3.2931747915330054E+00    1.7190457527668253E+00    1.2941228758600188E+01
N    3.2963767221527256E+00   -1.4210955638365230E-01    1.3577607556036615E+01
Ga    3.3000014790302332E+00   -1.5656884238679109E-01    1.5602944466059498E+01
N    3.3014952884291482E+00    1.7469723429510031E+00    1.6121766086566222E+01
Ga    3.1086641102830326E+00    1.6985985416417924E+00    1.8111330126846685E+01
N    3.3791975406134700E+00   -2.0573270944971161E-02    1.8694598379573858E+01
Ga    1.6804053808525805E+00    2.6735537132945013E+00    2.2861654553095406E-01
N    1.6882475275798525E+00    4.5429367093289583E+00    5.1468005769712200E-01
Ga    1.6595671340156395E+00    4.5578066276924698E+00    2.5419796465797657E+00
N    1.6809299587247619E+00    2.6719687704546815E+00    3.1374578637537724E+00
Ga    1.6810953376573334E+00    2.6717377772245658E+00    5.1455670321025790E+00
N    1.6858395711241936E+00    4.5418350621507333E+00    5.7564324049478568E+00
Ga    1.6834277876045249E+00    4.5401909980549142E+00    7.7522926330900157E+00
N    1.6796152119006360E+00    2.6701451397637426E+00    8.3610183530790358E+00
Ga    1.6781370289395174E+00    2.6686634978144723E+00    1.0353847058580968E+01
N    1.6853019757386112E+00    4.5449288901107598E+00    1.0956134615188082E+01
Ga    1.6805036093167129E+00    4.5407126164785998E+00    1.2942034731028688E+01
N    1.6842847148994349E+00    2.6756215834230499E+00    1.3541350442230096E+01
Ga    1.6665222577707226E+00    2.6585869638822301E+00    1.5527465147698772E+01
N    1.6763317009601306E+00    4.5633801388513451E+00    1.6130895136092583E+01
Ga    1.4559924451813377E+00    4.3920109890724000E+00    1.8054345414898577E+01
N    1.7006870893912038E+00    2.7271157839144529E+00    1.8783509216921093E+01
Ga    6.2167853271370928E-02    5.4806441992740753E+00   -6.4207059994362259E-01
N    6.4464619543884771E-02    7.3549374542332275E+00    5.1524576730292027E-01
Ga    6.4087867910427504E-02    7.3213209313900069E+00    2.5422824058361031E+00
N    6.0959408708359988E-02    5.4773964963934860E+00    3.1764309726118993E+00
Ga    6.1236691124330722E-02    5.4775017091086307E+00    5.1646449832226873E+00
N    6.4173293228545356E-02    7.3514217308877399E+00    5.7573312360061593E+00
Ga    6.3566841782544584E-02    7.3484350975083048E+00    7.7535268913242614E+00
N    5.9777989057910361E-02    5.4749737099346483E+00    8.3587998894812721E+00
Ga    5.8911983839917248E-02    5.4791050684755724E+00    1.0353096531527763E+01
N    6.3533351855415407E-02    7.3488195462278503E+00    1.0961766228224221E+01
Ga    6.2153213628066556E-02    7.3534938762392787E+00    1.2956859661561868E+01
N    5.8419305834407569E-02    5.4744109428522414E+00    1.3547980546660247E+01
Ga    3.9306023344006034E-02    5.5178426318525648E+00    1.5533589829573746E+01
N    8.0268646217189793E-02    7.3519271075659605E+00    1.6146591924979059E+01
Ga    1.0053305231123330E-01    7.5002673025771598E+00    1.8202093668079488E+01
N    1.5621050450451976E-01    5.5815920576900515E+00    1.8741915158863659E+01
Ga    6.5457694904232886E+00   -1.3220255305830675E-01    2.2811910937921751E-01
N    6.5540700829507665E+00    1.7370390508617355E+00    5.1437606704834471E-01
Ga    6.5250874339187579E+00    1.7518880198355615E+00    2.5420246605611792E+00
N    6.5463138057877792E+00   -1.3337386242573088E-01    3.1378749180221588E+00
Ga    6.5463203145817248E+00   -1.3374673273115195E-01    5.1459431372106970E+00
N    6.5515201362140720E+00    1.7362214273649692E+00    5.7577600115525609E+00
Ga    6.5507684338871490E+00    1.7348702644567757E+00    7.7542339904055888E+00
N    6.5465090969547077E+00   -1.3652023248788833E-01    8.3621495970705357E+00
Ga    6.5478386545683707E+00   -1.3719187658258605E-01    1.0356075230365001E+01
N    6.5539751262331931E+00    1.7350872552806693E+00    1.0959732420004849E+01
Ga    6.5732493798604761E+00    1.7311639810155910E+00    1.2952669329108799E+01
N    6.5557957935307778E+00   -1.4256168094487906E-01    1.3555634015894727E+01
Ga    6.5533405453255407E+00   -1.4495981874101932E-01    1.5559823444168712E+01
N    6.5756031036506561E+00    1.7376102577630821E+00    1.6090530705462296E+01
Ga    6.6592550469063427E+00    1.8258208110467635E+00    1.8100364690777788E+01
N    6.5365501091402836E+00    1.8235609054827819E-02    1.8689665656817340E+01
Ga    4.9267120512900338E+00    2.6731688525766715E+00   -6.4161735531636910E-01
N    4.9295206566578260E+00    4.5488039453892464E+00    5.1448464933737414E-01
Ga    4.9292224238223330E+00    4.5154656739785839E+00    2.5420842048727192E+00
N    4.9265632331842921E+00    2.6716081928540447E+00    3.1766051278021625E+00
Ga    4.9264508625156127E+00    2.6708404985129151E+00    5.1647553684135996E+00
N    4.9294756356331435E+00    4.5455459149286099E+00    5.7552398272158563E+00
Ga    4.9289548187677319E+00    4.5414049951637345E+00    7.7501748849024947E+00
N    4.9265500924894363E+00    2.6696141277479684E+00    8.3598699055701129E+00
Ga    4.9280237397122457E+00    2.6652167024845905E+00    1.0354039099792089E+01
N    4.9281064362851321E+00    4.5416652290740771E+00    1.0960648438852232E+01
Ga    4.9282603232849089E+00    4.5347209024115767E+00    1.2942277905296500E+01
N    4.9263735156382946E+00    2.6598386869285595E+00    1.3522215728396805E+01
Ga    4.9442154692450817E+00    2.5415270560965117E+00    1.5475654093246895E+01
N    4.8357225717041290E+00    4.4091226141763578E+00    1.6213066948363881E+01
Ga    5.3032386156758404E+00    4.9194736300997270E+00    1.9603457255647029E+01
N    4.9927783202309080E+00    3.3541319933283060E+00    1.8300951804523059E+01
Ga    3.3070670495174390E+00    5.4782853663567010E+00    2.2884039181411947E-01
N    3.3044056613987860E+00    7.3474929595701957E+00    5.1441371308600792E-01
Ga    3.3331439975653758E+00    7.3627541889571537E+00    2.5418595500884833E+00
N    3.3067733770374712E+00    5.4773908811047107E+00    3.1374525967863534E+00
Ga    3.3064556689514881E+00    5.4772533010952538E+00    5.1453750543762391E+00
N    3.3073896177144784E+00    7.3474484971815572E+00    5.7563444527764025E+00
Ga    3.3083801024128139E+00    7.3468465955349425E+00    7.7518047570832991E+00
N    3.3068890853229691E+00    5.4749365127521541E+00    8.3569319182932915E+00
Ga    3.3066510868196035E+00    5.4774703426493732E+00    1.0346056092774370E+01
N    3.3135111754909996E+00    7.3438944593563598E+00    1.0963304679506633E+01
Ga    3.3224262659949293E+00    7.3549368876011219E+00    1.2955143445616823E+01
N    3.3131786578543401E+00    5.4716734183421005E+00    1.3574089203030303E+01
Ga    3.2525712235721631E+00    5.5352881501090216E+00    1.5537535975016358E+01
N    3.3282236726415375E+00    7.3404088674121653E+00    1.6199522188944709E+01
Ga    3.3294104127691968E+00    7.7594873435458496E+00    1.8163604055682949E+01
N    4.7046921939326944E+00    4.3852167627353831E+00    1.7551053477244601E+01
O    1.1200336561901998E+00    4.7089588651640941E+00    2.1401630369956347E+01
H    2.5421174591595386E-01    5.4938694490449400E+00    1.9772603535343993E+01
C    5.6109701385162247E-01    3.4705003769319913E+00    2.1879449769946369E+01
H    8.4663876791033499E-01    2.6281212173039692E+00    2.1232955171062372E+01
H    8.7831313058747573E-01    3.2655532351360872E+00    2.2913562345351139E+01
H   -5.3077320671752903E-01    3.5728335947464758E+00    2.1853596495660781E+01
O    3.7853087776838050E+00    5.2845372820320220E+00    2.0535219146415532E+01
H    2.0430490847729086E+00    4.5419673068666544E+00    2.1113287323980234E+01
C    3.8374011105740125E+00    6.4056929259156687E+00    2.1469914299220193E+01
H    4.3223143300864395E+00    6.0978086584709272E+00    2.2406185327118770E+01
H    4.3632197832301980E+00    7.2712992287406193E+00    2.1037931518541470E+01
H    2.7968140322861181E+00    6.6887673398357919E+00    2.1678491787583042E+01
     &END COORD
     &KIND C
       BASIS_SET DZVP-MOLOPT-SR-GTH-q4
       POTENTIAL GTH-PBE-q4
       &POTENTIAL
 2 2
  0.3384712400000000E+00 2 -0.8803673979999999E+01  0.1339210850000000E+01
 2
  0.3025757500000000E+00 1  0.9622486650000001E+01
  0.2915069400000000E+00 0
         # Potential name:  GTH-PBE-Q4  for symbol:  C
         # Potential read from the potential filename: GTH_POTENTIALS
       &END POTENTIAL
     &END KIND
     &KIND O
       BASIS_SET DZVP-MOLOPT-SR-GTH-q6
       POTENTIAL GTH-PBE-q6
       &POTENTIAL
 2 4
  0.2445543000000000E+00 2 -0.1666721480000000E+02  0.2487311320000000E+01
 2
  0.2209559200000000E+00 1  0.1833745811000000E+02
  0.2113324700000000E+00 0
         # Potential name:  GTH-PBE-Q6  for symbol:  O
         # Potential read from the potential filename: GTH_POTENTIALS
       &END POTENTIAL
     &END KIND
     &KIND H
       BASIS_SET DZVP-MOLOPT-SR-GTH-q1
       POTENTIAL GTH-PBE-q1
       &POTENTIAL
 1
  0.2000000000000000E+00 2 -0.4178900440000000E+01  0.7244633100000000E+00
 0
         # Potential name:  GTH-PBE-Q1  for symbol:  H
         # Potential read from the potential filename: GTH_POTENTIALS
       &END POTENTIAL
     &END KIND
     &KIND N
       BASIS_SET DZVP-MOLOPT-SR-GTH-q5
       POTENTIAL GTH-PBE-q5
       &POTENTIAL
 2 3
  0.2837905100000000E+00 2 -0.1241522559000000E+02  0.1868095920000000E+01
 2
  0.2554050000000000E+00 1  0.1363026257000000E+02
  0.2454945300000000E+00 0
         # Potential name:  GTH-PBE-Q5  for symbol:  N
         # Potential read from the potential filename: GTH_POTENTIALS
       &END POTENTIAL
     &END KIND
     &KIND Ga
       BASIS_SET DZVP-MOLOPT-SR-GTH-q13
       POTENTIAL GTH-PBE-q13
       &POTENTIAL
 2 1 10
  0.4900000000000000E+00 0
 3
  0.4167772300000000E+00 3  0.1047568975000000E+02 -0.4921768140000000E+01  0.8707055900000000E+00
  0.7770178090000000E+01 -0.2248152160000000E+01
  0.1784415450000000E+01
  0.5696265200000000E+00 2  0.1777985340000000E+01  0.1958597600000000E+00
 -0.2317443900000000E+00
  0.2381265000000000E+00 1 -0.1624868022000000E+02
         # Potential name:  GTH-PBE-Q13  for symbol:  GA
         # Potential read from the potential filename: GTH_POTENTIALS
       &END POTENTIAL
     &END KIND
     &TOPOLOGY
       COORD_FILE_NAME ../start-first.xyz
       COORD_FILE_FORMAT  XYZ
       NUMBER_OF_ATOMS  156
       MULTIPLE_UNIT_CELL  1 1 1
     &END TOPOLOGY
     &COLVAR
       &DISTANCE
         ATOMS  145 147
       &END DISTANCE
       &PRINT
       &END PRINT
     &END COLVAR
   &END SUBSYS
 &END FORCE_EVAL
