 # Version information for this restart file 
 # current date 2019-05-25 04:55:27.575
 # current working dir /lustre03/project/6004141/rzk/GaN-carbene/00-Surface/00-Preoptimization/443-capped
 # Program compiled at                              Sun Apr  7 00:48:11 EDT 2019
 # Program compiled on                          beluga2.int.ets1.calculquebec.ca
 # Program compiled for                        Beluga-Linux-x86-64-intel-openmpi
 # Source code revision number                                         svn:18619
 &GLOBAL
   PRINT_LEVEL  MEDIUM
   PROJECT_NAME TEST
   RUN_TYPE  GEO_OPT
 &END GLOBAL
 &MOTION
   &GEO_OPT
     MAX_ITER 500
   &END GEO_OPT
   &CONSTRAINT
     &COLLECTIVE
       INTERMOLECULAR T
       COLVAR 1
       &RESTRAINT
         K=2.0
       &END
       TARGET [angstrom] 2.90
     &END
   &END
 &END MOTION
 &FORCE_EVAL
   METHOD  QS
   STRESS_TENSOR  ANALYTICAL
   &DFT
     UKS  T
     SURFACE_DIPOLE_CORRECTION  TRUE
     SURF_DIP_DIR               Z
     BASIS_SET_FILE_NAME BASIS_MOLOPT
     POTENTIAL_FILE_NAME GTH_POTENTIALS
     &SCF
       MAX_SCF  80
       EPS_SCF     5.0000000000000004E-06
       &OT  T
         PRECONDITIONER  FULL_ALL
       &END OT
       &OUTER_SCF  T
         OPTIMIZER  NONE
         EPS_SCF     5.0000000000000004E-06
         MAX_SCF  4
       &END OUTER_SCF
       &PRINT
         &RESTART  OFF
           BACKUP_COPIES  1
           &EACH
             JUST_ENERGY  0
             QS_SCF  0
             MD  20
           &END EACH
         &END RESTART
       &END PRINT
     &END SCF
     &QS
       EPS_DEFAULT     1.0000000000000000E-14
       METHOD  GPW
     &END QS
     &MGRID
       NGRIDS  5
       CUTOFF     1.2000000000000000E+03
     &END MGRID
     &XC
       DENSITY_CUTOFF     1.0000000000000000E-10
       GRADIENT_CUTOFF     1.0000000000000000E-10
       TAU_CUTOFF     1.0000000000000000E-10
       &XC_FUNCTIONAL  NO_SHORTCUT
         &PBE  T
         &END PBE
       &END XC_FUNCTIONAL
       &VDW_POTENTIAL
         POTENTIAL_TYPE  PAIR_POTENTIAL
         &PAIR_POTENTIAL
           R_CUTOFF     1.0000000000000002E+01
           TYPE  DFTD3
           PARAMETER_FILE_NAME dftd3.dat
           REFERENCE_FUNCTIONAL PBE
           EPS_CN     9.9999999999999995E-07
           CALCULATE_C9_TERM  T
           REFERENCE_C9_TERM  T
           LONG_RANGE_CORRECTION  F
           VERBOSE_OUTPUT  F
         &END PAIR_POTENTIAL
       &END VDW_POTENTIAL
     &END XC
   &END DFT
   &SUBSYS
     &CELL
       A     1.2864472766435110E+01    0.0000000000000000E+00    0.0000000000000000E+00
       B    -6.4322363581020028E+00    1.1140960178524471E+01    0.0000000000000000E+00
       #A     1.2982353780853531E+01    0.0000000000000000E+00    0.0000000000000000E+00
       #B    -6.4911768904267628E+00    1.1243048175136114E+01    0.0000000000000000E+00
       C     0.0000000000000000E+00    0.0000000000000000E+00    3.2000000000000000E+01
       MULTIPLE_UNIT_CELL  1 1 1
       &CELL_REF
         A     1.2982353780853531E+01    0.0000000000000000E+00    0.0000000000000000E+00
         B    -6.4911768904267628E+00    1.1243048175136114E+01    0.0000000000000000E+00
         C     0.0000000000000000E+00    0.0000000000000000E+00    3.2000000000000000E+01
         MULTIPLE_UNIT_CELL  1 1 1
       &END CELL_REF
     &END CELL
     &COORD
  N         0.0089003961        1.9341029855        2.5157247340
 Ga         0.0023561758       -0.0295113090        2.8279760301
  N         0.0106091905       -0.0655488311        5.0307161331
 Ga         0.0150154508        1.7623613925        5.8011738072
  N         0.0157204084        1.7784732694        7.8081867187
 Ga         0.0174228169       -0.0664821651        8.4475939824
  N         0.0173619494       -0.0673377591       10.4245961263
 Ga         0.0176976430        1.7733035956       11.0721596796
  N         0.0179600928        1.7539888606       13.0691536407
 Ga         0.0171478407       -0.0670664066       13.8711526239
  N         0.0160998009       -0.0673164147       16.0728884062
 Ga         0.0177709268        1.9673794305       16.4790768878
 Ga         0.0028108159        3.6251639286        1.3276385303
  N        -1.4689619383        4.5106564936        2.5152264939
 Ga        -1.6549053844        2.6782749873        3.2826836594
  N        -1.5934264024        2.7226956505        5.2682107766
 Ga        -1.6155357984        4.5875295039        5.8100742519
  N        -1.5997937002        4.5847159836        7.8094554813
 Ga        -1.5798325854        2.7248460542        8.4435334262
  N        -1.5800964209        2.7263502151       10.4403375005
 Ga        -1.6058453193        4.5846773905       11.0742317014
  N        -1.6223309237        4.5952754772       13.0697935074
 Ga        -1.5791489244        2.7257772611       13.6228389956
  N        -1.6062257938        2.7115742964       15.5876510488
 Ga        -1.4353358982        4.4873088571       16.4791740881
  N         0.0094202230        3.6416454916       17.6115765059
  N        -3.2023264072        7.4694140120        2.5097058960
 Ga        -3.1548632293        5.4993563219        2.8574914861
  N        -3.2003910878        5.5008227073        5.0374269707
 Ga        -3.1987756617        7.3268477517        5.8004803172
  N        -3.2001151070        7.3534213743        7.7968638067
 Ga        -3.1970956490        5.5075240212        8.4515288683
  N        -3.1993184755        5.5061214249       10.4257621027
 Ga        -3.1989381588        7.3449782897       11.0752626688
  N        -3.1983013392        7.3258016240       13.0692100197
 Ga        -3.1981575106        5.5061794831       13.8698885451
  N        -3.1990409240        5.5054219789       16.0735080051
 Ga        -3.1979433138        7.5487194744       16.4862758926
 Ga        -3.1949057803        9.2748091015        1.2533191205
  N        -4.7204203889       10.0931827248        2.5040085590
 Ga        -4.8064465183        8.3035474450        3.2920425664
  N        -4.8186604154        8.2831457482        5.2403396181
 Ga        -4.8384586088       10.1708347051        5.7943362813
  N        -4.8171938387       10.1494655100        7.7968095456
 Ga        -4.7961714931        8.2990998120        8.4435183276
  N        -4.7964326833        8.2954552341       10.4367537361
 Ga        -4.8214532960       10.1557871403       11.0732893676
  N        -4.8376888776       10.1646887453       13.0687724283
 Ga        -4.7948899681        8.2968117265       13.6260148662
  N        -4.8224148004        8.2793431021       15.5879936225
 Ga        -4.6479228188       10.0553373526       16.4863226105
  N        -3.2074436342        9.2159645276       17.6228034654
  N         3.2181692330        1.7923656437        2.6317327035
 Ga         3.2236233534        0.0251024077        3.2515439691
  N         3.2317876959       -0.0720031712        5.2410494825
 Ga         3.2224171039        1.7833761096        5.8676337478
  N         3.2334631314        1.7889287361        7.8513439703
 Ga         3.2324326108       -0.0780337880        8.4349414586
  N         3.2331062909       -0.0798371657       10.4331491025
 Ga         3.2319824965        1.7890989900       11.0291369548
  N         3.2337788047        1.7905687666       13.0030842695
 Ga         3.2345360264       -0.0789227035       13.6245672301
  N         3.2362892856       -0.0466204051       15.5861386792
 Ga         3.2337644945        1.7909570032       15.8652741476
  N         1.5092253825        4.5121379633        2.5243568736
 Ga         1.6834479586        2.6751551094        3.2697929535
  N         1.6240401588        2.7165659969        5.2601535219
 Ga         1.6471610007        4.5792163635        5.8117175753
  N         1.6324001691        4.5821226614        7.8096983064
 Ga         1.6148232605        2.7213221386        8.4391751855
  N         1.6148146787        2.7250644771       10.4370347104
 Ga         1.6401432110        4.5833344850       11.0724172550
  N         1.6577162160        4.5947266592       13.0681343457
 Ga         1.6150977955        2.7260525464       13.6233045272
  N         1.6426357652        2.7130787780       15.5869837920
 Ga         1.4638440711        4.4833741455       16.4803314627
  N         0.0228518213        7.3622899821        2.6798335600
 Ga         0.0229455417        5.5041202067        3.3141694167
  N         0.0175885860        5.5223701753        5.2611624976
 Ga         0.0209247199        7.3650553709        5.8909843680
  N         0.0169535235        7.3634090493        7.8591094327
 Ga         0.0167900073        5.4933493421        8.4470868819
  N         0.0169567021        5.4927114950       10.4402597574
 Ga         0.0162430386        7.3614135250       11.0323706384
  N         0.0171888168        7.3617533229       13.0042929613
 Ga         0.0183896504        5.4922278083       13.6235116825
  N         0.0193974008        5.5224536446       15.5866574943
 Ga         0.0180795072        7.3619102556       15.8647955748
  N        -1.6846031257       10.0909959069        2.5159609880
 Ga        -1.5845638716        8.2871521836        3.2858955602
  N        -1.5805415639        8.2815300462        5.2377746895
 Ga        -1.5684793213       10.1646320703        5.7955742010
  N        -1.5820903322       10.1494211597        7.7966222368
 Ga        -1.6020450594        8.2977678445        8.4428405011
  N        -1.6026348265        8.2958021669       10.4362202635
 Ga        -1.5771894142       10.1552572833       11.0730462404
  N        -1.5589428526       10.1645420465       13.0676915864
 Ga        -1.6011305160        8.2970369330       13.6255679792
  N        -1.5731785545        8.2812324241       15.5862398201
 Ga        -1.7567335796       10.0500360309       16.4871619816
  N         6.4520360342        1.9080621584        2.5528471631
 Ga         6.4630395565       -0.0893616969        2.8704942724
  N         6.4524911391       -0.0643687514        5.0372204355
 Ga         6.4496600905        1.7587536177        5.8145400371
  N         6.4493571260        1.7792052250        7.8110251979
 Ga         6.4480438910       -0.0692125167        8.4491548253
  N         6.4487422083       -0.0671343897       10.4247804034
 Ga         6.4487099874        1.7725946266       11.0742189294
  N         6.4500494897        1.7537797925       13.0700448412
 Ga         6.4498739018       -0.0679634485       13.8704450215
  N         6.4489441069       -0.0686222856       16.0723289823
 Ga         6.4505866333        1.9635379119       16.4764790825
 Ga         6.4471804108        3.6108208379        1.5464602772
  N         4.9557368139        4.5162583450        2.5435374779
 Ga         4.7237799634        2.6467139883        3.3087995960
  N         4.8428692037        2.7186092462        5.2680966655
 Ga         4.8099897965        4.5842951110        5.8250444334
  N         4.8350242996        4.5813712941        7.8137061522
 Ga         4.8481277204        2.7198546416        8.4449902271
  N         4.8514195217        2.7249751564       10.4396993090
 Ga         4.8253265351        4.5839777105       11.0744568474
  N         4.8099394169        4.5949409478       13.0698979348
 Ga         4.8529197116        2.7255426552       13.6230168557
  N         4.8264986042        2.7113218836       15.5890144489
 Ga         4.9924787128        4.4901576569       16.4769156543
  N         6.4409434604        3.6419848556       17.6069677929
  N         3.2270216428        7.4349570486        2.4936717723
  N         3.2364155511        5.4929589080        5.0560041454
 Ga         3.2324794109        7.3276746845        5.8015833542
  N         3.2336550010        7.3523023474        7.7988896226
 Ga         3.2309614121        5.5054570096        8.4502735260
  N         3.2333989584        5.5052376816       10.4249651298
 Ga         3.2329160350        7.3431581510       11.0774064268
  N         3.2339447414        7.3252835721       13.0705556143
 Ga         3.2327720866        5.5058900796       13.8705386809
  N         3.2312510821        5.5057410339       16.0737181076
 Ga         3.2341767379        7.5512025118       16.4891990146
 Ga         3.2255781065        9.4663141080        1.2583753390
  N         1.7504990597       10.1027924022        2.5280324709
 Ga         1.6454045225        8.2828435019        3.2749102448
  N         1.6168209261        8.2820064352        5.2354236784
 Ga         1.5993038627       10.1585172554        5.8070170271
  N         1.6139539663       10.1473820834        7.8054881806
 Ga         1.6356823202        8.2955602877        8.4471661578
  N         1.6363880783        8.2947526573       10.4396858721
 Ga         1.6107739268       10.1554217921       11.0739608502
  N         1.5944494859       10.1647272246       13.0689219251
 Ga         1.6368464153        8.2966396019       13.6260282661
  N         1.6091454620        8.2796026712       15.5876863612
 Ga         1.7876871362       10.0534661752       16.4891666992
  N         3.2256778489        9.2157157149       17.6265746659
  N         9.6767689234        1.7907397138        2.6512493630
 Ga         9.6682209708        0.0407855884        3.3222084186
  N         9.6658365209       -0.0639445112        5.2854979323
 Ga         9.6734986447        1.7952302069        5.8881251800
  N         9.6636345510        1.7934343560        7.8653118339
 Ga         9.6653426184       -0.0778234257        8.4378366373
  N         9.6651167022       -0.0793831473       10.4355701616
 Ga         9.6655770919        1.7900367377       11.0294696957
  N         9.6656784434        1.7910506953       13.0033455759
 Ga         9.6666197914       -0.0786305715       13.6251721611
  N         9.6678878428       -0.0462653199       15.5860987193
 Ga         9.6669044844        1.7907677815       15.8647410256
  N         7.9453860544        4.5252762641        2.5334079312
 Ga         8.1733601185        2.6579922525        3.3140179448
  N         8.0547712252        2.7251136916        5.2729303491
 Ga         8.0912921861        4.5929339008        5.8207302596
  N         8.0645235889        4.5848169142        7.8118183634
 Ga         8.0470575879        2.7242713825        8.4484258280
  N         8.0453141527        2.7265879836       10.4416099676
 Ga         8.0729413964        4.5850402626       11.0753074122
  N         8.0900269510        4.5951981788       13.0697989745
 Ga         8.0475124800        2.7259538341       13.6233511539
  N         8.0746178490        2.7129186859       15.5877504732
 Ga         7.8993443453        4.4849632590       16.4772413638
  N         6.4431148153        7.3769410402        2.6817267118
 Ga         6.4479576396        5.5517064085        3.3461083766
  N         6.4481850957        5.5223186414        5.2692644329
 Ga         6.4421124795        7.3785870010        5.8950916298
  N         6.4471810438        7.3635852014        7.8588426847
 Ga         6.4492577146        5.4948608224        8.4523075688
  N         6.4491669280        5.4930669010       10.4419338525
 Ga         6.4493056358        7.3622538340       11.0341956713
  N         6.4501574620        7.3615849327       13.0053533446
 Ga         6.4503076814        5.4922567145       13.6243195470
  N         6.4517540106        5.5223640951       15.5881144075
 Ga         6.4500134925        7.3625079127       15.8656411085
  N         4.7096192764       10.1011796173        2.4939396070
 Ga         4.8048018858        8.2911352019        3.2648613384
  N         4.8466379196        8.2841458071        5.2255550750
 Ga         4.8720557162       10.1629345219        5.8050687114
  N         4.8515627725       10.1466229054        7.8049847764
 Ga         4.8280185448        8.2973060182        8.4497499948
  N         4.8296595260        8.2946921703       10.4404640040
 Ga         4.8557328235       10.1559184708       11.0736624723
  N         4.8733734497       10.1646639206       13.0683350369
 Ga         4.8310694912        8.2970997044       13.6267962472
  N         4.8594319373        8.2811327395       15.5867216356
 Ga         4.6735439186       10.0492725426       16.4900270145
  O         0.0255599084        3.7270818865       -0.4798173228
  H         2.5626025510        7.0683494458        0.5997404687
  C         1.3090882474        3.8989366240       -1.1089747024
  H         1.7627645434        4.8733491908       -0.8655009972
  H         2.0181336062        3.0986622136       -0.8413356458
  H         1.1402562767        3.8612814033       -2.1951355386
 Ga         3.1919797209        5.4938505507        2.9088313311
  O         2.1770424354        7.4139440352       -0.2423224528
  H         0.0411496620        7.3462757995        1.6510400077
  C         2.8962932313        8.6204708234       -0.5232773118
  H         2.2652737768        9.2685925891       -1.1436660418
  H         6.4539833309        7.3499022472        1.6556474899
  H         3.8457871718        8.4341055932       -1.0479579746
     &END COORD

     &KIND C
       BASIS_SET DZVP-MOLOPT-SR-GTH-q4
       POTENTIAL GTH-PBE-q4
     &END KIND

     &KIND O
       BASIS_SET DZVP-MOLOPT-SR-GTH-q6
       POTENTIAL GTH-PBE-q6
     &END KIND

     &KIND H
       BASIS_SET DZVP-MOLOPT-SR-GTH-q1
       POTENTIAL GTH-PBE-q1
     &END KIND

     &KIND N
       BASIS_SET DZVP-MOLOPT-SR-GTH
       POTENTIAL GTH-PBE-q5
     &END KIND

     &KIND Ga
       BASIS_SET DZVP-MOLOPT-SR-GTH
       POTENTIAL GTH-PBE-q13
     &END KIND

     &COLVAR
       &DISTANCE
         ATOMS 207 208
       &END
       &PRINT
       &END
     &END

     &TOPOLOGY
       MULTIPLE_UNIT_CELL  1 1 1
     &END TOPOLOGY
   &END SUBSYS
 &END FORCE_EVAL
