 # Version information for this restart file 
 # current date 2019-05-23 19:34:28.504
 # current working dir /lustre03/project/6004141/rzk/GaN-carbene/01-Methanol/01-CH3-ads
 # Program compiled at                              Sun Apr  7 00:48:11 EDT 2019
 # Program compiled on                          beluga2.int.ets1.calculquebec.ca
 # Program compiled for                        Beluga-Linux-x86-64-intel-openmpi
 # Source code revision number                                         svn:18619
 &GLOBAL
   PRINT_LEVEL  MEDIUM
   PROJECT_NAME TEST
   RUN_TYPE  GEO_OPT
 &END GLOBAL
 &MOTION
   &GEO_OPT
     MAX_ITER  500
     STEP_START_VAL  117
   &END GEO_OPT
 &END MOTION
 &FORCE_EVAL
   METHOD  QS
   STRESS_TENSOR  ANALYTICAL
   &DFT
     BASIS_SET_FILE_NAME BASIS_MOLOPT
     POTENTIAL_FILE_NAME GTH_POTENTIALS
     &SCF
       MAX_SCF  100
       EPS_SCF     5.0000000000000004E-06
       &OT  T
         PRECONDITIONER  FULL_ALL
       &END OT
       &OUTER_SCF  T
         OPTIMIZER  NONE
         EPS_SCF     5.0000000000000004E-06
         MAX_SCF  10
       &END OUTER_SCF
       &PRINT
         &RESTART  OFF
           BACKUP_COPIES  1
           &EACH
             JUST_ENERGY  0
             QS_SCF  0
             MD  20
           &END EACH
         &END RESTART
       &END PRINT
     &END SCF
     &QS
       EPS_DEFAULT     1.0000000000000000E-14
       ALMO_SCF  F
       METHOD  GPW
     &END QS
     &MGRID
       NGRIDS  5
       CUTOFF     1.2000000000000000E+03
     &END MGRID
     &XC
       DENSITY_CUTOFF     1.0000000000000000E-10
       GRADIENT_CUTOFF     1.0000000000000000E-10
       TAU_CUTOFF     1.0000000000000000E-10
       &XC_FUNCTIONAL  NO_SHORTCUT
         &PBE  T
         &END PBE
       &END XC_FUNCTIONAL
       &VDW_POTENTIAL
         POTENTIAL_TYPE  PAIR_POTENTIAL
         &PAIR_POTENTIAL
           R_CUTOFF     1.0000000000000007E+01
           TYPE  DFTD3
           PARAMETER_FILE_NAME dftd3.dat
           REFERENCE_FUNCTIONAL PBE
           EPS_CN     9.9999999999999995E-07
           CALCULATE_C9_TERM  T
           REFERENCE_C9_TERM  T
           LONG_RANGE_CORRECTION  F
           VERBOSE_OUTPUT  F
         &END PAIR_POTENTIAL
       &END VDW_POTENTIAL
     &END XC
   &END DFT
   &SUBSYS
     &CELL
       A     9.7367653356401487E+00    0.0000000000000000E+00    0.0000000000000000E+00
       B    -4.8591341382960209E+00    8.4162672083210595E+00    0.0000000000000000E+00
       C     0.0000000000000000E+00    0.0000000000000000E+00    3.0744000000000000E+01
       MULTIPLE_UNIT_CELL  1 1 1
       &CELL_REF
         A     9.5580000000000069E+00    0.0000000000000000E+00    0.0000000000000000E+00
         B    -4.7790000000000035E+00    8.2774708093716640E+00    0.0000000000000000E+00
         C     0.0000000000000000E+00    0.0000000000000000E+00    3.0744000000000000E+01
         MULTIPLE_UNIT_CELL  1 1 1
       &END CELL_REF
     &END CELL
     &COORD
Ga   -4.8691118292747013E-02   -3.8318722184666816E-02   -5.2762540714432793E-01
N   -4.5297926753476048E-02    1.8369539724415296E+00    6.2148796995460898E-01
Ga   -4.5155523855739579E-02    1.8060964346870894E+00    2.6514425419138883E+00
N   -4.8039683953661552E-02   -3.6308468025100682E-02    3.2856144098403370E+00
Ga   -4.8138005321745961E-02   -3.2242522728354331E-02    5.2758933610008061E+00
N   -4.5621098199252107E-02    1.8423989591508210E+00    5.8657878150419709E+00
Ga   -4.9051073111238318E-02    1.8436184830035227E+00    7.8644314132553204E+00
N   -5.2228325156965384E-02   -2.9198635448898658E-02    8.4668807855835162E+00
Ga   -5.5187523680056680E-02   -2.4213419871320641E-02    1.0464822623035362E+01
N   -5.2605620598465845E-02    1.8473123725882219E+00    1.1072374868543392E+01
Ga   -5.6396037025674042E-02    1.8556331544846345E+00    1.3072662505275849E+01
N   -5.8910892639748386E-02   -2.0251705267827796E-02    1.3663944773707957E+01
Ga   -6.2908393973949234E-02   -2.6195536525982503E-03    1.5666314317886938E+01
N   -5.9857488316154707E-02    1.8782277924989852E+00    1.6207420966912021E+01
Ga   -6.2218778566619296E-02    1.8431653302217244E+00    1.8257470737045182E+01
N   -6.7054712243132239E-02   -1.5145592519089065E-02    1.8708976763380367E+01
Ga   -1.6686960730629510E+00    2.7673183648445110E+00    3.4162880901461479E-01
N   -1.6706916539535372E+00    4.6361701761784095E+00    6.2348343346777368E-01
Ga   -1.6402125406841084E+00    4.6548014630116388E+00    2.6513315616891040E+00
N   -1.6670070954746778E+00    2.7693263791570080E+00    3.2450264429018834E+00
Ga   -1.6672720985381582E+00    2.7728155215868657E+00    5.2543483655717500E+00
N   -1.6676226331434345E+00    4.6428474905827963E+00    5.8647309742056501E+00
Ga   -1.6700325526785500E+00    4.6455889302391267E+00    7.8622174603299522E+00
N   -1.6724072577809217E+00    2.7758323199581683E+00    8.4710031564247430E+00
Ga   -1.6750278646707031E+00    2.7796421881531819E+00    1.0467745837993011E+01
N   -1.6731631575703882E+00    4.6544196433295024E+00    1.1069531782229008E+01
Ga   -1.6754643770728970E+00    4.6579864056043645E+00    1.3065718429332700E+01
N   -1.6856783778229865E+00    2.7901656099579064E+00    1.3663665188777921E+01
Ga   -1.6872057403585092E+00    2.8044521544213148E+00    1.5664392024082019E+01
N   -1.7060146566168446E+00    4.6787991379109286E+00    1.6279399054889996E+01
Ga   -1.6603238121928645E+00    4.6456365387436929E+00    1.8307385850340310E+01
N   -1.6985531543419969E+00    2.7784950290537771E+00    1.8658558568362910E+01
Ga   -3.2884091119268217E+00    5.5721626544188156E+00    3.4137617225486194E-01
N   -3.2810541597460112E+00    7.4428827394827088E+00    6.2172372466078774E-01
Ga   -3.3092611024881600E+00    7.4603946471142990E+00    2.6519176775459417E+00
N   -3.2867663980538930E+00    5.5752160101473649E+00    3.2456044408921323E+00
Ga   -3.2872050783689737E+00    5.5783468184755529E+00    5.2550407483954693E+00
N   -3.2826836026163502E+00    7.4487114415272373E+00    5.8646262576979842E+00
Ga   -3.2875195261250520E+00    7.4521669127938734E+00    7.8624155630523749E+00
N   -3.2918443359919269E+00    5.5811702599237085E+00    8.4654812085382147E+00
Ga   -3.2933755914507588E+00    5.5852054586342579E+00    1.0458952453395838E+01
N   -3.2921034628972357E+00    7.4555521591552028E+00    1.1068600512287249E+01
Ga   -3.2995019022986245E+00    7.4616322990296755E+00    1.3063255569841571E+01
N   -3.3072761920472851E+00    5.5881909144710118E+00    1.3671682006316029E+01
Ga   -3.3110185935211880E+00    5.5901302121275069E+00    1.5661795877764872E+01
N   -3.3018583894729092E+00    7.4591492150801830E+00    1.6261494435353615E+01
Ga   -3.2857568917276820E+00    7.5169560875621082E+00    1.8290869451465444E+01
N   -3.2841350042492961E+00    5.6227192595806939E+00    1.8862218803324236E+01
Ga    3.1987174166277104E+00   -3.8867205598460283E-02    3.4128598703447938E-01
N    3.1960724097865110E+00    1.8310545446908375E+00    6.2685100499457103E-01
Ga    3.2247176361650096E+00    1.8488971224544664E+00    2.6556244639064088E+00
N    3.1973916516940073E+00   -3.6942902387397752E-02    3.2457986492214430E+00
Ga    3.1974178469961085E+00   -3.2996594324558051E-02    5.2550142581389521E+00
N    3.1965884730593705E+00    1.8374488132104301E+00    5.8649259785289285E+00
Ga    3.1937132415267047E+00    1.8396438738722301E+00    7.8628381956869253E+00
N    3.1933638534093483E+00   -3.0412712611724527E-02    8.4690287484722333E+00
Ga    3.1910646319386986E+00   -2.7406545400364402E-02    1.0465038771807320E+01
N    3.1944929565882569E+00    1.8438129911283359E+00    1.1071334146718764E+01
Ga    3.1888105210342794E+00    1.8456505688247031E+00    1.3067451709168468E+01
N    3.1868090375231892E+00   -2.8151942076059595E-02    1.3674256677269385E+01
Ga    3.1918046701376412E+00   -1.9228091662946038E-02    1.5675239234357383E+01
N    3.1979987440848818E+00    1.8562218021551908E+00    1.6243231987563927E+01
Ga    3.1576719450501551E+00    1.7978640189246755E+00    1.8247644061947383E+01
N    3.1940176448212898E+00   -1.9152547100410457E-02    1.8761301143978333E+01
Ga    1.5776415722293091E+00    2.7679697125060785E+00    3.4142171885528538E-01
N    1.5844345204506713E+00    4.6367339000101486E+00    6.2413969178025819E-01
Ga    1.5554933911480828E+00    4.6547980262302220E+00    2.6520159767789777E+00
N    1.5772598710358618E+00    2.7691199273768010E+00    3.2451950952337345E+00
Ga    1.5772912213112629E+00    2.7726627503887706E+00    5.2543809259083574E+00
N    1.5827327613065887E+00    4.6429205760267926E+00    5.8639369004616233E+00
Ga    1.5780227448680202E+00    4.6457119766459458E+00    7.8615192891546828E+00
N    1.5737455275545371E+00    2.7762886072458786E+00    8.4710110041854385E+00
Ga    1.5710131610292228E+00    2.7805315852628389E+00    1.0468318330461386E+01
N    1.5740393466381868E+00    4.6545740738183774E+00    1.1070669720626903E+01
Ga    1.5702526455958603E+00    4.6575612022309105E+00    1.3067222345751290E+01
N    1.5738958934553815E+00    2.7890238662211719E+00    1.3662894107050612E+01
Ga    1.5695065223403626E+00    2.8032810730319739E+00    1.5662818880567999E+01
N    1.5945772085402707E+00    4.6780529300217211E+00    1.6271806575573390E+01
Ga    1.5398654541615371E+00    4.6439556706547993E+00    1.8294545275687810E+01
N    1.5755269052747274E+00    2.7772872310708347E+00    1.8652148644033716E+01
Ga   -4.2358509362738245E-02    5.5728112583951850E+00   -5.3728746591334142E-01
N   -3.9394277766674556E-02    7.4479023104718349E+00    6.2435263944031472E-01
Ga   -3.9279442723592427E-02    7.4171617707563025E+00    2.6525639490498665E+00
N   -4.2221785368521489E-02    5.5743401649988717E+00    3.2863500114901503E+00
Ga   -4.2045601119148540E-02    5.5782626823267236E+00    5.2758617178682776E+00
N   -3.9278430895998209E-02    7.4531862607394688E+00    5.8645595433377551E+00
Ga   -4.2804127747876314E-02    7.4542101098185762E+00    7.8620832219777261E+00
N   -4.5779960078947614E-02    5.5813571007886820E+00    8.4649353726289380E+00
Ga   -4.8608606866312416E-02    5.5850208707050619E+00    1.0461704222764981E+01
N   -4.6500145159966963E-02    7.4551279533079029E+00    1.1073523912163116E+01
Ga   -4.9211324716738551E-02    7.4504354008593712E+00    1.3070110424505534E+01
N   -5.3240311777079635E-02    5.5822694707779101E+00    1.3687424811602497E+01
Ga   -5.5172956892769152E-02    5.5862658916905907E+00    1.5699685662095813E+01
N   -5.2974569525156556E-02    7.4610786829812792E+00    1.6283983741046264E+01
Ga   -5.5069444274901826E-02    7.4388814378132704E+00    1.8382257925261598E+01
N   -5.7977339087360892E-02    5.5760798428411951E+00    1.8718207470767712E+01
Ga    6.4405287232000186E+00   -3.8095825530303933E-02    3.4116371783866450E-01
N    6.4485574406285178E+00    1.8319818486806769E+00    6.2680916591071145E-01
Ga    6.4213565160876209E+00    1.8489716312605644E+00    2.6558744670936618E+00
N    6.4428443106979385E+00   -3.6681355901078308E-02    3.2456372987281528E+00
Ga    6.4431533817354412E+00   -3.2849170890774937E-02    5.2546545675723264E+00
N    6.4490584319785027E+00    1.8372869097507174E+00    5.8646577737521373E+00
Ga    6.4450095961628673E+00    1.8397815299498204E+00    7.8622765164357524E+00
N    6.4392680523750840E+00   -3.0395114115656315E-02    8.4690585238024880E+00
Ga    6.4353718781246201E+00   -2.7735678824509915E-02    1.0464468898227421E+01
N    6.4372707435786580E+00    1.8431499008079610E+00    1.1071768925834149E+01
Ga    6.4375349515424078E+00    1.8440792394233403E+00    1.3067997809361936E+01
N    6.4327976119824264E+00   -3.0023385730009743E-02    1.3672850145076719E+01
Ga    6.4204138225066032E+00   -2.2035485636785861E-02    1.5674736767884351E+01
N    6.4227053005996497E+00    1.8540869212123807E+00    1.6242335004859108E+01
Ga    6.4614310940947624E+00    1.7969445191986924E+00    1.8246190257707600E+01
N    6.4120067522681392E+00   -1.8513187555514694E-02    1.8762470144322361E+01
Ga    4.8229308197712095E+00    2.7665512607412017E+00   -5.1316796141853682E-01
N    4.8257498179861198E+00    4.6421545210088784E+00    6.2727990990157800E-01
Ga    4.8261650238274552E+00    4.6125320133251257E+00    2.6561971476805466E+00
N    4.8232422606326448E+00    2.7690348659222623E+00    3.2888061698700350E+00
Ga    4.8232201173784048E+00    2.7721908769978265E+00    5.2779665179525308E+00
N    4.8259727719464083E+00    4.6474930900107267E+00    5.8638473083627183E+00
Ga    4.8222861010335167E+00    4.6482933507482898E+00    7.8612642414597138E+00
N    4.8194271610284050E+00    2.7738802854189739E+00    8.4634361628438253E+00
Ga    4.8166711605430894E+00    2.7749593930999215E+00    1.0459401823899187E+01
N    4.8190141088420271E+00    4.6492975587925534E+00    1.1058811564675070E+01
Ga    4.8167627862784252E+00    4.6546502982065663E+00    1.3045534381466773E+01
N    4.8133984805461081E+00    2.7901816377025015E+00    1.3671372673272048E+01
Ga    4.8116334427678487E+00    2.8057355499542180E+00    1.5656247195138748E+01
N    4.8134471069548814E+00    4.6559685561500093E+00    1.6332066048962968E+01
Ga    4.8088275164415144E+00    4.6672596583430046E+00    1.8340983515079781E+01
N    4.8094496161175773E+00    2.7503047074696871E+00    1.8883381182786582E+01
Ga    3.2028819839291920E+00    5.5718172092778220E+00    3.4202958630700692E-01
N    3.2010270945493717E+00    7.4424829099213303E+00    6.2230070271021254E-01
Ga    3.2307951601547571E+00    7.4604763954577491E+00    2.6515751852862834E+00
N    3.2029470446336754E+00    5.5752489219852439E+00    3.2453305281275067E+00
Ga    3.2032393990439059E+00    5.5784787213778007E+00    5.2547003730933008E+00
N    3.2038136786042504E+00    7.4488310368810033E+00    5.8642631728703094E+00
Ga    3.2018656169641644E+00    7.4523859898468485E+00    7.8621431946783682E+00
N    3.1994602898314541E+00    5.5810032431025975E+00    8.4649600184948550E+00
Ga    3.1952488761274096E+00    5.5850244486097198E+00    1.0459307638590136E+01
N    3.1994170244280178E+00    7.4550428446104142E+00    1.1067724226568979E+01
Ga    3.2010355422649823E+00    7.4604868661552288E+00    1.3062306874942502E+01
N    3.2042164960574682E+00    5.5870276473323539E+00    1.3668980842249033E+01
Ga    3.2044678774077844E+00    5.5892263245653462E+00    1.5657933124489579E+01
N    3.1964591285197330E+00    7.4564848712030729E+00    1.6257568221005325E+01
Ga    3.1705769018410064E+00    7.5172892562556317E+00    1.8286724950772417E+01
N    3.1608922013327492E+00    5.6227561977293341E+00    1.8856745028631984E+01
H    3.1866492903457506E+00    5.6080272990660553E+00    1.9883168491136548E+01
H    5.7010894683137190E+00    2.3547119648707229E+00    2.0778491396449692E+01
H    3.9578288036262772E+00    2.3399901059650636E+00    2.0791865632667026E+01
C    4.8206195057120782E+00    2.9143597214936876E+00    2.0353465607222425E+01
O    4.8185158162478858E+00    4.1974598460324710E+00    2.0741188293801638E+01
H    6.3980560390055192E+00    5.5923130689238345E+00    1.9889171923542737E+01
     &END COORD
     &KIND C
       BASIS_SET DZVP-MOLOPT-SR-GTH-q4
       POTENTIAL GTH-PBE-q4
       &POTENTIAL
2 2
0.3384712400000000E+00 2 -0.8803673979999999E+01  0.1339210850000000E+01
2
0.3025757500000000E+00 1  0.9622486650000001E+01
0.2915069400000000E+00 0
       &END POTENTIAL
     &END KIND
     &KIND O
       BASIS_SET DZVP-MOLOPT-SR-GTH-q6
       POTENTIAL GTH-PBE-q6
       &POTENTIAL
2 4
0.2445543000000000E+00 2 -0.1666721480000000E+02  0.2487311320000000E+01
2
0.2209559200000000E+00 1  0.1833745811000000E+02
0.2113324700000000E+00 0
       &END POTENTIAL
     &END KIND
     &KIND H
       BASIS_SET DZVP-MOLOPT-SR-GTH-q1
       POTENTIAL GTH-PBE-q1
       &POTENTIAL
1
0.2000000000000000E+00 2 -0.4178900440000000E+01  0.7244633100000000E+00
0
       &END POTENTIAL
     &END KIND
     &KIND N
       BASIS_SET DZVP-MOLOPT-SR-GTH-q5
       POTENTIAL GTH-PBE-q5
       &POTENTIAL
2 3
0.2837905100000000E+00 2 -0.1241522559000000E+02  0.1868095920000000E+01
2
0.2554050000000000E+00 1  0.1363026257000000E+02
0.2454945300000000E+00 0
       &END POTENTIAL
     &END KIND
     &KIND Ga
       BASIS_SET DZVP-MOLOPT-SR-GTH-q13
       POTENTIAL GTH-PBE-q13
       &POTENTIAL
2 1 10
0.4900000000000000E+00 0
3
0.4167772300000000E+00 3  0.1047568975000000E+02 -0.4921768140000000E+01  0.8707055900000000E+00
0.7770178090000000E+01 -0.2248152160000000E+01
0.1784415450000000E+01
0.5696265200000000E+00 2  0.1777985340000000E+01  0.1958597600000000E+00
-0.2317443900000000E+00
0.2381265000000000E+00 1 -0.1624868022000000E+02
       &END POTENTIAL
     &END KIND
     &TOPOLOGY
       NUMBER_OF_ATOMS  150
       MULTIPLE_UNIT_CELL  1 1 1
     &END TOPOLOGY
   &END SUBSYS
 &END FORCE_EVAL
