 # Version information for this restart file 
 # current date 2019-05-23 15:27:30.155
 # current working dir /lustre03/project/6004141/rzk/GaN-carbene/01-Methanol/01-CH3-ads
 # Program compiled at                              Sun Apr  7 00:48:11 EDT 2019
 # Program compiled on                          beluga2.int.ets1.calculquebec.ca
 # Program compiled for                        Beluga-Linux-x86-64-intel-openmpi
 # Source code revision number                                         svn:18619
 &GLOBAL
   PRINT_LEVEL  MEDIUM
   PROJECT_NAME TEST
   RUN_TYPE  GEO_OPT
 &END GLOBAL
 &MOTION
   &GEO_OPT
     MAX_ITER  500
     STEP_START_VAL  52
   &END GEO_OPT
 &END MOTION
 &FORCE_EVAL
   METHOD  QS
   STRESS_TENSOR  ANALYTICAL
   &DFT
     BASIS_SET_FILE_NAME BASIS_MOLOPT
     POTENTIAL_FILE_NAME GTH_POTENTIALS
     &SCF
       MAX_SCF  100
       EPS_SCF     5.0000000000000004E-06
       &OT  T
         PRECONDITIONER  FULL_ALL
       &END OT
       &OUTER_SCF  T
         OPTIMIZER  NONE
         EPS_SCF     5.0000000000000004E-06
         MAX_SCF  10
       &END OUTER_SCF
       &PRINT
         &RESTART  OFF
           BACKUP_COPIES  1
           &EACH
             JUST_ENERGY  0
             QS_SCF  0
             MD  20
           &END EACH
         &END RESTART
       &END PRINT
     &END SCF
     &QS
       EPS_DEFAULT     1.0000000000000000E-14
       ALMO_SCF  F
       METHOD  GPW
     &END QS
     &MGRID
       NGRIDS  5
       CUTOFF     1.2000000000000000E+03
     &END MGRID
     &XC
       DENSITY_CUTOFF     1.0000000000000000E-10
       GRADIENT_CUTOFF     1.0000000000000000E-10
       TAU_CUTOFF     1.0000000000000000E-10
       &XC_FUNCTIONAL  NO_SHORTCUT
         &PBE  T
         &END PBE
       &END XC_FUNCTIONAL
       &VDW_POTENTIAL
         POTENTIAL_TYPE  PAIR_POTENTIAL
         &PAIR_POTENTIAL
           R_CUTOFF     1.0000000000000005E+01
           TYPE  DFTD3
           PARAMETER_FILE_NAME dftd3.dat
           REFERENCE_FUNCTIONAL PBE
           EPS_CN     9.9999999999999995E-07
           CALCULATE_C9_TERM  T
           REFERENCE_C9_TERM  T
           LONG_RANGE_CORRECTION  F
           VERBOSE_OUTPUT  F
         &END PAIR_POTENTIAL
       &END VDW_POTENTIAL
     &END XC
   &END DFT
   &SUBSYS
     &CELL
       A     9.7367653356401487E+00    0.0000000000000000E+00    0.0000000000000000E+00
       B    -4.8591341382960209E+00    8.4162672083210595E+00    0.0000000000000000E+00
       C     0.0000000000000000E+00    0.0000000000000000E+00    3.0744000000000000E+01
       MULTIPLE_UNIT_CELL  1 1 1
       &CELL_REF
         A     9.5580000000000052E+00    0.0000000000000000E+00    0.0000000000000000E+00
         B    -4.7790000000000026E+00    8.2774708093716640E+00    0.0000000000000000E+00
         C     0.0000000000000000E+00    0.0000000000000000E+00    3.0744000000000000E+01
         MULTIPLE_UNIT_CELL  1 1 1
       &END CELL_REF
     &END CELL
     &COORD
Ga    7.9009586527658115E-03   -3.1774943221022485E-02   -6.3052665552262843E-01
N    1.1806341380571005E-02    1.8419237590081863E+00    5.3820253177389121E-01
Ga    1.3198376047164175E-02    1.8080561817162033E+00    2.5707833741560391E+00
N    1.0014838809455431E-02   -3.4529159235217370E-02    3.2041644328096024E+00
Ga    1.3877624754220284E-03   -3.9975314434435263E-02    5.1947530053855395E+00
N    3.3160069691706893E-03    1.8332388553685828E+00    5.7838176184177605E+00
Ga   -1.4273318577305764E-02    1.8251756457736401E+00    7.7826129332775382E+00
N   -1.7902564480556483E-02   -4.7971176712150898E-02    8.3846227367189172E+00
Ga   -2.9658991062100900E-02   -4.9277485452150167E-02    1.0381671402333447E+01
N   -3.0542920409032306E-02    1.8213880525485293E+00    1.0986907770495623E+01
Ga   -4.0711788967572937E-02    1.8207186714405437E+00    1.2981557177261788E+01
N   -4.2747785798709165E-02   -4.5476404939673275E-02    1.3595803178940795E+01
Ga   -4.4617238599778612E-02   -3.9707089171911757E-02    1.5607744756036151E+01
N   -4.5093840603318530E-02    1.8355428153863604E+00    1.6237217726569810E+01
Ga   -4.7288400842226817E-02    1.8491156707528080E+00    1.8351842649199085E+01
N   -3.6719557202286236E-02   -4.3489089943649015E-02    1.8631748090459553E+01
Ga   -1.6101184900883827E+00    2.7727331611348318E+00    2.5935518781507549E-01
N   -1.6140744818151627E+00    4.6413753266044759E+00    5.4324005669967590E-01
Ga   -1.5820714310060253E+00    4.6567109519166836E+00    2.5726503735179160E+00
N   -1.6069186577981545E+00    2.7709999393095495E+00    3.1659916240626105E+00
Ga   -1.6163400373730317E+00    2.7663312255998975E+00    5.1765850585526412E+00
N   -1.6177034045030705E+00    4.6355330348564951E+00    5.7850595314955635E+00
Ga   -1.6338168154230799E+00    4.6297169681266510E+00    7.7831772669474546E+00
N   -1.6379252658676406E+00    2.7583592499625298E+00    8.3877504901323015E+00
Ga   -1.6497844372725443E+00    2.7555218624276856E+00    1.0383145651271365E+01
N   -1.6441842633075432E+00    4.6264698036251346E+00    1.0993120857023596E+01
Ga   -1.6469081322989250E+00    4.6276908902754474E+00    1.2989863798862451E+01
N   -1.6563602552997287E+00    2.7545476192964937E+00    1.3599212492260458E+01
Ga   -1.6650326745231794E+00    2.7688880495656956E+00    1.5608895258890048E+01
N   -1.6630368760994190E+00    4.6271134293603495E+00    1.6205231630414008E+01
Ga   -1.6691027754690144E+00    4.6437276525470095E+00    1.8292584654586008E+01
N   -1.6692004619793217E+00    2.7750112917442324E+00    1.8726982506194897E+01
Ga   -3.2308478909511225E+00    5.5794811828326001E+00    2.6086414278914916E-01
N   -3.2245850998974475E+00    7.4490814232320766E+00    5.3972831068758387E-01
Ga   -3.2511238386179970E+00    7.4631137443271101E+00    2.5724619486687179E+00
N   -3.2280455392342522E+00    5.5779367362023073E+00    3.1669987282899559E+00
Ga   -3.2366739424523421E+00    5.5714042377766324E+00    5.1778722281660752E+00
N   -3.2345380286387533E+00    7.4407558797707720E+00    5.7842619150773826E+00
Ga   -3.2524871033864811E+00    7.4331768596869106E+00    7.7833996583880403E+00
N   -3.2554248683160165E+00    5.5630264438116130E+00    8.3895992404899520E+00
Ga   -3.2651986313075740E+00    5.5644750332934327E+00    1.0386628250608979E+01
N   -3.2687714990869829E+00    7.4357768700444300E+00    1.0993556860956154E+01
Ga   -3.2732869358952610E+00    7.4429295231512462E+00    1.2992725553296161E+01
N   -3.2703902640100346E+00    5.5640746389642217E+00    1.3574908274859379E+01
Ga   -3.2692477545353773E+00    5.5691862602727555E+00    1.5570630281010651E+01
N   -3.2650602117974490E+00    7.4444003905235236E+00    1.6130917002888516E+01
Ga   -3.2847362896477774E+00    7.4376136823330228E+00    1.8178549250182584E+01
N   -3.3065737124219585E+00    5.5745485506169636E+00    1.8635653314546936E+01
Ga    3.2547469987020272E+00   -3.3791050264230620E-02    2.6212211414500397E-01
N    3.2554812013153884E+00    1.8386534249948367E+00    5.5217038693712428E-01
Ga    3.2826336687399760E+00    1.8514560548572443E+00    2.5834024135942353E+00
N    3.2549188586272746E+00   -3.5523003347971288E-02    3.1677042132299849E+00
Ga    3.2474435655362255E+00   -4.0235868697131770E-02    5.1784213113989406E+00
N    3.2454270792073943E+00    1.8298004310504457E+00    5.7853823990791851E+00
Ga    3.2302364857660506E+00    1.8237570711653566E+00    7.7843572800663159E+00
N    3.2273297941963599E+00   -4.8457326580524075E-02    8.3872928062059930E+00
Ga    3.2138652074000036E+00   -5.0122027941443791E-02    1.0383064968884987E+01
N    3.2147041629705320E+00    1.8228769801801126E+00    1.0983185120527775E+01
Ga    3.2042292705246900E+00    1.8260186673497871E+00    1.2977806816058960E+01
N    3.2145587277001262E+00   -4.0308887673414250E-02    1.3595247080528932E+01
Ga    3.2163436398999146E+00   -3.4726535507681511E-02    1.5598013818827242E+01
N    3.2101590232086696E+00    1.8552378469677540E+00    1.6153466658116944E+01
Ga    3.1805424674917435E+00    1.8539619826191942E+00    1.8195723780997600E+01
N    3.1749036299573636E+00   -1.9869624460024195E-02    1.8609400197972032E+01
Ga    1.6330468151292028E+00    2.7737485244468765E+00    2.6067444610697210E-01
N    1.6423968643676958E+00    4.6423782300235787E+00    5.4396584178640539E-01
Ga    1.6150075390694949E+00    4.6569040008491180E+00    2.5743335434521422E+00
N    1.6341886932004690E+00    2.7710809829691438E+00    3.1667399479522476E+00
Ga    1.6269430335754664E+00    2.7667010848785973E+00    5.1774081912261876E+00
N    1.6313984339365117E+00    4.6361998167473653E+00    5.7850980869114856E+00
Ga    1.6148346859270133E+00    4.6306409195438043E+00    7.7832122130376797E+00
N    1.6067518509213550E+00    2.7589518155618804E+00    8.3865892762983094E+00
Ga    1.5918213154130070E+00    2.7566817918130444E+00    1.0382316787733345E+01
N    1.5942383854023738E+00    4.6278316608806334E+00    1.0993644406253699E+01
Ga    1.5780668945069904E+00    4.6323814129569705E+00    1.2991522102789466E+01
N    1.5782142814795337E+00    2.7552881405314813E+00    1.3587754099551788E+01
Ga    1.5738106367063203E+00    2.7634014169564503E+00    1.5588316185316739E+01
N    1.5852763160996464E+00    4.6446526242641326E+00    1.6136336881821563E+01
Ga    1.5504516266743669E+00    4.6313217227741976E+00    1.8163952067281649E+01
N    1.5805129141981644E+00    2.7851992331019368E+00    1.8673671754829321E+01
Ga    1.3838135001893950E-02    5.5798989220596562E+00   -6.1490189825238173E-01
N    1.8344505470737873E-02    7.4556361928272388E+00    5.4566203925735279E-01
Ga    1.9727635851390882E-02    7.4210369535931253E+00    2.5751093599081400E+00
N    1.6278122117227904E-02    5.5765127580851832E+00    3.2049673080109895E+00
Ga    8.2129432662233649E-03    5.5718821313063902E+00    5.1957297468329271E+00
N    9.7358557471203724E-03    7.4450874172943786E+00    5.7852507675513571E+00
Ga   -6.7563066527803594E-03    7.4373635993319036E+00    7.7832999307420652E+00
N   -1.0919965332808803E-02    5.5640773775053427E+00    8.3851627152273149E+00
Ga   -2.4150323879270130E-02    5.5624857484510484E+00    1.0381107046896730E+01
N   -2.1096977342457586E-02    7.4331836854157096E+00    1.0989030100735784E+01
Ga   -2.7469784835411803E-02    7.4365689480112778E+00    1.2985290375477097E+01
N   -3.8488056435976047E-02    5.5728855486007687E+00    1.3617530454115048E+01
Ga   -5.2285385277024553E-02    5.5910055446562721E+00    1.5631023589395374E+01
N   -4.0726487183717824E-02    7.4507132538260548E+00    1.6262064261298882E+01
Ga   -3.7668083303878899E-02    7.4690983386377523E+00    1.8365349207569622E+01
N   -4.0525623431916062E-02    5.5747760661021193E+00    1.8625871637149920E+01
Ga    6.4990632971904487E+00   -3.2319734209191812E-02    2.6052253647930224E-01
N    6.5037798604574517E+00    1.8396707817298819E+00    5.5017150282233696E-01
Ga    6.4819318074328116E+00    1.8512870961407684E+00    2.5830260365015376E+00
N    6.5027717110172416E+00   -3.5437571290761388E-02    3.1669109282269603E+00
Ga    6.4935839339128920E+00   -4.0574853725592282E-02    5.1774327717373474E+00
N    6.4986736108629453E+00    1.8293475677381557E+00    5.7842452585810005E+00
Ga    6.4800593155685613E+00    1.8235012357463980E+00    7.7819596120765411E+00
N    6.4735331480041873E+00   -4.6811853250303188E-02    8.3866508005674021E+00
Ga    6.4605215430043179E+00   -4.7831285918178340E-02    1.0380959376456138E+01
N    6.4638979388369853E+00    1.8210514518711207E+00    1.0990533708324065E+01
Ga    6.4583675440367392E+00    1.8223676854910902E+00    1.2988234894823378E+01
N    6.4439788799158180E+00   -4.5734553290385331E-02    1.3610618618938501E+01
Ga    6.4276970768063642E+00   -3.4904650469226327E-02    1.5622526292678106E+01
N    6.4314894830064553E+00    1.8523442655133882E+00    1.6161851460123433E+01
Ga    6.4672820525979891E+00    1.8576072594500326E+00    1.8222849079998308E+01
N    6.4595956308452473E+00   -1.4101491037543623E-02    1.8641239745665889E+01
Ga    4.8784346436192960E+00    2.7738330691837714E+00   -5.5626780625423200E-01
N    4.8829367213612853E+00    4.6458935882796677E+00    5.5168727931861161E-01
Ga    4.8850529833733249E+00    4.6158140033008639E+00    2.5829568570877663E+00
N    4.8822898196907341E+00    2.7712061409487969E+00    3.2125297351291193E+00
Ga    4.8736526891518333E+00    2.7660409386761877E+00    5.2014073537528507E+00
N    4.8749628290210545E+00    4.6405588416772972E+00    5.7873127604050945E+00
Ga    4.8582139574622714E+00    4.6327175947796269E+00    7.7873629835694498E+00
N    4.8544700078678895E+00    2.7567504195959227E+00    8.3843665579694537E+00
Ga    4.8425903987499597E+00    2.7551543635246971E+00    1.0381756026594230E+01
N    4.8450264878902169E+00    4.6293043608683231E+00    1.0978581454342935E+01
Ga    4.8381408002143225E+00    4.6369940973777259E+00    1.2970386230632561E+01
N    4.8296452984213394E+00    2.7660250167690492E+00    1.3565413532363605E+01
Ga    4.8287026925296948E+00    2.7769484819660146E+00    1.5551677988135356E+01
N    4.8264121142833254E+00    4.6608331608370328E+00    1.6110464726973635E+01
Ga    4.8446513680447554E+00    4.6498102481332060E+00    1.8112884551558817E+01
N    4.8146911697854620E+00    2.7783171707192733E+00    1.8642410021888971E+01
Ga    3.2594154580049883E+00    5.5792130884238285E+00    2.6110293398061551E-01
N    3.2594069959490133E+00    7.4488722522692994E+00    5.3896349061305582E-01
Ga    3.2900864295741856E+00    7.4635025392939465E+00    2.5704903595171977E+00
N    3.2613678352391537E+00    5.5782470250982517E+00    3.1668076236776344E+00
Ga    3.2534307306130605E+00    5.5719292543586842E+00    5.1774004043424124E+00
N    3.2530101916632175E+00    7.4408086212925584E+00    5.7849279619972647E+00
Ga    3.2369938533634515E+00    7.4334733973750753E+00    7.7844507309881106E+00
N    3.2335384561735525E+00    5.5634504373191129E+00    8.3907882309489956E+00
Ga    3.2192417854012105E+00    5.5645359990069636E+00    1.0388531455613480E+01
N    3.2221153952658286E+00    7.4385345513441852E+00    1.0988157971381225E+01
Ga    3.2104062737860186E+00    7.4486746681944487E+00    1.2983754467449581E+01
N    3.2087958824003686E+00    5.5713205697529276E+00    1.3560720470846995E+01
Ga    3.2045852527081973E+00    5.5795983163823699E+00    1.5546426843293940E+01
N    3.1953713873211789E+00    7.4440417497879334E+00    1.6178009801185940E+01
Ga    3.2125255441013967E+00    7.4681229320587654E+00    1.8242887243784004E+01
N    3.2003222463454848E+00    5.5635379725960243E+00    1.8595448217692805E+01
H    3.3902249667552815E+00    5.0502080018783584E+00    2.0367090870486056E+01
H    4.1295187371762978E+00    3.4696395386164687E+00    2.0439957490531462E+01
H    2.7396221207805849E+00    3.8397540019855536E+00    2.1621057726812186E+01
C    3.6623720381257501E+00    4.2281801192790383E+00    2.1134198521800990E+01
O    4.5562115786731541E+00    4.6669703336014230E+00    2.2153565333891393E+01
H    5.3887915951058130E+00    4.9802527209802809E+00    2.1706028402114427E+01
     &END COORD
     &KIND C
       BASIS_SET DZVP-MOLOPT-SR-GTH-q4
       POTENTIAL GTH-PBE-q4
       &POTENTIAL
 2 2
  0.3384712400000000E+00 2 -0.8803673979999999E+01  0.1339210850000000E+01
 2
  0.3025757500000000E+00 1  0.9622486650000001E+01
  0.2915069400000000E+00 0
         # Potential name:  GTH-PBE-Q4  for symbol:  C
         # Potential read from the potential filename: GTH_POTENTIALS
       &END POTENTIAL
     &END KIND
     &KIND O
       BASIS_SET DZVP-MOLOPT-SR-GTH-q6
       POTENTIAL GTH-PBE-q6
       &POTENTIAL
 2 4
  0.2445543000000000E+00 2 -0.1666721480000000E+02  0.2487311320000000E+01
 2
  0.2209559200000000E+00 1  0.1833745811000000E+02
  0.2113324700000000E+00 0
         # Potential name:  GTH-PBE-Q6  for symbol:  O
         # Potential read from the potential filename: GTH_POTENTIALS
       &END POTENTIAL
     &END KIND
     &KIND H
       BASIS_SET DZVP-MOLOPT-SR-GTH-q1
       POTENTIAL GTH-PBE-q1
       &POTENTIAL
 1
  0.2000000000000000E+00 2 -0.4178900440000000E+01  0.7244633100000000E+00
 0
         # Potential name:  GTH-PBE-Q1  for symbol:  H
         # Potential read from the potential filename: GTH_POTENTIALS
       &END POTENTIAL
     &END KIND
     &KIND N
       BASIS_SET DZVP-MOLOPT-SR-GTH-q5
       POTENTIAL GTH-PBE-q5
       &POTENTIAL
 2 3
  0.2837905100000000E+00 2 -0.1241522559000000E+02  0.1868095920000000E+01
 2
  0.2554050000000000E+00 1  0.1363026257000000E+02
  0.2454945300000000E+00 0
         # Potential name:  GTH-PBE-Q5  for symbol:  N
         # Potential read from the potential filename: GTH_POTENTIALS
       &END POTENTIAL
     &END KIND
     &KIND Ga
       BASIS_SET DZVP-MOLOPT-SR-GTH-q13
       POTENTIAL GTH-PBE-q13
       &POTENTIAL
 2 1 10
  0.4900000000000000E+00 0
 3
  0.4167772300000000E+00 3  0.1047568975000000E+02 -0.4921768140000000E+01  0.8707055900000000E+00
  0.7770178090000000E+01 -0.2248152160000000E+01
  0.1784415450000000E+01
  0.5696265200000000E+00 2  0.1777985340000000E+01  0.1958597600000000E+00
 -0.2317443900000000E+00
  0.2381265000000000E+00 1 -0.1624868022000000E+02
         # Potential name:  GTH-PBE-Q13  for symbol:  GA
         # Potential read from the potential filename: GTH_POTENTIALS
       &END POTENTIAL
     &END KIND
     &TOPOLOGY
       NUMBER_OF_ATOMS  150
       MULTIPLE_UNIT_CELL  1 1 1
     &END TOPOLOGY
   &END SUBSYS
 &END FORCE_EVAL
