 # Version information for this restart file 
 # current date 2019-05-23 22:13:32.723
 # current working dir /lustre03/project/6004141/rzk/GaN-carbene/04-Methanol-decomp/01-CH3-decompose
 # Program compiled at                              Sun Apr  7 00:48:11 EDT 2019
 # Program compiled on                          beluga2.int.ets1.calculquebec.ca
 # Program compiled for                        Beluga-Linux-x86-64-intel-openmpi
 # Source code revision number                                         svn:18619
 &GLOBAL
   PRINT_LEVEL  MEDIUM
   PROJECT_NAME TEST
   RUN_TYPE  GEO_OPT
 &END GLOBAL
 &MOTION
   &GEO_OPT
     MAX_ITER  500
     STEP_START_VAL  127
   &END GEO_OPT
 &END MOTION
 &FORCE_EVAL
   METHOD  QS
   STRESS_TENSOR  ANALYTICAL
   &DFT
     BASIS_SET_FILE_NAME BASIS_MOLOPT
     POTENTIAL_FILE_NAME GTH_POTENTIALS
     &SCF
       MAX_SCF  100
       EPS_SCF     5.0000000000000004E-06
       &OT  T
         PRECONDITIONER  FULL_ALL
       &END OT
       &OUTER_SCF  T
         OPTIMIZER  NONE
         EPS_SCF     5.0000000000000004E-06
         MAX_SCF  10
       &END OUTER_SCF
       &PRINT
         &RESTART  OFF
           BACKUP_COPIES  1
           &EACH
             JUST_ENERGY  0
             QS_SCF  0
             MD  20
           &END EACH
         &END RESTART
       &END PRINT
     &END SCF
     &QS
       EPS_DEFAULT     1.0000000000000000E-14
       ALMO_SCF  F
       METHOD  GPW
     &END QS
     &MGRID
       NGRIDS  5
       CUTOFF     1.2000000000000000E+03
     &END MGRID
     &XC
       DENSITY_CUTOFF     1.0000000000000000E-10
       GRADIENT_CUTOFF     1.0000000000000000E-10
       TAU_CUTOFF     1.0000000000000000E-10
       &XC_FUNCTIONAL  NO_SHORTCUT
         &PBE  T
         &END PBE
       &END XC_FUNCTIONAL
       &VDW_POTENTIAL
         POTENTIAL_TYPE  PAIR_POTENTIAL
         &PAIR_POTENTIAL
           R_CUTOFF     1.0000000000000009E+01
           TYPE  DFTD3
           PARAMETER_FILE_NAME dftd3.dat
           REFERENCE_FUNCTIONAL PBE
           EPS_CN     9.9999999999999995E-07
           CALCULATE_C9_TERM  T
           REFERENCE_C9_TERM  T
           LONG_RANGE_CORRECTION  F
           VERBOSE_OUTPUT  F
         &END PAIR_POTENTIAL
       &END VDW_POTENTIAL
     &END XC
   &END DFT
   &SUBSYS
     &CELL
       A     9.7367653356401487E+00    0.0000000000000000E+00    0.0000000000000000E+00
       B    -4.8591341382960209E+00    8.4162672083210595E+00    0.0000000000000000E+00
       C     0.0000000000000000E+00    0.0000000000000000E+00    3.0744000000000000E+01
       MULTIPLE_UNIT_CELL  1 1 1
       &CELL_REF
         A     9.5580000000000087E+00    0.0000000000000000E+00    0.0000000000000000E+00
         B    -4.7790000000000044E+00    8.2774708093716640E+00    0.0000000000000000E+00
         C     0.0000000000000000E+00    0.0000000000000000E+00    3.0744000000000000E+01
         MULTIPLE_UNIT_CELL  1 1 1
       &END CELL_REF
     &END CELL
     &COORD
Ga   -4.8418299641589967E-02   -3.3518035986030745E-02   -5.2953345568967958E-01
N   -4.5762581139158896E-02    1.8414528341148035E+00    6.2220820876538097E-01
Ga   -4.7085497814641018E-02    1.8094881789752675E+00    2.6512540726510014E+00
N   -5.0164683524031820E-02   -3.3478080483139494E-02    3.2849695455824315E+00
Ga   -5.0769810410757121E-02   -3.0602255141535882E-02    5.2749710032306956E+00
N   -4.8124362716382769E-02    1.8437418931253255E+00    5.8646872273693385E+00
Ga   -5.0346898555511527E-02    1.8440244421115577E+00    7.8633566101672150E+00
N   -5.3343893069305912E-02   -2.9438206681574486E-02    8.4658313978484276E+00
Ga   -5.4529880153642921E-02   -2.5921934618391512E-02    1.0463754390240027E+01
N   -5.1842811957279501E-02    1.8450445917786951E+00    1.1069876273136675E+01
Ga   -5.4205539690545881E-02    1.8456257205684954E+00    1.3070424910542098E+01
N   -5.7499615816103619E-02   -3.2353612298380637E-02    1.3663143024427375E+01
Ga   -5.8174829855073010E-02   -1.5841060837519374E-02    1.5667637899782751E+01
N   -5.5827474470502535E-02    1.8658226730734366E+00    1.6172418181488524E+01
Ga   -5.8926996814438595E-02    1.8721932128424730E+00    1.8206173419051282E+01
N   -6.0538345613401684E-02   -5.3866230131693173E-03    1.8610848866041131E+01
Ga   -1.6684917779996187E+00    2.7704867172056025E+00    3.3918505753117650E-01
N   -1.6694269689181043E+00    4.6412159075396744E+00    6.2322133651854172E-01
Ga   -1.6427048373564952E+00    4.6572550175683416E+00    2.6535877209892766E+00
N   -1.6698386867371753E+00    2.7716419549205624E+00    3.2441801359398466E+00
Ga   -1.6704691911212690E+00    2.7738164528356681E+00    5.2536131713997820E+00
N   -1.6706156031503343E+00    4.6442192759344190E+00    5.8626438471694247E+00
Ga   -1.6713763838843079E+00    4.6460169565206391E+00    7.8600361658800004E+00
N   -1.6730422971148018E+00    2.7766898872238368E+00    8.4694786007334635E+00
Ga   -1.6739338686931202E+00    2.7791334065406570E+00    1.0466037899369626E+01
N   -1.6719539782549060E+00    4.6549606378544093E+00    1.1066694664409239E+01
Ga   -1.6731045522618826E+00    4.6553617215929446E+00    1.3060482392024452E+01
N   -1.6845085209237889E+00    2.7865987087916793E+00    1.3648671361947743E+01
Ga   -1.6818606960653470E+00    2.7883582323061140E+00    1.5643977093156719E+01
N   -1.6843838589674087E+00    4.6646779949531325E+00    1.6267699256063775E+01
Ga   -1.6320908896769366E+00    4.6552722409889666E+00    1.8298920685130525E+01
N   -1.6940962351355369E+00    2.7898624117563759E+00    1.8675165856586588E+01
Ga   -3.2894252711964187E+00    5.5770799371284792E+00    3.3940297274005210E-01
N   -3.2813317510352311E+00    7.4468678487196742E+00    6.2215524059127036E-01
Ga   -3.3110864956151538E+00    7.4632964084370021E+00    2.6512116616349868E+00
N   -3.2896607804776337E+00    5.5775045971404085E+00    3.2438159550666725E+00
Ga   -3.2903561846353186E+00    5.5798808529216055E+00    5.2532148432659698E+00
N   -3.2848819439391366E+00    7.4503865866612458E+00    5.8628488129550078E+00
Ga   -3.2885247573846299E+00    7.4530761306301665E+00    7.8604372020374882E+00
N   -3.2926805138317450E+00    5.5818688050678160E+00    8.4633131488387860E+00
Ga   -3.2930587071586896E+00    5.5856236461831807E+00    1.0455966818931243E+01
N   -3.2909566934789356E+00    7.4538938808464481E+00    1.1068501827107914E+01
Ga   -3.2946837848149757E+00    7.4571661213188269E+00    1.3063489935167526E+01
N   -3.3042087784788610E+00    5.5813137682280427E+00    1.3680390702019269E+01
Ga   -3.3133336906004942E+00    5.5797133476231142E+00    1.5669998363312262E+01
N   -3.2882735801892928E+00    7.4490478956663608E+00    1.6264138000751391E+01
Ga   -3.2723722655174750E+00    7.5122297242233067E+00    1.8291412828637423E+01
N   -3.2711965447870250E+00    5.6194180734925370E+00    1.8853462707334536E+01
Ga    3.1969115292862438E+00   -3.3757719472406925E-02    3.3901608962839408E-01
N    3.1954127446798308E+00    1.8354807765134233E+00    6.2212221413171864E-01
Ga    3.2233595168721116E+00    1.8522575525873828E+00    2.6506860147716771E+00
N    3.1954813424491064E+00   -3.3163974752416892E-02    3.2439755992712742E+00
Ga    3.1946780571181788E+00   -3.0425620161993239E-02    5.2532016969905708E+00
N    3.1945177605003936E+00    1.8390149496531312E+00    5.8637804198494896E+00
Ga    3.1929144448086082E+00    1.8408992713960126E+00    7.8615483229080114E+00
N    3.1925606151206622E+00   -2.9759562698424454E-02    8.4682015591760891E+00
Ga    3.1920798365853700E+00   -2.7853716737313839E-02    1.0463762030986222E+01
N    3.1963703227173688E+00    1.8443332204873975E+00    1.1065961869688973E+01
Ga    3.1923699068646507E+00    1.8439993987571834E+00    1.3060448127312524E+01
N    3.1872260429323704E+00   -2.7775960930781197E-02    1.3670349050665243E+01
Ga    3.2065379030740226E+00   -3.0306669575296690E-02    1.5673868286595322E+01
N    3.2046688906327145E+00    1.8509679360931506E+00    1.6236293465705057E+01
Ga    3.1490544468081234E+00    1.8035254421219260E+00    1.8242198902781745E+01
N    3.1892488036317839E+00   -1.0566775037850666E-02    1.8777435754952833E+01
Ga    1.5769934730767297E+00    2.7709336177630575E+00    3.3909139410145039E-01
N    1.5831074440289516E+00    4.6417158361720414E+00    6.2334163897248729E-01
Ga    1.5544027984649991E+00    4.6574020414227171E+00    2.6534920924376300E+00
N    1.5759495570173780E+00    2.7716664442745880E+00    3.2441551456140409E+00
Ga    1.5751491337487555E+00    2.7737979318995030E+00    5.2535942803316438E+00
N    1.5804344289556620E+00    4.6441818580158261E+00    5.8625938134716451E+00
Ga    1.5770905219496003E+00    4.6460432686696702E+00    7.8599925954291612E+00
N    1.5727817639431989E+00    2.7766321145069788E+00    8.4694966880193938E+00
Ga    1.5713535015769773E+00    2.7790456948467392E+00    1.0466093059072488E+01
N    1.5743882693541325E+00    4.6547827186545581E+00    1.1066756027007919E+01
Ga    1.5710874781266346E+00    4.6551798678543754E+00    1.3060581416037852E+01
N    1.5763137285559885E+00    2.7866757069356951E+00    1.3649462983228624E+01
Ga    1.5720625384212346E+00    2.7875654944646455E+00    1.5645399463951854E+01
N    1.5791912610570391E+00    4.6646748846203181E+00    1.6270556427269820E+01
Ga    1.5229474173796207E+00    4.6555948750024712E+00    1.8302711297496671E+01
N    1.5775200909712572E+00    2.7891655294993782E+00    1.8672891992990845E+01
Ga   -4.2225398014838697E-02    5.5772996241271748E+00   -5.1112043176508848E-01
N   -3.9605786226063283E-02    7.4512600605231398E+00    6.2336294058922526E-01
Ga   -4.0960165646318270E-02    7.4208886728525769E+00    2.6536223458522037E+00
N   -4.3990156448854581E-02    5.5773613612837307E+00    3.2858148995805516E+00
Ga   -4.4643312312459764E-02    5.5798084315599006E+00    5.2758347128548477E+00
N   -4.2026191217454878E-02    7.4551160452588441E+00    5.8626655244012547E+00
Ga   -4.4039558984511194E-02    7.4553810478276272E+00    7.8599522522513929E+00
N   -4.7016367945343307E-02    5.5821028389896359E+00    8.4623797973108186E+00
Ga   -4.8186449879461843E-02    5.5859256983570988E+00    1.0458152010317484E+01
N   -4.5719709473651143E-02    7.4542629817926240E+00    1.1072750977248830E+01
Ga   -4.7613701313830088E-02    7.4534209443511825E+00    1.3069339152987652E+01
N   -5.0727958147593948E-02    5.5803185365319550E+00    1.3684262372318670E+01
Ga   -5.2647851476538096E-02    5.6063272935474249E+00    1.5691957003067039E+01
N   -4.9990006088096388E-02    7.4600658751312476E+00    1.6313576099975599E+01
Ga   -5.0976504371730680E-02    7.4650895125481380E+00    1.8417083349349745E+01
N   -5.5275807851949001E-02    5.5977244086938311E+00    1.8772316455205985E+01
Ga    6.4421200438100561E+00   -3.3196895246412471E-02    3.3911368627747301E-01
N    6.4488993246904327E+00    1.8360858205372426E+00    6.2242046108579496E-01
Ga    6.4189323116383354E+00    1.8524985023698195E+00    2.6507867465544850E+00
N    6.4411779705371277E+00   -3.3098469501996672E-02    3.2439626552959808E+00
Ga    6.4404433842213313E+00   -3.0416518680452177E-02    5.2531838378583906E+00
N    6.4458825055953604E+00    1.8390827300685324E+00    5.8637502755815145E+00
Ga    6.4434809971390328E+00    1.8408732276357953E+00    7.8615440539801931E+00
N    6.4377718160446173E+00   -2.9778400573514798E-02    8.4679421444899994E+00
Ga    6.4356042902017139E+00   -2.8244149856474225E-02    1.0463349500966766E+01
N    6.4366156601027296E+00    1.8440509783490426E+00    1.1065317810697858E+01
Ga    6.4365331457568402E+00    1.8434015285460645E+00    1.3059448236631864E+01
N    6.4356944588384577E+00   -2.7834607461511059E-02    1.3671246443519538E+01
Ga    6.4136647185668876E+00   -3.0959190476044850E-02    1.5675110441883119E+01
N    6.4237132606371166E+00    1.8501614735503680E+00    1.6237603126321499E+01
Ga    6.4722203801922378E+00    1.8023606618871924E+00    1.8244093986337390E+01
N    6.4260816171723052E+00   -1.1523218517621591E-02    1.8778424115245254E+01
Ga    4.8232551063801017E+00    2.7707102438111582E+00   -5.3750375318707766E-01
N    4.8257052992135305E+00    4.6460116493333157E+00    6.2218576321950247E-01
Ga    4.8243600708979608E+00    4.6141942613480706E+00    2.6509571903098315E+00
N    4.8212666110579230E+00    2.7715972462963818E+00    3.2854294565677633E+00
Ga    4.8205603981973839E+00    2.7738394733430032E+00    5.2753182151322751E+00
N    4.8232812423729694E+00    4.6490103044057749E+00    5.8615217842140055E+00
Ga    4.8211789227171522E+00    4.6494551943501952E+00    7.8583578665706932E+00
N    4.8182823686982799E+00    2.7762982861738323E+00    8.4607239126722007E+00
Ga    4.8167414048700330E+00    2.7771734898122098E+00    1.0455357049803373E+01
N    4.8195332077202044E+00    4.6509736537034181E+00    1.1058489184103303E+01
Ga    4.8175883688236114E+00    4.6533732246781474E+00    1.3045192366132218E+01
N    4.8151861898702286E+00    2.7896780539070605E+00    1.3665981177663467E+01
Ga    4.8138429123641000E+00    2.7995385442655754E+00    1.5650794784995993E+01
N    4.8162105424136801E+00    4.6544876091835157E+00    1.6338714911746997E+01
Ga    4.8146325093336779E+00    4.6619606122817023E+00    1.8352794015681940E+01
N    4.8111694640901392E+00    2.7427284907548088E+00    1.8879040426380595E+01
Ga    3.2040465611463915E+00    5.5765798129216906E+00    3.3943756093838379E-01
N    3.2011056744634589E+00    7.4463224855776282E+00    6.2203176090344059E-01
Ga    3.2289617267367676E+00    7.4630942213996558E+00    2.6512439811859752E+00
N    3.2018808516671227E+00    5.5774409796391513E+00    3.2437473100686334E+00
Ga    3.2010669755437053E+00    5.5797831074575646E+00    5.2531345378459617E+00
N    3.2008915551924799E+00    7.4503605535537893E+00    5.8627057297294982E+00
Ga    3.2001267501755928E+00    7.4530455544010970E+00    7.8602626808431744E+00
N    3.1985408356280947E+00    5.5818750992354911E+00    8.4632318293584330E+00
Ga    3.1961992759156179E+00    5.5853540513847442E+00    1.0455873982139781E+01
N    3.1993546050802601E+00    7.4536067671211113E+00    1.1068480369922824E+01
Ga    3.1985137370671222E+00    7.4567781253105370E+00    1.3063440219845226E+01
N    3.2023591648008218E+00    5.5807382588039420E+00    1.3681074286230839E+01
Ga    3.2092805720382382E+00    5.5789530712999111E+00    1.5670970756501351E+01
N    3.1893738567346750E+00    7.4485409645012126E+00    1.6265238135293519E+01
Ga    3.1696923092286764E+00    7.5120711081898479E+00    1.8292947109824254E+01
N    3.1622161796063963E+00    5.6190917585876710E+00    1.8854416381947839E+01
H    3.1887022414142487E+00    5.5818967539529174E+00    1.9882005582273823E+01
H    5.7044233954071419E+00    2.3471340511878207E+00    2.0772556312272958E+01
H    3.9516151241050030E+00    2.3269345048978223E+00    2.0786476336727969E+01
C    4.8170882417848873E+00    2.9025245607810377E+00    2.0349345812217358E+01
O    4.8097084318294625E+00    4.1867762102328729E+00    2.0732367438363660E+01
H    6.4413356607115553E+00    5.5814806688910279E+00    1.9881000972917928E+01
     &END COORD
     &KIND C
       BASIS_SET DZVP-MOLOPT-SR-GTH-q4
       POTENTIAL GTH-PBE-q4
       &POTENTIAL
2 2
0.3384712400000000E+00 2 -0.8803673979999999E+01  0.1339210850000000E+01
2
0.3025757500000000E+00 1  0.9622486650000001E+01
0.2915069400000000E+00 0
       &END POTENTIAL
     &END KIND
     &KIND O
       BASIS_SET DZVP-MOLOPT-SR-GTH-q6
       POTENTIAL GTH-PBE-q6
       &POTENTIAL
2 4
0.2445543000000000E+00 2 -0.1666721480000000E+02  0.2487311320000000E+01
2
0.2209559200000000E+00 1  0.1833745811000000E+02
0.2113324700000000E+00 0
       &END POTENTIAL
     &END KIND
     &KIND H
       BASIS_SET DZVP-MOLOPT-SR-GTH-q1
       POTENTIAL GTH-PBE-q1
       &POTENTIAL
1
0.2000000000000000E+00 2 -0.4178900440000000E+01  0.7244633100000000E+00
0
       &END POTENTIAL
     &END KIND
     &KIND N
       BASIS_SET DZVP-MOLOPT-SR-GTH-q5
       POTENTIAL GTH-PBE-q5
       &POTENTIAL
2 3
0.2837905100000000E+00 2 -0.1241522559000000E+02  0.1868095920000000E+01
2
0.2554050000000000E+00 1  0.1363026257000000E+02
0.2454945300000000E+00 0
       &END POTENTIAL
     &END KIND
     &KIND Ga
       BASIS_SET DZVP-MOLOPT-SR-GTH-q13
       POTENTIAL GTH-PBE-q13
       &POTENTIAL
2 1 10
0.4900000000000000E+00 0
3
0.4167772300000000E+00 3  0.1047568975000000E+02 -0.4921768140000000E+01  0.8707055900000000E+00
0.7770178090000000E+01 -0.2248152160000000E+01
0.1784415450000000E+01
0.5696265200000000E+00 2  0.1777985340000000E+01  0.1958597600000000E+00
-0.2317443900000000E+00
0.2381265000000000E+00 1 -0.1624868022000000E+02
       &END POTENTIAL
     &END KIND
     &TOPOLOGY
       NUMBER_OF_ATOMS  150
       MULTIPLE_UNIT_CELL  1 1 1
     &END TOPOLOGY
   &END SUBSYS
 &END FORCE_EVAL
