 # Version information for this restart file 
 # current date 2019-05-23 22:12:58.960
 # current working dir /lustre03/project/6004141/rzk/GaN-carbene/04-Methanol-decomp/01-CH3-decompose
 # Program compiled at                              Sun Apr  7 00:48:11 EDT 2019
 # Program compiled on                          beluga2.int.ets1.calculquebec.ca
 # Program compiled for                        Beluga-Linux-x86-64-intel-openmpi
 # Source code revision number                                         svn:18619
 &GLOBAL
   PRINT_LEVEL  MEDIUM
   PROJECT_NAME TEST
   RUN_TYPE  GEO_OPT
 &END GLOBAL
 &MOTION
   &GEO_OPT
     MAX_ITER  500
     STEP_START_VAL  126
   &END GEO_OPT
 &END MOTION
 &FORCE_EVAL
   METHOD  QS
   STRESS_TENSOR  ANALYTICAL
   &DFT
     BASIS_SET_FILE_NAME BASIS_MOLOPT
     POTENTIAL_FILE_NAME GTH_POTENTIALS
     &SCF
       MAX_SCF  100
       EPS_SCF     5.0000000000000004E-06
       &OT  T
         PRECONDITIONER  FULL_ALL
       &END OT
       &OUTER_SCF  T
         OPTIMIZER  NONE
         EPS_SCF     5.0000000000000004E-06
         MAX_SCF  10
       &END OUTER_SCF
       &PRINT
         &RESTART  OFF
           BACKUP_COPIES  1
           &EACH
             JUST_ENERGY  0
             QS_SCF  0
             MD  20
           &END EACH
         &END RESTART
       &END PRINT
     &END SCF
     &QS
       EPS_DEFAULT     1.0000000000000000E-14
       ALMO_SCF  F
       METHOD  GPW
     &END QS
     &MGRID
       NGRIDS  5
       CUTOFF     1.2000000000000000E+03
     &END MGRID
     &XC
       DENSITY_CUTOFF     1.0000000000000000E-10
       GRADIENT_CUTOFF     1.0000000000000000E-10
       TAU_CUTOFF     1.0000000000000000E-10
       &XC_FUNCTIONAL  NO_SHORTCUT
         &PBE  T
         &END PBE
       &END XC_FUNCTIONAL
       &VDW_POTENTIAL
         POTENTIAL_TYPE  PAIR_POTENTIAL
         &PAIR_POTENTIAL
           R_CUTOFF     1.0000000000000009E+01
           TYPE  DFTD3
           PARAMETER_FILE_NAME dftd3.dat
           REFERENCE_FUNCTIONAL PBE
           EPS_CN     9.9999999999999995E-07
           CALCULATE_C9_TERM  T
           REFERENCE_C9_TERM  T
           LONG_RANGE_CORRECTION  F
           VERBOSE_OUTPUT  F
         &END PAIR_POTENTIAL
       &END VDW_POTENTIAL
     &END XC
   &END DFT
   &SUBSYS
     &CELL
       A     9.7367653356401487E+00    0.0000000000000000E+00    0.0000000000000000E+00
       B    -4.8591341382960209E+00    8.4162672083210595E+00    0.0000000000000000E+00
       C     0.0000000000000000E+00    0.0000000000000000E+00    3.0744000000000000E+01
       MULTIPLE_UNIT_CELL  1 1 1
       &CELL_REF
         A     9.5580000000000087E+00    0.0000000000000000E+00    0.0000000000000000E+00
         B    -4.7790000000000044E+00    8.2774708093716640E+00    0.0000000000000000E+00
         C     0.0000000000000000E+00    0.0000000000000000E+00    3.0744000000000000E+01
         MULTIPLE_UNIT_CELL  1 1 1
       &END CELL_REF
     &END CELL
     &COORD
Ga   -4.8334287265060422E-02   -3.3751610347216687E-02   -5.2945315385259917E-01
N   -4.5677161763157545E-02    1.8412201397290135E+00    6.2240711208395816E-01
Ga   -4.6997380042202899E-02    1.8092931427772119E+00    2.6514855923433673E+00
N   -5.0071990539832724E-02   -3.3664828714429836E-02    3.2850716930207318E+00
Ga   -5.0674769683503484E-02   -3.0753087103140102E-02    5.2751001493454339E+00
N   -4.8040872197830431E-02    1.8435615604733286E+00    5.8647171300452010E+00
Ga   -5.0285645210276037E-02    1.8439042533129768E+00    7.8633964351382648E+00
N   -5.3284623016300173E-02   -2.9490603638895909E-02    8.4660379813626943E+00
Ga   -5.4552429596480136E-02   -2.5820998606487178E-02    1.0463988615058614E+01
N   -5.1877705308841227E-02    1.8451858949599913E+00    1.1070170201033532E+01
Ga   -5.4333669178000900E-02    1.8460714966911012E+00    1.3070790191717862E+01
N   -5.7636422500442160E-02   -3.2109718847786711E-02    1.3662985384957542E+01
Ga   -5.8448138331988128E-02   -1.5702806328598735E-02    1.5667488438332517E+01
N   -5.6131760587513631E-02    1.8657785782382366E+00    1.6172501566113901E+01
Ga   -5.9283807654788696E-02    1.8716013074192119E+00    1.8206237826141816E+01
N   -6.1021193380786751E-02   -5.7531607864483615E-03    1.8612081605803827E+01
Ga   -1.6684110205042677E+00    2.7703058750788276E+00    3.3927873177559242E-01
N   -1.6693688210375341E+00    4.6409458273412039E+00    6.2356385545050064E-01
Ga   -1.6425521019181042E+00    4.6570521392286626E+00    2.6538312929770957E+00
N   -1.6697459384508153E+00    2.7714280400544369E+00    3.2443259287892783E+00
Ga   -1.6703817184436045E+00    2.7736502919412200E+00    5.2537904142646994E+00
N   -1.6705361540077150E+00    4.6440646376990689E+00    5.8627031274212555E+00
Ga   -1.6713317673447927E+00    4.6459678356342584E+00    7.8601444745552396E+00
N   -1.6729663273012196E+00    2.7765924817548302E+00    8.4696246704148574E+00
Ga   -1.6739386612465479E+00    2.7792421250236758E+00    1.0466162458057322E+01
N   -1.6719137923875653E+00    4.6551075363066774E+00    1.1066725828537640E+01
Ga   -1.6730624549478754E+00    4.6556451335082780E+00    1.3060409384821316E+01
N   -1.6848196833322557E+00    2.7869756710503899E+00    1.3648829301552880E+01
Ga   -1.6820034292454182E+00    2.7884993710233386E+00    1.5644214812060298E+01
N   -1.6846885974837453E+00    4.6649790342865121E+00    1.6267963166742540E+01
Ga   -1.6323696361394446E+00    4.6551616148535810E+00    1.8299268256209910E+01
N   -1.6941769344359470E+00    2.7895619194252350E+00    1.8675021970525975E+01
Ga   -3.2892685212610751E+00    5.5768107132015743E+00    3.3949878141630868E-01
N   -3.2812371759979744E+00    7.4466382109880547E+00    6.2234218273662056E-01
Ga   -3.3109776003471403E+00    7.4631096594970261E+00    2.6514430945657055E+00
N   -3.2895646531799501E+00    5.5772953398733476E+00    3.2439194995721214E+00
Ga   -3.2902743786386801E+00    5.5797329811475951E+00    5.2533584529992572E+00
N   -3.2847916828421369E+00    7.4502602458123057E+00    5.8629205911771969E+00
Ga   -3.2884649467189688E+00    7.4530189107437899E+00    7.8605721034698570E+00
N   -3.2926439503166183E+00    5.5818283988675654E+00    8.4634589934323028E+00
Ga   -3.2931156198193889E+00    5.5857058393137313E+00    1.0456156731521137E+01
N   -3.2909914161913449E+00    7.4540025054858488E+00    1.1068440734785691E+01
Ga   -3.2948259248523106E+00    7.4574072376674794E+00    1.3063336124706904E+01
N   -3.3042715492047181E+00    5.5815919855882088E+00    1.3680433097536371E+01
Ga   -3.3131459890870092E+00    5.5798342061520820E+00    1.5670148084021379E+01
N   -3.2885787488504232E+00    7.4494755317968373E+00    1.6264701720372702E+01
Ga   -3.2730971504000932E+00    7.5122147518951019E+00    1.8292031172924514E+01
N   -3.2714382821856605E+00    5.6192799617445726E+00    1.8853343366984561E+01
Ga    3.1970749180857636E+00   -3.4038212412960102E-02    3.3910887049070132E-01
N    3.1955338794465891E+00    1.8352509136223312E+00    6.2225088585990918E-01
Ga    3.2234310305046274E+00    1.8520298613687629E+00    2.6508941822904926E+00
N    3.1955782554692242E+00   -3.3364959554310306E-02    3.2441030319774899E+00
Ga    3.1947621839705556E+00   -3.0556725544749631E-02    5.2533320109057611E+00
N    3.1946454201432122E+00    1.8388839395542458E+00    5.8637878369324250E+00
Ga    3.1929892658999131E+00    1.8408992017253936E+00    7.8615511375781253E+00
N    3.1926482753440304E+00   -2.9721066656532104E-02    8.4684393992826088E+00
Ga    3.1920628258864707E+00   -2.7730285596527623E-02    1.0464063390721048E+01
N    3.1962677087985778E+00    1.8445048642534434E+00    1.1066084065173671E+01
Ga    3.1922510401179669E+00    1.8441747140157831E+00    1.3060565222953443E+01
N    3.1869162783712621E+00   -2.7560797420141520E-02    1.3670544378856448E+01
Ga    3.2062482542513009E+00   -3.0053353162849579E-02    1.5673955336963784E+01
N    3.2045349852921623E+00    1.8511120273330819E+00    1.6236663343264368E+01
Ga    3.1486037945226917E+00    1.8032233096736074E+00    1.8242559513478657E+01
N    3.1888576531395341E+00   -1.0963447746255510E-02    1.8777129546651029E+01
Ga    1.5770832903608667E+00    2.7707488276450771E+00    3.3918899547720321E-01
N    1.5832305490642113E+00    4.6414471324062454E+00    6.2368851304720996E-01
Ga    1.5544330743222505E+00    4.6572017631987954E+00    2.6537400703960099E+00
N    1.5760356856183544E+00    2.7714469541299591E+00    3.2442980235545531E+00
Ga    1.5752413249680148E+00    2.7736222136266222E+00    5.2537664216314264E+00
N    1.5805259952206847E+00    4.6440281551331211E+00    5.8626308323495699E+00
Ga    1.5771499536922438E+00    4.6460054383023870E+00    7.8600896812514627E+00
N    1.5728080413355099E+00    2.7765429888406010E+00    8.4696316770402760E+00
Ga    1.5713114395270416E+00    2.7791592574239350E+00    1.0466222921881492E+01
N    1.5742409133886752E+00    4.6549193412622847E+00    1.1066787013012737E+01
Ga    1.5708122368739623E+00    4.6554107900237094E+00    1.3060516860501743E+01
N    1.5763149465260073E+00    2.7870207971524774E+00    1.3649693888439016E+01
Ga    1.5717923024690732E+00    2.7876286439377220E+00    1.5645754287289616E+01
N    1.5790400780717875E+00    4.6648972463099554E+00    1.6270786580455951E+01
Ga    1.5225727483869780E+00    4.6554322496030727E+00    1.8303100544951370E+01
N    1.5769614829870153E+00    2.7887868728995349E+00    1.8672920629887361E+01
Ga   -4.2130523473640671E-02    5.5770963855804307E+00   -5.1161092806271213E-01
N   -3.9512125752521630E-02    7.4510494980291551E+00    6.2372122485163295E-01
Ga   -4.0865946523768952E-02    7.4206517698836167E+00    2.6538875731117524E+00
N   -4.3903460875382334E-02    5.5771625524931139E+00    3.2860882852676312E+00
Ga   -4.4560816385862470E-02    5.5796857232414929E+00    5.2760659101525285E+00
N   -4.1933882501105142E-02    7.4550390120686760E+00    5.8626876989639563E+00
Ga   -4.3972124140207146E-02    7.4553996217379694E+00    7.8599738179073864E+00
N   -4.6971177761703273E-02    5.5821760423346429E+00    8.4624175093480911E+00
Ga   -4.8211225268420865E-02    5.5861026069770467E+00    1.0458181790854443E+01
N   -4.5763991891167005E-02    7.4543886156042261E+00    1.1072981430734917E+01
Ga   -4.7737841306533690E-02    7.4537472869874799E+00    1.3069681683030973E+01
N   -5.0847244212238761E-02    5.5805474779494082E+00    1.3684636904293477E+01
Ga   -5.2824440146440464E-02    5.6065936731805328E+00    1.5692436346900726E+01
N   -5.0229635353216312E-02    7.4607034637020071E+00    1.6314251396203026E+01
Ga   -5.1461215576305341E-02    7.4650609710672251E+00    1.8417377718155407E+01
N   -5.5566898257434508E-02    5.5976516171536064E+00    1.8771945990518542E+01
Ga    6.4421394343074079E+00   -3.3470998741059861E-02    3.3919161784608454E-01
N    6.4489559393720999E+00    1.8358611816710939E+00    6.2253929321735835E-01
Ga    6.4190443874306764E+00    1.8522674009015696E+00    2.6509869414496832E+00
N    6.4412620403560235E+00   -3.3292682700576649E-02    3.2440858319016979E+00
Ga    6.4405365653622750E+00   -3.0536998424295449E-02    5.2533066604091676E+00
N    6.4459309004794028E+00    1.8389562260111274E+00    5.8637691236042855E+00
Ga    6.4435179276813610E+00    1.8408865591254686E+00    7.8615606417396791E+00
N    6.4377934412006770E+00   -2.9719478172264481E-02    8.4682010821962823E+00
Ga    6.4355623846597760E+00   -2.8116439145304255E-02    1.0463661894274717E+01
N    6.4366373112201387E+00    1.8442446951626255E+00    1.1065411780002478E+01
Ga    6.4364011188063133E+00    1.8435454456048257E+00    1.3059516751473234E+01
N    6.4357094826287824E+00   -2.7647365083324878E-02    1.3671281147266528E+01
Ga    6.4135229457371006E+00   -3.0932243314728811E-02    1.5675080667449530E+01
N    6.4234812351240853E+00    1.8502892715931809E+00    1.6237891218865546E+01
Ga    6.4720331897248684E+00    1.8021805220983842E+00    1.8244370586808696E+01
N    6.4258076848475607E+00   -1.1939632949482550E-02    1.8777637432893048E+01
Ga    4.8233466618113603E+00    2.7704186629549130E+00   -5.3717350155983334E-01
N    4.8257965278757391E+00    4.6457332082033007E+00    6.2227517861931703E-01
Ga    4.8244550620981457E+00    4.6139854419601045E+00    2.6511237073895129E+00
N    4.8213600303803847E+00    2.7713882334363902E+00    3.2854448362276898E+00
Ga    4.8206471337701817E+00    2.7737149034477899E+00    5.2753863293882777E+00
N    4.8233715669233606E+00    4.6488610972641053E+00    5.8615833243284206E+00
Ga    4.8212197596734985E+00    4.6493935054722471E+00    7.8584917211264491E+00
N    4.8183273954400967E+00    2.7762214019475033E+00    8.4609965682821802E+00
Ga    4.8166992441394596E+00    2.7772895567183795E+00    1.0455620021741693E+01
N    4.8194789636020197E+00    4.6510404656795794E+00    1.1058613638576709E+01
Ga    4.8174706797540292E+00    4.6534936819684498E+00    1.3045304157025194E+01
N    4.8150636365134742E+00    2.7897833409979298E+00    1.3666158144080068E+01
Ga    4.8136243796840237E+00    2.7997929305894940E+00    1.5650958261322421E+01
N    4.8160964542343603E+00    4.6546284575695571E+00    1.6338939645437431E+01
Ga    4.8143707431567719E+00    4.6620226539179059E+00    1.8352844105848430E+01
N    4.8109295421581662E+00    2.7425714909078285E+00    1.8878876115855284E+01
Ga    3.2040716560905875E+00    5.5763146185082277E+00    3.3953331525470576E-01
N    3.2011852971020511E+00    7.4460950166304478E+00    6.2222347919887977E-01
Ga    3.2290354369291618E+00    7.4629091281968050E+00    2.6514722834275304E+00
N    3.2019736792217497E+00    5.5772343765653298E+00    3.2438446792931490E+00
Ga    3.2011642454808231E+00    5.5796402627344213E+00    5.2532730231611007E+00
N    3.2009774944984919E+00    7.4502474166556212E+00    5.8627788717806242E+00
Ga    3.2001828177167391E+00    7.4530111347955339E+00    7.8604107779891796E+00
N    3.1985851963300780E+00    5.5818525825912939E+00    8.4633718978169465E+00
Ga    3.1961543586384549E+00    5.5854497396920468E+00    1.0456087361237641E+01
N    3.1993305255184508E+00    7.4537272566106738E+00    1.1068412173168447E+01
Ga    3.1983996360129443E+00    7.4569793817294308E+00    1.3063296978280349E+01
N    3.2021575373257765E+00    5.5809107485337206E+00    1.3680925459258869E+01
Ga    3.2088027523518345E+00    5.5788643135127209E+00    1.5670905417029292E+01
N    3.1892358455744882E+00    7.4486479363653828E+00    1.6265315653599963E+01
Ga    3.1696660291342202E+00    7.5119059698156176E+00    1.8293082776183496E+01
N    3.1618825915590523E+00    5.6188636232055131E+00    1.8854233848248409E+01
H    3.1890135786090537E+00    5.5821854215148639E+00    1.9881877109641138E+01
H    5.7041499855360556E+00    2.3479528349538548E+00    2.0773269426363481E+01
H    3.9515064144426049E+00    2.3284149903531492E+00    2.0787048667788572E+01
C    4.8171501920692581E+00    2.9031352983281948E+00    2.0349231281033386E+01
O    4.8098484360341711E+00    4.1873072386883017E+00    2.0732844670163256E+01
H    6.4406069381091502E+00    5.5814462645706628E+00    1.9880897432687057E+01
     &END COORD
     &KIND C
       BASIS_SET DZVP-MOLOPT-SR-GTH-q4
       POTENTIAL GTH-PBE-q4
       &POTENTIAL
2 2
0.3384712400000000E+00 2 -0.8803673979999999E+01  0.1339210850000000E+01
2
0.3025757500000000E+00 1  0.9622486650000001E+01
0.2915069400000000E+00 0
       &END POTENTIAL
     &END KIND
     &KIND O
       BASIS_SET DZVP-MOLOPT-SR-GTH-q6
       POTENTIAL GTH-PBE-q6
       &POTENTIAL
2 4
0.2445543000000000E+00 2 -0.1666721480000000E+02  0.2487311320000000E+01
2
0.2209559200000000E+00 1  0.1833745811000000E+02
0.2113324700000000E+00 0
       &END POTENTIAL
     &END KIND
     &KIND H
       BASIS_SET DZVP-MOLOPT-SR-GTH-q1
       POTENTIAL GTH-PBE-q1
       &POTENTIAL
1
0.2000000000000000E+00 2 -0.4178900440000000E+01  0.7244633100000000E+00
0
       &END POTENTIAL
     &END KIND
     &KIND N
       BASIS_SET DZVP-MOLOPT-SR-GTH-q5
       POTENTIAL GTH-PBE-q5
       &POTENTIAL
2 3
0.2837905100000000E+00 2 -0.1241522559000000E+02  0.1868095920000000E+01
2
0.2554050000000000E+00 1  0.1363026257000000E+02
0.2454945300000000E+00 0
       &END POTENTIAL
     &END KIND
     &KIND Ga
       BASIS_SET DZVP-MOLOPT-SR-GTH-q13
       POTENTIAL GTH-PBE-q13
       &POTENTIAL
2 1 10
0.4900000000000000E+00 0
3
0.4167772300000000E+00 3  0.1047568975000000E+02 -0.4921768140000000E+01  0.8707055900000000E+00
0.7770178090000000E+01 -0.2248152160000000E+01
0.1784415450000000E+01
0.5696265200000000E+00 2  0.1777985340000000E+01  0.1958597600000000E+00
-0.2317443900000000E+00
0.2381265000000000E+00 1 -0.1624868022000000E+02
       &END POTENTIAL
     &END KIND
     &TOPOLOGY
       NUMBER_OF_ATOMS  150
       MULTIPLE_UNIT_CELL  1 1 1
     &END TOPOLOGY
   &END SUBSYS
 &END FORCE_EVAL
