 # Version information for this restart file 
 # current date 2019-05-23 22:12:28.672
 # current working dir /lustre03/project/6004141/rzk/GaN-carbene/04-Methanol-decomp/01-CH3-decompose
 # Program compiled at                              Sun Apr  7 00:48:11 EDT 2019
 # Program compiled on                          beluga2.int.ets1.calculquebec.ca
 # Program compiled for                        Beluga-Linux-x86-64-intel-openmpi
 # Source code revision number                                         svn:18619
 &GLOBAL
   PRINT_LEVEL  MEDIUM
   PROJECT_NAME TEST
   RUN_TYPE  GEO_OPT
 &END GLOBAL
 &MOTION
   &GEO_OPT
     MAX_ITER  500
     STEP_START_VAL  125
   &END GEO_OPT
 &END MOTION
 &FORCE_EVAL
   METHOD  QS
   STRESS_TENSOR  ANALYTICAL
   &DFT
     BASIS_SET_FILE_NAME BASIS_MOLOPT
     POTENTIAL_FILE_NAME GTH_POTENTIALS
     &SCF
       MAX_SCF  100
       EPS_SCF     5.0000000000000004E-06
       &OT  T
         PRECONDITIONER  FULL_ALL
       &END OT
       &OUTER_SCF  T
         OPTIMIZER  NONE
         EPS_SCF     5.0000000000000004E-06
         MAX_SCF  10
       &END OUTER_SCF
       &PRINT
         &RESTART  OFF
           BACKUP_COPIES  1
           &EACH
             JUST_ENERGY  0
             QS_SCF  0
             MD  20
           &END EACH
         &END RESTART
       &END PRINT
     &END SCF
     &QS
       EPS_DEFAULT     1.0000000000000000E-14
       ALMO_SCF  F
       METHOD  GPW
     &END QS
     &MGRID
       NGRIDS  5
       CUTOFF     1.2000000000000000E+03
     &END MGRID
     &XC
       DENSITY_CUTOFF     1.0000000000000000E-10
       GRADIENT_CUTOFF     1.0000000000000000E-10
       TAU_CUTOFF     1.0000000000000000E-10
       &XC_FUNCTIONAL  NO_SHORTCUT
         &PBE  T
         &END PBE
       &END XC_FUNCTIONAL
       &VDW_POTENTIAL
         POTENTIAL_TYPE  PAIR_POTENTIAL
         &PAIR_POTENTIAL
           R_CUTOFF     1.0000000000000009E+01
           TYPE  DFTD3
           PARAMETER_FILE_NAME dftd3.dat
           REFERENCE_FUNCTIONAL PBE
           EPS_CN     9.9999999999999995E-07
           CALCULATE_C9_TERM  T
           REFERENCE_C9_TERM  T
           LONG_RANGE_CORRECTION  F
           VERBOSE_OUTPUT  F
         &END PAIR_POTENTIAL
       &END VDW_POTENTIAL
     &END XC
   &END DFT
   &SUBSYS
     &CELL
       A     9.7367653356401487E+00    0.0000000000000000E+00    0.0000000000000000E+00
       B    -4.8591341382960209E+00    8.4162672083210595E+00    0.0000000000000000E+00
       C     0.0000000000000000E+00    0.0000000000000000E+00    3.0744000000000000E+01
       MULTIPLE_UNIT_CELL  1 1 1
       &CELL_REF
         A     9.5580000000000087E+00    0.0000000000000000E+00    0.0000000000000000E+00
         B    -4.7790000000000044E+00    8.2774708093716640E+00    0.0000000000000000E+00
         C     0.0000000000000000E+00    0.0000000000000000E+00    3.0744000000000000E+01
         MULTIPLE_UNIT_CELL  1 1 1
       &END CELL_REF
     &END CELL
     &COORD
Ga   -4.8144418694635441E-02   -3.4274942300674599E-02   -5.2998120192159293E-01
N   -4.5482836198774572E-02    1.8407549583490750E+00    6.2293322075489632E-01
Ga   -4.6822103146618804E-02    1.8087918260960918E+00    2.6517444103172290E+00
N   -4.9884399403461926E-02   -3.4101637215350263E-02    3.2855127081183526E+00
Ga   -5.0513429127108038E-02   -3.1040283971639319E-02    5.2753043525801520E+00
N   -4.7892956913069946E-02    1.8431941679024511E+00    5.8652879155324600E+00
Ga   -5.0138283823306866E-02    1.8435464579095218E+00    7.8638936797933994E+00
N   -5.3138593012346344E-02   -2.9974204947161832E-02    8.4666957428675751E+00
Ga   -5.4527771906218721E-02   -2.6305221589636097E-02    1.0464659761026436E+01
N   -5.1814761829834390E-02    1.8448883558053790E+00    1.1070155972136979E+01
Ga   -5.4586835454860635E-02    1.8461319748599210E+00    1.3070539718409176E+01
N   -5.7871656824652999E-02   -3.1866310231704768E-02    1.3663218214279819E+01
Ga   -5.9081868840862924E-02   -1.5396320597679643E-02    1.5667987512950143E+01
N   -5.6600816608759083E-02    1.8665598967887631E+00    1.6172564274959434E+01
Ga   -6.0528117557876404E-02    1.8702934258189903E+00    1.8205984747651083E+01
N   -6.1880924115647759E-02   -7.1358188690826482E-03    1.8612411528690544E+01
Ga   -1.6680988976877706E+00    2.7698066591090700E+00    3.3964852767988618E-01
N   -1.6692135779892354E+00    4.6403885389570387E+00    6.2404088337699937E-01
Ga   -1.6424364929408222E+00    4.6565084730808834E+00    2.6542596359268105E+00
N   -1.6696099486880380E+00    2.7708734918239672E+00    3.2448444411249335E+00
Ga   -1.6702437792588882E+00    2.7732265696844753E+00    5.2541489324664035E+00
N   -1.6703901066385742E+00    4.6438041721202659E+00    5.8629774286952987E+00
Ga   -1.6711535392643941E+00    4.6459243351200863E+00    7.8604338024379121E+00
N   -1.6728043489761955E+00    2.7765365797517765E+00    8.4697192175697751E+00
Ga   -1.6738597900544960E+00    2.7793109449077047E+00    1.0466128354793081E+01
N   -1.6719273566198145E+00    4.6552308779639846E+00    1.1066462021301966E+01
Ga   -1.6733112537087549E+00    4.6562422198990570E+00    1.3059901729131035E+01
N   -1.6848132841483463E+00    2.7877747752000226E+00    1.3648928676638366E+01
Ga   -1.6821122958893975E+00    2.7900183856543634E+00    1.5644069531042385E+01
N   -1.6850962976516857E+00    4.6660065752879749E+00    1.6269495135576676E+01
Ga   -1.6315649338359395E+00    4.6536654807301527E+00    1.8300372167373421E+01
N   -1.6935821129225639E+00    2.7885248006663721E+00    1.8677135086327766E+01
Ga   -3.2890096257962651E+00    5.5763559768741100E+00    3.3997436963223260E-01
N   -3.2810013042412054E+00    7.4460989653900489E+00    6.2287644735088599E-01
Ga   -3.3108148357349241E+00    7.4627253817856536E+00    2.6516822837934564E+00
N   -3.2894746493608555E+00    5.5768582890265508E+00    3.2442763680102229E+00
Ga   -3.2901483364753337E+00    5.5794379127877507E+00    5.2534749316082650E+00
N   -3.2846770553653908E+00    7.4499094100766960E+00    5.8632786582119456E+00
Ga   -3.2883538160605372E+00    7.4527898650587874E+00    7.8606817372073676E+00
N   -3.2924614994574890E+00    5.5817803481097972E+00    8.4639797006830229E+00
Ga   -3.2931419222728455E+00    5.5860939112119201E+00    1.0456717916959306E+01
N   -3.2906465035739880E+00    7.4541418232220717E+00    1.1069232050906068E+01
Ga   -3.2950021119475030E+00    7.4578333313855953E+00    1.3064280561101114E+01
N   -3.3043392415444792E+00    5.5817511758286642E+00    1.3680758196259792E+01
Ga   -3.3125512882459107E+00    5.5795723142638458E+00    1.5670362458746586E+01
N   -3.2888672263857468E+00    7.4495332829551550E+00    1.6264175659521417E+01
Ga   -3.2736517804794687E+00    7.5114149575015317E+00    1.8291850835337076E+01
N   -3.2710112115173584E+00    5.6181754613757420E+00    1.8852877945412338E+01
Ga    3.1972328779649759E+00   -3.4674372948094369E-02    3.3944915721571955E-01
N    3.1955002569163455E+00    1.8345947413580501E+00    6.2238199216573697E-01
Ga    3.2236197492602221E+00    1.8515228988633208E+00    2.6509061807095922E+00
N    3.1957316417926491E+00   -3.3754331888612231E-02    3.2445954887538098E+00
Ga    3.1949332085357076E+00   -3.0850043621382436E-02    5.2536850904726977E+00
N    3.1948892516040757E+00    1.8386325977582689E+00    5.8641929818016756E+00
Ga    3.1932107589371386E+00    1.8408776816127739E+00    7.8617832122577713E+00
N    3.1926599359480519E+00   -2.9843581918567515E-02    8.4685623290989742E+00
Ga    3.1919217913097979E+00   -2.7431483145542813E-02    1.0464022593768203E+01
N    3.1962120572698605E+00    1.8448630976193945E+00    1.1066166730140624E+01
Ga    3.1916572177023896E+00    1.8448004350992524E+00    1.3060429244295397E+01
N    3.1866622057035330E+00   -2.6693923158985000E-02    1.3670924411123483E+01
Ga    3.2057353640264559E+00   -2.9014195325007017E-02    1.5674416593553760E+01
N    3.2035611337454495E+00    1.8520540499941323E+00    1.6236898712472964E+01
Ga    3.1466285076954041E+00    1.8042065386002899E+00    1.8243065729749375E+01
N    3.1881344979804074E+00   -1.0211038957920672E-02    1.8776059830011558E+01
Ga    1.5771451033346573E+00    2.7702601461341931E+00    3.3958990729160654E-01
N    1.5835053103458721E+00    4.6409016182074900E+00    6.2418421669768887E-01
Ga    1.5547365233679658E+00    4.6566723021919652E+00    2.6541873756447973E+00
N    1.5762737918965564E+00    2.7708902877161932E+00    3.2448018816200221E+00
Ga    1.5754020236831141E+00    2.7731904505860876E+00    5.2541049780261444E+00
N    1.5807190575585324E+00    4.6437504760803350E+00    5.8628929290813359E+00
Ga    1.5772677721545940E+00    4.6459523605086774E+00    7.8603356621402654E+00
N    1.5729475700218420E+00    2.7765237032073724E+00    8.4696983037528497E+00
Ga    1.5713051102063997E+00    2.7792428829189824E+00    1.0466158541771540E+01
N    1.5741567979094371E+00    4.6550274521785466E+00    1.1066643672741950E+01
Ga    1.5703436083609086E+00    4.6560015930431042E+00    1.3060086090579196E+01
N    1.5757523594896077E+00    2.7877561486080644E+00    1.3650087906032789E+01
Ga    1.5713344460549457E+00    2.7890060969580492E+00    1.5646012886910174E+01
N    1.5785209742635151E+00    4.6655937062579387E+00    1.6273033437208198E+01
Ga    1.5201961658542182E+00    4.6545766096967736E+00    1.8305218054593809E+01
N    1.5745795242436886E+00    2.7878187404884871E+00    1.8674782978793431E+01
Ga   -4.1891379191873794E-02    5.5766862150633933E+00   -5.1181127743505983E-01
N   -3.9285615623126366E-02    7.4506507651101144E+00    6.2424141055491567E-01
Ga   -4.0653067775404728E-02    7.4203083926630438E+00    2.6543671253488768E+00
N   -4.3703225364613942E-02    5.5766810521542043E+00    3.2863952333600461E+00
Ga   -4.4391362527962178E-02    5.5793331301833309E+00    5.2761937975161528E+00
N   -4.1754426826555315E-02    7.4545766932235500E+00    5.8629892032225444E+00
Ga   -4.3796925863043075E-02    7.4552084035025530E+00    7.8602838680245881E+00
N   -4.6792221863931970E-02    5.5820484548989002E+00    8.4628006493982859E+00
Ga   -4.8200890546531587E-02    5.5864654673672254E+00    1.0458616635116366E+01
N   -4.5760393283141527E-02    7.4550846922811873E+00    1.1073516785095240E+01
Ga   -4.8091283829738984E-02    7.4549447268294857E+00    1.3070094416262865E+01
N   -5.1217984149321980E-02    5.5813000503865808E+00    1.3685090382087132E+01
Ga   -5.2886325903358122E-02    5.6057098095286131E+00    1.5692730731035937E+01
N   -5.0456528968888144E-02    7.4617652522599025E+00    1.6313991969519435E+01
Ga   -5.3096308685176397E-02    7.4657845574920838E+00    1.8417058587044899E+01
N   -5.6338024667683395E-02    5.5984056079875391E+00    1.8776292259093420E+01
Ga    6.4424282345407589E+00   -3.4110558612680079E-02    3.3945387969709945E-01
N    6.4493805455776121E+00    1.8351941811426329E+00    6.2266344856296496E-01
Ga    6.4192631658429757E+00    1.8517337292997862E+00    2.6509851867986653E+00
N    6.4414900685796024E+00   -3.3692760150533241E-02    3.2445949782235206E+00
Ga    6.4407064472050077E+00   -3.0837498208517035E-02    5.2536697433387332E+00
N    6.4460189111753508E+00    1.8386693207837224E+00    5.8642091198359241E+00
Ga    6.4435929123410407E+00    1.8408865684140692E+00    7.8618331954100844E+00
N    6.4381127216932539E+00   -2.9805680174111795E-02    8.4684639829401416E+00
Ga    6.4357452291035315E+00   -2.7696085703369473E-02    1.0463780136276755E+01
N    6.4365880242540676E+00    1.8447929357138093E+00    1.1065506132909693E+01
Ga    6.4363228623690452E+00    1.8443655458911044E+00    1.3059385155894834E+01
N    6.4352393967428991E+00   -2.6547458863687253E-02    1.3671391249031261E+01
Ga    6.4139519008675112E+00   -3.0205345253054940E-02    1.5675115129867208E+01
N    6.4233709700514012E+00    1.8513877836030721E+00    1.6237840393889062E+01
Ga    6.4721290472893198E+00    1.8032814225284295E+00    1.8244173718411567E+01
N    6.4249674545743751E+00   -1.1331017198635548E-02    1.8775106893204125E+01
Ga    4.8235373588754333E+00    2.7698343991327610E+00   -5.3762832770788493E-01
N    4.8259939175270983E+00    4.6453642972482232E+00    6.2235962052505456E-01
Ga    4.8246494506255413E+00    4.6134958746413890E+00    2.6511114884791867E+00
N    4.8215644382936560E+00    2.7709135284527697E+00    3.2855906780991058E+00
Ga    4.8208309309842745E+00    2.7733614379281084E+00    5.2755785205957997E+00
N    4.8235636091537142E+00    4.6485840341706046E+00    5.8620788696838506E+00
Ga    4.8213798948942603E+00    4.6495125512436717E+00    7.8587717709683576E+00
N    4.8184663801171093E+00    2.7764463408994478E+00    8.4613990701145845E+00
Ga    4.8166627851838353E+00    2.7779448876677524E+00    1.0455910834144266E+01
N    4.8192821482478436E+00    4.6517834573773031E+00    1.1059308123124719E+01
Ga    4.8169065237552671E+00    4.6539709951573931E+00    1.3046123100975548E+01
N    4.8146265906020709E+00    2.7901270353253866E+00    1.3666169261365059E+01
Ga    4.8132218238917206E+00    2.7994317794533758E+00    1.5650511268845960E+01
N    4.8157253809874838E+00    4.6543322168725139E+00    1.6338393722947863E+01
Ga    4.8135895241396396E+00    4.6621726796346321E+00    1.8351969962646645E+01
N    4.8104267913610350E+00    2.7429298052908737E+00    1.8880560833946536E+01
Ga    3.2042296810041893E+00    5.5758786350574816E+00    3.3992182703410728E-01
N    3.2013842023506678E+00    7.4455584426120618E+00    6.2272996667824265E-01
Ga    3.2292442187126542E+00    7.4624930619823413E+00    2.6517497177059925E+00
N    3.2022893232875655E+00    5.5767659557632507E+00    3.2442463013943663E+00
Ga    3.2013983669094896E+00    5.5793191274709857E+00    5.2534329928610042E+00
N    3.2011802214792553E+00    7.4498828378332673E+00    5.8631547012574030E+00
Ga    3.2003862283620319E+00    7.4528335286891894E+00    7.8605166525831542E+00
N    3.1986489695437492E+00    5.5818580131632505E+00    8.4639031278535874E+00
Ga    3.1960175602333334E+00    5.5859805512954006E+00    1.0456669681298417E+01
N    3.1989627486662346E+00    7.4539901065338192E+00    1.1069365626223444E+01
Ga    3.1977962653896026E+00    7.4575184619603734E+00    1.3064482813020252E+01
N    3.2012209776947622E+00    5.5811313864852696E+00    1.3681382931787196E+01
Ga    3.2076568048204268E+00    5.5786018103947663E+00    1.5671275059991602E+01
N    3.1886260402979065E+00    7.4483668447354487E+00    1.6263863939126733E+01
Ga    3.1685892345128290E+00    7.5108886251877767E+00    1.8291916719276127E+01
N    3.1608558048733197E+00    5.6175250619175685E+00    1.8854108224860767E+01
H    3.1893333295288291E+00    5.5802955702907191E+00    1.9881657565664447E+01
H    5.7040713105761593E+00    2.3493141861240923E+00    2.0775288233754196E+01
H    3.9507616372913059E+00    2.3301196865331510E+00    2.0788782143762681E+01
C    4.8169827390538966E+00    2.9041030885798289E+00    2.0351034193942045E+01
O    4.8100298566076347E+00    4.1894494204216102E+00    2.0732086005642255E+01
H    6.4402524047098977E+00    5.5807452189627718E+00    1.9880450336364529E+01
     &END COORD
     &KIND C
       BASIS_SET DZVP-MOLOPT-SR-GTH-q4
       POTENTIAL GTH-PBE-q4
       &POTENTIAL
2 2
0.3384712400000000E+00 2 -0.8803673979999999E+01  0.1339210850000000E+01
2
0.3025757500000000E+00 1  0.9622486650000001E+01
0.2915069400000000E+00 0
       &END POTENTIAL
     &END KIND
     &KIND O
       BASIS_SET DZVP-MOLOPT-SR-GTH-q6
       POTENTIAL GTH-PBE-q6
       &POTENTIAL
2 4
0.2445543000000000E+00 2 -0.1666721480000000E+02  0.2487311320000000E+01
2
0.2209559200000000E+00 1  0.1833745811000000E+02
0.2113324700000000E+00 0
       &END POTENTIAL
     &END KIND
     &KIND H
       BASIS_SET DZVP-MOLOPT-SR-GTH-q1
       POTENTIAL GTH-PBE-q1
       &POTENTIAL
1
0.2000000000000000E+00 2 -0.4178900440000000E+01  0.7244633100000000E+00
0
       &END POTENTIAL
     &END KIND
     &KIND N
       BASIS_SET DZVP-MOLOPT-SR-GTH-q5
       POTENTIAL GTH-PBE-q5
       &POTENTIAL
2 3
0.2837905100000000E+00 2 -0.1241522559000000E+02  0.1868095920000000E+01
2
0.2554050000000000E+00 1  0.1363026257000000E+02
0.2454945300000000E+00 0
       &END POTENTIAL
     &END KIND
     &KIND Ga
       BASIS_SET DZVP-MOLOPT-SR-GTH-q13
       POTENTIAL GTH-PBE-q13
       &POTENTIAL
2 1 10
0.4900000000000000E+00 0
3
0.4167772300000000E+00 3  0.1047568975000000E+02 -0.4921768140000000E+01  0.8707055900000000E+00
0.7770178090000000E+01 -0.2248152160000000E+01
0.1784415450000000E+01
0.5696265200000000E+00 2  0.1777985340000000E+01  0.1958597600000000E+00
-0.2317443900000000E+00
0.2381265000000000E+00 1 -0.1624868022000000E+02
       &END POTENTIAL
     &END KIND
     &TOPOLOGY
       NUMBER_OF_ATOMS  150
       MULTIPLE_UNIT_CELL  1 1 1
     &END TOPOLOGY
   &END SUBSYS
 &END FORCE_EVAL
