 # Version information for this restart file 
 # current date 2019-05-27 20:51:51.776
 # current working dir /lustre03/project/6004141/rzk/GaN-carbene/334-native/08-2Methanol-Htransfer/01-Constraint/1.16
 # Program compiled at                              Sun Apr  7 00:48:11 EDT 2019
 # Program compiled on                          beluga2.int.ets1.calculquebec.ca
 # Program compiled for                        Beluga-Linux-x86-64-intel-openmpi
 # Source code revision number                                         svn:18619
 &GLOBAL
   PRINT_LEVEL  MEDIUM
   PROJECT_NAME TEST
   RUN_TYPE  GEO_OPT
 &END GLOBAL
 &MOTION
   &GEO_OPT
     MAX_ITER  500
     STEP_START_VAL  226
   &END GEO_OPT
   &CONSTRAINT
     &COLLECTIVE
       COLVAR  1
       INTERMOLECULAR  T
       TARGET     2.1920823141473456E+00
       &RESTRAINT
         K     1.0000000000000001E-01
       &END RESTRAINT
     &END COLLECTIVE
     &COLVAR_RESTART
           2.1920823141473456E+00
     &END COLVAR_RESTART
   &END CONSTRAINT
 &END MOTION
 &FORCE_EVAL
   METHOD  QS
   STRESS_TENSOR  ANALYTICAL
   &DFT
     BASIS_SET_FILE_NAME BASIS_MOLOPT
     POTENTIAL_FILE_NAME GTH_POTENTIALS
     &SCF
       MAX_SCF  100
       EPS_SCF     5.0000000000000004E-06
       &OT  T
         PRECONDITIONER  FULL_ALL
       &END OT
       &OUTER_SCF  T
         OPTIMIZER  NONE
         EPS_SCF     5.0000000000000004E-06
         MAX_SCF  4
       &END OUTER_SCF
       &PRINT
         &RESTART  OFF
           BACKUP_COPIES  1
           &EACH
             JUST_ENERGY  0
             QS_SCF  0
             MD  20
           &END EACH
         &END RESTART
       &END PRINT
     &END SCF
     &QS
       EPS_DEFAULT     1.0000000000000000E-14
       ALMO_SCF  F
       METHOD  GPW
     &END QS
     &MGRID
       NGRIDS  5
       CUTOFF     1.2000000000000000E+03
     &END MGRID
     &XC
       DENSITY_CUTOFF     1.0000000000000000E-10
       GRADIENT_CUTOFF     1.0000000000000000E-10
       TAU_CUTOFF     1.0000000000000000E-10
       &XC_FUNCTIONAL  NO_SHORTCUT
         &PBE  T
         &END PBE
       &END XC_FUNCTIONAL
       &VDW_POTENTIAL
         POTENTIAL_TYPE  PAIR_POTENTIAL
         &PAIR_POTENTIAL
           R_CUTOFF     1.0000000000000005E+01
           TYPE  DFTD3
           PARAMETER_FILE_NAME dftd3.dat
           REFERENCE_FUNCTIONAL PBE
           EPS_CN     9.9999999999999995E-07
           CALCULATE_C9_TERM  T
           REFERENCE_C9_TERM  T
           LONG_RANGE_CORRECTION  F
           VERBOSE_OUTPUT  F
         &END PAIR_POTENTIAL
       &END VDW_POTENTIAL
     &END XC
   &END DFT
   &SUBSYS
     &CELL
       A     9.7367653356401487E+00    0.0000000000000000E+00    0.0000000000000000E+00
       B    -4.8591341382960209E+00    8.4162672083210595E+00    0.0000000000000000E+00
       C     0.0000000000000000E+00    0.0000000000000000E+00    3.0744000000000000E+01
       MULTIPLE_UNIT_CELL  1 1 1
       &CELL_REF
         A     9.5580000000000052E+00    0.0000000000000000E+00    0.0000000000000000E+00
         B    -4.7790000000000026E+00    8.2774708093716640E+00    0.0000000000000000E+00
         C     0.0000000000000000E+00    0.0000000000000000E+00    3.0744000000000000E+01
         MULTIPLE_UNIT_CELL  1 1 1
       &END CELL_REF
     &END CELL
     &COORD
Ga   -2.9891716425342976E-03   -9.5714499345907506E-02   -5.4780267230519752E-01
N    2.8493820342903399E-05    1.7800104154673864E+00    6.0670814410575447E-01
Ga   -1.1594573340147438E-03    1.7481917241928904E+00    2.6356157097393278E+00
N   -4.2623879553579727E-03   -9.5236461000902439E-02    3.2687182558694228E+00
Ga   -4.1874153407352238E-03   -9.4068940004431487E-02    5.2571203723181261E+00
N   -1.2574329274534207E-03    1.7801998040968856E+00    5.8477509807891375E+00
Ga   -2.4836389864044159E-03    1.7795260799977795E+00    7.8448868494710844E+00
N   -4.3977814487568163E-03   -9.3976424774551426E-02    8.4485989622259225E+00
Ga   -3.5341732454576809E-03   -9.2499142578957305E-02    1.0443664962717154E+01
N    1.0089942247421711E-03    1.7755249165677289E+00    1.1058292920962694E+01
Ga    8.2755409159576178E-04    1.7755871764056110E+00    1.3060865509433834E+01
N   -8.3477030868129298E-03   -8.8929272461910444E-02    1.3698214320824301E+01
Ga    1.4835894446840523E-02   -6.7506916077130122E-02    1.5741409093846357E+01
N    2.3011041441466980E-03    1.8130565157659395E+00    1.6296064202601084E+01
Ga   -4.5524275767375971E-02    1.8514561668407858E+00    1.8475193364742314E+01
N   -1.4973183780555659E-03   -2.8662833548955966E-02    1.8897792068494308E+01
Ga   -1.6223221659508948E+00    2.7100238164186519E+00    3.2301963287329155E-01
N   -1.6245989613375391E+00    4.5798077193446822E+00    6.0666839163152853E-01
Ga   -1.5968258646161029E+00    4.5958823044094803E+00    2.6355495681695293E+00
N   -1.6238103976544600E+00    2.7103823615778024E+00    3.2294252941915773E+00
Ga   -1.6239022287713436E+00    2.7112963907199816E+00    5.2389217079958357E+00
N   -1.6234815371915086E+00    4.5816786400455021E+00    5.8487040713289034E+00
Ga   -1.6229240374098168E+00    4.5813048964178282E+00    7.8461092649829460E+00
N   -1.6230851513504316E+00    2.7117756131998934E+00    8.4545008743595087E+00
Ga   -1.6208679171942801E+00    2.7115826552678084E+00    1.0450306692885038E+01
N   -1.6250467988564272E+00    4.5893088501767503E+00    1.1049181255109387E+01
Ga   -1.6213520590173580E+00    4.5831468074944484E+00    1.3038514570386770E+01
N   -1.6167402203260237E+00    2.7237163523949790E+00    1.3632629841112015E+01
Ga   -1.5820621317560017E+00    2.7320245285193243E+00    1.5634170241226837E+01
N   -1.6266945833256201E+00    4.6186185644893172E+00    1.6237256980483075E+01
Ga   -1.6061582574999522E+00    4.6559602846904609E+00    1.8252422995069374E+01
N   -1.6896871898140455E+00    2.8395328771026782E+00    1.8809162880356237E+01
Ga   -3.2433268022591166E+00    5.5158337497974417E+00    3.2306655998714440E-01
N   -3.2359056012827110E+00    7.3855628958207484E+00    6.0687459593841642E-01
Ga   -3.2652370936844815E+00    7.4011912612336941E+00    2.6355487474505721E+00
N   -3.2435138073987004E+00    5.5157054483357086E+00    3.2292023393250626E+00
Ga   -3.2435461671595371E+00    5.5165171503145753E+00    5.2382902784107364E+00
N   -3.2385625717454665E+00    7.3868802492508658E+00    5.8468927107872295E+00
Ga   -3.2406947848953065E+00    7.3872811743532036E+00    7.8431817144923937E+00
N   -3.2455107224767605E+00    5.5166598160461069E+00    8.4500867257130583E+00
Ga   -3.2463992568148203E+00    5.5202480221779870E+00    1.0441525920013941E+01
N   -3.2468122978605045E+00    7.3859938822234508E+00    1.1061732504230655E+01
Ga   -3.2605751262556768E+00    7.3986230914723299E+00    1.3059316982053680E+01
N   -3.2635957180091375E+00    5.5086351389510257E+00    1.3669659871484015E+01
Ga   -3.1676227400321353E+00    5.6012892415789501E+00    1.5637586674591669E+01
N   -3.2560752465809624E+00    7.3728747777573371E+00    1.6341849182740443E+01
Ga   -3.2276553676375257E+00    7.4854125294233809E+00    1.8521329747686181E+01
N   -2.8178528595426617E+00    5.7536047021396008E+00    1.9259657940427555E+01
Ga    3.2426401284734911E+00   -9.5441043892111777E-02    3.2318964563393254E-01
N    3.2408158176754025E+00    1.7743530496475122E+00    6.0667080675251328E-01
Ga    3.2687127150787525E+00    1.7904385648099144E+00    2.6355590359652612E+00
N    3.2414523778015751E+00   -9.5069936023753701E-02    3.2291961033665797E+00
Ga    3.2416614440530429E+00   -9.3982600753173856E-02    5.2384984172487981E+00
N    3.2417929586686660E+00    1.7758256394965453E+00    5.8494335977536513E+00
Ga    3.2413925156107370E+00    1.7753038813558235E+00    7.8472903062866539E+00
N    3.2389006454684690E+00   -9.6163606539873742E-02    8.4532809083736602E+00
Ga    3.2364213471147814E+00   -9.7118828731711904E-02    1.0448437423980559E+01
N    3.2373868891495392E+00    1.7757471598934824E+00    1.1046627991361675E+01
Ga    3.2213726539847971E+00    1.7680644861189152E+00    1.3037593791287604E+01
N    3.2256527564697235E+00   -9.7032141423870136E-02    1.3661936722933378E+01
Ga    3.2106281488555704E+00   -1.1046796368046481E-01    1.5680862161335458E+01
N    3.2280688361378376E+00    1.7904206465510037E+00    1.6222749734384475E+01
Ga    2.9729398883669611E+00    1.7279774249783413E+00    1.8200315976098416E+01
N    3.2785479718684765E+00    2.6397616576344270E-02    1.8813250538907468E+01
Ga    1.6223041314040811E+00    2.7107423322866020E+00    3.2328854880255820E-01
N    1.6296999504749479E+00    4.5804719084100487E+00    6.0731396862358233E-01
Ga    1.6004582069654874E+00    4.5962030643158442E+00    2.6359061836793023E+00
N    1.6219444306484525E+00    2.7103282885022022E+00    3.2292051435722708E+00
Ga    1.6220991663928888E+00    2.7113177970728408E+00    5.2386192877414635E+00
N    1.6268898671134961E+00    4.5818474384943002E+00    5.8472171055008451E+00
Ga    1.6239649440654838E+00    4.5818721985069102E+00    7.8437555162373576E+00
N    1.6200415355691671E+00    2.7121389026671467E+00    8.4504398019458939E+00
Ga    1.6180373216939912E+00    2.7119534897474709E+00    1.0443541634072041E+01
N    1.6264028604631950E+00    4.5871329485772385E+00    1.1048057513563709E+01
Ga    1.6217274405892630E+00    4.5848692750102940E+00    1.3035691534414616E+01
N    1.6188546549910861E+00    2.7278223766411474E+00    1.3659142172528755E+01
Ga    1.5954596977213920E+00    2.7344556498317498E+00    1.5661530883463522E+01
N    1.6310777132565994E+00    4.6312167498283836E+00    1.6299801697566625E+01
Ga    1.4988255983466332E+00    4.5437434162633066E+00    1.8286237389012488E+01
N    1.6171683473429708E+00    2.8009560586868756E+00    1.8910980417430590E+01
Ga    3.8501541635333229E-03    5.5163928517630865E+00   -5.4757037831986144E-01
N    6.1189913774144259E-03    7.3912870231437049E+00    6.0700443481728461E-01
Ga    5.0646958894106078E-03    7.3592300788097713E+00    2.6357772318638455E+00
N    1.8056982092647495E-03    5.5158445958414815E+00    3.2691848052633206E+00
Ga    1.9582733639232470E-03    5.5173084099448841E+00    5.2579011116562882E+00
N    4.9353785165267344E-03    7.3915782038728661E+00    5.8490859185453905E+00
Ga    3.9615934033909754E-03    7.3897967018709476E+00    7.8467790036444267E+00
N    1.2309163313264635E-03    5.5166341573188609E+00    8.4495508139131328E+00
Ga    6.0056080077374330E-04    5.5223047888570207E+00    1.0444525222119204E+01
N    1.3728962504242104E-03    7.3911070439995621E+00    1.1053920358804902E+01
Ga   -2.1818783522576900E-03    7.3948797867747267E+00    1.3051202891698104E+01
N    2.8318938404109251E-03    5.5168272761738990E+00    1.3644643239842951E+01
Ga    1.6199168623574979E-04    5.5583393819493017E+00    1.5633871110385048E+01
N    2.1297731322791999E-03    7.4084961744946494E+00    1.6204172219681357E+01
Ga   -7.9459282710930921E-03    7.5793971014787109E+00    1.8225745990406278E+01
N    2.4670924819907538E-02    5.6504043954975218E+00    1.8754377287239858E+01
Ga    6.4877350279118815E+00   -9.5002752543764071E-02    3.2303384872857405E-01
N    6.4948943968918504E+00    1.7748145959137829E+00    6.0683610033304836E-01
Ga    6.4657913283047339E+00    1.7904464280019015E+00    2.6355462522325817E+00
N    6.4871334998147310E+00   -9.4954519275879515E-02    3.2296378661764122E+00
Ga    6.4873653308576280E+00   -9.3834272037073063E-02    5.2390489359984072E+00
N    6.4928137588279640E+00    1.7758802023474058E+00    5.8507437537039593E+00
Ga    6.4919407095760207E+00    1.7753840302762309E+00    7.8492996478549131E+00
N    6.4872110524266899E+00   -9.6388752936103231E-02    8.4546472796385679E+00
Ga    6.4883696915874616E+00   -9.6884029037579020E-02    1.0450790390275920E+01
N    6.4926153509524465E+00    1.7760775634179709E+00    1.1047026653182241E+01
Ga    6.5075147918199070E+00    1.7676163101492934E+00    1.3040250943868770E+01
N    6.4957171013338399E+00   -1.0762400257447020E-01    1.3636751925939743E+01
Ga    6.5034045640684885E+00   -1.1736976499796714E-01    1.5640108528012581E+01
N    6.5251160618684612E+00    1.7696535662228858E+00    1.6118293117855533E+01
Ga    6.6071843825617380E+00    1.8484906529386114E+00    1.8101934630976864E+01
N    6.4375984251784173E+00    7.8835250739668530E-02    1.8737719797880782E+01
Ga    4.8687560796266274E+00    2.7113641366937844E+00   -5.4762751951991384E-01
N    4.8712826757331484E+00    4.5854425794192535E+00    6.0756721395704416E-01
Ga    4.8701778831823521E+00    4.5535460189048980E+00    2.6362361980637528E+00
N    4.8674983780227681E+00    2.7097826598766717E+00    3.2697338077908222E+00
Ga    4.8677469798506934E+00    2.7104405417341093E+00    5.2587290037896244E+00
N    4.8702540667174787E+00    4.5850622333180544E+00    5.8475006137844607E+00
Ga    4.8696299261027400E+00    4.5820516707022136E+00    7.8438926147658439E+00
N    4.8663833462803474E+00    2.7098852893951970E+00    8.4509957741933164E+00
Ga    4.8662181723131770E+00    2.7062323449956782E+00    1.0446626793778664E+01
N    4.8676897771343723E+00    4.5827571357034032E+00    1.1048424976069928E+01
Ga    4.8624154365703225E+00    4.5749393813169137E+00    1.3030452767166643E+01
N    4.8605711211337184E+00    2.6980940672925642E+00    1.3605759091885410E+01
Ga    4.8738043167465905E+00    2.5819894280881450E+00    1.5560214467249954E+01
N    4.7928537037594126E+00    4.4480199790437966E+00    1.6278032731307086E+01
Ga    5.7123704960246791E+00    4.5499700397393443E+00    1.9813177988401673E+01
N    5.0596120100401878E+00    3.3727380686054476E+00    1.8304605622896005E+01
Ga    3.2491967066505616E+00    5.5154645236959832E+00    3.2316991553269470E-01
N    3.2469332408604230E+00    7.3850247974428020E+00    6.0689581379194590E-01
Ga    3.2747010289004379E+00    7.4010498791989363E+00    2.6356560628459107E+00
N    3.2477866926206338E+00    5.5157874111896978E+00    3.2293944515407338E+00
Ga    3.2479604360308598E+00    5.5168653087479678E+00    5.2385028350463942E+00
N    3.2483464233199251E+00    7.3870906629256092E+00    5.8476590348937902E+00
Ga    3.2485653199456404E+00    7.3880046521667744E+00    7.8442249833731399E+00
N    3.2472657387569375E+00    5.5161461468682251E+00    8.4474452771443662E+00
Ga    3.2479124963273542E+00    5.5194793610545405E+00    1.0437202616032602E+01
N    3.2561359436034403E+00    7.3852923177150309E+00    1.1054795275967711E+01
Ga    3.2653937904817800E+00    7.3943008424778585E+00    1.3049271377306797E+01
N    3.2529123997554703E+00    5.5129442311972134E+00    1.3672155858825580E+01
Ga    3.1991944632234746E+00    5.5752084625678577E+00    1.5644596734060185E+01
N    3.2615908136856864E+00    7.3747041996457714E+00    1.6322375538872326E+01
Ga    3.2445952104212563E+00    7.7297079915314892E+00    1.8325545100740587E+01
N    4.7423374459776619E+00    4.4396669131396038E+00    1.7629359799670048E+01
O    2.7397419505224692E+00    5.7594751181275887E+00    1.9727797187458528E+01
H   -9.3491487672784160E-02    5.6523415586338155E+00    1.9773004958084638E+01
C    2.0565588077721006E+00    6.3137805361720574E+00    2.0909836097756379E+01
H    1.4966499062877237E+00    7.2039938701471256E+00    2.0601990057704917E+01
H    1.4100205032207513E+00    5.5471102693823591E+00    2.1356290721529280E+01
H    2.8301063949377130E+00    6.6058605982936998E+00    2.1630345289600239E+01
O    4.3673411181160393E+00    4.4136684298800635E+00    2.1084871083208579E+01
H    3.4603520608981562E+00    5.0874888591542327E+00    2.0251531176847347E+01
C    3.8942861505058861E+00    3.0829370143362449E+00    2.1464837678404326E+01
H    2.8421983430133118E+00    2.9745679733281944E+00    2.1166938105039595E+01
H    4.4666414124648721E+00    2.2829851347683761E+00    2.0972953970259542E+01
H    4.0064275797241642E+00    2.9871128813627403E+00    2.2551202635198209E+01
     &END COORD
     &KIND C
       BASIS_SET DZVP-MOLOPT-SR-GTH-q4
       POTENTIAL GTH-PBE-q4
       &POTENTIAL
 2 2
  0.3384712400000000E+00 2 -0.8803673979999999E+01  0.1339210850000000E+01
 2
  0.3025757500000000E+00 1  0.9622486650000001E+01
  0.2915069400000000E+00 0
         # Potential name:  GTH-PBE-Q4  for symbol:  C
         # Potential read from the potential filename: GTH_POTENTIALS
       &END POTENTIAL
     &END KIND
     &KIND O
       BASIS_SET DZVP-MOLOPT-SR-GTH-q6
       POTENTIAL GTH-PBE-q6
       &POTENTIAL
 2 4
  0.2445543000000000E+00 2 -0.1666721480000000E+02  0.2487311320000000E+01
 2
  0.2209559200000000E+00 1  0.1833745811000000E+02
  0.2113324700000000E+00 0
         # Potential name:  GTH-PBE-Q6  for symbol:  O
         # Potential read from the potential filename: GTH_POTENTIALS
       &END POTENTIAL
     &END KIND
     &KIND H
       BASIS_SET DZVP-MOLOPT-SR-GTH-q1
       POTENTIAL GTH-PBE-q1
       &POTENTIAL
 1
  0.2000000000000000E+00 2 -0.4178900440000000E+01  0.7244633100000000E+00
 0
         # Potential name:  GTH-PBE-Q1  for symbol:  H
         # Potential read from the potential filename: GTH_POTENTIALS
       &END POTENTIAL
     &END KIND
     &KIND N
       BASIS_SET DZVP-MOLOPT-SR-GTH-q5
       POTENTIAL GTH-PBE-q5
       &POTENTIAL
 2 3
  0.2837905100000000E+00 2 -0.1241522559000000E+02  0.1868095920000000E+01
 2
  0.2554050000000000E+00 1  0.1363026257000000E+02
  0.2454945300000000E+00 0
         # Potential name:  GTH-PBE-Q5  for symbol:  N
         # Potential read from the potential filename: GTH_POTENTIALS
       &END POTENTIAL
     &END KIND
     &KIND Ga
       BASIS_SET DZVP-MOLOPT-SR-GTH-q13
       POTENTIAL GTH-PBE-q13
       &POTENTIAL
 2 1 10
  0.4900000000000000E+00 0
 3
  0.4167772300000000E+00 3  0.1047568975000000E+02 -0.4921768140000000E+01  0.8707055900000000E+00
  0.7770178090000000E+01 -0.2248152160000000E+01
  0.1784415450000000E+01
  0.5696265200000000E+00 2  0.1777985340000000E+01  0.1958597600000000E+00
 -0.2317443900000000E+00
  0.2381265000000000E+00 1 -0.1624868022000000E+02
         # Potential name:  GTH-PBE-Q13  for symbol:  GA
         # Potential read from the potential filename: GTH_POTENTIALS
       &END POTENTIAL
     &END KIND
     &TOPOLOGY
       COORD_FILE_NAME ../start-first.xyz
       COORD_FILE_FORMAT  XYZ
       NUMBER_OF_ATOMS  156
       MULTIPLE_UNIT_CELL  1 1 1
     &END TOPOLOGY
     &COLVAR
       &DISTANCE
         ATOMS  145 152
       &END DISTANCE
       &PRINT
       &END PRINT
     &END COLVAR
   &END SUBSYS
 &END FORCE_EVAL
