 # Version information for this restart file 
 # current date 2019-05-27 20:52:35.138
 # current working dir /lustre03/project/6004141/rzk/GaN-carbene/334-native/08-2Methanol-Htransfer/01-Constraint/1.16
 # Program compiled at                              Sun Apr  7 00:48:11 EDT 2019
 # Program compiled on                          beluga2.int.ets1.calculquebec.ca
 # Program compiled for                        Beluga-Linux-x86-64-intel-openmpi
 # Source code revision number                                         svn:18619
 &GLOBAL
   PRINT_LEVEL  MEDIUM
   PROJECT_NAME TEST
   RUN_TYPE  GEO_OPT
 &END GLOBAL
 &MOTION
   &GEO_OPT
     MAX_ITER  500
     STEP_START_VAL  227
   &END GEO_OPT
   &CONSTRAINT
     &COLLECTIVE
       COLVAR  1
       INTERMOLECULAR  T
       TARGET     2.1920823141473456E+00
       &RESTRAINT
         K     1.0000000000000001E-01
       &END RESTRAINT
     &END COLLECTIVE
     &COLVAR_RESTART
           2.1920823141473456E+00
     &END COLVAR_RESTART
   &END CONSTRAINT
 &END MOTION
 &FORCE_EVAL
   METHOD  QS
   STRESS_TENSOR  ANALYTICAL
   &DFT
     BASIS_SET_FILE_NAME BASIS_MOLOPT
     POTENTIAL_FILE_NAME GTH_POTENTIALS
     &SCF
       MAX_SCF  100
       EPS_SCF     5.0000000000000004E-06
       &OT  T
         PRECONDITIONER  FULL_ALL
       &END OT
       &OUTER_SCF  T
         OPTIMIZER  NONE
         EPS_SCF     5.0000000000000004E-06
         MAX_SCF  4
       &END OUTER_SCF
       &PRINT
         &RESTART  OFF
           BACKUP_COPIES  1
           &EACH
             JUST_ENERGY  0
             QS_SCF  0
             MD  20
           &END EACH
         &END RESTART
       &END PRINT
     &END SCF
     &QS
       EPS_DEFAULT     1.0000000000000000E-14
       ALMO_SCF  F
       METHOD  GPW
     &END QS
     &MGRID
       NGRIDS  5
       CUTOFF     1.2000000000000000E+03
     &END MGRID
     &XC
       DENSITY_CUTOFF     1.0000000000000000E-10
       GRADIENT_CUTOFF     1.0000000000000000E-10
       TAU_CUTOFF     1.0000000000000000E-10
       &XC_FUNCTIONAL  NO_SHORTCUT
         &PBE  T
         &END PBE
       &END XC_FUNCTIONAL
       &VDW_POTENTIAL
         POTENTIAL_TYPE  PAIR_POTENTIAL
         &PAIR_POTENTIAL
           R_CUTOFF     1.0000000000000005E+01
           TYPE  DFTD3
           PARAMETER_FILE_NAME dftd3.dat
           REFERENCE_FUNCTIONAL PBE
           EPS_CN     9.9999999999999995E-07
           CALCULATE_C9_TERM  T
           REFERENCE_C9_TERM  T
           LONG_RANGE_CORRECTION  F
           VERBOSE_OUTPUT  F
         &END PAIR_POTENTIAL
       &END VDW_POTENTIAL
     &END XC
   &END DFT
   &SUBSYS
     &CELL
       A     9.7367653356401487E+00    0.0000000000000000E+00    0.0000000000000000E+00
       B    -4.8591341382960209E+00    8.4162672083210595E+00    0.0000000000000000E+00
       C     0.0000000000000000E+00    0.0000000000000000E+00    3.0744000000000000E+01
       MULTIPLE_UNIT_CELL  1 1 1
       &CELL_REF
         A     9.5580000000000052E+00    0.0000000000000000E+00    0.0000000000000000E+00
         B    -4.7790000000000026E+00    8.2774708093716640E+00    0.0000000000000000E+00
         C     0.0000000000000000E+00    0.0000000000000000E+00    3.0744000000000000E+01
         MULTIPLE_UNIT_CELL  1 1 1
       &END CELL_REF
     &END CELL
     &COORD
Ga   -2.9395121955986341E-03   -9.5404008060590156E-02   -5.4772013820554899E-01
N    1.4526425710615707E-04    1.7802828975827441E+00    6.0684057682351078E-01
Ga   -9.8618903266020630E-04    1.7483136713894754E+00    2.6357572594930470E+00
N   -4.0516772293462660E-03   -9.5126555734248192E-02    3.2688309219512042E+00
Ga   -3.9744447157579613E-03   -9.4095181233175243E-02    5.2572277597282371E+00
N   -1.0957329504617331E-03    1.7801896190576327E+00    5.8477928080581956E+00
Ga   -2.4329787287581724E-03    1.7794920828865028E+00    7.8449459417692129E+00
N   -4.3460098902742021E-03   -9.3982662854326382E-02    8.4486166299405223E+00
Ga   -3.6336466397823247E-03   -9.2559750762967227E-02    1.0443728838785415E+01
N    9.0970585898833111E-04    1.7754696082683570E+00    1.1058322447061100E+01
Ga    7.2035157231115662E-04    1.7754676785100472E+00    1.3060871014820194E+01
N   -8.4277358807886612E-03   -8.9054795447870289E-02    1.3698100966174405E+01
Ga    1.4812389055855716E-02   -6.7703708421520500E-02    1.5741206700052443E+01
N    2.3636165216101364E-03    1.8128888179256066E+00    1.6295986339308236E+01
Ga   -4.5321365396984406E-02    1.8510634406263307E+00    1.8474904935272392E+01
N   -1.4372923228753822E-03   -2.8986314323575478E-02    1.8897844229077187E+01
Ga   -1.6222167000701444E+00    2.7102991834135324E+00    3.2300108877429989E-01
N   -1.6244499799173133E+00    4.5801116174673382E+00    6.0671588697908019E-01
Ga   -1.5966578146829016E+00    4.5960220875926678E+00    2.6356463173049671E+00
N   -1.6236157181410231E+00    2.7105051004432625E+00    3.2295565470740204E+00
Ga   -1.6237227442910362E+00    2.7113102772969575E+00    5.2390356208283668E+00
N   -1.6232761986671209E+00    4.5816791139624611E+00    5.8487602570058863E+00
Ga   -1.6228761269420517E+00    4.5812625828014273E+00    7.8461733746226194E+00
N   -1.6230586925672388E+00    2.7117250639530099E+00    8.4545031323297959E+00
Ga   -1.6209801601990679E+00    2.7115235522474395E+00    1.0450378073957875E+01
N   -1.6251578840030649E+00    4.5892360557087590E+00    1.1049253065624388E+01
Ga   -1.6214844463574840E+00    4.5830460470578496E+00    1.3038558369849586E+01
N   -1.6168636514991810E+00    2.7235848766242956E+00    1.3632652708957618E+01
Ga   -1.5822372000064042E+00    2.7318373392358346E+00    1.5634251859538235E+01
N   -1.6269636454568861E+00    4.6184717030815312E+00    1.6237348852825274E+01
Ga   -1.6064938525683117E+00    4.6554995994637478E+00    1.8252569977224560E+01
N   -1.6893614704656352E+00    2.8390146434970394E+00    1.8808850063841842E+01
Ga   -3.2432341606483162E+00    5.5161068670521196E+00    3.2302476773674726E-01
N   -3.2358002023397656E+00    7.3858292987825065E+00    6.0695076305125983E-01
Ga   -3.2650214511318318E+00    7.4012959627926929E+00    2.6356678973196259E+00
N   -3.2433204605935360E+00    5.5158123994399899E+00    3.2293396600979221E+00
Ga   -3.2433455009530054E+00    5.5165233649208716E+00    5.2384099702943754E+00
N   -3.2383422094342804E+00    7.3868671527409955E+00    5.8469751139503785E+00
Ga   -3.2406176547542813E+00    7.3872715799340778E+00    7.8432558242199750E+00
N   -3.2454522617569506E+00    5.5166640211721782E+00    8.4501238966135332E+00
Ga   -3.2464981301255160E+00    5.5202325356110604E+00    1.0441631807301762E+01
N   -3.2468935227118036E+00    7.3859692647472617E+00    1.1061770648823451E+01
Ga   -3.2606147046520508E+00    7.3985620739858380E+00    1.3059349567845810E+01
N   -3.2637195170655553E+00    5.5085660889902037E+00    1.3669499098408163E+01
Ga   -3.1678996371941781E+00    5.6011708651387124E+00    1.5637337288617356E+01
N   -3.2561190080437039E+00    7.3727090587737925E+00    1.6341634240481447E+01
Ga   -3.2275253993959638E+00    7.4851605806876513E+00    1.8521175975015204E+01
N   -2.8176171970315069E+00    5.7535459692946684E+00    1.9260254134931845E+01
Ga    3.2427380364792677E+00   -9.5140190989368989E-02    3.2314693600217492E-01
N    3.2409877867099901E+00    1.7746481654591577E+00    6.0669087236659180E-01
Ga    3.2688775723316095E+00    1.7905786641000283E+00    2.6356534508946265E+00
N    3.2416311466442385E+00   -9.4925704171864134E-02    3.2293104832053316E+00
Ga    3.2418579097810003E+00   -9.3979851544764750E-02    5.2386055328228647E+00
N    3.2420116013849101E+00    1.7758249502488934E+00    5.8494682872039698E+00
Ga    3.2414804164327262E+00    1.7752790843455946E+00    7.8473219994712293E+00
N    3.2389469030735882E+00   -9.6179310130187615E-02    8.4532796919706445E+00
Ga    3.2363481626493620E+00   -9.7179084568032564E-02    1.0448451423022359E+01
N    3.2373229961993846E+00    1.7756927469692341E+00    1.1046630844453126E+01
Ga    3.2213531581183981E+00    1.7679354435369912E+00    1.3037573868560537E+01
N    3.2256330285993742E+00   -9.7139831691921780E-02    1.3661906366147681E+01
Ga    3.2106336929381523E+00   -1.1072256677975276E-01    1.5680831129185401E+01
N    3.2279730812775416E+00    1.7902145454597564E+00    1.6222601597009678E+01
Ga    2.9731751655388727E+00    1.7276777466680624E+00    1.8200151527159907E+01
N    3.2786505288181638E+00    2.6031344929857193E-02    1.8812942132137909E+01
Ga    1.6224347316589465E+00    2.7110408852526735E+00    3.2326073952956014E-01
N    1.6298054233238599E+00    4.5807877708153288E+00    6.0742338301002341E-01
Ga    1.6006765779201602E+00    4.5963309617014811E+00    2.6360747725681919E+00
N    1.6221319190187695E+00    2.7104265408748662E+00    3.2293441780046734E+00
Ga    1.6223022491677894E+00    2.7113050103089837E+00    5.2387436600561585E+00
N    1.6271003117116509E+00    4.5818442058833035E+00    5.8472273519491633E+00
Ga    1.6240335083009669E+00    4.5818155572268111E+00    7.8437850745693103E+00
N    1.6200932025598853E+00    2.7120811031642029E+00    8.4504372050913794E+00
Ga    1.6179721423435944E+00    2.7118904065386706E+00    1.0443557080631257E+01
N    1.6263114441925510E+00    4.5870509562494552E+00    1.1048073476443840E+01
Ga    1.6216172941124960E+00    4.5847512704080113E+00    1.3035664671527501E+01
N    1.6188101794192087E+00    2.7276709222513040E+00    1.3658984936592368E+01
Ga    1.5955368561077257E+00    2.7342472306665710E+00    1.5661249233873084E+01
N    1.6310661370895609E+00    4.6309595747600580E+00    1.6299751870485718E+01
Ga    1.4985488241120553E+00    4.5434055424593662E+00    1.8286198451070032E+01
N    1.6174769309434578E+00    2.8006856700274856E+00    1.8911250611543327E+01
Ga    3.9880413439877145E-03    5.5167913871584506E+00   -5.4750686002373905E-01
N    6.2326556302849329E-03    7.3915981053453779E+00    6.0713830979300376E-01
Ga    5.2490763606039426E-03    7.3593941599738688E+00    2.6359119705314238E+00
N    1.9958720677744064E-03    5.5159442132000791E+00    3.2692801259606190E+00
Ga    2.1653349056096317E-03    5.5173101315524091E+00    5.2579996787611618E+00
N    5.1432618147954452E-03    7.3915675628723934E+00    5.8491182491818909E+00
Ga    4.0060636514963185E-03    7.3897434925965211E+00    7.8468318584848902E+00
N    1.2878453554571389E-03    5.5165561970561905E+00    8.4495395902558013E+00
Ga    5.2381609356597048E-04    5.5221998626842721E+00    1.0444540351822376E+01
N    1.2881297334567561E-03    7.3909964459550448E+00    1.1053951044794296E+01
Ga   -2.2820229471931350E-03    7.3947599854813246E+00    1.3051208053630940E+01
N    2.7090828839210928E-03    5.5166737187951167E+00    1.3644595367924163E+01
Ga    1.2728532644570468E-05    5.5580536948231547E+00    1.5633836465111244E+01
N    2.1503722814751988E-03    7.4082103114653384E+00    1.6204077014248902E+01
Ga   -7.8635853120530494E-03    7.5789406617368673E+00    1.8225547126448991E+01
N    2.4365725622470150E-02    5.6499924887577162E+00    1.8754293489829461E+01
Ga    6.4878783997286948E+00   -9.4694809427545948E-02    3.2300109979588915E-01
N    6.4949714023898606E+00    1.7751235057046963E+00    6.0691388789038136E-01
Ga    6.4659720534166469E+00    1.7905947848751516E+00    2.6356865960061966E+00
N    6.4873376547803225E+00   -9.4819641738130081E-02    3.2297736128426044E+00
Ga    6.4875863113548089E+00   -9.3833843488248247E-02    5.2391731092672584E+00
N    6.4929756639893661E+00    1.7758884397834547E+00    5.8507608078188769E+00
Ga    6.4919755467168052E+00    1.7753707082641423E+00    7.8493492840801302E+00
N    6.4872494795153415E+00   -9.6408485298207794E-02    8.4546421335538451E+00
Ga    6.4882676403312862E+00   -9.6950164800018654E-02    1.0450848211867854E+01
N    6.4925135492724113E+00    1.7760303507993842E+00    1.1047074139852263E+01
Ga    6.5073702090263978E+00    1.7675450839540068E+00    1.3040310095630998E+01
N    6.4956374101906551E+00   -1.0770726242528833E-01    1.3636711538608358E+01
Ga    6.5033515942353493E+00   -1.1755864849056208E-01    1.5640023164855990E+01
N    6.5249127984355759E+00    1.7694726884019325E+00    1.6118554560541579E+01
Ga    6.6072768530813448E+00    1.8480267535157529E+00    1.8102202208934226E+01
N    6.4375431244053960E+00    7.8370316400060439E-02    1.8737930263408213E+01
Ga    4.8688952296210584E+00    2.7116863132605400E+00   -5.4758247152527395E-01
N    4.8714089680248405E+00    4.5856768114825410E+00    6.0763973969327989E-01
Ga    4.8703723990751806E+00    4.5536891399372887E+00    2.6363359256010042E+00
N    4.8676736695336063E+00    2.7099248455786671E+00    3.2698137932593943E+00
Ga    4.8679418198697348E+00    2.7104615213750778E+00    5.2588030555062169E+00
N    4.8704761197549145E+00    4.5850494100883337E+00    5.8475756825233258E+00
Ga    4.8697212433168282E+00    4.5820281367267786E+00    7.8439656939022919E+00
N    4.8664189971901104E+00    2.7098599993545096E+00    8.4510040792710708E+00
Ga    4.8661292702776056E+00    2.7062103017110339E+00    1.0446660095574568E+01
N    4.8675662652569489E+00    4.5827350372281437E+00    1.1048455596427614E+01
Ga    4.8622885428951035E+00    4.5748739989152813E+00    1.3030454363041482E+01
N    4.8604714678392780E+00    2.6980388921226681E+00    1.3605800402325876E+01
Ga    4.8736552538020046E+00    2.5819222949411977E+00    1.5560273764528604E+01
N    4.7930006819596169E+00    4.4480362295821516E+00    1.6277745376364223E+01
Ga    5.7112412038956215E+00    4.5509110226483207E+00    1.9813268437123043E+01
N    5.0593726078898378E+00    3.3731420354421138E+00    1.8304638418256420E+01
Ga    3.2493418640099176E+00    5.5157519927101815E+00    3.2315694592594674E-01
N    3.2470510031272046E+00    7.3853036811632906E+00    6.0707268818521187E-01
Ga    3.2748785474431905E+00    7.4011680363265366E+00    2.6358430873621264E+00
N    3.2480056948350380E+00    5.5158918294411041E+00    3.2295483092801880E+00
Ga    3.2482066560557588E+00    5.5168599210568603E+00    5.2386322880613276E+00
N    3.2485459900816180E+00    7.3870761093352266E+00    5.8477204425221041E+00
Ga    3.2486352390721831E+00    7.3879859240891319E+00    7.8443130907027188E+00
N    3.2473090017108577E+00    5.5161138728500063E+00    8.4474443722346866E+00
Ga    3.2477964535961332E+00    5.5194420022835686E+00    1.0437225919890457E+01
N    3.2560310405236090E+00    7.3852340400054137E+00    1.1054816352071770E+01
Ga    3.2653070593488529E+00    7.3942316346821224E+00    1.3049259177473647E+01
N    3.2527652522336696E+00    5.5128635891895810E+00    1.3672071553763463E+01
Ga    3.1990663285994678E+00    5.5751237572114647E+00    1.5644437323306068E+01
N    3.2615594012889826E+00    7.3745365301695527E+00    1.6322298479854435E+01
Ga    3.2445222950537178E+00    7.7293286683129008E+00    1.8325613331925652E+01
N    4.7429896261447713E+00    4.4402213884935264E+00    1.7629125650432172E+01
O    2.7392182325068974E+00    5.7597773725724890E+00    1.9727845440164867E+01
H   -9.3845879060539858E-02    5.6519864025097402E+00    1.9772950773292862E+01
C    2.0558721370572548E+00    6.3138760952395208E+00    2.0909925732051164E+01
H    1.4961038227038590E+00    7.2042678678798557E+00    2.0602309150530086E+01
H    1.4091206150573823E+00    5.5471122392655072E+00    2.1355920570907600E+01
H    2.8295031482055797E+00    6.6056058258681620E+00    2.1630507089764503E+01
O    4.3660661370465448E+00    4.4138333267762917E+00    2.1085085178824944E+01
H    3.4594055163928585E+00    5.0873427298869798E+00    2.0252193964649056E+01
C    3.8940504937354601E+00    3.0826378594954131E+00    2.1465079593213016E+01
H    2.8419132844100550E+00    2.9736840146962558E+00    2.1167351775667893E+01
H    4.4670184756202271E+00    2.2828478691475138E+00    2.0973020492312859E+01
H    4.0065055572436936E+00    2.9867269520603479E+00    2.2551443271072902E+01
     &END COORD
     &KIND C
       BASIS_SET DZVP-MOLOPT-SR-GTH-q4
       POTENTIAL GTH-PBE-q4
       &POTENTIAL
 2 2
  0.3384712400000000E+00 2 -0.8803673979999999E+01  0.1339210850000000E+01
 2
  0.3025757500000000E+00 1  0.9622486650000001E+01
  0.2915069400000000E+00 0
         # Potential name:  GTH-PBE-Q4  for symbol:  C
         # Potential read from the potential filename: GTH_POTENTIALS
       &END POTENTIAL
     &END KIND
     &KIND O
       BASIS_SET DZVP-MOLOPT-SR-GTH-q6
       POTENTIAL GTH-PBE-q6
       &POTENTIAL
 2 4
  0.2445543000000000E+00 2 -0.1666721480000000E+02  0.2487311320000000E+01
 2
  0.2209559200000000E+00 1  0.1833745811000000E+02
  0.2113324700000000E+00 0
         # Potential name:  GTH-PBE-Q6  for symbol:  O
         # Potential read from the potential filename: GTH_POTENTIALS
       &END POTENTIAL
     &END KIND
     &KIND H
       BASIS_SET DZVP-MOLOPT-SR-GTH-q1
       POTENTIAL GTH-PBE-q1
       &POTENTIAL
 1
  0.2000000000000000E+00 2 -0.4178900440000000E+01  0.7244633100000000E+00
 0
         # Potential name:  GTH-PBE-Q1  for symbol:  H
         # Potential read from the potential filename: GTH_POTENTIALS
       &END POTENTIAL
     &END KIND
     &KIND N
       BASIS_SET DZVP-MOLOPT-SR-GTH-q5
       POTENTIAL GTH-PBE-q5
       &POTENTIAL
 2 3
  0.2837905100000000E+00 2 -0.1241522559000000E+02  0.1868095920000000E+01
 2
  0.2554050000000000E+00 1  0.1363026257000000E+02
  0.2454945300000000E+00 0
         # Potential name:  GTH-PBE-Q5  for symbol:  N
         # Potential read from the potential filename: GTH_POTENTIALS
       &END POTENTIAL
     &END KIND
     &KIND Ga
       BASIS_SET DZVP-MOLOPT-SR-GTH-q13
       POTENTIAL GTH-PBE-q13
       &POTENTIAL
 2 1 10
  0.4900000000000000E+00 0
 3
  0.4167772300000000E+00 3  0.1047568975000000E+02 -0.4921768140000000E+01  0.8707055900000000E+00
  0.7770178090000000E+01 -0.2248152160000000E+01
  0.1784415450000000E+01
  0.5696265200000000E+00 2  0.1777985340000000E+01  0.1958597600000000E+00
 -0.2317443900000000E+00
  0.2381265000000000E+00 1 -0.1624868022000000E+02
         # Potential name:  GTH-PBE-Q13  for symbol:  GA
         # Potential read from the potential filename: GTH_POTENTIALS
       &END POTENTIAL
     &END KIND
     &TOPOLOGY
       COORD_FILE_NAME ../start-first.xyz
       COORD_FILE_FORMAT  XYZ
       NUMBER_OF_ATOMS  156
       MULTIPLE_UNIT_CELL  1 1 1
     &END TOPOLOGY
     &COLVAR
       &DISTANCE
         ATOMS  145 152
       &END DISTANCE
       &PRINT
       &END PRINT
     &END COLVAR
   &END SUBSYS
 &END FORCE_EVAL
