 # Version information for this restart file 
 # current date 2019-05-27 20:51:11.077
 # current working dir /lustre03/project/6004141/rzk/GaN-carbene/334-native/08-2Methanol-Htransfer/01-Constraint/1.16
 # Program compiled at                              Sun Apr  7 00:48:11 EDT 2019
 # Program compiled on                          beluga2.int.ets1.calculquebec.ca
 # Program compiled for                        Beluga-Linux-x86-64-intel-openmpi
 # Source code revision number                                         svn:18619
 &GLOBAL
   PRINT_LEVEL  MEDIUM
   PROJECT_NAME TEST
   RUN_TYPE  GEO_OPT
 &END GLOBAL
 &MOTION
   &GEO_OPT
     MAX_ITER  500
     STEP_START_VAL  225
   &END GEO_OPT
   &CONSTRAINT
     &COLLECTIVE
       COLVAR  1
       INTERMOLECULAR  T
       TARGET     2.1920823141473456E+00
       &RESTRAINT
         K     1.0000000000000001E-01
       &END RESTRAINT
     &END COLLECTIVE
     &COLVAR_RESTART
           2.1920823141473456E+00
     &END COLVAR_RESTART
   &END CONSTRAINT
 &END MOTION
 &FORCE_EVAL
   METHOD  QS
   STRESS_TENSOR  ANALYTICAL
   &DFT
     BASIS_SET_FILE_NAME BASIS_MOLOPT
     POTENTIAL_FILE_NAME GTH_POTENTIALS
     &SCF
       MAX_SCF  100
       EPS_SCF     5.0000000000000004E-06
       &OT  T
         PRECONDITIONER  FULL_ALL
       &END OT
       &OUTER_SCF  T
         OPTIMIZER  NONE
         EPS_SCF     5.0000000000000004E-06
         MAX_SCF  4
       &END OUTER_SCF
       &PRINT
         &RESTART  OFF
           BACKUP_COPIES  1
           &EACH
             JUST_ENERGY  0
             QS_SCF  0
             MD  20
           &END EACH
         &END RESTART
       &END PRINT
     &END SCF
     &QS
       EPS_DEFAULT     1.0000000000000000E-14
       ALMO_SCF  F
       METHOD  GPW
     &END QS
     &MGRID
       NGRIDS  5
       CUTOFF     1.2000000000000000E+03
     &END MGRID
     &XC
       DENSITY_CUTOFF     1.0000000000000000E-10
       GRADIENT_CUTOFF     1.0000000000000000E-10
       TAU_CUTOFF     1.0000000000000000E-10
       &XC_FUNCTIONAL  NO_SHORTCUT
         &PBE  T
         &END PBE
       &END XC_FUNCTIONAL
       &VDW_POTENTIAL
         POTENTIAL_TYPE  PAIR_POTENTIAL
         &PAIR_POTENTIAL
           R_CUTOFF     1.0000000000000005E+01
           TYPE  DFTD3
           PARAMETER_FILE_NAME dftd3.dat
           REFERENCE_FUNCTIONAL PBE
           EPS_CN     9.9999999999999995E-07
           CALCULATE_C9_TERM  T
           REFERENCE_C9_TERM  T
           LONG_RANGE_CORRECTION  F
           VERBOSE_OUTPUT  F
         &END PAIR_POTENTIAL
       &END VDW_POTENTIAL
     &END XC
   &END DFT
   &SUBSYS
     &CELL
       A     9.7367653356401487E+00    0.0000000000000000E+00    0.0000000000000000E+00
       B    -4.8591341382960209E+00    8.4162672083210595E+00    0.0000000000000000E+00
       C     0.0000000000000000E+00    0.0000000000000000E+00    3.0744000000000000E+01
       MULTIPLE_UNIT_CELL  1 1 1
       &CELL_REF
         A     9.5580000000000052E+00    0.0000000000000000E+00    0.0000000000000000E+00
         B    -4.7790000000000026E+00    8.2774708093716640E+00    0.0000000000000000E+00
         C     0.0000000000000000E+00    0.0000000000000000E+00    3.0744000000000000E+01
         MULTIPLE_UNIT_CELL  1 1 1
       &END CELL_REF
     &END CELL
     &COORD
Ga   -2.5104654239526333E-03   -9.5855108637554934E-02   -5.4776738243642109E-01
N    1.9560406910439353E-04    1.7798786942158926E+00    6.0670424984253102E-01
Ga   -1.0794161954590785E-03    1.7482283951885824E+00    2.6355822523829886E+00
N   -4.2523693748616085E-03   -9.5083341190504836E-02    3.2689164817381413E+00
Ga   -4.3220046126921131E-03   -9.3900356808230140E-02    5.2574042473164759E+00
N   -1.3747585621017066E-03    1.7803193740738867E+00    5.8480396937294215E+00
Ga   -2.6472855334998247E-03    1.7795834853480093E+00    7.8452180026440432E+00
N   -4.5786165498504401E-03   -9.4011223412132028E-02    8.4487249264739486E+00
Ga   -3.6056788473344454E-03   -9.2582608298072716E-02    1.0443753950015770E+01
N    8.7223554015013020E-04    1.7754523693522049E+00    1.1058327421120079E+01
Ga    6.6828871019566341E-04    1.7756215280579652E+00    1.3060946749088460E+01
N   -8.3219872084548795E-03   -8.8858512148806898E-02    1.3698219123852517E+01
Ga    1.4940351914342929E-02   -6.7186661996687200E-02    1.5741441665804711E+01
N    2.3270312161002647E-03    1.8133682641342923E+00    1.6295792807128493E+01
Ga   -4.5314686212902154E-02    1.8513762833521412E+00    1.8475384160794150E+01
N   -1.3164021291442486E-03   -2.8854795238450755E-02    1.8897750265054100E+01
Ga   -1.6221398173053547E+00    2.7099937203551541E+00    3.2318065046790573E-01
N   -1.6243895525392911E+00    4.5797717811357330E+00    6.0678925692529317E-01
Ga   -1.5966750360088868E+00    4.5960243387981921E+00    2.6356064029107373E+00
N   -1.6236897527649021E+00    2.7104879039757006E+00    3.2295925498430922E+00
Ga   -1.6240151003324055E+00    2.7113946608328123E+00    5.2392148111279377E+00
N   -1.6236596388941742E+00    4.5818012249593147E+00    5.8489233655670585E+00
Ga   -1.6231002728320689E+00    4.5812415586373483E+00    7.8463656969994373E+00
N   -1.6232677635970743E+00    2.7117488490180004E+00    8.4545871182929258E+00
Ga   -1.6210054473633164E+00    2.7115058818627187E+00    1.0450304610549178E+01
N   -1.6249377931473759E+00    4.5891622287449820E+00    1.1049197193084826E+01
Ga   -1.6212159300319031E+00    4.5830987144192221E+00    1.3038553665607619E+01
N   -1.6168060410514287E+00    2.7238191057273937E+00    1.3632901548010231E+01
Ga   -1.5820980197794108E+00    2.7323801710031863E+00    1.5634449703333555E+01
N   -1.6268865434177158E+00    4.6189458915828769E+00    1.6237680292278469E+01
Ga   -1.6063462654434906E+00    4.6559683435134120E+00    1.8252930372902668E+01
N   -1.6892149224396313E+00    2.8394014184955418E+00    1.8809199049563137E+01
Ga   -3.2430989413163598E+00    5.5157674380006227E+00    3.2325434827301541E-01
N   -3.2357261185064718E+00    7.3855038481269988E+00    6.0704187512279262E-01
Ga   -3.2652576378692064E+00    7.4012952873734363E+00    2.6356462150897904E+00
N   -3.2434207981933749E+00    5.5158208315237776E+00    3.2294190872095334E+00
Ga   -3.2437122329673471E+00    5.5166322209566951E+00    5.2385947662029722E+00
N   -3.2387584133039975E+00    7.3870455929851593E+00    5.8471129624144336E+00
Ga   -3.2408799542994253E+00    7.3873641762066375E+00    7.8434785567540857E+00
N   -3.2456154082926676E+00    5.5166280145388020E+00    8.4501361856246362E+00
Ga   -3.2463180417471600E+00    5.5201478599495459E+00    1.0441542882351749E+01
N   -3.2468361901801490E+00    7.3859332290455431E+00    1.1061680312482880E+01
Ga   -3.2606080581835140E+00    7.3987074976472860E+00    1.3059174508137671E+01
N   -3.2634697378010618E+00    5.5087159920618705E+00    1.3669523994905379E+01
Ga   -3.1675125311268610E+00    5.6015573371307950E+00    1.5637422547811788E+01
N   -3.2560204143765445E+00    7.3730243762172325E+00    1.6341973041586822E+01
Ga   -3.2271546464070777E+00    7.4856393481960559E+00    1.8521728467239608E+01
N   -2.8168325926609099E+00    5.7540943216916967E+00    1.9261880611667621E+01
Ga    3.2428324869942160E+00   -9.5536815103425349E-02    3.2351346795869723E-01
N    3.2410194393802603E+00    1.7742833689129187E+00    6.0686021417991243E-01
Ga    3.2688707772937242E+00    1.7905297609977762E+00    2.6356480792329564E+00
N    3.2415564983472827E+00   -9.5047147305945656E-02    3.2293692506901119E+00
Ga    3.2414928254973137E+00   -9.3855839246753711E-02    5.2387543709883575E+00
N    3.2416670944213317E+00    1.7759441504970224E+00    5.8496334518643431E+00
Ga    3.2412209013658178E+00    1.7753208806505132E+00    7.8475530004221916E+00
N    3.2387202501277290E+00   -9.6146585128225437E-02    8.4534724988409433E+00
Ga    3.2364766112607568E+00   -9.7177091909530611E-02    1.0448677152171870E+01
N    3.2373269588961753E+00    1.7756861617352584E+00    1.1046770297759405E+01
Ga    3.2213560306586579E+00    1.7681108305189741E+00    1.3037716323885650E+01
N    3.2255579235367633E+00   -9.6961248656792107E-02    1.3661900486196661E+01
Ga    3.2105315489704953E+00   -1.1015553960819879E-01    1.5680767125646987E+01
N    3.2281091517179448E+00    1.7907319383395464E+00    1.6222590674797082E+01
Ga    2.9730205347612451E+00    1.7283534580861928E+00    1.8200093232201144E+01
N    3.2788781149194621E+00    2.6900627828936308E-02    1.8813351621271547E+01
Ga    1.6225271361922644E+00    2.7106140636495284E+00    3.2368610915246282E-01
N    1.6299125900776046E+00    4.5804472018947013E+00    6.0735733648494017E-01
Ga    1.6005102452276967E+00    4.5962982937086423E+00    2.6358916133424066E+00
N    1.6219738958133703E+00    2.7104460122762375E+00    3.2293540346188983E+00
Ga    1.6219701744841624E+00    2.7114741867602645E+00    5.2388889562435930E+00
N    1.6267418693676203E+00    4.5819659572311222E+00    5.8475731433590719E+00
Ga    1.6238161713438879E+00    4.5818774905766038E+00    7.8441495076541665E+00
N    1.6198825546662869E+00    2.7121560082112408E+00    8.4505731039907506E+00
Ga    1.6179736600525791E+00    2.7118284221167590E+00    1.0443763755153126E+01
N    1.6264233180367647E+00    4.5871397148155282E+00    1.1048028187204153E+01
Ga    1.6217363115841581E+00    4.5849045506370700E+00    1.3035750533709445E+01
N    1.6188015982773514E+00    2.7278557603845535E+00    1.3659032913975274E+01
Ga    1.5953068944568296E+00    2.7347006663128082E+00    1.5661513187674705E+01
N    1.6310874435814422E+00    4.6314616322253963E+00    1.6299860787399055E+01
Ga    1.4984740269728438E+00    4.5437936789255016E+00    1.8286153234475538E+01
N    1.6170875509857101E+00    2.8011001989543587E+00    1.8911046951669533E+01
Ga    4.0494694340838747E-03    5.5161662668010365E+00   -5.4761642119953069E-01
N    6.3194270313662584E-03    7.3911060158252031E+00    6.0703938193331730E-01
Ga    5.1851375714862908E-03    7.3591478972963147E+00    2.6358313903477693E+00
N    1.9447397791518648E-03    5.5159195085764710E+00    3.2695284266377898E+00
Ga    1.8229960207972978E-03    5.5174546181239545E+00    5.2583170559619923E+00
N    4.7441356929785999E-03    7.3917093547868316E+00    5.8493823235725531E+00
Ga    3.7291498210440550E-03    7.3898096174499228E+00    7.8471048633610989E+00
N    1.0111986766864053E-03    5.5166027234941559E+00    8.4496425351994180E+00
Ga    5.6096217096029955E-04    5.5222200428947525E+00    1.0444567199798092E+01
N    1.3637111866639197E-03    7.3909848609973343E+00    1.1054130006170345E+01
Ga   -2.0595267205723070E-03    7.3949129592773080E+00    1.3051477465999609E+01
N    2.8677160755077027E-03    5.5169289303647364E+00    1.3644890338013163E+01
Ga   -9.7275223281238753E-06    5.5585578922844956E+00    1.5634088433703671E+01
N    2.1090697295848698E-03    7.4088197294338816E+00    1.6203980221406251E+01
Ga   -7.9460997722844550E-03    7.5795462545294479E+00    1.8225584538369461E+01
N    2.4374811618147460E-02    5.6505771438158101E+00    1.8754165780912412E+01
Ga    6.4879420636617091E+00   -9.5087106006937525E-02    3.2329305944000286E-01
N    6.4950989274203952E+00    1.7747460235282726E+00    6.0687699053896305E-01
Ga    6.4658962341881976E+00    1.7905839445652942E+00    2.6355470255752689E+00
N    6.4872158365493906E+00   -9.4892221950568956E-02    3.2297890456676752E+00
Ga    6.4871769951751590E+00   -9.3702554279242151E-02    5.2392938589527507E+00
N    6.4926489677821602E+00    1.7760177410605207E+00    5.8509990919831107E+00
Ga    6.4917298431646504E+00    1.7753189256645054E+00    7.8495511181664392E+00
N    6.4870055973023115E+00   -9.6473502319030707E-02    8.4547614098598398E+00
Ga    6.4882996645372497E+00   -9.6995926909527103E-02    1.0450904521072605E+01
N    6.4925703444523588E+00    1.7759213275121868E+00    1.1047161748744980E+01
Ga    6.5075252577237697E+00    1.7676591085175695E+00    1.3040318217805394E+01
N    6.4957751019755001E+00   -1.0752178478915247E-01    1.3636955990475261E+01
Ga    6.5034477033254054E+00   -1.1687665257485193E-01    1.5640370389133960E+01
N    6.5251721147239667E+00    1.7700399169758387E+00    1.6118557798874868E+01
Ga    6.6074707008670712E+00    1.8486527396857355E+00    1.8102174188667590E+01
N    6.4378177404160093E+00    7.8947544679745296E-02    1.8737390256365778E+01
Ga    4.8689219686760392E+00    2.7112689404103221E+00   -5.4765877035706323E-01
N    4.8715452692962069E+00    4.5853566406702209E+00    6.0770030625308047E-01
Ga    4.8702717275750542E+00    4.5536329094097576E+00    2.6362994619105153E+00
N    4.8676137757841538E+00    2.7098444362433809E+00    3.2699024447410721E+00
Ga    4.8676148696474293E+00    2.7105441277230931E+00    5.2589612462825359E+00
N    4.8700430781905055E+00    4.5851543309913856E+00    5.8476694609790334E+00
Ga    4.8694965403293997E+00    4.5819790848493520E+00    7.8441302073097896E+00
N    4.8662301723225063E+00    2.7099259086939562E+00    8.4511111194107418E+00
Ga    4.8661678931723413E+00    2.7060950959059507E+00    1.0446749871677392E+01
N    4.8677452339056684E+00    4.5826372139174820E+00    1.1048489486963895E+01
Ga    4.8625663594069053E+00    4.5748430276620624E+00    1.3030506880239647E+01
N    4.8605813900922064E+00    2.6980475366305119E+00    1.3605836088185219E+01
Ga    4.8739421302566415E+00    2.5822167935781351E+00    1.5560305552560369E+01
N    4.7935111259135050E+00    4.4481924714623275E+00    1.6277966850021237E+01
Ga    5.7108217160742250E+00    4.5520300936891234E+00    1.9812717714590164E+01
N    5.0600382198736140E+00    3.3733450302004107E+00    1.8304888548163632E+01
Ga    3.2494755446923329E+00    5.5153376292284593E+00    3.2343749675565198E-01
N    3.2472884346700139E+00    7.3849340649682365E+00    6.0683041610436517E-01
Ga    3.2748979777152449E+00    7.4011107989533498E+00    2.6356047001242549E+00
N    3.2478004049170233E+00    5.5158646352399963E+00    3.2296095573018344E+00
Ga    3.2477966070013515E+00    5.5169844917577571E+00    5.2387764685939402E+00
N    3.2481899528347817E+00    7.3872204447304428E+00    5.8478797323397078E+00
Ga    3.2483972742111122E+00    7.3880443336829016E+00    7.8444191505952157E+00
N    3.2471769980088503E+00    5.5161647797091646E+00    8.4475114149829071E+00
Ga    3.2480057717050150E+00    5.5194014992326252E+00    1.0437258389082684E+01
N    3.2560612539706226E+00    7.3852042266294182E+00    1.1054853825934101E+01
Ga    3.2653521353815229E+00    7.3942808977877359E+00    1.3049402899571927E+01
N    3.2530754139836997E+00    5.5129426865393967E+00    1.3672278448083308E+01
Ga    3.1992456604628288E+00    5.5754497253203636E+00    1.5644710670322551E+01
N    3.2616208265690161E+00    7.3748568576906921E+00    1.6322258990397277E+01
Ga    3.2447995177450499E+00    7.7298129622833471E+00    1.8325171734356513E+01
N    4.7441530287236988E+00    4.4404354050724741E+00    1.7629248195496384E+01
O    2.7388804513139640E+00    5.7584418485960454E+00    1.9727661196740218E+01
H   -9.3604531399413451E-02    5.6528626338585966E+00    1.9772819321152980E+01
C    2.0550366824187529E+00    6.3126898726819762E+00    2.0909334628120959E+01
H    1.4955804015127221E+00    7.2030783446329112E+00    2.0601363785684676E+01
H    1.4081020400407820E+00    5.5461346159231759E+00    2.1355214080350134E+01
H    2.8281909851670251E+00    6.6044711592835501E+00    2.1630435504048876E+01
O    4.3655451740708031E+00    4.4129060202217900E+00    2.1084332393900503E+01
H    3.4587954085976351E+00    5.0858347789173406E+00    2.0252214116177900E+01
C    3.8954079011604312E+00    3.0807540986264339E+00    2.1463573166865821E+01
H    2.8432882370111057E+00    2.9703193167321604E+00    2.1166409934742774E+01
H    4.4691096501722782E+00    2.2826425286039509E+00    2.0970040663337027E+01
H    4.0088800788870689E+00    2.9840118573318679E+00    2.2549608177395854E+01
     &END COORD
     &KIND C
       BASIS_SET DZVP-MOLOPT-SR-GTH-q4
       POTENTIAL GTH-PBE-q4
       &POTENTIAL
 2 2
  0.3384712400000000E+00 2 -0.8803673979999999E+01  0.1339210850000000E+01
 2
  0.3025757500000000E+00 1  0.9622486650000001E+01
  0.2915069400000000E+00 0
         # Potential name:  GTH-PBE-Q4  for symbol:  C
         # Potential read from the potential filename: GTH_POTENTIALS
       &END POTENTIAL
     &END KIND
     &KIND O
       BASIS_SET DZVP-MOLOPT-SR-GTH-q6
       POTENTIAL GTH-PBE-q6
       &POTENTIAL
 2 4
  0.2445543000000000E+00 2 -0.1666721480000000E+02  0.2487311320000000E+01
 2
  0.2209559200000000E+00 1  0.1833745811000000E+02
  0.2113324700000000E+00 0
         # Potential name:  GTH-PBE-Q6  for symbol:  O
         # Potential read from the potential filename: GTH_POTENTIALS
       &END POTENTIAL
     &END KIND
     &KIND H
       BASIS_SET DZVP-MOLOPT-SR-GTH-q1
       POTENTIAL GTH-PBE-q1
       &POTENTIAL
 1
  0.2000000000000000E+00 2 -0.4178900440000000E+01  0.7244633100000000E+00
 0
         # Potential name:  GTH-PBE-Q1  for symbol:  H
         # Potential read from the potential filename: GTH_POTENTIALS
       &END POTENTIAL
     &END KIND
     &KIND N
       BASIS_SET DZVP-MOLOPT-SR-GTH-q5
       POTENTIAL GTH-PBE-q5
       &POTENTIAL
 2 3
  0.2837905100000000E+00 2 -0.1241522559000000E+02  0.1868095920000000E+01
 2
  0.2554050000000000E+00 1  0.1363026257000000E+02
  0.2454945300000000E+00 0
         # Potential name:  GTH-PBE-Q5  for symbol:  N
         # Potential read from the potential filename: GTH_POTENTIALS
       &END POTENTIAL
     &END KIND
     &KIND Ga
       BASIS_SET DZVP-MOLOPT-SR-GTH-q13
       POTENTIAL GTH-PBE-q13
       &POTENTIAL
 2 1 10
  0.4900000000000000E+00 0
 3
  0.4167772300000000E+00 3  0.1047568975000000E+02 -0.4921768140000000E+01  0.8707055900000000E+00
  0.7770178090000000E+01 -0.2248152160000000E+01
  0.1784415450000000E+01
  0.5696265200000000E+00 2  0.1777985340000000E+01  0.1958597600000000E+00
 -0.2317443900000000E+00
  0.2381265000000000E+00 1 -0.1624868022000000E+02
         # Potential name:  GTH-PBE-Q13  for symbol:  GA
         # Potential read from the potential filename: GTH_POTENTIALS
       &END POTENTIAL
     &END KIND
     &TOPOLOGY
       COORD_FILE_NAME ../start-first.xyz
       COORD_FILE_FORMAT  XYZ
       NUMBER_OF_ATOMS  156
       MULTIPLE_UNIT_CELL  1 1 1
     &END TOPOLOGY
     &COLVAR
       &DISTANCE
         ATOMS  145 152
       &END DISTANCE
       &PRINT
       &END PRINT
     &END COLVAR
   &END SUBSYS
 &END FORCE_EVAL
