 # Version information for this restart file 
 # current date 2019-07-18 23:26:38.301
 # current working dir /lustre04/scratch/rzk/rzk/GaN-carbene/443-adatoms-both-2x2/20-FullCoverage/01-4Molecules
 # Program compiled at                              Sun Apr  7 00:48:11 EDT 2019
 # Program compiled on                          beluga2.int.ets1.calculquebec.ca
 # Program compiled for                        Beluga-Linux-x86-64-intel-openmpi
 # Source code revision number                                         svn:18619
 &GLOBAL
   PRINT_LEVEL  MEDIUM
   PROJECT_NAME TEST
   RUN_TYPE  GEO_OPT
 &END GLOBAL
 &MOTION
   &GEO_OPT
     MAX_ITER  500
     STEP_START_VAL  38
   &END GEO_OPT
 &END MOTION
 &FORCE_EVAL
   METHOD  QS
   STRESS_TENSOR  ANALYTICAL
   &DFT
     BASIS_SET_FILE_NAME BASIS_MOLOPT
     POTENTIAL_FILE_NAME GTH_POTENTIALS
     UKS  T
     SURFACE_DIPOLE_CORRECTION  T
     SURF_DIP_DIR  Z
     &SCF
       MAX_SCF  80
       EPS_SCF     5.0000000000000004E-06
       &OT  T
         PRECONDITIONER  FULL_ALL
       &END OT
       &OUTER_SCF  T
         OPTIMIZER  NONE
         EPS_SCF     5.0000000000000004E-06
         MAX_SCF  4
       &END OUTER_SCF
       &PRINT
         &RESTART  OFF
           BACKUP_COPIES  1
           &EACH
             JUST_ENERGY  0
             QS_SCF  0
             MD  20
           &END EACH
         &END RESTART
       &END PRINT
     &END SCF
     &QS
       EPS_DEFAULT     1.0000000000000000E-14
       METHOD  GPW
     &END QS
     &MGRID
       NGRIDS  5
       CUTOFF     1.2000000000000000E+03
     &END MGRID
     &XC
       DENSITY_CUTOFF     1.0000000000000000E-10
       GRADIENT_CUTOFF     1.0000000000000000E-10
       TAU_CUTOFF     1.0000000000000000E-10
       &XC_FUNCTIONAL  NO_SHORTCUT
         &PBE  T
         &END PBE
       &END XC_FUNCTIONAL
       &VDW_POTENTIAL
         POTENTIAL_TYPE  PAIR_POTENTIAL
         &PAIR_POTENTIAL
           R_CUTOFF     1.0000000000000009E+01
           TYPE  DFTD3
           PARAMETER_FILE_NAME dftd3.dat
           REFERENCE_FUNCTIONAL PBE
           EPS_CN     9.9999999999999995E-07
           CALCULATE_C9_TERM  T
           REFERENCE_C9_TERM  T
           LONG_RANGE_CORRECTION  F
           VERBOSE_OUTPUT  F
         &END PAIR_POTENTIAL
       &END VDW_POTENTIAL
     &END XC
   &END DFT
   &SUBSYS
     &CELL
       A     1.2864472766435110E+01    0.0000000000000000E+00    0.0000000000000000E+00
       B    -6.4322363581020028E+00    1.1140960178524477E+01    0.0000000000000000E+00
       C     0.0000000000000000E+00    0.0000000000000000E+00    3.2000000000000000E+01
       MULTIPLE_UNIT_CELL  1 1 1
       &CELL_REF
         A     1.2982353780853531E+01    0.0000000000000000E+00    0.0000000000000000E+00
         B    -6.4911768904267628E+00    1.1243048175136114E+01    0.0000000000000000E+00
         C     0.0000000000000000E+00    0.0000000000000000E+00    3.2000000000000000E+01
         MULTIPLE_UNIT_CELL  1 1 1
       &END CELL_REF
     &END CELL
     &COORD
N   -3.5663973422660786E-03    2.0271440760233470E+00    2.4811892655352672E+00
Ga   -1.5573587970153693E-03    4.2388734331773884E-02    2.8614828583817840E+00
N   -1.4434550204852050E-04    4.4953457232977091E-02    5.0151694887512823E+00
Ga    8.5237819662013715E-04    1.8664835280039940E+00    5.8086533082126266E+00
N   -1.8874011599718005E-04    1.8937051157201901E+00    7.7847026624899964E+00
Ga   -5.6312586277668163E-04    4.6681397001966746E-02    8.4549303971474643E+00
N   -1.3532845798781355E-03    4.8214432956993444E-02    1.0411451399908151E+01
Ga   -1.3238390930103339E-03    1.8863830598830837E+00    1.1088119400497044E+01
N   -1.8216027157550053E-03    1.8675382295291780E+00    1.3062841473978180E+01
Ga   -1.6958361745923816E-03    5.0028791312733224E-02    1.3909117848469728E+01
N   -1.9896067767024581E-03    5.2110926945532252E-02    1.6068272141934830E+01
Ga   -1.5290808368436199E-03    2.1107233563634100E+00    1.6506587928224565E+01
Ga   -4.1249021238584503E-02    3.7616749283060202E+00    1.2912399985016896E+00
N   -1.4937928127632178E+00    4.6188207716065444E+00    2.4794782352429987E+00
Ga   -1.6132503378450531E+00    2.8212006781586982E+00    3.3022285003461893E+00
N   -1.6195980298467114E+00    2.8239680772165618E+00    5.2347725098961302E+00
Ga   -1.6409977176094432E+00    4.7060387971905575E+00    5.8049735498624493E+00
N   -1.6180142675791562E+00    4.6940622581082163E+00    7.7818414616535652E+00
Ga   -1.5970148553349190E+00    2.8391355932076987E+00    8.4525589511525272E+00
N   -1.5967589160746800E+00    2.8409663443295012E+00    1.0424042187679520E+01
Ga   -1.6257771198375037E+00    4.7001647896849059E+00    1.1087745956839235E+01
N   -1.6436720130924387E+00    4.7116817254202488E+00    1.3062483066006299E+01
Ga   -1.5994558885954691E+00    2.8414036606922926E+00    1.3634411821786710E+01
N   -1.6261606430477149E+00    2.8276539092801465E+00    1.5580756130527943E+01
Ga   -1.4349171627801851E+00    4.5933923262887433E+00    1.6506665805691441E+01
N   -1.9238537608408822E-03    3.7657023691843179E+00    1.7655420999165027E+01
N   -3.2152576855750619E+00    7.6054140894489448E+00    2.4791265637695785E+00
Ga   -3.2213590190296730E+00    5.6118972654099002E+00    2.8326106880393249E+00
N   -3.2168379608587578E+00    5.6153796027257350E+00    5.0002387147357714E+00
Ga   -3.2168385799114967E+00    7.4339819470272630E+00    5.8069354606672405E+00
N   -3.2168793759093219E+00    7.4627613765642247E+00    7.7834032417544696E+00
Ga   -3.2168497146570547E+00    5.6168434276891075E+00    8.4541578074945978E+00
N   -3.2174711061771499E+00    5.6184960600351657E+00    1.0410510109325173E+01
Ga   -3.2175002616463169E+00    7.4564205068189136E+00    1.1088010395516738E+01
N   -3.2179852898136070E+00    7.4380338230892091E+00    1.3062746822932985E+01
Ga   -3.2178460744540152E+00    5.6206622951588967E+00    1.3909133801694866E+01
N   -3.2176028147541937E+00    5.6220308789508788E+00    1.6068145190167968E+01
Ga   -3.2178117001767270E+00    7.6810246979185939E+00    1.6505851334284980E+01
Ga   -3.2243491940516500E+00    9.2987687326720359E+00    1.2957305619878152E+00
N   -4.7156868280281108E+00    1.0191598001514057E+01    2.4842293712003332E+00
Ga   -4.8316144064509077E+00    8.4004772303589501E+00    3.3015184595573577E+00
N   -4.8354958176918164E+00    8.3936804283140418E+00    5.2348921119617327E+00
Ga   -4.8549000478056730E+00    1.0276033969389553E+01    5.8095129918657706E+00
N   -4.8332041847269274E+00    1.0263757050289355E+01    7.7855470348739697E+00
Ga   -4.8129632159078852E+00    8.4086884460840050E+00    8.4532136573058807E+00
N   -4.8129227807032215E+00    8.4108878639822144E+00    1.0424538958295411E+01
Ga   -4.8420001520714164E+00    1.0270404600521463E+01    1.1088383046163075E+01
N   -4.8597392610395991E+00    1.0281891786469071E+01    1.3062935074831785E+01
Ga   -4.8158114412333077E+00    8.4115011835132840E+00    1.3634235864510252E+01
N   -4.8424041837715155E+00    8.3980971656442520E+00    1.5580558329592900E+01
Ga   -4.6514106220587328E+00    1.0164064954564036E+01    1.6505638731727920E+01
N   -3.2179173285093947E+00    9.3365658418914812E+00    1.7653809806761600E+01
N    3.2148854878940916E+00    1.8989460050110214E+00    2.6668621661398912E+00
Ga    3.2135363053563699E+00    4.3420071279509712E-02    3.2951586260603234E+00
N    3.2158171914504812E+00    5.7289435130080724E-02    5.2320864571702907E+00
Ga    3.2134456545551999E+00    1.9017311696668799E+00    5.8971678743798401E+00
N    3.2146848030048565E+00    1.9033908191697433E+00    7.8460558675936234E+00
Ga    3.2154497350877080E+00    3.3441832839303742E-02    8.4544086685013120E+00
N    3.2148339010101239E+00    3.4147543032293545E-02    1.0425611221969550E+01
Ga    3.2146800695918984E+00    1.9057757668919086E+00    1.1037839589050325E+01
N    3.2141684911577673E+00    1.9070402031087696E+00    1.2988426835197162E+01
Ga    3.2141346344055965E+00    3.8309517915465663E-02    1.3634494714454007E+01
N    3.2141854423596605E+00    7.1551150689621423E-02    1.5580644220024348E+01
Ga    3.2137777581427946E+00    1.9086157811839934E+00    1.5866316810566740E+01
N    1.4873901190288481E+00    4.6180406077834677E+00    2.4678987372304833E+00
Ga    1.6062508348289077E+00    2.8266501702922375E+00    3.2895786180276119E+00
N    1.6180026408766124E+00    2.8245294427766718E+00    5.2271812663690715E+00
Ga    1.6399859352881070E+00    4.7047074113409764E+00    5.8030353891330639E+00
N    1.6166958269656955E+00    4.6939569405837602E+00    7.7806612589402464E+00
Ga    1.5958007629663311E+00    2.8395615704758166E+00    8.4531736209467709E+00
N    1.5942047411718003E+00    2.8413529836383988E+00    1.0424536113525177E+01
Ga    1.6226408051371704E+00    4.7002968464640773E+00    1.1088619331396508E+01
N    1.6398285793072027E+00    4.7118750676637422E+00    1.3063289955137375E+01
Ga    1.5955806992322570E+00    2.8414673054267525E+00    1.3634504552679932E+01
N    1.6231961214191539E+00    2.8274727798331405E+00    1.5580754881272302E+01
Ga    1.4314744494556855E+00    4.5931915469201900E+00    1.6507095199972646E+01
N   -1.6690597000447768E-03    7.4719732241226575E+00    2.6691165523280533E+00
Ga    1.6322750202873882E-03    5.6198860240625628E+00    3.2968439985600164E+00
N   -3.3410873413044004E-04    5.6276640766864947E+00    5.2308031623030882E+00
Ga   -2.0857857521250594E-04    7.4719494239202300E+00    5.8982911493550585E+00
N   -6.8155128634315380E-04    7.4736032767332530E+00    7.8462275024419172E+00
Ga   -5.9731935629281005E-04    5.6032212506361700E+00    8.4515627918247507E+00
N   -1.3498323367516251E-03    5.6041379294016531E+00    1.0423262693319037E+01
Ga   -1.7669164130734655E-03    7.4755665570782428E+00    1.1037145031869192E+01
N   -2.1264405893919088E-03    7.4773031803082022E+00    1.2988016605765612E+01
Ga   -2.1764865767095625E-03    5.6089691075084174E+00    1.3634725143576953E+01
N   -1.7732464917969489E-03    5.6421245062181429E+00    1.5580890183693516E+01
Ga   -2.3953560631835074E-03    7.4790185447385635E+00    1.5867095120649061E+01
N   -1.7250884271675189E+00    1.0186743224866888E+01    2.4794343695794669E+00
Ga   -1.6035109613966605E+00    8.3998245365097137E+00    3.3031078719355884E+00
N   -1.5983240618348851E+00    8.3942148281417399E+00    5.2360204314204140E+00
Ga   -1.5777941128535251E+00    1.0276560385425245E+01    5.8094669210624561E+00
N   -1.6001504349260010E+00    1.0264287488533920E+01    7.7857386964163293E+00
Ga   -1.6206765969441401E+00    8.4089487271085197E+00    8.4529314315956245E+00
N   -1.6222130749037769E+00    8.4112060882991351E+00    1.0424442280041989E+01
Ga   -1.5931758837139676E+00    1.0270447033240382E+01    1.1088827556255163E+01
N   -1.5760878706983306E+00    1.0282080860411122E+01    1.3063538640661211E+01
Ga   -1.6204675523267791E+00    8.4116533595381817E+00    1.3634518095971249E+01
N   -1.5930485261822589E+00    8.3978639406088398E+00    1.5580915017158146E+01
Ga   -1.7842238582118537E+00    1.0164111913676686E+01    1.6506017993718590E+01
N    6.4297023328530738E+00    2.0242697076253644E+00    2.4903497031462027E+00
Ga    6.4303376906747411E+00    4.0927419248374453E-02    2.8501170183105193E+00
N    6.4311206365186937E+00    4.3012379016125646E-02    5.0116494159899929E+00
Ga    6.4323540188521937E+00    1.8652140527788055E+00    5.8077450915130235E+00
N    6.4313709394955572E+00    1.8933338943016516E+00    7.7847464550012031E+00
Ga    6.4313501649156102E+00    4.6815760291939547E-02    8.4558425874930947E+00
N    6.4306480556030152E+00    4.8297086471185281E-02    1.0412181268851237E+01
Ga    6.4305482132146592E+00    1.8862183946207518E+00    1.1089211714138225E+01
N    6.4306691415588615E+00    1.8677398865214196E+00    1.3063407351069097E+01
Ga    6.4305520441001676E+00    5.0215211386449111E-02    1.3909721210950750E+01
N    6.4307629978150977E+00    5.1808032624878139E-02    1.6068377600122091E+01
Ga    6.4304800620650546E+00    2.1116023422717327E+00    1.6506525239309997E+01
Ga    6.3999627968705006E+00    3.7536809976372734E+00    1.2939748555614510E+00
N    4.9406166700266310E+00    4.6163722820976538E+00    2.4734454918776643E+00
Ga    4.8195188461491076E+00    2.8198965055367458E+00    3.3034371081445260E+00
N    4.8120263846128886E+00    2.8248181183652026E+00    5.2357548439927104E+00
Ga    4.7907391565397379E+00    4.7065397831827696E+00    5.8059063100301112E+00
N    4.8134879998451483E+00    4.6945502679322351E+00    7.7828715843396443E+00
Ga    4.8344617740574449E+00    2.8389954888133295E+00    8.4527977137900567E+00
N    4.8352016771837425E+00    2.8410367152521996E+00    1.0424567529988508E+01
Ga    4.8057792682422171E+00    4.7000733029385993E+00    1.1088872080292655E+01
N    4.7888160518250107E+00    4.7117387790687246E+00    1.3062985636674096E+01
Ga    4.8327662138791556E+00    2.8413574356378883E+00    1.3634748192299114E+01
N    4.8043586951506194E+00    2.8267283854377143E+00    1.5580398480201080E+01
Ga    4.9982370384551231E+00    4.5925561988303407E+00    1.6506519399796350E+01
N    6.4308574096941902E+00    3.7656745556671090E+00    1.7652676305550774E+01
N    3.2139803867601815E+00    7.6085773327367665E+00    2.4710982972125328E+00
Ga    3.2108851961318710E+00    5.6124610155359971E+00    2.8291152438497940E+00
N    3.2158007136910554E+00    5.6160899978713568E+00    4.9967030682829012E+00
Ga    3.2150935010368027E+00    7.4347556535430623E+00    5.8063184887776167E+00
N    3.2147974688941505E+00    7.4628830700914275E+00    7.7831790036089776E+00
Ga    3.2145713338384714E+00    5.6171909340704591E+00    8.4548199692970236E+00
N    3.2141400223484671E+00    5.6185744859427125E+00    1.0411080971115281E+01
Ga    3.2141778900675129E+00    7.4561073143458128E+00    1.1089580518474135E+01
N    3.2143060604780049E+00    7.4382068543167303E+00    1.3063673067647771E+01
Ga    3.2144621001776117E+00    5.6206848132429750E+00    1.3909292356879027E+01
N    3.2142005371994040E+00    5.6221939853394804E+00    1.6068472408893818E+01
Ga    3.2144641546414432E+00    7.6825719760150655E+00    1.6507284191122675E+01
Ga    3.2256209802757616E+00    9.3080164420781166E+00    1.2966672831673665E+00
N    1.7221752280026026E+00    1.0189780388034002E+01    2.4796445379906027E+00
Ga    1.6007277593307738E+00    8.4015153117296180E+00    3.2990000103670427E+00
N    1.5972116469552085E+00    8.3941320641107513E+00    5.2329709538373335E+00
Ga    1.5758617407195736E+00    1.0275863788153742E+01    5.8094666723062680E+00
N    1.5982665910681666E+00    1.0263784197004165E+01    7.7859680509918361E+00
Ga    1.6187332562593746E+00    8.4087602129178105E+00    8.4539075109759345E+00
N    1.6191257342933425E+00    8.4109985023035385E+00    1.0425212514738206E+01
Ga    1.5896740606155200E+00    1.0270361457525278E+01    1.1089727732143912E+01
N    1.5725827192173898E+00    1.0282049945798773E+01    1.3063776290398422E+01
Ga    1.6162242538803637E+00    8.4115868654682693E+00    1.3635106665488248E+01
N    1.5882231863135368E+00    8.3969499722818828E+00    1.5580943885425267E+01
Ga    1.7821064368665127E+00    1.0163082785112382E+01    1.6506959215253996E+01
N    3.2145982967137048E+00    9.3366596667726984E+00    1.7653447912583726E+01
N    9.6459713575851787E+00    1.8998765468992111E+00    2.6683098696883767E+00
Ga    9.6469950320503930E+00    4.5549697316578333E-02    3.2987650046191828E+00
N    9.6468591807483790E+00    5.7469668616199794E-02    5.2348135216312128E+00
Ga    9.6468130938456671E+00    1.9016673895637692E+00    5.8992295179412686E+00
N    9.6474729682729556E+00    1.9032678705379005E+00    7.8476015536363173E+00
Ga    9.6474121353179996E+00    3.2810681608601275E-02    8.4545021704338499E+00
N    9.6466592643752112E+00    3.3501519840791992E-02    1.0425715717720134E+01
Ga    9.6469413766135208E+00    1.9054224203929111E+00    1.1037253652656625E+01
N    9.6469107022278795E+00    1.9068924392255540E+00    1.2987863930447192E+01
Ga    9.6469806071763990E+00    3.8522913536328238E-02    1.3634930937449241E+01
N    9.6469064427060474E+00    7.2303909042469708E-02    1.5580436130906749E+01
Ga    9.6473268790699063E+00    1.9090101908896187E+00    1.5866208154780828E+01
N    7.9206565370000739E+00    4.6166836509464062E+00    2.4734928083317174E+00
Ga    8.0392980637636722E+00    2.8254483306910632E+00    3.2957497561660793E+00
N    8.0505540836941609E+00    2.8242089858071671E+00    5.2321605146552423E+00
Ga    8.0721164897681383E+00    4.7049121777908685E+00    5.8050488299679763E+00
N    8.0486055989641585E+00    4.6940267805243892E+00    7.7825177900690319E+00
Ga    8.0276380192314907E+00    2.8391184639913356E+00    8.4534096246714530E+00
N    8.0260663023100900E+00    2.8408310377903563E+00    1.0424816589993171E+01
Ga    8.0553457859603377E+00    4.7000234932768015E+00    1.1088577393294484E+01
N    8.0725250651300318E+00    4.7116568936254239E+00    1.3062501671357669E+01
Ga    8.0288022100534313E+00    2.8413937770414579E+00    1.3634633308645048E+01
N    8.0564072389354102E+00    2.8269111622793330E+00    1.5580328724406247E+01
Ga    7.8631063469713158E+00    4.5927600936335455E+00    1.6506027058230725E+01
N    6.4313608320304416E+00    7.4701254328566336E+00    2.6689885241430820E+00
Ga    6.4344962644911403E+00    5.6179019357282343E+00    3.2973498309565539E+00
N    6.4311718139424938E+00    5.6271591380501125E+00    5.2315933161221002E+00
Ga    6.4312108401998298E+00    7.4714452932087614E+00    5.8991099570738053E+00
N    6.4312031883905734E+00    7.4735116892306204E+00    7.8470206125595805E+00
Ga    6.4312666678803492E+00    5.6031011965344684E+00    8.4527897433739820E+00
N    6.4305146886764257E+00    5.6037670973138622E+00    1.0424281895657352E+01
Ga    6.4306457015487695E+00    7.4753500139606368E+00    1.1037004277004133E+01
N    6.4305835229005854E+00    7.4773195078241379E+00    1.2987469335142142E+01
Ga    6.4309003841845298E+00    5.6091852150345733E+00    1.3634471602554848E+01
N    6.4306117530831850E+00    5.6427554422494808E+00    1.5579814429522184E+01
Ga    6.4310900164721607E+00    7.4793662254877296E+00    1.5865965667000236E+01
N    4.7132303898777099E+00    1.0193484393721524E+01    2.4916293636990545E+00
Ga    4.8301082679436353E+00    8.4003771637166729E+00    3.3009710165797910E+00
N    4.8337152266900629E+00    8.3935310595584589E+00    5.2344434747469091E+00
Ga    4.8542290263272676E+00    1.0276223786698360E+01    5.8093221476911632E+00
N    4.8321168718953276E+00    1.0263682003337651E+01    7.7857849049424983E+00
Ga    4.8109861382967312E+00    8.4086448712876809E+00    8.4536138317611158E+00
N    4.8095696559945118E+00    8.4105876863879878E+00    1.0424927430563120E+01
Ga    4.8392039133368394E+00    1.0270193000378402E+01    1.1089062560518560E+01
N    4.8563313198334512E+00    1.0281895037863356E+01    1.3062980985961657E+01
Ga    4.8125922516917328E+00    8.4116175127047370E+00    1.3634780623964181E+01
N    4.8402444391484005E+00    8.3972196987796170E+00    1.5580388832756620E+01
Ga    4.6470084588573144E+00    1.0163100398959713E+01    1.6506526724058997E+01
O   -1.7709437681279341E-01    3.7029419899641871E+00   -5.1353601356301382E-01
H   -4.7374383566834563E-03    7.4764477083875036E+00    1.6422060763147508E+00
C    6.2105974502695127E-01    2.7370570730366017E+00   -1.2138489188940988E+00
H    1.6964150834199443E+00    2.9702057427042292E+00   -1.1655102420196868E+00
H    4.6612474264231368E-01    1.7127517862529316E+00   -8.3673375656350446E-01
H    3.1585453326612567E-01    2.7635497532937046E+00   -2.2687818755708871E+00
O   -3.3068668299756574E+00    9.2703579392534898E+00   -5.1244773578101521E-01
C   -3.8408603295868620E+00    1.0432273985220659E+01   -1.1643985045863354E+00
H   -4.8215641369176971E+00    1.0729140480307640E+01   -7.5826726539240397E-01
H   -3.1593138993624219E+00    1.1296069082479987E+01   -1.1023326471885366E+00
H   -3.9729506302626145E+00    1.0179845320469791E+01   -2.2252517190069319E+00
O    3.3368397586544392E+00    9.3702964123211530E+00   -5.1030302727628574E-01
C    3.7307013762486445E+00    1.0631729758402228E+01   -1.0726703433598188E+00
H    2.9377107380547982E+00    1.1391656258080770E+01   -9.8028441175621805E-01
H    4.6509495821347189E+00    1.1030847363017022E+01   -6.1373028229679394E-01
H    3.9240281871774760E+00    1.0468979188617734E+01   -2.1418890387082725E+00
O    6.3322221801641509E+00    3.6108970533668332E+00   -5.1038446716647623E-01
C    7.1876131783137405E+00    2.6189153941563896E+00   -1.1025338068572428E+00
H    8.2470228487689745E+00    2.9194308403240377E+00   -1.0757386744160080E+00
H    7.0873626205851128E+00    1.6327774191156090E+00   -6.1895867355882173E-01
H    6.8892661910753734E+00    2.5150934449929907E+00   -2.1548808838474995E+00
H    6.4334125215351055E+00    7.4725385099882891E+00    1.6419126453872970E+00
H    9.6504438815502276E+00    1.9007779770356319E+00    1.6413496656422719E+00
H    3.2254920852189426E+00    1.9003089269150544E+00    1.6400765238211887E+00
     &END COORD
     &KIND C
       BASIS_SET DZVP-MOLOPT-SR-GTH-q4
       POTENTIAL GTH-PBE-q4
       &POTENTIAL
2 2
0.3384712400000000E+00 2 -0.8803673979999999E+01  0.1339210850000000E+01
2
0.3025757500000000E+00 1  0.9622486650000001E+01
0.2915069400000000E+00 0
       &END POTENTIAL
     &END KIND
     &KIND O
       BASIS_SET DZVP-MOLOPT-SR-GTH-q6
       POTENTIAL GTH-PBE-q6
       &POTENTIAL
2 4
0.2445543000000000E+00 2 -0.1666721480000000E+02  0.2487311320000000E+01
2
0.2209559200000000E+00 1  0.1833745811000000E+02
0.2113324700000000E+00 0
       &END POTENTIAL
     &END KIND
     &KIND H
       BASIS_SET DZVP-MOLOPT-SR-GTH-q1
       POTENTIAL GTH-PBE-q1
       &POTENTIAL
1
0.2000000000000000E+00 2 -0.4178900440000000E+01  0.7244633100000000E+00
0
       &END POTENTIAL
     &END KIND
     &KIND N
       BASIS_SET DZVP-MOLOPT-SR-GTH
       POTENTIAL GTH-PBE-q5
       &POTENTIAL
2 3
0.2837905100000000E+00 2 -0.1241522559000000E+02  0.1868095920000000E+01
2
0.2554050000000000E+00 1  0.1363026257000000E+02
0.2454945300000000E+00 0
       &END POTENTIAL
     &END KIND
     &KIND Ga
       BASIS_SET DZVP-MOLOPT-SR-GTH
       POTENTIAL GTH-PBE-q13
       &POTENTIAL
2 1 10
0.4900000000000000E+00 0
3
0.4167772300000000E+00 3  0.1047568975000000E+02 -0.4921768140000000E+01  0.8707055900000000E+00
0.7770178090000000E+01 -0.2248152160000000E+01
0.1784415450000000E+01
0.5696265200000000E+00 2  0.1777985340000000E+01  0.1958597600000000E+00
-0.2317443900000000E+00
0.2381265000000000E+00 1 -0.1624868022000000E+02
       &END POTENTIAL
     &END KIND
     &TOPOLOGY
       NUMBER_OF_ATOMS  224
       MULTIPLE_UNIT_CELL  1 1 1
     &END TOPOLOGY
     &COLVAR
       &DISTANCE
         ATOMS  127 211
       &END DISTANCE
       &PRINT
       &END PRINT
     &END COLVAR
   &END SUBSYS
 &END FORCE_EVAL
