 # Version information for this restart file 
 # current date 2019-07-18 23:20:39.999
 # current working dir /lustre04/scratch/rzk/rzk/GaN-carbene/443-adatoms-both-2x2/20-FullCoverage/01-4Molecules
 # Program compiled at                              Sun Apr  7 00:48:11 EDT 2019
 # Program compiled on                          beluga2.int.ets1.calculquebec.ca
 # Program compiled for                        Beluga-Linux-x86-64-intel-openmpi
 # Source code revision number                                         svn:18619
 &GLOBAL
   PRINT_LEVEL  MEDIUM
   PROJECT_NAME TEST
   RUN_TYPE  GEO_OPT
 &END GLOBAL
 &MOTION
   &GEO_OPT
     MAX_ITER  500
     STEP_START_VAL  36
   &END GEO_OPT
 &END MOTION
 &FORCE_EVAL
   METHOD  QS
   STRESS_TENSOR  ANALYTICAL
   &DFT
     BASIS_SET_FILE_NAME BASIS_MOLOPT
     POTENTIAL_FILE_NAME GTH_POTENTIALS
     UKS  T
     SURFACE_DIPOLE_CORRECTION  T
     SURF_DIP_DIR  Z
     &SCF
       MAX_SCF  80
       EPS_SCF     5.0000000000000004E-06
       &OT  T
         PRECONDITIONER  FULL_ALL
       &END OT
       &OUTER_SCF  T
         OPTIMIZER  NONE
         EPS_SCF     5.0000000000000004E-06
         MAX_SCF  4
       &END OUTER_SCF
       &PRINT
         &RESTART  OFF
           BACKUP_COPIES  1
           &EACH
             JUST_ENERGY  0
             QS_SCF  0
             MD  20
           &END EACH
         &END RESTART
       &END PRINT
     &END SCF
     &QS
       EPS_DEFAULT     1.0000000000000000E-14
       METHOD  GPW
     &END QS
     &MGRID
       NGRIDS  5
       CUTOFF     1.2000000000000000E+03
     &END MGRID
     &XC
       DENSITY_CUTOFF     1.0000000000000000E-10
       GRADIENT_CUTOFF     1.0000000000000000E-10
       TAU_CUTOFF     1.0000000000000000E-10
       &XC_FUNCTIONAL  NO_SHORTCUT
         &PBE  T
         &END PBE
       &END XC_FUNCTIONAL
       &VDW_POTENTIAL
         POTENTIAL_TYPE  PAIR_POTENTIAL
         &PAIR_POTENTIAL
           R_CUTOFF     1.0000000000000009E+01
           TYPE  DFTD3
           PARAMETER_FILE_NAME dftd3.dat
           REFERENCE_FUNCTIONAL PBE
           EPS_CN     9.9999999999999995E-07
           CALCULATE_C9_TERM  T
           REFERENCE_C9_TERM  T
           LONG_RANGE_CORRECTION  F
           VERBOSE_OUTPUT  F
         &END PAIR_POTENTIAL
       &END VDW_POTENTIAL
     &END XC
   &END DFT
   &SUBSYS
     &CELL
       A     1.2864472766435110E+01    0.0000000000000000E+00    0.0000000000000000E+00
       B    -6.4322363581020028E+00    1.1140960178524477E+01    0.0000000000000000E+00
       C     0.0000000000000000E+00    0.0000000000000000E+00    3.2000000000000000E+01
       MULTIPLE_UNIT_CELL  1 1 1
       &CELL_REF
         A     1.2982353780853531E+01    0.0000000000000000E+00    0.0000000000000000E+00
         B    -6.4911768904267628E+00    1.1243048175136114E+01    0.0000000000000000E+00
         C     0.0000000000000000E+00    0.0000000000000000E+00    3.2000000000000000E+01
         MULTIPLE_UNIT_CELL  1 1 1
       &END CELL_REF
     &END CELL
     &COORD
N   -3.7018658945787600E-03    2.0266648604428319E+00    2.4825109454968102E+00
Ga   -1.5244031717561630E-03    4.1592278977267041E-02    2.8610419172282904E+00
N   -3.5052589777569279E-04    4.3994381320885872E-02    5.0158748423500112E+00
Ga    5.3276065264072842E-04    1.8656830614378346E+00    5.8099484729171831E+00
N   -7.0950789138630749E-04    1.8932181357249274E+00    7.7860822433642918E+00
Ga   -1.0957385420047911E-03    4.6179182213042978E-02    8.4557096875992208E+00
N   -1.6416050494861220E-03    4.8533172193137672E-02    1.0412119935544153E+01
Ga   -1.7828694842536253E-03    1.8865681304366364E+00    1.1088902477166194E+01
N   -1.9779631172172855E-03    1.8688649214499933E+00    1.3063323749366807E+01
Ga   -1.6634707368713714E-03    5.1539807800565288E-02    1.3909908065762313E+01
N   -1.9659346943486414E-03    5.3477368630402797E-02    1.6069426572940817E+01
Ga   -1.8358107453961023E-03    2.1129698301930535E+00    1.6506223393897141E+01
Ga   -4.1300220572473012E-02    3.7618977232449744E+00    1.2926937476624034E+00
N   -1.4935096461966200E+00    4.6179771453619516E+00    2.4815242004375317E+00
Ga   -1.6135064276702058E+00    2.8200836025498552E+00    3.3036559406475572E+00
N   -1.6199960034789773E+00    2.8229749328245290E+00    5.2363937786939445E+00
Ga   -1.6413371542459572E+00    4.7050432779137257E+00    5.8065271404987904E+00
N   -1.6184629714766849E+00    4.6935587497643114E+00    7.7834153810042919E+00
Ga   -1.5977534814797587E+00    2.8384931045168806E+00    8.4535807538342560E+00
N   -1.5970796284168345E+00    2.8412363799791667E+00    1.0424953508813926E+01
Ga   -1.6263306504172028E+00    4.7003988416417037E+00    1.1088676764237430E+01
N   -1.6435826128177411E+00    4.7126085355388057E+00    1.3063123878745699E+01
Ga   -1.5994880994842324E+00    2.8425360721068218E+00    1.3634839916771647E+01
N   -1.6270981002971254E+00    2.8286802042676458E+00    1.5580660915763422E+01
Ga   -1.4343365548509210E+00    4.5942847920493666E+00    1.6506354066495181E+01
N   -1.6560543304282634E-03    3.7673121180975846E+00    1.7654120989388069E+01
N   -3.2142042185211426E+00    7.6042933697545303E+00    2.4800946125682124E+00
Ga   -3.2209843960551074E+00    5.6110273005489377E+00    2.8340510120529689E+00
N   -3.2171140682849568E+00    5.6144522085395865E+00    5.0013374676066622E+00
Ga   -3.2170243859032897E+00    7.4332275333254652E+00    5.8079171756348646E+00
N   -3.2172950648303940E+00    7.4623897562080552E+00    7.7844645767491256E+00
Ga   -3.2175995086606619E+00    5.6164163657014390E+00    8.4549498287728735E+00
N   -3.2178447864750925E+00    5.6188780041741566E+00    1.0411302767867788E+01
Ga   -3.2179712687024997E+00    7.4567995474263826E+00    1.1088918289389870E+01
N   -3.2181452463278792E+00    7.4391870667993896E+00    1.3063618441595194E+01
Ga   -3.2175475147508639E+00    5.6217795275317375E+00    1.3910080891981085E+01
N   -3.2178453083630565E+00    5.6235883053044144E+00    1.6069447371407083E+01
Ga   -3.2178806934597755E+00    7.6837672634337721E+00    1.6505907377049045E+01
Ga   -3.2208848501247154E+00    9.2973707241946979E+00    1.2959867380494137E+00
N   -4.7150060168672008E+00    1.0190389123954899E+01    2.4836440545078977E+00
Ga   -4.8311889657197913E+00    8.3993875245001384E+00    3.3018052531901838E+00
N   -4.8354397856496316E+00    8.3929177737445553E+00    5.2355022225908652E+00
Ga   -4.8550472803826148E+00    1.0275079968358133E+01    5.8104083950668581E+00
N   -4.8336611798451017E+00    1.0263374176532199E+01    7.7865044978974023E+00
Ga   -4.8134786528170430E+00    8.4083808895405188E+00    8.4539675694035878E+00
N   -4.8131127070419017E+00    8.4113821151115769E+00    1.0425269011108510E+01
Ga   -4.8424463690101014E+00    1.0270833508416404E+01    1.1089121053433216E+01
N   -4.8598090289475788E+00    1.0282972767973263E+01    1.3063628766560976E+01
Ga   -4.8157513278453212E+00    8.4127911123120143E+00    1.3634749293963420E+01
N   -4.8434719450441683E+00    8.3989238653589027E+00    1.5580719240868417E+01
Ga   -4.6503302704168128E+00    1.0164868384445146E+01    1.6505633733027231E+01
N   -3.2178987909288761E+00    9.3380959272121640E+00    1.7653237117293223E+01
N    3.2140894785912448E+00    1.8981135158732940E+00    2.6660725898367761E+00
Ga    3.2136828849261097E+00    4.2808797823174316E-02    3.2956878351952881E+00
N    3.2155567281258648E+00    5.6207994208450074E-02    5.2327443724456719E+00
Ga    3.2136718182731658E+00    1.9008441028385901E+00    5.8972212564238520E+00
N    3.2145029748240490E+00    1.9028657330785164E+00    7.8463618729169013E+00
Ga    3.2151404603864679E+00    3.3103644837512491E-02    8.4547518976522511E+00
N    3.2144295505896303E+00    3.4396694509478624E-02    1.0426043491858200E+01
Ga    3.2143883062621801E+00    1.9060132981633264E+00    1.1038398945895901E+01
N    3.2137723709714483E+00    1.9079913054790698E+00    1.2988933532049797E+01
Ga    3.2140216265410966E+00    3.9355921586602595E-02    1.3635125274313232E+01
N    3.2140253086258213E+00    7.3668658552902777E-02    1.5580806853623750E+01
Ga    3.2135682291414600E+00    1.9101803512773179E+00    1.5865171080842108E+01
N    1.4874052510969100E+00    4.6170605720854967E+00    2.4696419629539501E+00
Ga    1.6061506377997277E+00    2.8255779810587955E+00    3.2912393971028417E+00
N    1.6176652922039458E+00    2.8236862050661937E+00    5.2289244334425611E+00
Ga    1.6400743671868370E+00    4.7037609411964727E+00    5.8047137810995046E+00
N    1.6166801841172251E+00    4.6933815535682948E+00    7.7822885133613804E+00
Ga    1.5956589263053078E+00    2.8388349703567068E+00    8.4539774215745283E+00
N    1.5938469679084526E+00    2.8414327302502951E+00    1.0425317038893750E+01
Ga    1.6224741331429016E+00    4.7004005824588022E+00    1.1089394989084113E+01
N    1.6395615142750524E+00    4.7127340923330907E+00    1.3063797202592108E+01
Ga    1.5953287297114227E+00    2.8425962165872809E+00    1.3635223211621199E+01
N    1.6232605045983612E+00    2.8284888336737994E+00    1.5580988579082875E+01
Ga    1.4307110027752616E+00    4.5942508263932176E+00    1.6506425770889660E+01
N   -7.8980266571911366E-04    7.4700510382275231E+00    2.6706622221273681E+00
Ga    1.9403727318714021E-03    5.6185657300762708E+00    3.2996884486030411E+00
N   -4.2241134489320403E-04    5.6265089645014923E+00    5.2334682170328417E+00
Ga   -2.7950273571854266E-05    7.4711558335463586E+00    5.8999242593476735E+00
N   -8.1815114324544191E-04    7.4731783019400995E+00    7.8478543542837143E+00
Ga   -7.8383478887053266E-04    5.6027393405246455E+00    8.4528884029206353E+00
N   -1.6399929844279034E-03    5.6043413004952276E+00    1.0424535100720925E+01
Ga   -1.9891564313791626E-03    7.4759520864969433E+00    1.1037968564101753E+01
N   -2.4611991179049452E-03    7.4781874723033193E+00    1.2988761326271153E+01
Ga   -2.1860127250644470E-03    5.6098578753919268E+00    1.3635469120541085E+01
N   -2.0908405065779108E-03    5.6438831323781287E+00    1.5581106903264136E+01
Ga   -2.2694958324836908E-03    7.4802742707593559E+00    1.5865820901550286E+01
N   -1.7246093674849916E+00    1.0185247201994708E+01    2.4806840694597776E+00
Ga   -1.6024122235029983E+00    8.3982113485290792E+00    3.3047650497195717E+00
N   -1.5982284832247906E+00    8.3931315267211346E+00    5.2376693933678968E+00
Ga   -1.5779194699450776E+00    1.0275727250806829E+01    5.8098997927834937E+00
N   -1.6004097531720705E+00    1.0263890274440060E+01    7.7862750820893885E+00
Ga   -1.6210388150978094E+00    8.4087139803808348E+00    8.4536876154276577E+00
N   -1.6225155678911249E+00    8.4114473023882521E+00    1.0425261421841215E+01
Ga   -1.5936204455065950E+00    1.0270825263003605E+01    1.1089255245797570E+01
N   -1.5765206693110128E+00    1.0282995000128020E+01    1.3064030823395340E+01
Ga   -1.6206560459555905E+00    8.4128269544818757E+00    1.3635244287091814E+01
N   -1.5925596389442449E+00    8.3987640715180731E+00    1.5581198269819048E+01
Ga   -1.7855638072999633E+00    1.0164807072733200E+01    1.6505777898724567E+01
N    6.4295589751184439E+00    2.0235735389764447E+00    2.4884487509176925E+00
Ga    6.4306706703312955E+00    3.9750912685299192E-02    2.8497576361374257E+00
N    6.4310168710081337E+00    4.2237381452548725E-02    5.0116031696354391E+00
Ga    6.4319263656605790E+00    1.8644521199907889E+00    5.8077272073852733E+00
N    6.4309391645454852E+00    1.8929262180226216E+00    7.7848182814669800E+00
Ga    6.4311155161477007E+00    4.6628587944196921E-02    8.4558592096323260E+00
N    6.4302969264304846E+00    4.8575600610062761E-02    1.0412569081816349E+01
Ga    6.4303167835610484E+00    1.8868018376868105E+00    1.1089480127821327E+01
N    6.4302285706744735E+00    1.8685053104918294E+00    1.3063911137166818E+01
Ga    6.4299899262637741E+00    5.1018124817718342E-02    1.3910286927987126E+01
N    6.4300867474204111E+00    5.3079509077553086E-02    1.6069133456215596E+01
Ga    6.4300303939963630E+00    2.1131331345949955E+00    1.6505829711282374E+01
Ga    6.3999960666898223E+00    3.7559117168749010E+00    1.2930659883250559E+00
N    4.9406723770137093E+00    4.6161193988765215E+00    2.4739749140767264E+00
Ga    4.8191052140275410E+00    2.8189340597760610E+00    3.3024788378590637E+00
N    4.8119224589211198E+00    2.8239393922952529E+00    5.2351498197239703E+00
Ga    4.7906869158013512E+00    4.7053647696387495E+00    5.8060766523731075E+00
N    4.8133278576912764E+00    4.6938885417115292E+00    7.7831913530271910E+00
Ga    4.8342212833572349E+00    2.8385382597276374E+00    8.4528288665490852E+00
N    4.8347488353462635E+00    2.8412082700490719E+00    1.0424881242311752E+01
Ga    4.8059752272137528E+00    4.7002952213091440E+00    1.1089387738937031E+01
N    4.7882697118491393E+00    4.7127860498446799E+00    1.3063704256731883E+01
Ga    4.8323669017158926E+00    2.8422696828226806E+00    1.3635317747939897E+01
N    4.8041558575816410E+00    2.8280385610416019E+00    1.5580692524534804E+01
Ga    4.9976278876675284E+00    4.5938639755099056E+00    1.6505757741358799E+01
N    6.4298729998763147E+00    3.7671151431462739E+00    1.7653032273924531E+01
N    3.2141605600716638E+00    7.6073421927996483E+00    2.4719760385423202E+00
Ga    3.2111581010612760E+00    5.6113571927127479E+00    2.8304736545041278E+00
N    3.2156959757555366E+00    5.6151094297244999E+00    4.9977631174118882E+00
Ga    3.2151110595242263E+00    7.4338176781899614E+00    5.8072724536206248E+00
N    3.2147530347371718E+00    7.4624444485921577E+00    7.7841809590095252E+00
Ga    3.2148440406742349E+00    5.6167655582312568E+00    8.4554562072347661E+00
N    3.2140307022633570E+00    5.6188389024369894E+00    1.0411993124354481E+01
Ga    3.2142788924623642E+00    7.4568181973173218E+00    1.1090069735450802E+01
N    3.2140433690518080E+00    7.4387617116121172E+00    1.3064218747161359E+01
Ga    3.2137229006342891E+00    5.6214422411928844E+00    1.3910395183580953E+01
N    3.2138487945011192E+00    5.6233481026246146E+00    1.6069167558077709E+01
Ga    3.2138965608754062E+00    7.6836158686811231E+00    1.6506332549402128E+01
Ga    3.2248643954100147E+00    9.3056612289825846E+00    1.2962592572364413E+00
N    1.7224674529676804E+00    1.0188276562852677E+01    2.4798985922760579E+00
Ga    1.6011165840009907E+00    8.4004378809569733E+00    3.3003156618655147E+00
N    1.5973063959963301E+00    8.3932167813930345E+00    5.2343509307570111E+00
Ga    1.5757810314285026E+00    1.0275098621637314E+01    5.8098052985466779E+00
N    1.5979923150586455E+00    1.0263393380581327E+01    7.7864211387441555E+00
Ga    1.6187807850694664E+00    8.4085720643518425E+00    8.4546179975222824E+00
N    1.6188299028506703E+00    8.4112692562103355E+00    1.0426032489170645E+01
Ga    1.5897118755040796E+00    1.0270852916443490E+01    1.1089955613703985E+01
N    1.5721240709118818E+00    1.0283086044791757E+01    1.3064133435204161E+01
Ga    1.6160035280553937E+00    8.4125663254048266E+00    1.3635533519586554E+01
N    1.5880814320010197E+00    8.3984928958581513E+00    1.5581114517664522E+01
Ga    1.7815874191823939E+00    1.0164482428847347E+01    1.6506043792357513E+01
N    3.2139332967818950E+00    9.3376509005846753E+00    1.7653464625489374E+01
N    9.6463267265773300E+00    1.8990429351566860E+00    2.6673086384342892E+00
Ga    9.6471640277594979E+00    4.4697702402700171E-02    3.2983906682368072E+00
N    9.6467492870248090E+00    5.6530369512435556E-02    5.2349049555165381E+00
Ga    9.6459026614460353E+00    1.9006764066579687E+00    5.8993842994729535E+00
N    9.6467520372766025E+00    1.9027215216107722E+00    7.8481667033128053E+00
Ga    9.6469160807917333E+00    3.2434561040101034E-02    8.4551207466888236E+00
N    9.6464433497789681E+00    3.4002646057640112E-02    1.0426329065278166E+01
Ga    9.6465432515570164E+00    1.9058472602893324E+00    1.1037674481802696E+01
N    9.6467080345177081E+00    1.9081179598993869E+00    1.2988401277967384E+01
Ga    9.6465554711371073E+00    3.9618650993372924E-02    1.3635008765301862E+01
N    9.6464226717011279E+00    7.3623989382418348E-02    1.5580242952059642E+01
Ga    9.6467874672527980E+00    1.9102627693344973E+00    1.5865222080871876E+01
N    7.9206157917190874E+00    4.6163039554512100E+00    2.4736597659046042E+00
Ga    8.0392884217758560E+00    2.8243444378055949E+00    3.2951004836335240E+00
N    8.0500161837942148E+00    2.8233744559529135E+00    5.2318504542908046E+00
Ga    8.0716697602320355E+00    4.7038367745386962E+00    5.8055339131180324E+00
N    8.0481321486026793E+00    4.6934477694786896E+00    7.7830439779683847E+00
Ga    8.0269679056207295E+00    2.8386837329363868E+00    8.4536638731848495E+00
N    8.0257864769884435E+00    2.8411809405094814E+00    1.0425257397383692E+01
Ga    8.0548906274940197E+00    4.7003689708904739E+00    1.1089215188318239E+01
N    8.0723647430232397E+00    4.7128192618871303E+00    1.3063331260701272E+01
Ga    8.0282850071649445E+00    2.8423583687327216E+00    1.3634862755851071E+01
N    8.0559963541998130E+00    2.8282514587575975E+00    1.5580305658129280E+01
Ga    7.8625162794147281E+00    4.5938935620165804E+00    1.6505614031316274E+01
N    6.4315663061008701E+00    7.4695678659189664E+00    2.6685164264387096E+00
Ga    6.4343495674127995E+00    5.6176624908124237E+00    3.2982121382016261E+00
N    6.4310058842238575E+00    5.6263221696972883E+00    5.2324292947128006E+00
Ga    6.4311394895141794E+00    7.4707035915502971E+00    5.8993781052197871E+00
N    6.4308842591313988E+00    7.4731184434812556E+00    7.8476351174898031E+00
Ga    6.4308678165502950E+00    5.6026845876762428E+00    8.4529563536017189E+00
N    6.4302977828973411E+00    5.6042074686338479E+00    1.0424710688564479E+01
Ga    6.4304288676793888E+00    7.4758307162467945E+00    1.1037386166929830E+01
N    6.4304648446909507E+00    7.4784538439442088E+00    1.2988134677693518E+01
Ga    6.4304694115422336E+00    5.6101355619756959E+00    1.3634894991684083E+01
N    6.4303020764771439E+00    5.6441473666419055E+00    1.5580055858903021E+01
Ga    6.4303552906732806E+00    7.4806544769446797E+00    1.5865539818033074E+01
N    4.7131092615003602E+00    1.0192055638060154E+01    2.4910437883271048E+00
Ga    4.8303553965780264E+00    8.3995351761159647E+00    3.3015614486028615E+00
N    4.8335346510732888E+00    8.3927072111810812E+00    5.2352340140213194E+00
Ga    4.8537379181436195E+00    1.0275264165666416E+01    5.8099971049638519E+00
N    4.8315800440069712E+00    1.0263391602645539E+01    7.7865574958255221E+00
Ga    4.8108208681004863E+00    8.4084361139338331E+00    8.4542033992101508E+00
N    4.8094945921866810E+00    8.4111311313760080E+00    1.0425553297993755E+01
Ga    4.8388597347556432E+00    1.0270705746340298E+01    1.1089579482580861E+01
N    4.8562254708441150E+00    1.0283095833686790E+01    1.3063540584187397E+01
Ga    4.8120507688590797E+00    8.4127350008105690E+00    1.3635019175804391E+01
N    4.8397531876377746E+00    8.3987402557743511E+00    1.5580515177955695E+01
Ga    4.6464755897434804E+00    1.0164647819604363E+01    1.6505864869283673E+01
O   -1.7596517585164712E-01    3.7044962045368033E+00   -5.1235431463295444E-01
H   -3.1975249660575597E-03    7.4724439439872432E+00    1.6434204474534919E+00
C    6.1639692394319456E-01    2.7323007633454117E+00   -1.2096678459014980E+00
H    1.6945151394086362E+00    2.9529528028116596E+00   -1.1533721074350745E+00
H    4.4757022950358910E-01    1.7080999774573706E+00   -8.3688198754396947E-01
H    3.1754852087898205E-01    2.7646509256704981E+00   -2.2674824565436693E+00
O   -3.2980595989592039E+00    9.2755939796562696E+00   -5.1270894209461915E-01
C   -3.8472040967803696E+00    1.0434240856519468E+01   -1.1573273288271622E+00
H   -4.8318595527073764E+00    1.0715793489806590E+01   -7.4781151830215187E-01
H   -3.1774531682891300E+00    1.1307029261122034E+01   -1.0880404499041108E+00
H   -3.9773337877824644E+00    1.0186972400492804E+01   -2.2207564635374024E+00
O    3.3322850680496563E+00    9.3670211347770653E+00   -5.1131347018947126E-01
C    3.7363502491766170E+00    1.0625120295176169E+01   -1.0734089426294824E+00
H    2.9531579566950841E+00    1.1395569701745980E+01   -9.7377116862213076E-01
H    4.6660511949594632E+00    1.1011862944187476E+01   -6.2194616494285759E-01
H    3.9188478630945243E+00    1.0462708557974821E+01   -2.1452544342420636E+00
O    6.3331714459367205E+00    3.6162067664523931E+00   -5.1177325113662364E-01
C    7.1767760060130410E+00    2.6135380881467913E+00   -1.1023872671413621E+00
H    8.2415411074273326E+00    2.8963125192325472E+00   -1.0683500934172543E+00
H    7.0572580221135341E+00    1.6268991479177961E+00   -6.2366625794729524E-01
H    6.8838658153566525E+00    2.5179845503083822E+00   -2.1576661694455694E+00
H    6.4331103982293261E+00    7.4723176101631665E+00    1.6411892862141886E+00
H    9.6527467445957633E+00    1.9005157863180639E+00    1.6401520064383182E+00
H    3.2215318152750827E+00    1.8993574137548586E+00    1.6389832260042021E+00
     &END COORD
     &KIND C
       BASIS_SET DZVP-MOLOPT-SR-GTH-q4
       POTENTIAL GTH-PBE-q4
       &POTENTIAL
2 2
0.3384712400000000E+00 2 -0.8803673979999999E+01  0.1339210850000000E+01
2
0.3025757500000000E+00 1  0.9622486650000001E+01
0.2915069400000000E+00 0
       &END POTENTIAL
     &END KIND
     &KIND O
       BASIS_SET DZVP-MOLOPT-SR-GTH-q6
       POTENTIAL GTH-PBE-q6
       &POTENTIAL
2 4
0.2445543000000000E+00 2 -0.1666721480000000E+02  0.2487311320000000E+01
2
0.2209559200000000E+00 1  0.1833745811000000E+02
0.2113324700000000E+00 0
       &END POTENTIAL
     &END KIND
     &KIND H
       BASIS_SET DZVP-MOLOPT-SR-GTH-q1
       POTENTIAL GTH-PBE-q1
       &POTENTIAL
1
0.2000000000000000E+00 2 -0.4178900440000000E+01  0.7244633100000000E+00
0
       &END POTENTIAL
     &END KIND
     &KIND N
       BASIS_SET DZVP-MOLOPT-SR-GTH
       POTENTIAL GTH-PBE-q5
       &POTENTIAL
2 3
0.2837905100000000E+00 2 -0.1241522559000000E+02  0.1868095920000000E+01
2
0.2554050000000000E+00 1  0.1363026257000000E+02
0.2454945300000000E+00 0
       &END POTENTIAL
     &END KIND
     &KIND Ga
       BASIS_SET DZVP-MOLOPT-SR-GTH
       POTENTIAL GTH-PBE-q13
       &POTENTIAL
2 1 10
0.4900000000000000E+00 0
3
0.4167772300000000E+00 3  0.1047568975000000E+02 -0.4921768140000000E+01  0.8707055900000000E+00
0.7770178090000000E+01 -0.2248152160000000E+01
0.1784415450000000E+01
0.5696265200000000E+00 2  0.1777985340000000E+01  0.1958597600000000E+00
-0.2317443900000000E+00
0.2381265000000000E+00 1 -0.1624868022000000E+02
       &END POTENTIAL
     &END KIND
     &TOPOLOGY
       NUMBER_OF_ATOMS  224
       MULTIPLE_UNIT_CELL  1 1 1
     &END TOPOLOGY
     &COLVAR
       &DISTANCE
         ATOMS  127 211
       &END DISTANCE
       &PRINT
       &END PRINT
     &END COLVAR
   &END SUBSYS
 &END FORCE_EVAL
