 # Version information for this restart file 
 # current date 2019-07-18 23:29:55.267
 # current working dir /lustre04/scratch/rzk/rzk/GaN-carbene/443-adatoms-both-2x2/20-FullCoverage/01-4Molecules
 # Program compiled at                              Sun Apr  7 00:48:11 EDT 2019
 # Program compiled on                          beluga2.int.ets1.calculquebec.ca
 # Program compiled for                        Beluga-Linux-x86-64-intel-openmpi
 # Source code revision number                                         svn:18619
 &GLOBAL
   PRINT_LEVEL  MEDIUM
   PROJECT_NAME TEST
   RUN_TYPE  GEO_OPT
 &END GLOBAL
 &MOTION
   &GEO_OPT
     MAX_ITER  500
     STEP_START_VAL  39
   &END GEO_OPT
 &END MOTION
 &FORCE_EVAL
   METHOD  QS
   STRESS_TENSOR  ANALYTICAL
   &DFT
     BASIS_SET_FILE_NAME BASIS_MOLOPT
     POTENTIAL_FILE_NAME GTH_POTENTIALS
     UKS  T
     SURFACE_DIPOLE_CORRECTION  T
     SURF_DIP_DIR  Z
     &SCF
       MAX_SCF  80
       EPS_SCF     5.0000000000000004E-06
       &OT  T
         PRECONDITIONER  FULL_ALL
       &END OT
       &OUTER_SCF  T
         OPTIMIZER  NONE
         EPS_SCF     5.0000000000000004E-06
         MAX_SCF  4
       &END OUTER_SCF
       &PRINT
         &RESTART  OFF
           BACKUP_COPIES  1
           &EACH
             JUST_ENERGY  0
             QS_SCF  0
             MD  20
           &END EACH
         &END RESTART
       &END PRINT
     &END SCF
     &QS
       EPS_DEFAULT     1.0000000000000000E-14
       METHOD  GPW
     &END QS
     &MGRID
       NGRIDS  5
       CUTOFF     1.2000000000000000E+03
     &END MGRID
     &XC
       DENSITY_CUTOFF     1.0000000000000000E-10
       GRADIENT_CUTOFF     1.0000000000000000E-10
       TAU_CUTOFF     1.0000000000000000E-10
       &XC_FUNCTIONAL  NO_SHORTCUT
         &PBE  T
         &END PBE
       &END XC_FUNCTIONAL
       &VDW_POTENTIAL
         POTENTIAL_TYPE  PAIR_POTENTIAL
         &PAIR_POTENTIAL
           R_CUTOFF     1.0000000000000009E+01
           TYPE  DFTD3
           PARAMETER_FILE_NAME dftd3.dat
           REFERENCE_FUNCTIONAL PBE
           EPS_CN     9.9999999999999995E-07
           CALCULATE_C9_TERM  T
           REFERENCE_C9_TERM  T
           LONG_RANGE_CORRECTION  F
           VERBOSE_OUTPUT  F
         &END PAIR_POTENTIAL
       &END VDW_POTENTIAL
     &END XC
   &END DFT
   &SUBSYS
     &CELL
       A     1.2864472766435110E+01    0.0000000000000000E+00    0.0000000000000000E+00
       B    -6.4322363581020028E+00    1.1140960178524477E+01    0.0000000000000000E+00
       C     0.0000000000000000E+00    0.0000000000000000E+00    3.2000000000000000E+01
       MULTIPLE_UNIT_CELL  1 1 1
       &CELL_REF
         A     1.2982353780853531E+01    0.0000000000000000E+00    0.0000000000000000E+00
         B    -6.4911768904267628E+00    1.1243048175136114E+01    0.0000000000000000E+00
         C     0.0000000000000000E+00    0.0000000000000000E+00    3.2000000000000000E+01
         MULTIPLE_UNIT_CELL  1 1 1
       &END CELL_REF
     &END CELL
     &COORD
N   -3.5229017669350937E-03    2.0272338949149411E+00    2.4815355586532686E+00
Ga   -1.6287722529773475E-03    4.2292554260632283E-02    2.8610568259096154E+00
N   -3.3229146754578222E-04    4.4680262921359154E-02    5.0149430674341504E+00
Ga    6.2479284990598282E-04    1.8663789753698401E+00    5.8089277437948663E+00
N   -4.9283433993092124E-04    1.8935272049679917E+00    7.7850214745044015E+00
Ga   -8.5661752264604293E-04    4.6550418792310887E-02    8.4550233910678223E+00
N   -1.4884616523099603E-03    4.8351151422450070E-02    1.0411507273732909E+01
Ga   -1.4896439679700155E-03    1.8864003430293597E+00    1.1088470834292744E+01
N   -1.7817505829287169E-03    1.8680971785194522E+00    1.3062981587088586E+01
Ga   -1.6622372037518283E-03    5.0561612686399096E-02    1.3909308015422386E+01
N   -1.9174564574977924E-03    5.2193938832927937E-02    1.6068442353212379E+01
Ga   -1.7609737841788888E-03    2.1113743969682925E+00    1.6505913383618939E+01
Ga   -4.1220574760490174E-02    3.7620944300644799E+00    1.2917531276643528E+00
N   -1.4934774053729862E+00    4.6186051454643948E+00    2.4804580285004723E+00
Ga   -1.6133139117835815E+00    2.8207644411139023E+00    3.3027631324134226E+00
N   -1.6198464554931959E+00    2.8236845820373331E+00    5.2354089501008021E+00
Ga   -1.6411508561576353E+00    4.7057271180401852E+00    5.8056608722878638E+00
N   -1.6182417526559207E+00    4.6938956270358432E+00    7.7825546422041523E+00
Ga   -1.5974269572749795E+00    2.8388530029666761E+00    8.4528037974454904E+00
N   -1.5968943839140068E+00    2.8410202724542382E+00    1.0424325378310595E+01
Ga   -1.6259524420749445E+00    4.7001702099309028E+00    1.1088280387525895E+01
N   -1.6434630863484516E+00    4.7119282252249706E+00    1.3062768042420734E+01
Ga   -1.5995312740436345E+00    2.8416568533303410E+00    1.3634565013294555E+01
N   -1.6267262825568811E+00    2.8277065113617423E+00    1.5580628709022312E+01
Ga   -1.4348013491674478E+00    4.5934335298890279E+00    1.6505936693193416E+01
N   -1.8692497349899963E-03    3.7661035091657133E+00    1.7654615573478509E+01
N   -3.2148266488194119E+00    7.6051304859731834E+00    2.4796417712634056E+00
Ga   -3.2210620198813307E+00    5.6117424793791031E+00    2.8336334305924717E+00
N   -3.2169558425712848E+00    5.6151402144543967E+00    5.0007193150925380E+00
Ga   -3.2169839721420401E+00    7.4338730853451596E+00    5.8073397026310705E+00
N   -3.2171269799948909E+00    7.4626494210955370E+00    7.7838772322079208E+00
Ga   -3.2171923728186909E+00    5.6167154574917530E+00    8.4544909286570569E+00
N   -3.2175904942417599E+00    5.6186241549671605E+00    1.0410879360388513E+01
Ga   -3.2176305741837172E+00    7.4565474315929761E+00    1.1088560339900019E+01
N   -3.2178972868542854E+00    7.4384114557007512E+00    1.3063071925776439E+01
Ga   -3.2177130534839420E+00    5.6209399398691655E+00    1.3909349734595983E+01
N   -3.2179135020063536E+00    5.6225021007003351E+00    1.6068376119466901E+01
Ga   -3.2178794464001079E+00    7.6818701564454424E+00    1.6505558583841605E+01
Ga   -3.2228937336882288E+00    9.2982051336458262E+00    1.2958404084486514E+00
N   -4.7152667655192939E+00    1.0191230504348468E+01    2.4837374146384636E+00
Ga   -4.8314354985631116E+00    8.4001716162725497E+00    3.3016772552955347E+00
N   -4.8355184311060997E+00    8.3935492361248087E+00    5.2351848329686854E+00
Ga   -4.8550931261027790E+00    1.0275722678566535E+01    5.8097567183502914E+00
N   -4.8335284449160048E+00    1.0263690730038830E+01    7.7857922074565797E+00
Ga   -4.8132607911823175E+00    8.4086197546766552E+00    8.4534568735884221E+00
N   -4.8129810171147600E+00    8.4111180404635721E+00    1.0424807322260689E+01
Ga   -4.8421805005835097E+00    1.0270640521902232E+01    1.1088700750218218E+01
N   -4.8596506436012490E+00    1.0282313421760568E+01    1.3063092073515866E+01
Ga   -4.8157545768720853E+00    8.4119397227323098E+00    1.3634433838275816E+01
N   -4.8429594740317006E+00    8.3981126771210146E+00    1.5580522679737086E+01
Ga   -4.6509634694982394E+00    1.0164053334810642E+01    1.6505360283253353E+01
N   -3.2179963762283057E+00    9.3368025814101987E+00    1.7654134421716797E+01
N    3.2144945335774278E+00    1.8989678437119908E+00    2.6667467670173282E+00
Ga    3.2136636664432698E+00    4.3382003371415991E-02    3.2954426971945190E+00
N    3.2155899720377867E+00    5.6833778044972375E-02    5.2323477824335880E+00
Ga    3.2135454586124448E+00    1.9014083870554537E+00    5.8969955158488370E+00
N    3.2146050221925160E+00    1.9031659505495166E+00    7.8459437624279467E+00
Ga    3.2152326225911678E+00    3.3262027006581679E-02    8.4542994072771922E+00
N    3.2146441220662196E+00    3.4197594597845493E-02    1.0425551481477545E+01
Ga    3.2146057995165376E+00    1.9058084810293989E+00    1.1037743827323951E+01
N    3.2141743469097981E+00    1.9073947912073650E+00    1.2988326731924941E+01
Ga    3.2142681737527439E+00    3.8820771014392769E-02    1.3634613827262491E+01
N    3.2141843963926982E+00    7.2204360673245885E-02    1.5580486306989856E+01
Ga    3.2138752764347283E+00    1.9090238688867303E+00    1.5865717655547865E+01
N    1.4874594187736574E+00    4.6178833890420572E+00    2.4685702694126896E+00
Ga    1.6062158302034075E+00    2.8264322632995129E+00    3.2904576972830371E+00
N    1.6178235383163611E+00    2.8243640982707627E+00    5.2280156868053114E+00
Ga    1.6402164486911348E+00    4.7044696890225310E+00    5.8036763598971302E+00
N    1.6167667349865515E+00    4.6937453360550263E+00    7.7812774076804088E+00
Ga    1.5956961557796998E+00    2.8392242246486772E+00    8.4531669776002598E+00
N    1.5940404326381588E+00    2.8412675369971261E+00    1.0424590295820183E+01
Ga    1.6227198827454545E+00    4.7002662894253540E+00    1.1088894230104636E+01
N    1.6398171359238389E+00    4.7120587855858220E+00    1.3063260404210498E+01
Ga    1.5957762439019294E+00    2.8417250626701920E+00    1.3634736794385438E+01
N    1.6233097253254876E+00    2.8276096981748213E+00    1.5580784048364499E+01
Ga    1.4312028952371505E+00    4.5934006134760397E+00    1.6506175909627117E+01
N   -1.1438493812436789E-03    7.4712128814761076E+00    2.6700618200067705E+00
Ga    1.9321017874305846E-03    5.6192788602392723E+00    3.2984119369054095E+00
N   -3.1011191557485401E-04    5.6271957399649981E+00    5.2322027071687822E+00
Ga   -1.7656468945014572E-04    7.4716536366107258E+00    5.8989414266891131E+00
N   -7.5866411976676892E-04    7.4734827452311228E+00    7.8469167801699724E+00
Ga   -6.5857966440738182E-04    5.6029774666158287E+00    8.4519390291969572E+00
N   -1.4373520522514614E-03    5.6041457987488812E+00    1.0423688839224202E+01
Ga   -1.7045576469219064E-03    7.4756945397208803E+00    1.1037285644247502E+01
N   -2.0056462920576036E-03    7.4775509359703278E+00    1.2988070626128749E+01
Ga   -1.9884047961129811E-03    5.6093218598407493E+00    1.3634939228018606E+01
N   -1.8704715073096505E-03    5.6426121663707560E+00    1.5580830767558536E+01
Ga   -2.2413069143512264E-03    7.4793520206009481E+00    1.5866272501655969E+01
N   -1.7249564925992356E+00    1.0186247445858005E+01    2.4798371874716714E+00
Ga   -1.6030660510816759E+00    8.3992416019902407E+00    3.3037219720624260E+00
N   -1.5983061916088814E+00    8.3937863886792030E+00    5.2366822112147418E+00
Ga   -1.5779300059698509E+00    1.0276174521473955E+01    5.8095708503942127E+00
N   -1.6003215300538134E+00    1.0264140338528083E+01    7.7858700042285474E+00
Ga   -1.6209181599301150E+00    8.4088935394356294E+00    8.4531914568276818E+00
N   -1.6222792108494446E+00    8.4112358230314896E+00    1.0424717066968244E+01
Ga   -1.5932181689139511E+00    1.0270644381634421E+01    1.1088943344893972E+01
N   -1.5761590494692628E+00    1.0282362965391016E+01    1.3063387379758185E+01
Ga   -1.6202302711440197E+00    8.4120272765799271E+00    1.3634660618872331E+01
N   -1.5927750853809790E+00    8.3979863432194275E+00    1.5580755788594889E+01
Ga   -1.7848513970680537E+00    1.0164055554507049E+01    1.6505546478730583E+01
N    6.4296750743761262E+00    2.0241883500988815E+00    2.4893106472067044E+00
Ga    6.4305086606715882E+00    4.0375523241929973E-02    2.8503120119524059E+00
N    6.4310768888280379E+00    4.2724499316091867E-02    5.0114886030465664E+00
Ga    6.4321149282751033E+00    1.8649407592649863E+00    5.8076799204822214E+00
N    6.4312495556209388E+00    1.8931230079483625E+00    7.7845329855771093E+00
Ga    6.4312646335701125E+00    4.6746373016036583E-02    8.4555036413546798E+00
N    6.4306444152383806E+00    4.8401613661639170E-02    1.0411970793989330E+01
Ga    6.4305337959705628E+00    1.8864169390914041E+00    1.1088951671446692E+01
N    6.4305061597134738E+00    1.8681063023788163E+00    1.3063255835427537E+01
Ga    6.4304653251554926E+00    5.0529029042441283E-02    1.3909642555286617E+01
N    6.4305576729367813E+00    5.2192252040397631E-02    1.6068559103557853E+01
Ga    6.4304778422226088E+00    2.1121454535852124E+00    1.6506082537019662E+01
Ga    6.3997634480634513E+00    3.7552847840202155E+00    1.2937246562133868E+00
N    4.9406820041002755E+00    4.6165605345611871E+00    2.4734917249372228E+00
Ga    4.8193675732072947E+00    2.8198348953319594E+00    3.3029129334279457E+00
N    4.8120164048663723E+00    2.8244675429571386E+00    5.2353501450191953E+00
Ga    4.7908115134005600E+00    4.7060565114677821E+00    5.8057742181126315E+00
N    4.8135514337758156E+00    4.6942071127305116E+00    7.7826622220861976E+00
Ga    4.8344785599231868E+00    2.8387581733304414E+00    8.4523847138530872E+00
N    4.8350956709942459E+00    2.8410160100563302E+00    1.0424218955662592E+01
Ga    4.8059823196997140E+00    4.7000995925276028E+00    1.1088731926659536E+01
N    4.7886642719209354E+00    4.7119782945030169E+00    1.3062981069127439E+01
Ga    4.8326337789037526E+00    2.8415948035151315E+00    1.3634751922438731E+01
N    4.8044729412584681E+00    2.8271382165392525E+00    1.5580443177504540E+01
Ga    4.9981432878800653E+00    4.5929001937973810E+00    1.6506094146494355E+01
N    6.4305862993400886E+00    3.7661466854487204E+00    1.7653011480463491E+01
N    3.2141063780257633E+00    7.6082154118538856E+00    2.4712227753285365E+00
Ga    3.2111112476196264E+00    5.6120364209215259E+00    2.8295877333519863E+00
N    3.2158678146851698E+00    5.6158202818205760E+00    4.9969758750888786E+00
Ga    3.2151386361356185E+00    7.4343183275761344E+00    5.8066654149729331E+00
N    3.2148544857053860E+00    7.4627002065198331E+00    7.7833880570694305E+00
Ga    3.2148600705774877E+00    5.6169892058424153E+00    8.4547262859531482E+00
N    3.2142603686719187E+00    5.6187165105305281E+00    1.0411140544849125E+01
Ga    3.2143721672487446E+00    7.4564740553631346E+00    1.1089465335810845E+01
N    3.2142587069968807E+00    7.4384033521416306E+00    1.3063634418663792E+01
Ga    3.2143043213815297E+00    5.6208917136487129E+00    1.3909727609487232E+01
N    3.2143566539737671E+00    5.6225644509598762E+00    1.6068800880080698E+01
Ga    3.2143281579113832E+00    7.6827667367655010E+00    1.6506588234988254E+01
Ga    3.2254446842202982E+00    9.3065610217419685E+00    1.2963085442106499E+00
N    1.7222039802522144E+00    1.0189189979757577E+01    2.4795515515618356E+00
Ga    1.6010613283965391E+00    8.4012164719449416E+00    3.2996885467003323E+00
N    1.5972964215446113E+00    8.3937153768575765E+00    5.2335969443621275E+00
Ga    1.5758274214380557E+00    1.0275499877801471E+01    5.8095062481703339E+00
N    1.5981673819298350E+00    1.0263667167927773E+01    7.7858954445270037E+00
Ga    1.6188757340503359E+00    8.4087672356668328E+00    8.4538979994039885E+00
N    1.6191307485745154E+00    8.4111410305528835E+00    1.0425233623465406E+01
Ga    1.5898481943956793E+00    1.0270634009765274E+01    1.1089470403912763E+01
N    1.5725647230935498E+00    1.0282332515511360E+01    1.3063603116740824E+01
Ga    1.6162340052018755E+00    8.4119250230181990E+00    1.3635015354156007E+01
N    1.5883210714936749E+00    8.3974588581645051E+00    1.5580839620172913E+01
Ga    1.7820916352402327E+00    1.0163482236204585E+01    1.6506288219045278E+01
N    3.2144660028168643E+00    9.3367967278772923E+00    1.7653349626454936E+01
N    9.6461710816843720E+00    1.8996199314631170E+00    2.6679525155905641E+00
Ga    9.6470476498316380E+00    4.5191449475472566E-02    3.2983850888218802E+00
N    9.6467292784698842E+00    5.7091866210565327E-02    5.2346115580793615E+00
Ga    9.6462960477965325E+00    1.9013513093369754E+00    5.8990112946260300E+00
N    9.6471565133391000E+00    1.9030981720267095E+00    7.8474580448751858E+00
Ga    9.6472369760901291E+00    3.2779719826601758E-02    8.4544531626556569E+00
N    9.6467113723132680E+00    3.3836819948790883E-02    1.0425661882019194E+01
Ga    9.6468236007596584E+00    1.9055779536589137E+00    1.1037342721756655E+01
N    9.6467780654926258E+00    1.9073114111423068E+00    1.2987994761224972E+01
Ga    9.6467957625466241E+00    3.8921437575484448E-02    1.3634757782478387E+01
N    9.6467494742251336E+00    7.2694754741988513E-02    1.5580286138860375E+01
Ga    9.6470015829644638E+00    1.9092821490271144E+00    1.5865827222828649E+01
N    7.9206374114055782E+00    4.6167247840148100E+00    2.4733987487388061E+00
Ga    8.0392880319641709E+00    2.8252367451299505E+00    3.2954076899639464E+00
N    8.0501975216181627E+00    2.8239853183263133E+00    5.2319009729796671E+00
Ga    8.0719202921583779E+00    4.7045236656076508E+00    5.8053845091106622E+00
N    8.0484909637915916E+00    4.6937567996781082E+00    7.7826815836758207E+00
Ga    8.0273823441657086E+00    2.8389144091159588E+00    8.4532700679812134E+00
N    8.0260837231123130E+00    2.8409427618266712E+00    1.0424718324281439E+01
Ga    8.0551749664477601E+00    4.7000925943632268E+00    1.1088646509212518E+01
N    8.0724381934580549E+00    4.7119710060912263E+00    1.3062792396986087E+01
Ga    8.0285518631284827E+00    2.8416408855371693E+00    1.3634552929610912E+01
N    8.0562850640784696E+00    2.8272553701363132E+00    1.5580240203177590E+01
Ga    7.8629275033715524E+00    4.5929512535029469E+00    1.6505814242736935E+01
N    6.4314112091314870E+00    7.4700854717259402E+00    2.6691707025838163E+00
Ga    6.4344026096506166E+00    5.6179190077719587E+00    3.2978635802723528E+00
N    6.4312001235640386E+00    5.6268362755527743E+00    5.2319297151453270E+00
Ga    6.4312154235554724E+00    7.4711640827063954E+00    5.8990910970600590E+00
N    6.4311143154940984E+00    7.4733645521168013E+00    7.8470395313086225E+00
Ga    6.4311931075336872E+00    5.6029496927564990E+00    8.4526388038187061E+00
N    6.4305799185170578E+00    5.6040394205284914E+00    1.0424189641536074E+01
Ga    6.4306063974655281E+00    7.4756061567592571E+00    1.1037077151204882E+01
N    6.4305036509861084E+00    7.4776439635845033E+00    1.2987760493383965E+01
Ga    6.4306917634295440E+00    5.6093660319265961E+00    1.3634531545887947E+01
N    6.4305273210635638E+00    5.6430722936567870E+00    1.5580000732347976E+01
Ga    6.4307860751203876E+00    7.4796165841060054E+00    1.5865868237203021E+01
N    4.7132206943878208E+00    1.0192877530933563E+01    2.4911768395958851E+00
Ga    4.8302594716659195E+00    8.4001459283303195E+00    3.3014611385871628E+00
N    4.8335400712624947E+00    8.3932491742918103E+00    5.2348690351390736E+00
Ga    4.8538616369370677E+00    1.0275888382229697E+01    5.8093955390130798E+00
N    4.8318962766575941E+00    1.0263692281375477E+01    7.7857413490664396E+00
Ga    4.8110309243428100E+00    8.4086579918721220E+00    8.4535482913431519E+00
N    4.8097286936535424E+00    8.4109320509561485E+00    1.0424904495127304E+01
Ga    4.8390835695969328E+00    1.0270482371178147E+01    1.1089002253681297E+01
N    4.8562680079808160E+00    1.0282332152146770E+01    1.3063131774949547E+01
Ga    4.8123542559917922E+00    8.4120318861003032E+00    1.3634753973543457E+01
N    4.8401202139351271E+00    8.3976523497648206E+00    1.5580492663755590E+01
Ga    4.6467717052918731E+00    1.0163537321886521E+01    1.6506110756485473E+01
O   -1.7663247770711932E-01    3.7038423312330222E+00   -5.1303276763833017E-01
H   -3.5787515459942492E-03    7.4743930330532873E+00    1.6430003922733583E+00
C    6.1992941470178231E-01    2.7361091646271074E+00   -1.2125988661244502E+00
H    1.6965660073733666E+00    2.9672116016876631E+00   -1.1629021793561736E+00
H    4.6230978058848060E-01    1.7115118886230445E+00   -8.3611859521267451E-01
H    3.1554350568364775E-01    2.7638984812744276E+00   -2.2682862538812691E+00
O   -3.3033108862113476E+00    9.2713113780083507E+00   -5.1245216930864745E-01
C   -3.8417327454197960E+00    1.0432188830357834E+01   -1.1626387091229773E+00
H   -4.8232217764064229E+00    1.0725998457124598E+01   -7.5446343173557806E-01
H   -3.1627067457115214E+00    1.1298317099029457E+01   -1.0985950590054931E+00
H   -3.9743245585057587E+00    1.0180897564638208E+01   -2.2243095069455672E+00
O    3.3354020506504418E+00    9.3691578992946276E+00   -5.1078860558773920E-01
C    3.7318781749374206E+00    1.0630195764417111E+01   -1.0726272709888240E+00
H    2.9403756410677135E+00    1.1392706937673978E+01   -9.7928130804217317E-01
H    4.6543591955722361E+00    1.1027075109108392E+01   -6.1490185403241437E-01
H    3.9233158372491266E+00    1.0467608242323875E+01   -2.1425318537826263E+00
O    6.3314613314934718E+00    3.6130950796033718E+00   -5.1067377238288936E-01
C    7.1850745005855048E+00    2.6187478710607333E+00   -1.1020320743334990E+00
H    8.2458536570922529E+00    2.9149672073001014E+00   -1.0734650924275055E+00
H    7.0810432367963498E+00    1.6321746879833059E+00   -6.1856623152583190E-01
H    6.8879008817775924E+00    2.5151659494475558E+00   -2.1551708549152417E+00
H    6.4328984174547550E+00    7.4726633367508137E+00    1.6420197978832165E+00
H    9.6516034028589406E+00    1.9008235910039062E+00    1.6409657161813198E+00
H    3.2231996444813920E+00    1.9003304046742853E+00    1.6398627760110835E+00
     &END COORD
     &KIND C
       BASIS_SET DZVP-MOLOPT-SR-GTH-q4
       POTENTIAL GTH-PBE-q4
       &POTENTIAL
2 2
0.3384712400000000E+00 2 -0.8803673979999999E+01  0.1339210850000000E+01
2
0.3025757500000000E+00 1  0.9622486650000001E+01
0.2915069400000000E+00 0
       &END POTENTIAL
     &END KIND
     &KIND O
       BASIS_SET DZVP-MOLOPT-SR-GTH-q6
       POTENTIAL GTH-PBE-q6
       &POTENTIAL
2 4
0.2445543000000000E+00 2 -0.1666721480000000E+02  0.2487311320000000E+01
2
0.2209559200000000E+00 1  0.1833745811000000E+02
0.2113324700000000E+00 0
       &END POTENTIAL
     &END KIND
     &KIND H
       BASIS_SET DZVP-MOLOPT-SR-GTH-q1
       POTENTIAL GTH-PBE-q1
       &POTENTIAL
1
0.2000000000000000E+00 2 -0.4178900440000000E+01  0.7244633100000000E+00
0
       &END POTENTIAL
     &END KIND
     &KIND N
       BASIS_SET DZVP-MOLOPT-SR-GTH
       POTENTIAL GTH-PBE-q5
       &POTENTIAL
2 3
0.2837905100000000E+00 2 -0.1241522559000000E+02  0.1868095920000000E+01
2
0.2554050000000000E+00 1  0.1363026257000000E+02
0.2454945300000000E+00 0
       &END POTENTIAL
     &END KIND
     &KIND Ga
       BASIS_SET DZVP-MOLOPT-SR-GTH
       POTENTIAL GTH-PBE-q13
       &POTENTIAL
2 1 10
0.4900000000000000E+00 0
3
0.4167772300000000E+00 3  0.1047568975000000E+02 -0.4921768140000000E+01  0.8707055900000000E+00
0.7770178090000000E+01 -0.2248152160000000E+01
0.1784415450000000E+01
0.5696265200000000E+00 2  0.1777985340000000E+01  0.1958597600000000E+00
-0.2317443900000000E+00
0.2381265000000000E+00 1 -0.1624868022000000E+02
       &END POTENTIAL
     &END KIND
     &TOPOLOGY
       NUMBER_OF_ATOMS  224
       MULTIPLE_UNIT_CELL  1 1 1
     &END TOPOLOGY
     &COLVAR
       &DISTANCE
         ATOMS  127 211
       &END DISTANCE
       &PRINT
       &END PRINT
     &END COLVAR
   &END SUBSYS
 &END FORCE_EVAL
