 # Version information for this restart file 
 # current date 2019-07-19 07:39:46.382
 # current working dir /lustre04/scratch/rzk/rzk/GaN-carbene/443-adatoms-both-2x2/20-FullCoverage/01-4Molecules
 # Program compiled at                              Sun Apr  7 00:48:11 EDT 2019
 # Program compiled on                          beluga2.int.ets1.calculquebec.ca
 # Program compiled for                        Beluga-Linux-x86-64-intel-openmpi
 # Source code revision number                                         svn:18619
 &GLOBAL
   PRINT_LEVEL  MEDIUM
   PROJECT_NAME TEST
   RUN_TYPE  GEO_OPT
 &END GLOBAL
 &MOTION
   &GEO_OPT
     MAX_ITER  500
     STEP_START_VAL  180
   &END GEO_OPT
 &END MOTION
 &FORCE_EVAL
   METHOD  QS
   STRESS_TENSOR  ANALYTICAL
   &DFT
     BASIS_SET_FILE_NAME BASIS_MOLOPT
     POTENTIAL_FILE_NAME GTH_POTENTIALS
     UKS  T
     SURFACE_DIPOLE_CORRECTION  T
     SURF_DIP_DIR  Z
     &SCF
       MAX_SCF  80
       EPS_SCF     5.0000000000000004E-06
       &OT  T
         PRECONDITIONER  FULL_ALL
       &END OT
       &OUTER_SCF  T
         OPTIMIZER  NONE
         EPS_SCF     5.0000000000000004E-06
         MAX_SCF  4
       &END OUTER_SCF
       &PRINT
         &RESTART  OFF
           BACKUP_COPIES  1
           &EACH
             JUST_ENERGY  0
             QS_SCF  0
             MD  20
           &END EACH
         &END RESTART
       &END PRINT
     &END SCF
     &QS
       EPS_DEFAULT     1.0000000000000000E-14
       METHOD  GPW
     &END QS
     &MGRID
       NGRIDS  5
       CUTOFF     1.2000000000000000E+03
     &END MGRID
     &XC
       DENSITY_CUTOFF     1.0000000000000000E-10
       GRADIENT_CUTOFF     1.0000000000000000E-10
       TAU_CUTOFF     1.0000000000000000E-10
       &XC_FUNCTIONAL  NO_SHORTCUT
         &PBE  T
         &END PBE
       &END XC_FUNCTIONAL
       &VDW_POTENTIAL
         POTENTIAL_TYPE  PAIR_POTENTIAL
         &PAIR_POTENTIAL
           R_CUTOFF     1.0000000000000009E+01
           TYPE  DFTD3
           PARAMETER_FILE_NAME dftd3.dat
           REFERENCE_FUNCTIONAL PBE
           EPS_CN     9.9999999999999995E-07
           CALCULATE_C9_TERM  T
           REFERENCE_C9_TERM  T
           LONG_RANGE_CORRECTION  F
           VERBOSE_OUTPUT  F
         &END PAIR_POTENTIAL
       &END VDW_POTENTIAL
     &END XC
   &END DFT
   &SUBSYS
     &CELL
       A     1.2864472766435110E+01    0.0000000000000000E+00    0.0000000000000000E+00
       B    -6.4322363581020028E+00    1.1140960178524477E+01    0.0000000000000000E+00
       C     0.0000000000000000E+00    0.0000000000000000E+00    3.2000000000000000E+01
       MULTIPLE_UNIT_CELL  1 1 1
       &CELL_REF
         A     1.2982353780853531E+01    0.0000000000000000E+00    0.0000000000000000E+00
         B    -6.4911768904267628E+00    1.1243048175136114E+01    0.0000000000000000E+00
         C     0.0000000000000000E+00    0.0000000000000000E+00    3.2000000000000000E+01
         MULTIPLE_UNIT_CELL  1 1 1
       &END CELL_REF
     &END CELL
     &COORD
N   -2.0001103840133422E-03    2.0345330268095645E+00    2.4848693113317428E+00
Ga    8.3383636733063489E-05    4.8498079449284609E-02    2.8605198933896285E+00
N    1.0231244936054330E-03    4.9734589565367374E-02    5.0171564791490741E+00
Ga    1.8174036384918432E-03    1.8710141950418753E+00    5.8118579762165208E+00
N    1.1399073913880362E-03    1.8969868644383319E+00    7.7884258287514738E+00
Ga    9.7586030233983605E-04    4.9930752069731854E-02    8.4583856064077807E+00
N    9.3639875211968540E-04    4.9822885384779199E-02    1.0414901859807303E+01
Ga    9.5668752395451097E-04    1.8876361372581769E+00    1.1091791776976404E+01
N    1.3610875354105843E-03    1.8674313350284841E+00    1.3066187334697533E+01
Ga    1.4409681453377032E-03    4.9321523319493590E-02    1.3912185903956745E+01
N    1.9258519345756585E-03    4.9032594977722353E-02    1.6070545857922845E+01
Ga    1.3098437955915987E-03    2.1078731658021392E+00    1.6507180354286820E+01
Ga   -3.8713894797536078E-02    3.7740458460603548E+00    1.2972118707571691E+00
N   -1.4916748823398014E+00    4.6245361923156780E+00    2.4834398035750449E+00
Ga   -1.6117357720375745E+00    2.8260005123613543E+00    3.3060676240625568E+00
N   -1.6186102263529978E+00    2.8290370747364468E+00    5.2388408896059389E+00
Ga   -1.6394130343313660E+00    4.7105221638422003E+00    5.8101892092248999E+00
N   -1.6164864872134672E+00    4.6974711947660825E+00    7.7869025580024926E+00
Ga   -1.5956369922373168E+00    2.8420794440902051E+00    8.4561342240699098E+00
N   -1.5946217586863998E+00    2.8423701656722549E+00    1.0427878149172667E+01
Ga   -1.6234009167693368E+00    4.7013239186369802E+00    1.1091941817615597E+01
N   -1.6405942013716353E+00    4.7111571491817674E+00    1.3066428062294049E+01
Ga   -1.5965088608872551E+00    2.8406651666243592E+00    1.3637181757231790E+01
N   -1.6244443668211643E+00    2.8246172871117898E+00    1.5583257200693087E+01
Ga   -1.4322813184333485E+00    4.5905164590691028E+00    1.6507051877647189E+01
N    1.0073393345384984E-03    3.7626775638929195E+00    1.7655264529868830E+01
N   -3.2139586186620011E+00    7.6116780813443503E+00    2.4836512347271054E+00
Ga   -3.2196846683714546E+00    5.6184612281064803E+00    2.8411992141148135E+00
N   -3.2146272345415325E+00    5.6209171422045143E+00    5.0051330367475089E+00
Ga   -3.2153174352073712E+00    7.4396232151965256E+00    5.8115475713122740E+00
N   -3.2154025677951101E+00    7.4663161661886219E+00    7.7880742938187639E+00
Ga   -3.2153577531140831E+00    5.6202237610784609E+00    8.4582021355111596E+00
N   -3.2150955339329821E+00    5.6202108643478503E+00    1.0414539318783454E+01
Ga   -3.2151468371666385E+00    7.4580524989089350E+00    1.1091997991279657E+01
N   -3.2149091368214293E+00    7.4377568618865739E+00    1.3066401689455535E+01
Ga   -3.2150117053592404E+00    5.6201241350932296E+00    1.3912937605972942E+01
N   -3.2149326073048106E+00    5.6202242488419261E+00    1.6070655641717696E+01
Ga   -3.2147819857771673E+00    7.6805665237502110E+00    1.6507414198460001E+01
Ga   -3.2171102108522005E+00    9.2993057168412427E+00    1.2996778014595955E+00
N   -4.7125006132035372E+00    1.0196710169652334E+01    2.4854358497661000E+00
Ga   -4.8306931520986360E+00    8.4074903427699859E+00    3.3055863117981255E+00
N   -4.8337624066202487E+00    8.3989168288001110E+00    5.2390563569423891E+00
Ga   -4.8539203501784947E+00    1.0281123787592490E+01    5.8129277195095854E+00
N   -4.8318462231011390E+00    1.0267255344159905E+01    7.7894470977258434E+00
Ga   -4.8113376862313739E+00    8.4122208890373358E+00    8.4570765301423592E+00
N   -4.8106335408996834E+00    8.4126773186432029E+00    1.0428173504349139E+01
Ga   -4.8397489261204516E+00    1.0271877042574138E+01    1.1091913845810490E+01
N   -4.8567054945316546E+00    1.0281581644680621E+01    1.3066216648444714E+01
Ga   -4.8128904267415038E+00    8.4110329861451554E+00    1.3637525461160488E+01
N   -4.8411465264566926E+00    8.3942913236148264E+00    1.5582611310631874E+01
Ga   -4.6459972919928498E+00    1.0159991239075383E+01    1.6507518441437995E+01
N   -3.2144804322274547E+00    9.3336457633961150E+00    1.7654003577835464E+01
N    3.2150161508232058E+00    1.9054091945726563E+00    2.6699647280925256E+00
Ga    3.2148982503430332E+00    4.9583396110707799E-02    3.2983415665631810E+00
N    3.2167886588269208E+00    6.1865384104426477E-02    5.2356145843505590E+00
Ga    3.2150647594596005E+00    1.9061063747999025E+00    5.9000852947019746E+00
N    3.2165015061266042E+00    1.9065348444629322E+00    7.8492046495470547E+00
Ga    3.2169061845733697E+00    3.6472572307569763E-02    8.4574504386002349E+00
N    3.2171387700875265E+00    3.5453970495416876E-02    1.0428678470538310E+01
Ga    3.2171024700699973E+00    1.9068483760048824E+00    1.1040437815492732E+01
N    3.2172583172670235E+00    1.9065610630235466E+00    1.2990835800589918E+01
Ga    3.2172770234333408E+00    3.7908078964414782E-02    1.3637356507899941E+01
N    3.2176036293520638E+00    7.0718774153278013E-02    1.5582276039370312E+01
Ga    3.2181292257962100E+00    1.9063036552624393E+00    1.5868129749179300E+01
N    1.4904657096192049E+00    4.6250394696363131E+00    2.4757532645071847E+00
Ga    1.6075606889434173E+00    2.8324432743016463E+00    3.2947635163569271E+00
N    1.6190969111209073E+00    2.8294735431517295E+00    5.2322266940358864E+00
Ga    1.6420301602291150E+00    4.7093024031161121E+00    5.8075284041302755E+00
N    1.6187334945893801E+00    4.6971860797331813E+00    7.7851967763272896E+00
Ga    1.5974478359767847E+00    2.8422299525214756E+00    8.4564384107697066E+00
N    1.5964998397699270E+00    2.8426248227233821E+00    1.0427898945634320E+01
Ga    1.6255878390263276E+00    4.7014500113738293E+00    1.1092002950032022E+01
N    1.6430419792315711E+00    4.7109943466767872E+00    1.3066184647882762E+01
Ga    1.5994090571169659E+00    2.8404082539650242E+00    1.3637133866021614E+01
N    1.6267500304381739E+00    2.8248124374212784E+00    1.5583467983454286E+01
Ga    1.4342310534631741E+00    4.5901037444526853E+00    1.6507898995803000E+01
N    2.1497190065604410E-04    7.4770602734809515E+00    2.6748922280399285E+00
Ga    4.1366148679442410E-03    5.6257067207463329E+00    3.3039588564458082E+00
N    1.1051531426705271E-03    5.6322777766108674E+00    5.2371659339862067E+00
Ga    1.2738237450685220E-03    7.4768970774154155E+00    5.9031422194226959E+00
N    9.0968288490368655E-04    7.4770869840859993E+00    7.8509963807183203E+00
Ga    1.2178505530342611E-03    5.6062697986408701E+00    8.4557019508579003E+00
N    1.1758135133214747E-03    5.6055486669428420E+00    1.0427388716345167E+01
Ga    1.0841649891308114E-03    7.4769760957275322E+00    1.1040024742441352E+01
N    1.3548568234642816E-03    7.4765236613330801E+00    1.2990747594264420E+01
Ga    1.2371804441960392E-03    5.6083587716621546E+00    1.3637269458629973E+01
N    1.3372750570061370E-03    5.6398144934390633E+00    1.5583425446359858E+01
Ga    1.2923666249316035E-03    7.4769316281197415E+00    1.5868255403389545E+01
N   -1.7223934919727615E+00    1.0193794392384417E+01    2.4857229700664356E+00
Ga   -1.6008415998473342E+00    8.4063914208355275E+00    3.3081426969019252E+00
N   -1.5967786151424423E+00    8.3990690908760275E+00    5.2409438399053521E+00
Ga   -1.5765806806079774E+00    1.0281683316744864E+01    5.8126942711404785E+00
N   -1.5987827067314695E+00    1.0267587493281949E+01    7.7892202462647546E+00
Ga   -1.6192696069949812E+00    8.4123358061367401E+00    8.4567483566595332E+00
N   -1.6196844087841553E+00    8.4127664574717524E+00    1.0428144783033060E+01
Ga   -1.5904908680486693E+00    1.0271929042698194E+01    1.1092057343796714E+01
N   -1.5733569303437849E+00    1.0281442652604614E+01    1.3066115356955134E+01
Ga   -1.6168589043485040E+00    8.4109282374842724E+00    1.3637488263549841E+01
N   -1.5882517468523389E+00    8.3943587921417926E+00    1.5582277989271294E+01
Ga   -1.7831714285836584E+00    1.0160211278776668E+01    1.6507377998087858E+01
N    6.4308555061443728E+00    2.0337047367814316E+00    2.4882629282733264E+00
Ga    6.4319430196203875E+00    4.7516899281829020E-02    2.8530288150038694E+00
N    6.4327014913544627E+00    4.8466256331895836E-02    5.0147689525361709E+00
Ga    6.4335643177883526E+00    1.8700232841666802E+00    5.8106192850275891E+00
N    6.4330152417928117E+00    1.8966333872872505E+00    7.7875390128731876E+00
Ga    6.4328859953112811E+00    4.9982573429543556E-02    8.4581038546857759E+00
N    6.4332257873074257E+00    4.9801765542260484E-02    1.0414913501356288E+01
Ga    6.4331004628877961E+00    1.8876308080115360E+00    1.1091617533123010E+01
N    6.4333875901305078E+00    1.8677464864932831E+00    1.3065956719127323E+01
Ga    6.4333772923517083E+00    4.9573464608883386E-02    1.3911479729318168E+01
N    6.4331890806349312E+00    4.9406957101088847E-02    1.6070663277008862E+01
Ga    6.4337739659673474E+00    2.1075007969154580E+00    1.6507200737248542E+01
Ga    6.4011626609789891E+00    3.7723163896706655E+00    1.2975949589287363E+00
N    4.9416968945726580E+00    4.6229344531876650E+00    2.4770015154931353E+00
Ga    4.8206961799130630E+00    2.8253958252787257E+00    3.3050585566074364E+00
N    4.8134607354906063E+00    2.8294224953618898E+00    5.2379514258212643E+00
Ga    4.7925153296452585E+00    4.7106031158355304E+00    5.8091865353841854E+00
N    4.8156963336173124E+00    4.6974453684451429E+00    7.7860960059362654E+00
Ga    4.8364276635197889E+00    2.8417578115710960E+00    8.4553103811025423E+00
N    4.8376126018656391E+00    2.8422694507014694E+00    1.0427055686416629E+01
Ga    4.8088433582503747E+00    4.7011816923362097E+00    1.1091234124476804E+01
N    4.7918147848920274E+00    4.7109777112154516E+00    1.3065787314861449E+01
Ga    4.8354033553893156E+00    2.8405707169162127E+00    1.3637591331709622E+01
N    4.8083707460900209E+00    2.8247929372180605E+00    1.5583180493886404E+01
Ga    5.0007955520246083E+00    4.5902669339482332E+00    1.6507971124231972E+01
N    6.4341385059483125E+00    3.7625838145302208E+00    1.7656028740448370E+01
N    3.2157743686826015E+00    7.6146403860148633E+00    2.4753299527376282E+00
Ga    3.2120919588571337E+00    5.6186857122410538E+00    2.8354189520919242E+00
N    3.2177606000493064E+00    5.6212000759746941E+00    5.0013117401982994E+00
Ga    3.2168208096432869E+00    7.4395442866614028E+00    5.8102438431635841E+00
N    3.2169515033798666E+00    7.4661012136403775E+00    7.7869212551700953E+00
Ga    3.2170282651412898E+00    5.6201217636768233E+00    8.4580371081057919E+00
N    3.2170866097464952E+00    5.6202556787218683E+00    1.0414429701770432E+01
Ga    3.2171451125571089E+00    7.4580378180169751E+00    1.1092036530133820E+01
N    3.2174474903714776E+00    7.4378252222844488E+00    1.3065933639582509E+01
Ga    3.2177468745086126E+00    5.6199478841895800E+00    1.3911615867954531E+01
N    3.2179193761427105E+00    5.6196873578726176E+00    1.6070958579756969E+01
Ga    3.2176766178889200E+00    7.6793336253541442E+00    1.6507730048578594E+01
Ga    3.2247547526759006E+00    9.3094713718257083E+00    1.2985675601100388E+00
N    1.7227982527902890E+00    1.0195852188015660E+01    2.4833867667863569E+00
Ga    1.6021028793254788E+00    8.4082417494248798E+00    3.3036498857183050E+00
N    1.5987793870768519E+00    8.3989418490647214E+00    5.2376379405456914E+00
Ga    1.5774195753914786E+00    1.0280875939040497E+01    5.8123718040457142E+00
N    1.5999324292282961E+00    1.0267191378471477E+01    7.7888189969285611E+00
Ga    1.6208595149968603E+00    8.4121898906882695E+00    8.4568532756662300E+00
N    1.6217173376057583E+00    8.4127013053573254E+00    1.0428276045789973E+01
Ga    1.5924738899226198E+00    1.0271852533080423E+01    1.1092295920362783E+01
N    1.5756952727329658E+00    1.0281442155111032E+01    1.3066019242581330E+01
Ga    1.6194152501472920E+00    8.4109733965036995E+00    1.3637119384197877E+01
N    1.5923119803513857E+00    8.3951343934838167E+00    1.5583099064563847E+01
Ga    1.7842201746141155E+00    1.0161387902014365E+01    1.6507022995276532E+01
N    3.2175188696238273E+00    9.3341032018573369E+00    1.7655777814643365E+01
N    9.6474454338454940E+00    1.9060920732774123E+00    2.6707106048001212E+00
Ga    9.6480252141417555E+00    5.1241151227871935E-02    3.3004609634068216E+00
N    9.6481187042439718E+00    6.2166423064781665E-02    5.2371460977470692E+00
Ga    9.6472928792654944E+00    1.9061958495801521E+00    5.9017197276669169E+00
N    9.6488945571157689E+00    1.9067384156631639E+00    7.8503428809153037E+00
Ga    9.6491181701678261E+00    3.6261031769007739E-02    8.4572604898911212E+00
N    9.6492441772098232E+00    3.5351830763444288E-02    1.0428793519588384E+01
Ga    9.6492740033565649E+00    1.9066092252639795E+00    1.1040485156434263E+01
N    9.6497504130406000E+00    1.9063995697795184E+00    1.2991438559821230E+01
Ga    9.6497451713544358E+00    3.7489238870548940E-02    1.3636987845947061E+01
N    9.6496803106773932E+00    6.9692179932393322E-02    1.5582887333689426E+01
Ga    9.6490668505830257E+00    1.9063981239571215E+00    1.5867147258947597E+01
N    7.9242600973287143E+00    4.6250094029261009E+00    2.4805485255188877E+00
Ga    8.0403126211491678E+00    2.8319510931082212E+00    3.2975886003868542E+00
N    8.0513417630044071E+00    2.8290294319266756E+00    5.2347100625548428E+00
Ga    8.0735091947187403E+00    4.7091052372512392E+00    5.8086753898248125E+00
N    8.0506327381726930E+00    4.6973431753573225E+00    7.7860970100985787E+00
Ga    8.0292736070247432E+00    2.8422538942242905E+00    8.4560395324097577E+00
N    8.0286945598920010E+00    2.8423665600474810E+00    1.0427773384265075E+01
Ga    8.0576801564594209E+00    4.7013169028886317E+00    1.1091715069799882E+01
N    8.0753415841191458E+00    4.7111673654762791E+00    1.3066280594776837E+01
Ga    8.0313402375011549E+00    2.8407295409441500E+00    1.3637498380734872E+01
N    8.0592639640699488E+00    2.8245878517768399E+00    1.5582971354077026E+01
Ga    7.8674432313104843E+00    4.5906404893499122E+00    1.6507195313096695E+01
N    6.4324428795694191E+00    7.4767530056485798E+00    2.6737518693399229E+00
Ga    6.4364079263363481E+00    5.6252648514644275E+00    3.3029433492518416E+00
N    6.4326774125102828E+00    5.6321104643397453E+00    5.2364687128080893E+00
Ga    6.4327550873035610E+00    7.4766880373698203E+00    5.9026615294328240E+00
N    6.4332666497351081E+00    7.4771020629992737E+00    7.8507167554123383E+00
Ga    6.4334012150011617E+00    5.6064322131015265E+00    8.4555884313897796E+00
N    6.4332714248616325E+00    5.6056638678409341E+00    1.0427059627911522E+01
Ga    6.4330276041715289E+00    7.4769928038181934E+00    1.1040268849573550E+01
N    6.4333646968339728E+00    7.4766972077695195E+00    1.2990655856143663E+01
Ga    6.4335161416558027E+00    5.6083279635745837E+00    1.3637586392366245E+01
N    6.4336558471809058E+00    5.6396524026517891E+00    1.5583376455191916E+01
Ga    6.4336470829185766E+00    7.4761692377877162E+00    1.5867698886606412E+01
N    4.7138385722170124E+00    1.0198840769375060E+01    2.4927391025989492E+00
Ga    4.8316867956944103E+00    8.4074132046751675E+00    3.3050244511454445E+00
N    4.8348873648315855E+00    8.3988017207067696E+00    5.2384662142677412E+00
Ga    4.8551730470190257E+00    1.0281359870449791E+01    5.8121753802557290E+00
N    4.8337507166258016E+00    1.0267390333285507E+01    7.7888955055078126E+00
Ga    4.8132537110661913E+00    8.4121968431543923E+00    8.4567380891510364E+00
N    4.8124677728331324E+00    8.4126568230329006E+00    1.0427997941759907E+01
Ga    4.8416392176731033E+00    1.0271820669404201E+01    1.1091928630053504E+01
N    4.8593385817518326E+00    1.0281544634683671E+01    1.3065936202931640E+01
Ga    4.8154682736405938E+00    8.4110616032308272E+00    1.3637063318781168E+01
N    4.8426376848825141E+00    8.3951231800939912E+00    1.5583356423049239E+01
Ga    4.6506819288831940E+00    1.0161156430679361E+01    1.6507075385229733E+01
O   -1.2797912429551248E-01    3.7198478780642383E+00   -5.1083772568640728E-01
H   -1.8936788837524074E-03    7.4793813756489396E+00    1.6476727489719289E+00
C    8.0933526631071129E-01    2.8607112551172778E+00   -1.1792155209414650E+00
H    1.8515210760633554E+00    3.1996750132453924E+00   -1.0554292906272746E+00
H    7.3523564937999830E-01    1.8151691655542521E+00   -8.3438068039151159E-01
H    5.6931650521067645E-01    2.8844009874850798E+00   -2.2519765359853818E+00
O   -3.2562581154557928E+00    9.2862322485261579E+00   -5.1011473575986044E-01
C   -3.5661783069650452E+00    1.0530625191292128E+01   -1.1551511409295210E+00
H   -4.5395231543076902E+00    1.0937134911635059E+01   -8.3206511692584673E-01
H   -2.7914585638537170E+00    1.1296898415448073E+01   -9.8311374480619584E-01
H   -3.6186225613081611E+00    1.0336167870389305E+01   -2.2361281330506211E+00
O    3.3154674605651793E+00    9.3685717299483482E+00   -5.0948937215725265E-01
C    3.6026822545298631E+00    1.0655208140026465E+01   -1.0803434261765696E+00
H    2.7488830548721181E+00    1.1348046216915696E+01   -9.8934516407487549E-01
H    4.4899988912382609E+00    1.1132595739887813E+01   -6.2833560406214806E-01
H    3.8063695347491393E+00    1.0502587184832905E+01   -2.1500780681106639E+00
O    6.3790166951831502E+00    3.6826669609415266E+00   -5.1147550757516558E-01
C    7.4070444830570059E+00    2.8740570998849213E+00   -1.1083150441329805E+00
H    8.4141836964214001E+00    3.2945383619960937E+00   -9.4869216900224607E-01
H    7.3916894887026787E+00    1.8363767835045905E+00   -7.3234879018866483E-01
H    7.2171686662358265E+00    2.8469072177158377E+00   -2.1911151090120131E+00
H    6.4336885716003556E+00    7.4795361336093569E+00    1.6464175521209605E+00
H    9.6527113173348340E+00    1.9073858672964707E+00    1.6435459634340521E+00
H    3.2211379228714159E+00    1.9062270573943472E+00    1.6428591520591920E+00
     &END COORD
     &KIND C
       BASIS_SET DZVP-MOLOPT-SR-GTH-q4
       POTENTIAL GTH-PBE-q4
       &POTENTIAL
2 2
0.3384712400000000E+00 2 -0.8803673979999999E+01  0.1339210850000000E+01
2
0.3025757500000000E+00 1  0.9622486650000001E+01
0.2915069400000000E+00 0
       &END POTENTIAL
     &END KIND
     &KIND O
       BASIS_SET DZVP-MOLOPT-SR-GTH-q6
       POTENTIAL GTH-PBE-q6
       &POTENTIAL
2 4
0.2445543000000000E+00 2 -0.1666721480000000E+02  0.2487311320000000E+01
2
0.2209559200000000E+00 1  0.1833745811000000E+02
0.2113324700000000E+00 0
       &END POTENTIAL
     &END KIND
     &KIND H
       BASIS_SET DZVP-MOLOPT-SR-GTH-q1
       POTENTIAL GTH-PBE-q1
       &POTENTIAL
1
0.2000000000000000E+00 2 -0.4178900440000000E+01  0.7244633100000000E+00
0
       &END POTENTIAL
     &END KIND
     &KIND N
       BASIS_SET DZVP-MOLOPT-SR-GTH
       POTENTIAL GTH-PBE-q5
       &POTENTIAL
2 3
0.2837905100000000E+00 2 -0.1241522559000000E+02  0.1868095920000000E+01
2
0.2554050000000000E+00 1  0.1363026257000000E+02
0.2454945300000000E+00 0
       &END POTENTIAL
     &END KIND
     &KIND Ga
       BASIS_SET DZVP-MOLOPT-SR-GTH
       POTENTIAL GTH-PBE-q13
       &POTENTIAL
2 1 10
0.4900000000000000E+00 0
3
0.4167772300000000E+00 3  0.1047568975000000E+02 -0.4921768140000000E+01  0.8707055900000000E+00
0.7770178090000000E+01 -0.2248152160000000E+01
0.1784415450000000E+01
0.5696265200000000E+00 2  0.1777985340000000E+01  0.1958597600000000E+00
-0.2317443900000000E+00
0.2381265000000000E+00 1 -0.1624868022000000E+02
       &END POTENTIAL
     &END KIND
     &TOPOLOGY
       NUMBER_OF_ATOMS  224
       MULTIPLE_UNIT_CELL  1 1 1
     &END TOPOLOGY
     &COLVAR
       &DISTANCE
         ATOMS  127 211
       &END DISTANCE
       &PRINT
       &END PRINT
     &END COLVAR
   &END SUBSYS
 &END FORCE_EVAL
