 # Version information for this restart file 
 # current date 2019-07-19 07:37:26.566
 # current working dir /lustre04/scratch/rzk/rzk/GaN-carbene/443-adatoms-both-2x2/20-FullCoverage/01-4Molecules
 # Program compiled at                              Sun Apr  7 00:48:11 EDT 2019
 # Program compiled on                          beluga2.int.ets1.calculquebec.ca
 # Program compiled for                        Beluga-Linux-x86-64-intel-openmpi
 # Source code revision number                                         svn:18619
 &GLOBAL
   PRINT_LEVEL  MEDIUM
   PROJECT_NAME TEST
   RUN_TYPE  GEO_OPT
 &END GLOBAL
 &MOTION
   &GEO_OPT
     MAX_ITER  500
     STEP_START_VAL  179
   &END GEO_OPT
 &END MOTION
 &FORCE_EVAL
   METHOD  QS
   STRESS_TENSOR  ANALYTICAL
   &DFT
     BASIS_SET_FILE_NAME BASIS_MOLOPT
     POTENTIAL_FILE_NAME GTH_POTENTIALS
     UKS  T
     SURFACE_DIPOLE_CORRECTION  T
     SURF_DIP_DIR  Z
     &SCF
       MAX_SCF  80
       EPS_SCF     5.0000000000000004E-06
       &OT  T
         PRECONDITIONER  FULL_ALL
       &END OT
       &OUTER_SCF  T
         OPTIMIZER  NONE
         EPS_SCF     5.0000000000000004E-06
         MAX_SCF  4
       &END OUTER_SCF
       &PRINT
         &RESTART  OFF
           BACKUP_COPIES  1
           &EACH
             JUST_ENERGY  0
             QS_SCF  0
             MD  20
           &END EACH
         &END RESTART
       &END PRINT
     &END SCF
     &QS
       EPS_DEFAULT     1.0000000000000000E-14
       METHOD  GPW
     &END QS
     &MGRID
       NGRIDS  5
       CUTOFF     1.2000000000000000E+03
     &END MGRID
     &XC
       DENSITY_CUTOFF     1.0000000000000000E-10
       GRADIENT_CUTOFF     1.0000000000000000E-10
       TAU_CUTOFF     1.0000000000000000E-10
       &XC_FUNCTIONAL  NO_SHORTCUT
         &PBE  T
         &END PBE
       &END XC_FUNCTIONAL
       &VDW_POTENTIAL
         POTENTIAL_TYPE  PAIR_POTENTIAL
         &PAIR_POTENTIAL
           R_CUTOFF     1.0000000000000009E+01
           TYPE  DFTD3
           PARAMETER_FILE_NAME dftd3.dat
           REFERENCE_FUNCTIONAL PBE
           EPS_CN     9.9999999999999995E-07
           CALCULATE_C9_TERM  T
           REFERENCE_C9_TERM  T
           LONG_RANGE_CORRECTION  F
           VERBOSE_OUTPUT  F
         &END PAIR_POTENTIAL
       &END VDW_POTENTIAL
     &END XC
   &END DFT
   &SUBSYS
     &CELL
       A     1.2864472766435110E+01    0.0000000000000000E+00    0.0000000000000000E+00
       B    -6.4322363581020028E+00    1.1140960178524477E+01    0.0000000000000000E+00
       C     0.0000000000000000E+00    0.0000000000000000E+00    3.2000000000000000E+01
       MULTIPLE_UNIT_CELL  1 1 1
       &CELL_REF
         A     1.2982353780853531E+01    0.0000000000000000E+00    0.0000000000000000E+00
         B    -6.4911768904267628E+00    1.1243048175136114E+01    0.0000000000000000E+00
         C     0.0000000000000000E+00    0.0000000000000000E+00    3.2000000000000000E+01
         MULTIPLE_UNIT_CELL  1 1 1
       &END CELL_REF
     &END CELL
     &COORD
N   -2.1394170245257536E-03    2.0349018992780072E+00    2.4836298918813027E+00
Ga    2.7703888474418586E-04    4.8649517666652417E-02    2.8587029993977442E+00
N    6.4143498951143066E-04    4.9942743475769186E-02    5.0160537930480427E+00
Ga    1.3765626025705338E-03    1.8711047332191046E+00    5.8106372443572125E+00
N    6.2392130293748265E-04    1.8977943414070124E+00    7.7883173372151475E+00
Ga    8.8287966009741481E-04    5.0385274044448661E-02    8.4579274082212290E+00
N    6.4001112689446250E-04    4.9932137460583961E-02    1.0414854827572990E+01
Ga    8.0066986711544786E-04    1.8878981171795559E+00    1.1091592677685750E+01
N    1.8542253854469540E-03    1.8671539314751717E+00    1.3066783128108314E+01
Ga    1.8266500605526562E-03    4.8589883382625133E-02    1.3912783202588933E+01
N    3.4558849935593041E-03    4.7678546007409395E-02    1.6070785239253937E+01
Ga    1.4495309195851794E-03    2.1049344839818196E+00    1.6505704899131452E+01
Ga   -3.7928244380623692E-02    3.7747445799450183E+00    1.2963953341332484E+00
N   -1.4916172727442552E+00    4.6248361052617843E+00    2.4825298956963886E+00
Ga   -1.6116209395967647E+00    2.8265040664933458E+00    3.3045145630501995E+00
N   -1.6189541140649686E+00    2.8295189119991844E+00    5.2378758582439495E+00
Ga   -1.6401909819459610E+00    4.7110253217964759E+00    5.8091254924572349E+00
N   -1.6169311148101251E+00    4.6979919699986254E+00    7.7866417583153948E+00
Ga   -1.5961055590198279E+00    2.8427912041918151E+00    8.4554041049960471E+00
N   -1.5948422606785897E+00    2.8425930503180390E+00    1.0427879950303156E+01
Ga   -1.6232678023158285E+00    4.7016207092723574E+00    1.1091980585842911E+01
N   -1.6403248614749149E+00    4.7109526621103752E+00    1.3067750215111923E+01
Ga   -1.5960592648411651E+00    2.8402214399058159E+00    1.3637203567188045E+01
N   -1.6243893614952205E+00    2.8242323935553144E+00    1.5584402173511219E+01
Ga   -1.4345952091850935E+00    4.5911293293978135E+00    1.6505144118141384E+01
N    7.8699802760567156E-04    3.7614317102783938E+00    1.7654011292338360E+01
N   -3.2143723563268281E+00    7.6117810175130911E+00    2.4837437139203491E+00
Ga   -3.2196504025250179E+00    5.6189444630715304E+00    2.8400426783691697E+00
N   -3.2150918062831884E+00    5.6215494325031399E+00    5.0047338947578419E+00
Ga   -3.2154393348538490E+00    7.4400523103295928E+00    5.8108872099715319E+00
N   -3.2157028390610396E+00    7.4668588559649622E+00    7.7881503619311756E+00
Ga   -3.2156060783495413E+00    5.6208432816393747E+00    8.4572487863747927E+00
N   -3.2149637044192767E+00    5.6207050247352388E+00    1.0413840777064957E+01
Ga   -3.2151360138848228E+00    7.4584382129173017E+00    1.1091788028700094E+01
N   -3.2149141789577818E+00    7.4376135833392398E+00    1.3067377644705719E+01
Ga   -3.2152122469658218E+00    5.6202512365568449E+00    1.3916324757699194E+01
N   -3.2149399097082969E+00    5.6204523774823940E+00    1.6071453225708744E+01
Ga   -3.2147034278315525E+00    7.6833663959415892E+00    1.6508062700894566E+01
Ga   -3.2169470828152953E+00    9.2977738420071283E+00    1.2993373471740046E+00
N   -4.7128195220325857E+00    1.0196396343046468E+01    2.4846159414692019E+00
Ga   -4.8313477190239658E+00    8.4076218674537575E+00    3.3048679171264670E+00
N   -4.8335472866614788E+00    8.3994537222128614E+00    5.2384629307302237E+00
Ga   -4.8542073134800541E+00    1.0281643721977966E+01    5.8118281196225681E+00
N   -4.8319239291846108E+00    1.0267388948866682E+01    7.7896311062418047E+00
Ga   -4.8112785336616088E+00    8.4125982754825834E+00    8.4563712794540677E+00
N   -4.8108743975386856E+00    8.4129190689400506E+00    1.0427499472366582E+01
Ga   -4.8399719167450037E+00    1.0272007446548043E+01    1.1091604038051083E+01
N   -4.8566556691911629E+00    1.0281647598619038E+01    1.3066641538618809E+01
Ga   -4.8131618087021941E+00    8.4109085699133210E+00    1.3638709591660536E+01
N   -4.8427072984769994E+00    8.3923034416927837E+00    1.5582573868420384E+01
Ga   -4.6420433702867898E+00    1.0157336351832273E+01    1.6508504389311561E+01
N   -3.2143114371976869E+00    9.3332342963544672E+00    1.7651696370756994E+01
N    3.2145945655799535E+00    1.9056986320623306E+00    2.6704053536183965E+00
Ga    3.2140834308945316E+00    4.9666956718646640E-02    3.2971165284872455E+00
N    3.2167697676288500E+00    6.1848799690652614E-02    5.2346930588550276E+00
Ga    3.2149137546136366E+00    1.9061037748290619E+00    5.8992856975631760E+00
N    3.2163055089732908E+00    1.9069071903470411E+00    7.8492951143385472E+00
Ga    3.2167134316556139E+00    3.6611002452547531E-02    8.4567353232123743E+00
N    3.2172476490580153E+00    3.5652497853098278E-02    1.0428509694076240E+01
Ga    3.2169018637116342E+00    1.9071562922209981E+00    1.1040794793818428E+01
N    3.2170315627556563E+00    1.9066068593790271E+00    1.2990740726279300E+01
Ga    3.2169258780531882E+00    3.8250537097510168E-02    1.3638677560675806E+01
N    3.2179603262906844E+00    7.2166213236741966E-02    1.5582041323488422E+01
Ga    3.2193898041834892E+00    1.9057057191799742E+00    1.5868670041125782E+01
N    1.4905523556114042E+00    4.6253115746796389E+00    2.4759650958856616E+00
Ga    1.6070930629251319E+00    2.8325791311637638E+00    3.2936609769863598E+00
N    1.6187485279009992E+00    2.8299551839781070E+00    5.2314384467280242E+00
Ga    1.6419632104418203E+00    4.7099371176091331E+00    5.8062962572337398E+00
N    1.6181868666314418E+00    4.6976973430558235E+00    7.7850460125056786E+00
Ga    1.5970011640820154E+00    2.8425766891211075E+00    8.4560112615480012E+00
N    1.5963993252914224E+00    2.8431233903146769E+00    1.0427852237145643E+01
Ga    1.6255652531503442E+00    4.7019968507990493E+00    1.1091851869979644E+01
N    1.6432052615319372E+00    4.7104762416325956E+00    1.3066494530661533E+01
Ga    1.6002884324047653E+00    2.8397290860639353E+00    1.3637084329433806E+01
N    1.6260717836826180E+00    2.8250381282511463E+00    1.5584940799340712E+01
Ga    1.4352075784668474E+00    4.5897278295147830E+00    1.6507405438282589E+01
N   -4.3059698855414788E-04    7.4772612025750878E+00    2.6751176014054736E+00
Ga    3.8028089701215260E-03    5.6258147148925710E+00    3.3030912408387190E+00
N    6.1909052320228411E-04    5.6325443524814940E+00    5.2366253138057504E+00
Ga    5.8510474911585163E-04    7.4775455866136813E+00    5.9021838559444806E+00
N    2.5268046157520701E-04    7.4777426978322303E+00    7.8505867372870508E+00
Ga    4.3412881125650668E-04    5.6068012277310064E+00    8.4551716823749778E+00
N    1.2001667571494329E-03    5.6061005677804099E+00    1.0427342575081424E+01
Ga    1.4372575830755860E-03    7.4773787980251862E+00    1.1039753512823557E+01
N    2.0523794072966868E-03    7.4761478171093527E+00    1.2990897602634265E+01
Ga    1.7074526239384093E-03    5.6086216170134824E+00    1.3637075490760067E+01
N    1.6011284410051843E-03    5.6384407932113039E+00    1.5584366950586009E+01
Ga    1.7042198826270377E-03    7.4768245091686598E+00    1.5868181943983908E+01
N   -1.7228087746368557E+00    1.0193534221443702E+01    2.4858309082503749E+00
Ga   -1.6015325366450808E+00    8.4063042698482136E+00    3.3079742759177444E+00
N   -1.5974587782915413E+00    8.3999444094090716E+00    5.2408422107888706E+00
Ga   -1.5766545295337513E+00    1.0282406356351396E+01    5.8122693080067886E+00
N   -1.5991662714031960E+00    1.0267892154770667E+01    7.7892336940294582E+00
Ga   -1.6199995179447140E+00    8.4128410411217018E+00    8.4557988660796308E+00
N   -1.6195281493756082E+00    8.4131194880340576E+00    1.0427682528796259E+01
Ga   -1.5901739815954565E+00    1.0272064681438723E+01    1.1092389803672802E+01
N   -1.5741407478191447E+00    1.0281053063562858E+01    1.3066823600100847E+01
Ga   -1.6165033322770963E+00    8.4102997293407871E+00    1.3638803548562262E+01
N   -1.5859178330614170E+00    8.3923410161086096E+00    1.5581810285417005E+01
Ga   -1.7863628071866964E+00    1.0157913565473249E+01    1.6508549234728150E+01
N    6.4304976719246794E+00    2.0344470007214319E+00    2.4879775535439630E+00
Ga    6.4316372155578927E+00    4.7500142229985609E-02    2.8524267454753902E+00
N    6.4323932328101803E+00    4.8834545295080231E-02    5.0147241757224990E+00
Ga    6.4333033671088433E+00    1.8702326467839503E+00    5.8101120922761442E+00
N    6.4328488722117818E+00    1.8971221560273346E+00    7.7873442499242831E+00
Ga    6.4324389829318216E+00    5.0460110310283107E-02    8.4567374937499622E+00
N    6.4332862364020098E+00    4.9763176719646411E-02    1.0414564502465483E+01
Ga    6.4332209382655776E+00    1.8874558752593569E+00    1.1091877185869601E+01
N    6.4331849240995913E+00    1.8682484581386596E+00    1.3066962845343994E+01
Ga    6.4333883632326723E+00    4.9356381320775973E-02    1.3911714151302457E+01
N    6.4322856144822476E+00    4.8579248335915821E-02    1.6072171638219334E+01
Ga    6.4340089291989333E+00    2.1044839673835400E+00    1.6506682741197050E+01
Ga    6.4010676050021509E+00    3.7733547320197180E+00    1.2967641264460628E+00
N    4.9413806431863261E+00    4.6228950653398480E+00    2.4768507821784849E+00
Ga    4.8203596092294303E+00    2.8258787808651942E+00    3.3048076200784218E+00
N    4.8133264758484806E+00    2.8297730184346355E+00    5.2381221357080996E+00
Ga    4.7921465508144836E+00    4.7110164178154896E+00    5.8083343433792605E+00
N    4.8155500273097047E+00    4.6979449953550247E+00    7.7861681578612831E+00
Ga    4.8365143457488387E+00    2.8419664927971859E+00    8.4540937618981733E+00
N    4.8376181987979212E+00    2.8423075944561322E+00    1.0426498628424886E+01
Ga    4.8086841694378206E+00    4.7015173198888496E+00    1.1090667799779718E+01
N    4.7919012867234967E+00    4.7105803311824026E+00    1.3066129110955448E+01
Ga    4.8346646680848444E+00    2.8403093089789695E+00    1.3639099604995717E+01
N    4.8089766236196967E+00    2.8245429155890300E+00    1.5584420664183160E+01
Ga    5.0006506778131419E+00    4.5898100110253921E+00    1.6507974965198688E+01
N    6.4348251550900937E+00    3.7615594316650758E+00    1.7655162235137411E+01
N    3.2152137314285842E+00    7.6152394030244093E+00    2.4751185743222597E+00
Ga    3.2116895252920798E+00    5.6190568194255093E+00    2.8345672108095159E+00
N    3.2175072843634056E+00    5.6216390334669830E+00    5.0009162609219615E+00
Ga    3.2163994953240627E+00    7.4399025529312786E+00    5.8090472332311327E+00
N    3.2165977578294189E+00    7.4667257257440953E+00    7.7865846184320384E+00
Ga    3.2168115129545716E+00    5.6205426888095760E+00    8.4575333002270359E+00
N    3.2169157062970788E+00    5.6209051935380119E+00    1.0414235927539927E+01
Ga    3.2169798724961680E+00    7.4586422174270952E+00    1.1091785752871489E+01
N    3.2177225059348666E+00    7.4376072084149989E+00    1.3065353314371832E+01
Ga    3.2185463328605435E+00    5.6198690491022161E+00    1.3910578606884975E+01
N    3.2187802209970395E+00    5.6186009196745692E+00    1.6071762783942859E+01
Ga    3.2181678467761583E+00    7.6767778980699592E+00    1.6506397818117826E+01
Ga    3.2237594193493089E+00    9.3097802634126641E+00    1.2987944009238739E+00
N    1.7225126873168306E+00    1.0196291655290846E+01    2.4834108712817167E+00
Ga    1.6015501694293479E+00    8.4087570843617740E+00    3.3030542220840928E+00
N    1.5984586827249869E+00    8.3999812955683950E+00    5.2376141143669486E+00
Ga    1.5767421458152804E+00    1.0281650566088167E+01    5.8117511469441974E+00
N    1.5995344799664346E+00    1.0267516741223909E+01    7.7883676104800053E+00
Ga    1.6202023333450184E+00    8.4128002800104387E+00    8.4560035925499690E+00
N    1.6215518729941891E+00    8.4130492017212326E+00    1.0427979036915627E+01
Ga    1.5924904727534090E+00    1.0271828905022355E+01    1.1092674685464242E+01
N    1.5764123603187261E+00    1.0280837215626120E+01    1.3066064489575886E+01
Ga    1.6200710550373838E+00    8.4104024929886219E+00    1.3636816091798082E+01
N    1.5945949997005056E+00    8.3954845625280505E+00    1.5584031435734463E+01
Ga    1.7815250777873024E+00    1.0162873527474975E+01    1.6505234493847819E+01
N    3.2180414317234525E+00    9.3340962976739039E+00    1.7658279079412104E+01
N    9.6470733349669473E+00    1.9064947841691233E+00    2.6706618752401767E+00
Ga    9.6477819465944581E+00    5.1519005309679761E-02    3.2996334362754514E+00
N    9.6473632335193642E+00    6.2419953446236826E-02    5.2365863328824709E+00
Ga    9.6466622604466945E+00    1.9067884717210051E+00    5.9009884398347516E+00
N    9.6486672702900105E+00    1.9074329363842504E+00    7.8498328024815969E+00
Ga    9.6487574053866556E+00    3.6906262050392658E-02    8.4566238504395539E+00
N    9.6490026860308120E+00    3.5529655942924329E-02    1.0428972092820455E+01
Ga    9.6494475266451492E+00    1.9063156820887452E+00    1.1040540550287140E+01
N    9.6503197885415712E+00    1.9057409994984078E+00    1.2992686881240557E+01
Ga    9.6503147313047126E+00    3.6271680766627137E-02    1.3636689695063970E+01
N    9.6498073333596786E+00    6.7681645161813755E-02    1.5583877007107720E+01
Ga    9.6483443505825583E+00    1.9056661498494503E+00    1.5865682729999314E+01
N    7.9241169374812443E+00    4.6256449453461466E+00    2.4807192661844217E+00
Ga    8.0398505874669226E+00    2.8325694527359917E+00    3.2970442880622999E+00
N    8.0505917145520751E+00    2.8292820224961206E+00    5.2345055610683637E+00
Ga    8.0732026730724318E+00    4.7090904017600863E+00    5.8080571758534756E+00
N    8.0507911228698568E+00    4.6978272344432153E+00    7.7861555151471817E+00
Ga    8.0291470251347494E+00    2.8428937681549669E+00    8.4546791833988699E+00
N    8.0288599495411432E+00    2.8422568267195456E+00    1.0427485459092857E+01
Ga    8.0577417330665018E+00    4.7015247438464707E+00    1.1091222819339047E+01
N    8.0754341103593568E+00    4.7111146453743542E+00    1.3067494341441341E+01
Ga    8.0314962205405980E+00    2.8405386613498336E+00    1.3638763783055849E+01
N    8.0601022580748616E+00    2.8237744509518650E+00    1.5584083335350410E+01
Ga    7.8700195682924257E+00    4.5912887561431877E+00    1.6506256912398705E+01
N    6.4316349490308298E+00    7.4764257950736299E+00    2.6743942338595206E+00
Ga    6.4358264105831928E+00    5.6249544493989578E+00    3.3026638999464892E+00
N    6.4323633779878637E+00    5.6322093119196763E+00    5.2363333461725601E+00
Ga    6.4325668427637694E+00    7.4772043591992956E+00    5.9013843567000448E+00
N    6.4334236826414708E+00    7.4777881516871716E+00    7.8504315201346246E+00
Ga    6.4337466771956686E+00    5.6069677788847958E+00    8.4544129447636145E+00
N    6.4331334454971776E+00    5.6063059849258225E+00    1.0426335784246419E+01
Ga    6.4325800921596787E+00    7.4775818818320028E+00    1.1040639046056372E+01
N    6.4328663837296798E+00    7.4767374566573430E+00    1.2990860313349160E+01
Ga    6.4332354505345606E+00    5.6085482768226393E+00    1.3638699638235675E+01
N    6.4338915561395718E+00    5.6386850522190732E+00    1.5584714016372667E+01
Ga    6.4337168731521910E+00    7.4749326748447755E+00    1.5866857771083573E+01
N    4.7136635029621834E+00    1.0199328796116722E+01    2.4920132153032992E+00
Ga    4.8311204960439325E+00    8.4080031217464022E+00    3.3035625081966762E+00
N    4.8342457910080858E+00    8.3995211915356549E+00    5.2375193603540193E+00
Ga    4.8547055972724378E+00    1.0281938062345919E+01    5.8110814140759359E+00
N    4.8333917091026786E+00    1.0267862935284469E+01    7.7888348514319743E+00
Ga    4.8134345015654914E+00    8.4126810568966768E+00    8.4561976213537342E+00
N    4.8123324987369971E+00    8.4128117651127798E+00    1.0427538888447341E+01
Ga    4.8412489513800754E+00    1.0271751315999285E+01    1.1091492528882823E+01
N    4.8598035079732114E+00    1.0281338353096521E+01    1.3065577370738533E+01
Ga    4.8153225253151914E+00    8.4108679926202843E+00    1.3636646722250854E+01
N    4.8406307759294895E+00    8.3955222833956924E+00    1.5584855684196643E+01
Ga    4.6536201430861341E+00    1.0162299198409697E+01    1.6504932625523793E+01
O   -1.2713840728536041E-01    3.7237635559397191E+00   -5.1191249406047457E-01
H   -3.1356478714548910E-03    7.4806497051779255E+00    1.6483847586596558E+00
C    8.1396947702431321E-01    2.8690074366903557E+00   -1.1817741974644298E+00
H    1.8555246805215697E+00    3.2095214515326953E+00   -1.0573876171711292E+00
H    7.4151737291213671E-01    1.8220138210570258E+00   -8.4034332316936999E-01
H    5.7522080546124910E-01    2.8945191761008258E+00   -2.2542728253675959E+00
O   -3.2530238861753027E+00    9.2854672397118279E+00   -5.1030942214391994E-01
C   -3.5538220181401030E+00    1.0531526956004726E+01   -1.1562480920968683E+00
H   -4.5259733741909409E+00    1.0942426188522079E+01   -8.3643171575681186E-01
H   -2.7770855104720233E+00    1.1293274816802253E+01   -9.7830406641201628E-01
H   -3.6012017981151048E+00    1.0338288808331464E+01   -2.2372615128363771E+00
O    3.3138731053509023E+00    9.3674730882617734E+00   -5.0940287004438600E-01
C    3.6006087428231961E+00    1.0652910359650319E+01   -1.0829254646309932E+00
H    2.7485169746545228E+00    1.1347266118847799E+01   -9.9224283523846912E-01
H    4.4885622317289986E+00    1.1132072725018501E+01   -6.3164014656485368E-01
H    3.8050783823219794E+00    1.0499181538366525E+01   -2.1520898565357944E+00
O    6.3793612098405399E+00    3.6829297477427660E+00   -5.1257522736595340E-01
C    7.4105803464944406E+00    2.8796042246080229E+00   -1.1128724169647750E+00
H    8.4165777654192819E+00    3.3007899117867270E+00   -9.4776653850834369E-01
H    7.3943762063644893E+00    1.8401846673785467E+00   -7.4276104865692405E-01
H    7.2231855687221707E+00    2.8600084675658399E+00   -2.1964228241110959E+00
H    6.4346107494225713E+00    7.4797068968754523E+00    1.6472784295353040E+00
H    9.6512719222648240E+00    1.9082902354470062E+00    1.6437682734306081E+00
H    3.2218502963038960E+00    1.9064879810707294E+00    1.6435481767056261E+00
     &END COORD
     &KIND C
       BASIS_SET DZVP-MOLOPT-SR-GTH-q4
       POTENTIAL GTH-PBE-q4
       &POTENTIAL
2 2
0.3384712400000000E+00 2 -0.8803673979999999E+01  0.1339210850000000E+01
2
0.3025757500000000E+00 1  0.9622486650000001E+01
0.2915069400000000E+00 0
       &END POTENTIAL
     &END KIND
     &KIND O
       BASIS_SET DZVP-MOLOPT-SR-GTH-q6
       POTENTIAL GTH-PBE-q6
       &POTENTIAL
2 4
0.2445543000000000E+00 2 -0.1666721480000000E+02  0.2487311320000000E+01
2
0.2209559200000000E+00 1  0.1833745811000000E+02
0.2113324700000000E+00 0
       &END POTENTIAL
     &END KIND
     &KIND H
       BASIS_SET DZVP-MOLOPT-SR-GTH-q1
       POTENTIAL GTH-PBE-q1
       &POTENTIAL
1
0.2000000000000000E+00 2 -0.4178900440000000E+01  0.7244633100000000E+00
0
       &END POTENTIAL
     &END KIND
     &KIND N
       BASIS_SET DZVP-MOLOPT-SR-GTH
       POTENTIAL GTH-PBE-q5
       &POTENTIAL
2 3
0.2837905100000000E+00 2 -0.1241522559000000E+02  0.1868095920000000E+01
2
0.2554050000000000E+00 1  0.1363026257000000E+02
0.2454945300000000E+00 0
       &END POTENTIAL
     &END KIND
     &KIND Ga
       BASIS_SET DZVP-MOLOPT-SR-GTH
       POTENTIAL GTH-PBE-q13
       &POTENTIAL
2 1 10
0.4900000000000000E+00 0
3
0.4167772300000000E+00 3  0.1047568975000000E+02 -0.4921768140000000E+01  0.8707055900000000E+00
0.7770178090000000E+01 -0.2248152160000000E+01
0.1784415450000000E+01
0.5696265200000000E+00 2  0.1777985340000000E+01  0.1958597600000000E+00
-0.2317443900000000E+00
0.2381265000000000E+00 1 -0.1624868022000000E+02
       &END POTENTIAL
     &END KIND
     &TOPOLOGY
       NUMBER_OF_ATOMS  224
       MULTIPLE_UNIT_CELL  1 1 1
     &END TOPOLOGY
     &COLVAR
       &DISTANCE
         ATOMS  127 211
       &END DISTANCE
       &PRINT
       &END PRINT
     &END COLVAR
   &END SUBSYS
 &END FORCE_EVAL
