 # Version information for this restart file 
 # current date 2019-07-19 07:42:37.198
 # current working dir /lustre04/scratch/rzk/rzk/GaN-carbene/443-adatoms-both-2x2/20-FullCoverage/01-4Molecules
 # Program compiled at                              Sun Apr  7 00:48:11 EDT 2019
 # Program compiled on                          beluga2.int.ets1.calculquebec.ca
 # Program compiled for                        Beluga-Linux-x86-64-intel-openmpi
 # Source code revision number                                         svn:18619
 &GLOBAL
   PRINT_LEVEL  MEDIUM
   PROJECT_NAME TEST
   RUN_TYPE  GEO_OPT
 &END GLOBAL
 &MOTION
   &GEO_OPT
     MAX_ITER  500
     STEP_START_VAL  181
   &END GEO_OPT
 &END MOTION
 &FORCE_EVAL
   METHOD  QS
   STRESS_TENSOR  ANALYTICAL
   &DFT
     BASIS_SET_FILE_NAME BASIS_MOLOPT
     POTENTIAL_FILE_NAME GTH_POTENTIALS
     UKS  T
     SURFACE_DIPOLE_CORRECTION  T
     SURF_DIP_DIR  Z
     &SCF
       MAX_SCF  80
       EPS_SCF     5.0000000000000004E-06
       &OT  T
         PRECONDITIONER  FULL_ALL
       &END OT
       &OUTER_SCF  T
         OPTIMIZER  NONE
         EPS_SCF     5.0000000000000004E-06
         MAX_SCF  4
       &END OUTER_SCF
       &PRINT
         &RESTART  OFF
           BACKUP_COPIES  1
           &EACH
             JUST_ENERGY  0
             QS_SCF  0
             MD  20
           &END EACH
         &END RESTART
       &END PRINT
     &END SCF
     &QS
       EPS_DEFAULT     1.0000000000000000E-14
       METHOD  GPW
     &END QS
     &MGRID
       NGRIDS  5
       CUTOFF     1.2000000000000000E+03
     &END MGRID
     &XC
       DENSITY_CUTOFF     1.0000000000000000E-10
       GRADIENT_CUTOFF     1.0000000000000000E-10
       TAU_CUTOFF     1.0000000000000000E-10
       &XC_FUNCTIONAL  NO_SHORTCUT
         &PBE  T
         &END PBE
       &END XC_FUNCTIONAL
       &VDW_POTENTIAL
         POTENTIAL_TYPE  PAIR_POTENTIAL
         &PAIR_POTENTIAL
           R_CUTOFF     1.0000000000000009E+01
           TYPE  DFTD3
           PARAMETER_FILE_NAME dftd3.dat
           REFERENCE_FUNCTIONAL PBE
           EPS_CN     9.9999999999999995E-07
           CALCULATE_C9_TERM  T
           REFERENCE_C9_TERM  T
           LONG_RANGE_CORRECTION  F
           VERBOSE_OUTPUT  F
         &END PAIR_POTENTIAL
       &END VDW_POTENTIAL
     &END XC
   &END DFT
   &SUBSYS
     &CELL
       A     1.2864472766435110E+01    0.0000000000000000E+00    0.0000000000000000E+00
       B    -6.4322363581020028E+00    1.1140960178524477E+01    0.0000000000000000E+00
       C     0.0000000000000000E+00    0.0000000000000000E+00    3.2000000000000000E+01
       MULTIPLE_UNIT_CELL  1 1 1
       &CELL_REF
         A     1.2982353780853531E+01    0.0000000000000000E+00    0.0000000000000000E+00
         B    -6.4911768904267628E+00    1.1243048175136114E+01    0.0000000000000000E+00
         C     0.0000000000000000E+00    0.0000000000000000E+00    3.2000000000000000E+01
         MULTIPLE_UNIT_CELL  1 1 1
       &END CELL_REF
     &END CELL
     &COORD
N   -2.0336937409793691E-03    2.0344797742173242E+00    2.4848834779823110E+00
Ga   -9.2403990910521263E-06    4.8508438808147807E-02    2.8606565292828137E+00
N    1.0017512327610046E-03    4.9745934247655020E-02    5.0172284803828493E+00
Ga    1.7727530989512994E-03    1.8710235105300133E+00    5.8119611484919806E+00
N    1.1084655226614795E-03    1.8969859301739638E+00    7.7884122705539864E+00
Ga    8.6377620404847670E-04    4.9935721967458137E-02    8.4583266343339076E+00
N    9.3295129588120160E-04    4.9836758469837435E-02    1.0414886287597694E+01
Ga    9.8023318949405918E-04    1.8876611629816091E+00    1.1091794126294307E+01
N    1.3594305259097916E-03    1.8673564551701820E+00    1.3066056950906395E+01
Ga    1.4841958474315535E-03    4.9370499261362062E-02    1.3912017565333182E+01
N    1.8497734594684707E-03    4.9270674431414876E-02    1.6070582304784939E+01
Ga    1.3679454446394344E-03    2.1083513783652190E+00    1.6507450831058645E+01
Ga   -3.8687978907268258E-02    3.7738758744459533E+00    1.2971231561427978E+00
N   -1.4917191801632386E+00    4.6244708611067873E+00    2.4833765970221191E+00
Ga   -1.6117922056721485E+00    2.8259533616802988E+00    3.3061478998913509E+00
N   -1.6186368894627707E+00    2.8290105032475852E+00    5.2388594882215154E+00
Ga   -1.6393652241006067E+00    4.7104702750154388E+00    5.8102442653453661E+00
N   -1.6164548931005607E+00    4.6974533534619161E+00    7.7868478019806719E+00
Ga   -1.5956717814845909E+00    2.8420687035877110E+00    8.4561219558570748E+00
N   -1.5945885749060267E+00    2.8423871965700238E+00    1.0427801299222523E+01
Ga   -1.6234285112047950E+00    4.7013673847614355E+00    1.1091920759684593E+01
N   -1.6406327947506631E+00    4.7112353039872863E+00    1.3066265827190684E+01
Ga   -1.5965114973363292E+00    2.8406735597247299E+00    1.3637164907188859E+01
N   -1.6245231243074509E+00    2.8245200192412327E+00    1.5583221039721845E+01
Ga   -1.4318428634215219E+00    4.5903903898258669E+00    1.6507326758086382E+01
N    9.3627129275630414E-04    3.7627200832243166E+00    1.7655225280281808E+01
N   -3.2140190422897703E+00    7.6116132708485589E+00    2.4836242873297554E+00
Ga   -3.2197395672356479E+00    5.6183613849751799E+00    2.8412415064543373E+00
N   -3.2146127223434604E+00    5.6208387494915595E+00    5.0051047317679487E+00
Ga   -3.2153546886429258E+00    7.4395493178900685E+00    5.8115331507821155E+00
N   -3.2153705798103456E+00    7.4662568243306939E+00    7.7879587392286966E+00
Ga   -3.2153794424416575E+00    5.6201416327613147E+00    8.4581236340494304E+00
N   -3.2151537408852606E+00    5.6201932625380060E+00    1.0414495450239432E+01
Ga   -3.2151691334988537E+00    7.4580386701198877E+00    1.1092063368110933E+01
N   -3.2149228570365178E+00    7.4378502659412389E+00    1.3066276610180385E+01
Ga   -3.2149989750177350E+00    5.6202086121717478E+00    1.3912775819641006E+01
N   -3.2149029717334705E+00    5.6201584314993838E+00    1.6070906271626278E+01
Ga   -3.2147440233783895E+00    7.6805649150175901E+00    1.6507539666335596E+01
Ga   -3.2173215554587116E+00    9.2994543441351585E+00    1.2997620840350410E+00
N   -4.7125843947684851E+00    1.0196707152687125E+01    2.4855304506977891E+00
Ga   -4.8307194776621110E+00    8.4074131238043446E+00    3.3056851517781838E+00
N   -4.8338247186179144E+00    8.3988763699125517E+00    5.2391198717982306E+00
Ga   -4.8539785067539363E+00    1.0281114642815808E+01    5.8129766860048084E+00
N   -4.8319007294235687E+00    1.0267298886734977E+01    7.7893693021149106E+00
Ga   -4.8114236983566476E+00    8.4121573233273566E+00    8.4569973297670771E+00
N   -4.8106938885928976E+00    8.4126864388070075E+00    1.0428198377361468E+01
Ga   -4.8397500666432371E+00    1.0271901071458652E+01    1.1092010234304508E+01
N   -4.8567328223087687E+00    1.0281618169276891E+01    1.3066103530514310E+01
Ga   -4.8128894830350086E+00    8.4111252496106061E+00    1.3637267843712547E+01
N   -4.8411423831637217E+00    8.3944637024402802E+00    1.5582520926890140E+01
Ga   -4.6461154487278868E+00    1.0160131010208609E+01    1.6507670211483244E+01
N   -3.2145318069537674E+00    9.3336890363627667E+00    1.7654181356787362E+01
N    3.2150352064728791E+00    1.9053905087951541E+00    2.6698464533491850E+00
Ga    3.2149097286508201E+00    4.9597549707215659E-02    3.2983988160572433E+00
N    3.2167241384154943E+00    6.1907969125572254E-02    5.2356641944300408E+00
Ga    3.2150132704932908E+00    1.9061556272125073E+00    5.9000650073146224E+00
N    3.2164791780922850E+00    1.9065820580354762E+00    7.8491412602640818E+00
Ga    3.2169055214088891E+00    3.6510134373389007E-02    8.4574495571173660E+00
N    3.2170656730229714E+00    3.5495166063253085E-02    1.0428639146984363E+01
Ga    3.2171503000024595E+00    1.9068847989164948E+00    1.1040270480453207E+01
N    3.2172953000512727E+00    1.9066020825838357E+00    1.2990728241957179E+01
Ga    3.2172830443519707E+00    3.7856426158951392E-02    1.3637099438898050E+01
N    3.2175823887944248E+00    7.0627070539772144E-02    1.5582150952448670E+01
Ga    3.2179362987379179E+00    1.9063851239655198E+00    1.5867967344084287E+01
N    1.4904687247376593E+00    4.6250195274215926E+00    2.4756729901883552E+00
Ga    1.6075653380951516E+00    2.8324375441738954E+00    3.2948589914294542E+00
N    1.6190600960972430E+00    2.8294283490211294E+00    5.2323064762160536E+00
Ga    1.6419443314759015E+00    4.7092551319237153E+00    5.8076517006469031E+00
N    1.6187305451908645E+00    4.6972314710687257E+00    7.7851869368211126E+00
Ga    1.5974116334825426E+00    2.8422802457575194E+00    8.4563991785009751E+00
N    1.5964960003225666E+00    2.8426362540307784E+00    1.0427828244328797E+01
Ga    1.6255991738944351E+00    4.7014514647573069E+00    1.1091989446907172E+01
N    1.6430759769849657E+00    4.7110664014350405E+00    1.3066090909330974E+01
Ga    1.5993107998971403E+00    2.8404888666891628E+00    1.3637238626378879E+01
N    1.6269217603752104E+00    2.8247593162175937E+00    1.5583351673300887E+01
Ga    1.4339023649351927E+00    4.5899704304793767E+00    1.6508109457533937E+01
N    2.0746427277296267E-04    7.4770186939991108E+00    2.6748618770380714E+00
Ga    4.1158786225149041E-03    5.6256577472978995E+00    3.3039963192558934E+00
N    1.0866202946405107E-03    5.6322544341144178E+00    5.2371794534765383E+00
Ga    1.2807496742142448E-03    7.4767999777994829E+00    5.9031752645693238E+00
N    9.8368523449281057E-04    7.4770302586774235E+00    7.8509822281143240E+00
Ga    1.2249738902461889E-03    5.6062334975198800E+00    8.4556655575151769E+00
N    1.1898558945413551E-03    5.6055138773183026E+00    1.0427290486626273E+01
Ga    1.0506017684573943E-03    7.4769860034355196E+00    1.1039948992758882E+01
N    1.3621577950408224E-03    7.4765970789992391E+00    1.2990654400511488E+01
Ga    1.2481260370807907E-03    5.6083771050341493E+00    1.3637366958769004E+01
N    1.4261930534824616E-03    5.6401156771232808E+00    1.5583411356214492E+01
Ga    1.4527043689930659E-03    7.4769720402339077E+00    1.5867937453910907E+01
N   -1.7223693352247547E+00    1.0193827400107009E+01    2.4857407365101460E+00
Ga   -1.6008638798929453E+00    8.4063529353835236E+00    3.3081566437752259E+00
N   -1.5967696714593840E+00    8.3989716572001267E+00    5.2409559571068565E+00
Ga   -1.5766232954787092E+00    1.0281620090185738E+01    5.8126105733124422E+00
N   -1.5987021841445976E+00    1.0267602998319790E+01    7.7891169295771272E+00
Ga   -1.6192071982564171E+00    8.4122972110605101E+00    8.4567292516659673E+00
N   -1.6197194281618843E+00    8.4127540161788321E+00    1.0428093424800045E+01
Ga   -1.5905466028307169E+00    1.0271951963939985E+01    1.1092046063935339E+01
N   -1.5733026311101528E+00    1.0281512110721335E+01    1.3066046571453819E+01
Ga   -1.6168659195890875E+00    8.4110364280891332E+00    1.3637223733674942E+01
N   -1.5883052407789895E+00    8.3945390606891745E+00    1.5582193741534809E+01
Ga   -1.7831426034560420E+00    1.0160257420364006E+01    1.6507487608601824E+01
N    6.4308822261873075E+00    2.0336043699751736E+00    2.4883233593394025E+00
Ga    6.4319487988085831E+00    4.7562903688888630E-02    2.8530768720404236E+00
N    6.4326710326768417E+00    4.8460953823032983E-02    5.0147542451948004E+00
Ga    6.4335825849621608E+00    1.8700183839678710E+00    5.8105280553458236E+00
N    6.4330247534804483E+00    1.8965901111642096E+00    7.7874142006525426E+00
Ga    6.4329535896101699E+00    4.9987152775457205E-02    8.4581928168878857E+00
N    6.4331793209111119E+00    4.9842722648626915E-02    1.0414814285381269E+01
Ga    6.4330019332417594E+00    1.8877186962257630E+00    1.1091496479900353E+01
N    6.4333208505323753E+00    1.8675779596638646E+00    1.3065830588099434E+01
Ga    6.4332548366518747E+00    4.9537894349590737E-02    1.3911509593170321E+01
N    6.4331872215689705E+00    4.9541754505633695E-02    1.6070714140103984E+01
Ga    6.4336892779388712E+00    2.1079882165138657E+00    1.6507359944407447E+01
Ga    6.4012467495497791E+00    3.7720229680931006E+00    1.2975226423390329E+00
N    4.9417020061328794E+00    4.6228923686803096E+00    2.4768651702210156E+00
Ga    4.8207273793754197E+00    2.8253680488845578E+00    3.3049841501165664E+00
N    4.8134380314346155E+00    2.8293907538327812E+00    5.2378439422506382E+00
Ga    4.7924986721517975E+00    4.7105839141530899E+00    5.8091775545848554E+00
N    4.8156550254485824E+00    4.6974611421983736E+00    7.7859780368025531E+00
Ga    4.8364256704961139E+00    2.8417881374208882E+00    8.4553445535257747E+00
N    4.8375484990299853E+00    2.8423429950532166E+00    1.0426956661393222E+01
Ga    4.8088289429955662E+00    4.7011456957030857E+00    1.1091235826336051E+01
N    4.7917011915986683E+00    4.7110284800262372E+00    1.3065660083728421E+01
Ga    4.8355178653508402E+00    2.8406520734649416E+00    1.3637470419087389E+01
N    4.8082524707994212E+00    2.8247957996642414E+00    1.5583115187638080E+01
Ga    5.0009970307494811E+00    4.5901429918085546E+00    1.6508143442507041E+01
N    6.4341390599896817E+00    3.7626175243839031E+00    1.7656162143530103E+01
N    3.2157385221025341E+00    7.6145734196851045E+00    2.4753600339773487E+00
Ga    3.2121037449867504E+00    5.6186238040499834E+00    2.8354234133773630E+00
N    3.2177272235978740E+00    5.6211566883674928E+00    5.0013116095841177E+00
Ga    3.2167949088766736E+00    7.4395145790694013E+00    5.8103511886107251E+00
N    3.2168982382985272E+00    7.4660685746251261E+00    7.7869283534880651E+00
Ga    3.2170057505042120E+00    5.6201286874213521E+00    8.4580109703636914E+00
N    3.2170971345730295E+00    5.6202131876866552E+00    1.0414366475831507E+01
Ga    3.2171028235246997E+00    7.4579873400004724E+00    1.1091929117047160E+01
N    3.2173871569385852E+00    7.4378513842380922E+00    1.3065892609836917E+01
Ga    3.2176267351162355E+00    5.6199265462744981E+00    1.3911665656802569E+01
N    3.2177975522357851E+00    5.6196544744495895E+00    1.6071189446403771E+01
Ga    3.2176016061975963E+00    7.6791146539595259E+00    1.6507570226745859E+01
Ga    3.2247632288605139E+00    9.3096454029165177E+00    1.2985345066906928E+00
N    1.7227504177001944E+00    1.0195841893735402E+01    2.4835022851804549E+00
Ga    1.6020687007184442E+00    8.4081646879346028E+00    3.3037642796416917E+00
N    1.5987364319072637E+00    8.3988474881296806E+00    5.2376737813293932E+00
Ga    1.5774359101268636E+00    1.0280840912685978E+01    5.8123787648043894E+00
N    1.5999309021764532E+00    1.0267186586613517E+01    7.7888246277430602E+00
Ga    1.6208909733646031E+00    8.4121889848035458E+00    8.4568519582078387E+00
N    1.6217343435749085E+00    8.4126545817824994E+00    1.0428131111870272E+01
Ga    1.5924257534705930E+00    1.0271823879046130E+01    1.1092101671712923E+01
N    1.5755469985579165E+00    1.0281480167024704E+01    1.3065973960991878E+01
Ga    1.6193719252984071E+00    8.4110447314057737E+00    1.3637200530305593E+01
N    1.5924433681754913E+00    8.3952513508452249E+00    1.5583205271423594E+01
Ga    1.7840199018439518E+00    1.0161421159406299E+01    1.6506839073165828E+01
N    3.2174680166918987E+00    9.3342002840589231E+00    1.7656172641436203E+01
N    9.6474411760173524E+00    1.9060723508675035E+00    2.6706463477972275E+00
Ga    9.6480021151120621E+00    5.1308515169844346E-02    3.3005976231351730E+00
N    9.6481562202966114E+00    6.2206850627749617E-02    5.2372173512147917E+00
Ga    9.6473300393434833E+00    1.9061940437429017E+00    5.9016718740105985E+00
N    9.6488607826739354E+00    1.9066808595200517E+00    7.8502944670588652E+00
Ga    9.6490718729213452E+00    3.6240391893617961E-02    8.4572464083971184E+00
N    9.6492517785912852E+00    3.5312539373758799E-02    1.0428611335506805E+01
Ga    9.6491884089370927E+00    1.9066507536551125E+00    1.1040330602058482E+01
N    9.6496699224229996E+00    1.9063979976135104E+00    1.2991235497538121E+01
Ga    9.6496888279912092E+00    3.7500344246225711E-02    1.3636961496208841E+01
N    9.6496587023925571E+00    6.9422993960590054E-02    1.5582985129865248E+01
Ga    9.6492021941204005E+00    1.9062582630404930E+00    1.5867118396792437E+01
N    7.9242796816264649E+00    4.6249054024187464E+00    2.4805031696976370E+00
Ga    8.0403531415383824E+00    2.8318922918094103E+00    3.2975945822065458E+00
N    8.0513970232261620E+00    2.8290387490159392E+00    5.2346373698791897E+00
Ga    8.0735280078448479E+00    4.7091364129790110E+00    5.8085723440392369E+00
N    8.0505617035845507E+00    4.6972877265049968E+00    7.7859028914063693E+00
Ga    8.0292590788869624E+00    2.8422121106735099E+00    8.4560855010041038E+00
N    8.0286201061696669E+00    2.8424194523481203E+00    1.0427645022785411E+01
Ga    8.0575906127922838E+00    4.7013252885687216E+00    1.1091722014649841E+01
N    8.0753407119754943E+00    4.7112272917696885E+00    1.3066105608503594E+01
Ga    8.0312073303251061E+00    2.8407623337413157E+00    1.3637292263947867E+01
N    8.0592075958860825E+00    2.8245469922441675E+00    1.5582944603811187E+01
Ga    7.8670186842416365E+00    4.5904880990125241E+00    1.6507386212659888E+01
N    6.4324344730457561E+00    7.4767418527332028E+00    2.6736603229287934E+00
Ga    6.4364361024489209E+00    5.6252224022558757E+00    3.3028385838224130E+00
N    6.4326848809911734E+00    5.6321080623019206E+00    5.2363725489639386E+00
Ga    6.4327479414638393E+00    7.4766325753582068E+00    5.9026700767755518E+00
N    6.4331330543948386E+00    7.4770311934140450E+00    7.8506185730914204E+00
Ga    6.4333503591009755E+00    5.6064105576206513E+00    8.4556003109649325E+00
N    6.4331923851565822E+00    5.6056464793383309E+00    1.0427018674075702E+01
Ga    6.4330111836599277E+00    7.4769216431528323E+00    1.1040190335655231E+01
N    6.4333116933261936E+00    7.4766989175762770E+00    1.2990637769228309E+01
Ga    6.4334744463473390E+00    5.6082150080854909E+00    1.3637473612724968E+01
N    6.4335313453247132E+00    5.6398547745337844E+00    1.5583354090721137E+01
Ga    6.4334437618085767E+00    7.4763918822343589E+00    1.5867582779511897E+01
N    4.7137979144684445E+00    1.0198847347953986E+01    2.4928292335560478E+00
Ga    4.8316704749225163E+00    8.4073463737016709E+00    3.3051391564104637E+00
N    4.8349178452381238E+00    8.3987578457439795E+00    5.2385519517639940E+00
Ga    4.8551935388903393E+00    1.0281369391500460E+01    5.8122424976562534E+00
N    4.8336433806739576E+00    1.0267374124282799E+01    7.7888727832053934E+00
Ga    4.8131613986921922E+00    8.4121776565084403E+00    8.4566997598283642E+00
N    4.8124400391811193E+00    8.4126302095623124E+00    1.0427939611065590E+01
Ga    4.8416210173657914E+00    1.0271809894752504E+01    1.1091875065271395E+01
N    4.8593365912674953E+00    1.0281571038904572E+01    1.3065871396386838E+01
Ga    4.8153895437228469E+00    8.4111416595524293E+00    1.3637133963120695E+01
N    4.8424662382510775E+00    8.3952386487681760E+00    1.5583411005947836E+01
Ga    4.6508631231167552E+00    1.0161264129051855E+01    1.6506963294855520E+01
O   -1.2793704526047844E-01    3.7196510396228311E+00   -5.1094821465396079E-01
H   -1.8553364554975990E-03    7.4793197755805387E+00    1.6475360886868604E+00
C    8.0961897182771236E-01    2.8608544665101610E+00   -1.1792459142476317E+00
H    1.8516972510253786E+00    3.2000751021310130E+00   -1.0552013744142685E+00
H    7.3585907607810674E-01    1.8150867768063290E+00   -8.3479740792702317E-01
H    5.6992171613660814E-01    2.8847767062868459E+00   -2.2521509956553802E+00
O   -3.2566343766631913E+00    9.2863768576779417E+00   -5.1005323862025298E-01
C   -3.5655431945041220E+00    1.0531029092782418E+01   -1.1550098438971883E+00
H   -4.5389740052160112E+00    1.0937877229199470E+01   -8.3237664844508275E-01
H   -2.7905688913294471E+00    1.1296945930720394E+01   -9.8259764255603221E-01
H   -3.6176879749820645E+00    1.0336673266892477E+01   -2.2360682238062979E+00
O    3.3155371110413152E+00    9.3685170115192999E+00   -5.0950346924499168E-01
C    3.6026873084985787E+00    1.0655126117618336E+01   -1.0804677096795190E+00
H    2.7489922149660924E+00    1.1348009554739646E+01   -9.8931140546175400E-01
H    4.4902119901199482E+00    1.1132324682959551E+01   -6.2865057019609139E-01
H    3.8059546788628054E+00    1.0502354569266350E+01   -2.1502992850171991E+00
O    6.3792302700662642E+00    3.6825619280562307E+00   -5.1151187494620831E-01
C    7.4070709084538402E+00    2.8742350636473968E+00   -1.1084916279987558E+00
H    8.4141569831370742E+00    3.2946475629851237E+00   -9.4869174333079553E-01
H    7.3918722611216001E+00    1.8363041940470974E+00   -7.3307176860170697E-01
H    7.2172740294432618E+00    2.8475779233574703E+00   -2.1913003719111308E+00
H    6.4336536111763474E+00    7.4796632137343968E+00    1.6462523956437647E+00
H    9.6528534354655200E+00    1.9072509900454682E+00    1.6434469511931431E+00
H    3.2210129298837193E+00    1.9061447645057803E+00    1.6426798890995531E+00
     &END COORD
     &KIND C
       BASIS_SET DZVP-MOLOPT-SR-GTH-q4
       POTENTIAL GTH-PBE-q4
       &POTENTIAL
2 2
0.3384712400000000E+00 2 -0.8803673979999999E+01  0.1339210850000000E+01
2
0.3025757500000000E+00 1  0.9622486650000001E+01
0.2915069400000000E+00 0
       &END POTENTIAL
     &END KIND
     &KIND O
       BASIS_SET DZVP-MOLOPT-SR-GTH-q6
       POTENTIAL GTH-PBE-q6
       &POTENTIAL
2 4
0.2445543000000000E+00 2 -0.1666721480000000E+02  0.2487311320000000E+01
2
0.2209559200000000E+00 1  0.1833745811000000E+02
0.2113324700000000E+00 0
       &END POTENTIAL
     &END KIND
     &KIND H
       BASIS_SET DZVP-MOLOPT-SR-GTH-q1
       POTENTIAL GTH-PBE-q1
       &POTENTIAL
1
0.2000000000000000E+00 2 -0.4178900440000000E+01  0.7244633100000000E+00
0
       &END POTENTIAL
     &END KIND
     &KIND N
       BASIS_SET DZVP-MOLOPT-SR-GTH
       POTENTIAL GTH-PBE-q5
       &POTENTIAL
2 3
0.2837905100000000E+00 2 -0.1241522559000000E+02  0.1868095920000000E+01
2
0.2554050000000000E+00 1  0.1363026257000000E+02
0.2454945300000000E+00 0
       &END POTENTIAL
     &END KIND
     &KIND Ga
       BASIS_SET DZVP-MOLOPT-SR-GTH
       POTENTIAL GTH-PBE-q13
       &POTENTIAL
2 1 10
0.4900000000000000E+00 0
3
0.4167772300000000E+00 3  0.1047568975000000E+02 -0.4921768140000000E+01  0.8707055900000000E+00
0.7770178090000000E+01 -0.2248152160000000E+01
0.1784415450000000E+01
0.5696265200000000E+00 2  0.1777985340000000E+01  0.1958597600000000E+00
-0.2317443900000000E+00
0.2381265000000000E+00 1 -0.1624868022000000E+02
       &END POTENTIAL
     &END KIND
     &TOPOLOGY
       NUMBER_OF_ATOMS  224
       MULTIPLE_UNIT_CELL  1 1 1
     &END TOPOLOGY
     &COLVAR
       &DISTANCE
         ATOMS  127 211
       &END DISTANCE
       &PRINT
       &END PRINT
     &END COLVAR
   &END SUBSYS
 &END FORCE_EVAL
