 # Version information for this restart file 
 # current date 2019-07-18 23:23:24.404
 # current working dir /lustre04/scratch/rzk/rzk/GaN-carbene/443-adatoms-both-2x2/20-FullCoverage/01-4Molecules
 # Program compiled at                              Sun Apr  7 00:48:11 EDT 2019
 # Program compiled on                          beluga2.int.ets1.calculquebec.ca
 # Program compiled for                        Beluga-Linux-x86-64-intel-openmpi
 # Source code revision number                                         svn:18619
 &GLOBAL
   PRINT_LEVEL  MEDIUM
   PROJECT_NAME TEST
   RUN_TYPE  GEO_OPT
 &END GLOBAL
 &MOTION
   &GEO_OPT
     MAX_ITER  500
     STEP_START_VAL  37
   &END GEO_OPT
 &END MOTION
 &FORCE_EVAL
   METHOD  QS
   STRESS_TENSOR  ANALYTICAL
   &DFT
     BASIS_SET_FILE_NAME BASIS_MOLOPT
     POTENTIAL_FILE_NAME GTH_POTENTIALS
     UKS  T
     SURFACE_DIPOLE_CORRECTION  T
     SURF_DIP_DIR  Z
     &SCF
       MAX_SCF  80
       EPS_SCF     5.0000000000000004E-06
       &OT  T
         PRECONDITIONER  FULL_ALL
       &END OT
       &OUTER_SCF  T
         OPTIMIZER  NONE
         EPS_SCF     5.0000000000000004E-06
         MAX_SCF  4
       &END OUTER_SCF
       &PRINT
         &RESTART  OFF
           BACKUP_COPIES  1
           &EACH
             JUST_ENERGY  0
             QS_SCF  0
             MD  20
           &END EACH
         &END RESTART
       &END PRINT
     &END SCF
     &QS
       EPS_DEFAULT     1.0000000000000000E-14
       METHOD  GPW
     &END QS
     &MGRID
       NGRIDS  5
       CUTOFF     1.2000000000000000E+03
     &END MGRID
     &XC
       DENSITY_CUTOFF     1.0000000000000000E-10
       GRADIENT_CUTOFF     1.0000000000000000E-10
       TAU_CUTOFF     1.0000000000000000E-10
       &XC_FUNCTIONAL  NO_SHORTCUT
         &PBE  T
         &END PBE
       &END XC_FUNCTIONAL
       &VDW_POTENTIAL
         POTENTIAL_TYPE  PAIR_POTENTIAL
         &PAIR_POTENTIAL
           R_CUTOFF     1.0000000000000009E+01
           TYPE  DFTD3
           PARAMETER_FILE_NAME dftd3.dat
           REFERENCE_FUNCTIONAL PBE
           EPS_CN     9.9999999999999995E-07
           CALCULATE_C9_TERM  T
           REFERENCE_C9_TERM  T
           LONG_RANGE_CORRECTION  F
           VERBOSE_OUTPUT  F
         &END PAIR_POTENTIAL
       &END VDW_POTENTIAL
     &END XC
   &END DFT
   &SUBSYS
     &CELL
       A     1.2864472766435110E+01    0.0000000000000000E+00    0.0000000000000000E+00
       B    -6.4322363581020028E+00    1.1140960178524477E+01    0.0000000000000000E+00
       C     0.0000000000000000E+00    0.0000000000000000E+00    3.2000000000000000E+01
       MULTIPLE_UNIT_CELL  1 1 1
       &CELL_REF
         A     1.2982353780853531E+01    0.0000000000000000E+00    0.0000000000000000E+00
         B    -6.4911768904267628E+00    1.1243048175136114E+01    0.0000000000000000E+00
         C     0.0000000000000000E+00    0.0000000000000000E+00    3.2000000000000000E+01
         MULTIPLE_UNIT_CELL  1 1 1
       &END CELL_REF
     &END CELL
     &COORD
N   -3.5038635170706106E-03    2.0282983421705949E+00    2.4781136331410121E+00
Ga   -1.8498418307055461E-03    4.4258574471279538E-02    2.8652835487989332E+00
N    5.3765938131223614E-04    4.7748275928847499E-02    5.0156237841961557E+00
Ga    1.8691650494475805E-03    1.8686091975302848E+00    5.8052014814019035E+00
N    1.6798139397465534E-03    1.8955820446760661E+00    7.7812851607329652E+00
Ga    1.4997053008347144E-03    4.8411992357880164E-02    8.4529816049507236E+00
N   -1.5110793410032938E-04    4.7535907046334244E-02    1.0410191095388667E+01
Ga    2.4759584909186022E-04    1.8863297019687948E+00    1.1085609093867902E+01
N   -1.9549879486628293E-03    1.8627154144952085E+00    1.3061357601040529E+01
Ga   -1.4008666790414430E-03    4.5464023422678128E-02    1.3908225109026832E+01
N   -2.3061929793888069E-03    4.9447497318980217E-02    1.6066564114990459E+01
Ga    5.9420263014058452E-04    2.1041114432383754E+00    1.6509541819678248E+01
Ga   -4.1709523905478572E-02    3.7602210275569647E+00    1.2872590174381158E+00
N   -1.4954596518129937E+00    4.6214324848504260E+00    2.4734499676429951E+00
Ga   -1.6129066174206173E+00    2.8248906954329889E+00    3.2972872617342657E+00
N   -1.6183188202018393E+00    2.8271097145371362E+00    5.2297366217539247E+00
Ga   -1.6400232507977703E+00    4.7091574587284057E+00    5.7999503391781939E+00
N   -1.6163600907525415E+00    4.6956715648177028E+00    7.7769442770958417E+00
Ga   -1.5942836026951503E+00    2.8414419491380296E+00    8.4497035421530544E+00
N   -1.5955653182260308E+00    2.8405253158579113E+00    1.0421399199276541E+01
Ga   -1.6239215043329458E+00    4.6998433289172787E+00    1.1084296695852457E+01
N   -1.6451950516108005E+00    4.7091557228084504E+00    1.3060212838900311E+01
Ga   -1.5987936621314902E+00    2.8386931426380579E+00    1.3633548317671785E+01
N   -1.6220516799398907E+00    2.8255798950676665E+00    1.5581991028953567E+01
Ga   -1.4361119982418837E+00    4.5920748043206849E+00    1.6509692326357673E+01
N   -3.1654469761394615E-03    3.7609565786298158E+00    1.7660293159562489E+01
N   -3.2186997382355180E+00    7.6081209030585120E+00    2.4760797572665738E+00
Ga   -3.2230333246608547E+00    5.6142165211816391E+00    2.8273744330873010E+00
N   -3.2161277061190283E+00    5.6179657266428782E+00    4.9973408905281520E+00
Ga   -3.2160506163472213E+00    7.4356780492821679E+00    5.8039573704952181E+00
N   -3.2152402241656737E+00    7.4641265121229887E+00    7.7801901719918147E+00
Ga   -3.2142521308147001E+00    5.6183642776826463E+00    8.4514423807512209E+00
N   -3.2160728671999035E+00    5.6175355459498331E+00    1.0407875600693426E+01
Ga   -3.2160763592870105E+00    7.4555176841935920E+00    1.1084522089136426E+01
N   -3.2182150243747145E+00    7.4344759593527190E+00    1.3060015644592017E+01
Ga   -3.2186220427210133E+00    5.6180160116634807E+00    1.3907991886253027E+01
N   -3.2156955608255857E+00    5.6172515044537592E+00    1.6066045582149783E+01
Ga   -3.2170883967976187E+00    7.6728040791543357E+00    1.6506517911178761E+01
Ga   -3.2361988547076987E+00    9.3036851952306705E+00    1.2955389475592507E+00
N   -4.7188833382667239E+00    1.0195320832777757E+01    2.4873814483378784E+00
Ga   -4.8331212877112222E+00    8.4034295955086620E+00    3.3003109185914372E+00
N   -4.8358364680223778E+00    8.3952819756437371E+00    5.2330355924483278E+00
Ga   -4.8540861508723667E+00    1.0278814635957826E+01    5.8068373595478837E+00
N   -4.8312997629960908E+00    1.0264739383388344E+01    7.7830856543139664E+00
Ga   -4.8109201453481774E+00    8.4096735704863175E+00    8.4508656706427523E+00
N   -4.8122066292735353E+00    8.4093863607629427E+00    1.0422301169381923E+01
Ga   -4.8403427760612763E+00    1.0268936731265434E+01    1.1086066749175476E+01
N   -4.8601029405410445E+00    1.0278343116264859E+01    1.3061162525144862E+01
Ga   -4.8159201699370273E+00    8.4077051314485907E+00    1.3633439799125497E+01
N   -4.8384439778997876E+00    8.3963962977646336E+00    1.5581122060878647E+01
Ga   -4.6546756801531064E+00    1.0162759633670824E+01    1.6506546540255599E+01
N   -3.2176983221332209E+00    9.3325583117976976E+00    1.7652315904995000E+01
N    3.2176360538554278E+00    1.9003710440584864E+00    2.6682664438608379E+00
Ga    3.2127596157260290E+00    4.4360498189679499E-02    3.2932231709806956E+00
N    3.2170574422441316E+00    6.1072604842708982E-02    5.2303193084420627E+00
Ga    3.2126198840091251E+00    1.9048055348293127E+00    5.8973283745708223E+00
N    3.2150791659405473E+00    1.9050559532011648E+00    7.8461272972280272E+00
Ga    3.2166699115573767E+00    3.4737451192487508E-02    8.4538969778747859E+00
N    3.2163925230259336E+00    3.3673457684179807E-02    1.0424983223795120E+01
Ga    3.2154183520285153E+00    1.9052744580805305E+00    1.1037263398461235E+01
N    3.2149528367053160E+00    1.9040520801122340E+00    1.2988123590263710E+01
Ga    3.2137763687128018E+00    3.4281571072605002E-02    1.3633454758450290E+01
N    3.2148275913109843E+00    6.5512861934372918E-02    1.5581300480583902E+01
Ga    3.2136700344091920E+00    1.9040393213243432E+00    1.5870153922415202E+01
N    1.4873776487683625E+00    4.6204903971733851E+00    2.4629295131892466E+00
Ga    1.6065685797013374E+00    2.8296682467330698E+00    3.2833332921546243E+00
N    1.6190088165050471E+00    2.8269251127579413E+00    5.2214083074434461E+00
Ga    1.6392390076749990E+00    4.7074564740062694E+00    5.7979146163902788E+00
N    1.6163485146456367E+00    4.6957133528023922E+00    7.7759340604788632E+00
Ga    1.5964076627212092E+00    2.8420297683513986E+00    8.4513172271674755E+00
N    1.5955376745845036E+00    2.8416865512143294E+00    1.0422731516203891E+01
Ga    1.6226355687227014E+00    4.7001520517004876E+00    1.1086510190435940E+01
N    1.6404551442761728E+00    4.7096962132580069E+00    1.3062600713659481E+01
Ga    1.5948974832389491E+00    2.8383627517656951E+00    1.3632270205627927E+01
N    1.6231102203382519E+00    2.8253835736793280E+00    1.5580042577467818E+01
Ga    1.4333820359572620E+00    4.5900445650218318E+00    1.6511793435829144E+01
N   -5.0482879928575482E-03    7.4782304179544985E+00    2.6635743336819244E+00
Ga    2.8461797377551538E-04    5.6246987909594877E+00    3.2858449728219514E+00
N   -1.9827177205661479E-04    5.6314538214832197E+00    5.2213045679474934E+00
Ga   -4.2652760860229693E-04    7.4745472543166169E+00    5.8934524560347556E+00
N   -3.0655510811694348E-04    7.4747637511792737E+00    7.8416855740739289E+00
Ga   -1.6979669224183057E-06    5.6049135190718582E+00    8.4477599937047323E+00
N   -2.8216219239924001E-04    5.6038161349887483E+00    1.0419488170980436E+01
Ga   -1.5235766065670410E-03    7.4744748698452046E+00    1.1035335929078721E+01
N   -1.8889255470947374E-03    7.4748863499089540E+00    1.2986804907988322E+01
Ga   -3.1944055203865880E-03    5.6057148567353483E+00    1.3632522388640576E+01
N   -2.3868045276950842E-04    5.6371656675375199E+00    1.5580618081883472E+01
Ga   -3.3932795246818608E-03    7.4753493199703280E+00    1.5871724240823328E+01
N   -1.7261792708581478E+00    1.0191338895359808E+01    2.4760428160185670E+00
Ga   -1.6072215206315090E+00    8.4048724474750749E+00    3.2973327494538380E+00
N   -1.5985262278039525E+00    8.3973962442722261E+00    5.2307610128982232E+00
Ga   -1.5771559800839141E+00    1.0279119644908747E+01    5.8082172394650682E+00
N   -1.5993176109160958E+00    1.0265456334788416E+01    7.7844296706736049E+00
Ga   -1.6192320756235765E+00    8.4097093190839871E+00    8.4506484426479958E+00
N   -1.6212315201392262E+00    8.4107412564868298E+00    1.0422097034621402E+01
Ga   -1.5923375823373875E+00    1.0269052247024151E+01    1.1087901331210409E+01
N   -1.5749000860757636E+00    1.0279537035707120E+01    1.3063330348218733E+01
Ga   -1.6212888466709587E+00    8.4082440288841376E+00    1.3633188330195933E+01
N   -1.5945674940570103E+00    8.3958291413585062E+00    1.5581335441681494E+01
Ga   -1.7798242698395106E+00    1.0162770642270106E+01    1.6507981145592755E+01
N    6.4302961639131144E+00    2.0250690283228363E+00    2.4979454758059965E+00
Ga    6.4292679210328876E+00    4.4439750949950785E-02    2.8504304129493376E+00
N    6.4312136114459326E+00    4.5104146520706906E-02    5.0126831184060894E+00
Ga    6.4339200339262979E+00    1.8674212454023469E+00    5.8076908575363992E+00
N    6.4324903291204043E+00    1.8948276426093880E+00    7.7854223559668165E+00
Ga    6.4318697985975417E+00    4.7337879644880343E-02    8.4567845918971649E+00
N    6.4312288447503176E+00    4.7488749698583278E-02    1.0412398292385934E+01
Ga    6.4308659293194692E+00    1.8847718366562165E+00    1.1089727411884819E+01
N    6.4323517730444788E+00    1.8646042645355028E+00    1.3063275398133685E+01
Ga    6.4315239479678477E+00    4.7508860591294881E-02    1.3910081233196255E+01
N    6.4327516105622520E+00    4.7873357257135589E-02    1.6067442859944581E+01
Ga    6.4305482521121133E+00    2.1059724065852992E+00    1.6508700930319719E+01
Ga    6.4010326475537465E+00    3.7430585286192319E+00    1.2969971177188953E+00
N    4.9402315861421311E+00    4.6161997287970893E+00    2.4726573192320509E+00
Ga    4.8211945469662725E+00    2.8216143508632485E+00    3.3066650952479453E+00
N    4.8122635839819896E+00    2.8277731181735635E+00    5.2382388270834408E+00
Ga    4.7905240895022043E+00    4.7104639787911484E+00    5.8061515939711592E+00
N    4.8136546675938634E+00    4.6970360180144963E+00    7.7832721253789394E+00
Ga    4.8345541518660475E+00    2.8406741320634028E+00    8.4535691821010683E+00
N    4.8361470279309113E+00    2.8409559290464257E+00    1.0424935998698510E+01
Ga    4.8046717332137208E+00    4.6996892384857132E+00    1.1088581039399500E+01
N    4.7903983890260857E+00    4.7093672641005302E+00    1.3062090108822611E+01
Ga    4.8343781676506703E+00    2.8389106730143649E+00    1.3633850600455341E+01
N    4.8039762507041184E+00    2.8228089929114732E+00    1.5579985404483441E+01
Ga    4.9991899779137308E+00    4.5885353713174295E+00    1.6509100492622029E+01
N    6.4341219222541186E+00    3.7609759659547093E+00    1.7649121510744145E+01
N    3.2134234517791196E+00    7.6117328794042001E+00    2.4698385103100873E+00
Ga    3.2098129612644124E+00    5.6160135258275812E+00    2.8254167906566314E+00
N    3.2159912417940602E+00    5.6185879788212230E+00    4.9940447551776668E+00
Ga    3.2149155933758906E+00    7.4378170483177968E+00    5.8033752142269508E+00
N    3.2147326410065284E+00    7.4644143103073182E+00    7.7809258698792805E+00
Ga    3.2131019639982910E+00    5.6186494279716346E+00    8.4533824986434460E+00
N    3.2137447378667754E+00    5.6176325082904333E+00    1.0409017037009109E+01
Ga    3.2134126704151429E+00    7.4536816335161609E+00    1.1089161806743029E+01
N    3.2152955270377674E+00    7.4363928175625951E+00    1.3063049503439274E+01
Ga    3.2161977068726899E+00    5.6184972656193661E+00    1.3906193407234985E+01
N    3.2138956245442758E+00    5.6185930999651461E+00    1.6066788042067035E+01
Ga    3.2155498370436510E+00    7.6795703612805264E+00    1.6511090867767169E+01
Ga    3.2277862465594627E+00    9.3167619841248452E+00    1.2989761017882770E+00
N    1.7215743487332207E+00    1.0194272967693276E+01    2.4799994899529221E+00
Ga    1.5990376213225064E+00    8.4042653980078121E+00    3.2936141864480191E+00
N    1.5968537173857638E+00    8.3971424361117784E+00    5.2282329784509027E+00
Ga    1.5760603174460024E+00    1.0278401373757212E+01    5.8086603079662487E+00
N    1.5991016182270783E+00    1.0265045135561040E+01    7.7856629459764912E+00
Ga    1.6181605161655255E+00    8.4091743859979093E+00    8.4521210528228394E+00
N    1.6196862931947196E+00    8.4100237332413599E+00    1.0423319841383478E+01
Ga    1.5890864896870633E+00    1.0268530596454308E+01    1.1090324096886565E+01
N    1.5731614148375022E+00    1.0279891062824397E+01    1.3063904858025332E+01
Ga    1.6168754642063599E+00    8.4090908244063201E+00    1.3634538800966631E+01
N    1.5880354274203710E+00    8.3918261677817902E+00    1.5581048584728872E+01
Ga    1.7822316308457307E+00    1.0158575436709448E+01    1.6510414618170657E+01
N    3.2162070061847410E+00    9.3346180799319267E+00    1.7652238712067017E+01
N    9.6445530932817416E+00    1.9018468765300909E+00    2.6709442366942513E+00
Ga    9.6463425626915349E+00    4.7798858772887136E-02    3.3004505782702949E+00
N    9.6471734476259190E+00    6.0544039491223695E-02    5.2354108344972285E+00
Ga    9.6501171653074564E+00    1.9044962036688351E+00    5.8994312155439701E+00
N    9.6499291405707730E+00    1.9051656949285327E+00    7.8473823138785850E+00
Ga    9.6489036816777620E+00    3.3952542653204930E-02    8.4529728442018648E+00
N    9.6468683148782208E+00    3.1635693335845483E-02    1.0424503779965802E+01
Ga    9.6481648269807323E+00    1.9043966838495681E+00    1.1036096472835752E+01
N    9.6476903033241257E+00    1.9032597186472977E+00    1.2986783988873485E+01
Ga    9.6486279441276981E+00    3.4779994085634799E-02    1.3635885646298902E+01
N    9.6480294937550433E+00    6.8057122331763642E-02    1.5582214997195429E+01
Ga    9.6496275678011649E+00    1.9056818273554983E+00    1.5867908639473436E+01
N    7.9213965499544621E+00    4.6172329325672532E+00    2.4740097067291309E+00
Ga    8.0393070376913389E+00    2.8279268882098174E+00    3.2981219235877326E+00
N    8.0528317781617602E+00    2.8266466736354219E+00    5.2339759874804006E+00
Ga    8.0735009526498356E+00    4.7084150356208836E+00    5.8031073093242451E+00
N    8.0498746802784193E+00    4.6962539053558885E+00    7.7812777085729659E+00
Ga    8.0297371041356786E+00    2.8407729664319001E+00    8.4530601436160921E+00
N    8.0265018491389029E+00    2.8400256571969877E+00    1.0424269939970051E+01
Ga    8.0568088897163381E+00    4.6994862553194050E+00    1.1087206245407634E+01
N    8.0737237837495925E+00    4.7088523923236503E+00    1.3060157119091942E+01
Ga    8.0303757962374291E+00    2.8392382004341177E+00    1.3635175412865443E+01
N    8.0571351766950894E+00    2.8229141102566522E+00    1.5581766235640400E+01
Ga    7.8654436346774741E+00    4.5905575146888973E+00    1.6506858104084063E+01
N    6.4304016203460614E+00    7.4710340935776731E+00    2.6689192655930545E+00
Ga    6.4353260510945951E+00    5.6178686308445140E+00    3.2938942928407138E+00
N    6.4312758523043287E+00    5.6297540883788448E+00    5.2292090144311754E+00
Ga    6.4309767075060469E+00    7.4736193145826002E+00    5.8986112223111533E+00
N    6.4322507735199244E+00    7.4750365197468858E+00    7.8462183599945057E+00
Ga    6.4322052855637262E+00    5.6047537939063679E+00    8.4523663395181963E+00
N    6.4305520980806801E+00    5.6022513215090708E+00    1.0423538936503880E+01
Ga    6.4313393522916584E+00    7.4738264658180018E+00    1.1036015438947647E+01
N    6.4311234716038577E+00    7.4741741726329245E+00    1.2985502806378515E+01
Ga    6.4328558469409582E+00    5.6066908585717155E+00    1.3634030217496866E+01
N    6.4308513706529498E+00    5.6388859953077297E+00    1.5579500746809337E+01
Ga    6.4336967774740632E+00    7.4761010087665172E+00    1.5866218173460615E+01
N    4.7131291178550017E+00    1.0197897151804737E+01    2.4945905128718149E+00
Ga    4.8287754871109438E+00    8.4026871631833870E+00    3.2982988181903434E+00
N    4.8345385996118049E+00    8.3959668663624480E+00    5.2319173827682883E+00
Ga    4.8558468677638746E+00    1.0279183113999018E+01    5.8076992390960696E+00
N    4.8338706333425749E+00    1.0264450835019431E+01    7.7847805861261437E+00
Ga    4.8112536665236982E+00    8.4091561938609338E+00    8.4520530122263438E+00
N    4.8092004504429235E+00    8.4085935923757074E+00    1.0423450532605171E+01
Ga    4.8404195429627359E+00    1.0268465224710456E+01    1.1088392736529599E+01
N    4.8573627033701685E+00    1.0278682230034253E+01    1.3061527187781435E+01
Ga    4.8144742145874391E+00    8.4086815702531812E+00    1.3634678952952852E+01
N    4.8412339725739839E+00    8.3922351988529034E+00    1.5580221683185869E+01
Ga    4.6495599341380833E+00    1.0158549202994799E+01    1.6508607315263738E+01
O   -1.7797021775059588E-01    3.6983332598870202E+00   -5.1729870503681941E-01
H   -1.0716735424041734E-02    7.4900338083298097E+00    1.6378667412105727E+00
C    6.2809308954155918E-01    2.7463754365656716E+00   -1.2256789882790029E+00
H    1.6968582358431259E+00    3.0177550099642572E+00   -1.1983967097685495E+00
H    5.1489788180951357E-01    1.7195962953133432E+00   -8.3548430290984244E-01
H    3.1780774008916390E-01    2.7630834831979438E+00   -2.2716134756236328E+00
O   -3.3336384511251205E+00    9.2575909566016730E+00   -5.1170796598178603E-01
C   -3.8277740082129879E+00    1.0427159632325363E+01   -1.1840108203390665E+00
H   -4.7992635993319919E+00    1.0769751076107793E+01   -7.9031272978860001E-01
H   -3.1140511320981115E+00    1.1267749802583408E+01   -1.1451825222193706E+00
H   -3.9581906539527183E+00    1.0165323715316877E+01   -2.2372970461017725E+00
O    3.3502273342221356E+00    9.3810363900747262E+00   -5.0678140454409992E-01
C    3.7173226263150316E+00    1.0647862307454661E+01   -1.0740160912596930E+00
H    2.9011499365692450E+00    1.1379095235674214E+01   -9.9579013167812369E-01
H    4.6119828762584634E+00    1.1083374332677591E+01   -5.9163549441266106E-01
H    3.9341235844312377E+00    1.0485198024260022E+01   -2.1353608368529420E+00
O    6.3315458898362893E+00    3.5925606902894560E+00   -5.0644205522133201E-01
C    7.2170440318314535E+00    2.6321026133813321E+00   -1.1093558808020443E+00
H    8.2596970918486114E+00    2.9718548104927471E+00   -1.0976675936745341E+00
H    7.1729067915873639E+00    1.6434142557177602E+00   -6.0983369584832736E-01
H    6.9033438793406328E+00    2.5098336246614368E+00   -2.1537740400475895E+00
H    6.4354788265006153E+00    7.4728902053565349E+00    1.6424183929165022E+00
H    9.6425934879724249E+00    1.9015050034110514E+00    1.6444329766570396E+00
H    3.2401035799761395E+00    1.9027662365457843E+00    1.6420594950981446E+00
     &END COORD
     &KIND C
       BASIS_SET DZVP-MOLOPT-SR-GTH-q4
       POTENTIAL GTH-PBE-q4
       &POTENTIAL
2 2
0.3384712400000000E+00 2 -0.8803673979999999E+01  0.1339210850000000E+01
2
0.3025757500000000E+00 1  0.9622486650000001E+01
0.2915069400000000E+00 0
       &END POTENTIAL
     &END KIND
     &KIND O
       BASIS_SET DZVP-MOLOPT-SR-GTH-q6
       POTENTIAL GTH-PBE-q6
       &POTENTIAL
2 4
0.2445543000000000E+00 2 -0.1666721480000000E+02  0.2487311320000000E+01
2
0.2209559200000000E+00 1  0.1833745811000000E+02
0.2113324700000000E+00 0
       &END POTENTIAL
     &END KIND
     &KIND H
       BASIS_SET DZVP-MOLOPT-SR-GTH-q1
       POTENTIAL GTH-PBE-q1
       &POTENTIAL
1
0.2000000000000000E+00 2 -0.4178900440000000E+01  0.7244633100000000E+00
0
       &END POTENTIAL
     &END KIND
     &KIND N
       BASIS_SET DZVP-MOLOPT-SR-GTH
       POTENTIAL GTH-PBE-q5
       &POTENTIAL
2 3
0.2837905100000000E+00 2 -0.1241522559000000E+02  0.1868095920000000E+01
2
0.2554050000000000E+00 1  0.1363026257000000E+02
0.2454945300000000E+00 0
       &END POTENTIAL
     &END KIND
     &KIND Ga
       BASIS_SET DZVP-MOLOPT-SR-GTH
       POTENTIAL GTH-PBE-q13
       &POTENTIAL
2 1 10
0.4900000000000000E+00 0
3
0.4167772300000000E+00 3  0.1047568975000000E+02 -0.4921768140000000E+01  0.8707055900000000E+00
0.7770178090000000E+01 -0.2248152160000000E+01
0.1784415450000000E+01
0.5696265200000000E+00 2  0.1777985340000000E+01  0.1958597600000000E+00
-0.2317443900000000E+00
0.2381265000000000E+00 1 -0.1624868022000000E+02
       &END POTENTIAL
     &END KIND
     &TOPOLOGY
       NUMBER_OF_ATOMS  224
       MULTIPLE_UNIT_CELL  1 1 1
     &END TOPOLOGY
     &COLVAR
       &DISTANCE
         ATOMS  127 211
       &END DISTANCE
       &PRINT
       &END PRINT
     &END COLVAR
   &END SUBSYS
 &END FORCE_EVAL
