 # Version information for this restart file 
 # current date 2019-05-24 18:19:44.564
 # current working dir /lustre03/project/6004141/rzk/GaN-carbene/00-Surface/00-Preoptimization/443-native
 # Program compiled at                              Sun Apr  7 00:48:11 EDT 2019
 # Program compiled on                          beluga2.int.ets1.calculquebec.ca
 # Program compiled for                        Beluga-Linux-x86-64-intel-openmpi
 # Source code revision number                                         svn:18619
 &GLOBAL
   PRINT_LEVEL  MEDIUM
   PROJECT_NAME TEST
   RUN_TYPE  GEO_OPT
 &END GLOBAL
 &MOTION
   &GEO_OPT
     MAX_ITER  500
     STEP_START_VAL  20
   &END GEO_OPT
 &END MOTION
 &FORCE_EVAL
   METHOD  QS
   STRESS_TENSOR  ANALYTICAL
   &DFT
     BASIS_SET_FILE_NAME BASIS_MOLOPT
     POTENTIAL_FILE_NAME GTH_POTENTIALS
     &SCF
       MAX_SCF  100
       EPS_SCF     5.0000000000000004E-06
       &OT  T
         PRECONDITIONER  FULL_ALL
       &END OT
       &OUTER_SCF  T
         OPTIMIZER  NONE
         EPS_SCF     5.0000000000000004E-06
         MAX_SCF  4
       &END OUTER_SCF
       &PRINT
         &RESTART  OFF
           BACKUP_COPIES  1
           &EACH
             JUST_ENERGY  0
             QS_SCF  0
             MD  20
           &END EACH
         &END RESTART
       &END PRINT
     &END SCF
     &QS
       EPS_DEFAULT     1.0000000000000000E-14
       METHOD  GPW
     &END QS
     &MGRID
       NGRIDS  5
       CUTOFF     1.2000000000000000E+03
     &END MGRID
     &XC
       DENSITY_CUTOFF     1.0000000000000000E-10
       GRADIENT_CUTOFF     1.0000000000000000E-10
       TAU_CUTOFF     1.0000000000000000E-10
       &XC_FUNCTIONAL  NO_SHORTCUT
         &PBE  T
         &END PBE
       &END XC_FUNCTIONAL
       &VDW_POTENTIAL
         POTENTIAL_TYPE  PAIR_POTENTIAL
         &PAIR_POTENTIAL
           R_CUTOFF     1.0000000000000002E+01
           TYPE  DFTD3
           PARAMETER_FILE_NAME dftd3.dat
           REFERENCE_FUNCTIONAL PBE
           EPS_CN     9.9999999999999995E-07
           CALCULATE_C9_TERM  T
           REFERENCE_C9_TERM  T
           LONG_RANGE_CORRECTION  F
           VERBOSE_OUTPUT  F
         &END PAIR_POTENTIAL
       &END VDW_POTENTIAL
     &END XC
   &END DFT
   &SUBSYS
     &CELL
       A     1.2982353780853531E+01    0.0000000000000000E+00    0.0000000000000000E+00
       B    -6.4911768904267628E+00    1.1243048175136114E+01    0.0000000000000000E+00
       C     0.0000000000000000E+00    0.0000000000000000E+00    2.9000000000000000E+01
       MULTIPLE_UNIT_CELL  1 1 1
     &END CELL
     &COORD
Ga   -3.3314622427946076E-02    2.1570765460271615E-02    3.2292111599696927E-01
N    1.6788019261181144E-02    1.8983166709332608E+00    5.1655499568923635E-01
Ga    2.7732868065342392E-02    1.9192408046823231E+00    2.5895227798286533E+00
N   -8.5206995757764990E-03    2.3585437599415088E-02    3.1492192561961012E+00
Ga   -6.8841682586522441E-03    1.1069792025649344E-02    5.2381013504388392E+00
N   -6.8808827335196303E-04    1.8813374142473069E+00    5.7648902470376884E+00
Ga   -5.0748594745217111E-03    1.8808288519142577E+00    7.8170612109094977E+00
N    5.1577373377226848E-03    6.6465776987690486E-03    8.3516477890244811E+00
Ga   -6.9425870300649541E-03    2.0566600847664700E-03    1.0405551319788424E+01
N   -2.1991908390793936E-02    1.8706899311529006E+00    1.0937061401439548E+01
Ga    1.6241573896051950E-02    1.8364705477340295E+00    1.3058469969113819E+01
N    1.4496365052628003E-02   -1.2649758355555185E-02    1.3493176548637091E+01
Ga   -1.6310977156382613E+00    2.7896850886045792E+00    2.4055518807325024E-01
N   -1.6374438958728510E+00    4.6958202862585408E+00    5.0687877557633332E-01
Ga   -1.6602407554495506E+00    4.6857862951486791E+00    2.6365037338033166E+00
N   -1.6219299028839245E+00    2.8073213746916017E+00    3.1535856396742696E+00
Ga   -1.6232247352788556E+00    2.8127713959177170E+00    5.2177340069711979E+00
N   -1.6208694782340463E+00    4.6858957236498728E+00    5.7578707663506901E+00
Ga   -1.6309933072279892E+00    4.6937431116294768E+00    7.8102796904349434E+00
N   -1.6177552646055415E+00    2.8247404678941574E+00    8.3711449242402303E+00
Ga   -1.6334038413918062E+00    2.8175014187052096E+00    1.0428770823824989E+01
N   -1.6451739507560448E+00    4.6893276193439490E+00    1.0961319730000936E+01
Ga   -1.6304161338378065E+00    4.6713132327897826E+00    1.3081398805121795E+01
N   -1.5975979938915219E+00    2.7909767939283823E+00    1.3373042456474002E+01
Ga   -3.3209182930635963E+00    5.6521781895131440E+00   -5.6234590746846384E-02
N   -3.2349753389271272E+00    7.5012013775964785E+00    5.5070599204364445E-01
Ga   -3.2104744899873583E+00    7.4783555593450695E+00    2.5736694309147814E+00
N   -3.2552607281783965E+00    5.6240484012720238E+00    3.1898048063312801E+00
Ga   -3.2507861111528489E+00    5.6228116514816771E+00    5.2226213112350379E+00
N   -3.2447146845869042E+00    7.4910615158588731E+00    5.7965803820193944E+00
Ga   -3.2464449424766730E+00    7.5027894779912643E+00    7.8339322528277417E+00
N   -3.2476596818964478E+00    5.6274012520178465E+00    8.3797994247053698E+00
Ga   -3.2589431112652827E+00    5.6301512652606114E+00    1.0430535169876373E+01
N   -3.2594982783767614E+00    7.5139127463723039E+00    1.0953292308864334E+01
Ga   -3.2331934379709315E+00    7.4545339550344325E+00    1.3080432037463995E+01
N   -3.2367282538427276E+00    5.6017894962171955E+00    1.3486846969957462E+01
Ga   -4.8702893783143768E+00    8.4046049719138445E+00    3.0816995638856215E-01
N   -4.8672599826590970E+00    1.0320520394740193E+01    5.1195925715887480E-01
Ga   -4.8782224714679492E+00    1.0294138364471134E+01    2.7414501301735537E+00
N   -4.8585075189894900E+00    8.4102336876756087E+00    3.1760738706552933E+00
Ga   -4.8622479514342416E+00    8.4143849250182949E+00    5.2381310775363747E+00
N   -4.8658224733708799E+00    1.0307358334307185E+01    5.7470987318379816E+00
Ga   -4.8669036930574050E+00    1.0302799822940273E+01    7.8128936050275088E+00
N   -4.8723601127237126E+00    8.4410171699995722E+00    8.3734662329085232E+00
Ga   -4.8823409550754686E+00    8.4447344451383550E+00    1.0424008271902370E+01
N   -4.8813196094009683E+00    1.0314867201119137E+01    1.0950167512269774E+01
Ga   -4.8679385384844132E+00    1.0300757197778060E+01    1.3083210196632933E+01
N   -4.8619575907163766E+00    8.4160431800353930E+00    1.3348945350355867E+01
Ga    3.2717098295356619E+00    2.1393073204125267E-02    3.0693442000349208E-01
N    3.2367553072500717E+00    1.8940749726741897E+00    5.4452802471306538E-01
Ga    3.2128769865816538E+00    1.9053829526696646E+00    2.6138012297508184E+00
N    3.2453412441878964E+00    1.2095703520653246E-02    3.1618969165643991E+00
Ga    3.2546999241037962E+00    8.5768925513674578E-03    5.2316302754133686E+00
N    3.2426335177160088E+00    1.8736952898751529E+00    5.7837192054941253E+00
Ga    3.2396181332780238E+00    1.8746438265072656E+00    7.8411143021339385E+00
N    3.2389867675403177E+00   -4.5246599160953162E-03    8.3725665485829150E+00
Ga    3.2419327702505396E+00   -8.9736747025618742E-03    1.0441087045429903E+01
N    3.2207824334578024E+00    1.8774147612022194E+00    1.0923409611037064E+01
Ga    3.2638716946908466E+00    1.8476260101539665E+00    1.3029711653820366E+01
N    3.2672908877090769E+00   -2.2764889992637111E-02    1.3388679009063383E+01
Ga    1.6706415531991967E+00    2.9058679356339980E+00   -6.4113623647718099E-01
N    1.6346439680802904E+00    4.7106464543754987E+00    5.4840004302382239E-01
Ga    1.6371756289676971E+00    4.6779958246359525E+00    2.5859042565157635E+00
N    1.6234264225881860E+00    2.8332797516999473E+00    3.1982331927319336E+00
Ga    1.6232525945974590E+00    2.8199697633180811E+00    5.2266814870959166E+00
N    1.6149327282257075E+00    4.6885922387434942E+00    5.7848607023942327E+00
Ga    1.6148839504774097E+00    4.6937556079686393E+00    7.8350273189137107E+00
N    1.6114818050899007E+00    2.8129013867196679E+00    8.3742714224587047E+00
Ga    1.5972865490055432E+00    2.8243718623194818E+00    1.0445307906932811E+01
N    1.6258770555049959E+00    4.6983442833263300E+00    1.0950102713346981E+01
Ga    1.6498345152485334E+00    4.6706003775819891E+00    1.3066685252967760E+01
N    1.6356877462651809E+00    2.7892008047980101E+00    1.3316338404592029E+01
Ga    6.8272871668062646E-03    5.6486414846372304E+00    2.8860414119308458E-01
N   -3.3971196644602637E-02    7.5133305550682152E+00    5.4413570379775278E-01
Ga   -3.7996548224564913E-02    7.5094852185802523E+00    2.6088237949543926E+00
N   -9.3937053341124448E-03    5.6160476699513717E+00    3.1358451287014626E+00
Ga   -6.4665824058388662E-04    5.6214389698759488E+00    5.2087331132056107E+00
N    4.4254790780459928E-03    7.4910891729636671E+00    5.7775717309909522E+00
Ga    2.4904904797704627E-03    7.4994167069859170E+00    7.8387895683588811E+00
N   -1.5009579713048921E-02    5.6217783788468170E+00    8.3795829828178743E+00
Ga   -7.1472481228609455E-03    5.6079917657700129E+00    1.0442803498429369E+01
N   -3.0193567906970607E-03    7.4918552898475994E+00    1.0936430036032734E+01
Ga    1.7666470125825361E-02    7.4796624321783369E+00    1.3023298093946929E+01
N    1.0711948853222434E-02    5.6026098134597389E+00    1.3338854915294407E+01
Ga   -1.6501249513531584E+00    8.4297163511462934E+00   -6.1607788350539461E-01
N   -1.6295228142269766E+00    1.0285938465479990E+01    5.7264106690579786E-01
Ga   -1.6281338710512065E+00    1.0264349709917147E+01    2.6283736671260201E+00
N   -1.6282947970529933E+00    8.4232273049298954E+00    3.2207552708181226E+00
Ga   -1.6261042488579700E+00    8.4257391896183851E+00    5.2424773518071053E+00
N   -1.6260083413128761E+00    1.0307593680206983E+01    5.7836307004901677E+00
Ga   -1.6253700203852020E+00    1.0303119846308638E+01    7.8351732886992371E+00
N   -1.6206839754043585E+00    8.4340493483003645E+00    8.3840389053040596E+00
Ga   -1.6258273404976624E+00    8.4485123656726362E+00    1.0453554605016597E+01
N   -1.6191869386220270E+00    1.0323070045020568E+01    1.0959376018571724E+01
Ga   -1.5966232883425573E+00    1.0291020736324668E+01    1.3083149869789301E+01
N   -1.6021986523427250E+00    8.4117671954908051E+00    1.3339323208823600E+01
Ga    6.4867665236560912E+00   -3.5435114533778490E-02    3.0341179647865951E-01
N    6.5167176210209741E+00    1.8739049513697934E+00    5.1294844894696034E-01
Ga    6.5006642314571446E+00    1.8790848111198060E+00    2.7285922714089610E+00
N    6.4923909112361295E+00   -1.1707905712559445E-02    3.1764990000365176E+00
Ga    6.4931716106174910E+00   -9.6035778602560646E-03    5.2464979541694374E+00
N    6.4935720955790970E+00    1.8748561915370774E+00    5.7633471898164421E+00
Ga    6.4809492527566963E+00    1.8769066385550310E+00    7.8219525204439613E+00
N    6.4881628360682280E+00    5.2079143849246981E-03    8.3554287354039278E+00
Ga    6.4887285830934971E+00   -1.0047760220496442E-02    1.0398336023685612E+01
N    6.4822136687057412E+00    1.8574661591861918E+00    1.0919229275427780E+01
Ga    6.5012782061958294E+00    1.8362646346066964E+00    1.3029755488159308E+01
N    6.5088294416018515E+00   -1.5741817110815574E-02    1.3468120235501734E+01
Ga    4.8606585329312013E+00    2.8261415587099492E+00    3.2338847161201945E-01
N    4.8994311715389793E+00    4.6972017562325075E+00    6.0296680789053314E-01
Ga    4.8950758625868920E+00    4.7152761985372749E+00    2.6275024552283410E+00
N    4.8633214797564417E+00    2.8167065620535805E+00    3.1744054124640906E+00
Ga    4.8610237066773250E+00    2.8152408124580934E+00    5.2421744492218307E+00
N    4.8655638970269051E+00    4.6831054649501418E+00    5.8005717085032922E+00
Ga    4.8653520284558294E+00    4.6909958784773949E+00    7.8425538059906286E+00
N    4.8613138290774609E+00    2.8143314213275925E+00    8.3806275806104154E+00
Ga    4.8610197255780321E+00    2.8118719037550277E+00    1.0434055528487754E+01
N    4.8446618159033763E+00    4.6887043695417301E+00    1.0956471027645774E+01
Ga    4.8621597503423608E+00    4.6709380680007113E+00    1.3078162036361482E+01
N    4.8900051919778615E+00    2.7884618442199227E+00    1.3343717906848031E+01
Ga    3.2759897960912170E+00    5.5961360019966859E+00    1.7734241342909116E-01
N    3.2634504473020050E+00    7.5021957822413166E+00    5.1489375525273884E-01
Ga    3.2419952699992902E+00    7.4718930378857937E+00    2.6948468034671271E+00
N    3.2469478026280494E+00    5.6095455002599373E+00    3.2025585871151927E+00
Ga    3.2431198753436292E+00    5.6162902165652477E+00    5.2451297621916408E+00
N    3.2453290179373240E+00    7.4968255415068850E+00    5.7864150377295340E+00
Ga    3.2440740641164769E+00    7.5015056975485130E+00    7.8383597471332411E+00
N    3.2391237138691964E+00    5.6268585008056009E+00    8.3853855995594930E+00
Ga    3.2397900052430808E+00    5.6340985096550300E+00    1.0439389859217052E+01
N    3.2386398218495249E+00    7.5088335283442946E+00    1.0979130480916947E+01
Ga    3.2696384213236063E+00    7.4655708491557542E+00    1.3117738342110693E+01
N    3.2580350741529838E+00    5.6041700134504469E+00    1.3486221752532542E+01
Ga    1.5897118600401199E+00    8.4474620099176363E+00    2.9533094975554919E-01
N    1.6361572309571955E+00    1.0312572450587769E+01    5.7540534530032161E-01
Ga    1.6587345740653450E+00    1.0324468004104679E+01    2.6262809364725572E+00
N    1.6183740912280888E+00    8.4325671457614995E+00    3.1573606876529023E+00
Ga    1.6198760624326953E+00    8.4308535170512968E+00    5.2337627774537490E+00
N    1.6223498346974023E+00    1.0300370765227772E+01    5.7887656828893670E+00
Ga    1.6233240481456559E+00    1.0303144247032094E+01    7.8387055910162022E+00
N    1.6213884368328371E+00    8.4313078631588230E+00    8.3851834660891669E+00
Ga    1.6247157939304211E+00    8.4523415918860749E+00    1.0445580795711683E+01
N    1.6135759933322653E+00    1.0322895765366070E+01    1.0935454395819173E+01
Ga    1.6293423242071030E+00    1.0296981669389373E+01    1.3050826504558309E+01
N    1.6369819841409299E+00    8.4197252519067263E+00    1.3344218728889633E+01
Ga    9.7393276795212511E+00   -2.3564658706106863E-02   -6.0940058611361370E-01
N    9.7354137422971139E+00    1.8431940125036019E+00    5.4366382757361043E-01
Ga    9.7426715057671682E+00    1.8417533178974308E+00    2.5937549301577518E+00
N    9.7354507412446729E+00    4.9636295832515128E-03    3.2269964940495597E+00
Ga    9.7339362918470567E+00    4.5718714996473512E-03    5.2450917756257320E+00
N    9.7414425098883637E+00    1.8802635053253034E+00    5.7883057331275305E+00
Ga    9.7358796715597435E+00    1.8829913127911149E+00    7.8417695618217635E+00
N    9.7380172869388897E+00    6.3556458310496120E-03    8.3729450771084011E+00
Ga    9.7388803213772412E+00    4.3710319496797862E-03    1.0437732922753897E+01
N    9.7252922259528702E+00    1.8818043596374918E+00    1.0937723335822218E+01
Ga    9.7622025718979124E+00    1.8608393670387853E+00    1.3040739123515953E+01
N    9.7555554086846445E+00   -1.2713015952060366E-02    1.3352390475214438E+01
Ga    8.1544912363257129E+00    2.8483309989759036E+00    2.7404954763904565E-01
N    8.0752655573497378E+00    4.7080383477360011E+00    5.6521063970788310E-01
Ga    8.1016308573194724E+00    4.7162316240486879E+00    2.5737665244732946E+00
N    8.1296179550003043E+00    2.8191634317706655E+00    3.1710722437953600E+00
Ga    8.1259130045362866E+00    2.8199093833738575E+00    5.2301307102360006E+00
N    8.1206872573376536E+00    4.6808458739007142E+00    5.7979381707090374E+00
Ga    8.1100404393869958E+00    4.6897400936565194E+00    7.8341728191429256E+00
N    8.1017517434038400E+00    2.8120087219992524E+00    8.3731726121907517E+00
Ga    8.1064617341278282E+00    2.8124670945346772E+00    1.0433459534460829E+01
N    8.0940277479612224E+00    4.6901258448722389E+00    1.0941082026324782E+01
Ga    8.1436112212683600E+00    4.6738830181353901E+00    1.3055358677349655E+01
N    8.1250151942448028E+00    2.7916779553756057E+00    1.3295686915344621E+01
Ga    6.4617041257307175E+00    5.6252454019529514E+00   -6.0592508229513287E-01
N    6.4965961264178018E+00    7.4697192324968649E+00    5.9493404235630720E-01
Ga    6.4961279735132234E+00    7.4479513841399143E+00    2.6323332559778545E+00
N    6.4987585777335628E+00    5.6099560271953290E+00    3.2427112334114390E+00
Ga    6.4976638798205713E+00    5.6127187558684346E+00    5.2562313349121821E+00
N    6.4922451580017890E+00    7.4929900160915253E+00    5.8024758352653212E+00
Ga    6.4863956253510571E+00    7.4990731592388249E+00    7.8520657520975883E+00
N    6.4899435789217019E+00    5.6221390890389191E+00    8.3907802973660761E+00
Ga    6.4720021026511212E+00    5.6323901574091515E+00    1.0449676961391919E+01
N    6.4881414813413807E+00    7.5019858405271043E+00    1.0952072668251995E+01
Ga    6.4997493661486851E+00    7.4859094859294553E+00    1.3045653256261273E+01
N    6.5059176707049895E+00    5.6086606372984757E+00    1.3309590204770968E+01
Ga    4.9214779921992324E+00    8.4524212289718239E+00    3.1009729790281904E-01
N    4.8414778718538036E+00    1.0319894818909892E+01    5.8439413338958679E-01
Ga    4.8340670429289725E+00    1.0323843956919095E+01    2.6304740111041416E+00
N    4.8651145626856946E+00    8.4277660470242726E+00    3.1777972167292745E+00
Ga    4.8750788801940166E+00    8.4278558931958401E+00    5.2382420404537333E+00
N    4.8710268242241943E+00    1.0305699392536352E+01    5.7739624124468554E+00
Ga    4.8655865679821924E+00    1.0305510016823952E+01    7.8276356747336591E+00
N    4.8628366192771040E+00    8.4386376384042698E+00    8.3923977241881254E+00
Ga    4.8691287765559998E+00    8.4405207514676270E+00    1.0453855276243491E+01
N    4.8770497527775500E+00    1.0313934523606893E+01    1.0946953277005003E+01
Ga    4.8966272509907061E+00    1.0297739135717640E+01    1.3064625704464595E+01
N    4.8893213505959574E+00    8.4239179248672880E+00    1.3375320845339637E+01
     &END COORD
     &KIND N
       BASIS_SET DZVP-MOLOPT-SR-GTH
       POTENTIAL GTH-PBE-q5
       &POTENTIAL
 2 3
  0.2837905100000000E+00 2 -0.1241522559000000E+02  0.1868095920000000E+01
 2
  0.2554050000000000E+00 1  0.1363026257000000E+02
  0.2454945300000000E+00 0
         # Potential name:  GTH-PBE-Q5  for symbol:  N
         # Potential read from the potential filename: GTH_POTENTIALS
       &END POTENTIAL
     &END KIND
     &KIND Ga
       BASIS_SET DZVP-MOLOPT-SR-GTH
       POTENTIAL GTH-PBE-q13
       &POTENTIAL
 2 1 10
  0.4900000000000000E+00 0
 3
  0.4167772300000000E+00 3  0.1047568975000000E+02 -0.4921768140000000E+01  0.8707055900000000E+00
  0.7770178090000000E+01 -0.2248152160000000E+01
  0.1784415450000000E+01
  0.5696265200000000E+00 2  0.1777985340000000E+01  0.1958597600000000E+00
 -0.2317443900000000E+00
  0.2381265000000000E+00 1 -0.1624868022000000E+02
         # Potential name:  GTH-PBE-Q13  for symbol:  GA
         # Potential read from the potential filename: GTH_POTENTIALS
       &END POTENTIAL
     &END KIND
     &TOPOLOGY
       COORD_FILE_NAME start.xyz
       COORD_FILE_FORMAT  XYZ
       NUMBER_OF_ATOMS  192
       MULTIPLE_UNIT_CELL  1 1 1
     &END TOPOLOGY
   &END SUBSYS
 &END FORCE_EVAL
