 # Version information for this restart file 
 # current date 2019-05-24 18:29:31.384
 # current working dir /lustre03/project/6004141/rzk/GaN-carbene/00-Surface/00-Preoptimization/443-native
 # Program compiled at                              Sun Apr  7 00:48:11 EDT 2019
 # Program compiled on                          beluga2.int.ets1.calculquebec.ca
 # Program compiled for                        Beluga-Linux-x86-64-intel-openmpi
 # Source code revision number                                         svn:18619
 &GLOBAL
   PRINT_LEVEL  MEDIUM
   PROJECT_NAME TEST
   RUN_TYPE  GEO_OPT
 &END GLOBAL
 &MOTION
   &GEO_OPT
     MAX_ITER  500
     STEP_START_VAL  21
   &END GEO_OPT
 &END MOTION
 &FORCE_EVAL
   METHOD  QS
   STRESS_TENSOR  ANALYTICAL
   &DFT
     BASIS_SET_FILE_NAME BASIS_MOLOPT
     POTENTIAL_FILE_NAME GTH_POTENTIALS
     &SCF
       MAX_SCF  100
       EPS_SCF     5.0000000000000004E-06
       &OT  T
         PRECONDITIONER  FULL_ALL
       &END OT
       &OUTER_SCF  T
         OPTIMIZER  NONE
         EPS_SCF     5.0000000000000004E-06
         MAX_SCF  4
       &END OUTER_SCF
       &PRINT
         &RESTART  OFF
           BACKUP_COPIES  1
           &EACH
             JUST_ENERGY  0
             QS_SCF  0
             MD  20
           &END EACH
         &END RESTART
       &END PRINT
     &END SCF
     &QS
       EPS_DEFAULT     1.0000000000000000E-14
       METHOD  GPW
     &END QS
     &MGRID
       NGRIDS  5
       CUTOFF     1.2000000000000000E+03
     &END MGRID
     &XC
       DENSITY_CUTOFF     1.0000000000000000E-10
       GRADIENT_CUTOFF     1.0000000000000000E-10
       TAU_CUTOFF     1.0000000000000000E-10
       &XC_FUNCTIONAL  NO_SHORTCUT
         &PBE  T
         &END PBE
       &END XC_FUNCTIONAL
       &VDW_POTENTIAL
         POTENTIAL_TYPE  PAIR_POTENTIAL
         &PAIR_POTENTIAL
           R_CUTOFF     1.0000000000000002E+01
           TYPE  DFTD3
           PARAMETER_FILE_NAME dftd3.dat
           REFERENCE_FUNCTIONAL PBE
           EPS_CN     9.9999999999999995E-07
           CALCULATE_C9_TERM  T
           REFERENCE_C9_TERM  T
           LONG_RANGE_CORRECTION  F
           VERBOSE_OUTPUT  F
         &END PAIR_POTENTIAL
       &END VDW_POTENTIAL
     &END XC
   &END DFT
   &SUBSYS
     &CELL
       A     1.2982353780853531E+01    0.0000000000000000E+00    0.0000000000000000E+00
       B    -6.4911768904267628E+00    1.1243048175136114E+01    0.0000000000000000E+00
       C     0.0000000000000000E+00    0.0000000000000000E+00    2.9000000000000000E+01
       MULTIPLE_UNIT_CELL  1 1 1
     &END CELL
     &COORD
Ga   -3.3941552091801247E-02    1.8937803049563107E-02    3.0429462391153084E-01
N    1.7503495960765884E-02    1.8947981576216675E+00    5.0811640434671301E-01
Ga    2.5516412699129565E-02    1.9142358663513375E+00    2.5817526324697693E+00
N   -1.0354856794400128E-02    2.3159455180173871E-02    3.1471093897661970E+00
Ga   -7.1618001325030540E-03    9.3702555671734012E-03    5.2415752683964945E+00
N   -1.0518243482252148E-03    1.8792033674041893E+00    5.7598325634233856E+00
Ga   -7.2822176949971272E-03    1.8796685203936911E+00    7.8155322269065550E+00
N    5.0082478610686343E-03    7.7978831874813562E-03    8.3455895630204324E+00
Ga   -8.0257581481356609E-03    1.6508199000137955E-03    1.0403587994824422E+01
N   -2.5363261938999893E-02    1.8707029493378979E+00    1.0930961315163428E+01
Ga    2.5864911683918978E-02    1.8313633290292928E+00    1.3062461615446765E+01
N    2.0908496575677286E-02   -1.5693065170276056E-02    1.3503445057860674E+01
Ga   -1.6303525319472989E+00    2.7786821664718153E+00    2.3566553487178407E-01
N   -1.6346960329725322E+00    4.6871668089499448E+00    5.0462139806004513E-01
Ga   -1.6628530827520780E+00    4.6772598313540481E+00    2.6498110055359048E+00
N   -1.6220295813365295E+00    2.8020121232330859E+00    3.1515458608265092E+00
Ga   -1.6236491948372525E+00    2.8090699156908348E+00    5.2200744488211779E+00
N   -1.6250574710879913E+00    4.6844485607050608E+00    5.7510659499369234E+00
Ga   -1.6380702238658016E+00    4.6952141585109741E+00    7.8096266415582409E+00
N   -1.6181800759993790E+00    2.8265681699121386E+00    8.3646536029590663E+00
Ga   -1.6377828871712439E+00    2.8168144980647920E+00    1.0426761161513788E+01
N   -1.6486233729524391E+00    4.6893951173294841E+00    1.0953704140764543E+01
Ga   -1.6285704773106726E+00    4.6724125942024974E+00    1.3076521464936945E+01
N   -1.5906960766137657E+00    2.7911982377111704E+00    1.3346919517413465E+01
Ga   -3.3218682067551089E+00    5.6381935129561498E+00    4.4237650014155507E-02
N   -3.2372519005207097E+00    7.4998444692557111E+00    5.4099991726219043E-01
Ga   -3.2097164390787460E+00    7.4829064096500968E+00    2.5768949857764207E+00
N   -3.2582204345263905E+00    5.6238201956684994E+00    3.1795423067028921E+00
Ga   -3.2539509567800255E+00    5.6228423973339758E+00    5.2209683248285881E+00
N   -3.2454815728615225E+00    7.4906994050824638E+00    5.7923302685220968E+00
Ga   -3.2496635148083075E+00    7.5056441759885058E+00    7.8342912840777617E+00
N   -3.2509642365631568E+00    5.6297252188518820E+00    8.3763340021338610E+00
Ga   -3.2623039303537431E+00    5.6312704727708365E+00    1.0428944232149988E+01
N   -3.2646227991445480E+00    7.5159080413868145E+00    1.0949772054681818E+01
Ga   -3.2280165546185899E+00    7.4468001782598643E+00    1.3084966176972026E+01
N   -3.2330159503368203E+00    5.5986124900943421E+00    1.3498714246598235E+01
Ga   -4.8761767237280154E+00    8.4086203988152999E+00    3.1575292316744041E-01
N   -4.8673528017696084E+00    1.0324794496135079E+01    5.0388121360758331E-01
Ga   -4.8813181708044056E+00    1.0295469384626751E+01    2.7440605071669228E+00
N   -4.8586831684548359E+00    8.4092735185832233E+00    3.1725876000621005E+00
Ga   -4.8632562879648598E+00    8.4124650504922691E+00    5.2385260261179267E+00
N   -4.8648856772505225E+00    1.0306663790530607E+01    5.7404068125232346E+00
Ga   -4.8666608488554290E+00    1.0301309953754940E+01    7.8119302207064489E+00
N   -4.8748407871985071E+00    8.4436276561138417E+00    8.3696684218628086E+00
Ga   -4.8855408380242675E+00    8.4464615020144631E+00    1.0421260830897548E+01
N   -4.8767276594412783E+00    1.0315893232882443E+01    1.0937545497125338E+01
Ga   -4.8653376917204882E+00    1.0298137176158285E+01    1.3078216213418996E+01
N   -4.8606988399599098E+00    8.4136840845915000E+00    1.3329133008730999E+01
Ga    3.2709260084168639E+00    2.8444526115784720E-02    3.0828700395875092E-01
N    3.2361475063163567E+00    1.9066615476889908E+00    5.3464749609513695E-01
Ga    3.2112804870079072E+00    1.9109083634244546E+00    2.6125717409330362E+00
N    3.2429063271248268E+00    1.8610602508588942E-02    3.1548080142687254E+00
Ga    3.2539865157835255E+00    1.0537977077817810E-02    5.2315094129639510E+00
N    3.2454585097956983E+00    1.8752693805030094E+00    5.7746833937024675E+00
Ga    3.2379536804628155E+00    1.8755571746702357E+00    7.8426237960518534E+00
N    3.2391784447434353E+00   -4.5785362655148456E-03    8.3590948807544230E+00
Ga    3.2445341604291924E+00   -1.0313647254978381E-02    1.0432838296463085E+01
N    3.2126975830073428E+00    1.8747673143264845E+00    1.0908666827205298E+01
Ga    3.2655129806924426E+00    1.8428215236416310E+00    1.3017711374263090E+01
N    3.2722325026082801E+00   -2.7066491951738963E-02    1.3381636690313885E+01
Ga    1.6781730356378952E+00    2.9092085224283948E+00   -6.5089512600035149E-01
N    1.5978950177097770E+00    4.7013823355656346E+00    5.6786962409405761E-01
Ga    1.6121274266426628E+00    4.6722949697351543E+00    2.6212900887188306E+00
N    1.6193235457973190E+00    2.8293640418951078E+00    3.1977998419778801E+00
Ga    1.6222791284910101E+00    2.8166681606699813E+00    5.2314605097331226E+00
N    1.6140366536176272E+00    4.6889671163537399E+00    5.7766955761664978E+00
Ga    1.6123813614127009E+00    4.6952054816570836E+00    7.8389267284838589E+00
N    1.6063289992289875E+00    2.8115467557871408E+00    8.3642308304213095E+00
Ga    1.5922445489070969E+00    2.8269718250732465E+00    1.0446421378475291E+01
N    1.6257721784346892E+00    4.7004109294944794E+00    1.0939000475351344E+01
Ga    1.6563884697306965E+00    4.6636813672561255E+00    1.3064441386739986E+01
N    1.6396966109402729E+00    2.7856267025702999E+00    1.3314065119302898E+01
Ga   -1.3809888236729332E-02    5.6669374926577838E+00    3.0698888140216996E-01
N   -3.7418474561850129E-02    7.5246758383358809E+00    5.4489801579812647E-01
Ga   -4.3392259753039925E-02    7.5167705264124969E+00    2.6167292381804304E+00
N   -1.8811129759661250E-02    5.6233616821138570E+00    3.1372766979024682E+00
Ga   -6.4632600527110284E-03    5.6250952238225960E+00    5.2232935446403381E+00
N    3.9503834614709431E-03    7.4949369321663744E+00    5.7758305157468568E+00
Ga    9.4433794277065745E-05    7.5034551970771526E+00    7.8477633072952999E+00
N   -2.0836023187914440E-02    5.6220075041549755E+00    8.3712312716253425E+00
Ga   -7.7487036087825790E-03    5.6053508149668057E+00    1.0442469237345469E+01
N   -9.2928985467209645E-03    7.4930594795498626E+00    1.0927732068509727E+01
Ga    2.5212074194593311E-02    7.4784466507615877E+00    1.3015256618156382E+01
N    1.6043729944446257E-02    5.5992262257362464E+00    1.3321399718552506E+01
Ga   -1.6542696762418876E+00    8.4560577686045040E+00   -6.4720104429021341E-01
N   -1.6294213657284429E+00    1.0293188452942472E+01    5.7443760702518698E-01
Ga   -1.6307907637528545E+00    1.0270762184032812E+01    2.6328764196340626E+00
N   -1.6302988186861571E+00    8.4287160242813410E+00    3.2211583738099336E+00
Ga   -1.6277537203967127E+00    8.4285301527749876E+00    5.2488150590303153E+00
N   -1.6271807780209200E+00    1.0310636291151551E+01    5.7771224412684816E+00
Ga   -1.6270671059682611E+00    1.0303360214933239E+01    7.8343281816195596E+00
N   -1.6235446512692679E+00    8.4365568478209312E+00    8.3784409812291738E+00
Ga   -1.6310614806397608E+00    8.4516820321364108E+00    1.0458247943105036E+01
N   -1.6195640547665553E+00    1.0326003499879974E+01    1.0951970594698722E+01
Ga   -1.5919212069820163E+00    1.0286621903419883E+01    1.3084196624587525E+01
N   -1.5948999213574884E+00    8.4090449322518488E+00    1.3329088590607006E+01
Ga    6.4881241130085314E+00   -3.2291310348062777E-02    3.0729715041584094E-01
N    6.5206339029888936E+00    1.8801612675065678E+00    5.0594650076729908E-01
Ga    6.5063982714785258E+00    1.8825638405628222E+00    2.7264564204486357E+00
N    6.4901762640749627E+00   -7.2226514564739958E-03    3.1770462393793264E+00
Ga    6.4925665679271782E+00   -6.7876313119349056E-03    5.2543018885395103E+00
N    6.4915042276775763E+00    1.8773580112402621E+00    5.7600191048453526E+00
Ga    6.4744539969640824E+00    1.8781749648999042E+00    7.8230920838184979E+00
N    6.4858461682956676E+00    5.8852312578306131E-03    8.3454326887896091E+00
Ga    6.4911364472307964E+00   -1.7744301076360713E-02    1.0387878946126005E+01
N    6.4825592074131082E+00    1.8487329153093779E+00    1.0903619149155439E+01
Ga    6.5074774695573794E+00    1.8294145348385222E+00    1.3013746411280586E+01
N    6.5137225164552497E+00   -1.9535311281689553E-02    1.3470813542828443E+01
Ga    4.8642061591384333E+00    2.8311554408839927E+00    3.2233284515674948E-01
N    4.8988544941083072E+00    4.7109992749817060E+00    5.7101636643189113E-01
Ga    4.9106788640427101E+00    4.7188464079361463E+00    2.6193065925162786E+00
N    4.8664068080814973E+00    2.8240254047990296E+00    3.1574606466572051E+00
Ga    4.8622174924365229E+00    2.8175602909987618E+00    5.2416369027546459E+00
N    4.8667882947476713E+00    4.6829447923370706E+00    5.7993936829447605E+00
Ga    4.8655097290435823E+00    4.6911983418190690E+00    7.8508468868427670E+00
N    4.8566448653753511E+00    2.8145676553608210E+00    8.3812160156107485E+00
Ga    4.8591890577742536E+00    2.8101200046630339E+00    1.0440218565213586E+01
N    4.8402962395990174E+00    4.6902948944096616E+00    1.0949555235654001E+01
Ga    4.8642647246598303E+00    4.6679291015616737E+00    1.3077154724752090E+01
N    4.8957835886043117E+00    2.7848601828000756E+00    1.3312576616332942E+01
Ga    3.2373996267306535E+00    5.5974041829577033E+00    4.2734241342909118E-01
N    3.2677015674453918E+00    7.5094188142078755E+00    4.9949717927725940E-01
Ga    3.2424892442862321E+00    7.4874171659494237E+00    2.7321120711031281E+00
N    3.2471748315967934E+00    5.6081003715063504E+00    3.1855694292460894E+00
Ga    3.2455308027344159E+00    5.6146083413442236E+00    5.2540320409887586E+00
N    3.2464515662857361E+00    7.4963237835158569E+00    5.7820969524398080E+00
Ga    3.2430992115155162E+00    7.5027414052435368E+00    7.8459054025889010E+00
N    3.2373677626016937E+00    5.6270012423715885E+00    8.3797923157725513E+00
Ga    3.2378528652384175E+00    5.6376529166822014E+00    1.0439727887348699E+01
N    3.2349056011469450E+00    7.5084298892572532E+00    1.0976008238437640E+01
Ga    3.2779698292944941E+00    7.4562905006038891E+00    1.3129071316188856E+01
N    3.2630785930404245E+00    5.5978973243229371E+00    1.3500994267030313E+01
Ga    1.5863202259052331E+00    8.4583899764248880E+00    3.0552451136798059E-01
N    1.6413026052913655E+00    1.0318203002289499E+01    5.8585769757165218E-01
Ga    1.6586271967250348E+00    1.0331031857359184E+01    2.6370295832568016E+00
N    1.6158825043114287E+00    8.4360293903012433E+00    3.1559913353639248E+00
Ga    1.6181911848784218E+00    8.4331995352700240E+00    5.2466495562332112E+00
N    1.6219724405181126E+00    1.0301964899492830E+01    5.7866314664543230E+00
Ga    1.6241673959452176E+00    1.0304382805427252E+01    7.8448959192316856E+00
N    1.6189376673696174E+00    8.4322449695886519E+00    8.3819356531358515E+00
Ga    1.6269062971509025E+00    8.4571726093060171E+00    1.0452040259707468E+01
N    1.6152002865445145E+00    1.0324154836661863E+01    1.0926261613878555E+01
Ga    1.6376643031288192E+00    1.0295893709063240E+01    1.3048326901652514E+01
N    1.6451206367100171E+00    8.4175705309691011E+00    1.3330150958481180E+01
Ga    9.7437079117597012E+00   -3.7509260332706330E-02   -6.0295094764798918E-01
N    9.7409801594228540E+00    1.8277342690379246E+00    5.3882170464484691E-01
Ga    9.7413903424058095E+00    1.8388487213061617E+00    2.5896469690409885E+00
N    9.7359934511575386E+00    5.5225001933718728E-03    3.2310403143543178E+00
Ga    9.7357486150829029E+00    4.4531064027874328E-03    5.2511653025415015E+00
N    9.7419620787231551E+00    1.8787696342223636E+00    5.7896239782857970E+00
Ga    9.7338513608033477E+00    1.8824147799632371E+00    7.8450753041086596E+00
N    9.7398551398277817E+00    6.5538912988252519E-03    8.3668785859775259E+00
Ga    9.7431194183666658E+00    3.6651064855775474E-03    1.0437319134581729E+01
N    9.7232562802406743E+00    1.8796926296018948E+00    1.0923529233024261E+01
Ga    9.7676736563084958E+00    1.8597051174868982E+00    1.3027583562842727E+01
N    9.7616390352841833E+00   -9.3084871032293008E-03    1.3351174576021982E+01
Ga    8.1625893733342494E+00    2.8380214477818848E+00    2.5184563689309680E-01
N    8.0829519053217620E+00    4.6898813313284489E+00    5.6714090068610712E-01
Ga    8.0988848843395100E+00    4.7074030499226129E+00    2.5634842932267983E+00
N    8.1338565374722673E+00    2.8186606940357364E+00    3.1759754064234049E+00
Ga    8.1280038156142069E+00    2.8188248228170338E+00    5.2314659389825051E+00
N    8.1215132661913092E+00    4.6796616331596477E+00    5.7964716584135685E+00
Ga    8.1068664587085149E+00    4.6906182191631975E+00    7.8347397671692542E+00
N    8.0968975573674342E+00    2.8108978972589451E+00    8.3646486818803876E+00
Ga    8.1061682266220760E+00    2.8109982971060288E+00    1.0427837002292453E+01
N    8.0880416353391258E+00    4.6860684815813327E+00    1.0931272787208480E+01
Ga    8.1522452891704127E+00    4.6715990594331460E+00    1.3053162048092954E+01
N    8.1288022924756156E+00    2.7900470487798472E+00    1.3274620597799219E+01
Ga    6.4865412044202149E+00    5.6327846991375132E+00   -7.7653497850412634E-01
N    6.5022755202938232E+00    7.4686078413069286E+00    6.0404913412607919E-01
Ga    6.5017400943397075E+00    7.4400987538168062E+00    2.6151268029808756E+00
N    6.5017990400786312E+00    5.6070011486918236E+00    3.2432079304855206E+00
Ga    6.5005582724235689E+00    5.6109954741831061E+00    5.2599522951448812E+00
N    6.4942981328268283E+00    7.4895491468056026E+00    5.8044281505654327E+00
Ga    6.4852120979973513E+00    7.4990552304345517E+00    7.8602325465358298E+00
N    6.4894244429517745E+00    5.6226756530600843E+00    8.3900013994762137E+00
Ga    6.4682978655122474E+00    5.6354297167494503E+00    1.0455603975487501E+01
N    6.4851397181662449E+00    7.5027461623524170E+00    1.0947022573405711E+01
Ga    6.5015540836319410E+00    7.4852061390238775E+00    1.3040515962782905E+01
N    6.5114359571302023E+00    5.6073615934380081E+00    1.3285283016428838E+01
Ga    4.9396464755712444E+00    8.4561175475711394E+00    3.2765081935162826E-01
N    4.8333743716688700E+00    1.0324785181368785E+01    5.8361633196757590E-01
Ga    4.8344031241954060E+00    1.0330640443879251E+01    2.6335349755042619E+00
N    4.8706067531390582E+00    8.4276286505211822E+00    3.1750656732069293E+00
Ga    4.8820614033643297E+00    8.4254188998304524E+00    5.2440317408402946E+00
N    4.8722626848764810E+00    1.0302921624610942E+01    5.7702736888505441E+00
Ga    4.8649488859938623E+00    1.0303569489401447E+01    7.8289192512678660E+00
N    4.8605730214531331E+00    8.4386805373575609E+00    8.3913919583172074E+00
Ga    4.8693672950098232E+00    8.4407783540290922E+00    1.0460465700481148E+01
N    4.8818438034075777E+00    1.0310702672294630E+01    1.0944103647673344E+01
Ga    4.9007977569639749E+00    1.0297572264662513E+01    1.3070085434858678E+01
N    4.8921978665260806E+00    8.4230933685833005E+00    1.3371754225007804E+01
     &END COORD
     &KIND N
       BASIS_SET DZVP-MOLOPT-SR-GTH
       POTENTIAL GTH-PBE-q5
       &POTENTIAL
 2 3
  0.2837905100000000E+00 2 -0.1241522559000000E+02  0.1868095920000000E+01
 2
  0.2554050000000000E+00 1  0.1363026257000000E+02
  0.2454945300000000E+00 0
         # Potential name:  GTH-PBE-Q5  for symbol:  N
         # Potential read from the potential filename: GTH_POTENTIALS
       &END POTENTIAL
     &END KIND
     &KIND Ga
       BASIS_SET DZVP-MOLOPT-SR-GTH
       POTENTIAL GTH-PBE-q13
       &POTENTIAL
 2 1 10
  0.4900000000000000E+00 0
 3
  0.4167772300000000E+00 3  0.1047568975000000E+02 -0.4921768140000000E+01  0.8707055900000000E+00
  0.7770178090000000E+01 -0.2248152160000000E+01
  0.1784415450000000E+01
  0.5696265200000000E+00 2  0.1777985340000000E+01  0.1958597600000000E+00
 -0.2317443900000000E+00
  0.2381265000000000E+00 1 -0.1624868022000000E+02
         # Potential name:  GTH-PBE-Q13  for symbol:  GA
         # Potential read from the potential filename: GTH_POTENTIALS
       &END POTENTIAL
     &END KIND
     &TOPOLOGY
       COORD_FILE_NAME start.xyz
       COORD_FILE_FORMAT  XYZ
       NUMBER_OF_ATOMS  192
       MULTIPLE_UNIT_CELL  1 1 1
     &END TOPOLOGY
   &END SUBSYS
 &END FORCE_EVAL
