 # Version information for this restart file 
 # current date 2019-05-24 18:08:09.811
 # current working dir /lustre03/project/6004141/rzk/GaN-carbene/00-Surface/00-Preoptimization/443-native
 # Program compiled at                              Sun Apr  7 00:48:11 EDT 2019
 # Program compiled on                          beluga2.int.ets1.calculquebec.ca
 # Program compiled for                        Beluga-Linux-x86-64-intel-openmpi
 # Source code revision number                                         svn:18619
 &GLOBAL
   PRINT_LEVEL  MEDIUM
   PROJECT_NAME TEST
   RUN_TYPE  GEO_OPT
 &END GLOBAL
 &MOTION
   &GEO_OPT
     MAX_ITER  500
     STEP_START_VAL  18
   &END GEO_OPT
 &END MOTION
 &FORCE_EVAL
   METHOD  QS
   STRESS_TENSOR  ANALYTICAL
   &DFT
     BASIS_SET_FILE_NAME BASIS_MOLOPT
     POTENTIAL_FILE_NAME GTH_POTENTIALS
     &SCF
       MAX_SCF  100
       EPS_SCF     5.0000000000000004E-06
       &OT  T
         PRECONDITIONER  FULL_ALL
       &END OT
       &OUTER_SCF  T
         OPTIMIZER  NONE
         EPS_SCF     5.0000000000000004E-06
         MAX_SCF  4
       &END OUTER_SCF
       &PRINT
         &RESTART  OFF
           BACKUP_COPIES  1
           &EACH
             JUST_ENERGY  0
             QS_SCF  0
             MD  20
           &END EACH
         &END RESTART
       &END PRINT
     &END SCF
     &QS
       EPS_DEFAULT     1.0000000000000000E-14
       METHOD  GPW
     &END QS
     &MGRID
       NGRIDS  5
       CUTOFF     1.2000000000000000E+03
     &END MGRID
     &XC
       DENSITY_CUTOFF     1.0000000000000000E-10
       GRADIENT_CUTOFF     1.0000000000000000E-10
       TAU_CUTOFF     1.0000000000000000E-10
       &XC_FUNCTIONAL  NO_SHORTCUT
         &PBE  T
         &END PBE
       &END XC_FUNCTIONAL
       &VDW_POTENTIAL
         POTENTIAL_TYPE  PAIR_POTENTIAL
         &PAIR_POTENTIAL
           R_CUTOFF     1.0000000000000002E+01
           TYPE  DFTD3
           PARAMETER_FILE_NAME dftd3.dat
           REFERENCE_FUNCTIONAL PBE
           EPS_CN     9.9999999999999995E-07
           CALCULATE_C9_TERM  T
           REFERENCE_C9_TERM  T
           LONG_RANGE_CORRECTION  F
           VERBOSE_OUTPUT  F
         &END PAIR_POTENTIAL
       &END VDW_POTENTIAL
     &END XC
   &END DFT
   &SUBSYS
     &CELL
       A     1.2982353780853531E+01    0.0000000000000000E+00    0.0000000000000000E+00
       B    -6.4911768904267628E+00    1.1243048175136114E+01    0.0000000000000000E+00
       C     0.0000000000000000E+00    0.0000000000000000E+00    2.9000000000000000E+01
       MULTIPLE_UNIT_CELL  1 1 1
     &END CELL
     &COORD
Ga   -2.8555254392226930E-02    3.4950481674376428E-02    3.2698326508195708E-01
N    1.4112201597797554E-02    1.9036498874616055E+00    5.4075004392757642E-01
Ga    3.4080099714186032E-02    1.9217820146395013E+00    2.6057397800831450E+00
N   -7.1119058794761837E-03    2.1585700406571456E-02    3.1563946264111182E+00
Ga   -8.0035401361619636E-03    1.3543202578830115E-02    5.2342805848502731E+00
N   -2.1954395321193533E-03    1.8832706062522089E+00    5.7800334086137717E+00
Ga   -1.4792841928297383E-03    1.8849944129999479E+00    7.8291985431746864E+00
N    1.9552121230617357E-03    4.0098696486601127E-03    8.3619244809291509E+00
Ga    6.9155211343640036E-04    8.0285375019025114E-03    1.0410431901234338E+01
N   -1.0347764268994045E-02    1.8712140023824761E+00    1.0947363120671127E+01
Ga   -3.3725850752853283E-03    1.8503969567237788E+00    1.3054741306089507E+01
N    8.2661594241406153E-03   -9.5644491731776277E-03    1.3457631785765672E+01
Ga   -1.6297582005459708E+00    2.8094722245063593E+00    2.7193933183610042E-01
N   -1.6364869901014740E+00    4.7099325642933270E+00    5.1607206237916914E-01
Ga   -1.6514718361370393E+00    4.7021196983038349E+00    2.6266183905409815E+00
N   -1.6228091791730423E+00    2.8143632881172467E+00    3.1560363902844055E+00
Ga   -1.6237944337368768E+00    2.8170748454503172E+00    5.2172989107540682E+00
N   -1.6164964827677830E+00    4.6886656281404893E+00    5.7718263248845858E+00
Ga   -1.6178823241087317E+00    4.6902985552688028E+00    7.8185802636380197E+00
N   -1.6250051253576483E+00    2.8191408722598821E+00    8.3827985098873743E+00
Ga   -1.6197003111710071E+00    2.8184826518905433E+00    1.0435411512746693E+01
N   -1.6400481675865781E+00    4.6894233624761998E+00    1.0971674102483338E+01
Ga   -1.6267902208748304E+00    4.6698071444212914E+00    1.3090723627568741E+01
N   -1.6151378953109297E+00    2.7909014058573267E+00    1.3416012538593908E+01
Ga   -3.2989394727648573E+00    5.6742323818219083E+00   -2.0857231287132300E-01
N   -3.2321096362859274E+00    7.5013986116636948E+00    5.6827731253453362E-01
Ga   -3.2091315829386247E+00    7.4766983133106164E+00    2.5722446761426450E+00
N   -3.2536311614938906E+00    5.6267124477922819E+00    3.2031581288357351E+00
Ga   -3.2477006434400848E+00    5.6239557933092676E+00    5.2288607864015146E+00
N   -3.2453498389116682E+00    7.4941444830861919E+00    5.8012105748256468E+00
Ga   -3.2416103919829364E+00    7.4946803922700838E+00    7.8361289518073960E+00
N   -3.2418319545953977E+00    5.6223503109085406E+00    8.3827788758138322E+00
Ga   -3.2472834586338117E+00    5.6286451621105105E+00    1.0428942908895216E+01
N   -3.2486370503004891E+00    7.5015916489098737E+00    1.0955125368211450E+01
Ga   -3.2435878905928370E+00    7.4722084250775866E+00    1.3070691182082559E+01
N   -3.2424954924437648E+00    5.6083199292071999E+00    1.3458241069933177E+01
Ga   -4.8547962362445825E+00    8.4007826678820390E+00    3.0970280643933129E-01
N   -4.8667473374859256E+00    1.0314857387142309E+01    5.1996515643035024E-01
Ga   -4.8750681306075574E+00    1.0297708387327182E+01    2.7309371004370164E+00
N   -4.8604022534251898E+00    8.4157577952499576E+00    3.1730233715582843E+00
Ga   -4.8628345266129234E+00    8.4194407757697416E+00    5.2363840593286168E+00
N   -4.8692741893541438E+00    1.0307097955050226E+01    5.7603539354734119E+00
Ga   -4.8689986735322925E+00    1.0308986167897677E+01    7.8210446195667096E+00
N   -4.8676622769785514E+00    8.4352682872590083E+00    8.3827606636269945E+00
Ga   -4.8708630639107922E+00    8.4414864809987886E+00    1.0438280224008057E+01
N   -4.8910122551559976E+00    1.0313302300363127E+01    1.0966020014792640E+01
Ga   -4.8659189811652039E+00    1.0301754110064673E+01    1.3089006546415508E+01
N   -4.8581931364255677E+00    8.4199239152518466E+00    1.3390667735218676E+01
Ga    3.2752028183414055E+00    1.5395247436228315E-02    3.0753203393327699E-01
N    3.2339349543752443E+00    1.8757692195170557E+00    5.6475741944361768E-01
Ga    3.2144000927073288E+00    1.8905721958406252E+00    2.6192740180653913E+00
N    3.2492930360374230E+00   -3.5604041965014602E-03    3.1708846799479602E+00
Ga    3.2540467806187108E+00    5.4526276705730769E-03    5.2351821937085887E+00
N    3.2394225800455123E+00    1.8734006451962895E+00    5.7948087846084535E+00
Ga    3.2400347840768604E+00    1.8747219722127784E+00    7.8406286177590960E+00
N    3.2412245318173349E+00   -2.6016834894903355E-03    8.3943706298064598E+00
Ga    3.2337761326135368E+00   -4.8917994041941457E-03    1.0456701833348275E+01
N    3.2421609039171311E+00    1.8801689088036706E+00    1.0947700076625480E+01
Ga    3.2623390464265674E+00    1.8520239492023569E+00    1.3050327401625696E+01
N    3.2551245478293134E+00   -1.4803620800727876E-02    1.3403626671084290E+01
Ga    1.6489355450469974E+00    2.8713227498925060E+00   -6.3506324818369875E-01
N    1.6837818866212177E+00    4.7036164054039178E+00    5.1171167717432753E-01
Ga    1.6668697805457304E+00    4.6751614068581278E+00    2.5375832531312676E+00
N    1.6317179150425345E+00    2.8325395488426395E+00    3.2065347639053523E+00
Ga    1.6222705475228993E+00    2.8244148326722680E+00    5.2286200063553654E+00
N    1.6184664176108217E+00    4.6895239807584002E+00    5.7959761821977205E+00
Ga    1.6179284229818305E+00    4.6901408659767583E+00    7.8301786115559313E+00
N    1.6226459046398496E+00    2.8187422998339531E+00    8.3879306910189495E+00
Ga    1.6128557922780580E+00    2.8126064487475677E+00    1.0441246264444421E+01
N    1.6182796265214816E+00    4.6924600369737206E+00    1.0960333789070134E+01
Ga    1.6390771547637086E+00    4.6859775838374400E+00    1.3067588118677211E+01
N    1.6335560408286314E+00    2.7954112073805604E+00    1.3318864306616884E+01
Ga    4.2951009356197743E-02    5.6175269345140997E+00    2.7446162033432253E-01
N   -2.4718406084252503E-02    7.4960658673065232E+00    5.4369659814746096E-01
Ga   -3.1384635347262449E-02    7.5025362210273103E+00    2.6005568460373958E+00
N    7.6124351584349872E-03    5.6107915086560149E+00    3.1393056733581033E+00
Ga    8.6003016479196254E-03    5.6175073891205685E+00    5.1973199763840991E+00
N    2.8745303288379570E-03    7.4871134118793874E+00    5.7828106181202665E+00
Ga    2.7710397346404764E-03    7.4897878910282767E+00    7.8297363648554157E+00
N   -2.3220663841546662E-03    5.6208108934726351E+00    8.3928067733784992E+00
Ga   -1.1495726305050549E-02    5.6182294720306469E+00    1.0443503528605156E+01
N    4.5029498708394327E-03    7.4940980337715830E+00    1.0947794288533338E+01
Ga    5.6343244503769064E-03    7.4798461738787170E+00    1.3039852579714211E+01
N    5.0183876675563253E-03    5.6080572048434814E+00    1.3372465726275450E+01
Ga   -1.6463320888647788E+00    8.3819517145929900E+00   -5.8370929224863632E-01
N   -1.6307571190463617E+00    1.0271827608013444E+01    5.5730992967556225E-01
Ga   -1.6227404682853912E+00    1.0255427060399814E+01    2.6167981632008779E+00
N   -1.6259130494190781E+00    8.4193863075368593E+00    3.2195697238328904E+00
Ga   -1.6235686288670887E+00    8.4218355942437952E+00    5.2339169833937813E+00
N   -1.6238457754004103E+00    1.0301907623917188E+01    5.7877168458968438E+00
Ga   -1.6244211626094405E+00    1.0305533292363597E+01    7.8328885135926889E+00
N   -1.6187182865441143E+00    8.4336734203574135E+00    8.3900204046357736E+00
Ga   -1.6218769242652822E+00    8.4377493812525444E+00    1.0445901896309829E+01
N   -1.6166561098459562E+00    1.0317408648619587E+01    1.0962307177207471E+01
Ga   -1.6072691500253187E+00    1.0303620800416533E+01    1.3080434630931789E+01
N   -1.6188188596846882E+00    8.4161521891816626E+00    1.3354754711084018E+01
Ga    6.4852136667976454E+00   -4.1133511555416800E-02    3.0442935606825722E-01
N    6.5088758489489518E+00    1.8660845822417464E+00    5.1701939603400415E-01
Ga    6.4907902093648771E+00    1.8707480935286123E+00    2.7289471876963391E+00
N    6.4960902887838046E+00   -1.8602597004834916E-02    3.1696087896727971E+00
Ga    6.4931525240984582E+00   -1.2327100150957603E-02    5.2350222944613058E+00
N    6.4964391254769431E+00    1.8725425581106196E+00    5.7667532840132605E+00
Ga    6.4955966976410906E+00    1.8768658260203368E+00    7.8241705897580669E+00
N    6.4924118249402802E+00    1.5661849241054618E-03    8.3708659761409585E+00
Ga    6.4873949369408006E+00    9.9374371937060117E-03    1.0419402708561298E+01
N    6.4772658858263892E+00    1.8771775033714513E+00    1.0945390569629549E+01
Ga    6.4909038636371656E+00    1.8504287316162416E+00    1.3056135387255766E+01
N    6.5014365140444585E+00   -9.2223544824468068E-03    1.3455070486089790E+01
Ga    4.8510186282289052E+00    2.8142059786170810E+00    3.3115219766558496E-01
N    4.8908341073315711E+00    4.6760768456695061E+00    6.3491978820983019E-01
Ga    4.8795092458985820E+00    4.7097708434647920E+00    2.6372962744187629E+00
N    4.8579416769413779E+00    2.8075685621365638E+00    3.1903184475184054E+00
Ga    4.8598312836886430E+00    2.8122951554487337E+00    5.2426387812567024E+00
N    4.8642654039606157E+00    4.6833441554898902E+00    5.7978325380131945E+00
Ga    4.8620951261482368E+00    4.6884027593387305E+00    7.8311627415156737E+00
N    4.8702293035552291E+00    2.8118225765901927E+00    8.3753258984424139E+00
Ga    4.8630271646862298E+00    2.8135577701229497E+00    1.0423407379948880E+01
N    4.8526496962719401E+00    4.6831470131466837E+00    1.0960764203415557E+01
Ga    4.8626355663083514E+00    4.6724226845550803E+00    1.3077790937092017E+01
N    4.8766426970869237E+00    2.7912877480763583E+00    1.3398245212357628E+01
Ga    3.3209558070245864E+00    5.5953504744207772E+00   -1.5940777671711270E-01
N    3.2575420168006732E+00    7.4932595920333744E+00    5.3536706407798340E-01
Ga    3.2402984903035059E+00    7.4588118654560827E+00    2.6445350148383229E+00
N    3.2472498237055327E+00    5.6127571341302733E+00    3.2146029763426958E+00
Ga    3.2397437230272668E+00    5.6186671106986976E+00    5.2330491428869204E+00
N    3.2446992420961784E+00    7.4989770423713500E+00    5.7851645919006396E+00
Ga    3.2453374031492652E+00    7.4985289686348251E+00    7.8259377271116781E+00
N    3.2411009953888676E+00    5.6273556333178227E+00    8.3902194748729535E+00
Ga    3.2394607634364787E+00    5.6232203926929687E+00    1.0437950109417786E+01
N    3.2473363231368495E+00    7.4999630721587973E+00    1.0974628490178025E+01
Ga    3.2522112250252682E+00    7.4809213181171774E+00    1.3096081311890151E+01
N    3.2523716842526489E+00    5.6112889185231660E+00    1.3461120025641151E+01
Ga    1.5974461633008656E+00    8.4300805265464636E+00    2.9107238682325343E-01
N    1.6319177322917540E+00    1.0306052857846723E+01    5.5745563495624417E-01
Ga    1.6597565500196050E+00    1.0314175883683285E+01    2.6094102783075761E+00
N    1.6200240255367402E+00    8.4283075572867983E+00    3.1606007228745248E+00
Ga    1.6199007120177222E+00    8.4276693052279015E+00    5.2188145643620194E+00
N    1.6237200403986916E+00    1.0299575286907880E+01    5.7861959452103875E+00
Ga    1.6233381748704070E+00    1.0303750276403782E+01    7.8270195797943991E+00
N    1.6246802354061605E+00    8.4321746256041887E+00    8.3869745336857644E+00
Ga    1.6231790606864900E+00    8.4347537429607584E+00    1.0436653018313775E+01
N    1.6097424663786588E+00    1.0313700386778025E+01    1.0946301959652496E+01
Ga    1.6179535292168519E+00    1.0300150564028764E+01    1.3057271825004658E+01
N    1.6236473983613928E+00    8.4227510026785719E+00    1.3374204165175357E+01
Ga    9.7296383765172934E+00    2.7250791784954351E-03   -6.4093380724010307E-01
N    9.7271026553140310E+00    1.8671389825817521E+00    5.5015105796377195E-01
Ga    9.7412677613964078E+00    1.8448842507371852E+00    2.6037919126786297E+00
N    9.7363231787012090E+00    3.5740398127953304E-03    3.2198223826327230E+00
Ga    9.7340999172878337E+00    5.2604995468194474E-03    5.2391546844443830E+00
N    9.7393182814422055E+00    1.8812708482092806E+00    5.7835373223041548E+00
Ga    9.7367055672605147E+00    1.8820259662745620E+00    7.8327259997753851E+00
N    9.7350755229328101E+00    5.2616693044144659E-03    8.3814332175081496E+00
Ga    9.7302913025326969E+00    1.1140499068343483E-03    1.0438644818637975E+01
N    9.7304767414813238E+00    1.8834766318018155E+00    1.0950811546697183E+01
Ga    9.7531959018298569E+00    1.8588835850384851E+00    1.3059698453878863E+01
N    9.7450171503814236E+00   -2.0337973455531625E-02    1.3362742787436655E+01
Ga    8.1442858173010659E+00    2.8580687505449514E+00    3.0376060562210594E-01
N    8.0742826321142740E+00    4.7301482346831092E+00    5.4461079146075153E-01
Ga    8.1046163386930363E+00    4.7288737090150716E+00    2.5861758357438780E+00
N    8.1199880810707903E+00    2.8206740905878771E+00    3.1594173889214541E+00
Ga    8.1237027245431683E+00    2.8225410314490933E+00    5.2292437541802776E+00
N    8.1167283472551830E+00    4.6848399273381842E+00    5.8005681081202107E+00
Ga    8.1154484647756462E+00    4.6880359288669720E+00    7.8384156928151096E+00
N    8.1135086022203211E+00    2.8143265572895260E+00    8.3874132190205515E+00
Ga    8.1012163420925081E+00    2.8162441448019506E+00    1.0443847675830764E+01
N    8.1211294114322055E+00    4.6987492869531673E+00    1.0953987970449512E+01
Ga    8.1244951208302680E+00    4.6805467981168389E+00    1.3060409330288010E+01
N    8.1204060238354732E+00    2.7950826346097775E+00    1.3333369326396639E+01
Ga    6.4298646673852975E+00    5.6128340108084389E+00   -3.4219683583037958E-01
N    6.4812623390892012E+00    7.4788337229960389E+00    5.6466572789929093E-01
Ga    6.4869771122194289E+00    7.4635395515130041E+00    2.6551480470009703E+00
N    6.4965403886013933E+00    5.6210033120268115E+00    3.2345370936873588E+00
Ga    6.4923168289087965E+00    5.6179494365259224E+00    5.2495098748502622E+00
N    6.4880485764950917E+00    7.5003011463264553E+00    5.7918945802203199E+00
Ga    6.4872605459787902E+00    7.4987406925276234E+00    7.8371751849900262E+00
N    6.4869857465280871E+00    5.6216627944243447E+00    8.3895492351548846E+00
Ga    6.4854424561917625E+00    5.6163298369081032E+00    1.0443464832182254E+01
N    6.4903605684900629E+00    7.4968246539166117E+00    1.0947573534022661E+01
Ga    6.4992782110318377E+00    7.4882811778059848E+00    1.3052093653091518E+01
N    6.4923924909039030E+00    5.6092370494574499E+00    1.3360348218015272E+01
Ga    4.8811060136518805E+00    8.4569844941729198E+00    2.8604492688403593E-01
N    4.8578206783917119E+00    1.0317176068339021E+01    5.6899231864596023E-01
Ga    4.8354243003467463E+00    1.0317818918900679E+01    2.6185580972703506E+00
N    4.8599242828455882E+00    8.4310212050393396E+00    3.1731919423953290E+00
Ga    4.8650993799701769E+00    8.4350893497877557E+00    5.2294565264363371E+00
N    4.8688677888744829E+00    1.0308781779463610E+01    5.7824098762439586E+00
Ga    4.8674684697135788E+00    1.0309851994443580E+01    7.8294001631623455E+00
N    4.8654088073024218E+00    8.4389242496280303E+00    8.3909050292460137E+00
Ga    4.8637721968869219E+00    8.4456771232957557E+00    1.0446178250414533E+01
N    4.8719032423977922E+00    1.0327867436771117E+01    1.0949817848903823E+01
Ga    4.8889660919307110E+00    1.0299426882663221E+01    1.3059737990751447E+01
N    4.8796988336795719E+00    8.4235423249191470E+00    1.3386311331792427E+01
     &END COORD
     &KIND N
       BASIS_SET DZVP-MOLOPT-SR-GTH
       POTENTIAL GTH-PBE-q5
       &POTENTIAL
 2 3
  0.2837905100000000E+00 2 -0.1241522559000000E+02  0.1868095920000000E+01
 2
  0.2554050000000000E+00 1  0.1363026257000000E+02
  0.2454945300000000E+00 0
         # Potential name:  GTH-PBE-Q5  for symbol:  N
         # Potential read from the potential filename: GTH_POTENTIALS
       &END POTENTIAL
     &END KIND
     &KIND Ga
       BASIS_SET DZVP-MOLOPT-SR-GTH
       POTENTIAL GTH-PBE-q13
       &POTENTIAL
 2 1 10
  0.4900000000000000E+00 0
 3
  0.4167772300000000E+00 3  0.1047568975000000E+02 -0.4921768140000000E+01  0.8707055900000000E+00
  0.7770178090000000E+01 -0.2248152160000000E+01
  0.1784415450000000E+01
  0.5696265200000000E+00 2  0.1777985340000000E+01  0.1958597600000000E+00
 -0.2317443900000000E+00
  0.2381265000000000E+00 1 -0.1624868022000000E+02
         # Potential name:  GTH-PBE-Q13  for symbol:  GA
         # Potential read from the potential filename: GTH_POTENTIALS
       &END POTENTIAL
     &END KIND
     &TOPOLOGY
       COORD_FILE_NAME start.xyz
       COORD_FILE_FORMAT  XYZ
       NUMBER_OF_ATOMS  192
       MULTIPLE_UNIT_CELL  1 1 1
     &END TOPOLOGY
   &END SUBSYS
 &END FORCE_EVAL
