 # Version information for this restart file 
 # current date 2019-05-24 18:13:54.343
 # current working dir /lustre03/project/6004141/rzk/GaN-carbene/00-Surface/00-Preoptimization/443-native
 # Program compiled at                              Sun Apr  7 00:48:11 EDT 2019
 # Program compiled on                          beluga2.int.ets1.calculquebec.ca
 # Program compiled for                        Beluga-Linux-x86-64-intel-openmpi
 # Source code revision number                                         svn:18619
 &GLOBAL
   PRINT_LEVEL  MEDIUM
   PROJECT_NAME TEST
   RUN_TYPE  GEO_OPT
 &END GLOBAL
 &MOTION
   &GEO_OPT
     MAX_ITER  500
     STEP_START_VAL  19
   &END GEO_OPT
 &END MOTION
 &FORCE_EVAL
   METHOD  QS
   STRESS_TENSOR  ANALYTICAL
   &DFT
     BASIS_SET_FILE_NAME BASIS_MOLOPT
     POTENTIAL_FILE_NAME GTH_POTENTIALS
     &SCF
       MAX_SCF  100
       EPS_SCF     5.0000000000000004E-06
       &OT  T
         PRECONDITIONER  FULL_ALL
       &END OT
       &OUTER_SCF  T
         OPTIMIZER  NONE
         EPS_SCF     5.0000000000000004E-06
         MAX_SCF  4
       &END OUTER_SCF
       &PRINT
         &RESTART  OFF
           BACKUP_COPIES  1
           &EACH
             JUST_ENERGY  0
             QS_SCF  0
             MD  20
           &END EACH
         &END RESTART
       &END PRINT
     &END SCF
     &QS
       EPS_DEFAULT     1.0000000000000000E-14
       METHOD  GPW
     &END QS
     &MGRID
       NGRIDS  5
       CUTOFF     1.2000000000000000E+03
     &END MGRID
     &XC
       DENSITY_CUTOFF     1.0000000000000000E-10
       GRADIENT_CUTOFF     1.0000000000000000E-10
       TAU_CUTOFF     1.0000000000000000E-10
       &XC_FUNCTIONAL  NO_SHORTCUT
         &PBE  T
         &END PBE
       &END XC_FUNCTIONAL
       &VDW_POTENTIAL
         POTENTIAL_TYPE  PAIR_POTENTIAL
         &PAIR_POTENTIAL
           R_CUTOFF     1.0000000000000002E+01
           TYPE  DFTD3
           PARAMETER_FILE_NAME dftd3.dat
           REFERENCE_FUNCTIONAL PBE
           EPS_CN     9.9999999999999995E-07
           CALCULATE_C9_TERM  T
           REFERENCE_C9_TERM  T
           LONG_RANGE_CORRECTION  F
           VERBOSE_OUTPUT  F
         &END PAIR_POTENTIAL
       &END VDW_POTENTIAL
     &END XC
   &END DFT
   &SUBSYS
     &CELL
       A     1.2982353780853531E+01    0.0000000000000000E+00    0.0000000000000000E+00
       B    -6.4911768904267628E+00    1.1243048175136114E+01    0.0000000000000000E+00
       C     0.0000000000000000E+00    0.0000000000000000E+00    2.9000000000000000E+01
       MULTIPLE_UNIT_CELL  1 1 1
     &END CELL
     &COORD
Ga   -3.0166235670938360E-02    3.0858593409543587E-02    3.2216764547267196E-01
N    1.4735817274174374E-02    1.9018030799911014E+00    5.3499468901102398E-01
Ga    3.1136624926235357E-02    1.9212030579996018E+00    2.6009468293057734E+00
N   -7.5674556558244137E-03    2.2517146690440748E-02    3.1550545031161055E+00
Ga   -7.3710468317548091E-03    1.2469224793151006E-02    5.2352595162228823E+00
N   -1.4325169839194696E-03    1.8827626995050801E+00    5.7741324944685575E+00
Ga   -2.9383438538873453E-03    1.8826002791156162E+00    7.8226905486047533E+00
N    3.6818073127371275E-03    5.3617911507146433E-03    8.3602900004703837E+00
Ga   -2.8242513713933682E-03    4.1375703445759885E-03    1.0410573731920449E+01
N   -1.4381641218605194E-02    1.8718704434882196E+00    1.0943532744792567E+01
Ga    3.6646981345372144E-03    1.8459497881623779E+00    1.3055016122123543E+01
N    8.7624716336425421E-03   -9.8985146736866366E-03    1.3468619602949003E+01
Ga   -1.6307278350561152E+00    2.8042161342401681E+00    2.6171322568121341E-01
N   -1.6358057279053841E+00    4.7063160404516200E+00    5.1356509353013902E-01
Ga   -1.6540218764888863E+00    4.6967284840085268E+00    2.6287716081366010E+00
N   -1.6229629192529080E+00    2.8126386380620567E+00    3.1565270119014230E+00
Ga   -1.6235459144120774E+00    2.8159541348922108E+00    5.2172250349764511E+00
N   -1.6179458657886467E+00    4.6877607029281778E+00    5.7673174435596151E+00
Ga   -1.6235406145655424E+00    4.6910484283656313E+00    7.8147821398877149E+00
N   -1.6206482806680076E+00    2.8208770420008173E+00    8.3794420569970907E+00
Ga   -1.6273544915789262E+00    2.8174207999527097E+00    1.0432811352266659E+01
N   -1.6402136606321578E+00    4.6879500656724522E+00    1.0969539541723677E+01
Ga   -1.6283602936978525E+00    4.6708296228099755E+00    1.3088357434776070E+01
N   -1.6086862406104081E+00    2.7910540774357089E+00    1.3401400209624235E+01
Ga   -3.3047060600088130E+00    5.6673209646524896E+00   -1.6208542582416557E-01
N   -3.2334303009723309E+00    7.5010026176141142E+00    5.6276753262469059E-01
Ga   -3.2098438882053615E+00    7.4767464187429624E+00    2.5722274062699215E+00
N   -3.2538077125076268E+00    5.6253064226632876E+00    3.1989018997187086E+00
Ga   -3.2486006874889974E+00    5.6235654237995112E+00    5.2262722025509714E+00
N   -3.2455299604040877E+00    7.4930436006632046E+00    5.7994982060242002E+00
Ga   -3.2437483283948207E+00    7.4988726008871973E+00    7.8348622616577934E+00
N   -3.2440470851083645E+00    5.6249496212426235E+00    8.3830396611572624E+00
Ga   -3.2516050554468032E+00    5.6283997445441214E+00    1.0431399971826552E+01
N   -3.2526317894814771E+00    7.5075955565243362E+00    1.0956138611398622E+01
Ga   -3.2389039277085296E+00    7.4664242887816519E+00    1.3075399544328020E+01
N   -3.2399734393031236E+00    5.6061219015094839E+00    1.3467224461519045E+01
Ga   -4.8603710565416893E+00    8.4025180999090239E+00    3.0850725456957928E-01
N   -4.8675916137246533E+00    1.0317497396786614E+01    5.1754434109419234E-01
Ga   -4.8764288459737708E+00    1.0296564655681617E+01    2.7329739136814788E+00
N   -4.8602703762081294E+00    8.4139223815732311E+00    3.1738826883776716E+00
Ga   -4.8629474235156946E+00    8.4182300996360109E+00    5.2367785859407983E+00
N   -4.8679527670441551E+00    1.0307499111335902E+01    5.7569632282063461E+00
Ga   -4.8680184801288719E+00    1.0305696668450882E+01    7.8182664490743905E+00
N   -4.8701398698457981E+00    8.4369708998122572E+00    8.3793679907500405E+00
Ga   -4.8756264950402084E+00    8.4420217478740422E+00    1.0431807379169769E+01
N   -4.8860347634360703E+00    1.0313258135750928E+01    1.0962112347102757E+01
Ga   -4.8679070494196566E+00    1.0301242211908328E+01    1.3087992982805542E+01
N   -4.8616689332687022E+00    8.4180570383883637E+00    1.3375753294852792E+01
Ga    3.2743404991199392E+00    1.6000313509761350E-02    3.0595783300636598E-01
N    3.2352071373991742E+00    1.8812766930915483E+00    5.5867506058336736E-01
Ga    3.2136390000390804E+00    1.8961272534364693E+00    2.6180329937854343E+00
N    3.2478085276077850E+00    2.0843743364529093E-03    3.1679107025021391E+00
Ga    3.2540717603372973E+00    5.9705789339377811E-03    5.2333836905995028E+00
N    3.2405715128775285E+00    1.8728303925708285E+00    5.7912707952741735E+00
Ga    3.2408192276662819E+00    1.8741011612041700E+00    7.8399490896996653E+00
N    3.2399998440913533E+00   -3.3255378828938374E-03    8.3865598195308664E+00
Ga    3.2379050219810810E+00   -7.2073353048983197E-03    1.0449877685108310E+01
N    3.2340655393648712E+00    1.8784612957547917E+00    1.0940789481917236E+01
Ga    3.2628960226321699E+00    1.8527852029832057E+00    1.3045282615290121E+01
N    3.2598005203458125E+00   -1.7321378396294218E-02    1.3397769320891060E+01
Ga    1.6545850818210290E+00    2.8810139205112328E+00   -6.3190854045084677E-01
N    1.6698533985087411E+00    4.7057758426186336E+00    5.2204828290642680E-01
Ga    1.6579918468056296E+00    4.6762018766542131E+00    2.5504191920849340E+00
N    1.6284735004904456E+00    2.8333449585127299E+00    3.2037612862333766E+00
Ga    1.6230502921683772E+00    2.8228738565695983E+00    5.2269669210314351E+00
N    1.6171621872738291E+00    4.6890143022052593E+00    5.7931624548739649E+00
Ga    1.6175924412307228E+00    4.6920784295161688E+00    7.8320797309370098E+00
N    1.6182333512850966E+00    2.8157503540150750E+00    8.3840336178640236E+00
Ga    1.6078980203029796E+00    2.8184456872634893E+00    1.0442908409157624E+01
N    1.6235623584592236E+00    4.6954197282039623E+00    1.0958095264699249E+01
Ga    1.6424524205323721E+00    4.6801584831170802E+00    1.3067376693172843E+01
N    1.6323314996770493E+00    2.7939401077007937E+00    1.3320249712113334E+01
Ga    3.3248124651098353E-02    5.6259538771196906E+00    2.7762901624224184E-01
N   -2.7732697266388755E-02    7.5003106752821935E+00    5.4399836213636021E-01
Ga   -3.2785139539232219E-02    7.5035743327691273E+00    2.6028047234508813E+00
N    2.4652196811444237E-03    5.6115430755560185E+00    3.1380314729257273E+00
Ga    5.4112847872367599E-03    5.6184807580482579E+00    5.1999889928179668E+00
N    3.8522842745990736E-03    7.4882072389574459E+00    5.7808453899756911E+00
Ga    2.8736188908090724E-03    7.4936390610937327E+00    7.8316768817404707E+00
N   -7.7593351660076599E-03    5.6208447933469117E+00    8.3889461232711415E+00
Ga   -8.5163929702026641E-03    5.6138166666306297E+00    1.0443505572719348E+01
N    1.7272795169883202E-03    7.4925630383654314E+00    1.0945080274857462E+01
Ga    9.1488983499158245E-03    7.4807443830172646E+00    1.3035023449262400E+01
N    6.5524850456661838E-03    5.6069354013013202E+00    1.3362016113549052E+01
Ga   -1.6477443832585057E+00    8.3954435394681077E+00   -5.9125346483073082E-01
N   -1.6296361024707589E+00    1.0275953881672582E+01    5.6201629673898823E-01
Ga   -1.6251684523286367E+00    1.0257716306421450E+01    2.6207562789429830E+00
N   -1.6260183235885566E+00    8.4197527295857437E+00    3.2203722810585198E+00
Ga   -1.6245226226950167E+00    8.4234990840011150E+00    5.2370572183884319E+00
N   -1.6245662653449309E+00    1.0304594740560940E+01    5.7874375571948171E+00
Ga   -1.6243578513208732E+00    1.0304715303119147E+01    7.8344541626255078E+00
N   -1.6188839226448846E+00    8.4336076148962391E+00    8.3883156529076253E+00
Ga   -1.6227149601114657E+00    8.4429466317489510E+00    1.0447955980895729E+01
N   -1.6181106775662655E+00    1.0319777492113406E+01    1.0963060090987286E+01
Ga   -1.6032888726727255E+00    1.0298338741651776E+01    1.3081136339377052E+01
N   -1.6115791510698334E+00    8.4155696403596689E+00    1.3352315499901815E+01
Ga    6.4861670748471276E+00   -4.0099766824417439E-02    3.0264557165924644E-01
N    6.5116312614146956E+00    1.8678423493914327E+00    5.1573220604434944E-01
Ga    6.4942577535168473E+00    1.8742473137125928E+00    2.7279297304057999E+00
N    6.4946064505667120E+00   -1.6334530545596977E-02    3.1714066627741291E+00
Ga    6.4931750612018986E+00   -1.1439754213806174E-02    5.2383773502847113E+00
N    6.4955483758543471E+00    1.8732382485783250E+00    5.7656357545435393E+00
Ga    6.4897150205933301E+00    1.8767278753778498E+00    7.8226535722721575E+00
N    6.4909913689642380E+00    3.7641504520585173E-03    8.3657939200956939E+00
Ga    6.4876777903567788E+00    1.1070691012150030E-03    1.0411573538260926E+01
N    6.4814424778307727E+00    1.8685826547294970E+00    1.0937793139573712E+01
Ga    6.4942340015884641E+00    1.8464321088782967E+00    1.3048517314269583E+01
N    6.5034302359595593E+00   -1.1019657726481996E-02    1.3459258680845519E+01
Ga    4.8546770313022636E+00    2.8187010567607049E+00    3.2892134492778868E-01
N    4.8930638065116669E+00    4.6823322854012481E+00    6.2599592552770189E-01
Ga    4.8838958428335086E+00    4.7111565265671507E+00    2.6334183598096255E+00
N    4.8599402763145738E+00    2.8102971730607011E+00    3.1860030090694988E+00
Ga    4.8601808047618293E+00    2.8132667387875276E+00    5.2425469978588701E+00
N    4.8647361585220255E+00    4.6834302348549297E+00    5.7986325403937027E+00
Ga    4.8642930957466666E+00    4.6895800682717859E+00    7.8343900181659771E+00
N    4.8667985377851490E+00    2.8130719525149477E+00    8.3782331100422081E+00
Ga    4.8636791643362036E+00    2.8124686814002073E+00    1.0427769844089365E+01
N    4.8501171314272185E+00    4.6843838624724317E+00    1.0960620840704761E+01
Ga    4.8614590615824822E+00    4.6724187186329580E+00    1.3078179416635585E+01
N    4.8818075788288953E+00    2.7918179658557754E+00    1.3383622989776246E+01
Ga    3.3088048584122887E+00    5.5960362178752252E+00   -6.4631524805019505E-02
N    3.2589760293880845E+00    7.4961022934920170E+00    5.3027618669369769E-01
Ga    3.2407676331025939E+00    7.4618835588188466E+00    2.6591909200672608E+00
N    3.2472211718132655E+00    5.6109636848570617E+00    3.2110823160202315E+00
Ga    3.2407917290093113E+00    5.6180056429260867E+00    5.2361845540107481E+00
N    3.2448572416788908E+00    7.4979999914637574E+00    5.7864754090534909E+00
Ga    3.2453622723930438E+00    7.4999505782463780E+00    7.8304124005470088E+00
N    3.2415209106006517E+00    5.6271436678496478E+00    8.3892097944906361E+00
Ga    3.2412427663294094E+00    5.6294197207026135E+00    1.0438514188482079E+01
N    3.2431637483573801E+00    7.5053732863662175E+00    1.0976295873987549E+01
Ga    3.2588467944166246E+00    7.4761323798945671E+00    1.3101545645622664E+01
N    3.2535407167489652E+00    5.6104379357668943E+00    1.3468312587643807E+01
Ga    1.5951575839469245E+00    8.4350030097391837E+00    2.9165684459138003E-01
N    1.6333184450043221E+00    1.0307554092870904E+01    5.6271366484385965E-01
Ga    1.6600401920534509E+00    1.0317614688183154E+01    2.6142380881284843E+00
N    1.6195303187376062E+00    8.4299360733707349E+00    3.1593329662385736E+00
Ga    1.6203838861395159E+00    8.4288287141733598E+00    5.2228770477636450E+00
N    1.6229880306768072E+00    1.0299922012406693E+01    5.7876574965341856E+00
Ga    1.6229046081564387E+00    1.0303131233303866E+01    7.8313448275414830E+00
N    1.6232698435505148E+00    8.4312393201476628E+00    8.3859470882939373E+00
Ga    1.6232117854623846E+00    8.4417016496592989E+00    1.0437989906919611E+01
N    1.6107903565122867E+00    1.0316624620189419E+01    1.0944031798746119E+01
Ga    1.6218828228357183E+00    1.0298814993902356E+01    1.3055616246131670E+01
N    1.6283932578020712E+00    8.4208633625080420E+00    1.3364953271961490E+01
Ga    9.7320545218373518E+00   -4.3130658802322227E-03   -6.2848885876306171E-01
N    9.7299516211248562E+00    1.8602406104852338E+00    5.4826100769489206E-01
Ga    9.7424211612910963E+00    1.8440765793914025E+00    2.5997074120833363E+00
N    9.7361170446126852E+00    4.3736422248983210E-03    3.2217291394223575E+00
Ga    9.7338043543255850E+00    4.8861488762707694E-03    5.2402237834881493E+00
N    9.7398349099372368E+00    1.8810675313602330E+00    5.7862694304821369E+00
Ga    9.7367628481239556E+00    1.8825169358361047E+00    7.8367820448788503E+00
N    9.7359262673592344E+00    5.4070914371218241E-03    8.3794108229616349E+00
Ga    9.7335727976252429E+00    2.0118488573244555E-03    1.0438871802524837E+01
N    9.7278796003805272E+00    1.8817491540491957E+00    1.0949454899599946E+01
Ga    9.7555560398055512E+00    1.8602550175944015E+00    1.3054892773565326E+01
N    9.7481151103598851E+00   -1.6527017957584721E-02    1.3360926349065785E+01
Ga    8.1475031942547584E+00    2.8548074498623333E+00    2.9325586950684795E-01
N    8.0739236100287624E+00    4.7235295206219963E+00    5.5007380556604568E-01
Ga    8.1039665666996559E+00    4.7250471625047625E+00    2.5814345920893591E+00
N    8.1239746588622115E+00    2.8205857052623347E+00    3.1633231440734826E+00
Ga    8.1241205864982753E+00    2.8218254525686608E+00    5.2287849437155947E+00
N    8.1183089598430396E+00    4.6833678532839684E+00    5.7995128380615286E+00
Ga    8.1135773739386305E+00    4.6886496516068181E+00    7.8360680573895616E+00
N    8.1084874808325083E+00    2.8135005517513054E+00    8.3829385390326117E+00
Ga    8.1052226756909018E+00    2.8154565908352231E+00    1.0440250296314717E+01
N    8.1080269532323683E+00    4.6958331786823466E+00    1.0951084441130652E+01
Ga    8.1319939779584320E+00    4.6785649044538129E+00    1.3059356325692400E+01
N    8.1217597522315206E+00    2.7948824982647293E+00    1.3322549354189777E+01
Ga    6.4377932938289950E+00    5.6166281244653558E+00   -4.1742256668295019E-01
N    6.4864770100307716E+00    7.4757934176230210E+00    5.7394985680288202E-01
Ga    6.4893554483025104E+00    7.4586470610947027E+00    2.6480493214923251E+00
N    6.4968694666677482E+00    5.6170436995301820E+00    3.2369851346820067E+00
Ga    6.4943358150723984E+00    5.6161768553063540E+00    5.2513630870878263E+00
N    6.4893471190500787E+00    7.4976814822721289E+00    5.7959088788170252E+00
Ga    6.4868762559981841E+00    7.4988732730525278E+00    7.8421620011361712E+00
N    6.4888636100610375E+00    5.6219807521077891E+00    8.3902071477782592E+00
Ga    6.4791787254653173E+00    5.6238196760542065E+00    1.0444610601699804E+01
N    6.4900546502174077E+00    7.4987498616041002E+00    1.0952663902652544E+01
Ga    6.4978981589384253E+00    7.4871874020745652E+00    1.3051384601475178E+01
N    6.4971804589533928E+00    5.6090408991399485E+00    1.3342276088378838E+01
Ga    4.8934163940821263E+00    8.4551390184138242E+00    2.9415261942087378E-01
N    4.8531624249301997E+00    1.0318728795378572E+01    5.7237034617649307E-01
Ga    4.8352535251603141E+00    1.0320957165660607E+01    2.6209244487918726E+00
N    4.8611774599219695E+00    8.4306464679602620E+00    3.1743476580608547E+00
Ga    4.8681892914764955E+00    8.4327644546740999E+00    5.2318889353318685E+00
N    4.8695082710724691E+00    1.0308227862983491E+01    5.7796974898097018E+00
Ga    4.8667118194959462E+00    1.0307990563532181E+01    7.8284680264140558E+00
N    4.8651290853319438E+00    8.4387022577821771E+00    8.3919445351436295E+00
Ga    4.8664908829104432E+00    8.4416503707599144E+00    1.0448110304016208E+01
N    4.8733449032222955E+00    1.0319890482816563E+01    1.0949999795214776E+01
Ga    4.8902548765421718E+00    1.0298548925713426E+01    1.3061428190307263E+01
N    4.8825854619734521E+00    8.4237841217980698E+00    1.3382391011281229E+01
     &END COORD
     &KIND N
       BASIS_SET DZVP-MOLOPT-SR-GTH
       POTENTIAL GTH-PBE-q5
       &POTENTIAL
 2 3
  0.2837905100000000E+00 2 -0.1241522559000000E+02  0.1868095920000000E+01
 2
  0.2554050000000000E+00 1  0.1363026257000000E+02
  0.2454945300000000E+00 0
         # Potential name:  GTH-PBE-Q5  for symbol:  N
         # Potential read from the potential filename: GTH_POTENTIALS
       &END POTENTIAL
     &END KIND
     &KIND Ga
       BASIS_SET DZVP-MOLOPT-SR-GTH
       POTENTIAL GTH-PBE-q13
       &POTENTIAL
 2 1 10
  0.4900000000000000E+00 0
 3
  0.4167772300000000E+00 3  0.1047568975000000E+02 -0.4921768140000000E+01  0.8707055900000000E+00
  0.7770178090000000E+01 -0.2248152160000000E+01
  0.1784415450000000E+01
  0.5696265200000000E+00 2  0.1777985340000000E+01  0.1958597600000000E+00
 -0.2317443900000000E+00
  0.2381265000000000E+00 1 -0.1624868022000000E+02
         # Potential name:  GTH-PBE-Q13  for symbol:  GA
         # Potential read from the potential filename: GTH_POTENTIALS
       &END POTENTIAL
     &END KIND
     &TOPOLOGY
       COORD_FILE_NAME start.xyz
       COORD_FILE_FORMAT  XYZ
       NUMBER_OF_ATOMS  192
       MULTIPLE_UNIT_CELL  1 1 1
     &END TOPOLOGY
   &END SUBSYS
 &END FORCE_EVAL
