 # Version information for this restart file 
 # current date 2019-07-15 19:26:08.339
 # current working dir /lustre04/scratch/rzk/rzk/GaN-carbene/443-adatoms-both-2x2/08-CH3O-H2O-H2C-H/04-Use-0902
 # Program compiled at                              Sun Apr  7 00:48:11 EDT 2019
 # Program compiled on                          beluga2.int.ets1.calculquebec.ca
 # Program compiled for                        Beluga-Linux-x86-64-intel-openmpi
 # Source code revision number                                         svn:18619
 &GLOBAL
   PRINT_LEVEL  MEDIUM
   PROJECT_NAME TEST
   RUN_TYPE  GEO_OPT
 &END GLOBAL
 &MOTION
   &GEO_OPT
     MAX_ITER  500
     STEP_START_VAL  134
   &END GEO_OPT
 &END MOTION
 &FORCE_EVAL
   METHOD  QS
   STRESS_TENSOR  ANALYTICAL
   &DFT
     BASIS_SET_FILE_NAME BASIS_MOLOPT
     POTENTIAL_FILE_NAME GTH_POTENTIALS
     UKS  T
     SURFACE_DIPOLE_CORRECTION  T
     SURF_DIP_DIR  Z
     &SCF
       MAX_SCF  80
       EPS_SCF     5.0000000000000004E-06
       &OT  T
         PRECONDITIONER  FULL_ALL
       &END OT
       &OUTER_SCF  T
         OPTIMIZER  NONE
         EPS_SCF     5.0000000000000004E-06
         MAX_SCF  4
       &END OUTER_SCF
       &PRINT
         &RESTART  OFF
           BACKUP_COPIES  1
           &EACH
             JUST_ENERGY  0
             QS_SCF  0
             MD  20
           &END EACH
         &END RESTART
       &END PRINT
     &END SCF
     &QS
       EPS_DEFAULT     1.0000000000000000E-14
       METHOD  GPW
     &END QS
     &MGRID
       NGRIDS  5
       CUTOFF     1.2000000000000000E+03
     &END MGRID
     &XC
       DENSITY_CUTOFF     1.0000000000000000E-10
       GRADIENT_CUTOFF     1.0000000000000000E-10
       TAU_CUTOFF     1.0000000000000000E-10
       &XC_FUNCTIONAL  NO_SHORTCUT
         &PBE  T
         &END PBE
       &END XC_FUNCTIONAL
       &VDW_POTENTIAL
         POTENTIAL_TYPE  PAIR_POTENTIAL
         &PAIR_POTENTIAL
           R_CUTOFF     1.0000000000000004E+01
           TYPE  DFTD3
           PARAMETER_FILE_NAME dftd3.dat
           REFERENCE_FUNCTIONAL PBE
           EPS_CN     9.9999999999999995E-07
           CALCULATE_C9_TERM  T
           REFERENCE_C9_TERM  T
           LONG_RANGE_CORRECTION  F
           VERBOSE_OUTPUT  F
         &END PAIR_POTENTIAL
       &END VDW_POTENTIAL
     &END XC
   &END DFT
   &SUBSYS
     &CELL
       A     1.2864472766435110E+01    0.0000000000000000E+00    0.0000000000000000E+00
       B    -6.4322363581020028E+00    1.1140960178524473E+01    0.0000000000000000E+00
       C     0.0000000000000000E+00    0.0000000000000000E+00    3.2000000000000000E+01
       MULTIPLE_UNIT_CELL  1 1 1
       &CELL_REF
         A     1.2982353780853531E+01    0.0000000000000000E+00    0.0000000000000000E+00
         B    -6.4911768904267628E+00    1.1243048175136114E+01    0.0000000000000000E+00
         C     0.0000000000000000E+00    0.0000000000000000E+00    3.2000000000000000E+01
         MULTIPLE_UNIT_CELL  1 1 1
       &END CELL_REF
     &END CELL
     &COORD
N    6.1761933674326697E-02    2.1046224877740038E+00    2.5595306419790251E+00
Ga    5.0111210756987899E-02    1.3268881651351722E-01    2.9508996488780488E+00
N    5.6253336604468393E-02    1.2945029712798850E-01    5.1155544652594873E+00
Ga    5.6918653887010666E-02    1.9429956285806020E+00    5.8722433003085444E+00
N    7.4856004999640277E-02    1.9679104747887470E+00    7.8618646947609170E+00
Ga    7.4999453665217958E-02    1.1406558466086997E-01    8.4871503341090566E+00
N    7.4417359262764840E-02    1.1694638225100239E-01    1.0464394651624726E+01
Ga    7.2265377885576285E-02    1.9569364854083529E+00    1.1116633627251153E+01
N    7.2378825855100540E-02    1.9391067728648925E+00    1.3112111486462490E+01
Ga    7.2708878427184209E-02    1.1906055178963532E-01    1.3914265430104198E+01
N    7.3219334890116103E-02    1.1903102650915920E-01    1.6117939480615039E+01
Ga    7.1621147241014815E-02    2.1590623546156591E+00    1.6528513341544663E+01
Ga    3.1183747140610261E-02    3.8372092767948671E+00    1.3830003515419946E+00
N   -1.4183497448698785E+00    4.6949005977053400E+00    2.5610982102310249E+00
Ga   -1.6203790585635547E+00    2.8607521708392603E+00    3.3268875013238093E+00
N   -1.5328410615010084E+00    2.9073002584562082E+00    5.3109376291723480E+00
Ga   -1.5688448858788036E+00    4.7721579558585505E+00    5.8585893825616937E+00
N   -1.5430696183836796E+00    4.7677746446180942E+00    7.8553891137401761E+00
Ga   -1.5298281041012223E+00    2.9102059406507097E+00    8.4901847760658082E+00
N   -1.5245630032084982E+00    2.9108925281454212E+00    1.0484781976671750E+01
Ga   -1.5513542089810741E+00    4.7709926563394296E+00    1.1116328720172023E+01
N   -1.5676843567010070E+00    4.7804887893034982E+00    1.3111518275477739E+01
Ga   -1.5248886535621800E+00    2.9116967457877965E+00    1.3667863645952208E+01
N   -1.5528509858335804E+00    2.8974080903414907E+00    1.5630465992663224E+01
Ga   -1.3717820117521156E+00    4.6670538377934347E+00    1.6529171605945429E+01
N    7.9016911716204064E-02    3.8291906133130391E+00    1.7661876154033816E+01
N   -3.1446813975503298E+00    7.6071622814996021E+00    2.5177080525970181E+00
Ga   -3.1438040431654777E+00    5.6709162463747562E+00    2.9069119678537212E+00
N   -3.1444613150968235E+00    5.6757854031822363E+00    5.0894971612968671E+00
Ga   -3.1441726633322395E+00    7.5126567205712602E+00    5.8137826585354189E+00
N   -3.1438204696784458E+00    7.5390018022921099E+00    7.8240698922868432E+00
Ga   -3.1436586687433508E+00    5.6959217392287318E+00    8.4874028741290957E+00
N   -3.1437810897691305E+00    5.6925135642008291E+00    1.0465248492072586E+01
Ga   -3.1434438785486831E+00    7.5305351798398945E+00    1.1115860283706374E+01
N   -3.1439825813668363E+00    7.5111839020906528E+00    1.3111160648452486E+01
Ga   -3.1433289258941728E+00    5.6903707386154849E+00    1.3913826878005477E+01
N   -3.1427301243288079E+00    5.6898826648924805E+00    1.6117989994022111E+01
Ga   -3.1442255348139678E+00    7.7287174796962868E+00    1.6528691890809881E+01
Ga   -3.1476883859498446E+00    9.1145434702958017E+00    7.5236833462738684E-01
N   -4.7337743724900836E+00    1.0305629905909532E+01    2.5414345832248637E+00
Ga   -4.7360327756630420E+00    8.4837117454101314E+00    3.2542439471242939E+00
N   -4.7606709490536820E+00    8.4685717868266437E+00    5.2433785535782746E+00
Ga   -4.7938948506011547E+00    1.0342216967916352E+01    5.8244439570501347E+00
N   -4.7559931900255332E+00    1.0334784254459761E+01    7.8265174526278489E+00
Ga   -4.7369618704219389E+00    8.4804920912772772E+00    8.4771239948038541E+00
N   -4.7396930588155639E+00    8.4815283313486667E+00    1.0473632677886329E+01
Ga   -4.7663223581448664E+00    1.0338875532499122E+01    1.1116053506107592E+01
N   -4.7831740644110923E+00    1.0349899636823508E+01    1.3110555573206607E+01
Ga   -4.7408696771611378E+00    8.4820440754733433E+00    1.3668855753415382E+01
N   -4.7684320676110508E+00    8.4680168903683519E+00    1.5631191588628530E+01
Ga   -4.5889726203819512E+00    1.0238060489010897E+01    1.6529518491133636E+01
N   -3.1369710412985912E+00    9.3994343319163747E+00    1.7663576975849239E+01
N    3.2874654233207785E+00    2.1666939582539295E+00    2.5267513533613406E+00
Ga    3.2878132606479400E+00   -1.4040405163153349E-01    3.2985032321657322E+00
N    3.2881339256133195E+00    1.3155150499572130E-01    5.2334680610623554E+00
Ga    3.2885446961587554E+00    1.9588307101643234E+00    5.9288676743344695E+00
N    3.2885523174462761E+00    1.9693446631781777E+00    7.8933544714591708E+00
Ga    3.2885999857853094E+00    1.0002387078453825E-01    8.4827822872376455E+00
N    3.2886590906631414E+00    1.0517896283059550E-01    1.0475942574504256E+01
Ga    3.2892299018000530E+00    1.9729882635910334E+00    1.1077879822665693E+01
N    3.2884829973658594E+00    1.9748975910407192E+00    1.3048965980742643E+01
Ga    3.2878260526057406E+00    1.0550269496166792E-01    1.3669822063455108E+01
N    3.2865178854886166E+00    1.3787615043031320E-01    1.5631784522810449E+01
Ga    3.2883330992230420E+00    1.9766076247065345E+00    1.5910547823718003E+01
N    1.5556626669392892E+00    4.6918238023214487E+00    2.5587954090506919E+00
Ga    1.6077696454562382E+00    2.9108822502678149E+00    3.3846983094400498E+00
N    1.6958373284629307E+00    2.8919435325807181E+00    5.3042992569348613E+00
Ga    1.7111454114812346E+00    4.7819037345059217E+00    5.8619215067036441E+00
N    1.6888620079178638E+00    4.7627861694048015E+00    7.8506401566387396E+00
Ga    1.6716922049268013E+00    2.9070912190255127E+00    8.4947894750567521E+00
N    1.6723886619748305E+00    2.9099150293693565E+00    1.0484576137035283E+01
Ga    1.6954632976055173E+00    4.7700032208538090E+00    1.1119984703688102E+01
N    1.7118927504452606E+00    4.7797953074614083E+00    1.3113873687684929E+01
Ga    1.6685324837395061E+00    2.9107427995132222E+00    1.3669463098189702E+01
N    1.6968681911140771E+00    2.8954039252205646E+00    1.5632721788956525E+01
Ga    1.5214259486105921E+00    4.6707046034231530E+00    1.6528869171447280E+01
N    7.9625721873720037E-02    7.5412554941244645E+00    2.7131340141907954E+00
Ga    5.8880746155354685E-02    5.7011065440086695E+00    3.3666757627592285E+00
N    7.3494874059319856E-02    5.7019155931788896E+00    5.3065788055780718E+00
Ga    6.1360820818634254E-02    7.5561501207991988E+00    5.9243891252948613E+00
N    7.0529969551146474E-02    7.5481110803550511E+00    7.8954267463498269E+00
Ga    7.0308912621110775E-02    5.6794787575679724E+00    8.4891291941012241E+00
N    7.3771758634802537E-02    5.6775792580365145E+00    1.0481660355314148E+01
Ga    7.1506634370728933E-02    7.5470950083806825E+00    1.1073597218761455E+01
N    7.1268659055051073E-02    7.5472667602488759E+00    1.3046239253990697E+01
Ga    7.1313656693758568E-02    5.6777715485308455E+00    1.3668653678493479E+01
N    7.0370012746030941E-02    5.7095264779439860E+00    1.5630944381151533E+01
Ga    7.1830302388587036E-02    7.5476786579783122E+00    1.5910871137847039E+01
N   -1.5548675822508997E+00    1.0306685898872479E+01    2.5409557583338458E+00
Ga   -1.5532333851664009E+00    8.4844491553224337E+00    3.2533072329647017E+00
N   -1.5276050381887654E+00    8.4687262783545982E+00    5.2426887407502596E+00
Ga   -1.4938808530385121E+00    1.0342598722153239E+01    5.8235453813121953E+00
N   -1.5314241623276463E+00    1.0334921647269576E+01    7.8259024353759257E+00
Ga   -1.5507527749271435E+00    8.4806988121230269E+00    8.4770970632139910E+00
N   -1.5470832310670293E+00    8.4813321959899550E+00    1.0473852234066765E+01
Ga   -1.5211562066306314E+00    1.0338594647863243E+01    1.1116451646821291E+01
N   -1.5048536330187612E+00    1.0349915394195211E+01    1.3111349488477412E+01
Ga   -1.5475149386216767E+00    8.4818373923522650E+00    1.3669287136496967E+01
N   -1.5201187142568322E+00    8.4665275823677391E+00    1.5632785508669583E+01
Ga   -1.6937638908393708E+00    1.0241568288514959E+01    1.6528867648838236E+01
N    6.5149403245077062E+00    2.1073018935679007E+00    2.5556563705944573E+00
Ga    6.5263455691107239E+00    1.3236238872293002E-01    2.9490013140430471E+00
N    6.5204109373791708E+00    1.3038099448923482E-01    5.1139408978057501E+00
Ga    6.5195040799124575E+00    1.9432970874118807E+00    5.8723110411264283E+00
N    6.5022407519468759E+00    1.9679950110037983E+00    7.8617405732297332E+00
Ga    6.5019275485174512E+00    1.1411485720621016E-01    8.4870355251896648E+00
N    6.5023125261174792E+00    1.1699703628706994E-01    1.0464314389053099E+01
Ga    6.5051350249268687E+00    1.9569819958185852E+00    1.1116489675151721E+01
N    6.5040334320681126E+00    1.9391634086737453E+00    1.3112115845757376E+01
Ga    6.5046179962282915E+00    1.1890665570646282E-01    1.3913850823624445E+01
N    6.5051709821626442E+00    1.1880390491116329E-01    1.6118000054299230E+01
Ga    6.5042584104065169E+00    2.1572343840096377E+00    1.6527235152305824E+01
Ga    6.5514388732745301E+00    3.8320563083594759E+00    1.3779557618102991E+00
N    5.0201481319951373E+00    4.6918713563269172E+00    2.5604884173335782E+00
Ga    4.9677359002087123E+00    2.9127425296666343E+00    3.3828575861903984E+00
N    4.8810127966339287E+00    2.8913710111131672E+00    5.3030974068281989E+00
Ga    4.8653456906742152E+00    4.7814997148287937E+00    5.8608982940471668E+00
N    4.8880725853734637E+00    4.7627763589398082E+00    7.8499998810941785E+00
Ga    4.9054273880705903E+00    2.9071996736211911E+00    8.4944739280271353E+00
N    4.9054040221823376E+00    2.9103097386174648E+00    1.0484080751700477E+01
Ga    4.8815348518673023E+00    4.7703283796577534E+00    1.1119553431105654E+01
N    4.8646045089038363E+00    4.7798122741249101E+00    1.3113176118110440E+01
Ga    4.9075400076969240E+00    2.9110159745627695E+00    1.3668985707459822E+01
N    4.8798702418925091E+00    2.8974128741638134E+00    1.5631623495807494E+01
Ga    5.0588908440854068E+00    4.6679877933867830E+00    1.6528284037147522E+01
N    6.5119800035989730E+00    3.8293338001582016E+00    1.7661359158232450E+01
N    3.2880254460522949E+00    7.6415167869575527E+00    2.5632693793073145E+00
N    3.2879024764500309E+00    5.6796610089726416E+00    5.0863287598130915E+00
Ga    3.2879393717464405E+00    7.5101840512372045E+00    5.8465203160933559E+00
N    3.2884253017750922E+00    7.5343456403528055E+00    7.8432904297590333E+00
Ga    3.2885551132701996E+00    5.6896834522816224E+00    8.4946641329350516E+00
N    3.2884238663342993E+00    5.6892056100208741E+00    1.0467788442430482E+01
Ga    3.2886216789047116E+00    7.5285746710480810E+00    1.1119907637545291E+01
N    3.2881652091105273E+00    7.5098140479607389E+00    1.3113961919252699E+01
Ga    3.2885226371933358E+00    5.6896261116927098E+00    1.3916560862179752E+01
N    3.2890200647979899E+00    5.6895405190303725E+00    1.6118402943633885E+01
Ga    3.2878869590212081E+00    7.7290587725942572E+00    1.6527730584138325E+01
Ga    3.2889840885041228E+00    9.4836750394847797E+00    1.2975239766703339E+00
N    1.7841601917414986E+00    1.0278175591385672E+01    2.5792905169801061E+00
Ga    1.6844298328288760E+00    8.4765162403032779E+00    3.3360001254851785E+00
N    1.6703749816696396E+00    8.4658836600556882E+00    5.2886371716433818E+00
Ga    1.6631751153185239E+00    1.0347666233617414E+01    5.8560554213335063E+00
N    1.6727311464030266E+00    1.0331623937452312E+01    7.8542021253488130E+00
Ga    1.6901121936273056E+00    8.4788849781248725E+00    8.4887837633885947E+00
N    1.6918530157244294E+00    8.4789628859723667E+00    1.0481656220101332E+01
Ga    1.6650179926410527E+00    1.0339878541302939E+01    1.1115469325892164E+01
N    1.6479377061674279E+00    1.0350136297011037E+01    1.3110946676415191E+01
Ga    1.6903766889113681E+00    8.4820603442571638E+00    1.3668112743462965E+01
N    1.6631196909000052E+00    8.4678806791034482E+00    1.5630632588603117E+01
Ga    1.8437919035352694E+00    1.0237910247382183E+01    1.6528308236935256E+01
N    3.2956326460612382E+00    9.3997810011921690E+00    1.7660886363309295E+01
N    9.7199825002190305E+00    1.9793825215863372E+00    2.6933066218025594E+00
Ga    9.7205916325368769E+00    2.1185658012029002E-01    3.3159527041492263E+00
N    9.7205803089443688E+00    1.1663497444527092E-01    5.3045430402186238E+00
Ga    9.7208628051518868E+00    1.9751968383200573E+00    5.9139043338075705E+00
N    9.7207003716779763E+00    1.9748055428256086E+00    7.9007942252904000E+00
Ga    9.7206916189853718E+00    1.0863584550865535E-01    8.4879328093455833E+00
N    9.7208168870120168E+00    1.0631344198061804E-01    1.0483617399959972E+01
Ga    9.7214163178274404E+00    1.9754441120030273E+00    1.1076520578733350E+01
N    9.7204052850809735E+00    1.9761839955668048E+00    1.3049325610989330E+01
Ga    9.7200021902678202E+00    1.0621625320530155E-01    1.3667781133325516E+01
N    9.7184212533865288E+00    1.3827795416869620E-01    1.5630540648719499E+01
Ga    9.7202516518336584E+00    1.9769690878306538E+00    1.5908891443051974E+01
N    7.9933073954868350E+00    4.6930244937155043E+00    2.5574264989939453E+00
Ga    8.1969082740401777E+00    2.8608096116181283E+00    3.3287721190258468E+00
N    8.1093132582317331E+00    2.9075278178967849E+00    5.3114200665954305E+00
Ga    8.1450540220867396E+00    4.7725479790070011E+00    5.8592449585610291E+00
N    8.1200117055050782E+00    4.7677305232362635E+00    7.8557338482008827E+00
Ga    8.1070382068224340E+00    2.9101863468993390E+00    8.4904828981710789E+00
N    8.1022945031098370E+00    2.9106786155010171E+00    1.0485255269398170E+01
Ga    8.1284643050112955E+00    4.7708645889928709E+00    1.1116701496176757E+01
N    8.1442162782946834E+00    4.7805965042417675E+00    1.3112433784480540E+01
Ga    8.1008116155521162E+00    2.9116187242348501E+00    1.3668113616131333E+01
N    8.1278971072434114E+00    2.8960526300149008E+00    1.5632451989172637E+01
Ga    7.9559523492399986E+00    4.6718441333816489E+00    1.6527030057031045E+01
N    6.4961526232282552E+00    7.5402777783093962E+00    2.7135943895298262E+00
Ga    6.5156978370508511E+00    5.6994289587365623E+00    3.3654494624952562E+00
N    6.5032419066270544E+00    5.7015461246900276E+00    5.3059491791275617E+00
Ga    6.5149786023887382E+00    7.5555730314333527E+00    5.9243154475931590E+00
N    6.5061293377138192E+00    7.5480035768054812E+00    7.8954579284625712E+00
Ga    6.5066009548624315E+00    5.6794350188839129E+00    8.4890697147761465E+00
N    6.5034583846071241E+00    5.6776146179834752E+00    1.0481705732948225E+01
Ga    6.5068065094475473E+00    7.5471081404374862E+00    1.1073711376234050E+01
N    6.5053117813957018E+00    7.5471532209901291E+00    1.3046496504969431E+01
Ga    6.5044178061782070E+00    5.6776896655789315E+00    1.3668568308401996E+01
N    6.5025192191060883E+00    5.7087512309780459E+00    1.5631463242708486E+01
Ga    6.5045567328895473E+00    7.5475094959819486E+00    1.5910551817015051E+01
N    4.7923654458288985E+00    1.0277995290478925E+01    2.5795590540830795E+00
Ga    4.8919354829626895E+00    8.4762264524631572E+00    3.3363130154654694E+00
N    4.9058040224219646E+00    8.4654709349930251E+00    5.2888890605458307E+00
Ga    4.9132862080149105E+00    1.0347119079993046E+01    5.8566117271766860E+00
N    4.9040035766100614E+00    1.0331433212583743E+01    7.8546057639012146E+00
Ga    4.8867306147795908E+00    8.4788122064438216E+00    8.4892316227611939E+00
N    4.8858308173820637E+00    8.4786753509544521E+00    1.0482289220646718E+01
Ga    4.9119177887255256E+00    1.0339724948712030E+01    1.1116048653049120E+01
N    4.9284532146333149E+00    1.0350202933693337E+01    1.3111910368662175E+01
Ga    4.8855033257184184E+00    8.4819116211302710E+00    1.3668518415843351E+01
N    4.9127902858718988E+00    8.4659664721600194E+00    1.5632256735450513E+01
Ga    4.7386582236765111E+00    1.0241917685237267E+01    1.6527448075610952E+01
O    1.6496464155384710E-01    3.7624060669579613E+00   -4.2492358099585770E-01
H    7.0411939273027890E+00    3.3755324175854478E+00   -8.6654920186435280E-01
C   -9.2622634173525098E-01    3.1244062180627452E+00   -1.1129094963949724E+00
H   -1.1060295922573764E+00    2.0971625203292277E+00   -7.5507851152397898E-01
H   -1.8652668133897234E+00    3.6927651213771076E+00   -1.0132358393066105E+00
H   -6.5913317501805313E-01    3.0802053435901291E+00   -2.1785640974542848E+00
Ga    3.2900461707515056E+00    5.6779232811043654E+00    2.9088132010836625E+00
O    6.3083019974939596E+00    3.8327525164905309E+00   -4.2229579681413726E-01
H    1.1308413413763550E-01    7.5081423629153701E+00    1.6871680701029910E+00
C    3.2837148065998556E+00    1.9275618590097492E+00    1.2564210572596926E+00
H    6.4627890751900816E+00    7.5070375142301904E+00    1.6874619154358528E+00
H    4.2217789013395866E+00    1.8160303177140964E+00    6.9396295809037800E-01
H    2.3418991941735365E+00    1.8151752005720307E+00    6.9989727851437300E-01
     &END COORD
     &KIND C
       BASIS_SET DZVP-MOLOPT-SR-GTH-q4
       POTENTIAL GTH-PBE-q4
       &POTENTIAL
 2 2
  0.3384712400000000E+00 2 -0.8803673979999999E+01  0.1339210850000000E+01
 2
  0.3025757500000000E+00 1  0.9622486650000001E+01
  0.2915069400000000E+00 0
         # Potential name:  GTH-PBE-Q4  for symbol:  C
         # Potential read from the potential filename: GTH_POTENTIALS
       &END POTENTIAL
     &END KIND
     &KIND O
       BASIS_SET DZVP-MOLOPT-SR-GTH-q6
       POTENTIAL GTH-PBE-q6
       &POTENTIAL
 2 4
  0.2445543000000000E+00 2 -0.1666721480000000E+02  0.2487311320000000E+01
 2
  0.2209559200000000E+00 1  0.1833745811000000E+02
  0.2113324700000000E+00 0
         # Potential name:  GTH-PBE-Q6  for symbol:  O
         # Potential read from the potential filename: GTH_POTENTIALS
       &END POTENTIAL
     &END KIND
     &KIND H
       BASIS_SET DZVP-MOLOPT-SR-GTH-q1
       POTENTIAL GTH-PBE-q1
       &POTENTIAL
 1
  0.2000000000000000E+00 2 -0.4178900440000000E+01  0.7244633100000000E+00
 0
         # Potential name:  GTH-PBE-Q1  for symbol:  H
         # Potential read from the potential filename: GTH_POTENTIALS
       &END POTENTIAL
     &END KIND
     &KIND N
       BASIS_SET DZVP-MOLOPT-SR-GTH
       POTENTIAL GTH-PBE-q5
       &POTENTIAL
 2 3
  0.2837905100000000E+00 2 -0.1241522559000000E+02  0.1868095920000000E+01
 2
  0.2554050000000000E+00 1  0.1363026257000000E+02
  0.2454945300000000E+00 0
         # Potential name:  GTH-PBE-Q5  for symbol:  N
         # Potential read from the potential filename: GTH_POTENTIALS
       &END POTENTIAL
     &END KIND
     &KIND Ga
       BASIS_SET DZVP-MOLOPT-SR-GTH
       POTENTIAL GTH-PBE-q13
       &POTENTIAL
 2 1 10
  0.4900000000000000E+00 0
 3
  0.4167772300000000E+00 3  0.1047568975000000E+02 -0.4921768140000000E+01  0.8707055900000000E+00
  0.7770178090000000E+01 -0.2248152160000000E+01
  0.1784415450000000E+01
  0.5696265200000000E+00 2  0.1777985340000000E+01  0.1958597600000000E+00
 -0.2317443900000000E+00
  0.2381265000000000E+00 1 -0.1624868022000000E+02
         # Potential name:  GTH-PBE-Q13  for symbol:  GA
         # Potential read from the potential filename: GTH_POTENTIALS
       &END POTENTIAL
     &END KIND
     &TOPOLOGY
       NUMBER_OF_ATOMS  212
       MULTIPLE_UNIT_CELL  1 1 1
     &END TOPOLOGY
   &END SUBSYS
 &END FORCE_EVAL
