 # Version information for this restart file 
 # current date 2019-07-15 19:27:46.377
 # current working dir /lustre04/scratch/rzk/rzk/GaN-carbene/443-adatoms-both-2x2/08-CH3O-H2O-H2C-H/04-Use-0902
 # Program compiled at                              Sun Apr  7 00:48:11 EDT 2019
 # Program compiled on                          beluga2.int.ets1.calculquebec.ca
 # Program compiled for                        Beluga-Linux-x86-64-intel-openmpi
 # Source code revision number                                         svn:18619
 &GLOBAL
   PRINT_LEVEL  MEDIUM
   PROJECT_NAME TEST
   RUN_TYPE  GEO_OPT
 &END GLOBAL
 &MOTION
   &GEO_OPT
     MAX_ITER  500
     STEP_START_VAL  135
   &END GEO_OPT
 &END MOTION
 &FORCE_EVAL
   METHOD  QS
   STRESS_TENSOR  ANALYTICAL
   &DFT
     BASIS_SET_FILE_NAME BASIS_MOLOPT
     POTENTIAL_FILE_NAME GTH_POTENTIALS
     UKS  T
     SURFACE_DIPOLE_CORRECTION  T
     SURF_DIP_DIR  Z
     &SCF
       MAX_SCF  80
       EPS_SCF     5.0000000000000004E-06
       &OT  T
         PRECONDITIONER  FULL_ALL
       &END OT
       &OUTER_SCF  T
         OPTIMIZER  NONE
         EPS_SCF     5.0000000000000004E-06
         MAX_SCF  4
       &END OUTER_SCF
       &PRINT
         &RESTART  OFF
           BACKUP_COPIES  1
           &EACH
             JUST_ENERGY  0
             QS_SCF  0
             MD  20
           &END EACH
         &END RESTART
       &END PRINT
     &END SCF
     &QS
       EPS_DEFAULT     1.0000000000000000E-14
       METHOD  GPW
     &END QS
     &MGRID
       NGRIDS  5
       CUTOFF     1.2000000000000000E+03
     &END MGRID
     &XC
       DENSITY_CUTOFF     1.0000000000000000E-10
       GRADIENT_CUTOFF     1.0000000000000000E-10
       TAU_CUTOFF     1.0000000000000000E-10
       &XC_FUNCTIONAL  NO_SHORTCUT
         &PBE  T
         &END PBE
       &END XC_FUNCTIONAL
       &VDW_POTENTIAL
         POTENTIAL_TYPE  PAIR_POTENTIAL
         &PAIR_POTENTIAL
           R_CUTOFF     1.0000000000000004E+01
           TYPE  DFTD3
           PARAMETER_FILE_NAME dftd3.dat
           REFERENCE_FUNCTIONAL PBE
           EPS_CN     9.9999999999999995E-07
           CALCULATE_C9_TERM  T
           REFERENCE_C9_TERM  T
           LONG_RANGE_CORRECTION  F
           VERBOSE_OUTPUT  F
         &END PAIR_POTENTIAL
       &END VDW_POTENTIAL
     &END XC
   &END DFT
   &SUBSYS
     &CELL
       A     1.2864472766435110E+01    0.0000000000000000E+00    0.0000000000000000E+00
       B    -6.4322363581020028E+00    1.1140960178524473E+01    0.0000000000000000E+00
       C     0.0000000000000000E+00    0.0000000000000000E+00    3.2000000000000000E+01
       MULTIPLE_UNIT_CELL  1 1 1
       &CELL_REF
         A     1.2982353780853531E+01    0.0000000000000000E+00    0.0000000000000000E+00
         B    -6.4911768904267628E+00    1.1243048175136114E+01    0.0000000000000000E+00
         C     0.0000000000000000E+00    0.0000000000000000E+00    3.2000000000000000E+01
         MULTIPLE_UNIT_CELL  1 1 1
       &END CELL_REF
     &END CELL
     &COORD
N    6.1745339966762999E-02    2.1044855703768754E+00    2.5595665282276450E+00
Ga    5.0187239779835580E-02    1.3259972631786543E-01    2.9510237549497531E+00
N    5.6226993410793534E-02    1.2942061971706673E-01    5.1156135917977901E+00
Ga    5.6863903865611187E-02    1.9429291315583663E+00    5.8723026387672528E+00
N    7.4760743225976631E-02    1.9678919977620988E+00    7.8619118078459058E+00
Ga    7.4891101727815684E-02    1.1407020411160718E-01    8.4872023056464236E+00
N    7.4311301635561322E-02    1.1695982349410922E-01    1.0464448141720194E+01
Ga    7.2158037648920717E-02    1.9569652336047259E+00    1.1116654601361693E+01
N    7.2320546390065812E-02    1.9390898448195437E+00    1.3112112780372486E+01
Ga    7.2644343317128227E-02    1.1905905960736199E-01    1.3914360013178420E+01
N    7.3213008384361913E-02    1.1897604911463137E-01    1.6117961479045736E+01
Ga    7.1601721768852447E-02    2.1589398779802274E+00    1.6528524231432520E+01
Ga    3.1103936500178456E-02    3.8372271887434608E+00    1.3831345784472318E+00
N   -1.4183539272454675E+00    4.6948673519591688E+00    2.5612025927542774E+00
Ga   -1.6203267558013870E+00    2.8606920212233269E+00    3.3269989941712814E+00
N   -1.5328651855428486E+00    2.9072576808550328E+00    5.3110166143370163E+00
Ga   -1.5689219316311072E+00    4.7721275786672006E+00    5.8586193544605107E+00
N   -1.5431491208530417E+00    4.7677785794652383E+00    7.8554240990350044E+00
Ga   -1.5299082056499325E+00    2.9102068484084662E+00    8.4901967907605549E+00
N   -1.5246798235878583E+00    2.9109227622067202E+00    1.0484819834530505E+01
Ga   -1.5514488477257407E+00    4.7710287351065848E+00    1.1116341490671584E+01
N   -1.5677546659048525E+00    4.7805214245889855E+00    1.3111513430836144E+01
Ga   -1.5249299668288410E+00    2.9117260789878818E+00    1.3667884991885190E+01
N   -1.5528570072635939E+00    2.8973750492339492E+00    1.5630455095908346E+01
Ga   -1.3718429753342558E+00    4.6670319509490223E+00    1.6529212651421275E+01
N    7.9041564272610068E-02    3.8291306221549690E+00    1.7661929853961638E+01
N   -3.1445647661676515E+00    7.6071594291563951E+00    2.5178104403292916E+00
Ga   -3.1437115360763181E+00    5.6709938391964405E+00    2.9068909839385233E+00
N   -3.1445301485438710E+00    5.6757207329943098E+00    5.0895283451740712E+00
Ga   -3.1441679747588998E+00    7.5126164227542498E+00    5.8138604674303416E+00
N   -3.1438802786184805E+00    7.5390108101228783E+00    7.8241513877096178E+00
Ga   -3.1437363737147659E+00    5.6959283542704311E+00    8.4874565988534378E+00
N   -3.1438871525200578E+00    5.6925520037622546E+00    1.0465294947805607E+01
Ga   -3.1435412155791900E+00    7.5305640850742579E+00    1.1115930350979614E+01
N   -3.1440384335639822E+00    7.5111948088598242E+00    1.3111232582658323E+01
Ga   -3.1433647568423724E+00    5.6903695772780445E+00    1.3913918423350632E+01
N   -3.1427570955279629E+00    5.6898266507610824E+00    1.6118036637201932E+01
Ga   -3.1442485370844668E+00    7.7285339249636573E+00    1.6528698873076348E+01
Ga   -3.1473307099220476E+00    9.1155989110788376E+00    7.5247747234261653E-01
N   -4.7336411319952285E+00    1.0305647154591004E+01    2.5414911000920446E+00
Ga   -4.7358168866522847E+00    8.4836577011955594E+00    3.2543040790250966E+00
N   -4.7606469295937064E+00    8.4685817502424356E+00    5.2434747344720662E+00
Ga   -4.7939505165230392E+00    1.0342204748587166E+01    5.8245586342162579E+00
N   -4.7560768101265802E+00    1.0334807033702957E+01    7.8266242829700836E+00
Ga   -4.7370271692074244E+00    8.4805150421708344E+00    8.4772026683444555E+00
N   -4.7397942851614729E+00    8.4815511381254165E+00    1.0473719915713506E+01
Ga   -4.7664206834360217E+00    1.0338915291574839E+01    1.1116129772047488E+01
N   -4.7832539386591106E+00    1.0349913052328001E+01    1.3110625601005564E+01
Ga   -4.7409130496504055E+00    8.4820535399922843E+00    1.3668938195306664E+01
N   -4.7684561480192036E+00    8.4679404057665231E+00    1.5631240816786130E+01
Ga   -4.5890706332412519E+00    1.0237991639387296E+01    1.6529543959064171E+01
N   -3.1369462354851692E+00    9.3993634544712066E+00    1.7663344500151727E+01
N    3.2873645106059630E+00    2.1669771692532467E+00    2.5265631324610682E+00
Ga    3.2879423037861573E+00   -1.4059900665530112E-01    3.2987038811613951E+00
N    3.2881434396729579E+00    1.3152762361894543E-01    5.2336000572895243E+00
Ga    3.2885330015297525E+00    1.9588574771226095E+00    5.9288854404521167E+00
N    3.2884713708178417E+00    1.9693735936439540E+00    7.8934027319982114E+00
Ga    3.2885049562395650E+00    1.0006604353458876E-01    8.4828247058814092E+00
N    3.2885650153808452E+00    1.0521565241562415E-01    1.0475979325955562E+01
Ga    3.2891349327490151E+00    1.9730368453408251E+00    1.1077924987786410E+01
N    3.2884247591146432E+00    1.9749049955725089E+00    1.3048988850901912E+01
Ga    3.2877623659841206E+00    1.0549776071896111E-01    1.3669852544540111E+01
N    3.2865338019674430E+00    1.3778767768358369E-01    1.5631831170935184E+01
Ga    3.2883211395837249E+00    1.9765592219784496E+00    1.5910519677791019E+01
N    1.5557157312321435E+00    4.6917491719986586E+00    2.5588295867061723E+00
Ga    1.6076248891045672E+00    2.9108315404330671E+00    3.3847905067790767E+00
N    1.6957609983932256E+00    2.8918842940549565E+00    5.3043690706619753E+00
Ga    1.7111236249115369E+00    4.7818434002310388E+00    5.8619731644376127E+00
N    1.6887776675585953E+00    4.7627880739401647E+00    7.8506928214962564E+00
Ga    1.6715812651986264E+00    2.9070932984223421E+00    8.4948024120847467E+00
N    1.6722873260667115E+00    2.9099509743373457E+00    1.0484598295939984E+01
Ga    1.6953607210752166E+00    4.7700609450498641E+00    1.1119973646962539E+01
N    1.7118518294152378E+00    4.7798577524261310E+00    1.3113846528719483E+01
Ga    1.6684644710390266E+00    2.9107851212701457E+00    1.3669461900742885E+01
N    1.6968474940511062E+00    2.8953798949281921E+00    1.5632688793176280E+01
Ga    1.5214863320862702E+00    4.6707127946674545E+00    1.6528903538412720E+01
N    7.9806035351238244E-02    7.5412461720712205E+00    2.7131754221006839E+00
Ga    5.8909073755641243E-02    5.7010834047971084E+00    3.3667325941679165E+00
N    7.3471150971951421E-02    5.7018891413268546E+00    5.3066262254936865E+00
Ga    6.1358913677857584E-02    7.5561766334606828E+00    5.9243915521638701E+00
N    7.0482464245366805E-02    7.5481544641794684E+00    7.8954759402637977E+00
Ga    7.0229560149287967E-02    5.6795081416840656E+00    8.4891355823996033E+00
N    7.3656597919536701E-02    5.6776507902072506E+00    1.0481691391306120E+01
Ga    7.1423935591063650E-02    7.5471526845710031E+00    1.1073642045161955E+01
N    7.1222256976799153E-02    7.5473096502380459E+00    1.3046276674279078E+01
Ga    7.1241432646646591E-02    5.6777991949422049E+00    1.3668684374667007E+01
N    7.0355568743964397E-02    5.7094671412303892E+00    1.5630957302200111E+01
Ga    7.1834105118821226E-02    7.5476253947772527E+00    1.5910906129302608E+01
N   -1.5547961292802615E+00    1.0306579626862931E+01    2.5409689357600032E+00
Ga   -1.5531405526213053E+00    8.4843098241283990E+00    3.2533342523951601E+00
N   -1.5276245138732243E+00    8.4687125943058081E+00    5.2427412924788115E+00
Ga   -1.4938441505745537E+00    1.0342546488806299E+01    5.8236480375256958E+00
N   -1.5315170705244545E+00    1.0334930032665795E+01    7.8260174174814292E+00
Ga   -1.5508103440831549E+00    8.4807225920469982E+00    8.4771558505166968E+00
N   -1.5471746941200242E+00    8.4813703685889159E+00    1.0473918523148768E+01
Ga   -1.5212418135550931E+00    1.0338646378646473E+01    1.1116501074199249E+01
N   -1.5048901069201863E+00    1.0349936307525880E+01    1.3111401324106161E+01
Ga   -1.5475610709272187E+00    8.4818360631657654E+00    1.3669354918526468E+01
N   -1.5201307896107046E+00    8.4664851826457816E+00    1.5632831604576701E+01
Ga   -1.6936478505171801E+00    1.0241528917893746E+01    1.6528905155648690E+01
N    6.5150472178955674E+00    2.1069713351928008E+00    2.5557422149928231E+00
Ga    6.5264405071516283E+00    1.3230474067590081E-01    2.9489619654686767E+00
N    6.5204139753789736E+00    1.3025602516958151E-01    5.1139823854148858E+00
Ga    6.5194614651647607E+00    1.9432036061981408E+00    5.8722877399496225E+00
N    6.5021356174386442E+00    1.9679777758744139E+00    7.8617803057937063E+00
Ga    6.5018714542755198E+00    1.1410565062495144E-01    8.4870678327399283E+00
N    6.5022534292027636E+00    1.1702383585441949E-01    1.0464348946426329E+01
Ga    6.5050573416420923E+00    1.9570266723542746E+00    1.1116531277428809E+01
N    6.5039755165289694E+00    1.9391531866872211E+00    1.3112164915936786E+01
Ga    6.5046058389799848E+00    1.1888639366909295E-01    1.3913864514629438E+01
N    6.5051965438369708E+00    1.1876116591051887E-01    1.6118058790829036E+01
Ga    6.5042869030130044E+00    2.1570854343919894E+00    1.6527241922504381E+01
Ga    6.5519158351086224E+00    3.8324268171700027E+00    1.3779191511043196E+00
N    5.0203391053191000E+00    4.6918421682120979E+00    2.5603657838928870E+00
Ga    4.9678746700703460E+00    2.9126848180353786E+00    3.3826266401787843E+00
N    4.8810003676757070E+00    2.8913308509834117E+00    5.3029779621669020E+00
Ga    4.8653075849067919E+00    4.7814406270384699E+00    5.8609234438846753E+00
N    4.8880104065514827E+00    4.7627660896640158E+00    7.8500506261705878E+00
Ga    4.9053438513720025E+00    2.9072005381193988E+00    8.4945029049633547E+00
N    4.9053138648686003E+00    2.9103531399891600E+00    1.0484111334051951E+01
Ga    4.8814484257101380E+00    4.7703613693616669E+00    1.1119614956656502E+01
N    4.8645160387838775E+00    4.7798520763606831E+00    1.3113229010883206E+01
Ga    4.9074791866084020E+00    2.9110438841363546E+00    1.3669005953901134E+01
N    4.8799241626209557E+00    2.8973850091050357E+00    1.5631654359363665E+01
Ga    5.0588232679696690E+00    4.6680408175492136E+00    1.6528280449751687E+01
N    6.5119720029167043E+00    3.8292729752235832E+00    1.7661333967307712E+01
N    3.2882174798624466E+00    7.6413363951632327E+00    2.5633194809770750E+00
N    3.2878640467500566E+00    5.6795676191135840E+00    5.0863742009916324E+00
Ga    3.2879550121036214E+00    7.5101298644510956E+00    5.8464872593647321E+00
N    3.2883458685093561E+00    7.5343581306103697E+00    7.8433055955119135E+00
Ga    3.2884771181982484E+00    5.6897024599073420E+00    8.4946621746985738E+00
N    3.2883497726065030E+00    5.6892577858989526E+00    1.0467813277765348E+01
Ga    3.2885541583775346E+00    7.5286072209970776E+00    1.1119992811461701E+01
N    3.2881123053748351E+00    7.5098332507244692E+00    1.3114040926882373E+01
Ga    3.2884537366129192E+00    5.6896613310959028E+00    1.3916639643787049E+01
N    3.2890399224195606E+00    5.6895044150848726E+00    1.6118429620655796E+01
Ga    3.2879176736377764E+00    7.7289414269911374E+00    1.6527801074451933E+01
Ga    3.2894826973975624E+00    9.4836805291245447E+00    1.2974937270310076E+00
N    1.7843158508774573E+00    1.0278121396596159E+01    2.5791732325703745E+00
Ga    1.6846378748428463E+00    8.4764926656576787E+00    3.3359084642272667E+00
N    1.6704044264402522E+00    8.4658728727364991E+00    5.2886261541979254E+00
Ga    1.6631778931161325E+00    1.0347630219854080E+01    5.8561119806864292E+00
N    1.6726887847980800E+00    1.0331613800675843E+01    7.8542719413779158E+00
Ga    1.6900755995552046E+00    8.4788918853666946E+00    8.4888458684192845E+00
N    1.6917837314338449E+00    8.4789902160643393E+00    1.0481723481981188E+01
Ga    1.6649579093807632E+00    1.0339897925906143E+01    1.1115549341868125E+01
N    1.6479010609858011E+00    1.0350128781792668E+01    1.3111024693204554E+01
Ga    1.6903221497181895E+00    8.4820606570847357E+00    1.3668198573794237E+01
N    1.6631540726221303E+00    8.4678497093485223E+00    1.5630728938831790E+01
Ga    1.8437883562356632E+00    1.0237875943681876E+01    1.6528389252604335E+01
N    3.2956655591975874E+00    9.3997021297863821E+00    1.7660678607415296E+01
N    9.7200693209135132E+00    1.9793682329859963E+00    2.6934083917646467E+00
Ga    9.7206265498093316E+00    2.1181628003479949E-01    3.3159682691477106E+00
N    9.7206036892902148E+00    1.1658515795451514E-01    5.3045432645002286E+00
Ga    9.7208172203611731E+00    1.9751327116415702E+00    5.9139736161320684E+00
N    9.7206322245066108E+00    1.9747567971325943E+00    7.9008852051147738E+00
Ga    9.7206445590667361E+00    1.0858440207578413E-01    8.4880248555494582E+00
N    9.7207465631531882E+00    1.0632300830266866E-01    1.0483693086972893E+01
Ga    9.7213285498896784E+00    1.9754562165619283E+00    1.1076591538770201E+01
N    9.7203560674923590E+00    1.9761612171976874E+00    1.3049391227300569E+01
Ga    9.7199646768681358E+00    1.0621082181147842E-01    1.3667856768804571E+01
N    9.7184241190880769E+00    1.3821672174157201E-01    1.5630631195782362E+01
Ga    9.7202476314779229E+00    1.9769398507204383E+00    1.5908904003437666E+01
N    7.9934379850168344E+00    4.6928990724719180E+00    2.5574383388353743E+00
Ga    8.1968891739093515E+00    2.8605967831649508E+00    3.3288051575919635E+00
N    8.1092982602542456E+00    2.9074831434650856E+00    5.3114340901298176E+00
Ga    8.1450447302582063E+00    4.7724705068802571E+00    5.8593804526334639E+00
N    8.1199119653056524E+00    4.7677254065784433E+00    7.8558396130330008E+00
Ga    8.1069420402054444E+00    2.9101496281055477E+00    8.4904899058111258E+00
N    8.1022251559702454E+00    2.9107019902077322E+00    1.0485278514052812E+01
Ga    8.1283722290953264E+00    4.7708827658281123E+00    1.1116755736748409E+01
N    8.1441624630396063E+00    4.7806182991212136E+00    1.3112496354820303E+01
Ga    8.1007775158067226E+00    2.9116248369129951E+00    1.3668150334822634E+01
N    8.1278507921388243E+00    2.8960257272217200E+00    1.5632486221577164E+01
Ga    7.9560286403741598E+00    4.6718778446814948E+00    1.6527015753803180E+01
N    6.4962920473286321E+00    7.5404137549319943E+00    2.7134702966481714E+00
Ga    6.5158085496770415E+00    5.6995057256276294E+00    3.3654152394934789E+00
N    6.5032474179028750E+00    5.7015135612778796E+00    5.3059626133808786E+00
Ga    6.5149848143531583E+00    7.5555773585687405E+00    5.9244226651632745E+00
N    6.5060670611498006E+00    7.5479932569276116E+00    7.8955725453925965E+00
Ga    6.5065026679001541E+00    5.6794354187954088E+00    8.4891529837273101E+00
N    6.5033772419354801E+00    5.6776516686140441E+00    1.0481787981074374E+01
Ga    6.5067131759613979E+00    7.5471246893895847E+00    1.1073833621774021E+01
N    6.5052545932555477E+00    7.5471651801416373E+00    1.3046626047198270E+01
Ga    6.5043569877816614E+00    5.6776869004467638E+00    1.3668637072649672E+01
N    6.5025126116739900E+00    5.7087012832023500E+00    1.5631506138671504E+01
Ga    6.5045549304632884E+00    7.5474561816082488E+00    1.5910663607987340E+01
N    4.7924772175419568E+00    1.0277965903759082E+01    2.5796417171432946E+00
Ga    4.8920154326492575E+00    8.4761904997916115E+00    3.3363656701423818E+00
N    4.9058399543893669E+00    8.4654446179120200E+00    5.2889226790339920E+00
Ga    4.9132925049354306E+00    1.0347078609849241E+01    5.8566644223363662E+00
N    4.9039378880693931E+00    1.0331414454253514E+01    7.8546701650581472E+00
Ga    4.8866263782825978E+00    8.4788145001197481E+00    8.4892620635043059E+00
N    4.8857595009735091E+00    8.4786829785976021E+00    1.0482348559155714E+01
Ga    4.9118415741081103E+00    1.0339719333189063E+01    1.1116153560363207E+01
N    4.9284040998117495E+00    1.0350188835305444E+01    1.3112009193386481E+01
Ga    4.8854507520827344E+00    8.4819067707900260E+00    1.3668635659923574E+01
N    4.9127904040564037E+00    8.4659141040079842E+00    1.5632352976258320E+01
Ga    4.7387258013966020E+00    1.0241881315808921E+01    1.6527502138469284E+01
O    1.6535800692635730E-01    3.7616512815887759E+00   -4.2481388118805041E-01
H    7.0423735948925170E+00    3.3759955638470118E+00   -8.6640117426582453E-01
C   -9.2629709026780915E-01    3.1243907628383063E+00   -1.1127097448920011E+00
H   -1.1057943505148411E+00    2.0970220126772712E+00   -7.5496819794785164E-01
H   -1.8653942229915534E+00    3.6925749495459423E+00   -1.0130112042512256E+00
H   -6.5909293016909298E-01    3.0799924756611925E+00   -2.1783026427639478E+00
Ga    3.2901207224855309E+00    5.6778247476561798E+00    2.9088523755670184E+00
O    6.3092485723274159E+00    3.8331042592032154E+00   -4.2229816774135992E-01
H    1.1315924339084656E-01    7.5080972436602318E+00    1.6872281928250585E+00
C    3.2837601494091953E+00    1.9276831060769286E+00    1.2562742788556125E+00
H    6.4631711542312020E+00    7.5072112745550124E+00    1.6875322861210231E+00
H    4.2217454453485539E+00    1.8164920413354524E+00    6.9356554174341878E-01
H    2.3418161256237697E+00    1.8147529691400530E+00    7.0009314373656506E-01
     &END COORD
     &KIND C
       BASIS_SET DZVP-MOLOPT-SR-GTH-q4
       POTENTIAL GTH-PBE-q4
       &POTENTIAL
 2 2
  0.3384712400000000E+00 2 -0.8803673979999999E+01  0.1339210850000000E+01
 2
  0.3025757500000000E+00 1  0.9622486650000001E+01
  0.2915069400000000E+00 0
         # Potential name:  GTH-PBE-Q4  for symbol:  C
         # Potential read from the potential filename: GTH_POTENTIALS
       &END POTENTIAL
     &END KIND
     &KIND O
       BASIS_SET DZVP-MOLOPT-SR-GTH-q6
       POTENTIAL GTH-PBE-q6
       &POTENTIAL
 2 4
  0.2445543000000000E+00 2 -0.1666721480000000E+02  0.2487311320000000E+01
 2
  0.2209559200000000E+00 1  0.1833745811000000E+02
  0.2113324700000000E+00 0
         # Potential name:  GTH-PBE-Q6  for symbol:  O
         # Potential read from the potential filename: GTH_POTENTIALS
       &END POTENTIAL
     &END KIND
     &KIND H
       BASIS_SET DZVP-MOLOPT-SR-GTH-q1
       POTENTIAL GTH-PBE-q1
       &POTENTIAL
 1
  0.2000000000000000E+00 2 -0.4178900440000000E+01  0.7244633100000000E+00
 0
         # Potential name:  GTH-PBE-Q1  for symbol:  H
         # Potential read from the potential filename: GTH_POTENTIALS
       &END POTENTIAL
     &END KIND
     &KIND N
       BASIS_SET DZVP-MOLOPT-SR-GTH
       POTENTIAL GTH-PBE-q5
       &POTENTIAL
 2 3
  0.2837905100000000E+00 2 -0.1241522559000000E+02  0.1868095920000000E+01
 2
  0.2554050000000000E+00 1  0.1363026257000000E+02
  0.2454945300000000E+00 0
         # Potential name:  GTH-PBE-Q5  for symbol:  N
         # Potential read from the potential filename: GTH_POTENTIALS
       &END POTENTIAL
     &END KIND
     &KIND Ga
       BASIS_SET DZVP-MOLOPT-SR-GTH
       POTENTIAL GTH-PBE-q13
       &POTENTIAL
 2 1 10
  0.4900000000000000E+00 0
 3
  0.4167772300000000E+00 3  0.1047568975000000E+02 -0.4921768140000000E+01  0.8707055900000000E+00
  0.7770178090000000E+01 -0.2248152160000000E+01
  0.1784415450000000E+01
  0.5696265200000000E+00 2  0.1777985340000000E+01  0.1958597600000000E+00
 -0.2317443900000000E+00
  0.2381265000000000E+00 1 -0.1624868022000000E+02
         # Potential name:  GTH-PBE-Q13  for symbol:  GA
         # Potential read from the potential filename: GTH_POTENTIALS
       &END POTENTIAL
     &END KIND
     &TOPOLOGY
       NUMBER_OF_ATOMS  212
       MULTIPLE_UNIT_CELL  1 1 1
     &END TOPOLOGY
   &END SUBSYS
 &END FORCE_EVAL
