 # Version information for this restart file 
 # current date 2019-07-15 19:24:09.314
 # current working dir /lustre04/scratch/rzk/rzk/GaN-carbene/443-adatoms-both-2x2/08-CH3O-H2O-H2C-H/04-Use-0902
 # Program compiled at                              Sun Apr  7 00:48:11 EDT 2019
 # Program compiled on                          beluga2.int.ets1.calculquebec.ca
 # Program compiled for                        Beluga-Linux-x86-64-intel-openmpi
 # Source code revision number                                         svn:18619
 &GLOBAL
   PRINT_LEVEL  MEDIUM
   PROJECT_NAME TEST
   RUN_TYPE  GEO_OPT
 &END GLOBAL
 &MOTION
   &GEO_OPT
     MAX_ITER  500
     STEP_START_VAL  133
   &END GEO_OPT
 &END MOTION
 &FORCE_EVAL
   METHOD  QS
   STRESS_TENSOR  ANALYTICAL
   &DFT
     BASIS_SET_FILE_NAME BASIS_MOLOPT
     POTENTIAL_FILE_NAME GTH_POTENTIALS
     UKS  T
     SURFACE_DIPOLE_CORRECTION  T
     SURF_DIP_DIR  Z
     &SCF
       MAX_SCF  80
       EPS_SCF     5.0000000000000004E-06
       &OT  T
         PRECONDITIONER  FULL_ALL
       &END OT
       &OUTER_SCF  T
         OPTIMIZER  NONE
         EPS_SCF     5.0000000000000004E-06
         MAX_SCF  4
       &END OUTER_SCF
       &PRINT
         &RESTART  OFF
           BACKUP_COPIES  1
           &EACH
             JUST_ENERGY  0
             QS_SCF  0
             MD  20
           &END EACH
         &END RESTART
       &END PRINT
     &END SCF
     &QS
       EPS_DEFAULT     1.0000000000000000E-14
       METHOD  GPW
     &END QS
     &MGRID
       NGRIDS  5
       CUTOFF     1.2000000000000000E+03
     &END MGRID
     &XC
       DENSITY_CUTOFF     1.0000000000000000E-10
       GRADIENT_CUTOFF     1.0000000000000000E-10
       TAU_CUTOFF     1.0000000000000000E-10
       &XC_FUNCTIONAL  NO_SHORTCUT
         &PBE  T
         &END PBE
       &END XC_FUNCTIONAL
       &VDW_POTENTIAL
         POTENTIAL_TYPE  PAIR_POTENTIAL
         &PAIR_POTENTIAL
           R_CUTOFF     1.0000000000000004E+01
           TYPE  DFTD3
           PARAMETER_FILE_NAME dftd3.dat
           REFERENCE_FUNCTIONAL PBE
           EPS_CN     9.9999999999999995E-07
           CALCULATE_C9_TERM  T
           REFERENCE_C9_TERM  T
           LONG_RANGE_CORRECTION  F
           VERBOSE_OUTPUT  F
         &END PAIR_POTENTIAL
       &END VDW_POTENTIAL
     &END XC
   &END DFT
   &SUBSYS
     &CELL
       A     1.2864472766435110E+01    0.0000000000000000E+00    0.0000000000000000E+00
       B    -6.4322363581020028E+00    1.1140960178524473E+01    0.0000000000000000E+00
       C     0.0000000000000000E+00    0.0000000000000000E+00    3.2000000000000000E+01
       MULTIPLE_UNIT_CELL  1 1 1
       &CELL_REF
         A     1.2982353780853531E+01    0.0000000000000000E+00    0.0000000000000000E+00
         B    -6.4911768904267628E+00    1.1243048175136114E+01    0.0000000000000000E+00
         C     0.0000000000000000E+00    0.0000000000000000E+00    3.2000000000000000E+01
         MULTIPLE_UNIT_CELL  1 1 1
       &END CELL_REF
     &END CELL
     &COORD
N    6.1708451945400158E-02    2.1047096197748165E+00    2.5594674600661107E+00
Ga    4.9976117860900025E-02    1.3280245426961640E-01    2.9510955886589398E+00
N    5.6165527278632298E-02    1.2954030752931656E-01    5.1156533536422968E+00
Ga    5.6857265006573773E-02    1.9430823110095465E+00    5.8722928548139715E+00
N    7.4871058914993877E-02    1.9680080661194275E+00    7.8618670252000076E+00
Ga    7.4960584796229399E-02    1.1416050235716703E-01    8.4870776864884228E+00
N    7.4466700874896874E-02    1.1699451531702630E-01    1.0464315654930632E+01
Ga    7.2321075989158462E-02    1.9569723885249553E+00    1.1116604816466754E+01
N    7.2499441230563288E-02    1.9390704912180483E+00    1.3112101719762574E+01
Ga    7.2849945559194759E-02    1.1901186847722743E-01    1.3914427218616495E+01
N    7.3620415980118661E-02    1.1921558201796732E-01    1.6117987097128431E+01
Ga    7.1745619903122101E-02    2.1590968026325577E+00    1.6528620714295318E+01
Ga    3.1282606072752316E-02    3.8373459951905562E+00    1.3829295677766824E+00
N   -1.4184358466788667E+00    4.6948972029007781E+00    2.5608821752754127E+00
Ga   -1.6203990093693910E+00    2.8608065514800844E+00    3.3267722859826239E+00
N   -1.5328883699490232E+00    2.9073637107640820E+00    5.3108377168815295E+00
Ga   -1.5689871590359488E+00    4.7722057870976116E+00    5.8585216407436285E+00
N   -1.5431205192294619E+00    4.7678046471932580E+00    7.8553374674754934E+00
Ga   -1.5298294857463686E+00    2.9102433220983062E+00    8.4900895477270790E+00
N   -1.5245258242696711E+00    2.9109315245519616E+00    1.0484687776134322E+01
Ga   -1.5513569165331493E+00    4.7710340800371549E+00    1.1116266372459766E+01
N   -1.5676389221494091E+00    4.7804940080007423E+00    1.3111461291747673E+01
Ga   -1.5247568192746817E+00    2.9117106713755510E+00    1.3667912383613178E+01
N   -1.5526978773926725E+00    2.8973481675427148E+00    1.5630500531551496E+01
Ga   -1.3715789531532827E+00    4.6669114105263363E+00    1.6529235282158115E+01
N    7.9169214620302186E-02    3.8290980822731258E+00    1.7661549896311907E+01
N   -3.1447077414381783E+00    7.6072512184614638E+00    2.5175461707695534E+00
Ga   -3.1438202249570777E+00    5.6710219907947375E+00    2.9065015626633075E+00
N   -3.1446083734219417E+00    5.6757836702891895E+00    5.0892700788848897E+00
Ga   -3.1443850405891918E+00    7.5126322977596773E+00    5.8136724842786105E+00
N   -3.1438887245282170E+00    7.5390166662078837E+00    7.8239856702249435E+00
Ga   -3.1437185351901800E+00    5.6959280662235603E+00    8.4872700372770939E+00
N   -3.1437831623790609E+00    5.6925364245729879E+00    1.0465128583771934E+01
Ga   -3.1434543353824660E+00    7.5305442806404672E+00    1.1115822439821514E+01
N   -3.1438949187469731E+00    7.5111265483024150E+00    1.3111103809526844E+01
Ga   -3.1432495896271173E+00    5.6903712754570757E+00    1.3913927145232124E+01
N   -3.1424424110121065E+00    5.6897856895159995E+00    1.6118052834631595E+01
Ga   -3.1441365013766913E+00    7.7287748866650814E+00    1.6528723026865837E+01
Ga   -3.1460119798786867E+00    9.1156716964662152E+00    7.5271991766816027E-01
N   -4.7339307043236518E+00    1.0305828040066435E+01    2.5415126693015200E+00
Ga   -4.7361516797412628E+00    8.4838084958037658E+00    3.2539642617383500E+00
N   -4.7607777072220099E+00    8.4686460440570954E+00    5.2431882343558440E+00
Ga   -4.7940046638963665E+00    1.0342261057924059E+01    5.8244689814361141E+00
N   -4.7560334787588712E+00    1.0334834273865583E+01    7.8265103659340562E+00
Ga   -4.7370006873193722E+00    8.4805457003762150E+00    8.4770645800556910E+00
N   -4.7396682210570864E+00    8.4815696283432853E+00    1.0473524733975246E+01
Ga   -4.7662961523795015E+00    1.0338880606610592E+01    1.1116060675209141E+01
N   -4.7830698586813076E+00    1.0349920798270761E+01    1.3110553173132200E+01
Ga   -4.7407551286538165E+00    8.4820397481227499E+00    1.3668847718341809E+01
N   -4.7683091640749007E+00    8.4679384477924540E+00    1.5631141018617253E+01
Ga   -4.5886998346546983E+00    1.0237863570136764E+01    1.6529602087173320E+01
N   -3.1367379479501771E+00    9.3994045961587425E+00    1.7663562709887646E+01
N    3.2872348996137455E+00    2.1665661471579583E+00    2.5265712255281190E+00
Ga    3.2876060513490479E+00   -1.4048834918580375E-01    3.2987764298820177E+00
N    3.2881529982659474E+00    1.3160156403839221E-01    5.2336020035083530E+00
Ga    3.2885151338202721E+00    1.9589240888268653E+00    5.9289397116584608E+00
N    3.2885667430822685E+00    1.9694257138897475E+00    7.8934064595184719E+00
Ga    3.2885506503385655E+00    1.0008121821192832E-01    8.4827281333491662E+00
N    3.2886949215584580E+00    1.0520142186931222E-01    1.0475896796802592E+01
Ga    3.2893314697895502E+00    1.9730398032164156E+00    1.1077837383448651E+01
N    3.2885816957015326E+00    1.9749036864065228E+00    1.3048947065424537E+01
Ga    3.2879603420574264E+00    1.0545462277885613E-01    1.3669870985500550E+01
N    3.2866700950647671E+00    1.3782858823549865E-01    1.5631836442228147E+01
Ga    3.2884434110543310E+00    1.9765649777449998E+00    1.5910377074032201E+01
N    1.5556387878244160E+00    4.6917655765845936E+00    2.5589157806132676E+00
Ga    1.6076495943134987E+00    2.9108699276855452E+00    3.3848438524312527E+00
N    1.6958445910187416E+00    2.8919761472416825E+00    5.3043802229698560E+00
Ga    1.7111646036057568E+00    4.7819625044539649E+00    5.8619700038851761E+00
N    1.6888829797226039E+00    4.7628704758562970E+00    7.8506301648789911E+00
Ga    1.6716952333741777E+00    2.9072032749453056E+00    8.4947505528243976E+00
N    1.6724497586175437E+00    2.9099763926048587E+00    1.0484542351772800E+01
Ga    1.6955466868162139E+00    4.7700922626195359E+00    1.1119917103036633E+01
N    1.7120374746429692E+00    4.7798358380636756E+00    1.3113834237302440E+01
Ga    1.6686312426793144E+00    2.9107726372147651E+00    1.3669542466944005E+01
N    1.6969634626091603E+00    2.8953669707699645E+00    1.5632789745724434E+01
Ga    1.5214491693524084E+00    4.6705949371735764E+00    1.6528948982928515E+01
N    7.9591880231428686E-02    7.5411649106508643E+00    2.7130506466953896E+00
Ga    5.8768589382881417E-02    5.7010607318410997E+00    3.3667423972577089E+00
N    7.3453965813760680E-02    5.7018480978838459E+00    5.3066277094302361E+00
Ga    6.1370075670271210E-02    7.5561006345586419E+00    5.9243702667812137E+00
N    7.0537168361939129E-02    7.5481376948573677E+00    7.8954169505736678E+00
Ga    7.0297435464359626E-02    5.6794788262884373E+00    8.4890571349584203E+00
N    7.3780158190559844E-02    5.6775807662476323E+00    1.0481600547171585E+01
Ga    7.1575532996797142E-02    7.5471005224944498E+00    1.1073543060969071E+01
N    7.1367928604629025E-02    7.5472138245459535E+00    1.3046201213673463E+01
Ga    7.1390138657605670E-02    5.6777150230700748E+00    1.3668709774528031E+01
N    7.0471441047551570E-02    5.7093979059123079E+00    1.5630981772045992E+01
Ga    7.1948731530931315E-02    7.5475582628388160E+00    1.5910668525976041E+01
N   -1.5551862599179995E+00    1.0306452109312680E+01    2.5407414505980879E+00
Ga   -1.5532325596146688E+00    8.4841895748719445E+00    3.2534972375127915E+00
N   -1.5276766196603406E+00    8.4687004788926981E+00    5.2428080769496779E+00
Ga   -1.4939179083279768E+00    1.0342566662660440E+01    5.8237041955287348E+00
N   -1.5314531413708099E+00    1.0334952497985709E+01    7.8259605777753709E+00
Ga   -1.5507938880230847E+00    8.4806795789147493E+00    8.4770330287491742E+00
N   -1.5470699911460717E+00    8.4813014125159345E+00    1.0473781826187397E+01
Ga   -1.5211092224128406E+00    1.0338567373323743E+01    1.1116429105356787E+01
N   -1.5047068808647321E+00    1.0349900762417962E+01    1.3111336673812870E+01
Ga   -1.5474326027794016E+00    8.4817979426225616E+00    1.3669302797754231E+01
N   -1.5199918244465387E+00    8.4664308239665917E+00    1.5632785824601223E+01
Ga   -1.6936698141006499E+00    1.0241442785629536E+01    1.6528958665237276E+01
N    6.5147429093973317E+00    2.1070916123892109E+00    2.5554628913534088E+00
Ga    6.5262143150059577E+00    1.3228126663149209E-01    2.9488955817473643E+00
N    6.5202709744506224E+00    1.3035565605182201E-01    5.1138129956332365E+00
Ga    6.5195232340449367E+00    1.9433480395285263E+00    5.8721201342710216E+00
N    6.5022481120433815E+00    1.9679817966848618E+00    7.8615755731599242E+00
Ga    6.5019774187598856E+00    1.1409032546766142E-01    8.4869439433214442E+00
N    6.5023877953652223E+00    1.1698516566963468E-01    1.0464239490668680E+01
Ga    6.5052283239005755E+00    1.9570034330403197E+00    1.1116431596518847E+01
N    6.5041249801612633E+00    1.9390462789947609E+00    1.3112068012215181E+01
Ga    6.5047395304240094E+00    1.1883160893627397E-01    1.3914011756177754E+01
N    6.5050762760918772E+00    1.1879504077390515E-01    1.6118006901188007E+01
Ga    6.5044027530357056E+00    2.1571401637352756E+00    1.6527361663599191E+01
Ga    6.5507397792739752E+00    3.8325538476306003E+00    1.3775856322956208E+00
N    5.0200547955624737E+00    4.6918616790800449E+00    2.5605313498546716E+00
Ga    4.9675648982912124E+00    2.9126054121445724E+00    3.3827005857857997E+00
N    4.8809409416917307E+00    2.8913821110560924E+00    5.3029752869064728E+00
Ga    4.8652988195992606E+00    4.7815781946699758E+00    5.8607780596472319E+00
N    4.8880806638167638E+00    4.7628178267276917E+00    7.8498818141978086E+00
Ga    4.9054728821799358E+00    2.9072552887231713E+00    8.4943634805677330E+00
N    4.9055160436892109E+00    2.9103649122653614E+00    1.0483976145267814E+01
Ga    4.8816394245665027E+00    4.7704133743699986E+00    1.1119460109108891E+01
N    4.8646542016730807E+00    4.7798229706613480E+00    1.3113096199261294E+01
Ga    4.9076929037227117E+00    2.9110214148203939E+00    1.3668977176205626E+01
N    4.8800155909401948E+00    2.8973636890987908E+00    1.5631635902061468E+01
Ga    5.0590952799875426E+00    4.6679485987463405E+00    1.6528369504432529E+01
N    6.5120778285817176E+00    3.8291855944247679E+00    1.7661185739976098E+01
N    3.2880445292097047E+00    7.6414139753248733E+00    2.5630182179158441E+00
N    3.2878470652344074E+00    5.6796694709009206E+00    5.0863798005652487E+00
Ga    3.2880716075448224E+00    7.5102225775805040E+00    5.8463542245271647E+00
N    3.2884418227249093E+00    7.5344297426017555E+00    7.8431437017217007E+00
Ga    3.2885702525383826E+00    5.6898027780101490E+00    8.4945456919430171E+00
N    3.2885210407897332E+00    5.6893004888253254E+00    1.0467670235031216E+01
Ga    3.2887379894255999E+00    7.5286745589104225E+00    1.1119845073019938E+01
N    3.2882639934830804E+00    7.5097713901094920E+00    1.3113895516873352E+01
Ga    3.2886645488112536E+00    5.6896550556919605E+00    1.3916694415904901E+01
N    3.2890023543793108E+00    5.6891822292350076E+00    1.6118434024204401E+01
Ga    3.2880923508886446E+00    7.7287785400494640E+00    1.6527661358749128E+01
Ga    3.2892121213858032E+00    9.4838877529856820E+00    1.2969652304902026E+00
N    1.7840746112290917E+00    1.0278156567491747E+01    2.5791114382164744E+00
Ga    1.6846056829071032E+00    8.4763775615528036E+00    3.3357744901233306E+00
N    1.6703859862700761E+00    8.4658219570971038E+00    5.2885186781107514E+00
Ga    1.6631531442726188E+00    1.0347618468093611E+01    5.8559289894277713E+00
N    1.6727612995890064E+00    1.0331608160858561E+01    7.8540813268086023E+00
Ga    1.6901512640688907E+00    8.4788905727403918E+00    8.4887089123464925E+00
N    1.6919136797993877E+00    8.4789664330185097E+00    1.0481570619208357E+01
Ga    1.6651169630994194E+00    1.0339853873309179E+01    1.1115444036881909E+01
N    1.6479812216894087E+00    1.0350131487201612E+01    1.3110913734945902E+01
Ga    1.6904933926655765E+00    8.4820396967636515E+00    1.3668120984396479E+01
N    1.6632940515485919E+00    8.4678194571636425E+00    1.5630707235938345E+01
Ga    1.8437417641194782E+00    1.0237954964191424E+01    1.6528293558476872E+01
N    3.2957613568263997E+00    9.3997228351681006E+00    1.7660934065892103E+01
N    9.7200169480482916E+00    1.9793511017179304E+00    2.6931025352941589E+00
Ga    9.7205755913667868E+00    2.1184090312545240E-01    3.3159746895437472E+00
N    9.7205834452289217E+00    1.1668370244403836E-01    5.3044803240625056E+00
Ga    9.7207699465666160E+00    1.9753031788326088E+00    5.9137552785044649E+00
N    9.7206942600978934E+00    1.9748329949019403E+00    7.9006546524228609E+00
Ga    9.7207448383865263E+00    1.0864520063693001E-01    8.4877891177586804E+00
N    9.7208702539872345E+00    1.0632021066560754E-01    1.0483480427647809E+01
Ga    9.7214639412178236E+00    1.9754270811978725E+00    1.1076448312396762E+01
N    9.7205234036713470E+00    1.9761803274280101E+00    1.3049300414477598E+01
Ga    9.7201039987507798E+00    1.0614767548598526E-01    1.3667758441615849E+01
N    9.7185760096193938E+00    1.3816720591120837E-01    1.5630594392074245E+01
Ga    9.7203984498817082E+00    1.9769236677878079E+00    1.5908838981457530E+01
N    7.9931321850617172E+00    4.6930164605204210E+00    2.5568199303387056E+00
Ga    8.1966790275649792E+00    2.8607071279360126E+00    3.3281561485335729E+00
N    8.1092460947032627E+00    2.9075678336314388E+00    5.3109645454563728E+00
Ga    8.1450046647494858E+00    4.7725039060258965E+00    5.8590684491776885E+00
N    8.1200104937895805E+00    4.7677110406914247E+00    7.8555477812242902E+00
Ga    8.1070407059892915E+00    2.9102004666873018E+00    8.4903173019640352E+00
N    8.1023641260857300E+00    2.9106897648475609E+00    1.0485094718225275E+01
Ga    8.1284742404685542E+00    4.7708797858442686E+00    1.1116591165606575E+01
N    8.1443512972489547E+00    4.7805843444963170E+00    1.3112342564391174E+01
Ga    8.1008754993506074E+00    2.9116035622006664E+00    1.3668088016972643E+01
N    8.1280271157639437E+00    2.8960044809898799E+00    1.5632452218663513E+01
Ga    7.9560289283112358E+00    4.6717854656344544E+00    1.6527128416262180E+01
N    6.4960983526032035E+00    7.5403831783686481E+00    2.7134019885396929E+00
Ga    6.5156443866620535E+00    5.6995401061745810E+00    3.3653670866423560E+00
N    6.5032389632808538E+00    5.7015914679684565E+00    5.3058413109262332E+00
Ga    6.5149171566725093E+00    7.5556397375746558E+00    5.9241885799674723E+00
N    6.5061292019960026E+00    7.5480721695561277E+00    7.8953307258681713E+00
Ga    6.5066258673797233E+00    5.6794913176593393E+00    8.4888703290383507E+00
N    6.5035306968432058E+00    5.6776883475956881E+00    1.0481518372544684E+01
Ga    6.5068404599539154E+00    7.5471601653691076E+00    1.1073676243549576E+01
N    6.5054294865730418E+00    7.5471288033934592E+00    1.3046456987504202E+01
Ga    6.5045265448589209E+00    5.6776549909127167E+00    1.3668513652652418E+01
N    6.5026780511145335E+00    5.7086911069209982E+00    1.5631403072758584E+01
Ga    6.5047304580568319E+00    7.5474281454164629E+00    1.5910571772103948E+01
N    4.7923111254647566E+00    1.0278096259274861E+01    2.5794510320381203E+00
Ga    4.8917165442909649E+00    8.4762488803965415E+00    3.3360545620153594E+00
N    4.9058689845957559E+00    8.4655357661657487E+00    5.2886700219648066E+00
Ga    4.9132657535667192E+00    1.0347077166293820E+01    5.8565702616889856E+00
N    4.9040350446605858E+00    1.0331480788509158E+01    7.8545127770609522E+00
Ga    4.8867306047575774E+00    8.4788911514413918E+00    8.4890819167931575E+00
N    4.8859110615503942E+00    8.4787192932028503E+00    1.0482111201150103E+01
Ga    4.9119749648274986E+00    1.0339718631281544E+01    1.1116011273194843E+01
N    4.9286231784507617E+00    1.0350245659650213E+01    1.3111880669880929E+01
Ga    4.8856259533814521E+00    8.4819086108088815E+00    1.3668475689028565E+01
N    4.9129323467258041E+00    8.4659280736433598E+00    1.5632251266939315E+01
Ga    4.7390195481740980E+00    1.0241919434906231E+01    1.6527408419236981E+01
O    1.6565884836967693E-01    3.7619434547672426E+00   -4.2507896469723383E-01
H    7.0374612266336554E+00    3.3751257389610574E+00   -8.6793772778455636E-01
C   -9.2629246315450386E-01    3.1250287175314213E+00   -1.1128352739201308E+00
H   -1.1063607180451593E+00    2.0977906844619150E+00   -7.5502997995456600E-01
H   -1.8651448392271350E+00    3.6936473477455372E+00   -1.0131111593085906E+00
H   -6.5929780215050682E-01    3.0805930276535118E+00   -2.1785159471375963E+00
Ga    3.2899678742114866E+00    5.6780664536390466E+00    2.9088215837177458E+00
O    6.3053672406377563E+00    3.8328956141142791E+00   -4.2249263400225368E-01
H    1.1297117366905067E-01    7.5078963060387629E+00    1.6870550854964244E+00
C    3.2834326914645833E+00    1.9277402845965728E+00    1.2561809576391689E+00
H    6.4630212900833195E+00    7.5069507443630847E+00    1.6874165135546804E+00
H    4.2213689570744659E+00    1.8165154835724906E+00    6.9329873819149501E-01
H    2.3413867451217123E+00    1.8150526876715600E+00    7.0004462492888253E-01
     &END COORD
     &KIND C
       BASIS_SET DZVP-MOLOPT-SR-GTH-q4
       POTENTIAL GTH-PBE-q4
       &POTENTIAL
 2 2
  0.3384712400000000E+00 2 -0.8803673979999999E+01  0.1339210850000000E+01
 2
  0.3025757500000000E+00 1  0.9622486650000001E+01
  0.2915069400000000E+00 0
         # Potential name:  GTH-PBE-Q4  for symbol:  C
         # Potential read from the potential filename: GTH_POTENTIALS
       &END POTENTIAL
     &END KIND
     &KIND O
       BASIS_SET DZVP-MOLOPT-SR-GTH-q6
       POTENTIAL GTH-PBE-q6
       &POTENTIAL
 2 4
  0.2445543000000000E+00 2 -0.1666721480000000E+02  0.2487311320000000E+01
 2
  0.2209559200000000E+00 1  0.1833745811000000E+02
  0.2113324700000000E+00 0
         # Potential name:  GTH-PBE-Q6  for symbol:  O
         # Potential read from the potential filename: GTH_POTENTIALS
       &END POTENTIAL
     &END KIND
     &KIND H
       BASIS_SET DZVP-MOLOPT-SR-GTH-q1
       POTENTIAL GTH-PBE-q1
       &POTENTIAL
 1
  0.2000000000000000E+00 2 -0.4178900440000000E+01  0.7244633100000000E+00
 0
         # Potential name:  GTH-PBE-Q1  for symbol:  H
         # Potential read from the potential filename: GTH_POTENTIALS
       &END POTENTIAL
     &END KIND
     &KIND N
       BASIS_SET DZVP-MOLOPT-SR-GTH
       POTENTIAL GTH-PBE-q5
       &POTENTIAL
 2 3
  0.2837905100000000E+00 2 -0.1241522559000000E+02  0.1868095920000000E+01
 2
  0.2554050000000000E+00 1  0.1363026257000000E+02
  0.2454945300000000E+00 0
         # Potential name:  GTH-PBE-Q5  for symbol:  N
         # Potential read from the potential filename: GTH_POTENTIALS
       &END POTENTIAL
     &END KIND
     &KIND Ga
       BASIS_SET DZVP-MOLOPT-SR-GTH
       POTENTIAL GTH-PBE-q13
       &POTENTIAL
 2 1 10
  0.4900000000000000E+00 0
 3
  0.4167772300000000E+00 3  0.1047568975000000E+02 -0.4921768140000000E+01  0.8707055900000000E+00
  0.7770178090000000E+01 -0.2248152160000000E+01
  0.1784415450000000E+01
  0.5696265200000000E+00 2  0.1777985340000000E+01  0.1958597600000000E+00
 -0.2317443900000000E+00
  0.2381265000000000E+00 1 -0.1624868022000000E+02
         # Potential name:  GTH-PBE-Q13  for symbol:  GA
         # Potential read from the potential filename: GTH_POTENTIALS
       &END POTENTIAL
     &END KIND
     &TOPOLOGY
       NUMBER_OF_ATOMS  212
       MULTIPLE_UNIT_CELL  1 1 1
     &END TOPOLOGY
   &END SUBSYS
 &END FORCE_EVAL
