 # Version information for this restart file 
 # current date 2019-05-28 03:08:54.405
 # current working dir /lustre03/project/6004141/rzk/GaN-carbene/334-native/08-2Methanol-Htransfer/03-CO-constraint/2.04
 # Program compiled at                              Sun Apr  7 00:48:11 EDT 2019
 # Program compiled on                          beluga2.int.ets1.calculquebec.ca
 # Program compiled for                        Beluga-Linux-x86-64-intel-openmpi
 # Source code revision number                                         svn:18619
 &GLOBAL
   PRINT_LEVEL  MEDIUM
   PROJECT_NAME TEST
   RUN_TYPE  GEO_OPT
 &END GLOBAL
 &MOTION
   &GEO_OPT
     MAX_ITER  500
     STEP_START_VAL  125
   &END GEO_OPT
   &CONSTRAINT
     &COLLECTIVE
       COLVAR  1
       INTERMOLECULAR  T
       TARGET     3.8550413110867119E+00
       &RESTRAINT
         K     1.0000000000000001E-01
       &END RESTRAINT
     &END COLLECTIVE
     &COLVAR_RESTART
           3.8550413110867119E+00
     &END COLVAR_RESTART
   &END CONSTRAINT
 &END MOTION
 &FORCE_EVAL
   METHOD  QS
   STRESS_TENSOR  ANALYTICAL
   &DFT
     BASIS_SET_FILE_NAME BASIS_MOLOPT
     POTENTIAL_FILE_NAME GTH_POTENTIALS
     &SCF
       MAX_SCF  100
       EPS_SCF     5.0000000000000004E-06
       &OT  T
         PRECONDITIONER  FULL_ALL
       &END OT
       &OUTER_SCF  T
         OPTIMIZER  NONE
         EPS_SCF     5.0000000000000004E-06
         MAX_SCF  4
       &END OUTER_SCF
       &PRINT
         &RESTART  OFF
           BACKUP_COPIES  1
           &EACH
             JUST_ENERGY  0
             QS_SCF  0
             MD  20
           &END EACH
         &END RESTART
       &END PRINT
     &END SCF
     &QS
       EPS_DEFAULT     1.0000000000000000E-14
       ALMO_SCF  F
       METHOD  GPW
     &END QS
     &MGRID
       NGRIDS  5
       CUTOFF     1.2000000000000000E+03
     &END MGRID
     &XC
       DENSITY_CUTOFF     1.0000000000000000E-10
       GRADIENT_CUTOFF     1.0000000000000000E-10
       TAU_CUTOFF     1.0000000000000000E-10
       &XC_FUNCTIONAL  NO_SHORTCUT
         &PBE  T
         &END PBE
       &END XC_FUNCTIONAL
       &VDW_POTENTIAL
         POTENTIAL_TYPE  PAIR_POTENTIAL
         &PAIR_POTENTIAL
           R_CUTOFF     1.0000000000000005E+01
           TYPE  DFTD3
           PARAMETER_FILE_NAME dftd3.dat
           REFERENCE_FUNCTIONAL PBE
           EPS_CN     9.9999999999999995E-07
           CALCULATE_C9_TERM  T
           REFERENCE_C9_TERM  T
           LONG_RANGE_CORRECTION  F
           VERBOSE_OUTPUT  F
         &END PAIR_POTENTIAL
       &END VDW_POTENTIAL
     &END XC
   &END DFT
   &SUBSYS
     &CELL
       A     9.7367653356401487E+00    0.0000000000000000E+00    0.0000000000000000E+00
       B    -4.8591341382960209E+00    8.4162672083210595E+00    0.0000000000000000E+00
       C     0.0000000000000000E+00    0.0000000000000000E+00    3.0744000000000000E+01
       MULTIPLE_UNIT_CELL  1 1 1
       &CELL_REF
         A     9.5580000000000052E+00    0.0000000000000000E+00    0.0000000000000000E+00
         B    -4.7790000000000026E+00    8.2774708093716640E+00    0.0000000000000000E+00
         C     0.0000000000000000E+00    0.0000000000000000E+00    3.0744000000000000E+01
         MULTIPLE_UNIT_CELL  1 1 1
       &END CELL_REF
     &END CELL
     &COORD
Ga    1.7557310330394288E-02   -3.0281972795921593E-02   -5.3951929244247887E-01
N    2.0536336365752066E-02    1.8425233793120983E+00    6.0601429242296379E-01
Ga    1.9416225969079038E-02    1.8117018594080636E+00    2.6371127719443366E+00
N    1.6385331730158697E-02   -3.1573061380561158E-02    3.2689927268617125E+00
Ga    1.5786216700662038E-02   -2.9952340500302932E-02    5.2594677898023114E+00
N    1.8763523369276974E-02    1.8446020806410801E+00    5.8474835394688958E+00
Ga    1.8902404469278974E-02    1.8428078774458507E+00    7.8466906845111977E+00
N    1.7891159624233974E-02   -3.0192197584922517E-02    8.4477247746909665E+00
Ga    1.9348090567599362E-02   -2.9816820022952301E-02    1.0445425478190938E+01
N    1.7738572065927612E-02    1.8423252175802227E+00    1.1048753596872981E+01
Ga    2.3383298038819129E-02    1.8384874087701699E+00    1.3042319909090043E+01
N    3.2439982823611664E-02   -3.2482951840992855E-02    1.3640538287742377E+01
Ga    5.0681602557593068E-02   -5.6435500740143689E-02    1.5634231871850986E+01
N    4.2532309437140800E-02    1.8258428959843875E+00    1.6220131414151005E+01
Ga    7.5708588734028262E-02    1.8080612679107377E+00    1.8275807686191715E+01
N    6.1810462077177476E-02   -6.9316930376246255E-02    1.8666948780111166E+01
Ga   -1.6018702542458154E+00    2.7736395123527520E+00    3.2340431210539866E-01
N   -1.6034070555466065E+00    4.6432317018812288E+00    6.0652316219638491E-01
Ga   -1.5756239576597340E+00    4.6593042668863216E+00    2.6363408042417373E+00
N   -1.6028922955182925E+00    2.7739020537763217E+00    3.2279050309333859E+00
Ga   -1.6032196214710634E+00    2.7753032748779147E+00    5.2389803572343938E+00
N   -1.6033595609167286E+00    4.6452569994804733E+00    5.8461061102115561E+00
Ga   -1.6034946549332301E+00    4.6463392872644560E+00    7.8444275496057410E+00
N   -1.6040469961610975E+00    2.7760544802079208E+00    8.4514631255938362E+00
Ga   -1.6047206149269984E+00    2.7779514523850928E+00    1.0447438676802737E+01
N   -1.6057393432758222E+00    4.6478349449835941E+00    1.1056798966657588E+01
Ga   -1.6102295922716727E+00    4.6466161889952424E+00    1.3055092801520409E+01
N   -1.5930900692896268E+00    2.7765905730433760E+00    1.3671059341606172E+01
Ga   -1.5902098851591739E+00    2.7858566074169611E+00    1.5679644715578638E+01
N   -1.5815649131293030E+00    4.6520939496160896E+00    1.6303532741246652E+01
Ga   -1.4803955950834844E+00    4.6405924148691051E+00    1.8379536541089699E+01
N   -1.5224636256859738E+00    2.7434673162369507E+00    1.8722039711749755E+01
Ga   -3.2222113117534192E+00    5.5790877747823773E+00    3.2382744334172564E-01
N   -3.2162246275200497E+00    7.4498429807557960E+00    6.0537878501193421E-01
Ga   -3.2445556485317715E+00    7.4651878803326630E+00    2.6365999882164286E+00
N   -3.2227436257977571E+00    5.5794255108252422E+00    3.2275458408947499E+00
Ga   -3.2233521391248758E+00    5.5804804440556035E+00    5.2388646416209417E+00
N   -3.2177482532401798E+00    7.4509552470716045E+00    5.8454748670866623E+00
Ga   -3.2191571246826634E+00    7.4513704221212098E+00    7.8438895204407491E+00
N   -3.2241527931954348E+00    5.5809555604244672E+00    8.4484533360495639E+00
Ga   -3.2246340706284036E+00    5.5797982728900335E+00    1.0443388856560029E+01
N   -3.2170042989153287E+00    7.4488353279284159E+00    1.1053686806922078E+01
Ga   -3.2095278711438455E+00    7.4424493533062508E+00    1.3051694732766563E+01
N   -3.2290557847525063E+00    5.5754069829263182E+00    1.3690270278967258E+01
Ga   -3.2104842971057188E+00    5.5712312621682338E+00    1.5726329440029392E+01
N   -3.1856680047057861E+00    7.4349582643379106E+00    1.6287461495517746E+01
Ga   -3.1699266122191396E+00    7.3919527118698625E+00    1.8347702712146553E+01
N   -3.1174762667225338E+00    5.5325592485903829E+00    1.8884331588875121E+01
Ga    3.2639023636406121E+00   -3.1892772261417228E-02    3.2376254998856052E-01
N    3.2620512954278427E+00    1.8382588374563273E+00    6.0585666621462142E-01
Ga    3.2893148658252689E+00    1.8542049426261473E+00    2.6365208206284656E+00
N    3.2623606299359249E+00   -3.1558754098079650E-02    3.2274581429457458E+00
Ga    3.2623543351545554E+00   -2.9968326951103973E-02    5.2388339142519342E+00
N    3.2625663724664093E+00    1.8403395811404031E+00    5.8460481401433180E+00
Ga    3.2630056654097985E+00    1.8407394478340064E+00    7.8447143648875937E+00
N    3.2601877442112883E+00   -2.9564755926810536E-02    8.4482775959552825E+00
Ga    3.2614292574604122E+00   -2.9814954133792062E-02    1.0442847180056051E+01
N    3.2678064508233526E+00    1.8404874014502384E+00    1.1051135147579130E+01
Ga    3.2743030573223066E+00    1.8334271599117780E+00    1.3047805728053088E+01
N    3.2660394830489414E+00   -3.4780813460025969E-02    1.3666106112371102E+01
Ga    3.2761211743377001E+00   -4.1515092510487489E-02    1.5675086389912575E+01
N    3.3000445825826210E+00    1.8220942852919597E+00    1.6262145146488880E+01
Ga    3.3499281161915069E+00    1.8200734202752544E+00    1.8298638074723534E+01
N    3.3227053296809506E+00   -7.2580629732163504E-02    1.8758573469876819E+01
Ga    1.6429482272752718E+00    2.7742079926196630E+00    3.2378666085440821E-01
N    1.6498852809751927E+00    4.6439119158233595E+00    6.0690518503585844E-01
Ga    1.6207156812574162E+00    4.6596685064077059E+00    2.6366474690019928E+00
N    1.6423307011552599E+00    2.7740051252018132E+00    3.2284772063779825E+00
Ga    1.6420101374823763E+00    2.7758111723800676E+00    5.2400268381864299E+00
N    1.6474283895702215E+00    4.6456691029563295E+00    5.8486796407061332E+00
Ga    1.6457060455844505E+00    4.6465022220575847E+00    7.8488147831039035E+00
N    1.6423068242824974E+00    2.7740727638210401E+00    8.4494557137807220E+00
Ga    1.6426386649105245E+00    2.7734743310495613E+00    1.0444956869432504E+01
N    1.6386131348055568E+00    4.6444591951754450E+00    1.1040546082225388E+01
Ga    1.6337149121453378E+00    4.6431478771368520E+00    1.3033908189730074E+01
N    1.6480910193380156E+00    2.7648427814309304E+00    1.3641696927129582E+01
Ga    1.6769646698541525E+00    2.7541995642518544E+00    1.5634175400952639E+01
N    1.6330943084545850E+00    4.6330171597927015E+00    1.6135079777835561E+01
Ga    1.7087558319331195E+00    4.5911863122345222E+00    1.8117967286922674E+01
N    1.7085927076304350E+00    2.7476246010783165E+00    1.8639852590485923E+01
Ga    2.4054079470300443E-02    5.5786260255406317E+00   -5.4791097488988372E-01
N    2.7019592009975179E-02    7.4538820958153194E+00    6.0637649602162769E-01
Ga    2.6103353905591351E-02    7.4223865022795090E+00    2.6363714560508948E+00
N    2.2699931029852148E-02    5.5792669326907482E+00    3.2693539128514488E+00
Ga    2.2762342177965078E-02    5.5806581945934592E+00    5.2596621472806167E+00
N    2.5539642672677956E-02    7.4555317842389899E+00    5.8473603224433148E+00
Ga    2.4575015043200959E-02    7.4548609617058812E+00    7.8467317478350243E+00
N    1.9583588417665745E-02    5.5809933310346729E+00    8.4465467034886945E+00
Ga    1.7375844429358221E-02    5.5805637110922106E+00    1.0443718834429298E+01
N    2.4758777793591587E-02    7.4541471784921471E+00    1.1041875564885627E+01
Ga    2.3760369498521776E-02    7.4566216861979315E+00    1.3033496610437091E+01
N    1.2078698500447816E-02    5.5863001992882069E+00    1.3632812962429997E+01
Ga    1.2083938665946989E-02    5.5745098693489679E+00    1.5627881035180993E+01
N    5.2442359372381266E-02    7.4429180420043819E+00    1.6258060187966176E+01
Ga    7.7411680723271412E-02    7.3974942912019230E+00    1.8343573629193102E+01
N    1.9182573928097629E-01    5.5374959222226279E+00    1.8873000298976002E+01
Ga    6.5079512147625014E+00   -3.1088940279916627E-02    3.2302092993011849E-01
N    6.5150403062624900E+00    1.8388109722289783E+00    6.0596908345564771E-01
Ga    6.4865208334003857E+00    1.8542832744671394E+00    2.6363614229095154E+00
N    6.5079398120598233E+00   -3.1278880034950621E-02    3.2285072993527582E+00
Ga    6.5080528239206572E+00   -2.9648742743818637E-02    5.2401967313613671E+00
N    6.5129502072067789E+00    1.8408907528581555E+00    5.8468130620989074E+00
Ga    6.5106473057587477E+00    1.8419443525748747E+00    7.8455630358767623E+00
N    6.5062843414353626E+00   -2.7529699464083190E-02    8.4504504862727448E+00
Ga    6.5074594826149106E+00   -2.3370349787993648E-02    1.0446919505032870E+01
N    6.5096127081166086E+00    1.8484252285498379E+00    1.1057095800549417E+01
Ga    6.5119918428410584E+00    1.8531168166957213E+00    1.3056106943638804E+01
N    6.5014143770601756E+00   -2.0542233394172084E-02    1.3630684589768528E+01
Ga    6.5167835983654658E+00   -1.6545536508220791E-02    1.5629888231466243E+01
N    6.5236843086475158E+00    1.8479795140856643E+00    1.6251648938129062E+01
Ga    6.5926336181968637E+00    1.8181723950663800E+00    1.8301753672613646E+01
N    6.5935655233354415E+00   -9.1697714866661728E-02    1.8663748736886824E+01
Ga    4.8897660854134193E+00    2.7742245237425176E+00   -5.4358170851067078E-01
N    4.8919437904185861E+00    4.6485632886561934E+00    6.0607074992420884E-01
Ga    4.8909030725657265E+00    4.6172310041393301E+00    2.6365349725547595E+00
N    4.8881404975215625E+00    2.7738890042155084E+00    3.2684119267646015E+00
Ga    4.8880995123823814E+00    2.7758653475461488E+00    5.2584754933025497E+00
N    4.8902241000248887E+00    4.6501135780031362E+00    5.8470734316716708E+00
Ga    4.8883178052135481E+00    4.6493875494428822E+00    7.8464283874534537E+00
N    4.8867421308852634E+00    2.7760022427032833E+00    8.4476507756945374E+00
Ga    4.8885645155700477E+00    2.7788110644498754E+00    1.0445203302317099E+01
N    4.8923588867802783E+00    4.6482420756280725E+00    1.1052512656176837E+01
Ga    4.8905828966232647E+00    4.6490711869171566E+00    1.3052465872658441E+01
N    4.8851468874890429E+00    2.7815154734292658E+00    1.3668611831409526E+01
Ga    4.8896838698413969E+00    2.7717717674778428E+00    1.5690400235906541E+01
N    4.8489125764297576E+00    4.6657964738115938E+00    1.6150612900064615E+01
Ga    4.9766065927132228E+00    4.5961998073794152E+00    1.9136926334549571E+01
N    4.9732995279661978E+00    2.7100642692694579E+00    1.8833464556946335E+01
Ga    3.2694665762659971E+00    5.5788985171642036E+00    3.2378784984828929E-01
N    3.2685543730543500E+00    7.4494932240172833E+00    6.0534279204918340E-01
Ga    3.2954281051211587E+00    7.4652741858659351E+00    2.6366695396138464E+00
N    3.2682232816835519E+00    5.5797406154326454E+00    3.2284136815216331E+00
Ga    3.2676993369651268E+00    5.5812970362336269E+00    5.2402082642048455E+00
N    3.2683757966177120E+00    7.4513270484500609E+00    5.8489961739993799E+00
Ga    3.2689411844937872E+00    7.4518267116299945E+00    7.8493687867998858E+00
N    3.2669751122089954E+00    5.5811833182949036E+00    8.4535019855204272E+00
Ga    3.2669254750914409E+00    5.5824621805270436E+00    1.0452732692039481E+01
N    3.2712741212806562E+00    7.4593764409273087E+00    1.1042427628472931E+01
Ga    3.2702769198659523E+00    7.4629572212960618E+00    1.3037370764701828E+01
N    3.2548394065799817E+00    5.5850012387539945E+00    1.3594428770538913E+01
Ga    3.2515056283978532E+00    5.5928668687318872E+00    1.5588129010090512E+01
N    3.2844039501954327E+00    7.4632012499289244E+00    1.6132658065975200E+01
Ga    3.3496967317770583E+00    7.4328784118819566E+00    1.8135103971464083E+01
N    3.4630172288086190E+00    5.4763486674690931E+00    1.8318086178460046E+01
O    1.7160288462198066E+00    5.2208370106094870E+00    2.1308160023896129E+01
H    1.1240188168962872E+00    5.4362681399343797E+00    2.0519035890899769E+01
C    9.6651854993205610E-01    3.5524391386846186E+00    2.1699283255627364E+01
H   -9.9459101524557766E-02    3.7597138238871910E+00    2.1598035793698923E+01
H    1.3913321816157418E+00    2.9141296608621907E+00    2.0917628028542673E+01
H    1.3304690053854817E+00    3.4127366163223609E+00    2.2715914805235762E+01
O    4.2306721109333818E+00    4.8310072858544695E+00    2.1035123715226053E+01
H    3.1855423585743661E+00    4.9822525367469046E+00    2.1067761465278998E+01
C    4.6180392507118260E+00    3.8731212369008992E+00    2.2048179321292732E+01
H    4.3493414775052424E+00    2.8493805280016464E+00    2.1750665144110403E+01
H    5.7056150561432508E+00    3.9369579340365002E+00    2.2173696900645066E+01
H    4.1280921689785766E+00    4.1376524383125322E+00    2.2993820963047256E+01
     &END COORD
     &KIND C
       BASIS_SET DZVP-MOLOPT-SR-GTH-q4
       POTENTIAL GTH-PBE-q4
       &POTENTIAL
 2 2
  0.3384712400000000E+00 2 -0.8803673979999999E+01  0.1339210850000000E+01
 2
  0.3025757500000000E+00 1  0.9622486650000001E+01
  0.2915069400000000E+00 0
         # Potential name:  GTH-PBE-Q4  for symbol:  C
         # Potential read from the potential filename: GTH_POTENTIALS
       &END POTENTIAL
     &END KIND
     &KIND O
       BASIS_SET DZVP-MOLOPT-SR-GTH-q6
       POTENTIAL GTH-PBE-q6
       &POTENTIAL
 2 4
  0.2445543000000000E+00 2 -0.1666721480000000E+02  0.2487311320000000E+01
 2
  0.2209559200000000E+00 1  0.1833745811000000E+02
  0.2113324700000000E+00 0
         # Potential name:  GTH-PBE-Q6  for symbol:  O
         # Potential read from the potential filename: GTH_POTENTIALS
       &END POTENTIAL
     &END KIND
     &KIND H
       BASIS_SET DZVP-MOLOPT-SR-GTH-q1
       POTENTIAL GTH-PBE-q1
       &POTENTIAL
 1
  0.2000000000000000E+00 2 -0.4178900440000000E+01  0.7244633100000000E+00
 0
         # Potential name:  GTH-PBE-Q1  for symbol:  H
         # Potential read from the potential filename: GTH_POTENTIALS
       &END POTENTIAL
     &END KIND
     &KIND N
       BASIS_SET DZVP-MOLOPT-SR-GTH-q5
       POTENTIAL GTH-PBE-q5
       &POTENTIAL
 2 3
  0.2837905100000000E+00 2 -0.1241522559000000E+02  0.1868095920000000E+01
 2
  0.2554050000000000E+00 1  0.1363026257000000E+02
  0.2454945300000000E+00 0
         # Potential name:  GTH-PBE-Q5  for symbol:  N
         # Potential read from the potential filename: GTH_POTENTIALS
       &END POTENTIAL
     &END KIND
     &KIND Ga
       BASIS_SET DZVP-MOLOPT-SR-GTH-q13
       POTENTIAL GTH-PBE-q13
       &POTENTIAL
 2 1 10
  0.4900000000000000E+00 0
 3
  0.4167772300000000E+00 3  0.1047568975000000E+02 -0.4921768140000000E+01  0.8707055900000000E+00
  0.7770178090000000E+01 -0.2248152160000000E+01
  0.1784415450000000E+01
  0.5696265200000000E+00 2  0.1777985340000000E+01  0.1958597600000000E+00
 -0.2317443900000000E+00
  0.2381265000000000E+00 1 -0.1624868022000000E+02
         # Potential name:  GTH-PBE-Q13  for symbol:  GA
         # Potential read from the potential filename: GTH_POTENTIALS
       &END POTENTIAL
     &END KIND
     &TOPOLOGY
       COORD_FILE_NAME ../start-first.xyz
       COORD_FILE_FORMAT  XYZ
       NUMBER_OF_ATOMS  156
       MULTIPLE_UNIT_CELL  1 1 1
     &END TOPOLOGY
     &COLVAR
       &DISTANCE
         ATOMS  145 147
       &END DISTANCE
       &PRINT
       &END PRINT
     &END COLVAR
   &END SUBSYS
 &END FORCE_EVAL
