 # Version information for this restart file 
 # current date 2019-05-28 03:06:55.368
 # current working dir /lustre03/project/6004141/rzk/GaN-carbene/334-native/08-2Methanol-Htransfer/03-CO-constraint/2.04
 # Program compiled at                              Sun Apr  7 00:48:11 EDT 2019
 # Program compiled on                          beluga2.int.ets1.calculquebec.ca
 # Program compiled for                        Beluga-Linux-x86-64-intel-openmpi
 # Source code revision number                                         svn:18619
 &GLOBAL
   PRINT_LEVEL  MEDIUM
   PROJECT_NAME TEST
   RUN_TYPE  GEO_OPT
 &END GLOBAL
 &MOTION
   &GEO_OPT
     MAX_ITER  500
     STEP_START_VAL  123
   &END GEO_OPT
   &CONSTRAINT
     &COLLECTIVE
       COLVAR  1
       INTERMOLECULAR  T
       TARGET     3.8550413110867119E+00
       &RESTRAINT
         K     1.0000000000000001E-01
       &END RESTRAINT
     &END COLLECTIVE
     &COLVAR_RESTART
           3.8550413110867119E+00
     &END COLVAR_RESTART
   &END CONSTRAINT
 &END MOTION
 &FORCE_EVAL
   METHOD  QS
   STRESS_TENSOR  ANALYTICAL
   &DFT
     BASIS_SET_FILE_NAME BASIS_MOLOPT
     POTENTIAL_FILE_NAME GTH_POTENTIALS
     &SCF
       MAX_SCF  100
       EPS_SCF     5.0000000000000004E-06
       &OT  T
         PRECONDITIONER  FULL_ALL
       &END OT
       &OUTER_SCF  T
         OPTIMIZER  NONE
         EPS_SCF     5.0000000000000004E-06
         MAX_SCF  4
       &END OUTER_SCF
       &PRINT
         &RESTART  OFF
           BACKUP_COPIES  1
           &EACH
             JUST_ENERGY  0
             QS_SCF  0
             MD  20
           &END EACH
         &END RESTART
       &END PRINT
     &END SCF
     &QS
       EPS_DEFAULT     1.0000000000000000E-14
       ALMO_SCF  F
       METHOD  GPW
     &END QS
     &MGRID
       NGRIDS  5
       CUTOFF     1.2000000000000000E+03
     &END MGRID
     &XC
       DENSITY_CUTOFF     1.0000000000000000E-10
       GRADIENT_CUTOFF     1.0000000000000000E-10
       TAU_CUTOFF     1.0000000000000000E-10
       &XC_FUNCTIONAL  NO_SHORTCUT
         &PBE  T
         &END PBE
       &END XC_FUNCTIONAL
       &VDW_POTENTIAL
         POTENTIAL_TYPE  PAIR_POTENTIAL
         &PAIR_POTENTIAL
           R_CUTOFF     1.0000000000000005E+01
           TYPE  DFTD3
           PARAMETER_FILE_NAME dftd3.dat
           REFERENCE_FUNCTIONAL PBE
           EPS_CN     9.9999999999999995E-07
           CALCULATE_C9_TERM  T
           REFERENCE_C9_TERM  T
           LONG_RANGE_CORRECTION  F
           VERBOSE_OUTPUT  F
         &END PAIR_POTENTIAL
       &END VDW_POTENTIAL
     &END XC
   &END DFT
   &SUBSYS
     &CELL
       A     9.7367653356401487E+00    0.0000000000000000E+00    0.0000000000000000E+00
       B    -4.8591341382960209E+00    8.4162672083210595E+00    0.0000000000000000E+00
       C     0.0000000000000000E+00    0.0000000000000000E+00    3.0744000000000000E+01
       MULTIPLE_UNIT_CELL  1 1 1
       &CELL_REF
         A     9.5580000000000052E+00    0.0000000000000000E+00    0.0000000000000000E+00
         B    -4.7790000000000026E+00    8.2774708093716640E+00    0.0000000000000000E+00
         C     0.0000000000000000E+00    0.0000000000000000E+00    3.0744000000000000E+01
         MULTIPLE_UNIT_CELL  1 1 1
       &END CELL_REF
     &END CELL
     &COORD
Ga    1.7846647515146141E-02   -3.0143217438959032E-02   -5.3952753771566730E-01
N    2.0834748503889739E-02    1.8425903046399801E+00    6.0667698381374990E-01
Ga    1.9729075994450826E-02    1.8119927759247492E+00    2.6379028649385390E+00
N    1.6660766552645871E-02   -3.1294336194115438E-02    3.2696504327607663E+00
Ga    1.5932389288051733E-02   -2.9658616293664498E-02    5.2602208218227782E+00
N    1.8930292620043723E-02    1.8448987334131781E+00    5.8481801348525915E+00
Ga    1.8905780705541057E-02    1.8430492235939657E+00    7.8474264613230424E+00
N    1.7874814626842244E-02   -2.9938300585611723E-02    8.4484435146993544E+00
Ga    1.9143417922918085E-02   -2.9635687203584372E-02    1.0446091051373475E+01
N    1.7577510458000826E-02    1.8424431941213315E+00    1.1049374248481413E+01
Ga    2.3310396838313426E-02    1.8384761329043617E+00    1.3042932471011756E+01
N    3.2200249092176524E-02   -3.2835680960089333E-02    1.3640899118710188E+01
Ga    4.9929448918394820E-02   -5.6591012905290311E-02    1.5634412387000825E+01
N    4.2739635776798922E-02    1.8256327570919562E+00    1.6218481971353615E+01
Ga    7.5642038073738996E-02    1.8075211244516043E+00    1.8273812522377970E+01
N    6.1791956908819584E-02   -6.9649328643136499E-02    1.8666202804625431E+01
Ga   -1.6014496326489642E+00    2.7739574025355043E+00    3.2387085092224743E-01
N   -1.6030353707258627E+00    4.6434448292820418E+00    6.0733488226434451E-01
Ga   -1.5752044253269815E+00    4.6596015898462602E+00    2.6370619954605310E+00
N   -1.6026412940553896E+00    2.7741755191788871E+00    3.2285481723769163E+00
Ga   -1.6030428189891643E+00    2.7756059587671249E+00    5.2396019626581731E+00
N   -1.6032631198172422E+00    4.6455304192308615E+00    5.8468120189872552E+00
Ga   -1.6035242666597145E+00    4.6466018490936589E+00    7.8451914682824828E+00
N   -1.6040713361631447E+00    2.7763039138230243E+00    8.4522816810143091E+00
Ga   -1.6050236334582431E+00    2.7781195759767239E+00    1.0448284047430958E+01
N   -1.6059212594508236E+00    4.6481334386400235E+00    1.1057299120348842E+01
Ga   -1.6104547565539307E+00    4.6466848448462512E+00    1.3055675970054136E+01
N   -1.5932063186190621E+00    2.7767984853636447E+00    1.3671205717405270E+01
Ga   -1.5903954499660051E+00    2.7863714348301456E+00    1.5679783179595310E+01
N   -1.5819585157180320E+00    4.6524102621179351E+00    1.6304452738569676E+01
Ga   -1.4799252326089303E+00    4.6405997506149639E+00    1.8380317575735521E+01
N   -1.5222803687582465E+00    2.7431439151271557E+00    1.8721424551649253E+01
Ga   -3.2217392109579386E+00    5.5792804638558415E+00    3.2444962246313941E-01
N   -3.2159751603478588E+00    7.4500865959558960E+00    6.0611203786769530E-01
Ga   -3.2442564681771584E+00    7.4655210073084382E+00    2.6373428833258461E+00
N   -3.2224813081005781E+00    5.5796954908135374E+00    3.2281434762337433E+00
Ga   -3.2231842819523004E+00    5.5807866166475026E+00    5.2394305016878269E+00
N   -3.2176065773428157E+00    7.4512519420735215E+00    5.8461160585876115E+00
Ga   -3.2191413886262201E+00    7.4516297318122575E+00    7.8446307933627795E+00
N   -3.2242108634139388E+00    5.5812309933681012E+00    8.4491109200104297E+00
Ga   -3.2248300449907754E+00    5.5799799297583430E+00    1.0444111335405522E+01
N   -3.2171059931062431E+00    7.4489819326976123E+00    1.1054416485234013E+01
Ga   -3.2096155127640191E+00    7.4424115750958313E+00    1.3052447872808612E+01
N   -3.2293882137196253E+00    5.5752708644980720E+00    1.3691555217495965E+01
Ga   -3.2109030114324524E+00    5.5711458385838641E+00    1.5727537306979238E+01
N   -3.1860315497352878E+00    7.4351622951714464E+00    1.6288134262251798E+01
Ga   -3.1696714339059486E+00    7.3915096987105100E+00    1.8348868689797158E+01
N   -3.1170295328277580E+00    5.5322239485573723E+00    1.8884502767200850E+01
Ga    3.2642680175798420E+00   -3.1795379223998006E-02    3.2430421229714046E-01
N    3.2625544055564184E+00    1.8386239894862482E+00    6.0631842329423624E-01
Ga    3.2895983165405935E+00    1.8544783597432684E+00    2.6373288676013278E+00
N    3.2626538889546528E+00   -3.1224439361452729E-02    3.2281096163020080E+00
Ga    3.2624857717920963E+00   -2.9668273073017139E-02    5.2394645971773617E+00
N    3.2627130385329837E+00    1.8406243375839093E+00    5.8467625682063105E+00
Ga    3.2630663057690548E+00    1.8409862438714766E+00    7.8455337610482996E+00
N    3.2601676981413870E+00   -2.9314675279231900E-02    8.4490922161856510E+00
Ga    3.2612727913357302E+00   -2.9547884843642500E-02    1.0443693362519273E+01
N    3.2676708084294463E+00    1.8406799645241938E+00    1.1051882307381607E+01
Ga    3.2743224656232739E+00    1.8335360041144306E+00    1.3048544587962102E+01
N    3.2657238047759929E+00   -3.4649686450802804E-02    1.3667034997988610E+01
Ga    3.2757339165216726E+00   -4.1322367185460673E-02    1.5676115304072320E+01
N    3.2995263898930931E+00    1.8224211283571456E+00    1.6262590136931728E+01
Ga    3.3500867165062123E+00    1.8193618209963092E+00    1.8299221394342492E+01
N    3.3222591777800323E+00   -7.3053731650288195E-02    1.8759380487081426E+01
Ga    1.6431094534473378E+00    2.7745317990049885E+00    3.2429264655300222E-01
N    1.6500802392328477E+00    4.6441237100658874E+00    6.0768746241532146E-01
Ga    1.6208427055751338E+00    4.6599707470835048E+00    2.6374001154891316E+00
N    1.6426563182144700E+00    2.7742769124376503E+00    3.2291201515991954E+00
Ga    1.6421761727957394E+00    2.7760984490585163E+00    5.2406677825561498E+00
N    1.6475883454194393E+00    4.6459305603822907E+00    5.8493821321416961E+00
Ga    1.6457022720818824E+00    4.6467418914617076E+00    7.8495289462863607E+00
N    1.6423161950196508E+00    2.7742931717727095E+00    8.4502402568983204E+00
Ga    1.6424655081756638E+00    2.7736272702105107E+00    1.0445760157265815E+01
N    1.6383182135771417E+00    4.6446983230206733E+00    1.1040991941396239E+01
Ga    1.6334222064135744E+00    4.6434103131426960E+00    1.3034312589917764E+01
N    1.6481010059056318E+00    2.7650607985374296E+00    1.3641461738015435E+01
Ga    1.6767332920589606E+00    2.7544089064267485E+00    1.5633612626559474E+01
N    1.6323725268182470E+00    4.6332799379446028E+00    1.6134846716952307E+01
Ga    1.7090904926134298E+00    4.5906462077762997E+00    1.8117281744487439E+01
N    1.7082591473687672E+00    2.7472588645425189E+00    1.8638356561202173E+01
Ga    2.4282442141055870E-02    5.5786700499929003E+00   -5.4806673888708790E-01
N    2.7301107071639335E-02    7.4540149844132024E+00    6.0717998824793706E-01
Ga    2.6356641114745283E-02    7.4225574082586165E+00    2.6370966747341029E+00
N    2.2958495468784777E-02    5.5795592181983311E+00    3.2703178797238226E+00
Ga    2.2889363121205170E-02    5.5809514110563203E+00    5.2604860112830618E+00
N    2.5656771187099272E-02    7.4558706611250107E+00    5.8480255452581558E+00
Ga    2.4548889788456291E-02    7.4552256254675919E+00    7.8474560847990107E+00
N    1.9547275359330221E-02    5.5813290279889731E+00    8.4471921867884561E+00
Ga    1.7116854329026546E-02    5.5809165104047409E+00    1.0444379358130519E+01
N    2.4501790070297548E-02    7.4544148764272800E+00    1.1042682957360656E+01
Ga    2.3447429083295140E-02    7.4568896904900495E+00    1.3034252627977779E+01
N    1.1643345958464007E-02    5.5866826798609690E+00    1.3633164776253629E+01
Ga    1.1291103860752091E-02    5.5749897489788500E+00    1.5628302278659852E+01
N    5.2132167954851372E-02    7.4433128464661404E+00    1.6258763711461267E+01
Ga    7.7220059250807466E-02    7.3972170251018854E+00    1.8344600581954563E+01
N    1.9244982470827734E-01    5.5370771364871212E+00    1.8873506232874650E+01
Ga    6.5081785290969636E+00   -3.1031461159153645E-02    3.2357577754956762E-01
N    6.5151111329823301E+00    1.8391627839339508E+00    6.0640893600731272E-01
Ga    6.4868154112032093E+00    1.8545536615620013E+00    2.6371412121795430E+00
N    6.5082017530133038E+00   -3.0940649944233956E-02    3.2291460121058462E+00
Ga    6.5081766053539294E+00   -2.9336030394671198E-02    5.2408394961165508E+00
N    6.5130985154770320E+00    1.8412037836110022E+00    5.8475194308491831E+00
Ga    6.5106021061869175E+00    1.8422290524396172E+00    7.8463272796540782E+00
N    6.5061837097460309E+00   -2.7210821840866654E-02    8.4512602079318384E+00
Ga    6.5071066057779161E+00   -2.2951175281015711E-02    1.0447743957217316E+01
N    6.5093374675356888E+00    1.8486923843094183E+00    1.1058021951167740E+01
Ga    6.5118135551681648E+00    1.8534291809627059E+00    1.3057124319373340E+01
N    6.5010697555707218E+00   -2.0309624448483905E-02    1.3631186533409734E+01
Ga    6.5160492489649124E+00   -1.6218171444789282E-02    1.5630195215105788E+01
N    6.5235235689680602E+00    1.8483094546621501E+00    1.6251181281465509E+01
Ga    6.5931132432728914E+00    1.8181985912891487E+00    1.8301067537965508E+01
N    6.5931239857309381E+00   -9.1519988564739904E-02    1.8664345840998894E+01
Ga    4.8899555818421483E+00    2.7744198787765790E+00   -5.4150988423376090E-01
N    4.8922232499231084E+00    4.6485075399457481E+00    6.0659965356165635E-01
Ga    4.8911607810039115E+00    4.6174703945493523E+00    2.6373639809083969E+00
N    4.8884219107854587E+00    2.7741506338126536E+00    3.2689985503453389E+00
Ga    4.8882438076090224E+00    2.7761456347914870E+00    5.2593019239541903E+00
N    4.8903474984424280E+00    4.6504340562909290E+00    5.8476620280623637E+00
Ga    4.8883076588766317E+00    4.6496142419963906E+00    7.8471004742062647E+00
N    4.8867581423486186E+00    2.7762728212910903E+00    8.4484614105618956E+00
Ga    4.8884542862744675E+00    2.7789962552190399E+00    1.0446144142869999E+01
N    4.8921338379518069E+00    4.6484589915014123E+00    1.1053229654981372E+01
Ga    4.8902772010965485E+00    4.6492793721385830E+00    1.3053075852328517E+01
N    4.8848246737409156E+00    2.7819771789259149E+00    1.3669776731345312E+01
Ga    4.8888460802252425E+00    2.7725249134368131E+00    1.5691492860832035E+01
N    4.8475616574839924E+00    4.6666301495341544E+00    1.6152559565801095E+01
Ga    4.9779536100865389E+00    4.5952041895983813E+00    1.9136095783369438E+01
N    4.9733296286256445E+00    2.7094726739736035E+00    1.8832718652213714E+01
Ga    3.2695564026395383E+00    5.5790680841572815E+00    3.2436112263974892E-01
N    3.2689312188757951E+00    7.4497150798627407E+00    6.0605291749512613E-01
Ga    3.2957038738519775E+00    7.4655724689713416E+00    2.6374423074227789E+00
N    3.2684960645226204E+00    5.5800049267966303E+00    3.2290493724376379E+00
Ga    3.2678116135542883E+00    5.5816127619730054E+00    5.2408428937893792E+00
N    3.2684717853085892E+00    7.4516485609140650E+00    5.8496943751910431E+00
Ga    3.2688573822959319E+00    7.4521495213693889E+00    7.8501078707743472E+00
N    3.2669772283262550E+00    5.5814141941781887E+00    8.4541488855391425E+00
Ga    3.2666972646326653E+00    5.5826653322299453E+00    1.0453320698185168E+01
N    3.2709610520858279E+00    7.4595881766923640E+00    1.1042858884389926E+01
Ga    3.2699338216871743E+00    7.4631506126727372E+00    1.3037672565778207E+01
N    3.2545728791149338E+00    5.5853444675496062E+00    1.3595057758105822E+01
Ga    3.2504157630743884E+00    5.5935556337736161E+00    1.5588329321138492E+01
N    3.2836054183136789E+00    7.4638218237988996E+00    1.6133859919751274E+01
Ga    3.3495131758798635E+00    7.4323626971405261E+00    1.8136396936489049E+01
N    3.4644824553531355E+00    5.4753668392843391E+00    1.8316389620615062E+01
O    1.7162370566654492E+00    5.2195773904016640E+00    2.1307084860484625E+01
H    1.1236935049095864E+00    5.4350554965359059E+00    2.0518332728485781E+01
C    9.6869288295165179E-01    3.5504878046006616E+00    2.1698204206814097E+01
H   -9.7658711139246124E-02    3.7571519365573756E+00    2.1601046749440190E+01
H    1.3912968843280271E+00    2.9138680845177856E+00    2.0913884139159560E+01
H    1.3366379556238737E+00    3.4094149136067315E+00    2.2713324364264242E+01
O    4.2312279742276608E+00    4.8304361799747149E+00    2.1034138251998549E+01
H    3.1863046602003342E+00    4.9809991049197659E+00    2.1066898509510580E+01
C    4.6199128885962546E+00    3.8724555792952389E+00    2.2046495761679971E+01
H    4.3528315762177314E+00    2.8486548075715659E+00    2.1748195432883900E+01
H    5.7075299321037134E+00    3.9379037322673303E+00    2.2171767331538913E+01
H    4.1296845797654642E+00    4.1355453662419137E+00    2.2992552986234621E+01
     &END COORD
     &KIND C
       BASIS_SET DZVP-MOLOPT-SR-GTH-q4
       POTENTIAL GTH-PBE-q4
       &POTENTIAL
 2 2
  0.3384712400000000E+00 2 -0.8803673979999999E+01  0.1339210850000000E+01
 2
  0.3025757500000000E+00 1  0.9622486650000001E+01
  0.2915069400000000E+00 0
         # Potential name:  GTH-PBE-Q4  for symbol:  C
         # Potential read from the potential filename: GTH_POTENTIALS
       &END POTENTIAL
     &END KIND
     &KIND O
       BASIS_SET DZVP-MOLOPT-SR-GTH-q6
       POTENTIAL GTH-PBE-q6
       &POTENTIAL
 2 4
  0.2445543000000000E+00 2 -0.1666721480000000E+02  0.2487311320000000E+01
 2
  0.2209559200000000E+00 1  0.1833745811000000E+02
  0.2113324700000000E+00 0
         # Potential name:  GTH-PBE-Q6  for symbol:  O
         # Potential read from the potential filename: GTH_POTENTIALS
       &END POTENTIAL
     &END KIND
     &KIND H
       BASIS_SET DZVP-MOLOPT-SR-GTH-q1
       POTENTIAL GTH-PBE-q1
       &POTENTIAL
 1
  0.2000000000000000E+00 2 -0.4178900440000000E+01  0.7244633100000000E+00
 0
         # Potential name:  GTH-PBE-Q1  for symbol:  H
         # Potential read from the potential filename: GTH_POTENTIALS
       &END POTENTIAL
     &END KIND
     &KIND N
       BASIS_SET DZVP-MOLOPT-SR-GTH-q5
       POTENTIAL GTH-PBE-q5
       &POTENTIAL
 2 3
  0.2837905100000000E+00 2 -0.1241522559000000E+02  0.1868095920000000E+01
 2
  0.2554050000000000E+00 1  0.1363026257000000E+02
  0.2454945300000000E+00 0
         # Potential name:  GTH-PBE-Q5  for symbol:  N
         # Potential read from the potential filename: GTH_POTENTIALS
       &END POTENTIAL
     &END KIND
     &KIND Ga
       BASIS_SET DZVP-MOLOPT-SR-GTH-q13
       POTENTIAL GTH-PBE-q13
       &POTENTIAL
 2 1 10
  0.4900000000000000E+00 0
 3
  0.4167772300000000E+00 3  0.1047568975000000E+02 -0.4921768140000000E+01  0.8707055900000000E+00
  0.7770178090000000E+01 -0.2248152160000000E+01
  0.1784415450000000E+01
  0.5696265200000000E+00 2  0.1777985340000000E+01  0.1958597600000000E+00
 -0.2317443900000000E+00
  0.2381265000000000E+00 1 -0.1624868022000000E+02
         # Potential name:  GTH-PBE-Q13  for symbol:  GA
         # Potential read from the potential filename: GTH_POTENTIALS
       &END POTENTIAL
     &END KIND
     &TOPOLOGY
       COORD_FILE_NAME ../start-first.xyz
       COORD_FILE_FORMAT  XYZ
       NUMBER_OF_ATOMS  156
       MULTIPLE_UNIT_CELL  1 1 1
     &END TOPOLOGY
     &COLVAR
       &DISTANCE
         ATOMS  145 147
       &END DISTANCE
       &PRINT
       &END PRINT
     &END COLVAR
   &END SUBSYS
 &END FORCE_EVAL
