 # Version information for this restart file 
 # current date 2019-05-28 03:07:58.703
 # current working dir /lustre03/project/6004141/rzk/GaN-carbene/334-native/08-2Methanol-Htransfer/03-CO-constraint/2.04
 # Program compiled at                              Sun Apr  7 00:48:11 EDT 2019
 # Program compiled on                          beluga2.int.ets1.calculquebec.ca
 # Program compiled for                        Beluga-Linux-x86-64-intel-openmpi
 # Source code revision number                                         svn:18619
 &GLOBAL
   PRINT_LEVEL  MEDIUM
   PROJECT_NAME TEST
   RUN_TYPE  GEO_OPT
 &END GLOBAL
 &MOTION
   &GEO_OPT
     MAX_ITER  500
     STEP_START_VAL  124
   &END GEO_OPT
   &CONSTRAINT
     &COLLECTIVE
       COLVAR  1
       INTERMOLECULAR  T
       TARGET     3.8550413110867119E+00
       &RESTRAINT
         K     1.0000000000000001E-01
       &END RESTRAINT
     &END COLLECTIVE
     &COLVAR_RESTART
           3.8550413110867119E+00
     &END COLVAR_RESTART
   &END CONSTRAINT
 &END MOTION
 &FORCE_EVAL
   METHOD  QS
   STRESS_TENSOR  ANALYTICAL
   &DFT
     BASIS_SET_FILE_NAME BASIS_MOLOPT
     POTENTIAL_FILE_NAME GTH_POTENTIALS
     &SCF
       MAX_SCF  100
       EPS_SCF     5.0000000000000004E-06
       &OT  T
         PRECONDITIONER  FULL_ALL
       &END OT
       &OUTER_SCF  T
         OPTIMIZER  NONE
         EPS_SCF     5.0000000000000004E-06
         MAX_SCF  4
       &END OUTER_SCF
       &PRINT
         &RESTART  OFF
           BACKUP_COPIES  1
           &EACH
             JUST_ENERGY  0
             QS_SCF  0
             MD  20
           &END EACH
         &END RESTART
       &END PRINT
     &END SCF
     &QS
       EPS_DEFAULT     1.0000000000000000E-14
       ALMO_SCF  F
       METHOD  GPW
     &END QS
     &MGRID
       NGRIDS  5
       CUTOFF     1.2000000000000000E+03
     &END MGRID
     &XC
       DENSITY_CUTOFF     1.0000000000000000E-10
       GRADIENT_CUTOFF     1.0000000000000000E-10
       TAU_CUTOFF     1.0000000000000000E-10
       &XC_FUNCTIONAL  NO_SHORTCUT
         &PBE  T
         &END PBE
       &END XC_FUNCTIONAL
       &VDW_POTENTIAL
         POTENTIAL_TYPE  PAIR_POTENTIAL
         &PAIR_POTENTIAL
           R_CUTOFF     1.0000000000000005E+01
           TYPE  DFTD3
           PARAMETER_FILE_NAME dftd3.dat
           REFERENCE_FUNCTIONAL PBE
           EPS_CN     9.9999999999999995E-07
           CALCULATE_C9_TERM  T
           REFERENCE_C9_TERM  T
           LONG_RANGE_CORRECTION  F
           VERBOSE_OUTPUT  F
         &END PAIR_POTENTIAL
       &END VDW_POTENTIAL
     &END XC
   &END DFT
   &SUBSYS
     &CELL
       A     9.7367653356401487E+00    0.0000000000000000E+00    0.0000000000000000E+00
       B    -4.8591341382960209E+00    8.4162672083210595E+00    0.0000000000000000E+00
       C     0.0000000000000000E+00    0.0000000000000000E+00    3.0744000000000000E+01
       MULTIPLE_UNIT_CELL  1 1 1
       &CELL_REF
         A     9.5580000000000052E+00    0.0000000000000000E+00    0.0000000000000000E+00
         B    -4.7790000000000026E+00    8.2774708093716640E+00    0.0000000000000000E+00
         C     0.0000000000000000E+00    0.0000000000000000E+00    3.0744000000000000E+01
         MULTIPLE_UNIT_CELL  1 1 1
       &END CELL_REF
     &END CELL
     &COORD
Ga    1.7532956631500153E-02   -3.0591438252207632E-02   -5.4010049567363327E-01
N    2.0526815622001201E-02    1.8422616535075460E+00    6.0610758802142439E-01
Ga    1.9401756868299438E-02    1.8116048145642334E+00    2.6372276366779190E+00
N    1.6363038073911991E-02   -3.1668099744416464E-02    3.2691459738771855E+00
Ga    1.5705608987990012E-02   -2.9944279271405118E-02    5.2596513541384393E+00
N    1.8700342576403507E-02    1.8446088499230759E+00    5.8477260753005877E+00
Ga    1.8842545672551458E-02    1.8428768433935292E+00    7.8469038855231403E+00
N    1.7818361669117579E-02   -3.0097195862067237E-02    8.4479154664817671E+00
Ga    1.9260437420024992E-02   -2.9687264974075658E-02    1.0445520127914717E+01
N    1.7716512489001534E-02    1.8424161144725149E+00    1.1048946484955946E+01
Ga    2.3477227371926635E-02    1.8385577348906210E+00    1.3042438226312349E+01
N    3.2438801482020829E-02   -3.2500433591801679E-02    1.3640753797709506E+01
Ga    5.0651757694761747E-02   -5.6448443936268737E-02    1.5634374923904922E+01
N    4.2641678275012362E-02    1.8258538141339600E+00    1.6219829044692062E+01
Ga    7.6064737291595519E-02    1.8079561235163664E+00    1.8275486730518654E+01
N    6.2061089941612649E-02   -6.9481367761750790E-02    1.8666929106717561E+01
Ga   -1.6018248259470835E+00    2.7734480649792874E+00    3.2339798012206594E-01
N   -1.6034065193552305E+00    4.6430045827655668E+00    6.0672030051314585E-01
Ga   -1.5755923647479597E+00    4.6592066628381614E+00    2.6364963463814917E+00
N   -1.6029232152932913E+00    2.7738086283734797E+00    3.2281016156065823E+00
Ga   -1.6032819243899865E+00    2.7753131088347351E+00    5.2391490322425893E+00
N   -1.6034424928601425E+00    4.6452621366794142E+00    5.8463679460549276E+00
Ga   -1.6035701399881050E+00    4.6464335747611312E+00    7.8446628115768657E+00
N   -1.6041083484158472E+00    2.7761457769489915E+00    8.4517006262292558E+00
Ga   -1.6048056530588450E+00    2.7780409731172453E+00    1.0447632588803520E+01
N   -1.6057876885571634E+00    4.6479774920099652E+00    1.1056983611827318E+01
Ga   -1.6101577062801378E+00    4.6467055854991983E+00    1.3055300672268807E+01
N   -1.5929519015143354E+00    2.7767257544514630E+00    1.3671263524724358E+01
Ga   -1.5901527135908462E+00    2.7860726641515630E+00    1.5679833402362293E+01
N   -1.5814507639370887E+00    4.6522189848686057E+00    1.6303862842555134E+01
Ga   -1.4799289906693158E+00    4.6402609597562963E+00    1.8379723673214905E+01
N   -1.5220769276412605E+00    2.7431926426703725E+00    1.8722236898318211E+01
Ga   -3.2221611591875421E+00    5.5788905288790911E+00    3.2393274374889197E-01
N   -3.2162255749430231E+00    7.4496427091181596E+00    6.0554780295230881E-01
Ga   -3.2445553302637715E+00    7.4651126271281294E+00    2.6366897561588920E+00
N   -3.2227640034951976E+00    5.5793392269408999E+00    3.2277287429027495E+00
Ga   -3.2234111585403418E+00    5.5804983356776567E+00    5.2390223809881284E+00
N   -3.2178272591406891E+00    7.4509929371070420E+00    5.8456814814265678E+00
Ga   -3.2192368411515973E+00    7.4514704928322422E+00    7.8440932162854873E+00
N   -3.2242480705115950E+00    5.5810583771076026E+00    8.4486030159941325E+00
Ga   -3.2246697201945507E+00    5.5799133561597438E+00    1.0443519694498251E+01
N   -3.2170636053357460E+00    7.4489260752162982E+00    1.1053980316034858E+01
Ga   -3.2094693087391799E+00    7.4425295995842431E+00    1.3051968447515048E+01
N   -3.2290687369363944E+00    5.5753944203783279E+00    1.3690791419919000E+01
Ga   -3.2103984403266939E+00    5.5711804886431562E+00    1.5726786004792260E+01
N   -3.1856133206623807E+00    7.4350384816338950E+00    1.6287614168153837E+01
Ga   -3.1695560003977854E+00    7.3918694145493511E+00    1.8348067966166905E+01
N   -3.1168710120156908E+00    5.5323574310936126E+00    1.8884328132501789E+01
Ga    3.2639232182615312E+00   -3.2155272897386539E-02    3.2383898854546578E-01
N    3.2621125840859411E+00    1.8380991057605351E+00    6.0589118467280390E-01
Ga    3.2893021723893558E+00    1.8540912721679548E+00    2.6366282655075328E+00
N    3.2623507973275201E+00   -3.1627097484867119E-02    3.2276686738430795E+00
Ga    3.2622950533472110E+00   -2.9946357001246163E-02    5.2390175446734482E+00
N    3.2625165841525154E+00    1.8403667059133222E+00    5.8462863024153542E+00
Ga    3.2629616278480222E+00    1.8408459972741937E+00    7.8449495548213894E+00
N    3.2601094312834626E+00   -2.9458743711567592E-02    8.4485031946988141E+00
Ga    3.2613685248076516E+00   -2.9675055611480865E-02    1.0443070394819660E+01
N    3.2677682620906587E+00    1.8406464879495321E+00    1.1051400769758441E+01
Ga    3.2743360682610558E+00    1.8335742968529058E+00    1.3048073890565938E+01
N    3.2660880649864654E+00   -3.4650456983725465E-02    1.3666433875365781E+01
Ga    3.2762189569824227E+00   -4.1589211517909161E-02    1.5675428193430637E+01
N    3.3000504922850906E+00    1.8220918348038471E+00    1.6262342981820211E+01
Ga    3.3502164910245389E+00    1.8197974285177425E+00    1.8299042944992522E+01
N    3.3228501416661596E+00   -7.2870075157193279E-02    1.8759328242533567E+01
Ga    1.6428837434956522E+00    2.7740131432946482E+00    3.2381785682694464E-01
N    1.6498552509609998E+00    4.6436867158351189E+00    6.0706282125557753E-01
Ga    1.6206359513035373E+00    4.6595817776514341E+00    2.6367899325021837E+00
N    1.6423297262754164E+00    2.7739170021504687E+00    3.2286679779566376E+00
Ga    1.6419528530002334E+00    2.7758248299828119E+00    5.2402154486693320E+00
N    1.6473799688515549E+00    4.6456916988553658E+00    5.8489170896319882E+00
Ga    1.6456537812193632E+00    4.6465920296838279E+00    7.8489947178090800E+00
N    1.6422445304029758E+00    2.7741735507034684E+00    8.4496586508306937E+00
Ga    1.6425617480083872E+00    2.7735865156349702E+00    1.0445095212479746E+01
N    1.6385460434875152E+00    4.6445902389977007E+00    1.1040733847960819E+01
Ga    1.6337144354429527E+00    4.6432472576788637E+00    1.3034064130096985E+01
N    1.6481441209388754E+00    2.7649537997268774E+00    1.3641812393002906E+01
Ga    1.6769862179618500E+00    2.7542489747692049E+00    1.5634195282271468E+01
N    1.6329401359843603E+00    4.6331174486461286E+00    1.6134966867143621E+01
Ga    1.7091274163549377E+00    4.5908168823548872E+00    1.8117681136320520E+01
N    1.7088069307421616E+00    2.7474347179533796E+00    1.8639693533047843E+01
Ga    2.4004402364339542E-02    5.5783636706424833E+00   -5.4799061849670105E-01
N    2.7020609169046469E-02    7.4536627217281541E+00    6.0656994644899564E-01
Ga    2.6086712765834321E-02    7.4222802515160113E+00    2.6365133609501519E+00
N    2.2676296596952653E-02    5.5792014188319339E+00    3.2696690434612794E+00
Ga    2.2688213630189785E-02    5.5806857028547601E+00    5.2599250984343486E+00
N    2.5479282697789669E-02    7.4555907034476432E+00    5.8475960470263342E+00
Ga    2.4505597906632946E-02    7.4550087344166371E+00    7.8469543046941732E+00
N    1.9532638036432293E-02    5.5811216286571632E+00    8.4466975758401688E+00
Ga    1.7301361032884686E-02    5.5807382147614515E+00    1.0443836310395106E+01
N    2.4702105784695328E-02    7.4543070754217498E+00    1.1042124001517614E+01
Ga    2.3768290460252337E-02    7.4567445894376787E+00    1.3033702559186702E+01
N    1.2082841959606594E-02    5.5864680724044078E+00    1.3632941821944835E+01
Ga    1.1950639597290227E-02    5.5746361597039717E+00    1.5627944156297380E+01
N    5.2605404111407281E-02    7.4429548914532964E+00    1.6258372338249263E+01
Ga    7.7690530251183609E-02    7.3975316497567807E+00    1.8344013913901573E+01
N    1.9233389798174377E-01    5.5372604008623991E+00    1.8873177929109310E+01
Ga    6.5079408474862381E+00   -3.1364525235896369E-02    3.2309041253959381E-01
N    6.5149704558608024E+00    1.8386420259274283E+00    6.0600480496116649E-01
Ga    6.4865095310775382E+00    1.8541626417051817E+00    2.6364736590129305E+00
N    6.5079206731766659E+00   -3.1351801634900298E-02    3.2287202630522431E+00
Ga    6.5079869041812017E+00   -2.9607808920189937E-02    5.2403876310782529E+00
N    6.5128927257311977E+00    1.8409309335507398E+00    5.8470721099659384E+00
Ga    6.5105702003675727E+00    1.8420545815367646E+00    7.8457900125940689E+00
N    6.5061913069659623E+00   -2.7388341716608058E-02    8.4506896392124524E+00
Ga    6.5073735942320745E+00   -2.3133718191601958E-02    1.0447134607336309E+01
N    6.5095296331485688E+00    1.8486039556945020E+00    1.1057500151614244E+01
Ga    6.5120696552661563E+00    1.8532749452882504E+00    1.3056578943919286E+01
N    6.5013783392795084E+00   -2.0451861803724266E-02    1.3630941462579653E+01
Ga    6.5167232934214807E+00   -1.6402004498642878E-02    1.5630075681626280E+01
N    6.5238366710438624E+00    1.8481064143399313E+00    1.6251463575700843E+01
Ga    6.5932395603567757E+00    1.8183534875726550E+00    1.8301422794194448E+01
N    6.5938385516407134E+00   -9.1601755870103066E-02    1.8664000546010723E+01
Ga    4.8897379702116401E+00    2.7739872627804045E+00   -5.4312382811227078E-01
N    4.8919249876046873E+00    4.6482767130868243E+00    6.0615619030320234E-01
Ga    4.8908677688931217E+00    4.6171339571573009E+00    2.6366906798233645E+00
N    4.8881190643233223E+00    2.7737892977125438E+00    3.2685460476117876E+00
Ga    4.8880504325221148E+00    2.7758723542000641E+00    5.2586980504210459E+00
N    4.8901423680535512E+00    4.6501463399999432E+00    5.8472689156001962E+00
Ga    4.8882344882615847E+00    4.6494776267602562E+00    7.8466008888187240E+00
N    4.8866978471234921E+00    2.7761200635889689E+00    8.4478865852038396E+00
Ga    4.8885632819947586E+00    2.7789410986473708E+00    1.0445448254089531E+01
N    4.8922950987896732E+00    4.6484066069444516E+00    1.1052747769337872E+01
Ga    4.8905874604818420E+00    4.6492581726367366E+00    1.3052594292087944E+01
N    4.8850906657271613E+00    2.7818364591007225E+00    1.3669186464898818E+01
Ga    4.8896168799180417E+00    2.7720157542130899E+00    1.5691023600038450E+01
N    4.8484994976328721E+00    4.6661732598652419E+00    1.6151319271956897E+01
Ga    4.9774893627216752E+00    4.5958101187414648E+00    1.9136641186117398E+01
N    4.9736766335245406E+00    2.7098454687776625E+00    1.8833111718435241E+01
Ga    3.2693820936975166E+00    5.5786991005026545E+00    3.2385971507779604E-01
N    3.2685647682642669E+00    7.4492837138770547E+00    6.0549173585541816E-01
Ga    3.2953956962050683E+00    7.4651876245178030E+00    2.6367685906068119E+00
N    3.2681813645903959E+00    5.5796578868013142E+00    3.2286050003816258E+00
Ga    3.2676206510201280E+00    5.5813408402597959E+00    5.2403862318284959E+00
N    3.2682954896403364E+00    7.4513786727683984E+00    5.8492557566473184E+00
Ga    3.2688499719224908E+00    7.4519549644433685E+00    7.8495926869264414E+00
N    3.2669099099068424E+00    5.5812761691623951E+00    8.4536604248860385E+00
Ga    3.2668412704729017E+00    5.5826012695406231E+00    1.0452804009324016E+01
N    3.2711869440895485E+00    7.4594862292823860E+00    1.1042596319999413E+01
Ga    3.2702479863260980E+00    7.4631169568702216E+00    1.3037452805593151E+01
N    3.2548635723764821E+00    5.5851689900128774E+00    1.3594636719184065E+01
Ga    3.2511737839732899E+00    5.5930905976849203E+00    1.5588094069966482E+01
N    3.2843569890553046E+00    7.4633901016700319E+00    1.6132942621792310E+01
Ga    3.3500317437334162E+00    7.4327491713136178E+00    1.8135384238584219E+01
N    3.4639823248852042E+00    5.4758765045319926E+00    1.8317121680278550E+01
O    1.7160784029244529E+00    5.2204961390232256E+00    2.1308058058173820E+01
H    1.1240852225272757E+00    5.4361475604766945E+00    2.0519079264148690E+01
C    9.6687799488347825E-01    3.5521297451635658E+00    2.1699094409457814E+01
H   -9.9102203727601881E-02    3.7595633954580259E+00    2.1598852990404428E+01
H    1.3909919898604917E+00    2.9140657970360078E+00    2.0916712201060736E+01
H    1.3318607250922485E+00    3.4119466287475930E+00    2.2715386927486612E+01
O    4.2306151538033401E+00    4.8307795036513888E+00    2.1034392749272214E+01
H    3.1855998632029845E+00    4.9819044780285733E+00    2.1067330036395585E+01
C    4.6185301673216426E+00    3.8731943924762979E+00    2.2047427267146745E+01
H    4.3503240855290075E+00    2.8493925690270849E+00    2.1749707779114516E+01
H    5.7061020122733401E+00    3.9374284794701162E+00    2.2172641954638870E+01
H    4.1286184213295858E+00    4.1373825217291564E+00    2.2993212572386287E+01
     &END COORD
     &KIND C
       BASIS_SET DZVP-MOLOPT-SR-GTH-q4
       POTENTIAL GTH-PBE-q4
       &POTENTIAL
 2 2
  0.3384712400000000E+00 2 -0.8803673979999999E+01  0.1339210850000000E+01
 2
  0.3025757500000000E+00 1  0.9622486650000001E+01
  0.2915069400000000E+00 0
         # Potential name:  GTH-PBE-Q4  for symbol:  C
         # Potential read from the potential filename: GTH_POTENTIALS
       &END POTENTIAL
     &END KIND
     &KIND O
       BASIS_SET DZVP-MOLOPT-SR-GTH-q6
       POTENTIAL GTH-PBE-q6
       &POTENTIAL
 2 4
  0.2445543000000000E+00 2 -0.1666721480000000E+02  0.2487311320000000E+01
 2
  0.2209559200000000E+00 1  0.1833745811000000E+02
  0.2113324700000000E+00 0
         # Potential name:  GTH-PBE-Q6  for symbol:  O
         # Potential read from the potential filename: GTH_POTENTIALS
       &END POTENTIAL
     &END KIND
     &KIND H
       BASIS_SET DZVP-MOLOPT-SR-GTH-q1
       POTENTIAL GTH-PBE-q1
       &POTENTIAL
 1
  0.2000000000000000E+00 2 -0.4178900440000000E+01  0.7244633100000000E+00
 0
         # Potential name:  GTH-PBE-Q1  for symbol:  H
         # Potential read from the potential filename: GTH_POTENTIALS
       &END POTENTIAL
     &END KIND
     &KIND N
       BASIS_SET DZVP-MOLOPT-SR-GTH-q5
       POTENTIAL GTH-PBE-q5
       &POTENTIAL
 2 3
  0.2837905100000000E+00 2 -0.1241522559000000E+02  0.1868095920000000E+01
 2
  0.2554050000000000E+00 1  0.1363026257000000E+02
  0.2454945300000000E+00 0
         # Potential name:  GTH-PBE-Q5  for symbol:  N
         # Potential read from the potential filename: GTH_POTENTIALS
       &END POTENTIAL
     &END KIND
     &KIND Ga
       BASIS_SET DZVP-MOLOPT-SR-GTH-q13
       POTENTIAL GTH-PBE-q13
       &POTENTIAL
 2 1 10
  0.4900000000000000E+00 0
 3
  0.4167772300000000E+00 3  0.1047568975000000E+02 -0.4921768140000000E+01  0.8707055900000000E+00
  0.7770178090000000E+01 -0.2248152160000000E+01
  0.1784415450000000E+01
  0.5696265200000000E+00 2  0.1777985340000000E+01  0.1958597600000000E+00
 -0.2317443900000000E+00
  0.2381265000000000E+00 1 -0.1624868022000000E+02
         # Potential name:  GTH-PBE-Q13  for symbol:  GA
         # Potential read from the potential filename: GTH_POTENTIALS
       &END POTENTIAL
     &END KIND
     &TOPOLOGY
       COORD_FILE_NAME ../start-first.xyz
       COORD_FILE_FORMAT  XYZ
       NUMBER_OF_ATOMS  156
       MULTIPLE_UNIT_CELL  1 1 1
     &END TOPOLOGY
     &COLVAR
       &DISTANCE
         ATOMS  145 147
       &END DISTANCE
       &PRINT
       &END PRINT
     &END COLVAR
   &END SUBSYS
 &END FORCE_EVAL
