 # Version information for this restart file 
 # current date 2019-05-28 00:48:12.402
 # current working dir /lustre03/project/6004141/rzk/GaN-carbene/334-native/08-2Methanol-Htransfer/03-CO-constraint/1.94
 # Program compiled at                              Sun Apr  7 00:48:11 EDT 2019
 # Program compiled on                          beluga2.int.ets1.calculquebec.ca
 # Program compiled for                        Beluga-Linux-x86-64-intel-openmpi
 # Source code revision number                                         svn:18619
 &GLOBAL
   PRINT_LEVEL  MEDIUM
   PROJECT_NAME TEST
   RUN_TYPE  GEO_OPT
 &END GLOBAL
 &MOTION
   &GEO_OPT
     MAX_ITER  500
     STEP_START_VAL  118
   &END GEO_OPT
   &CONSTRAINT
     &COLLECTIVE
       COLVAR  1
       INTERMOLECULAR  T
       TARGET     3.6660686977981474E+00
       &RESTRAINT
         K     1.0000000000000001E-01
       &END RESTRAINT
     &END COLLECTIVE
     &COLVAR_RESTART
           3.6660686977981474E+00
     &END COLVAR_RESTART
   &END CONSTRAINT
 &END MOTION
 &FORCE_EVAL
   METHOD  QS
   STRESS_TENSOR  ANALYTICAL
   &DFT
     BASIS_SET_FILE_NAME BASIS_MOLOPT
     POTENTIAL_FILE_NAME GTH_POTENTIALS
     &SCF
       MAX_SCF  100
       EPS_SCF     5.0000000000000004E-06
       &OT  T
         PRECONDITIONER  FULL_ALL
       &END OT
       &OUTER_SCF  T
         OPTIMIZER  NONE
         EPS_SCF     5.0000000000000004E-06
         MAX_SCF  4
       &END OUTER_SCF
       &PRINT
         &RESTART  OFF
           BACKUP_COPIES  1
           &EACH
             JUST_ENERGY  0
             QS_SCF  0
             MD  20
           &END EACH
         &END RESTART
       &END PRINT
     &END SCF
     &QS
       EPS_DEFAULT     1.0000000000000000E-14
       ALMO_SCF  F
       METHOD  GPW
     &END QS
     &MGRID
       NGRIDS  5
       CUTOFF     1.2000000000000000E+03
     &END MGRID
     &XC
       DENSITY_CUTOFF     1.0000000000000000E-10
       GRADIENT_CUTOFF     1.0000000000000000E-10
       TAU_CUTOFF     1.0000000000000000E-10
       &XC_FUNCTIONAL  NO_SHORTCUT
         &PBE  T
         &END PBE
       &END XC_FUNCTIONAL
       &VDW_POTENTIAL
         POTENTIAL_TYPE  PAIR_POTENTIAL
         &PAIR_POTENTIAL
           R_CUTOFF     1.0000000000000005E+01
           TYPE  DFTD3
           PARAMETER_FILE_NAME dftd3.dat
           REFERENCE_FUNCTIONAL PBE
           EPS_CN     9.9999999999999995E-07
           CALCULATE_C9_TERM  T
           REFERENCE_C9_TERM  T
           LONG_RANGE_CORRECTION  F
           VERBOSE_OUTPUT  F
         &END PAIR_POTENTIAL
       &END VDW_POTENTIAL
     &END XC
   &END DFT
   &SUBSYS
     &CELL
       A     9.7367653356401487E+00    0.0000000000000000E+00    0.0000000000000000E+00
       B    -4.8591341382960209E+00    8.4162672083210595E+00    0.0000000000000000E+00
       C     0.0000000000000000E+00    0.0000000000000000E+00    3.0744000000000000E+01
       MULTIPLE_UNIT_CELL  1 1 1
       &CELL_REF
         A     9.5580000000000052E+00    0.0000000000000000E+00    0.0000000000000000E+00
         B    -4.7790000000000026E+00    8.2774708093716640E+00    0.0000000000000000E+00
         C     0.0000000000000000E+00    0.0000000000000000E+00    3.0744000000000000E+01
         MULTIPLE_UNIT_CELL  1 1 1
       &END CELL_REF
     &END CELL
     &COORD
Ga    1.7972062830539568E-02   -3.0708062365740436E-02   -5.3893091134755977E-01
N    2.0672250766092283E-02    1.8416234660465391E+00    6.0494379750473848E-01
Ga    1.9290109912105856E-02    1.8102124322584434E+00    2.6363377885036270E+00
N    1.6153117703511580E-02   -3.3290844826665195E-02    3.2676027788327384E+00
Ga    1.4839255024600531E-02   -3.2334707590175628E-02    5.2580645173434188E+00
N    1.7771849175708718E-02    1.8421772351122943E+00    5.8459935032040589E+00
Ga    1.6759820778272847E-02    1.8402164041343043E+00    7.8453523888417838E+00
N    1.5729539051257152E-02   -3.2653798874536268E-02    8.4462214580266917E+00
Ga    1.6177906766889492E-02   -3.1742376868645068E-02    1.0444246708086796E+01
N    1.4265311799387824E-02    1.8404546763546217E+00    1.1047454435147809E+01
Ga    2.0192330120234799E-02    1.8368787483831790E+00    1.3041356861302914E+01
N    2.9507658036691080E-02   -3.4790439543505761E-02    1.3638447042571851E+01
Ga    4.8144744625669783E-02   -5.7527103775966475E-02    1.5632226742196213E+01
N    4.0557669718099050E-02    1.8242039319983676E+00    1.6215349698904134E+01
Ga    6.9601370968421838E-02    1.8080380322636120E+00    1.8271951420084932E+01
N    5.8546227511033458E-02   -6.8099069591455966E-02    1.8663637155403755E+01
Ga   -1.6019274361122555E+00    2.7724642231483063E+00    3.2205577258559276E-01
N   -1.6029490923131919E+00    4.6425192867917238E+00    6.0463185235145422E-01
Ga   -1.5759163875507367E+00    4.6576333322285830E+00    2.6354424751120407E+00
N   -1.6032159454135959E+00    2.7722499332213508E+00    3.2265675330196766E+00
Ga   -1.6042264598077609E+00    2.7728407497983514E+00    5.2376873330652218E+00
N   -1.6043426333545812E+00    4.6428521064482027E+00    5.8445429650165019E+00
Ga   -1.6057152488361364E+00    4.6439225415763135E+00    7.8429812566153094E+00
N   -1.6062687570804408E+00    2.7736451936754718E+00    8.4497775322193363E+00
Ga   -1.6079927041594182E+00    2.7760274485867540E+00    1.0445826964710518E+01
N   -1.6090292067041716E+00    4.6459756845007565E+00    1.1055183886215341E+01
Ga   -1.6138481732508578E+00    4.6446716594963471E+00    1.3053565255666300E+01
N   -1.5965036592666775E+00    2.7750254975062836E+00    1.3669970285899778E+01
Ga   -1.5921597578870050E+00    2.7852457950342759E+00    1.5679021271414710E+01
N   -1.5843855054553289E+00    4.6512659806285397E+00    1.6304960883411130E+01
Ga   -1.4834506729381784E+00    4.6421157517529315E+00    1.8382578708175313E+01
N   -1.5261776801247466E+00    2.7446515967684721E+00    1.8719394452932899E+01
Ga   -3.2223334962699903E+00    5.5782984150024975E+00    3.2248867858529062E-01
N   -3.2161775058738593E+00    7.4490407238366458E+00    6.0415509549724067E-01
Ga   -3.2445639294839697E+00    7.4635847936024220E+00    2.6358760007264102E+00
N   -3.2229577815403965E+00    5.5777004072681962E+00    3.2262397371054878E+00
Ga   -3.2243386482267127E+00    5.5781448318053481E+00    5.2375710405111606E+00
N   -3.2187437226945002E+00    7.4486122619814497E+00    5.8439784794230096E+00
Ga   -3.2212825702747576E+00    7.4488236321381303E+00    7.8425438757684551E+00
N   -3.2263787176206771E+00    5.5785226551662452E+00    8.4468590704636508E+00
Ga   -3.2278906035223138E+00    5.5778657201020856E+00    1.0441956797700147E+01
N   -3.2200688759394658E+00    7.4469658276876043E+00    1.1051872063340607E+01
Ga   -3.2125449419375629E+00    7.4403699899557258E+00    1.3050006616197086E+01
N   -3.2322650135361961E+00    5.5734704592014852E+00    1.3689017034749616E+01
Ga   -3.2134882326227614E+00    5.5688867103584574E+00    1.5725485734084181E+01
N   -3.1885888874988511E+00    7.4325634838332553E+00    1.6286667642444424E+01
Ga   -3.1731647156216227E+00    7.3925342434628032E+00    1.8347706599034787E+01
N   -3.1211969385993195E+00    5.5335707384959507E+00    1.8885137434431961E+01
Ga    3.2639027140546806E+00   -3.2590930670378382E-02    3.2235520291665715E-01
N    3.2619503750839587E+00    1.8371329750292547E+00    6.0516817919065025E-01
Ga    3.2892246303591408E+00    1.8525944276020050E+00    2.6353583713207382E+00
N    3.2623320023792446E+00   -3.3258120605061156E-02    3.2261786713180709E+00
Ga    3.2615364864569072E+00   -3.2276954919900354E-02    5.2376095597222081E+00
N    3.2615815985510554E+00    1.8379630253749710E+00    5.8448084524043216E+00
Ga    3.2607995500840801E+00    1.8382640668222576E+00    7.8435318952673265E+00
N    3.2579631293547688E+00   -3.2119463961243808E-02    8.4464956734758267E+00
Ga    3.2582894166410812E+00   -3.1746015462766869E-02    1.0441092658482781E+01
N    3.2645650888359121E+00    1.8384912993623048E+00    1.1049113053055800E+01
Ga    3.2711714459130206E+00    1.8316602766062742E+00    1.3045679392014955E+01
N    3.2624752262316612E+00   -3.6414237309366902E-02    1.3664856288452592E+01
Ga    3.2726790260036922E+00   -4.2913345862116405E-02    1.5674296644903833E+01
N    3.2975867745203740E+00    1.8218242122250690E+00    1.6259110094747211E+01
Ga    3.3489314532120562E+00    1.8205032714746041E+00    1.8295350283833518E+01
N    3.3206863593273863E+00   -7.1779736795264407E-02    1.8750803410661188E+01
Ga    1.6432760202889594E+00    2.7730229547827872E+00    3.2237477492839484E-01
N    1.6497453626552465E+00    4.6431472426733249E+00    6.0501885164253555E-01
Ga    1.6207263168182480E+00    4.6580111171369749E+00    2.6356972299683141E+00
N    1.6422540335446654E+00    2.7723913479027744E+00    3.2272517384836887E+00
Ga    1.6411795491786305E+00    2.7734410257238915E+00    5.2388417575320645E+00
N    1.6463689077689021E+00    4.6432721373662069E+00    5.8473608446391667E+00
Ga    1.6434062142118000E+00    4.6440298859966651E+00    7.8477245704018790E+00
N    1.6398761036417695E+00    2.7716114220723811E+00    8.4480930297410506E+00
Ga    1.6392600663214247E+00    2.7716072617146099E+00    1.0443842187089302E+01
N    1.6351342792241521E+00    4.6428065658238227E+00    1.1039098555229215E+01
Ga    1.6304219478448578E+00    4.6420284081535330E+00    1.3032602729157636E+01
N    1.6453141244105858E+00    2.7636247971238084E+00    1.3639198769801130E+01
Ga    1.6742878888944783E+00    2.7532456282444673E+00    1.5631488298904348E+01
N    1.6301960096158861E+00    4.6330631545068517E+00    1.6131811031946398E+01
Ga    1.7061803828043822E+00    4.5936818818165621E+00    1.8113961113662253E+01
N    1.7048527762230852E+00    2.7478360932325825E+00    1.8624436449491448E+01
Ga    2.4372285834328281E-02    5.5778183549501383E+00   -5.4527368113670094E-01
N    2.7161834779496241E-02    7.4525096149576830E+00    6.0437270510753871E-01
Ga    2.5991440362406242E-02    7.4207418467308983E+00    2.6353234585901459E+00
N    2.2519691930957118E-02    5.5774944322664668E+00    3.2677510475886709E+00
Ga    2.1908306768810160E-02    5.5782662353890675E+00    5.2581135392700302E+00
N    2.4566104644609604E-02    7.4530107705519981E+00    5.8458001050505128E+00
Ga    2.2365367425017119E-02    7.4521626190232162E+00    7.8452555590436992E+00
N    1.7132397149960715E-02    5.5785137207752706E+00    8.4451038314272751E+00
Ga    1.4014139195114145E-02    5.5788800077983733E+00    1.0442436760494605E+01
N    2.1513060886962143E-02    7.4524892499875941E+00    1.1040532940497158E+01
Ga    2.0243876677880759E-02    7.4551421431607761E+00    1.3032247737121274E+01
N    8.2361170358642294E-03    5.5848279378067760E+00    1.3631149229427891E+01
Ga    8.4895675604771230E-03    5.5731084921649865E+00    1.5626294918290148E+01
N    4.9566007541478808E-02    7.4417792341326132E+00    1.6255478527129171E+01
Ga    7.6074721720542332E-02    7.3967201735434873E+00    1.8341545789630022E+01
N    1.8970236330366036E-01    5.5376281320030740E+00    1.8873553996651101E+01
Ga    6.5082436478092189E+00   -3.1767990076570107E-02    3.2141790192219000E-01
N    6.5152816102605859E+00    1.8377366405303572E+00    6.0514510500151231E-01
Ga    6.4862343176400099E+00    1.8526534137322430E+00    2.6350647436451426E+00
N    6.5076158018597754E+00   -3.2985522825297896E-02    3.2271540892620054E+00
Ga    6.5071646657995679E+00   -3.2064157616122371E-02    5.2389582823465197E+00
N    6.5119266860562774E+00    1.8384136590628974E+00    5.8454166068788957E+00
Ga    6.5085628708625274E+00    1.8393866458694510E+00    7.8441654259492957E+00
N    6.5040251657138777E+00   -3.0181697341428993E-02    8.4487027598475457E+00
Ga    6.5042829711377648E+00   -2.5336469386890461E-02    1.0445181662853674E+01
N    6.5064645937645880E+00    1.8463871426742193E+00    1.1055054904078204E+01
Ga    6.5091041220494699E+00    1.8513701780245175E+00    1.3053820288921376E+01
N    6.4982271588858280E+00   -2.2130713559821130E-02    1.3628992277922414E+01
Ga    6.5142506839767096E+00   -1.7728289702673983E-02    1.5628414747050401E+01
N    6.5213793537462585E+00    1.8468452708269765E+00    1.6250115047688833E+01
Ga    6.5901952681805467E+00    1.8175397733273071E+00    1.8301298718709532E+01
N    6.5907120850642738E+00   -9.0858683723292893E-02    1.8662406461468251E+01
Ga    4.8897631080321222E+00    2.7736193895365320E+00   -5.4831656539991269E-01
N    4.8920087042018130E+00    4.6480687515592729E+00    6.0544223789939089E-01
Ga    4.8906834592492432E+00    4.6155662580971626E+00    2.6352598114851187E+00
N    4.8879384294684050E+00    2.7722415201884569E+00    3.2671837087555868E+00
Ga    4.8871716867066368E+00    2.7734849755549580E+00    5.2571285839406903E+00
N    4.8892108753059480E+00    4.6477258056551820E+00    5.8457663855975381E+00
Ga    4.8862181788574848E+00    4.6469639503323545E+00    7.8452234772375640E+00
N    4.8845542161490272E+00    2.7735111139915811E+00    8.4460169782319561E+00
Ga    4.8854334163005975E+00    2.7767791532493877E+00    1.0443496427296573E+01
N    4.8891607970103141E+00    4.6461828979104718E+00    1.1050701591502438E+01
Ga    4.8876302642829668E+00    4.6473500736693225E+00    1.3050679207670445E+01
N    4.8824289723893353E+00    2.7794532615085727E+00    1.3666016829364896E+01
Ga    4.8872151320379711E+00    2.7704317042219939E+00    1.5687341456666417E+01
N    4.8467244291037916E+00    4.6635702564623944E+00    1.6147221717699850E+01
Ga    4.9732480008360618E+00    4.5959009949106289E+00    1.9130215837575740E+01
N    4.9707656116187593E+00    2.7098348000895722E+00    1.8833168751799739E+01
Ga    3.2698336444146321E+00    5.5781723099588625E+00    3.2223022175245841E-01
N    3.2688310908913318E+00    7.4487453019790859E+00    6.0384034802543141E-01
Ga    3.2951006332072574E+00    7.4636500883403256E+00    2.6357740756506303E+00
N    3.2679979146800187E+00    5.5780413981626920E+00    3.2271519062738254E+00
Ga    3.2667787364787397E+00    5.5789466032356305E+00    5.2390207921839504E+00
N    3.2674299749227909E+00    7.4489157245052526E+00    5.8476033095542324E+00
Ga    3.2669609561188917E+00    7.4491643342971647E+00    7.8481966850624181E+00
N    3.2646838734887154E+00    5.5785915917274105E+00    8.4520910597391588E+00
Ga    3.2637217358571688E+00    5.5804548797215885E+00    1.0451555333350099E+01
N    3.2679736508199304E+00    7.4574466669152590E+00    1.1040699630874608E+01
Ga    3.2672728815819760E+00    7.4612042607694642E+00    1.3035726907745708E+01
N    3.2520303132363182E+00    5.5834639295511730E+00    1.3592665023988319E+01
Ga    3.2494190553225106E+00    5.5914836081335304E+00    1.5586506621356039E+01
N    3.2818973626451666E+00    7.4622112139347401E+00    1.6131043330225868E+01
Ga    3.3464675005376021E+00    7.4337536452712420E+00    1.8134028845002078E+01
N    3.4586465572575213E+00    5.4780318594439716E+00    1.8317676233975799E+01
O    1.6828291448009836E+00    5.1881416202161352E+00    2.1287374637494647E+01
H    1.0942560151561025E+00    5.4203870517829884E+00    2.0496713752895932E+01
C    9.6762681759043856E-01    3.6214780365835013E+00    2.1700548339462088E+01
H   -1.0327252801621037E-01    3.7843362161385432E+00    2.1566942473394629E+01
H    1.4016885570850641E+00    2.9240041425423109E+00    2.0976754946987544E+01
H    1.2849696417232426E+00    3.4963233282022350E+00    2.2735758722095859E+01
O    4.2203061629102887E+00    4.8304563770278675E+00    2.1033949150491768E+01
H    3.1803778966168861E+00    4.9711697760485771E+00    2.1059978611488429E+01
C    4.6071479132502740E+00    3.8705680578433310E+00    2.2046537382065310E+01
H    4.3364551973289638E+00    2.8478910819402112E+00    2.1747837515711986E+01
H    5.6949127746979595E+00    3.9332117071865835E+00    2.2168888009510596E+01
H    4.1195944958518158E+00    4.1348365012294686E+00    2.2993259803177285E+01
     &END COORD
     &KIND C
       BASIS_SET DZVP-MOLOPT-SR-GTH-q4
       POTENTIAL GTH-PBE-q4
       &POTENTIAL
 2 2
  0.3384712400000000E+00 2 -0.8803673979999999E+01  0.1339210850000000E+01
 2
  0.3025757500000000E+00 1  0.9622486650000001E+01
  0.2915069400000000E+00 0
         # Potential name:  GTH-PBE-Q4  for symbol:  C
         # Potential read from the potential filename: GTH_POTENTIALS
       &END POTENTIAL
     &END KIND
     &KIND O
       BASIS_SET DZVP-MOLOPT-SR-GTH-q6
       POTENTIAL GTH-PBE-q6
       &POTENTIAL
 2 4
  0.2445543000000000E+00 2 -0.1666721480000000E+02  0.2487311320000000E+01
 2
  0.2209559200000000E+00 1  0.1833745811000000E+02
  0.2113324700000000E+00 0
         # Potential name:  GTH-PBE-Q6  for symbol:  O
         # Potential read from the potential filename: GTH_POTENTIALS
       &END POTENTIAL
     &END KIND
     &KIND H
       BASIS_SET DZVP-MOLOPT-SR-GTH-q1
       POTENTIAL GTH-PBE-q1
       &POTENTIAL
 1
  0.2000000000000000E+00 2 -0.4178900440000000E+01  0.7244633100000000E+00
 0
         # Potential name:  GTH-PBE-Q1  for symbol:  H
         # Potential read from the potential filename: GTH_POTENTIALS
       &END POTENTIAL
     &END KIND
     &KIND N
       BASIS_SET DZVP-MOLOPT-SR-GTH-q5
       POTENTIAL GTH-PBE-q5
       &POTENTIAL
 2 3
  0.2837905100000000E+00 2 -0.1241522559000000E+02  0.1868095920000000E+01
 2
  0.2554050000000000E+00 1  0.1363026257000000E+02
  0.2454945300000000E+00 0
         # Potential name:  GTH-PBE-Q5  for symbol:  N
         # Potential read from the potential filename: GTH_POTENTIALS
       &END POTENTIAL
     &END KIND
     &KIND Ga
       BASIS_SET DZVP-MOLOPT-SR-GTH-q13
       POTENTIAL GTH-PBE-q13
       &POTENTIAL
 2 1 10
  0.4900000000000000E+00 0
 3
  0.4167772300000000E+00 3  0.1047568975000000E+02 -0.4921768140000000E+01  0.8707055900000000E+00
  0.7770178090000000E+01 -0.2248152160000000E+01
  0.1784415450000000E+01
  0.5696265200000000E+00 2  0.1777985340000000E+01  0.1958597600000000E+00
 -0.2317443900000000E+00
  0.2381265000000000E+00 1 -0.1624868022000000E+02
         # Potential name:  GTH-PBE-Q13  for symbol:  GA
         # Potential read from the potential filename: GTH_POTENTIALS
       &END POTENTIAL
     &END KIND
     &TOPOLOGY
       COORD_FILE_NAME ../start-first.xyz
       COORD_FILE_FORMAT  XYZ
       NUMBER_OF_ATOMS  156
       MULTIPLE_UNIT_CELL  1 1 1
     &END TOPOLOGY
     &COLVAR
       &DISTANCE
         ATOMS  145 147
       &END DISTANCE
       &PRINT
       &END PRINT
     &END COLVAR
   &END SUBSYS
 &END FORCE_EVAL
