 # Version information for this restart file 
 # current date 2019-05-28 00:49:56.712
 # current working dir /lustre03/project/6004141/rzk/GaN-carbene/334-native/08-2Methanol-Htransfer/03-CO-constraint/1.94
 # Program compiled at                              Sun Apr  7 00:48:11 EDT 2019
 # Program compiled on                          beluga2.int.ets1.calculquebec.ca
 # Program compiled for                        Beluga-Linux-x86-64-intel-openmpi
 # Source code revision number                                         svn:18619
 &GLOBAL
   PRINT_LEVEL  MEDIUM
   PROJECT_NAME TEST
   RUN_TYPE  GEO_OPT
 &END GLOBAL
 &MOTION
   &GEO_OPT
     MAX_ITER  500
     STEP_START_VAL  120
   &END GEO_OPT
   &CONSTRAINT
     &COLLECTIVE
       COLVAR  1
       INTERMOLECULAR  T
       TARGET     3.6660686977981474E+00
       &RESTRAINT
         K     1.0000000000000001E-01
       &END RESTRAINT
     &END COLLECTIVE
     &COLVAR_RESTART
           3.6660686977981474E+00
     &END COLVAR_RESTART
   &END CONSTRAINT
 &END MOTION
 &FORCE_EVAL
   METHOD  QS
   STRESS_TENSOR  ANALYTICAL
   &DFT
     BASIS_SET_FILE_NAME BASIS_MOLOPT
     POTENTIAL_FILE_NAME GTH_POTENTIALS
     &SCF
       MAX_SCF  100
       EPS_SCF     5.0000000000000004E-06
       &OT  T
         PRECONDITIONER  FULL_ALL
       &END OT
       &OUTER_SCF  T
         OPTIMIZER  NONE
         EPS_SCF     5.0000000000000004E-06
         MAX_SCF  4
       &END OUTER_SCF
       &PRINT
         &RESTART  OFF
           BACKUP_COPIES  1
           &EACH
             JUST_ENERGY  0
             QS_SCF  0
             MD  20
           &END EACH
         &END RESTART
       &END PRINT
     &END SCF
     &QS
       EPS_DEFAULT     1.0000000000000000E-14
       ALMO_SCF  F
       METHOD  GPW
     &END QS
     &MGRID
       NGRIDS  5
       CUTOFF     1.2000000000000000E+03
     &END MGRID
     &XC
       DENSITY_CUTOFF     1.0000000000000000E-10
       GRADIENT_CUTOFF     1.0000000000000000E-10
       TAU_CUTOFF     1.0000000000000000E-10
       &XC_FUNCTIONAL  NO_SHORTCUT
         &PBE  T
         &END PBE
       &END XC_FUNCTIONAL
       &VDW_POTENTIAL
         POTENTIAL_TYPE  PAIR_POTENTIAL
         &PAIR_POTENTIAL
           R_CUTOFF     1.0000000000000005E+01
           TYPE  DFTD3
           PARAMETER_FILE_NAME dftd3.dat
           REFERENCE_FUNCTIONAL PBE
           EPS_CN     9.9999999999999995E-07
           CALCULATE_C9_TERM  T
           REFERENCE_C9_TERM  T
           LONG_RANGE_CORRECTION  F
           VERBOSE_OUTPUT  F
         &END PAIR_POTENTIAL
       &END VDW_POTENTIAL
     &END XC
   &END DFT
   &SUBSYS
     &CELL
       A     9.7367653356401487E+00    0.0000000000000000E+00    0.0000000000000000E+00
       B    -4.8591341382960209E+00    8.4162672083210595E+00    0.0000000000000000E+00
       C     0.0000000000000000E+00    0.0000000000000000E+00    3.0744000000000000E+01
       MULTIPLE_UNIT_CELL  1 1 1
       &CELL_REF
         A     9.5580000000000052E+00    0.0000000000000000E+00    0.0000000000000000E+00
         B    -4.7790000000000026E+00    8.2774708093716640E+00    0.0000000000000000E+00
         C     0.0000000000000000E+00    0.0000000000000000E+00    3.0744000000000000E+01
         MULTIPLE_UNIT_CELL  1 1 1
       &END CELL_REF
     &END CELL
     &COORD
Ga    1.7644563190786392E-02   -2.9741081570822323E-02   -5.3879748005042682E-01
N    2.0356568028908329E-02    1.8428003268793571E+00    6.0583076549594284E-01
Ga    1.9044982866077205E-02    1.8112098221874671E+00    2.6368399903488795E+00
N    1.5980201440509750E-02   -3.2234645626245353E-02    3.2683869563517853E+00
Ga    1.4739012614752262E-02   -3.1353784786565524E-02    5.2587928184726174E+00
N    1.7630678179087835E-02    1.8431490318416315E+00    5.8467547981124026E+00
Ga    1.6749612998282423E-02    1.8410249267883241E+00    7.8460357771272209E+00
N    1.5681032684246369E-02   -3.1957915852637610E-02    8.4469121271514744E+00
Ga    1.6219755386386411E-02   -3.1453911391595812E-02    1.0444747476868358E+01
N    1.4478400410684511E-02    1.8407751171068814E+00    1.1047834162103671E+01
Ga    2.0503954768186377E-02    1.8370882884280364E+00    1.3041537310777702E+01
N    2.9630815817193037E-02   -3.4326128224493921E-02    1.3638633304917152E+01
Ga    4.8360659771032301E-02   -5.7408938990898134E-02    1.5632224139488791E+01
N    4.1167154319084270E-02    1.8242128092134169E+00    1.6216287469811064E+01
Ga    7.1527991601405563E-02    1.8074330631096853E+00    1.8273373886209789E+01
N    5.9445821446991683E-02   -6.8802677335730200E-02    1.8665199475255879E+01
Ga   -1.6022505994868328E+00    2.7734063723298137E+00    3.2294743878341869E-01
N   -1.6031686884522065E+00    4.6435043320609166E+00    6.0533700654295175E-01
Ga   -1.5760782566759894E+00    4.6586728508680952E+00    2.6360767128558882E+00
N   -1.6033916579509795E+00    2.7732917068736533E+00    3.2272991194564140E+00
Ga   -1.6043470410365865E+00    2.7738235043678876E+00    5.2383485931528533E+00
N   -1.6044720609152281E+00    4.6438017563031089E+00    5.8452387469526661E+00
Ga   -1.6057114798224752E+00    4.6446414973109542E+00    7.8436431592733706E+00
N   -1.6063204183255448E+00    2.7743564263096840E+00    8.4504643114784042E+00
Ga   -1.6079799724719344E+00    2.7763571517952466E+00    1.0446437430241080E+01
N   -1.6091131231456417E+00    4.6462548432019304E+00    1.1055687959149621E+01
Ga   -1.6139414572316391E+00    4.6448563694462646E+00    1.3053972090517034E+01
N   -1.5961105178237225E+00    2.7751932841826008E+00    1.3670272861203330E+01
Ga   -1.5917389205561117E+00    2.7855086155691855E+00    1.5679458412452217E+01
N   -1.5839606867971014E+00    4.6516638046977166E+00    1.6305466092278007E+01
Ga   -1.4821294747825215E+00    4.6420223304236838E+00    1.8383113922595452E+01
N   -1.5252467014525883E+00    2.7440113786027354E+00    1.8719027903982408E+01
Ga   -3.2226617508218278E+00    5.5792082481733827E+00    3.2335416496575115E-01
N   -3.2162664636033766E+00    7.4498664899136635E+00    6.0505437470975865E-01
Ga   -3.2448153478468162E+00    7.4646100216807563E+00    2.6363350734234459E+00
N   -3.2231406610117745E+00    5.5787166202952969E+00    3.2269017991443554E+00
Ga   -3.2244606566995904E+00    5.5790399220387323E+00    5.2381782235713503E+00
N   -3.2188579451150279E+00    7.4495050273149568E+00    5.8446582866034058E+00
Ga   -3.2213144547868855E+00    7.4495883230118363E+00    7.8431329802885044E+00
N   -3.2264268993577616E+00    5.5792152244757185E+00    8.4474145393715272E+00
Ga   -3.2278625723616656E+00    5.5781300278072559E+00    1.0442346031524442E+01
N   -3.2200598620713632E+00    7.4471113227250685E+00    1.1052596670997259E+01
Ga   -3.2125816331384751E+00    7.4405408536013713E+00    1.3050617499335196E+01
N   -3.2324997964633959E+00    5.5734984575850115E+00    1.3690083199289395E+01
Ga   -3.2133055765849847E+00    5.5695477247131429E+00    1.5726647590380457E+01
N   -3.1884404122929304E+00    7.4332271018569793E+00    1.6286669690573163E+01
Ga   -3.1723801091100507E+00    7.3918870888554471E+00    1.8347688256522321E+01
N   -3.1196919602804249E+00    5.5333647356916682E+00    1.8886089058512226E+01
Ga    3.2635832415054611E+00   -3.1537046550705758E-02    3.2327084461429523E-01
N    3.2617097446655694E+00    1.8382029114475014E+00    6.0584737717687076E-01
Ga    3.2889911557036933E+00    1.8536387481201808E+00    2.6359015592592598E+00
N    3.2621091830415110E+00   -3.2259358977339884E-02    3.2268333921580385E+00
Ga    3.2613872395678443E+00   -3.1345019579275185E-02    5.2381858650554580E+00
N    3.2614457706718225E+00    1.8388646702773395E+00    5.8453542088434682E+00
Ga    3.2607879654929377E+00    1.8389661179412942E+00    7.8440756034593493E+00
N    3.2579231666182848E+00   -3.1399079204021990E-02    8.4472844773176341E+00
Ga    3.2583579419212207E+00   -3.1460570007054135E-02    1.0441861152463954E+01
N    3.2646977258214727E+00    1.8387444485880251E+00    1.1049936397085132E+01
Ga    3.2712043344728481E+00    1.8316810171234641E+00    1.3046523607146861E+01
N    3.2624144380740767E+00   -3.6413486944894116E-02    1.3665553799210745E+01
Ga    3.2733338420513070E+00   -4.2933835039355689E-02    1.5674905664586792E+01
N    3.2983945285238376E+00    1.8217078123008421E+00    1.6259909264571370E+01
Ga    3.3496160510902300E+00    1.8197514310783969E+00    1.8296289472962609E+01
N    3.3212914713931596E+00   -7.2895291945679466E-02    1.8751493054837535E+01
Ga    1.6429572375415846E+00    2.7739888760649039E+00    3.2330744097674263E-01
N    1.6493402347967714E+00    4.6442015154439682E+00    6.0571325098820661E-01
Ga    1.6204234445783381E+00    4.6590669730321794E+00    2.6363681086668711E+00
N    1.6419827815717540E+00    2.7734291361189731E+00    3.2279219159733912E+00
Ga    1.6410253894248126E+00    2.7743841048796849E+00    5.2394581389423367E+00
N    1.6462748490152592E+00    4.6441997889828466E+00    5.8479705176608539E+00
Ga    1.6434306352669037E+00    4.6447454584597772E+00    7.8482902672718380E+00
N    1.6399838628092158E+00    2.7723081215868741E+00    8.4486897257828613E+00
Ga    1.6395107769482204E+00    2.7718675120334191E+00    1.0444326476558796E+01
N    1.6352837966042229E+00    4.6429899628258360E+00    1.1039524443555656E+01
Ga    1.6304278922085738E+00    4.6420035339219607E+00    1.3032855550925246E+01
N    1.6454712086355117E+00    2.7636489000103466E+00    1.3639936845293823E+01
Ga    1.6747742996753174E+00    2.7532457730253577E+00    1.5632336207613580E+01
N    1.6301704989300123E+00    4.6333256836329637E+00    1.6131416037592292E+01
Ga    1.7076193934365265E+00    4.5929753888349234E+00    1.8113310375310736E+01
N    1.7062971773616700E+00    2.7477801083561317E+00    1.8625469030967196E+01
Ga    2.3953963862466655E-02    5.5787692096003996E+00   -5.4363366994865625E-01
N    2.6878722219347912E-02    7.4534409816179350E+00    6.0513977071366121E-01
Ga    2.5776860864776058E-02    7.4217392757836089E+00    2.6360137144497768E+00
N    2.2300463981899447E-02    5.5785392818215866E+00    3.2685299451758194E+00
Ga    2.1758880343888853E-02    5.5792202898649386E+00    5.2588758249285679E+00
N    2.4451088494505124E-02    7.4540023437687335E+00    5.8464910298792425E+00
Ga    2.2349530698382379E-02    7.4529651210918573E+00    7.8459386893868226E+00
N    1.7178364889185224E-02    5.5792417704310440E+00    8.4457800220104708E+00
Ga    1.4070773126903533E-02    5.5791261217308099E+00    1.0443061705974996E+01
N    2.1577635158343589E-02    7.4526952937721109E+00    1.1041116762054212E+01
Ga    2.0233514089712388E-02    7.4553449869979938E+00    1.3032774983008366E+01
N    8.2331359536086546E-03    5.5848681256992290E+00    1.3631171592747060E+01
Ga    8.4930544086941565E-03    5.5735704261251842E+00    1.5626037303810616E+01
N    5.0146161593234040E-02    7.4417303554814742E+00    1.6255894551842353E+01
Ga    7.6823941349331973E-02    7.3960919205977564E+00    1.8341796941707589E+01
N    1.9157762562184569E-01    5.5370652628394366E+00    1.8874141779513820E+01
Ga    6.5079750125813813E+00   -3.0710685126837511E-02    3.2236031082138411E-01
N    6.5149493088350123E+00    1.8387745874639718E+00    6.0586573185767212E-01
Ga    6.4860215812209407E+00    1.8537014025324459E+00    2.6356964255009534E+00
N    6.5074376615564811E+00   -3.1994398855139002E-02    3.2278399208816770E+00
Ga    6.5070382053417433E+00   -3.1075558518956832E-02    5.2395633917288587E+00
N    6.5117967417621481E+00    1.8393790938576446E+00    5.8460626473490436E+00
Ga    6.5084846522760742E+00    1.8401798756208396E+00    7.8448117393843804E+00
N    6.5039851938998758E+00   -2.9382737227119263E-02    8.4494471356898018E+00
Ga    6.5042725652145874E+00   -2.4918049356545437E-02    1.0445877436712671E+01
N    6.5064619567458255E+00    1.8467841589625140E+00    1.1055776375378835E+01
Ga    6.5091454533512252E+00    1.8516921313216224E+00    1.3054609480423739E+01
N    6.4982296444464485E+00   -2.1863627680418100E-02    1.3629408910928781E+01
Ga    6.5144121255959666E+00   -1.7453314968918894E-02    1.5628676965419569E+01
N    6.5216655183470875E+00    1.8473911988344696E+00    1.6249647317884911E+01
Ga    6.5905874135434344E+00    1.8171880360070676E+00    1.8300582964092971E+01
N    6.5916166703210441E+00   -9.1499162377042517E-02    1.8661802235970416E+01
Ga    4.8895485393469951E+00    2.7745880222318440E+00   -5.4814247624733736E-01
N    4.8917343056229674E+00    4.6489310669965782E+00    6.0608072459891882E-01
Ga    4.8904784468073368E+00    4.6165275622636770E+00    2.6358227390093081E+00
N    4.8877008566498734E+00    2.7732213393755560E+00    3.2678834526077583E+00
Ga    4.8870306990143924E+00    2.7744095410853586E+00    5.2577172972472734E+00
N    4.8891024438484774E+00    4.6486061471262365E+00    5.8463378216440027E+00
Ga    4.8861541384525440E+00    4.6476684922461082E+00    7.8457500605571875E+00
N    4.8844714220593302E+00    2.7742371841732947E+00    8.4466985310725917E+00
Ga    4.8854786257575116E+00    2.7771081252528313E+00    1.0444210415711414E+01
N    4.8891493897965681E+00    4.6465988970370375E+00    1.1051232004859189E+01
Ga    4.8874522148252497E+00    4.6477446984164050E+00    1.3051110295189810E+01
N    4.8823496806013935E+00    2.7799545006139192E+00    1.3666693341151905E+01
Ga    4.8871665147774763E+00    2.7709951021727104E+00    1.5687928492072974E+01
N    4.8457974171379075E+00    4.6647432673073714E+00    1.6149369560552159E+01
Ga    4.9752676090212633E+00    4.5954155872275013E+00    1.9130709396567681E+01
N    4.9712476472421256E+00    2.7095071799837234E+00    1.8833320194874386E+01
Ga    3.2695922678318254E+00    5.5790873297980053E+00    3.2313179096515238E-01
N    3.2683613032869578E+00    7.4495957914531150E+00    6.0477100583550747E-01
Ga    3.2949758304257513E+00    7.4646858194342833E+00    2.6363335165661970E+00
N    3.2677732004155549E+00    5.5790372838934204E+00    3.2278016849086280E+00
Ga    3.2666836609360930E+00    5.5798520758409822E+00    5.2396224184295876E+00
N    3.2672859870422863E+00    7.4498445880282764E+00    5.8482599158570361E+00
Ga    3.2668819690793875E+00    7.4500183196799670E+00    7.8487299680313223E+00
N    3.2646735644964946E+00    5.5793994602350336E+00    8.4526633628255077E+00
Ga    3.2637610902025842E+00    5.5808610353622772E+00    1.0451984974711722E+01
N    3.2679967025470380E+00    7.4578547700100284E+00    1.1041184363424723E+01
Ga    3.2672656284851076E+00    7.4616865488059032E+00    1.3036054078001429E+01
N    3.2517589155372697E+00    5.5837988602171640E+00    1.3592880663976180E+01
Ga    3.2488386691939599E+00    5.5923611630436021E+00    1.5586379023220411E+01
N    3.2822613608287767E+00    7.4626956766848114E+00    1.6131305509929433E+01
Ga    3.3479355122384327E+00    7.4329446866288498E+00    1.8134115180849225E+01
N    3.4612217730590733E+00    5.4763810866765068E+00    1.8315242389516239E+01
O    1.6838951585079409E+00    5.1854797681846350E+00    2.1288322905626394E+01
H    1.0956754302490019E+00    5.4177249615507010E+00    2.0497465607446614E+01
C    9.7001178023545398E-01    3.6178326813816999E+00    2.1700342935704857E+01
H   -1.0212603004134005E-01    3.7825937067118924E+00    2.1576671160703778E+01
H    1.3971460671353153E+00    2.9233175785362291E+00    2.0969383322098796E+01
H    1.2962223235389629E+00    3.4876978309594273E+00    2.2732314924854407E+01
O    4.2213104755286075E+00    4.8299627708693178E+00    2.1033835478070785E+01
H    3.1811846438358096E+00    4.9698767817687930E+00    2.1060389431486335E+01
C    4.6093481486673120E+00    3.8691834617442491E+00    2.2045077788315325E+01
H    4.3405566585873059E+00    2.8465312410200161E+00    2.1744672396182700E+01
H    5.6969412790666230E+00    3.9337413085425226E+00    2.2168050082744248E+01
H    4.1207362424281317E+00    4.1311788749650127E+00    2.2992024451732416E+01
     &END COORD
     &KIND C
       BASIS_SET DZVP-MOLOPT-SR-GTH-q4
       POTENTIAL GTH-PBE-q4
       &POTENTIAL
 2 2
  0.3384712400000000E+00 2 -0.8803673979999999E+01  0.1339210850000000E+01
 2
  0.3025757500000000E+00 1  0.9622486650000001E+01
  0.2915069400000000E+00 0
         # Potential name:  GTH-PBE-Q4  for symbol:  C
         # Potential read from the potential filename: GTH_POTENTIALS
       &END POTENTIAL
     &END KIND
     &KIND O
       BASIS_SET DZVP-MOLOPT-SR-GTH-q6
       POTENTIAL GTH-PBE-q6
       &POTENTIAL
 2 4
  0.2445543000000000E+00 2 -0.1666721480000000E+02  0.2487311320000000E+01
 2
  0.2209559200000000E+00 1  0.1833745811000000E+02
  0.2113324700000000E+00 0
         # Potential name:  GTH-PBE-Q6  for symbol:  O
         # Potential read from the potential filename: GTH_POTENTIALS
       &END POTENTIAL
     &END KIND
     &KIND H
       BASIS_SET DZVP-MOLOPT-SR-GTH-q1
       POTENTIAL GTH-PBE-q1
       &POTENTIAL
 1
  0.2000000000000000E+00 2 -0.4178900440000000E+01  0.7244633100000000E+00
 0
         # Potential name:  GTH-PBE-Q1  for symbol:  H
         # Potential read from the potential filename: GTH_POTENTIALS
       &END POTENTIAL
     &END KIND
     &KIND N
       BASIS_SET DZVP-MOLOPT-SR-GTH-q5
       POTENTIAL GTH-PBE-q5
       &POTENTIAL
 2 3
  0.2837905100000000E+00 2 -0.1241522559000000E+02  0.1868095920000000E+01
 2
  0.2554050000000000E+00 1  0.1363026257000000E+02
  0.2454945300000000E+00 0
         # Potential name:  GTH-PBE-Q5  for symbol:  N
         # Potential read from the potential filename: GTH_POTENTIALS
       &END POTENTIAL
     &END KIND
     &KIND Ga
       BASIS_SET DZVP-MOLOPT-SR-GTH-q13
       POTENTIAL GTH-PBE-q13
       &POTENTIAL
 2 1 10
  0.4900000000000000E+00 0
 3
  0.4167772300000000E+00 3  0.1047568975000000E+02 -0.4921768140000000E+01  0.8707055900000000E+00
  0.7770178090000000E+01 -0.2248152160000000E+01
  0.1784415450000000E+01
  0.5696265200000000E+00 2  0.1777985340000000E+01  0.1958597600000000E+00
 -0.2317443900000000E+00
  0.2381265000000000E+00 1 -0.1624868022000000E+02
         # Potential name:  GTH-PBE-Q13  for symbol:  GA
         # Potential read from the potential filename: GTH_POTENTIALS
       &END POTENTIAL
     &END KIND
     &TOPOLOGY
       COORD_FILE_NAME ../start-first.xyz
       COORD_FILE_FORMAT  XYZ
       NUMBER_OF_ATOMS  156
       MULTIPLE_UNIT_CELL  1 1 1
     &END TOPOLOGY
     &COLVAR
       &DISTANCE
         ATOMS  145 147
       &END DISTANCE
       &PRINT
       &END PRINT
     &END COLVAR
   &END SUBSYS
 &END FORCE_EVAL
