 # Version information for this restart file 
 # current date 2019-05-28 00:49:09.246
 # current working dir /lustre03/project/6004141/rzk/GaN-carbene/334-native/08-2Methanol-Htransfer/03-CO-constraint/1.94
 # Program compiled at                              Sun Apr  7 00:48:11 EDT 2019
 # Program compiled on                          beluga2.int.ets1.calculquebec.ca
 # Program compiled for                        Beluga-Linux-x86-64-intel-openmpi
 # Source code revision number                                         svn:18619
 &GLOBAL
   PRINT_LEVEL  MEDIUM
   PROJECT_NAME TEST
   RUN_TYPE  GEO_OPT
 &END GLOBAL
 &MOTION
   &GEO_OPT
     MAX_ITER  500
     STEP_START_VAL  119
   &END GEO_OPT
   &CONSTRAINT
     &COLLECTIVE
       COLVAR  1
       INTERMOLECULAR  T
       TARGET     3.6660686977981474E+00
       &RESTRAINT
         K     1.0000000000000001E-01
       &END RESTRAINT
     &END COLLECTIVE
     &COLVAR_RESTART
           3.6660686977981474E+00
     &END COLVAR_RESTART
   &END CONSTRAINT
 &END MOTION
 &FORCE_EVAL
   METHOD  QS
   STRESS_TENSOR  ANALYTICAL
   &DFT
     BASIS_SET_FILE_NAME BASIS_MOLOPT
     POTENTIAL_FILE_NAME GTH_POTENTIALS
     &SCF
       MAX_SCF  100
       EPS_SCF     5.0000000000000004E-06
       &OT  T
         PRECONDITIONER  FULL_ALL
       &END OT
       &OUTER_SCF  T
         OPTIMIZER  NONE
         EPS_SCF     5.0000000000000004E-06
         MAX_SCF  4
       &END OUTER_SCF
       &PRINT
         &RESTART  OFF
           BACKUP_COPIES  1
           &EACH
             JUST_ENERGY  0
             QS_SCF  0
             MD  20
           &END EACH
         &END RESTART
       &END PRINT
     &END SCF
     &QS
       EPS_DEFAULT     1.0000000000000000E-14
       ALMO_SCF  F
       METHOD  GPW
     &END QS
     &MGRID
       NGRIDS  5
       CUTOFF     1.2000000000000000E+03
     &END MGRID
     &XC
       DENSITY_CUTOFF     1.0000000000000000E-10
       GRADIENT_CUTOFF     1.0000000000000000E-10
       TAU_CUTOFF     1.0000000000000000E-10
       &XC_FUNCTIONAL  NO_SHORTCUT
         &PBE  T
         &END PBE
       &END XC_FUNCTIONAL
       &VDW_POTENTIAL
         POTENTIAL_TYPE  PAIR_POTENTIAL
         &PAIR_POTENTIAL
           R_CUTOFF     1.0000000000000005E+01
           TYPE  DFTD3
           PARAMETER_FILE_NAME dftd3.dat
           REFERENCE_FUNCTIONAL PBE
           EPS_CN     9.9999999999999995E-07
           CALCULATE_C9_TERM  T
           REFERENCE_C9_TERM  T
           LONG_RANGE_CORRECTION  F
           VERBOSE_OUTPUT  F
         &END PAIR_POTENTIAL
       &END VDW_POTENTIAL
     &END XC
   &END DFT
   &SUBSYS
     &CELL
       A     9.7367653356401487E+00    0.0000000000000000E+00    0.0000000000000000E+00
       B    -4.8591341382960209E+00    8.4162672083210595E+00    0.0000000000000000E+00
       C     0.0000000000000000E+00    0.0000000000000000E+00    3.0744000000000000E+01
       MULTIPLE_UNIT_CELL  1 1 1
       &CELL_REF
         A     9.5580000000000052E+00    0.0000000000000000E+00    0.0000000000000000E+00
         B    -4.7790000000000026E+00    8.2774708093716640E+00    0.0000000000000000E+00
         C     0.0000000000000000E+00    0.0000000000000000E+00    3.0744000000000000E+01
         MULTIPLE_UNIT_CELL  1 1 1
       &END CELL_REF
     &END CELL
     &COORD
Ga    1.7847145346414805E-02   -2.9802959455682405E-02   -5.3913694388785993E-01
N    2.0533193873822766E-02    1.8426723160101879E+00    6.0571121273092543E-01
Ga    1.9217211881912576E-02    1.8111120577204702E+00    2.6367724854595425E+00
N    1.6135069503744482E-02   -3.2377423240001174E-02    3.2681992442409191E+00
Ga    1.4856957420605088E-02   -3.1461723618104835E-02    5.2585976625467081E+00
N    1.7743751454273666E-02    1.8430493792919882E+00    5.8466915563674489E+00
Ga    1.6685294470572751E-02    1.8410502425045536E+00    7.8459517471181091E+00
N    1.5637409193495776E-02   -3.1916449716621949E-02    8.4468256533322403E+00
Ga    1.6055968419268235E-02   -3.1358991398374982E-02    1.0444660794961795E+01
N    1.4273461577512843E-02    1.8409375947322402E+00    1.1047748762133677E+01
Ga    2.0326049021337857E-02    1.8370652522914224E+00    1.3041438996880428E+01
N    2.9545121777303916E-02   -3.4340350506522926E-02    1.3638794215457454E+01
Ga    4.8318699782342434E-02   -5.7461864071010900E-02    1.5632378068670350E+01
N    4.1031537718511729E-02    1.8241776554894018E+00    1.6216548198398879E+01
Ga    7.1637769975298707E-02    1.8071894835296927E+00    1.8273640749315373E+01
N    5.9486922576976922E-02   -6.8892254689150251E-02    1.8665234218070029E+01
Ga   -1.6020785751674782E+00    2.7732931280954110E+00    3.2277662135714336E-01
N   -1.6030340462202057E+00    4.6434029137641986E+00    6.0522694640791896E-01
Ga   -1.5758832315519258E+00    4.6585424989266011E+00    2.6359831328320498E+00
N   -1.6032615267122681E+00    2.7731731370598212E+00    3.2271493495472732E+00
Ga   -1.6042282257145333E+00    2.7737111420775724E+00    5.2381631528203112E+00
N   -1.6043405005143481E+00    4.6436983045843796E+00    5.8452060809708097E+00
Ga   -1.6057509210003715E+00    4.6446713997318865E+00    7.8435880682909209E+00
N   -1.6063680860267502E+00    2.7744112301153301E+00    8.4503625497423744E+00
Ga   -1.6082152738122633E+00    2.7765161889443437E+00    1.0446265368655020E+01
N   -1.6092245704114654E+00    4.6464207047056165E+00    1.1055628487172536E+01
Ga   -1.6140956709270506E+00    4.6449686428818300E+00    1.3053880201938053E+01
N   -1.5963064733110846E+00    2.7752315458921362E+00    1.3670182988303958E+01
Ga   -1.5917496132965581E+00    2.7854084650234698E+00    1.5679312292634968E+01
N   -1.5840739109630262E+00    4.6516031835933536E+00    1.6305418761811623E+01
Ga   -1.4820676115692921E+00    4.6419708830033972E+00    1.8383180221023402E+01
N   -1.5252111400459081E+00    2.7439337918827276E+00    1.8719037358172638E+01
Ga   -3.2225077857096225E+00    5.5791547070149834E+00    3.2318814608274793E-01
N   -3.2161327750651703E+00    7.4498129358017744E+00    6.0492670497383683E-01
Ga   -3.2446067652747703E+00    7.4644781140684229E+00    2.6362780326989679E+00
N   -3.2229629191065645E+00    5.5785574104602702E+00    3.2267687219744468E+00
Ga   -3.2243300134245674E+00    5.5789261034532300E+00    5.2380219230085467E+00
N   -3.2187319455550862E+00    7.4494186854532485E+00    5.8446200502324794E+00
Ga   -3.2213294116217206E+00    7.4495850010702007E+00    7.8431145791622274E+00
N   -3.2264459044835463E+00    5.5792481198064436E+00    8.4473653337264931E+00
Ga   -3.2280042455393358E+00    5.5782917502280869E+00    1.0442258307347192E+01
N   -3.2201840307961689E+00    7.4472850168493006E+00    1.1052532401125147E+01
Ga   -3.2127402503805040E+00    7.4406488277810876E+00    1.3050502733672772E+01
N   -3.2326735658718002E+00    5.5736066678168035E+00    1.3690034653298451E+01
Ga   -3.2135458489441611E+00    5.5695263033729425E+00    1.5726624712824295E+01
N   -3.1883593021045917E+00    7.4331323517726755E+00    1.6286808624148524E+01
Ga   -3.1723559269665822E+00    7.3918934631040614E+00    1.8347848666625023E+01
N   -3.1197771774350036E+00    5.5331825639113221E+00    1.8885938378295606E+01
Ga    3.2637536958193585E+00   -3.1658324372332125E-02    3.2309385681998604E-01
N    3.2618589180765940E+00    1.8380772434574522E+00    6.0577455537196201E-01
Ga    3.2891595408913563E+00    1.8534985611341832E+00    2.6357838187190969E+00
N    3.2623397237819423E+00   -3.2394417129712333E-02    3.2266911317405347E+00
Ga    3.2615490090514303E+00   -3.1445362672442745E-02    5.2380165647279791E+00
N    3.2615432943645151E+00    1.8387785650132458E+00    5.8453732510359160E+00
Ga    3.2607551107898542E+00    1.8389915802754546E+00    7.8440825461786110E+00
N    3.2578762147663243E+00   -3.1368295841042969E-02    8.4471761155293486E+00
Ga    3.2582139377103077E+00   -3.1285970974721376E-02    1.0441712221386897E+01
N    3.2645548131983007E+00    1.8389133256730774E+00    1.1049891146583297E+01
Ga    3.2710810806802817E+00    1.8317776502542453E+00    1.3046418404934222E+01
N    3.2622630131560268E+00   -3.6382385648484131E-02    1.3665414019002210E+01
Ga    3.2731704508987307E+00   -4.3038564415249503E-02    1.5674684490524577E+01
N    3.2981546179190495E+00    1.8215748663881730E+00    1.6259915275015967E+01
Ga    3.3496324102762385E+00    1.8198621863315849E+00    1.8296236991009550E+01
N    3.3213602837677496E+00   -7.2819194186386188E-02    1.8750988235876246E+01
Ga    1.6431239203269270E+00    2.7738876815118370E+00    3.2312282093197631E-01
N    1.6495289554523680E+00    4.6440946118274047E+00    6.0559612180678957E-01
Ga    1.6205952272069910E+00    4.6589496868883682E+00    2.6362627210482188E+00
N    1.6421855246573276E+00    2.7733280472808599E+00    3.2277907397922991E+00
Ga    1.6411477393170228E+00    2.7742862841841256E+00    5.2392884869761502E+00
N    1.6463653603476291E+00    4.6441023822214396E+00    5.8479345758601440E+00
Ga    1.6433617850626834E+00    4.6447832645927241E+00    7.8482317091163987E+00
N    1.6398864365407413E+00    2.7723581075543509E+00    8.4485962937741252E+00
Ga    1.6393695837383688E+00    2.7720475893024075E+00    1.0444204083648147E+01
N    1.6351109186401951E+00    4.6432097536021386E+00    1.1039482703316644E+01
Ga    1.6302767687772624E+00    4.6421344692799886E+00    1.3032787711404943E+01
N    1.6452589506008366E+00    2.7637185165113323E+00    1.3639971191291218E+01
Ga    1.6746227673501857E+00    2.7532081859064088E+00    1.5632330619544888E+01
N    1.6301666250460780E+00    4.6332408576384312E+00    1.6131450428077066E+01
Ga    1.7073891236557797E+00    4.5929053401205380E+00    1.8113347770761383E+01
N    1.7062774145943658E+00    2.7477949889094382E+00    1.8625520482373840E+01
Ga    2.4126894294297600E-02    5.5786834113371642E+00   -5.4383967717536419E-01
N    2.7056938350352094E-02    7.4533481361775191E+00    6.0500516538810711E-01
Ga    2.5981469674473658E-02    7.4215751322146435E+00    2.6359018045241940E+00
N    2.2477740849108363E-02    5.5784001715648186E+00    3.2683664362782761E+00
Ga    2.1888916214887946E-02    5.5791064747181611E+00    5.2586615506902996E+00
N    2.4571050934576798E-02    7.4538727446071915E+00    5.8464688154999367E+00
Ga    2.2328355840375964E-02    7.4529675039416272E+00    7.8459064458310763E+00
N    1.7106892552320271E-02    5.5792728650047643E+00    8.4456864333770465E+00
Ga    1.3903309705906525E-02    5.5793562104134580E+00    1.0442902843993755E+01
N    2.1423304876746985E-02    7.4528978184972630E+00    1.1041111501126903E+01
Ga    2.0169823485434338E-02    7.4554551826628854E+00    1.3032734704762772E+01
N    8.0931702137194018E-03    5.5849424223057849E+00    1.3631233318306649E+01
Ga    8.5380095927177387E-03    5.5735095103784476E+00    1.5626115231598485E+01
N    5.0038328629145479E-02    7.4416911186897101E+00    1.6255637765620371E+01
Ga    7.6908203122098714E-02    7.3957923070894438E+00    1.8341563447754858E+01
N    1.9144689238225096E-01    5.5369515704799781E+00    1.8874278394639710E+01
Ga    6.5081659468104682E+00   -3.0819735465825695E-02    3.2217793753936380E-01
N    6.5151094515740970E+00    1.8386685705057773E+00    6.0573693805148732E-01
Ga    6.4862037503519705E+00    1.8535359073744762E+00    2.6355273186503703E+00
N    6.5075869880308410E+00   -3.2127065008797868E-02    3.2276747316504282E+00
Ga    6.5071538937624540E+00   -3.1201766031380525E-02    5.2393591902898367E+00
N    6.5119178772658897E+00    1.8392645843714921E+00    5.8460651277012019E+00
Ga    6.5084659169298025E+00    1.8401823429422590E+00    7.8447976679360245E+00
N    6.5039549721620284E+00   -2.9367073321562829E-02    8.4493786603164782E+00
Ga    6.5041464068836685E+00   -2.4768376184022053E-02    1.0445760510396276E+01
N    6.5062849018984608E+00    1.8469174940590465E+00    1.1055650400549091E+01
Ga    6.5089285620601354E+00    1.8517019252015265E+00    1.3054378391920038E+01
N    6.4981244876877966E+00   -2.1774054305524544E-02    1.3629365071157128E+01
Ga    6.5143943508021085E+00   -1.7578412006090140E-02    1.5628589074815014E+01
N    6.5215506603041602E+00    1.8473986210019948E+00    1.6249529431245609E+01
Ga    6.5907473111056634E+00    1.8169876350664149E+00    1.8300544290822739E+01
N    6.5916590322938697E+00   -9.1699755791967749E-02    1.8661773820648062E+01
Ga    4.8896724708655430E+00    2.7744993324440324E+00   -5.4832200107319784E-01
N    4.8918847491510853E+00    4.6488734828650733E+00    6.0600076993422913E-01
Ga    4.8906208988361746E+00    4.6164284502553867E+00    2.6356817862282709E+00
N    4.8878906735366572E+00    2.7730971041158221E+00    3.2677043358164686E+00
Ga    4.8871528666684538E+00    2.7742958587791113E+00    5.2575515352265958E+00
N    4.8892049107924986E+00    4.6485100321031894E+00    5.8463512493749121E+00
Ga    4.8861540575439619E+00    4.6476921433132317E+00    7.8457542384500041E+00
N    4.8844356479271491E+00    2.7742663664033924E+00    8.4466252018727754E+00
Ga    4.8853437926080892E+00    2.7772593550306621E+00    1.0444053721274352E+01
N    4.8890008013769366E+00    4.6467454936293517E+00    1.1051158823792981E+01
Ga    4.8873471523891290E+00    4.6477358874918036E+00    1.3050979196849608E+01
N    4.8822437703955606E+00    2.7799793778536004E+00    1.3666549697550124E+01
Ga    4.8869378991340717E+00    2.7708687341316232E+00    1.5687754121545712E+01
N    4.8455968501610505E+00    4.6646181340491601E+00    1.6149231991302251E+01
Ga    4.9751546509479834E+00    4.5953045275300317E+00    1.9130519639886000E+01
N    4.9713320401704753E+00    2.7094964155060897E+00    1.8833199104339815E+01
Ga    3.2697443903236132E+00    5.5790468322108264E+00    3.2295197682457216E-01
N    3.2685774044293905E+00    7.4495419335575157E+00    6.0458726130514862E-01
Ga    3.2951022467015902E+00    7.4645453719710009E+00    2.6362082379437353E+00
N    3.2679230651521576E+00    5.5789006222439177E+00    3.2276623352450624E+00
Ga    3.2667888284850450E+00    5.5797397047314723E+00    5.2394388462212831E+00
N    3.2674017420678849E+00    7.4497361411170733E+00    5.8482110498203159E+00
Ga    3.2668455667866230E+00    7.4500103326989864E+00    7.8486782049768937E+00
N    3.2646173840675936E+00    5.5794072283853389E+00    8.4525701190854203E+00
Ga    3.2636277862993524E+00    5.5810295489014123E+00    1.0451850618624876E+01
N    3.2678275460241371E+00    7.4579685672771783E+00    1.1041194035601237E+01
Ga    3.2671594335800087E+00    7.4617944666455100E+00    1.3036061275059604E+01
N    3.2516984709044041E+00    5.5838638718644384E+00    1.3592841425619049E+01
Ga    3.2486264954537205E+00    5.5922674205973291E+00    1.5586283822462866E+01
N    3.2823119023772689E+00    7.4625829140076583E+00    1.6131130419848624E+01
Ga    3.3480730856849936E+00    7.4330540858845087E+00    1.8133922503368332E+01
N    3.4610966424200238E+00    5.4762920637578105E+00    1.8315050500623403E+01
O    1.6833047722385830E+00    5.1855182745462498E+00    2.1289075112443111E+01
H    1.0949111463821104E+00    5.4176747336135183E+00    2.0498342705890078E+01
C    9.6950745576048303E-01    3.6178658674981579E+00    2.1700950910494559E+01
H   -1.0286600758668377E-01    3.7828952369219282E+00    2.1577353961639641E+01
H    1.3969459301087199E+00    2.9232962099609252E+00    2.0970089046385127E+01
H    1.2956683608830351E+00    3.4874907834336875E+00    2.2733101600212230E+01
O    4.2208818855347934E+00    4.8299429914907455E+00    2.1033637423490298E+01
H    3.1809001048755765E+00    4.9698996060739447E+00    2.1060667135239150E+01
C    4.6094599358669921E+00    3.8693319246742250E+00    2.2044862117948142E+01
H    4.3410182342341148E+00    2.8467325153828069E+00    2.1744490968136187E+01
H    5.6968952568868998E+00    3.9341659135831888E+00    2.2167502945781827E+01
H    4.1214204262754670E+00    4.1310567360287402E+00    2.2991989206247414E+01
     &END COORD
     &KIND C
       BASIS_SET DZVP-MOLOPT-SR-GTH-q4
       POTENTIAL GTH-PBE-q4
       &POTENTIAL
 2 2
  0.3384712400000000E+00 2 -0.8803673979999999E+01  0.1339210850000000E+01
 2
  0.3025757500000000E+00 1  0.9622486650000001E+01
  0.2915069400000000E+00 0
         # Potential name:  GTH-PBE-Q4  for symbol:  C
         # Potential read from the potential filename: GTH_POTENTIALS
       &END POTENTIAL
     &END KIND
     &KIND O
       BASIS_SET DZVP-MOLOPT-SR-GTH-q6
       POTENTIAL GTH-PBE-q6
       &POTENTIAL
 2 4
  0.2445543000000000E+00 2 -0.1666721480000000E+02  0.2487311320000000E+01
 2
  0.2209559200000000E+00 1  0.1833745811000000E+02
  0.2113324700000000E+00 0
         # Potential name:  GTH-PBE-Q6  for symbol:  O
         # Potential read from the potential filename: GTH_POTENTIALS
       &END POTENTIAL
     &END KIND
     &KIND H
       BASIS_SET DZVP-MOLOPT-SR-GTH-q1
       POTENTIAL GTH-PBE-q1
       &POTENTIAL
 1
  0.2000000000000000E+00 2 -0.4178900440000000E+01  0.7244633100000000E+00
 0
         # Potential name:  GTH-PBE-Q1  for symbol:  H
         # Potential read from the potential filename: GTH_POTENTIALS
       &END POTENTIAL
     &END KIND
     &KIND N
       BASIS_SET DZVP-MOLOPT-SR-GTH-q5
       POTENTIAL GTH-PBE-q5
       &POTENTIAL
 2 3
  0.2837905100000000E+00 2 -0.1241522559000000E+02  0.1868095920000000E+01
 2
  0.2554050000000000E+00 1  0.1363026257000000E+02
  0.2454945300000000E+00 0
         # Potential name:  GTH-PBE-Q5  for symbol:  N
         # Potential read from the potential filename: GTH_POTENTIALS
       &END POTENTIAL
     &END KIND
     &KIND Ga
       BASIS_SET DZVP-MOLOPT-SR-GTH-q13
       POTENTIAL GTH-PBE-q13
       &POTENTIAL
 2 1 10
  0.4900000000000000E+00 0
 3
  0.4167772300000000E+00 3  0.1047568975000000E+02 -0.4921768140000000E+01  0.8707055900000000E+00
  0.7770178090000000E+01 -0.2248152160000000E+01
  0.1784415450000000E+01
  0.5696265200000000E+00 2  0.1777985340000000E+01  0.1958597600000000E+00
 -0.2317443900000000E+00
  0.2381265000000000E+00 1 -0.1624868022000000E+02
         # Potential name:  GTH-PBE-Q13  for symbol:  GA
         # Potential read from the potential filename: GTH_POTENTIALS
       &END POTENTIAL
     &END KIND
     &TOPOLOGY
       COORD_FILE_NAME ../start-first.xyz
       COORD_FILE_FORMAT  XYZ
       NUMBER_OF_ATOMS  156
       MULTIPLE_UNIT_CELL  1 1 1
     &END TOPOLOGY
     &COLVAR
       &DISTANCE
         ATOMS  145 147
       &END DISTANCE
       &PRINT
       &END PRINT
     &END COLVAR
   &END SUBSYS
 &END FORCE_EVAL
