 # Version information for this restart file 
 # current date 2019-07-14 16:43:39.335
 # current working dir /lustre04/scratch/rzk/rzk/GaN-carbene/443-adatoms-both-2x2/09-BondBreaking-CH/03-0501-CH-to-Nsur-PES/Phase02
 # Program compiled at                              Sun Apr  7 00:48:11 EDT 2019
 # Program compiled on                          beluga2.int.ets1.calculquebec.ca
 # Program compiled for                        Beluga-Linux-x86-64-intel-openmpi
 # Source code revision number                                         svn:18619
 &GLOBAL
   PRINT_LEVEL  MEDIUM
   PROJECT_NAME TEST
   RUN_TYPE  GEO_OPT
 &END GLOBAL
 &MOTION
   &GEO_OPT
     MAX_ITER  500
     !STEP_START_VAL  17
   &END GEO_OPT
   &CONSTRAINT
     &COLLECTIVE
       COLVAR  1
       INTERMOLECULAR  T
       TARGET [angstrom] 1.60 !     3.2125344259055928E+00
       &RESTRAINT
         K     2.0000000000000000E+00
       &END RESTRAINT
     &END COLLECTIVE
   &END CONSTRAINT
 &END MOTION
 &FORCE_EVAL
   METHOD  QS
   STRESS_TENSOR  ANALYTICAL
   &DFT
     BASIS_SET_FILE_NAME BASIS_MOLOPT
     POTENTIAL_FILE_NAME GTH_POTENTIALS
     UKS  T
     SURFACE_DIPOLE_CORRECTION  T
     SURF_DIP_DIR  Z
     &SCF
       MAX_SCF  80
       EPS_SCF     5.0000000000000004E-06
       &OT  T
         PRECONDITIONER  FULL_ALL
       &END OT
       &OUTER_SCF  T
         OPTIMIZER  NONE
         EPS_SCF     5.0000000000000004E-06
         MAX_SCF  4
       &END OUTER_SCF
       &PRINT
         &RESTART  OFF
           BACKUP_COPIES  1
           &EACH
             JUST_ENERGY  0
             QS_SCF  0
             MD  20
           &END EACH
         &END RESTART
       &END PRINT
     &END SCF
     &QS
       EPS_DEFAULT     1.0000000000000000E-14
       METHOD  GPW
     &END QS
     &MGRID
       NGRIDS  5
       CUTOFF     1.2000000000000000E+03
     &END MGRID
     &XC
       DENSITY_CUTOFF     1.0000000000000000E-10
       GRADIENT_CUTOFF     1.0000000000000000E-10
       TAU_CUTOFF     1.0000000000000000E-10
       &XC_FUNCTIONAL  NO_SHORTCUT
         &PBE  T
         &END PBE
       &END XC_FUNCTIONAL
       &VDW_POTENTIAL
         POTENTIAL_TYPE  PAIR_POTENTIAL
         &PAIR_POTENTIAL
           R_CUTOFF     1.0000000000000004E+01
           TYPE  DFTD3
           PARAMETER_FILE_NAME dftd3.dat
           REFERENCE_FUNCTIONAL PBE
           EPS_CN     9.9999999999999995E-07
           CALCULATE_C9_TERM  T
           REFERENCE_C9_TERM  T
           LONG_RANGE_CORRECTION  F
           VERBOSE_OUTPUT  F
         &END PAIR_POTENTIAL
       &END VDW_POTENTIAL
     &END XC
   &END DFT
   &SUBSYS
     &CELL
       A     1.2864472766435110E+01    0.0000000000000000E+00    0.0000000000000000E+00
       B    -6.4322363581020028E+00    1.1140960178524473E+01    0.0000000000000000E+00
       C     0.0000000000000000E+00    0.0000000000000000E+00    3.2000000000000000E+01
       MULTIPLE_UNIT_CELL  1 1 1
       &CELL_REF
         A     1.2982353780853531E+01    0.0000000000000000E+00    0.0000000000000000E+00
         B    -6.4911768904267628E+00    1.1243048175136114E+01    0.0000000000000000E+00
         C     0.0000000000000000E+00    0.0000000000000000E+00    3.2000000000000000E+01
         MULTIPLE_UNIT_CELL  1 1 1
       &END CELL_REF
     &END CELL
     &COORD
N    3.2831678397859773E-03    2.0469985378943076E+00    2.4543429917081645E+00
Ga   -5.6154075739434373E-03    9.5845549340225100E-02    2.8024206002428538E+00
N   -6.3859740717950976E-03    4.9381229615495459E-02    4.9658670475282021E+00
Ga    3.1077704551802621E-03    1.8849523375629504E+00    5.7427626592429464E+00
N   -1.4116909910503435E-03    1.8909086954514660E+00    7.7432141117625122E+00
Ga   -1.4129804481531028E-03    4.7366208125151861E-02    8.3957299441159030E+00
N   -2.6849503655430318E-03    4.5439271432600660E-02    1.0368111377350527E+01
Ga   -2.8931124762452275E-03    1.8848188898747518E+00    1.1026313363241645E+01
N   -3.7263408831209482E-03    1.8652073628168198E+00    1.3016674358194107E+01
Ga   -2.9701892483404782E-03    4.5811830121449827E-02    1.3829706407984306E+01
N   -2.1249893760030784E-03    4.4485071068372378E-02    1.6022010725970947E+01
Ga   -3.9911069481454236E-03    2.0857419321499817E+00    1.6438309072513938E+01
Ga   -1.1161369442753376E-02    3.7152311766279520E+00    1.2532743570678730E+00
N   -1.4722926945023547E+00    4.6248269505186252E+00    2.4382157440511047E+00
Ga   -1.6696696429617617E+00    2.7911256496410557E+00    3.2172158296625768E+00
N   -1.6124267124099427E+00    2.8324273008091043E+00    5.1982322725821355E+00
Ga   -1.6313794016696881E+00    4.6971052188664970E+00    5.7542767639261090E+00
N   -1.6193012219858791E+00    4.6959649164135140E+00    7.7473188598485336E+00
Ga   -1.5978575168651721E+00    2.8359772008141833E+00    8.3907811752410772E+00
N   -1.5993354499157402E+00    2.8379002149645318E+00    1.0381742393899685E+01
Ga   -1.6276699624625854E+00    4.6955083755542137E+00    1.1029591410822558E+01
N   -1.6445207682943777E+00    4.7060486120138849E+00    1.3018314229832802E+01
Ga   -1.6004873342755970E+00    2.8371991910087386E+00    1.3577710687139302E+01
N   -1.6264512954259824E+00    2.8227213999723242E+00    1.5536506672094859E+01
Ga   -1.4488631226859647E+00    4.5929332403492404E+00    1.6438455228337194E+01
N    1.7409772439961838E-03    3.7551887611432728E+00    1.7581328372145443E+01
N   -3.2325498662373220E+00    7.5836004530714902E+00    2.4548642995116512E+00
Ga   -3.1861292861857242E+00    5.5812950980402922E+00    2.8048801131841969E+00
N   -3.2152354622876369E+00    5.6107838029592090E+00    4.9667036694681324E+00
Ga   -3.2376364730325355E+00    7.4334679351070188E+00    5.7490570425858571E+00
N   -3.2235821693040383E+00    7.4625861402131823E+00    7.7397272553552607E+00
Ga   -3.2186775379248465E+00    5.6153483601796923E+00    8.4004458894400589E+00
N   -3.2192386113302183E+00    5.6167094918782707E+00    1.0370439323026019E+01
Ga   -3.2209627730716974E+00    7.4541471546122917E+00    1.1031234298358671E+01
N   -3.2203597736742990E+00    7.4353438903659965E+00    1.3019176111418830E+01
Ga   -3.2195760833157316E+00    5.6156705600439576E+00    1.3834615380154965E+01
N   -3.2197984898772676E+00    5.6159370324439601E+00    1.6021662636104541E+01
Ga   -3.2203085886336518E+00    7.6644922818718930E+00    1.6441383694635590E+01
Ga   -3.2523077669378120E+00    9.3475306793803465E+00    1.3984160847136340E+00
N   -4.7426928219286770E+00    1.0184571145217246E+01    2.4654035936376211E+00
Ga   -4.9737369191243381E+00    8.3171336134697054E+00    3.1902309120343206E+00
N   -4.8434131670987774E+00    8.3884739212959172E+00    5.1628497414999019E+00
Ga   -4.8619429508322076E+00    1.0264450657387890E+01    5.7380279079375986E+00
N   -4.8392167776200061E+00    1.0257485503368752E+01    7.7358245882687768E+00
Ga   -4.8198907705634682E+00    8.4074268387057245E+00    8.3966931157052986E+00
N   -4.8157438165856918E+00    8.4076292348935322E+00    1.0383293840801811E+01
Ga   -4.8431144003618929E+00    1.0267426397636891E+01    1.1027092186355226E+01
N   -4.8601192933546074E+00    1.0276707227053629E+01    1.3016201047976708E+01
Ga   -4.8179781588875130E+00    8.4079789374142582E+00    1.3578699539820846E+01
N   -4.8482447986613622E+00    8.3921066445360921E+00    1.5534653452118143E+01
Ga   -4.6567087053351095E+00    1.0159299872276360E+01    1.6442728757658518E+01
N   -3.2147899940227158E+00    9.3268103420849631E+00    1.7570204452614515E+01
N    3.2051059928754002E+00    1.9008115474480185E+00    2.5593235417918692E+00
Ga    3.1932370417979543E+00    1.5844824387805373E-01    3.2343570011137355E+00
N    3.2086087997556527E+00    3.9503835779692263E-02    5.1962674040106052E+00
Ga    3.2005821053904557E+00    1.9066025514218949E+00    5.8229870092255478E+00
N    3.2107995797124387E+00    1.9000484545146659E+00    7.7973212472218627E+00
Ga    3.2074052584776878E+00    3.3691038371677792E-02    8.3887735979469902E+00
N    3.2114828280853747E+00    3.1063166655122057E-02    1.0379022291300855E+01
Ga    3.2121458433604877E+00    1.9008750399811305E+00    1.0981693787637004E+01
N    3.2116738257001121E+00    1.9017948160769247E+00    1.2948221388861420E+01
Ga    3.2116299742212866E+00    3.3864472781831502E-02    1.3578297182786201E+01
N    3.2101805501268137E+00    6.7791271082902269E-02    1.5534289208121876E+01
Ga    3.2106054958031911E+00    1.9034607579978595E+00    1.5819132964199420E+01
N    1.4902493383391733E+00    4.6322727538602591E+00    2.3739467913687280E+00
Ga    1.6840462034173735E+00    2.8074532410404021E+00    3.2027283505357089E+00
N    1.6080848477419367E+00    2.8405793937830395E+00    5.1847161961157671E+00
Ga    1.6554344412286726E+00    4.7068716135070039E+00    5.7594610682563863E+00
N    1.6096050164660245E+00    4.6920541170493406E+00    7.7603865982121203E+00
Ga    1.5940110319385086E+00    2.8356268859112084E+00    8.3942810707757136E+00
N    1.5936033631918842E+00    2.8361566924221369E+00    1.0384765288521418E+01
Ga    1.6210498137928993E+00    4.6951053943095964E+00    1.1028526894788069E+01
N    1.6366710137785823E+00    4.7058268762496915E+00    1.3018605762274944E+01
Ga    1.5936465366707651E+00    2.8366418578693477E+00    1.3577269274913467E+01
N    1.6179594047362071E+00    2.8222956869632436E+00    1.5537139339250512E+01
Ga    1.4447208449461166E+00    4.5951168259723723E+00    1.6438311267266048E+01
N   -9.6377478493525296E-03    7.4668598329277351E+00    2.6465597757850650E+00
Ga    2.4035628200274023E-02    5.5979328440039113E+00    3.2559774234987162E+00
N    4.6425762818973100E-03    5.6274062915819822E+00    5.1943806101254371E+00
Ga   -6.0145023192623003E-03    7.4589066319107200E+00    5.8617994684006565E+00
N   -6.0332761420901874E-03    7.4713156502363356E+00    7.8156921473376473E+00
Ga   -2.4202023268674587E-03    5.5983025833476523E+00    8.4057537118469750E+00
N   -4.4315419218774812E-03    5.6032060942404129E+00    1.0391066341690740E+01
Ga   -4.5322901631596252E-03    7.4725064771851022E+00    1.0987454571324811E+01
N   -3.7435323285405905E-03    7.4728099789967377E+00    1.2953433671046877E+01
Ga   -3.9126748719392965E-03    5.6022347726714630E+00    1.3578166450045650E+01
N   -4.6430063935355738E-03    5.6322122693308279E+00    1.5537024334065785E+01
Ga   -2.4576572552684100E-03    7.4715865966959818E+00    1.5815650986900588E+01
N   -1.7200835003234893E+00    1.0184513336271641E+01    2.4726454052633122E+00
Ga   -1.6104289262793632E+00    8.3770392405756553E+00    3.2813593245877755E+00
N   -1.6056626711525817E+00    8.3890370563131782E+00    5.2059808421743217E+00
Ga   -1.5920533267301265E+00    1.0276150874910561E+01    5.7632246626698294E+00
N   -1.6030952367658700E+00    1.0259912525031801E+01    7.7489819497115127E+00
Ga   -1.6274091861085693E+00    8.4057654123622125E+00    8.4008316135848045E+00
N   -1.6246359466443179E+00    8.4069011540874250E+00    1.0386092627182304E+01
Ga   -1.5989554436558526E+00    1.0267260698870983E+01    1.1029603155611888E+01
N   -1.5802255536436614E+00    1.0276930595793395E+01    1.3018189537567624E+01
Ga   -1.6234847331943019E+00    8.4081267774661619E+00    1.3579459116903855E+01
N   -1.5918462181440900E+00    8.3896318587613781E+00    1.5536038582002552E+01
Ga   -1.7780541910474856E+00    1.0162523667468118E+01    1.6440926839367538E+01
N    6.4338264416055617E+00    2.0146286905209476E+00    2.5044750207173889E+00
Ga    6.4231661945661740E+00    5.0157371991320580E-02    2.8430056567335389E+00
N    6.4256239885329620E+00    4.1439137064444756E-02    4.9811147233071296E+00
Ga    6.4253258666605735E+00    1.8775931386196356E+00    5.7640123015301405E+00
N    6.4290763512972262E+00    1.8887208252153764E+00    7.7544096205492705E+00
Ga    6.4266103038418443E+00    4.5677454238781376E-02    8.4071720503127505E+00
N    6.4273536920509882E+00    4.4462964410427762E-02    1.0374706639222834E+01
Ga    6.4284101073310582E+00    1.8850841600566515E+00    1.1029731878923311E+01
N    6.4287349439893404E+00    1.8651061100673487E+00    1.3018715377695765E+01
Ga    6.4283853654859282E+00    4.5974267860155585E-02    1.3833540592948424E+01
N    6.4281407602927683E+00    4.5340402939571360E-02    1.6020846325024440E+01
Ga    6.4281009316857718E+00    2.0935326134231329E+00    1.6439749710051252E+01
Ga    6.4525870266944780E+00    3.7236307651000669E+00    1.4738681109469087E+00
N    4.9395861752518684E+00    4.5957237129062092E+00    2.4750143082206955E+00
Ga    4.7062103788251521E+00    2.7695817106773855E+00    3.2578989537480258E+00
N    4.8191154570917663E+00    2.8281221647697148E+00    5.2124943670012351E+00
Ga    4.7773535351667089E+00    4.7087044795814048E+00    5.7609835698315850E+00
N    4.8167636694173916E+00    4.6898823678395294E+00    7.7616580935550719E+00
Ga    4.8283755862022133E+00    2.8344674604030007E+00    8.3964690620659486E+00
N    4.8316358912784176E+00    2.8351575493901948E+00    1.0385898289894024E+01
Ga    4.8053463620510284E+00    4.6954661744201536E+00    1.1027579702650117E+01
N    4.7885910153033562E+00    4.7060358062335839E+00    1.3017493488960520E+01
Ga    4.8301870094810608E+00    2.8367641218468536E+00    1.3577210453231526E+01
N    4.8000390679403067E+00    2.8212413982206219E+00    1.5533688879359202E+01
Ga    4.9914932107935464E+00    4.5885761037321684E+00    1.6441745865954903E+01
N    6.4336777225511455E+00    3.7557090916306377E+00    1.7568770537648724E+01
N    3.1929749441829420E+00    7.6226951260521680E+00    2.4884943711942658E+00
N    3.2169634547266051E+00    5.6199515703461920E+00    5.0247484793022057E+00
Ga    3.2173885852656166E+00    7.4165086907203408E+00    5.7706217973646510E+00
N    3.2112274907414959E+00    7.4693283546474332E+00    7.7645630470248799E+00
Ga    3.2132522983832468E+00    5.6146121477051878E+00    8.4013874015365584E+00
N    3.2128445761887336E+00    5.6164237961880525E+00    1.0374531967759523E+01
Ga    3.2134264046109933E+00    7.4545016934841986E+00    1.1029875473821834E+01
N    3.2127103241115615E+00    7.4362562411457569E+00    1.3019216761152625E+01
Ga    3.2132888591345683E+00    5.6155310030248797E+00    1.3829985271511413E+01
N    3.2137923551399941E+00    5.6147290121409279E+00    1.6022429867861042E+01
Ga    3.2120000937371431E+00    7.6564007474493669E+00    1.6438589647596157E+01
Ga    3.2270789370856892E+00    9.3626705541110127E+00    1.4344582655141989E+00
N    1.7002038786152209E+00    1.0193799174945658E+01    2.4854075370818256E+00
Ga    1.5751282798158146E+00    8.3842125372500611E+00    3.3042670369704328E+00
N    1.5894211498270356E+00    8.3956384501128500E+00    5.2229288310219690E+00
Ga    1.5780926611629909E+00    1.0278534142692513E+01    5.7734691231975477E+00
N    1.5937087604487186E+00    1.0262972042516935E+01    7.7572826740956256E+00
Ga    1.6154890647985867E+00    8.4078067611819733E+00    8.4077206778813949E+00
N    1.6142656878553261E+00    8.4086514764299967E+00    1.0391852883281601E+01
Ga    1.5890131244299339E+00    1.0268292629065074E+01    1.1031853427969798E+01
N    1.5722407629728590E+00    1.0277341269356489E+01    1.3019546962078747E+01
Ga    1.6156658223280123E+00    8.4083101393698101E+00    1.3578687074975520E+01
N    1.5893479176773244E+00    8.3932691069613856E+00    1.5537244203023207E+01
Ga    1.7671586708565858E+00    1.0163752522320785E+01    1.6438107620502571E+01
N    3.2177064051821040E+00    9.3264112873844294E+00    1.7580442061071789E+01
N    9.6601247460221682E+00    1.9097494582760648E+00    2.5696117982125615E+00
Ga    9.6531776728411938E+00    1.7254596669912819E-01    3.2502860065340422E+00
N    9.6413482570663849E+00    4.3714131855720560E-02    5.2086782274653851E+00
Ga    9.6558628617967255E+00    1.9065962043434428E+00    5.8341845473451643E+00
N    9.6463317841921228E+00    1.9018871507575084E+00    7.8046273475722145E+00
Ga    9.6470377597106491E+00    3.5651429232252278E-02    8.3983008352777873E+00
N    9.6447344366937244E+00    3.2130695212963439E-02    1.0385704760617790E+01
Ga    9.6464487946982906E+00    1.9030156865046424E+00    1.0981976809943552E+01
N    9.6458280690173570E+00    1.9021055557032367E+00    1.2949665101203941E+01
Ga    9.6449760080728417E+00    3.3233491631665030E-02    1.3578003694682076E+01
N    9.6439918013529411E+00    6.2137331087391126E-02    1.5536719904570948E+01
Ga    9.6461595879041564E+00    1.9014338549079755E+00    1.5815979237599798E+01
N    7.9335735156492664E+00    4.6225542989327577E+00    2.4903598847523249E+00
Ga    8.1540566903120393E+00    2.7690236875522007E+00    3.2621395174854064E+00
N    8.0391605220889577E+00    2.8268842989782894E+00    5.2162001454089673E+00
Ga    8.0629324640389246E+00    4.7008181930493569E+00    5.7574057114247337E+00
N    8.0475308538367276E+00    4.6935700725158487E+00    7.7493094782343261E+00
Ga    8.0282359139670554E+00    2.8358238402429130E+00    8.3960113714816842E+00
N    8.0259359290612977E+00    2.8370868416232207E+00    1.0385094058768841E+01
Ga    8.0529659009742325E+00    4.6961621389304211E+00    1.1029887774659034E+01
N    8.0697266232867282E+00    4.7065502214262258E+00    1.3018775016978623E+01
Ga    8.0262147258823653E+00    2.8370990452225708E+00    1.3577969851081054E+01
N    8.0568809079590817E+00    2.8189763308929972E+00    1.5535079467610164E+01
Ga    7.8706316405219159E+00    4.5918389200733429E+00    1.6440462145350981E+01
N    6.3600111617574919E+00    7.4347406516784336E+00    2.4599261652440290E+00
Ga    6.4167631703025840E+00    5.7122097305003301E+00    3.2585252980327324E+00
N    6.4286704845950924E+00    5.6187750358702546E+00    5.2053525088605737E+00
Ga    6.4255215214512642E+00    7.4699322524543916E+00    5.8419410512595782E+00
N    6.4276700770323876E+00    7.4716710337456131E+00    7.8059071011865555E+00
Ga    6.4291317287630170E+00    5.6011017993283261E+00    8.4012162708613278E+00
N    6.4305092268079251E+00    5.6032292871566787E+00    1.0388222193710707E+01
Ga    6.4294240091059027E+00    7.4728326154344584E+00    1.0984591662548139E+01
N    6.4283384472913792E+00    7.4735078587121091E+00    1.2950053643589630E+01
Ga    6.4284412626155758E+00    5.6038413761035386E+00    1.3577860159161849E+01
N    6.4266206519097118E+00    5.6382439947963912E+00    1.5534288264712371E+01
Ga    6.4267284366267150E+00    7.4737984016935100E+00    1.5819181535771259E+01
N    4.7183361150038721E+00    1.0200091151829515E+01    2.4836744208677541E+00
Ga    4.9044089575027732E+00    8.3480412331739675E+00    3.2628013076163351E+00
N    4.8209034145061489E+00    8.4010518664548943E+00    5.2087831976426235E+00
Ga    4.8491946854745418E+00    1.0276882077106967E+01    5.7584974532226676E+00
N    4.8305064208698969E+00    1.0264080759434455E+01    7.7497226430977513E+00
Ga    4.8102190589510174E+00    8.4096928592111446E+00    8.4015663789676882E+00
N    4.8104922273421433E+00    8.4088109078951536E+00    1.0388142566755040E+01
Ga    4.8372500264928870E+00    1.0268080416270092E+01    1.1028476157417781E+01
N    4.8530866447723096E+00    1.0277205003867024E+01    1.3017788669293786E+01
Ga    4.8098370227050458E+00    8.4081846852255762E+00    1.3578261227469968E+01
N    4.8342663853114178E+00    8.3932241703049293E+00    1.5537830131211171E+01
Ga    4.6607878283038442E+00    1.0165997764595041E+01    1.6438581206620135E+01
O    9.5646763175111463E-02    3.6890911632637851E+00   -5.6585136226454658E-01
H   -1.2221156307317285E-03    7.4752640760720199E+00    1.6202972543783847E+00
C    1.7814460014855754E-01    2.3917625752174612E+00   -1.1749901742418389E+00
H    9.9810226776091704E-01    1.7813801351656502E+00   -7.6047058043216642E-01
H   -7.5943425218586091E-01    1.8221940268160506E+00   -1.0679499369335874E+00
H    3.6926066385013756E-01    2.5426400529765458E+00   -2.2479138436845556E+00
Ga    3.2115374066143394E+00    5.6102548800118619E+00    2.4360619476771790E+00
O    3.7523957130226653E+00    6.0857067417699975E+00    2.3276001325882870E-01
H    3.5632645259294291E+00    5.3866605050688330E+00   -4.1584522857494327E-01
C    5.1191871093456047E+00    6.5940780390809230E+00    2.9817827978586516E-02
H    5.0857872866580394E+00    7.3939081052011275E+00   -7.2375314844140615E-01
H    5.5830074470216644E+00    6.9805799145612477E+00    1.0135517497766384E+00
H    5.7668241208075441E+00    5.7880831579514851E+00   -3.5384836382656937E-01
     &END COORD
     &KIND C
       BASIS_SET DZVP-MOLOPT-SR-GTH-q4
       POTENTIAL GTH-PBE-q4
       &POTENTIAL
 2 2
  0.3384712400000000E+00 2 -0.8803673979999999E+01  0.1339210850000000E+01
 2
  0.3025757500000000E+00 1  0.9622486650000001E+01
  0.2915069400000000E+00 0
         # Potential name:  GTH-PBE-Q4  for symbol:  C
         # Potential read from the potential filename: GTH_POTENTIALS
       &END POTENTIAL
     &END KIND
     &KIND O
       BASIS_SET DZVP-MOLOPT-SR-GTH-q6
       POTENTIAL GTH-PBE-q6
       &POTENTIAL
 2 4
  0.2445543000000000E+00 2 -0.1666721480000000E+02  0.2487311320000000E+01
 2
  0.2209559200000000E+00 1  0.1833745811000000E+02
  0.2113324700000000E+00 0
         # Potential name:  GTH-PBE-Q6  for symbol:  O
         # Potential read from the potential filename: GTH_POTENTIALS
       &END POTENTIAL
     &END KIND
     &KIND H
       BASIS_SET DZVP-MOLOPT-SR-GTH-q1
       POTENTIAL GTH-PBE-q1
       &POTENTIAL
 1
  0.2000000000000000E+00 2 -0.4178900440000000E+01  0.7244633100000000E+00
 0
         # Potential name:  GTH-PBE-Q1  for symbol:  H
         # Potential read from the potential filename: GTH_POTENTIALS
       &END POTENTIAL
     &END KIND
     &KIND N
       BASIS_SET DZVP-MOLOPT-SR-GTH
       POTENTIAL GTH-PBE-q5
       &POTENTIAL
 2 3
  0.2837905100000000E+00 2 -0.1241522559000000E+02  0.1868095920000000E+01
 2
  0.2554050000000000E+00 1  0.1363026257000000E+02
  0.2454945300000000E+00 0
         # Potential name:  GTH-PBE-Q5  for symbol:  N
         # Potential read from the potential filename: GTH_POTENTIALS
       &END POTENTIAL
     &END KIND
     &KIND Ga
       BASIS_SET DZVP-MOLOPT-SR-GTH
       POTENTIAL GTH-PBE-q13
       &POTENTIAL
 2 1 10
  0.4900000000000000E+00 0
 3
  0.4167772300000000E+00 3  0.1047568975000000E+02 -0.4921768140000000E+01  0.8707055900000000E+00
  0.7770178090000000E+01 -0.2248152160000000E+01
  0.1784415450000000E+01
  0.5696265200000000E+00 2  0.1777985340000000E+01  0.1958597600000000E+00
 -0.2317443900000000E+00
  0.2381265000000000E+00 1 -0.1624868022000000E+02
         # Potential name:  GTH-PBE-Q13  for symbol:  GA
         # Potential read from the potential filename: GTH_POTENTIALS
       &END POTENTIAL
     &END KIND
     &TOPOLOGY
       NUMBER_OF_ATOMS  212
       MULTIPLE_UNIT_CELL  1 1 1
     &END TOPOLOGY
     &COLVAR
       &DISTANCE
         ATOMS  176 211
       &END DISTANCE
       &PRINT
       &END PRINT
     &END COLVAR
   &END SUBSYS
 &END FORCE_EVAL
