 # Version information for this restart file 
 # current date 2019-07-15 08:13:57.605
 # current working dir /lustre04/scratch/rzk/rzk/GaN-carbene/443-adatoms-both-2x2/09-BondBreaking-CH/03-0501-CH-to-Nsur-PES/Phase02
 # Program compiled at                              Sun Apr  7 00:48:11 EDT 2019
 # Program compiled on                          beluga2.int.ets1.calculquebec.ca
 # Program compiled for                        Beluga-Linux-x86-64-intel-openmpi
 # Source code revision number                                         svn:18619
 &GLOBAL
   PRINT_LEVEL  MEDIUM
   PROJECT_NAME TEST
   RUN_TYPE  GEO_OPT
 &END GLOBAL
 &MOTION
   &GEO_OPT
     MAX_ITER  500
     !STEP_START_VAL  108
   &END GEO_OPT
   &CONSTRAINT
     &COLLECTIVE
       COLVAR  1
       INTERMOLECULAR  T
       TARGET [angstrom] 1.30 !     2.6456165860399001E+00
       &RESTRAINT
         K     2.0000000000000000E+00
       &END RESTRAINT
     &END COLLECTIVE
   &END CONSTRAINT
 &END MOTION
 &FORCE_EVAL
   METHOD  QS
   STRESS_TENSOR  ANALYTICAL
   &DFT
     BASIS_SET_FILE_NAME BASIS_MOLOPT
     POTENTIAL_FILE_NAME GTH_POTENTIALS
     UKS  T
     SURFACE_DIPOLE_CORRECTION  T
     SURF_DIP_DIR  Z
     &SCF
       MAX_SCF  80
       EPS_SCF     5.0000000000000004E-06
       &OT  T
         PRECONDITIONER  FULL_ALL
       &END OT
       &OUTER_SCF  T
         OPTIMIZER  NONE
         EPS_SCF     5.0000000000000004E-06
         MAX_SCF  4
       &END OUTER_SCF
       &PRINT
         &RESTART  OFF
           BACKUP_COPIES  1
           &EACH
             JUST_ENERGY  0
             QS_SCF  0
             MD  20
           &END EACH
         &END RESTART
       &END PRINT
     &END SCF
     &QS
       EPS_DEFAULT     1.0000000000000000E-14
       METHOD  GPW
     &END QS
     &MGRID
       NGRIDS  5
       CUTOFF     1.2000000000000000E+03
     &END MGRID
     &XC
       DENSITY_CUTOFF     1.0000000000000000E-10
       GRADIENT_CUTOFF     1.0000000000000000E-10
       TAU_CUTOFF     1.0000000000000000E-10
       &XC_FUNCTIONAL  NO_SHORTCUT
         &PBE  T
         &END PBE
       &END XC_FUNCTIONAL
       &VDW_POTENTIAL
         POTENTIAL_TYPE  PAIR_POTENTIAL
         &PAIR_POTENTIAL
           R_CUTOFF     1.0000000000000009E+01
           TYPE  DFTD3
           PARAMETER_FILE_NAME dftd3.dat
           REFERENCE_FUNCTIONAL PBE
           EPS_CN     9.9999999999999995E-07
           CALCULATE_C9_TERM  T
           REFERENCE_C9_TERM  T
           LONG_RANGE_CORRECTION  F
           VERBOSE_OUTPUT  F
         &END PAIR_POTENTIAL
       &END VDW_POTENTIAL
     &END XC
   &END DFT
   &SUBSYS
     &CELL
       A     1.2864472766435110E+01    0.0000000000000000E+00    0.0000000000000000E+00
       B    -6.4322363581020028E+00    1.1140960178524477E+01    0.0000000000000000E+00
       C     0.0000000000000000E+00    0.0000000000000000E+00    3.2000000000000000E+01
       MULTIPLE_UNIT_CELL  1 1 1
       &CELL_REF
         A     1.2982353780853531E+01    0.0000000000000000E+00    0.0000000000000000E+00
         B    -6.4911768904267628E+00    1.1243048175136114E+01    0.0000000000000000E+00
         C     0.0000000000000000E+00    0.0000000000000000E+00    3.2000000000000000E+01
         MULTIPLE_UNIT_CELL  1 1 1
       &END CELL_REF
     &END CELL
     &COORD
N    6.3008351728270698E-03    2.0504982775772613E+00    2.4585645627767008E+00
Ga    2.0185564858574343E-02    9.2334145375768770E-02    2.7988404043985353E+00
N   -8.0776230771389852E-03    5.1958625073656679E-02    4.9710545554793288E+00
Ga    8.2047481399271337E-03    1.8868437389486288E+00    5.7383682515966550E+00
N    6.1200234872243510E-04    1.8920986523962124E+00    7.7451631652859358E+00
Ga    2.3291675532233027E-03    4.7957288117823731E-02    8.3905264010338616E+00
N   -1.7470386627449193E-03    4.6070437249660860E-02    1.0369305636968916E+01
Ga   -2.1676863533470619E-03    1.8851797808620827E+00    1.1022509965379204E+01
N   -3.1159299771869402E-03    1.8656570590385608E+00    1.3019387532042682E+01
Ga   -1.6866636078771274E-04    4.4738907271772217E-02    1.3818542385721818E+01
N   -1.3849691411448692E-03    4.3871537587542489E-02    1.6025466358176196E+01
Ga   -2.2230753732706463E-03    2.0763748718160344E+00    1.6425665601669728E+01
Ga   -2.4535528244669483E-02    3.7090247656911912E+00    1.2444499154419613E+00
N   -1.4664627029593882E+00    4.6240458167069196E+00    2.4449185373505862E+00
Ga   -1.6629641829103685E+00    2.7947984167714197E+00    3.2237602362527888E+00
N   -1.6106402592454938E+00    2.8332016711109382E+00    5.2057125196095058E+00
Ga   -1.6266774363551866E+00    4.7007527353993046E+00    5.7503381952039572E+00
N   -1.6169282646524950E+00    4.6973676889577449E+00    7.7495476637992873E+00
Ga   -1.5948932978390571E+00    2.8379382688841841E+00    8.3883097384066403E+00
N   -1.5989288677560300E+00    2.8385970037819424E+00    1.0385544965083993E+01
Ga   -1.6276604755073789E+00    4.6964709483394236E+00    1.1026980273071940E+01
N   -1.6441373144596239E+00    4.7063123307507340E+00    1.3022973723309084E+01
Ga   -1.5995267730057576E+00    2.8369621531607918E+00    1.3575304051261151E+01
N   -1.6239539898745807E+00    2.8204854404108795E+00    1.5541873370953166E+01
Ga   -1.4668678051779858E+00    4.6044273147198673E+00    1.6425458004837164E+01
N   -1.0251078944597605E-02    3.7611651510481123E+00    1.7553713003239700E+01
N   -3.2370588491710341E+00    7.5740827512902973E+00    2.4461760753400439E+00
Ga   -3.1781523327681320E+00    5.6010975407406240E+00    2.8036279505178041E+00
N   -3.2132471199283921E+00    5.6074689780932943E+00    4.9747295623973438E+00
Ga   -3.2371102176969839E+00    7.4378693948721111E+00    5.7340086453128878E+00
N   -3.2237901935082349E+00    7.4639218419931170E+00    7.7357771421029708E+00
Ga   -3.2166243811933075E+00    5.6184165363992431E+00    8.3949508447266794E+00
N   -3.2183490814934967E+00    5.6175050601085026E+00    1.0371262532747963E+01
Ga   -3.2205324780378968E+00    7.4558528120085681E+00    1.1024989748742357E+01
N   -3.2196569265028301E+00    7.4368101801691342E+00    1.3018747001578838E+01
Ga   -3.2223611891063526E+00    5.6177204338845979E+00    1.3826074326106708E+01
N   -3.2233815393442988E+00    5.6180256586339183E+00    1.6026065964267268E+01
Ga   -3.2202363511377388E+00    7.6647223056777491E+00    1.6444494922518487E+01
Ga   -3.2493832917849308E+00    9.3584924448799551E+00    1.2419150184347190E+00
N   -4.7440817249957288E+00    1.0185699805671332E+01    2.4528068343908487E+00
Ga   -4.9439718788779077E+00    8.3332377804825946E+00    3.1566568632267140E+00
N   -4.8473650224700755E+00    8.3868114520486348E+00    5.1499432442694442E+00
Ga   -4.8571078495830680E+00    1.0263312875396947E+01    5.7222531237000194E+00
N   -4.8382809759174261E+00    1.0257401212755321E+01    7.7316857006245270E+00
Ga   -4.8180407263972995E+00    8.4089172959501894E+00    8.3891477269205303E+00
N   -4.8159288731784828E+00    8.4079823575283008E+00    1.0383348555450494E+01
Ga   -4.8411142280408095E+00    1.0267498400313688E+01    1.1020765066088645E+01
N   -4.8581011075658003E+00    1.0276298693686606E+01    1.3015690315670152E+01
Ga   -4.8158850608455959E+00    8.4087045020758424E+00    1.3577725628282813E+01
N   -4.8449232287513260E+00    8.3932515315021554E+00    1.5538099686132661E+01
Ga   -4.6597541214706650E+00    1.0161472082336802E+01    1.6444231072580344E+01
N   -3.2214207891764333E+00    9.3289595152665434E+00    1.7583301756796860E+01
N    3.2072654829854050E+00    1.8965040495237653E+00    2.5627280292070078E+00
Ga    3.1951405724170092E+00    1.3212013092849517E-01    3.2025078534436617E+00
N    3.2094772917475174E+00    4.2018253689342734E-02    5.1855227491792313E+00
Ga    3.2004006025182212E+00    1.9038201237947709E+00    5.8098274528165614E+00
N    3.2111244487420874E+00    1.9015665307251259E+00    7.7935280893745631E+00
Ga    3.2079182226952812E+00    3.4366645530354775E-02    8.3777797959828337E+00
N    3.2117772519256591E+00    3.2158598954543774E-02    1.0377097233440510E+01
Ga    3.2120313843581680E+00    1.8996355045277122E+00    1.0980790858702580E+01
N    3.2119690782986443E+00    1.9015072609409363E+00    1.2953849530061273E+01
Ga    3.2127835724112188E+00    3.2787255260391737E-02    1.3577240250666121E+01
N    3.2114714984235486E+00    6.4948647888248640E-02    1.5537381182786499E+01
Ga    3.2137432161510056E+00    1.9019064480688113E+00    1.5816536564782952E+01
N    1.5022024545771806E+00    4.6418910089267973E+00    2.3295808106194973E+00
Ga    1.6925239974249893E+00    2.8159320948114974E+00    3.1907700687144658E+00
N    1.6092650130833013E+00    2.8476299046726568E+00    5.1785856077098114E+00
Ga    1.6578518275603356E+00    4.7094831872383587E+00    5.7669606662704425E+00
N    1.6061071820772628E+00    4.6908466848194887E+00    7.7736051020688359E+00
Ga    1.5957298725091886E+00    2.8347447754149280E+00    8.3929660251719103E+00
N    1.5946136492988219E+00    2.8355576247177106E+00    1.0389606274468091E+01
Ga    1.6212766843908568E+00    4.6954322599037495E+00    1.1024531627645594E+01
N    1.6371200786463529E+00    4.7058308746780186E+00    1.3021547096127579E+01
Ga    1.5945359159407833E+00    2.8368055905757714E+00    1.3573806924260774E+01
N    1.6182692032386083E+00    2.8228255347593016E+00    1.5539540409267687E+01
Ga    1.4537096377026881E+00    4.5991218969543759E+00    1.6425563011604957E+01
N   -1.8037085348020534E-02    7.4720890536730558E+00    2.6424121897189536E+00
Ga    3.6645736449023171E-02    5.6036080352995681E+00    3.2431091279010977E+00
N    1.0832700832499207E-02    5.6272058082532093E+00    5.1868939106744225E+00
Ga   -1.1528235732188427E-02    7.4606970192553401E+00    5.8526065799691080E+00
N   -5.7141952372566232E-03    7.4716399387397834E+00    7.8137602016561880E+00
Ga   -2.9105506533492753E-03    5.6005859297032599E+00    8.4063653361939288E+00
N   -4.9088074045907440E-03    5.6052466038961839E+00    1.0397257881224041E+01
Ga   -7.0159714975251081E-03    7.4741844774824093E+00    1.0987139587816552E+01
N   -3.9386951342606051E-03    7.4733189749767606E+00    1.2959237263566274E+01
Ga   -2.6084523446749546E-03    5.6024287150116550E+00    1.3575512516632244E+01
N   -6.2653190502859194E-04    5.6323807513195137E+00    1.5541858185784555E+01
Ga   -4.5300009142724609E-03    7.4732194444097670E+00    1.5818039494200185E+01
N   -1.7135297922256509E+00    1.0191701040552749E+01    2.4654422020968174E+00
Ga   -1.6387985725672243E+00    8.3921263510185327E+00    3.2525995396002507E+00
N   -1.6053141041861647E+00    8.3898090412523452E+00    5.1941867910810293E+00
Ga   -1.5949904259592753E+00    1.0274825033666595E+01    5.7495416871380849E+00
N   -1.6022304671684315E+00    1.0260864733626120E+01    7.7452273638372269E+00
Ga   -1.6280628540668514E+00    8.4069270520139820E+00    8.3911304005964276E+00
N   -1.6245853984099254E+00    8.4075563777807059E+00    1.0384367015258425E+01
Ga   -1.6001527582738224E+00    1.0267231507941903E+01    1.1023091636271889E+01
N   -1.5804691554564714E+00    1.0276725445977277E+01    1.3017576176847891E+01
Ga   -1.6238542601303376E+00    8.4091806757350795E+00    1.3578550152997346E+01
N   -1.5941936203367115E+00    8.3918814514392217E+00    1.5538461257917888E+01
Ga   -1.7790996311547485E+00    1.0162444015164128E+01    1.6444224471888472E+01
N    6.4385385985082602E+00    2.0168845471920056E+00    2.5116213117454604E+00
Ga    6.4053829263802884E+00    4.2213408481958155E-02    2.8415857706916730E+00
N    6.4311914387965414E+00    4.4238686213529520E-02    4.9858815697926531E+00
Ga    6.4254578466119758E+00    1.8772869733193163E+00    5.7641087375171116E+00
N    6.4297039729542176E+00    1.8892362316254094E+00    7.7584490007187181E+00
Ga    6.4252079520093890E+00    4.5294809295632565E-02    8.4034123127408904E+00
N    6.4275032644979646E+00    4.4766355762607540E-02    1.0376441634324284E+01
Ga    6.4284317274883414E+00    1.8854459621974231E+00    1.1026765635597174E+01
N    6.4296761910770650E+00    1.8662993721612773E+00    1.3020235350369738E+01
Ga    6.4258322990606818E+00    4.8351512222171093E-02    1.3826062042392865E+01
N    6.4249554327287521E+00    4.7759030554585927E-02    1.6025570139486025E+01
Ga    6.4281022758702786E+00    2.0990935367727821E+00    1.6448680927514015E+01
Ga    6.4623693776694635E+00    3.7208787482804966E+00    1.4945204811646784E+00
N    4.9390401692000534E+00    4.5957423697809388E+00    2.4574835926898495E+00
Ga    4.7003450088645389E+00    2.7696678757829827E+00    3.2589041420319558E+00
N    4.8226003843194700E+00    2.8321947122000579E+00    5.2137358721109051E+00
Ga    4.7772087907137522E+00    4.7090722189527616E+00    5.7747803517171894E+00
N    4.8223715097961977E+00    4.6880539090799100E+00    7.7779410870618664E+00
Ga    4.8278467532634233E+00    2.8320949174794725E+00    8.3961909030470174E+00
N    4.8309034309316239E+00    2.8338587866717111E+00    1.0390906149465790E+01
Ga    4.8062207290310059E+00    4.6952383308014616E+00    1.1024052659615259E+01
N    4.7906373186946922E+00    4.7054019076812184E+00    1.3018995563998056E+01
Ga    4.8319029253036012E+00    2.8370695195649054E+00    1.3577455740563879E+01
N    4.8019811658634994E+00    2.8214846611503019E+00    1.5537487328061195E+01
Ga    4.9922914146148623E+00    4.5886643713411450E+00    1.6448846478100776E+01
N    6.4263699864331425E+00    3.7579634413243719E+00    1.7588957781769583E+01
N    3.1888115720165207E+00    7.6182229278052382E+00    2.4755019142128134E+00
N    3.2210119484112929E+00    5.6235617266964599E+00    5.0911904916297930E+00
Ga    3.2160556207116988E+00    7.4169110495444350E+00    5.7887995922926727E+00
N    3.2114270858898593E+00    7.4759865681806987E+00    7.7833846690673711E+00
Ga    3.2135472045328735E+00    5.6147289329551695E+00    8.3987418812328478E+00
N    3.2133129333817720E+00    5.6168519151200549E+00    1.0378751487317087E+01
Ga    3.2133416846192691E+00    7.4550068465259702E+00    1.1026616403355060E+01
N    3.2133519420563341E+00    7.4369393114477047E+00    1.3022566065233745E+01
Ga    3.2164212726335228E+00    5.6144758513971649E+00    1.3820186486225801E+01
N    3.2151569783094089E+00    5.6144673902801623E+00    1.6026391017534486E+01
Ga    3.2135820672813153E+00    7.6483789978181509E+00    1.6428066144740782E+01
Ga    3.2289103981750418E+00    9.3662751061700096E+00    1.4776521512510972E+00
N    1.7062139520996049E+00    1.0192309682670301E+01    2.4936118871469670E+00
Ga    1.5647766565207937E+00    8.3733203559844824E+00    3.3084109401436570E+00
N    1.5923869860042710E+00    8.3962734879409293E+00    5.2259524109484383E+00
Ga    1.5772868596108676E+00    1.0278916536881296E+01    5.7747144431112662E+00
N    1.5945183874274695E+00    1.0263597295460265E+01    7.7621239951578227E+00
Ga    1.6122356653969105E+00    8.4093905398007855E+00    8.4099110459288298E+00
N    1.6122527408371394E+00    8.4094932657472334E+00    1.0399051672730515E+01
Ga    1.5884054284872395E+00    1.0269246090936409E+01    1.1030508842077749E+01
N    1.5727774074115599E+00    1.0278093748410740E+01    1.3024870174830806E+01
Ga    1.6164953006050098E+00    8.4081957464496107E+00    1.3576580970117003E+01
N    1.5906246920121569E+00    8.3905629463838611E+00    1.5542435319177383E+01
Ga    1.7506987195857631E+00    1.0174101979983401E+01    1.6427315135955560E+01
N    3.2048086373059350E+00    9.3314691589794414E+00    1.7556879778113341E+01
N    9.6650468535603657E+00    1.9123740169408188E+00    2.5767050352360710E+00
Ga    9.6569956988236445E+00    1.7954525046635050E-01    3.2627070997204770E+00
N    9.6434372816296854E+00    4.4694852323154843E-02    5.2179808516037314E+00
Ga    9.6589256667946604E+00    1.9087494591427994E+00    5.8396907087722143E+00
N    9.6476862951663023E+00    1.9026812359716812E+00    7.8117803284152094E+00
Ga    9.6475262141379972E+00    3.5695762536088173E-02    8.3988481947957254E+00
N    9.6448584765930789E+00    3.2843312612157588E-02    1.0391072449522687E+01
Ga    9.6463330314526665E+00    1.9042376749773144E+00    1.0980603642341705E+01
N    9.6466716910283132E+00    1.9026859159850846E+00    1.2954329129529420E+01
Ga    9.6463384006893023E+00    3.4098709011595181E-02    1.3576380141788635E+01
N    9.6483993245753830E+00    6.3281482037038705E-02    1.5541796937455237E+01
Ga    9.6443839042276451E+00    1.9035323698162769E+00    1.5819718712002272E+01
N    7.9342951851566283E+00    4.6229350557606148E+00    2.4990235101640663E+00
Ga    8.1598241524363964E+00    2.7693344666239033E+00    3.2726670163712290E+00
N    8.0415826800355354E+00    2.8277777911141455E+00    5.2252244946970050E+00
Ga    8.0678021693002577E+00    4.7031391021026581E+00    5.7600467097412098E+00
N    8.0480809876657933E+00    4.6945725133825151E+00    7.7548526592625580E+00
Ga    8.0281245104136545E+00    2.8367934620584014E+00    8.3951604639764117E+00
N    8.0261057415153889E+00    2.8376764236754397E+00    1.0388504438747152E+01
Ga    8.0539035465460440E+00    4.6969593954584887E+00    1.1026661012091465E+01
N    8.0698422170185520E+00    4.7061816404057764E+00    1.3019915192572203E+01
Ga    8.0266036502121825E+00    2.8377225173897460E+00    1.3578660429664394E+01
N    8.0558341048040685E+00    2.8210966668961714E+00    1.5538053244523098E+01
Ga    7.8644368781065674E+00    4.5889735039932340E+00    1.6449469392545446E+01
N    6.3513490312719858E+00    7.4308403429537053E+00    2.4562384206945280E+00
Ga    6.4151910086069863E+00    5.7063555044942458E+00    3.2706852654602541E+00
N    6.4291784899554836E+00    5.6190850266027175E+00    5.2104474910236371E+00
Ga    6.4317348354896584E+00    7.4735277174813284E+00    5.8399249728118301E+00
N    6.4277109168988318E+00    7.4722488226092647E+00    7.8081188803504951E+00
Ga    6.4316706726294095E+00    5.6029650240532627E+00    8.4038847048329828E+00
N    6.4318107216669249E+00    5.6053908050427577E+00    1.0394754741932941E+01
Ga    6.4310497596597189E+00    7.4742774114527926E+00    1.0985292556320569E+01
N    6.4293586979966815E+00    7.4742655411451091E+00    1.2956451891116522E+01
Ga    6.4296802648935802E+00    5.6030553400137997E+00    1.3578202754715907E+01
N    6.4285172833822042E+00    5.6366223723194588E+00    1.5537722317772973E+01
Ga    6.4300663409459649E+00    7.4722724318591469E+00    1.5816599539202448E+01
N    4.7202134997755341E+00    1.0197581997582095E+01    2.4920791899492256E+00
Ga    4.9003249693862321E+00    8.3449125871683503E+00    3.2802601132358244E+00
N    4.8194523345127420E+00    8.4014582538901017E+00    5.2170035173185179E+00
Ga    4.8538429694855907E+00    1.0279981675178819E+01    5.7621873258082310E+00
N    4.8314131628586257E+00    1.0264812900720246E+01    7.7559859959505753E+00
Ga    4.8128569785615900E+00    8.4116049815503846E+00    8.4050470826246215E+00
N    4.8122312531249376E+00    8.4097935834474864E+00    1.0395681455164556E+01
Ga    4.8384244085416022E+00    1.0269346748917092E+01    1.1025763767293171E+01
N    4.8536119297329892E+00    1.0277710312476238E+01    1.3020903820958758E+01
Ga    4.8107889139651601E+00    8.4084989264180336E+00    1.3575520894306671E+01
N    4.8354632377934701E+00    8.3939915173770885E+00    1.5540277421349829E+01
Ga    4.6663375115877264E+00    1.0168080487080122E+01    1.6428216134793217E+01
O    2.9416505593687012E-02    3.6645003010469441E+00   -5.7515376309364541E-01
H   -3.1619040137944115E-03    7.4830213880887433E+00    1.6160073729121052E+00
C    6.5488405669819394E-02    2.3597345496234516E+00   -1.1740215544219808E+00
H    9.1304209479422382E-01    1.7530124903560103E+00   -8.1332849780072058E-01
H   -8.6239332256681045E-01    1.7925833934631448E+00   -9.9300830298727794E-01
H    1.7804330502293245E-01    2.4994432570652241E+00   -2.2594940593989126E+00
Ga    3.2281977306562908E+00    5.6162259593636668E+00    2.2613246509160554E+00
O    3.8996718173828522E+00    6.1662778004105068E+00    2.1379002148969106E-01
H    3.7566261830480276E+00    5.5050790318331986E+00   -4.8482258214146173E-01
C    5.2968446269567320E+00    6.6952897609531794E+00    1.2096516486667966E-01
H    5.2890558580685223E+00    7.4919128081090154E+00   -6.3620950402370335E-01
H    5.7792124342778974E+00    7.0924519579141823E+00    1.2178740672997168E+00
H    5.9536992847142356E+00    5.8883914155745574E+00   -2.4819803503906029E-01
     &END COORD
     &KIND C
       BASIS_SET DZVP-MOLOPT-SR-GTH-q4
       POTENTIAL GTH-PBE-q4
       &POTENTIAL
2 2
0.3384712400000000E+00 2 -0.8803673979999999E+01  0.1339210850000000E+01
2
0.3025757500000000E+00 1  0.9622486650000001E+01
0.2915069400000000E+00 0
       &END POTENTIAL
     &END KIND
     &KIND O
       BASIS_SET DZVP-MOLOPT-SR-GTH-q6
       POTENTIAL GTH-PBE-q6
       &POTENTIAL
2 4
0.2445543000000000E+00 2 -0.1666721480000000E+02  0.2487311320000000E+01
2
0.2209559200000000E+00 1  0.1833745811000000E+02
0.2113324700000000E+00 0
       &END POTENTIAL
     &END KIND
     &KIND H
       BASIS_SET DZVP-MOLOPT-SR-GTH-q1
       POTENTIAL GTH-PBE-q1
       &POTENTIAL
1
0.2000000000000000E+00 2 -0.4178900440000000E+01  0.7244633100000000E+00
0
       &END POTENTIAL
     &END KIND
     &KIND N
       BASIS_SET DZVP-MOLOPT-SR-GTH
       POTENTIAL GTH-PBE-q5
       &POTENTIAL
2 3
0.2837905100000000E+00 2 -0.1241522559000000E+02  0.1868095920000000E+01
2
0.2554050000000000E+00 1  0.1363026257000000E+02
0.2454945300000000E+00 0
       &END POTENTIAL
     &END KIND
     &KIND Ga
       BASIS_SET DZVP-MOLOPT-SR-GTH
       POTENTIAL GTH-PBE-q13
       &POTENTIAL
2 1 10
0.4900000000000000E+00 0
3
0.4167772300000000E+00 3  0.1047568975000000E+02 -0.4921768140000000E+01  0.8707055900000000E+00
0.7770178090000000E+01 -0.2248152160000000E+01
0.1784415450000000E+01
0.5696265200000000E+00 2  0.1777985340000000E+01  0.1958597600000000E+00
-0.2317443900000000E+00
0.2381265000000000E+00 1 -0.1624868022000000E+02
       &END POTENTIAL
     &END KIND
     &TOPOLOGY
       NUMBER_OF_ATOMS  212
       MULTIPLE_UNIT_CELL  1 1 1
     &END TOPOLOGY
     &COLVAR
       &DISTANCE
         ATOMS  176 211
       &END DISTANCE
       &PRINT
       &END PRINT
     &END COLVAR
   &END SUBSYS
 &END FORCE_EVAL
