 # Version information for this restart file 
 # current date 2019-07-15 20:18:05.772
 # current working dir /lustre04/scratch/rzk/rzk/GaN-carbene/443-adatoms-both-2x2/09-BondBreaking-CH/03-0501-CH-to-Nsur-PES/Phase02
 # Program compiled at                              Sun Apr  7 00:48:11 EDT 2019
 # Program compiled on                          beluga2.int.ets1.calculquebec.ca
 # Program compiled for                        Beluga-Linux-x86-64-intel-openmpi
 # Source code revision number                                         svn:18619
 &GLOBAL
   PRINT_LEVEL  MEDIUM
   PROJECT_NAME TEST
   RUN_TYPE  GEO_OPT
 &END GLOBAL
 &MOTION
   &GEO_OPT
     MAX_ITER  500
     !STEP_START_VAL  89
   &END GEO_OPT
   &CONSTRAINT
     &COLLECTIVE
       COLVAR  1
       INTERMOLECULAR  T
       TARGET [angstrom] 1.20 !     2.4566439727513361E+00
       &RESTRAINT
         K     2.0000000000000000E+00
       &END RESTRAINT
     &END COLLECTIVE
   &END CONSTRAINT
 &END MOTION
 &FORCE_EVAL
   METHOD  QS
   STRESS_TENSOR  ANALYTICAL
   &DFT
     BASIS_SET_FILE_NAME BASIS_MOLOPT
     POTENTIAL_FILE_NAME GTH_POTENTIALS
     UKS  T
     SURFACE_DIPOLE_CORRECTION  T
     SURF_DIP_DIR  Z
     &SCF
       MAX_SCF  80
       EPS_SCF     5.0000000000000004E-06
       &OT  T
         PRECONDITIONER  FULL_ALL
       &END OT
       &OUTER_SCF  T
         OPTIMIZER  NONE
         EPS_SCF     5.0000000000000004E-06
         MAX_SCF  4
       &END OUTER_SCF
       &PRINT
         &RESTART  OFF
           BACKUP_COPIES  1
           &EACH
             JUST_ENERGY  0
             QS_SCF  0
             MD  20
           &END EACH
         &END RESTART
       &END PRINT
     &END SCF
     &QS
       EPS_DEFAULT     1.0000000000000000E-14
       METHOD  GPW
     &END QS
     &MGRID
       NGRIDS  5
       CUTOFF     1.2000000000000000E+03
     &END MGRID
     &XC
       DENSITY_CUTOFF     1.0000000000000000E-10
       GRADIENT_CUTOFF     1.0000000000000000E-10
       TAU_CUTOFF     1.0000000000000000E-10
       &XC_FUNCTIONAL  NO_SHORTCUT
         &PBE  T
         &END PBE
       &END XC_FUNCTIONAL
       &VDW_POTENTIAL
         POTENTIAL_TYPE  PAIR_POTENTIAL
         &PAIR_POTENTIAL
           R_CUTOFF     1.0000000000000009E+01
           TYPE  DFTD3
           PARAMETER_FILE_NAME dftd3.dat
           REFERENCE_FUNCTIONAL PBE
           EPS_CN     9.9999999999999995E-07
           CALCULATE_C9_TERM  T
           REFERENCE_C9_TERM  T
           LONG_RANGE_CORRECTION  F
           VERBOSE_OUTPUT  F
         &END PAIR_POTENTIAL
       &END VDW_POTENTIAL
     &END XC
   &END DFT
   &SUBSYS
     &CELL
       A     1.2864472766435110E+01    0.0000000000000000E+00    0.0000000000000000E+00
       B    -6.4322363581020028E+00    1.1140960178524477E+01    0.0000000000000000E+00
       C     0.0000000000000000E+00    0.0000000000000000E+00    3.2000000000000000E+01
       MULTIPLE_UNIT_CELL  1 1 1
       &CELL_REF
         A     1.2982353780853531E+01    0.0000000000000000E+00    0.0000000000000000E+00
         B    -6.4911768904267628E+00    1.1243048175136114E+01    0.0000000000000000E+00
         C     0.0000000000000000E+00    0.0000000000000000E+00    3.2000000000000000E+01
         MULTIPLE_UNIT_CELL  1 1 1
       &END CELL_REF
     &END CELL
     &COORD
N    8.4148491380265974E-03    2.0511859325934583E+00    2.4596589441420846E+00
Ga    2.2544114108969858E-02    9.3171486785690108E-02    2.8000694675457303E+00
N   -6.8903740163939351E-03    5.2961674048291059E-02    4.9722505990043615E+00
Ga    1.0053697993238174E-02    1.8885865952044494E+00    5.7378591407566697E+00
N    2.3463161409465649E-03    1.8931229809744343E+00    7.7460650540792759E+00
Ga    3.8150679384877963E-03    4.9302860823721775E-02    8.3917045892099793E+00
N    4.7651604780544649E-05    4.7350881324906523E-02    1.0371128223304050E+01
Ga   -9.3666182428369087E-04    1.8856889550385501E+00    1.1025013194082900E+01
N   -2.6387952424173316E-03    1.8656610609577819E+00    1.3023593552167046E+01
Ga   -1.6345668901550931E-03    4.2397114620964078E-02    1.3822710746639764E+01
N   -2.6352173391165040E-03    4.2612191114491438E-02    1.6030485450678878E+01
Ga   -1.8419506872961928E-03    2.0643180426612417E+00    1.6416778833176778E+01
Ga   -2.2533231981547854E-02    3.7096609345542824E+00    1.2441699343230663E+00
N   -1.4645052695395180E+00    4.6251222552134115E+00    2.4465712053322650E+00
Ga   -1.6609049898121737E+00    2.7956270315731961E+00    3.2231729169331391E+00
N   -1.6094254875726448E+00    2.8340957682097283E+00    5.2060106268217661E+00
Ga   -1.6246901348229770E+00    4.7018010170151321E+00    5.7496576059087712E+00
N   -1.6158448611646690E+00    4.6987378307803214E+00    7.7501098818109933E+00
Ga   -1.5933631621826962E+00    2.8390694481276211E+00    8.3886160602211124E+00
N   -1.5970292565359017E+00    2.8399494643573679E+00    1.0387187404590156E+01
Ga   -1.6266048422523369E+00    4.6978252040982822E+00    1.1028146813739408E+01
N   -1.6435374956824047E+00    4.7076619346826742E+00    1.3025958025092617E+01
Ga   -1.5991374925849502E+00    2.8376920703900370E+00    1.3575714841561799E+01
N   -1.6205725614151454E+00    2.8217416042313475E+00    1.5545682920377512E+01
Ga   -1.4775919028677935E+00    4.6090436429452142E+00    1.6414488599356812E+01
N   -1.5889541875248809E-03    3.7701243647533893E+00    1.7537596936874266E+01
N   -3.2355922008991693E+00    7.5740850814588319E+00    2.4438720573620971E+00
Ga   -3.1759478428670542E+00    5.6029339735406705E+00    2.8049828649621658E+00
N   -3.2124650958502854E+00    5.6085558874101924E+00    4.9760941196492041E+00
Ga   -3.2365038170172946E+00    7.4391306121165437E+00    5.7335190398643752E+00
N   -3.2232491172356936E+00    7.4654144157004811E+00    7.7360070463182566E+00
Ga   -3.2153929485785979E+00    5.6197752739972637E+00    8.3953601757427361E+00
N   -3.2169701289432107E+00    5.6191388705516658E+00    1.0372408217196831E+01
Ga   -3.2192912374686808E+00    7.4577473289109930E+00    1.1026045553893669E+01
N   -3.2189853369868682E+00    7.4383925483878581E+00    1.3020421288363593E+01
Ga   -3.2234361290606151E+00    5.6199155243127663E+00    1.3824766182618408E+01
N   -3.2241049320691646E+00    5.6210474062171194E+00    1.6028642954631856E+01
Ga   -3.2197407045712203E+00    7.6692265900839942E+00    1.6447182490999758E+01
Ga   -3.2427107543790359E+00    9.3654627176416625E+00    1.2260860337273909E+00
N   -4.7421107471808108E+00    1.0187747128142773E+01    2.4498505261130368E+00
Ga   -4.9304399724738808E+00    8.3411550630196682E+00    3.1543348740475277E+00
N   -4.8484055757922944E+00    8.3870957685585985E+00    5.1464991596610314E+00
Ga   -4.8560730646421755E+00    1.0264519627940951E+01    5.7221624404497735E+00
N   -4.8369914461911465E+00    1.0258307706399250E+01    7.7322844037540435E+00
Ga   -4.8167655752577661E+00    8.4104051374423445E+00    8.3907696459925116E+00
N   -4.8144653827368948E+00    8.4095653529376744E+00    1.0385120200684252E+01
Ga   -4.8397879608705301E+00    1.0268630524868529E+01    1.1023346203981452E+01
N   -4.8573244472785548E+00    1.0277015027589826E+01    1.3019460738872588E+01
Ga   -4.8149335919539578E+00    8.4094483686707004E+00    1.3580738853036214E+01
N   -4.8416923895542636E+00    8.3919252700605202E+00    1.5541837383688012E+01
Ga   -4.6614812506451431E+00    1.0160218664586477E+01    1.6447514658126799E+01
N   -3.2114904040991012E+00    9.3389545190365926E+00    1.7586663785855137E+01
N    3.2085507777497915E+00    1.8968213690751983E+00    2.5654257083334255E+00
Ga    3.1971068738755113E+00    1.3153219841340322E-01    3.2005165340998274E+00
N    3.2102562149573277E+00    4.2520143026591753E-02    5.1848742454794525E+00
Ga    3.2013438938319321E+00    1.9048565191117890E+00    5.8088638172578673E+00
N    3.2122509842095517E+00    1.9026142729309412E+00    7.7944184567637915E+00
Ga    3.2092423602676079E+00    3.5461868527283967E-02    8.3788167186308389E+00
N    3.2132033109358198E+00    3.3517314577813609E-02    1.0379695154915790E+01
Ga    3.2136269119931207E+00    1.9004954443133131E+00    1.0984319682426046E+01
N    3.2121997981143617E+00    1.9018465667828011E+00    1.2958476110349389E+01
Ga    3.2132951517907502E+00    3.2899289260730949E-02    1.3582231543754906E+01
N    3.2092256919846869E+00    6.5251876671694159E-02    1.5545707211169946E+01
Ga    3.2165564079331239E+00    1.9032916096567924E+00    1.5821383544223240E+01
N    1.5049043612633619E+00    4.6438088329488627E+00    2.3226628406011951E+00
Ga    1.6948441425581349E+00    2.8187780026345042E+00    3.1892550502448382E+00
N    1.6105060677909766E+00    2.8496928914440716E+00    5.1780840416830491E+00
Ga    1.6588571932279030E+00    4.7103778030520065E+00    5.7701089042670617E+00
N    1.6060524297772665E+00    4.6909837577105451E+00    7.7776544260809866E+00
Ga    1.5969762306030550E+00    2.8352852941080693E+00    8.3956809077312808E+00
N    1.5961354829932950E+00    2.8364262106899814E+00    1.0393672345995949E+01
Ga    1.6228666336499711E+00    4.6969217812172248E+00    1.1027499545524206E+01
N    1.6378128538147476E+00    4.7074732251514826E+00    1.3026791599694587E+01
Ga    1.5950467809789244E+00    2.8373208904543388E+00    1.3574767122557390E+01
N    1.6158734806401318E+00    2.8215078315799484E+00    1.5544528164216477E+01
Ga    1.4746202890149760E+00    4.6093066487435950E+00    1.6413056706403008E+01
N   -1.8069474683610823E-02    7.4735001913206798E+00    2.6421063640073608E+00
Ga    4.0569955882500744E-02    5.6047127202662139E+00    3.2414756867801904E+00
N    1.2807510522558794E-02    5.6280276467048784E+00    5.1861460294242647E+00
Ga   -1.1219013324409000E-02    7.4618851031647990E+00    5.8517256765436452E+00
N   -5.1258384797248707E-03    7.4727069753195305E+00    7.8139484518725117E+00
Ga   -2.1814771148359908E-03    5.6019659675040421E+00    8.4082592987287654E+00
N   -3.6743887398202725E-03    5.6067448072957182E+00    1.0400281645141822E+01
Ga   -6.1201029009477813E-03    7.4762360318783383E+00    1.0989518852614548E+01
N   -4.4188780469961147E-03    7.4732318012208179E+00    1.2961281540919686E+01
Ga   -2.4410770541215274E-03    5.6040689754038882E+00    1.3577440501214596E+01
N   -2.3621105727397859E-03    5.6298135752387743E+00    1.5549991803868224E+01
Ga   -2.6220974371888041E-03    7.4747338113783384E+00    1.5823637847694965E+01
N   -1.7118477483199013E+00    1.0193247490526744E+01    2.4646557957164394E+00
Ga   -1.6398397331036014E+00    8.3942030052046270E+00    3.2500263078234783E+00
N   -1.6053901940762647E+00    8.3911388216161633E+00    5.1928836148876805E+00
Ga   -1.5939669616452314E+00    1.0276006437160026E+01    5.7486648573231944E+00
N   -1.6012373925366581E+00    1.0262268275637176E+01    7.7453902578250897E+00
Ga   -1.6270855429958442E+00    8.4085048510864038E+00    8.3915112092420507E+00
N   -1.6235486934598400E+00    8.4092421428434037E+00    1.0385618470392293E+01
Ga   -1.5987611122412568E+00    1.0268436523893286E+01    1.1026300474819287E+01
N   -1.5796668216352581E+00    1.0277471666134693E+01    1.3022348913552207E+01
Ga   -1.6231143900220253E+00    8.4094669920048695E+00    1.3581049424572267E+01
N   -1.5965969168482577E+00    8.3872429757804561E+00    1.5542107652336538E+01
Ga   -1.7682181708921378E+00    1.0165649327084216E+01    1.6444993630244205E+01
N    6.4395555275640630E+00    2.0182926087646753E+00    2.5099665593805365E+00
Ga    6.4071851210105013E+00    4.1981984923294358E-02    2.8390027806388631E+00
N    6.4323848627158924E+00    4.5516320409642923E-02    4.9849399410018433E+00
Ga    6.4264876706617100E+00    1.8783040137381055E+00    5.7637273045059922E+00
N    6.4306518867553599E+00    1.8901853144611127E+00    7.7590540834724946E+00
Ga    6.4261308989882400E+00    4.6371715134770987E-02    8.4043965186699481E+00
N    6.4280233424363402E+00    4.5666517652090746E-02    1.0377705189989499E+01
Ga    6.4296322307443523E+00    1.8857513876676886E+00    1.1029459161042597E+01
N    6.4305113887030245E+00    1.8662585042531739E+00    1.3022149314153825E+01
Ga    6.4291919058824716E+00    4.8342670835951153E-02    1.3833282361045754E+01
N    6.4293698677620448E+00    4.8350858925599108E-02    1.6027335369240689E+01
Ga    6.4287136279320309E+00    2.0982141158030188E+00    1.6451329107919001E+01
Ga    6.4629864757695836E+00    3.7225845561575492E+00    1.4917710555243406E+00
N    4.9383336090528971E+00    4.5959273242851140E+00    2.4532935991253839E+00
Ga    4.7007470763749657E+00    2.7715541281488263E+00    3.2580602952050852E+00
N    4.8241924534280276E+00    2.8338915863850191E+00    5.2137094843617175E+00
Ga    4.7770608523079243E+00    4.7089654683408035E+00    5.7809595834920060E+00
N    4.8245463486345539E+00    4.6880810923306635E+00    7.7832905378473907E+00
Ga    4.8291046232983383E+00    2.8319667918825200E+00    8.3991682019838141E+00
N    4.8319773125816052E+00    2.8343129234266198E+00    1.0394082326384298E+01
Ga    4.8071535665603076E+00    4.6964401204321451E+00    1.1026171876418189E+01
N    4.7915145909566510E+00    4.7067705032521472E+00    1.3020685483182760E+01
Ga    4.8334367650748638E+00    2.8381411598128232E+00    1.3579060540898469E+01
N    4.8036461984142091E+00    2.8219335431156165E+00    1.5537679285623492E+01
Ga    4.9907444734584994E+00    4.5890029690422178E+00    1.6449815109225092E+01
N    6.4279496614878129E+00    3.7617295057762781E+00    1.7597550703730821E+01
N    3.1878872596134071E+00    7.6165510794409332E+00    2.4778844833275318E+00
N    3.2226490345766758E+00    5.6248787445777966E+00    5.1083535442461541E+00
Ga    3.2151829748668366E+00    7.4179226202722823E+00    5.7948077634225976E+00
N    3.2120940526268922E+00    7.4782981303358360E+00    7.7884574358303125E+00
Ga    3.2141720718184761E+00    5.6156453997173816E+00    8.4001408687583758E+00
N    3.2140866382988547E+00    5.6177369349244559E+00    1.0380776535430547E+01
Ga    3.2142896254349727E+00    7.4567025527459849E+00    1.1028046555442703E+01
N    3.2138942993423174E+00    7.4387779983916653E+00    1.3022529378586347E+01
Ga    3.2194656028752817E+00    5.6196199813371006E+00    1.3823393972097376E+01
N    3.2189915524383594E+00    5.6215569019638947E+00    1.6026111857732747E+01
Ga    3.2145245664020625E+00    7.6710836174858361E+00    1.6447609827579186E+01
Ga    3.2349654383328899E+00    9.3605145978776712E+00    1.4732733770780360E+00
N    1.7091812608524319E+00    1.0190995579441838E+01    2.4904075210674237E+00
Ga    1.5649242374471257E+00    8.3736425835047843E+00    3.3078977615659975E+00
N    1.5932372845785181E+00    8.3977654328019256E+00    5.2261345340574188E+00
Ga    1.5783434776793068E+00    1.0280324107092957E+01    5.7741235713583619E+00
N    1.5952855711706349E+00    1.0265298488223507E+01    7.7622392310443313E+00
Ga    1.6122105211749338E+00    8.4114553767293856E+00    8.4118258548311982E+00
N    1.6126497411934226E+00    8.4110089139122106E+00    1.0400615746551098E+01
Ga    1.5892420696723384E+00    1.0270475656797053E+01    1.1033004004716013E+01
N    1.5735190138134958E+00    1.0279009489372394E+01    1.3026054830422748E+01
Ga    1.6169091766925858E+00    8.4090748718035488E+00    1.3580279404174560E+01
N    1.5894634203152833E+00    8.3863935491490853E+00    1.5540598860556790E+01
Ga    1.7650640153765669E+00    1.0163921891556276E+01    1.6446882994320337E+01
N    3.2054691287067349E+00    9.3376037443934532E+00    1.7587270723370576E+01
N    9.6669150468719511E+00    1.9128809159796369E+00    2.5786388725687397E+00
Ga    9.6578742940643441E+00    1.7873367232380916E-01    3.2595234956373917E+00
N    9.6445940553482661E+00    4.5684786711131221E-02    5.2166341439030237E+00
Ga    9.6602102046115537E+00    1.9094786860629835E+00    5.8389034471755101E+00
N    9.6489663627047335E+00    1.9040578902299106E+00    7.8120377068633085E+00
Ga    9.6482650718354748E+00    3.7117258843778769E-02    8.3999296268747212E+00
N    9.6457407901329066E+00    3.4369330367627238E-02    1.0392376205255331E+01
Ga    9.6475228218795070E+00    1.9057838849496971E+00    1.0981866822486683E+01
N    9.6483874282914375E+00    1.9048433379453695E+00    1.2955847535110623E+01
Ga    9.6468143052330735E+00    3.4787891297992146E-02    1.3581359431368343E+01
N    9.6503765892160125E+00    6.6548888493938002E-02    1.5544172561976740E+01
Ga    9.6424737249165826E+00    1.9035023409628264E+00    1.5821352846386739E+01
N    7.9337396892683225E+00    4.6246002124455101E+00    2.5002570948525369E+00
Ga    8.1608772907583216E+00    2.7696435953016083E+00    3.2707705517352106E+00
N    8.0427833094654186E+00    2.8287377574191974E+00    5.2245974123132966E+00
Ga    8.0695395990655250E+00    4.7034070862706425E+00    5.7610524319567835E+00
N    8.0491495240556450E+00    4.6956803803742249E+00    7.7561483731571359E+00
Ga    8.0291526714150052E+00    2.8374070085967342E+00    8.3959872043764321E+00
N    8.0268774239019169E+00    2.8386450441862703E+00    1.0389787196073605E+01
Ga    8.0549680309700449E+00    4.6980307383665609E+00    1.1027709720646587E+01
N    8.0705921759441832E+00    4.7075741661810220E+00    1.3020367806312052E+01
Ga    8.0269419483125457E+00    2.8385381538975714E+00    1.3579374271191375E+01
N    8.0547653826112651E+00    2.8227938121229350E+00    1.5537932820594598E+01
Ga    7.8663248870023175E+00    4.5886770992430552E+00    1.6451717093690096E+01
N    6.3500029437706935E+00    7.4319476067592944E+00    2.4761414957363828E+00
Ga    6.4113065325257352E+00    5.6955516575855309E+00    3.2771614379193568E+00
N    6.4293715083486092E+00    5.6202035454564490E+00    5.2131398634171005E+00
Ga    6.4324134068905661E+00    7.4748876934709090E+00    5.8422008964338490E+00
N    6.4291003881232314E+00    7.4733761692629068E+00    7.8097621141930338E+00
Ga    6.4332440503909512E+00    5.6041168862235660E+00    8.4065842548267664E+00
N    6.4330643156922998E+00    5.6070263045376443E+00    1.0397339751644754E+01
Ga    6.4327410690505653E+00    7.4759962925462755E+00    1.0988483057784086E+01
N    6.4318120727445880E+00    7.4751127661169123E+00    1.2959531566287103E+01
Ga    6.4303565917478904E+00    5.6038037089550201E+00    1.3581061477294465E+01
N    6.4300141153022725E+00    5.6348432236852988E+00    1.5541322170063133E+01
Ga    6.4292656845472358E+00    7.4716089373729080E+00    1.5817816483155115E+01
N    4.7224826404867386E+00    1.0195975720762359E+01    2.4940442500204774E+00
Ga    4.8886455539819780E+00    8.3492337595006614E+00    3.2888215285455566E+00
N    4.8195933135830762E+00    8.4025664904803286E+00    5.2214655843827957E+00
Ga    4.8546829021834945E+00    1.0282567056865080E+01    5.7637252145992752E+00
N    4.8328528898743368E+00    1.0266525896082259E+01    7.7575222535160764E+00
Ga    4.8141169375068467E+00    8.4133836674546671E+00    8.4074042243561440E+00
N    4.8140470739353525E+00    8.4109440636511170E+00    1.0397699457400016E+01
Ga    4.8394051903551167E+00    1.0270473417574854E+01    1.1027559790184442E+01
N    4.8542818324892973E+00    1.0278806881539541E+01    1.3021488751662273E+01
Ga    4.8114200882549047E+00    8.4092898472266402E+00    1.3579088835207914E+01
N    4.8378083524070856E+00    8.3920722439464779E+00    1.5539067955555993E+01
Ga    4.6534553278348616E+00    1.0158312243891199E+01    1.6449886138858641E+01
O    2.7442444585274599E-02    3.6603795963750909E+00   -5.7417085167849535E-01
H   -3.5520774655337568E-03    7.4848776415713285E+00    1.6161854657400527E+00
C    3.3442022240104029E-02    2.3545425560960176E+00   -1.1733554225326261E+00
H    8.7431244463895175E-01    1.7341447801120402E+00   -8.2289189830041809E-01
H   -9.0111944546430134E-01    1.8035420541727916E+00   -9.8143459534999289E-01
H    1.3535009545445337E-01    2.4925250894198703E+00   -2.2591848479870187E+00
Ga    3.2314430484677876E+00    5.6198751300587588E+00    2.2229215025952684E+00
O    3.8879478432753114E+00    6.1672378219393504E+00    2.1273145196584553E-01
H    3.7613031354907949E+00    5.4912737303267791E+00   -4.7501764567712235E-01
C    5.2974033488506223E+00    6.6993802978239758E+00    1.3697260597639951E-01
H    5.2997841004333202E+00    7.4522342271826361E+00   -6.6240148002792310E-01
H    5.8348057768725905E+00    7.1458897241641584E+00    1.3124183612021916E+00
H    5.9559800582967837E+00    5.8709788278888198E+00   -1.8120846333778046E-01
     &END COORD
     &KIND C
       BASIS_SET DZVP-MOLOPT-SR-GTH-q4
       POTENTIAL GTH-PBE-q4
       &POTENTIAL
2 2
0.3384712400000000E+00 2 -0.8803673979999999E+01  0.1339210850000000E+01
2
0.3025757500000000E+00 1  0.9622486650000001E+01
0.2915069400000000E+00 0
       &END POTENTIAL
     &END KIND
     &KIND O
       BASIS_SET DZVP-MOLOPT-SR-GTH-q6
       POTENTIAL GTH-PBE-q6
       &POTENTIAL
2 4
0.2445543000000000E+00 2 -0.1666721480000000E+02  0.2487311320000000E+01
2
0.2209559200000000E+00 1  0.1833745811000000E+02
0.2113324700000000E+00 0
       &END POTENTIAL
     &END KIND
     &KIND H
       BASIS_SET DZVP-MOLOPT-SR-GTH-q1
       POTENTIAL GTH-PBE-q1
       &POTENTIAL
1
0.2000000000000000E+00 2 -0.4178900440000000E+01  0.7244633100000000E+00
0
       &END POTENTIAL
     &END KIND
     &KIND N
       BASIS_SET DZVP-MOLOPT-SR-GTH
       POTENTIAL GTH-PBE-q5
       &POTENTIAL
2 3
0.2837905100000000E+00 2 -0.1241522559000000E+02  0.1868095920000000E+01
2
0.2554050000000000E+00 1  0.1363026257000000E+02
0.2454945300000000E+00 0
       &END POTENTIAL
     &END KIND
     &KIND Ga
       BASIS_SET DZVP-MOLOPT-SR-GTH
       POTENTIAL GTH-PBE-q13
       &POTENTIAL
2 1 10
0.4900000000000000E+00 0
3
0.4167772300000000E+00 3  0.1047568975000000E+02 -0.4921768140000000E+01  0.8707055900000000E+00
0.7770178090000000E+01 -0.2248152160000000E+01
0.1784415450000000E+01
0.5696265200000000E+00 2  0.1777985340000000E+01  0.1958597600000000E+00
-0.2317443900000000E+00
0.2381265000000000E+00 1 -0.1624868022000000E+02
       &END POTENTIAL
     &END KIND
     &TOPOLOGY
       NUMBER_OF_ATOMS  212
       MULTIPLE_UNIT_CELL  1 1 1
     &END TOPOLOGY
     &COLVAR
       &DISTANCE
         ATOMS  176 211
       &END DISTANCE
       &PRINT
       &END PRINT
     &END COLVAR
   &END SUBSYS
 &END FORCE_EVAL
