 # Version information for this restart file 
 # current date 2019-07-17 08:21:06.471
 # current working dir /lustre04/scratch/rzk/rzk/GaN-carbene/443-adatoms-both-2x2/09-BondBreaking-CH/03-0501-CH-to-Nsur-PES/Phase02
 # Program compiled at                              Sun Apr  7 00:48:11 EDT 2019
 # Program compiled on                          beluga2.int.ets1.calculquebec.ca
 # Program compiled for                        Beluga-Linux-x86-64-intel-openmpi
 # Source code revision number                                         svn:18619
 &GLOBAL
   PRINT_LEVEL  MEDIUM
   PROJECT_NAME TEST
   RUN_TYPE  GEO_OPT
 &END GLOBAL
 &MOTION
   &GEO_OPT
     MAX_ITER  500
     !STEP_START_VAL  112
   &END GEO_OPT
   &CONSTRAINT
     &COLLECTIVE
       COLVAR  1
       INTERMOLECULAR  T
       TARGET [angstrom] 0.90 !     1.8897261328856430E+00
       &RESTRAINT
         K     2.0000000000000000E+00
       &END RESTRAINT
     &END COLLECTIVE
   &END CONSTRAINT
 &END MOTION
 &FORCE_EVAL
   METHOD  QS
   STRESS_TENSOR  ANALYTICAL
   &DFT
     BASIS_SET_FILE_NAME BASIS_MOLOPT
     POTENTIAL_FILE_NAME GTH_POTENTIALS
     UKS  T
     SURFACE_DIPOLE_CORRECTION  T
     SURF_DIP_DIR  Z
     &SCF
       MAX_SCF  80
       EPS_SCF     5.0000000000000004E-06
       &OT  T
         PRECONDITIONER  FULL_ALL
       &END OT
       &OUTER_SCF  T
         OPTIMIZER  NONE
         EPS_SCF     5.0000000000000004E-06
         MAX_SCF  4
       &END OUTER_SCF
       &PRINT
         &RESTART  OFF
           BACKUP_COPIES  1
           &EACH
             JUST_ENERGY  0
             QS_SCF  0
             MD  20
           &END EACH
         &END RESTART
       &END PRINT
     &END SCF
     &QS
       EPS_DEFAULT     1.0000000000000000E-14
       METHOD  GPW
     &END QS
     &MGRID
       NGRIDS  5
       CUTOFF     1.2000000000000000E+03
     &END MGRID
     &XC
       DENSITY_CUTOFF     1.0000000000000000E-10
       GRADIENT_CUTOFF     1.0000000000000000E-10
       TAU_CUTOFF     1.0000000000000000E-10
       &XC_FUNCTIONAL  NO_SHORTCUT
         &PBE  T
         &END PBE
       &END XC_FUNCTIONAL
       &VDW_POTENTIAL
         POTENTIAL_TYPE  PAIR_POTENTIAL
         &PAIR_POTENTIAL
           R_CUTOFF     1.0000000000000009E+01
           TYPE  DFTD3
           PARAMETER_FILE_NAME dftd3.dat
           REFERENCE_FUNCTIONAL PBE
           EPS_CN     9.9999999999999995E-07
           CALCULATE_C9_TERM  T
           REFERENCE_C9_TERM  T
           LONG_RANGE_CORRECTION  F
           VERBOSE_OUTPUT  F
         &END PAIR_POTENTIAL
       &END VDW_POTENTIAL
     &END XC
   &END DFT
   &SUBSYS
     &CELL
       A     1.2864472766435110E+01    0.0000000000000000E+00    0.0000000000000000E+00
       B    -6.4322363581020028E+00    1.1140960178524477E+01    0.0000000000000000E+00
       C     0.0000000000000000E+00    0.0000000000000000E+00    3.2000000000000000E+01
       MULTIPLE_UNIT_CELL  1 1 1
       &CELL_REF
         A     1.2982353780853531E+01    0.0000000000000000E+00    0.0000000000000000E+00
         B    -6.4911768904267628E+00    1.1243048175136114E+01    0.0000000000000000E+00
         C     0.0000000000000000E+00    0.0000000000000000E+00    3.2000000000000000E+01
         MULTIPLE_UNIT_CELL  1 1 1
       &END CELL_REF
     &END CELL
     &COORD
N   -2.8802744361088484E-02    2.1024896146799996E+00    2.4663046604356818E+00
Ga   -4.3877060161775665E-02    1.4992783259801257E-01    2.8112561623382728E+00
N   -2.1084914061317319E-02    1.0454089971914263E-01    4.9852112915878086E+00
Ga   -2.7615897320580982E-02    1.9378137536957971E+00    5.7470848533269958E+00
N   -3.0722436416633244E-02    1.9518861349259673E+00    7.7515416427356492E+00
Ga   -2.8481977609956782E-02    1.0855708277134665E-01    8.4024995173553680E+00
N   -2.7231236006709021E-02    1.0604212727421158E-01    1.0377055329271917E+01
Ga   -2.4774311047061785E-02    1.9459941711007629E+00    1.1027874972044739E+01
N   -2.5756976868164826E-02    1.9271442164155799E+00    1.3020857280478532E+01
Ga   -1.9171254255777495E-02    1.0942562974017048E-01    1.3819699669747243E+01
N   -1.8786533798609471E-02    1.1101678950915916E-01    1.6026774897647126E+01
Ga   -2.4338525594005924E-02    2.1611660070384930E+00    1.6446099226647267E+01
Ga    4.1242712003902941E-02    3.8294281544468318E+00    1.3083452586914504E+00
N   -1.4912597733130430E+00    4.6873041035389686E+00    2.4932035105930437E+00
Ga   -1.6965314907616520E+00    2.8566732050203698E+00    3.2079054811428356E+00
N   -1.6521069691152150E+00    2.8823803776951871E+00    5.1845495280266425E+00
Ga   -1.6548846134758872E+00    4.7412476476718384E+00    5.7969829497896965E+00
N   -1.6422029247675427E+00    4.7470368217785515E+00    7.7791299229706370E+00
Ga   -1.6269181578144025E+00    2.8880770529503650E+00    8.4059206056492233E+00
N   -1.6247526184666330E+00    2.8954968673754560E+00    1.0396285664622086E+01
Ga   -1.6542988490620580E+00    4.7547203301314385E+00    1.1035055312432952E+01
N   -1.6686330273524117E+00    4.7666479353309894E+00    1.3027836882506557E+01
Ga   -1.6236516401548766E+00    2.8968172460159782E+00    1.3580506275431539E+01
N   -1.6497794830709243E+00    2.8758140072335685E+00    1.5541459028092950E+01
Ga   -1.4752431382803353E+00    4.6564229875395817E+00    1.6446150600656022E+01
N   -3.5425057951094290E-02    3.8233170952364568E+00    1.7585556100538223E+01
N   -3.2249670293918840E+00    7.6672583611457048E+00    2.5247914597759400E+00
Ga   -3.1175231385193114E+00    5.6811265402683766E+00    2.9876910045313925E+00
N   -3.2119797473457417E+00    5.6958391434167259E+00    5.0484564005533548E+00
Ga   -3.2418713171309808E+00    7.5054706863505691E+00    5.8114769719046091E+00
N   -3.2427068107066011E+00    7.5270858929414821E+00    7.7840301061443560E+00
Ga   -3.2534052266478986E+00    5.6679472828767725E+00    8.4031630496578131E+00
N   -3.2460906750600218E+00    5.6744810393716945E+00    1.0376995910969477E+01
Ga   -3.2485623358302016E+00    7.5125139424722915E+00    1.1034657717439638E+01
N   -3.2447692751830499E+00    7.4955228508293068E+00    1.3027102926455779E+01
Ga   -3.2465326388075435E+00    5.6752066637398251E+00    1.3839103760859830E+01
N   -3.2447408699896410E+00    5.6763928514099247E+00    1.6029586031235766E+01
Ga   -3.2429183840299700E+00    7.7221987222223003E+00    1.6450531158680633E+01
Ga   -3.2268129564829411E+00    9.4187685256411147E+00    1.4984132572482922E+00
N   -4.7447748305498250E+00    1.0249122422386961E+01    2.4928501009189716E+00
Ga   -4.8988557076027917E+00    8.4341870798453904E+00    3.3042123018847716E+00
N   -4.8585638154579573E+00    8.4511141465179538E+00    5.2258388808648943E+00
Ga   -4.8808767670751720E+00    1.0342359360788096E+01    5.7721593938255147E+00
N   -4.8616690095904049E+00    1.0321129508897309E+01    7.7617170463911975E+00
Ga   -4.8537336694664814E+00    8.4640098384173292E+00    8.3987640528654754E+00
N   -4.8446471884002209E+00    8.4662043221692596E+00    1.0389703634956820E+01
Ga   -4.8659180124969872E+00    1.0327031606923214E+01    1.1026565692213962E+01
N   -4.8812235381057238E+00    1.0336133087539720E+01    1.3019512803058683E+01
Ga   -4.8407617253878570E+00    8.4686408744014763E+00    1.3582480854712061E+01
N   -4.8727818138141883E+00    8.4568890709673123E+00    1.5542204422374910E+01
Ga   -4.6757005786897050E+00    1.0220783782950804E+01    1.6450374232254386E+01
N   -3.2440624187838285E+00    9.3829772321064997E+00    1.7592154750150087E+01
N    3.1814694228588074E+00    1.9619260463075412E+00    2.5610238748427858E+00
Ga    3.1983987233784892E+00    2.4701145474060840E-01    3.2615229785920543E+00
N    3.1922279860986564E+00    9.7316866503764921E-02    5.2197158882085146E+00
Ga    3.2169415468595535E+00    1.9876295376423812E+00    5.7901755573944680E+00
N    3.1957315232560464E+00    1.9643040285317179E+00    7.7842740363711034E+00
Ga    3.1857963968082719E+00    1.0546618030454344E-01    8.3981162957008362E+00
N    3.1868924490954789E+00    9.5482938115758406E-02    1.0390429120725573E+01
Ga    3.1920972494260331E+00    1.9658724682956821E+00    1.0979739175914808E+01
N    3.1904492997587464E+00    1.9641557020780749E+00    1.2951135549776556E+01
Ga    3.1890656391786827E+00    9.6597552398573067E-02    1.3579267783495686E+01
N    3.1886085428466715E+00    1.2663572594025935E-01    1.5538097854686351E+01
Ga    3.1911582753107384E+00    1.9642290679104442E+00    1.5817538075854156E+01
N    1.4441466129820226E+00    4.6913508693478132E+00    2.4978673492372740E+00
Ga    1.6716324666557751E+00    2.8480079868400789E+00    3.2325277063178564E+00
N    1.5822021181433263E+00    2.8925291430450111E+00    5.2133934297735971E+00
Ga    1.6116712569503031E+00    4.7488221573202507E+00    5.7946451768972782E+00
N    1.5898111282765255E+00    4.7520653894921825E+00    7.7794716642119504E+00
Ga    1.5772226758543977E+00    2.8872196494581610E+00    8.3879251240685182E+00
N    1.5709492321508403E+00    2.8939992645889823E+00    1.0384743323720540E+01
Ga    1.6010867920246459E+00    4.7521341848265246E+00    1.1024852658317558E+01
N    1.6144208428550417E+00    4.7650711938849373E+00    1.3019314065147197E+01
Ga    1.5729520616227384E+00    2.8968733240490820E+00    1.3578633399921914E+01
N    1.5981982509510864E+00    2.8822000804116943E+00    1.5538080479462927E+01
Ga    1.4115854434865158E+00    4.6477019927603580E+00    1.6447179073787815E+01
N   -2.1012836642906763E-02    7.5174933237498696E+00    2.6958027131212794E+00
Ga   -2.2157206820625525E-02    5.6554189172470650E+00    3.3291090966697481E+00
N   -2.6516332217225647E-02    5.6889801782922014E+00    5.2615272050747022E+00
Ga   -1.6340498706957283E-02    7.5287473713626119E+00    5.8979992635894964E+00
N   -2.6631242576451355E-02    7.5336618075278796E+00    7.8515170471660465E+00
Ga   -2.5362612569204298E-02    5.6580791387747507E+00    8.4225321357965104E+00
N   -2.7811010793761699E-02    5.6625758767132881E+00    1.0408240742560585E+01
Ga   -2.6722298177895083E-02    7.5315077040577965E+00    1.1000755330555574E+01
N   -2.4615169574945459E-02    7.5343377085222896E+00    1.2969599274129301E+01
Ga   -2.5280232744811171E-02    5.6604973695996756E+00    1.3581902794924540E+01
N   -2.0209797544696758E-02    5.6972593013523998E+00    1.5542151790560956E+01
Ga   -2.7883080991881883E-02    7.5330284551093607E+00    1.5818124565269185E+01
N   -1.7288238771709585E+00    1.0239847826476527E+01    2.5177074313707539E+00
Ga   -1.5887039756736798E+00    8.4537572057779702E+00    3.3406169708401769E+00
N   -1.6205936134015091E+00    8.4544827245339018E+00    5.2585552848733723E+00
Ga   -1.6099177959494162E+00    1.0341986113385740E+01    5.8087510139381768E+00
N   -1.6299400690160120E+00    1.0319762735318534E+01    7.7888381744856572E+00
Ga   -1.6469862601870819E+00    8.4700363083608483E+00    8.4319125495929335E+00
N   -1.6471179070221555E+00    8.4672706519200283E+00    1.0413847202969277E+01
Ga   -1.6211558029164874E+00    1.0333349160785595E+01    1.1030580591137479E+01
N   -1.6042926012830390E+00    1.0338676602651942E+01    1.3022790466560599E+01
Ga   -1.6483707418130795E+00    8.4704574721491728E+00    1.3582890541123522E+01
N   -1.6136076276810254E+00    8.4565157377091147E+00    1.5542434833830692E+01
Ga   -1.8093877141635402E+00    1.0221267157838520E+01    1.6450180894766490E+01
N    6.4467614273350362E+00    1.9640488300843577E+00    2.4930529143232909E+00
Ga    6.4272627118555121E+00    1.1747516751835256E-01    2.9134607123920748E+00
N    6.4017829641518755E+00    7.4872814774257598E-02    5.0539552776787655E+00
Ga    6.3951240459451579E+00    1.9503403526214647E+00    5.7073711385780852E+00
N    6.4060694681742127E+00    1.9557237003189949E+00    7.7298783522794849E+00
Ga    6.4067382221953899E+00    1.1978460733573740E-01    8.4024836858942198E+00
N    6.4057813961450947E+00    1.0987571270573775E-01    1.0378878569240744E+01
Ga    6.4038284241666794E+00    1.9527401344317064E+00    1.1020257602112848E+01
N    6.4049754843149627E+00    1.9296876874483186E+00    1.3015207165696383E+01
Ga    6.3976460467353364E+00    1.1453195790367550E-01    1.3822652354596997E+01
N    6.3970401973001385E+00    1.1359093513402549E-01    1.6027454734039782E+01
Ga    6.4039918976504389E+00    2.1739895972519760E+00    1.6462241433044866E+01
Ga    8.9483165765840305E+00    1.6390004900323081E+00    5.9089544217710921E-01
N    4.7125710482800152E+00    4.7312755469070238E+00    2.4969586977052991E+00
Ga    4.8033987886676002E+00    2.8107461074372702E+00    3.0300602733285067E+00
N    4.8041196338596439E+00    2.8950826237056364E+00    5.1081898417965652E+00
Ga    4.8018208885375113E+00    4.7534823007680140E+00    5.6744649135616685E+00
N    4.7971111828801929E+00    4.7564060698639388E+00    7.7071892450723096E+00
Ga    4.8113282197986171E+00    2.9029324379713044E+00    8.3683166204228847E+00
N    4.8079154446903294E+00    2.8998889468482494E+00    1.0372222484056078E+01
Ga    4.7854023268763388E+00    4.7530599511407807E+00    1.1022622865785040E+01
N    4.7680598048433218E+00    4.7650599114785512E+00    1.3016196739563993E+01
Ga    4.8085680452607216E+00    2.8977608816956844E+00    1.3580609284682618E+01
N    4.7803173719968814E+00    2.8821489148114279E+00    1.5537520204285526E+01
Ga    4.9792037515945298E+00    4.6418753196956981E+00    1.6462153823133818E+01
N    6.4098163165247470E+00    3.8227954949764120E+00    1.7612475043549850E+01
N    3.1658178066227651E+00    7.6607314071429071E+00    2.4907963520804519E+00
N    3.1649632620244694E+00    5.6894101755700301E+00    5.0257892696471762E+00
Ga    3.1900782867375113E+00    7.5018405959520571E+00    5.7869888556322575E+00
N    3.1891642681492107E+00    7.5262564588219858E+00    7.7712549308275447E+00
Ga    3.2049093084775535E+00    5.6683455889897933E+00    8.3925705126625658E+00
N    3.1941093516435006E+00    5.6746558695659113E+00    1.0371381063066647E+01
Ga    3.1946784936010610E+00    7.5113143045616386E+00    1.1028412114357934E+01
N    3.1914028196774509E+00    7.4944581943151931E+00    1.3026765823772863E+01
Ga    3.1925842492455674E+00    5.6663313164180158E+00    1.3821258680983965E+01
N    3.1910062676230284E+00    5.6665989112229429E+00    1.6027580872261144E+01
Ga    3.1904228986435266E+00    7.6758440483479919E+00    1.6402617479779842E+01
Ga    3.1609004726797236E+00    9.4264301429869839E+00    1.2171492631451504E+00
N    1.6747735341328107E+00    1.0254567803113982E+01    2.5109618146716821E+00
Ga    1.5813307167848798E+00    8.4706008789793046E+00    3.2927195141235144E+00
N    1.5690493087273718E+00    8.4553525708560127E+00    5.2359552628339623E+00
Ga    1.5549413882658685E+00    1.0335251209974659E+01    5.7974752164297483E+00
N    1.5770195177615787E+00    1.0320051502896066E+01    7.7824907932757244E+00
Ga    1.5969424602799593E+00    8.4687532430201315E+00    8.4253811914118444E+00
N    1.5936347504100818E+00    8.4676225309663931E+00    1.0411396138972449E+01
Ga    1.5651552851438286E+00    1.0332241516869823E+01    1.1031583487745966E+01
N    1.5482293149725019E+00    1.0339254709383322E+01    1.3029217910866809E+01
Ga    1.5948891272726935E+00    8.4691233897099671E+00    1.3576046583581945E+01
N    1.5737998704163496E+00    8.4570800130858608E+00    1.5549976454007837E+01
Ga    1.7036232764599479E+00    1.0249617475571068E+01    1.6401558503022862E+01
N    3.1857762352460659E+00    9.3900617375998667E+00    1.7525610985707779E+01
N    9.5934891217864013E+00    1.9386073751649044E+00    2.5242817401485795E+00
Ga    9.6197386623206498E+00    1.5068651714485254E-01    3.2693808017878965E+00
N    9.6205912481433753E+00    1.1265066313045530E-01    5.2198919932451648E+00
Ga    9.6081419748631429E+00    1.9770036684532155E+00    5.8276741374453049E+00
N    9.6186201735096954E+00    1.9647433707527575E+00    7.8045963833841654E+00
Ga    9.6250021935664947E+00    9.9116148293023135E-02    8.4018533050679700E+00
N    9.6233607860789618E+00    9.3937999694502380E-02    1.0395141467634128E+01
Ga    9.6170540822209496E+00    1.9652122445733675E+00    1.0983638191082703E+01
N    9.6203051345709518E+00    1.9617002002860362E+00    1.2956800433433383E+01
Ga    9.6222641584421531E+00    9.5166932992904241E-02    1.3574174385052624E+01
N    9.6238684955820979E+00    1.1704332819174794E-01    1.5548001076135510E+01
Ga    9.6204511250057188E+00    1.9661150594839629E+00    1.5820073725450605E+01
N    8.1366166142611149E+00    4.7186260755740541E+00    2.4981799714405595E+00
Ga    7.9837587664384806E+00    2.8581470750073370E+00    3.1792164649785004E+00
N    8.0251212049724092E+00    2.8999266390130778E+00    5.1636115875250672E+00
Ga    8.0081091192016256E+00    4.7728209546339375E+00    5.7060924193937650E+00
N    8.0159432695916504E+00    4.7598271005963388E+00    7.7213331315772438E+00
Ga    7.9962718671703348E+00    2.9026232848877558E+00    8.3760146007700200E+00
N    8.0020342762882848E+00    2.9007045967120666E+00    1.0377470692045893E+01
Ga    8.0253749919112458E+00    4.7550373037223492E+00    1.1027690602429264E+01
N    8.0443398958924597E+00    4.7665189533699204E+00    1.3021166139476637E+01
Ga    8.0003128440805114E+00    2.8986546236320048E+00    1.3582302364792415E+01
N    8.0303836834619791E+00    2.8774412632048327E+00    1.5539809015255690E+01
Ga    7.8394198880604353E+00    4.6482366000580484E+00    1.6462286566456473E+01
N    6.3841573484924679E+00    7.5911168668488198E+00    2.6077742077788049E+00
Ga    6.4059773171622751E+00    5.6478626478713840E+00    2.9036835004463892E+00
N    6.4101404107252353E+00    5.6791515900568799E+00    5.0226199366810151E+00
Ga    6.3926691107548130E+00    7.4775486421179913E+00    5.7966296140556981E+00
N    6.4038154019218494E+00    7.5214935521172759E+00    7.7788209384580886E+00
Ga    6.4018278349362765E+00    5.6578490047828485E+00    8.3836094733703188E+00
N    6.4053475454849096E+00    5.6632681563800675E+00    1.0380119964236817E+01
Ga    6.4043851818787418E+00    7.5289151597882249E+00    1.0985510189360170E+01
N    6.4035052021387262E+00    7.5337736124319594E+00    1.2956940556692121E+01
Ga    6.4051721684243743E+00    5.6624219831318996E+00    1.3582716954448276E+01
N    6.4011264122465361E+00    5.6988019153033518E+00    1.5539866552163826E+01
Ga    6.4075092975090380E+00    7.5313263865185043E+00    1.5821546604763574E+01
N    4.6963985469803076E+00    1.0278968868528924E+01    2.4864140479144647E+00
Ga    4.7847031055089184E+00    8.4702515582881936E+00    3.2542346432603906E+00
N    4.8017316508271470E+00    8.4557056612603105E+00    5.2019998126840452E+00
Ga    4.8315543128323375E+00    1.0335928126646428E+01    5.7626966770823822E+00
N    4.8072593060758537E+00    1.0321423950927354E+01    7.7564842582833702E+00
Ga    4.7951503954584593E+00    8.4638019686935468E+00    8.3926835484120623E+00
N    4.7896330552019313E+00    8.4673687772689803E+00    1.0387586451100209E+01
Ga    4.8140900459286184E+00    1.0326693256674186E+01    1.1027295440577484E+01
N    4.8303868551406959E+00    1.0336902798634727E+01    1.3025335757234652E+01
Ga    4.7879636932143281E+00    8.4675598341165141E+00    1.3575370815615312E+01
N    4.8073999208070841E+00    8.4581416962965772E+00    1.5548514500786300E+01
Ga    4.6716105284720797E+00    1.0246234235045128E+01    1.6402180425837045E+01
O    1.5376239940843792E-02    3.8686461165639221E+00   -5.0453462993183218E-01
H   -3.3110378500160138E-02    7.5040903725677941E+00    1.6689878885751799E+00
C   -7.0456294372428729E-01    2.8211150747849074E+00   -1.1628504596018840E+00
H   -3.9095392113599015E-01    1.8176985496388258E+00   -8.2986278209777908E-01
H   -1.7983787910887077E+00    2.9063595800846280E+00   -1.0179620717503799E+00
H   -5.0372910484555555E-01    2.9053033558483814E+00   -2.2412138625882565E+00
Ga    3.0871077964871385E+00    5.7067449483880734E+00    2.9383036425073463E+00
O    6.7759940520462028E+00    5.4905578672421127E+00    7.7977232224719040E-01
H    4.8176489249365408E+00    4.7079381942411738E+00    1.4706842320926681E+00
C    7.9286962079530374E+00    4.8129700743516493E+00    9.9760931947856712E-01
H    8.8244888386599083E+00    5.2831845980836656E+00    5.2812753396386114E-01
H    6.4227456938812724E+00    7.6286441658202246E+00    1.6062003257906938E+00
H    7.9023730143488651E+00    3.7528343465839118E+00    5.7344680791500946E-01
     &END COORD
     &KIND C
       BASIS_SET DZVP-MOLOPT-SR-GTH-q4
       POTENTIAL GTH-PBE-q4
       &POTENTIAL
2 2
0.3384712400000000E+00 2 -0.8803673979999999E+01  0.1339210850000000E+01
2
0.3025757500000000E+00 1  0.9622486650000001E+01
0.2915069400000000E+00 0
       &END POTENTIAL
     &END KIND
     &KIND O
       BASIS_SET DZVP-MOLOPT-SR-GTH-q6
       POTENTIAL GTH-PBE-q6
       &POTENTIAL
2 4
0.2445543000000000E+00 2 -0.1666721480000000E+02  0.2487311320000000E+01
2
0.2209559200000000E+00 1  0.1833745811000000E+02
0.2113324700000000E+00 0
       &END POTENTIAL
     &END KIND
     &KIND H
       BASIS_SET DZVP-MOLOPT-SR-GTH-q1
       POTENTIAL GTH-PBE-q1
       &POTENTIAL
1
0.2000000000000000E+00 2 -0.4178900440000000E+01  0.7244633100000000E+00
0
       &END POTENTIAL
     &END KIND
     &KIND N
       BASIS_SET DZVP-MOLOPT-SR-GTH
       POTENTIAL GTH-PBE-q5
       &POTENTIAL
2 3
0.2837905100000000E+00 2 -0.1241522559000000E+02  0.1868095920000000E+01
2
0.2554050000000000E+00 1  0.1363026257000000E+02
0.2454945300000000E+00 0
       &END POTENTIAL
     &END KIND
     &KIND Ga
       BASIS_SET DZVP-MOLOPT-SR-GTH
       POTENTIAL GTH-PBE-q13
       &POTENTIAL
2 1 10
0.4900000000000000E+00 0
3
0.4167772300000000E+00 3  0.1047568975000000E+02 -0.4921768140000000E+01  0.8707055900000000E+00
0.7770178090000000E+01 -0.2248152160000000E+01
0.1784415450000000E+01
0.5696265200000000E+00 2  0.1777985340000000E+01  0.1958597600000000E+00
-0.2317443900000000E+00
0.2381265000000000E+00 1 -0.1624868022000000E+02
       &END POTENTIAL
     &END KIND
     &TOPOLOGY
       NUMBER_OF_ATOMS  212
       MULTIPLE_UNIT_CELL  1 1 1
     &END TOPOLOGY
     &COLVAR
       &DISTANCE
         ATOMS  176 211
       &END DISTANCE
       &PRINT
       &END PRINT
     &END COLVAR
   &END SUBSYS
 &END FORCE_EVAL
