 # Version information for this restart file 
 # current date 2019-07-14 18:31:08.793
 # current working dir /lustre04/scratch/rzk/rzk/GaN-carbene/443-adatoms-both-2x2/09-BondBreaking-CH/03-0501-CH-to-Nsur-PES/Phase02
 # Program compiled at                              Sun Apr  7 00:48:11 EDT 2019
 # Program compiled on                          beluga2.int.ets1.calculquebec.ca
 # Program compiled for                        Beluga-Linux-x86-64-intel-openmpi
 # Source code revision number                                         svn:18619
 &GLOBAL
   PRINT_LEVEL  MEDIUM
   PROJECT_NAME TEST
   RUN_TYPE  GEO_OPT
 &END GLOBAL
 &MOTION
   &GEO_OPT
     MAX_ITER  500
     !STEP_START_VAL  33
   &END GEO_OPT
   &CONSTRAINT
     &COLLECTIVE
       COLVAR  1
       INTERMOLECULAR  T
       TARGET [angstrom] 1.50 !     3.0235618126170287E+00
       &RESTRAINT
         K     2.0000000000000000E+00
       &END RESTRAINT
     &END COLLECTIVE
   &END CONSTRAINT
 &END MOTION
 &FORCE_EVAL
   METHOD  QS
   STRESS_TENSOR  ANALYTICAL
   &DFT
     BASIS_SET_FILE_NAME BASIS_MOLOPT
     POTENTIAL_FILE_NAME GTH_POTENTIALS
     UKS  T
     SURFACE_DIPOLE_CORRECTION  T
     SURF_DIP_DIR  Z
     &SCF
       MAX_SCF  80
       EPS_SCF     5.0000000000000004E-06
       &OT  T
         PRECONDITIONER  FULL_ALL
       &END OT
       &OUTER_SCF  T
         OPTIMIZER  NONE
         EPS_SCF     5.0000000000000004E-06
         MAX_SCF  4
       &END OUTER_SCF
       &PRINT
         &RESTART  OFF
           BACKUP_COPIES  1
           &EACH
             JUST_ENERGY  0
             QS_SCF  0
             MD  20
           &END EACH
         &END RESTART
       &END PRINT
     &END SCF
     &QS
       EPS_DEFAULT     1.0000000000000000E-14
       METHOD  GPW
     &END QS
     &MGRID
       NGRIDS  5
       CUTOFF     1.2000000000000000E+03
     &END MGRID
     &XC
       DENSITY_CUTOFF     1.0000000000000000E-10
       GRADIENT_CUTOFF     1.0000000000000000E-10
       TAU_CUTOFF     1.0000000000000000E-10
       &XC_FUNCTIONAL  NO_SHORTCUT
         &PBE  T
         &END PBE
       &END XC_FUNCTIONAL
       &VDW_POTENTIAL
         POTENTIAL_TYPE  PAIR_POTENTIAL
         &PAIR_POTENTIAL
           R_CUTOFF     1.0000000000000005E+01
           TYPE  DFTD3
           PARAMETER_FILE_NAME dftd3.dat
           REFERENCE_FUNCTIONAL PBE
           EPS_CN     9.9999999999999995E-07
           CALCULATE_C9_TERM  T
           REFERENCE_C9_TERM  T
           LONG_RANGE_CORRECTION  F
           VERBOSE_OUTPUT  F
         &END PAIR_POTENTIAL
       &END VDW_POTENTIAL
     &END XC
   &END DFT
   &SUBSYS
     &CELL
       A     1.2864472766435110E+01    0.0000000000000000E+00    0.0000000000000000E+00
       B    -6.4322363581020028E+00    1.1140960178524475E+01    0.0000000000000000E+00
       C     0.0000000000000000E+00    0.0000000000000000E+00    3.2000000000000000E+01
       MULTIPLE_UNIT_CELL  1 1 1
       &CELL_REF
         A     1.2982353780853531E+01    0.0000000000000000E+00    0.0000000000000000E+00
         B    -6.4911768904267628E+00    1.1243048175136114E+01    0.0000000000000000E+00
         C     0.0000000000000000E+00    0.0000000000000000E+00    3.2000000000000000E+01
         MULTIPLE_UNIT_CELL  1 1 1
       &END CELL_REF
     &END CELL
     &COORD
N    4.0122082705042845E-03    2.0481201500448702E+00    2.4540316890742759E+00
Ga   -5.2101785844530461E-03    9.6451476823663826E-02    2.8026263009001950E+00
N   -6.9366192061374489E-03    4.9342290205373986E-02    4.9646965780749088E+00
Ga    3.5933472936699289E-03    1.8857854471037434E+00    5.7407355735665586E+00
N   -2.0809590810612908E-03    1.8905140248263195E+00    7.7413151196877239E+00
Ga   -2.2466747402243993E-03    4.7139092761437448E-02    8.3942157193176978E+00
N   -3.8614863169693803E-03    4.4747140370203373E-02    1.0366637329260959E+01
Ga   -4.2785587011940594E-03    1.8837741543684208E+00    1.1026321002987849E+01
N   -4.4215643666704807E-03    1.8641185062800925E+00    1.3016268691005806E+01
Ga   -4.1418599470492475E-03    4.5160239953278163E-02    1.3831419136148405E+01
N   -4.6175489013722546E-03    4.4332319072760147E-02    1.6019984221556978E+01
Ga   -4.4227054982785615E-03    2.0922029360326833E+00    1.6438900318951184E+01
Ga   -1.7733747284533263E-02    3.7116379347575896E+00    1.2479896554895826E+00
N   -1.4707053348594659E+00    4.6248127402350088E+00    2.4383513627076061E+00
Ga   -1.6691196909475190E+00    2.7914484947998872E+00    3.2179406916347615E+00
N   -1.6129743768970255E+00    2.8324040736898093E+00    5.1978717600451585E+00
Ga   -1.6303290313410901E+00    4.6976227863159012E+00    5.7521915133037380E+00
N   -1.6200626711684962E+00    4.6959124333580204E+00    7.7453495301404782E+00
Ga   -1.5984607020134127E+00    2.8358071292505724E+00    8.3895820233249658E+00
N   -1.6009216244733926E+00    2.8370360932881180E+00    1.0380986864855734E+01
Ga   -1.6290269244149056E+00    4.6948254574551243E+00    1.1029380699923129E+01
N   -1.6452642217642210E+00    4.7054266439396777E+00    1.3018118947244284E+01
Ga   -1.6015722470253564E+00    2.8358402553015898E+00    1.3576952599957909E+01
N   -1.6327298436204383E+00    2.8180423264041781E+00    1.5534058443265703E+01
Ga   -1.4470677751998100E+00    4.5909158557637673E+00    1.6439416204196025E+01
N   -1.0028998738169384E-02    3.7544973884618797E+00    1.7567783070230593E+01
N   -3.2336874208039936E+00    7.5834403353288176E+00    2.4531950800037121E+00
Ga   -3.1848216033053527E+00    5.5816138418713086E+00    2.8058784438549429E+00
N   -3.2154340339589846E+00    5.6108392274825070E+00    4.9657065043483772E+00
Ga   -3.2382930632263358E+00    7.4336335626762207E+00    5.7478030929761301E+00
N   -3.2251807778870663E+00    7.4623772139501785E+00    7.7380507599322623E+00
Ga   -3.2192900579088852E+00    5.6150490384609828E+00    8.3987910829622869E+00
N   -3.2203537627783114E+00    5.6160707858703569E+00    1.0368798461811163E+01
Ga   -3.2222464849086148E+00    7.4535133147367043E+00    1.1029727264002315E+01
N   -3.2206997378046309E+00    7.4348125503927953E+00    1.3017828575340552E+01
Ga   -3.2205824415736628E+00    5.6148973229941452E+00    1.3833144925682726E+01
N   -3.2210271703146742E+00    5.6150853684442312E+00    1.6020490986254547E+01
Ga   -3.2210153656628338E+00    7.6631169043981160E+00    1.6440049515405502E+01
Ga   -3.2515497014643744E+00    9.3484046875838462E+00    1.3934572642365703E+00
N   -4.7433431905543699E+00    1.0184506509470578E+01    2.4631152886466965E+00
Ga   -4.9725180348680409E+00    8.3184183622618448E+00    3.1888172808183270E+00
N   -4.8444176173289284E+00    8.3883520262194917E+00    5.1610499213720296E+00
Ga   -4.8623397463345599E+00    1.0264470119446264E+01    5.7365873102436948E+00
N   -4.8402337183379078E+00    1.0256755959957333E+01    7.7340887930391968E+00
Ga   -4.8213001608582244E+00    8.4070008628137671E+00    8.3955729839657049E+00
N   -4.8177712009723486E+00    8.4067626365766124E+00    1.0382704978533285E+01
Ga   -4.8446019441761923E+00    1.0266867751918433E+01    1.1026620426033411E+01
N   -4.8606296971362219E+00    1.0275981783415284E+01    1.3015931515524962E+01
Ga   -4.8177558656472224E+00    8.4072587513385191E+00    1.3577917959924484E+01
N   -4.8490177028702117E+00    8.3888339751611465E+00    1.5534711196042144E+01
Ga   -4.6635285047602322E+00    1.0161667015643745E+01    1.6439617012197118E+01
N   -3.2268613111852837E+00    9.3257367440121719E+00    1.7569281603611756E+01
N    3.2057074001326487E+00    1.9009132232401089E+00    2.5565917706541068E+00
Ga    3.1928519755975433E+00    1.5829421394295309E-01    3.2317421365496584E+00
N    3.2077048574045075E+00    3.9795027360897663E-02    5.1938079248503426E+00
Ga    3.1995539381593874E+00    1.9075595772130827E+00    5.8198672503114084E+00
N    3.2094216667625686E+00    1.8999203277198067E+00    7.7946306422831322E+00
Ga    3.2060889075929055E+00    3.3599852753186617E-02    8.3865675745738386E+00
N    3.2097467183591930E+00    3.0357127050757073E-02    1.0376999910232938E+01
Ga    3.2105309373461637E+00    1.8998193331528215E+00    1.0980839283018110E+01
N    3.2121567381706346E+00    1.9006949106600015E+00    1.2947377122496773E+01
Ga    3.2116989703119816E+00    3.2863179288051478E-02    1.3577374801122401E+01
N    3.2132617928383964E+00    6.6683725359857851E-02    1.5533557320352731E+01
Ga    3.2130307776205762E+00    1.9024518503476959E+00    1.5818370196539957E+01
N    1.4938260407746142E+00    4.6346889070058213E+00    2.3563436041197443E+00
Ga    1.6861880876966151E+00    2.8113176141232583E+00    3.1977407030147891E+00
N    1.6075754111653133E+00    2.8423964226333935E+00    5.1802593871494622E+00
Ga    1.6561283926736599E+00    4.7076438930839988E+00    5.7607110981916207E+00
N    1.6075164631723278E+00    4.6911016841607527E+00    7.7616970495511914E+00
Ga    1.5927490437529059E+00    2.8350726644767583E+00    8.3940418051219652E+00
N    1.5921814228493461E+00    2.8350432853531511E+00    1.0384256043319345E+01
Ga    1.6196954007894884E+00    4.6944567409298763E+00    1.1027451550773781E+01
N    1.6358998286092650E+00    4.7051519993437418E+00    1.3017168692722814E+01
Ga    1.5937382078520879E+00    2.8357929020617947E+00    1.3576212771878696E+01
N    1.6235320185947850E+00    2.8202259493082149E+00    1.5532857614279060E+01
Ga    1.4324028376293310E+00    4.5876506787475106E+00    1.6440835213240259E+01
N   -1.0744038979114219E-02    7.4675138236670549E+00    2.6431608045897592E+00
Ga    2.9194856219875668E-02    5.5981772661002660E+00    3.2505991547042652E+00
N    5.7955782873422039E-03    5.6268025126883199E+00    5.1896402635567407E+00
Ga   -6.0273596032541094E-03    7.4580784278143497E+00    5.8591024361862711E+00
N   -7.1267389057125489E-03    7.4706652916107350E+00    7.8131883938688373E+00
Ga   -3.7131137775377166E-03    5.5979334523818673E+00    8.4057068454237935E+00
N   -6.1413207353063215E-03    5.6026580938318213E+00    1.0390376329239086E+01
Ga   -6.7958113718464179E-03    7.4721600147959553E+00    1.0985960306103362E+01
N   -4.9054870467740205E-03    7.4729331887882369E+00    1.2950636616529437E+01
Ga   -3.9812203730666589E-03    5.6028841338388933E+00    1.3577310471996649E+01
N   -2.7910856500598410E-03    5.6372332220730508E+00    1.5533714124585781E+01
Ga   -3.1724891917000839E-03    7.4727232989186776E+00    1.5818874827854565E+01
N   -1.7202626538908905E+00    1.0184829972506156E+01    2.4712220015529316E+00
Ga   -1.6118174347584782E+00    8.3773812809514396E+00    3.2794620409327271E+00
N   -1.6063782455997182E+00    8.3888433946411674E+00    5.2041138440848327E+00
Ga   -1.5931333217629295E+00    1.0276061805391162E+01    5.7613996199570492E+00
N   -1.6043591361422980E+00    1.0259742093117714E+01    7.7469010206837288E+00
Ga   -1.6285816713905306E+00    8.4052845258565618E+00    8.3983662074602154E+00
N   -1.6265979954327534E+00    8.4062599461438197E+00    1.0383148475895974E+01
Ga   -1.6007277155801902E+00    1.0266252142177738E+01    1.1026873730689745E+01
N   -1.5811901311112686E+00    1.0275704281575530E+01    1.3015612129599338E+01
Ga   -1.6232646300100755E+00    8.4071999061270652E+00    1.3578397337967850E+01
N   -1.5927185858042172E+00    8.3910849825948528E+00    1.5534332816216285E+01
Ga   -1.7842909431566305E+00    1.0158387122861843E+01    1.6441805934399611E+01
N    6.4342417682693220E+00    2.0152208988860569E+00    2.5031741545082822E+00
Ga    6.4229644064028077E+00    4.9751637533273878E-02    2.8429314336102380E+00
N    6.4250173783757303E+00    4.1366157429787914E-02    4.9792433584392262E+00
Ga    6.4242713968832490E+00    1.8776986415025516E+00    5.7626002151626068E+00
N    6.4277104251045118E+00    1.8881480450873829E+00    7.7527300382391129E+00
Ga    6.4254686617456418E+00    4.5092465413348354E-02    8.4053841976676882E+00
N    6.4260927856476568E+00    4.3691463035230936E-02    1.0373039838664157E+01
Ga    6.4270104335383174E+00    1.8845069612484793E+00    1.1027402932628409E+01
N    6.4280439834339518E+00    1.8644968487876967E+00    1.3016876656633821E+01
Ga    6.4269359748460078E+00    4.4811127172199164E-02    1.3829120161383932E+01
N    6.4256574681318677E+00    4.3432719985977024E-02    1.6021279386651756E+01
Ga    6.4275084221081338E+00    2.0849936920179477E+00    1.6437376349485000E+01
Ga    6.4559219179111258E+00    3.7225041211142464E+00    1.4716390312986298E+00
N    4.9398370588349199E+00    4.5957154769476993E+00    2.4658237361867266E+00
Ga    4.7053871424182896E+00    2.7711382482194100E+00    3.2557896273394102E+00
N    4.8189124218716088E+00    2.8290313295286351E+00    5.2099957152694714E+00
Ga    4.7757026035744454E+00    4.7089556377061399E+00    5.7633192459859695E+00
N    4.8170616220684366E+00    4.6888636723825829E+00    7.7635033801493885E+00
Ga    4.8269625391643300E+00    2.8335162543402688E+00    8.3955618142249460E+00
N    4.8299896435491947E+00    2.8341520594619038E+00    1.0384856019502950E+01
Ga    4.8039371147759384E+00    4.6946918043462551E+00    1.1026136262430992E+01
N    4.7881665374517075E+00    4.7047260186613107E+00    1.3016758931924036E+01
Ga    4.8302129655504773E+00    2.8357882455606314E+00    1.3576164956349436E+01
N    4.8055744127286584E+00    2.8215389564575477E+00    1.5536216410297190E+01
Ga    4.9786293697815669E+00    4.5945116797503065E+00    1.6437352683332445E+01
N    6.4218161078121216E+00    3.7545296855848433E+00    1.7580156342938441E+01
N    3.1917111963769882E+00    7.6211662952557262E+00    2.4771378808042166E+00
N    3.2172043617844337E+00    5.6203049039201396E+00    5.0384918420440119E+00
Ga    3.2163619337273830E+00    7.4154077969730583E+00    5.7733334883421792E+00
N    3.2102257977920301E+00    7.4704102461569208E+00    7.7666661842442348E+00
Ga    3.2121155979831792E+00    5.6141544700247064E+00    8.3999678030120286E+00
N    3.2116365737394013E+00    5.6157579294581152E+00    1.0373543547704639E+01
Ga    3.2119110790211201E+00    7.4537387048462138E+00    1.1028815989029805E+01
N    3.2116652232725080E+00    7.4356925249432910E+00    1.3018383722657727E+01
Ga    3.2117060147225795E+00    5.6146434138025825E+00    1.3828481121196196E+01
N    3.2100095687159076E+00    5.6140088361716378E+00    1.6021555692471640E+01
Ga    3.2116874783352323E+00    7.6552582877652107E+00    1.6437753103431032E+01
Ga    3.2270146312112891E+00    9.3650330857574033E+00    1.4311316529654252E+00
N    1.7009289512200692E+00    1.0192842450121001E+01    2.4839584311235945E+00
Ga    1.5756442355426741E+00    8.3814076746767050E+00    3.3014285061934396E+00
N    1.5897285722322547E+00    8.3951697911118313E+00    5.2199844841020582E+00
Ga    1.5773974667516666E+00    1.0277679743769564E+01    5.7716501632341544E+00
N    1.5924086249251079E+00    1.0262462607076523E+01    7.7554610881576052E+00
Ga    1.6137968172912860E+00    8.4075281972445310E+00    8.4074021104657461E+00
N    1.6125056300173541E+00    8.4079609722216482E+00    1.0390970792917335E+01
Ga    1.5878015242139762E+00    1.0267384338480607E+01    1.1030564933344261E+01
N    1.5715979136515938E+00    1.0276294235967535E+01    1.3018785222505539E+01
Ga    1.6143714404070169E+00    8.4068769116777062E+00    1.3578022528430388E+01
N    1.5893457732122329E+00    8.3921457710046372E+00    1.5537678942178342E+01
Ga    1.7626994971801548E+00    1.0165187518654418E+01    1.6437792894898919E+01
N    3.2061231941494035E+00    9.3255876092918175E+00    1.7580443231391882E+01
N    9.6608298475283281E+00    1.9097860078502398E+00    2.5688222092768824E+00
Ga    9.6532378086870292E+00    1.7243313097456936E-01    3.2499199241276622E+00
N    9.6408998590976136E+00    4.3595244750261115E-02    5.2077825440783521E+00
Ga    9.6555913602642427E+00    1.9063896452588427E+00    5.8340054775590255E+00
N    9.6454120025754690E+00    1.9014560964533180E+00    7.8038798087317538E+00
Ga    9.6459135008530712E+00    3.4907140832847627E-02    8.3969581700532743E+00
N    9.6434678370717588E+00    3.1248078121921156E-02    1.0384351489666081E+01
Ga    9.6442271082512523E+00    1.9023114476052467E+00    1.0980421412442684E+01
N    9.6433795144907730E+00    1.9012335955994226E+00    1.2948321133280839E+01
Ga    9.6447431962920920E+00    3.2523654262629438E-02    1.3577189187972513E+01
N    9.6445210738891731E+00    6.1305164889504341E-02    1.5536171563483032E+01
Ga    9.6423983736546663E+00    1.9006971960603525E+00    1.5815608924687071E+01
N    7.9335347957546380E+00    4.6228944594229224E+00    2.4900042272052483E+00
Ga    8.1547351468448959E+00    2.7686940709521211E+00    3.2623268743982252E+00
N    8.0389057173862390E+00    2.8268142299153558E+00    5.2156839719490646E+00
Ga    8.0626055223319550E+00    4.7008867629611411E+00    5.7567134311018524E+00
N    8.0465030217370259E+00    4.6936370157288323E+00    7.7480122684824870E+00
Ga    8.0269633383029788E+00    2.8354874207941498E+00    8.3939443330496282E+00
N    8.0241032448774945E+00    2.8367349487806122E+00    1.0382733859969449E+01
Ga    8.0518551463713042E+00    4.6955316878983320E+00    1.1027929605551995E+01
N    8.0687832369099386E+00    4.7052769960333043E+00    1.3016855824965054E+01
Ga    8.0252865865668657E+00    2.8365484561399121E+00    1.3576580305420476E+01
N    8.0504506272129817E+00    2.8218888081848843E+00    1.5535626187380782E+01
Ga    7.8725216351079546E+00    4.5923103960849465E+00    1.6437391513227560E+01
N    6.3582936936080943E+00    7.4338267503129609E+00    2.4569020207910239E+00
Ga    6.4153641446545970E+00    5.7097938799370107E+00    3.2596185516997407E+00
N    6.4277894568431124E+00    5.6185631622438255E+00    5.2040373449849548E+00
Ga    6.4244755083327219E+00    7.4700078051516741E+00    5.8405232882887583E+00
N    6.4263646387296633E+00    7.4713848356085073E+00    7.8042831273867481E+00
Ga    6.4283787985450003E+00    5.6010387150311125E+00    8.4008116505111659E+00
N    6.4293516754507483E+00    5.6030431301991372E+00    1.0387768833713674E+01
Ga    6.4277235115224061E+00    7.4720965879421977E+00    1.0984887461841243E+01
N    6.4274467678475800E+00    7.4719034522473446E+00    1.2951463680808827E+01
Ga    6.4283240071748891E+00    5.6016283451285069E+00    1.3576718203681224E+01
N    6.4283181100690179E+00    5.6314438452664195E+00    1.5535779336341589E+01
Ga    6.4261138672494988E+00    7.4707800218004961E+00    1.5814869162166119E+01
N    4.7182632676838958E+00    1.0199053221148960E+01    2.4820553244405588E+00
Ga    4.9006024314517287E+00    8.3472152421043582E+00    3.2626784987677850E+00
N    4.8194300486662476E+00    8.4005761590468389E+00    5.2067751267663356E+00
Ga    4.8486331882372307E+00    1.0276578332879497E+01    5.7577241783394406E+00
N    4.8297095939972658E+00    1.0263448744466734E+01    7.7484725311257225E+00
Ga    4.8093203820097905E+00    8.4095924622676534E+00    8.4017569784990354E+00
N    4.8095756519763428E+00    8.4082610999884349E+00    1.0388184666903612E+01
Ga    4.8362843167553891E+00    1.0267710689745119E+01    1.1027921145059963E+01
N    4.8522683303176493E+00    1.0276577015293149E+01    1.3016826912807563E+01
Ga    4.8087228380990705E+00    8.4079204775925671E+00    1.3577347170052558E+01
N    4.8343580731407796E+00    8.3926387476966990E+00    1.5536289114564894E+01
Ga    4.6568732660508729E+00    1.0163025690464643E+01    1.6437320938661895E+01
O    6.0736925505947358E-02    3.6766687459413170E+00   -5.7173586345308602E-01
H   -3.2432899470348888E-03    7.4773552348001164E+00    1.6169605262853217E+00
C    1.4103176588036123E-01    2.3774364420311578E+00   -1.1768212934798097E+00
H    9.7462518107439400E-01    1.7753851046073785E+00   -7.7778444554871129E-01
H   -7.8926850973650109E-01    1.8004517598174581E+00   -1.0478095689204268E+00
H    3.0809167911865393E-01    2.5257611835525471E+00   -2.2540886113060852E+00
Ga    3.2180597983791590E+00    5.6130784955609787E+00    2.3849520820006003E+00
O    3.8382421524717429E+00    6.1238460289192078E+00    2.1178229744295929E-01
H    3.6758148992093500E+00    5.4380781006046401E+00   -4.5744918745401725E-01
C    5.2114788727912309E+00    6.6467672984283546E+00    5.4386202434265243E-02
H    5.1880145443569292E+00    7.4572770096009036E+00   -6.8836790636896872E-01
H    5.6655327434413660E+00    7.0233764661189682E+00    1.0693518425318809E+00
H    5.8701736181364907E+00    5.8503602474033674E+00   -3.3183026335870852E-01
     &END COORD
     &KIND C
       BASIS_SET DZVP-MOLOPT-SR-GTH-q4
       POTENTIAL GTH-PBE-q4
       &POTENTIAL
2 2
0.3384712400000000E+00 2 -0.8803673979999999E+01  0.1339210850000000E+01
2
0.3025757500000000E+00 1  0.9622486650000001E+01
0.2915069400000000E+00 0
       &END POTENTIAL
     &END KIND
     &KIND O
       BASIS_SET DZVP-MOLOPT-SR-GTH-q6
       POTENTIAL GTH-PBE-q6
       &POTENTIAL
2 4
0.2445543000000000E+00 2 -0.1666721480000000E+02  0.2487311320000000E+01
2
0.2209559200000000E+00 1  0.1833745811000000E+02
0.2113324700000000E+00 0
       &END POTENTIAL
     &END KIND
     &KIND H
       BASIS_SET DZVP-MOLOPT-SR-GTH-q1
       POTENTIAL GTH-PBE-q1
       &POTENTIAL
1
0.2000000000000000E+00 2 -0.4178900440000000E+01  0.7244633100000000E+00
0
       &END POTENTIAL
     &END KIND
     &KIND N
       BASIS_SET DZVP-MOLOPT-SR-GTH
       POTENTIAL GTH-PBE-q5
       &POTENTIAL
2 3
0.2837905100000000E+00 2 -0.1241522559000000E+02  0.1868095920000000E+01
2
0.2554050000000000E+00 1  0.1363026257000000E+02
0.2454945300000000E+00 0
       &END POTENTIAL
     &END KIND
     &KIND Ga
       BASIS_SET DZVP-MOLOPT-SR-GTH
       POTENTIAL GTH-PBE-q13
       &POTENTIAL
2 1 10
0.4900000000000000E+00 0
3
0.4167772300000000E+00 3  0.1047568975000000E+02 -0.4921768140000000E+01  0.8707055900000000E+00
0.7770178090000000E+01 -0.2248152160000000E+01
0.1784415450000000E+01
0.5696265200000000E+00 2  0.1777985340000000E+01  0.1958597600000000E+00
-0.2317443900000000E+00
0.2381265000000000E+00 1 -0.1624868022000000E+02
       &END POTENTIAL
     &END KIND
     &TOPOLOGY
       NUMBER_OF_ATOMS  212
       MULTIPLE_UNIT_CELL  1 1 1
     &END TOPOLOGY
     &COLVAR
       &DISTANCE
         ATOMS  176 211
       &END DISTANCE
       &PRINT
       &END PRINT
     &END COLVAR
   &END SUBSYS
 &END FORCE_EVAL
