 # Version information for this restart file 
 # current date 2019-07-14 20:18:29.184
 # current working dir /lustre04/scratch/rzk/rzk/GaN-carbene/443-adatoms-both-2x2/09-BondBreaking-CH/03-0501-CH-to-Nsur-PES/Phase02
 # Program compiled at                              Sun Apr  7 00:48:11 EDT 2019
 # Program compiled on                          beluga2.int.ets1.calculquebec.ca
 # Program compiled for                        Beluga-Linux-x86-64-intel-openmpi
 # Source code revision number                                         svn:18619
 &GLOBAL
   PRINT_LEVEL  MEDIUM
   PROJECT_NAME TEST
   RUN_TYPE  GEO_OPT
 &END GLOBAL
 &MOTION
   &GEO_OPT
     MAX_ITER  500
     !STEP_START_VAL  29
   &END GEO_OPT
   &CONSTRAINT
     &COLLECTIVE
       COLVAR  1
       INTERMOLECULAR  T
       TARGET [angstrom] 1.40 !     2.8345891993284642E+00
       &RESTRAINT
         K     2.0000000000000000E+00
       &END RESTRAINT
     &END COLLECTIVE
   &END CONSTRAINT
 &END MOTION
 &FORCE_EVAL
   METHOD  QS
   STRESS_TENSOR  ANALYTICAL
   &DFT
     BASIS_SET_FILE_NAME BASIS_MOLOPT
     POTENTIAL_FILE_NAME GTH_POTENTIALS
     UKS  T
     SURFACE_DIPOLE_CORRECTION  T
     SURF_DIP_DIR  Z
     &SCF
       MAX_SCF  80
       EPS_SCF     5.0000000000000004E-06
       &OT  T
         PRECONDITIONER  FULL_ALL
       &END OT
       &OUTER_SCF  T
         OPTIMIZER  NONE
         EPS_SCF     5.0000000000000004E-06
         MAX_SCF  4
       &END OUTER_SCF
       &PRINT
         &RESTART  OFF
           BACKUP_COPIES  1
           &EACH
             JUST_ENERGY  0
             QS_SCF  0
             MD  20
           &END EACH
         &END RESTART
       &END PRINT
     &END SCF
     &QS
       EPS_DEFAULT     1.0000000000000000E-14
       METHOD  GPW
     &END QS
     &MGRID
       NGRIDS  5
       CUTOFF     1.2000000000000000E+03
     &END MGRID
     &XC
       DENSITY_CUTOFF     1.0000000000000000E-10
       GRADIENT_CUTOFF     1.0000000000000000E-10
       TAU_CUTOFF     1.0000000000000000E-10
       &XC_FUNCTIONAL  NO_SHORTCUT
         &PBE  T
         &END PBE
       &END XC_FUNCTIONAL
       &VDW_POTENTIAL
         POTENTIAL_TYPE  PAIR_POTENTIAL
         &PAIR_POTENTIAL
           R_CUTOFF     1.0000000000000007E+01
           TYPE  DFTD3
           PARAMETER_FILE_NAME dftd3.dat
           REFERENCE_FUNCTIONAL PBE
           EPS_CN     9.9999999999999995E-07
           CALCULATE_C9_TERM  T
           REFERENCE_C9_TERM  T
           LONG_RANGE_CORRECTION  F
           VERBOSE_OUTPUT  F
         &END PAIR_POTENTIAL
       &END VDW_POTENTIAL
     &END XC
   &END DFT
   &SUBSYS
     &CELL
       A     1.2864472766435110E+01    0.0000000000000000E+00    0.0000000000000000E+00
       B    -6.4322363581020028E+00    1.1140960178524477E+01    0.0000000000000000E+00
       C     0.0000000000000000E+00    0.0000000000000000E+00    3.2000000000000000E+01
       MULTIPLE_UNIT_CELL  1 1 1
       &CELL_REF
         A     1.2982353780853531E+01    0.0000000000000000E+00    0.0000000000000000E+00
         B    -6.4911768904267628E+00    1.1243048175136114E+01    0.0000000000000000E+00
         C     0.0000000000000000E+00    0.0000000000000000E+00    3.2000000000000000E+01
         MULTIPLE_UNIT_CELL  1 1 1
       &END CELL_REF
     &END CELL
     &COORD
N    4.9259496843679232E-03    2.0491353859277575E+00    2.4529580473383166E+00
Ga   -4.5430848558026624E-03    9.7215024300357181E-02    2.8026376358885980E+00
N   -7.0269422769720811E-03    4.9580866595971274E-02    4.9634931475711017E+00
Ga    4.4641922563401128E-03    1.8866264438965772E+00    5.7383955701102245E+00
N   -1.6792508316171894E-03    1.8904332122584695E+00    7.7393978631886986E+00
Ga   -1.8832457118201787E-03    4.7349166794390884E-02    8.3927595027267010E+00
N   -3.6532410476097024E-03    4.4815152214165453E-02    1.0365437787972493E+01
Ga   -4.1677578650431840E-03    1.8836719797459183E+00    1.1025525225847947E+01
N   -4.3066727553911169E-03    1.8641732310894981E+00    1.3015618577625132E+01
Ga   -3.9002594488477807E-03    4.5249890444816906E-02    1.3830785767593254E+01
N   -4.5510066883311011E-03    4.4626411239313803E-02    1.6019170627648283E+01
Ga   -4.2120857870189933E-03    2.0922952811498647E+00    1.6438277637388182E+01
Ga   -1.8549429358118180E-02    3.7105095315299756E+00    1.2435084959729410E+00
N   -1.4691636969173549E+00    4.6251334725789661E+00    2.4371639822477431E+00
Ga   -1.6683296739817846E+00    2.7922244642908502E+00    3.2164139630831148E+00
N   -1.6127407882814355E+00    2.8324715022232105E+00    5.1964834358365533E+00
Ga   -1.6290445661073290E+00    4.6978574551265204E+00    5.7500720504735696E+00
N   -1.6197233327999161E+00    4.6959266703602678E+00    7.7436173060658904E+00
Ga   -1.5979693704631106E+00    2.8358085670710254E+00    8.3879812281560149E+00
N   -1.6006950331921947E+00    2.8369295968845103E+00    1.0379787913792454E+01
Ga   -1.6289667673471617E+00    4.6946188323550926E+00    1.1028567724067015E+01
N   -1.6451284795423187E+00    4.7053708586550513E+00    1.3017438052169412E+01
Ga   -1.6014748814304345E+00    2.8358186679323980E+00    1.3576191065732363E+01
N   -1.6326203987076067E+00    2.8181625169147559E+00    1.5533377673766985E+01
Ga   -1.4468088696392674E+00    4.5910464252102416E+00    1.6438712050155900E+01
N   -9.8559556133043010E-03    3.7546206876440253E+00    1.7566991031456297E+01
N   -3.2357198186932656E+00    7.5829741570196045E+00    2.4512792797385536E+00
Ga   -3.1840459538535035E+00    5.5815288179858706E+00    2.8055478002532759E+00
N   -3.2151315142524264E+00    5.6105806899575539E+00    4.9646157267798747E+00
Ga   -3.2387343071213537E+00    7.4336126962860538E+00    5.7458417291065231E+00
N   -3.2253508907656898E+00    7.4623098636285441E+00    7.7363797224003470E+00
Ga   -3.2189021176027452E+00    5.6148641246336224E+00    8.3972857106128256E+00
N   -3.2201222691530691E+00    5.6159005875047221E+00    1.0367596181721938E+01
Ga   -3.2219956190489532E+00    7.4534034768257982E+00    1.1028548782288791E+01
N   -3.2204983195773971E+00    7.4347399721649747E+00    1.3016755893862953E+01
Ga   -3.2203528086532907E+00    5.6149936463451784E+00    1.3832357531272523E+01
N   -3.2206568031974157E+00    5.6150746047836346E+00    1.6019681482588503E+01
Ga   -3.2207688754165500E+00    7.6631841669137781E+00    1.6439637499383899E+01
Ga   -3.2512123652919760E+00    9.3489526182739322E+00    1.3892122260202637E+00
N   -4.7445824320369967E+00    1.0183351530298415E+01    2.4611764939027800E+00
Ga   -4.9738727312464190E+00    8.3178180282203442E+00    3.1851839189959068E+00
N   -4.8458939059119484E+00    8.3875133180498338E+00    5.1579574921989169E+00
Ga   -4.8623173461638141E+00    1.0264153826150029E+01    5.7342905268165252E+00
N   -4.8401908816592272E+00    1.0256505859671863E+01    7.7321606981865649E+00
Ga   -4.8210923738189830E+00    8.4070707988697748E+00    8.3945316517832751E+00
N   -4.8175744786161525E+00    8.4067694173995395E+00    1.0381797506755078E+01
Ga   -4.8443715140301640E+00    1.0266987417422770E+01    1.1025474707873789E+01
N   -4.8605098012676722E+00    1.0276127918499105E+01    1.3014897443431998E+01
Ga   -4.8174108694917024E+00    8.4074227410654228E+00    1.3577170802827125E+01
N   -4.8485651224132802E+00    8.3890853975319732E+00    1.5533980983610119E+01
Ga   -4.6634756471296912E+00    1.0161945959957857E+01    1.6439280645055309E+01
N   -3.2265795402922155E+00    9.3259471129744060E+00    1.7568524400045643E+01
N    3.2061684134836566E+00    1.9004792030979205E+00    2.5550693997265910E+00
Ga    3.1924082755453158E+00    1.5772131651051746E-01    3.2298670981273387E+00
N    3.2075075080132538E+00    3.9806378385508379E-02    5.1921086329934800E+00
Ga    3.1995996302091361E+00    1.9082419824785162E+00    5.8173851930006171E+00
N    3.2094470437075331E+00    1.9000320297915587E+00    7.7927023206736603E+00
Ga    3.2061388726161315E+00    3.3660072264044105E-02    8.3846569624095277E+00
N    3.2098961797054990E+00    3.0369672343413586E-02    1.0375549700893608E+01
Ga    3.2106512268287388E+00    1.8995016005697658E+00    1.0980397550823783E+01
N    3.2124078417301569E+00    1.9006993240103431E+00    1.2946969020481820E+01
Ga    3.2118707544134533E+00    3.2867420022711501E-02    1.3576667366678530E+01
N    3.2134949339881005E+00    6.6593335612331911E-02    1.5532840694421719E+01
Ga    3.2132679672267344E+00    1.9024328519645368E+00    1.5817861898038466E+01
N    1.4966669956319132E+00    4.6367464354292451E+00    2.3428912548404131E+00
Ga    1.6882022544242750E+00    2.8143420197044580E+00    3.1939364077635464E+00
N    1.6078684742067471E+00    2.8438122871046043E+00    5.1769457175293434E+00
Ga    1.6569053894317727E+00    4.7080560019849722E+00    5.7625343073171864E+00
N    1.6064349580023982E+00    4.6902416605764259E+00    7.7637400989064682E+00
Ga    1.5927568549759035E+00    2.8345095317386999E+00    8.3937658095247087E+00
N    1.5924131146237590E+00    2.8345587746829422E+00    1.0384037491904275E+01
Ga    1.6198702609825051E+00    4.6942904156582381E+00    1.1026503979603190E+01
N    1.6360855959300173E+00    4.7051794700612364E+00    1.3016498526933184E+01
Ga    1.5939399056125167E+00    2.8358494443761169E+00    1.3575424595323600E+01
N    1.6238020833734135E+00    2.8203537738776125E+00    1.5532197349436165E+01
Ga    1.4325856065586802E+00    4.5878097007774636E+00    1.6440142669830344E+01
N   -1.1546381242327758E-02    7.4682646158727817E+00    2.6415462863046502E+00
Ga    3.3218257290143077E-02    5.5983680433185414E+00    3.2464658358698966E+00
N    7.1964844260846957E-03    5.6263537048943677E+00    5.1861172343883197E+00
Ga   -5.7560400688985852E-03    7.4574071915316189E+00    5.8574180973861623E+00
N   -6.9669898139457761E-03    7.4702696588524748E+00    7.8118748439854562E+00
Ga   -3.9890179004055098E-03    5.5977542118131742E+00    8.4057967423651334E+00
N   -6.2645969927688063E-03    5.6027198963731681E+00    1.0390420730306596E+01
Ga   -6.9510077083831711E-03    7.4721322373475401E+00    1.0985587981878853E+01
N   -4.8118822989366488E-03    7.4730050132380574E+00    1.2950249805106704E+01
Ga   -3.7912191607507762E-03    5.6028816870015188E+00    1.3576461955795224E+01
N   -2.6071074863573550E-03    5.6374091597245082E+00    1.5532984082859729E+01
Ga   -3.0745621548592642E-03    7.4729711016078841E+00    1.5818196177208778E+01
N   -1.7206238843979316E+00    1.0184639985431767E+01    2.4699924923704315E+00
Ga   -1.6134262014907448E+00    8.3772481353280099E+00    3.2779674132988332E+00
N   -1.6065903316099897E+00    8.3885876896786531E+00    5.2028130355850601E+00
Ga   -1.5933073162607536E+00    1.0276010386331842E+01    5.7599518316177463E+00
N   -1.6041904792038504E+00    1.0259689161458196E+01    7.7455276180785200E+00
Ga   -1.6284709713271373E+00    8.4050988390547019E+00    8.3967963126081813E+00
N   -1.6264602266223753E+00    8.4061808843243746E+00    1.0381938953861908E+01
Ga   -1.6006672923811682E+00    1.0266203269557355E+01    1.1025619991645904E+01
N   -1.5810050600858685E+00    1.0275753317508023E+01    1.3014528688710968E+01
Ga   -1.6231919506896717E+00    8.4072777015958202E+00    1.3577641274969835E+01
N   -1.5927477541591297E+00    8.3913310976546107E+00    1.5533566100632894E+01
Ga   -1.7839050024864318E+00    1.0158611818772137E+01    1.6441315356541256E+01
N    6.4344984465354500E+00    2.0153865377519526E+00    2.5014482240511082E+00
Ga    6.4225059774197764E+00    4.9808815274600467E-02    2.8420968141643814E+00
N    6.4251186417634054E+00    4.1389921736125317E-02    4.9782630542116619E+00
Ga    6.4239924054412345E+00    1.8778792743660886E+00    5.7613729198972123E+00
N    6.4278314426738303E+00    1.8879188967252669E+00    7.7515735999038613E+00
Ga    6.4255481781043668E+00    4.5069369807164028E-02    8.4043695277334542E+00
N    6.4262368345146070E+00    4.3652866681377613E-02    1.0372114528533979E+01
Ga    6.4272342054058802E+00    1.8843316100504923E+00    1.1026655993295725E+01
N    6.4283100759631902E+00    1.8645307175024677E+00    1.3016228111369065E+01
Ga    6.4270489087589171E+00    4.4809639095461581E-02    1.3828454627971237E+01
N    6.4260204361950777E+00    4.3537390707967208E-02    1.6020448223195178E+01
Ga    6.4277254715713266E+00    2.0846005040026219E+00    1.6436535695498396E+01
Ga    6.4578319986253332E+00    3.7212955540937989E+00    1.4665725359217352E+00
N    4.9390340701845146E+00    4.5944468064823676E+00    2.4584301023896518E+00
Ga    4.7050978335840083E+00    2.7724010890932873E+00    3.2534197916831675E+00
N    4.8193736884392617E+00    2.8296476079155677E+00    5.2079267311311668E+00
Ga    4.7749681288789967E+00    4.7087323311684850E+00    5.7659058130274792E+00
N    4.8185147235111803E+00    4.6879785325765049E+00    7.7659580425399648E+00
Ga    4.8271744372317098E+00    2.8327232974686560E+00    8.3954051647663022E+00
N    4.8300754877186796E+00    2.8336429104293113E+00    1.0384701191045574E+01
Ga    4.8040066899576930E+00    4.6945237228361210E+00    1.1025276283532481E+01
N    4.7883154451803644E+00    4.7047961796668005E+00    1.3016080286889709E+01
Ga    4.8304567408963823E+00    2.8359123921193428E+00    1.3575476383593998E+01
N    4.8058783872434372E+00    2.8217313323261486E+00    1.5535728799553910E+01
Ga    4.9784399421459460E+00    4.5948381281789370E+00    1.6436627128820167E+01
N    6.4220581662557654E+00    3.7545585527890277E+00    1.7579097669779713E+01
N    3.1897638830904653E+00    7.6207757030518470E+00    2.4719426844769790E+00
N    3.2177103532703835E+00    5.6208760538446478E+00    5.0549169764608415E+00
Ga    3.2157781057271899E+00    7.4149949128045947E+00    5.7772406378658614E+00
N    3.2102735027514568E+00    7.4718706024105854E+00    7.7699797700396998E+00
Ga    3.2121522740466855E+00    5.6138486048366865E+00    8.3989458021892034E+00
N    3.2117923785621945E+00    5.6156141720287849E+00    1.0373213830374093E+01
Ga    3.2119593603270165E+00    7.4535967952703004E+00    1.1027998303234821E+01
N    3.2118366918776111E+00    7.4356966050224749E+00    1.3017747477182487E+01
Ga    3.2118680865739706E+00    5.6147366655426083E+00    1.3827738543876070E+01
N    3.2100902488426719E+00    5.6142019120837103E+00    1.6020951702438630E+01
Ga    3.2118466371017118E+00    7.6556073065218921E+00    1.6437416565026609E+01
Ga    3.2269502068665159E+00    9.3663647412820357E+00    1.4309889476395303E+00
N    1.7012330635500281E+00    1.0192564977130003E+01    2.4835217171134718E+00
Ga    1.5754667836907961E+00    8.3798476144786331E+00    3.3007948046625195E+00
N    1.5902067585630077E+00    8.3952829589050957E+00    5.2191951276807584E+00
Ga    1.5773183891249276E+00    1.0277586631808088E+01    5.7709162432691858E+00
N    1.5924629138145987E+00    1.0262530800757512E+01    7.7547379647358836E+00
Ga    1.6132561492034168E+00    8.4079283771451792E+00    8.4078037816299425E+00
N    1.6121961162265144E+00    8.4081016656791441E+00    1.0391247011370645E+01
Ga    1.5878408681710183E+00    1.0267538409867910E+01    1.1029996789956583E+01
N    1.5718026536790302E+00    1.0276434690246377E+01    1.3018253494291569E+01
Ga    1.6146008995519092E+00    8.4069252458897736E+00    1.3577278141707142E+01
N    1.5895606228778361E+00    8.3922901316499683E+00    1.5536993291167770E+01
Ga    1.7629819976751047E+00    1.0165313121291673E+01    1.6437331357159312E+01
N    3.2062536842536766E+00    9.3258463496337747E+00    1.7579863680076748E+01
N    9.6612220592765681E+00    1.9102774307135444E+00    2.5680301662715106E+00
Ga    9.6530895667040006E+00    1.7321410624174716E-01    3.2495999344609015E+00
N    9.6409984410092786E+00    4.3740412944362018E-02    5.2071688882348415E+00
Ga    9.6558694433625654E+00    1.9068144425651752E+00    5.8328733569121489E+00
N    9.6456955589885460E+00    1.9014713086913668E+00    7.8027653330092868E+00
Ga    9.6459740533532887E+00    3.4941567254470035E-02    8.3960661662625320E+00
N    9.6436133941891065E+00    3.1235123161487889E-02    1.0383611046648419E+01
Ga    9.6444599246521179E+00    1.9023520912594021E+00    1.0979375127305252E+01
N    9.6435060457092252E+00    1.9013528495417213E+00    1.2947427427168789E+01
Ga    9.6449550308046561E+00    3.2751962527844618E-02    1.3576510207451323E+01
N    9.6447108178836398E+00    6.1513330920454794E-02    1.5535451152394764E+01
Ga    9.6425693431984012E+00    1.9008176418478437E+00    1.5815401219483563E+01
N    7.9330802334000072E+00    4.6233881774886534E+00    2.4889159171684039E+00
Ga    8.1545274941657659E+00    2.7689165409566789E+00    3.2609952845989194E+00
N    8.0389319970918081E+00    2.8268384318692048E+00    5.2144926032667218E+00
Ga    8.0629421674384112E+00    4.7007656277310845E+00    5.7557012493420991E+00
N    8.0466539560640715E+00    4.6936337729108706E+00    7.7468898391829351E+00
Ga    8.0270505731242014E+00    2.8352995565283181E+00    8.3926871347772867E+00
N    8.0242579405738415E+00    2.8366507559452545E+00    1.0381744245766589E+01
Ga    8.0522986512011645E+00    4.6953758502918177E+00    1.1027227603618106E+01
N    8.0690970405416564E+00    4.7052724438906139E+00    1.3016178237459323E+01
Ga    8.0255328264403172E+00    2.8365907360187181E+00    1.3575931809024592E+01
N    8.0505706254304688E+00    2.8221011547020232E+00    1.5535099861250997E+01
Ga    7.8731239127889863E+00    4.5925960372870511E+00    1.6436609586093983E+01
N    6.3510076914315619E+00    7.4306659839904023E+00    2.4509250807216176E+00
Ga    6.4125020888229702E+00    5.7049576524683658E+00    3.2601428076418966E+00
N    6.4274210087061228E+00    5.6186257314581018E+00    5.2027477724437272E+00
Ga    6.4241193517965316E+00    7.4697706886824902E+00    5.8405658862030139E+00
N    6.4262656180039279E+00    7.4711580550238104E+00    7.8039209523291255E+00
Ga    6.4290059352199442E+00    5.6007606785702961E+00    8.4013546310505962E+00
N    6.4298504965964449E+00    5.6031380704831824E+00    1.0388043229162985E+01
Ga    6.4281581627780540E+00    7.4721818719615891E+00    1.0984753184046568E+01
N    6.4277179901314678E+00    7.4719310598643869E+00    1.2951270268519064E+01
Ga    6.4285299181478770E+00    5.6015347825515933E+00    1.3576026167514277E+01
N    6.4285607868615484E+00    5.6313926881676455E+00    1.5535309030634007E+01
Ga    6.4264157598560088E+00    7.4709988432375400E+00    1.5814211158024877E+01
N    4.7182205323434152E+00    1.0198481866677689E+01    2.4822002997593886E+00
Ga    4.8951190565368616E+00    8.3471960382240820E+00    3.2651564390548113E+00
N    4.8189885797047198E+00    8.4004728579249583E+00    5.2068427736596199E+00
Ga    4.8488025108611419E+00    1.0277103718914123E+01    5.7573693962838792E+00
N    4.8299765032179680E+00    1.0263565903280178E+01    7.7477698929512755E+00
Ga    4.8096432165134271E+00    8.4101600581793505E+00    8.4025261414969599E+00
N    4.8100914101050458E+00    8.4084732813250529E+00    1.0388655083154644E+01
Ga    4.8366016240675886E+00    1.0268035869150205E+01    1.1027361604644621E+01
N    4.8524997983998386E+00    1.0276808091526712E+01    1.3016270880248141E+01
Ga    4.8088436160460333E+00    8.4080537778999531E+00    1.3576604128489164E+01
N    4.8345103869280148E+00    8.3928161534420784E+00    1.5535618000014598E+01
Ga    4.6569382100789243E+00    1.0163199124975947E+01    1.6436949014540915E+01
O    5.3457809406105644E-02    3.6705444938036602E+00   -5.7617157231303540E-01
H   -3.7861075104647017E-03    7.4795722230073141E+00    1.6153848418938306E+00
C    1.1970282890999616E-01    2.3690503936798661E+00   -1.1782089208060758E+00
H    9.5920369954889906E-01    1.7669365929696030E+00   -7.9197076115843745E-01
H   -8.0916027174148319E-01    1.7943222319813059E+00   -1.0301486309140560E+00
H    2.6747450762579517E-01    2.5133084157879981E+00   -2.2587794459810535E+00
Ga    3.2225045746562695E+00    5.6155893021714602E+00    2.3359892220027900E+00
O    3.8710323382409633E+00    6.1437919465939119E+00    2.1557924610933943E-01
H    3.7260453355614835E+00    5.4630613084284301E+00   -4.6300849123792159E-01
C    5.2531551746030738E+00    6.6739184903370603E+00    9.2656652084057198E-02
H    5.2356369449419882E+00    7.4823151756954687E+00   -6.5233019576465501E-01
H    5.7148834676684377E+00    7.0555220479078615E+00    1.1394530989888312E+00
H    5.9151900683986529E+00    5.8769447057113160E+00   -2.8757752537473780E-01
     &END COORD
     &KIND C
       BASIS_SET DZVP-MOLOPT-SR-GTH-q4
       POTENTIAL GTH-PBE-q4
       &POTENTIAL
2 2
0.3384712400000000E+00 2 -0.8803673979999999E+01  0.1339210850000000E+01
2
0.3025757500000000E+00 1  0.9622486650000001E+01
0.2915069400000000E+00 0
       &END POTENTIAL
     &END KIND
     &KIND O
       BASIS_SET DZVP-MOLOPT-SR-GTH-q6
       POTENTIAL GTH-PBE-q6
       &POTENTIAL
2 4
0.2445543000000000E+00 2 -0.1666721480000000E+02  0.2487311320000000E+01
2
0.2209559200000000E+00 1  0.1833745811000000E+02
0.2113324700000000E+00 0
       &END POTENTIAL
     &END KIND
     &KIND H
       BASIS_SET DZVP-MOLOPT-SR-GTH-q1
       POTENTIAL GTH-PBE-q1
       &POTENTIAL
1
0.2000000000000000E+00 2 -0.4178900440000000E+01  0.7244633100000000E+00
0
       &END POTENTIAL
     &END KIND
     &KIND N
       BASIS_SET DZVP-MOLOPT-SR-GTH
       POTENTIAL GTH-PBE-q5
       &POTENTIAL
2 3
0.2837905100000000E+00 2 -0.1241522559000000E+02  0.1868095920000000E+01
2
0.2554050000000000E+00 1  0.1363026257000000E+02
0.2454945300000000E+00 0
       &END POTENTIAL
     &END KIND
     &KIND Ga
       BASIS_SET DZVP-MOLOPT-SR-GTH
       POTENTIAL GTH-PBE-q13
       &POTENTIAL
2 1 10
0.4900000000000000E+00 0
3
0.4167772300000000E+00 3  0.1047568975000000E+02 -0.4921768140000000E+01  0.8707055900000000E+00
0.7770178090000000E+01 -0.2248152160000000E+01
0.1784415450000000E+01
0.5696265200000000E+00 2  0.1777985340000000E+01  0.1958597600000000E+00
-0.2317443900000000E+00
0.2381265000000000E+00 1 -0.1624868022000000E+02
       &END POTENTIAL
     &END KIND
     &TOPOLOGY
       NUMBER_OF_ATOMS  212
       MULTIPLE_UNIT_CELL  1 1 1
     &END TOPOLOGY
     &COLVAR
       &DISTANCE
         ATOMS  176 211
       &END DISTANCE
       &PRINT
       &END PRINT
     &END COLVAR
   &END SUBSYS
 &END FORCE_EVAL
