 # Version information for this restart file 
 # current date 2019-07-16 08:21:15.620
 # current working dir /lustre04/scratch/rzk/rzk/GaN-carbene/443-adatoms-both-2x2/09-BondBreaking-CH/03-0501-CH-to-Nsur-PES/Phase02
 # Program compiled at                              Sun Apr  7 00:48:11 EDT 2019
 # Program compiled on                          beluga2.int.ets1.calculquebec.ca
 # Program compiled for                        Beluga-Linux-x86-64-intel-openmpi
 # Source code revision number                                         svn:18619
 &GLOBAL
   PRINT_LEVEL  MEDIUM
   PROJECT_NAME TEST
   RUN_TYPE  GEO_OPT
 &END GLOBAL
 &MOTION
   &GEO_OPT
     MAX_ITER  500
     !!STEP_START_VAL  153
   &END GEO_OPT
   &CONSTRAINT
     &COLLECTIVE
       COLVAR  1
       INTERMOLECULAR  T
       TARGET [angstrom] 1.00 ! [angstrom] 1.10 !     2.2676713594627715E+00
       &RESTRAINT
         K     2.0000000000000000E+00
       &END RESTRAINT
     &END COLLECTIVE
   &END CONSTRAINT
 &END MOTION
 &FORCE_EVAL
   METHOD  QS
   STRESS_TENSOR  ANALYTICAL
   &DFT
     BASIS_SET_FILE_NAME BASIS_MOLOPT
     POTENTIAL_FILE_NAME GTH_POTENTIALS
     UKS  T
     SURFACE_DIPOLE_CORRECTION  T
     SURF_DIP_DIR  Z
     &SCF
       MAX_SCF  80
       EPS_SCF     5.0000000000000004E-06
       &OT  T
         PRECONDITIONER  FULL_ALL
       &END OT
       &OUTER_SCF  T
         OPTIMIZER  NONE
         EPS_SCF     5.0000000000000004E-06
         MAX_SCF  4
       &END OUTER_SCF
       &PRINT
         &RESTART  OFF
           BACKUP_COPIES  1
           &EACH
             JUST_ENERGY  0
             QS_SCF  0
             MD  20
           &END EACH
         &END RESTART
       &END PRINT
     &END SCF
     &QS
       EPS_DEFAULT     1.0000000000000000E-14
       METHOD  GPW
     &END QS
     &MGRID
       NGRIDS  5
       CUTOFF     1.2000000000000000E+03
     &END MGRID
     &XC
       DENSITY_CUTOFF     1.0000000000000000E-10
       GRADIENT_CUTOFF     1.0000000000000000E-10
       TAU_CUTOFF     1.0000000000000000E-10
       &XC_FUNCTIONAL  NO_SHORTCUT
         &PBE  T
         &END PBE
       &END XC_FUNCTIONAL
       &VDW_POTENTIAL
         POTENTIAL_TYPE  PAIR_POTENTIAL
         &PAIR_POTENTIAL
           R_CUTOFF     1.0000000000000009E+01
           TYPE  DFTD3
           PARAMETER_FILE_NAME dftd3.dat
           REFERENCE_FUNCTIONAL PBE
           EPS_CN     9.9999999999999995E-07
           CALCULATE_C9_TERM  T
           REFERENCE_C9_TERM  T
           LONG_RANGE_CORRECTION  F
           VERBOSE_OUTPUT  F
         &END PAIR_POTENTIAL
       &END VDW_POTENTIAL
     &END XC
   &END DFT
   &SUBSYS
     &CELL
       A     1.2864472766435110E+01    0.0000000000000000E+00    0.0000000000000000E+00
       B    -6.4322363581020028E+00    1.1140960178524477E+01    0.0000000000000000E+00
       C     0.0000000000000000E+00    0.0000000000000000E+00    3.2000000000000000E+01
       MULTIPLE_UNIT_CELL  1 1 1
       &CELL_REF
         A     1.2982353780853531E+01    0.0000000000000000E+00    0.0000000000000000E+00
         B    -6.4911768904267628E+00    1.1243048175136114E+01    0.0000000000000000E+00
         C     0.0000000000000000E+00    0.0000000000000000E+00    3.2000000000000000E+01
         MULTIPLE_UNIT_CELL  1 1 1
       &END CELL_REF
     &END CELL
     &COORD
N   -4.1706451832015205E-02    2.0915311624280903E+00    2.4709405884273790E+00
Ga    1.5259515045353603E-03    1.4295052124896673E-01    2.8079991950576217E+00
N   -3.5254867323550626E-02    9.5160118508930136E-02    4.9796936003311201E+00
Ga   -2.9814692199971748E-02    1.9331430458172543E+00    5.7351531856190414E+00
N   -3.1965028587307903E-02    1.9447465873711327E+00    7.7454088495060667E+00
Ga   -2.9857499729928232E-02    1.0213287705197040E-01    8.3957102627399340E+00
N   -3.8632846358907312E-02    9.7852650593516416E-02    1.0371977203237126E+01
Ga   -3.5300638641514906E-02    1.9371229968280594E+00    1.1023881027474051E+01
N   -4.4171222435260719E-02    1.9155004442837551E+00    1.3020262050911148E+01
Ga   -4.4972852728205601E-02    9.4376177639960562E-02    1.3822533956775217E+01
N   -4.9791836720342049E-02    8.9975749836864238E-02    1.6025946076229932E+01
Ga   -5.0396513950829606E-02    2.1250554297191360E+00    1.6432150966767203E+01
Ga   -5.3558978703876922E-02    3.7867538589219594E+00    1.2951642745581426E+00
N   -1.5210327286641430E+00    4.6739489799277365E+00    2.4804425909359158E+00
Ga   -1.7379128814026488E+00    2.8408653898095184E+00    3.2038232612086004E+00
N   -1.6540075613214753E+00    2.8734945055154966E+00    5.1940853652753072E+00
Ga   -1.6682034964781443E+00    4.7353492616640356E+00    5.7852711182000256E+00
N   -1.6459241738115553E+00    4.7399206141172323E+00    7.7779317236702150E+00
Ga   -1.6277413385763191E+00    2.8820853566483269E+00    8.4012923442341219E+00
N   -1.6329833733683579E+00    2.8880037524785989E+00    1.0394677753879190E+01
Ga   -1.6617998629885358E+00    4.7470715778027905E+00    1.1029427814016673E+01
N   -1.6845773203656398E+00    4.7556551774979932E+00    1.3024974027430668E+01
Ga   -1.6426796693038765E+00    2.8862862312751871E+00    1.3576136073871362E+01
N   -1.6738391110903934E+00    2.8696082083393213E+00    1.5540421869620072E+01
Ga   -1.4981555508704483E+00    4.6409596780809119E+00    1.6432236860997499E+01
N   -4.2992103426912572E-02    3.8002009466700741E+00    1.7566197039884834E+01
N   -3.2359254141225584E+00    7.6301668478175237E+00    2.4819811554467686E+00
Ga   -3.2241317431621694E+00    5.6488361523489337E+00    2.8857306469710764E+00
N   -3.2269387904948288E+00    5.6756112048046816E+00    5.0501229561580079E+00
Ga   -3.2463361262052537E+00    7.4885629773321591E+00    5.7891483998680648E+00
N   -3.2480465039356607E+00    7.5198659910629919E+00    7.7767265854379595E+00
Ga   -3.2509159587444127E+00    5.6661244851016468E+00    8.4068773469343423E+00
N   -3.2536473472626062E+00    5.6689332313981149E+00    1.0382381336615493E+01
Ga   -3.2565246916851556E+00    7.5086040426166534E+00    1.1028526919042895E+01
N   -3.2623440090746141E+00    7.4879416077377501E+00    1.3023650449106995E+01
Ga   -3.2624228837056743E+00    5.6665506434249364E+00    1.3822412442150247E+01
N   -3.2659241892008186E+00    5.6617629770020415E+00    1.6026576994466197E+01
Ga   -3.2684574309645842E+00    7.7004602798485120E+00    1.6437808025092362E+01
Ga   -3.2341355243080421E+00    9.4107159072668178E+00    1.2335574389000898E+00
N   -4.7597254047596529E+00    1.0248613502615573E+01    2.4776706648083375E+00
Ga   -4.8505478835294342E+00    8.4418549225454278E+00    3.2499823084619153E+00
N   -4.8605795124792177E+00    8.4439815387890622E+00    5.2045048490528583E+00
Ga   -4.8766137387654780E+00    1.0331445684176732E+01    5.7475916758150118E+00
N   -4.8661391727143730E+00    1.0315471210545629E+01    7.7478211675240907E+00
Ga   -4.8492753556764736E+00    8.4637971722026482E+00    8.3973398907080270E+00
N   -4.8530832072021148E+00    8.4609695462670338E+00    1.0390097882600443E+01
Ga   -4.8770263313736733E+00    1.0321768495210280E+01    1.1021820121708352E+01
N   -4.9012309936120175E+00    1.0326777627819000E+01    1.3017868230901593E+01
Ga   -4.8605390831927728E+00    8.4587107179780840E+00    1.3576290072300170E+01
N   -4.8921878494414912E+00    8.4398413097538452E+00    1.5539765814701502E+01
Ga   -4.7116118843054906E+00    1.0208910817605997E+01    1.6438958142066152E+01
N   -3.2595187185249608E+00    9.3713468299811495E+00    1.7572829064280960E+01
N    3.1975782205596013E+00    1.9576636305163309E+00    2.5617913216966941E+00
Ga    3.1923657088789903E+00    1.9645656489662192E-01    3.2015105556627774E+00
N    3.1892419104058778E+00    9.4883591000427078E-02    5.1932163655402190E+00
Ga    3.2132999515832283E+00    1.9699790045652144E+00    5.7620725117035416E+00
N    3.1934267715237539E+00    1.9596121751272035E+00    7.7681178986497823E+00
Ga    3.1813528777869879E+00    9.9153952369194720E-02    8.3790330817000687E+00
N    3.1772059095782428E+00    8.7602985637064507E-02    1.0380053965800482E+01
Ga    3.1792036644374315E+00    1.9530782123512016E+00    1.0979583983929279E+01
N    3.1714598381835168E+00    1.9510420485768223E+00    1.2953974496394832E+01
Ga    3.1692554068628120E+00    8.1850394856394282E-02    1.3576398501980492E+01
N    3.1623210781374467E+00    1.0958590695724098E-01    1.5539724833180051E+01
Ga    3.1656382214449614E+00    1.9473186540816887E+00    1.5819371537310817E+01
N    1.4355468650616556E+00    4.6851496556116592E+00    2.4749195694414992E+00
Ga    1.6649323566652301E+00    2.8390113598324120E+00    3.2030258373392622E+00
N    1.5828290293631433E+00    2.8845600430910130E+00    5.1934427682795024E+00
Ga    1.5963075860846259E+00    4.7370986771955135E+00    5.7763348065169602E+00
N    1.5850285195037415E+00    4.7457120592201383E+00    7.7671891056365876E+00
Ga    1.5745948188082621E+00    2.8790329760048130E+00    8.3775202934116493E+00
N    1.5623959302024548E+00    2.8856290601854617E+00    1.0380350544996531E+01
Ga    1.5891454257502000E+00    4.7413483247169248E+00    1.1025765741488241E+01
N    1.5966710012432419E+00    4.7532175280538373E+00    1.3022953463611268E+01
Ga    1.5521798979237058E+00    2.8849075752731741E+00    1.3576383182658047E+01
N    1.5732396711297461E+00    2.8666504657239162E+00    1.5542431625672368E+01
Ga    1.4028214427125980E+00    4.6442689101735066E+00    1.6432133477746781E+01
N   -4.4965554588327288E-02    7.5034016926783593E+00    2.6818415592123843E+00
Ga   -5.6273041316896442E-02    5.6377404915836058E+00    3.3031541971987113E+00
N   -3.3495358840938322E-02    5.6765091314722502E+00    5.2425272668219955E+00
Ga   -4.5328394985504977E-02    7.5121592456114819E+00    5.8853905103662907E+00
N   -3.3231112487826779E-02    7.5233703870743209E+00    7.8410012463180747E+00
Ga   -3.1119992026967098E-02    5.6484471174806741E+00    8.4156409955475446E+00
N   -3.5088343292205289E-02    5.6540283193895098E+00    1.0403954352532258E+01
Ga   -3.7097437742966151E-02    7.5233154471850616E+00    1.0993776920976957E+01
N   -4.4398722009652294E-02    7.5217167196374550E+00    1.2963945184864935E+01
Ga   -4.3857482200613654E-02    5.6502572794022452E+00    1.3577467073296562E+01
N   -5.1786334328715281E-02    5.6792451841765699E+00    1.5541928955273955E+01
Ga   -5.2446622795133450E-02    7.5189491392824754E+00    1.5819331105646635E+01
N   -1.7281392107439308E+00    1.0232743406884282E+01    2.5094708309856051E+00
Ga   -1.6559810660622183E+00    8.4434119794879336E+00    3.2855444485608611E+00
N   -1.6276565699080050E+00    8.4414146552744143E+00    5.2295466100204084E+00
Ga   -1.6252398184852770E+00    1.0324010431241245E+01    5.7777126044895413E+00
N   -1.6324519180185715E+00    1.0311591537454330E+01    7.7688097804201890E+00
Ga   -1.6533291120215616E+00    8.4635443864422903E+00    8.4179575267574478E+00
N   -1.6551950031381524E+00    8.4604460290402770E+00    1.0404919848726166E+01
Ga   -1.6344142862524524E+00    1.0323350649820174E+01    1.1026014084804929E+01
N   -1.6223086587628435E+00    1.0327228226147412E+01    1.3021622816236929E+01
Ga   -1.6656894815384242E+00    8.4578063045067662E+00    1.3577481501872885E+01
N   -1.6442014483006095E+00    8.4359125086812110E+00    1.5541909179604417E+01
Ga   -1.8159863183458418E+00    1.0212416585487121E+01    1.6435798749238423E+01
N    6.4835901353677770E+00    1.9576961178073917E+00    2.4550074026185271E+00
Ga    6.3713511271318026E+00    7.7559297192564533E-02    2.9429562909952081E+00
N    6.4054623343367441E+00    7.5160889230309433E-02    5.0422329838894928E+00
Ga    6.3888026706244148E+00    1.9402386105691634E+00    5.7410632726895621E+00
N    6.3949527600056992E+00    1.9447572561792001E+00    7.7484423925522705E+00
Ga    6.3952726769807660E+00    1.0410216571524686E-01    8.4050978465619988E+00
N    6.3947335193722470E+00    9.8830846851770668E-02    1.0378516628846036E+01
Ga    6.3933914470656630E+00    1.9408545239332637E+00    1.1023606307448707E+01
N    6.3872401471728537E+00    1.9171819242948978E+00    1.3018347045803354E+01
Ga    6.3875438714503803E+00    9.5776528211983292E-02    1.3818998112579168E+01
N    6.3838936900469978E+00    9.0685190984290759E-02    1.6021450254093715E+01
Ga    6.3814203336060853E+00    2.1253570846719096E+00    1.6430322001750330E+01
Ga    7.5708365400840725E+00    2.2468203809763061E+00    6.7587331675266826E-01
N    4.7904763285095635E+00    4.7636405300285025E+00    2.4894142404834954E+00
Ga    4.8012937986126589E+00    2.8217102192136729E+00    3.0283862801046233E+00
N    4.8147161711280422E+00    2.8912674728578036E+00    5.0929447894110584E+00
Ga    4.7821461366823748E+00    4.7332995399662092E+00    5.7217271915628514E+00
N    4.7847306446101170E+00    4.7437149020785458E+00    7.7304543351626123E+00
Ga    4.7975147462943433E+00    2.8880452405082435E+00    8.3838134549975454E+00
N    4.7962912051452422E+00    2.8906517871860724E+00    1.0383260875365030E+01
Ga    4.7719097497160190E+00    4.7454224046333104E+00    1.1026902106657229E+01
N    4.7482511983236941E+00    4.7548884469288897E+00    1.3021323945933725E+01
Ga    4.7891237570211160E+00    2.8867036009763951E+00    1.3574758210539059E+01
N    4.7566753690668637E+00    2.8691865834699350E+00    1.5537867085486660E+01
Ga    4.9363048928532960E+00    4.6393213393057184E+00    1.6432770768331636E+01
N    6.3886454882450820E+00    3.7983080942484038E+00    1.7566130707344350E+01
N    3.1700829821823251E+00    7.6511947636175544E+00    2.5085281010927134E+00
N    3.1678274738234458E+00    5.6772263055961716E+00    5.0128091734723323E+00
Ga    3.1874758415086433E+00    7.4846792330547638E+00    5.7931054696821116E+00
N    3.1854464571622634E+00    7.5148460017396923E+00    7.7697731135425201E+00
Ga    3.1901871560853921E+00    5.6594541364930402E+00    8.4004192474036046E+00
N    3.1810784440936315E+00    5.6663071311627444E+00    1.0375648391073328E+01
Ga    3.1818372278851141E+00    7.5032447420396480E+00    1.1030343276101073E+01
N    3.1718965881851711E+00    7.4857455191627187E+00    1.3023669760219370E+01
Ga    3.1716616446906660E+00    5.6650790975033631E+00    1.3827472623261892E+01
N    3.1682574024588392E+00    5.6624030891606205E+00    1.6020998773858494E+01
Ga    3.1641236552260965E+00    7.7054116133900319E+00    1.6436737608229151E+01
Ga    3.1793172796846774E+00    9.4025052850686865E+00    1.4975338652305918E+00
N    1.6703186536591985E+00    1.0225894221376217E+01    2.5109331167607580E+00
Ga    1.5257886962521363E+00    8.4275727159489495E+00    3.3263522425839045E+00
N    1.5631763294640253E+00    8.4405226822251702E+00    5.2454009744602814E+00
Ga    1.5526005343876936E+00    1.0327305020455560E+01    5.8032407069351564E+00
N    1.5705935081019589E+00    1.0310408347044458E+01    7.7818595456814945E+00
Ga    1.5875297927236924E+00    8.4566668930488316E+00    8.4200673354696551E+00
N    1.5844413743108439E+00    8.4575721237105466E+00    1.0404010130487764E+01
Ga    1.5551542613140650E+00    1.0320684598551892E+01    1.1028828059566978E+01
N    1.5316228605238336E+00    1.0326806831916656E+01    1.3022147187430843E+01
Ga    1.5740830023344170E+00    8.4578868173681698E+00    1.3578031392985384E+01
N    1.5390392635646708E+00    8.4384439689946618E+00    1.5539594641699400E+01
Ga    1.7222218172961452E+00    1.0207898662225560E+01    1.6437465552383077E+01
N    3.1709615006296450E+00    9.3713088975419474E+00    1.7572697095185184E+01
N    9.5489549413710275E+00    1.9736546478085584E+00    2.5596315845745052E+00
Ga    9.5916995160801406E+00    2.3770121926806220E-01    3.2659964894257256E+00
N    9.6135043965499598E+00    9.2981865888184093E-02    5.2196094601518812E+00
Ga    9.6140282574899203E+00    1.9618756525747010E+00    5.8377156263526322E+00
N    9.6157352581983595E+00    1.9528520039631436E+00    7.8163406717117212E+00
Ga    9.6201012313338250E+00    8.9545077407217302E-02    8.4065289342262606E+00
N    9.6122562733095336E+00    8.4518727131920601E-02    1.0395763281847037E+01
Ga    9.6086920615684512E+00    1.9567757645368857E+00    1.0982579207931575E+01
N    9.6035984836958388E+00    1.9540420955550621E+00    1.2955607603869932E+01
Ga    9.6034006322964753E+00    8.4916971155256094E-02    1.3576265124517144E+01
N    9.5971859712542020E+00    1.1246215951645964E-01    1.5539184117776024E+01
Ga    9.5978715973794095E+00    1.9496235202335679E+00    1.5819394155269700E+01
N    8.0095401535787403E+00    4.7063737824232543E+00    2.4897672022947899E+00
Ga    8.0410752339056977E+00    2.9359051059625867E+00    3.2640119397340492E+00
N    8.0102827712364029E+00    2.8865162895719387E+00    5.2331304657529056E+00
Ga    8.0332053526403779E+00    4.7626839662901119E+00    5.7568593145075715E+00
N    8.0121513221126737E+00    4.7502930660853959E+00    7.7597780842715371E+00
Ga    7.9928237941209455E+00    2.8896101573886428E+00    8.3866139049450705E+00
N    7.9911238734970143E+00    2.8902410581072178E+00    1.0386799363931235E+01
Ga    8.0156323627769339E+00    4.7478506686878434E+00    1.1024430394639921E+01
N    8.0263056136713615E+00    4.7576203653341445E+00    1.3020234181606597E+01
Ga    7.9845998766487787E+00    2.8889302522290663E+00    1.3575344455330866E+01
N    8.0066995151072913E+00    2.8704831581204346E+00    1.5538892062458881E+01
Ga    7.8337898088739708E+00    4.6445394475394952E+00    1.6434492374145719E+01
N    6.4191125274907810E+00    7.5089384528795886E+00    2.6429698396185817E+00
Ga    6.4732208605506365E+00    5.6119529924463905E+00    3.1557376870884313E+00
N    6.3987776479799248E+00    5.6703216878325229E+00    5.1431596676568239E+00
Ga    6.4130274063117945E+00    7.4980838942137344E+00    5.8315459705365740E+00
N    6.4005620657449684E+00    7.5196963891571444E+00    7.8005993317729994E+00
Ga    6.3957849818906487E+00    5.6516880829054301E+00    8.3946113232927146E+00
N    6.3915888450729019E+00    5.6559128372468299E+00    1.0389012228774389E+01
Ga    6.3957567170895162E+00    7.5233766654593177E+00    1.0982283733159756E+01
N    6.3873155339273104E+00    7.5228655882041986E+00    1.2955340179853980E+01
Ga    6.3861798164507979E+00    5.6540072587895027E+00    1.3575827594777881E+01
N    6.3807236531041305E+00    5.6812555721161448E+00    1.5539972570093889E+01
Ga    6.3807208576257999E+00    7.5207922925859414E+00    1.5819741317204322E+01
N    4.6811875349186662E+00    1.0247530267728617E+01    2.4937068147191361E+00
Ga    4.8536958574111386E+00    8.4142821188129027E+00    3.2889265515723669E+00
N    4.8013760771305272E+00    8.4441153249777976E+00    5.2149008725696291E+00
Ga    4.8272211675312260E+00    1.0333482600730790E+01    5.7651694142850278E+00
N    4.8014367343295739E+00    1.0312568089221708E+01    7.7572169290703616E+00
Ga    4.7888426509996220E+00    8.4590469989139585E+00    8.4009610232074934E+00
N    4.7771853930970787E+00    8.4587864146090652E+00    1.0390698680364483E+01
Ga    4.8025470834603263E+00    1.0319413495157756E+01    1.1027458216159832E+01
N    4.8108897804299060E+00    1.0326886397617130E+01    1.3020941299471065E+01
Ga    4.7682543185673651E+00    8.4582825718246202E+00    1.3575921270404377E+01
N    4.7899804864551552E+00    8.4393457885636476E+00    1.5539507507533942E+01
Ga    4.6115367470017787E+00    1.0211375902730348E+01    1.6438745272003345E+01
O   -1.0484764806034916E-01    3.8150833392419385E+00   -5.1980877302465189E-01
H   -3.9948539895089168E-02    7.4943123623821011E+00    1.6554986495696762E+00
C   -4.0560645230141812E-01    2.5780043278114340E+00   -1.1861026394077077E+00
H    1.9986477070669750E-01    1.7369963866689926E+00   -8.1006056338393218E-01
H   -1.4695889849979111E+00    2.3072508863194940E+00   -1.0925388351381504E+00
H   -1.7552217317324859E-01    2.7148188400616320E+00   -2.2529956332225325E+00
Ga    3.0872766396947977E+00    5.6602721304187495E+00    2.9303422642244286E+00
O    6.5495116359284413E+00    6.5091724546826786E+00   -6.9504237824827897E-02
H    4.8836206792827994E+00    4.7922976029853031E+00    1.4651812003012112E+00
C    7.5062124454047403E+00    5.7555268319599362E+00   -2.5949253910660836E-01
H    8.5211012728939863E+00    5.9748890377636323E+00    1.1014275559533666E-01
H    6.4383685354505387E+00    7.4610589147534974E+00    1.4526374138903084E+00
H    7.3800883304994080E+00    4.8310888772899450E+00   -8.5286813627323166E-01
     &END COORD
     &KIND C
       BASIS_SET DZVP-MOLOPT-SR-GTH-q4
       POTENTIAL GTH-PBE-q4
       &POTENTIAL
2 2
0.3384712400000000E+00 2 -0.8803673979999999E+01  0.1339210850000000E+01
2
0.3025757500000000E+00 1  0.9622486650000001E+01
0.2915069400000000E+00 0
       &END POTENTIAL
     &END KIND
     &KIND O
       BASIS_SET DZVP-MOLOPT-SR-GTH-q6
       POTENTIAL GTH-PBE-q6
       &POTENTIAL
2 4
0.2445543000000000E+00 2 -0.1666721480000000E+02  0.2487311320000000E+01
2
0.2209559200000000E+00 1  0.1833745811000000E+02
0.2113324700000000E+00 0
       &END POTENTIAL
     &END KIND
     &KIND H
       BASIS_SET DZVP-MOLOPT-SR-GTH-q1
       POTENTIAL GTH-PBE-q1
       &POTENTIAL
1
0.2000000000000000E+00 2 -0.4178900440000000E+01  0.7244633100000000E+00
0
       &END POTENTIAL
     &END KIND
     &KIND N
       BASIS_SET DZVP-MOLOPT-SR-GTH
       POTENTIAL GTH-PBE-q5
       &POTENTIAL
2 3
0.2837905100000000E+00 2 -0.1241522559000000E+02  0.1868095920000000E+01
2
0.2554050000000000E+00 1  0.1363026257000000E+02
0.2454945300000000E+00 0
       &END POTENTIAL
     &END KIND
     &KIND Ga
       BASIS_SET DZVP-MOLOPT-SR-GTH
       POTENTIAL GTH-PBE-q13
       &POTENTIAL
2 1 10
0.4900000000000000E+00 0
3
0.4167772300000000E+00 3  0.1047568975000000E+02 -0.4921768140000000E+01  0.8707055900000000E+00
0.7770178090000000E+01 -0.2248152160000000E+01
0.1784415450000000E+01
0.5696265200000000E+00 2  0.1777985340000000E+01  0.1958597600000000E+00
-0.2317443900000000E+00
0.2381265000000000E+00 1 -0.1624868022000000E+02
       &END POTENTIAL
     &END KIND
     &TOPOLOGY
       NUMBER_OF_ATOMS  212
       MULTIPLE_UNIT_CELL  1 1 1
     &END TOPOLOGY
     &COLVAR
       &DISTANCE
         ATOMS  176 211
       &END DISTANCE
       &PRINT
       &END PRINT
     &END COLVAR
   &END SUBSYS
 &END FORCE_EVAL
