 # Version information for this restart file 
 # current date 2019-05-25 04:55:27.575
 # current working dir /lustre03/project/6004141/rzk/GaN-carbene/00-Surface/00-Preoptimization/443-capped
 # Program compiled at                              Sun Apr  7 00:48:11 EDT 2019
 # Program compiled on                          beluga2.int.ets1.calculquebec.ca
 # Program compiled for                        Beluga-Linux-x86-64-intel-openmpi
 # Source code revision number                                         svn:18619
 &GLOBAL
   PRINT_LEVEL  MEDIUM
   PROJECT_NAME _PR1_
   RUN_TYPE  GEO_OPT
 &END GLOBAL
 &MOTION
   &GEO_OPT
     MAX_ITER 500
   &END GEO_OPT
   &CONSTRAINT
     &COLLECTIVE
       INTERMOLECULAR T
       COLVAR 1
       &RESTRAINT
         K=2.0
       &END
       TARGET [angstrom] _D1_
     &END
   &END
 &END MOTION
 &FORCE_EVAL
   METHOD  QS
   STRESS_TENSOR  ANALYTICAL
   &DFT
     UKS  T
     SURFACE_DIPOLE_CORRECTION  TRUE
     SURF_DIP_DIR               Z
     BASIS_SET_FILE_NAME BASIS_MOLOPT
     POTENTIAL_FILE_NAME GTH_POTENTIALS
     &SCF
       MAX_SCF  80
       EPS_SCF     5.0000000000000004E-06
       &OT  T
         PRECONDITIONER  FULL_ALL
       &END OT
       &OUTER_SCF  T
         OPTIMIZER  NONE
         EPS_SCF     5.0000000000000004E-06
         MAX_SCF  4
       &END OUTER_SCF
       &PRINT
         &RESTART  OFF
           BACKUP_COPIES  1
           &EACH
             JUST_ENERGY  0
             QS_SCF  0
             MD  20
           &END EACH
         &END RESTART
       &END PRINT
     &END SCF
     &QS
       EPS_DEFAULT     1.0000000000000000E-14
       METHOD  GPW
     &END QS
     &MGRID
       NGRIDS  5
       CUTOFF     1.2000000000000000E+03
     &END MGRID
     &XC
       DENSITY_CUTOFF     1.0000000000000000E-10
       GRADIENT_CUTOFF     1.0000000000000000E-10
       TAU_CUTOFF     1.0000000000000000E-10
       &XC_FUNCTIONAL  NO_SHORTCUT
         &PBE  T
         &END PBE
       &END XC_FUNCTIONAL
       &VDW_POTENTIAL
         POTENTIAL_TYPE  PAIR_POTENTIAL
         &PAIR_POTENTIAL
           R_CUTOFF     1.0000000000000002E+01
           TYPE  DFTD3
           PARAMETER_FILE_NAME dftd3.dat
           REFERENCE_FUNCTIONAL PBE
           EPS_CN     9.9999999999999995E-07
           CALCULATE_C9_TERM  T
           REFERENCE_C9_TERM  T
           LONG_RANGE_CORRECTION  F
           VERBOSE_OUTPUT  F
         &END PAIR_POTENTIAL
       &END VDW_POTENTIAL
     &END XC
   &END DFT
   &SUBSYS
     &CELL
       A     1.2864472766435110E+01    0.0000000000000000E+00    0.0000000000000000E+00
       B    -6.4322363581020028E+00    1.1140960178524471E+01    0.0000000000000000E+00
       #A     1.2982353780853531E+01    0.0000000000000000E+00    0.0000000000000000E+00
       #B    -6.4911768904267628E+00    1.1243048175136114E+01    0.0000000000000000E+00
       C     0.0000000000000000E+00    0.0000000000000000E+00    3.2000000000000000E+01
       MULTIPLE_UNIT_CELL  1 1 1
       &CELL_REF
         A     1.2982353780853531E+01    0.0000000000000000E+00    0.0000000000000000E+00
         B    -6.4911768904267628E+00    1.1243048175136114E+01    0.0000000000000000E+00
         C     0.0000000000000000E+00    0.0000000000000000E+00    3.2000000000000000E+01
         MULTIPLE_UNIT_CELL  1 1 1
       &END CELL_REF
     &END CELL
     &COORD
  N         0.0026614265        2.0464558448        2.4613563764
 Ga         0.0194413195        0.0890531115        2.7980074653
  N        -0.0077512825        0.0506369014        4.9761371876
 Ga         0.0045644611        1.8830351186        5.7458195941
  N        -0.0007833065        1.8914933238        7.7521894074
 Ga         0.0013918722        0.0463704801        8.3951115001
  N        -0.0025496542        0.0452250401       10.3738372905
 Ga        -0.0024158895        1.8839959208       11.0254377315
  N        -0.0041344521        1.8645026762       13.0248546172
 Ga        -0.0053791128        0.0395804761       13.8221481123
  N        -0.0045408245        0.0385493698       16.0288293087
 Ga        -0.0046227240        2.0561415992       16.4157206660
 Ga        -0.0138911079        3.7135164906        1.2597156511
  N        -1.4721364774        4.6223745835        2.4453462081
 Ga        -1.6660883771        2.7926881191        3.2258998851
  N        -1.6113266150        2.8323947929        5.2091744533
 Ga        -1.6319159082        4.6987374999        5.7571451675
  N        -1.6179671956        4.6954865856        7.7561323162
 Ga        -1.5964798459        2.8363286825        8.3933002105
  N        -1.5992961915        2.8374053399       10.3905019909
 Ga        -1.6273423376        4.6957795788       11.0268674123
  N        -1.6444101390        4.7059746080       13.0245604033
 Ga        -1.6013477547        2.8368118338       13.5756037250
  N        -1.6249666920        2.8263260554       15.5461769297
 Ga        -1.4703708262        4.6058269841       16.4166953225
  N         0.0047037747        3.7539435000       17.5394716378
  N        -3.2309566763        7.5760140522        2.4523493113
 Ga        -3.1817665328        5.6022409303        2.8015062574
  N        -3.2142102119        5.6077647386        4.9789732468
 Ga        -3.2354920671        7.4376158846        5.7399200563
  N        -3.2225081792        7.4631954383        7.7421775692
 Ga        -3.2179123759        5.6177988546        8.3986572393
  N        -3.2190624964        5.6168315029       10.3753924199
 Ga        -3.2211352886        7.4560099674       11.0258331207
  N        -3.2206770726        7.4372451233       13.0204646857
 Ga        -3.2234006248        5.6181744789       13.8183272644
  N        -3.2236458104        5.6179246341       16.0285609016
 Ga        -3.2217551191        7.6624823453       16.4409647926
 Ga        -3.2534493092        9.3531807388        1.2534020472
  N        -4.7400969524       10.1885475946        2.4594107491
 Ga        -4.9409167052        8.3341679741        3.1675378311
  N        -4.8416659721        8.3895825846        5.1614709791
 Ga        -4.8563208795       10.2640407880        5.7282093341
  N        -4.8380430402       10.2581358589        7.7382113557
 Ga        -4.8184445431        8.4083686900        8.3908145181
  N        -4.8164114547        8.4075439479       10.3860228720
 Ga        -4.8421263056       10.2665955466       11.0235868128
  N        -4.8594528318       10.2756138516       13.0193778816
 Ga        -4.8180172657        8.4079042840       13.5782053162
  N        -4.8439293702        8.3921599579       15.5397434522
 Ga        -4.6635599637       10.1612429111       16.4411245209
  N        -3.2109603718        9.3312749731       17.5763810686
  N         3.2050823339        1.8980187413        2.5701490631
 Ga         3.1972917517        0.1327368246        3.2068263968
  N         3.2106151054        0.0413161057        5.1908823321
 Ga         3.2008281849        1.9002021845        5.8166824744
  N         3.2111502180        1.9003076406        7.8001367815
 Ga         3.2081319907        0.0333260819        8.3835141879
  N         3.2117922408        0.0316579525       10.3831860293
 Ga         3.2123867396        1.8998861099       10.9822280385
  N         3.2110567648        1.9017716768       12.9578407523
 Ga         3.2111281205        0.0319675772       13.5786708680
  N         3.2072610456        0.0650453683       15.5410625274
 Ga         3.2123109833        1.9018422000       15.8215440740
  N         1.4907224342        4.6337871525        2.3809845420
 Ga         1.6848080797        2.8037826772        3.2056956913
  N         1.6078664713        2.8415202929        5.1915080471
 Ga         1.6545716006        4.7070211282        5.7603184310
  N         1.6096495906        4.6921166508        7.7673058646
 Ga         1.5957523078        2.8351029607        8.3933790155
  N         1.5943246945        2.8359208881       10.3923334241
 Ga         1.6211771770        4.6952219190       11.0273589716
  N         1.6367169802        4.7064236474       13.0263925582
 Ga         1.5929349410        2.8369885736       13.5750950384
  N         1.6156245693        2.8242426463       15.5472974661
 Ga         1.4704025630        4.6115195928       16.4157460418
  N        -0.0158778438        7.4692609541        2.6502936067
 Ga         0.0199848085        5.6024244771        3.2580323665
  N         0.0051111328        5.6277520755        5.1998804565
 Ga        -0.0132698255        7.4622517605        5.8582032747
  N        -0.0060356646        7.4714893447        7.8187569434
 Ga        -0.0019756408        5.5997479534        8.4053882981
  N        -0.0039529412        5.6037164093       10.3978400822
 Ga        -0.0051988648        7.4732295595       10.9878756158
  N        -0.0051130019        7.4720866176       12.9605119118
 Ga        -0.0041499722        5.6034362243       13.5757835600
  N        -0.0066718042        5.6295781018       15.5463330574
 Ga        -0.0033287149        7.4750477904       15.8207920420
  N        -1.7124190357       10.1918651286        2.4691269372
 Ga        -1.6347002056        8.3933006412        3.2573934669
  N        -1.6046114791        8.3905665648        5.1993221518
 Ga        -1.5944460538       10.2748170080        5.7540722252
  N        -1.6025548156       10.2602811769        7.7506034738
 Ga        -1.6277330958        8.4068474503        8.3963469066
  N        -1.6239914273        8.4071764797       10.3895287892
 Ga        -1.5995068856       10.2669055885       11.0272920104
  N        -1.5808338625       10.2763855302       13.0230050215
 Ga        -1.6243220974        8.4081361079       13.5796310628
  N        -1.5979931705        8.3879680673       15.5425654639
 Ga        -1.7680055297       10.1683715827       16.4397246736
  N         6.4368786531        2.0160250598        2.5156554817
 Ga         6.4051456604        0.0424640702        2.8438319510
  N         6.4309950776        0.0438573825        4.9909848122
 Ga         6.4260778184        1.8763043631        5.7673682515
  N         6.4292726995        1.8891694831        7.7624690505
 Ga         6.4250842853        0.0446448975        8.4065776310
  N         6.4272997974        0.0441693215       10.3799221254
 Ga         6.4278925846        1.8845944199       11.0287562808
  N         6.4285088783        1.8651622482       13.0245107588
 Ga         6.4303569496        0.0439406367       13.8303280240
  N         6.4300901823        0.0436882129       16.0283262737
 Ga         6.4275973250        2.0798566944       16.4377737459
 Ga         6.4554557984        3.7243724605        1.5041161785
  N         4.9408493524        4.5998204267        2.4803750701
 Ga         4.7021751669        2.7657265516        3.2648185824
  N         4.8209000878        2.8295041638        5.2199458664
 Ga         4.7796774156        4.7092091117        5.7634688019
  N         4.8172657290        4.6899704984        7.7690940934
 Ga         4.8273260037        2.8337054247        8.3953218685
  N         4.8308836418        2.8347317961       10.3921136793
 Ga         4.8057552025        4.6953165702       11.0253730645
  N         4.7893163073        4.7057464091       13.0215018681
 Ga         4.8309925383        2.8375606713       13.5776389243
  N         4.8005512879        2.8245027525       15.5407682602
 Ga         4.9853862555        4.5931032499       16.4393656818
  N         6.4313339634        3.7491157714       17.5734914982
  N         3.1950844638        7.6208636292        2.4949249489
  N         3.2182334078        5.6210105507        5.0365300579
 Ga         3.2182315794        7.4177006182        5.7746595993
  N         3.2114773527        7.4698650660        7.7723202866
 Ga         3.2133315147        5.6146059034        8.4014584528
  N         3.2126672024        5.6165176309       10.3802117956
 Ga         3.2134646097        7.4556032235       11.0290168077
  N         3.2124830024        7.4381616897       13.0225285186
 Ga         3.2166840068        5.6208347014       13.8224057631
  N         3.2178751374        5.6202464760       16.0293384363
 Ga         3.2129442350        7.6773579021       16.4599442351
 Ga         3.2279198117        9.3639911299        1.4848217809
  N         1.7042737176       10.1937591707        2.4977645912
 Ga         1.5640716370        8.3783065243        3.3125336773
  N         1.5904442286        8.3955249238        5.2304238571
 Ga         1.5771730192       10.2792009428        5.7779373205
  N         1.5945212736       10.2626145652        7.7654550010
 Ga         1.6142419125        8.4071459034        8.4080556936
  N         1.6135168943        8.4081158301       10.3977222417
 Ga         1.5889609635       10.2676205748       11.0321619718
  N         1.5728552383       10.2766486096       13.0244281305
 Ga         1.6157767554        8.4084182132       13.5833325501
  N         1.5863019430        8.3897108291       15.5418293522
 Ga         1.7800444162       10.1566375078       16.4596944428
  N         3.2142034492        9.3290819391       17.6074178094
  N         9.6621008162        1.9112323880        2.5809670373
 Ga         9.6565754701        0.1787065057        3.2662609272
  N         9.6431160364        0.0440669018        5.2218530316
 Ga         9.6577481787        1.9079044164        5.8420106684
  N         9.6469855178        1.9018913172        7.8151162856
 Ga         9.6474423573        0.0348217326        8.4012249752
  N         9.6445756851        0.0323854805       10.3933786373
 Ga         9.6460883350        1.9026073534       10.9839465996
  N         9.6457467466        1.9033717655       12.9579843142
 Ga         9.6447740958        0.0324710626       13.5828268194
  N         9.6456937301        0.0668556489       15.5413528553
 Ga         9.6432322107        1.9006610515       15.8213943667
  N         7.9357040275        4.6215526242        2.4995125225
 Ga         8.1579519761        2.7701294213        3.2751530436
  N         8.0409325666        2.8274082586        5.2285337895
 Ga         8.0661727961        4.7032409435        5.7617494568
  N         8.0474121521        4.6934184490        7.7585898053
 Ga         8.0278707971        2.8360384370        8.3978759602
  N         8.0259290083        2.8363929702       10.3922973850
 Ga         8.0519222513        4.6961471856       11.0259544742
  N         8.0678682153        4.7056995624       13.0211483772
 Ga         8.0254723685        2.8373690363       13.5784801343
  N         8.0549802711        2.8244992606       15.5422235915
 Ga         7.8718875483        4.5938225815       16.4392657107
  N         6.3746474674        7.4426478276        2.4772763349
 Ga         6.4242280441        5.7232233664        3.2642396068
  N         6.4301826227        5.6184209466        5.2129444255
 Ga         6.4335963749        7.4738031731        5.8379906236
  N         6.4282825609        7.4719888246        7.8089803483
 Ga         6.4294553298        5.6029592905        8.4000833861
  N         6.4299691675        5.6040821648       10.3934439375
 Ga         6.4300894372        7.4732478231       10.9847696526
  N         6.4291528834        7.4728989890       12.9569263197
 Ga         6.4281662709        5.6038197583       13.5773805951
  N         6.4281979358        5.6339455489       15.5397050122
 Ga         6.4269941884        7.4734761409       15.8183012480
  N         4.7196210529       10.2014027039        2.4935337310
 Ga         4.9204494506        8.3453003407        3.2725392564
  N         4.8208551969        8.4020370249        5.2177728119
 Ga         4.8536220855       10.2780428990        5.7637355260
  N         4.8307702882       10.2638282971        7.7590742250
 Ga         4.8121550776        8.4089442173        8.4015569511
  N         4.8112813954        8.4080435461       10.3939121915
 Ga         4.8369137033       10.2671092459       11.0278343522
  N         4.8513225564       10.2761112438       13.0213339317
 Ga         4.8094423806        8.4082289970       13.5823344375
  N         4.8379662667        8.3912716902       15.5414085510
 Ga         4.6439854774       10.1557057869       16.4597496612
  O         0.1030118097        3.6912778801       -0.5584128770
  H        -0.0008143874        7.4749567289        1.6240545175
  C         0.1879148055        2.3958374774       -1.1721653469
  H         1.0041041729        1.7821400299       -0.7553189608
  H        -0.7514868008        1.8277365843       -1.0742344682
  H         0.3861030103        2.5519146403       -2.2430319358
 Ga         3.2095138455        5.6056901404        2.4277490220
  O         3.7261035801        6.0712449757        0.2153001850
  H         3.5134933700        5.3801858847       -0.4347634443
  C         5.0876346715        6.5723874956       -0.0180447680
  H         5.0480755397        7.3674451603       -0.7759849463
  H         5.5483950295        6.9624542336        0.9487416291
  H         5.7312654400        5.7638442499       -0.4005832849
     &END COORD

     &KIND C
       BASIS_SET DZVP-MOLOPT-SR-GTH-q4
       POTENTIAL GTH-PBE-q4
     &END KIND

     &KIND O
       BASIS_SET DZVP-MOLOPT-SR-GTH-q6
       POTENTIAL GTH-PBE-q6
     &END KIND

     &KIND H
       BASIS_SET DZVP-MOLOPT-SR-GTH-q1
       POTENTIAL GTH-PBE-q1
     &END KIND

     &KIND N
       BASIS_SET DZVP-MOLOPT-SR-GTH
       POTENTIAL GTH-PBE-q5
     &END KIND

     &KIND Ga
       BASIS_SET DZVP-MOLOPT-SR-GTH
       POTENTIAL GTH-PBE-q13
     &END KIND

     &COLVAR
       &DISTANCE
         ATOMS _A1_ _A2_
       &END
       &PRINT
       &END
     &END

     &TOPOLOGY
       MULTIPLE_UNIT_CELL  1 1 1
     &END TOPOLOGY
   &END SUBSYS
 &END FORCE_EVAL
