 # Version information for this restart file 
 # current date 2019-07-16 08:13:08.254
 # current working dir /lustre04/scratch/rzk/rzk/GaN-carbene/443-adatoms-both-2x2/09-BondBreaking-CH/03-0501-CH-to-Nsur-PES/Phase02
 # Program compiled at                              Sun Apr  7 00:48:11 EDT 2019
 # Program compiled on                          beluga2.int.ets1.calculquebec.ca
 # Program compiled for                        Beluga-Linux-x86-64-intel-openmpi
 # Source code revision number                                         svn:18619
 &GLOBAL
   PRINT_LEVEL  MEDIUM
   PROJECT_NAME TEST
   RUN_TYPE  GEO_OPT
 &END GLOBAL
 &MOTION
   &GEO_OPT
     MAX_ITER  500
     STEP_START_VAL  150
   &END GEO_OPT
   &CONSTRAINT
     &COLLECTIVE
       COLVAR  1
       INTERMOLECULAR  T
       TARGET     2.2676713594627715E+00
       &RESTRAINT
         K     2.0000000000000000E+00
       &END RESTRAINT
     &END COLLECTIVE
     &COLVAR_RESTART
           2.2676713594627715E+00
     &END COLVAR_RESTART
   &END CONSTRAINT
 &END MOTION
 &FORCE_EVAL
   METHOD  QS
   STRESS_TENSOR  ANALYTICAL
   &DFT
     BASIS_SET_FILE_NAME BASIS_MOLOPT
     POTENTIAL_FILE_NAME GTH_POTENTIALS
     UKS  T
     SURFACE_DIPOLE_CORRECTION  T
     SURF_DIP_DIR  Z
     &SCF
       MAX_SCF  80
       EPS_SCF     5.0000000000000004E-06
       &OT  T
         PRECONDITIONER  FULL_ALL
       &END OT
       &OUTER_SCF  T
         OPTIMIZER  NONE
         EPS_SCF     5.0000000000000004E-06
         MAX_SCF  4
       &END OUTER_SCF
       &PRINT
         &RESTART  OFF
           BACKUP_COPIES  1
           &EACH
             JUST_ENERGY  0
             QS_SCF  0
             MD  20
           &END EACH
         &END RESTART
       &END PRINT
     &END SCF
     &QS
       EPS_DEFAULT     1.0000000000000000E-14
       METHOD  GPW
     &END QS
     &MGRID
       NGRIDS  5
       CUTOFF     1.2000000000000000E+03
     &END MGRID
     &XC
       DENSITY_CUTOFF     1.0000000000000000E-10
       GRADIENT_CUTOFF     1.0000000000000000E-10
       TAU_CUTOFF     1.0000000000000000E-10
       &XC_FUNCTIONAL  NO_SHORTCUT
         &PBE  T
         &END PBE
       &END XC_FUNCTIONAL
       &VDW_POTENTIAL
         POTENTIAL_TYPE  PAIR_POTENTIAL
         &PAIR_POTENTIAL
           R_CUTOFF     1.0000000000000009E+01
           TYPE  DFTD3
           PARAMETER_FILE_NAME dftd3.dat
           REFERENCE_FUNCTIONAL PBE
           EPS_CN     9.9999999999999995E-07
           CALCULATE_C9_TERM  T
           REFERENCE_C9_TERM  T
           LONG_RANGE_CORRECTION  F
           VERBOSE_OUTPUT  F
         &END PAIR_POTENTIAL
       &END VDW_POTENTIAL
     &END XC
   &END DFT
   &SUBSYS
     &CELL
       A     1.2864472766435110E+01    0.0000000000000000E+00    0.0000000000000000E+00
       B    -6.4322363581020028E+00    1.1140960178524477E+01    0.0000000000000000E+00
       C     0.0000000000000000E+00    0.0000000000000000E+00    3.2000000000000000E+01
       MULTIPLE_UNIT_CELL  1 1 1
       &CELL_REF
         A     1.2982353780853531E+01    0.0000000000000000E+00    0.0000000000000000E+00
         B    -6.4911768904267628E+00    1.1243048175136114E+01    0.0000000000000000E+00
         C     0.0000000000000000E+00    0.0000000000000000E+00    3.2000000000000000E+01
         MULTIPLE_UNIT_CELL  1 1 1
       &END CELL_REF
     &END CELL
     &COORD
N   -4.0758562429044035E-02    2.0816120598948635E+00    2.4689617513213959E+00
Ga    5.5073708700702495E-03    1.3300990652375938E-01    2.8012923861868355E+00
N   -3.2596383049336479E-02    8.7849024331814865E-02    4.9801658904557158E+00
Ga   -3.1027795161013338E-02    1.9255569832423478E+00    5.7362741770426204E+00
N   -3.0977971718108642E-02    1.9407674255222058E+00    7.7480810634036077E+00
Ga   -2.6493912233067251E-02    9.8651650350960435E-02    8.3971194099964244E+00
N   -3.5041787477948561E-02    9.7983826404814470E-02    1.0375879522434138E+01
Ga   -3.2317749507143376E-02    1.9365978410913571E+00    1.1028312673227246E+01
N   -4.3747950261432501E-02    1.9182281546282258E+00    1.3025323210203572E+01
Ga   -4.3630287993627191E-02    9.7268809081531696E-02    1.3824810333665271E+01
N   -5.0174616920185974E-02    9.2292056665803701E-02    1.6026130472474165E+01
Ga   -5.3227185232114067E-02    2.1225838432265327E+00    1.6433734538139596E+01
Ga   -3.7154304367626886E-02    3.7876565146556014E+00    1.2963456125385995E+00
N   -1.5175091940368568E+00    4.6681576551286437E+00    2.4729611532432525E+00
Ga   -1.7362635683127199E+00    2.8358280130374669E+00    3.1947448484813998E+00
N   -1.6508120045966530E+00    2.8720562287386442E+00    5.1903276546339416E+00
Ga   -1.6718207091075965E+00    4.7338862366847634E+00    5.7887421560886372E+00
N   -1.6448717741557943E+00    4.7371345614947451E+00    7.7814297753899817E+00
Ga   -1.6237189412311934E+00    2.8795260660488156E+00    8.4054085932463245E+00
N   -1.6307045266789415E+00    2.8866039720575452E+00    1.0398979102068907E+01
Ga   -1.6618486579672547E+00    4.7456535878238748E+00    1.1031020673343336E+01
N   -1.6861549886783374E+00    4.7579392249838106E+00    1.3025410445284185E+01
Ga   -1.6429641701900974E+00    2.8892912578533707E+00    1.3578336483649297E+01
N   -1.6751018338776957E+00    2.8726536993796055E+00    1.5542773796112577E+01
Ga   -1.5031624668840389E+00    4.6454955956900186E+00    1.6432425167289953E+01
N   -4.5324753382409176E-02    3.8011801270748471E+00    1.7563781913788343E+01
N   -3.2320714648713182E+00    7.6241856114889375E+00    2.4735524289065696E+00
Ga   -3.2230842895515446E+00    5.6446173404717159E+00    2.8705499739622007E+00
N   -3.2263304805380328E+00    5.6730101206211909E+00    5.0483907977122335E+00
Ga   -3.2454406156616602E+00    7.4874236666980778E+00    5.7873285796574461E+00
N   -3.2454766604074656E+00    7.5202028696463881E+00    7.7771767400700273E+00
Ga   -3.2491972113853320E+00    5.6664113517205310E+00    8.4078811072877055E+00
N   -3.2523249162141501E+00    5.6693466435363025E+00    1.0382548466338038E+01
Ga   -3.2544383874421605E+00    7.5082368221958466E+00    1.1032495298286703E+01
N   -3.2612140407684227E+00    7.4905242730874635E+00    1.3023548345454182E+01
Ga   -3.2637285648325642E+00    5.6694652243637300E+00    1.3821369991956807E+01
N   -3.2672053607258720E+00    5.6667130690729932E+00    1.6020070917077927E+01
Ga   -3.2697972644010207E+00    7.7056581407847879E+00    1.6433429754453854E+01
Ga   -3.2229379488948169E+00    9.4142777457602502E+00    1.2269361087054576E+00
N   -4.7522339613858531E+00    1.0244992134443773E+01    2.4722657474612886E+00
Ga   -4.8446319654718319E+00    8.4344694222492027E+00    3.2405490372466064E+00
N   -4.8594011346419999E+00    8.4385588292989819E+00    5.1974197864757787E+00
Ga   -4.8754426401675248E+00    1.0324931075504262E+01    5.7472285379051575E+00
N   -4.8631256544015207E+00    1.0312284640031301E+01    7.7507581042407638E+00
Ga   -4.8480747681427792E+00    8.4614337423791586E+00    8.4032230045371481E+00
N   -4.8511589564954392E+00    8.4613328011308049E+00    1.0394743025806537E+01
Ga   -4.8725190634235842E+00    1.0322587304016198E+01    1.1025238805081056E+01
N   -4.8984239738076836E+00    1.0330725039689201E+01    1.3018899569271889E+01
Ga   -4.8584131207900016E+00    8.4625780108995041E+00    1.3576803026126246E+01
N   -4.8924380254744415E+00    8.4437574086395042E+00    1.5535171139253503E+01
Ga   -4.7143668359986561E+00    1.0211602931409006E+01    1.6436469561553910E+01
N   -3.2647365572112887E+00    9.3743933270463078E+00    1.7572146171505437E+01
N    3.1987823850173700E+00    1.9534438376732857E+00    2.5651822213230977E+00
Ga    3.1950810388231465E+00    1.8968424131729142E-01    3.2030245030632032E+00
N    3.1912508032557869E+00    8.7171928325593048E-02    5.1931367668564450E+00
Ga    3.2127579418066290E+00    1.9619424590636816E+00    5.7656741348089771E+00
N    3.1947321791401815E+00    1.9557811987532330E+00    7.7701204364876038E+00
Ga    3.1850570430434564E+00    9.5017647726009555E-02    8.3818374184835349E+00
N    3.1808821768900586E+00    8.9456041609042830E-02    1.0382509407680660E+01
Ga    3.1798833716711905E+00    1.9570753378220476E+00    1.0979945376111719E+01
N    3.1713240241680332E+00    1.9572410079056959E+00    1.2954208663458646E+01
Ga    3.1716342795214394E+00    8.8850954900636631E-02    1.3577773396863204E+01
N    3.1625312582246679E+00    1.1369181345742106E-01    1.5540266428257928E+01
Ga    3.1663870920526662E+00    1.9518210185607034E+00    1.5823847682376639E+01
N    1.4329710227510777E+00    4.6772916048062516E+00    2.4886443780355276E+00
Ga    1.6619752059050457E+00    2.8279776960255898E+00    3.2090581896775539E+00
N    1.5821533307544791E+00    2.8768074325573694E+00    5.1984104915690699E+00
Ga    1.5950355337958833E+00    4.7287508158042924E+00    5.7862683877644896E+00
N    1.5851474959657526E+00    4.7410820712044304E+00    7.7729310808967451E+00
Ga    1.5751379537658170E+00    2.8748214306789919E+00    8.3812482246577655E+00
N    1.5627476198593677E+00    2.8868011991672824E+00    1.0382935370527733E+01
Ga    1.5869335183026978E+00    4.7440218800862581E+00    1.1027903820836210E+01
N    1.5951469953824673E+00    4.7589737853668383E+00    1.3024213967119600E+01
Ga    1.5529791210802739E+00    2.8903287312375352E+00    1.3579724156276999E+01
N    1.5728618494460223E+00    2.8721588902621633E+00    1.5546126859866115E+01
Ga    1.4074205019386563E+00    4.6498795395635071E+00    1.6435619222983512E+01
N   -4.4731248578444967E-02    7.4957788453125076E+00    2.6917332646305390E+00
Ga   -5.8655166276716707E-02    5.6297394649118413E+00    3.3177591947450762E+00
N   -3.3312362636142623E-02    5.6741657939362451E+00    5.2519989633320563E+00
Ga   -4.0540185726307146E-02    7.5128347083133873E+00    5.8886766352146322E+00
N   -2.9449836494371780E-02    7.5232014240499234E+00    7.8444206090729400E+00
Ga   -3.0957559301979087E-02    5.6480653792897337E+00    8.4181259445801526E+00
N   -3.6231150239408115E-02    5.6555188422925999E+00    1.0406229016515166E+01
Ga   -3.7122750145325047E-02    7.5247069157144280E+00    1.0997573081773549E+01
N   -4.5004012079439631E-02    7.5259942634150381E+00    1.2967601461118521E+01
Ga   -4.6994142589747025E-02    5.6545679771346560E+00    1.3579679548163751E+01
N   -5.1442626621697844E-02    5.6813542301200810E+00    1.5544591385786026E+01
Ga   -4.9346790067534854E-02    7.5224227556498944E+00    1.5821117295101129E+01
N   -1.7232536690847104E+00    1.0228130057479001E+01    2.5047240089025475E+00
Ga   -1.6560252424334521E+00    8.4372596459452307E+00    3.2861760038466437E+00
N   -1.6248097560685428E+00    8.4391587182406305E+00    5.2296300694055384E+00
Ga   -1.6221269209742939E+00    1.0319367009608097E+01    5.7771811398410566E+00
N   -1.6291941264907188E+00    1.0310868606842002E+01    7.7689944882289090E+00
Ga   -1.6522394697224274E+00    8.4628983479497375E+00    8.4198201946113098E+00
N   -1.6538945903641860E+00    8.4622338637774988E+00    1.0406886786506384E+01
Ga   -1.6294483940791051E+00    1.0326394545111951E+01    1.1029398166427150E+01
N   -1.6195972966682912E+00    1.0332852372125066E+01    1.3024108304520180E+01
Ga   -1.6654263439743546E+00    8.4640831080290386E+00    1.3580827596800011E+01
N   -1.6425647614112093E+00    8.4416452448050752E+00    1.5543577164100014E+01
Ga   -1.8191587006694785E+00    1.0216188631835406E+01    1.6439344260172820E+01
N    6.4893476053597183E+00    1.9561890790862824E+00    2.4571722149692077E+00
Ga    6.3759931663750402E+00    7.4966034119125557E-02    2.9385746561863173E+00
N    6.4087767834627369E+00    7.1908298871750445E-02    5.0387302833745728E+00
Ga    6.3910151993124895E+00    1.9346076091999089E+00    5.7420532520379117E+00
N    6.3980100854561961E+00    1.9435410710407466E+00    7.7493398971384497E+00
Ga    6.3999548357870593E+00    1.0346103643122177E-01    8.4031725743942687E+00
N    6.3986619132406730E+00    1.0085930314822045E-01    1.0379577937454338E+01
Ga    6.3954534589607910E+00    1.9423418240093115E+00    1.1022200133115730E+01
N    6.3865062431482897E+00    1.9208012733925202E+00    1.3019303789159713E+01
Ga    6.3871852883727609E+00    1.0120714288499567E-01    1.3831283628625192E+01
N    6.3820871344277057E+00    9.4655878232421303E-02    1.6028915586525113E+01
Ga    6.3818014087541828E+00    2.1328649777664133E+00    1.6436634697057784E+01
Ga    7.6190312265701658E+00    2.3029419424226449E+00    6.8812261058496493E-01
N    4.7860027623044132E+00    4.7565870727948836E+00    2.4998009374639460E+00
Ga    4.8051228576246992E+00    2.8103205754455538E+00    3.0330683047456768E+00
N    4.8156414355798765E+00    2.8846041215181373E+00    5.0962540564628078E+00
Ga    4.7841657666237491E+00    4.7288379687016162E+00    5.7245378674159761E+00
N    4.7864212851798325E+00    4.7415421028388627E+00    7.7348931678674466E+00
Ga    4.8007416632630848E+00    2.8863056412632679E+00    8.3838629364306776E+00
N    4.7978711194343244E+00    2.8917125614759125E+00    1.0382212061757903E+01
Ga    4.7709554604598896E+00    4.7476217589746241E+00    1.1026856009119946E+01
N    4.7461384111645062E+00    4.7593019743912857E+00    1.3019486619772435E+01
Ga    4.7888595118166046E+00    2.8907970411731476E+00    1.3576734386020743E+01
N    4.7565069565213962E+00    2.8738982949109881E+00    1.5539103681379544E+01
Ga    4.9375091580860486E+00    4.6433288775243176E+00    1.6438059957543526E+01
N    6.3898062016708987E+00    3.8037620316992746E+00    1.7568647153213096E+01
N    3.1698408577951356E+00    7.6451079285811385E+00    2.5159602073069913E+00
N    3.1658671363532567E+00    5.6698131770148272E+00    5.0231820666303957E+00
Ga    3.1898631029634048E+00    7.4839379116769003E+00    5.8003901219824021E+00
N    3.1877273555394949E+00    7.5148015891116664E+00    7.7771880372211637E+00
Ga    3.1913468387683275E+00    5.6568992878456443E+00    8.4050123829161745E+00
N    3.1797107289524540E+00    5.6687177132618558E+00    1.0378514842736957E+01
Ga    3.1812345391290204E+00    7.5076225892435646E+00    1.1034107159367110E+01
N    3.1708397552967775E+00    7.4903711887962086E+00    1.3026027237319003E+01
Ga    3.1713051965243491E+00    5.6696115733989698E+00    1.3822478221530744E+01
N    3.1672421294912478E+00    5.6666615016860735E+00    1.6031662807206846E+01
Ga    3.1663048229352788E+00    7.7073207246145712E+00    1.6448607303643239E+01
Ga    3.1803060365393012E+00    9.3904869764422685E+00    1.5056206371447136E+00
N    1.6743602335910202E+00    1.0218641094704351E+01    2.5061212465376705E+00
Ga    1.5275625151079675E+00    8.4217313110728433E+00    3.3285690354379573E+00
N    1.5675681980838172E+00    8.4395781934994556E+00    5.2485059971982686E+00
Ga    1.5577093895339449E+00    1.0327400890332013E+01    5.7988499871417005E+00
N    1.5750597741005370E+00    1.0311654217867618E+01    7.7796793156357786E+00
Ga    1.5890001007139318E+00    8.4588068943802668E+00    8.4230597740015867E+00
N    1.5830562081356903E+00    8.4610807061829245E+00    1.0408049169003519E+01
Ga    1.5573200548890067E+00    1.0323933619810207E+01    1.1034523062580051E+01
N    1.5321610904156397E+00    1.0330764193370680E+01    1.3027585534309473E+01
Ga    1.5741324118792113E+00    8.4626418214362857E+00    1.3584774018544181E+01
N    1.5418023092996276E+00    8.4425600746863942E+00    1.5545825210787589E+01
Ga    1.7237323161021674E+00    1.0211400165772488E+01    1.6448353980854634E+01
N    3.1721853001773828E+00    9.3757359863937477E+00    1.7584894338173360E+01
N    9.5443164111787464E+00    1.9735687535143203E+00    2.5569387946223587E+00
Ga    9.5983642984429558E+00    2.3574775670444514E-01    3.2600512764558629E+00
N    9.6185500279233960E+00    9.1499696795824315E-02    5.2118416671840002E+00
Ga    9.6205048502943260E+00    1.9599990279673940E+00    5.8397010152623077E+00
N    9.6208591473580043E+00    1.9507029359317170E+00    7.8145584283125267E+00
Ga    9.6244419035953523E+00    8.8113692322575196E-02    8.4071944362296858E+00
N    9.6160314470045307E+00    8.5054730743680931E-02    1.0398332905411859E+01
Ga    9.6127513241689773E+00    1.9555010956984700E+00    1.0985793079867239E+01
N    9.6029186891003739E+00    1.9544735534877828E+00    1.2959610232126895E+01
Ga    9.6027800282791009E+00    8.5441546855306749E-02    1.3583604974898821E+01
N    9.5955755586453400E+00    1.1391470509768568E-01    1.5546199995610557E+01
Ga    9.5954940699917390E+00    1.9522376520776912E+00    1.5821437744475455E+01
N    8.0089787045795688E+00    4.6982597576773744E+00    2.4872078853908453E+00
Ga    8.0409085851563304E+00    2.9293121852741422E+00    3.2795435944134681E+00
N    8.0130300364335003E+00    2.8853136912915263E+00    5.2416057939057810E+00
Ga    8.0334922434231348E+00    4.7655146396078081E+00    5.7566560077944287E+00
N    8.0146925057133647E+00    4.7510947356634414E+00    7.7607584967442333E+00
Ga    7.9977920905307300E+00    2.8895850511664789E+00    8.3857365895984817E+00
N    7.9952051197388627E+00    2.8899616847341747E+00    1.0385374891771924E+01
Ga    8.0172371356964565E+00    4.7483747362693327E+00    1.1024914450980313E+01
N    8.0258086028605433E+00    4.7591935294030963E+00    1.3019229125127247E+01
Ga    7.9817766960715595E+00    2.8906693605241625E+00    1.3575095251817203E+01
N    8.0048316655541178E+00    2.8714466046353389E+00    1.5538845838193780E+01
Ga    7.8301139864326377E+00    4.6462980749115417E+00    1.6431467464853448E+01
N    6.4187653486611440E+00    7.5029577648423942E+00    2.6436744694533600E+00
Ga    6.4696525089120209E+00    5.6054504808600374E+00    3.1476048959334380E+00
N    6.3981085902266885E+00    5.6650467033776639E+00    5.1432522251297748E+00
Ga    6.4140455692477669E+00    7.4929175409897493E+00    5.8289686742566653E+00
N    6.4032538539396953E+00    7.5192945673858560E+00    7.8029085962310036E+00
Ga    6.3976426092185514E+00    5.6519236100410470E+00    8.4002813381332810E+00
N    6.3929345219888187E+00    5.6572791255691239E+00    1.0391281452982280E+01
Ga    6.3949898712830038E+00    7.5259581001844849E+00    1.0991990102733281E+01
N    6.3857748309278906E+00    7.5263687419775556E+00    1.2960235055046615E+01
Ga    6.3852810427265618E+00    5.6549109588479549E+00    1.3575458687459871E+01
N    6.3787675764989125E+00    5.6829505807473524E+00    1.5536608774621641E+01
Ga    6.3811711002934430E+00    7.5216925796729344E+00    1.5815231510072156E+01
N    4.6839564621573935E+00    1.0241292700742834E+01    2.4909683952917945E+00
Ga    4.8520297748688437E+00    8.4048250550412806E+00    3.2920117556394386E+00
N    4.8020955765309878E+00    8.4378317216304808E+00    5.2189250931599336E+00
Ga    4.8300791461768044E+00    1.0328308142310327E+01    5.7645974039283416E+00
N    4.8033476613984982E+00    1.0310646774000622E+01    7.7575178622092711E+00
Ga    4.7913952325070728E+00    8.4579493555574778E+00    8.4055951967110243E+00
N    4.7787164381338219E+00    8.4612610497085967E+00    1.0395430640147719E+01
Ga    4.8066526228202511E+00    1.0320396383659547E+01    1.1033398710099281E+01
N    4.8118794674222602E+00    1.0329552767432359E+01    1.3027405045811660E+01
Ga    4.7660671967184962E+00    8.4613277942654328E+00    1.3584679182673218E+01
N    4.7888973845762361E+00    8.4400458142708050E+00    1.5546158271324197E+01
Ga    4.6111564096067106E+00    1.0214036354483286E+01    1.6447260266005831E+01
O   -5.6221179368755543E-02    3.7882151284874452E+00   -5.2064774792701329E-01
H   -4.1917457011521227E-02    7.4788013746594633E+00    1.6659171749510762E+00
C   -3.6755694411469192E-01    2.5554565022204159E+00   -1.1915341682665246E+00
H    2.4600609985402319E-01    1.7106571071922518E+00   -8.3871777724212493E-01
H   -1.4288440783672991E+00    2.2770321422871551E+00   -1.0823223531094441E+00
H   -1.5842198018163287E-01    2.7056140532839614E+00   -2.2602979083632939E+00
Ga    3.0865302166431228E+00    5.6495220698848900E+00    2.9518641560249468E+00
O    6.3981925259542356E+00    6.4600608314146308E+00   -7.4594246714715651E-02
H    4.8601139913136047E+00    4.7816537767307201E+00    1.4727762766829195E+00
C    7.3468345008135936E+00    5.7309588691203937E+00   -3.6619257295079549E-01
H    8.3935008920373146E+00    5.9718092697494987E+00   -1.0345458969663447E-01
H    6.3917971431090290E+00    7.4393278024519143E+00    1.4536807110172969E+00
H    7.1718911520764745E+00    4.8170650288888961E+00   -9.5287418814306202E-01
     &END COORD
     &KIND C
       BASIS_SET DZVP-MOLOPT-SR-GTH-q4
       POTENTIAL GTH-PBE-q4
       &POTENTIAL
2 2
0.3384712400000000E+00 2 -0.8803673979999999E+01  0.1339210850000000E+01
2
0.3025757500000000E+00 1  0.9622486650000001E+01
0.2915069400000000E+00 0
       &END POTENTIAL
     &END KIND
     &KIND O
       BASIS_SET DZVP-MOLOPT-SR-GTH-q6
       POTENTIAL GTH-PBE-q6
       &POTENTIAL
2 4
0.2445543000000000E+00 2 -0.1666721480000000E+02  0.2487311320000000E+01
2
0.2209559200000000E+00 1  0.1833745811000000E+02
0.2113324700000000E+00 0
       &END POTENTIAL
     &END KIND
     &KIND H
       BASIS_SET DZVP-MOLOPT-SR-GTH-q1
       POTENTIAL GTH-PBE-q1
       &POTENTIAL
1
0.2000000000000000E+00 2 -0.4178900440000000E+01  0.7244633100000000E+00
0
       &END POTENTIAL
     &END KIND
     &KIND N
       BASIS_SET DZVP-MOLOPT-SR-GTH
       POTENTIAL GTH-PBE-q5
       &POTENTIAL
2 3
0.2837905100000000E+00 2 -0.1241522559000000E+02  0.1868095920000000E+01
2
0.2554050000000000E+00 1  0.1363026257000000E+02
0.2454945300000000E+00 0
       &END POTENTIAL
     &END KIND
     &KIND Ga
       BASIS_SET DZVP-MOLOPT-SR-GTH
       POTENTIAL GTH-PBE-q13
       &POTENTIAL
2 1 10
0.4900000000000000E+00 0
3
0.4167772300000000E+00 3  0.1047568975000000E+02 -0.4921768140000000E+01  0.8707055900000000E+00
0.7770178090000000E+01 -0.2248152160000000E+01
0.1784415450000000E+01
0.5696265200000000E+00 2  0.1777985340000000E+01  0.1958597600000000E+00
-0.2317443900000000E+00
0.2381265000000000E+00 1 -0.1624868022000000E+02
       &END POTENTIAL
     &END KIND
     &TOPOLOGY
       NUMBER_OF_ATOMS  212
       MULTIPLE_UNIT_CELL  1 1 1
     &END TOPOLOGY
     &COLVAR
       &DISTANCE
         ATOMS  176 211
       &END DISTANCE
       &PRINT
       &END PRINT
     &END COLVAR
   &END SUBSYS
 &END FORCE_EVAL
