 # Version information for this restart file 
 # current date 2019-07-15 10:05:52.752
 # current working dir /lustre04/scratch/rzk/rzk/GaN-carbene/443-adatoms-both-2x2/09-BondBreaking-CH/03-0501-CH-to-Nsur-PES/Phase02
 # Program compiled at                              Sun Apr  7 00:48:11 EDT 2019
 # Program compiled on                          beluga2.int.ets1.calculquebec.ca
 # Program compiled for                        Beluga-Linux-x86-64-intel-openmpi
 # Source code revision number                                         svn:18619
 &GLOBAL
   PRINT_LEVEL  MEDIUM
   PROJECT_NAME TEST
   RUN_TYPE  GEO_OPT
 &END GLOBAL
 &MOTION
   &GEO_OPT
     MAX_ITER  500
     STEP_START_VAL  20
   &END GEO_OPT
   &CONSTRAINT
     &COLLECTIVE
       COLVAR  1
       INTERMOLECULAR  T
       TARGET     2.4566439727513361E+00
       &RESTRAINT
         K     2.0000000000000000E+00
       &END RESTRAINT
     &END COLLECTIVE
     &COLVAR_RESTART
           2.4566439727513361E+00
     &END COLVAR_RESTART
   &END CONSTRAINT
 &END MOTION
 &FORCE_EVAL
   METHOD  QS
   STRESS_TENSOR  ANALYTICAL
   &DFT
     BASIS_SET_FILE_NAME BASIS_MOLOPT
     POTENTIAL_FILE_NAME GTH_POTENTIALS
     UKS  T
     SURFACE_DIPOLE_CORRECTION  T
     SURF_DIP_DIR  Z
     &SCF
       MAX_SCF  80
       EPS_SCF     5.0000000000000004E-06
       &OT  T
         PRECONDITIONER  FULL_ALL
       &END OT
       &OUTER_SCF  T
         OPTIMIZER  NONE
         EPS_SCF     5.0000000000000004E-06
         MAX_SCF  4
       &END OUTER_SCF
       &PRINT
         &RESTART  OFF
           BACKUP_COPIES  1
           &EACH
             JUST_ENERGY  0
             QS_SCF  0
             MD  20
           &END EACH
         &END RESTART
       &END PRINT
     &END SCF
     &QS
       EPS_DEFAULT     1.0000000000000000E-14
       METHOD  GPW
     &END QS
     &MGRID
       NGRIDS  5
       CUTOFF     1.2000000000000000E+03
     &END MGRID
     &XC
       DENSITY_CUTOFF     1.0000000000000000E-10
       GRADIENT_CUTOFF     1.0000000000000000E-10
       TAU_CUTOFF     1.0000000000000000E-10
       &XC_FUNCTIONAL  NO_SHORTCUT
         &PBE  T
         &END PBE
       &END XC_FUNCTIONAL
       &VDW_POTENTIAL
         POTENTIAL_TYPE  PAIR_POTENTIAL
         &PAIR_POTENTIAL
           R_CUTOFF     1.0000000000000009E+01
           TYPE  DFTD3
           PARAMETER_FILE_NAME dftd3.dat
           REFERENCE_FUNCTIONAL PBE
           EPS_CN     9.9999999999999995E-07
           CALCULATE_C9_TERM  T
           REFERENCE_C9_TERM  T
           LONG_RANGE_CORRECTION  F
           VERBOSE_OUTPUT  F
         &END PAIR_POTENTIAL
       &END VDW_POTENTIAL
     &END XC
   &END DFT
   &SUBSYS
     &CELL
       A     1.2864472766435110E+01    0.0000000000000000E+00    0.0000000000000000E+00
       B    -6.4322363581020028E+00    1.1140960178524477E+01    0.0000000000000000E+00
       C     0.0000000000000000E+00    0.0000000000000000E+00    3.2000000000000000E+01
       MULTIPLE_UNIT_CELL  1 1 1
       &CELL_REF
         A     1.2982353780853531E+01    0.0000000000000000E+00    0.0000000000000000E+00
         B    -6.4911768904267628E+00    1.1243048175136114E+01    0.0000000000000000E+00
         C     0.0000000000000000E+00    0.0000000000000000E+00    3.2000000000000000E+01
         MULTIPLE_UNIT_CELL  1 1 1
       &END CELL_REF
     &END CELL
     &COORD
N    8.7475725131368944E-03    2.0521866285977906E+00    2.4528546948941461E+00
Ga   -1.3267677484152553E-03    9.9415526492270423E-02    2.8035995124577213E+00
N   -4.9094494061484454E-03    5.1173686872260239E-02    4.9627993153605274E+00
Ga    8.4531516076074512E-03    1.8896525715875510E+00    5.7361158908923215E+00
N    1.0305958961340956E-03    1.8919025560067502E+00    7.7380896635348835E+00
Ga    4.4652311359870823E-04    4.9435993561362981E-02    8.3927798588130447E+00
N   -1.5603901892197278E-03    4.6499664008086888E-02    1.0365752284568778E+01
Ga   -2.7101278888783148E-03    1.8852420314111122E+00    1.1026395495177985E+01
N   -2.9685554772935570E-03    1.8657414959086405E+00    1.3016601143402198E+01
Ga   -2.4174139658214603E-03    4.6707243704105207E-02    1.3831045619094265E+01
N   -2.6539966887346106E-03    4.6084319854519357E-02    1.6021069377603098E+01
Ga   -2.6400556773422297E-03    2.0935476734499505E+00    1.6438300953476794E+01
Ga   -2.1382545395849648E-02    3.7106733796367650E+00    1.2360115644464806E+00
N   -1.4647042200318501E+00    4.6270624500955568E+00    2.4390263931880312E+00
Ga   -1.6650242882893789E+00    2.7939709522378697E+00    3.2162420569746231E+00
N   -1.6103079790898351E+00    2.8339692921911648E+00    5.1962526110617917E+00
Ga   -1.6249146203458322E+00    4.7000528719085217E+00    5.7475608549533863E+00
N   -1.6176586207314869E+00    4.6981049814512472E+00    7.7421000680120553E+00
Ga   -1.5956219463302492E+00    2.8376557333062626E+00    8.3866934793791224E+00
N   -1.5987554091777325E+00    2.8385801615227311E+00    1.0379211713464919E+01
Ga   -1.6274103554715313E+00    4.6958976225549574E+00    1.1029356438244260E+01
N   -1.6436915703148107E+00    4.7066778992185547E+00    1.3018444198718759E+01
Ga   -1.6001073448704188E+00    2.8372075679369657E+00    1.3577231169840466E+01
N   -1.6312916642986517E+00    2.8193975378511333E+00    1.5534555017250055E+01
Ga   -1.4456051489617214E+00    4.5926260982212437E+00    1.6438713945054467E+01
N   -8.4190098916659666E-03    3.7561024544172725E+00    1.7566407951732348E+01
N   -3.2353246055926923E+00    7.5840752848354986E+00    2.4458149930140789E+00
Ga   -3.1809586806543106E+00    5.5820782238686872E+00    2.8064932515975478E+00
N   -3.2132215488099707E+00    5.6121155012802832E+00    4.9639963769857891E+00
Ga   -3.2373244891633681E+00    7.4347004237127123E+00    5.7443408329732613E+00
N   -3.2244691280688151E+00    7.4642615967010366E+00    7.7347525163563713E+00
Ga   -3.2167321321246822E+00    5.6163546566647593E+00    8.3965896817216485E+00
N   -3.2182225959127182E+00    5.6175762005705847E+00    1.0367398023076621E+01
Ga   -3.2201503906946272E+00    7.4549393478748502E+00    1.1029120040176243E+01
N   -3.2189008914781247E+00    7.4363470218108718E+00    1.3017585958674262E+01
Ga   -3.2190516366014181E+00    5.6162777244849700E+00    1.3833001222599068E+01
N   -3.2188796833511568E+00    5.6168368772230375E+00    1.6021636162167184E+01
Ga   -3.2193127471329115E+00    7.6647201675677969E+00    1.6440021596725391E+01
Ga   -3.2418766351864021E+00    9.3564299780610742E+00    1.3713156263169290E+00
N   -4.7417779006605967E+00    1.0184495349317544E+01    2.4551520780962446E+00
Ga   -4.9598395844619843E+00    8.3265632637861486E+00    3.1794839659657557E+00
N   -4.8471516660861269E+00    8.3870954962836706E+00    5.1511052505402821E+00
Ga   -4.8606799661439002E+00    1.0265590566283228E+01    5.7326830180333062E+00
N   -4.8383104970443576E+00    1.0257070676938888E+01    7.7305514232715753E+00
Ga   -4.8192945666795071E+00    8.4085327392812435E+00    8.3958361769761822E+00
N   -4.8157425273394026E+00    8.4083827597559928E+00    1.0382547120577096E+01
Ga   -4.8424102969968157E+00    1.0268677841176059E+01    1.1026047553691674E+01
N   -4.8586922226724241E+00    1.0277511214786246E+01    1.3015658208325551E+01
Ga   -4.8156721836466092E+00    8.4089889102148856E+00    1.3578457564246133E+01
N   -4.8471978983304078E+00    8.3905207700029862E+00    1.5535266608662726E+01
Ga   -4.6617000454079127E+00    1.0163227294550158E+01    1.6439667499957416E+01
N   -3.2250462365167460E+00    9.3272401682629393E+00    1.7568715916099148E+01
N    3.2094289014027098E+00    1.9016551122391168E+00    2.5518831850251655E+00
Ga    3.1950363492266565E+00    1.5903689548865846E-01    3.2265805864336943E+00
N    3.2092076958230726E+00    4.0817263175314006E-02    5.1896111447141653E+00
Ga    3.2016448624739016E+00    1.9112557055777586E+00    5.8140810795581919E+00
N    3.2113880963520001E+00    1.9017665141757967E+00    7.7908959517273626E+00
Ga    3.2080943768706782E+00    3.5425773560783434E-02    8.3834013839322505E+00
N    3.2115073629275321E+00    3.1740863024260962E-02    1.0374963464307092E+01
Ga    3.2121672210018750E+00    1.9001122877954932E+00    1.0982313096272636E+01
N    3.2137638286988408E+00    1.9017086137920525E+00    1.2948595925575713E+01
Ga    3.2134395556282902E+00    3.4237527447320358E-02    1.3577902641466601E+01
N    3.2149022736391824E+00    6.8164226326301910E-02    1.5534002798991885E+01
Ga    3.2150236057595092E+00    1.9038894991339699E+00    1.5818101508631107E+01
N    1.5031461190420297E+00    4.6418502683040916E+00    2.3185207483617520E+00
Ga    1.6942546226960555E+00    2.8224254796247541E+00    3.1871615153649278E+00
N    1.6104738833818675E+00    2.8480898869924314E+00    5.1721354092098419E+00
Ga    1.6599787918878346E+00    4.7100557647655901E+00    5.7687012109013551E+00
N    1.6058239941612931E+00    4.6902967589324316E+00    7.7705169766812592E+00
Ga    1.5946758272006221E+00    2.8351684528874044E+00    8.3962701094062364E+00
N    1.5943536628311654E+00    2.8352705846780455E+00    1.0386287646157793E+01
Ga    1.6214854597125701E+00    4.6957163677266029E+00    1.1027419001380510E+01
N    1.6373400305693042E+00    4.7064764119339717E+00    1.3017843044050982E+01
Ga    1.5954167085026487E+00    2.8371558875506571E+00    1.3576370143679862E+01
N    1.6254316882602371E+00    2.8214699019128218E+00    1.5533241219722337E+01
Ga    1.4343480471650571E+00    4.5892724327352941E+00    1.6439970343155956E+01
N   -1.0942363694382515E-02    7.4706905578400109E+00    2.6392295751896655E+00
Ga    4.3668486683982939E-02    5.6001024831157578E+00    3.2407852864696030E+00
N    1.1771636275466166E-02    5.6271990379716996E+00    5.1819188920790067E+00
Ga   -3.6795964446682131E-03    7.4580552971615059E+00    5.8557453053230768E+00
N   -5.4393007556299252E-03    7.4715953540397440E+00    7.8111115187336786E+00
Ga   -3.0353832020592968E-03    5.5994975137652832E+00    8.4082860391139373E+00
N   -5.1476220563547699E-03    5.6048303702506814E+00    1.0392782638824931E+01
Ga   -6.1820757813283679E-03    7.4739305644499767E+00    1.0987827169594116E+01
N   -3.7611462986712027E-03    7.4744926307801016E+00    1.2952188408001586E+01
Ga   -2.4224825493142669E-03    5.6042946861335849E+00    1.3577476049224678E+01
N   -1.2251480033291084E-03    5.6390198719670908E+00    1.5534106476420710E+01
Ga   -1.5998004872628815E-03    7.4744950873751161E+00    1.5818395051812722E+01
N   -1.7170116887454685E+00    1.0186837584385239E+01    2.4681834787711474E+00
Ga   -1.6134073512557829E+00    8.3787302161931496E+00    3.2747235353945077E+00
N   -1.6057564598903609E+00    8.3897261641170502E+00    5.2004436407460330E+00
Ga   -1.5909032536170149E+00    1.0277464984963521E+01    5.7580538388393618E+00
N   -1.6023062431753754E+00    1.0261126079494566E+01    7.7441004001319111E+00
Ga   -1.6267394693077259E+00    8.4065954498536861E+00    8.3959688555677943E+00
N   -1.6250456802831144E+00    8.4077185049845582E+00    1.0381655687978924E+01
Ga   -1.5991920123028176E+00    1.0267695395615869E+01    1.1025682521524137E+01
N   -1.5796933389409913E+00    1.0277098042577062E+01    1.3015096464843115E+01
Ga   -1.6217661521906210E+00    8.4088363503166512E+00    1.3578892855488478E+01
N   -1.5911944541821597E+00    8.3926809287340092E+00    1.5534757062755681E+01
Ga   -1.7825643643604574E+00    1.0159994287654991E+01    1.6441670175726678E+01
N    6.4374505387460825E+00    2.0178416441741507E+00    2.4973928933804359E+00
Ga    6.4268478020025777E+00    5.1010265010257849E-02    2.8389149905700521E+00
N    6.4277928111226448E+00    4.2823222639489615E-02    4.9763285684749157E+00
Ga    6.4257926602779785E+00    1.8793549941976051E+00    5.7600546784412998E+00
N    6.4297619194372624E+00    1.8892485470586859E+00    7.7509495006081224E+00
Ga    6.4272920940252893E+00    4.6695708379523665E-02    8.4042027648130642E+00
N    6.4278327088675526E+00    4.5171309990793086E-02    1.0372375866932275E+01
Ga    6.4292593047360009E+00    1.8855847668052570E+00    1.1027836240147691E+01
N    6.4301402442243205E+00    1.8662101211759685E+00    1.3017300910136575E+01
Ga    6.4285453840128772E+00    4.6533745596563592E-02    1.3829241263080354E+01
N    6.4271538686666103E+00    4.4743100700786867E-02    1.6022230060062832E+01
Ga    6.4291979230436578E+00    2.0864656323063873E+00    1.6437431059373971E+01
Ga    6.4625093675765699E+00    3.7213371312700048E+00    1.4527927255782356E+00
N    4.9390397073458203E+00    4.5941000043374363E+00    2.4435155279807903E+00
Ga    4.7069186297042283E+00    2.7769855189245498E+00    3.2491104534152333E+00
N    4.8225759143391036E+00    2.8323994197967588E+00    5.2049451190829705E+00
Ga    4.7751186359748559E+00    4.7088351313291161E+00    5.7757185285003692E+00
N    4.8232988569145325E+00    4.6877492631289908E+00    7.7744856639463045E+00
Ga    4.8293570959980734E+00    2.8325108527520566E+00    8.3983991528880502E+00
N    4.8315887173648688E+00    2.8339866446999991E+00    1.0387281503354929E+01
Ga    4.8057561244152112E+00    4.6956826077452316E+00    1.1026385575332917E+01
N    4.7903148784975187E+00    4.7058822996335614E+00    1.3017319591881956E+01
Ga    4.8318928416290543E+00    2.8370531614981216E+00    1.3576811392853825E+01
N    4.8073133570672271E+00    2.8230105386330586E+00    1.5536776222528438E+01
Ga    4.9804520283162903E+00    4.5959973136775654E+00    1.6437412497572367E+01
N    6.4234841750438143E+00    3.7558143521133109E+00    1.7579575078161888E+01
N    3.1879669411566085E+00    7.6185167704819978E+00    2.4697464953060315E+00
N    3.2210620322148098E+00    5.6236073254780745E+00    5.0918396518777156E+00
Ga    3.2147230285037587E+00    7.4156898823368991E+00    5.7905562582231269E+00
N    3.2115723040773618E+00    7.4764717784797838E+00    7.7807529386229444E+00
Ga    3.2136698202780942E+00    5.6148071883743098E+00    8.4003526703407925E+00
N    3.2135816636300256E+00    5.6169750183885823E+00    1.0375567552325013E+01
Ga    3.2134647521291408E+00    7.4552570145375903E+00    1.1028851370556611E+01
N    3.2133126876152476E+00    7.4374949938489783E+00    1.3018962874745554E+01
Ga    3.2136549997762054E+00    5.6160940112136926E+00    1.3828087356218404E+01
N    3.2114147403066573E+00    5.6155142567254819E+00    1.6022666333925244E+01
Ga    3.2134548736283008E+00    7.6569778915053170E+00    1.6437631931830897E+01
Ga    3.2357167010753716E+00    9.3600531975225056E+00    1.4260104624926377E+00
N    1.7065220340105813E+00    1.0190608689008352E+01    2.4793827420766403E+00
Ga    1.5771447503722151E+00    8.3782305854136307E+00    3.3008543710894034E+00
N    1.5925588936151038E+00    8.3971657765152958E+00    5.2197205140741243E+00
Ga    1.5791952743968163E+00    1.0279043680873565E+01    5.7708797888228371E+00
N    1.5942537667020114E+00    1.0264397856237427E+01    7.7551169502248589E+00
Ga    1.6132472283568313E+00    8.4106870018599569E+00    8.4113131013914408E+00
N    1.6126322821579393E+00    8.4100938184273577E+00    1.0394312358234707E+01
Ga    1.5893681660893231E+00    1.0269536116493185E+01    1.1031388339731691E+01
N    1.5734760694072474E+00    1.0278154900629925E+01    1.3019588354833941E+01
Ga    1.6158935001043873E+00    8.4084394557287538E+00    1.3578406535403067E+01
N    1.5908652689324756E+00    8.3936638501020440E+00    1.5538083491288086E+01
Ga    1.7643766475638913E+00    1.0166853612438738E+01    1.6437598164902713E+01
N    3.2074474022181789E+00    9.3271750332824155E+00    1.7580411294506977E+01
N    9.6643882587879464E+00    1.9114580717402723E+00    2.5665114360500412E+00
Ga    9.6549564771040259E+00    1.7319915365844366E-01    3.2468101988376290E+00
N    9.6429842863473176E+00    4.5014167867722013E-02    5.2057603975916749E+00
Ga    9.6579573216395485E+00    1.9082821202992197E+00    5.8314340721827493E+00
N    9.6476361978221394E+00    1.9031220878574595E+00    7.8018498011269726E+00
Ga    9.6475166568127442E+00    3.6981797463740487E-02    8.3968778764203993E+00
N    9.6453068852181065E+00    3.2859682765483664E-02    1.0384356090250408E+01
Ga    9.6464486146161050E+00    1.9040987814295673E+00    1.0979669691355115E+01
N    9.6454002438845770E+00    1.9030139076326984E+00    1.2947740246030650E+01
Ga    9.6465623683960722E+00    3.4815600563349661E-02    1.3577623778314559E+01
N    9.6464324896628604E+00    6.3225230846520250E-02    1.5536564657243664E+01
Ga    9.6438653546346256E+00    1.9023220136066445E+00    1.5815999584088631E+01
N    7.9327629591623774E+00    4.6254962726156457E+00    2.4882476238817310E+00
Ga    8.1561783504859253E+00    2.7700499483196821E+00    3.2580953447675283E+00
N    8.0410015413505072E+00    2.8282867474255524E+00    5.2126217251135634E+00
Ga    8.0660071428462885E+00    4.7012663616848078E+00    5.7557740986183736E+00
N    8.0485723187130613E+00    4.6952390738820098E+00    7.7465777495792238E+00
Ga    8.0289470577904538E+00    2.8365360338458516E+00    8.3926301914597428E+00
N    8.0260321579074585E+00    2.8381835682424374E+00    1.0381937219250618E+01
Ga    8.0546957232745768E+00    4.6966776800995991E+00    1.1028452374760398E+01
N    8.0707551884325959E+00    4.7064372134285941E+00    1.3017196726638923E+01
Ga    8.0276418136238750E+00    2.8377610047369108E+00    1.3577250029046269E+01
N    8.0522689497699371E+00    2.8235518814231271E+00    1.5536187372680962E+01
Ga    7.8740522681062242E+00    4.5937781921184646E+00    1.6437547543002466E+01
N    6.3430865717575751E+00    7.4302097163047671E+00    2.4690762037494998E+00
Ga    6.4063196954617077E+00    5.6874790379318849E+00    3.2660737476716242E+00
N    6.4283054173754524E+00    5.6196441720809593E+00    5.2031539868212153E+00
Ga    6.4250089173030611E+00    7.4703880817728052E+00    5.8423786240548257E+00
N    6.4282776395948442E+00    7.4723000428055526E+00    7.8046270062650045E+00
Ga    6.4321679089107020E+00    5.6020153339341991E+00    8.4054306613068235E+00
N    6.4324152024372214E+00    5.6051786235607448E+00    1.0391134753964197E+01
Ga    6.4303835256969002E+00    7.4740678442539732E+00    1.0987578624802554E+01
N    6.4296832660512866E+00    7.4736311124387322E+00    1.2953379440807714E+01
Ga    6.4302563171392766E+00    5.6030302918521775E+00    1.3577339452086731E+01
N    6.4302544563023485E+00    5.6328984178444115E+00    1.5536334454711978E+01
Ga    6.4279011906516033E+00    7.4722434313679136E+00    1.5814200239270528E+01
N    4.7216111110500032E+00    1.0195825958776691E+01    2.4851767659036561E+00
Ga    4.8766622296460342E+00    8.3514318922257793E+00    3.2799467338676949E+00
N    4.8188693303058656E+00    8.4016047538595409E+00    5.2139116330200874E+00
Ga    4.8507015615536559E+00    1.0280765467685280E+01    5.7595053953356237E+00
N    4.8321060542535452E+00    1.0265788599105836E+01    7.7491131575385026E+00
Ga    4.8121581851648898E+00    8.4128617441491294E+00    8.4063211694838813E+00
N    4.8127803606123125E+00    8.4104799739769778E+00    1.0391617423200767E+01
Ga    4.8385376267723652E+00    1.0270207429126900E+01    1.1028588513702807E+01
N    4.8539567407753115E+00    1.0278532068085257E+01    1.3017337765762008E+01
Ga    4.8104806484235585E+00    8.4096244009199346E+00    1.3577702795037835E+01
N    4.8362909362025759E+00    8.3943566160003193E+00    1.5536649809568573E+01
Ga    4.6583138024468678E+00    1.0164442380700606E+01    1.6437333995900282E+01
O    2.2676573133304047E-02    3.6624056084304386E+00   -5.8416006363429673E-01
H   -2.1683818499223209E-03    7.4841547246583859E+00    1.6128956941503194E+00
C    5.4653602800412517E-02    2.3563255143286899E+00   -1.1793404579104800E+00
H    9.0340438710764814E-01    1.7499027192899808E+00   -8.2074471385504388E-01
H   -8.7292905087237360E-01    1.7903136035458072E+00   -9.9276970367694839E-01
H    1.6280661819101602E-01    2.4928746865987406E+00   -2.2657574673939553E+00
Ga    3.2324149393493933E+00    5.6231015884898010E+00    2.2368155666186391E+00
O    3.8889438481093959E+00    6.1675696978761856E+00    2.1374938547626943E-01
H    3.7647384005965225E+00    5.4888189615229450E+00   -4.7179416282186309E-01
C    5.2909262410993474E+00    6.7095738027985314E+00    1.3331766023752367E-01
H    5.2846161181938101E+00    7.4670629237534047E+00   -6.6287436827979263E-01
H    5.8296106544367836E+00    7.1463885338433952E+00    1.3032545730061598E+00
H    5.9560976248781188E+00    5.8873098176309933E+00   -1.9253239771716749E-01
     &END COORD
     &KIND C
       BASIS_SET DZVP-MOLOPT-SR-GTH-q4
       POTENTIAL GTH-PBE-q4
       &POTENTIAL
2 2
0.3384712400000000E+00 2 -0.8803673979999999E+01  0.1339210850000000E+01
2
0.3025757500000000E+00 1  0.9622486650000001E+01
0.2915069400000000E+00 0
       &END POTENTIAL
     &END KIND
     &KIND O
       BASIS_SET DZVP-MOLOPT-SR-GTH-q6
       POTENTIAL GTH-PBE-q6
       &POTENTIAL
2 4
0.2445543000000000E+00 2 -0.1666721480000000E+02  0.2487311320000000E+01
2
0.2209559200000000E+00 1  0.1833745811000000E+02
0.2113324700000000E+00 0
       &END POTENTIAL
     &END KIND
     &KIND H
       BASIS_SET DZVP-MOLOPT-SR-GTH-q1
       POTENTIAL GTH-PBE-q1
       &POTENTIAL
1
0.2000000000000000E+00 2 -0.4178900440000000E+01  0.7244633100000000E+00
0
       &END POTENTIAL
     &END KIND
     &KIND N
       BASIS_SET DZVP-MOLOPT-SR-GTH
       POTENTIAL GTH-PBE-q5
       &POTENTIAL
2 3
0.2837905100000000E+00 2 -0.1241522559000000E+02  0.1868095920000000E+01
2
0.2554050000000000E+00 1  0.1363026257000000E+02
0.2454945300000000E+00 0
       &END POTENTIAL
     &END KIND
     &KIND Ga
       BASIS_SET DZVP-MOLOPT-SR-GTH
       POTENTIAL GTH-PBE-q13
       &POTENTIAL
2 1 10
0.4900000000000000E+00 0
3
0.4167772300000000E+00 3  0.1047568975000000E+02 -0.4921768140000000E+01  0.8707055900000000E+00
0.7770178090000000E+01 -0.2248152160000000E+01
0.1784415450000000E+01
0.5696265200000000E+00 2  0.1777985340000000E+01  0.1958597600000000E+00
-0.2317443900000000E+00
0.2381265000000000E+00 1 -0.1624868022000000E+02
       &END POTENTIAL
     &END KIND
     &TOPOLOGY
       NUMBER_OF_ATOMS  212
       MULTIPLE_UNIT_CELL  1 1 1
     &END TOPOLOGY
     &COLVAR
       &DISTANCE
         ATOMS  176 211
       &END DISTANCE
       &PRINT
       &END PRINT
     &END COLVAR
   &END SUBSYS
 &END FORCE_EVAL
