 # Version information for this restart file 
 # current date 2019-07-14 23:27:52.715
 # current working dir /lustre04/scratch/rzk/rzk/GaN-carbene/443-adatoms-both-2x2/09-BondBreaking-CH/03-0501-CH-to-Nsur-PES/Phase02
 # Program compiled at                              Sun Apr  7 00:48:11 EDT 2019
 # Program compiled on                          beluga2.int.ets1.calculquebec.ca
 # Program compiled for                        Beluga-Linux-x86-64-intel-openmpi
 # Source code revision number                                         svn:18619
 &GLOBAL
   PRINT_LEVEL  MEDIUM
   PROJECT_NAME TEST
   RUN_TYPE  GEO_OPT
 &END GLOBAL
 &MOTION
   &GEO_OPT
     MAX_ITER  500
     STEP_START_VAL  28
   &END GEO_OPT
   &CONSTRAINT
     &COLLECTIVE
       COLVAR  1
       INTERMOLECULAR  T
       TARGET     2.6456165860399001E+00
       &RESTRAINT
         K     2.0000000000000000E+00
       &END RESTRAINT
     &END COLLECTIVE
     &COLVAR_RESTART
           2.6456165860399001E+00
     &END COLVAR_RESTART
   &END CONSTRAINT
 &END MOTION
 &FORCE_EVAL
   METHOD  QS
   STRESS_TENSOR  ANALYTICAL
   &DFT
     BASIS_SET_FILE_NAME BASIS_MOLOPT
     POTENTIAL_FILE_NAME GTH_POTENTIALS
     UKS  T
     SURFACE_DIPOLE_CORRECTION  T
     SURF_DIP_DIR  Z
     &SCF
       MAX_SCF  80
       EPS_SCF     5.0000000000000004E-06
       &OT  T
         PRECONDITIONER  FULL_ALL
       &END OT
       &OUTER_SCF  T
         OPTIMIZER  NONE
         EPS_SCF     5.0000000000000004E-06
         MAX_SCF  4
       &END OUTER_SCF
       &PRINT
         &RESTART  OFF
           BACKUP_COPIES  1
           &EACH
             JUST_ENERGY  0
             QS_SCF  0
             MD  20
           &END EACH
         &END RESTART
       &END PRINT
     &END SCF
     &QS
       EPS_DEFAULT     1.0000000000000000E-14
       METHOD  GPW
     &END QS
     &MGRID
       NGRIDS  5
       CUTOFF     1.2000000000000000E+03
     &END MGRID
     &XC
       DENSITY_CUTOFF     1.0000000000000000E-10
       GRADIENT_CUTOFF     1.0000000000000000E-10
       TAU_CUTOFF     1.0000000000000000E-10
       &XC_FUNCTIONAL  NO_SHORTCUT
         &PBE  T
         &END PBE
       &END XC_FUNCTIONAL
       &VDW_POTENTIAL
         POTENTIAL_TYPE  PAIR_POTENTIAL
         &PAIR_POTENTIAL
           R_CUTOFF     1.0000000000000009E+01
           TYPE  DFTD3
           PARAMETER_FILE_NAME dftd3.dat
           REFERENCE_FUNCTIONAL PBE
           EPS_CN     9.9999999999999995E-07
           CALCULATE_C9_TERM  T
           REFERENCE_C9_TERM  T
           LONG_RANGE_CORRECTION  F
           VERBOSE_OUTPUT  F
         &END PAIR_POTENTIAL
       &END VDW_POTENTIAL
     &END XC
   &END DFT
   &SUBSYS
     &CELL
       A     1.2864472766435110E+01    0.0000000000000000E+00    0.0000000000000000E+00
       B    -6.4322363581020028E+00    1.1140960178524477E+01    0.0000000000000000E+00
       C     0.0000000000000000E+00    0.0000000000000000E+00    3.2000000000000000E+01
       MULTIPLE_UNIT_CELL  1 1 1
       &CELL_REF
         A     1.2982353780853531E+01    0.0000000000000000E+00    0.0000000000000000E+00
         B    -6.4911768904267628E+00    1.1243048175136114E+01    0.0000000000000000E+00
         C     0.0000000000000000E+00    0.0000000000000000E+00    3.2000000000000000E+01
         MULTIPLE_UNIT_CELL  1 1 1
       &END CELL_REF
     &END CELL
     &COORD
N    5.6885623645724862E-03    2.0493635056185742E+00    2.4515264332477815E+00
Ga    7.5592305231632806E-04    9.2968315797013742E-02    2.7982479908243185E+00
N   -7.9718133278230737E-03    5.1012124163609923E-02    4.9654386445760190E+00
Ga    5.5547990468016511E-03    1.8868481060845113E+00    5.7344248000162743E+00
N   -9.4784993404646296E-04    1.8912296598535725E+00    7.7403892389478957E+00
Ga   -1.1967077475872174E-03    4.7697180084379558E-02    8.3895442433810530E+00
N   -3.2492834008800453E-03    4.5355786293584728E-02    1.0367175382992611E+01
Ga   -4.0282440548027728E-03    1.8843467176782038E+00    1.1022741640720760E+01
N   -4.1152443936444023E-03    1.8650078237952155E+00    1.3017829040670877E+01
Ga   -1.6730227273814770E-03    4.4700702545663717E-02    1.3821320303526548E+01
N   -1.1592571229780946E-03    4.4349567602212744E-02    1.6023164472662447E+01
Ga   -4.6369014210639299E-03    2.0811225288374162E+00    1.6427969343264401E+01
Ga   -2.3176314015877636E-02    3.7090122047537557E+00    1.2367024506123125E+00
N   -1.4683413037924387E+00    4.6254426933877051E+00    2.4369324680864537E+00
Ga   -1.6663611931235955E+00    2.7928757172442640E+00    3.2144579077915929E+00
N   -1.6125855088075176E+00    2.8324522775450167E+00    5.1972779789619636E+00
Ga   -1.6281065402464940E+00    4.6984850349020819E+00    5.7461570831664712E+00
N   -1.6189430513289993E+00    4.6963018883268726E+00    7.7443571175489607E+00
Ga   -1.5973462641829019E+00    2.8364026806888893E+00    8.3844192639951629E+00
N   -1.6001028799162569E+00    2.8373657336284266E+00    1.0381160750815956E+01
Ga   -1.6287654706831254E+00    4.6945903967352507E+00    1.1026120984098638E+01
N   -1.6445667820024599E+00    4.7054232969272638E+00    1.3020360213329019E+01
Ga   -1.6003694364829200E+00    2.8363123235122658E+00    1.3573740452707002E+01
N   -1.6263146985647625E+00    2.8177070058191971E+00    1.5536585710987897E+01
Ga   -1.4631499362962219E+00    4.5963466817590461E+00    1.6427130739430247E+01
N   -9.1083476463214002E-03    3.7611192786338297E+00    1.7554130183844048E+01
N   -3.2374446437023141E+00    7.5820514734684581E+00    2.4506321573213645E+00
Ga   -3.1835749428096722E+00    5.5886284856668151E+00    2.8024972331398716E+00
N   -3.2147758553615788E+00    5.6087483339037583E+00    4.9661748864668107E+00
Ga   -3.2387660314212972E+00    7.4339539743499330E+00    5.7397587786410504E+00
N   -3.2252786066336911E+00    7.4623124092016582E+00    7.7364117031801296E+00
Ga   -3.2186401093866857E+00    5.6151993949869352E+00    8.3937994320035560E+00
N   -3.2195418087666088E+00    5.6161476659119973E+00    1.0368701782074449E+01
Ga   -3.2218756274867775E+00    7.4543534278290000E+00    1.1024895351053141E+01
N   -3.2202504457197212E+00    7.4356380252506815E+00    1.3016706341987426E+01
Ga   -3.2217083822415598E+00    5.6165806761704129E+00    1.3825087906403263E+01
N   -3.2234523041503111E+00    5.6182944781064936E+00    1.6022403312647331E+01
Ga   -3.2232817411367072E+00    7.6661317456865179E+00    1.6439660918579989E+01
Ga   -3.2507357560336505E+00    9.3494030806913955E+00    1.3442138443737983E+00
N   -4.7439912500670172E+00    1.0182367762497785E+01    2.4588275777289286E+00
Ga   -4.9661451852663498E+00    8.3229651272234264E+00    3.1763106757729296E+00
N   -4.8483371505354604E+00    8.3860824558904579E+00    5.1561688387270728E+00
Ga   -4.8618674761801346E+00    1.0264003422496559E+01    5.7279676376928625E+00
N   -4.8397762142909855E+00    1.0256512343761083E+01    7.7322457532227595E+00
Ga   -4.8205857498475373E+00    8.4070808411750715E+00    8.3911522978230213E+00
N   -4.8171422239282373E+00    8.4071053244665030E+00    1.0382627781703738E+01
Ga   -4.8432762986581919E+00    1.0266733038813394E+01    1.1021682085094906E+01
N   -4.8592993762851373E+00    1.0275836208399863E+01    1.3014759768375372E+01
Ga   -4.8167372877881292E+00    8.4076243539477673E+00    1.3574300109585758E+01
N   -4.8472536504602912E+00    8.3898120917296417E+00    1.5531674421273143E+01
Ga   -4.6625013051720279E+00    1.0157336895939396E+01    1.6439274639502987E+01
N   -3.2227898094286780E+00    9.3298318112366250E+00    1.7575520979384923E+01
N    3.2070647791726947E+00    1.8985011387007500E+00    2.5565683977927720E+00
Ga    3.1933869957155503E+00    1.4823295438426518E-01    3.2207040153219029E+00
N    3.2077217722142470E+00    4.1221515967872074E-02    5.1905588770452402E+00
Ga    3.1996908658894272E+00    1.9081571192754077E+00    5.8127251884224931E+00
N    3.2097246309901912E+00    1.9010009899346323E+00    7.7929348271339860E+00
Ga    3.2064608627295090E+00    3.4081820051286189E-02    8.3800994667152633E+00
N    3.2101287326396450E+00    3.1171364236759713E-02    1.0376422256642416E+01
Ga    3.2107029820279904E+00    1.8992708863364198E+00    1.0979929427987175E+01
N    3.2109469140469615E+00    1.9006529572543174E+00    1.2951333483011988E+01
Ga    3.2120297547125745E+00    3.1798264375101894E-02    1.3575942505714519E+01
N    3.2101128972018707E+00    6.4862945136915887E-02    1.5535792071637029E+01
Ga    3.2128280733260857E+00    1.9017737123856164E+00    1.5812820257535423E+01
N    1.4999257153941143E+00    4.6393897540198665E+00    2.3281500094999155E+00
Ga    1.6897764511145603E+00    2.8176200975054631E+00    3.1876007605925669E+00
N    1.6081654338516782E+00    2.8459451225237453E+00    5.1749735196353850E+00
Ga    1.6574848438642378E+00    4.7086033313294182E+00    5.7638058002079102E+00
N    1.6053444653710587E+00    4.6897947488943608E+00    7.7692571788288163E+00
Ga    1.5932817216926252E+00    2.8342889483094740E+00    8.3921416610761082E+00
N    1.5928425328509954E+00    2.8343337960260557E+00    1.0387009737829850E+01
Ga    1.6199145972360933E+00    4.6942864244056368E+00    1.1024137208304900E+01
N    1.6357387471701079E+00    4.7051186672693230E+00    1.3019447387069555E+01
Ga    1.5931950497707195E+00    2.8362891469406879E+00    1.3573462070254237E+01
N    1.6175770809593817E+00    2.8196311690063594E+00    1.5536689186086905E+01
Ga    1.4491495850741629E+00    4.5936181274830892E+00    1.6427221969428437E+01
N   -1.3008695363416797E-02    7.4702592307306004E+00    2.6414424293290262E+00
Ga    3.7321053927619224E-02    5.6000986655806129E+00    3.2404213064740608E+00
N    8.9686047340400091E-03    5.6257994219399556E+00    5.1838782951205609E+00
Ga   -6.1953886028690694E-03    7.4576961598927918E+00    5.8539685878428536E+00
N   -6.3522269366045308E-03    7.4698642596198779E+00    7.8129491278970358E+00
Ga   -4.2740431088504442E-03    5.5984122168194057E+00    8.4049504597394247E+00
N   -6.3774607678907342E-03    5.6036634224704400E+00    1.0394233073782356E+01
Ga   -7.4900985148682554E-03    7.4729392555013332E+00    1.0985886031483126E+01
N   -4.6357710501622089E-03    7.4722613862426099E+00    1.2956477950648075E+01
Ga   -3.6494806690375078E-03    5.6015264816249379E+00    1.3576179858156701E+01
N   -2.6879068348904913E-03    5.6315937220841024E+00    1.5541643633779341E+01
Ga   -4.5379435092817808E-03    7.4723750091906380E+00    1.5815143756890299E+01
N   -1.7197643469886079E+00    1.0184845700097455E+01    2.4676994367534171E+00
Ga   -1.6206216389979367E+00    8.3811154112843163E+00    3.2710915320304688E+00
N   -1.6060009409005167E+00    8.3879835209129112E+00    5.2017599942126944E+00
Ga   -1.5933276546811432E+00    1.0275760149188573E+01    5.7546527513472672E+00
N   -1.6041894437103552E+00    1.0259687638018493E+01    7.7458813223264773E+00
Ga   -1.6282193111803851E+00    8.4050073847421896E+00    8.3924697349885218E+00
N   -1.6259853233549206E+00    8.4061979150926867E+00    1.0382951126417693E+01
Ga   -1.6010030659422767E+00    1.0266177070688837E+01    1.1022116933998650E+01
N   -1.5813600859143178E+00    1.0275717701116104E+01    1.3014992896822100E+01
Ga   -1.6245711164530550E+00    8.4081191145528074E+00    1.3576215227947735E+01
N   -1.5950447620128170E+00    8.3888061207850217E+00    1.5534689995819418E+01
Ga   -1.7811309475820900E+00    1.0159099368893289E+01    1.6439260865262288E+01
N    6.4357347690771327E+00    2.0152089608066488E+00    2.5010705943747240E+00
Ga    6.4187270310667239E+00    4.4878649664816500E-02    2.8378704197433788E+00
N    6.4265639391864413E+00    4.2706564628788392E-02    4.9801468817804837E+00
Ga    6.4242110786170539E+00    1.8770627759538052E+00    5.7591195549033172E+00
N    6.4277731781301064E+00    1.8884232283080573E+00    7.7530089836765352E+00
Ga    6.4254351006196977E+00    4.5248519692267619E-02    8.4011670514402326E+00
N    6.4264181503437818E+00    4.3887146400055116E-02    1.0373213983049514E+01
Ga    6.4276493430030373E+00    1.8846202055043004E+00    1.1024639016643368E+01
N    6.4287998746702586E+00    1.8648633708993032E+00    1.3016984174473917E+01
Ga    6.4254373597041265E+00    4.6251622377964256E-02    1.3824033117814807E+01
N    6.4246185334781574E+00    4.7834020503072429E-02    1.6022052964016687E+01
Ga    6.4253762610715928E+00    2.0926074910588679E+00    1.6438077975012419E+01
Ga    6.4603127406320695E+00    3.7205478101392080E+00    1.4689340406026716E+00
N    4.9381635768083934E+00    4.5945009818394453E+00    2.4521487917870202E+00
Ga    4.7044700265724790E+00    2.7737291742074812E+00    3.2515488581614851E+00
N    4.8204667996685613E+00    2.8307530925531448E+00    5.2081366246945375E+00
Ga    4.7749333982377049E+00    4.7084202457923698E+00    5.7691683028257357E+00
N    4.8203448345522446E+00    4.6870680444093527E+00    7.7724147288501397E+00
Ga    4.8274695517121700E+00    2.8319750480070089E+00    8.3945037414109898E+00
N    4.8298410349126817E+00    2.8329740033999715E+00    1.0387727865693144E+01
Ga    4.8046663380775074E+00    4.6943243645239781E+00    1.1023226886924995E+01
N    4.7890757173176848E+00    4.7047920766452602E+00    1.3016876291369639E+01
Ga    4.8313533943942071E+00    2.8361711244436845E+00    1.3572599704446146E+01
N    4.8023242261190369E+00    2.8193670716231196E+00    1.5531430197031572E+01
Ga    4.9834450952392828E+00    4.5878997917650866E+00    1.6437878309771055E+01
N    6.4251724471467311E+00    3.7588951467856377E+00    1.7577534882173506E+01
N    3.1892534838045061E+00    7.6198834926753189E+00    2.4688269497258264E+00
N    3.2187231444530791E+00    5.6219029327204968E+00    5.0765059547946043E+00
Ga    3.2146655192490998E+00    7.4158473371413169E+00    5.7823237168157089E+00
N    3.2099985286206385E+00    7.4738432474716818E+00    7.7778799924307211E+00
Ga    3.2126324519667602E+00    5.6139684321800880E+00    8.3971640075614093E+00
N    3.2119598406149366E+00    5.6158820086406624E+00    1.0376129293547207E+01
Ga    3.2121433011970506E+00    7.4542300033515998E+00    1.1026244505886432E+01
N    3.2121231392259748E+00    7.4359201975835569E+00    1.3020571690660493E+01
Ga    3.2138556051129847E+00    5.6140600539194452E+00    1.3821041196361637E+01
N    3.2149588394928519E+00    5.6144968947363854E+00    1.6024019679624377E+01
Ga    3.2115417143783835E+00    7.6498089058817653E+00    1.6428925648825491E+01
Ga    3.2291104355561431E+00    9.3663040671357294E+00    1.4238157750974894E+00
N    1.7023791445254728E+00    1.0191699908864994E+01    2.4831236494527849E+00
Ga    1.5760793863777331E+00    8.3785650409337542E+00    3.2992684732655366E+00
N    1.5908250847150673E+00    8.3954545193996495E+00    5.2205463460724904E+00
Ga    1.5766235196984788E+00    1.0277888829691740E+01    5.7688733902067320E+00
N    1.5926849287992115E+00    1.0262376244724875E+01    7.7569132867740205E+00
Ga    1.6122772407729915E+00    8.4086253169786307E+00    8.4078565191022019E+00
N    1.6114751568085044E+00    8.4084677371423506E+00    1.0395604374525741E+01
Ga    1.5878917549374623E+00    1.0268122209447492E+01    1.1028532299829365E+01
N    1.5719470972854861E+00    1.0277078787087548E+01    1.3021677357533692E+01
Ga    1.6159096455831337E+00    8.4075896437172162E+00    1.3575027967996018E+01
N    1.5898426255780485E+00    8.3887185308313974E+00    1.5538521952207374E+01
Ga    1.7519540005354508E+00    1.0167979501810384E+01    1.6427763076315610E+01
N    3.2062404162302149E+00    9.3311306104772171E+00    1.7556491236551082E+01
N    9.6618354743697239E+00    1.9097197627542022E+00    2.5699168069091671E+00
Ga    9.6527829393561575E+00    1.7035117632376856E-01    3.2486490798150500E+00
N    9.6412189832396127E+00    4.4009072544257725E-02    5.2093316719044509E+00
Ga    9.6562125906100800E+00    1.9066693547287232E+00    5.8313960629315647E+00
N    9.6460104290359592E+00    1.9017843668816568E+00    7.8045542490807973E+00
Ga    9.6457249754996024E+00    3.5007586745665106E-02    8.3942775771066476E+00
N    9.6437107791866428E+00    3.2139885915670144E-02    1.0386580736439427E+01
Ga    9.6453205596871623E+00    1.9032506066529273E+00    1.0978223955358992E+01
N    9.6454482050824577E+00    1.9014539470576139E+00    1.2951322899605172E+01
Ga    9.6450977037427723E+00    3.2530272290390558E-02    1.3576321708996616E+01
N    9.6461790924274879E+00    6.1781424636216116E-02    1.5541805787333072E+01
Ga    9.6438034816135119E+00    1.9023568186466868E+00    1.5816420503638078E+01
N    7.9326936823400347E+00    4.6238266545215456E+00    2.4900166636614287E+00
Ga    8.1547977757110814E+00    2.7689452029896251E+00    3.2612887822501362E+00
N    8.0393022255867397E+00    2.8269991590612253E+00    5.2161928436454756E+00
Ga    8.0639897418150372E+00    4.7011500531191617E+00    5.7537307750065496E+00
N    8.0465621004120607E+00    4.6936132131396366E+00    7.7485296765967488E+00
Ga    8.0269150150237554E+00    2.8353575609547352E+00    8.3901457443049754E+00
N    8.0249764187959229E+00    2.8364579936623731E+00    1.0383543258923314E+01
Ga    8.0527288661439371E+00    4.6952836776511271E+00    1.1024948610063397E+01
N    8.0691789745694962E+00    4.7052709050961452E+00    1.3017028517870040E+01
Ga    8.0253003262539355E+00    2.8367502236631377E+00    1.3574378727612890E+01
N    8.0529534385726347E+00    2.8184587273144426E+00    1.5533859451857531E+01
Ga    7.8692679941411399E+00    4.5890844344930137E+00    1.6437982268128781E+01
N    6.3442965526818451E+00    7.4298011878255767E+00    2.4513936622454504E+00
Ga    6.4105197820780084E+00    5.7012467339158324E+00    3.2616003786362580E+00
N    6.4269914215733346E+00    5.6190327212373194E+00    5.2042030149125624E+00
Ga    6.4248390986569444E+00    7.4704278824345698E+00    5.8409055611567942E+00
N    6.4258654280897520E+00    7.4707294943836331E+00    7.8074819772149491E+00
Ga    6.4298502165737919E+00    5.6008020445357838E+00    8.4018804179068169E+00
N    6.4305267344268486E+00    5.6040093731006033E+00    1.0391894688533394E+01
Ga    6.4293466854809909E+00    7.4732068664582272E+00    1.0984280344829585E+01
N    6.4278185945366273E+00    7.4728782847903457E+00    1.2954075025555390E+01
Ga    6.4287019625453166E+00    5.6015506817876437E+00    1.3575227031980827E+01
N    6.4267927278243926E+00    5.6337929382828271E+00    1.5536187662095321E+01
Ga    6.4285378917348588E+00    7.4713581867304288E+00    1.5813301084258683E+01
N    4.7183177154920184E+00    1.0197733594421056E+01    2.4847102803104919E+00
Ga    4.8882950298210250E+00    8.3499454558406754E+00    3.2699762693305683E+00
N    4.8186489665982091E+00    8.4000810492483566E+00    5.2112671302151776E+00
Ga    4.8496973919475943E+00    1.0278185819622495E+01    5.7563597374272462E+00
N    4.8298953588877049E+00    1.0263822380010000E+01    7.7506166387792375E+00
Ga    4.8099946421682107E+00    8.4107668630576349E+00    8.4031361912962339E+00
N    4.8107989318138475E+00    8.4089483849347317E+00    1.0392897877415034E+01
Ga    4.8367196618137225E+00    1.0268547516249795E+01    1.1025340424370125E+01
N    4.8524959790635664E+00    1.0277097490983785E+01    1.3019130552388567E+01
Ga    4.8089502976952865E+00    8.4079625292890121E+00    1.3574728629789748E+01
N    4.8338697899707688E+00    8.3909958914389513E+00    1.5538025049615273E+01
Ga    4.6654673090023504E+00    1.0164675396143647E+01    1.6428435188443263E+01
O    3.4672614442322232E-02    3.6656591291074583E+00   -5.8357260973973879E-01
H   -4.0473004941356328E-03    7.4833700800779699E+00    1.6147441664147282E+00
C    9.8402906246417246E-02    2.3622971803087585E+00   -1.1824741749744132E+00
H    9.4362498308587017E-01    1.7637542112138300E+00   -8.0236030866883545E-01
H   -8.2797123970734321E-01    1.7860129386462489E+00   -1.0227443844300799E+00
H    2.3491050812441960E-01    2.5036235890661125E+00   -2.2651992932404825E+00
Ga    3.2270278242955697E+00    5.6206824683437402E+00    2.2808880265466915E+00
O    3.8887625424199763E+00    6.1595949599237443E+00    2.1329734236810272E-01
H    3.7627499959282944E+00    5.4804840052817863E+00   -4.7091807408329039E-01
C    5.2809013907836757E+00    6.6952925627564230E+00    1.2547954212435442E-01
H    5.2720636408620258E+00    7.4933924701412131E+00   -6.3111585902779899E-01
H    5.7637344067750744E+00    7.0910822838872356E+00    1.2165085476181392E+00
H    5.9453756331244465E+00    5.8935638753920552E+00   -2.4205407804984641E-01
     &END COORD
     &KIND C
       BASIS_SET DZVP-MOLOPT-SR-GTH-q4
       POTENTIAL GTH-PBE-q4
       &POTENTIAL
2 2
0.3384712400000000E+00 2 -0.8803673979999999E+01  0.1339210850000000E+01
2
0.3025757500000000E+00 1  0.9622486650000001E+01
0.2915069400000000E+00 0
       &END POTENTIAL
     &END KIND
     &KIND O
       BASIS_SET DZVP-MOLOPT-SR-GTH-q6
       POTENTIAL GTH-PBE-q6
       &POTENTIAL
2 4
0.2445543000000000E+00 2 -0.1666721480000000E+02  0.2487311320000000E+01
2
0.2209559200000000E+00 1  0.1833745811000000E+02
0.2113324700000000E+00 0
       &END POTENTIAL
     &END KIND
     &KIND H
       BASIS_SET DZVP-MOLOPT-SR-GTH-q1
       POTENTIAL GTH-PBE-q1
       &POTENTIAL
1
0.2000000000000000E+00 2 -0.4178900440000000E+01  0.7244633100000000E+00
0
       &END POTENTIAL
     &END KIND
     &KIND N
       BASIS_SET DZVP-MOLOPT-SR-GTH
       POTENTIAL GTH-PBE-q5
       &POTENTIAL
2 3
0.2837905100000000E+00 2 -0.1241522559000000E+02  0.1868095920000000E+01
2
0.2554050000000000E+00 1  0.1363026257000000E+02
0.2454945300000000E+00 0
       &END POTENTIAL
     &END KIND
     &KIND Ga
       BASIS_SET DZVP-MOLOPT-SR-GTH
       POTENTIAL GTH-PBE-q13
       &POTENTIAL
2 1 10
0.4900000000000000E+00 0
3
0.4167772300000000E+00 3  0.1047568975000000E+02 -0.4921768140000000E+01  0.8707055900000000E+00
0.7770178090000000E+01 -0.2248152160000000E+01
0.1784415450000000E+01
0.5696265200000000E+00 2  0.1777985340000000E+01  0.1958597600000000E+00
-0.2317443900000000E+00
0.2381265000000000E+00 1 -0.1624868022000000E+02
       &END POTENTIAL
     &END KIND
     &TOPOLOGY
       NUMBER_OF_ATOMS  212
       MULTIPLE_UNIT_CELL  1 1 1
     &END TOPOLOGY
     &COLVAR
       &DISTANCE
         ATOMS  176 211
       &END DISTANCE
       &PRINT
       &END PRINT
     &END COLVAR
   &END SUBSYS
 &END FORCE_EVAL
