 # Version information for this restart file 
 # current date 2019-07-15 10:07:22.058
 # current working dir /lustre04/scratch/rzk/rzk/GaN-carbene/443-adatoms-both-2x2/09-BondBreaking-CH/03-0501-CH-to-Nsur-PES/Phase02
 # Program compiled at                              Sun Apr  7 00:48:11 EDT 2019
 # Program compiled on                          beluga2.int.ets1.calculquebec.ca
 # Program compiled for                        Beluga-Linux-x86-64-intel-openmpi
 # Source code revision number                                         svn:18619
 &GLOBAL
   PRINT_LEVEL  MEDIUM
   PROJECT_NAME TEST
   RUN_TYPE  GEO_OPT
 &END GLOBAL
 &MOTION
   &GEO_OPT
     MAX_ITER  500
     STEP_START_VAL  21
   &END GEO_OPT
   &CONSTRAINT
     &COLLECTIVE
       COLVAR  1
       INTERMOLECULAR  T
       TARGET     2.4566439727513361E+00
       &RESTRAINT
         K     2.0000000000000000E+00
       &END RESTRAINT
     &END COLLECTIVE
     &COLVAR_RESTART
           2.4566439727513361E+00
     &END COLVAR_RESTART
   &END CONSTRAINT
 &END MOTION
 &FORCE_EVAL
   METHOD  QS
   STRESS_TENSOR  ANALYTICAL
   &DFT
     BASIS_SET_FILE_NAME BASIS_MOLOPT
     POTENTIAL_FILE_NAME GTH_POTENTIALS
     UKS  T
     SURFACE_DIPOLE_CORRECTION  T
     SURF_DIP_DIR  Z
     &SCF
       MAX_SCF  80
       EPS_SCF     5.0000000000000004E-06
       &OT  T
         PRECONDITIONER  FULL_ALL
       &END OT
       &OUTER_SCF  T
         OPTIMIZER  NONE
         EPS_SCF     5.0000000000000004E-06
         MAX_SCF  4
       &END OUTER_SCF
       &PRINT
         &RESTART  OFF
           BACKUP_COPIES  1
           &EACH
             JUST_ENERGY  0
             QS_SCF  0
             MD  20
           &END EACH
         &END RESTART
       &END PRINT
     &END SCF
     &QS
       EPS_DEFAULT     1.0000000000000000E-14
       METHOD  GPW
     &END QS
     &MGRID
       NGRIDS  5
       CUTOFF     1.2000000000000000E+03
     &END MGRID
     &XC
       DENSITY_CUTOFF     1.0000000000000000E-10
       GRADIENT_CUTOFF     1.0000000000000000E-10
       TAU_CUTOFF     1.0000000000000000E-10
       &XC_FUNCTIONAL  NO_SHORTCUT
         &PBE  T
         &END PBE
       &END XC_FUNCTIONAL
       &VDW_POTENTIAL
         POTENTIAL_TYPE  PAIR_POTENTIAL
         &PAIR_POTENTIAL
           R_CUTOFF     1.0000000000000009E+01
           TYPE  DFTD3
           PARAMETER_FILE_NAME dftd3.dat
           REFERENCE_FUNCTIONAL PBE
           EPS_CN     9.9999999999999995E-07
           CALCULATE_C9_TERM  T
           REFERENCE_C9_TERM  T
           LONG_RANGE_CORRECTION  F
           VERBOSE_OUTPUT  F
         &END PAIR_POTENTIAL
       &END VDW_POTENTIAL
     &END XC
   &END DFT
   &SUBSYS
     &CELL
       A     1.2864472766435110E+01    0.0000000000000000E+00    0.0000000000000000E+00
       B    -6.4322363581020028E+00    1.1140960178524477E+01    0.0000000000000000E+00
       C     0.0000000000000000E+00    0.0000000000000000E+00    3.2000000000000000E+01
       MULTIPLE_UNIT_CELL  1 1 1
       &CELL_REF
         A     1.2982353780853531E+01    0.0000000000000000E+00    0.0000000000000000E+00
         B    -6.4911768904267628E+00    1.1243048175136114E+01    0.0000000000000000E+00
         C     0.0000000000000000E+00    0.0000000000000000E+00    3.2000000000000000E+01
         MULTIPLE_UNIT_CELL  1 1 1
       &END CELL_REF
     &END CELL
     &COORD
N    8.6162636086387651E-03    2.0519805212784026E+00    2.4525457922454144E+00
Ga   -1.1299564946888115E-03    9.9507183823598300E-02    2.8037983473247934E+00
N   -5.0816525577013858E-03    5.1284410265431561E-02    4.9629873531026583E+00
Ga    8.4172004439764178E-03    1.8896957486364152E+00    5.7362678035112369E+00
N    9.8638325465915571E-04    1.8919314613000506E+00    7.7382713548611122E+00
Ga    5.0141660134120673E-04    4.9402444426079460E-02    8.3925808182258095E+00
N   -1.5864757755477568E-03    4.6511140159892939E-02    1.0365667128814163E+01
Ga   -2.6666517014366686E-03    1.8852108141501944E+00    1.1026262559410990E+01
N   -2.9893910784979296E-03    1.8655855332226889E+00    1.3016511831456924E+01
Ga   -2.3474931974540292E-03    4.6795954305241187E-02    1.3831284747544153E+01
N   -2.8612721429430010E-03    4.6148138194494703E-02    1.6020524848676569E+01
Ga   -2.6639664799182187E-03    2.0936935813259514E+00    1.6438943264233490E+01
Ga   -2.1653599287330055E-02    3.7106768539944261E+00    1.2365318707938753E+00
N   -1.4649872879267589E+00    4.6270616716861594E+00    2.4388442711173552E+00
Ga   -1.6648566335765771E+00    2.7940727678729487E+00    3.2163473741647337E+00
N   -1.6104382317926258E+00    2.8338948998055487E+00    5.1962684207909176E+00
Ga   -1.6248456006013636E+00    4.7000163814988785E+00    5.7477853439931934E+00
N   -1.6176626497434590E+00    4.6980420753229595E+00    7.7423288593386053E+00
Ga   -1.5955737238865235E+00    2.8376826679389837E+00    8.3867180572851456E+00
N   -1.5987818121431652E+00    2.8385789409006961E+00    1.0379348705404546E+01
Ga   -1.6274406565018413E+00    4.6959900408109405E+00    1.1029217364419949E+01
N   -1.6438085785636547E+00    4.7067108052136115E+00    1.3018300759078050E+01
Ga   -1.6000205543537989E+00    2.8372715405080280E+00    1.3577092420353036E+01
N   -1.6312386789819104E+00    2.8195118910370121E+00    1.5534389960341654E+01
Ga   -1.4453261676504299E+00    4.5925571001745249E+00    1.6439381711365996E+01
N   -8.3757872635116699E-03    3.7560182552348995E+00    1.7567645569432440E+01
N   -3.2353613782739892E+00    7.5836753585524503E+00    2.4451025928734458E+00
Ga   -3.1808539453108198E+00    5.5822630763556997E+00    2.8067814383694927E+00
N   -3.2131780424620362E+00    5.6118417834659287E+00    4.9643556509116591E+00
Ga   -3.2375050093541446E+00    7.4347820111253275E+00    5.7441625961291027E+00
N   -3.2244547401132007E+00    7.4641868021988405E+00    7.7347540430466175E+00
Ga   -3.2167085070453370E+00    5.6164279879889092E+00    8.3964732598380269E+00
N   -3.2182432907082310E+00    5.6175396265095365E+00    1.0367363296835482E+01
Ga   -3.2201321033698620E+00    7.4549151193157934E+00    1.1028878952650269E+01
N   -3.2189428453047406E+00    7.4361746328474458E+00    1.3017411833622820E+01
Ga   -3.2188017817681587E+00    5.6163829291115173E+00    1.3833058682869584E+01
N   -3.2189851821178093E+00    5.6165921388138980E+00    1.6021117811694328E+01
Ga   -3.2192020622714308E+00    7.6644375072559487E+00    1.6440339878225501E+01
Ga   -3.2416468156568139E+00    9.3565232791744144E+00    1.3702661116252837E+00
N   -4.7422760813490399E+00    1.0184545348110722E+01    2.4544825157149530E+00
Ga   -4.9589107322040071E+00    8.3268479339194830E+00    3.1793397417677474E+00
N   -4.8476598179938204E+00    8.3868860953729332E+00    5.1508774290850727E+00
Ga   -4.8606478606119348E+00    1.0265449429896975E+01    5.7324721379420209E+00
N   -4.8383418768636197E+00    1.0257137246168265E+01    7.7305254385524940E+00
Ga   -4.8192050074200035E+00    8.4085861404532238E+00    8.3955021495513762E+00
N   -4.8157735532759860E+00    8.4083503078127713E+00    1.0382459419606063E+01
Ga   -4.8423987811867937E+00    1.0268666431014063E+01    1.1025819040857490E+01
N   -4.8588985701366090E+00    1.0277597297677721E+01    1.3015548097468834E+01
Ga   -4.8155170398928631E+00    8.4090705109029784E+00    1.3578271228553126E+01
N   -4.8469615415877731E+00    8.3905879379033195E+00    1.5535230544755118E+01
Ga   -4.6620793377559195E+00    1.0163480268869561E+01    1.6439991270609287E+01
N   -3.2251226187317781E+00    9.3273368676817672E+00    1.7569079152544408E+01
N    3.2094106279920478E+00    1.9017953777394505E+00    2.5523608124159960E+00
Ga    3.1950879462001058E+00    1.5842183069031224E-01    3.2258851679460081E+00
N    3.2091367619822839E+00    4.0979878842524221E-02    5.1891828942856639E+00
Ga    3.2016602615137932E+00    1.9111122074929658E+00    5.8142810154952764E+00
N    3.2113648005190929E+00    1.9018157183108066E+00    7.7910956386504608E+00
Ga    3.2080270772199517E+00    3.5380150386326879E-02    8.3831804843684203E+00
N    3.2115503917558619E+00    3.1756105111183708E-02    1.0374900490366537E+01
Ga    3.2122352020665197E+00    1.9001600687602385E+00    1.0982124716865792E+01
N    3.2139108097454878E+00    1.9017508384966557E+00    1.2948652826478941E+01
Ga    3.2134374182002974E+00    3.4034781490811732E-02    1.3577700365467976E+01
N    3.2150272916819027E+00    6.7851869258623590E-02    1.5533990822575454E+01
Ga    3.2148079593065382E+00    1.9037681288168415E+00    1.5818385759540977E+01
N    1.5030994345756548E+00    4.6419531725894982E+00    2.3180397938424422E+00
Ga    1.6940187371828983E+00    2.8224980830533446E+00    3.1871628022459340E+00
N    1.6105255081330119E+00    2.8480675793211434E+00    5.1720843682085809E+00
Ga    1.6598964100346218E+00    4.7100263406462632E+00    5.7689638006781427E+00
N    1.6057776638093284E+00    4.6902384822802592E+00    7.7707350433979689E+00
Ga    1.5946442558527172E+00    2.8351646337544403E+00    8.3961864246385947E+00
N    1.5943506666822238E+00    2.8352906544822645E+00    1.0386300117848487E+01
Ga    1.6215222057180896E+00    4.6957687461019066E+00    1.1027243864812903E+01
N    1.6374650936368591E+00    4.7065427743035171E+00    1.3017663491873583E+01
Ga    1.5953022929002985E+00    2.8372414176677938E+00    1.3576189578956500E+01
N    1.6253369186502780E+00    2.8215818414037130E+00    1.5533096457411419E+01
Ga    1.4341105926875484E+00    4.5892451306467787E+00    1.6440593385392955E+01
N   -1.0925493226152560E-02    7.4705464820229750E+00    2.6390174719771551E+00
Ga    4.3492940027733427E-02    5.5999717456499658E+00    3.2408190435820994E+00
N    1.1803474874488103E-02    5.6272360765807363E+00    5.1818657279748495E+00
Ga   -3.8305283673563842E-03    7.4581594801369437E+00    5.8558636427875017E+00
N   -5.4044742552753202E-03    7.4715708394230438E+00    7.8112533664994794E+00
Ga   -3.0412286487613116E-03    5.5994873108646113E+00    8.4081503153677026E+00
N   -5.1490860811705804E-03    5.6047905460057530E+00    1.0392750985758729E+01
Ga   -6.1502183462682535E-03    7.4739420878985543E+00    1.0987570142470148E+01
N   -3.6643806043368740E-03    7.4746032700535876E+00    1.2952132519083676E+01
Ga   -2.4225596227851177E-03    5.6041783670134517E+00    1.3577267691919214E+01
N   -1.2336799085881445E-03    5.6389700241656602E+00    1.5533893987101385E+01
Ga   -1.6695242362780359E-03    7.4744648236453797E+00    1.5818730059468573E+01
N   -1.7168168557792813E+00    1.0186924655533556E+01    2.4677561866064357E+00
Ga   -1.6138508623936663E+00    8.3790044215993476E+00    3.2741766449951584E+00
N   -1.6057412670895221E+00    8.3896158011544451E+00    5.2000658765888286E+00
Ga   -1.5910248821787594E+00    1.0277378453451428E+01    5.7578534578473528E+00
N   -1.6023094659665003E+00    1.0261158978947421E+01    7.7440817733030958E+00
Ga   -1.6268171121055295E+00    8.4065684330405244E+00    8.3957034492988463E+00
N   -1.6250439079077947E+00    8.4077578067708973E+00    1.0381551104270228E+01
Ga   -1.5991832350859889E+00    1.0267677947543755E+01    1.1025598931456591E+01
N   -1.5795435985048449E+00    1.0277196611358526E+01    1.3015022549309156E+01
Ga   -1.6219329408366230E+00    8.4089172345928134E+00    1.3578669335625905E+01
N   -1.5913671984843618E+00    8.3928729986646449E+00    1.5534682293739346E+01
Ga   -1.7822429584979185E+00    1.0160093451376877E+01    1.6442018997023474E+01
N    6.4373272692889829E+00    2.0176342839258803E+00    2.4974764991265621E+00
Ga    6.4265951489113746E+00    5.0907390464264395E-02    2.8390528083716480E+00
N    6.4279170542830624E+00    4.2905726604446096E-02    4.9765347140015619E+00
Ga    6.4257480017368964E+00    1.8793606369163904E+00    5.7601507418775002E+00
N    6.4297771456969697E+00    1.8892504284505152E+00    7.7510786552288478E+00
Ga    6.4272630548918617E+00    4.6667392920303266E-02    8.4040762344996853E+00
N    6.4278255982219505E+00    4.5194074063259253E-02    1.0372377651843969E+01
Ga    6.4292331523099113E+00    1.8855414913723645E+00    1.1027813255605045E+01
N    6.4301543104674153E+00    1.8659154938907767E+00    1.3017418972653235E+01
Ga    6.4284898162218491E+00    4.6337517987117785E-02    1.3829262019942968E+01
N    6.4273496472800122E+00    4.4919897744360851E-02    1.6021813679475002E+01
Ga    6.4291988815559966E+00    2.0862505902932575E+00    1.6437338578793497E+01
Ga    6.4626971277023664E+00    3.7212243630335498E+00    1.4531933172828329E+00
N    4.9390593500132507E+00    4.5942944185834929E+00    2.4432900433427291E+00
Ga    4.7070861630524110E+00    2.7770203560047015E+00    3.2493873877821362E+00
N    4.8225015249496161E+00    2.8324985745439268E+00    5.2051010089861025E+00
Ga    4.7750654834029316E+00    4.7088841760799935E+00    5.7760160010919765E+00
N    4.8233309359249059E+00    4.6876669538403410E+00    7.7746853961445712E+00
Ga    4.8293613790663787E+00    2.8325028049487679E+00    8.3983629504304584E+00
N    4.8316932290763779E+00    2.8340277324807555E+00    1.0387305306758288E+01
Ga    4.8057190573792949E+00    4.6957195956369207E+00    1.1026214629942849E+01
N    4.7900562202166368E+00    4.7060742204403523E+00    1.3017334792822993E+01
Ga    4.8321404545833193E+00    2.8372250414515667E+00    1.3576474607356044E+01
N    4.8073107803035304E+00    2.8229293335747312E+00    1.5536691479961020E+01
Ga    4.9800920627945056E+00    4.5960919215383571E+00    1.6437298562541145E+01
N    6.4234725298794979E+00    3.7559214126246383E+00    1.7579614518549036E+01
N    3.1880846584601858E+00    7.6185252525847149E+00    2.4692391989677316E+00
N    3.2209835213508096E+00    5.6234972842233688E+00    5.0925158122504515E+00
Ga    3.2147793533472311E+00    7.4156036239263363E+00    5.7907005132430553E+00
N    3.2116065241699090E+00    7.4765666165241162E+00    7.7808688792393275E+00
Ga    3.2136725119761986E+00    5.6148183208885838E+00    8.4001059160506024E+00
N    3.2135963389079443E+00    5.6169648171246251E+00    1.0375463515846512E+01
Ga    3.2134469131237848E+00    7.4551792053602197E+00    1.1028692560593718E+01
N    3.2133523722575617E+00    7.4373142179957599E+00    1.3018891989073822E+01
Ga    3.2134159502694799E+00    5.6161320749665320E+00    1.3828110836206488E+01
N    3.2114746816274331E+00    5.6154978224903296E+00    1.6022219916946138E+01
Ga    3.2132684798220987E+00    7.6568905450922458E+00    1.6437951577758533E+01
Ga    3.2354466810435993E+00    9.3603961743876987E+00    1.4271164311653404E+00
N    1.7064502147273701E+00    1.0190569341496373E+01    2.4794552904258720E+00
Ga    1.5769505340887588E+00    8.3781937579677166E+00    3.3010970754337801E+00
N    1.5926420522130962E+00    8.3970660073201877E+00    5.2197676047465125E+00
Ga    1.5791552329142529E+00    1.0278983175185454E+01    5.7709474569291084E+00
N    1.5942841046830747E+00    1.0264426443415609E+01    7.7552043585046935E+00
Ga    1.6132600175690872E+00    8.4106908147116588E+00    8.4112030576659205E+00
N    1.6127136404088551E+00    8.4101456181011596E+00    1.0394313289723522E+01
Ga    1.5892887813985239E+00    1.0269523921100415E+01    1.1031344946545895E+01
N    1.5733390791300141E+00    1.0278259354185728E+01    1.3019608120756455E+01
Ga    1.6161334695681973E+00    8.4085555698138847E+00    1.3578201218703159E+01
N    1.5908681538164469E+00    8.3937542274187589E+00    1.5537990760277207E+01
Ga    1.7643565428452750E+00    1.0166783847561215E+01    1.6437956146739705E+01
N    3.2076169816515878E+00    9.3271970218440838E+00    1.7580357841332066E+01
N    9.6644015448788174E+00    1.9115203747930274E+00    2.5672471313993044E+00
Ga    9.6548533499840179E+00    1.7318179423672228E-01    3.2470179425081316E+00
N    9.6430188333479485E+00    4.4981099106360022E-02    5.2057473206887215E+00
Ga    9.6578852323614388E+00    1.9082299069444082E+00    5.8317573951640078E+00
N    9.6476648304356143E+00    1.9031197590302065E+00    7.8021532285207611E+00
Ga    9.6475363722096006E+00    3.6921976290913150E-02    8.3968958693535622E+00
N    9.6453061407221501E+00    3.2850271917296670E-02    1.0384505283101124E+01
Ga    9.6463853423171457E+00    1.9041200434823846E+00    1.0979634575359261E+01
N    9.6452423320215548E+00    1.9029579910708383E+00    1.2947914495958983E+01
Ga    9.6465391399109031E+00    3.4573525256153023E-02    1.3577491710319938E+01
N    9.6462578009820046E+00    6.3112506489001921E-02    1.5536518869868438E+01
Ga    9.6440184428800748E+00    1.9022689590998092E+00    1.5816441177921639E+01
N    7.9330884344087087E+00    4.6256680785183377E+00    2.4881897313883221E+00
Ga    8.1558496783315118E+00    2.7700194616360649E+00    3.2582357513971285E+00
N    8.0410198290308212E+00    2.8283346858396712E+00    5.2126921384306044E+00
Ga    8.0660425542755423E+00    4.7013276926032495E+00    5.7560940617695255E+00
N    8.0485672519885334E+00    4.6952107731507100E+00    7.7468626739810498E+00
Ga    8.0289193957995071E+00    2.8365550680567999E+00    8.3926769766574782E+00
N    8.0259784748839262E+00    2.8382106558772215E+00    1.0382066897632855E+01
Ga    8.0547421833639028E+00    4.6967408585802142E+00    1.1028360848471385E+01
N    8.0710025695380239E+00    4.7065953759688961E+00    1.3017301000254349E+01
Ga    8.0273944759999942E+00    2.8379029464553369E+00    1.3576982056932053E+01
N    8.0522229688411233E+00    2.8234629490518750E+00    1.5536116198982363E+01
Ga    7.8743743819243655E+00    4.5938426474254470E+00    1.6437486515533010E+01
N    6.3430867864239779E+00    7.4299330394145073E+00    2.4689301597592301E+00
Ga    6.4064985640008141E+00    5.6868554411069816E+00    3.2667027339710568E+00
N    6.4282745422329670E+00    5.6198986114405178E+00    5.2034238545496301E+00
Ga    6.4252193382606961E+00    7.4704313648735070E+00    5.8432867715115018E+00
N    6.4281495520308525E+00    7.4722942718359135E+00    7.8052331639867738E+00
Ga    6.4321290954658341E+00    5.6019680412135502E+00    8.4053975781760712E+00
N    6.4324367280703836E+00    5.6050801349424999E+00    1.0391198527339464E+01
Ga    6.4303602105726858E+00    7.4739940155927043E+00    1.0987320115235471E+01
N    6.4295804241006227E+00    7.4735460352040493E+00    1.2953477963415995E+01
Ga    6.4302420526314421E+00    5.6027313977786433E+00    1.3577073253630523E+01
N    6.4302216159963015E+00    5.6328983876514567E+00    1.5536356306496243E+01
Ga    6.4279303921443285E+00    7.4724136746589469E+00    1.5814681258918958E+01
N    4.7218661931575623E+00    1.0195740600795316E+01    2.4848792223594778E+00
Ga    4.8765559757273689E+00    8.3514578758659042E+00    3.2802386239818841E+00
N    4.8191922363711424E+00    8.4014256894404973E+00    5.2139330915817039E+00
Ga    4.8507502945877201E+00    1.0280750211522221E+01    5.7596421455582334E+00
N    4.8320760414532549E+00    1.0265708540641926E+01    7.7492521151827196E+00
Ga    4.8120952565132216E+00    8.4128558681176440E+00    8.4064421559181053E+00
N    4.8127350948191250E+00    8.4105054501442567E+00    1.0391808821909926E+01
Ga    4.8386038828864502E+00    1.0270206405730907E+01    1.1028513584699043E+01
N    4.8541357311288706E+00    1.0278624781813118E+01    1.3017421622409582E+01
Ga    4.8102357513990679E+00    8.4097294345796012E+00    1.3577572539489140E+01
N    4.8361217593668240E+00    8.3943371134933944E+00    1.5536695341051418E+01
Ga    4.6583947029813011E+00    1.0164624233643858E+01    1.6437672407779214E+01
O    2.2962769010296039E-02    3.6623101613030138E+00   -5.8351889850478711E-01
H   -2.0048994768728898E-03    7.4839923173309977E+00    1.6127577383630789E+00
C    5.4893395337871451E-02    2.3565254914319480E+00   -1.1794281549313117E+00
H    9.0351077150405767E-01    1.7502484542759322E+00   -8.2037360449096075E-01
H   -8.7251618322299762E-01    1.7904425584965995E+00   -9.9266428377294436E-01
H    1.6336031367441997E-01    2.4929551410223731E+00   -2.2657168410867965E+00
Ga    3.2324104186227469E+00    5.6229212560770598E+00    2.2372663708342819E+00
O    3.8887718408002212E+00    6.1673805281570484E+00    2.1383311315901771E-01
H    3.7638821563718352E+00    5.4892149234550036E+00   -4.7217633781839680E-01
C    5.2913163604282598E+00    6.7087322626643324E+00    1.3316123913760355E-01
H    5.2840688667366527E+00    7.4679070658259183E+00   -6.6123160330138531E-01
H    5.8298663040365239E+00    7.1464396481671386E+00    1.3030948820785075E+00
H    5.9559821867859490E+00    5.8867116291042363E+00   -1.9321865489186202E-01
     &END COORD
     &KIND C
       BASIS_SET DZVP-MOLOPT-SR-GTH-q4
       POTENTIAL GTH-PBE-q4
       &POTENTIAL
2 2
0.3384712400000000E+00 2 -0.8803673979999999E+01  0.1339210850000000E+01
2
0.3025757500000000E+00 1  0.9622486650000001E+01
0.2915069400000000E+00 0
       &END POTENTIAL
     &END KIND
     &KIND O
       BASIS_SET DZVP-MOLOPT-SR-GTH-q6
       POTENTIAL GTH-PBE-q6
       &POTENTIAL
2 4
0.2445543000000000E+00 2 -0.1666721480000000E+02  0.2487311320000000E+01
2
0.2209559200000000E+00 1  0.1833745811000000E+02
0.2113324700000000E+00 0
       &END POTENTIAL
     &END KIND
     &KIND H
       BASIS_SET DZVP-MOLOPT-SR-GTH-q1
       POTENTIAL GTH-PBE-q1
       &POTENTIAL
1
0.2000000000000000E+00 2 -0.4178900440000000E+01  0.7244633100000000E+00
0
       &END POTENTIAL
     &END KIND
     &KIND N
       BASIS_SET DZVP-MOLOPT-SR-GTH
       POTENTIAL GTH-PBE-q5
       &POTENTIAL
2 3
0.2837905100000000E+00 2 -0.1241522559000000E+02  0.1868095920000000E+01
2
0.2554050000000000E+00 1  0.1363026257000000E+02
0.2454945300000000E+00 0
       &END POTENTIAL
     &END KIND
     &KIND Ga
       BASIS_SET DZVP-MOLOPT-SR-GTH
       POTENTIAL GTH-PBE-q13
       &POTENTIAL
2 1 10
0.4900000000000000E+00 0
3
0.4167772300000000E+00 3  0.1047568975000000E+02 -0.4921768140000000E+01  0.8707055900000000E+00
0.7770178090000000E+01 -0.2248152160000000E+01
0.1784415450000000E+01
0.5696265200000000E+00 2  0.1777985340000000E+01  0.1958597600000000E+00
-0.2317443900000000E+00
0.2381265000000000E+00 1 -0.1624868022000000E+02
       &END POTENTIAL
     &END KIND
     &TOPOLOGY
       NUMBER_OF_ATOMS  212
       MULTIPLE_UNIT_CELL  1 1 1
     &END TOPOLOGY
     &COLVAR
       &DISTANCE
         ATOMS  176 211
       &END DISTANCE
       &PRINT
       &END PRINT
     &END COLVAR
   &END SUBSYS
 &END FORCE_EVAL
