 # Version information for this restart file 
 # current date 2019-07-17 09:38:31.664
 # current working dir /lustre04/scratch/rzk/rzk/GaN-carbene/443-adatoms-both-2x2/09-BondBreaking-CH/03-0501-CH-to-Nsur-PES/Phase02
 # Program compiled at                              Sun Apr  7 00:48:11 EDT 2019
 # Program compiled on                          beluga2.int.ets1.calculquebec.ca
 # Program compiled for                        Beluga-Linux-x86-64-intel-openmpi
 # Source code revision number                                         svn:18619
 &GLOBAL
   PRINT_LEVEL  MEDIUM
   PROJECT_NAME TEST
   RUN_TYPE  GEO_OPT
 &END GLOBAL
 &MOTION
   &GEO_OPT
     MAX_ITER  500
     STEP_START_VAL  14
   &END GEO_OPT
   &CONSTRAINT
     &COLLECTIVE
       COLVAR  1
       INTERMOLECULAR  T
       TARGET     1.7007535195970787E+00
       &RESTRAINT
         K     2.0000000000000000E+00
       &END RESTRAINT
     &END COLLECTIVE
     &COLVAR_RESTART
           1.7007535195970787E+00
     &END COLVAR_RESTART
   &END CONSTRAINT
 &END MOTION
 &FORCE_EVAL
   METHOD  QS
   STRESS_TENSOR  ANALYTICAL
   &DFT
     BASIS_SET_FILE_NAME BASIS_MOLOPT
     POTENTIAL_FILE_NAME GTH_POTENTIALS
     UKS  T
     SURFACE_DIPOLE_CORRECTION  T
     SURF_DIP_DIR  Z
     &SCF
       MAX_SCF  80
       EPS_SCF     5.0000000000000004E-06
       &OT  T
         PRECONDITIONER  FULL_ALL
       &END OT
       &OUTER_SCF  T
         OPTIMIZER  NONE
         EPS_SCF     5.0000000000000004E-06
         MAX_SCF  4
       &END OUTER_SCF
       &PRINT
         &RESTART  OFF
           BACKUP_COPIES  1
           &EACH
             JUST_ENERGY  0
             QS_SCF  0
             MD  20
           &END EACH
         &END RESTART
       &END PRINT
     &END SCF
     &QS
       EPS_DEFAULT     1.0000000000000000E-14
       METHOD  GPW
     &END QS
     &MGRID
       NGRIDS  5
       CUTOFF     1.2000000000000000E+03
     &END MGRID
     &XC
       DENSITY_CUTOFF     1.0000000000000000E-10
       GRADIENT_CUTOFF     1.0000000000000000E-10
       TAU_CUTOFF     1.0000000000000000E-10
       &XC_FUNCTIONAL  NO_SHORTCUT
         &PBE  T
         &END PBE
       &END XC_FUNCTIONAL
       &VDW_POTENTIAL
         POTENTIAL_TYPE  PAIR_POTENTIAL
         &PAIR_POTENTIAL
           R_CUTOFF     1.0000000000000009E+01
           TYPE  DFTD3
           PARAMETER_FILE_NAME dftd3.dat
           REFERENCE_FUNCTIONAL PBE
           EPS_CN     9.9999999999999995E-07
           CALCULATE_C9_TERM  T
           REFERENCE_C9_TERM  T
           LONG_RANGE_CORRECTION  F
           VERBOSE_OUTPUT  F
         &END PAIR_POTENTIAL
       &END VDW_POTENTIAL
     &END XC
   &END DFT
   &SUBSYS
     &CELL
       A     1.2864472766435110E+01    0.0000000000000000E+00    0.0000000000000000E+00
       B    -6.4322363581020028E+00    1.1140960178524477E+01    0.0000000000000000E+00
       C     0.0000000000000000E+00    0.0000000000000000E+00    3.2000000000000000E+01
       MULTIPLE_UNIT_CELL  1 1 1
       &CELL_REF
         A     1.2982353780853531E+01    0.0000000000000000E+00    0.0000000000000000E+00
         B    -6.4911768904267628E+00    1.1243048175136114E+01    0.0000000000000000E+00
         C     0.0000000000000000E+00    0.0000000000000000E+00    3.2000000000000000E+01
         MULTIPLE_UNIT_CELL  1 1 1
       &END CELL_REF
     &END CELL
     &COORD
N   -2.9864038718106493E-02    2.1043218008418032E+00    2.4596797894594258E+00
Ga   -2.7537095559029074E-02    1.5449721360027427E-01    2.8154466104756577E+00
N   -2.2861912034232601E-02    1.0536786766332537E-01    4.9782710158381622E+00
Ga   -2.6149568065985392E-02    1.9394426803330145E+00    5.7472709004216034E+00
N   -2.9734635991955964E-02    1.9520678557201152E+00    7.7457378434592226E+00
Ga   -2.6560828512978123E-02    1.0891962252270072E-01    8.4044263744668068E+00
N   -2.7066213401564104E-02    1.0592122551161708E-01    1.0373058766802661E+01
Ga   -2.4057697980552666E-02    1.9444365819636504E+00    1.1032314183690355E+01
N   -2.6282058077059162E-02    1.9251534342088374E+00    1.3020492218183959E+01
Ga   -2.6440451025546065E-02    1.0513506929465449E-01    1.3835510931438321E+01
N   -2.5713714369441233E-02    1.0560946554886064E-01    1.6024099704205497E+01
Ga   -2.6998376628349207E-02    2.1493672083121220E+00    1.6441047310706917E+01
Ga    3.8469405770629898E-02    3.8283473254350859E+00    1.3013402794822622E+00
N   -1.4939809429111617E+00    4.6871945260872954E+00    2.4853692277859722E+00
Ga   -1.6931465966788777E+00    2.8614821565178312E+00    3.2069853925064700E+00
N   -1.6531676625178626E+00    2.8821104828980011E+00    5.1789759018031232E+00
Ga   -1.6547037930905146E+00    4.7420591933031480E+00    5.7972217468843779E+00
N   -1.6413366459462579E+00    4.7468030361038087E+00    7.7741393528934140E+00
Ga   -1.6246304789924710E+00    2.8885181753954283E+00    8.4088351312077219E+00
N   -1.6230789243505108E+00    2.8950118998493615E+00    1.0392319983304187E+01
Ga   -1.6533308182297457E+00    4.7545006603384126E+00    1.1035308706568760E+01
N   -1.6687700180785583E+00    4.7662890828033309E+00    1.3022123183501593E+01
Ga   -1.6248609100391189E+00    2.8965963130673877E+00    1.3579926999390873E+01
N   -1.6510792866461297E+00    2.8826557849007353E+00    1.5537578264081827E+01
Ga   -1.4700292549268985E+00    4.6524531721398850E+00    1.6441142825558568E+01
N   -2.1869224456839090E-02    3.8158107512531174E+00    1.7583067815607340E+01
N   -3.2257217196152692E+00    7.6647334142866903E+00    2.5166636249171779E+00
Ga   -3.1175785346377247E+00    5.6880780838439717E+00    2.9883602685371460E+00
N   -3.2126296145008313E+00    5.6949642743377904E+00    5.0448250417715421E+00
Ga   -3.2419021515644535E+00    7.5066232156494017E+00    5.8097862674967811E+00
N   -3.2424323236818706E+00    7.5273290737540171E+00    7.7786565089009629E+00
Ga   -3.2523670786714098E+00    5.6687094683958099E+00    8.4036574512739151E+00
N   -3.2456905664981819E+00    5.6742261955438327E+00    1.0372398571384537E+01
Ga   -3.2478953236656602E+00    7.5126415469520893E+00    1.1035517219148804E+01
N   -3.2452092027418038E+00    7.4946983687611253E+00    1.3022428334241091E+01
Ga   -3.2447392017277994E+00    5.6751693163742836E+00    1.3838843005290579E+01
N   -3.2434553647060218E+00    5.6760813217908659E+00    1.6022983713252170E+01
Ga   -3.2435020233767653E+00    7.7246627965494259E+00    1.6443329168989543E+01
Ga   -3.2264234520424644E+00    9.4204980877159059E+00    1.4505254434392560E+00
N   -4.7475260833529562E+00    1.0248899814834351E+01    2.4856059061892761E+00
Ga   -4.8893068970401474E+00    8.4370899006577815E+00    3.2937962803223462E+00
N   -4.8593732499874580E+00    8.4508535544233396E+00    5.2160247441880960E+00
Ga   -4.8789100314159120E+00    1.0341928224195124E+01    5.7692656864707930E+00
N   -4.8612806149057732E+00    1.0321483741865691E+01    7.7550617039866108E+00
Ga   -4.8522590886881307E+00    8.4652042971542620E+00    8.4007297518704576E+00
N   -4.8439922865220737E+00    8.4668985791541385E+00    1.0385321498814042E+01
Ga   -4.8667956943123345E+00    1.0327667990153774E+01    1.1030768735815339E+01
N   -4.8835237991733305E+00    1.0336496670782465E+01    1.3018875521676694E+01
Ga   -4.8422160354384856E+00    8.4676650185355431E+00    1.3581621231433381E+01
N   -4.8712122973638410E+00    8.4527370074689276E+00    1.5537477503028219E+01
Ga   -4.6810826022439578E+00    1.0221178418745946E+01    1.6444381495140373E+01
N   -3.2388277508295595E+00    9.3884540570956485E+00    1.7574812360320529E+01
N    3.1826860299380719E+00    1.9600842153520506E+00    2.5537393202231708E+00
Ga    3.1969020999517110E+00    2.3981399282599550E-01    3.2512499518081186E+00
N    3.1919874673760331E+00    9.7865562728948960E-02    5.2110495614740753E+00
Ga    3.2168187998814060E+00    1.9864505475231520E+00    5.7873544426008481E+00
N    3.1965646015520321E+00    1.9645987497246564E+00    7.7776046431747279E+00
Ga    3.1864014491770094E+00    1.0535842989473086E-01    8.3993177393468752E+00
N    3.1873754719575658E+00    9.4836952137052205E-02    1.0386701393876871E+01
Ga    3.1924632879016919E+00    1.9655329306316756E+00    1.0980470624702919E+01
N    3.1899990034991643E+00    1.9641177905681777E+00    1.2946679972813678E+01
Ga    3.1880868184476170E+00    9.5900826353702007E-02    1.3579175928201108E+01
N    3.1867699368094700E+00    1.2792670497653424E-01    1.5535445196954058E+01
Ga    3.1882111157102822E+00    1.9638785481278993E+00    1.5819868927734840E+01
N    1.4436007642307422E+00    4.6932849445887612E+00    2.4876658928951749E+00
Ga    1.6739981486145676E+00    2.8477636922320970E+00    3.2267353721704004E+00
N    1.5827173456506016E+00    2.8937407933295836E+00    5.2044372556212819E+00
Ga    1.6109705451622407E+00    4.7490890995550723E+00    5.7912192168205543E+00
N    1.5912579498445945E+00    4.7524946728804345E+00    7.7715171063295836E+00
Ga    1.5784644408974700E+00    2.8876708100717092E+00    8.3891746858842726E+00
N    1.5711653930668092E+00    2.8942322035830372E+00    1.0380645803868649E+01
Ga    1.6022007856755927E+00    4.7526016444095207E+00    1.1028679312034756E+01
N    1.6152555348529083E+00    4.7657863750748133E+00    1.3018364113497043E+01
Ga    1.5717510950790454E+00    2.8969025548022187E+00    1.3579199368248535E+01
N    1.5963652637116648E+00    2.8826019223950521E+00    1.5537723292271009E+01
Ga    1.4199361405796298E+00    4.6546175114247941E+00    1.6441843389513632E+01
N   -2.5434713383272908E-02    7.5179912070309278E+00    2.6894381090465651E+00
Ga   -2.5289364876721676E-02    5.6548098498525841E+00    3.3235090284256188E+00
N   -2.6735006697476308E-02    5.6886623040085045E+00    5.2532594375913710E+00
Ga   -2.0992920793999136E-02    7.5270116511652025E+00    5.8973189374908213E+00
N   -2.6103982935446392E-02    7.5333338645888679E+00    7.8459097132960327E+00
Ga   -2.3954593239999301E-02    5.6578936795866275E+00    8.4230158262455124E+00
N   -2.6519897637664817E-02    5.6617912363715446E+00    1.0402707164888024E+01
Ga   -2.5300701617996454E-02    7.5311101756311158E+00    1.1001952398242496E+01
N   -2.5961045102399591E-02    7.5328790672623605E+00    1.2963594087945994E+01
Ga   -2.6313569220596467E-02    5.6608997755692592E+00    1.3581560934463697E+01
N   -2.7311770638316846E-02    5.6934799720651972E+00    1.5538852811171504E+01
Ga   -2.5845656089334621E-02    7.5325518624034293E+00    1.5816498573921759E+01
N   -1.7288405410878722E+00    1.0240204077217271E+01    2.5121020011151924E+00
Ga   -1.6002323416289468E+00    8.4566620649454798E+00    3.3320498497432256E+00
N   -1.6208292872477585E+00    8.4543698304682113E+00    5.2509827541078415E+00
Ga   -1.6127091300562479E+00    1.0340902472757429E+01    5.8071853850755106E+00
N   -1.6295000140344347E+00    1.0319782336537486E+01    7.7831463229778493E+00
Ga   -1.6465796482385533E+00    8.4703875414157270E+00    8.4329572373678126E+00
N   -1.6462394912144276E+00    8.4673840482866414E+00    1.0409492942262560E+01
Ga   -1.6197792221469285E+00    1.0333248937831781E+01    1.1035263655352834E+01
N   -1.6030510889637259E+00    1.0338891376623410E+01    1.3022691530936717E+01
Ga   -1.6481210885401956E+00    8.4690103501062168E+00    1.3582276075293247E+01
N   -1.6162751225071075E+00    8.4508727301004765E+00    1.5538957133564148E+01
Ga   -1.8010035720398216E+00    1.0224066146184546E+01    1.6442329106448405E+01
N    6.4523855238604835E+00    1.9635001964843841E+00    2.4853495759421906E+00
Ga    6.4094832574501845E+00    1.1808596358115996E-01    2.9212807486813013E+00
N    6.4017210464297172E+00    7.5383585494283492E-02    5.0490651655246088E+00
Ga    6.3928152534940814E+00    1.9506460632154581E+00    5.7127727916230615E+00
N    6.4060925887146771E+00    1.9555961503835311E+00    7.7267439783442775E+00
Ga    6.4057872427870626E+00    1.1908921104864789E-01    8.4056344058168442E+00
N    6.4063439114147274E+00    1.0929856962689628E-01    1.0375723897582487E+01
Ga    6.4040346480597918E+00    1.9507319364486053E+00    1.1024707717384334E+01
N    6.4046085119365523E+00    1.9271736456536177E+00    1.3015218627915258E+01
Ga    6.4051498815726857E+00    1.0812197023264519E-01    1.3836858079883964E+01
N    6.4055554696262780E+00    1.0698236967696503E-01    1.6023294212686210E+01
Ga    6.4048601272656276E+00    2.1548844903483775E+00    1.6442334495825349E+01
Ga    8.9075480789016712E+00    1.6310257220743491E+00    6.1929483104258676E-01
N    4.7199637752970025E+00    4.7362653645718114E+00    2.4893086191129412E+00
Ga    4.8024750347349991E+00    2.8103802884088025E+00    3.0249375195858379E+00
N    4.8051890714501839E+00    2.8960729650589094E+00    5.0987282632600257E+00
Ga    4.8004299833722701E+00    4.7525110925841654E+00    5.6751743331108422E+00
N    4.7967441871324059E+00    4.7568974938467079E+00    7.7001807564777982E+00
Ga    4.8108764402737183E+00    2.9030168777931205E+00    8.3708414656008099E+00
N    4.8088391025197179E+00    2.9003403212209782E+00    1.0368798363527606E+01
Ga    4.7841916023775068E+00    4.7538371221794025E+00    1.1026324725575995E+01
N    4.7658675199233054E+00    4.7660149331509816E+00    1.3015403614954247E+01
Ga    4.8076913120873153E+00    2.8975481994779835E+00    1.3578417260073582E+01
N    4.7778501867762158E+00    2.8819882919463455E+00    1.5534115525598793E+01
Ga    4.9681184351093028E+00    4.6489964894850182E+00    1.6444060837715551E+01
N    6.4099643476830508E+00    3.8166564003984456E+00    1.7575108575032303E+01
N    3.1673535374990656E+00    7.6767689061606186E+00    2.4745848381452240E+00
N    3.1650051650417890E+00    5.6933259517830921E+00    5.0121565241120321E+00
Ga    3.1908582637577418E+00    7.5008127200666390E+00    5.7909473233477344E+00
N    3.1904454145084249E+00    7.5265098346886132E+00    7.7667873941287677E+00
Ga    3.2048350083629180E+00    5.6681381738084182E+00    8.3945935986043470E+00
N    3.1943019736641625E+00    5.6749515242022941E+00    1.0367075667896984E+01
Ga    3.1948662984462168E+00    7.5116567993650261E+00    1.1033665106949252E+01
N    3.1910134620655586E+00    7.4949117143466033E+00    1.3021410522393159E+01
Ga    3.1910375561405946E+00    5.6747226407523774E+00    1.3834720921311872E+01
N    3.1910444784828593E+00    5.6755597233287967E+00    1.6024320662124246E+01
Ga    3.1894278614646709E+00    7.7196657961391928E+00    1.6444322418025660E+01
Ga    3.1580979729233771E+00    9.4624332184676305E+00    1.3005237186646630E+00
N    1.6752818470791309E+00    1.0256703605524130E+01    2.5227441069516039E+00
Ga    1.5680385864482755E+00    8.4635525567381524E+00    3.3010531038606747E+00
N    1.5698962548953157E+00    8.4544642972731427E+00    5.2341652277247945E+00
Ga    1.5513311380329549E+00    1.0335254685795464E+01    5.8036370755557911E+00
N    1.5769883472626220E+00    1.0319710757669410E+01    7.7799424128573849E+00
Ga    1.5967632397307001E+00    8.4679838779866863E+00    8.4284520555985001E+00
N    1.5945620423717011E+00    8.4672451039133083E+00    1.0406204806032701E+01
Ga    1.5660175708301465E+00    1.0331396434275726E+01    1.1036528612549596E+01
N    1.5488342859848656E+00    1.0338073050443013E+01    1.3023302549177041E+01
Ga    1.5947132448389816E+00    8.4690138320795416E+00    1.3583676711283106E+01
N    1.5662935853211351E+00    8.4538107465520831E+00    1.5541300919705165E+01
Ga    1.7460436319247470E+00    1.0224318915035482E+01    1.6443180667018158E+01
N    3.1948359702302485E+00    9.3885825859322249E+00    1.7584360513720618E+01
N    9.5892865177741022E+00    1.9407275252542304E+00    2.5261532434753531E+00
Ga    9.6194220926079801E+00    1.6575475374185814E-01    3.2942679271055613E+00
N    9.6208739892912085E+00    1.1268984940399936E-01    5.2281589657798815E+00
Ga    9.6094075924920777E+00    1.9813649003021292E+00    5.8367450033045944E+00
N    9.6192434848528467E+00    1.9653814031937895E+00    7.8043090371858614E+00
Ga    9.6255856274389640E+00    9.8335350380264822E-02    8.4060100533919009E+00
N    9.6241134404445194E+00    9.3068931109480807E-02    1.0390740370324574E+01
Ga    9.6185638335180936E+00    1.9639267689860309E+00    1.0985208687838764E+01
N    9.6202981828412106E+00    1.9626447741028261E+00    1.2951157767867958E+01
Ga    9.6215327523273704E+00    9.3933182058636044E-02    1.3581634090997023E+01
N    9.6212909490645018E+00    1.2382179711254770E-01    1.5539422459963118E+01
Ga    9.6217375457323957E+00    1.9624942261874172E+00    1.5818121650123949E+01
N    8.1318424660641995E+00    4.7219366317657787E+00    2.4930189511784500E+00
Ga    7.9794706155152655E+00    2.8638111635779984E+00    3.1890766578144163E+00
N    8.0245759544865987E+00    2.9002838711904317E+00    5.1636111723319740E+00
Ga    8.0105056970402728E+00    4.7739370322393864E+00    5.7119947973511236E+00
N    8.0157196794742607E+00    4.7596477256077900E+00    7.7185159905073926E+00
Ga    7.9956929284318123E+00    2.9024497600475461E+00    8.3810823967910579E+00
N    8.0020256752827308E+00    2.8999989882866912E+00    1.0375064360059556E+01
Ga    8.0259705649690858E+00    4.7550237178523052E+00    1.1028928132952506E+01
N    8.0444410426418163E+00    4.7665866380857560E+00    1.3017394932407539E+01
Ga    8.0011259608860197E+00    2.8976192204359532E+00    1.3579344953641849E+01
N    8.0322124133061532E+00    2.8802200637453583E+00    1.5535631399759131E+01
Ga    7.8467999040618226E+00    4.6519786888459231E+00    1.6442592983444950E+01
N    6.3913196874687586E+00    7.5835823822383981E+00    2.5877001133696305E+00
Ga    6.4086233432551607E+00    5.6458163554625065E+00    2.9274622536213255E+00
N    6.4106942422141451E+00    5.6799501869142501E+00    5.0199176879357257E+00
Ga    6.3979925712587571E+00    7.4792824037829257E+00    5.8003623321518161E+00
N    6.4042945378256704E+00    7.5214844620877646E+00    7.7750504134008471E+00
Ga    6.4012597222485521E+00    5.6577865166562962E+00    8.3863965402516758E+00
N    6.4049925158976304E+00    5.6624910674353757E+00    1.0375967810724715E+01
Ga    6.4048007270011542E+00    7.5292201779666952E+00    1.0986876183069723E+01
N    6.4043080915301154E+00    7.5324183067239314E+00    1.2950589797492416E+01
Ga    6.4045264303743892E+00    5.6636119441712074E+00    1.3580009005510375E+01
N    6.4035207717868836E+00    5.6978244093900203E+00    1.5535359553484762E+01
Ga    6.4039320949020189E+00    7.5333644241560611E+00    1.5822189446260962E+01
N    4.6935176330628074E+00    1.0280097220635843E+01    2.4910219766312913E+00
Ga    4.8010411893721594E+00    8.4613832661841322E+00    3.2588162264901435E+00
N    4.8033288082644123E+00    8.4547810095562763E+00    5.1960333242560024E+00
Ga    4.8355936445166350E+00    1.0336180918061229E+01    5.7686233457302691E+00
N    4.8084464533414453E+00    1.0320719861288582E+01    7.7534821329022749E+00
Ga    4.7960880606340650E+00    8.4636272202034792E+00    8.3982650634502125E+00
N    4.7899169029129478E+00    8.4672946283780330E+00    1.0383863128972358E+01
Ga    4.8145613426914036E+00    1.0326525191949663E+01    1.1033116166864227E+01
N    4.8294971731600045E+00    1.0336055854962638E+01    1.3020885851964945E+01
Ga    4.7868828646285220E+00    8.4673771309920252E+00    1.3583212293534324E+01
N    4.8126263031123022E+00    8.4533557575967322E+00    1.5541444484904419E+01
Ga    4.6364189110602929E+00    1.0226438646728690E+01    1.6443763262426053E+01
O    6.8558444122303816E-03    3.8674911620676777E+00   -5.1236658977171545E-01
H   -3.5555825176146097E-02    7.5049715998309710E+00    1.6627909306170789E+00
C   -7.1758319011687743E-01    2.8230736544471671E+00   -1.1692365476101017E+00
H   -4.1515712259677662E-01    1.8179253171161340E+00   -8.3081759047349601E-01
H   -1.8116837004780979E+00    2.9204142514940217E+00   -1.0290835642714045E+00
H   -5.1166338024047120E-01    2.9009756410378409E+00   -2.2470142346010267E+00
Ga    3.0867189358658464E+00    5.7008458762753236E+00    2.9306641873798398E+00
O    6.7796038370386498E+00    5.4513971765321996E+00    7.4527810643120207E-01
H    4.8324125179006208E+00    4.7132694278507614E+00    1.4640395838449061E+00
C    7.9357879021926463E+00    4.8070330852062311E+00    9.9338628308150034E-01
H    8.8293091255653575E+00    5.2857443557471715E+00    5.2926673491763154E-01
H    6.4191357199745473E+00    7.6293579253184562E+00    1.6726487482575076E+00
H    7.9486828815624895E+00    3.7355382740303789E+00    5.6838436871077569E-01
     &END COORD
     &KIND C
       BASIS_SET DZVP-MOLOPT-SR-GTH-q4
       POTENTIAL GTH-PBE-q4
       &POTENTIAL
2 2
0.3384712400000000E+00 2 -0.8803673979999999E+01  0.1339210850000000E+01
2
0.3025757500000000E+00 1  0.9622486650000001E+01
0.2915069400000000E+00 0
       &END POTENTIAL
     &END KIND
     &KIND O
       BASIS_SET DZVP-MOLOPT-SR-GTH-q6
       POTENTIAL GTH-PBE-q6
       &POTENTIAL
2 4
0.2445543000000000E+00 2 -0.1666721480000000E+02  0.2487311320000000E+01
2
0.2209559200000000E+00 1  0.1833745811000000E+02
0.2113324700000000E+00 0
       &END POTENTIAL
     &END KIND
     &KIND H
       BASIS_SET DZVP-MOLOPT-SR-GTH-q1
       POTENTIAL GTH-PBE-q1
       &POTENTIAL
1
0.2000000000000000E+00 2 -0.4178900440000000E+01  0.7244633100000000E+00
0
       &END POTENTIAL
     &END KIND
     &KIND N
       BASIS_SET DZVP-MOLOPT-SR-GTH
       POTENTIAL GTH-PBE-q5
       &POTENTIAL
2 3
0.2837905100000000E+00 2 -0.1241522559000000E+02  0.1868095920000000E+01
2
0.2554050000000000E+00 1  0.1363026257000000E+02
0.2454945300000000E+00 0
       &END POTENTIAL
     &END KIND
     &KIND Ga
       BASIS_SET DZVP-MOLOPT-SR-GTH
       POTENTIAL GTH-PBE-q13
       &POTENTIAL
2 1 10
0.4900000000000000E+00 0
3
0.4167772300000000E+00 3  0.1047568975000000E+02 -0.4921768140000000E+01  0.8707055900000000E+00
0.7770178090000000E+01 -0.2248152160000000E+01
0.1784415450000000E+01
0.5696265200000000E+00 2  0.1777985340000000E+01  0.1958597600000000E+00
-0.2317443900000000E+00
0.2381265000000000E+00 1 -0.1624868022000000E+02
       &END POTENTIAL
     &END KIND
     &TOPOLOGY
       NUMBER_OF_ATOMS  212
       MULTIPLE_UNIT_CELL  1 1 1
     &END TOPOLOGY
     &COLVAR
       &DISTANCE
         ATOMS  176 211
       &END DISTANCE
       &PRINT
       &END PRINT
     &END COLVAR
   &END SUBSYS
 &END FORCE_EVAL
