 # Version information for this restart file 
 # current date 2019-07-17 09:33:36.580
 # current working dir /lustre04/scratch/rzk/rzk/GaN-carbene/443-adatoms-both-2x2/09-BondBreaking-CH/03-0501-CH-to-Nsur-PES/Phase02
 # Program compiled at                              Sun Apr  7 00:48:11 EDT 2019
 # Program compiled on                          beluga2.int.ets1.calculquebec.ca
 # Program compiled for                        Beluga-Linux-x86-64-intel-openmpi
 # Source code revision number                                         svn:18619
 &GLOBAL
   PRINT_LEVEL  MEDIUM
   PROJECT_NAME TEST
   RUN_TYPE  GEO_OPT
 &END GLOBAL
 &MOTION
   &GEO_OPT
     MAX_ITER  500
     STEP_START_VAL  12
   &END GEO_OPT
   &CONSTRAINT
     &COLLECTIVE
       COLVAR  1
       INTERMOLECULAR  T
       TARGET     1.7007535195970787E+00
       &RESTRAINT
         K     2.0000000000000000E+00
       &END RESTRAINT
     &END COLLECTIVE
     &COLVAR_RESTART
           1.7007535195970787E+00
     &END COLVAR_RESTART
   &END CONSTRAINT
 &END MOTION
 &FORCE_EVAL
   METHOD  QS
   STRESS_TENSOR  ANALYTICAL
   &DFT
     BASIS_SET_FILE_NAME BASIS_MOLOPT
     POTENTIAL_FILE_NAME GTH_POTENTIALS
     UKS  T
     SURFACE_DIPOLE_CORRECTION  T
     SURF_DIP_DIR  Z
     &SCF
       MAX_SCF  80
       EPS_SCF     5.0000000000000004E-06
       &OT  T
         PRECONDITIONER  FULL_ALL
       &END OT
       &OUTER_SCF  T
         OPTIMIZER  NONE
         EPS_SCF     5.0000000000000004E-06
         MAX_SCF  4
       &END OUTER_SCF
       &PRINT
         &RESTART  OFF
           BACKUP_COPIES  1
           &EACH
             JUST_ENERGY  0
             QS_SCF  0
             MD  20
           &END EACH
         &END RESTART
       &END PRINT
     &END SCF
     &QS
       EPS_DEFAULT     1.0000000000000000E-14
       METHOD  GPW
     &END QS
     &MGRID
       NGRIDS  5
       CUTOFF     1.2000000000000000E+03
     &END MGRID
     &XC
       DENSITY_CUTOFF     1.0000000000000000E-10
       GRADIENT_CUTOFF     1.0000000000000000E-10
       TAU_CUTOFF     1.0000000000000000E-10
       &XC_FUNCTIONAL  NO_SHORTCUT
         &PBE  T
         &END PBE
       &END XC_FUNCTIONAL
       &VDW_POTENTIAL
         POTENTIAL_TYPE  PAIR_POTENTIAL
         &PAIR_POTENTIAL
           R_CUTOFF     1.0000000000000009E+01
           TYPE  DFTD3
           PARAMETER_FILE_NAME dftd3.dat
           REFERENCE_FUNCTIONAL PBE
           EPS_CN     9.9999999999999995E-07
           CALCULATE_C9_TERM  T
           REFERENCE_C9_TERM  T
           LONG_RANGE_CORRECTION  F
           VERBOSE_OUTPUT  F
         &END PAIR_POTENTIAL
       &END VDW_POTENTIAL
     &END XC
   &END DFT
   &SUBSYS
     &CELL
       A     1.2864472766435110E+01    0.0000000000000000E+00    0.0000000000000000E+00
       B    -6.4322363581020028E+00    1.1140960178524477E+01    0.0000000000000000E+00
       C     0.0000000000000000E+00    0.0000000000000000E+00    3.2000000000000000E+01
       MULTIPLE_UNIT_CELL  1 1 1
       &CELL_REF
         A     1.2982353780853531E+01    0.0000000000000000E+00    0.0000000000000000E+00
         B    -6.4911768904267628E+00    1.1243048175136114E+01    0.0000000000000000E+00
         C     0.0000000000000000E+00    0.0000000000000000E+00    3.2000000000000000E+01
         MULTIPLE_UNIT_CELL  1 1 1
       &END CELL_REF
     &END CELL
     &COORD
N   -2.9487990837698732E-02    2.1040985535393197E+00    2.4597373991753186E+00
Ga   -2.8186576801351424E-02    1.5457035453419574E-01    2.8159628164737471E+00
N   -2.2393024979435815E-02    1.0522453908450480E-01    4.9781450358358557E+00
Ga   -2.6087687459556454E-02    1.9392673084941938E+00    5.7475986671054846E+00
N   -2.9727694711789293E-02    1.9518910368384619E+00    7.7461287235474163E+00
Ga   -2.6769814411620789E-02    1.0883523376717191E-01    8.4048378457167416E+00
N   -2.7173990274235650E-02    1.0599559778661669E-01    1.0373580844357120E+01
Ga   -2.4258811395305276E-02    1.9444561860460527E+00    1.1032824560017145E+01
N   -2.6493844716368238E-02    1.9249728864142575E+00    1.3020610700093389E+01
Ga   -2.6205431943234367E-02    1.0551220612384143E-01    1.3836369859040150E+01
N   -2.5812411291261127E-02    1.0545834581625185E-01    1.6023733995528069E+01
Ga   -2.7114484527615432E-02    2.1490319289997140E+00    1.6441475554473943E+01
Ga    3.9679336639028055E-02    3.8284406517130134E+00    1.3017256022473911E+00
N   -1.4937938038096454E+00    4.6871564196193090E+00    2.4851974319571863E+00
Ga   -1.6929700461630510E+00    2.8614096602843277E+00    3.2069814812556143E+00
N   -1.6529852787314578E+00    2.8818744515802659E+00    5.1789366932945224E+00
Ga   -1.6547151499152464E+00    4.7417812763452378E+00    5.7973910604990326E+00
N   -1.6413183604513160E+00    4.7466646593027928E+00    7.7743126561681635E+00
Ga   -1.6247694430097697E+00    2.8883411213362979E+00    8.4089023338495927E+00
N   -1.6231483563461986E+00    2.8950553852055814E+00    1.0392529542063567E+01
Ga   -1.6534791953089514E+00    4.7545519788548223E+00    1.1035608593813423E+01
N   -1.6688862715305934E+00    4.7663771050487798E+00    1.3022434140235314E+01
Ga   -1.6247501161712801E+00    2.8966576467103895E+00    1.3580165376422549E+01
N   -1.6509463219666853E+00    2.8827035403370105E+00    1.5537726252952044E+01
Ga   -1.4700002271272186E+00    4.6526298792475886E+00    1.6441518712340468E+01
N   -2.1775091884917244E-02    3.8157969919697243E+00    1.7581888070453729E+01
N   -3.2257306896356899E+00    7.6649727742819298E+00    2.5169588647023526E+00
Ga   -3.1178078638605782E+00    5.6869715139220292E+00    2.9885825714800238E+00
N   -3.2126315132764462E+00    5.6947359614378605E+00    5.0448616877564394E+00
Ga   -3.2419171670184248E+00    7.5062502950124257E+00    5.8104475940728895E+00
N   -3.2423809978019911E+00    7.5272569562313132E+00    7.7791754906625625E+00
Ga   -3.2524722970289965E+00    5.6684784835263384E+00    8.4036979104558078E+00
N   -3.2456939191961278E+00    5.6741837766876833E+00    1.0372349925532315E+01
Ga   -3.2479683198984093E+00    7.5125081657637578E+00    1.1035759681513259E+01
N   -3.2453492494315048E+00    7.4948611245349115E+00    1.3022721256558878E+01
Ga   -3.2449299734357111E+00    5.6752008848462516E+00    1.3839202221874494E+01
N   -3.2435660255517149E+00    5.6763381709267096E+00    1.6022911406964315E+01
Ga   -3.2436405480685493E+00    7.7255057767626543E+00    1.6443676481276494E+01
Ga   -3.2268642426054432E+00    9.4201489956356301E+00    1.4564627487380928E+00
N   -4.7474622438566767E+00    1.0248663087387879E+01    2.4861340936945826E+00
Ga   -4.8904099266003414E+00    8.4364980511915082E+00    3.2955979020592228E+00
N   -4.8596160221826814E+00    8.4506443300973419E+00    5.2172388009263466E+00
Ga   -4.8789105952537435E+00    1.0341878218142364E+01    5.7700591308808136E+00
N   -4.8613379759316722E+00    1.0321615307542325E+01    7.7556840179224373E+00
Ga   -4.8524398249734588E+00    8.4651418654575945E+00    8.4008761643837087E+00
N   -4.8440680874383153E+00    8.4669093665954964E+00    1.0385574056077557E+01
Ga   -4.8669669974858545E+00    1.0327680159226109E+01    1.1031283453297247E+01
N   -4.8838700527356522E+00    1.0336634848779115E+01    1.3019113265098788E+01
Ga   -4.8424227504870982E+00    8.4678857634583053E+00    1.3581651382513845E+01
N   -4.8713963448016973E+00    8.4529165871296854E+00    1.5537214994780555E+01
Ga   -4.6810859879844680E+00    1.0221019121060737E+01    1.6444890092393670E+01
N   -3.2387219484383727E+00    9.3890718916907776E+00    1.7574925584513650E+01
N    3.1824625797359691E+00    1.9600590343823689E+00    2.5534999106703888E+00
Ga    3.1970244827790726E+00    2.4093415825102901E-01    3.2527294189041172E+00
N    3.1920686254753305E+00    9.7978115506866373E-02    5.2118690786652158E+00
Ga    3.2169809732481722E+00    1.9865326989849577E+00    5.7890376620408386E+00
N    3.1965311298783057E+00    1.9645215669851399E+00    7.7788841946410949E+00
Ga    3.1864906457489348E+00    1.0514717977817820E-01    8.4000231616364616E+00
N    3.1873922384085120E+00    9.4766318830422788E-02    1.0387273001274231E+01
Ga    3.1925040554790161E+00    1.9656181724688329E+00    1.0981007225653194E+01
N    3.1898604845238654E+00    1.9643692790796556E+00    1.2947373739206597E+01
Ga    3.1879386194650521E+00    9.5664170712276661E-02    1.3579175651661895E+01
N    3.1866880782166085E+00    1.2785158536930891E-01    1.5535461824083082E+01
Ga    3.1882214832603735E+00    1.9641591931356979E+00    1.5818916207048446E+01
N    1.4437582261098256E+00    4.6931222568624724E+00    2.4883431707160963E+00
Ga    1.6741604002439401E+00    2.8477555086076980E+00    3.2274983513831077E+00
N    1.5830011140251801E+00    2.8934337345944772E+00    5.2051434307976292E+00
Ga    1.6110426593519469E+00    4.7489897781880916E+00    5.7919204255604617E+00
N    1.5912120423392204E+00    4.7524304501334393E+00    7.7722124272273136E+00
Ga    1.5782577404409750E+00    2.8876826129846207E+00    8.3898940897146819E+00
N    1.5710238379180481E+00    2.8942810277596211E+00    1.0381210219156509E+01
Ga    1.6021388216674222E+00    4.7527850040256698E+00    1.1029084263682011E+01
N    1.6152858690980871E+00    4.7660515932541019E+00    1.3018462212089618E+01
Ga    1.5711287996271870E+00    2.8972456785250711E+00    1.3579330417259863E+01
N    1.5960045810459134E+00    2.8829074799609233E+00    1.5537827539728550E+01
Ga    1.4201607216640644E+00    4.6550524505726534E+00    1.6442216720137640E+01
N   -2.5299803669309867E-02    7.5173110794037203E+00    2.6892006548497225E+00
Ga   -2.5220937795982917E-02    5.6544212166558783E+00    3.3240179189297545E+00
N   -2.6798987096898406E-02    5.6884086551757331E+00    5.2536471455355978E+00
Ga   -2.0475542839593779E-02    7.5268072336684195E+00    5.8977579489359151E+00
N   -2.5887356712076877E-02    7.5334472726471269E+00    7.8463993641173611E+00
Ga   -2.4029257361845434E-02    5.6579564911328815E+00    8.4233360216632303E+00
N   -2.6646619395278869E-02    5.6619216322678874E+00    1.0403109440965670E+01
Ga   -2.5314998551449266E-02    7.5311653559386711E+00    1.1002463906165618E+01
N   -2.6015357290003493E-02    7.5328441738412728E+00    1.2964121899619697E+01
Ga   -2.6303537896114063E-02    5.6608015062459041E+00    1.3581842889815837E+01
N   -2.7180853019740065E-02    5.6934366494788682E+00    1.5538902180309083E+01
Ga   -2.6320483716909673E-02    7.5323440247592384E+00    1.5816799652353804E+01
N   -1.7291037795013635E+00    1.0239633299071807E+01    2.5123508402424828E+00
Ga   -1.5988590881389908E+00    8.4557545432430157E+00    3.3332622019734024E+00
N   -1.6207221156108698E+00    8.4539914216658705E+00    5.2516691217789884E+00
Ga   -1.6124041704538272E+00    1.0340826780919720E+01    5.8075928106082397E+00
N   -1.6293520463508131E+00    1.0319801821242050E+01    7.7835525435505204E+00
Ga   -1.6464536830458794E+00    8.4703597658449006E+00    8.4333827036184221E+00
N   -1.6462146056168452E+00    8.4673978258120428E+00    1.0409933284484994E+01
Ga   -1.6195748485581931E+00    1.0333306399848862E+01    1.1035853235844685E+01
N   -1.6029510935798568E+00    1.0339056836908352E+01    1.3022934891769163E+01
Ga   -1.6481550262578775E+00    8.4692106504235998E+00    1.3582396316710000E+01
N   -1.6163399439329418E+00    8.4511259920880040E+00    1.5538764531842835E+01
Ga   -1.8009796090430181E+00    1.0224132170840432E+01    1.6442742478058562E+01
N    6.4511738733085355E+00    1.9638880790053312E+00    2.4855892668098858E+00
Ga    6.4100581017701757E+00    1.1852230368032250E-01    2.9209080392599054E+00
N    6.4015674933203499E+00    7.5281536497153301E-02    5.0485947026404476E+00
Ga    6.3930338848635486E+00    1.9505474717772002E+00    5.7125362780783933E+00
N    6.4061685046391910E+00    1.9553687617759758E+00    7.7267611471133328E+00
Ga    6.4060761010174172E+00    1.1900095033684480E-01    8.4057651712731261E+00
N    6.4064468656813682E+00    1.0930564789825253E-01    1.0376028465212714E+01
Ga    6.4041517448656657E+00    1.9507434090847791E+00    1.1024971978557890E+01
N    6.4045419419123073E+00    1.9269988958829436E+00    1.3015118471052505E+01
Ga    6.4046201314266877E+00    1.0856792840420969E-01    1.3837849229231299E+01
N    6.4055012415210495E+00    1.0695032368174953E-01    1.6022772279950637E+01
Ga    6.4048429510027551E+00    2.1546139161419089E+00    1.6442974559765378E+01
Ga    8.9155014918270457E+00    1.6309729735499192E+00    6.1677209471924488E-01
N    4.7190118968665971E+00    4.7358906014355586E+00    2.4896296087709291E+00
Ga    4.8020094321168214E+00    2.8104914551185796E+00    3.0263353504965940E+00
N    4.8049667757650276E+00    2.8958440310947142E+00    5.0996147235582292E+00
Ga    4.8004226996616417E+00    4.7525484934400772E+00    5.6753284365913981E+00
N    4.7966984978560836E+00    4.7569121530898597E+00    7.7004754933722817E+00
Ga    4.8111614492730848E+00    2.9030858183614026E+00    8.3710546128714345E+00
N    4.8089200287028078E+00    2.9003946291012452E+00    1.0369000297608604E+01
Ga    4.7841904763994165E+00    4.7539825378730223E+00    1.1026592287762314E+01
N    4.7656011592907594E+00    4.7662736242862245E+00    1.3015385840897027E+01
Ga    4.8080690996330224E+00    2.8979021728045264E+00    1.3578538562953623E+01
N    4.7782146852372600E+00    2.8823410862444048E+00    1.5534244055763292E+01
Ga    4.9680606781908407E+00    4.6493530102718923E+00    1.6444736441356319E+01
N    6.4096190504129327E+00    3.8164099120593540E+00    1.7574207624006188E+01
N    3.1669920845653889E+00    7.6764306376789211E+00    2.4746899790127030E+00
N    3.1647951006206307E+00    5.6930299778693749E+00    5.0129454827798936E+00
Ga    3.1906869419471362E+00    7.5007136626434390E+00    5.7907933909156712E+00
N    3.1903561861859675E+00    7.5266021538938599E+00    7.7667704079852076E+00
Ga    3.2048495286901812E+00    5.6683052791292425E+00    8.3948730268622462E+00
N    3.1942274545728297E+00    5.6750630367978676E+00    1.0367461967025939E+01
Ga    3.1948708054019321E+00    7.5115440225055927E+00    1.1034162626582235E+01
N    3.1908735540026090E+00    7.4951828554038586E+00    1.3022452211367751E+01
Ga    3.1909237441523706E+00    5.6743024007331408E+00    1.3835528018253907E+01
N    3.1910871110746490E+00    5.6757836422761763E+00    1.6024003301826511E+01
Ga    3.1892892145179017E+00    7.7202424353079762E+00    1.6444713310675681E+01
Ga    3.1581506449004020E+00    9.4624158205701860E+00    1.2977083753124601E+00
N    1.6750360443998442E+00    1.0256906335158364E+01    2.5222111650325787E+00
Ga    1.5683755316293129E+00    8.4637410703659235E+00    3.3001564855460797E+00
N    1.5697025030827150E+00    8.4543355241840494E+00    5.2336872746671785E+00
Ga    1.5512987832194360E+00    1.0335124115418164E+01    5.8030438704981506E+00
N    1.5769945073300289E+00    1.0319577969093185E+01    7.7795547169818127E+00
Ga    1.5969830183230376E+00    8.4681486902459771E+00    8.4288567265158978E+00
N    1.5946024037032291E+00    8.4673637714210663E+00    1.0407105789305072E+01
Ga    1.5658724936226176E+00    1.0331582979893041E+01    1.1037091462853219E+01
N    1.5488001365369100E+00    1.0338133190734849E+01    1.3024363381910820E+01
Ga    1.5943170076969917E+00    8.4690023025010959E+00    1.3583670211870636E+01
N    1.5660722768652542E+00    8.4537432360872202E+00    1.5541622963347487E+01
Ga    1.7462859308499050E+00    1.0224139033100288E+01    1.6443607925398275E+01
N    3.1946102426379710E+00    9.3888932718482589E+00    1.7585926216469755E+01
N    9.5899152633552109E+00    1.9407386033658940E+00    2.5255712164690070E+00
Ga    9.6194821640083585E+00    1.6540400597231766E-01    3.2934077208221151E+00
N    9.6208993707087860E+00    1.1278312341579573E-01    5.2273757127049914E+00
Ga    9.6091257209002308E+00    1.9812443036619325E+00    5.8362387750221796E+00
N    9.6192072193037497E+00    1.9652165730453881E+00    7.8041188840579698E+00
Ga    9.6255610907558182E+00    9.8145172077188619E-02    8.4059337429022314E+00
N    9.6240632876972896E+00    9.2993611944563764E-02    1.0391277046835333E+01
Ga    9.6185012610723373E+00    1.9639555524909207E+00    1.0985360468166038E+01
N    9.6202169275612945E+00    1.9628635435898611E+00    1.2951441532852117E+01
Ga    9.6214149455022042E+00    9.4384384678824956E-02    1.3581521175637569E+01
N    9.6212691502682457E+00    1.2416991619518816E-01    1.5539758502761295E+01
Ga    9.6215743660458433E+00    1.9632401057274109E+00    1.5818335937509042E+01
N    8.1322045163772927E+00    4.7212577910993598E+00    2.4921747394504532E+00
Ga    7.9793345116818264E+00    2.8633391681992708E+00    3.1876198839614776E+00
N    8.0244920277545333E+00    2.9000894820550331E+00    5.1627575264491581E+00
Ga    8.0100114224958201E+00    4.7735907112431910E+00    5.7113412246258841E+00
N    8.0155897174754447E+00    4.7595469454885162E+00    7.7181929418237560E+00
Ga    7.9957557029274939E+00    2.9023664678729189E+00    8.3809401954195959E+00
N    8.0020681002506908E+00    2.9000521213072159E+00    1.0375029316371384E+01
Ga    8.0260011958672859E+00    4.7550755903072428E+00    1.1029065830834643E+01
N    8.0443211572004110E+00    4.7666849848358170E+00    1.3017427575934615E+01
Ga    8.0007714601673570E+00    2.8976844517419682E+00    1.3579509974403035E+01
N    8.0318152087728762E+00    2.8804183833557735E+00    1.5535530188186167E+01
Ga    7.8463986523391842E+00    4.6520747502064301E+00    1.6443104904456803E+01
N    6.3910557719819048E+00    7.5840698417584944E+00    2.5879151662854691E+00
Ga    6.4083020717306445E+00    5.6457416398906073E+00    2.9257994163509258E+00
N    6.4104413693023981E+00    5.6799025284752780E+00    5.0198814566545833E+00
Ga    6.3972396553958113E+00    7.4788320262509389E+00    5.8008476758864145E+00
N    6.4040322007965926E+00    7.5215702384441574E+00    7.7754690427081883E+00
Ga    6.4012593991119493E+00    5.6578181274699482E+00    8.3864463221932048E+00
N    6.4050411663386049E+00    5.6625972516750132E+00    1.0376075236834161E+01
Ga    6.4047436342105843E+00    7.5292346981793674E+00    1.0987126578560789E+01
N    6.4041465725310669E+00    7.5324301919107706E+00    1.2950924715453823E+01
Ga    6.4042991250499810E+00    5.6635258845275347E+00    1.3580160203461258E+01
N    6.4033538975956787E+00    5.6977407683649961E+00    1.5535154435363703E+01
Ga    6.4042112226271515E+00    7.5331047990032260E+00    1.5822134320900927E+01
N    4.6937362777000136E+00    1.0280345212285038E+01    2.4908618407241438E+00
Ga    4.8000475480050762E+00    8.4618029785195255E+00    3.2584363097444182E+00
N    4.8032249736757642E+00    8.4548168780317265E+00    5.1960825017984238E+00
Ga    4.8356099363440261E+00    1.0336104338913767E+01    5.7681856961099420E+00
N    4.8085292181798449E+00    1.0320754256298644E+01    7.7531560282019454E+00
Ga    4.7958918576853007E+00    8.4637821181581572E+00    8.3984180293855584E+00
N    4.7898282507984140E+00    8.4674051099151253E+00    1.0384568876509258E+01
Ga    4.8146013956533515E+00    1.0326665915109905E+01    1.1033537949237548E+01
N    4.8292621933186242E+00    1.0336133679582085E+01    1.3021814457294898E+01
Ga    4.7870463260904899E+00    8.4673706343211848E+00    1.3583103183239311E+01
N    4.8126196642327548E+00    8.4534059284733996E+00    1.5541666247250522E+01
Ga    4.6360119161548852E+00    1.0226354748630222E+01    1.6444099019848625E+01
O    8.3261843422183027E-03    3.8680657812265729E+00   -5.1185964433095210E-01
H   -3.6207384577390415E-02    7.5036498103198381E+00    1.6626475570169574E+00
C   -7.1484739304728440E-01    2.8226603974326019E+00   -1.1683707227236608E+00
H   -4.1031984137620853E-01    1.8179537277180848E+00   -8.3068243905580619E-01
H   -1.8090475362448737E+00    2.9178519523823208E+00   -1.0273246291024103E+00
H   -5.1011692792582397E-01    2.9013119083056100E+00   -2.2462925894960186E+00
Ga    3.0865659090875068E+00    5.7010651593755410E+00    2.9318314852397092E+00
O    6.7786323365136409E+00    5.4553778232493242E+00    7.4797952916635568E-01
H    4.8298622429301776E+00    4.7118595375215051E+00    1.4643227687336413E+00
C    7.9346835821929353E+00    4.8082143106987658E+00    9.9289144036047516E-01
H    8.8287736908153853E+00    5.2855230848557335E+00    5.2873170101533828E-01
H    6.4191952121120606E+00    7.6311580431983810E+00    1.6728711103671694E+00
H    7.9437471933014994E+00    3.7374879629311506E+00    5.6793162836736588E-01
     &END COORD
     &KIND C
       BASIS_SET DZVP-MOLOPT-SR-GTH-q4
       POTENTIAL GTH-PBE-q4
       &POTENTIAL
2 2
0.3384712400000000E+00 2 -0.8803673979999999E+01  0.1339210850000000E+01
2
0.3025757500000000E+00 1  0.9622486650000001E+01
0.2915069400000000E+00 0
       &END POTENTIAL
     &END KIND
     &KIND O
       BASIS_SET DZVP-MOLOPT-SR-GTH-q6
       POTENTIAL GTH-PBE-q6
       &POTENTIAL
2 4
0.2445543000000000E+00 2 -0.1666721480000000E+02  0.2487311320000000E+01
2
0.2209559200000000E+00 1  0.1833745811000000E+02
0.2113324700000000E+00 0
       &END POTENTIAL
     &END KIND
     &KIND H
       BASIS_SET DZVP-MOLOPT-SR-GTH-q1
       POTENTIAL GTH-PBE-q1
       &POTENTIAL
1
0.2000000000000000E+00 2 -0.4178900440000000E+01  0.7244633100000000E+00
0
       &END POTENTIAL
     &END KIND
     &KIND N
       BASIS_SET DZVP-MOLOPT-SR-GTH
       POTENTIAL GTH-PBE-q5
       &POTENTIAL
2 3
0.2837905100000000E+00 2 -0.1241522559000000E+02  0.1868095920000000E+01
2
0.2554050000000000E+00 1  0.1363026257000000E+02
0.2454945300000000E+00 0
       &END POTENTIAL
     &END KIND
     &KIND Ga
       BASIS_SET DZVP-MOLOPT-SR-GTH
       POTENTIAL GTH-PBE-q13
       &POTENTIAL
2 1 10
0.4900000000000000E+00 0
3
0.4167772300000000E+00 3  0.1047568975000000E+02 -0.4921768140000000E+01  0.8707055900000000E+00
0.7770178090000000E+01 -0.2248152160000000E+01
0.1784415450000000E+01
0.5696265200000000E+00 2  0.1777985340000000E+01  0.1958597600000000E+00
-0.2317443900000000E+00
0.2381265000000000E+00 1 -0.1624868022000000E+02
       &END POTENTIAL
     &END KIND
     &TOPOLOGY
       NUMBER_OF_ATOMS  212
       MULTIPLE_UNIT_CELL  1 1 1
     &END TOPOLOGY
     &COLVAR
       &DISTANCE
         ATOMS  176 211
       &END DISTANCE
       &PRINT
       &END PRINT
     &END COLVAR
   &END SUBSYS
 &END FORCE_EVAL
