 # Version information for this restart file 
 # current date 2019-07-14 23:36:00.941
 # current working dir /lustre04/scratch/rzk/rzk/GaN-carbene/443-adatoms-both-2x2/09-BondBreaking-CH/03-0501-CH-to-Nsur-PES/Phase02
 # Program compiled at                              Sun Apr  7 00:48:11 EDT 2019
 # Program compiled on                          beluga2.int.ets1.calculquebec.ca
 # Program compiled for                        Beluga-Linux-x86-64-intel-openmpi
 # Source code revision number                                         svn:18619
 &GLOBAL
   PRINT_LEVEL  MEDIUM
   PROJECT_NAME TEST
   RUN_TYPE  GEO_OPT
 &END GLOBAL
 &MOTION
   &GEO_OPT
     MAX_ITER  500
     STEP_START_VAL  29
   &END GEO_OPT
   &CONSTRAINT
     &COLLECTIVE
       COLVAR  1
       INTERMOLECULAR  T
       TARGET     2.6456165860399001E+00
       &RESTRAINT
         K     2.0000000000000000E+00
       &END RESTRAINT
     &END COLLECTIVE
     &COLVAR_RESTART
           2.6456165860399001E+00
     &END COLVAR_RESTART
   &END CONSTRAINT
 &END MOTION
 &FORCE_EVAL
   METHOD  QS
   STRESS_TENSOR  ANALYTICAL
   &DFT
     BASIS_SET_FILE_NAME BASIS_MOLOPT
     POTENTIAL_FILE_NAME GTH_POTENTIALS
     UKS  T
     SURFACE_DIPOLE_CORRECTION  T
     SURF_DIP_DIR  Z
     &SCF
       MAX_SCF  80
       EPS_SCF     5.0000000000000004E-06
       &OT  T
         PRECONDITIONER  FULL_ALL
       &END OT
       &OUTER_SCF  T
         OPTIMIZER  NONE
         EPS_SCF     5.0000000000000004E-06
         MAX_SCF  4
       &END OUTER_SCF
       &PRINT
         &RESTART  OFF
           BACKUP_COPIES  1
           &EACH
             JUST_ENERGY  0
             QS_SCF  0
             MD  20
           &END EACH
         &END RESTART
       &END PRINT
     &END SCF
     &QS
       EPS_DEFAULT     1.0000000000000000E-14
       METHOD  GPW
     &END QS
     &MGRID
       NGRIDS  5
       CUTOFF     1.2000000000000000E+03
     &END MGRID
     &XC
       DENSITY_CUTOFF     1.0000000000000000E-10
       GRADIENT_CUTOFF     1.0000000000000000E-10
       TAU_CUTOFF     1.0000000000000000E-10
       &XC_FUNCTIONAL  NO_SHORTCUT
         &PBE  T
         &END PBE
       &END XC_FUNCTIONAL
       &VDW_POTENTIAL
         POTENTIAL_TYPE  PAIR_POTENTIAL
         &PAIR_POTENTIAL
           R_CUTOFF     1.0000000000000009E+01
           TYPE  DFTD3
           PARAMETER_FILE_NAME dftd3.dat
           REFERENCE_FUNCTIONAL PBE
           EPS_CN     9.9999999999999995E-07
           CALCULATE_C9_TERM  T
           REFERENCE_C9_TERM  T
           LONG_RANGE_CORRECTION  F
           VERBOSE_OUTPUT  F
         &END PAIR_POTENTIAL
       &END VDW_POTENTIAL
     &END XC
   &END DFT
   &SUBSYS
     &CELL
       A     1.2864472766435110E+01    0.0000000000000000E+00    0.0000000000000000E+00
       B    -6.4322363581020028E+00    1.1140960178524477E+01    0.0000000000000000E+00
       C     0.0000000000000000E+00    0.0000000000000000E+00    3.2000000000000000E+01
       MULTIPLE_UNIT_CELL  1 1 1
       &CELL_REF
         A     1.2982353780853531E+01    0.0000000000000000E+00    0.0000000000000000E+00
         B    -6.4911768904267628E+00    1.1243048175136114E+01    0.0000000000000000E+00
         C     0.0000000000000000E+00    0.0000000000000000E+00    3.2000000000000000E+01
         MULTIPLE_UNIT_CELL  1 1 1
       &END CELL_REF
     &END CELL
     &COORD
N    5.7065778226351865E-03    2.0493632358412142E+00    2.4518016095019912E+00
Ga    2.8693250266987802E-03    9.2220544869320464E-02    2.7980028512359363E+00
N   -8.1597508697223101E-03    5.1191334201023758E-02    4.9667073981749317E+00
Ga    5.7770903579084437E-03    1.8869988807780413E+00    5.7343028610652560E+00
N   -8.3179943292949882E-04    1.8913613237546474E+00    7.7408794348693597E+00
Ga   -1.0849213253042568E-03    4.7816851662394098E-02    8.3890045026728526E+00
N   -3.3753077534914339E-03    4.5227359578929170E-02    1.0367427868825501E+01
Ga   -3.8887504324045244E-03    1.8844177059116218E+00    1.1021405802950968E+01
N   -4.2906042608403189E-03    1.8649243699258036E+00    1.3017194754039403E+01
Ga   -9.8144103678597986E-04    4.4769551188788705E-02    1.3818998632709881E+01
N   -1.1153356100656218E-03    4.3937680605867412E-02    1.6023381085209071E+01
Ga   -4.9167959857649417E-03    2.0800747176495711E+00    1.6426621274055407E+01
Ga   -2.3825637555585061E-02    3.7083869543379961E+00    1.2367100887174822E+00
N   -1.4682467266107084E+00    4.6253247678207075E+00    2.4371744033286937E+00
Ga   -1.6660759245913157E+00    2.7928909666251127E+00    3.2146996496480171E+00
N   -1.6125240853146927E+00    2.8324685234942435E+00    5.1976585938231858E+00
Ga   -1.6277473299408074E+00    4.6985381000625210E+00    5.7460361334566805E+00
N   -1.6186689671315739E+00    4.6963839329204422E+00    7.7447977336553233E+00
Ga   -1.5971028556962699E+00    2.8365408505865717E+00    8.3838095376552353E+00
N   -1.5999279303471339E+00    2.8376764372135908E+00    1.0381389614325300E+01
Ga   -1.6285853016238676E+00    4.6947889267754022E+00    1.1025508218822274E+01
N   -1.6448202043899665E+00    4.7052087258068864E+00    1.3020770830584185E+01
Ga   -1.6004013366530991E+00    2.8358633018697987E+00    1.3573074663693570E+01
N   -1.6251504619252344E+00    2.8170967788185890E+00    1.5536726106131445E+01
Ga   -1.4664956621351446E+00    4.5975948105941766E+00    1.6425643333236057E+01
N   -7.7018328885630509E-03    3.7651011193278174E+00    1.7555437271402145E+01
N   -3.2376447789717253E+00    7.5812448384125197E+00    2.4517279856818548E+00
Ga   -3.1831010139910014E+00    5.5903753939676495E+00    2.8025597288769863E+00
N   -3.2147054949357163E+00    5.6084952923107361E+00    4.9674188307282598E+00
Ga   -3.2385744251660822E+00    7.4344210459326545E+00    5.7391395372909777E+00
N   -3.2251248128464631E+00    7.4622327456609456E+00    7.7367179663592207E+00
Ga   -3.2184249099002984E+00    5.6152148889987910E+00    8.3932810521628216E+00
N   -3.2194816151486565E+00    5.6159912278995465E+00    1.0368884829942202E+01
Ga   -3.2217378856688157E+00    7.4544115047838817E+00    1.1023788518008766E+01
N   -3.2204984777427623E+00    7.4356726373763875E+00    1.3016011282137850E+01
Ga   -3.2221679408655270E+00    5.6171946934737464E+00    1.3823707389458965E+01
N   -3.2234590119047102E+00    5.6181179136383967E+00    1.6022310616279150E+01
Ga   -3.2236257158398409E+00    7.6677531372583818E+00    1.6441508443450967E+01
Ga   -3.2511056668039564E+00    9.3494188519479291E+00    1.3336494417464388E+00
N   -4.7439539325074600E+00    1.0182628461885319E+01    2.4593158564379221E+00
Ga   -4.9640067973243562E+00    8.3247450088811021E+00    3.1752308975247456E+00
N   -4.8482434641030929E+00    8.3862536470184406E+00    5.1564864852021568E+00
Ga   -4.8613502617577220E+00    1.0264169186698613E+01    5.7273425364447528E+00
N   -4.8397649517125041E+00    1.0256708139496745E+01    7.7326111276714693E+00
Ga   -4.8204160995855760E+00    8.4072438819917785E+00    8.3900863706078930E+00
N   -4.8169587283761439E+00    8.4072903829500767E+00    1.0382444663812453E+01
Ga   -4.8429854077266272E+00    1.0266887640668708E+01    1.1020668986909877E+01
N   -4.8593328924645141E+00    1.0275400693639124E+01    1.3014342660536023E+01
Ga   -4.8168756920336575E+00    8.4072265766272718E+00    1.3574011686610451E+01
N   -4.8464874271971343E+00    8.3894980135798818E+00    1.5531298812998951E+01
Ga   -4.6620526001969251E+00    1.0156401946980440E+01    1.6441035398905363E+01
N   -3.2203835675596726E+00    9.3331200912638366E+00    1.7579292790282732E+01
N    3.2070853902375447E+00    1.8981062000427085E+00    2.5574655286270009E+00
Ga    3.1938651107574194E+00    1.4599150802998886E-01    3.2184769169085774E+00
N    3.2078602930027005E+00    4.1375443175359336E-02    5.1900503280596180E+00
Ga    3.1997546632071847E+00    1.9077682511684937E+00    5.8115204178240321E+00
N    3.2096766660413243E+00    1.9011904577316348E+00    7.7926491943165654E+00
Ga    3.2064906485791895E+00    3.4281085331085204E-02    8.3791007245752596E+00
N    3.2102800396305451E+00    3.1346978052224042E-02    1.0376430028815363E+01
Ga    3.2105963433318574E+00    1.8993133910652065E+00    1.0979359810075998E+01
N    3.2105336392095838E+00    1.9005031888519921E+00    1.2951706829081351E+01
Ga    3.2115686472107789E+00    3.1340882857647565E-02    1.3575885246723992E+01
N    3.2088983551548909E+00    6.3604124545736260E-02    1.5536597713566145E+01
Ga    3.2123256498279047E+00    1.9004563272554844E+00    1.5812425328372290E+01
N    1.5002117863286457E+00    4.6395695808576107E+00    2.3272708802832813E+00
Ga    1.6900190995705962E+00    2.8173389289417514E+00    3.1871794586570483E+00
N    1.6081916912327519E+00    2.8461445872992446E+00    5.1748362345870795E+00
Ga    1.6571987593866675E+00    4.7084591412283494E+00    5.7637204735747787E+00
N    1.6051690609142033E+00    4.6898297076439697E+00    7.7697838165690110E+00
Ga    1.5933662139446374E+00    2.8343030152484290E+00    8.3914309484345146E+00
N    1.5929268819280014E+00    2.8346211266348456E+00    1.0387225007985037E+01
Ga    1.6197509673787676E+00    4.6943335657788507E+00    1.1023726347416993E+01
N    1.6358385565097677E+00    4.7049884136907245E+00    1.3020274045221745E+01
Ga    1.5927228027457427E+00    2.8357516086834722E+00    1.3572645612917103E+01
N    1.6157937202583450E+00    2.8186084993096494E+00    1.5537231500776135E+01
Ga    1.4528510263728311E+00    4.5952937768066908E+00    1.6425515204574655E+01
N   -1.3277948213458970E-02    7.4705705568945815E+00    2.6419125176967815E+00
Ga    3.7439159691696762E-02    5.6003349110312550E+00    3.2399890731744105E+00
N    9.1493033040167242E-03    5.6258803466451237E+00    5.1836565934491556E+00
Ga   -6.4535928025743795E-03    7.4579802328080849E+00    5.8531638953078282E+00
N   -6.1758281733895132E-03    7.4697667621328376E+00    7.8129442906116751E+00
Ga   -4.2335898786022754E-03    5.5985182010350965E+00    8.4045924742127358E+00
N   -6.2642318512442239E-03    5.6038811739577135E+00    1.0394748987471331E+01
Ga   -7.5303079169967580E-03    7.4730198670489392E+00    1.0985665657865866E+01
N   -4.7208540784983806E-03    7.4719278707817711E+00    1.2957264489767441E+01
Ga   -3.9529549581425903E-03    5.6010196960570822E+00    1.3575638542631630E+01
N   -3.2977748724286834E-03    5.6301123229315611E+00    1.5542883085082853E+01
Ga   -5.8010592719908490E-03    7.4714374950062252E+00    1.5815581911201139E+01
N   -1.7189934777833815E+00    1.0185388072297636E+01    2.4677560161638801E+00
Ga   -1.6223907259994703E+00    8.3827168414422228E+00    3.2694570878796805E+00
N   -1.6058842577071408E+00    8.3881277714635729E+00    5.2013147803407103E+00
Ga   -1.5937006751928970E+00    1.0275727017247469E+01    5.7539641422099672E+00
N   -1.6041920220430665E+00    1.0259671892924498E+01    7.7461076298336735E+00
Ga   -1.6280745631502220E+00    8.4050024885253567E+00    8.3916060840399922E+00
N   -1.6257337740836950E+00    8.4063146297614306E+00    1.0383100736533112E+01
Ga   -1.6012326131421404E+00    1.0266210721276840E+01    1.1021817139552907E+01
N   -1.5814007244499875E+00    1.0275541888010979E+01    1.3015638679263693E+01
Ga   -1.6251104056921348E+00    8.4075958283537737E+00    1.3576161585696541E+01
N   -1.5964962905526447E+00    8.3874494542185225E+00    1.5534985745092724E+01
Ga   -1.7798418602409865E+00    1.0159543408897168E+01    1.6440618302208250E+01
N    6.4359657758707884E+00    2.0157099535054854E+00    2.5013277328343029E+00
Ga    6.4172229549831998E+00    4.4196686236983591E-02    2.8373037978667845E+00
N    6.4269752213967601E+00    4.2940880157939725E-02    4.9810436133703773E+00
Ga    6.4241526262530044E+00    1.8771242724642818E+00    5.7591121374199865E+00
N    6.4277966396853667E+00    1.8885200679279770E+00    7.7534483206378120E+00
Ga    6.4253893724553439E+00    4.5201673621008416E-02    8.4007209647901036E+00
N    6.4264133837010489E+00    4.3602454690456809E-02    1.0373528715351714E+01
Ga    6.4278378534815506E+00    1.8846098215663383E+00    1.1023736591215604E+01
N    6.4288418831967231E+00    1.8651505693054247E+00    1.3016360142008471E+01
Ga    6.4252391699328264E+00    4.7163031896211835E-02    1.3823308983630671E+01
N    6.4241884531231683E+00    4.7214599208351672E-02    1.6021960689403759E+01
Ga    6.4248619877553699E+00    2.0951927287958028E+00    1.6439692612065034E+01
Ga    6.4606506635278729E+00    3.7208609105877040E+00    1.4724636446838035E+00
N    4.9384100466190182E+00    4.5949845130377724E+00    2.4520806173549876E+00
Ga    4.7038277682873444E+00    2.7733926831999001E+00    3.2518410851219497E+00
N    4.8207131736729210E+00    2.8310653958939320E+00    5.2082072704414113E+00
Ga    4.7752617490092026E+00    4.7083184377899565E+00    5.7692784522671507E+00
N    4.8204245796235003E+00    4.6871697340405429E+00    7.7729873137130365E+00
Ga    4.8273265522304545E+00    2.8319130844829465E+00    8.3939619367046383E+00
N    4.8297954896784088E+00    2.8331081299508050E+00    1.0388047416329833E+01
Ga    4.8048293523228045E+00    4.6945807313474575E+00    1.1022538256784205E+01
N    4.7893989343038186E+00    4.7045831350267422E+00    1.3016648796324908E+01
Ga    4.8311880622566861E+00    2.8358191842969669E+00    1.3572112102971625E+01
N    4.8018006259707429E+00    2.8184032679331552E+00    1.5530491686152683E+01
Ga    4.9848867201411551E+00    4.5863926933898664E+00    1.6439510462300319E+01
N    6.4279501387028581E+00    3.7622793892346880E+00    1.7579890466295051E+01
N    3.1898001500820663E+00    7.6193783476236456E+00    2.4686198481655457E+00
N    3.2188168179216508E+00    5.6219887029071085E+00    5.0786541614515057E+00
Ga    3.2147541126010446E+00    7.4162629775821287E+00    5.7824969727026847E+00
N    3.2100250251401241E+00    7.4739551530428363E+00    7.7785751106181840E+00
Ga    3.2125127852149391E+00    5.6139310254546588E+00    8.3966426161055647E+00
N    3.2117618775452450E+00    5.6158000056232575E+00    1.0376363657494421E+01
Ga    3.2123068147205518E+00    7.4541356452336789E+00    1.1025528812015532E+01
N    3.2122270817210783E+00    7.4360282446252821E+00    1.3020535508828150E+01
Ga    3.2148182239191914E+00    5.6141272749442228E+00    1.3819067913115008E+01
N    3.2146087576005713E+00    5.6141219008380006E+00    1.6023966620009961E+01
Ga    3.2111350421717550E+00    7.6501298398317070E+00    1.6427410892902017E+01
Ga    3.2294894508330110E+00    9.3662825078953702E+00    1.4246002909137472E+00
N    1.7022965003025798E+00    1.0191934461685200E+01    2.4833795196482180E+00
Ga    1.5761967191965824E+00    8.3784362978387961E+00    3.2989994430607292E+00
N    1.5910905431555256E+00    8.3955525131346835E+00    5.2203603791946893E+00
Ga    1.5767104687848210E+00    1.0277875605635071E+01    5.7689039946446128E+00
N    1.5928572859974841E+00    1.0262274111131264E+01    7.7575037622183238E+00
Ga    1.6121895176410774E+00    8.4085758810785798E+00    8.4076175697315456E+00
N    1.6115036100462186E+00    8.4086292741911208E+00    1.0396350828162424E+01
Ga    1.5880437573001933E+00    1.0268426008860045E+01    1.1028410066517001E+01
N    1.5720330458093323E+00    1.0276902474420979E+01    1.3022567317984855E+01
Ga    1.6158170984126807E+00    8.4070387741656329E+00    1.3574312244192836E+01
N    1.5894567300595486E+00    8.3871235081873863E+00    1.5538095440240710E+01
Ga    1.7495601005543080E+00    1.0168375837064032E+01    1.6426052309933986E+01
N    3.2079943025514992E+00    9.3353618736466935E+00    1.7553156338195585E+01
N    9.6621013152198536E+00    1.9097578158802071E+00    2.5706379468872456E+00
Ga    9.6527681803369667E+00    1.7029861927351259E-01    3.2487812640075893E+00
N    9.6413680020325110E+00    4.3905116340530258E-02    5.2096343884591825E+00
Ga    9.6563242293785070E+00    1.9066257520040046E+00    5.8311872862920362E+00
N    9.6461891954610230E+00    1.9018339423824366E+00    7.8048691212534376E+00
Ga    9.6458195947646068E+00    3.5067343222587984E-02    8.3939702411672297E+00
N    9.6438488555047250E+00    3.2232335768202454E-02    1.0387169270229812E+01
Ga    9.6456458899592015E+00    1.9034614860528276E+00    1.0977680979108033E+01
N    9.6457743092786661E+00    1.9013566280371601E+00    1.2951481666337513E+01
Ga    9.6450378842148847E+00    3.2623480441685247E-02    1.3576266386030698E+01
N    9.6456355009595534E+00    6.1445809584797936E-02    1.5543136375408366E+01
Ga    9.6434859786705687E+00    1.9019480392305221E+00    1.5817141670693807E+01
N    7.9326646478609257E+00    4.6239356720479208E+00    2.4906132733224031E+00
Ga    8.1553630678394544E+00    2.7685705022595966E+00    3.2620991512250730E+00
N    8.0393064106188703E+00    2.8271964851419358E+00    5.2167326611973808E+00
Ga    8.0640625473385033E+00    4.7013460764487895E+00    5.7539917996866743E+00
N    8.0465801174628844E+00    4.6937216131278774E+00    7.7491661087396899E+00
Ga    8.0270088068314287E+00    2.8353731919475158E+00    8.3897566397775964E+00
N    8.0252670066025864E+00    2.8366750434411387E+00    1.0383912330199108E+01
Ga    8.0527175288666886E+00    4.6954134195014108E+00    1.1024810686248106E+01
N    8.0689390703112363E+00    4.7050843468543100E+00    1.3017646681580365E+01
Ga    8.0253752493128978E+00    2.8362258896642967E+00    1.3574569908504563E+01
N    8.0524109849109742E+00    2.8167948726150769E+00    1.5534095001219958E+01
Ga    7.8695963588896261E+00    4.5891975273384444E+00    1.6439426660522557E+01
N    6.3452193123956375E+00    7.4306606052953716E+00    2.4529298100246022E+00
Ga    6.4110128754654516E+00    5.7025078048427611E+00    3.2624354021828026E+00
N    6.4271028095430411E+00    5.6191367105581405E+00    5.2046268315066069E+00
Ga    6.4251578576106176E+00    7.4709366126839214E+00    5.8404396515531580E+00
N    6.4257568967390064E+00    7.4707807341973718E+00    7.8076113775757676E+00
Ga    6.4299008418434962E+00    5.6009439673196715E+00    8.4016205121815819E+00
N    6.4307086462163658E+00    5.6042660152647308E+00    1.0392255863762268E+01
Ga    6.4296052473341030E+00    7.4735444946805254E+00    1.0983793032352873E+01
N    6.4278126382607370E+00    7.4730019744692839E+00    1.2954048233658881E+01
Ga    6.4284892452868325E+00    5.6016958793103599E+00    1.3575344052167376E+01
N    6.4256400724568321E+00    5.6337835564384795E+00    1.5536726445955230E+01
Ga    6.4289840791906814E+00    7.4706554857524168E+00    1.5813914801925014E+01
N    4.7188247156626684E+00    1.0198003196483443E+01    2.4851719240686734E+00
Ga    4.8889198319905836E+00    8.3504800203891349E+00    3.2703420289733209E+00
N    4.8185238573722255E+00    8.4003032507253224E+00    5.2115727708304771E+00
Ga    4.8499108863078328E+00    1.0278214347736617E+01    5.7567165943631746E+00
N    4.8299157508922619E+00    1.0263824066205148E+01    7.7514348070224219E+00
Ga    4.8100232175725255E+00    8.4108682223028364E+00    8.4028845383459636E+00
N    4.8108136390688552E+00    8.4092305644079399E+00    1.0393439355783865E+01
Ga    4.8366714168059444E+00    1.0268719935205215E+01    1.1025246722088726E+01
N    4.8524125930420849E+00    1.0276779212485046E+01    1.3020208536516947E+01
Ga    4.8091143637295399E+00    8.4072798873499668E+00    1.3574293512942997E+01
N    4.8332622494839503E+00    8.3893344616192653E+00    1.5538479838019791E+01
Ga    4.6682590831906623E+00    1.0165716979946314E+01    1.6426742632393587E+01
O    3.1262828610952850E-02    3.6648967119302127E+00   -5.8368499242392391E-01
H   -4.3885149376494924E-03    7.4840136114537232E+00    1.6153788222504597E+00
C    9.4623489999664537E-02    2.3612944997638556E+00   -1.1823301589934385E+00
H    9.4068293664312275E-01    1.7628933694936695E+00   -8.0425879937408673E-01
H   -8.3106165472340920E-01    1.7844017734916908E+00   -1.0217504663866923E+00
H    2.2925862579954626E-01    2.5024904372751955E+00   -2.2652416040029477E+00
Ga    3.2271732902808079E+00    5.6209088744705040E+00    2.2793909049032841E+00
O    3.8923481711509580E+00    6.1629042107908187E+00    2.1002765966963441E-01
H    3.7687605476084949E+00    5.4824266249543179E+00   -4.7341137075689016E-01
C    5.2850833610799839E+00    6.6975539876877939E+00    1.2540266690134882E-01
H    5.2786434497046697E+00    7.4961187064049852E+00   -6.3012245737506511E-01
H    5.7654817756029697E+00    7.0929269592857871E+00    1.2175424402923443E+00
H    5.9503865570003764E+00    5.8956926975249759E+00   -2.3945587301686935E-01
     &END COORD
     &KIND C
       BASIS_SET DZVP-MOLOPT-SR-GTH-q4
       POTENTIAL GTH-PBE-q4
       &POTENTIAL
2 2
0.3384712400000000E+00 2 -0.8803673979999999E+01  0.1339210850000000E+01
2
0.3025757500000000E+00 1  0.9622486650000001E+01
0.2915069400000000E+00 0
       &END POTENTIAL
     &END KIND
     &KIND O
       BASIS_SET DZVP-MOLOPT-SR-GTH-q6
       POTENTIAL GTH-PBE-q6
       &POTENTIAL
2 4
0.2445543000000000E+00 2 -0.1666721480000000E+02  0.2487311320000000E+01
2
0.2209559200000000E+00 1  0.1833745811000000E+02
0.2113324700000000E+00 0
       &END POTENTIAL
     &END KIND
     &KIND H
       BASIS_SET DZVP-MOLOPT-SR-GTH-q1
       POTENTIAL GTH-PBE-q1
       &POTENTIAL
1
0.2000000000000000E+00 2 -0.4178900440000000E+01  0.7244633100000000E+00
0
       &END POTENTIAL
     &END KIND
     &KIND N
       BASIS_SET DZVP-MOLOPT-SR-GTH
       POTENTIAL GTH-PBE-q5
       &POTENTIAL
2 3
0.2837905100000000E+00 2 -0.1241522559000000E+02  0.1868095920000000E+01
2
0.2554050000000000E+00 1  0.1363026257000000E+02
0.2454945300000000E+00 0
       &END POTENTIAL
     &END KIND
     &KIND Ga
       BASIS_SET DZVP-MOLOPT-SR-GTH
       POTENTIAL GTH-PBE-q13
       &POTENTIAL
2 1 10
0.4900000000000000E+00 0
3
0.4167772300000000E+00 3  0.1047568975000000E+02 -0.4921768140000000E+01  0.8707055900000000E+00
0.7770178090000000E+01 -0.2248152160000000E+01
0.1784415450000000E+01
0.5696265200000000E+00 2  0.1777985340000000E+01  0.1958597600000000E+00
-0.2317443900000000E+00
0.2381265000000000E+00 1 -0.1624868022000000E+02
       &END POTENTIAL
     &END KIND
     &TOPOLOGY
       NUMBER_OF_ATOMS  212
       MULTIPLE_UNIT_CELL  1 1 1
     &END TOPOLOGY
     &COLVAR
       &DISTANCE
         ATOMS  176 211
       &END DISTANCE
       &PRINT
       &END PRINT
     &END COLVAR
   &END SUBSYS
 &END FORCE_EVAL
