 # Version information for this restart file 
 # current date 2019-07-14 23:40:40.559
 # current working dir /lustre04/scratch/rzk/rzk/GaN-carbene/443-adatoms-both-2x2/09-BondBreaking-CH/03-0501-CH-to-Nsur-PES/Phase02
 # Program compiled at                              Sun Apr  7 00:48:11 EDT 2019
 # Program compiled on                          beluga2.int.ets1.calculquebec.ca
 # Program compiled for                        Beluga-Linux-x86-64-intel-openmpi
 # Source code revision number                                         svn:18619
 &GLOBAL
   PRINT_LEVEL  MEDIUM
   PROJECT_NAME TEST
   RUN_TYPE  GEO_OPT
 &END GLOBAL
 &MOTION
   &GEO_OPT
     MAX_ITER  500
     STEP_START_VAL  30
   &END GEO_OPT
   &CONSTRAINT
     &COLLECTIVE
       COLVAR  1
       INTERMOLECULAR  T
       TARGET     2.6456165860399001E+00
       &RESTRAINT
         K     2.0000000000000000E+00
       &END RESTRAINT
     &END COLLECTIVE
     &COLVAR_RESTART
           2.6456165860399001E+00
     &END COLVAR_RESTART
   &END CONSTRAINT
 &END MOTION
 &FORCE_EVAL
   METHOD  QS
   STRESS_TENSOR  ANALYTICAL
   &DFT
     BASIS_SET_FILE_NAME BASIS_MOLOPT
     POTENTIAL_FILE_NAME GTH_POTENTIALS
     UKS  T
     SURFACE_DIPOLE_CORRECTION  T
     SURF_DIP_DIR  Z
     &SCF
       MAX_SCF  80
       EPS_SCF     5.0000000000000004E-06
       &OT  T
         PRECONDITIONER  FULL_ALL
       &END OT
       &OUTER_SCF  T
         OPTIMIZER  NONE
         EPS_SCF     5.0000000000000004E-06
         MAX_SCF  4
       &END OUTER_SCF
       &PRINT
         &RESTART  OFF
           BACKUP_COPIES  1
           &EACH
             JUST_ENERGY  0
             QS_SCF  0
             MD  20
           &END EACH
         &END RESTART
       &END PRINT
     &END SCF
     &QS
       EPS_DEFAULT     1.0000000000000000E-14
       METHOD  GPW
     &END QS
     &MGRID
       NGRIDS  5
       CUTOFF     1.2000000000000000E+03
     &END MGRID
     &XC
       DENSITY_CUTOFF     1.0000000000000000E-10
       GRADIENT_CUTOFF     1.0000000000000000E-10
       TAU_CUTOFF     1.0000000000000000E-10
       &XC_FUNCTIONAL  NO_SHORTCUT
         &PBE  T
         &END PBE
       &END XC_FUNCTIONAL
       &VDW_POTENTIAL
         POTENTIAL_TYPE  PAIR_POTENTIAL
         &PAIR_POTENTIAL
           R_CUTOFF     1.0000000000000009E+01
           TYPE  DFTD3
           PARAMETER_FILE_NAME dftd3.dat
           REFERENCE_FUNCTIONAL PBE
           EPS_CN     9.9999999999999995E-07
           CALCULATE_C9_TERM  T
           REFERENCE_C9_TERM  T
           LONG_RANGE_CORRECTION  F
           VERBOSE_OUTPUT  F
         &END PAIR_POTENTIAL
       &END VDW_POTENTIAL
     &END XC
   &END DFT
   &SUBSYS
     &CELL
       A     1.2864472766435110E+01    0.0000000000000000E+00    0.0000000000000000E+00
       B    -6.4322363581020028E+00    1.1140960178524477E+01    0.0000000000000000E+00
       C     0.0000000000000000E+00    0.0000000000000000E+00    3.2000000000000000E+01
       MULTIPLE_UNIT_CELL  1 1 1
       &CELL_REF
         A     1.2982353780853531E+01    0.0000000000000000E+00    0.0000000000000000E+00
         B    -6.4911768904267628E+00    1.1243048175136114E+01    0.0000000000000000E+00
         C     0.0000000000000000E+00    0.0000000000000000E+00    3.2000000000000000E+01
         MULTIPLE_UNIT_CELL  1 1 1
       &END CELL_REF
     &END CELL
     &COORD
N    5.6913087763086180E-03    2.0495820413951846E+00    2.4522815996812097E+00
Ga    6.9180399282542339E-03    9.0823448367707088E-02    2.7967745069864596E+00
N   -8.5287513298274095E-03    5.1439031127385362E-02    4.9692443474552386E+00
Ga    6.1389760113094256E-03    1.8868422155256173E+00    5.7340244955197575E+00
N   -6.9798342453771390E-04    1.8916239390642342E+00    7.7423548801469320E+00
Ga   -8.3812862288254594E-04    4.7837991180158322E-02    8.3881562746630074E+00
N   -3.6332612805760629E-03    4.5074719497860724E-02    1.0368435017379918E+01
Ga   -3.6247901285015004E-03    1.8845840128666982E+00    1.1019238567262633E+01
N   -4.5760235936429675E-03    1.8649098676982701E+00    1.3017169093177705E+01
Ga   -1.0387864988774656E-04    4.4324853281513352E-02    1.3814448707932954E+01
N   -2.1393426192905778E-03    4.1676893802579905E-02    1.6024288342121118E+01
Ga   -3.2104432768109451E-03    2.0747607783408286E+00    1.6422386433089457E+01
Ga   -2.5006860050959621E-02    3.7076790825681707E+00    1.2360681503517479E+00
N   -1.4680701446131672E+00    4.6249324152648725E+00    2.4379770827205673E+00
Ga   -1.6655493949554148E+00    2.7929135507184237E+00    3.2153234450230483E+00
N   -1.6122950242614613E+00    2.8326033951656462E+00    5.1991197002366798E+00
Ga   -1.6274552989114868E+00    4.6989057300444923E+00    5.7458190453613067E+00
N   -1.6182112432790945E+00    4.6964437596546089E+00    7.7461555123870411E+00
Ga   -1.5969525229510442E+00    2.8367240480985738E+00    8.3829670842064328E+00
N   -1.5999018534369358E+00    2.8380307759773271E+00    1.0382603978764665E+01
Ga   -1.6283166903794302E+00    4.6951910239220886E+00    1.1024424950895922E+01
N   -1.6450332087405224E+00    4.7046928774808263E+00    1.3022011918442645E+01
Ga   -1.6005209709162602E+00    2.8353432824784655E+00    1.3573265939897601E+01
N   -1.6232156569030622E+00    2.8181922051475743E+00    1.5540691073575967E+01
Ga   -1.4707930164806013E+00    4.6040771048227205E+00    1.6421827959812916E+01
N   -9.0630412276265851E-03    3.7656820545735807E+00    1.7555032138192885E+01
N   -3.2378988770455068E+00    7.5795685805100304E+00    2.4532495659894056E+00
Ga   -3.1823674101937405E+00    5.5937223581266817E+00    2.8019715257636348E+00
N   -3.2145932941145983E+00    5.6080959354053546E+00    4.9699907344518879E+00
Ga   -3.2380261843095486E+00    7.4351955952962010E+00    5.7379489337377709E+00
N   -3.2247914235761881E+00    7.4621848248405760E+00    7.7377898883009779E+00
Ga   -3.2182082553373488E+00    5.6153439830718836E+00    8.3923812388033294E+00
N   -3.2194018252273611E+00    5.6157092408197711E+00    1.0369700010639100E+01
Ga   -3.2213761714426385E+00    7.4545993640725356E+00    1.1021744138711892E+01
N   -3.2208588041748794E+00    7.4359169373755734E+00    1.3015625227966876E+01
Ga   -3.2230976674888607E+00    5.6178600827488712E+00    1.3820955304322172E+01
N   -3.2249168843143527E+00    5.6156052713534823E+00    1.6022969681372626E+01
Ga   -3.2218926255225089E+00    7.6669184843009628E+00    1.6443052239437570E+01
Ga   -3.2516035032391004E+00    9.3495081433916880E+00    1.3101330733616003E+00
N   -4.7438939408961387E+00    1.0183127306292516E+01    2.4596989124250741E+00
Ga   -4.9592974099638747E+00    8.3282568187042791E+00    3.1729838628660003E+00
N   -4.8480494484347849E+00    8.3865662064843054E+00    5.1576810077012336E+00
Ga   -4.8604559868601411E+00    1.0264564760003198E+01    5.7260775335264125E+00
N   -4.8396244819582748E+00    1.0257090089656844E+01    7.7337432941030109E+00
Ga   -4.8201115336122387E+00    8.4074843925821199E+00    8.3883126355632367E+00
N   -4.8168783911956474E+00    8.4074493928612029E+00    1.0382810231813876E+01
Ga   -4.8423672120162928E+00    1.0267125174067214E+01    1.1018656837786795E+01
N   -4.8593669494879901E+00    1.0274735690425688E+01    1.3013978008234645E+01
Ga   -4.8170348523324309E+00    8.4069749001022434E+00    1.3574902611893812E+01
N   -4.8450822178343680E+00    8.3910557489184949E+00    1.5534451866510231E+01
Ga   -4.6597830611361308E+00    1.0158960740557431E+01    1.6443128375470359E+01
N   -3.2197408541084811E+00    9.3327754246998982E+00    1.7584509140531353E+01
N    3.2072148787829144E+00    1.8972118028189580E+00    2.5595505482810776E+00
Ga    3.1946425316263833E+00    1.4108566070335712E-01    3.2139447137992834E+00
N    3.2083041107153041E+00    4.1672102486544335E-02    5.1895991112376363E+00
Ga    3.1998989433699419E+00    1.9069277168022170E+00    5.8094936121785477E+00
N    3.2097412010670432E+00    1.9014388831673759E+00    7.7927265014715283E+00
Ga    3.2067531895572996E+00    3.4494236083172237E-02    8.3774341879865375E+00
N    3.2106895649762124E+00    3.1612452028130532E-02    1.0376912109879806E+01
Ga    3.2104094399479317E+00    1.8991110038884356E+00    1.0978610884946235E+01
N    3.2098995442242484E+00    1.9004082394754305E+00    1.2953088631758838E+01
Ga    3.2111514938925696E+00    3.0641985652722609E-02    1.3574542890089425E+01
N    3.2086451440779862E+00    6.2184956093151264E-02    1.5535268702683613E+01
Ga    3.2115950627230134E+00    1.8982824613684064E+00    1.5811051228752643E+01
N    1.5007940416861394E+00    4.6398547681024533E+00    2.3261191469387894E+00
Ga    1.6903557393486885E+00    2.8168502407605751E+00    3.1864597147550131E+00
N    1.6081896862946548E+00    2.8465760993055143E+00    5.1753249400686823E+00
Ga    1.6567930426986381E+00    4.7084164640377830E+00    5.7636056195766932E+00
N    1.6050245036337363E+00    4.6899426084527072E+00    7.7712162200999435E+00
Ga    1.5937367840273093E+00    2.8343375033117044E+00    8.3902477384643426E+00
N    1.5931915860549395E+00    2.8350988845120013E+00    1.0388215161188180E+01
Ga    1.6195971652749521E+00    4.6944939520944509E+00    1.1022812282359164E+01
N    1.6359321806023281E+00    4.7046707030719235E+00    1.3021667144989214E+01
Ga    1.5922477999142242E+00    2.8353246893976167E+00    1.3571301297717227E+01
N    1.6145629398827550E+00    2.8200314880003052E+00    1.5538607014749271E+01
Ga    1.4563266112580713E+00    4.5991399862750919E+00    1.6421935954012213E+01
N   -1.3911532036983315E-02    7.4712459841960470E+00    2.6427435439075273E+00
Ga    3.7548225306425979E-02    5.6010642734708460E+00    3.2391211431092586E+00
N    9.4718837327379506E-03    5.6260017850388913E+00    5.1838395205149288E+00
Ga   -7.0030442071305011E-03    7.4586272786435988E+00    5.8517700666501069E+00
N   -5.8354851202284683E-03    7.4697671362541076E+00    7.8134518101729427E+00
Ga   -4.1143171392952803E-03    5.5988753487855201E+00    8.4039324760883858E+00
N   -6.0074675216201783E-03    5.6041715537185937E+00    1.0396107985988568E+01
Ga   -7.7443497391659058E-03    7.4729736241181728E+00    1.0985480314761809E+01
N   -4.7787107880477592E-03    7.4715414084548151E+00    1.2959280253767933E+01
Ga   -4.1112979063904660E-03    5.6004224305906254E+00    1.3573394208708500E+01
N   -2.5639332913312261E-03    5.6285695807546716E+00    1.5542102029936721E+01
Ga   -7.8662483214230385E-03    7.4700662192950489E+00    1.5815268705837713E+01
N   -1.7175108810520290E+00    1.0186570827624694E+01    2.4675864198949999E+00
Ga   -1.6260552336735155E+00    8.3858811784597513E+00    3.2659830153749700E+00
N   -1.6055393923555121E+00    8.3884867255479865E+00    5.2009082431832052E+00
Ga   -1.5939798695891485E+00    1.0275711810277297E+01    5.7526919646491308E+00
N   -1.6040562669678835E+00    1.0259745377167615E+01    7.7469435913439462E+00
Ga   -1.6278396860519138E+00    8.4051742542193821E+00    8.3901315396820149E+00
N   -1.6251124377828650E+00    8.4065594405922752E+00    1.0383906822000531E+01
Ga   -1.6013745437707494E+00    1.0266326752646309E+01    1.1021051533332066E+01
N   -1.5815241825896296E+00    1.0275223270165862E+01    1.3016684325998247E+01
Ga   -1.6256271123934680E+00    8.4072756249453491E+00    1.3576089004418005E+01
N   -1.5973266899432290E+00    8.3882775271942993E+00    1.5535873138794935E+01
Ga   -1.7801033768339203E+00    1.0161175818815689E+01    1.6442437093426943E+01
N    6.4364118642002763E+00    2.0167663356562717E+00    2.5024573522601399E+00
Ga    6.4143717811306962E+00    4.3012264411291308E-02    2.8355311480181600E+00
N    6.4278517147325447E+00    4.3355116041460848E-02    4.9830588444413912E+00
Ga    6.4241192460535501E+00    1.8768720065386020E+00    5.7591326588697687E+00
N    6.4279024970196952E+00    1.8886516710417640E+00    7.7548409820108937E+00
Ga    6.4252562367856800E+00    4.5042102027801852E-02    8.4000733913169725E+00
N    6.4265136965163911E+00    4.3267778551451710E-02    1.0374476285612007E+01
Ga    6.4280998294594136E+00    1.8845095470657711E+00    1.1022311473162048E+01
N    6.4288681425095575E+00    1.8655436753328758E+00    1.3016278073440841E+01
Ga    6.4246523237722437E+00    4.8008635443975295E-02    1.3821577324340373E+01
N    6.4224734270176969E+00    4.5111219094838353E-02    1.6022289497470762E+01
Ga    6.4262775639322296E+00    2.0975570090614828E+00    1.6441593179215236E+01
Ga    6.4611718919679495E+00    3.7213613651906261E+00    1.4770407657024616E+00
N    4.9388725532242956E+00    4.5958091740527376E+00    2.4521779853296488E+00
Ga    4.7030522107343176E+00    2.7728406143219537E+00    3.2523814704154961E+00
N    4.8211542085807633E+00    2.8316208982400295E+00    5.2090664448710307E+00
Ga    4.7757524471745789E+00    4.7082980239224543E+00    5.7695219373104951E+00
N    4.8205501910975972E+00    4.6873036525666647E+00    7.7744967127277711E+00
Ga    4.8271462301293795E+00    2.8318485908440159E+00    8.3930795538042755E+00
N    4.8295953921259516E+00    2.8331542154295475E+00    1.0389192541085269E+01
Ga    4.8051445761167288E+00    4.6948399057641446E+00    1.1021166555512085E+01
N    4.7897148533461182E+00    4.7042020511693776E+00    1.3016636118392015E+01
Ga    4.8309416447366598E+00    2.8354840369643535E+00    1.3572656332289151E+01
N    4.8004940060194246E+00    2.8186037822906886E+00    1.5532270955025576E+01
Ga    4.9900238523648390E+00    4.5872477752260004E+00    1.6442153020349195E+01
N    6.4290805942585996E+00    3.7618428278011367E+00    1.7581481473130744E+01
N    3.1905925744504735E+00    7.6184808977587073E+00    2.4681203079919531E+00
N    3.2189843687626372E+00    5.6222868649400937E+00    5.0824104246013251E+00
Ga    3.2147591894714038E+00    7.4168916033714645E+00    5.7830027663408545E+00
N    3.2100279039455062E+00    7.4742213358061864E+00    7.7804460217112572E+00
Ga    3.2124645905683513E+00    5.6139204012337522E+00    8.3958174206785365E+00
N    3.2115510254853885E+00    5.6157491887652000E+00    1.0377316667678008E+01
Ga    3.2124256701836380E+00    7.4540923627818501E+00    1.1024185637793414E+01
N    3.2123015630771126E+00    7.4363119836952016E+00    1.3021197817823538E+01
Ga    3.2160361335494616E+00    5.6138940953798278E+00    1.3815242887705274E+01
N    3.2133658142166523E+00    5.6113171532799804E+00    1.6024283110573808E+01
Ga    3.2125302349505027E+00    7.6474159262801313E+00    1.6422856751994349E+01
Ga    3.2300413928774017E+00    9.3662896269668288E+00    1.4252152977405226E+00
N    1.7024280281566442E+00    1.0192439567914379E+01    2.4838794528271837E+00
Ga    1.5760552894337680E+00    8.3783753845985487E+00    3.2983505485862312E+00
N    1.5916711496938463E+00    8.3957781930880504E+00    5.2205578130196093E+00
Ga    1.5765504853948062E+00    1.0277945825139390E+01    5.7691240748247914E+00
N    1.5931624001643561E+00    1.0262142506518854E+01    7.7591525906337848E+00
Ga    1.6119879828632702E+00    8.4085754861628121E+00    8.4074369327618008E+00
N    1.6112987773211909E+00    8.4088273391524542E+00    1.0398388980606139E+01
Ga    1.5881063194334861E+00    1.0268912346793229E+01    1.1028088619873230E+01
N    1.5722576611338810E+00    1.0276534131685208E+01    1.3024430146769996E+01
Ga    1.6155178365769802E+00    8.4064528193187318E+00    1.3574299465968666E+01
N    1.5887654618534071E+00    8.3864477357219105E+00    1.5540678042928656E+01
Ga    1.7470204151865902E+00    1.0173219050027722E+01    1.6421769398847264E+01
N    3.2071403652583044E+00    9.3364752485700091E+00    1.7546248201681053E+01
N    9.6624552199449845E+00    1.9097926375642880E+00    2.5722689969823738E+00
Ga    9.6529038551011901E+00    1.6994911784703487E-01    3.2489730055393538E+00
N    9.6414342331144631E+00    4.3695538112083564E-02    5.2107057460870818E+00
Ga    9.6565446724358619E+00    1.9065532779306578E+00    5.8308823820788938E+00
N    9.6463347655261948E+00    1.9017771490030926E+00    7.8059150791993384E+00
Ga    9.6458299453273657E+00    3.5126137829523021E-02    8.3937148957547532E+00
N    9.6439296285987197E+00    3.2259536884337345E-02    1.0388710932021009E+01
Ga    9.6458462612399618E+00    1.9034682076748668E+00    1.0977023904750869E+01
N    9.6465099063926782E+00    1.9013796410596722E+00    1.2952491934865087E+01
Ga    9.6451487505234237E+00    3.2920962897779835E-02    1.3574631627215343E+01
N    9.6466689336375513E+00    6.1982306968556070E-02    1.5542129528757886E+01
Ga    9.6430134742679261E+00    1.9014894987056592E+00    1.5817884479975577E+01
N    7.9324806284419553E+00    4.6240410026018797E+00    2.4921802020924924E+00
Ga    8.1560098481694077E+00    2.7681270370995517E+00    3.2635734891268893E+00
N    8.0393537236215256E+00    2.8273964654228720E+00    5.2183360703454076E+00
Ga    8.0645398144296809E+00    4.7016534038216928E+00    5.7544679718926472E+00
N    8.0465550125150003E+00    4.6937601393039081E+00    7.7507839835458965E+00
Ga    8.0271293566651529E+00    2.8354539486415002E+00    8.3891924431629619E+00
N    8.0256933884422708E+00    2.8368748767095613E+00    1.0385045129959240E+01
Ga    8.0526304360573970E+00    4.6955278173465587E+00    1.1024234916206945E+01
N    8.0686992676129901E+00    4.7047523365127875E+00    1.3018656917309357E+01
Ga    8.0257430170381348E+00    2.8356948896320100E+00    1.3574816326738274E+01
N    8.0537332910681201E+00    2.8170340300478416E+00    1.5534409774424503E+01
Ga    7.8663904972204879E+00    4.5894725754150070E+00    1.6442456090251987E+01
N    6.3471354741727639E+00    7.4324385114357367E+00    2.4560568984022888E+00
Ga    6.4117351955570134E+00    5.7048172611600441E+00    3.2638755582808066E+00
N    6.4273220184824842E+00    5.6192374535008440E+00    5.2061899274010219E+00
Ga    6.4258519126424245E+00    7.4718400256718063E+00    5.8397578850946781E+00
N    6.4255319503952082E+00    7.4708724390536334E+00    7.8085327436710985E+00
Ga    6.4300072261900496E+00    5.6011616356105671E+00    8.4010983644137180E+00
N    6.4309218060814315E+00    5.6045181529978167E+00    1.0393194768873366E+01
Ga    6.4298332018053159E+00    7.4737676150315115E+00    1.0982947721352263E+01
N    6.4279725151776050E+00    7.4734399192971139E+00    1.2954669435786036E+01
Ga    6.4283525366348968E+00    5.6019510705333389E+00    1.3574209010898011E+01
N    6.4257185503313057E+00    5.6348996863342800E+00    1.5534492308307536E+01
Ga    6.4298664261438034E+00    7.4695411652520249E+00    1.5814113985884241E+01
N    4.7196063526596141E+00    1.0198462661264207E+01    2.4858549271128099E+00
Ga    4.8900181632429609E+00    8.3513376075571859E+00    3.2709886344029240E+00
N    4.8181184877849548E+00    8.4008065304804376E+00    5.2128532943900172E+00
Ga    4.8503429797987208E+00    1.0278670253231809E+01    5.7574016360218714E+00
N    4.8297527230069042E+00    1.0263852463158363E+01    7.7534445223543678E+00
Ga    4.8101356918189007E+00    8.4109875631722968E+00    8.4026196942003644E+00
N    4.8107918735435700E+00    8.4096013308534232E+00    1.0394951629779044E+01
Ga    4.8364649860122100E+00    1.0268940714246211E+01    1.1024690677648104E+01
N    4.8523187025400523E+00    1.0276344545121370E+01    1.3021875201925216E+01
Ga    4.8095964236967168E+00    8.4066562602832420E+00    1.3573378002204569E+01
N    4.8340726262635032E+00    8.3897356921520174E+00    1.5539305768617018E+01
Ga    4.6699292457922903E+00    1.0168321283951043E+01    1.6423346625453558E+01
O    2.4981332844033841E-02    3.6632577195300655E+00   -5.8447458432940513E-01
H   -5.0226341985182459E-03    7.4852513517279426E+00    1.6160464056651500E+00
C    8.7556843232605333E-02    2.3592889509312744E+00   -1.1827564370440602E+00
H    9.3553682650321823E-01    1.7615099722020457E+00   -8.0744949764255947E-01
H   -8.3727851808663689E-01    1.7814223581578121E+00   -1.0194167092894477E+00
H    2.1867982925848151E-01    2.5002586803928621E+00   -2.2663785259373745E+00
Ga    3.2277714014191772E+00    5.6211248916158967E+00    2.2747934375953482E+00
O    3.8995423787125727E+00    6.1680830561690625E+00    2.0452444408626161E-01
H    3.7796123939791735E+00    5.4862591600206523E+00   -4.7838156785319258E-01
C    5.2927395938028532E+00    6.7019739181012206E+00    1.2551593231539707E-01
H    5.2908754723959603E+00    7.5014096820264928E+00   -6.2921340676358362E-01
H    5.7689411696035515E+00    7.0961732175202696E+00    1.2195752026852917E+00
H    5.9598709063257269E+00    5.8995713156270027E+00   -2.3525562883148968E-01
     &END COORD
     &KIND C
       BASIS_SET DZVP-MOLOPT-SR-GTH-q4
       POTENTIAL GTH-PBE-q4
       &POTENTIAL
2 2
0.3384712400000000E+00 2 -0.8803673979999999E+01  0.1339210850000000E+01
2
0.3025757500000000E+00 1  0.9622486650000001E+01
0.2915069400000000E+00 0
       &END POTENTIAL
     &END KIND
     &KIND O
       BASIS_SET DZVP-MOLOPT-SR-GTH-q6
       POTENTIAL GTH-PBE-q6
       &POTENTIAL
2 4
0.2445543000000000E+00 2 -0.1666721480000000E+02  0.2487311320000000E+01
2
0.2209559200000000E+00 1  0.1833745811000000E+02
0.2113324700000000E+00 0
       &END POTENTIAL
     &END KIND
     &KIND H
       BASIS_SET DZVP-MOLOPT-SR-GTH-q1
       POTENTIAL GTH-PBE-q1
       &POTENTIAL
1
0.2000000000000000E+00 2 -0.4178900440000000E+01  0.7244633100000000E+00
0
       &END POTENTIAL
     &END KIND
     &KIND N
       BASIS_SET DZVP-MOLOPT-SR-GTH
       POTENTIAL GTH-PBE-q5
       &POTENTIAL
2 3
0.2837905100000000E+00 2 -0.1241522559000000E+02  0.1868095920000000E+01
2
0.2554050000000000E+00 1  0.1363026257000000E+02
0.2454945300000000E+00 0
       &END POTENTIAL
     &END KIND
     &KIND Ga
       BASIS_SET DZVP-MOLOPT-SR-GTH
       POTENTIAL GTH-PBE-q13
       &POTENTIAL
2 1 10
0.4900000000000000E+00 0
3
0.4167772300000000E+00 3  0.1047568975000000E+02 -0.4921768140000000E+01  0.8707055900000000E+00
0.7770178090000000E+01 -0.2248152160000000E+01
0.1784415450000000E+01
0.5696265200000000E+00 2  0.1777985340000000E+01  0.1958597600000000E+00
-0.2317443900000000E+00
0.2381265000000000E+00 1 -0.1624868022000000E+02
       &END POTENTIAL
     &END KIND
     &TOPOLOGY
       NUMBER_OF_ATOMS  212
       MULTIPLE_UNIT_CELL  1 1 1
     &END TOPOLOGY
     &COLVAR
       &DISTANCE
         ATOMS  176 211
       &END DISTANCE
       &PRINT
       &END PRINT
     &END COLVAR
   &END SUBSYS
 &END FORCE_EVAL
