 # Version information for this restart file 
 # current date 2019-07-17 09:36:03.041
 # current working dir /lustre04/scratch/rzk/rzk/GaN-carbene/443-adatoms-both-2x2/09-BondBreaking-CH/03-0501-CH-to-Nsur-PES/Phase02
 # Program compiled at                              Sun Apr  7 00:48:11 EDT 2019
 # Program compiled on                          beluga2.int.ets1.calculquebec.ca
 # Program compiled for                        Beluga-Linux-x86-64-intel-openmpi
 # Source code revision number                                         svn:18619
 &GLOBAL
   PRINT_LEVEL  MEDIUM
   PROJECT_NAME TEST
   RUN_TYPE  GEO_OPT
 &END GLOBAL
 &MOTION
   &GEO_OPT
     MAX_ITER  500
     STEP_START_VAL  13
   &END GEO_OPT
   &CONSTRAINT
     &COLLECTIVE
       COLVAR  1
       INTERMOLECULAR  T
       TARGET     1.7007535195970787E+00
       &RESTRAINT
         K     2.0000000000000000E+00
       &END RESTRAINT
     &END COLLECTIVE
     &COLVAR_RESTART
           1.7007535195970787E+00
     &END COLVAR_RESTART
   &END CONSTRAINT
 &END MOTION
 &FORCE_EVAL
   METHOD  QS
   STRESS_TENSOR  ANALYTICAL
   &DFT
     BASIS_SET_FILE_NAME BASIS_MOLOPT
     POTENTIAL_FILE_NAME GTH_POTENTIALS
     UKS  T
     SURFACE_DIPOLE_CORRECTION  T
     SURF_DIP_DIR  Z
     &SCF
       MAX_SCF  80
       EPS_SCF     5.0000000000000004E-06
       &OT  T
         PRECONDITIONER  FULL_ALL
       &END OT
       &OUTER_SCF  T
         OPTIMIZER  NONE
         EPS_SCF     5.0000000000000004E-06
         MAX_SCF  4
       &END OUTER_SCF
       &PRINT
         &RESTART  OFF
           BACKUP_COPIES  1
           &EACH
             JUST_ENERGY  0
             QS_SCF  0
             MD  20
           &END EACH
         &END RESTART
       &END PRINT
     &END SCF
     &QS
       EPS_DEFAULT     1.0000000000000000E-14
       METHOD  GPW
     &END QS
     &MGRID
       NGRIDS  5
       CUTOFF     1.2000000000000000E+03
     &END MGRID
     &XC
       DENSITY_CUTOFF     1.0000000000000000E-10
       GRADIENT_CUTOFF     1.0000000000000000E-10
       TAU_CUTOFF     1.0000000000000000E-10
       &XC_FUNCTIONAL  NO_SHORTCUT
         &PBE  T
         &END PBE
       &END XC_FUNCTIONAL
       &VDW_POTENTIAL
         POTENTIAL_TYPE  PAIR_POTENTIAL
         &PAIR_POTENTIAL
           R_CUTOFF     1.0000000000000009E+01
           TYPE  DFTD3
           PARAMETER_FILE_NAME dftd3.dat
           REFERENCE_FUNCTIONAL PBE
           EPS_CN     9.9999999999999995E-07
           CALCULATE_C9_TERM  T
           REFERENCE_C9_TERM  T
           LONG_RANGE_CORRECTION  F
           VERBOSE_OUTPUT  F
         &END PAIR_POTENTIAL
       &END VDW_POTENTIAL
     &END XC
   &END DFT
   &SUBSYS
     &CELL
       A     1.2864472766435110E+01    0.0000000000000000E+00    0.0000000000000000E+00
       B    -6.4322363581020028E+00    1.1140960178524477E+01    0.0000000000000000E+00
       C     0.0000000000000000E+00    0.0000000000000000E+00    3.2000000000000000E+01
       MULTIPLE_UNIT_CELL  1 1 1
       &CELL_REF
         A     1.2982353780853531E+01    0.0000000000000000E+00    0.0000000000000000E+00
         B    -6.4911768904267628E+00    1.1243048175136114E+01    0.0000000000000000E+00
         C     0.0000000000000000E+00    0.0000000000000000E+00    3.2000000000000000E+01
         MULTIPLE_UNIT_CELL  1 1 1
       &END CELL_REF
     &END CELL
     &COORD
N   -2.9853770504164007E-02    2.1043181790066812E+00    2.4595532449811062E+00
Ga   -2.7753959871478003E-02    1.5459403007055142E-01    2.8158669016692328E+00
N   -2.2738824846740280E-02    1.0525600997626129E-01    4.9783522093596364E+00
Ga   -2.6140138671961875E-02    1.9393971207489811E+00    5.7473100612311834E+00
N   -2.9712187831332691E-02    1.9520454805479788E+00    7.7457825833740221E+00
Ga   -2.6580648993505672E-02    1.0889869760743084E-01    8.4045041726622269E+00
N   -2.7129780591571791E-02    1.0594037497060615E-01    1.0373134209749132E+01
Ga   -2.4079512522040433E-02    1.9444283365060693E+00    1.1032541865430630E+01
N   -2.6355785962996418E-02    1.9250266275304122E+00    1.3020630683261148E+01
Ga   -2.6518865449038555E-02    1.0505742536349551E-01    1.3835893335715093E+01
N   -2.5362758794617475E-02    1.0600958868402180E-01    1.6024204002453100E+01
Ga   -2.7099113515901014E-02    2.1498924844768013E+00    1.6440962047353612E+01
Ga    3.8757572718231936E-02    3.8284064543142948E+00    1.3011970669050219E+00
N   -1.4938837052721541E+00    4.6871425453629936E+00    2.4851605388113072E+00
Ga   -1.6931948281712863E+00    2.8615871728874960E+00    3.2070176822020571E+00
N   -1.6530968783761926E+00    2.8821089579583514E+00    5.1790207017458219E+00
Ga   -1.6546953029516351E+00    4.7420443895286448E+00    5.7971981469003495E+00
N   -1.6412735583573037E+00    4.7467505734486375E+00    7.7741083255606389E+00
Ga   -1.6246344494430844E+00    2.8884899725932307E+00    8.4089231348830200E+00
N   -1.6230479046617869E+00    2.8950299560967618E+00    1.0392383834250978E+01
Ga   -1.6534160315214288E+00    4.7545405314472191E+00    1.1035475515027221E+01
N   -1.6688208844241450E+00    4.7663062174604471E+00    1.3022233993997803E+01
Ga   -1.6249006969944559E+00    2.8965890558081591E+00    1.3579773597166511E+01
N   -1.6513909264384550E+00    2.8824642978239905E+00    1.5537265622489107E+01
Ga   -1.4694566775224738E+00    4.6521824238398635E+00    1.6440849892385764E+01
N   -2.1843071556127615E-02    3.8157767254522557E+00    1.7583495155421133E+01
N   -3.2257839595520204E+00    7.6646388998199848E+00    2.5166407946074765E+00
Ga   -3.1174477092764588E+00    5.6879140913149024E+00    2.9883698135787915E+00
N   -3.2126571950545824E+00    5.6949636163824522E+00    5.0448443851246267E+00
Ga   -3.2418370327804045E+00    7.5066204873157609E+00    5.8098945549568226E+00
N   -3.2423928186191890E+00    7.5272880442577366E+00    7.7787121054013015E+00
Ga   -3.2523249376300383E+00    5.6686620698309325E+00    8.4036720078091136E+00
N   -3.2456843309670367E+00    5.6741704578797094E+00    1.0372303458353160E+01
Ga   -3.2479013702081154E+00    7.5125218087922958E+00    1.1035568267798292E+01
N   -3.2452527058500542E+00    7.4948220025711230E+00    1.3022426372536085E+01
Ga   -3.2448577622505135E+00    5.6752100001631627E+00    1.3838889584298384E+01
N   -3.2433216669019154E+00    5.6759616511129494E+00    1.6022877843391246E+01
Ga   -3.2435480091422746E+00    7.7251580509292177E+00    1.6443113215044761E+01
Ga   -3.2265814469588632E+00    9.4203003722190886E+00    1.4513287442276570E+00
N   -4.7477660527576404E+00    1.0248941164271347E+01    2.4856584336406415E+00
Ga   -4.8894279733882389E+00    8.4369750503676393E+00    3.2939064561465021E+00
N   -4.8594631265117192E+00    8.4507451914428113E+00    5.2160125161604292E+00
Ga   -4.8788177647787849E+00    1.0341841248232214E+01    5.7694498852640397E+00
N   -4.8612859336243170E+00    1.0321493565752943E+01    7.7551960838071086E+00
Ga   -4.8522409409322380E+00    8.4651735896601163E+00    8.4007975985879408E+00
N   -4.8440206947180320E+00    8.4669120743557595E+00    1.0385400560376254E+01
Ga   -4.8668507779955688E+00    1.0327715883391532E+01    1.1030921787877041E+01
N   -4.8836003916303206E+00    1.0336520290453080E+01    1.3018944990710674E+01
Ga   -4.8423236668277303E+00    8.4676841979089037E+00    1.3581559393380138E+01
N   -4.8713684159768285E+00    8.4526716726288900E+00    1.5537261130232949E+01
Ga   -4.6808728312212615E+00    1.0220936125890146E+01    1.6444436466650924E+01
N   -3.2387805810758890E+00    9.3886301772828453E+00    1.7575037444756035E+01
N    3.1825659433545805E+00    1.9599633708831021E+00    2.5534706067472310E+00
Ga    3.1969162950208290E+00    2.3986530798568617E-01    3.2514419945445128E+00
N    3.1920178297357964E+00    9.7820356768212685E-02    5.2111156871944706E+00
Ga    3.2168121172403130E+00    1.9863241042528781E+00    5.7877168146205094E+00
N    3.1965977117246132E+00    1.9645914640387689E+00    7.7778052679538696E+00
Ga    3.1864682044673720E+00    1.0527897314405688E-01    8.3994387283935961E+00
N    3.1873965662679886E+00    9.4881843207934330E-02    1.0386774279140141E+01
Ga    3.1924740420368058E+00    1.9656150166364514E+00    1.0980636505161735E+01
N    3.1899501512065878E+00    1.9641855276679843E+00    1.2946834270826121E+01
Ga    3.1880345187667487E+00    9.5848514225579662E-02    1.3578956124201389E+01
N    3.1867794934453340E+00    1.2787738653073485E-01    1.5535166623706770E+01
Ga    3.1882962810078244E+00    1.9638433491627418E+00    1.5819488473194468E+01
N    1.4436507774550555E+00    4.6933170366153520E+00    2.4876314733375930E+00
Ga    1.6740359648596486E+00    2.8477810000247135E+00    3.2268098905811438E+00
N    1.5827945835449326E+00    2.8937318789840356E+00    5.2045377138630124E+00
Ga    1.6109944180646505E+00    4.7491551340574771E+00    5.7912622308885373E+00
N    1.5912492006810603E+00    4.7524928093886194E+00    7.7715698452195623E+00
Ga    1.5784562208577311E+00    2.8876761627550880E+00    8.3893433619776197E+00
N    1.5711366592320724E+00    2.8942623691501304E+00    1.0380708886232375E+01
Ga    1.6022364175706960E+00    4.7526631177663203E+00    1.1028861049959865E+01
N    1.6153052919880744E+00    4.7658944627712208E+00    1.3018464246008028E+01
Ga    1.5715560157869137E+00    2.8970059537173949E+00    1.3578917722146652E+01
N    1.5965081722305861E+00    2.8825639594255756E+00    1.5537336355607239E+01
Ga    1.4194256636008784E+00    4.6544802334004443E+00    1.6441702791477304E+01
N   -2.5580089049019636E-02    7.5179022270997402E+00    2.6893097835915354E+00
Ga   -2.5346282970569001E-02    5.6547985488072507E+00    3.3234507263993343E+00
N   -2.6754874396755945E-02    5.6886234806467515E+00    5.2531729662378384E+00
Ga   -2.0913629597363037E-02    7.5269510083811841E+00    5.8974281565342279E+00
N   -2.5975226608949253E-02    7.5333494843883573E+00    7.8460059102806694E+00
Ga   -2.3963629489596145E-02    5.6579357178551959E+00    8.4231265316406461E+00
N   -2.6534156493160811E-02    5.6617415128226689E+00    1.0402796815072710E+01
Ga   -2.5372579893628348E-02    7.5310236212793642E+00    1.1002218984472558E+01
N   -2.5845214339542094E-02    7.5329544643108575E+00    1.2963862237825420E+01
Ga   -2.6336811544277847E-02    5.6609086811706462E+00    1.3581470946020254E+01
N   -2.7245391429486569E-02    5.6938892364611222E+00    1.5538553932379843E+01
Ga   -2.5797259631007350E-02    7.5327078801252760E+00    1.5816758979916619E+01
N   -1.7288305896168585E+00    1.0240165507078673E+01    2.5120419371700256E+00
Ga   -1.6002012188401853E+00    8.4565045204163560E+00    3.3320841153475858E+00
N   -1.6207151771054911E+00    8.4542368406131079E+00    5.2508993770423293E+00
Ga   -1.6127285534266349E+00    1.0340777823421631E+01    5.8072465139682521E+00
N   -1.6294216078313317E+00    1.0319743469656293E+01    7.7831903914463734E+00
Ga   -1.6465111201945315E+00    8.4703410620697728E+00    8.4330557037867226E+00
N   -1.6462258063741295E+00    8.4674095143293897E+00    1.0409591348281593E+01
Ga   -1.6196899398881626E+00    1.0333298559504234E+01    1.1035490429706725E+01
N   -1.6030528632831376E+00    1.0338920979078548E+01    1.3022800000399490E+01
Ga   -1.6480828180226674E+00    8.4690125573731017E+00    1.3582281264891074E+01
N   -1.6161691047462987E+00    8.4508343221117048E+00    1.5538776705878270E+01
Ga   -1.8011843488264703E+00    1.0223895717480520E+01    1.6442289844014731E+01
N    6.4521205350945419E+00    1.9636176438861113E+00    2.4853305174775504E+00
Ga    6.4095622265854466E+00    1.1819333261976797E-01    2.9213814713138468E+00
N    6.4016257039393505E+00    7.5268310238022079E-02    5.0489990648963596E+00
Ga    6.3928400684863229E+00    1.9505347771710553E+00    5.7127888293962128E+00
N    6.4061197148674269E+00    1.9555171438005015E+00    7.7267891203161163E+00
Ga    6.4058808404561161E+00    1.1898128841010049E-01    8.4056385730962120E+00
N    6.4064023684559972E+00    1.0929359724196415E-01    1.0375734390770035E+01
Ga    6.4040356244182659E+00    1.9507089292465729E+00    1.1024800984388047E+01
N    6.4045771956643378E+00    1.9270925967870807E+00    1.3015169005155943E+01
Ga    6.4051320684410999E+00    1.0814051308186717E-01    1.3837303352498949E+01
N    6.4051556992352827E+00    1.0728396708894919E-01    1.6023213796304354E+01
Ga    6.4048939074656595E+00    2.1551327845027703E+00    1.6442101198666904E+01
Ga    8.9090107149131050E+00    1.6308354853055589E+00    6.1885144340986620E-01
N    4.7196592578365628E+00    4.7363805972947324E+00    2.4892454115989517E+00
Ga    4.8022983337383849E+00    2.8104586915382419E+00    3.0249901698433552E+00
N    4.8051104151387092E+00    2.8960434480733634E+00    5.0988455645996229E+00
Ga    4.8003263525941158E+00    4.7525601657533931E+00    5.6752805384495586E+00
N    4.7967083489292142E+00    4.7568978500283938E+00    7.7002480306534622E+00
Ga    4.8109416491538015E+00    2.9030258564437808E+00    8.3709341746055781E+00
N    4.8088519712488811E+00    2.9003573621397170E+00    1.0368766541853946E+01
Ga    4.7841336040777360E+00    4.7538732137161892E+00    1.1026360800349323E+01
N    4.7657779900868391E+00    4.7660759032010054E+00    1.3015314013532176E+01
Ga    4.8078089474056025E+00    2.8976520012740186E+00    1.3578056595846952E+01
N    4.7778696269790855E+00    2.8820014243192733E+00    1.5533671225738534E+01
Ga    4.9684691043682747E+00    4.6489276710182024E+00    1.6443863273189571E+01
N    6.4098911635265825E+00    3.8165194611384687E+00    1.7574771497326477E+01
N    3.1673095868464949E+00    7.6774145737582593E+00    2.4746639650495608E+00
N    3.1649623072986333E+00    5.6933825903604189E+00    5.0121824088982034E+00
Ga    3.1907254411717592E+00    7.5008328862589213E+00    5.7909677402468258E+00
N    3.1904191327245996E+00    7.5265704343240323E+00    7.7667895542498115E+00
Ga    3.2048113619997949E+00    5.6682229411775360E+00    8.3946354566389285E+00
N    3.1942773411438754E+00    5.6750022061855683E+00    1.0367072697910213E+01
Ga    3.1948651127442580E+00    7.5115185089978462E+00    1.1033970665918330E+01
N    3.1909457543518944E+00    7.4952629645394113E+00    1.3021788829409111E+01
Ga    3.1910762007678946E+00    5.6748086369253663E+00    1.3835018840716145E+01
N    3.1909499701590498E+00    5.6750173315154182E+00    1.6024399284153390E+01
Ga    3.1894873530836270E+00    7.7192853311425935E+00    1.6444449088667746E+01
Ga    3.1582048936746010E+00    9.4628636086116664E+00    1.3012939295251384E+00
N    1.6755439240267966E+00    1.0256697777478420E+01    2.5230712637443000E+00
Ga    1.5677077306850080E+00    8.4634403943848024E+00    3.3012126064647198E+00
N    1.5697699874830284E+00    8.4544461830210178E+00    5.2342060111341135E+00
Ga    1.5512257799953375E+00    1.0335176524714631E+01    5.8036356356289485E+00
N    1.5770334435861482E+00    1.0319629471841353E+01    7.7799025464289100E+00
Ga    1.5968413003503452E+00    8.4680268296498955E+00    8.4286911973394734E+00
N    1.5945670798516174E+00    8.4672637328952405E+00    1.0406681972543115E+01
Ga    1.5659120240349793E+00    1.0331495087855435E+01    1.1036885948216700E+01
N    1.5490465098063659E+00    1.0337954744354281E+01    1.3023730099767398E+01
Ga    1.5945780199996615E+00    8.4690061246721040E+00    1.3584198190905159E+01
N    1.5665627499192545E+00    8.4538872901787609E+00    1.5542045178590147E+01
Ga    1.7456368466253263E+00    1.0224533239479786E+01    1.6443321535341394E+01
N    3.1947297477070840E+00    9.3887233192538275E+00    1.7584467801226179E+01
N    9.5894564222603851E+00    1.9408124999516347E+00    2.5261853549832254E+00
Ga    9.6193309414731818E+00    1.6634347307069419E-01    3.2949863167316020E+00
N    9.6208659912870509E+00    1.1263760319173462E-01    5.2285382343185738E+00
Ga    9.6093839589433312E+00    1.9813501353941751E+00    5.8367900825659840E+00
N    9.6192418450569406E+00    1.9653052852624033E+00    7.8043741003145950E+00
Ga    9.6255802967493267E+00    9.8209918968234527E-02    8.4061130077096120E+00
N    9.6241056721303515E+00    9.3082410818634498E-02    1.0391090181398217E+01
Ga    9.6185448720814719E+00    1.9640449770209301E+00    1.0985344978549277E+01
N    9.6202593981987174E+00    1.9625209887808472E+00    1.2951311442280184E+01
Ga    9.6214801601493143E+00    9.4085157033749658E-02    1.3582074446428827E+01
N    9.6213415153646960E+00    1.2356976468847793E-01    1.5540113595368874E+01
Ga    9.6216398930693838E+00    1.9624203132713314E+00    1.5818316965794976E+01
N    8.1319342588404524E+00    4.7220887204362691E+00    2.4927509970268189E+00
Ga    7.9794948148874933E+00    2.8638537251772433E+00    3.1886857940976592E+00
N    8.0244912868111467E+00    2.9002571079160733E+00    5.1634830382881471E+00
Ga    8.0104522448869844E+00    4.7738777543623820E+00    5.7120048080977037E+00
N    8.0156941645977557E+00    4.7596174080422422E+00    7.7185232571334081E+00
Ga    7.9957142691049699E+00    2.9024209004020882E+00    8.3811581962803121E+00
N    8.0019920485583960E+00    2.9000106407965078E+00    1.0375039898803033E+01
Ga    8.0260156370075624E+00    4.7550542397163360E+00    1.1028946496891230E+01
N    8.0443511144745283E+00    4.7665685664492683E+00    1.3017278844147024E+01
Ga    8.0010652612047384E+00    2.8975983079526944E+00    1.3579146364333868E+01
N    8.0323243434637508E+00    2.8801584407144563E+00    1.5535246012984331E+01
Ga    7.8463630814753413E+00    4.6518370447860544E+00    1.6442142681096350E+01
N    6.3912916964856779E+00    7.5835162248328825E+00    2.5875752846814239E+00
Ga    6.4085814226935796E+00    5.6458182078808932E+00    2.9271541086537023E+00
N    6.4106255745496110E+00    5.6799830341783935E+00    5.0198686937761297E+00
Ga    6.3978301421487078E+00    7.4793046601117172E+00    5.8006546161621868E+00
N    6.4041707503304099E+00    7.5215325583906001E+00    7.7752617016201420E+00
Ga    6.4012538426317951E+00    5.6577870126986900E+00    8.3864528852301916E+00
N    6.4049777223008340E+00    5.6624590733143734E+00    1.0375940152342043E+01
Ga    6.4048264473937984E+00    7.5291372536387993E+00    1.0987005369250669E+01
N    6.4040968125716597E+00    7.5325068174239593E+00    1.2950759033587508E+01
Ga    6.4044559935328351E+00    5.6635997352260867E+00    1.3579825513600255E+01
N    6.4034912099145904E+00    5.6980713970876788E+00    1.5534972855830299E+01
Ga    6.4039117754109469E+00    7.5334042248625304E+00    1.5822285852475343E+01
N    4.6931715270707324E+00    1.0280041349893462E+01    2.4914706026632585E+00
Ga    4.8011942105989256E+00    8.4612652577031522E+00    3.2592385235481851E+00
N    4.8032910397552291E+00    8.4547764539677104E+00    5.1962853534808229E+00
Ga    4.8356644047196848E+00    1.0336126228075702E+01    5.7686768589110331E+00
N    4.8084695682905387E+00    1.0320703573343582E+01    7.7534853309473108E+00
Ga    4.7959636617162902E+00    8.4636954594796023E+00    8.3984680511382326E+00
N    4.7898914980974769E+00    8.4673222606807332E+00    1.0384266378009194E+01
Ga    4.8146210840485599E+00    1.0326605229629633E+01    1.1033407195199688E+01
N    4.8291690553846749E+00    1.0335962745853193E+01    1.3021255185453242E+01
Ga    4.7869072792028051E+00    8.4673839855890094E+00    1.3583641300341933E+01
N    4.8124444298336408E+00    8.4534618899517859E+00    1.5542079163668310E+01
Ga    4.6368459577210235E+00    1.0226626380212021E+01    1.6443886476649777E+01
O    7.1977836941525819E-03    3.8675955380784184E+00   -5.1248825007610255E-01
H   -3.5827276928684516E-02    7.5044978643685187E+00    1.6627087292837903E+00
C   -7.1701543421968250E-01    2.8229836385614218E+00   -1.1692664698948880E+00
H   -4.1412127810612209E-01    1.8180329252701599E+00   -8.3077287627571950E-01
H   -1.8110907727953045E+00    2.9198607827200633E+00   -1.0287477995239884E+00
H   -5.1132664070625744E-01    2.9009019106931033E+00   -2.2470595016546762E+00
Ga    3.0865725966320814E+00    5.7011460018764382E+00    2.9306969644384924E+00
O    6.7794732378921365E+00    5.4516149656285169E+00    7.4509934870955574E-01
H    4.8325210405730106E+00    4.7130350973493940E+00    1.4639993506876272E+00
C    7.9353738868250501E+00    4.8068231517271549E+00    9.9302838963746365E-01
H    8.8289425593951680E+00    5.2859334925069179E+00    5.2943398631134053E-01
H    6.4193307548788274E+00    7.6296956146911414E+00    1.6725089293259601E+00
H    7.9486015285750966E+00    3.7354582222351480E+00    5.6813079299690206E-01
     &END COORD
     &KIND C
       BASIS_SET DZVP-MOLOPT-SR-GTH-q4
       POTENTIAL GTH-PBE-q4
       &POTENTIAL
2 2
0.3384712400000000E+00 2 -0.8803673979999999E+01  0.1339210850000000E+01
2
0.3025757500000000E+00 1  0.9622486650000001E+01
0.2915069400000000E+00 0
       &END POTENTIAL
     &END KIND
     &KIND O
       BASIS_SET DZVP-MOLOPT-SR-GTH-q6
       POTENTIAL GTH-PBE-q6
       &POTENTIAL
2 4
0.2445543000000000E+00 2 -0.1666721480000000E+02  0.2487311320000000E+01
2
0.2209559200000000E+00 1  0.1833745811000000E+02
0.2113324700000000E+00 0
       &END POTENTIAL
     &END KIND
     &KIND H
       BASIS_SET DZVP-MOLOPT-SR-GTH-q1
       POTENTIAL GTH-PBE-q1
       &POTENTIAL
1
0.2000000000000000E+00 2 -0.4178900440000000E+01  0.7244633100000000E+00
0
       &END POTENTIAL
     &END KIND
     &KIND N
       BASIS_SET DZVP-MOLOPT-SR-GTH
       POTENTIAL GTH-PBE-q5
       &POTENTIAL
2 3
0.2837905100000000E+00 2 -0.1241522559000000E+02  0.1868095920000000E+01
2
0.2554050000000000E+00 1  0.1363026257000000E+02
0.2454945300000000E+00 0
       &END POTENTIAL
     &END KIND
     &KIND Ga
       BASIS_SET DZVP-MOLOPT-SR-GTH
       POTENTIAL GTH-PBE-q13
       &POTENTIAL
2 1 10
0.4900000000000000E+00 0
3
0.4167772300000000E+00 3  0.1047568975000000E+02 -0.4921768140000000E+01  0.8707055900000000E+00
0.7770178090000000E+01 -0.2248152160000000E+01
0.1784415450000000E+01
0.5696265200000000E+00 2  0.1777985340000000E+01  0.1958597600000000E+00
-0.2317443900000000E+00
0.2381265000000000E+00 1 -0.1624868022000000E+02
       &END POTENTIAL
     &END KIND
     &TOPOLOGY
       NUMBER_OF_ATOMS  212
       MULTIPLE_UNIT_CELL  1 1 1
     &END TOPOLOGY
     &COLVAR
       &DISTANCE
         ATOMS  176 211
       &END DISTANCE
       &PRINT
       &END PRINT
     &END COLVAR
   &END SUBSYS
 &END FORCE_EVAL
