 # Version information for this restart file 
 # current date 2019-07-15 10:09:24.250
 # current working dir /lustre04/scratch/rzk/rzk/GaN-carbene/443-adatoms-both-2x2/09-BondBreaking-CH/03-0501-CH-to-Nsur-PES/Phase02
 # Program compiled at                              Sun Apr  7 00:48:11 EDT 2019
 # Program compiled on                          beluga2.int.ets1.calculquebec.ca
 # Program compiled for                        Beluga-Linux-x86-64-intel-openmpi
 # Source code revision number                                         svn:18619
 &GLOBAL
   PRINT_LEVEL  MEDIUM
   PROJECT_NAME TEST
   RUN_TYPE  GEO_OPT
 &END GLOBAL
 &MOTION
   &GEO_OPT
     MAX_ITER  500
     STEP_START_VAL  22
   &END GEO_OPT
   &CONSTRAINT
     &COLLECTIVE
       COLVAR  1
       INTERMOLECULAR  T
       TARGET     2.4566439727513361E+00
       &RESTRAINT
         K     2.0000000000000000E+00
       &END RESTRAINT
     &END COLLECTIVE
     &COLVAR_RESTART
           2.4566439727513361E+00
     &END COLVAR_RESTART
   &END CONSTRAINT
 &END MOTION
 &FORCE_EVAL
   METHOD  QS
   STRESS_TENSOR  ANALYTICAL
   &DFT
     BASIS_SET_FILE_NAME BASIS_MOLOPT
     POTENTIAL_FILE_NAME GTH_POTENTIALS
     UKS  T
     SURFACE_DIPOLE_CORRECTION  T
     SURF_DIP_DIR  Z
     &SCF
       MAX_SCF  80
       EPS_SCF     5.0000000000000004E-06
       &OT  T
         PRECONDITIONER  FULL_ALL
       &END OT
       &OUTER_SCF  T
         OPTIMIZER  NONE
         EPS_SCF     5.0000000000000004E-06
         MAX_SCF  4
       &END OUTER_SCF
       &PRINT
         &RESTART  OFF
           BACKUP_COPIES  1
           &EACH
             JUST_ENERGY  0
             QS_SCF  0
             MD  20
           &END EACH
         &END RESTART
       &END PRINT
     &END SCF
     &QS
       EPS_DEFAULT     1.0000000000000000E-14
       METHOD  GPW
     &END QS
     &MGRID
       NGRIDS  5
       CUTOFF     1.2000000000000000E+03
     &END MGRID
     &XC
       DENSITY_CUTOFF     1.0000000000000000E-10
       GRADIENT_CUTOFF     1.0000000000000000E-10
       TAU_CUTOFF     1.0000000000000000E-10
       &XC_FUNCTIONAL  NO_SHORTCUT
         &PBE  T
         &END PBE
       &END XC_FUNCTIONAL
       &VDW_POTENTIAL
         POTENTIAL_TYPE  PAIR_POTENTIAL
         &PAIR_POTENTIAL
           R_CUTOFF     1.0000000000000009E+01
           TYPE  DFTD3
           PARAMETER_FILE_NAME dftd3.dat
           REFERENCE_FUNCTIONAL PBE
           EPS_CN     9.9999999999999995E-07
           CALCULATE_C9_TERM  T
           REFERENCE_C9_TERM  T
           LONG_RANGE_CORRECTION  F
           VERBOSE_OUTPUT  F
         &END PAIR_POTENTIAL
       &END VDW_POTENTIAL
     &END XC
   &END DFT
   &SUBSYS
     &CELL
       A     1.2864472766435110E+01    0.0000000000000000E+00    0.0000000000000000E+00
       B    -6.4322363581020028E+00    1.1140960178524477E+01    0.0000000000000000E+00
       C     0.0000000000000000E+00    0.0000000000000000E+00    3.2000000000000000E+01
       MULTIPLE_UNIT_CELL  1 1 1
       &CELL_REF
         A     1.2982353780853531E+01    0.0000000000000000E+00    0.0000000000000000E+00
         B    -6.4911768904267628E+00    1.1243048175136114E+01    0.0000000000000000E+00
         C     0.0000000000000000E+00    0.0000000000000000E+00    3.2000000000000000E+01
         MULTIPLE_UNIT_CELL  1 1 1
       &END CELL_REF
     &END CELL
     &COORD
N    8.6852254456961219E-03    2.0518768755555024E+00    2.4526833076787091E+00
Ga   -1.0214193234393484E-03    9.9496187602238703E-02    2.8030734881015458E+00
N   -5.0683485742451647E-03    5.1292832227508273E-02    4.9628690260289110E+00
Ga    8.4355009150800606E-03    1.8896982344557687E+00    5.7361800413671631E+00
N    1.0363939932787429E-03    1.8919727464097544E+00    7.7383516489117179E+00
Ga    5.7743728622560494E-04    4.9433403459898377E-02    8.3925603790869090E+00
N   -1.5501685031412253E-03    4.6493754273233073E-02    1.0365718504964841E+01
Ga   -2.6213921078665626E-03    1.8852514803483333E+00    1.1026205227775534E+01
N   -2.9741118589290934E-03    1.8655580554057767E+00    1.3016482976119606E+01
Ga   -2.3300404740406325E-03    4.6882373240122337E-02    1.3831432734162977E+01
N   -2.8945729843792888E-03    4.6262343984321337E-02    1.6020657389174662E+01
Ga   -2.6832007057091666E-03    2.0941914839736318E+00    1.6438732129509091E+01
Ga   -2.1643054440041495E-02    3.7105064476291481E+00    1.2365937921633965E+00
N   -1.4650463911260205E+00    4.6271771679058951E+00    2.4388294472747871E+00
Ga   -1.6647653063909640E+00    2.7942067265616393E+00    3.2161071975802153E+00
N   -1.6104035805741532E+00    2.8339676931079212E+00    5.1962223608426195E+00
Ga   -1.6248482582109383E+00    4.7001176816901200E+00    5.7477340549812448E+00
N   -1.6176150098283930E+00    4.6980953001916612E+00    7.7424349015261553E+00
Ga   -1.5955247787104809E+00    2.8377400778985029E+00    8.3866912615365781E+00
N   -1.5987793388420586E+00    2.8385931372921474E+00    1.0379403251384408E+01
Ga   -1.6274272740075657E+00    4.6960313011753128E+00    1.1029154579762377E+01
N   -1.6437836375083283E+00    4.7066937674845377E+00    1.3018253609475190E+01
Ga   -1.6000367281732804E+00    2.8372481673849985E+00    1.3576956343717736E+01
N   -1.6314429186806190E+00    2.8194322466649648E+00    1.5533999965229967E+01
Ga   -1.4447652146514889E+00    4.5922815971943303E+00    1.6439216400552532E+01
N   -8.3073853402599439E-03    3.7559798103507114E+00    1.7568231539598042E+01
N   -3.2352633739808079E+00    7.5837809116709112E+00    2.4458214483117011E+00
Ga   -3.1809270294915319E+00    5.5822919012196204E+00    2.8059153627358953E+00
N   -3.2131095800873730E+00    5.6119243292575645E+00    4.9642806534111559E+00
Ga   -3.2373861676158202E+00    7.4348151386153898E+00    5.7440086055388750E+00
N   -3.2244663440050458E+00    7.4642376120234726E+00    7.7347833203919505E+00
Ga   -3.2166852201316813E+00    5.6164802708667541E+00    8.3964068762268198E+00
N   -3.2182715402180140E+00    5.6175671268826060E+00    1.0367369918722801E+01
Ga   -3.2201155296898127E+00    7.4549171476497600E+00    1.1028936486552105E+01
N   -3.2189462204561003E+00    7.4361376407629098E+00    1.3017536957445369E+01
Ga   -3.2186598733780416E+00    5.6163611078807394E+00    1.3833039992103217E+01
N   -3.2188091788542841E+00    5.6165228297188046E+00    1.6021283078354390E+01
Ga   -3.2190753381323876E+00    7.6645888457377129E+00    1.6440098727350374E+01
Ga   -3.2421341277358446E+00    9.3563198766506215E+00    1.3703553561994946E+00
N   -4.7419888816626372E+00    1.0184799459137553E+01    2.4551660941407842E+00
Ga   -4.9594170333815910E+00    8.3267391413033387E+00    3.1792699158717506E+00
N   -4.8475354137863107E+00    8.3870351619707471E+00    5.1510093842442499E+00
Ga   -4.8605190174443393E+00    1.0265651117794398E+01    5.7323284055163501E+00
N   -4.8383011782845005E+00    1.0257136167365209E+01    7.7305638742580083E+00
Ga   -4.8191991205864522E+00    8.4086033859031861E+00    8.3954705926123534E+00
N   -4.8157960774338280E+00    8.4083092199934892E+00    1.0382505070402081E+01
Ga   -4.8423408728308583E+00    1.0268642615915487E+01    1.1025865503245178E+01
N   -4.8589516016795242E+00    1.0277615718128635E+01    1.3015684553014408E+01
Ga   -4.8155287989864490E+00    8.4090515785250783E+00    1.3578215176302225E+01
N   -4.8470818181717901E+00    8.3904529452365626E+00    1.5535132759421630E+01
Ga   -4.6620076294111854E+00    1.0163497978512835E+01    1.6439707545867115E+01
N   -3.2251559047883664E+00    9.3273828305425628E+00    1.7569176918846104E+01
N    3.2094719879710225E+00    1.9019106550680551E+00    2.5524867264021385E+00
Ga    3.1953310859171129E+00    1.5843075306253379E-01    3.2257149955952058E+00
N    3.2092071266511950E+00    4.1126946873944213E-02    5.1891426650297410E+00
Ga    3.2016978525625572E+00    1.9110615219709948E+00    5.8143495438144859E+00
N    3.2114131414290341E+00    1.9018305068995864E+00    7.7912447972913395E+00
Ga    3.2080605238287214E+00    3.5386011306744743E-02    8.3832158829174350E+00
N    3.2115807441328847E+00    3.1756452591131204E-02    1.0375001184749793E+01
Ga    3.2123158240695973E+00    1.9002125807652526E+00    1.0981979072356880E+01
N    3.2140276260316192E+00    1.9018107414557526E+00    1.2948547453149571E+01
Ga    3.2134493422476820E+00    3.4108473701937356E-02    1.3577615658636915E+01
N    3.2151538340718262E+00    6.8019666433276157E-02    1.5533868093299315E+01
Ga    3.2147964744676121E+00    1.9038404493084606E+00    1.5818128849564374E+01
N    1.5031440640139651E+00    4.6420732406529090E+00    2.3180023241087633E+00
Ga    1.6939752760158096E+00    2.8226069502084563E+00    3.1869661057131804E+00
N    1.6106384807140284E+00    2.8480444431914420E+00    5.1720749723672839E+00
Ga    1.6598235691105785E+00    4.7100552648589646E+00    5.7687928011822818E+00
N    1.6058332523514389E+00    4.6902982957210728E+00    7.7706998616410514E+00
Ga    1.5947157893806994E+00    2.8352136616133663E+00    8.3961132307274244E+00
N    1.5943875365924596E+00    2.8353328456268958E+00    1.0386302964992936E+01
Ga    1.6215463583849530E+00    4.6957811763749886E+00    1.1027226991830153E+01
N    1.6374744719495116E+00    4.7065309551615293E+00    1.3017650884228274E+01
Ga    1.5953691510964980E+00    2.8371986075647508E+00    1.3576125245850067E+01
N    1.6255442124654231E+00    2.8214977650084521E+00    1.5532797973366161E+01
Ga    1.4336039736984749E+00    4.5890150320169258E+00    1.6440376148654693E+01
N   -1.1049650251302626E-02    7.4706221574638612E+00    2.6390897007623173E+00
Ga    4.3410995101895382E-02    5.5999729982802666E+00    3.2405796998255596E+00
N    1.1800186360490145E-02    5.6273785666782867E+00    5.1818154132097565E+00
Ga   -3.8988682833874196E-03    7.4582409864560733E+00    5.8558932355471178E+00
N   -5.4061169429818106E-03    7.4716310804227746E+00    7.8113632961598150E+00
Ga   -2.9931335234142562E-03    5.5995468452285495E+00    8.4080983374735219E+00
N   -5.1071007536514423E-03    5.6047770081817196E+00    1.0392751495934554E+01
Ga   -6.1200354001015953E-03    7.4739509367870776E+00    1.0987403397567633E+01
N   -3.5779863254622219E-03    7.4746388496216811E+00    1.2951932983777663E+01
Ga   -2.4159035731211478E-03    5.6042504672123341E+00    1.3577158631412518E+01
N   -1.2277087269612001E-03    5.6391882555790955E+00    1.5533511269661949E+01
Ga   -1.5564669354883821E-03    7.4744196626103303E+00    1.5818421606207410E+01
N   -1.7167849540876381E+00    1.0187053765755678E+01    2.4676620073992535E+00
Ga   -1.6139190282577045E+00    8.3793011603897938E+00    3.2740600293420776E+00
N   -1.6056790628557422E+00    8.3896629311913404E+00    5.2000572103694669E+00
Ga   -1.5910247389598373E+00    1.0277430801388912E+01    5.7578220245815057E+00
N   -1.6022691262183588E+00    1.0261187899083732E+01    7.7442226264194094E+00
Ga   -1.6268288220184990E+00    8.4066033242051681E+00    8.3957376053181854E+00
N   -1.6250604001015354E+00    8.4077751435550301E+00    1.0381636855375827E+01
Ga   -1.5991661036055553E+00    1.0267678704610656E+01    1.1025696641437294E+01
N   -1.5795276881750944E+00    1.0277191958777280E+01    1.3015175283907492E+01
Ga   -1.6218381177900731E+00    8.4088587878195327E+00    1.3578550410384713E+01
N   -1.5911506296959756E+00    8.3928327283270132E+00    1.5534487618431520E+01
Ga   -1.7823400063675023E+00    1.0159953988765841E+01    1.6441768310577011E+01
N    6.4373080146892665E+00    2.0176649920904564E+00    2.4974153704027913E+00
Ga    6.4266372667050025E+00    5.1158862572420562E-02    2.8385294411055613E+00
N    6.4279422859658393E+00    4.2906427068941828E-02    4.9763627856224089E+00
Ga    6.4258150484879621E+00    1.8793480244675480E+00    5.7599846010972717E+00
N    6.4298087634690928E+00    1.8893132128075296E+00    7.7511133210240875E+00
Ga    6.4272730442226091E+00    4.6712366275472969E-02    8.4041120392827349E+00
N    6.4278307392928262E+00    4.5223841995563105E-02    1.0372478851697808E+01
Ga    6.4292240755998815E+00    1.8855857325855561E+00    1.1027829288186851E+01
N    6.4301691737035549E+00    1.8658705483918985E+00    1.3017537809986850E+01
Ga    6.4285012432835780E+00    4.6294893499221786E-02    1.3829197956782529E+01
N    6.4274467496490821E+00    4.4892563984156142E-02    1.6022004021808947E+01
Ga    6.4292180703452093E+00    2.0862159875660651E+00    1.6437066366045887E+01
Ga    6.4627971414155043E+00    3.7215362889547845E+00    1.4526542532683444E+00
N    4.9392346702486902E+00    4.5945572909545049E+00    2.4434399662925985E+00
Ga    4.7074389164734969E+00    2.7771666538253834E+00    3.2490631326477950E+00
N    4.8224329071949530E+00    2.8324423085602426E+00    5.2051045118857431E+00
Ga    4.7751376298615522E+00    4.7088811400890735E+00    5.7755783010772843E+00
N    4.8233578038827254E+00    4.6877360987648489E+00    7.7744856356829679E+00
Ga    4.8293747772220863E+00    2.8325831047612260E+00    8.3982872262304120E+00
N    4.8317688162630912E+00    2.8341042193308144E+00    1.0387292339266301E+01
Ga    4.8057580952365768E+00    4.6957190103121027E+00    1.1026210046552439E+01
N    4.7900063896608689E+00    4.7061403412999763E+00    1.3017446401554803E+01
Ga    4.8321885225490648E+00    2.8372502124245393E+00    1.3576395148834141E+01
N    4.8073930802686577E+00    2.8228864512149259E+00    1.5536631783319903E+01
Ga    4.9799434983545741E+00    4.5960861862744302E+00    1.6437002534467894E+01
N    6.4234867868097059E+00    3.7560005831473338E+00    1.7579582282509534E+01
N    3.1879817289052936E+00    7.6184051817661214E+00    2.4695803666266465E+00
N    3.2209624474856731E+00    5.6235810476566135E+00    5.0922867081179417E+00
Ga    3.2147624370880714E+00    7.4157503464037875E+00    5.7904282330226398E+00
N    3.2116132469436618E+00    7.4765492885299123E+00    7.7807888422463192E+00
Ga    3.2137247952894894E+00    5.6148235449613413E+00    8.4000048246388612E+00
N    3.2136461596696142E+00    5.6169594692543825E+00    1.0375427150162270E+01
Ga    3.2134635944296321E+00    7.4551685438746818E+00    1.1028663797178940E+01
N    3.2133930407000797E+00    7.4372528821506920E+00    1.3018931747359931E+01
Ga    3.2133118861189511E+00    5.6161104561734509E+00    1.3828186071573585E+01
N    3.2113705837237387E+00    5.6154925886823932E+00    1.6022394102773955E+01
Ga    3.2131450891638060E+00    7.6570888131899091E+00    1.6437696474336594E+01
Ga    3.2356341742425245E+00    9.3602847997963590E+00    1.4273309223069668E+00
N    1.7062844135426132E+00    1.0190704722339014E+01    2.4795283079845114E+00
Ga    1.5768627254329695E+00    8.3784538592227964E+00    3.3008710624432269E+00
N    1.5925545934317795E+00    8.3971354830570419E+00    5.2197556276065189E+00
Ga    1.5791278861497102E+00    1.0279083379058815E+01    5.7708587357012631E+00
N    1.5943415316358407E+00    1.0264451717861101E+01    7.7552644996757332E+00
Ga    1.6132709548113888E+00    8.4106828017022579E+00    8.4111849383982928E+00
N    1.6127843590444153E+00    8.4101632090079868E+00    1.0394328476813030E+01
Ga    1.5892748109547095E+00    1.0269509882599516E+01    1.1031368667318473E+01
N    1.5733365507704338E+00    1.0278259800389424E+01    1.3019682894921463E+01
Ga    1.6161509613493388E+00    8.4085380289030223E+00    1.3578079339720722E+01
N    1.5908143749686567E+00    8.3937925159594560E+00    1.5537737552380916E+01
Ga    1.7645962308647662E+00    1.0166607682059816E+01    1.6437730419833635E+01
N    3.2077207763475952E+00    9.3271868411359016E+00    1.7580399837238389E+01
N    9.6643978393863499E+00    1.9116505701302553E+00    2.5676360178857904E+00
Ga    9.6548123558562864E+00    1.7312778885045557E-01    3.2466662274753664E+00
N    9.6430476244750523E+00    4.5079570563789167E-02    5.2056690402211361E+00
Ga    9.6579404029722582E+00    1.9083162910058569E+00    5.8316939811532746E+00
N    9.6477019523707277E+00    1.9031546273911497E+00    7.8022155954779251E+00
Ga    9.6475694477577267E+00    3.6964380439409458E-02    8.3969341259428791E+00
N    9.6453062456801124E+00    3.2842614899047010E-02    1.0384603771440222E+01
Ga    9.6463444157333598E+00    1.9041576665967870E+00    1.0979519501754845E+01
N    9.6451465242382604E+00    1.9029320676067796E+00    1.2947865893913729E+01
Ga    9.6465559455687035E+00    3.4529284508050088E-02    1.3577364431668173E+01
N    9.6461495720911490E+00    6.3202073851388346E-02    1.5536302415411885E+01
Ga    9.6440741372317902E+00    1.9022561839300884E+00    1.5816061189160234E+01
N    7.9331859141999042E+00    4.6257557519945944E+00    2.4883583068036725E+00
Ga    8.1555973160749353E+00    2.7702090273330682E+00    3.2579198021858575E+00
N    8.0411205257818370E+00    2.8283909520524859E+00    5.2126702787544250E+00
Ga    8.0662020168503616E+00    4.7014335830970362E+00    5.7559078868550646E+00
N    8.0485543516963407E+00    4.6952849372367567E+00    7.7468708405864142E+00
Ga    8.0289427275038641E+00    2.8366273344667423E+00    8.3926456780948335E+00
N    8.0259448031583212E+00    2.8382620800226337E+00    1.0382115172163312E+01
Ga    8.0547184567110346E+00    4.6967688862872388E+00    1.1028322345305641E+01
N    8.0710774388208115E+00    4.7066548792810101E+00    1.3017392384730023E+01
Ga    8.0273503959607222E+00    2.8379434643179478E+00    1.3576875730586631E+01
N    8.0521973181131798E+00    2.8234100483487503E+00    1.5536054978594047E+01
Ga    7.8745579290996792E+00    4.5938356011218628E+00    1.6437229733035142E+01
N    6.3435160248802509E+00    7.4302465729009066E+00    2.4686178832815027E+00
Ga    6.4067612218159313E+00    5.6875486458110709E+00    3.2662559238879032E+00
N    6.4283850029158911E+00    5.6200026130781202E+00    5.2033489239932162E+00
Ga    6.4251797614016892E+00    7.4706247642245094E+00    5.8429698893395132E+00
N    6.4281929063149406E+00    7.4723547410947422E+00    7.8051162883523926E+00
Ga    6.4321172898348431E+00    5.6020686875442820E+00    8.4052594226417572E+00
N    6.4324277381972061E+00    5.6050906381568293E+00    1.0391143003939298E+01
Ga    6.4303510908303281E+00    7.4739467919566485E+00    1.0987267532984832E+01
N    6.4295201515438327E+00    7.4734702329339475E+00    1.2953519721226030E+01
Ga    6.4302601283648366E+00    5.6026461129095910E+00    1.3577070357787463E+01
N    6.4302393155789703E+00    5.6328691298496709E+00    1.5536424744473937E+01
Ga    6.4278819009382211E+00    7.4724106370810910E+00    1.5814558644084755E+01
N    4.7220249240191210E+00    1.0195922838574372E+01    2.4851740633467556E+00
Ga    4.8771766647314658E+00    8.3513359602913777E+00    3.2796566610556446E+00
N    4.8190438485832425E+00    8.4016199869618013E+00    5.2138264110790962E+00
Ga    4.8508319636789530E+00    1.0280850850284599E+01    5.7595570982985809E+00
N    4.8321070240936361E+00    1.0265746523582338E+01    7.7493301161570418E+00
Ga    4.8121452951921873E+00    8.4128271942281163E+00    8.4063163614212186E+00
N    4.8127595556263278E+00    8.4104553463482787E+00    1.0391774047157694E+01
Ga    4.8386075300910294E+00    1.0270155692624632E+01    1.1028451288999861E+01
N    4.8542329986400787E+00    1.0278640220756333E+01    1.3017461855755450E+01
Ga    4.8101978604866185E+00    8.4097504384722264E+00    1.3577556769978674E+01
N    4.8361675720332977E+00    8.3942549612854727E+00    1.5536617874259894E+01
Ga    4.6582397303660628E+00    1.0164638693543335E+01    1.6437389278639525E+01
O    2.2869376770570202E-02    3.6620154340461673E+00   -5.8339810583516272E-01
H   -2.2157264469826925E-03    7.4841872516425578E+00    1.6127433292588984E+00
C    5.3931499213306214E-02    2.3563147083522065E+00   -1.1795915644971515E+00
H    9.0268625868516594E-01    1.7498142337134379E+00   -8.2104899293214817E-01
H   -8.7348508734034214E-01    1.7902874540916249E+00   -9.9246865345971869E-01
H    1.6206760364848133E-01    2.4928845461646891E+00   -2.2659602764297855E+00
Ga    3.2326034312168725E+00    5.6229434752885217E+00    2.2356820127069645E+00
O    3.8886386926435801E+00    6.1672913353209031E+00    2.1354989457150317E-01
H    3.7644470844446745E+00    5.4893326726694349E+00   -4.7266681855398912E-01
C    5.2917845671564088E+00    6.7086628121924621E+00    1.3416745487660181E-01
H    5.2845836516729285E+00    7.4658087333255825E+00   -6.6238410088115451E-01
H    5.8295539741548312E+00    7.1467603017526686E+00    1.3029840681467177E+00
H    5.9570493233121455E+00    5.8858699958015004E+00   -1.9035320782216789E-01
     &END COORD
     &KIND C
       BASIS_SET DZVP-MOLOPT-SR-GTH-q4
       POTENTIAL GTH-PBE-q4
       &POTENTIAL
2 2
0.3384712400000000E+00 2 -0.8803673979999999E+01  0.1339210850000000E+01
2
0.3025757500000000E+00 1  0.9622486650000001E+01
0.2915069400000000E+00 0
       &END POTENTIAL
     &END KIND
     &KIND O
       BASIS_SET DZVP-MOLOPT-SR-GTH-q6
       POTENTIAL GTH-PBE-q6
       &POTENTIAL
2 4
0.2445543000000000E+00 2 -0.1666721480000000E+02  0.2487311320000000E+01
2
0.2209559200000000E+00 1  0.1833745811000000E+02
0.2113324700000000E+00 0
       &END POTENTIAL
     &END KIND
     &KIND H
       BASIS_SET DZVP-MOLOPT-SR-GTH-q1
       POTENTIAL GTH-PBE-q1
       &POTENTIAL
1
0.2000000000000000E+00 2 -0.4178900440000000E+01  0.7244633100000000E+00
0
       &END POTENTIAL
     &END KIND
     &KIND N
       BASIS_SET DZVP-MOLOPT-SR-GTH
       POTENTIAL GTH-PBE-q5
       &POTENTIAL
2 3
0.2837905100000000E+00 2 -0.1241522559000000E+02  0.1868095920000000E+01
2
0.2554050000000000E+00 1  0.1363026257000000E+02
0.2454945300000000E+00 0
       &END POTENTIAL
     &END KIND
     &KIND Ga
       BASIS_SET DZVP-MOLOPT-SR-GTH
       POTENTIAL GTH-PBE-q13
       &POTENTIAL
2 1 10
0.4900000000000000E+00 0
3
0.4167772300000000E+00 3  0.1047568975000000E+02 -0.4921768140000000E+01  0.8707055900000000E+00
0.7770178090000000E+01 -0.2248152160000000E+01
0.1784415450000000E+01
0.5696265200000000E+00 2  0.1777985340000000E+01  0.1958597600000000E+00
-0.2317443900000000E+00
0.2381265000000000E+00 1 -0.1624868022000000E+02
       &END POTENTIAL
     &END KIND
     &TOPOLOGY
       NUMBER_OF_ATOMS  212
       MULTIPLE_UNIT_CELL  1 1 1
     &END TOPOLOGY
     &COLVAR
       &DISTANCE
         ATOMS  176 211
       &END DISTANCE
       &PRINT
       &END PRINT
     &END COLVAR
   &END SUBSYS
 &END FORCE_EVAL
