 # Version information for this restart file 
 # current date 2019-07-14 23:16:32.404
 # current working dir /lustre04/scratch/rzk/rzk/GaN-carbene/443-adatoms-both-2x2/09-BondBreaking-CH/03-0501-CH-to-Nsur-PES/Phase02
 # Program compiled at                              Sun Apr  7 00:48:11 EDT 2019
 # Program compiled on                          beluga2.int.ets1.calculquebec.ca
 # Program compiled for                        Beluga-Linux-x86-64-intel-openmpi
 # Source code revision number                                         svn:18619
 &GLOBAL
   PRINT_LEVEL  MEDIUM
   PROJECT_NAME TEST
   RUN_TYPE  GEO_OPT
 &END GLOBAL
 &MOTION
   &GEO_OPT
     MAX_ITER  500
     STEP_START_VAL  27
   &END GEO_OPT
   &CONSTRAINT
     &COLLECTIVE
       COLVAR  1
       INTERMOLECULAR  T
       TARGET     2.6456165860399001E+00
       &RESTRAINT
         K     2.0000000000000000E+00
       &END RESTRAINT
     &END COLLECTIVE
     &COLVAR_RESTART
           2.6456165860399001E+00
     &END COLVAR_RESTART
   &END CONSTRAINT
 &END MOTION
 &FORCE_EVAL
   METHOD  QS
   STRESS_TENSOR  ANALYTICAL
   &DFT
     BASIS_SET_FILE_NAME BASIS_MOLOPT
     POTENTIAL_FILE_NAME GTH_POTENTIALS
     UKS  T
     SURFACE_DIPOLE_CORRECTION  T
     SURF_DIP_DIR  Z
     &SCF
       MAX_SCF  80
       EPS_SCF     5.0000000000000004E-06
       &OT  T
         PRECONDITIONER  FULL_ALL
       &END OT
       &OUTER_SCF  T
         OPTIMIZER  NONE
         EPS_SCF     5.0000000000000004E-06
         MAX_SCF  4
       &END OUTER_SCF
       &PRINT
         &RESTART  OFF
           BACKUP_COPIES  1
           &EACH
             JUST_ENERGY  0
             QS_SCF  0
             MD  20
           &END EACH
         &END RESTART
       &END PRINT
     &END SCF
     &QS
       EPS_DEFAULT     1.0000000000000000E-14
       METHOD  GPW
     &END QS
     &MGRID
       NGRIDS  5
       CUTOFF     1.2000000000000000E+03
     &END MGRID
     &XC
       DENSITY_CUTOFF     1.0000000000000000E-10
       GRADIENT_CUTOFF     1.0000000000000000E-10
       TAU_CUTOFF     1.0000000000000000E-10
       &XC_FUNCTIONAL  NO_SHORTCUT
         &PBE  T
         &END PBE
       &END XC_FUNCTIONAL
       &VDW_POTENTIAL
         POTENTIAL_TYPE  PAIR_POTENTIAL
         &PAIR_POTENTIAL
           R_CUTOFF     1.0000000000000009E+01
           TYPE  DFTD3
           PARAMETER_FILE_NAME dftd3.dat
           REFERENCE_FUNCTIONAL PBE
           EPS_CN     9.9999999999999995E-07
           CALCULATE_C9_TERM  T
           REFERENCE_C9_TERM  T
           LONG_RANGE_CORRECTION  F
           VERBOSE_OUTPUT  F
         &END PAIR_POTENTIAL
       &END VDW_POTENTIAL
     &END XC
   &END DFT
   &SUBSYS
     &CELL
       A     1.2864472766435110E+01    0.0000000000000000E+00    0.0000000000000000E+00
       B    -6.4322363581020028E+00    1.1140960178524477E+01    0.0000000000000000E+00
       C     0.0000000000000000E+00    0.0000000000000000E+00    3.2000000000000000E+01
       MULTIPLE_UNIT_CELL  1 1 1
       &CELL_REF
         A     1.2982353780853531E+01    0.0000000000000000E+00    0.0000000000000000E+00
         B    -6.4911768904267628E+00    1.1243048175136114E+01    0.0000000000000000E+00
         C     0.0000000000000000E+00    0.0000000000000000E+00    3.2000000000000000E+01
         MULTIPLE_UNIT_CELL  1 1 1
       &END CELL_REF
     &END CELL
     &COORD
N    5.5417113830591004E-03    2.0489544952607317E+00    2.4514856026844138E+00
Ga    4.4768040967921730E-04    9.2029376592821885E-02    2.7972296880786507E+00
N   -8.1963100321426827E-03    5.1320566638798415E-02    4.9650917827451559E+00
Ga    5.3005631302784221E-03    1.8866443180442032E+00    5.7340506247543308E+00
N   -1.0106456223226679E-03    1.8914291289652561E+00    7.7407410187269061E+00
Ga   -1.5092745305267741E-03    4.7810411757651008E-02    8.3897311194262763E+00
N   -3.2600403017692911E-03    4.5391306086245753E-02    1.0367845529217629E+01
Ga   -4.0345598623550225E-03    1.8843894602122273E+00    1.1022855799682720E+01
N   -4.0793398708938670E-03    1.8651760776392818E+00    1.3018788965868197E+01
Ga   -2.0202362454673889E-03    4.4204751990774407E-02    1.3821479608637004E+01
N   -1.6785656796996485E-03    4.1407413462610412E-02    1.6025167756679700E+01
Ga   -2.1927873565733705E-03    2.0765985385081063E+00    1.6425178249914399E+01
Ga   -2.2896792667526228E-02    3.7094858987082593E+00    1.2361417115776898E+00
N   -1.4688941697483797E+00    4.6254637921131376E+00    2.4369633831854949E+00
Ga   -1.6662652999064507E+00    2.7930543893751083E+00    3.2141296055936075E+00
N   -1.6127743632754055E+00    2.8323825290556370E+00    5.1977038284463566E+00
Ga   -1.6284483222766730E+00    4.6984621729007303E+00    5.7457987035678384E+00
N   -1.6189716208094229E+00    4.6959943615821489E+00    7.7446874801293903E+00
Ga   -1.5976301933120043E+00    2.8362357572127168E+00    8.3846948271644344E+00
N   -1.6003724721578219E+00    2.8371229774594973E+00    1.0381952705202183E+01
Ga   -1.6287057765004209E+00    4.6944801437346717E+00    1.1025959354748537E+01
N   -1.6445964210431725E+00    4.7054019411908818E+00    1.3020748402128723E+01
Ga   -1.5998608790277087E+00    2.8369411246554028E+00    1.3575590254571283E+01
N   -1.6263796258091825E+00    2.8198732265520010E+00    1.5541276503713515E+01
Ga   -1.4621273502545995E+00    4.6008723731399712E+00    1.6425192917147143E+01
N   -1.2805275233013891E-02    3.7544648538323253E+00    1.7547996195511807E+01
N   -3.2371902751385151E+00    7.5830495086209302E+00    2.4502215933436187E+00
Ga   -3.1844573693833769E+00    5.5891701992844913E+00    2.8015114342813376E+00
N   -3.2145955608974264E+00    5.6083547228752506E+00    4.9658037269657038E+00
Ga   -3.2385490130323240E+00    7.4336370212906884E+00    5.7389976761016284E+00
N   -3.2252968258588814E+00    7.4621688274406006E+00    7.7368521875591938E+00
Ga   -3.2189156590639629E+00    5.6147679197833229E+00    8.3938796521162438E+00
N   -3.2195698281451408E+00    5.6160372154248170E+00    1.0369431840127110E+01
Ga   -3.2220090645729185E+00    7.4542319489032547E+00    1.1025055982410931E+01
N   -3.2202977797772818E+00    7.4360239559843766E+00    1.3017551445577784E+01
Ga   -3.2220291824743588E+00    5.6163097315867336E+00    1.3824890529220617E+01
N   -3.2255020083690962E+00    5.6172472516978216E+00    1.6024074582372485E+01
Ga   -3.2216856182687801E+00    7.6639415496845693E+00    1.6437159955291790E+01
Ga   -3.2505503556169906E+00    9.3492993155364221E+00    1.3437529791957086E+00
N   -4.7432362928041272E+00    1.0182059965548415E+01    2.4588087341941836E+00
Ga   -4.9665078283371500E+00    8.3225026935135631E+00    3.1765165043007797E+00
N   -4.8487484724402945E+00    8.3857699922221265E+00    5.1571026096087440E+00
Ga   -4.8620934303907477E+00    1.0264036990402658E+01    5.7272004978867468E+00
N   -4.8397759256588122E+00    1.0256645576195403E+01    7.7326083035008244E+00
Ga   -4.8208471844494305E+00    8.4068617764009606E+00    8.3917510661927075E+00
N   -4.8175152989611494E+00    8.4070202395780065E+00    1.0383971987051277E+01
Ga   -4.8434252330145524E+00    1.0266781101899154E+01    1.1021973845058158E+01
N   -4.8590259580699211E+00    1.0275673157869452E+01    1.3015475873222174E+01
Ga   -4.8166863739413293E+00    8.4079432941129095E+00    1.3575508616400080E+01
N   -4.8483135278752680E+00    8.3915130668980673E+00    1.5534617487776622E+01
Ga   -4.6601867939738995E+00    1.0160393883324542E+01    1.6437323282588117E+01
N   -3.2263184992682610E+00    9.3239151914188625E+00    1.7573192659000377E+01
N    3.2072967209544383E+00    1.8984700593118196E+00    2.5574622677423280E+00
Ga    3.1933670282862132E+00    1.4781564147921833E-01    3.2212561238968886E+00
N    3.2078895148175315E+00    4.2021526796902180E-02    5.1915936186162073E+00
Ga    3.1996780409294399E+00    1.9085770164594400E+00    5.8135912793339122E+00
N    3.2098274780322287E+00    1.9013151604400145E+00    7.7939495485610424E+00
Ga    3.2065644218449485E+00    3.4328615108616053E-02    8.3804523508908488E+00
N    3.2100434697647291E+00    3.1086966110881742E-02    1.0377241953776840E+01
Ga    3.2104727475238328E+00    1.8990066274925690E+00    1.0980213284060500E+01
N    3.2109176384427474E+00    1.9009999180903800E+00    1.2952336641240704E+01
Ga    3.2123589852339052E+00    3.1834594247601558E-02    1.3574810485187859E+01
N    3.2117007291948103E+00    6.6359904069753436E-02    1.5532919715737380E+01
Ga    3.2131377202471376E+00    1.9021394149063400E+00    1.5812154062768432E+01
N    1.5002561270848633E+00    4.6394949765960822E+00    2.3288310699285986E+00
Ga    1.6892455240706026E+00    2.8180865670035593E+00    3.1873812347297008E+00
N    1.6082008767914791E+00    2.8459422770598866E+00    5.1756836210255486E+00
Ga    1.6577593253173804E+00    4.7088293668442622E+00    5.7636672865503931E+00
N    1.6055856100842938E+00    4.6896549556475451E+00    7.7696501873785451E+00
Ga    1.5932872468799975E+00    2.8343389647914718E+00    8.3924560277598150E+00
N    1.5929145847880581E+00    2.8343335495345259E+00    1.0387729769639851E+01
Ga    1.6199594420444279E+00    4.6942522378805895E+00    1.1023994944583226E+01
N    1.6357385225180796E+00    4.7050600734887791E+00    1.3019549374416725E+01
Ga    1.5930783801009896E+00    2.8369450211932343E+00    1.3574160930565380E+01
N    1.6196073379887446E+00    2.8230658818470307E+00    1.5538009538593521E+01
Ga    1.4469058859628012E+00    4.5946364521607617E+00    1.6426125466267241E+01
N   -1.2956376357162500E-02    7.4703822998728890E+00    2.6417030059289579E+00
Ga    3.7119163695738151E-02    5.6000569526130262E+00    3.2400189198298843E+00
N    8.9818618141116191E-03    5.6256192986381874E+00    5.1844789640864386E+00
Ga   -5.9566925573238351E-03    7.4574274901845126E+00    5.8545293383175965E+00
N   -6.1668851667123319E-03    7.4696555336198571E+00    7.8138946849294575E+00
Ga   -4.2114656568901032E-03    5.5981515506290949E+00    8.4048712814900490E+00
N   -6.2835473963896741E-03    5.6033873727061847E+00    1.0394599408533042E+01
Ga   -7.6212902618042555E-03    7.4724618100251288E+00    1.0986101828141670E+01
N   -4.4187175701204248E-03    7.4723808134672893E+00    1.2957688651053942E+01
Ga   -3.4461815425771859E-03    5.6011085517944590E+00    1.3575553785845914E+01
N   -6.1497044291144803E-04    5.6325021155922839E+00    1.5539913191214049E+01
Ga   -4.0040285508049049E-03    7.4727304780191863E+00    1.5814315010131432E+01
N   -1.7203165375680824E+00    1.0184507521490426E+01    2.4676001038540059E+00
Ga   -1.6204829560341827E+00    8.3809024273472374E+00    3.2715466478587349E+00
N   -1.6053010115554609E+00    8.3877127747529059E+00    5.2028371127427011E+00
Ga   -1.5927656287495822E+00    1.0275810486411732E+01    5.7538747310787057E+00
N   -1.6041650841509560E+00    1.0259862144390674E+01    7.7460399044953512E+00
Ga   -1.6280838970718809E+00    8.4049856720326872E+00    8.3925577058871514E+00
N   -1.6259608428879992E+00    8.4061891336108268E+00    1.0383858829298877E+01
Ga   -1.6010088324534577E+00    1.0266283591086907E+01    1.1021997998913438E+01
N   -1.5813923862666706E+00    1.0275721316675666E+01    1.3014986006483172E+01
Ga   -1.6246154179507313E+00    8.4087911045046067E+00    1.3576265269087491E+01
N   -1.5927206516507868E+00    8.3916374789060182E+00    1.5534946060090093E+01
Ga   -1.7848088933800677E+00    1.0159525529723391E+01    1.6438168858784653E+01
N    6.4358926531773202E+00    2.0144294717567206E+00    2.5012282648820330E+00
Ga    6.4187580865468501E+00    4.4513900624773867E-02    2.8374033161475380E+00
N    6.4267156842720521E+00    4.2881389163675641E-02    4.9800415593948903E+00
Ga    6.4244447691010098E+00    1.8767163736649186E+00    5.7583977852070962E+00
N    6.4276584258781693E+00    1.8887508941383087E+00    7.7529587064799674E+00
Ga    6.4256259252816008E+00    4.5570872973983365E-02    8.4008627373778566E+00
N    6.4263939053455168E+00    4.3969353066938222E-02    1.0373593974726960E+01
Ga    6.4276434350691716E+00    1.8847410756021945E+00    1.1024441769793709E+01
N    6.4286985874913150E+00    1.8648979572657787E+00    1.3017433566655841E+01
Ga    6.4253196751344914E+00    4.5871778659543644E-02    1.3823978588838752E+01
N    6.4229749320840739E+00    4.6059072986999801E-02    1.6023518208180700E+01
Ga    6.4273868434992139E+00    2.0891006968563874E+00    1.6435901161387328E+01
Ga    6.4602798294155832E+00    3.7201179271787228E+00    1.4669975003522533E+00
N    4.9380414592634763E+00    4.5945608274750001E+00    2.4521386060433050E+00
Ga    4.7056317473492593E+00    2.7742744876775198E+00    3.2510942007065129E+00
N    4.8202564882874759E+00    2.8303520128949398E+00    5.2087634769029076E+00
Ga    4.7746038978785226E+00    4.7084210044259072E+00    5.7687892343291916E+00
N    4.8202995430944142E+00    4.6867935179202789E+00    7.7727433366575607E+00
Ga    4.8276328191379987E+00    2.8320924112902590E+00    8.3947400036434612E+00
N    4.8295110844967084E+00    2.8329070044597966E+00    1.0388601604932173E+01
Ga    4.8046806878929784E+00    4.6943760475412875E+00    1.1023186094228810E+01
N    4.7892168289650403E+00    4.7045885078291025E+00    1.3017251241026283E+01
Ga    4.8316726148961369E+00    2.8365036723379404E+00    1.3574223452452204E+01
N    4.8018251709967794E+00    2.8218362653971063E+00    1.5535273552332779E+01
Ga    4.9855897881480615E+00    4.5920958377612937E+00    1.6436497690764487E+01
N    6.4211686039599805E+00    3.7520594664276348E+00    1.7574323455380828E+01
N    3.1891475929142801E+00    7.6201589387195297E+00    2.4689406497195638E+00
N    3.2186090959719631E+00    5.6220019649535011E+00    5.0747800510837262E+00
Ga    3.2142718044044121E+00    7.4156241664654301E+00    5.7822224114579654E+00
N    3.2099339829762985E+00    7.4736942284038674E+00    7.7784753613064455E+00
Ga    3.2128582933753980E+00    5.6138556378367355E+00    8.3972645773866095E+00
N    3.2119724829417615E+00    5.6157777475379058E+00    1.0376736858694969E+01
Ga    3.2122346749487383E+00    7.4541588776520102E+00    1.1026267964035682E+01
N    3.2120924241776803E+00    7.4362399151673531E+00    1.3021251669286967E+01
Ga    3.2137047854633898E+00    5.6139153581685770E+00    1.3820901102765026E+01
N    3.2148594934116241E+00    5.6127806670205604E+00    1.6025788473956407E+01
Ga    3.2143936977380054E+00    7.6467322178215378E+00    1.6427460663106309E+01
Ga    3.2288812403324236E+00    9.3666441022495270E+00    1.4222676048773901E+00
N    1.7023641110835279E+00    1.0191891598320703E+01    2.4828598200295668E+00
Ga    1.5761739582734644E+00    8.3790663476045193E+00    3.2989338969610165E+00
N    1.5905535071642192E+00    8.3953977932148565E+00    5.2212979181049954E+00
Ga    1.5763137474760933E+00    1.0278053251903232E+01    5.7683084688992645E+00
N    1.5927688888953051E+00    1.0262355394001542E+01    7.7570489890865550E+00
Ga    1.6123736108228990E+00    8.4086536369902500E+00    8.4078908865278912E+00
N    1.6112780148345724E+00    8.4082521043105274E+00    1.0396381976312648E+01
Ga    1.5880095778115026E+00    1.0268140958762936E+01    1.1028249105968190E+01
N    1.5718089652065927E+00    1.0277097661376999E+01    1.3021746589185069E+01
Ga    1.6164283113236553E+00    8.4083579736045060E+00    1.3576919956898090E+01
N    1.5902607935561979E+00    8.3906986289035608E+00    1.5542915092073864E+01
Ga    1.7535465095808334E+00    1.0172119458977283E+01    1.6426891205639976E+01
N    3.2020305984325375E+00    9.3247996058783489E+00    1.7552603213694006E+01
N    9.6614143081383848E+00    1.9095687936531855E+00    2.5705354535656100E+00
Ga    9.6526657790051189E+00    1.6951316129248023E-01    3.2484509340930785E+00
N    9.6409707853806381E+00    4.4376207900309897E-02    5.2099204463044462E+00
Ga    9.6561202805963973E+00    1.9067126227285440E+00    5.8317066231253714E+00
N    9.6458413401567427E+00    1.9017865917240078E+00    7.8052076091864695E+00
Ga    9.6455706227911477E+00    3.5111829758258800E-02    8.3944009090605345E+00
N    9.6437552971384051E+00    3.2057006832331453E-02    1.0386964612810020E+01
Ga    9.6450653062858880E+00    1.9028457248747275E+00    1.0978366421210334E+01
N    9.6457340518917274E+00    1.9016891512901859E+00    1.2952474564738152E+01
Ga    9.6453334339646588E+00    3.2093343617156517E-02    1.3575416656285006E+01
N    9.6485055358503864E+00    6.2518763290527871E-02    1.5539533591816038E+01
Ga    9.6437682379165981E+00    1.9023179226448137E+00    1.5815749772528068E+01
N    7.9328409050104023E+00    4.6236902302690801E+00    2.4897513428130811E+00
Ga    8.1538359294037654E+00    2.7696041089022509E+00    3.2608931065440703E+00
N    8.0395583835708067E+00    2.8265716290722689E+00    5.2166190809620234E+00
Ga    8.0641283802948909E+00    4.7009199633567835E+00    5.7529000798447747E+00
N    8.0463024654721789E+00    4.6932263925822975E+00    7.7485840921089313E+00
Ga    8.0267885362320612E+00    2.8352806873149676E+00    8.3901404890752485E+00
N    8.0250500037937726E+00    2.8363744955797858E+00    1.0384058172994948E+01
Ga    8.0525598776784424E+00    4.6952544952055106E+00    1.1024606662570385E+01
N    8.0691917677784240E+00    4.7052543671967371E+00    1.3016762076718045E+01
Ga    8.0251424195072740E+00    2.8373926228198592E+00    1.3574386478599973E+01
N    8.0551902963840227E+00    2.8220141659880977E+00    1.5534309423539520E+01
Ga    7.8655259526242833E+00    4.5899906973481297E+00    1.6437205426478897E+01
N    6.3437273055981835E+00    7.4294452613417379E+00    2.4508096484366964E+00
Ga    6.4105311403502929E+00    5.7008425338886459E+00    3.2605939322075064E+00
N    6.4267008506528818E+00    5.6189931899248045E+00    5.2048186635835467E+00
Ga    6.4247020857019290E+00    7.4701169290621241E+00    5.8414036383270682E+00
N    6.4256269629139995E+00    7.4704424915953727E+00    7.8087401640707501E+00
Ga    6.4297501699468791E+00    5.6004291905790815E+00    8.4019994113740744E+00
N    6.4303997308029475E+00    5.6038597812551343E+00    1.0392481610776450E+01
Ga    6.4290300677323540E+00    7.4727212547912547E+00    1.0984647781334363E+01
N    6.4278609889959641E+00    7.4731393897099165E+00    1.2955042629462429E+01
Ga    6.4290657940235594E+00    5.6015705189136797E+00    1.3573934096419578E+01
N    6.4286454562257447E+00    5.6350120760497813E+00    1.5533004425482748E+01
Ga    6.4282560267555491E+00    7.4714039764930131E+00    1.5812384506733812E+01
N    4.7177151768028169E+00    1.0197867318036215E+01    2.4847764155135104E+00
Ga    4.8881925829670978E+00    8.3500330429376337E+00    3.2697062885812240E+00
N    4.8185170869429941E+00    8.3997922158227194E+00    5.2121397963530232E+00
Ga    4.8495233095177319E+00    1.0278395098468797E+01    5.7556681271081400E+00
N    4.8296129317228855E+00    1.0263849364701290E+01    7.7507864380936597E+00
Ga    4.8098607210453768E+00    8.4107016345112307E+00    8.4034353638223767E+00
N    4.8109059105923446E+00    8.4088535475382749E+00    1.0393698703500345E+01
Ga    4.8366814465183054E+00    1.0268499865006998E+01    1.1025203012909060E+01
N    4.8525169312895944E+00    1.0277089871655829E+01    1.3019012623889816E+01
Ga    4.8089702845498161E+00    8.4086868882264376E+00    1.3575000861883476E+01
N    4.8358802801796541E+00    8.3942438782517730E+00    1.5538329916291698E+01
Ga    4.6623731995727580E+00    1.0164647616276744E+01    1.6428161638695666E+01
O    3.5983251018483348E-02    3.6660883889247220E+00   -5.8408351812023218E-01
H   -3.7953931612419163E-03    7.4832642254671216E+00    1.6145660184386801E+00
C    9.9886804772534546E-02    2.3626816730676730E+00   -1.1828543701248946E+00
H    9.4513317057535406E-01    1.7643885120441105E+00   -8.0163833071932500E-01
H   -8.2693490710504258E-01    1.7866685730379865E+00   -1.0230212515247230E+00
H    2.3706193292121652E-01    2.5034586579579354E+00   -2.2656856455532961E+00
Ga    3.2275276494619289E+00    5.6208509933496549E+00    2.2801231985527046E+00
O    3.8867280609588528E+00    6.1581515235856914E+00    2.1392468822650965E-01
H    3.7618660245169564E+00    5.4796992758627523E+00   -4.7032465409228130E-01
C    5.2783757918272611E+00    6.6941812002373657E+00    1.2636530368724275E-01
H    5.2701388916132972E+00    7.4918488667712975E+00   -6.3190927398002883E-01
H    5.7621831165649544E+00    7.0902735843833096E+00    1.2160337597929920E+00
H    5.9434234568896587E+00    5.8935227358755080E+00   -2.4318742718469710E-01
     &END COORD
     &KIND C
       BASIS_SET DZVP-MOLOPT-SR-GTH-q4
       POTENTIAL GTH-PBE-q4
       &POTENTIAL
2 2
0.3384712400000000E+00 2 -0.8803673979999999E+01  0.1339210850000000E+01
2
0.3025757500000000E+00 1  0.9622486650000001E+01
0.2915069400000000E+00 0
       &END POTENTIAL
     &END KIND
     &KIND O
       BASIS_SET DZVP-MOLOPT-SR-GTH-q6
       POTENTIAL GTH-PBE-q6
       &POTENTIAL
2 4
0.2445543000000000E+00 2 -0.1666721480000000E+02  0.2487311320000000E+01
2
0.2209559200000000E+00 1  0.1833745811000000E+02
0.2113324700000000E+00 0
       &END POTENTIAL
     &END KIND
     &KIND H
       BASIS_SET DZVP-MOLOPT-SR-GTH-q1
       POTENTIAL GTH-PBE-q1
       &POTENTIAL
1
0.2000000000000000E+00 2 -0.4178900440000000E+01  0.7244633100000000E+00
0
       &END POTENTIAL
     &END KIND
     &KIND N
       BASIS_SET DZVP-MOLOPT-SR-GTH
       POTENTIAL GTH-PBE-q5
       &POTENTIAL
2 3
0.2837905100000000E+00 2 -0.1241522559000000E+02  0.1868095920000000E+01
2
0.2554050000000000E+00 1  0.1363026257000000E+02
0.2454945300000000E+00 0
       &END POTENTIAL
     &END KIND
     &KIND Ga
       BASIS_SET DZVP-MOLOPT-SR-GTH
       POTENTIAL GTH-PBE-q13
       &POTENTIAL
2 1 10
0.4900000000000000E+00 0
3
0.4167772300000000E+00 3  0.1047568975000000E+02 -0.4921768140000000E+01  0.8707055900000000E+00
0.7770178090000000E+01 -0.2248152160000000E+01
0.1784415450000000E+01
0.5696265200000000E+00 2  0.1777985340000000E+01  0.1958597600000000E+00
-0.2317443900000000E+00
0.2381265000000000E+00 1 -0.1624868022000000E+02
       &END POTENTIAL
     &END KIND
     &TOPOLOGY
       NUMBER_OF_ATOMS  212
       MULTIPLE_UNIT_CELL  1 1 1
     &END TOPOLOGY
     &COLVAR
       &DISTANCE
         ATOMS  176 211
       &END DISTANCE
       &PRINT
       &END PRINT
     &END COLVAR
   &END SUBSYS
 &END FORCE_EVAL
