 # Version information for this restart file 
 # current date 2019-07-16 08:15:32.425
 # current working dir /lustre04/scratch/rzk/rzk/GaN-carbene/443-adatoms-both-2x2/09-BondBreaking-CH/03-0501-CH-to-Nsur-PES/Phase02
 # Program compiled at                              Sun Apr  7 00:48:11 EDT 2019
 # Program compiled on                          beluga2.int.ets1.calculquebec.ca
 # Program compiled for                        Beluga-Linux-x86-64-intel-openmpi
 # Source code revision number                                         svn:18619
 &GLOBAL
   PRINT_LEVEL  MEDIUM
   PROJECT_NAME TEST
   RUN_TYPE  GEO_OPT
 &END GLOBAL
 &MOTION
   &GEO_OPT
     MAX_ITER  500
     STEP_START_VAL  151
   &END GEO_OPT
   &CONSTRAINT
     &COLLECTIVE
       COLVAR  1
       INTERMOLECULAR  T
       TARGET     2.2676713594627715E+00
       &RESTRAINT
         K     2.0000000000000000E+00
       &END RESTRAINT
     &END COLLECTIVE
     &COLVAR_RESTART
           2.2676713594627715E+00
     &END COLVAR_RESTART
   &END CONSTRAINT
 &END MOTION
 &FORCE_EVAL
   METHOD  QS
   STRESS_TENSOR  ANALYTICAL
   &DFT
     BASIS_SET_FILE_NAME BASIS_MOLOPT
     POTENTIAL_FILE_NAME GTH_POTENTIALS
     UKS  T
     SURFACE_DIPOLE_CORRECTION  T
     SURF_DIP_DIR  Z
     &SCF
       MAX_SCF  80
       EPS_SCF     5.0000000000000004E-06
       &OT  T
         PRECONDITIONER  FULL_ALL
       &END OT
       &OUTER_SCF  T
         OPTIMIZER  NONE
         EPS_SCF     5.0000000000000004E-06
         MAX_SCF  4
       &END OUTER_SCF
       &PRINT
         &RESTART  OFF
           BACKUP_COPIES  1
           &EACH
             JUST_ENERGY  0
             QS_SCF  0
             MD  20
           &END EACH
         &END RESTART
       &END PRINT
     &END SCF
     &QS
       EPS_DEFAULT     1.0000000000000000E-14
       METHOD  GPW
     &END QS
     &MGRID
       NGRIDS  5
       CUTOFF     1.2000000000000000E+03
     &END MGRID
     &XC
       DENSITY_CUTOFF     1.0000000000000000E-10
       GRADIENT_CUTOFF     1.0000000000000000E-10
       TAU_CUTOFF     1.0000000000000000E-10
       &XC_FUNCTIONAL  NO_SHORTCUT
         &PBE  T
         &END PBE
       &END XC_FUNCTIONAL
       &VDW_POTENTIAL
         POTENTIAL_TYPE  PAIR_POTENTIAL
         &PAIR_POTENTIAL
           R_CUTOFF     1.0000000000000009E+01
           TYPE  DFTD3
           PARAMETER_FILE_NAME dftd3.dat
           REFERENCE_FUNCTIONAL PBE
           EPS_CN     9.9999999999999995E-07
           CALCULATE_C9_TERM  T
           REFERENCE_C9_TERM  T
           LONG_RANGE_CORRECTION  F
           VERBOSE_OUTPUT  F
         &END PAIR_POTENTIAL
       &END VDW_POTENTIAL
     &END XC
   &END DFT
   &SUBSYS
     &CELL
       A     1.2864472766435110E+01    0.0000000000000000E+00    0.0000000000000000E+00
       B    -6.4322363581020028E+00    1.1140960178524477E+01    0.0000000000000000E+00
       C     0.0000000000000000E+00    0.0000000000000000E+00    3.2000000000000000E+01
       MULTIPLE_UNIT_CELL  1 1 1
       &CELL_REF
         A     1.2982353780853531E+01    0.0000000000000000E+00    0.0000000000000000E+00
         B    -6.4911768904267628E+00    1.1243048175136114E+01    0.0000000000000000E+00
         C     0.0000000000000000E+00    0.0000000000000000E+00    3.2000000000000000E+01
         MULTIPLE_UNIT_CELL  1 1 1
       &END CELL_REF
     &END CELL
     &COORD
N   -4.1964354314931590E-02    2.0868144204978267E+00    2.4678993670850682E+00
Ga    2.9706834924936101E-03    1.3757414938547358E-01    2.8095752834853167E+00
N   -3.2032453453099796E-02    9.1429173139921174E-02    4.9802019958604058E+00
Ga   -2.8214469459905911E-02    1.9303780767297363E+00    5.7365979060617684E+00
N   -2.9177859671797469E-02    1.9432819311614313E+00    7.7477234682643683E+00
Ga   -2.7813830137569176E-02    1.0161671224428402E-01    8.3978496135010872E+00
N   -3.7236080921415622E-02    9.8564670693145381E-02    1.0375731850117731E+01
Ga   -3.3141918070530657E-02    1.9374925116901189E+00    1.1027429857435722E+01
N   -4.4884023231003350E-02    1.9167801658516950E+00    1.3023505167825398E+01
Ga   -4.5058464805747156E-02    9.6485156284020199E-02    1.3822913335358816E+01
N   -5.2204482960228060E-02    8.9087627167459160E-02    1.6023248784085283E+01
Ga   -5.4580731097923253E-02    2.1226326786838863E+00    1.6433676226468773E+01
Ga   -4.8093075840464232E-02    3.7878980958437509E+00    1.2932304227979539E+00
N   -1.5212818836373581E+00    4.6728978465955269E+00    2.4758647586329183E+00
Ga   -1.7386342368208849E+00    2.8391961233708702E+00    3.1975933670877681E+00
N   -1.6502086707674199E+00    2.8726943234919959E+00    5.1922819329280472E+00
Ga   -1.6679494095647769E+00    4.7345096931915958E+00    5.7886047522863624E+00
N   -1.6433594538695342E+00    4.7404738565977018E+00    7.7798062256190956E+00
Ga   -1.6228143125109484E+00    2.8824266525701434E+00    8.4034697387886563E+00
N   -1.6296678449199420E+00    2.8887752277738223E+00    1.0397080433403545E+01
Ga   -1.6610660386026916E+00    4.7469482742370959E+00    1.1029844957922888E+01
N   -1.6869296273983934E+00    4.7563464407706739E+00    1.3025296496943890E+01
Ga   -1.6436698385617170E+00    2.8880798083042780E+00    1.3577637637846635E+01
N   -1.6768175037409563E+00    2.8686190677236092E+00    1.5541934548230419E+01
Ga   -1.5022683034705460E+00    4.6406481490538676E+00    1.6431735136402899E+01
N   -4.7142772083835917E-02    3.7976564502284127E+00    1.7565441678770512E+01
N   -3.2379505380557694E+00    7.6279575298416260E+00    2.4851184494713627E+00
Ga   -3.2255360253676546E+00    5.6509575191660373E+00    2.8857133873114105E+00
N   -3.2266660817351451E+00    5.6741771118330178E+00    5.0498803264104044E+00
Ga   -3.2435334493536030E+00    7.4892310274913605E+00    5.7910633565376619E+00
N   -3.2442071437285165E+00    7.5213995226832058E+00    7.7780875823122653E+00
Ga   -3.2487424513318959E+00    5.6675165351624752E+00    8.4070193395090929E+00
N   -3.2517527331447429E+00    5.6704322904181579E+00    1.0382682321508636E+01
Ga   -3.2535963895807263E+00    7.5097585302815784E+00    1.1028725145104470E+01
N   -3.2621236828251581E+00    7.4897637379562347E+00    1.3020688458250952E+01
Ga   -3.2635389339016823E+00    5.6682069084778295E+00    1.3820263641474815E+01
N   -3.2673255858812120E+00    5.6627979105839295E+00    1.6016016400405483E+01
Ga   -3.2721882494293331E+00    7.6993358319401075E+00    1.6432673503995147E+01
Ga   -3.2336002734646212E+00    9.4115935160247570E+00    1.2335197694504465E+00
N   -4.7588159892836375E+00    1.0248055872698169E+01    2.4809449266253933E+00
Ga   -4.8481627983760553E+00    8.4401534037669208E+00    3.2554017653424658E+00
N   -4.8591911878959531E+00    8.4426472000150667E+00    5.2086321685768890E+00
Ga   -4.8737915015564530E+00    1.0330854199111702E+01    5.7511992870371005E+00
N   -4.8632276753330990E+00    1.0316173006767938E+01    7.7517921327628914E+00
Ga   -4.8470557948774706E+00    8.4641315317970758E+00    8.4003387643238590E+00
N   -4.8508784587243134E+00    8.4622874015703236E+00    1.0392414534396206E+01
Ga   -4.8742561720809832E+00    1.0322951775422208E+01    1.1023035099402746E+01
N   -4.9007968693771193E+00    1.0328987293618598E+01    1.3016281375186143E+01
Ga   -4.8593992617754074E+00    8.4604592749210266E+00    1.3574503474315300E+01
N   -4.8942177362206030E+00    8.4392563544931072E+00    1.5533813866114379E+01
Ga   -4.7151624220261823E+00    1.0206413790000539E+01    1.6435256445154145E+01
N   -3.2665670885396354E+00    9.3680279626214809E+00    1.7572586668199715E+01
N    3.1969567809628554E+00    1.9569027417838469E+00    2.5656856469171267E+00
Ga    3.1916838291312009E+00    1.9413749921907497E-01    3.2051980262994140E+00
N    3.1911929824076752E+00    9.2436692830034792E-02    5.1963890400198780E+00
Ga    3.2143316303274219E+00    1.9674647057194528E+00    5.7650310226298567E+00
N    3.1956646370768600E+00    1.9594389107496351E+00    7.7698750424391054E+00
Ga    3.1851788284660252E+00    9.8556824465456785E-02    8.3801754687569918E+00
N    3.1797713616711731E+00    8.9420160162305626E-02    1.0380717301164607E+01
Ga    3.1798197952120142E+00    1.9553513332912342E+00    1.0979802319797725E+01
N    3.1700345543878785E+00    1.9538851929051666E+00    1.2953376976813722E+01
Ga    3.1705611893239589E+00    8.5022467631315754E-02    1.3575171750360214E+01
N    3.1607794815854220E+00    1.0709173810992259E-01    1.5537827484921410E+01
Ga    3.1632628726545025E+00    1.9455999835858864E+00    1.5820031703218744E+01
N    1.4327952297760340E+00    4.6821081683208856E+00    2.4796862105466881E+00
Ga    1.6615879794601967E+00    2.8351612451908061E+00    3.2057508085437298E+00
N    1.5835856344470651E+00    2.8813019456162543E+00    5.1962724613083555E+00
Ga    1.5961231348882741E+00    4.7333894721739611E+00    5.7810542358782318E+00
N    1.5861410123011550E+00    4.7444317073252034E+00    7.7702014925983738E+00
Ga    1.5766118969936815E+00    2.8778106242875929E+00    8.3806025632457573E+00
N    1.5631187501779067E+00    2.8867525302263433E+00    1.0382493672745342E+01
Ga    1.5878277754431331E+00    4.7429693904166825E+00    1.1027177759218867E+01
N    1.5938841536397563E+00    4.7556540467589112E+00    1.3023052879129166E+01
Ga    1.5516542250082745E+00    2.8875915256225864E+00    1.3578016479442832E+01
N    1.5712256049705204E+00    2.8673538004085564E+00    1.5543982335773173E+01
Ga    1.4020929453678976E+00    4.6438759984453393E+00    1.6434773196948711E+01
N   -4.7858082156999888E-02    7.5000161659729789E+00    2.6855395649713847E+00
Ga   -5.8803532448448458E-02    5.6344065627518249E+00    3.3102864576537749E+00
N   -3.2448493862274851E-02    5.6763443689930488E+00    5.2464287098319913E+00
Ga   -4.0132386488747153E-02    7.5129623469511344E+00    5.8876779136290462E+00
N   -2.7917194750706083E-02    7.5243288900126393E+00    7.8436311419708415E+00
Ga   -2.8822362389763875E-02    5.6500830989167135E+00    8.4176237266629315E+00
N   -3.5344661606879463E-02    5.6554847292395847E+00    1.0405553741715883E+01
Ga   -3.6425842601898135E-02    7.5243725626502291E+00    1.0995117861624584E+01
N   -4.6160452819508674E-02    7.5231716066677112E+00    1.2965660533252951E+01
Ga   -4.7574187553641838E-02    5.6511057645814899E+00    1.3578482813290739E+01
N   -5.2613112687696015E-02    5.6775315659050243E+00    1.5542568252791124E+01
Ga   -5.2853656913589772E-02    7.5173170698247889E+00    1.5820455589690315E+01
N   -1.7286815408428602E+00    1.0230829605065999E+01    2.5098990758763242E+00
Ga   -1.6576207200353352E+00    8.4406488299530480E+00    3.2880516406469402E+00
N   -1.6241898662735113E+00    8.4403361658522709E+00    5.2320811120144048E+00
Ga   -1.6226087200747801E+00    1.0322232031679009E+01    5.7775044877922728E+00
N   -1.6284619576669075E+00    1.0312700522274000E+01    7.7687824021557521E+00
Ga   -1.6494886051110149E+00    8.4641226390494619E+00    8.4172453107175365E+00
N   -1.6523997950682685E+00    8.4619535577699789E+00    1.0403902309265511E+01
Ga   -1.6303938971801875E+00    1.0325311698009520E+01    1.1025466475699174E+01
N   -1.6216662922873650E+00    1.0329209662772422E+01    1.3020289288098526E+01
Ga   -1.6664796279992444E+00    8.4605404168748368E+00    1.3578644852817192E+01
N   -1.6459948120159220E+00    8.4351122188007768E+00    1.5541582563848060E+01
Ga   -1.8208725494394842E+00    1.0209512801722298E+01    1.6436927103881686E+01
N    6.4852853936619992E+00    1.9553720162043144E+00    2.4537783827452140E+00
Ga    6.3722183881307419E+00    7.5980397125737162E-02    2.9437547696825415E+00
N    6.4091916890045795E+00    7.4588237092622772E-02    5.0407645833794072E+00
Ga    6.3919090525302709E+00    1.9372120142481832E+00    5.7408018170026294E+00
N    6.3985809257446027E+00    1.9454193260007659E+00    7.7485410432726551E+00
Ga    6.3995702694825018E+00    1.0539709741982821E-01    8.4023035050378834E+00
N    6.3979710740804130E+00    1.0145034482377865E-01    1.0377743806231104E+01
Ga    6.3959256121217232E+00    1.9434095218751763E+00    1.1021279832680680E+01
N    6.3860621074163761E+00    1.9199725465247492E+00    1.3016689762001423E+01
Ga    6.3858411744676342E+00    9.8657001934405880E-02    1.3824556599327204E+01
N    6.3805683525619541E+00    8.8814007409638407E-02    1.6020339940171286E+01
Ga    6.3804075295711726E+00    2.1257579191516105E+00    1.6428594078457859E+01
Ga    7.5820104435020204E+00    2.2675916480877301E+00    6.7959096974052391E-01
N    4.7895627226448054E+00    4.7615225359187718E+00    2.4965995161889820E+00
Ga    4.8034090919474552E+00    2.8171481044279516E+00    3.0277058652886328E+00
N    4.8175451127168438E+00    2.8879999917460184E+00    5.0945423149618723E+00
Ga    4.7830736515430043E+00    4.7308369493903575E+00    5.7243753122200953E+00
N    4.7851849824721819E+00    4.7434157929492011E+00    7.7340836807634412E+00
Ga    4.8004525277244596E+00    2.8882021691246140E+00    8.3841104947342462E+00
N    4.7977453658617959E+00    2.8925552045906247E+00    1.0382640384687432E+01
Ga    4.7703214133614784E+00    4.7483859984667047E+00    1.1026409187100677E+01
N    4.7442983306237894E+00    4.7582533283572630E+00    1.3018741749453584E+01
Ga    4.7872257995025782E+00    2.8893924818556291E+00    1.3573066669106996E+01
N    4.7540800424479412E+00    2.8694512179938774E+00    1.5535939158003963E+01
Ga    4.9358399291187549E+00    4.6391349436611717E+00    1.6431496920842616E+01
N    6.3902419980138907E+00    3.7985720808601404E+00    1.7565242123298333E+01
N    3.1684521271734400E+00    7.6510659498753233E+00    2.5139349754007054E+00
N    3.1667923755099818E+00    5.6735681745432185E+00    5.0165896095404587E+00
Ga    3.1887566640196732E+00    7.4844895163581890E+00    5.7952742504011647E+00
N    3.1885565125776703E+00    7.5151304423096441E+00    7.7729891537699984E+00
Ga    3.1917668800792680E+00    5.6590187538251646E+00    8.4023989207224101E+00
N    3.1793219231283665E+00    5.6686806268870633E+00    1.0377474033838604E+01
Ga    3.1809489571046701E+00    7.5062712219561210E+00    1.1032524305626355E+01
N    3.1688150717916530E+00    7.4887775828367342E+00    1.3024868280543291E+01
Ga    3.1676595257725966E+00    5.6674527587997670E+00    1.3825972440570490E+01
N    3.1641525130408259E+00    5.6636039065488966E+00    1.6022385378439647E+01
Ga    3.1634347280965884E+00    7.7021923659582976E+00    1.6440594980126086E+01
Ga    3.1799046817715406E+00    9.3970114275041468E+00    1.5065671491982127E+00
N    1.6707888114965894E+00    1.0223560355450317E+01    2.5102220490611855E+00
Ga    1.5235975433211191E+00    8.4255287329705943E+00    3.3258451172596137E+00
N    1.5655203883032547E+00    8.4403245407945278E+00    5.2464764388828149E+00
Ga    1.5567747196012856E+00    1.0327275390710046E+01    5.8006515584151304E+00
N    1.5750762729338008E+00    1.0312306219689845E+01    7.7802560378716228E+00
Ga    1.5908215890223791E+00    8.4588230854174942E+00    8.4208903569070710E+00
N    1.5845240865882300E+00    8.4606177501817506E+00    1.0405889732255378E+01
Ga    1.5574282719816550E+00    1.0324104024209424E+01    1.1029391351610073E+01
N    1.5309809573932127E+00    1.0329486900008144E+01    1.3024379703029510E+01
Ga    1.5716931322359975E+00    8.4610511082001949E+00    1.3580899560324909E+01
N    1.5388405148468571E+00    8.4387407798301872E+00    1.5543601918170111E+01
Ga    1.7196243931225792E+00    1.0207251650219179E+01    1.6442723355554136E+01
N    3.1704384923661904E+00    9.3707595065879961E+00    1.7578115734141583E+01
N    9.5463371682331477E+00    1.9748962596059121E+00    2.5587263661959252E+00
Ga    9.5939493310713342E+00    2.3753232038152716E-01    3.2650204129517486E+00
N    9.6186328409781154E+00    9.2867491661221990E-02    5.2169855240053806E+00
Ga    9.6204946983035171E+00    1.9608266212048373E+00    5.8380763135868605E+00
N    9.6212879628272479E+00    1.9532969729970120E+00    7.8151318938351215E+00
Ga    9.6241011228244986E+00    9.0451586727807995E-02    8.4044328114966458E+00
N    9.6153173816402635E+00    8.6145546832653880E-02    1.0396069958885983E+01
Ga    9.6134834941853544E+00    1.9572379754025166E+00    1.0982743216754040E+01
N    9.6038857071748165E+00    1.9542541165405094E+00    1.2956576115977672E+01
Ga    9.6015439161165510E+00    8.5707799976557780E-02    1.3579568747652964E+01
N    9.5938965535707474E+00    1.0980338207634432E-01    1.5544669131074153E+01
Ga    9.5949473167400186E+00    1.9484868583974531E+00    1.5822051636170363E+01
N    8.0067205930090104E+00    4.7059849857276950E+00    2.4928061851460344E+00
Ga    8.0411567620713651E+00    2.9329501497047206E+00    3.2697260038677034E+00
N    8.0132981600043429E+00    2.8860765649749949E+00    5.2351143717733750E+00
Ga    8.0337565118085905E+00    4.7639858257044985E+00    5.7563489976439399E+00
N    8.0149648760067862E+00    4.7519284937818869E+00    7.7616411661204365E+00
Ga    7.9981578645070854E+00    2.8909673733619368E+00    8.3851601729643637E+00
N    7.9957417114081979E+00    2.8914798191284774E+00    1.0386074174827343E+01
Ga    8.0176342108352330E+00    4.7500749085743115E+00    1.1023945823124203E+01
N    8.0253551632445017E+00    4.7594983348706341E+00    1.3017876993021389E+01
Ga    7.9832538797501122E+00    2.8899678700843650E+00    1.3571470330506544E+01
N    8.0043623070120073E+00    2.8686199506276533E+00    1.5534444616230365E+01
Ga    7.8317910935239867E+00    4.6442084736562590E+00    1.6427216398878439E+01
N    6.4186070691275292E+00    7.5061184687586993E+00    2.6487898304251138E+00
Ga    6.4699459771914416E+00    5.6121357938444154E+00    3.1586810083987493E+00
N    6.3990245553530878E+00    5.6695730379653098E+00    5.1494495868549102E+00
Ga    6.4136171114045055E+00    7.4964216576965566E+00    5.8343646490589132E+00
N    6.4034215108841019E+00    7.5212396293679689E+00    7.8049328653567551E+00
Ga    6.3980128317614575E+00    5.6524709725003452E+00    8.3980273122338751E+00
N    6.3921474316851601E+00    5.6577924960318908E+00    1.0390436777793846E+01
Ga    6.3958510282167831E+00    7.5265479102878547E+00    1.0987137764187448E+01
N    6.3849026146722130E+00    7.5257291323312359E+00    1.2957325343015805E+01
Ga    6.3836193106000891E+00    5.6545903872482111E+00    1.3572653986863422E+01
N    6.3775807856512232E+00    5.6808701406771265E+00    1.5535266924368798E+01
Ga    6.3786290959837570E+00    7.5203979879395053E+00    1.5814290031962392E+01
N    4.6798875004841305E+00    1.0245346229957882E+01    2.4931402137618717E+00
Ga    4.8509969660751775E+00    8.4100205567628930E+00    3.2926478122431044E+00
N    4.8024805683370113E+00    8.4410769554594989E+00    5.2184457380548412E+00
Ga    4.8309495484513292E+00    1.0330032573741933E+01    5.7658570601674137E+00
N    4.8043479271030733E+00    1.0312202919353140E+01    7.7578760944264351E+00
Ga    4.7907812938469814E+00    8.4588995395208926E+00    8.4036695946177069E+00
N    4.7776046940237586E+00    8.4610584738426731E+00    1.0393799147609396E+01
Ga    4.8041019216359730E+00    1.0320555556318720E+01    1.1030268177476870E+01
N    4.8097099956727618E+00    1.0329044444554700E+01    1.3024620237965253E+01
Ga    4.7641165549917446E+00    8.4605573836549812E+00    1.3579571436075589E+01
N    4.7860476666132037E+00    8.4381365588225226E+00    1.5542972010828494E+01
Ga    4.6104470736592171E+00    1.0211312386887984E+01    1.6443120101379417E+01
O   -1.0451752208429392E-01    3.8038068743883362E+00   -5.2332419057601065E-01
H   -4.5852248906719330E-02    7.4869679605462576E+00    1.6593019041449100E+00
C   -4.0210954371509494E-01    2.5668778481240646E+00   -1.1956979466408684E+00
H    2.0579443866052732E-01    1.7253106264223610E+00   -8.2653749560833822E-01
H   -1.4646661022117105E+00    2.2911109346996397E+00   -1.1052100456864420E+00
H   -1.7198776137026009E-01    2.7118553963069760E+00   -2.2610815489275606E+00
Ga    3.0850775810197835E+00    5.6555379388356517E+00    2.9411644629614586E+00
O    6.5192995729574914E+00    6.5074886170664952E+00   -7.4132291162683245E-02
H    4.8835925733019883E+00    4.7941540063187951E+00    1.4717891081890735E+00
C    7.4750655476964374E+00    5.7542203409259196E+00   -2.8467642318324266E-01
H    8.5055877189518334E+00    5.9735753699879401E+00    6.0355689835965204E-02
H    6.4264721811829544E+00    7.4551868719071965E+00    1.4573758251384270E+00
H    7.3285836578349111E+00    4.8454005198200862E+00   -8.9363737860110071E-01
     &END COORD
     &KIND C
       BASIS_SET DZVP-MOLOPT-SR-GTH-q4
       POTENTIAL GTH-PBE-q4
       &POTENTIAL
2 2
0.3384712400000000E+00 2 -0.8803673979999999E+01  0.1339210850000000E+01
2
0.3025757500000000E+00 1  0.9622486650000001E+01
0.2915069400000000E+00 0
       &END POTENTIAL
     &END KIND
     &KIND O
       BASIS_SET DZVP-MOLOPT-SR-GTH-q6
       POTENTIAL GTH-PBE-q6
       &POTENTIAL
2 4
0.2445543000000000E+00 2 -0.1666721480000000E+02  0.2487311320000000E+01
2
0.2209559200000000E+00 1  0.1833745811000000E+02
0.2113324700000000E+00 0
       &END POTENTIAL
     &END KIND
     &KIND H
       BASIS_SET DZVP-MOLOPT-SR-GTH-q1
       POTENTIAL GTH-PBE-q1
       &POTENTIAL
1
0.2000000000000000E+00 2 -0.4178900440000000E+01  0.7244633100000000E+00
0
       &END POTENTIAL
     &END KIND
     &KIND N
       BASIS_SET DZVP-MOLOPT-SR-GTH
       POTENTIAL GTH-PBE-q5
       &POTENTIAL
2 3
0.2837905100000000E+00 2 -0.1241522559000000E+02  0.1868095920000000E+01
2
0.2554050000000000E+00 1  0.1363026257000000E+02
0.2454945300000000E+00 0
       &END POTENTIAL
     &END KIND
     &KIND Ga
       BASIS_SET DZVP-MOLOPT-SR-GTH
       POTENTIAL GTH-PBE-q13
       &POTENTIAL
2 1 10
0.4900000000000000E+00 0
3
0.4167772300000000E+00 3  0.1047568975000000E+02 -0.4921768140000000E+01  0.8707055900000000E+00
0.7770178090000000E+01 -0.2248152160000000E+01
0.1784415450000000E+01
0.5696265200000000E+00 2  0.1777985340000000E+01  0.1958597600000000E+00
-0.2317443900000000E+00
0.2381265000000000E+00 1 -0.1624868022000000E+02
       &END POTENTIAL
     &END KIND
     &TOPOLOGY
       NUMBER_OF_ATOMS  212
       MULTIPLE_UNIT_CELL  1 1 1
     &END TOPOLOGY
     &COLVAR
       &DISTANCE
         ATOMS  176 211
       &END DISTANCE
       &PRINT
       &END PRINT
     &END COLVAR
   &END SUBSYS
 &END FORCE_EVAL
