 # Version information for this restart file 
 # current date 2019-07-15 10:22:34.187
 # current working dir /lustre04/scratch/rzk/rzk/GaN-carbene/443-adatoms-both-2x2/09-BondBreaking-CH/03-0501-CH-to-Nsur-PES/Phase02
 # Program compiled at                              Sun Apr  7 00:48:11 EDT 2019
 # Program compiled on                          beluga2.int.ets1.calculquebec.ca
 # Program compiled for                        Beluga-Linux-x86-64-intel-openmpi
 # Source code revision number                                         svn:18619
 &GLOBAL
   PRINT_LEVEL  MEDIUM
   PROJECT_NAME TEST
   RUN_TYPE  GEO_OPT
 &END GLOBAL
 &MOTION
   &GEO_OPT
     MAX_ITER  500
     STEP_START_VAL  23
   &END GEO_OPT
   &CONSTRAINT
     &COLLECTIVE
       COLVAR  1
       INTERMOLECULAR  T
       TARGET     2.4566439727513361E+00
       &RESTRAINT
         K     2.0000000000000000E+00
       &END RESTRAINT
     &END COLLECTIVE
     &COLVAR_RESTART
           2.4566439727513361E+00
     &END COLVAR_RESTART
   &END CONSTRAINT
 &END MOTION
 &FORCE_EVAL
   METHOD  QS
   STRESS_TENSOR  ANALYTICAL
   &DFT
     BASIS_SET_FILE_NAME BASIS_MOLOPT
     POTENTIAL_FILE_NAME GTH_POTENTIALS
     UKS  T
     SURFACE_DIPOLE_CORRECTION  T
     SURF_DIP_DIR  Z
     &SCF
       MAX_SCF  80
       EPS_SCF     5.0000000000000004E-06
       &OT  T
         PRECONDITIONER  FULL_ALL
       &END OT
       &OUTER_SCF  T
         OPTIMIZER  NONE
         EPS_SCF     5.0000000000000004E-06
         MAX_SCF  4
       &END OUTER_SCF
       &PRINT
         &RESTART  OFF
           BACKUP_COPIES  1
           &EACH
             JUST_ENERGY  0
             QS_SCF  0
             MD  20
           &END EACH
         &END RESTART
       &END PRINT
     &END SCF
     &QS
       EPS_DEFAULT     1.0000000000000000E-14
       METHOD  GPW
     &END QS
     &MGRID
       NGRIDS  5
       CUTOFF     1.2000000000000000E+03
     &END MGRID
     &XC
       DENSITY_CUTOFF     1.0000000000000000E-10
       GRADIENT_CUTOFF     1.0000000000000000E-10
       TAU_CUTOFF     1.0000000000000000E-10
       &XC_FUNCTIONAL  NO_SHORTCUT
         &PBE  T
         &END PBE
       &END XC_FUNCTIONAL
       &VDW_POTENTIAL
         POTENTIAL_TYPE  PAIR_POTENTIAL
         &PAIR_POTENTIAL
           R_CUTOFF     1.0000000000000009E+01
           TYPE  DFTD3
           PARAMETER_FILE_NAME dftd3.dat
           REFERENCE_FUNCTIONAL PBE
           EPS_CN     9.9999999999999995E-07
           CALCULATE_C9_TERM  T
           REFERENCE_C9_TERM  T
           LONG_RANGE_CORRECTION  F
           VERBOSE_OUTPUT  F
         &END PAIR_POTENTIAL
       &END VDW_POTENTIAL
     &END XC
   &END DFT
   &SUBSYS
     &CELL
       A     1.2864472766435110E+01    0.0000000000000000E+00    0.0000000000000000E+00
       B    -6.4322363581020028E+00    1.1140960178524477E+01    0.0000000000000000E+00
       C     0.0000000000000000E+00    0.0000000000000000E+00    3.2000000000000000E+01
       MULTIPLE_UNIT_CELL  1 1 1
       &CELL_REF
         A     1.2982353780853531E+01    0.0000000000000000E+00    0.0000000000000000E+00
         B    -6.4911768904267628E+00    1.1243048175136114E+01    0.0000000000000000E+00
         C     0.0000000000000000E+00    0.0000000000000000E+00    3.2000000000000000E+01
         MULTIPLE_UNIT_CELL  1 1 1
       &END CELL_REF
     &END CELL
     &COORD
N    8.6726290912331905E-03    2.0519104867440863E+00    2.4525088650869495E+00
Ga   -8.1006719781697291E-04    9.9538969365478597E-02    2.8032683743636588E+00
N   -5.1415632055671597E-03    5.1439874448581190E-02    4.9627347160823803E+00
Ga    8.3908808734729674E-03    1.8896601991530513E+00    5.7360800444425051E+00
N    1.0180938377435601E-03    1.8920148258139533E+00    7.7382264867147814E+00
Ga    5.6716056378438185E-04    4.9463067493110441E-02    8.3925352587718560E+00
N   -1.5580884140431015E-03    4.6508849516573400E-02    1.0365627986305620E+01
Ga   -2.6310008916699532E-03    1.8852139446927987E+00    1.1026359857643868E+01
N   -2.9688500694774098E-03    1.8655151305668056E+00    1.3016541979313413E+01
Ga   -2.2902892285447552E-03    4.6909384642819289E-02    1.3831683015946570E+01
N   -2.8942556388194063E-03    4.6186327108194411E-02    1.6020492356281359E+01
Ga   -2.6731164245465534E-03    2.0942201723128746E+00    1.6438908308895002E+01
Ga   -2.1731571213564459E-02    3.7104708812055334E+00    1.2364639180200241E+00
N   -1.4650491375204422E+00    4.6271424378035722E+00    2.4386145101712664E+00
Ga   -1.6648267480318177E+00    2.7941990962093795E+00    3.2160355764688342E+00
N   -1.6103381462630992E+00    2.8340117375437059E+00    5.1962016152885315E+00
Ga   -1.6248885701130094E+00    4.7001280326706487E+00    5.7476549959490457E+00
N   -1.6176018575424227E+00    4.6980644611612483E+00    7.7423294894290482E+00
Ga   -1.5955211010029191E+00    2.8377412596332108E+00    8.3867084520645783E+00
N   -1.5987783542941021E+00    2.8385687892410747E+00    1.0379372115548060E+01
Ga   -1.6274434826840098E+00    4.6960148133546182E+00    1.1029263383446178E+01
N   -1.6438606495764099E+00    4.7067362461117748E+00    1.3018242186666070E+01
Ga   -1.6000369555175349E+00    2.8372712687331378E+00    1.3577071184435885E+01
N   -1.6312817902660584E+00    2.8194958502008718E+00    1.5534020270550975E+01
Ga   -1.4448435719744157E+00    4.5922471118620418E+00    1.6439389615995868E+01
N   -8.2784798948322431E-03    3.7560552138843368E+00    1.7568531167464759E+01
N   -3.2353866720710633E+00    7.5837881469442570E+00    2.4452864758543713E+00
Ga   -3.1808122505970480E+00    5.5825034463289835E+00    2.8060692817478885E+00
N   -3.2130316807902344E+00    5.6117909866415703E+00    4.9641672294608847E+00
Ga   -3.2374916553160986E+00    7.4347439520552854E+00    5.7438662370579561E+00
N   -3.2243932116048191E+00    7.4641820018892853E+00    7.7347124249895103E+00
Ga   -3.2166634188844117E+00    5.6164804595980931E+00    8.3964409532395692E+00
N   -3.2182595298798455E+00    5.6175473253990305E+00    1.0367349252480736E+01
Ga   -3.2201334263487085E+00    7.4549039696483801E+00    1.1028993350328193E+01
N   -3.2189559949357651E+00    7.4360697976034178E+00    1.3017521878171475E+01
Ga   -3.2185807112562044E+00    5.6163963019035537E+00    1.3833323752524521E+01
N   -3.2190692115670387E+00    5.6164417170996321E+00    1.6021151949144024E+01
Ga   -3.2191691487440242E+00    7.6645366482553925E+00    1.6440161198479149E+01
Ga   -3.2420129151660055E+00    9.3563693843870368E+00    1.3698104176277197E+00
N   -4.7421636171682913E+00    1.0184710345745595E+01    2.4547063569046750E+00
Ga   -4.9591584202921517E+00    8.3268352118887634E+00    3.1794119406921872E+00
N   -4.8476619736267450E+00    8.3870315434245732E+00    5.1511132394444941E+00
Ga   -4.8606282937589738E+00    1.0265648253757512E+01    5.7321565663013896E+00
N   -4.8382963906038015E+00    1.0257269060573458E+01    7.7304632167981406E+00
Ga   -4.8190754330821379E+00    8.4086928464414914E+00    8.3954069641214861E+00
N   -4.8157865839898584E+00    8.4083536203610016E+00    1.0382486956190778E+01
Ga   -4.8423778094341756E+00    1.0268668444689785E+01    1.1025979758898423E+01
N   -4.8589712527687352E+00    1.0277616209491539E+01    1.3015742842748121E+01
Ga   -4.8155308500624106E+00    8.4090234563011244E+00    1.3578322774732953E+01
N   -4.8470121859746111E+00    8.3905224262041251E+00    1.5535136608012657E+01
Ga   -4.6619956917836749E+00    1.0163471701275075E+01    1.6439773098204281E+01
N   -3.2250529880436218E+00    9.3273811231302926E+00    1.7569383243876388E+01
N    3.2095578314526385E+00    1.9019927295787318E+00    2.5523969916685147E+00
Ga    3.1952095951355286E+00    1.5841032432956681E-01    3.2255690971901556E+00
N    3.2092270418759554E+00    4.1108893955232172E-02    5.1892338247734688E+00
Ga    3.2017004682478891E+00    1.9111102474955488E+00    5.8141072895136245E+00
N    3.2114273671150864E+00    1.9018909926869387E+00    7.7910883883998512E+00
Ga    3.2080773945219501E+00    3.5403139066034678E-02    8.3832412091729154E+00
N    3.2115726950877486E+00    3.1742609969849962E-02    1.0374988383765906E+01
Ga    3.2123428405492547E+00    1.9002203945279883E+00    1.0982063919655630E+01
N    3.2140807200769328E+00    1.9018142719988347E+00    1.2948571092807178E+01
Ga    3.2134792256650484E+00    3.4071849847205127E-02    1.3577699196829162E+01
N    3.2151281015544555E+00    6.7896904993229076E-02    1.5533895361330762E+01
Ga    3.2146371130617171E+00    1.9037914779740928E+00    1.5817762057969631E+01
N    1.5030628836115583E+00    4.6420074884521725E+00    2.3173491443216179E+00
Ga    1.6940866024211021E+00    2.8226453118944725E+00    3.1868239415024644E+00
N    1.6105024529404757E+00    2.8481205591808072E+00    5.1720053022750179E+00
Ga    1.6598050302536389E+00    4.7100838897790185E+00    5.7687821677007474E+00
N    1.6057608247071911E+00    4.6902471180804781E+00    7.7706637751275895E+00
Ga    1.5946886991621079E+00    2.8351806810973437E+00    8.3961889290296146E+00
N    1.5943648219269853E+00    2.8353100307185457E+00    1.0386308166350663E+01
Ga    1.6215695507753907E+00    4.6957795988815656E+00    1.1027313640047531E+01
N    1.6375936171692904E+00    4.7065876266493838E+00    1.3017629576407984E+01
Ga    1.5953633204994009E+00    2.8372393944914762E+00    1.3576193373807826E+01
N    1.6253905133619224E+00    2.8215787569415243E+00    1.5532808291133476E+01
Ga    1.4337244067548545E+00    4.5889825247408167E+00    1.6440563497064797E+01
N   -1.0929478571636652E-02    7.4706107570911371E+00    2.6390137108705289E+00
Ga    4.3464121763897703E-02    5.5999845721439074E+00    3.2403930590493180E+00
N    1.1794422535771336E-02    5.6273022600880012E+00    5.1816983506545231E+00
Ga   -3.9391357508466772E-03    7.4582252545067416E+00    5.8557544047387662E+00
N   -5.3553571422357603E-03    7.4716172557422169E+00    7.8112917732134877E+00
Ga   -3.0293579995036277E-03    5.5995260360721844E+00    8.4081610139122152E+00
N   -5.1161757612650429E-03    5.6047549330194713E+00    1.0392742396673670E+01
Ga   -6.1057782125502648E-03    7.4739761300958936E+00    1.0987428830742331E+01
N   -3.5397522175676811E-03    7.4746848130891701E+00    1.2951961796316946E+01
Ga   -2.4012754612891818E-03    5.6041680863652052E+00    1.3577241308747094E+01
N   -1.2000122040229540E-03    5.6389782725989832E+00    1.5533618325804728E+01
Ga   -1.5974671899645191E-03    7.4743417100552483E+00    1.5818013112021026E+01
N   -1.7168917133717421E+00    1.0186995441824205E+01    2.4676191013975104E+00
Ga   -1.6139873445387254E+00    8.3792041208630099E+00    3.2739740567983344E+00
N   -1.6057140912699162E+00    8.3897213291400359E+00    5.2001692501008492E+00
Ga   -1.5908803419062869E+00    1.0277522477673514E+01    5.7576830800581096E+00
N   -1.6022459859503599E+00    1.0261236983434102E+01    7.7441192209922827E+00
Ga   -1.6268429937006970E+00    8.4066361142964254E+00    8.3957107819797088E+00
N   -1.6250866262590702E+00    8.4078062689672741E+00    1.0381587549600628E+01
Ga   -1.5991672101061685E+00    1.0267692259589477E+01    1.1025789555119822E+01
N   -1.5794335467802161E+00    1.0277253365132710E+01    1.3015155264203790E+01
Ga   -1.6219053983602052E+00    8.4089100164452599E+00    1.3578658236586438E+01
N   -1.5912672915523702E+00    8.3929166321054236E+00    1.5534626422731252E+01
Ga   -1.7823103261082718E+00    1.0160077466759294E+01    1.6441815863165655E+01
N    6.4373030040111328E+00    2.0177788469504128E+00    2.4974451533499487E+00
Ga    6.4264414138216592E+00    5.1129170748685691E-02    2.8381833842424160E+00
N    6.4280590031659859E+00    4.3011773527389510E-02    4.9760879476041113E+00
Ga    6.4258871092101773E+00    1.8792521998272709E+00    5.7599297742243207E+00
N    6.4298386377616277E+00    1.8892916236693287E+00    7.7510298939452156E+00
Ga    6.4272751699673343E+00    4.6712191210377736E-02    8.4041554814351294E+00
N    6.4278462029286656E+00    4.5241952635360093E-02    1.0372475277521358E+01
Ga    6.4292583738153377E+00    1.8855622736327400E+00    1.1027997903664041E+01
N    6.4301696795500165E+00    1.8658271488387290E+00    1.3017673723606849E+01
Ga    6.4284893924724829E+00    4.6233621434691209E-02    1.3829447670073574E+01
N    6.4274652322645496E+00    4.5094338345201990E-02    1.6021943457790389E+01
Ga    6.4292412538070165E+00    2.0864025991943156E+00    1.6436976308402187E+01
Ga    6.4630572296921542E+00    3.7215315275495002E+00    1.4525604836378019E+00
N    4.9392801015417138E+00    4.5946373403530973E+00    2.4427614580413297E+00
Ga    4.7073937281434048E+00    2.7773352960700182E+00    3.2489150988045647E+00
N    4.8226157125476661E+00    2.8325671906321319E+00    5.2050344600203866E+00
Ga    4.7751620738701233E+00    4.7090230576787002E+00    5.7755289979405946E+00
N    4.8233975134468148E+00    4.6876883310967798E+00    7.7744431307547144E+00
Ga    4.8294284458822014E+00    2.8325523768491894E+00    8.3983866820988933E+00
N    4.8318449822310603E+00    2.8341376011670700E+00    1.0387347096440813E+01
Ga    4.8057200674174014E+00    4.6957561029408321E+00    1.1026373380672045E+01
N    4.7899835021075861E+00    4.7061683279898103E+00    1.3017605771279788E+01
Ga    4.8321980669182958E+00    2.8372587895549137E+00    1.3576473543177578E+01
N    4.8072714980406568E+00    2.8228299883521748E+00    1.5536673784157275E+01
Ga    4.9801077376680105E+00    4.5960380341596920E+00    1.6436923885254625E+01
N    6.4235096085952179E+00    3.7559974880006912E+00    1.7579341211054977E+01
N    3.1882688085273143E+00    7.6185883532028873E+00    2.4687280661561863E+00
N    3.2209056755801146E+00    5.6235750496130219E+00    5.0921588500836901E+00
Ga    3.2147740345351368E+00    7.4157295372085539E+00    5.7903341986922490E+00
N    3.2116300652082339E+00    7.4766572032140397E+00    7.7807093216331200E+00
Ga    3.2137091143404599E+00    5.6148368884545272E+00    8.3999017001307408E+00
N    3.2136600039178895E+00    5.6169631166258931E+00    1.0375332115961424E+01
Ga    3.2134731845865652E+00    7.4551187301987136E+00    1.1028811277132181E+01
N    3.2134118123250714E+00    7.4371975730992013E+00    1.3019033023376096E+01
Ga    3.2132506643437804E+00    5.6161155762966626E+00    1.3828460844431032E+01
N    3.2116151333796301E+00    5.6154356696072671E+00    1.6022289225603554E+01
Ga    3.2132150958573091E+00    7.6569108946111983E+00    1.6437598809693569E+01
Ga    3.2354857788698723E+00    9.3606724307148763E+00    1.4278980477604015E+00
N    1.7063799313416368E+00    1.0190706782272503E+01    2.4795816523338501E+00
Ga    1.5769015118585430E+00    8.3783022302457599E+00    3.3007712509064167E+00
N    1.5926140292665467E+00    8.3972288151581633E+00    5.2196723984629596E+00
Ga    1.5790450129449609E+00    1.0279204972974705E+01    5.7707658045676569E+00
N    1.5943478292462672E+00    1.0264502551172802E+01    7.7551613780835904E+00
Ga    1.6132800267337060E+00    8.4107610351526265E+00    8.4112534568471933E+00
N    1.6128594497674209E+00    8.4102190999652358E+00    1.0394345754597163E+01
Ga    1.5892808076011691E+00    1.0269558843958727E+01    1.1031507313445038E+01
N    1.5732913371479906E+00    1.0278294586018466E+01    1.3019745763900939E+01
Ga    1.6162330759194221E+00    8.4085830454388066E+00    1.3578200985760159E+01
N    1.5908800446878570E+00    8.3938135882987996E+00    1.5537918953050584E+01
Ga    1.7644912845935727E+00    1.0166729328724633E+01    1.6437607671016483E+01
N    3.2077335011221071E+00    9.3272088770662656E+00    1.7579723127992821E+01
N    9.6644009513953861E+00    1.9116752312095626E+00    2.5675854649755081E+00
Ga    9.6548370350894910E+00    1.7336628102135235E-01    3.2467052674037062E+00
N    9.6430483137366565E+00    4.5003130684281772E-02    5.2056627297446534E+00
Ga    9.6579402322536421E+00    1.9083616426297980E+00    5.8314424853521647E+00
N    9.6477057103017572E+00    1.9031703039396541E+00    7.8020342092245185E+00
Ga    9.6475835042064606E+00    3.6978953454467209E-02    8.3969576261115613E+00
N    9.6453433168413429E+00    3.2830274669749610E-02    1.0384598762439770E+01
Ga    9.6463367980781882E+00    1.9041579347801207E+00    1.0979632898764130E+01
N    9.6451071689684102E+00    1.9028994740014080E+00    1.2947896823671146E+01
Ga    9.6465218785411846E+00    3.4517707591017001E-02    1.3577508787818649E+01
N    9.6461616830585157E+00    6.3111892054210916E-02    1.5536413758477348E+01
Ga    9.6442243161776879E+00    1.9022376718044760E+00    1.5815854910066413E+01
N    7.9333963629621405E+00    4.6258817840630027E+00    2.4880611192777233E+00
Ga    8.1556721600256381E+00    2.7702750907436280E+00    3.2577902495240303E+00
N    8.0410314854677054E+00    2.8284864750161898E+00    5.2126191445454468E+00
Ga    8.0662702015323369E+00    4.7015444913995648E+00    5.7557912475677009E+00
N    8.0485973144059670E+00    4.6952665347313784E+00    7.7467342110440578E+00
Ga    8.0289466256118605E+00    2.8366444992215176E+00    8.3926702157996580E+00
N    8.0259336785953472E+00    2.8382871603309718E+00    1.0382122278359283E+01
Ga    8.0547898456008813E+00    4.6967886334783255E+00    1.1028508355169553E+01
N    8.0710833640237283E+00    4.7066701435759750E+00    1.3017576200825053E+01
Ga    8.0273607474175339E+00    2.8379259198838036E+00    1.3576974985395477E+01
N    8.0523217770742228E+00    2.8233063564025564E+00    1.5536064553886744E+01
Ga    7.8744049010359873E+00    4.5937660009699828E+00    1.6437132646695041E+01
N    6.3434747865199546E+00    7.4302209335415217E+00    2.4684255799488972E+00
Ga    6.4068462181929355E+00    5.6873630046376276E+00    3.2660601003137000E+00
N    6.4283979679027006E+00    5.6201423294357600E+00    5.2031545643568471E+00
Ga    6.4253871438468337E+00    7.4706083626108253E+00    5.8433253698332139E+00
N    6.4280820323722727E+00    7.4723520168045674E+00    7.8054026603257265E+00
Ga    6.4321742379442641E+00    5.6019428500875055E+00    8.4054072941414670E+00
N    6.4324508189578733E+00    5.6050330040234320E+00    1.0391273524725980E+01
Ga    6.4303792833079170E+00    7.4739473878367955E+00    1.0987346172345889E+01
N    6.4294928675249770E+00    7.4734633656598435E+00    1.2953553953892772E+01
Ga    6.4302515770592636E+00    5.6026928407224128E+00    1.3577156059346180E+01
N    6.4301982164898384E+00    5.6330293653851102E+00    1.5536410921383968E+01
Ga    6.4278963301661989E+00    7.4725167374481787E+00    1.5814264880512930E+01
N    4.7220227551658649E+00    1.0195866363667472E+01    2.4848462855834699E+00
Ga    4.8772933019559801E+00    8.3513403305520271E+00    3.2798010296795082E+00
N    4.8192416208034770E+00    8.4015791809218676E+00    5.2138546246765003E+00
Ga    4.8509213839117447E+00    1.0280980814993002E+01    5.7593776502648337E+00
N    4.8320866480897395E+00    1.0265753360683080E+01    7.7491365765044531E+00
Ga    4.8120538940180602E+00    8.4129585948819550E+00    8.4065681348366272E+00
N    4.8127353515237390E+00    8.4105298960599573E+00    1.0391964590528991E+01
Ga    4.8386751513122812E+00    1.0270239932853611E+01    1.1028677830130832E+01
N    4.8542240170324309E+00    1.0278619659871168E+01    1.3017669766527378E+01
Ga    4.8101966846625785E+00    8.4097100332650339E+00    1.3577691874532281E+01
N    4.8360970940659183E+00    8.3942845729427074E+00    1.5536715259259648E+01
Ga    4.6583989939919173E+00    1.0164704305683870E+01    1.6437307243556521E+01
O    2.2678460008842886E-02    3.6620511042982522E+00   -5.8344376037457268E-01
H   -2.3834760873189692E-03    7.4842933456855922E+00    1.6126707943571654E+00
C    5.3767009183660515E-02    2.3562187962126457E+00   -1.1793865496277203E+00
H    9.0247182520359248E-01    1.7494765997186990E+00   -8.2135433201847907E-01
H   -8.7375548429336525E-01    1.7903666490188732E+00   -9.9247759389816248E-01
H    1.6150157933559658E-01    2.4929551984784095E+00   -2.2657590128995784E+00
Ga    3.2325105551018178E+00    5.6228308809515113E+00    2.2360054791246671E+00
O    3.8886325187759527E+00    6.1667676900663206E+00    2.1382345867938596E-01
H    3.7643216130168984E+00    5.4891931948984682E+00   -4.7271350385393274E-01
C    5.2916749412544455E+00    6.7084904872951885E+00    1.3408769661012843E-01
H    5.2854932103004790E+00    7.4651853236623795E+00   -6.6272827498205444E-01
H    5.8293407786059586E+00    7.1473446926194351E+00    1.3026801228868665E+00
H    5.9569800226322842E+00    5.8854168785184848E+00   -1.8909809751027026E-01
     &END COORD
     &KIND C
       BASIS_SET DZVP-MOLOPT-SR-GTH-q4
       POTENTIAL GTH-PBE-q4
       &POTENTIAL
2 2
0.3384712400000000E+00 2 -0.8803673979999999E+01  0.1339210850000000E+01
2
0.3025757500000000E+00 1  0.9622486650000001E+01
0.2915069400000000E+00 0
       &END POTENTIAL
     &END KIND
     &KIND O
       BASIS_SET DZVP-MOLOPT-SR-GTH-q6
       POTENTIAL GTH-PBE-q6
       &POTENTIAL
2 4
0.2445543000000000E+00 2 -0.1666721480000000E+02  0.2487311320000000E+01
2
0.2209559200000000E+00 1  0.1833745811000000E+02
0.2113324700000000E+00 0
       &END POTENTIAL
     &END KIND
     &KIND H
       BASIS_SET DZVP-MOLOPT-SR-GTH-q1
       POTENTIAL GTH-PBE-q1
       &POTENTIAL
1
0.2000000000000000E+00 2 -0.4178900440000000E+01  0.7244633100000000E+00
0
       &END POTENTIAL
     &END KIND
     &KIND N
       BASIS_SET DZVP-MOLOPT-SR-GTH
       POTENTIAL GTH-PBE-q5
       &POTENTIAL
2 3
0.2837905100000000E+00 2 -0.1241522559000000E+02  0.1868095920000000E+01
2
0.2554050000000000E+00 1  0.1363026257000000E+02
0.2454945300000000E+00 0
       &END POTENTIAL
     &END KIND
     &KIND Ga
       BASIS_SET DZVP-MOLOPT-SR-GTH
       POTENTIAL GTH-PBE-q13
       &POTENTIAL
2 1 10
0.4900000000000000E+00 0
3
0.4167772300000000E+00 3  0.1047568975000000E+02 -0.4921768140000000E+01  0.8707055900000000E+00
0.7770178090000000E+01 -0.2248152160000000E+01
0.1784415450000000E+01
0.5696265200000000E+00 2  0.1777985340000000E+01  0.1958597600000000E+00
-0.2317443900000000E+00
0.2381265000000000E+00 1 -0.1624868022000000E+02
       &END POTENTIAL
     &END KIND
     &TOPOLOGY
       NUMBER_OF_ATOMS  212
       MULTIPLE_UNIT_CELL  1 1 1
     &END TOPOLOGY
     &COLVAR
       &DISTANCE
         ATOMS  176 211
       &END DISTANCE
       &PRINT
       &END PRINT
     &END COLVAR
   &END SUBSYS
 &END FORCE_EVAL
