 # Version information for this restart file 
 # current date 2019-07-16 08:18:27.062
 # current working dir /lustre04/scratch/rzk/rzk/GaN-carbene/443-adatoms-both-2x2/09-BondBreaking-CH/03-0501-CH-to-Nsur-PES/Phase02
 # Program compiled at                              Sun Apr  7 00:48:11 EDT 2019
 # Program compiled on                          beluga2.int.ets1.calculquebec.ca
 # Program compiled for                        Beluga-Linux-x86-64-intel-openmpi
 # Source code revision number                                         svn:18619
 &GLOBAL
   PRINT_LEVEL  MEDIUM
   PROJECT_NAME TEST
   RUN_TYPE  GEO_OPT
 &END GLOBAL
 &MOTION
   &GEO_OPT
     MAX_ITER  500
     STEP_START_VAL  152
   &END GEO_OPT
   &CONSTRAINT
     &COLLECTIVE
       COLVAR  1
       INTERMOLECULAR  T
       TARGET     2.2676713594627715E+00
       &RESTRAINT
         K     2.0000000000000000E+00
       &END RESTRAINT
     &END COLLECTIVE
     &COLVAR_RESTART
           2.2676713594627715E+00
     &END COLVAR_RESTART
   &END CONSTRAINT
 &END MOTION
 &FORCE_EVAL
   METHOD  QS
   STRESS_TENSOR  ANALYTICAL
   &DFT
     BASIS_SET_FILE_NAME BASIS_MOLOPT
     POTENTIAL_FILE_NAME GTH_POTENTIALS
     UKS  T
     SURFACE_DIPOLE_CORRECTION  T
     SURF_DIP_DIR  Z
     &SCF
       MAX_SCF  80
       EPS_SCF     5.0000000000000004E-06
       &OT  T
         PRECONDITIONER  FULL_ALL
       &END OT
       &OUTER_SCF  T
         OPTIMIZER  NONE
         EPS_SCF     5.0000000000000004E-06
         MAX_SCF  4
       &END OUTER_SCF
       &PRINT
         &RESTART  OFF
           BACKUP_COPIES  1
           &EACH
             JUST_ENERGY  0
             QS_SCF  0
             MD  20
           &END EACH
         &END RESTART
       &END PRINT
     &END SCF
     &QS
       EPS_DEFAULT     1.0000000000000000E-14
       METHOD  GPW
     &END QS
     &MGRID
       NGRIDS  5
       CUTOFF     1.2000000000000000E+03
     &END MGRID
     &XC
       DENSITY_CUTOFF     1.0000000000000000E-10
       GRADIENT_CUTOFF     1.0000000000000000E-10
       TAU_CUTOFF     1.0000000000000000E-10
       &XC_FUNCTIONAL  NO_SHORTCUT
         &PBE  T
         &END PBE
       &END XC_FUNCTIONAL
       &VDW_POTENTIAL
         POTENTIAL_TYPE  PAIR_POTENTIAL
         &PAIR_POTENTIAL
           R_CUTOFF     1.0000000000000009E+01
           TYPE  DFTD3
           PARAMETER_FILE_NAME dftd3.dat
           REFERENCE_FUNCTIONAL PBE
           EPS_CN     9.9999999999999995E-07
           CALCULATE_C9_TERM  T
           REFERENCE_C9_TERM  T
           LONG_RANGE_CORRECTION  F
           VERBOSE_OUTPUT  F
         &END PAIR_POTENTIAL
       &END VDW_POTENTIAL
     &END XC
   &END DFT
   &SUBSYS
     &CELL
       A     1.2864472766435110E+01    0.0000000000000000E+00    0.0000000000000000E+00
       B    -6.4322363581020028E+00    1.1140960178524477E+01    0.0000000000000000E+00
       C     0.0000000000000000E+00    0.0000000000000000E+00    3.2000000000000000E+01
       MULTIPLE_UNIT_CELL  1 1 1
       &CELL_REF
         A     1.2982353780853531E+01    0.0000000000000000E+00    0.0000000000000000E+00
         B    -6.4911768904267628E+00    1.1243048175136114E+01    0.0000000000000000E+00
         C     0.0000000000000000E+00    0.0000000000000000E+00    3.2000000000000000E+01
         MULTIPLE_UNIT_CELL  1 1 1
       &END CELL_REF
     &END CELL
     &COORD
N   -4.2289098381169558E-02    2.0889071960845875E+00    2.4695838187294452E+00
Ga    2.0780321271718569E-03    1.3996933682426807E-01    2.8092884308279333E+00
N   -3.3803915876352238E-02    9.3160730089688060E-02    4.9791478166867407E+00
Ga   -2.8933710240038078E-02    1.9318125238001240E+00    5.7359649682679974E+00
N   -3.0471825756199573E-02    1.9441208248675426E+00    7.7464984707865225E+00
Ga   -2.9186735264810838E-02    1.0204073268939418E-01    8.3969568239245564E+00
N   -3.8199282760760025E-02    9.8228659604364096E-02    1.0374098330236833E+01
Ga   -3.4153120838730573E-02    1.9374439106104049E+00    1.1025636258881674E+01
N   -4.4500777081030569E-02    1.9162835937594971E+00    1.3021774319717938E+01
Ga   -4.5066268294373643E-02    9.5716310274791258E-02    1.3822303985411391E+01
N   -5.1283134290996651E-02    8.9843741356168752E-02    1.6024327853098608E+01
Ga   -5.3076055252133603E-02    2.1245314619243314E+00    1.6432666515966705E+01
Ga   -5.0347550887969543E-02    3.7864205916326932E+00    1.2941783395228195E+00
N   -1.5211097016989983E+00    4.6731956947417235E+00    2.4775613268774102E+00
Ga   -1.7391483107845342E+00    2.8400504268355604E+00    3.2009271063992260E+00
N   -1.6524891314182393E+00    2.8725244270266432E+00    5.1932896337822090E+00
Ga   -1.6679465248111203E+00    4.7345537090286891E+00    5.7874134113441853E+00
N   -1.6445507448294645E+00    4.7406817288994922E+00    7.7789189317155651E+00
Ga   -1.6251645095201026E+00    2.8825472377987755E+00    8.4027697207723655E+00
N   -1.6308548985795768E+00    2.8888893343255839E+00    1.0396156767205175E+01
Ga   -1.6612795423802651E+00    4.7473711276026211E+00    1.1029632724023044E+01
N   -1.6857950592090056E+00    4.7562357470059551E+00    1.3025376013114300E+01
Ga   -1.6431398209878689E+00    2.8875818747298800E+00    1.3576864558481354E+01
N   -1.6756460043248365E+00    2.8695852435888187E+00    1.5541252920001035E+01
Ga   -1.5008205695169903E+00    4.6415161923303154E+00    1.6431221193790240E+01
N   -4.5776883010494179E-02    3.7994600473730120E+00    1.7564813118390791E+01
N   -3.2367794353094816E+00    7.6285650956666613E+00    2.4837920401369051E+00
Ga   -3.2252540591562355E+00    5.6498548879232855E+00    2.8859746558523529E+00
N   -3.2269768958410965E+00    5.6745209382390902E+00    5.0492871706622608E+00
Ga   -3.2450165710196601E+00    7.4888048004697341E+00    5.7896412377161921E+00
N   -3.2462901683789829E+00    7.5208233429908766E+00    7.7767732843089705E+00
Ga   -3.2499222004427657E+00    5.6671240741314755E+00    8.4070922233869663E+00
N   -3.2525125070102501E+00    5.6700707521996945E+00    1.0382963445278659E+01
Ga   -3.2548506379926310E+00    7.5096250589537163E+00    1.1028122519458609E+01
N   -3.2620749969439129E+00    7.4893260921911535E+00    1.3021609607674840E+01
Ga   -3.2630102739317555E+00    5.6678099668985107E+00    1.3821014198260977E+01
N   -3.2667616553464325E+00    5.6629226366462913E+00    1.6020441414608801E+01
Ga   -3.2707791996232971E+00    7.7002429153481531E+00    1.6435222358040619E+01
Ga   -3.2323301247052361E+00    9.4106304459971497E+00    1.2330738551019886E+00
N   -4.7600799693856315E+00    1.0248320529199807E+01    2.4785437488797353E+00
Ga   -4.8490285316560966E+00    8.4410589260992204E+00    3.2517840559885713E+00
N   -4.8603465672359851E+00    8.4433708317681671E+00    5.2058095181772410E+00
Ga   -4.8752549877833831E+00    1.0331266511499715E+01    5.7489295806890475E+00
N   -4.8649371433200219E+00    1.0316206498794104E+01    7.7491083082728371E+00
Ga   -4.8482259325327917E+00    8.4643025329480874E+00    8.3982275869614664E+00
N   -4.8518301253793386E+00    8.4618252360483499E+00    1.0390835786297947E+01
Ga   -4.8757118510253141E+00    1.0322436754114513E+01    1.1021927836886896E+01
N   -4.9010901997918497E+00    1.0328162192607273E+01    1.3016357495938218E+01
Ga   -4.8596527501386966E+00    8.4598034307016245E+00    1.3575058229345322E+01
N   -4.8933067149622467E+00    8.4399279916649768E+00    1.5536405995288295E+01
Ga   -4.7134885173314451E+00    1.0207792407764590E+01    1.6436908749297292E+01
N   -3.2635616294380210E+00    9.3699699518959516E+00    1.7572561920490614E+01
N    3.1970529666870866E+00    1.9569779339259639E+00    2.5636675767125596E+00
Ga    3.1913177168790448E+00    1.9495097361609737E-01    3.2032980952002545E+00
N    3.1898369975435847E+00    9.4030416309430723E-02    5.1949378430530526E+00
Ga    3.2136558509724367E+00    1.9689211668567472E+00    5.7638321690612448E+00
N    3.1943293582612888E+00    1.9600227651009698E+00    7.7690975963440296E+00
Ga    3.1831125332973977E+00    9.9264694160761710E-02    8.3791594259883109E+00
N    3.1782568845650587E+00    8.8751919976985491E-02    1.0379986627321129E+01
Ga    3.1793754202146682E+00    1.9542128738815887E+00    1.0979681052138126E+01
N    3.1704921893633680E+00    1.9526008585091459E+00    1.2953512760920303E+01
Ga    3.1699672546345168E+00    8.3615999481710043E-02    1.3575406784702608E+01
N    3.1610531457554112E+00    1.0825525018640719E-01    1.5538305340191750E+01
Ga    3.1637630615677965E+00    1.9464126123525782E+00    1.5819344655668329E+01
N    1.4344467079757330E+00    4.6832777884622097E+00    2.4771220213643215E+00
Ga    1.6634305222889603E+00    2.8367883788343207E+00    3.2049306559321251E+00
N    1.5830995250003017E+00    2.8830948442241904E+00    5.1952004593471868E+00
Ga    1.5963838538146553E+00    4.7355392221970627E+00    5.7788569214679804E+00
N    1.5856543914468642E+00    4.7454875478597405E+00    7.7688372079056780E+00
Ga    1.5755292066883970E+00    2.8787362165839387E+00    8.3794377471405035E+00
N    1.5627080716203348E+00    2.8864441744335645E+00    1.0381745978468873E+01
Ga    1.5885661843420891E+00    4.7422190569159515E+00    1.1026338308306313E+01
N    1.5951223184227308E+00    4.7545839375700600E+00    1.3022884058436214E+01
Ga    1.5518023235228287E+00    2.8866463106262930E+00    1.3576952178856224E+01
N    1.5715806240545214E+00    2.8674995530583294E+00    1.5543238658322956E+01
Ga    1.4019022595209063E+00    4.6446551537443188E+00    1.6433314445177228E+01
N   -4.6355665078061152E-02    7.5005943635888794E+00    2.6832874006809151E+00
Ga   -5.7735048850802079E-02    5.6354307099087482E+00    3.3067287493941895E+00
N   -3.2984307501417759E-02    5.6760147306839492E+00    5.2444681140782459E+00
Ga   -4.3023745563104766E-02    7.5121208873655076E+00    5.8868905757768601E+00
N   -3.0517306992015009E-02    7.5239472317187355E+00    7.8426121656679779E+00
Ga   -2.9769753667025254E-02    5.6494936046147490E+00    8.4171735487192993E+00
N   -3.5131229940152643E-02    5.6548736934478088E+00    1.0405158696449140E+01
Ga   -3.6666939724829074E-02    7.5238908167265848E+00    1.0994268230507659E+01
N   -4.5334778104320170E-02    7.5225626995525809E+00    1.2964849765635421E+01
Ga   -4.5767610754888041E-02    5.6506745480511373E+00    1.3577878825663763E+01
N   -5.2487104758860190E-02    5.6787912898040274E+00    1.5542119966262655E+01
Ga   -5.3067757241826913E-02    7.5184597711818535E+00    1.5820276837713832E+01
N   -1.7287652244866036E+00    1.0231350335058849E+01    2.5099043438566673E+00
Ga   -1.6565847013951769E+00    8.4413393642058701E+00    3.2867525421317452E+00
N   -1.6258948275431062E+00    8.4404461722833144E+00    5.2308641883666533E+00
Ga   -1.6241748986459459E+00    1.0323027139299748E+01    5.7771233378668638E+00
N   -1.6304612010711816E+00    1.0312353666035985E+01    7.7683522514223435E+00
Ga   -1.6513343403492979E+00    8.4639898517700178E+00    8.4170651101644687E+00
N   -1.6534944976363282E+00    8.4611392158518584E+00    1.0403879284732302E+01
Ga   -1.6326201836319378E+00    1.0324264752454274E+01    1.1024969369939029E+01
N   -1.6221991273204526E+00    1.0328124720010671E+01    1.3020236967056494E+01
Ga   -1.6661390956846940E+00    8.4591527626659548E+00    1.3578082505910887E+01
N   -1.6456079474116938E+00    8.4352460749582381E+00    1.5541696651677130E+01
Ga   -1.8187369120935388E+00    1.0210919625553336E+01    1.6436281031742414E+01
N    6.4850567436910485E+00    1.9558142136945063E+00    2.4548087646940950E+00
Ga    6.3719903516710925E+00    7.6348728929006876E-02    2.9436648569764650E+00
N    6.4074185853580170E+00    7.4792969720391053E-02    5.0415251574436146E+00
Ga    6.3898996260187717E+00    1.9381656680925947E+00    5.7413710203141957E+00
N    6.3964790769758544E+00    1.9451561059811251E+00    7.7486685018350316E+00
Ga    6.3972120748168884E+00    1.0475239978361729E-01    8.4036814805888955E+00
N    6.3963874554506779E+00    1.0026941405927996E-01    1.0378002172025177E+01
Ga    6.3947053274108994E+00    1.9425585543575701E+00    1.1022254062804866E+01
N    6.3866281263985503E+00    1.9189688595807577E+00    1.3017136030084220E+01
Ga    6.3866420662256056E+00    9.7351430913428447E-02    1.3821240770176761E+01
N    6.3820816424155629E+00    8.9648085304701614E-02    1.6019813161392051E+01
Ga    6.3807002007705522E+00    2.1260688603019751E+00    1.6429092475236057E+01
Ga    7.5798712411039935E+00    2.2552339614641892E+00    6.7938537411581201E-01
N    4.7904975656247872E+00    4.7617416368814398E+00    2.4926073468375063E+00
Ga    4.8026963703024057E+00    2.8192948436443026E+00    3.0272001490601421E+00
N    4.8161319451941953E+00    2.8894816118134954E+00    5.0937560931780652E+00
Ga    4.7822736204246601E+00    4.7320816602859983E+00    5.7229875510803128E+00
N    4.7843660087398288E+00    4.7438393295805508E+00    7.7321566538212121E+00
Ga    4.7985402050411823E+00    2.8884614101557000E+00    8.3842835589052669E+00
N    4.7968756837778823E+00    2.8921526986150727E+00    1.0383357371256610E+01
Ga    4.7709784267386492E+00    4.7474740419293129E+00    1.1026686848978763E+01
N    4.7460640077379939E+00    4.7571618710352395E+00    1.3019876948916782E+01
Ga    4.7878999295360911E+00    2.8886300372569584E+00    1.3573412186135153E+01
N    4.7546093824467874E+00    2.8697798179624261E+00    1.5536533682316827E+01
Ga    4.9363275873689139E+00    4.6396263589814826E+00    1.6432032756315724E+01
N    6.3893643087181067E+00    3.7987722372328792E+00    1.7566994708666094E+01
N    3.1694665611082509E+00    7.6510976672894042E+00    2.5113813986826119E+00
N    3.1672119903527625E+00    5.6753790409446161E+00    5.0141021982360483E+00
Ga    3.1876630076868944E+00    7.4841099331564482E+00    5.7936935158307161E+00
N    3.1870490668566376E+00    7.5147641533717326E+00    7.7707926278286452E+00
Ga    3.1908597376769610E+00    5.6595467273816888E+00    8.4015591721028109E+00
N    3.1800245869529227E+00    5.6677633281921702E+00    1.0376898712804087E+01
Ga    3.1814991895733127E+00    7.5047193479604495E+00    1.1031450244947163E+01
N    3.1702725838842514E+00    7.4877661120689876E+00    1.3024312979008124E+01
Ga    3.1691987708165446E+00    5.6666840517264108E+00    1.3827329153666666E+01
N    3.1658728157456513E+00    5.6637232037559526E+00    1.6020456449501435E+01
Ga    3.1636891298493635E+00    7.7040434730946856E+00    1.6438380832686416E+01
Ga    3.1794085389363751E+00    9.3996439959097113E+00    1.5014589745530829E+00
N    1.6701038943300930E+00    1.0224383247488083E+01    2.5113737914810459E+00
Ga    1.5243083022651955E+00    8.4261275563751710E+00    3.3259933766772756E+00
N    1.5637347017065693E+00    8.4398754461504453E+00    5.2460021601402964E+00
Ga    1.5542981416428432E+00    1.0326846573592158E+01    5.8021758329305708E+00
N    1.5727296221874665E+00    1.0311265715091446E+01    7.7812172342644068E+00
Ga    1.5894037551876394E+00    8.4576020554523854E+00    8.4204757732526030E+00
N    1.5848798770320154E+00    8.4590100915806374E+00    1.0404941897221661E+01
Ga    1.5564829502607169E+00    1.0322431365229315E+01    1.1028607364570227E+01
N    1.5314102391466144E+00    1.0328319537679162E+01    1.3023165966678029E+01
Ga    1.5727695552701435E+00    8.4595930429228208E+00    1.3579505236388542E+01
N    1.5388271171768784E+00    8.4387447406238447E+00    1.5541971897474067E+01
Ga    1.7206329448311688E+00    1.0207664249052014E+01    1.6440221435909649E+01
N    3.1707883360158342E+00    9.3711615803149844E+00    1.7575566654371983E+01
N    9.5468458313520053E+00    1.9740019699065805E+00    2.5597342129908682E+00
Ga    9.5919965069178215E+00    2.3689890664754712E-01    3.2661964224323303E+00
N    9.6161257466011492E+00    9.2696632770940202E-02    5.2191592434137322E+00
Ga    9.6172970478051791E+00    1.9607287196234324E+00    5.8385052774198671E+00
N    9.6185455011761825E+00    1.9532231147239294E+00    7.8164872415143343E+00
Ga    9.6219332743485566E+00    9.0044698439294760E-02    8.4054575983852189E+00
N    9.6139333043427548E+00    8.5384838141306318E-02    1.0396035251980621E+01
Ga    9.6114981337515140E+00    1.9573151339129302E+00    1.0982338992355757E+01
N    9.6042015342778377E+00    1.9544548100509904E+00    1.2955819956289908E+01
Ga    9.6025283432988946E+00    8.5832391902580879E-02    1.3577994349968337E+01
N    9.5956413545378911E+00    1.1115912988742067E-01    1.5542392981688003E+01
Ga    9.5962571607307279E+00    1.9492236267558101E+00    1.5821249704269164E+01
N    8.0083507513708305E+00    4.7056805883458894E+00    2.4918383376846158E+00
Ga    8.0408896816842823E+00    2.9352104965666190E+00    3.2684097158902983E+00
N    8.0116132897101835E+00    2.8857848260980656E+00    5.2350247247835568E+00
Ga    8.0332278925976830E+00    4.7633463915010630E+00    5.7564120278380715E+00
N    8.0133400522519764E+00    4.7513517017646985E+00    7.7608832522351543E+00
Ga    7.9954021277875968E+00    2.8904375560549509E+00    8.3860079755320989E+00
N    7.9937007235241531E+00    2.8913086628900992E+00    1.0386962075948668E+01
Ga    8.0167193148661138E+00    4.7495974379272132E+00    1.1024027967509030E+01
N    8.0258393630021576E+00    4.7591790142574206E+00    1.3018706453536407E+01
Ga    7.9843333898317450E+00    2.8899536370825536E+00    1.3572922095848019E+01
N    8.0057711354814618E+00    2.8702588844548504E+00    1.5536014707463650E+01
Ga    7.8324456734634929E+00    4.6449064918217884E+00    1.6430943565013866E+01
N    6.4193777546452653E+00    7.5065953168111488E+00    2.6440352734313750E+00
Ga    6.4723571551794317E+00    5.6114148948816478E+00    3.1574246106057786E+00
N    6.3988546362549803E+00    5.6702976230946120E+00    5.1464688813480004E+00
Ga    6.4132985261808351E+00    7.4972697975340443E+00    5.8329373437269219E+00
N    6.4018595231943758E+00    7.5207663823124333E+00    7.8023706060280755E+00
Ga    6.3966281892171510E+00    5.6522529079200643E+00    8.3961283818882180E+00
N    6.3916260678094590E+00    5.6573295597127720E+00    1.0389872256196078E+01
Ga    6.3961357229705174E+00    7.5253855537066405E+00    1.0984244390264800E+01
N    6.3863120069027968E+00    7.5249226770913982E+00    1.2956062055943420E+01
Ga    6.3847976134460902E+00    5.6548583311473557E+00    1.3573857994857850E+01
N    6.3791966426079263E+00    5.6820256487336867E+00    1.5537336335640923E+01
Ga    6.3796379069351987E+00    7.5215050826740146E+00    1.5816889378050970E+01
N    4.6798577455412760E+00    1.0246161044089773E+01    2.4929974920735578E+00
Ga    4.8527752127258541E+00    8.4119694335651456E+00    3.2908666308228898E+00
N    4.8018287577122081E+00    8.4425488939103630E+00    5.2163626390906037E+00
Ga    4.8292235349427504E+00    1.0331478451470579E+01    5.7657064429616067E+00
N    4.8028477715139788E+00    1.0312328376212683E+01    7.7575889250093422E+00
Ga    4.7896033089962167E+00    8.4589259858753945E+00    8.4021730659202980E+00
N    4.7772874507500465E+00    8.4598658636934445E+00    1.0392173488002928E+01
Ga    4.8031716623107714E+00    1.0319852799960213E+01    1.1028549350739373E+01
N    4.8101154809083306E+00    1.0328303987667079E+01    1.3022509110926007E+01
Ga    4.7660790459266700E+00    8.4597381135528469E+00    1.3577434130325884E+01
N    4.7877689898405995E+00    8.4394783304479191E+00    1.5541344508680488E+01
Ga    4.6108831284639527E+00    1.0211667970738290E+01    1.6441154051252770E+01
O   -1.0131594920703015E-01    3.8080265729568588E+00   -5.2160258208643584E-01
H   -4.2758076348614740E-02    7.4889745313777514E+00    1.6568430072037721E+00
C   -4.0073472130325066E-01    2.5709560915972918E+00   -1.1909490624594192E+00
H    2.0683361815705903E-01    1.7288175211476624E+00   -8.2007536354308985E-01
H   -1.4643725176533671E+00    2.2981811838598114E+00   -1.0976428748415088E+00
H   -1.7401887339392150E-01    2.7126934261423168E+00   -2.2574214547073845E+00
Ga    3.0862956994418744E+00    5.6577401350744072E+00    2.9359165658624411E+00
O    6.5349998183129721E+00    6.5055747637141410E+00   -6.9130722291699934E-02
H    4.8853853985696025E+00    4.7922849278015072E+00    1.4683335936733501E+00
C    7.4853222625539413E+00    5.7498831525150083E+00   -2.7880987911867144E-01
H    8.5120162942117368E+00    5.9671078193364560E+00    6.6004505670894914E-02
H    6.4278635866129452E+00    7.4577249587941887E+00    1.4534013156249463E+00
H    7.3437838682349028E+00    4.8331794491545219E+00   -8.7421564523843465E-01
     &END COORD
     &KIND C
       BASIS_SET DZVP-MOLOPT-SR-GTH-q4
       POTENTIAL GTH-PBE-q4
       &POTENTIAL
2 2
0.3384712400000000E+00 2 -0.8803673979999999E+01  0.1339210850000000E+01
2
0.3025757500000000E+00 1  0.9622486650000001E+01
0.2915069400000000E+00 0
       &END POTENTIAL
     &END KIND
     &KIND O
       BASIS_SET DZVP-MOLOPT-SR-GTH-q6
       POTENTIAL GTH-PBE-q6
       &POTENTIAL
2 4
0.2445543000000000E+00 2 -0.1666721480000000E+02  0.2487311320000000E+01
2
0.2209559200000000E+00 1  0.1833745811000000E+02
0.2113324700000000E+00 0
       &END POTENTIAL
     &END KIND
     &KIND H
       BASIS_SET DZVP-MOLOPT-SR-GTH-q1
       POTENTIAL GTH-PBE-q1
       &POTENTIAL
1
0.2000000000000000E+00 2 -0.4178900440000000E+01  0.7244633100000000E+00
0
       &END POTENTIAL
     &END KIND
     &KIND N
       BASIS_SET DZVP-MOLOPT-SR-GTH
       POTENTIAL GTH-PBE-q5
       &POTENTIAL
2 3
0.2837905100000000E+00 2 -0.1241522559000000E+02  0.1868095920000000E+01
2
0.2554050000000000E+00 1  0.1363026257000000E+02
0.2454945300000000E+00 0
       &END POTENTIAL
     &END KIND
     &KIND Ga
       BASIS_SET DZVP-MOLOPT-SR-GTH
       POTENTIAL GTH-PBE-q13
       &POTENTIAL
2 1 10
0.4900000000000000E+00 0
3
0.4167772300000000E+00 3  0.1047568975000000E+02 -0.4921768140000000E+01  0.8707055900000000E+00
0.7770178090000000E+01 -0.2248152160000000E+01
0.1784415450000000E+01
0.5696265200000000E+00 2  0.1777985340000000E+01  0.1958597600000000E+00
-0.2317443900000000E+00
0.2381265000000000E+00 1 -0.1624868022000000E+02
       &END POTENTIAL
     &END KIND
     &TOPOLOGY
       NUMBER_OF_ATOMS  212
       MULTIPLE_UNIT_CELL  1 1 1
     &END TOPOLOGY
     &COLVAR
       &DISTANCE
         ATOMS  176 211
       &END DISTANCE
       &PRINT
       &END PRINT
     &END COLVAR
   &END SUBSYS
 &END FORCE_EVAL
