 # Version information for this restart file 
 # current date 2019-06-24 21:03:27.667
 # current working dir /scratch/rzk/rzk/GaN-carbene/443-adatoms-both-2x2/03-DissMethanol/04-O-GaTop-H-NSur
 # Program compiled at                              Sun Apr  7 00:48:11 EDT 2019
 # Program compiled on                          beluga2.int.ets1.calculquebec.ca
 # Program compiled for                        Beluga-Linux-x86-64-intel-openmpi
 # Source code revision number                                         svn:18619
 &GLOBAL
   PRINT_LEVEL  MEDIUM
   PROJECT_NAME TEST
   RUN_TYPE  GEO_OPT
 &END GLOBAL
 &MOTION
   &GEO_OPT
     MAX_ITER  500
     STEP_START_VAL  88
   &END GEO_OPT
 &END MOTION
 &FORCE_EVAL
   METHOD  QS
   STRESS_TENSOR  ANALYTICAL
   &DFT
     BASIS_SET_FILE_NAME BASIS_MOLOPT
     POTENTIAL_FILE_NAME GTH_POTENTIALS
     UKS  T
     SURFACE_DIPOLE_CORRECTION  T
     SURF_DIP_DIR  Z
     &SCF
       MAX_SCF  80
       EPS_SCF     5.0000000000000004E-06
       &OT  T
         PRECONDITIONER  FULL_ALL
       &END OT
       &OUTER_SCF  T
         OPTIMIZER  NONE
         EPS_SCF     5.0000000000000004E-06
         MAX_SCF  4
       &END OUTER_SCF
       &PRINT
         &RESTART  OFF
           BACKUP_COPIES  1
           &EACH
             JUST_ENERGY  0
             QS_SCF  0
             MD  20
           &END EACH
         &END RESTART
       &END PRINT
     &END SCF
     &QS
       EPS_DEFAULT     1.0000000000000000E-14
       METHOD  GPW
     &END QS
     &MGRID
       NGRIDS  5
       CUTOFF     1.2000000000000000E+03
     &END MGRID
     &XC
       DENSITY_CUTOFF     1.0000000000000000E-10
       GRADIENT_CUTOFF     1.0000000000000000E-10
       TAU_CUTOFF     1.0000000000000000E-10
       &XC_FUNCTIONAL  NO_SHORTCUT
         &PBE  T
         &END PBE
       &END XC_FUNCTIONAL
       &VDW_POTENTIAL
         POTENTIAL_TYPE  PAIR_POTENTIAL
         &PAIR_POTENTIAL
           R_CUTOFF     1.0000000000000004E+01
           TYPE  DFTD3
           PARAMETER_FILE_NAME dftd3.dat
           REFERENCE_FUNCTIONAL PBE
           EPS_CN     9.9999999999999995E-07
           CALCULATE_C9_TERM  T
           REFERENCE_C9_TERM  T
           LONG_RANGE_CORRECTION  F
           VERBOSE_OUTPUT  F
         &END PAIR_POTENTIAL
       &END VDW_POTENTIAL
     &END XC
   &END DFT
   &SUBSYS
     &CELL
       A     1.2864472766435110E+01    0.0000000000000000E+00    0.0000000000000000E+00
       B    -6.4322363581020028E+00    1.1140960178524473E+01    0.0000000000000000E+00
       C     0.0000000000000000E+00    0.0000000000000000E+00    3.2000000000000000E+01
       MULTIPLE_UNIT_CELL  1 1 1
       &CELL_REF
         A     1.2982353780853531E+01    0.0000000000000000E+00    0.0000000000000000E+00
         B    -6.4911768904267628E+00    1.1243048175136114E+01    0.0000000000000000E+00
         C     0.0000000000000000E+00    0.0000000000000000E+00    3.2000000000000000E+01
         MULTIPLE_UNIT_CELL  1 1 1
       &END CELL_REF
     &END CELL
     &COORD
N   -4.6484887260386841E-03    2.0425862682350080E+00    2.5079214413525572E+00
Ga   -2.2276354993460434E-02    8.6793359972591050E-02    2.8317122267218520E+00
N   -1.5756297001234538E-03    4.7801014081836790E-02    5.0218376956276298E+00
Ga   -2.4639555826405780E-03    1.8773770813272230E+00    5.7942920607929072E+00
N   -2.5839691558106163E-03    1.8916166385186708E+00    7.7991008067962531E+00
Ga   -4.6551134430884355E-03    4.6853831112186370E-02    8.4431124202536552E+00
N   -2.9227624499252826E-03    4.4556988596132087E-02    1.0419624959588043E+01
Ga   -3.0892669338132908E-03    1.8846653113710434E+00    1.1068664781404834E+01
N   -2.6581061110345586E-03    1.8644728804936985E+00    1.3064526931195399E+01
Ga   -1.9760516997700916E-03    4.3926316862492883E-02    1.3866749807490860E+01
N   -8.6857082304162654E-04    4.2098507785130898E-02    1.6070893042679987E+01
Ga   -2.5336715404266296E-03    2.0795772343416856E+00    1.6481188289529872E+01
Ga   -2.8409769903595058E-02    3.7317798187488860E+00    1.3222595511107915E+00
N   -1.4855685664356968E+00    4.6276674036897907E+00    2.5017424382804978E+00
Ga   -1.6776171139490921E+00    2.7837275636806638E+00    3.2695033114315222E+00
N   -1.6124870305060757E+00    2.8340599917509430E+00    5.2532914827292707E+00
Ga   -1.6398903621477561E+00    4.6968860961800285E+00    5.8053351381608369E+00
N   -1.6203053009240600E+00    4.6957983578644704E+00    7.8016831884654110E+00
Ga   -1.6015005736382615E+00    2.8341776131726193E+00    8.4339214988760691E+00
N   -1.5999361191594943E+00    2.8369911231266109E+00    1.0430918975831366E+01
Ga   -1.6262955141220263E+00    4.6941011344752939E+00    1.1071710483497393E+01
N   -1.6426349662376061E+00    4.7045217089827585E+00    1.3065682102120688E+01
Ga   -1.5998337053454483E+00    2.8357305778640245E+00    1.3621290633945870E+01
N   -1.6263074717232717E+00    2.8205759596371176E+00    1.5584384954097303E+01
Ga   -1.4480839484521475E+00    4.5908301145767121E+00    1.6482294225290520E+01
N    4.9506591903518927E-03    3.7514556352519870E+00    1.7616826126837129E+01
N   -3.2106928974396665E+00    7.5965432225723193E+00    2.5193942101914004E+00
Ga   -3.1921007547324196E+00    5.5882675176747760E+00    2.8453532244573898E+00
N   -3.2180291811867057E+00    5.6179006293147236E+00    5.0189079623062733E+00
Ga   -3.2255036512824833E+00    7.4367371065930152E+00    5.8079969555448834E+00
N   -3.2171686068560184E+00    7.4626212246291308E+00    7.7994256842014602E+00
Ga   -3.2187366363652630E+00    5.6152471211139119E+00    8.4499101993219199E+00
N   -3.2188783226091560E+00    5.6163126144813473E+00    1.0422696054899252E+01
Ga   -3.2202841617827715E+00    7.4549263807747126E+00    1.1073963859942046E+01
N   -3.2189231966920588E+00    7.4351266372385529E+00    1.3067116161750072E+01
Ga   -3.2185861468902033E+00    5.6142101082287628E+00    1.3869237091478391E+01
N   -3.2175847869950309E+00    5.6128595406745037E+00    1.6070921119129732E+01
Ga   -3.2190439817169905E+00    7.6534064168017109E+00    1.6483268468641629E+01
Ga   -3.2481596465726161E+00    9.3491292154595254E+00    1.4925444501761267E+00
N   -4.7263100618020424E+00    1.0201311689387552E+01    2.5253446156068184E+00
Ga   -4.9373083800954252E+00    8.3475576639066187E+00    3.2896428220318898E+00
N   -4.8243956970184358E+00    8.4022987530303777E+00    5.2513863411190318E+00
Ga   -4.8588725837963098E+00    1.0277299326262812E+01    5.8014124303624675E+00
N   -4.8362287239344921E+00    1.0263279939548747E+01    7.7991327183622579E+00
Ga   -4.8192610067350081E+00    8.4079662173747742E+00    8.4380666252552974E+00
N   -4.8153115843936636E+00    8.4067123556613783E+00    1.0431797465141550E+01
Ga   -4.8423351529533898E+00    1.0266172570635351E+01    1.1069677046930742E+01
N   -4.8583106983741287E+00    1.0274836467828402E+01    1.3064180711494206E+01
Ga   -4.8166428204778819E+00    8.4066456972999575E+00    1.3622234923613570E+01
N   -4.8442951918564630E+00    8.3908074984541283E+00    1.5584139343745733E+01
Ga   -4.6615859002974656E+00    1.0160064610573343E+01    1.6484047826879358E+01
N   -3.2116165410367774E+00    9.3227830638001770E+00    1.7616113993883996E+01
N    3.2011742393148173E+00    1.9101591921491949E+00    2.6194819601980557E+00
Ga    3.2020900179347609E+00    1.7239296091360631E-01    3.2926695163194908E+00
N    3.2141657076381538E+00    4.3616600125035244E-02    5.2543991977764248E+00
Ga    3.2040330658906662E+00    1.9075106668657487E+00    5.8740122852154260E+00
N    3.2132980804165610E+00    1.9015114017608459E+00    7.8512763521944082E+00
Ga    3.2112116075651977E+00    3.5721944572655255E-02    8.4398761383858005E+00
N    3.2137198364093940E+00    3.1964338624179023E-02    1.0433297648426555E+01
Ga    3.2133914599179771E+00    1.9018236257767884E+00    1.1027334992574724E+01
N    3.2134175506329430E+00    1.9008334695293458E+00    1.2999796391948967E+01
Ga    3.2128526599975378E+00    3.1595013534741791E-02    1.3622292981526783E+01
N    3.2117542660560949E+00    6.2336627080616373E-02    1.5584394964150153E+01
Ga    3.2134290165317387E+00    1.9004349471125905E+00    1.5864595232348970E+01
N    1.4813823736497371E+00    4.6259568410737799E+00    2.5030860957234573E+00
Ga    1.6662792948985963E+00    2.7935729294275862E+00    3.2623654174057610E+00
N    1.6063298188459814E+00    2.8329405283274189E+00    5.2506610562575089E+00
Ga    1.6364990291120811E+00    4.6968440957061128E+00    5.8054659776089519E+00
N    1.6136852798585100E+00    4.6946708594923123E+00    7.8031334677378092E+00
Ga    1.5943888508419395E+00    2.8350579197709647E+00    8.4373948854931413E+00
N    1.5948314278449780E+00    2.8364891110289205E+00    1.0433287622705059E+01
Ga    1.6209189963098662E+00    4.6944962407910227E+00    1.1071927244551571E+01
N    1.6373680013691509E+00    4.7045134459692823E+00    1.3066461594812077E+01
Ga    1.5942280201752039E+00    2.8354818629143215E+00    1.3621853180459462E+01
N    1.6209429074724302E+00    2.8192252537241735E+00    1.5585899062284410E+01
Ga    1.4491276758810989E+00    4.5942414769220905E+00    1.6481565218175419E+01
N    3.5306451525082020E-03    7.4637877641188695E+00    2.6980461992029201E+00
Ga    4.2852745940920693E-03    5.6013206875502162E+00    3.3233721965415208E+00
N   -3.3187624789475867E-03    5.6326173606670977E+00    5.2629968569045591E+00
Ga    3.3853627390616429E-03    7.4689525540596184E+00    5.9075926826223135E+00
N   -2.4707668527455071E-03    7.4741122579468549E+00    7.8659174149846454E+00
Ga   -2.5991053051741151E-03    5.6008543578503707E+00    8.4471404015437166E+00
N   -2.9060964089536521E-03    5.6027553523607683E+00    1.0437669998843987E+01
Ga   -1.8023743859167639E-03    7.4718248304947261E+00    1.1031070689124125E+01
N   -2.2513500931937887E-03    7.4713872583153877E+00    1.3002323073116607E+01
Ga   -2.9905615817612955E-03    5.6011442028468359E+00    1.3622738309913210E+01
N   -3.7841827573818951E-03    5.6310384434196843E+00    1.5585569833385659E+01
Ga   -1.8452538676046158E-03    7.4701755988248024E+00    1.5864526545127481E+01
N   -1.7148152328526258E+00    1.0190625269831713E+01    2.5225981553862944E+00
Ga   -1.5811227544224693E+00    8.3826074911574047E+00    3.3355686182694044E+00
N   -1.5977720950573648E+00    8.3950133060679057E+00    5.2605229271346685E+00
Ga   -1.5853963065179770E+00    1.0281905584098430E+01    5.8124414435114149E+00
N   -1.6015098398772900E+00    1.0261386387992740E+01    7.8025961311548322E+00
Ga   -1.6226935358247310E+00    8.4079381849401518E+00    8.4497127623026707E+00
N   -1.6219747310423118E+00    8.4068788661596212E+00    1.0438418155426151E+01
Ga   -1.5964545446258236E+00    1.0267210558460429E+01    1.1073524857912618E+01
N   -1.5788638859476003E+00    1.0275269253975647E+01    1.3066912256412115E+01
Ga   -1.6219181351767349E+00    8.4065702645242748E+00    1.3623708303839841E+01
N   -1.5933074695623637E+00    8.3887706624480352E+00    1.5586489851110690E+01
Ga   -1.7696763685935253E+00    1.0163846216597900E+01    1.6483180733822422E+01
N    6.4267762251247023E+00    2.0285857018845639E+00    2.5396172582028402E+00
Ga    6.4431640208961474E+00    5.0676057687807495E-02    2.8671068448112100E+00
N    6.4254194950303649E+00    4.7147926478017105E-02    5.0275277922917603E+00
Ga    6.4276562316965897E+00    1.8780071955665771E+00    5.8063976802785930E+00
N    6.4287932728857857E+00    1.8909646983638169E+00    7.8025622161078880E+00
Ga    6.4306458977143963E+00    4.6033508870116563E-02    8.4492348416953522E+00
N    6.4293874689252757E+00    4.4367431029565696E-02    1.0422237346169913E+01
Ga    6.4301174505255139E+00    1.8855230363282109E+00    1.1070175143589301E+01
N    6.4297080122223216E+00    1.8643857976855249E+00    1.3065046239416180E+01
Ga    6.4300944319161841E+00    4.4488188535602803E-02    1.3869247123619768E+01
N    6.4308603389416117E+00    4.2451140744786016E-02    1.6071108127287154E+01
Ga    6.4297646833857325E+00    2.0819576239972868E+00    1.6481432375705623E+01
Ga    6.4297687735840672E+00    3.7584963873369039E+00    1.5325949677064605E+00
N    4.9265483951831888E+00    4.6265768362484412E+00    2.5311680616827079E+00
Ga    4.7078785711407072E+00    2.7764673347105946E+00    3.2989889617484729E+00
N    4.8183670055872652E+00    2.8312710665159471E+00    5.2600201820223313E+00
Ga    4.7931523506262561E+00    4.7043393927180510E+00    5.8041642515746146E+00
N    4.8115846165364919E+00    4.6938077914181164E+00    7.8019490034432453E+00
Ga    4.8295813994100962E+00    2.8362464693996343E+00    8.4394861053960746E+00
N    4.8324075819712817E+00    2.8365404325162356E+00    1.0433580891635710E+01
Ga    4.8072948147676691E+00    4.6958949393549485E+00    1.1069769689779299E+01
N    4.7901920373748279E+00    4.7045965006652377E+00    1.3064370230610582E+01
Ga    4.8322688611024693E+00    2.8359479967620764E+00    1.3621315245159998E+01
N    4.8046798698054243E+00    2.8205013469911235E+00    1.5583610755073193E+01
Ga    4.9865310497543636E+00    4.5899455465691243E+00    1.6482617510560196E+01
N    6.4373981697988709E+00    3.7521319665874748E+00    1.7614876015078647E+01
N    3.2074429160413596E+00    7.5894106128906387E+00    2.5069712657098604E+00
Ga    3.1806768701849766E+00    5.6056905113519093E+00    2.8391661345864310E+00
N    3.2121195161312213E+00    5.6154838170091903E+00    5.0271654878050560E+00
Ga    3.2196062213179237E+00    7.4389622346283142E+00    5.8005014678057121E+00
N    3.2115054708593380E+00    7.4635116377310622E+00    7.7975659307711211E+00
Ga    3.2128830327472393E+00    5.6169258239391606E+00    8.4479162883545058E+00
N    3.2132256195026945E+00    5.6163550090755789E+00    1.0422101586007972E+01
Ga    3.2152769580810743E+00    7.4553391571485337E+00    1.1072403403427909E+01
N    3.2138320608836652E+00    7.4352388354621404E+00    1.3066467025020007E+01
Ga    3.2145548797141039E+00    5.6141121167584584E+00    1.3868029600192395E+01
N    3.2153174275949326E+00    5.6125410341831063E+00    1.6071433742690548E+01
Ga    3.2140474191172688E+00    7.6503323738200395E+00    1.6481344586160922E+01
Ga    3.2459412887548260E+00    9.3515842993804252E+00    1.3436979121505910E+00
N    1.7009448775707270E+00    1.0195166598694467E+01    2.5126437310850740E+00
Ga    1.6071920483394089E+00    8.3971333918903408E+00    3.3101471761674071E+00
N    1.5923034968634342E+00    8.3951386517772590E+00    5.2493809168630721E+00
Ga    1.5819796227410861E+00    1.0278987206385704E+01    5.8028235677560200E+00
N    1.5945731223704316E+00    1.0261474428646975E+01    7.7981547772088922E+00
Ga    1.6188043494897510E+00    8.4091122193332932E+00    8.4474814894505244E+00
N    1.6169728608002154E+00    8.4074593046961343E+00    1.0437253025496545E+01
Ga    1.5917792900239129E+00    1.0267560078458919E+01    1.1071926549959535E+01
N    1.5736968138018137E+00    1.0275371124169324E+01    1.3065610067900032E+01
Ga    1.6167370133318282E+00    8.4070107321913348E+00    1.3622815646797189E+01
N    1.5899750844016689E+00    8.3911795287477027E+00    1.5585480137935756E+01
Ga    1.7681399908976569E+00    1.0161896561025062E+01    1.6482021303904673E+01
N    3.2218102355959801E+00    9.3228703158857229E+00    1.7616440405155053E+01
N    9.6547823635941441E+00    1.9040870827116407E+00    2.6306644698325155E+00
Ga    9.6508488667346057E+00    1.4397853014885029E-01    3.2639981278714467E+00
N    9.6423832931156817E+00    4.2977155713224600E-02    5.2440049953887975E+00
Ga    9.6523549802932873E+00    1.9000541004403178E+00    5.8660015419138940E+00
N    9.6450674036671966E+00    1.9012823418726723E+00    7.8469929737136672E+00
Ga    9.6474237891406247E+00    3.5097329654655576E-02    8.4339134834726206E+00
N    9.6454290996867300E+00    3.1920901451606004E-02    1.0430249713729351E+01
Ga    9.6466276788612877E+00    1.9013817532444590E+00    1.1025185624062260E+01
N    9.6461216861730197E+00    1.9005931032615115E+00    1.2998738879614987E+01
Ga    9.6458187575383718E+00    3.1414992623528371E-02    1.3621521017544014E+01
N    9.6448782407670777E+00    6.0612578363668408E-02    1.5584703198309704E+01
Ga    9.6462549960550099E+00    1.8997250260571159E+00    1.5864004078528716E+01
N    7.9297765411956433E+00    4.6272278825951991E+00    2.5366442610266557E+00
Ga    8.1485647130433119E+00    2.7695610265792645E+00    3.3002436586741641E+00
N    8.0368563752724551E+00    2.8311617837767233E+00    5.2609402610511609E+00
Ga    8.0615401791761823E+00    4.7030879913914347E+00    5.8015398372271134E+00
N    8.0481372593884188E+00    4.6948611017196828E+00    7.7991676480521033E+00
Ga    8.0301744155226586E+00    2.8357294842445291E+00    8.4361528393534719E+00
N    8.0272165307203327E+00    2.8366837061788996E+00    1.0431902554798899E+01
Ga    8.0518329715147328E+00    4.6951650161528402E+00    1.1070615961539417E+01
N    8.0694330229768170E+00    4.7046570278499455E+00    1.3065308405328347E+01
Ga    8.0269071979579429E+00    2.8357328844006422E+00    1.3621304528570944E+01
N    8.0548461654303622E+00    2.8185491361866184E+00    1.5584813214089035E+01
Ga    7.8798925932375408E+00    4.5938268801488027E+00    1.6481776822673559E+01
N    6.4243362528284216E+00    7.4761158869279978E+00    2.6117761661523833E+00
Ga    6.4229823284284748E+00    5.7388784673901050E+00    3.2961683029536601E+00
N    6.4282397577839268E+00    5.6192366335519095E+00    5.2570676547783997E+00
Ga    6.4230275041872096E+00    7.4780225599306860E+00    5.8706605493164599E+00
N    6.4292453754984011E+00    7.4740500087440047E+00    7.8470844156167221E+00
Ga    6.4295728502216818E+00    5.6061407236809240E+00    8.4374786486911528E+00
N    6.4300286371852469E+00    5.6033643007427365E+00    1.0431918260140671E+01
Ga    6.4297340916956847E+00    7.4724464003094129E+00    1.1026390238182607E+01
N    6.4296228073690234E+00    7.4716497697351034E+00    1.2998844831480694E+01
Ga    6.4294537162521355E+00    5.6021937666973596E+00    1.3621428019358888E+01
N    6.4281405503112881E+00    5.6325209507186127E+00    1.5583780264867611E+01
Ga    6.4292837174595157E+00    7.4705506209186021E+00    1.5865609917968335E+01
N    4.7187421502180964E+00    1.0200480259326588E+01    2.5141094520681300E+00
Ga    4.9006319217446102E+00    8.3574793199099844E+00    3.2603317372193787E+00
N    4.8184806414453805E+00    8.4015787214741238E+00    5.2403891231666035E+00
Ga    4.8470051273307853E+00    1.0274273441982215E+01    5.7903350250226593E+00
N    4.8307025470777631E+00    1.0263174161590062E+01    7.7941195694217127E+00
Ga    4.8120767165062892E+00    8.4091743755052910E+00    8.4356391519130067E+00
N    4.8107529865667420E+00    8.4068420591792421E+00    1.0431140320493622E+01
Ga    4.8360357060304429E+00    1.0266110619314176E+01    1.1068944584938869E+01
N    4.8532191069042359E+00    1.0274967235913302E+01    1.3064460212439045E+01
Ga    4.8110475099727790E+00    8.4066757653330750E+00    1.3621976766102362E+01
N    4.8373584176169757E+00    8.3899747835801612E+00    1.5585899477559300E+01
Ga    4.6662315728750769E+00    1.0165470232637796E+01    1.6481213989276654E+01
O   -2.1774339816463237E-02    3.7451307848511939E+00   -4.9173376896242271E-01
H   -1.4618711176178094E-03    7.4539865865401653E+00    1.6715388811591867E+00
C    6.1152288321985504E-01    2.6204440177527846E+00   -1.1236067439244124E+00
H    1.6792244602182274E+00    2.5377075334675032E+00   -8.6173893685559699E-01
H    1.1916105102543439E-01    1.6681249493500814E+00   -8.6635173060293025E-01
H    5.3138018452280023E-01    2.7681809699202704E+00   -2.2104283234667497E+00
     &END COORD
     &KIND C
       BASIS_SET DZVP-MOLOPT-SR-GTH-q4
       POTENTIAL GTH-PBE-q4
       &POTENTIAL
 2 2
  0.3384712400000000E+00 2 -0.8803673979999999E+01  0.1339210850000000E+01
 2
  0.3025757500000000E+00 1  0.9622486650000001E+01
  0.2915069400000000E+00 0
         # Potential name:  GTH-PBE-Q4  for symbol:  C
         # Potential read from the potential filename: GTH_POTENTIALS
       &END POTENTIAL
     &END KIND
     &KIND O
       BASIS_SET DZVP-MOLOPT-SR-GTH-q6
       POTENTIAL GTH-PBE-q6
       &POTENTIAL
 2 4
  0.2445543000000000E+00 2 -0.1666721480000000E+02  0.2487311320000000E+01
 2
  0.2209559200000000E+00 1  0.1833745811000000E+02
  0.2113324700000000E+00 0
         # Potential name:  GTH-PBE-Q6  for symbol:  O
         # Potential read from the potential filename: GTH_POTENTIALS
       &END POTENTIAL
     &END KIND
     &KIND H
       BASIS_SET DZVP-MOLOPT-SR-GTH-q1
       POTENTIAL GTH-PBE-q1
       &POTENTIAL
 1
  0.2000000000000000E+00 2 -0.4178900440000000E+01  0.7244633100000000E+00
 0
         # Potential name:  GTH-PBE-Q1  for symbol:  H
         # Potential read from the potential filename: GTH_POTENTIALS
       &END POTENTIAL
     &END KIND
     &KIND N
       BASIS_SET DZVP-MOLOPT-SR-GTH
       POTENTIAL GTH-PBE-q5
       &POTENTIAL
 2 3
  0.2837905100000000E+00 2 -0.1241522559000000E+02  0.1868095920000000E+01
 2
  0.2554050000000000E+00 1  0.1363026257000000E+02
  0.2454945300000000E+00 0
         # Potential name:  GTH-PBE-Q5  for symbol:  N
         # Potential read from the potential filename: GTH_POTENTIALS
       &END POTENTIAL
     &END KIND
     &KIND Ga
       BASIS_SET DZVP-MOLOPT-SR-GTH
       POTENTIAL GTH-PBE-q13
       &POTENTIAL
 2 1 10
  0.4900000000000000E+00 0
 3
  0.4167772300000000E+00 3  0.1047568975000000E+02 -0.4921768140000000E+01  0.8707055900000000E+00
  0.7770178090000000E+01 -0.2248152160000000E+01
  0.1784415450000000E+01
  0.5696265200000000E+00 2  0.1777985340000000E+01  0.1958597600000000E+00
 -0.2317443900000000E+00
  0.2381265000000000E+00 1 -0.1624868022000000E+02
         # Potential name:  GTH-PBE-Q13  for symbol:  GA
         # Potential read from the potential filename: GTH_POTENTIALS
       &END POTENTIAL
     &END KIND
     &TOPOLOGY
       NUMBER_OF_ATOMS  206
       MULTIPLE_UNIT_CELL  1 1 1
     &END TOPOLOGY
   &END SUBSYS
 &END FORCE_EVAL
