 # Version information for this restart file 
 # current date 2019-06-24 18:00:02.978
 # current working dir /scratch/rzk/rzk/GaN-carbene/443-adatoms-both-2x2/03-DissMethanol/04-O-GaTop-H-NSur
 # Program compiled at                              Sun Apr  7 00:48:11 EDT 2019
 # Program compiled on                          beluga2.int.ets1.calculquebec.ca
 # Program compiled for                        Beluga-Linux-x86-64-intel-openmpi
 # Source code revision number                                         svn:18619
 &GLOBAL
   PRINT_LEVEL  MEDIUM
   PROJECT_NAME TEST
   RUN_TYPE  GEO_OPT
 &END GLOBAL
 &MOTION
   &GEO_OPT
     MAX_ITER  500
     STEP_START_VAL  24
   &END GEO_OPT
 &END MOTION
 &FORCE_EVAL
   METHOD  QS
   STRESS_TENSOR  ANALYTICAL
   &DFT
     BASIS_SET_FILE_NAME BASIS_MOLOPT
     POTENTIAL_FILE_NAME GTH_POTENTIALS
     UKS  T
     SURFACE_DIPOLE_CORRECTION  T
     SURF_DIP_DIR  Z
     &SCF
       MAX_SCF  80
       EPS_SCF     5.0000000000000004E-06
       &OT  T
         PRECONDITIONER  FULL_ALL
       &END OT
       &OUTER_SCF  T
         OPTIMIZER  NONE
         EPS_SCF     5.0000000000000004E-06
         MAX_SCF  4
       &END OUTER_SCF
       &PRINT
         &RESTART  OFF
           BACKUP_COPIES  1
           &EACH
             JUST_ENERGY  0
             QS_SCF  0
             MD  20
           &END EACH
         &END RESTART
       &END PRINT
     &END SCF
     &QS
       EPS_DEFAULT     1.0000000000000000E-14
       METHOD  GPW
     &END QS
     &MGRID
       NGRIDS  5
       CUTOFF     1.2000000000000000E+03
     &END MGRID
     &XC
       DENSITY_CUTOFF     1.0000000000000000E-10
       GRADIENT_CUTOFF     1.0000000000000000E-10
       TAU_CUTOFF     1.0000000000000000E-10
       &XC_FUNCTIONAL  NO_SHORTCUT
         &PBE  T
         &END PBE
       &END XC_FUNCTIONAL
       &VDW_POTENTIAL
         POTENTIAL_TYPE  PAIR_POTENTIAL
         &PAIR_POTENTIAL
           R_CUTOFF     1.0000000000000004E+01
           TYPE  DFTD3
           PARAMETER_FILE_NAME dftd3.dat
           REFERENCE_FUNCTIONAL PBE
           EPS_CN     9.9999999999999995E-07
           CALCULATE_C9_TERM  T
           REFERENCE_C9_TERM  T
           LONG_RANGE_CORRECTION  F
           VERBOSE_OUTPUT  F
         &END PAIR_POTENTIAL
       &END VDW_POTENTIAL
     &END XC
   &END DFT
   &SUBSYS
     &CELL
       A     1.2864472766435110E+01    0.0000000000000000E+00    0.0000000000000000E+00
       B    -6.4322363581020028E+00    1.1140960178524473E+01    0.0000000000000000E+00
       C     0.0000000000000000E+00    0.0000000000000000E+00    3.2000000000000000E+01
       MULTIPLE_UNIT_CELL  1 1 1
       &CELL_REF
         A     1.2982353780853531E+01    0.0000000000000000E+00    0.0000000000000000E+00
         B    -6.4911768904267628E+00    1.1243048175136114E+01    0.0000000000000000E+00
         C     0.0000000000000000E+00    0.0000000000000000E+00    3.2000000000000000E+01
         MULTIPLE_UNIT_CELL  1 1 1
       &END CELL_REF
     &END CELL
     &COORD
N   -6.8476060446751282E-03    2.0358587723717854E+00    2.5186067142593278E+00
Ga   -1.9987720028656130E-02    8.0207745993062379E-02    2.8424639402347744E+00
N   -5.4771370204777096E-04    4.3509301004369970E-02    5.0286223440414206E+00
Ga    1.5977367357982784E-04    1.8745843809159823E+00    5.7994868819207559E+00
N   -1.9771707983370144E-03    1.8914929825890192E+00    7.8033379760837649E+00
Ga   -2.9383135417110537E-03    4.6731148136645105E-02    8.4460722204491354E+00
N   -5.7965234473732847E-03    4.9266477486381924E-02    1.0421384872159853E+01
Ga   -5.8073293504574547E-03    1.8899207674208762E+00    1.1071045468587000E+01
N   -1.1433265274171605E-02    1.8748397768248175E+00    1.3064867369082458E+01
Ga   -1.1077017978152279E-02    5.5596892962348862E-02    1.3866204558394239E+01
N   -1.5692480858784195E-02    5.9498791199276466E-02    1.6066836536893685E+01
Ga   -1.6570987844448389E-02    2.1000788905992653E+00    1.6480064677692894E+01
Ga   -4.7385950952764731E-02    3.7134249974237217E+00    1.3249662321890421E+00
N   -1.4824881115780182E+00    4.6196901971096702E+00    2.5060038777112883E+00
Ga   -1.6764307280387860E+00    2.7762127734578490E+00    3.2826720159864911E+00
N   -1.6118187396129044E+00    2.8300470446038459E+00    5.2632327112314821E+00
Ga   -1.6365145819272902E+00    4.6937968663437184E+00    5.8102829332318731E+00
N   -1.6187815985592959E+00    4.6955711841684042E+00    7.8056387683001738E+00
Ga   -1.6008588211829038E+00    2.8345846380757873E+00    8.4402747331290957E+00
N   -1.6030478075826646E+00    2.8417523522364512E+00    1.0435196750909586E+01
Ga   -1.6292550050387560E+00    4.7000805669015842E+00    1.1073912820359835E+01
N   -1.6500189139891557E+00    4.7148561807429363E+00    1.3065654351663611E+01
Ga   -1.6093292846148741E+00    2.8458459652848287E+00    1.3621623847422759E+01
N   -1.6421617715387817E+00    2.8349191510698315E+00    1.5581796708945507E+01
Ga   -1.4582158278741524E+00    4.6046912376741762E+00    1.6480576434009521E+01
N   -9.0016037774246528E-03    3.7686765082250528E+00    1.7613468057412906E+01
N   -3.2070820494873695E+00    7.5893412909274174E+00    2.5232465684090042E+00
Ga   -3.1899088354140810E+00    5.5823776391145445E+00    2.8526175444256574E+00
N   -3.2154409443238010E+00    5.6125126258959090E+00    5.0228091252072522E+00
Ga   -3.2211883511498351E+00    7.4329553817012162E+00    5.8086057415997265E+00
N   -3.2149057425178933E+00    7.4623570443170024E+00    7.7992554947781221E+00
Ga   -3.2177320748462850E+00    5.6155538922787596E+00    8.4517145238861087E+00
N   -3.2217666436180004E+00    5.6209174075627697E+00    1.0422922307362487E+01
Ga   -3.2225692033730389E+00    7.4607807480586370E+00    1.1072024974045080E+01
N   -3.2273450510084549E+00    7.4458881665999792E+00    1.3064592188213465E+01
Ga   -3.2275575422644143E+00    5.6246128034430027E+00    1.3868034647472847E+01
N   -3.2304273664694416E+00    5.6275419663094688E+00    1.6065027735378472E+01
Ga   -3.2335442332540603E+00    7.6645963954116452E+00    1.6473209384337650E+01
Ga   -3.2525632216049702E+00    9.3377832123579587E+00    1.4897284372849890E+00
N   -4.7249646228542588E+00    1.0193193017146241E+01    2.5276621857116157E+00
Ga   -4.9332840344777980E+00    8.3390437671310522E+00    3.2944669202395587E+00
N   -4.8215335325475532E+00    8.3971053000863893E+00    5.2539702376569188E+00
Ga   -4.8553025653019937E+00    1.0273956886029481E+01    5.8010425336696532E+00
N   -4.8347924533242530E+00    1.0263194249567123E+01    7.7983762780352412E+00
Ga   -4.8173979478833084E+00    8.4080600653715845E+00    8.4371871611466247E+00
N   -4.8180015989297162E+00    8.4113409908982799E+00    1.0430349656654446E+01
Ga   -4.8444941678719271E+00    1.0271467056159286E+01    1.1067947332789005E+01
N   -4.8666353929918067E+00    1.0285434759879966E+01    1.3061310897763011E+01
Ga   -4.8255615910996363E+00    8.4178164179700090E+00    1.3618139020532421E+01
N   -4.8566589802418569E+00    8.4081108896312067E+00    1.5580647849982753E+01
Ga   -4.6818021921189956E+00    1.0180206747755360E+01    1.6473530915406037E+01
N   -3.2261937074565847E+00    9.3395075360490942E+00    1.7608581048445217E+01
N    3.2003618598024555E+00    1.9055602329277923E+00    2.6123552053141963E+00
Ga    3.2056108959611573E+00    1.6711685299611759E-01    3.2863889662774248E+00
N    3.2165236072694015E+00    4.0590762459136419E-02    5.2493936287276286E+00
Ga    3.2050968296010454E+00    1.9043359246257114E+00    5.8688432878257224E+00
N    3.2134797457526356E+00    1.9019746311214889E+00    7.8473636510138505E+00
Ga    3.2123825860252988E+00    3.6781346903971383E-02    8.4367310866827321E+00
N    3.2113071607769688E+00    3.7092301605980565E-02    1.0430519998040058E+01
Ga    3.2104501248777257E+00    1.9072113420117147E+00    1.1026091298819916E+01
N    3.2050582106041849E+00    1.9115043653483841E+00    1.2997609108277198E+01
Ga    3.2041968432830177E+00    4.2923620357547973E-02    1.3618122772279213E+01
N    3.1983396149185994E+00    7.5999676621569714E-02    1.5580517718121177E+01
Ga    3.2003460914722024E+00    1.9158392824292314E+00    1.5859324865309205E+01
N    1.4826727060685816E+00    4.6215127128340185E+00    2.4966160284893264E+00
Ga    1.6667425040127879E+00    2.7903457162822964E+00    3.2588984320222876E+00
N    1.6074650852664905E+00    2.8298279956720997E+00    5.2487121355121573E+00
Ga    1.6390390821185825E+00    4.6933433968457710E+00    5.8058000491337287E+00
N    1.6144073999817827E+00    4.6945490322244918E+00    7.8035771353801380E+00
Ga    1.5951357469550311E+00    2.8357056518243162E+00    8.4386173877774855E+00
N    1.5918715982796792E+00    2.8416855904421823E+00    1.0434274644982871E+01
Ga    1.6178779559546403E+00    4.7000121311850096E+00    1.1074076865714662E+01
N    1.6288914715957508E+00    4.7157334841250913E+00    1.3066789741328167E+01
Ga    1.5849827353608146E+00    2.8467949673018551E+00    1.3620995626933025E+01
N    1.6095714701058441E+00    2.8334436114155594E+00    1.5583044629864208E+01
Ga    1.4327433838924084E+00    4.6092084828764071E+00    1.6480879249387815E+01
N    9.9568697429637514E-03    7.4618815157286233E+00    2.7014620146711223E+00
Ga    1.0248211543797695E-02    5.5954556113072274E+00    3.3226723911888083E+00
N   -9.9324716543054280E-04    5.6290548574351513E+00    5.2625972116458826E+00
Ga    6.4529356634627716E-03    7.4656626169383529E+00    5.9069295914881428E+00
N   -3.9533139808766403E-04    7.4742816907617886E+00    7.8651197528243948E+00
Ga   -1.2700555758292694E-03    5.6017925686622423E+00    8.4497055247869479E+00
N   -5.3941070663404700E-03    5.6080217653000597E+00    1.0439175410694521E+01
Ga   -4.5323025350933188E-03    7.4779305060118562E+00    1.1031008100385078E+01
N   -1.0889584021183731E-02    7.4828264437691061E+00    1.3000367224215895E+01
Ga   -1.1246815707351948E-02    5.6137253268278231E+00    1.3623013874848301E+01
N   -1.7656850774068759E-02    5.6498200232171296E+00    1.5582886786364442E+01
Ga   -1.8121737724345794E-02    7.4863124863448842E+00    1.5864678068547256E+01
N   -1.7126745170562372E+00    1.0184801563242761E+01    2.5176857797402725E+00
Ga   -1.5764681423029634E+00    8.3798242312452551E+00    3.3342686000376278E+00
N   -1.5941745782463161E+00    8.3919006444312600E+00    5.2596585535009837E+00
Ga   -1.5831056398447811E+00    1.0279978805127358E+01    5.8089021755219230E+00
N   -1.6003132190355360E+00    1.0262298581059859E+01    7.7989687376582557E+00
Ga   -1.6208156849230213E+00    8.4092455641166062E+00    8.4471383335270165E+00
N   -1.6241278661237357E+00    8.4123344195029546E+00    1.0436003715307104E+01
Ga   -1.5993466693040981E+00    1.0272749376353691E+01    1.1071767943756328E+01
N   -1.5871709960329778E+00    1.0286073983659815E+01    1.3064232630185611E+01
Ga   -1.6304938905684874E+00    8.4179370815566728E+00    1.3620285891002968E+01
N   -1.6094830793654169E+00    8.4069616485257939E+00    1.5583617755042452E+01
Ga   -1.7790553217832519E+00    1.0183726668277792E+01    1.6473501334418053E+01
N    6.4301237363588974E+00    2.0230089906772539E+00    2.5331516471346927E+00
Ga    6.4461978917980369E+00    4.4103543376686052E-02    2.8637029362932576E+00
N    6.4293296663245956E+00    4.3651636364234470E-02    5.0254845341120209E+00
Ga    6.4280901215060036E+00    1.8750382826636531E+00    5.8042329674210071E+00
N    6.4288585484558007E+00    1.8911097528799776E+00    7.8002368844158525E+00
Ga    6.4306904851427822E+00    4.6981479629753208E-02    8.4486672137436809E+00
N    6.4270795042573532E+00    4.9177575555448903E-02    1.0421219985980811E+01
Ga    6.4259898544177272E+00    1.8902514105657875E+00    1.1070467201169944E+01
N    6.4209055481913930E+00    1.8747129197001247E+00    1.3063593349901065E+01
Ga    6.4214375578374865E+00    5.5933161706811063E-02    1.3869619771665327E+01
N    6.4175774129665912E+00    5.8716294988603271E-02    1.6065976388190435E+01
Ga    6.4152405868888511E+00    2.1004106870694721E+00    1.6479500283052243E+01
Ga    6.4377566214027606E+00    3.7525153786443428E+00    1.5308244352635678E+00
N    4.9307884538240350E+00    4.6206058533218020E+00    2.5220585094432009E+00
Ga    4.7086777621127256E+00    2.7706982608960931E+00    3.2914893969210182E+00
N    4.8198752448736757E+00    2.8273614522851727E+00    5.2527593219657600E+00
Ga    4.7943445523849562E+00    4.6994809159736617E+00    5.8021307298048894E+00
N    4.8121300965813321E+00    4.6929970886452113E+00    7.7998451902087966E+00
Ga    4.8294212113766051E+00    2.8360549455784811E+00    8.4372278732868828E+00
N    4.8294570887347055E+00    2.8410772699390652E+00    1.0431291691068537E+01
Ga    4.8037430135210215E+00    4.7002527451380791E+00    1.1069561796960613E+01
N    4.7816694673938374E+00    4.7150235461661634E+00    1.3062612880354223E+01
Ga    4.8235968112688630E+00    2.8468998585392273E+00    1.3619637562774846E+01
N    4.7920177816386627E+00    2.8362464505811511E+00    1.5581138525102107E+01
Ga    4.9717954063208989E+00    4.6059567983475347E+00    1.6480627027340987E+01
N    6.4222027005208036E+00    3.7689774819821462E+00    1.7617096397671624E+01
N    3.2128653542466190E+00    7.5857631343771725E+00    2.5049158700288849E+00
Ga    3.1824515462267882E+00    5.5989053952895809E+00    2.8313613731197731E+00
N    3.2147163394016149E+00    5.6119139793986008E+00    5.0272036725424201E+00
Ga    3.2237131979799956E+00    7.4334540514255263E+00    5.8042989362739519E+00
N    3.2134541623677046E+00    7.4630227274523291E+00    7.7999478665493083E+00
Ga    3.2135840070188402E+00    5.6161045179175089E+00    8.4490926192273399E+00
N    3.2102752473867797E+00    5.6209026409619129E+00    1.0422610857497970E+01
Ga    3.2117039633576860E+00    7.4597816365172500E+00    1.1074798410066640E+01
N    3.2049486150416144E+00    7.4455115704981063E+00    1.3068492958475657E+01
Ga    3.2055474830032167E+00    5.6245540304441466E+00    1.3870681920617274E+01
N    3.2001057819222196E+00    5.6282599631642327E+00    1.6068671686568141E+01
Ga    3.1991467056620952E+00    7.6699124447946190E+00    1.6479935246120302E+01
Ga    3.2553226521238665E+00    9.3501570369569631E+00    1.3548029844807319E+00
N    1.7076155607800025E+00    1.0190052013469881E+01    2.5139572948663487E+00
Ga    1.6137575089157081E+00    8.3926665987697060E+00    3.3160691957363211E+00
N    1.5977384355149653E+00    8.3921128123381639E+00    5.2527646110981454E+00
Ga    1.5839689614831058E+00    1.0276434785946256E+01    5.8065651584621651E+00
N    1.5956044939370850E+00    1.0261809915671826E+01    7.8002606986222665E+00
Ga    1.6202093642889484E+00    8.4093882032752827E+00    8.4486461359595566E+00
N    1.6150373555759323E+00    8.4122975515554810E+00    1.0438023758473076E+01
Ga    1.5881165424492962E+00    1.0272251941952042E+01    1.1074092130962425E+01
N    1.5663105478009769E+00    1.0285056562747933E+01    1.3066789536480892E+01
Ga    1.6069987045811656E+00    8.4171122030577461E+00    1.3623722597416995E+01
N    1.5722505152201167E+00    8.4063597812683728E+00    1.5584591648331877E+01
Ga    1.7570367135644693E+00    1.0176438244800506E+01    1.6479653400401691E+01
N    3.2063623223512998E+00    9.3391702607999214E+00    1.7609756081737562E+01
N    9.6586985519431359E+00    1.8980833884264610E+00    2.6371669843116168E+00
Ga    9.6531222402708199E+00    1.3921712292858862E-01    3.2738265625919545E+00
N    9.6455407330007432E+00    3.9031331772465233E-02    5.2508001584636776E+00
Ga    9.6533075071716397E+00    1.8964003940347278E+00    5.8739074226338177E+00
N    9.6454554802127763E+00    1.9006764763985042E+00    7.8532507316358968E+00
Ga    9.6481046642805879E+00    3.4514431411990745E-02    8.4399035694387781E+00
N    9.6428109789449596E+00    3.6115671966813513E-02    1.0434144175608351E+01
Ga    9.6425581038959027E+00    1.9063191087582116E+00    1.1027943251769322E+01
N    9.6367781008710729E+00    1.9111279572586537E+00    1.2998888110176440E+01
Ga    9.6368682724333325E+00    4.3493095604895331E-02    1.3622534073714599E+01
N    9.6299193541050521E+00    7.9638946397041638E-02    1.5583501557321437E+01
Ga    9.6309072636118476E+00    1.9174616986582023E+00    1.5863014999997333E+01
N    7.9334268595285264E+00    4.6196582537015258E+00    2.5365258314330923E+00
Ga    8.1504587138385070E+00    2.7624791061785223E+00    3.3030546679719484E+00
N    8.0388609966888520E+00    2.8265666579355782E+00    5.2622571427919018E+00
Ga    8.0630970918897056E+00    4.6982905747115664E+00    5.8039290136981565E+00
N    8.0491221680660718E+00    4.6939749389129473E+00    7.8002408756622028E+00
Ga    8.0294559947940964E+00    2.8354376829521466E+00    8.4387619059887378E+00
N    8.0236858177743908E+00    2.8409863328635434E+00    1.0432870603304535E+01
Ga    8.0481312770495244E+00    4.7000675891859176E+00    1.1070670175262533E+01
N    8.0602193668894433E+00    4.7150998600620708E+00    1.3063799152580366E+01
Ga    8.0171969862531132E+00    2.8464261565605167E+00    1.3620399179915504E+01
N    8.0386985311604207E+00    2.8348590951428365E+00    1.5582926322960317E+01
Ga    7.8634299299302945E+00    4.6088896509191883E+00    1.6479090801104391E+01
N    6.4291134772712502E+00    7.4683989828090303E+00    2.6125479271090812E+00
Ga    6.4252833014342547E+00    5.7308851732857349E+00    3.2963008277877890E+00
N    6.4305191271257662E+00    5.6136816934585987E+00    5.2561753596789824E+00
Ga    6.4263831837750534E+00    7.4724156788709841E+00    5.8734227304207494E+00
N    6.4304704822700183E+00    7.4728713160209850E+00    7.8481883313383172E+00
Ga    6.4298896596611899E+00    5.6050370878526223E+00    8.4380853652866499E+00
N    6.4267671536819648E+00    5.6076845885669506E+00    1.0431336518022828E+01
Ga    6.4268717452710487E+00    7.4770283990614077E+00    1.1026477481412831E+01
N    6.4209527102614636E+00    7.4821894346165534E+00    1.2998012277591908E+01
Ga    6.4199826453158106E+00    5.6127480178356643E+00    1.3619836633643876E+01
N    6.4138563866702460E+00    5.6472613323503742E+00    1.5581368144690401E+01
Ga    6.4165525084375901E+00    7.4855175161410878E+00    1.5860862268523778E+01
N    4.7220795775097608E+00    1.0193887064584256E+01    2.5203585256514391E+00
Ga    4.9061576980898032E+00    8.3475754647848852E+00    3.2655122052239309E+00
N    4.8219068237684972E+00    8.3966180171033624E+00    5.2433590131944126E+00
Ga    4.8497257236854932E+00    1.0268998214840268E+01    5.7973549100390347E+00
N    4.8316215203123960E+00    1.0261984434841178E+01    7.7990990518230543E+00
Ga    4.8133520600221402E+00    8.4083820271639382E+00    8.4400177533008875E+00
N    4.8080389130643093E+00    8.4111211268921799E+00    1.0433715374818410E+01
Ga    4.8332125734259570E+00    1.0270991637722071E+01    1.1071894621155160E+01
N    4.8443113698005416E+00    1.0285482087889910E+01    1.3066457439823898E+01
Ga    4.8016145049654950E+00    8.4174901196952714E+00    1.3621672126197645E+01
N    4.8261391534674765E+00    8.4044965711391857E+00    1.5584951486820080E+01
Ga    4.6477680487407715E+00    1.0180119126994132E+01    1.6478874493550450E+01
O   -3.0637262791209343E-02    3.6305041141037973E+00   -4.8946033759336915E-01
H    1.1073101251218425E-02    7.4590073463648459E+00    1.6751185885210287E+00
C    6.2352739218892761E-01    2.4618705947069959E+00   -1.0165553010011423E+00
H    1.6858392794127715E+00    2.4081301840208140E+00   -7.3053225970002944E-01
H    1.3472032797401087E-01    1.5324138416582562E+00   -6.8395707056319710E-01
H    5.5287551279803826E-01    2.5141027824445588E+00   -2.1120488924805083E+00
     &END COORD
     &KIND C
       BASIS_SET DZVP-MOLOPT-SR-GTH-q4
       POTENTIAL GTH-PBE-q4
       &POTENTIAL
 2 2
  0.3384712400000000E+00 2 -0.8803673979999999E+01  0.1339210850000000E+01
 2
  0.3025757500000000E+00 1  0.9622486650000001E+01
  0.2915069400000000E+00 0
         # Potential name:  GTH-PBE-Q4  for symbol:  C
         # Potential read from the potential filename: GTH_POTENTIALS
       &END POTENTIAL
     &END KIND
     &KIND O
       BASIS_SET DZVP-MOLOPT-SR-GTH-q6
       POTENTIAL GTH-PBE-q6
       &POTENTIAL
 2 4
  0.2445543000000000E+00 2 -0.1666721480000000E+02  0.2487311320000000E+01
 2
  0.2209559200000000E+00 1  0.1833745811000000E+02
  0.2113324700000000E+00 0
         # Potential name:  GTH-PBE-Q6  for symbol:  O
         # Potential read from the potential filename: GTH_POTENTIALS
       &END POTENTIAL
     &END KIND
     &KIND H
       BASIS_SET DZVP-MOLOPT-SR-GTH-q1
       POTENTIAL GTH-PBE-q1
       &POTENTIAL
 1
  0.2000000000000000E+00 2 -0.4178900440000000E+01  0.7244633100000000E+00
 0
         # Potential name:  GTH-PBE-Q1  for symbol:  H
         # Potential read from the potential filename: GTH_POTENTIALS
       &END POTENTIAL
     &END KIND
     &KIND N
       BASIS_SET DZVP-MOLOPT-SR-GTH
       POTENTIAL GTH-PBE-q5
       &POTENTIAL
 2 3
  0.2837905100000000E+00 2 -0.1241522559000000E+02  0.1868095920000000E+01
 2
  0.2554050000000000E+00 1  0.1363026257000000E+02
  0.2454945300000000E+00 0
         # Potential name:  GTH-PBE-Q5  for symbol:  N
         # Potential read from the potential filename: GTH_POTENTIALS
       &END POTENTIAL
     &END KIND
     &KIND Ga
       BASIS_SET DZVP-MOLOPT-SR-GTH
       POTENTIAL GTH-PBE-q13
       &POTENTIAL
 2 1 10
  0.4900000000000000E+00 0
 3
  0.4167772300000000E+00 3  0.1047568975000000E+02 -0.4921768140000000E+01  0.8707055900000000E+00
  0.7770178090000000E+01 -0.2248152160000000E+01
  0.1784415450000000E+01
  0.5696265200000000E+00 2  0.1777985340000000E+01  0.1958597600000000E+00
 -0.2317443900000000E+00
  0.2381265000000000E+00 1 -0.1624868022000000E+02
         # Potential name:  GTH-PBE-Q13  for symbol:  GA
         # Potential read from the potential filename: GTH_POTENTIALS
       &END POTENTIAL
     &END KIND
     &TOPOLOGY
       NUMBER_OF_ATOMS  206
       MULTIPLE_UNIT_CELL  1 1 1
     &END TOPOLOGY
   &END SUBSYS
 &END FORCE_EVAL
