 # Version information for this restart file 
 # current date 2019-06-24 17:55:00.423
 # current working dir /scratch/rzk/rzk/GaN-carbene/443-adatoms-both-2x2/03-DissMethanol/04-O-GaTop-H-NSur
 # Program compiled at                              Sun Apr  7 00:48:11 EDT 2019
 # Program compiled on                          beluga2.int.ets1.calculquebec.ca
 # Program compiled for                        Beluga-Linux-x86-64-intel-openmpi
 # Source code revision number                                         svn:18619
 &GLOBAL
   PRINT_LEVEL  MEDIUM
   PROJECT_NAME TEST
   RUN_TYPE  GEO_OPT
 &END GLOBAL
 &MOTION
   &GEO_OPT
     MAX_ITER  500
     STEP_START_VAL  23
   &END GEO_OPT
 &END MOTION
 &FORCE_EVAL
   METHOD  QS
   STRESS_TENSOR  ANALYTICAL
   &DFT
     BASIS_SET_FILE_NAME BASIS_MOLOPT
     POTENTIAL_FILE_NAME GTH_POTENTIALS
     UKS  T
     SURFACE_DIPOLE_CORRECTION  T
     SURF_DIP_DIR  Z
     &SCF
       MAX_SCF  80
       EPS_SCF     5.0000000000000004E-06
       &OT  T
         PRECONDITIONER  FULL_ALL
       &END OT
       &OUTER_SCF  T
         OPTIMIZER  NONE
         EPS_SCF     5.0000000000000004E-06
         MAX_SCF  4
       &END OUTER_SCF
       &PRINT
         &RESTART  OFF
           BACKUP_COPIES  1
           &EACH
             JUST_ENERGY  0
             QS_SCF  0
             MD  20
           &END EACH
         &END RESTART
       &END PRINT
     &END SCF
     &QS
       EPS_DEFAULT     1.0000000000000000E-14
       METHOD  GPW
     &END QS
     &MGRID
       NGRIDS  5
       CUTOFF     1.2000000000000000E+03
     &END MGRID
     &XC
       DENSITY_CUTOFF     1.0000000000000000E-10
       GRADIENT_CUTOFF     1.0000000000000000E-10
       TAU_CUTOFF     1.0000000000000000E-10
       &XC_FUNCTIONAL  NO_SHORTCUT
         &PBE  T
         &END PBE
       &END XC_FUNCTIONAL
       &VDW_POTENTIAL
         POTENTIAL_TYPE  PAIR_POTENTIAL
         &PAIR_POTENTIAL
           R_CUTOFF     1.0000000000000004E+01
           TYPE  DFTD3
           PARAMETER_FILE_NAME dftd3.dat
           REFERENCE_FUNCTIONAL PBE
           EPS_CN     9.9999999999999995E-07
           CALCULATE_C9_TERM  T
           REFERENCE_C9_TERM  T
           LONG_RANGE_CORRECTION  F
           VERBOSE_OUTPUT  F
         &END PAIR_POTENTIAL
       &END VDW_POTENTIAL
     &END XC
   &END DFT
   &SUBSYS
     &CELL
       A     1.2864472766435110E+01    0.0000000000000000E+00    0.0000000000000000E+00
       B    -6.4322363581020028E+00    1.1140960178524473E+01    0.0000000000000000E+00
       C     0.0000000000000000E+00    0.0000000000000000E+00    3.2000000000000000E+01
       MULTIPLE_UNIT_CELL  1 1 1
       &CELL_REF
         A     1.2982353780853531E+01    0.0000000000000000E+00    0.0000000000000000E+00
         B    -6.4911768904267628E+00    1.1243048175136114E+01    0.0000000000000000E+00
         C     0.0000000000000000E+00    0.0000000000000000E+00    3.2000000000000000E+01
         MULTIPLE_UNIT_CELL  1 1 1
       &END CELL_REF
     &END CELL
     &COORD
N   -4.7268277843434152E-03    2.0342985141558074E+00    2.5161721331005089E+00
Ga   -2.0914744322974209E-02    7.4899788046785182E-02    2.8408810718438202E+00
N    3.4496869263610638E-03    4.0199532734304530E-02    5.0325094421272505E+00
Ga    4.6875447417576294E-03    1.8693681750474447E+00    5.8036667518457588E+00
N    1.4572569700912698E-03    1.8884605160208385E+00    7.8083206575605795E+00
Ga    2.1467890242906638E-05    4.3561837183391676E-02    8.4478023703972323E+00
N   -4.5070960620272231E-03    4.7452542771706456E-02    1.0424185001083940E+01
Ga   -4.3615469959291716E-03    1.8884266031370107E+00    1.1072283537599482E+01
N   -1.2076198459467941E-02    1.8747455461992275E+00    1.3066759912048754E+01
Ga   -1.0893019367897810E-02    5.5880375591802818E-02    1.3864423955145416E+01
N   -1.8494100756915380E-02    6.0834489037817234E-02    1.6069059914907022E+01
Ga   -1.8104047264035514E-02    2.0997501081065542E+00    1.6480887093845656E+01
Ga   -6.1284783506887222E-02    3.7162689777696101E+00    1.3306991428868076E+00
N   -1.4793640978454154E+00    4.6158110616557853E+00    2.5200713641588708E+00
Ga   -1.6724549179962573E+00    2.7691784363999057E+00    3.2912937698705158E+00
N   -1.6073472393510784E+00    2.8251065304073366E+00    5.2704018848623662E+00
Ga   -1.6323237320612773E+00    4.6894111502058422E+00    5.8133907800189046E+00
N   -1.6154805541390640E+00    4.6920853033165235E+00    7.8097807718430339E+00
Ga   -1.5978515673921685E+00    2.8312597856527186E+00    8.4428383546044667E+00
N   -1.6018837720181838E+00    2.8397682535577591E+00    1.0438781491471138E+01
Ga   -1.6276857397771582E+00    4.6986251654103510E+00    1.1074865971585780E+01
N   -1.6499195366013641E+00    4.7144830815033094E+00    1.3067535211851723E+01
Ga   -1.6099284782145316E+00    2.8455013297785405E+00    1.3623242628882249E+01
N   -1.6431836492089444E+00    2.8353740195526211E+00    1.5584404355175788E+01
Ga   -1.4613108502949521E+00    4.6063209917873689E+00    1.6480882182720542E+01
N   -1.0871945366954414E-02    3.7697159398643745E+00    1.7617306872642008E+01
N   -3.2014671529614445E+00    7.5836436226841339E+00    2.5315979479818069E+00
Ga   -3.1850895602184885E+00    5.5765777557678806E+00    2.8614427975239702E+00
N   -3.2123766104042928E+00    5.6078345964617933E+00    5.0289194512572175E+00
Ga   -3.2165103402753594E+00    7.4290840747647167E+00    5.8116739059202329E+00
N   -3.2112728984140273E+00    7.4593568827712025E+00    7.8030674993827311E+00
Ga   -3.2144218197207683E+00    5.6122836198452797E+00    8.4534069299648635E+00
N   -3.2204416318013878E+00    5.6191983599999107E+00    1.0425258323173081E+01
Ga   -3.2210842348134356E+00    7.4597028460786845E+00    1.1072568625246491E+01
N   -3.2278370699332686E+00    7.4460721458158101E+00    1.3066527512293966E+01
Ga   -3.2281914144470369E+00    5.6243512735095162E+00    1.3867938431526856E+01
N   -3.2311712053309187E+00    5.6278203297699338E+00    1.6065959908018854E+01
Ga   -3.2354604372556177E+00    7.6630743871736060E+00    1.6471227361780937E+01
Ga   -3.2486009772816828E+00    9.3291798601385487E+00    1.5055014766816683E+00
N   -4.7212779275172236E+00    1.0187317369033771E+01    2.5322583332721758E+00
Ga   -4.9306454454065847E+00    8.3332677347040249E+00    3.3017612910377738E+00
N   -4.8174830689829706E+00    8.3926166611449720E+00    5.2596456108607743E+00
Ga   -4.8521801731565626E+00    1.0270740152177796E+01    5.8029991123084708E+00
N   -4.8316286177811119E+00    1.0260153211276025E+01    7.8016011569215156E+00
Ga   -4.8144489624390170E+00    8.4051070326171455E+00    8.4382361731738325E+00
N   -4.8168118766452244E+00    8.4095286956348847E+00    1.0432475518591712E+01
Ga   -4.8427498349108093E+00    1.0269859594741455E+01    1.1068315255204507E+01
N   -4.8668190863323915E+00    1.0284862934198346E+01    1.3062603886727601E+01
Ga   -4.8266857615353054E+00    8.4176090373824604E+00    1.3618756672007839E+01
N   -4.8590913577689463E+00    8.4098821884741355E+00    1.5582709682193396E+01
Ga   -4.6847889804558811E+00    1.0182318732933272E+01    1.6472276828457293E+01
N   -3.2273776464861275E+00    9.3395429752222352E+00    1.7606430810461028E+01
N    3.2032863558275699E+00    1.9005410475413249E+00    2.6138313201012489E+00
Ga    3.2098237726801520E+00    1.6292672234612354E-01    3.2896425106041818E+00
N    3.2209433588853935E+00    3.6223426906205884E-02    5.2524079363099627E+00
Ga    3.2079908001437336E+00    1.9006925239634764E+00    5.8694455960294132E+00
N    3.2162966289925263E+00    1.8989958109505671E+00    7.8494705569741461E+00
Ga    3.2153265917358440E+00    3.3873001720501415E-02    8.4372600995405467E+00
N    3.2128841180623988E+00    3.5492141806934593E-02    1.0432248128806688E+01
Ga    3.2120990678708701E+00    1.9057017480411924E+00    1.1027008117931620E+01
N    3.2045646675913155E+00    1.9116265719698227E+00    1.2999558172574414E+01
Ga    3.2037071194609434E+00    4.3168150865244087E-02    1.3618471977698492E+01
N    3.1966126888210398E+00    7.6983270951730715E-02    1.5582236711253163E+01
Ga    3.1980918654392805E+00    1.9171321769169443E+00    1.5861452571908682E+01
N    1.4845177461184640E+00    4.6173173675346497E+00    2.4971854883676907E+00
Ga    1.6685317589165354E+00    2.7870463944425641E+00    3.2568210472470756E+00
N    1.6102159691001687E+00    2.8253888034986439E+00    5.2491805918801502E+00
Ga    1.6441808941188050E+00    4.6884245781926337E+00    5.8081529489168933E+00
N    1.6175518007386915E+00    4.6906789965903357E+00    7.8072526160219002E+00
Ga    1.5980796147884662E+00    2.8326815950784132E+00    8.4408471911196497E+00
N    1.5933472349402416E+00    2.8399507583561161E+00    1.0437251718399857E+01
Ga    1.6191813231772183E+00    4.6984894064209684E+00    1.1075062200826881E+01
N    1.6283368396976234E+00    4.7158370856461058E+00    1.3068626752824624E+01
Ga    1.5842045568004186E+00    2.8469221451343598E+00    1.3621861259718957E+01
N    1.6072703913249813E+00    2.8345755489432198E+00    1.5585205781198294E+01
Ga    1.4322008452607056E+00    4.6105417277261491E+00    1.6481900862516067E+01
N    1.8561527136060147E-02    7.4582227288295542E+00    2.7078932186711202E+00
Ga    1.6886572753123410E-02    5.5918986179732171E+00    3.3288725201660925E+00
N    3.6246557230253532E-03    5.6248758611581628E+00    5.2685606427236413E+00
Ga    1.2853721375252088E-02    7.4618960219238053E+00    5.9103521645706980E+00
N    3.4823518053189650E-03    7.4713329834404183E+00    7.8693369364268362E+00
Ga    2.0655979381420399E-03    5.5983388372447305E+00    8.4515882012109511E+00
N   -3.7871211062490218E-03    5.6066440604462153E+00    1.0442283106030246E+01
Ga   -2.3343362794336531E-03    7.4768510532313641E+00    1.1032513351552922E+01
N   -1.0477028642343090E-02    7.4828710120747619E+00    1.3003443187003807E+01
Ga   -1.1524624771134790E-02    5.6140739084021813E+00    1.3624625098200099E+01
N   -1.8758669019174452E-02    5.6502647446629553E+00    1.5585477358647490E+01
Ga   -2.0871798217346398E-02    7.4863940479850104E+00    1.5868251073881641E+01
N   -1.7078287391805105E+00    1.0178562965557710E+01    2.5219495654416559E+00
Ga   -1.5676379191632774E+00    8.3739945617452207E+00    3.3396370750939686E+00
N   -1.5885369745807270E+00    8.3873921558599065E+00    5.2645574014480054E+00
Ga   -1.5785073535478920E+00    1.0276344354955210E+01    5.8109157589698812E+00
N   -1.5971388315082331E+00    1.0259298727281935E+01    7.8019164686544871E+00
Ga   -1.6173551813549478E+00    8.4065991340044555E+00    8.4485329237414017E+00
N   -1.6222118805698069E+00    8.4107395347926843E+00    1.0438763202496892E+01
Ga   -1.5979823310090191E+00    1.0271323214050035E+01    1.1072354736773464E+01
N   -1.5874872026319209E+00    1.0285830049002207E+01    1.3065950273434488E+01
Ga   -1.6303696081859353E+00    8.4177902072160400E+00    1.3621077060745447E+01
N   -1.6108502715056239E+00    8.4088332612291445E+00    1.5585852451484767E+01
Ga   -1.7791551252755728E+00    1.0186207663415601E+01    1.6472035849758615E+01
N    6.4347118355508677E+00    2.0174323726987922E+00    2.5355637236231026E+00
Ga    6.4555777680745461E+00    3.6170429153806423E-02    2.8638109539109049E+00
N    6.4334354243546734E+00    3.9464891004401391E-02    5.0285694059014467E+00
Ga    6.4315680263060742E+00    1.8698454901564516E+00    5.8065719500034865E+00
N    6.4317775380662257E+00    1.8882977011338524E+00    7.8034317795508850E+00
Ga    6.4341720493368513E+00    4.3930369547207054E-02    8.4493723542825503E+00
N    6.4288740601943930E+00    4.7483920193854855E-02    1.0423288211325508E+01
Ga    6.4271688057488054E+00    1.8886464758158485E+00    1.1071570901133510E+01
N    6.4205688633700309E+00    1.8746647391560309E+00    1.3065601183125509E+01
Ga    6.4204766878801278E+00    5.6375472219817563E-02    1.3869910597275451E+01
N    6.4166095115626156E+00    5.8889128006988950E-02    1.6068221760484356E+01
Ga    6.4130290284349734E+00    2.1006326434142681E+00    1.6480131366081295E+01
Ga    6.4448460293863246E+00    3.7471383528503526E+00    1.5399115592229751E+00
N    4.9353758536583410E+00    4.6151913553735557E+00    2.5229045725015578E+00
Ga    4.7118284847490894E+00    2.7654053183435798E+00    3.2929241822426145E+00
N    4.8242852247172081E+00    2.8226905906273774E+00    5.2545908667304388E+00
Ga    4.7971175244532640E+00    4.6949025653731402E+00    5.8043940794931563E+00
N    4.8155146107727891E+00    4.6892842724695400E+00    7.8031699008929678E+00
Ga    4.8320677978514954E+00    2.8327494272838205E+00    8.4384583880192992E+00
N    4.8310676836718001E+00    2.8393266510821458E+00    1.0433531322422281E+01
Ga    4.8052360090672677E+00    4.6984166296855356E+00    1.1070356988146351E+01
N    4.7817731924038211E+00    4.7147941151317916E+00    1.3064311275694825E+01
Ga    4.8230154473661404E+00    2.8467750071315630E+00    1.3621052510653298E+01
N    4.7902718969982701E+00    2.8370138742167286E+00    1.5583664799523023E+01
Ga    4.9697485042830385E+00    4.6063568166698081E+00    1.6481758852198777E+01
N    6.4212215671985993E+00    3.7696316695517824E+00    1.7616262985944328E+01
N    3.2189898468831171E+00    7.5786895961869618E+00    2.5055715065418700E+00
Ga    3.1848929568298678E+00    5.5974478147612272E+00    2.8299200906367066E+00
N    3.2189436619494414E+00    5.6066440870895091E+00    5.0314589609167006E+00
Ga    3.2285042990660515E+00    7.4293258845887786E+00    5.8050897371843018E+00
N    3.2169878639574945E+00    7.4597641002856596E+00    7.8029736461811590E+00
Ga    3.2165676318298924E+00    5.6129403477784496E+00    8.4501947129694379E+00
N    3.2118418224900371E+00    5.6193509353455804E+00    1.0425003784544556E+01
Ga    3.2132837419114519E+00    7.4583908192159161E+00    1.1076419886336360E+01
N    3.2046626259308728E+00    7.4454841360851862E+00    1.3072283555071250E+01
Ga    3.2052924847256454E+00    5.6235256206120354E+00    1.3869859926771641E+01
N    3.1971358247368746E+00    5.6296736523278899E+00    1.6071472901545160E+01
Ga    3.1969514522138969E+00    7.6681677419080900E+00    1.6478149847623680E+01
Ga    3.2623354244523219E+00    9.3452591887323173E+00    1.3306788711907891E+00
N    1.7120613378893459E+00    1.0185460532166456E+01    2.5153937207738575E+00
Ga    1.6267706105977455E+00    8.3913902467338666E+00    3.3156714894336021E+00
N    1.6023926989967794E+00    8.3876193336733795E+00    5.2549603224923294E+00
Ga    1.5890121909723836E+00    1.0271594757426207E+01    5.8072848016168122E+00
N    1.5989467480068038E+00    1.0258533434241748E+01    7.8029372036683267E+00
Ga    1.6243846387039635E+00    8.4067282749409848E+00    8.4501164608570392E+00
N    1.6173562711331573E+00    8.4108915463436240E+00    1.0440956169039543E+01
Ga    1.5896608706797126E+00    1.0270570874593387E+01    1.1075672045406863E+01
N    1.5663603045674619E+00    1.0284564034517773E+01    1.3070363052627462E+01
Ga    1.6065246237883790E+00    8.4169357377897533E+00    1.3625485218085844E+01
N    1.5695915422147468E+00    8.4072745188654530E+00    1.5588718770365684E+01
Ga    1.7529146335188348E+00    1.0178536195595878E+01    1.6477502913521363E+01
N    3.2046263786049130E+00    9.3396908241928429E+00    1.7608781351680754E+01
N    9.6645036899248495E+00    1.8902661258967104E+00    2.6456093806400225E+00
Ga    9.6571017997187756E+00    1.2607645304622134E-01    3.2731730566890320E+00
N    9.6495042966135305E+00    3.4471683510049138E-02    5.2536447440735463E+00
Ga    9.6572801615656001E+00    1.8901557955823023E+00    5.8767943496879544E+00
N    9.6485336262522399E+00    1.8969962757563998E+00    7.8575393742493498E+00
Ga    9.6514931713103422E+00    3.0652256729996673E-02    8.4415214743700560E+00
N    9.6445758079417327E+00    3.3935663275965956E-02    1.0437118083486231E+01
Ga    9.6437001573304268E+00    1.9039961153651976E+00    1.1030063241949930E+01
N    9.6363547294714191E+00    1.9102394267591667E+00    1.3002448265834877E+01
Ga    9.6363569195321706E+00    4.3198257520774733E-02    1.3624404705569184E+01
N    9.6275963490398802E+00    8.1019196868485827E-02    1.5587667356635469E+01
Ga    9.6291163187199107E+00    1.9195327684514611E+00    1.5866233631412957E+01
N    7.9383741402364976E+00    4.6139327216005492E+00    2.5424139752390946E+00
Ga    8.1558948679786738E+00    2.7547936229862029E+00    3.3076685859929182E+00
N    8.0422895109831511E+00    2.8215482633597273E+00    5.2666003093504807E+00
Ga    8.0663068831742102E+00    4.6931430496609661E+00    5.8075932940063177E+00
N    8.0519772848680766E+00    4.6902481095983095E+00    7.8043688688924471E+00
Ga    8.0326428328815798E+00    2.8317184319648527E+00    8.4410492676721969E+00
N    8.0253577321958289E+00    2.8390279850603144E+00    1.0436240712786681E+01
Ga    8.0490698479968064E+00    4.6983265173794653E+00    1.1071847655092288E+01
N    8.0592224626118725E+00    4.7147259197468019E+00    1.3066094089059963E+01
Ga    8.0166657689041347E+00    2.8459970827183669E+00    1.3622306943500707E+01
N    8.0361635486283500E+00    2.8348828026882975E+00    1.5585883378350816E+01
Ga    7.8620724270827189E+00    4.6099807133324671E+00    1.6479312996443884E+01
N    6.4331982151796359E+00    7.4635186671299243E+00    2.6186161631301563E+00
Ga    6.4281277373889738E+00    5.7262039668302878E+00    3.3001760978433676E+00
N    6.4341994453036477E+00    5.6080640697268365E+00    5.2599696815194994E+00
Ga    6.4290784150663693E+00    7.4679764606801191E+00    5.8756396192046010E+00
N    6.4336892353586430E+00    7.4693080269254324E+00    7.8514079376523469E+00
Ga    6.4327363638207755E+00    5.6020059322656159E+00    8.4399219711514615E+00
N    6.4282314392345432E+00    5.6062182367237723E+00    1.0434038031134429E+01
Ga    6.4278546627533020E+00    7.4755528839615772E+00    1.1028185290887507E+01
N    6.4197296427624542E+00    7.4822291493190098E+00    1.3001036862448231E+01
Ga    6.4191872089851039E+00    5.6129445160665590E+00    1.3621521936499448E+01
N    6.4109393334106262E+00    5.6479878901600351E+00    1.5584238061536869E+01
Ga    6.4150996435718168E+00    7.4859160754267684E+00    1.5864373062835037E+01
N    4.7274070454168315E+00    1.0187898328878408E+01    2.5214984454310843E+00
Ga    4.9054271965940073E+00    8.3439227024204037E+00    3.2638756885806970E+00
N    4.8266623344155200E+00    8.3917821820664873E+00    5.2452870584643749E+00
Ga    4.8534024970431258E+00    1.0264109744412128E+01    5.7979312894085124E+00
N    4.8351270668162991E+00    1.0258544968366152E+01    7.8021333835390294E+00
Ga    4.8164622788971760E+00    8.4053924286927515E+00    8.4412469324558081E+00
N    4.8095918542456744E+00    8.4094828088393125E+00    1.0436064608512105E+01
Ga    4.8344580697669342E+00    1.0269059898774689E+01    1.1073684134386074E+01
N    4.8436669741180394E+00    1.0284981876437326E+01    1.3070197524008430E+01
Ga    4.8008362450667192E+00    8.4174546656741356E+00    1.3623167384188031E+01
N    4.8244738140952128E+00    8.4051793837629862E+00    1.5589173234540597E+01
Ga    4.6477351882944458E+00    1.0182327457695001E+01    1.6476922031743609E+01
O   -8.5346890264967251E-02    3.6765460926416873E+00   -4.8749351201167618E-01
H    1.8794455147458533E-02    7.4544438408503435E+00    1.6815039695941691E+00
C    5.9486488732657894E-01    2.5383445236447528E+00   -1.0685065073497975E+00
H    1.6495508637202503E+00    2.4822898204467370E+00   -7.5488953468139697E-01
H    1.0424743535919191E-01    1.5799311962254792E+00   -7.9165051596434566E-01
H    5.4555833279594668E-01    2.6465594597272593E+00   -2.1712280436666025E+00
     &END COORD
     &KIND C
       BASIS_SET DZVP-MOLOPT-SR-GTH-q4
       POTENTIAL GTH-PBE-q4
       &POTENTIAL
 2 2
  0.3384712400000000E+00 2 -0.8803673979999999E+01  0.1339210850000000E+01
 2
  0.3025757500000000E+00 1  0.9622486650000001E+01
  0.2915069400000000E+00 0
         # Potential name:  GTH-PBE-Q4  for symbol:  C
         # Potential read from the potential filename: GTH_POTENTIALS
       &END POTENTIAL
     &END KIND
     &KIND O
       BASIS_SET DZVP-MOLOPT-SR-GTH-q6
       POTENTIAL GTH-PBE-q6
       &POTENTIAL
 2 4
  0.2445543000000000E+00 2 -0.1666721480000000E+02  0.2487311320000000E+01
 2
  0.2209559200000000E+00 1  0.1833745811000000E+02
  0.2113324700000000E+00 0
         # Potential name:  GTH-PBE-Q6  for symbol:  O
         # Potential read from the potential filename: GTH_POTENTIALS
       &END POTENTIAL
     &END KIND
     &KIND H
       BASIS_SET DZVP-MOLOPT-SR-GTH-q1
       POTENTIAL GTH-PBE-q1
       &POTENTIAL
 1
  0.2000000000000000E+00 2 -0.4178900440000000E+01  0.7244633100000000E+00
 0
         # Potential name:  GTH-PBE-Q1  for symbol:  H
         # Potential read from the potential filename: GTH_POTENTIALS
       &END POTENTIAL
     &END KIND
     &KIND N
       BASIS_SET DZVP-MOLOPT-SR-GTH
       POTENTIAL GTH-PBE-q5
       &POTENTIAL
 2 3
  0.2837905100000000E+00 2 -0.1241522559000000E+02  0.1868095920000000E+01
 2
  0.2554050000000000E+00 1  0.1363026257000000E+02
  0.2454945300000000E+00 0
         # Potential name:  GTH-PBE-Q5  for symbol:  N
         # Potential read from the potential filename: GTH_POTENTIALS
       &END POTENTIAL
     &END KIND
     &KIND Ga
       BASIS_SET DZVP-MOLOPT-SR-GTH
       POTENTIAL GTH-PBE-q13
       &POTENTIAL
 2 1 10
  0.4900000000000000E+00 0
 3
  0.4167772300000000E+00 3  0.1047568975000000E+02 -0.4921768140000000E+01  0.8707055900000000E+00
  0.7770178090000000E+01 -0.2248152160000000E+01
  0.1784415450000000E+01
  0.5696265200000000E+00 2  0.1777985340000000E+01  0.1958597600000000E+00
 -0.2317443900000000E+00
  0.2381265000000000E+00 1 -0.1624868022000000E+02
         # Potential name:  GTH-PBE-Q13  for symbol:  GA
         # Potential read from the potential filename: GTH_POTENTIALS
       &END POTENTIAL
     &END KIND
     &TOPOLOGY
       NUMBER_OF_ATOMS  206
       MULTIPLE_UNIT_CELL  1 1 1
     &END TOPOLOGY
   &END SUBSYS
 &END FORCE_EVAL
