 # Version information for this restart file 
 # current date 2019-06-24 17:45:40.110
 # current working dir /scratch/rzk/rzk/GaN-carbene/443-adatoms-both-2x2/03-DissMethanol/04-O-GaTop-H-NSur
 # Program compiled at                              Sun Apr  7 00:48:11 EDT 2019
 # Program compiled on                          beluga2.int.ets1.calculquebec.ca
 # Program compiled for                        Beluga-Linux-x86-64-intel-openmpi
 # Source code revision number                                         svn:18619
 &GLOBAL
   PRINT_LEVEL  MEDIUM
   PROJECT_NAME TEST
   RUN_TYPE  GEO_OPT
 &END GLOBAL
 &MOTION
   &GEO_OPT
     MAX_ITER  500
     STEP_START_VAL  22
   &END GEO_OPT
 &END MOTION
 &FORCE_EVAL
   METHOD  QS
   STRESS_TENSOR  ANALYTICAL
   &DFT
     BASIS_SET_FILE_NAME BASIS_MOLOPT
     POTENTIAL_FILE_NAME GTH_POTENTIALS
     UKS  T
     SURFACE_DIPOLE_CORRECTION  T
     SURF_DIP_DIR  Z
     &SCF
       MAX_SCF  80
       EPS_SCF     5.0000000000000004E-06
       &OT  T
         PRECONDITIONER  FULL_ALL
       &END OT
       &OUTER_SCF  T
         OPTIMIZER  NONE
         EPS_SCF     5.0000000000000004E-06
         MAX_SCF  4
       &END OUTER_SCF
       &PRINT
         &RESTART  OFF
           BACKUP_COPIES  1
           &EACH
             JUST_ENERGY  0
             QS_SCF  0
             MD  20
           &END EACH
         &END RESTART
       &END PRINT
     &END SCF
     &QS
       EPS_DEFAULT     1.0000000000000000E-14
       METHOD  GPW
     &END QS
     &MGRID
       NGRIDS  5
       CUTOFF     1.2000000000000000E+03
     &END MGRID
     &XC
       DENSITY_CUTOFF     1.0000000000000000E-10
       GRADIENT_CUTOFF     1.0000000000000000E-10
       TAU_CUTOFF     1.0000000000000000E-10
       &XC_FUNCTIONAL  NO_SHORTCUT
         &PBE  T
         &END PBE
       &END XC_FUNCTIONAL
       &VDW_POTENTIAL
         POTENTIAL_TYPE  PAIR_POTENTIAL
         &PAIR_POTENTIAL
           R_CUTOFF     1.0000000000000004E+01
           TYPE  DFTD3
           PARAMETER_FILE_NAME dftd3.dat
           REFERENCE_FUNCTIONAL PBE
           EPS_CN     9.9999999999999995E-07
           CALCULATE_C9_TERM  T
           REFERENCE_C9_TERM  T
           LONG_RANGE_CORRECTION  F
           VERBOSE_OUTPUT  F
         &END PAIR_POTENTIAL
       &END VDW_POTENTIAL
     &END XC
   &END DFT
   &SUBSYS
     &CELL
       A     1.2864472766435110E+01    0.0000000000000000E+00    0.0000000000000000E+00
       B    -6.4322363581020028E+00    1.1140960178524473E+01    0.0000000000000000E+00
       C     0.0000000000000000E+00    0.0000000000000000E+00    3.2000000000000000E+01
       MULTIPLE_UNIT_CELL  1 1 1
       &CELL_REF
         A     1.2982353780853531E+01    0.0000000000000000E+00    0.0000000000000000E+00
         B    -6.4911768904267628E+00    1.1243048175136114E+01    0.0000000000000000E+00
         C     0.0000000000000000E+00    0.0000000000000000E+00    3.2000000000000000E+01
         MULTIPLE_UNIT_CELL  1 1 1
       &END CELL_REF
     &END CELL
     &COORD
N   -6.5069286536967204E-03    2.0375419655802474E+00    2.5184254415263236E+00
Ga   -1.4054140661934693E-02    8.5271173825215679E-02    2.8438129155196537E+00
N   -2.0394557938981030E-03    4.5483097454657465E-02    5.0234093205938315E+00
Ga   -1.2045206747858135E-03    1.8782498761364954E+00    5.7947949451950267E+00
N   -4.6063009098512237E-03    1.8951262916151499E+00    7.7969046253062047E+00
Ga   -5.6220009313080518E-03    5.1160475495046029E-02    8.4431358235611018E+00
N   -8.8397432174487141E-03    5.2520612337950259E-02    1.0416173832690879E+01
Ga   -8.8402509136916736E-03    1.8927773594754278E+00    1.1068738486806533E+01
N   -1.2908615027023665E-02    1.8757630166020356E+00    1.3060209878930600E+01
Ga   -1.2521222174158932E-02    5.6203393474930016E-02    1.3867969826164206E+01
N   -1.6507439622500557E-02    5.8617222162186997E-02    1.6062598765851028E+01
Ga   -1.5372600450604446E-02    2.0997969593108259E+00    1.6477742748215231E+01
Ga   -4.6636955579986081E-02    3.7141435297187688E+00    1.3207352038770215E+00
N   -1.4829631310593743E+00    4.6212349875935175E+00    2.4964324824382618E+00
Ga   -1.6771684583736775E+00    2.7792424439252659E+00    3.2770946369826315E+00
N   -1.6131606484040781E+00    2.8332529263672641E+00    5.2561268589437988E+00
Ga   -1.6393040750043124E+00    4.6968088858437582E+00    5.8063869432226793E+00
N   -1.6218701125027235E+00    4.6991325038771352E+00    7.7998711000457783E+00
Ga   -1.6032035595520613E+00    2.8382715802886609E+00    8.4361346750341806E+00
N   -1.6059469208205404E+00    2.8448186131628046E+00    1.0428942901364334E+01
Ga   -1.6326933699851132E+00    4.7030448853684712E+00    1.1070928552898758E+01
N   -1.6522314221123564E+00    4.7166885320469838E+00    1.3061125358266455E+01
Ga   -1.6110059863237660E+00    2.8468577936825334E+00    1.3618384409135885E+01
N   -1.6415632248433469E+00    2.8340699125433630E+00    1.5577269992609775E+01
Ga   -1.4568884328599323E+00    4.6039279374830029E+00    1.6479152765349045E+01
N   -8.4105036572165344E-03    3.7681653584837100E+00    1.7606597384383083E+01
N   -3.2074518797634508E+00    7.5915119426110760E+00    2.5159756891200988E+00
Ga   -3.1905603731208845E+00    5.5850316860631013E+00    2.8451442790425716E+00
N   -3.2169163700720182E+00    5.6157172640912592E+00    5.0165595417006958E+00
Ga   -3.2238336294288334E+00    7.4355010229745000E+00    5.8064627925685608E+00
N   -3.2187360518423449E+00    7.4663317101474451E+00    7.7956123876652974E+00
Ga   -3.2209340428569599E+00    5.6192012553642732E+00    8.4482990132564684E+00
N   -3.2250972686512869E+00    5.6244283991325057E+00    1.0417923635893162E+01
Ga   -3.2260131582721603E+00    7.4638739691785885E+00    1.1071288067390185E+01
N   -3.2288448562919547E+00    7.4475841184765317E+00    1.3061722593197825E+01
Ga   -3.2295378505205465E+00    5.6263837411212805E+00    1.3869088258440758E+01
N   -3.2291956283341925E+00    5.6270258457932538E+00    1.6062725981803410E+01
Ga   -3.2319020810029282E+00    7.6663123782956157E+00    1.6475132379834790E+01
Ga   -3.2491786094197472E+00    9.3445908853273671E+00    1.4831880256769152E+00
N   -4.7241219971569119E+00    1.0196156712844948E+01    2.5249041857142878E+00
Ga   -4.9308524555822020E+00    8.3415490870113267E+00    3.2885623139121694E+00
N   -4.8231609989886612E+00    8.4002409357867158E+00    5.2483090109639594E+00
Ga   -4.8560624797852299E+00    1.0275943209697973E+01    5.7997415571185185E+00
N   -4.8379385543038387E+00    1.0266820086084875E+01    7.7948478801376204E+00
Ga   -4.8208143833587407E+00    8.4120626406885375E+00    8.4366087391283422E+00
N   -4.8214712782521589E+00    8.4149092867603343E+00    1.0426880590208944E+01
Ga   -4.8481124388245824E+00    1.0274783746170833E+01    1.1067965639177913E+01
N   -4.8683746161831589E+00    1.0286978158105997E+01    1.3058790847270680E+01
Ga   -4.8271740015583635E+00    8.4191756024353595E+00    1.3618319919374539E+01
N   -4.8549073134201173E+00    8.4074734540390192E+00    1.5579421770282256E+01
Ga   -4.6797735514585428E+00    1.0179446621315300E+01    1.6474676529005723E+01
N   -3.2254512500787826E+00    9.3400770723489899E+00    1.7615277463502025E+01
N    3.2023292776485093E+00    1.9069009243161408E+00    2.6114664375232617E+00
Ga    3.2061581773339141E+00    1.6865952380217458E-01    3.2872127950057988E+00
N    3.2159005283006161E+00    4.3465103344073906E-02    5.2484506848726342E+00
Ga    3.2043870432421211E+00    1.9075979439151034E+00    5.8694514539734026E+00
N    3.2111083067805879E+00    1.9056625734505834E+00    7.8455624143468672E+00
Ga    3.2091889041596433E+00    4.0258908619539187E-02    8.4365182425767689E+00
N    3.2080422150514987E+00    3.9787527520938282E-02    1.0427358714060977E+01
Ga    3.2077891738498057E+00    1.9102475979129678E+00    1.1024052845248930E+01
N    3.2041977046756589E+00    1.9129598195168036E+00    1.2993262739110357E+01
Ga    3.2028223202678858E+00    4.4236451338909265E-02    1.3618073535308513E+01
N    3.1996989439015771E+00    7.5421279584554857E-02    1.5579112950228177E+01
Ga    3.2018509067796606E+00    1.9153846557593848E+00    1.5858546815763667E+01
N    1.4802653493011726E+00    4.6223451850100412E+00    2.4903313669575926E+00
Ga    1.6679280082611310E+00    2.7910438101962081E+00    3.2569799563938893E+00
N    1.6071054781014549E+00    2.8328627945902776E+00    5.2450382832692082E+00
Ga    1.6367350535705905E+00    4.6957378830675562E+00    5.8040799046312426E+00
N    1.6117912451303955E+00    4.6983092012186134E+00    7.7991993641332318E+00
Ga    1.5919188479734148E+00    2.8391713871349316E+00    8.4361769895737364E+00
N    1.5888297603890682E+00    2.8448191586519158E+00    1.0429275865440864E+01
Ga    1.6153019325514961E+00    4.7031236540440347E+00    1.1071886379618469E+01
N    1.6281319760326050E+00    4.7176233706662538E+00    1.3062273605550596E+01
Ga    1.5840506938867767E+00    2.8478984868620234E+00    1.3618260735532969E+01
N    1.6111170762109683E+00    2.8325976385037879E+00    1.5578447708073359E+01
Ga    1.4334433491053047E+00    4.6082231370574176E+00    1.6478280672001894E+01
N    5.9038316994425152E-03    7.4607360436802734E+00    2.6984159220694885E+00
Ga    6.9711228246599919E-03    5.5942558732983869E+00    3.3185077203019655E+00
N   -2.5326923933858487E-03    5.6311257510610542E+00    5.2572995194295933E+00
Ga    1.9744306372222941E-03    7.4662858202157203E+00    5.9077045841548612E+00
N   -3.8865499927113883E-03    7.4775102229031356E+00    7.8630094786394018E+00
Ga   -4.6240411942344035E-03    5.6044125055678355E+00    8.4477442706615449E+00
N   -8.4532186236064566E-03    5.6109969775470381E+00    1.0434614826509499E+01
Ga   -7.7392115114294328E-03    7.4811923687450550E+00    1.1028936163369529E+01
N   -1.2237111654576692E-02    7.4845715359470377E+00    1.2995631132725746E+01
Ga   -1.2531331334981894E-02    5.6154860734022813E+00    1.3619981050356014E+01
N   -1.6581438328761324E-02    5.6496490319870585E+00    1.5578481685013967E+01
Ga   -1.6826081254953325E-02    7.4858856459493905E+00    1.5864368328808936E+01
N   -1.7110762259866967E+00    1.0186136333302954E+01    2.5180249772338743E+00
Ga   -1.5815570094245179E+00    8.3799968814979202E+00    3.3324639051517506E+00
N   -1.5958265247361056E+00    8.3942263038087859E+00    5.2566834960417745E+00
Ga   -1.5847522910478253E+00    1.0281820936011801E+01    5.8092655410380454E+00
N   -1.6030146902635258E+00    1.0265739184188364E+01    7.7969179421720911E+00
Ga   -1.6249243667743325E+00    8.4126644068639074E+00    8.4469139364686221E+00
N   -1.6277403531806767E+00    8.4156698556645750E+00    1.0432778497741090E+01
Ga   -1.6022873828502473E+00    1.0275906476739001E+01    1.1071628590347716E+01
N   -1.5883507607918534E+00    1.0287549828284847E+01    1.3061787063912778E+01
Ga   -1.6312691991287609E+00    8.4189694365693803E+00    1.3620116423518464E+01
N   -1.6086125976293362E+00    8.4065089899129930E+00    1.5581602272667473E+01
Ga   -1.7788250481811174E+00    1.0182422286003490E+01    1.6475382884603061E+01
N    6.4304391212520846E+00    2.0245256254043591E+00    2.5314081623224007E+00
Ga    6.4416794899380863E+00    4.8644310284208660E-02    2.8664068573444905E+00
N    6.4287605952315729E+00    4.6149870036119783E-02    5.0221110434280316E+00
Ga    6.4280800355544345E+00    1.8786148212541380E+00    5.8038717583882642E+00
N    6.4265344252317949E+00    1.8949034358390224E+00    7.7971377554516907E+00
Ga    6.4275598225052137E+00    5.0913157904645248E-02    8.4475756976465952E+00
N    6.4237365079815145E+00    5.2654667070428991E-02    1.0417436490621999E+01
Ga    6.4233438359846540E+00    1.8936614608873934E+00    1.1069133892178778E+01
N    6.4198434810098579E+00    1.8762674918160862E+00    1.3059918212009105E+01
Ga    6.4203766384571903E+00    5.7361463068807524E-02    1.3871136943149240E+01
N    6.4200380802900829E+00    5.7243281900265973E-02    1.6063787021609006E+01
Ga    6.4166761347811576E+00    2.0995887871469856E+00    1.6479945478339957E+01
Ga    6.4353861612450576E+00    3.7535489842152208E+00    1.5214707114801176E+00
N    4.9301181267234657E+00    4.6232183549457027E+00    2.5208522433337643E+00
Ga    4.7103296118703106E+00    2.7727872636358484E+00    3.2915032790865779E+00
N    4.8199339018463228E+00    2.8304168545025097E+00    5.2517523105348882E+00
Ga    4.7942122395868667E+00    4.7028095633085796E+00    5.8009286301095759E+00
N    4.8095552281171008E+00    4.6973246246772309E+00    7.7962298968594252E+00
Ga    4.8268972902071514E+00    2.8401348503582904E+00    8.4362871506942199E+00
N    4.8269214661639603E+00    2.8449073005557133E+00    1.0427521089855997E+01
Ga    4.8008484431052292E+00    4.7039161455596572E+00    1.1068615525857409E+01
N    4.7803557943092905E+00    4.7169290782935214E+00    1.3059094685495641E+01
Ga    4.8226462179619070E+00    2.8484850265861414E+00    1.3618843029951540E+01
N    4.7938330424866642E+00    2.8357830779080793E+00    1.5578908811199652E+01
Ga    4.9726211778447551E+00    4.6052872498909840E+00    1.6480126519690991E+01
N    6.4222428309015269E+00    3.7679638976939835E+00    1.7620526802160622E+01
N    3.2103987154266038E+00    7.5886057905862607E+00    2.5043901061379250E+00
Ga    3.1821566777906751E+00    5.5945273800625106E+00    2.8337264469895085E+00
N    3.2131889813381647E+00    5.6152680569181852E+00    5.0216496560999087E+00
Ga    3.2212463234366631E+00    7.4360711334060401E+00    5.8042892084113449E+00
N    3.2102040689385967E+00    7.4667385971753797E+00    7.7963382963718084E+00
Ga    3.2106814740469996E+00    5.6195415591804743E+00    8.4472096117440483E+00
N    3.2074944687236138E+00    5.6244256722278578E+00    1.0417989324823990E+01
Ga    3.2088669592568317E+00    7.4631887939547088E+00    1.1073286303602542E+01
N    3.2037650352836553E+00    7.4467376278633575E+00    1.3063634408658761E+01
Ga    3.2050497351295348E+00    5.6265681390668449E+00    1.3871837253703163E+01
N    3.2004842279674719E+00    5.6295864240932492E+00    1.6063830627930361E+01
Ga    3.2006143060027239E+00    7.6751722403361891E+00    1.6480576320063946E+01
Ga    3.2513691360607400E+00    9.3497668542710244E+00    1.3924531913676561E+00
N    1.7074635144736994E+00    1.0189108504031225E+01    2.5130948400984296E+00
Ga    1.6047476683382018E+00    8.3893679967950092E+00    3.3200356385233252E+00
N    1.5940552915340680E+00    8.3939242398677596E+00    5.2520055872424978E+00
Ga    1.5817975212853299E+00    1.0279285243356034E+01    5.8065349778169377E+00
N    1.5925731434399826E+00    1.0265345722016587E+01    7.7966230396886527E+00
Ga    1.6167564656303306E+00    8.4129422467164670E+00    8.4478496180085916E+00
N    1.6120095121673899E+00    8.4158307805632493E+00    1.0433622787256958E+01
Ga    1.5848880588983694E+00    1.0275732525335089E+01    1.1072588341707647E+01
N    1.5641376458113045E+00    1.0287156966142142E+01    1.3062485217681164E+01
Ga    1.6062610038465965E+00    8.4187776099352902E+00    1.3621479653332559E+01
N    1.5723740312891803E+00    8.4048273316787405E+00    1.5579723645996756E+01
Ga    1.7630233922545515E+00    1.0173083906575714E+01    1.6481571282580813E+01
N    3.2071311906277220E+00    9.3389052875378002E+00    1.7613375372069346E+01
N    9.6574646240176136E+00    1.9010467246704470E+00    2.6286996804408673E+00
Ga    9.6530525233732227E+00    1.4843746326427829E-01    3.2772814927996476E+00
N    9.6435831472035094E+00    4.2282111679314380E-02    5.2483261284179559E+00
Ga    9.6520256220432561E+00    1.9020220184253931E+00    5.8714249434322667E+00
N    9.6425847403376075E+00    1.9045287847824295E+00    7.8478605165587263E+00
Ga    9.6451269827852766E+00    3.8693208686756540E-02    8.4375129335175121E+00
N    9.6396120075142591E+00    3.9081672259350782E-02    1.0428457651954721E+01
Ga    9.6394413215678405E+00    1.9093837725280132E+00    1.1024412761668033E+01
N    9.6351673257119277E+00    1.9125798080531875E+00    1.2992821337874050E+01
Ga    9.6358558679506601E+00    4.4438758328857922E-02    1.3619859329435243E+01
N    9.6314070434909844E+00    8.0518827531040213E-02    1.5578433373585995E+01
Ga    9.6316906051886875E+00    1.9167472136077182E+00    1.5862599871815107E+01
N    7.9332819708876379E+00    4.6227141919391004E+00    2.5293012947107902E+00
Ga    8.1496027762121006E+00    2.7676088048681549E+00    3.2977304564512782E+00
N    8.0375932864296775E+00    2.8299727588789931E+00    5.2566117589053629E+00
Ga    8.0624831297796558E+00    4.7019544577946073E+00    5.8006398577769804E+00
N    8.0457386242746818E+00    4.6979308701445897E+00    7.7954195233312662E+00
Ga    8.0268325480720311E+00    2.8398242249987491E+00    8.4363926024681017E+00
N    8.0205835433916270E+00    2.8446887017549050E+00    1.0427829482055710E+01
Ga    8.0451487057801678E+00    4.7034694407394610E+00    1.1068824898077070E+01
N    8.0588061626674730E+00    4.7166145766039183E+00    1.3059848713599260E+01
Ga    8.0165805538747215E+00    2.8476493925856539E+00    1.3619167429432423E+01
N    8.0392997899833603E+00    2.8347016368834330E+00    1.5579907218808685E+01
Ga    7.8640512542688397E+00    4.6072639792510852E+00    1.6479822763974767E+01
N    6.4293742627096773E+00    7.4709633846429231E+00    2.6073215313938425E+00
Ga    6.4272940359269022E+00    5.7321132748881682E+00    3.2917612309034210E+00
N    6.4294590089077195E+00    5.6170814576798520E+00    5.2514239190912226E+00
Ga    6.4268749160336514E+00    7.4749648424398139E+00    5.8719743301099401E+00
N    6.4272817712235080E+00    7.4772212942974585E+00    7.8444591607595378E+00
Ga    6.4272125275435661E+00    5.6094955389028360E+00    8.4362715408951843E+00
N    6.4236710375398705E+00    5.6113888359035107E+00    1.0426980211345089E+01
Ga    6.4235029018629861E+00    7.4805258876926395E+00    1.1025283756987172E+01
N    6.4195685023423872E+00    7.4837005097589175E+00    1.2994162852902500E+01
Ga    6.4189114035218120E+00    5.6144639488736860E+00    1.3619234325324712E+01
N    6.4155440663529477E+00    5.6456613711743966E+00    1.5579385857367974E+01
Ga    6.4179284751969279E+00    7.4845197328446416E+00    1.5859493623812840E+01
N    4.7213414662286484E+00    1.0195627823278530E+01    2.5193599914436473E+00
Ga    4.9116920803532169E+00    8.3469578199024426E+00    3.2708549164812792E+00
N    4.8199877898348324E+00    8.3996365602410688E+00    5.2422576315056189E+00
Ga    4.8486105527925503E+00    1.0272942850466933E+01    5.7967152371364365E+00
N    4.8287588996200359E+00    1.0266136068357181E+01    7.7946551456220527E+00
Ga    4.8103067448160370E+00    8.4125203527065668E+00    8.4380452410447901E+00
N    4.8048038891595253E+00    8.4147210604618916E+00    1.0428463423230099E+01
Ga    4.8303343852558154E+00    1.0274336289981726E+01    1.1070114960775436E+01
N    4.8434934379477799E+00    1.0287288275502586E+01    1.3061441278587788E+01
Ga    4.8003316649424042E+00    8.4192199087985813E+00    1.3619870135496386E+01
N    4.8287345061971116E+00    8.4031648129470913E+00    1.5579941369461755E+01
Ga    4.6441665409526021E+00    1.0176481423735234E+01    1.6479865408299183E+01
O   -2.6846179134218769E-02    3.5808686508450758E+00   -4.8915503674584032E-01
H    5.1223643744016138E-03    7.4566299485756149E+00    1.6723311629386135E+00
C    6.3812485538510400E-01    2.3952920075998572E+00   -9.6895614436115618E-01
H    1.7007690739279739E+00    2.3696611472434657E+00   -6.8029085962983793E-01
H    1.6087459497141809E-01    1.4741788014814876E+00   -5.9089342951014401E-01
H    5.6542395831062997E-01    2.3965594597272593E+00   -2.0674916556838823E+00
     &END COORD
     &KIND C
       BASIS_SET DZVP-MOLOPT-SR-GTH-q4
       POTENTIAL GTH-PBE-q4
       &POTENTIAL
 2 2
  0.3384712400000000E+00 2 -0.8803673979999999E+01  0.1339210850000000E+01
 2
  0.3025757500000000E+00 1  0.9622486650000001E+01
  0.2915069400000000E+00 0
         # Potential name:  GTH-PBE-Q4  for symbol:  C
         # Potential read from the potential filename: GTH_POTENTIALS
       &END POTENTIAL
     &END KIND
     &KIND O
       BASIS_SET DZVP-MOLOPT-SR-GTH-q6
       POTENTIAL GTH-PBE-q6
       &POTENTIAL
 2 4
  0.2445543000000000E+00 2 -0.1666721480000000E+02  0.2487311320000000E+01
 2
  0.2209559200000000E+00 1  0.1833745811000000E+02
  0.2113324700000000E+00 0
         # Potential name:  GTH-PBE-Q6  for symbol:  O
         # Potential read from the potential filename: GTH_POTENTIALS
       &END POTENTIAL
     &END KIND
     &KIND H
       BASIS_SET DZVP-MOLOPT-SR-GTH-q1
       POTENTIAL GTH-PBE-q1
       &POTENTIAL
 1
  0.2000000000000000E+00 2 -0.4178900440000000E+01  0.7244633100000000E+00
 0
         # Potential name:  GTH-PBE-Q1  for symbol:  H
         # Potential read from the potential filename: GTH_POTENTIALS
       &END POTENTIAL
     &END KIND
     &KIND N
       BASIS_SET DZVP-MOLOPT-SR-GTH
       POTENTIAL GTH-PBE-q5
       &POTENTIAL
 2 3
  0.2837905100000000E+00 2 -0.1241522559000000E+02  0.1868095920000000E+01
 2
  0.2554050000000000E+00 1  0.1363026257000000E+02
  0.2454945300000000E+00 0
         # Potential name:  GTH-PBE-Q5  for symbol:  N
         # Potential read from the potential filename: GTH_POTENTIALS
       &END POTENTIAL
     &END KIND
     &KIND Ga
       BASIS_SET DZVP-MOLOPT-SR-GTH
       POTENTIAL GTH-PBE-q13
       &POTENTIAL
 2 1 10
  0.4900000000000000E+00 0
 3
  0.4167772300000000E+00 3  0.1047568975000000E+02 -0.4921768140000000E+01  0.8707055900000000E+00
  0.7770178090000000E+01 -0.2248152160000000E+01
  0.1784415450000000E+01
  0.5696265200000000E+00 2  0.1777985340000000E+01  0.1958597600000000E+00
 -0.2317443900000000E+00
  0.2381265000000000E+00 1 -0.1624868022000000E+02
         # Potential name:  GTH-PBE-Q13  for symbol:  GA
         # Potential read from the potential filename: GTH_POTENTIALS
       &END POTENTIAL
     &END KIND
     &TOPOLOGY
       NUMBER_OF_ATOMS  206
       MULTIPLE_UNIT_CELL  1 1 1
     &END TOPOLOGY
   &END SUBSYS
 &END FORCE_EVAL
