 # Version information for this restart file 
 # current date 2019-06-24 16:00:03.984
 # current working dir /scratch/rzk/rzk/GaN-carbene/443-adatoms-both-2x2/03-DissMethanol/04-O-GaTop-H-NSur
 # Program compiled at                              Sun Apr  7 00:48:11 EDT 2019
 # Program compiled on                          beluga2.int.ets1.calculquebec.ca
 # Program compiled for                        Beluga-Linux-x86-64-intel-openmpi
 # Source code revision number                                         svn:18619
 &GLOBAL
   PRINT_LEVEL  MEDIUM
   PROJECT_NAME TEST
   RUN_TYPE  GEO_OPT
 &END GLOBAL
 &MOTION
   &GEO_OPT
     MAX_ITER  500
     STEP_START_VAL  9
   &END GEO_OPT
 &END MOTION
 &FORCE_EVAL
   METHOD  QS
   STRESS_TENSOR  ANALYTICAL
   &DFT
     BASIS_SET_FILE_NAME BASIS_MOLOPT
     POTENTIAL_FILE_NAME GTH_POTENTIALS
     UKS  T
     SURFACE_DIPOLE_CORRECTION  T
     SURF_DIP_DIR  Z
     &SCF
       MAX_SCF  80
       EPS_SCF     5.0000000000000004E-06
       &OT  T
         PRECONDITIONER  FULL_ALL
       &END OT
       &OUTER_SCF  T
         OPTIMIZER  NONE
         EPS_SCF     5.0000000000000004E-06
         MAX_SCF  4
       &END OUTER_SCF
       &PRINT
         &RESTART  OFF
           BACKUP_COPIES  1
           &EACH
             JUST_ENERGY  0
             QS_SCF  0
             MD  20
           &END EACH
         &END RESTART
       &END PRINT
     &END SCF
     &QS
       EPS_DEFAULT     1.0000000000000000E-14
       METHOD  GPW
     &END QS
     &MGRID
       NGRIDS  5
       CUTOFF     1.2000000000000000E+03
     &END MGRID
     &XC
       DENSITY_CUTOFF     1.0000000000000000E-10
       GRADIENT_CUTOFF     1.0000000000000000E-10
       TAU_CUTOFF     1.0000000000000000E-10
       &XC_FUNCTIONAL  NO_SHORTCUT
         &PBE  T
         &END PBE
       &END XC_FUNCTIONAL
       &VDW_POTENTIAL
         POTENTIAL_TYPE  PAIR_POTENTIAL
         &PAIR_POTENTIAL
           R_CUTOFF     1.0000000000000004E+01
           TYPE  DFTD3
           PARAMETER_FILE_NAME dftd3.dat
           REFERENCE_FUNCTIONAL PBE
           EPS_CN     9.9999999999999995E-07
           CALCULATE_C9_TERM  T
           REFERENCE_C9_TERM  T
           LONG_RANGE_CORRECTION  F
           VERBOSE_OUTPUT  F
         &END PAIR_POTENTIAL
       &END VDW_POTENTIAL
     &END XC
   &END DFT
   &SUBSYS
     &CELL
       A     1.2864472766435110E+01    0.0000000000000000E+00    0.0000000000000000E+00
       B    -6.4322363581020028E+00    1.1140960178524473E+01    0.0000000000000000E+00
       C     0.0000000000000000E+00    0.0000000000000000E+00    3.2000000000000000E+01
       MULTIPLE_UNIT_CELL  1 1 1
       &CELL_REF
         A     1.2982353780853531E+01    0.0000000000000000E+00    0.0000000000000000E+00
         B    -6.4911768904267628E+00    1.1243048175136114E+01    0.0000000000000000E+00
         C     0.0000000000000000E+00    0.0000000000000000E+00    3.2000000000000000E+01
         MULTIPLE_UNIT_CELL  1 1 1
       &END CELL_REF
     &END CELL
     &COORD
N   -1.1101395175049896E-02    2.0470134146663463E+00    2.5214844688535081E+00
Ga   -1.2708852535340173E-02    9.9577832047392678E-02    2.8478192754336402E+00
N   -1.3515966579273698E-02    5.5113164988315554E-02    5.0141940253842430E+00
Ga   -1.4022040729780541E-02    1.8913213604655066E+00    5.7846971973197201E+00
N   -1.3379469360440054E-02    1.9027659934976004E+00    7.7852638459764085E+00
Ga   -1.2989125006753113E-02    5.9155644182631154E-02    8.4379622596261825E+00
N   -1.1650890701888673E-02    5.6172016529231088E-02    1.0408679732068071E+01
Ga   -1.1809417897381866E-02    1.8957065613425099E+00    1.1065797135438585E+01
N   -1.1778043270046352E-02    1.8759069922374834E+00    1.3054285273773203E+01
Ga   -1.1185167792591091E-02    5.6609090008512788E-02    1.3871995806317090E+01
N   -1.0478930374026333E-02    5.6882483571624579E-02    1.6056020356206432E+01
Ga   -1.0374956682837054E-02    2.1034523349124110E+00    1.6475527819474550E+01
Ga   -8.6942553335267875E-03    3.7052240539173558E+00    1.3093558311100266E+00
N   -1.4887413885697669E+00    4.6321305946349165E+00    2.4624224376379922E+00
Ga   -1.6878000837166136E+00    2.7984102453204889E+00    3.2525331110957567E+00
N   -1.6243630300791880E+00    2.8452722880656993E+00    5.2362723320362532E+00
Ga   -1.6507384155700684E+00    4.7066348180420761E+00    5.7965844327278120E+00
N   -1.6298809083300574E+00    4.7064568506870463E+00    7.7884007640516097E+00
Ga   -1.6105372971410963E+00    2.8461977000111602E+00    8.4302138883248787E+00
N   -1.6089104907750815E+00    2.8486871613986358E+00    1.0420322525576434E+01
Ga   -1.6360790162046110E+00    4.7065017669089535E+00    1.1067469128059235E+01
N   -1.6522703964309398E+00    4.7176524259911083E+00    1.3054833430584585E+01
Ga   -1.6100836210709821E+00    2.8475000814753435E+00    1.3614038221491432E+01
N   -1.6393975965913090E+00    2.8320656439193788E+00    1.5569501347072055E+01
Ga   -1.4469475188220300E+00    4.5987391739852033E+00    1.6478641235883060E+01
N   -4.1798803427261898E-03    3.7656083776326992E+00    1.7603559029040085E+01
N   -3.2225894881493664E+00    7.6046763936860611E+00    2.4960287886306087E+00
Ga   -3.2003299885095347E+00    5.5999580377725620E+00    2.8211745790863461E+00
N   -3.2252797349473186E+00    5.6269856775421152E+00    5.0017335588469427E+00
Ga   -3.2358172594398944E+00    7.4445215172713075E+00    5.7973412164904277E+00
N   -3.2277680432614084E+00    7.4735818800022358E+00    7.7852098032604244E+00
Ga   -3.2285893034885942E+00    5.6264077867360935E+00    8.4415595282478897E+00
N   -3.2282327143878811E+00    5.6282018233990705E+00    1.0409959934786237E+01
Ga   -3.2286171332109110E+00    7.4664498187599371E+00    1.1068941863109348E+01
N   -3.2272914393624603E+00    7.4473990959286729E+00    1.3057022713816197E+01
Ga   -3.2274171551154569E+00    5.6268447688135135E+00    1.3870895811419757E+01
N   -3.2253925780194503E+00    5.6258030101922056E+00    1.6060029025044908E+01
Ga   -3.2272298845064142E+00    7.6691159209465329E+00    1.6480413906524547E+01
Ga   -3.2637515436239131E+00    9.3676616850017371E+00    1.4481340992333747E+00
N   -4.7352274183921335E+00    1.0210909019417480E+01    2.5169612934771144E+00
Ga   -4.9379255478992192E+00    8.3547944098631675E+00    3.2723908407962177E+00
N   -4.8343899654276932E+00    8.4110899330691975E+00    5.2351391614716301E+00
Ga   -4.8656315292710834E+00    1.0284409113104571E+01    5.7939803225746056E+00
N   -4.8462179737056683E+00    1.0274117891317177E+01    7.7864875590107028E+00
Ga   -4.8280105121384480E+00    8.4192356304824578E+00    8.4329035550728495E+00
N   -4.8241197846507982E+00    8.4187271070993219E+00    1.0421023384726142E+01
Ga   -4.8515338882813825E+00    1.0278152312197321E+01    1.1067006088167702E+01
N   -4.8673058620860044E+00    1.0287376430561421E+01    1.3055778783322046E+01
Ga   -4.8245463460197824E+00    8.4191011086339511E+00    1.3617987198828132E+01
N   -4.8492898693543891E+00    8.4043876606324783E+00    1.5576529787884779E+01
Ga   -4.6715413285679821E+00    1.0175298904992786E+01    1.6478442522068594E+01
N   -3.2220972852837746E+00    9.3387620813527974E+00    1.7623487999961327E+01
N    3.1942308755346596E+00    1.9186812721959912E+00    2.6102354219306987E+00
Ga    3.1963895186302249E+00    1.7786611552140502E-01    3.2811623974668667E+00
N    3.2043045267593282E+00    5.4470957115536019E-02    5.2424708452331217E+00
Ga    3.1954835170754397E+00    1.9166514326794521E+00    5.8687249126808245E+00
N    3.2038480796078930E+00    1.9128760986350997E+00    7.8411833839453919E+00
Ga    3.2015840413930055E+00    4.6847861678630025E-02    8.4338270612188460E+00
N    3.2046243187289996E+00    4.2794840814739429E-02    1.0422070791042261E+01
Ga    3.2052554892468654E+00    1.9132510128259814E+00    1.1020811005475764E+01
N    3.2064511424348199E+00    1.9123723147277731E+00    1.2987489530197486E+01
Ga    3.2045698738670225E+00    4.3899269206189993E-02    1.3617568128084395E+01
N    3.2050661353706982E+00    7.3052034486336459E-02    1.5576042310467619E+01
Ga    3.2072699822870101E+00    1.9127716722401906E+00    1.5855627365288969E+01
N    1.4753474863857019E+00    4.6338946171080524E+00    2.4912785020981620E+00
Ga    1.6644596700654544E+00    2.8003040257726699E+00    3.2638231239532689E+00
N    1.5988022872357786E+00    2.8439215341551245E+00    5.2445281294394555E+00
Ga    1.6244939272320043E+00    4.7079427328828789E+00    5.7991319952795743E+00
N    1.6041132838376100E+00    4.7070530242334332E+00    7.7907079723171844E+00
Ga    1.5840721411585739E+00    2.8463603743626056E+00    8.4312369601622930E+00
N    1.5856053816733493E+00    2.8481520604954831E+00    1.0422111125187707E+01
Ga    1.6122530129710912E+00    4.7063903252183872E+00    1.1068375641448888E+01
N    1.6289789596443445E+00    4.7177468791304857E+00    1.3055612846242644E+01
Ga    1.5863689974914177E+00    2.8474756772076715E+00    1.3613993883093013E+01
N    1.6181250255478912E+00    2.8296291338679973E+00    1.5569589084874115E+01
Ga    1.4324620440146345E+00    4.6023023005788373E+00    1.6475745409543862E+01
N   -1.4678947932462168E-02    7.4707342442271933E+00    2.6898661308391469E+00
Ga   -9.6483230367867198E-03    5.6020803649450457E+00    3.3056253921789023E+00
N   -1.4090344940934611E-02    5.6409076736438966E+00    5.2442983087709178E+00
Ga   -1.4328278810253005E-02    7.4751401234466668E+00    5.8993784694866171E+00
N   -1.3320329769854460E-02    7.4846341411994235E+00    7.8525318661530914E+00
Ga   -1.3087943862311793E-02    5.6119425299420334E+00    8.4413468200051796E+00
N   -1.2110756527750257E-02    5.6144602248981839E+00    1.0425764977663178E+01
Ga   -1.2196736621341187E-02    7.4841845758324119E+00    1.1024021999655513E+01
N   -1.2636874917246552E-02    7.4851283479471800E+00    1.2987423652085827E+01
Ga   -1.1831956367128291E-02    5.6155188579217583E+00    1.3615447892664305E+01
N   -1.2735564233243981E-02    5.6495217518447749E+00    1.5570544092242168E+01
Ga   -1.2580476574256589E-02    7.4847281736128677E+00    1.5860156366803512E+01
N   -1.7234530793497753E+00    1.0201421003638686E+01    2.5099700710479462E+00
Ga   -1.6046986506143102E+00    8.3944001123990155E+00    3.3194981424511072E+00
N   -1.6095585073293164E+00    8.4049386579609173E+00    5.2452930458932627E+00
Ga   -1.5968104789122097E+00    1.0290783526773430E+01    5.8034592919913486E+00
N   -1.6108383904296932E+00    1.0273260320175233E+01    7.7885810332812095E+00
Ga   -1.6335820830675984E+00    8.4191824555400636E+00    8.4408042998051229E+00
N   -1.6316962291831905E+00    8.4192279448530645E+00    1.0424536834960222E+01
Ga   -1.6051440119421736E+00    1.0278711362529256E+01    1.1069220431696618E+01
N   -1.5873095945299385E+00    1.0287400746038513E+01    1.3057164636992189E+01
Ga   -1.6305841436969399E+00    8.4189919858445936E+00    1.3619301837329036E+01
N   -1.6053105713041567E+00    8.4045354442093281E+00    1.5577999384609958E+01
Ga   -1.7788789059214454E+00    1.0177582496470444E+01    1.6480378622531578E+01
N    6.4184923445309927E+00    2.0399732648173425E+00    2.5266440842521085E+00
Ga    6.4181834690614981E+00    6.7863927934923060E-02    2.8663513661494782E+00
N    6.4180313559315492E+00    5.7167394720463643E-02    5.0136320072317675E+00
Ga    6.4193451061923925E+00    1.8916767177572456E+00    5.7967134532395450E+00
N    6.4194427906276150E+00    1.9029098279844059E+00    7.7876276332361067E+00
Ga    6.4190853237310801E+00    5.9264747629795014E-02    8.4430781785300546E+00
N    6.4197472288973580E+00    5.6875630710013315E-02    1.0410514678619430E+01
Ga    6.4209902891192376E+00    1.8975157064613841E+00    1.1065884677570738E+01
N    6.4211888603816005E+00    1.8766085205304783E+00    1.3054889146723077E+01
Ga    6.4213877469299643E+00    5.6922294262971553E-02    1.3871747804149408E+01
N    6.4229625212058696E+00    5.6041863976749318E-02    1.6060224464532897E+01
Ga    6.4212986803330416E+00    2.0966875794905935E+00    1.6478826378712583E+01
Ga    6.4165308972086903E+00    3.7661554722533106E+00    1.5110843647210308E+00
N    4.9185197399934175E+00    4.6369274348053926E+00    2.5195443307047953E+00
Ga    4.7003587181285829E+00    2.7858637924054879E+00    3.2904972328557434E+00
N    4.8086188288252032E+00    2.8426429643061875E+00    5.2480023269253238E+00
Ga    4.7858110981660973E+00    4.7155259376083052E+00    5.7955579171571765E+00
N    4.8017630527122011E+00    4.7064627675774018E+00    7.7880357615047417E+00
Ga    4.8203730339323760E+00    2.8484389922203310E+00    8.4318910080160165E+00
N    4.8240336037032394E+00    2.8489820304417686E+00    1.0420960245611942E+01
Ga    4.7981073121372830E+00    4.7076625943181094E+00    1.1066363845149921E+01
N    4.7813501156989400E+00    4.7172154317157027E+00    1.3054934156705418E+01
Ga    4.8242027075493894E+00    2.8483795408303370E+00    1.3616124306037747E+01
N    4.7995827113592053E+00    2.8338936730233666E+00    1.5574978324405736E+01
Ga    4.9764709373383518E+00    4.6037330086954134E+00    1.6477324838237855E+01
N    6.4264898124758680E+00    3.7661907033744146E+00    1.7622522160120610E+01
N    3.1948418687085853E+00    7.6060859340435076E+00    2.5029261542230210E+00
Ga    3.1750907249107003E+00    5.6004605360891180E+00    2.8376335218993249E+00
N    3.2024452951570890E+00    5.6294166789037767E+00    5.0133263846482219E+00
Ga    3.2088509486296068E+00    7.4471810790391837E+00    5.8023122376458902E+00
N    3.2015317136589938E+00    7.4751375924215484E+00    7.7890516726012047E+00
Ga    3.2033942111633507E+00    5.6270989655753771E+00    8.4437155793529062E+00
N    3.2044610658440220E+00    5.6280456620718233E+00    1.0411405168266954E+01
Ga    3.2051534051871600E+00    7.4664432471547340E+00    1.1069500954151730E+01
N    3.2042667764111630E+00    7.4469956694037425E+00    1.3056317548267787E+01
Ga    3.2053977170790682E+00    5.6269101881218475E+00    1.3872531954111643E+01
N    3.2055980591574578E+00    5.6263778978300962E+00    1.6056083448421681E+01
Ga    3.2061484877343274E+00    7.6764174042616995E+00    1.6478405668989215E+01
Ga    3.2351549279577054E+00    9.3652363151985671E+00    1.4508130709658238E+00
N    1.6950423389196427E+00    1.0201919323728378E+01    2.5107643892780267E+00
Ga    1.5752876985803699E+00    8.3952993072931221E+00    3.3215197793094315E+00
N    1.5811863517712752E+00    8.4052458092546765E+00    5.2472138409774800E+00
Ga    1.5689661354868152E+00    1.0291810599784428E+01    5.8031562360092508E+00
N    1.5842046460212149E+00    1.0273831872305646E+01    7.7883372934677855E+00
Ga    1.6067835043919718E+00    8.4200421396848633E+00    8.4420303099936937E+00
N    1.6073119766308208E+00    8.4195215440490898E+00    1.0425204427442896E+01
Ga    1.5812198188514455E+00    1.0279556823152092E+01    1.1068371859131407E+01
N    1.5640677607854452E+00    1.0288030791673419E+01    1.3055402968342030E+01
Ga    1.6065031782862629E+00    8.4188763437629657E+00    1.3617088537224133E+01
N    1.5768222320111964E+00    8.4027543367743256E+00    1.5571923683266016E+01
Ga    1.7711095673810890E+00    1.0169332340537713E+01    1.6481508169396879E+01
N    3.2125555508266577E+00    9.3373022126613971E+00    1.7607225445891892E+01
N    9.6440391213435337E+00    1.9188940548334832E+00    2.6081567481742560E+00
Ga    9.6415765268032878E+00    1.7843400550482563E-01    3.2795132614212634E+00
N    9.6327114935295164E+00    5.4727923874171136E-02    5.2410471158114147E+00
Ga    9.6432161766010616E+00    1.9180296875428169E+00    5.8628897846095791E+00
N    9.6352130546517323E+00    1.9136294707468848E+00    7.8365977981339121E+00
Ga    9.6368280476831885E+00    4.8114347000597073E-02    8.4320450345323366E+00
N    9.6358467503960625E+00    4.3587165767561720E-02    1.0420320650663234E+01
Ga    9.6361812645235680E+00    1.9140513986391379E+00    1.1019356286593958E+01
N    9.6353477604776305E+00    1.9139005329669134E+00    1.2984562550032763E+01
Ga    9.6366834588075623E+00    4.5502677732365583E-02    1.3615548064576256E+01
N    9.6356961019972456E+00    7.9107505486051999E-02    1.5570790774201679E+01
Ga    9.6355063026372925E+00    1.9146934661850084E+00    1.5858512039165790E+01
N    7.9206264312715975E+00    4.6375218749563993E+00    2.5135953219438472E+00
Ga    8.1383599068120400E+00    2.7867218501925537E+00    3.2857148859234599E+00
N    8.0289705836583920E+00    2.8426024487280519E+00    5.2436819215584149E+00
Ga    8.0547250110398529E+00    4.7153130661617304E+00    5.7896461999595106E+00
N    8.0382162898175338E+00    4.7067171824812783E+00    7.7837496675099276E+00
Ga    8.0194920986926626E+00    2.8489110684079235E+00    8.4289495223651425E+00
N    8.0171146885424882E+00    2.8491373647137350E+00    1.0418584095596266E+01
Ga    8.0432664560899187E+00    4.7070838347283903E+00    1.1065637254888223E+01
N    8.0609121561458039E+00    4.7171124347495299E+00    1.3054757921398890E+01
Ga    8.0179715007883221E+00    2.8482886096174687E+00    1.3616347640683244E+01
N    8.0426511519368020E+00    2.8340837946431758E+00    1.5575776610731737E+01
Ga    7.8699647013411562E+00    4.6059981369134402E+00    1.6478844505677763E+01
N    6.4173550844060001E+00    7.4843737318229797E+00    2.5954511428517697E+00
Ga    6.4193650253008245E+00    5.7455459866698417E+00    3.2828892681265782E+00
N    6.4197259421012030E+00    5.6305886170331787E+00    5.2413365012941862E+00
Ga    6.4186912819620616E+00    7.4865098372102734E+00    5.8661132076743359E+00
N    6.4191244990386735E+00    7.4859511294859198E+00    7.8362879984100422E+00
Ga    6.4205568210704591E+00    5.6170595428098897E+00    8.4307792262376342E+00
N    6.4208887370321168E+00    5.6147853282661506E+00    1.0419745696199785E+01
Ga    6.4216934180668348E+00    7.4834155781214395E+00    1.1022014818186340E+01
N    6.4223118730990549E+00    7.4831955626837683E+00    1.2988281002072780E+01
Ga    6.4210280602109178E+00    5.6138898418329415E+00    1.3616747620398090E+01
N    6.4212788160442118E+00    5.6426756097787889E+00    1.5575673441691869E+01
Ga    6.4231580525306153E+00    7.4823347531529523E+00    1.5856258837737245E+01
N    4.7085937455976055E+00    1.0211483047378444E+01    2.5173748110229748E+00
Ga    4.9096249289263723E+00    8.3563221015634745E+00    3.2753078025748947E+00
N    4.8072137547238478E+00    8.4123537881803188E+00    5.2377322853420907E+00
Ga    4.8385175951725534E+00    1.0285506264023955E+01    5.7942205685995800E+00
N    4.8200657363631016E+00    1.0274684857684024E+01    7.7867242387797084E+00
Ga    4.8026009320296978E+00    8.4202572882042599E+00    8.4348946790163914E+00
N    4.8016535536340630E+00    8.4185417894909200E+00    1.0422646920768477E+01
Ga    4.8278113112769372E+00    1.0278780280743877E+01    1.1066663257473014E+01
N    4.8448471563029853E+00    1.0288243477780696E+01    1.3054782146981426E+01
Ga    4.8025387519528042E+00    8.4187930303083167E+00    1.3615428007596192E+01
N    4.8343160988093850E+00    8.4002656903011452E+00    1.5570896305227194E+01
Ga    4.6473650933171688E+00    1.0172881791347329E+01    1.6477988634571322E+01
O    1.1423861367464848E-01    3.4687009724911779E+00   -4.9276722377854237E-01
H   -1.5771908367857003E-02    7.4666666068191718E+00    1.6642478936255598E+00
C    7.1497180499828017E-01    2.2052632823653835E+00   -8.4600636411487351E-01
H    1.7917305950071649E+00    2.1802245016723480E+00   -6.1524328961098107E-01
H    2.3898694074659965E-01    1.3567430796666908E+00   -3.2670682454676531E-01
H    5.8022449800182940E-01    2.0657715326858317E+00   -1.9274293733019110E+00
     &END COORD
     &KIND C
       BASIS_SET DZVP-MOLOPT-SR-GTH-q4
       POTENTIAL GTH-PBE-q4
       &POTENTIAL
 2 2
  0.3384712400000000E+00 2 -0.8803673979999999E+01  0.1339210850000000E+01
 2
  0.3025757500000000E+00 1  0.9622486650000001E+01
  0.2915069400000000E+00 0
         # Potential name:  GTH-PBE-Q4  for symbol:  C
         # Potential read from the potential filename: GTH_POTENTIALS
       &END POTENTIAL
     &END KIND
     &KIND O
       BASIS_SET DZVP-MOLOPT-SR-GTH-q6
       POTENTIAL GTH-PBE-q6
       &POTENTIAL
 2 4
  0.2445543000000000E+00 2 -0.1666721480000000E+02  0.2487311320000000E+01
 2
  0.2209559200000000E+00 1  0.1833745811000000E+02
  0.2113324700000000E+00 0
         # Potential name:  GTH-PBE-Q6  for symbol:  O
         # Potential read from the potential filename: GTH_POTENTIALS
       &END POTENTIAL
     &END KIND
     &KIND H
       BASIS_SET DZVP-MOLOPT-SR-GTH-q1
       POTENTIAL GTH-PBE-q1
       &POTENTIAL
 1
  0.2000000000000000E+00 2 -0.4178900440000000E+01  0.7244633100000000E+00
 0
         # Potential name:  GTH-PBE-Q1  for symbol:  H
         # Potential read from the potential filename: GTH_POTENTIALS
       &END POTENTIAL
     &END KIND
     &KIND N
       BASIS_SET DZVP-MOLOPT-SR-GTH
       POTENTIAL GTH-PBE-q5
       &POTENTIAL
 2 3
  0.2837905100000000E+00 2 -0.1241522559000000E+02  0.1868095920000000E+01
 2
  0.2554050000000000E+00 1  0.1363026257000000E+02
  0.2454945300000000E+00 0
         # Potential name:  GTH-PBE-Q5  for symbol:  N
         # Potential read from the potential filename: GTH_POTENTIALS
       &END POTENTIAL
     &END KIND
     &KIND Ga
       BASIS_SET DZVP-MOLOPT-SR-GTH
       POTENTIAL GTH-PBE-q13
       &POTENTIAL
 2 1 10
  0.4900000000000000E+00 0
 3
  0.4167772300000000E+00 3  0.1047568975000000E+02 -0.4921768140000000E+01  0.8707055900000000E+00
  0.7770178090000000E+01 -0.2248152160000000E+01
  0.1784415450000000E+01
  0.5696265200000000E+00 2  0.1777985340000000E+01  0.1958597600000000E+00
 -0.2317443900000000E+00
  0.2381265000000000E+00 1 -0.1624868022000000E+02
         # Potential name:  GTH-PBE-Q13  for symbol:  GA
         # Potential read from the potential filename: GTH_POTENTIALS
       &END POTENTIAL
     &END KIND
     &TOPOLOGY
       NUMBER_OF_ATOMS  206
       MULTIPLE_UNIT_CELL  1 1 1
     &END TOPOLOGY
   &END SUBSYS
 &END FORCE_EVAL
