 # Version information for this restart file 
 # current date 2019-06-24 17:37:54.572
 # current working dir /scratch/rzk/rzk/GaN-carbene/443-adatoms-both-2x2/03-DissMethanol/04-O-GaTop-H-NSur
 # Program compiled at                              Sun Apr  7 00:48:11 EDT 2019
 # Program compiled on                          beluga2.int.ets1.calculquebec.ca
 # Program compiled for                        Beluga-Linux-x86-64-intel-openmpi
 # Source code revision number                                         svn:18619
 &GLOBAL
   PRINT_LEVEL  MEDIUM
   PROJECT_NAME TEST
   RUN_TYPE  GEO_OPT
 &END GLOBAL
 &MOTION
   &GEO_OPT
     MAX_ITER  500
     STEP_START_VAL  21
   &END GEO_OPT
 &END MOTION
 &FORCE_EVAL
   METHOD  QS
   STRESS_TENSOR  ANALYTICAL
   &DFT
     BASIS_SET_FILE_NAME BASIS_MOLOPT
     POTENTIAL_FILE_NAME GTH_POTENTIALS
     UKS  T
     SURFACE_DIPOLE_CORRECTION  T
     SURF_DIP_DIR  Z
     &SCF
       MAX_SCF  80
       EPS_SCF     5.0000000000000004E-06
       &OT  T
         PRECONDITIONER  FULL_ALL
       &END OT
       &OUTER_SCF  T
         OPTIMIZER  NONE
         EPS_SCF     5.0000000000000004E-06
         MAX_SCF  4
       &END OUTER_SCF
       &PRINT
         &RESTART  OFF
           BACKUP_COPIES  1
           &EACH
             JUST_ENERGY  0
             QS_SCF  0
             MD  20
           &END EACH
         &END RESTART
       &END PRINT
     &END SCF
     &QS
       EPS_DEFAULT     1.0000000000000000E-14
       METHOD  GPW
     &END QS
     &MGRID
       NGRIDS  5
       CUTOFF     1.2000000000000000E+03
     &END MGRID
     &XC
       DENSITY_CUTOFF     1.0000000000000000E-10
       GRADIENT_CUTOFF     1.0000000000000000E-10
       TAU_CUTOFF     1.0000000000000000E-10
       &XC_FUNCTIONAL  NO_SHORTCUT
         &PBE  T
         &END PBE
       &END XC_FUNCTIONAL
       &VDW_POTENTIAL
         POTENTIAL_TYPE  PAIR_POTENTIAL
         &PAIR_POTENTIAL
           R_CUTOFF     1.0000000000000004E+01
           TYPE  DFTD3
           PARAMETER_FILE_NAME dftd3.dat
           REFERENCE_FUNCTIONAL PBE
           EPS_CN     9.9999999999999995E-07
           CALCULATE_C9_TERM  T
           REFERENCE_C9_TERM  T
           LONG_RANGE_CORRECTION  F
           VERBOSE_OUTPUT  F
         &END PAIR_POTENTIAL
       &END VDW_POTENTIAL
     &END XC
   &END DFT
   &SUBSYS
     &CELL
       A     1.2864472766435110E+01    0.0000000000000000E+00    0.0000000000000000E+00
       B    -6.4322363581020028E+00    1.1140960178524473E+01    0.0000000000000000E+00
       C     0.0000000000000000E+00    0.0000000000000000E+00    3.2000000000000000E+01
       MULTIPLE_UNIT_CELL  1 1 1
       &CELL_REF
         A     1.2982353780853531E+01    0.0000000000000000E+00    0.0000000000000000E+00
         B    -6.4911768904267628E+00    1.1243048175136114E+01    0.0000000000000000E+00
         C     0.0000000000000000E+00    0.0000000000000000E+00    3.2000000000000000E+01
         MULTIPLE_UNIT_CELL  1 1 1
       &END CELL_REF
     &END CELL
     &COORD
N   -7.8139075459203056E-03    2.0374134383065519E+00    2.5215800849122387E+00
Ga   -1.2151127188063873E-02    8.9591825634913913E-02    2.8446734413918815E+00
N   -4.2319572721863773E-03    4.7321610231797082E-02    5.0188661352731554E+00
Ga   -3.3208240255563023E-03    1.8817994432847847E+00    5.7911684794907741E+00
N   -7.0736862918976337E-03    1.8979572876400947E+00    7.7919999156151407E+00
Ga   -8.0035816675763129E-03    5.4335927951768635E-02    8.4415459334339431E+00
N   -1.0724636987339374E-02    5.4963404289532926E-02    1.0413323122037252E+01
Ga   -1.0707633383584783E-02    1.8949749543981962E+00    1.1067331039997482E+01
N   -1.3050354055812908E-02    1.8766173103028436E+00    1.3057967417816624E+01
Ga   -1.3103852113139372E-02    5.6712069550084385E-02    1.3868819889526140E+01
N   -1.5197628525892480E-02    5.7835239301369454E-02    1.6061263653359273E+01
Ga   -1.4167547266856458E-02    2.1019880932350512E+00    1.6476699790003774E+01
Ga   -4.0744277278741116E-02    3.7143080025018937E+00    1.3169808958243161E+00
N   -1.4850996288855947E+00    4.6232778673027273E+00    2.4872250896144910E+00
Ga   -1.6795458715284037E+00    2.7829206216536164E+00    3.2728914349317861E+00
N   -1.6158070683169536E+00    2.8370213058684191E+00    5.2513152410799471E+00
Ga   -1.6418723974198084E+00    4.7007149714451142E+00    5.8040282634204647E+00
N   -1.6245681078146017E+00    4.7026281280348305E+00    7.7959745621929732E+00
Ga   -1.6054372191033297E+00    2.8414438748248672E+00    8.4333758075365903E+00
N   -1.6074712069529491E+00    2.8471580631695979E+00    1.0425008663211951E+01
Ga   -1.6347550401069997E+00    4.7047285788824738E+00    1.1069957299673355E+01
N   -1.6530957847697509E+00    4.7174714270004152E+00    1.3059175917160090E+01
Ga   -1.6109835313238396E+00    2.8477530166348788E+00    1.3616772645987602E+01
N   -1.6411716775120397E+00    2.8330984398000707E+00    1.5574371074265807E+01
Ga   -1.4538802917055789E+00    4.6022162699775491E+00    1.6478105401782866E+01
N   -8.0001297147173460E-03    3.7678480631141724E+00    1.7605041230444677E+01
N   -3.2099856210160009E+00    7.5948980780454560E+00    2.5089886275664921E+00
Ga   -3.1940787176520997E+00    5.5878126359976825E+00    2.8394424910382976E+00
N   -3.2187195392233647E+00    5.6193755793863440E+00    5.0110954065516964E+00
Ga   -3.2268131142722409E+00    7.4386378000862710E+00    5.8046250658104119E+00
N   -3.2217319573990872E+00    7.4690770437063074E+00    7.7926802753602358E+00
Ga   -3.2237042586032456E+00    5.6222604701689214E+00    8.4472727793570481E+00
N   -3.2269390568552518E+00    5.6264972943771969E+00    1.0415948333851960E+01
Ga   -3.2282863599720946E+00    7.4652435943969886E+00    1.1071388319306251E+01
N   -3.2291928286080060E+00    7.4479298819206718E+00    1.3060192302378969E+01
Ga   -3.2297516978331764E+00    5.6268798234629669E+00    1.3869204350028822E+01
N   -3.2282862942355348E+00    5.6265203847287601E+00    1.6062202928942320E+01
Ga   -3.2305659759106073E+00    7.6672104780741739E+00    1.6475592877653117E+01
Ga   -3.2483138668655891E+00    9.3505625955674603E+00    1.4732425777230063E+00
N   -4.7255837125710443E+00    1.0200284843836602E+01    2.5203214048472096E+00
Ga   -4.9315609425058975E+00    8.3458994869199437E+00    3.2824207997498589E+00
N   -4.8255067595908825E+00    8.4036240126782253E+00    5.2435421181494544E+00
Ga   -4.8575163365775627E+00    1.0278346142442885E+01    5.7985563775498781E+00
N   -4.8404563562380725E+00    1.0269742781654312E+01    7.7921214085129913E+00
Ga   -4.8233306384712611E+00    8.4150161444512079E+00    8.4362846450983504E+00
N   -4.8233788200106726E+00    8.4172183237024996E+00    1.0425160745142666E+01
Ga   -4.8505745095461581E+00    1.0277078152693733E+01    1.1067849345997914E+01
N   -4.8687777437334763E+00    1.0287783863204575E+01    1.3057467151109451E+01
Ga   -4.8268795198350016E+00    8.4197853752643201E+00    1.3617957642172712E+01
N   -4.8532491151563306E+00    8.4064798866337274E+00    1.5577503121167265E+01
Ga   -4.6776225492489258E+00    1.0178022541875221E+01    1.6474991034132699E+01
N   -3.2244277045436394E+00    9.3398928321975649E+00    1.7614896334482104E+01
N    3.2016752953887591E+00    1.9102932779291826E+00    2.6091531727236292E+00
Ga    3.2037767080724175E+00    1.7203715910034301E-01    3.2848430968477871E+00
N    3.2136196788207640E+00    4.6701595977987169E-02    5.2460370779200076E+00
Ga    3.2032528629384611E+00    1.9109142774561290E+00    5.8688594432745500E+00
N    3.2088879816453240E+00    1.9084554767190678E+00    7.8433388000853972E+00
Ga    3.2067940051652108E+00    4.3198670134836983E-02    8.4366905794070082E+00
N    3.2059207804163696E+00    4.1967600032965090E-02    1.0425956309549724E+01
Ga    3.2054456311379398E+00    1.9125097387708239E+00    1.1023313602031040E+01
N    3.2037173958153944E+00    1.9134104468154687E+00    1.2991191203587649E+01
Ga    3.2024508634364977E+00    4.4657130119900530E-02    1.3617757819265810E+01
N    3.2007621102551789E+00    7.4665673110590219E-02    1.5577283979038858E+01
Ga    3.2036234736971871E+00    1.9141435435835721E+00    1.5855962993237952E+01
N    1.4783112732069270E+00    4.6244840309987802E+00    2.4878229564796719E+00
Ga    1.6672541870720241E+00    2.7926117242955075E+00    3.2570968125152757E+00
N    1.6057412365308135E+00    2.8363740711023571E+00    5.2433916670674776E+00
Ga    1.6334296054314965E+00    4.6993849253445976E+00    5.8016746910922246E+00
N    1.6091297520812853E+00    4.7018164596920116E+00    7.7953406387054764E+00
Ga    1.5896077726136855E+00    2.8421073394699876E+00    8.4340386510644887E+00
N    1.5868915129218302E+00    2.8470521804989808E+00    1.0425954105919365E+01
Ga    1.6136997132111481E+00    4.7049215865461340E+00    1.1071064408166393E+01
N    1.6279030162441595E+00    4.7179822961148892E+00    1.3060437638483764E+01
Ga    1.5839211919933323E+00    2.8483431295625667E+00    1.3617392580250735E+01
N    1.6132990724371543E+00    2.8311774215845298E+00    1.5575910105124132E+01
Ga    1.4321899992803067E+00    4.6061339639306835E+00    1.6477105798314611E+01
N    3.4172456020496001E-04    7.4623235457703236E+00    2.6912328006714055E+00
Ga    2.7643232530154605E-03    5.5969532032715996E+00    3.3132943409110616E+00
N   -5.3364175784743496E-03    5.6343999741096535E+00    5.2520457790045327E+00
Ga   -2.2310508222513135E-03    7.4684958619352759E+00    5.9066049683668416E+00
N   -7.2164637664621856E-03    7.4800446848643594E+00    7.8604409723708919E+00
Ga   -7.3059781281507941E-03    5.6072212965480706E+00    8.4468214869538709E+00
N   -1.0377507060123598E-02    5.6125998902713796E+00    1.0432037019908009E+01
Ga   -1.0176942260874488E-02    7.4824906571900778E+00    1.1028271194585463E+01
N   -1.3089961077057894E-02    7.4849652951744332E+00    1.2993375407928571E+01
Ga   -1.3011319595993623E-02    5.6153239449923085E+00    1.3618415326760068E+01
N   -1.5671993458020408E-02    5.6499002387518908E+00    1.5575676527387056E+01
Ga   -1.4906605029641270E-02    7.4859722843798790E+00    1.5859928445672647E+01
N   -1.7124569891440222E+00    1.0190099191485992E+01    2.5146862916879775E+00
Ga   -1.5867534090077644E+00    8.3830851797639045E+00    3.3291094035862869E+00
N   -1.5988731519188799E+00    8.3972656535340029E+00    5.2531965891237160E+00
Ga   -1.5873597397601706E+00    1.0284357475221491E+01    5.8084849130468132E+00
N   -1.6055121392977927E+00    1.0268299746190275E+01    7.7950446486253711E+00
Ga   -1.6280540685216549E+00    8.4151929020303537E+00    8.4472446691642453E+00
N   -1.6301586648891588E+00    8.4176015802715014E+00    1.0431132463660830E+01
Ga   -1.6042352355587550E+00    1.0277976766175527E+01    1.1071683615453196E+01
N   -1.5888570610763768E+00    1.0288156324157701E+01    1.3060542974661528E+01
Ga   -1.6320016635242365E+00    8.4193342923158916E+00    1.3619721879154687E+01
N   -1.6076008367549299E+00    8.4052923172929006E+00    1.5579777540586717E+01
Ga   -1.7788191410878693E+00    1.0180747314022215E+01    1.6475550102491908E+01
N    6.4282043464048328E+00    2.0276969068839050E+00    2.5294128718926210E+00
Ga    6.4361438022430644E+00    5.5008386495017256E-02    2.8663743347753692E+00
N    6.4268420415150951E+00    4.8570991868246212E-02    5.0190963691607919E+00
Ga    6.4261615628241584E+00    1.8820944650551279E+00    5.8028648767975399E+00
N    6.4242077484642994E+00    1.8973409124830396E+00    7.7949922175019744E+00
Ga    6.4248116545673639E+00    5.3531797288094290E-02    8.4477426955900494E+00
N    6.4215836192368956E+00    5.4753078965923775E-02    1.0416012374379918E+01
Ga    6.4216529153671358E+00    1.8959001259473360E+00    1.1068438759013810E+01
N    6.4196543175241114E+00    1.8770670399898868E+00    1.3057987169547618E+01
Ga    6.4204333833169205E+00    5.7850950073219984E-02    1.3870765890392761E+01
N    6.4212242063466149E+00    5.6793263103389648E-02    1.6062387351847125E+01
Ga    6.4180861871949917E+00    2.1003210663615817E+00    1.6479007165204607E+01
Ga    6.4310870097230124E+00    3.7570923246900980E+00    1.5090071382636456E+00
N    4.9276259548667820E+00    4.6268142391329867E+00    2.5201859684190389E+00
Ga    4.7098642687673697E+00    2.7763643817374231E+00    3.2894874431743535E+00
N    4.8179495507277386E+00    2.8337452283011273E+00    5.2499763675249609E+00
Ga    4.7927251995010378E+00    4.7060006258592368E+00    5.7989877758116570E+00
N    4.8067534882347767E+00    4.7005576152648834E+00    7.7931042151213274E+00
Ga    4.8245705501357730E+00    2.8431077754685856E+00    8.4359641539188495E+00
N    4.8248365986677637E+00    2.8471632792908630E+00    1.0425684454520386E+01
Ga    4.7987130004423584E+00    4.7062616295154562E+00    1.1068144143402499E+01
N    4.7798941157078838E+00    4.7177078416143310E+00    1.3057301605190201E+01
Ga    4.8223939478178250E+00    2.8491324685191826E+00    1.3617427728599630E+01
N    4.7946906325766268E+00    2.8349396962425133E+00    1.5575870539719350E+01
Ga    4.9747160585465755E+00    4.6044969847998951E+00    1.6479084457971791E+01
N    6.4230801553224630E+00    3.7673888241694411E+00    1.7620530082025773E+01
N    3.2065719861099193E+00    7.5929278076620923E+00    2.5041549000106271E+00
Ga    3.1813124115702265E+00    5.5931743849362912E+00    2.8347745630128971E+00
N    3.2104128364265221E+00    5.6189727839064387E+00    5.0160210694186347E+00
Ga    3.2180720246893624E+00    7.4386307538396839E+00    5.8035202667044015E+00
N    3.2071777519587252E+00    7.4694298969530424E+00    7.7932817715434570E+00
Ga    3.2080982908555042E+00    5.6222856636617182E+00    8.4460760281350762E+00
N    3.2054332843124271E+00    5.6263907808817297E+00    1.0415502821382780E+01
Ga    3.2071347048766756E+00    7.4648185316392555E+00    1.1072195656455301E+01
N    3.2036258648057649E+00    7.4472924899296933E+00    1.3060521702873430E+01
Ga    3.2048313938151862E+00    5.6275348096682833E+00    1.3872080208572065E+01
N    3.2021096390751320E+00    5.6289971311146187E+00    1.6061768260925064E+01
Ga    3.2022904401918213E+00    7.6774257931618921E+00    1.6481578271013497E+01
Ga    3.2455403844027049E+00    9.3505355718747190E+00    1.4173191490349004E+00
N    1.7054538812187803E+00    1.0190660618440234E+01    2.5117979154537884E+00
Ga    1.5947153269912246E+00    8.3882439514041049E+00    3.3211403843513763E+00
N    1.5908107003023451E+00    8.3966874338188706E+00    5.2502396003968643E+00
Ga    1.5787169723805563E+00    1.0282293752738152E+01    5.8065179859792302E+00
N    1.5899356775026379E+00    1.0267926403466308E+01    7.7945435719598759E+00
Ga    1.6134011951104719E+00    8.4152234505872556E+00    8.4475804659764968E+00
N    1.6095782780147967E+00    8.4176081576284503E+00    1.0431380478489292E+01
Ga    1.5830044344410692E+00    1.0277931639666232E+01    1.1071618579163669E+01
N    1.5634910555054977E+00    1.0288203148373020E+01    1.3059720479429828E+01
Ga    1.6063271719097580E+00    8.4193911038639655E+00    1.3619894762277321E+01
N    1.5741293605822426E+00    8.4039346192257689E+00    1.5575997061308307E+01
Ga    1.7662691296909891E+00    1.0171371809962672E+01    1.6482479100642621E+01
N    3.2076103324391645E+00    9.3389510518006702E+00    1.7615626106949485E+01
N    9.6536938692251262E+00    1.9061517092284210E+00    2.6222608421286169E+00
Ga    9.6516041432893207E+00    1.5822377019488890E-01    3.2782601555417576E+00
N    9.6412296657361392E+00    4.5297921139154436E-02    5.2459032423147134E+00
Ga    9.6491042198050501E+00    1.9067699499368445E+00    5.8698371454514398E+00
N    9.6400679182926812E+00    1.9078163987715138E+00    7.8442784015533578E+00
Ga    9.6423650307821269E+00    4.2091216214204925E-02    8.4363479818981286E+00
N    9.6375791986953185E+00    4.1538018784084155E-02    1.0425580029853483E+01
Ga    9.6380768684245499E+00    1.9121119765913015E+00    1.1022404645292097E+01
N    9.6352088491461121E+00    1.9137318081068664E+00    1.2989351152113734E+01
Ga    9.6359190897392057E+00    4.5161539333614671E-02    1.3618066910761028E+01
N    9.6333407250400782E+00    7.9622461363385827E-02    1.5574561253659454E+01
Ga    9.6328917348045167E+00    1.9150372847823391E+00    1.5858584791549831E+01
N    7.9304155671917309E+00    4.6264727230308473E+00    2.5248828756014037E+00
Ga    8.1455220663160102E+00    2.7730572279662691E+00    3.2934736375329812E+00
N    8.0354366280528602E+00    2.8336014847517084E+00    5.2531965466304138E+00
Ga    8.0605166711689709E+00    4.7056480562606522E+00    5.7983784567689973E+00
N    8.0434697494342657E+00    4.7012753180403068E+00    7.7922362659031137E+00
Ga    8.0241401407267396E+00    2.8431693179186159E+00    8.4353279797068001E+00
N    8.0186089845343584E+00    2.8470937275828549E+00    1.0425078348129011E+01
Ga    8.0435751437442118E+00    4.7056887380078134E+00    1.1068083662015939E+01
N    8.0590121883098629E+00    4.7174544080758380E+00    1.3057622093567362E+01
Ga    8.0168024232369817E+00    2.8485464907044324E+00    1.3617528634329895E+01
N    8.0413029438313313E+00    2.8343285189981473E+00    1.5576854921271945E+01
Ga    7.8643304667797995E+00    4.6060984076864058E+00    1.6479151211480591E+01
N    6.4277739758529533E+00    7.4739887067611823E+00    2.6017455562524692E+00
Ga    6.4263789389444588E+00    5.7342711394683059E+00    3.2879361748131322E+00
N    6.4273558266443889E+00    5.6210894251640191E+00    5.2481409494573024E+00
Ga    6.4256877744641985E+00    7.4777900073475623E+00    5.8704159860787666E+00
N    6.4248436427788160E+00    7.4804589819764731E+00    7.8417045257319966E+00
Ga    6.4246478317578610E+00    5.6123195219199982E+00    8.4351336399199734E+00
N    6.4216392862957363E+00    5.6134049257831871E+00    1.0424646335537069E+01
Ga    6.4216137052923843E+00    7.4825710187080823E+00    1.1024058204386964E+01
N    6.4197982608636526E+00    7.4844947758926370E+00    1.2991497830220851E+01
Ga    6.4191105494421441E+00    5.6149163781375622E+00    1.3617717690050865E+01
N    6.4175408836317889E+00    5.6455223155428387E+00    1.5576225325447053E+01
Ga    6.4192753812338585E+00    7.4841936438849554E+00    1.5855856557103159E+01
N    4.7182078855197123E+00    1.0198656886040949E+01    2.5186039883768516E+00
Ga    4.9145928542591442E+00    8.3487030320096469E+00    3.2731256116029850E+00
N    4.8170521962464594E+00    8.4029252409018760E+00    5.2405484098376078E+00
Ga    4.8466662347622123E+00    1.0276566616805910E+01    5.7963897218767269E+00
N    4.8261095728681145E+00    1.0269362767551680E+01    7.7916916740211279E+00
Ga    4.8076003760115844E+00    8.4152631966189588E+00    8.4365169867068435E+00
N    4.8026957795650613E+00    8.4168765057567754E+00    1.0425697226412339E+01
Ga    4.8286943390346000E+00    1.0276619171516913E+01    1.1068579141945209E+01
N    4.8434638411575319E+00    1.0288127912260878E+01    1.3058107312113927E+01
Ga    4.8003423040980584E+00    8.4198793037835511E+00    1.3618805605002079E+01
N    4.8304793204361749E+00    8.4025696363320481E+00    1.5576273873089342E+01
Ga    4.6432958855074746E+00    1.0174246103669336E+01    1.6481027114490679E+01
O    3.2787661335979915E-04    3.5397325907822399E+00   -4.8970379162187749E-01
H    1.0925324133371022E-04    7.4588762178514081E+00    1.6645513557581393E+00
C    6.5668508379030421E-01    2.3339137712570666E+00   -9.2641113988217416E-01
H    1.7244820620870180E+00    2.3198336817902621E+00   -6.4981910377176821E-01
H    1.8518280962388789E-01    1.4283326024477390E+00   -5.0513385416706513E-01
H    5.7343732608764753E-01    2.2912376549174773E+00   -2.0231102965502208E+00
     &END COORD
     &KIND C
       BASIS_SET DZVP-MOLOPT-SR-GTH-q4
       POTENTIAL GTH-PBE-q4
       &POTENTIAL
 2 2
  0.3384712400000000E+00 2 -0.8803673979999999E+01  0.1339210850000000E+01
 2
  0.3025757500000000E+00 1  0.9622486650000001E+01
  0.2915069400000000E+00 0
         # Potential name:  GTH-PBE-Q4  for symbol:  C
         # Potential read from the potential filename: GTH_POTENTIALS
       &END POTENTIAL
     &END KIND
     &KIND O
       BASIS_SET DZVP-MOLOPT-SR-GTH-q6
       POTENTIAL GTH-PBE-q6
       &POTENTIAL
 2 4
  0.2445543000000000E+00 2 -0.1666721480000000E+02  0.2487311320000000E+01
 2
  0.2209559200000000E+00 1  0.1833745811000000E+02
  0.2113324700000000E+00 0
         # Potential name:  GTH-PBE-Q6  for symbol:  O
         # Potential read from the potential filename: GTH_POTENTIALS
       &END POTENTIAL
     &END KIND
     &KIND H
       BASIS_SET DZVP-MOLOPT-SR-GTH-q1
       POTENTIAL GTH-PBE-q1
       &POTENTIAL
 1
  0.2000000000000000E+00 2 -0.4178900440000000E+01  0.7244633100000000E+00
 0
         # Potential name:  GTH-PBE-Q1  for symbol:  H
         # Potential read from the potential filename: GTH_POTENTIALS
       &END POTENTIAL
     &END KIND
     &KIND N
       BASIS_SET DZVP-MOLOPT-SR-GTH
       POTENTIAL GTH-PBE-q5
       &POTENTIAL
 2 3
  0.2837905100000000E+00 2 -0.1241522559000000E+02  0.1868095920000000E+01
 2
  0.2554050000000000E+00 1  0.1363026257000000E+02
  0.2454945300000000E+00 0
         # Potential name:  GTH-PBE-Q5  for symbol:  N
         # Potential read from the potential filename: GTH_POTENTIALS
       &END POTENTIAL
     &END KIND
     &KIND Ga
       BASIS_SET DZVP-MOLOPT-SR-GTH
       POTENTIAL GTH-PBE-q13
       &POTENTIAL
 2 1 10
  0.4900000000000000E+00 0
 3
  0.4167772300000000E+00 3  0.1047568975000000E+02 -0.4921768140000000E+01  0.8707055900000000E+00
  0.7770178090000000E+01 -0.2248152160000000E+01
  0.1784415450000000E+01
  0.5696265200000000E+00 2  0.1777985340000000E+01  0.1958597600000000E+00
 -0.2317443900000000E+00
  0.2381265000000000E+00 1 -0.1624868022000000E+02
         # Potential name:  GTH-PBE-Q13  for symbol:  GA
         # Potential read from the potential filename: GTH_POTENTIALS
       &END POTENTIAL
     &END KIND
     &TOPOLOGY
       NUMBER_OF_ATOMS  206
       MULTIPLE_UNIT_CELL  1 1 1
     &END TOPOLOGY
   &END SUBSYS
 &END FORCE_EVAL
