 # Version information for this restart file 
 # current date 2019-06-24 20:59:46.008
 # current working dir /scratch/rzk/rzk/GaN-carbene/443-adatoms-both-2x2/03-DissMethanol/04-O-GaTop-H-NSur
 # Program compiled at                              Sun Apr  7 00:48:11 EDT 2019
 # Program compiled on                          beluga2.int.ets1.calculquebec.ca
 # Program compiled for                        Beluga-Linux-x86-64-intel-openmpi
 # Source code revision number                                         svn:18619
 &GLOBAL
   PRINT_LEVEL  MEDIUM
   PROJECT_NAME TEST
   RUN_TYPE  GEO_OPT
 &END GLOBAL
 &MOTION
   &GEO_OPT
     MAX_ITER  500
     STEP_START_VAL  86
   &END GEO_OPT
 &END MOTION
 &FORCE_EVAL
   METHOD  QS
   STRESS_TENSOR  ANALYTICAL
   &DFT
     BASIS_SET_FILE_NAME BASIS_MOLOPT
     POTENTIAL_FILE_NAME GTH_POTENTIALS
     UKS  T
     SURFACE_DIPOLE_CORRECTION  T
     SURF_DIP_DIR  Z
     &SCF
       MAX_SCF  80
       EPS_SCF     5.0000000000000004E-06
       &OT  T
         PRECONDITIONER  FULL_ALL
       &END OT
       &OUTER_SCF  T
         OPTIMIZER  NONE
         EPS_SCF     5.0000000000000004E-06
         MAX_SCF  4
       &END OUTER_SCF
       &PRINT
         &RESTART  OFF
           BACKUP_COPIES  1
           &EACH
             JUST_ENERGY  0
             QS_SCF  0
             MD  20
           &END EACH
         &END RESTART
       &END PRINT
     &END SCF
     &QS
       EPS_DEFAULT     1.0000000000000000E-14
       METHOD  GPW
     &END QS
     &MGRID
       NGRIDS  5
       CUTOFF     1.2000000000000000E+03
     &END MGRID
     &XC
       DENSITY_CUTOFF     1.0000000000000000E-10
       GRADIENT_CUTOFF     1.0000000000000000E-10
       TAU_CUTOFF     1.0000000000000000E-10
       &XC_FUNCTIONAL  NO_SHORTCUT
         &PBE  T
         &END PBE
       &END XC_FUNCTIONAL
       &VDW_POTENTIAL
         POTENTIAL_TYPE  PAIR_POTENTIAL
         &PAIR_POTENTIAL
           R_CUTOFF     1.0000000000000004E+01
           TYPE  DFTD3
           PARAMETER_FILE_NAME dftd3.dat
           REFERENCE_FUNCTIONAL PBE
           EPS_CN     9.9999999999999995E-07
           CALCULATE_C9_TERM  T
           REFERENCE_C9_TERM  T
           LONG_RANGE_CORRECTION  F
           VERBOSE_OUTPUT  F
         &END PAIR_POTENTIAL
       &END VDW_POTENTIAL
     &END XC
   &END DFT
   &SUBSYS
     &CELL
       A     1.2864472766435110E+01    0.0000000000000000E+00    0.0000000000000000E+00
       B    -6.4322363581020028E+00    1.1140960178524473E+01    0.0000000000000000E+00
       C     0.0000000000000000E+00    0.0000000000000000E+00    3.2000000000000000E+01
       MULTIPLE_UNIT_CELL  1 1 1
       &CELL_REF
         A     1.2982353780853531E+01    0.0000000000000000E+00    0.0000000000000000E+00
         B    -6.4911768904267628E+00    1.1243048175136114E+01    0.0000000000000000E+00
         C     0.0000000000000000E+00    0.0000000000000000E+00    3.2000000000000000E+01
         MULTIPLE_UNIT_CELL  1 1 1
       &END CELL_REF
     &END CELL
     &COORD
N   -4.4815947027623416E-03    2.0431593288820338E+00    2.5072746924670346E+00
Ga   -2.2165687143798640E-02    8.7611080199705191E-02    2.8313973879524483E+00
N   -2.0586806875444890E-03    4.8052328603259323E-02    5.0215318012512178E+00
Ga   -2.6057324118584006E-03    1.8777372574436955E+00    5.7940839453643864E+00
N   -2.6905275602776891E-03    1.8915914995403638E+00    7.7988193653227764E+00
Ga   -4.7057986895509890E-03    4.6983912208225058E-02    8.4431987964250528E+00
N   -2.9342570271453866E-03    4.4497420679472675E-02    1.0419653040557003E+01
Ga   -3.1013200722044107E-03    1.8845854115479819E+00    1.1068831836385854E+01
N   -2.5293252284780895E-03    1.8639428845401471E+00    1.3064504194519031E+01
Ga   -1.7493480882911643E-03    4.3658675271624751E-02    1.3867279951300286E+01
N   -5.1060593789080714E-04    4.1471715494002068E-02    1.6070938947718819E+01
Ga   -2.2833299472511167E-03    2.0788007243320963E+00    1.6481097666847511E+01
Ga   -2.8289675058228752E-02    3.7324346883267285E+00    1.3217522250278022E+00
N   -1.4857813760390663E+00    4.6280169771471744E+00    2.5016565461942339E+00
Ga   -1.6775536966576705E+00    2.7839328868479387E+00    3.2691885554942615E+00
N   -1.6126455354111502E+00    2.8343098086177783E+00    5.2529460866763475E+00
Ga   -1.6399484985708821E+00    4.6970829569733157E+00    5.8050671769487163E+00
N   -1.6204311087799137E+00    4.6958363010884021E+00    7.8013163293285981E+00
Ga   -1.6015123566141722E+00    2.8342299150590526E+00    8.4337783350658757E+00
N   -1.5999960370988504E+00    2.8368871373739313E+00    1.0430761892863858E+01
Ga   -1.6263113191092340E+00    4.6939491913224272E+00    1.1071900637859612E+01
N   -1.6427627351193679E+00    4.7043899138091980E+00    1.3065766313584275E+01
Ga   -1.5995131104645073E+00    2.8355683270131342E+00    1.3621443394053060E+01
N   -1.6259669972918145E+00    2.8203676258548960E+00    1.5584539411418922E+01
Ga   -1.4481218994255423E+00    4.5906661825159834E+00    1.6482350747224594E+01
N    5.3434409386717997E-03    3.7509070182261168E+00    1.7616811450078483E+01
N   -3.2109278380013708E+00    7.5970191933503841E+00    2.5191540777323032E+00
Ga   -3.1921773181321567E+00    5.5882288873879595E+00    2.8453180232847166E+00
N   -3.2181518418013257E+00    5.6178667662467872E+00    5.0185936551880435E+00
Ga   -3.2256052548375731E+00    7.4365453799181882E+00    5.8080701156323498E+00
N   -3.2173756092298871E+00    7.4626836840341264E+00    7.7993289456545272E+00
Ga   -3.2188394933396745E+00    5.6152689808518454E+00    8.4497918058295944E+00
N   -3.2190049288832077E+00    5.6162079906505538E+00    1.0422709112046787E+01
Ga   -3.2202623258793008E+00    7.4548720246547395E+00    1.1074198000615285E+01
N   -3.2187468852112961E+00    7.4348118145608630E+00    1.3067310399958396E+01
Ga   -3.2184406117110034E+00    5.6139093955303334E+00    1.3870073660410974E+01
N   -3.2170920105828920E+00    5.6126481387498757E+00    1.6070920124264223E+01
Ga   -3.2190748696195755E+00    7.6528035697848669E+00    1.6483659437459217E+01
Ga   -3.2480636639336216E+00    9.3491512490160851E+00    1.4915847172710257E+00
N   -4.7259141096221153E+00    1.0201366062808283E+01    2.5248465188885421E+00
Ga   -4.9379303175070426E+00    8.3475053152807916E+00    3.2895505725460268E+00
N   -4.8244317418848714E+00    8.4023553174755659E+00    5.2514586335044999E+00
Ga   -4.8593958840402589E+00    1.0277405764420108E+01    5.8016483145438249E+00
N   -4.8364108823411183E+00    1.0263409328845706E+01    7.7991588607799454E+00
Ga   -4.8193384270321848E+00    8.4081194786143847E+00    8.4382254764539049E+00
N   -4.8152476516211848E+00    8.4067018167914043E+00    1.0431893380750903E+01
Ga   -4.8422944513100568E+00    1.0266149633070796E+01    1.1069864935758584E+01
N   -4.8582127133203832E+00    1.0274731899551211E+01    1.3064237893615349E+01
Ga   -4.8163195472283187E+00    8.4065588365932769E+00    1.3622398398922096E+01
N   -4.8440189496507822E+00    8.3904281673367951E+00    1.5584097532907084E+01
Ga   -4.6611030036534231E+00    1.0159406360705292E+01    1.6484387387857289E+01
N   -3.2110253805810700E+00    9.3222360809672118E+00    1.7615635840645165E+01
N    3.2009518911995944E+00    1.9108482158125810E+00    2.6187966088927559E+00
Ga    3.2019575555722506E+00    1.7356219217967009E-01    3.2929510021077788E+00
N    3.2140103420925747E+00    4.3361277549574799E-02    5.2548828820279443E+00
Ga    3.2038348599507218E+00    1.9077950972503241E+00    5.8736180151423634E+00
N    3.2131948190378079E+00    1.9014904818022460E+00    7.8510259825103805E+00
Ga    3.2110052410707821E+00    3.5781681438248267E-02    8.4400986813705288E+00
N    3.2137876310474551E+00    3.1891528931359416E-02    1.0433332842731154E+01
Ga    3.2134340575263654E+00    1.9016900101397747E+00    1.1027326994661649E+01
N    3.2136881852402852E+00    1.9006311134440963E+00    1.3000019586844648E+01
Ga    3.2130683003373615E+00    3.1125040560078733E-02    1.3622456540190841E+01
N    3.2120038129582316E+00    6.1899254862218339E-02    1.5584475085503383E+01
Ga    3.2136203471181619E+00    1.8998719058204665E+00    1.5865441556941779E+01
N    1.4813241208767112E+00    4.6259899746351669E+00    2.5027369242308399E+00
Ga    1.6663968654170791E+00    2.7938453576938342E+00    3.2623683971167030E+00
N    1.6061043405079576E+00    2.8333290586985438E+00    5.2506455688303157E+00
Ga    1.6364053213796483E+00    4.6971938057572249E+00    5.8051979665522175E+00
N    1.6136017269700749E+00    4.6947065742846084E+00    7.8027883064338734E+00
Ga    1.5942727301069279E+00    2.8350790762850968E+00    8.4373565401973636E+00
N    1.5948596906751500E+00    2.8363725720448478E+00    1.0433211221379512E+01
Ga    1.6209619341376491E+00    4.6943742230353775E+00    1.1072098470862624E+01
N    1.6377372241996677E+00    4.7043575177768266E+00    1.3066490128270324E+01
Ga    1.5941574886619487E+00    2.8353145386572036E+00    1.3621978282554661E+01
N    1.6212115782261798E+00    2.8189002301363133E+00    1.5586080385983973E+01
Ga    1.4496539765608241E+00    4.5940381747929404E+00    1.6481522987011449E+01
N    3.7101250195285328E-03    7.4634165228560354E+00    2.6979478973170137E+00
Ga    4.4171727079758477E-03    5.6013081065548773E+00    3.3233809307802828E+00
N   -3.4614719314495735E-03    5.6328800918660287E+00    5.2629963738495453E+00
Ga    3.3397254335489966E-03    7.4689959101319738E+00    5.9077333978850870E+00
N   -2.6997029464693838E-03    7.4741926119436100E+00    7.8659704180765786E+00
Ga   -2.6969928822691168E-03    5.6008039535964649E+00    8.4469796951940541E+00
N   -2.9359361019265385E-03    5.6027223177283467E+00    1.0437597930079326E+01
Ga   -1.7346646896776281E-03    7.4718295294307051E+00    1.1031137459193284E+01
N   -2.1747805589812626E-03    7.4711709742521260E+00    1.3002571699709190E+01
Ga   -2.8605719030309895E-03    5.6005688580669872E+00    1.3622806339354096E+01
N   -3.5584205067290845E-03    5.6306123251713851E+00    1.5585618694045419E+01
Ga   -1.5810857343972243E-03    7.4697946931232400E+00    1.5865283028088109E+01
N   -1.7156004589184697E+00    1.0190609734282956E+01    2.5224118167787788E+00
Ga   -1.5806737698667768E+00    8.3823411884388062E+00    3.3354331667251209E+00
N   -1.5979124099771167E+00    8.3950756790992962E+00    5.2604961119283811E+00
Ga   -1.5851602263404070E+00    1.0281995757156235E+01    5.8126903226685700E+00
N   -1.6016822160062594E+00    1.0261490632818466E+01    7.8027083084598248E+00
Ga   -1.6229347759470016E+00    8.4079995124485087E+00    8.4497999752462079E+00
N   -1.6219518945872928E+00    8.4069282084442651E+00    1.0438436948741240E+01
Ga   -1.5964808749770256E+00    1.0267205647342809E+01    1.1073712003738239E+01
N   -1.5784378232081262E+00    1.0275293594139850E+01    1.3066942707652249E+01
Ga   -1.6219267739393002E+00    8.4065791156680927E+00    1.3623817682996181E+01
N   -1.5931460092308136E+00    8.3884391736320545E+00    1.5586703834348800E+01
Ga   -1.7694397574647924E+00    1.0163636709049216E+01    1.6483532818268088E+01
N    6.4266148102203200E+00    2.0290644495060604E+00    2.5396198185794625E+00
Ga    6.4427421936380567E+00    5.1414106235534399E-02    2.8669208591588524E+00
N    6.4256721238913217E+00    4.7294774814379145E-02    5.0273513395724034E+00
Ga    6.4275663575155990E+00    1.8781897791225837E+00    5.8065030559225024E+00
N    6.4287387448558482E+00    1.8910587331849862E+00    7.8025929702076748E+00
Ga    6.4304578919172313E+00    4.6203410086929950E-02    8.4492682122755109E+00
N    6.4293849507752245E+00    4.4477533956056331E-02    1.0422332272150433E+01
Ga    6.4301788103227047E+00    1.8856152196877685E+00    1.1070325951963492E+01
N    6.4298751771683262E+00    1.8638458887275853E+00    1.3064987632374150E+01
Ga    6.4302944886370552E+00    4.4333038478090475E-02    1.3869739084056107E+01
N    6.4312703382840279E+00    4.1626563290540826E-02    1.6071093903309098E+01
Ga    6.4301203667655953E+00    2.0807664996358795E+00    1.6481339316137614E+01
Ga    6.4294324758796471E+00    3.7587086040135849E+00    1.5321346978772508E+00
N    4.9263086852037521E+00    4.6265573720344761E+00    2.5312016893818354E+00
Ga    4.7075595684369445E+00    2.7765451665663452E+00    3.2990894657474312E+00
N    4.8183740142823552E+00    2.8316492775357354E+00    5.2601859939367923E+00
Ga    4.7929930533650698E+00    4.7047392545971478E+00    5.8042210578995403E+00
N    4.8114649544066301E+00    4.6938808648549930E+00    7.8019029942965359E+00
Ga    4.8294620777055091E+00    2.8363417067665013E+00    8.4394376736080474E+00
N    4.8324578641824303E+00    2.8364028704840707E+00    1.0433554436784172E+01
Ga    4.8073833458999999E+00    4.6957423915004339E+00    1.1069923285281945E+01
N    4.7902721426987664E+00    4.7043350123975625E+00    1.3064398378000861E+01
Ga    4.8327117898896379E+00    2.8357454598499534E+00    1.3621431036490520E+01
N    4.8048878688668619E+00    2.8201484447322303E+00    1.5583848524823537E+01
Ga    4.9865546362355992E+00    4.5900419840726299E+00    1.6482620326749835E+01
N    6.4378331515905716E+00    3.7514969385912864E+00    1.7613845471086105E+01
N    3.2073426207359277E+00    7.5891171218010287E+00    2.5069295936892901E+00
Ga    3.1805576028011791E+00    5.6053901165133126E+00    2.8391278441698793E+00
N    3.2120520469584819E+00    5.6158830198585061E+00    5.0270457882758999E+00
Ga    3.2193329097030454E+00    7.4390359355387012E+00    5.8006800072529741E+00
N    3.2115203051100636E+00    7.4635966879936522E+00    7.7976186064836526E+00
Ga    3.2127866537427892E+00    5.6168948211876391E+00    8.4478385764586914E+00
N    3.2133397057564452E+00    5.6162685034030764E+00    1.0422086630622164E+01
Ga    3.2153067097733055E+00    7.4552741163087664E+00    1.1072754089107486E+01
N    3.2139491798411384E+00    7.4350032194685660E+00    1.3066616310181050E+01
Ga    3.2148220878829861E+00    5.6138303832554852E+00    1.3868419985857303E+01
N    3.2154741779512053E+00    5.6123464115684198E+00    1.6071297729768414E+01
Ga    3.2145271054785205E+00    7.6494417215736252E+00    1.6481445828283608E+01
Ga    3.2458188559825021E+00    9.3516334073810885E+00    1.3440090282267663E+00
N    1.7004970321209201E+00    1.0195515182018223E+01    2.5126212274757660E+00
Ga    1.6068684144562675E+00    8.3970851065902696E+00    3.3099748518603751E+00
N    1.5921569897723604E+00    8.3952019128404682E+00    5.2491229624233124E+00
Ga    1.5818644583044059E+00    1.0278892723395186E+01    5.8030303602389575E+00
N    1.5945224046595157E+00    1.0261686748988621E+01    7.7982840260000659E+00
Ga    1.6186773458054282E+00    8.4091126563831864E+00    8.4473276301224534E+00
N    1.6170451001846557E+00    8.4075973773586181E+00    1.0437123716526369E+01
Ga    1.5918257323933080E+00    1.0267597792825955E+01    1.1072280672825251E+01
N    1.5735698230447455E+00    1.0275395158897055E+01    1.3065693571489899E+01
Ga    1.6170208880665653E+00    8.4070116489681119E+00    1.3622652085864450E+01
N    1.5903947935792628E+00    8.3908928371505453E+00    1.5585441338562070E+01
Ga    1.7682286538175698E+00    1.0161781204818711E+01    1.6482169114849651E+01
N    3.2222045569825255E+00    9.3223774031315898E+00    1.7616492415504062E+01
N    9.6548041490799239E+00    1.9043846556748329E+00    2.6302893347909406E+00
Ga    9.6508083577147445E+00    1.4452778660900850E-01    3.2638422655750752E+00
N    9.6422668278921968E+00    4.3057788561114710E-02    5.2438588146834979E+00
Ga    9.6523387525135913E+00    1.9003461860074282E+00    5.8659494987933698E+00
N    9.6449295859756248E+00    1.9013521902598933E+00    7.8469085669188017E+00
Ga    9.6474352331716684E+00    3.5276328318900152E-02    8.4340036327238028E+00
N    9.6453587616051379E+00    3.1814320787113631E-02    1.0430204849413991E+01
Ga    9.6466487874798581E+00    1.9012432184823911E+00    1.1025318251892788E+01
N    9.6461707072472667E+00    1.9004691440277262E+00    1.2998908972218942E+01
Ga    9.6459189014910223E+00    3.1105883371193199E-02    1.3621411564744724E+01
N    9.6452068384315854E+00    6.0053344438862032E-02    1.5584642351012885E+01
Ga    9.6467187244491850E+00    1.8992437419019275E+00    1.5864854436917804E+01
N    7.9297639128566981E+00    4.6273404417524127E+00    2.5366141058470499E+00
Ga    8.1485562750406295E+00    2.7696840271600416E+00    3.3000560159033716E+00
N    8.0367994691244391E+00    2.8313366579405068E+00    5.2608602450963087E+00
Ga    8.0614081692928394E+00    4.7033404356667283E+00    5.8015209147172593E+00
N    8.0480784670384491E+00    4.6949404589490253E+00    7.7990563466396319E+00
Ga    8.0300372859839211E+00    2.8358969786377575E+00    8.4361237064664927E+00
N    8.0272470266242681E+00    2.8365276988573522E+00    1.0431866997054764E+01
Ga    8.0518043235124956E+00    4.6949472066659359E+00    1.1070839185054909E+01
N    8.0697478622031547E+00    4.7044208395656772E+00    1.3065438425996341E+01
Ga    8.0269157346202498E+00    2.8354855866638400E+00    1.3621401413800745E+01
N    8.0552423986765671E+00    2.8182349801401889E+00    1.5585025616549496E+01
Ga    7.8808133997450227E+00    4.5940532243036367E+00    1.6481738302955719E+01
N    6.4239086466942990E+00    7.4760262763542853E+00    2.6112759942477952E+00
Ga    6.4227556378528563E+00    5.7387839621426746E+00    3.2958921966760024E+00
N    6.4281364473619664E+00    5.6195031495290317E+00    5.2568334866634814E+00
Ga    6.4228957909882682E+00    7.4780777160007430E+00    5.8708602552307729E+00
N    6.4292124452969244E+00    7.4741454399993836E+00    7.8472172210303262E+00
Ga    6.4294965275798450E+00    5.6061049631701358E+00    8.4374100613614189E+00
N    6.4300851024477241E+00    5.6032841079404703E+00    1.0431967202488392E+01
Ga    6.4297450834358472E+00    7.4724458673146152E+00    1.1026450240051178E+01
N    6.4298597996957731E+00    7.4713009521653131E+00    1.2999091303300316E+01
Ga    6.4296520531607051E+00    5.6017105297809699E+00    1.3621508145383384E+01
N    6.4284839672883347E+00    5.6322952009978300E+00    1.5583748765803616E+01
Ga    6.4296662297905787E+00    7.4703044545115782E+00    1.5866545467299552E+01
N    4.7189699039923498E+00    1.0200764683837761E+01    2.5140591577632092E+00
Ga    4.9006495439338087E+00    8.3574840762005813E+00    3.2603447262849965E+00
N    4.8182385487647235E+00    8.4016506782197560E+00    5.2402743882601195E+00
Ga    4.8468767512224753E+00    1.0274301642627371E+01    5.7905811580131425E+00
N    4.8306450839953792E+00    1.0263318349673478E+01    7.7941845056195200E+00
Ga    4.8121034188380909E+00    8.4092602942985835E+00    8.4356923369406438E+00
N    4.8106475874709007E+00    8.4069068587580276E+00    1.0431155123226072E+01
Ga    4.8360316368587046E+00    1.0266120192112517E+01    1.1069287623426488E+01
N    4.8534543377369328E+00    1.0274902439628612E+01    1.3064579790558700E+01
Ga    4.8111353207616654E+00    8.4065633568436020E+00    1.3621843131961993E+01
N    4.8375849937747750E+00    8.3896752161777552E+00    1.5585784025020155E+01
Ga    4.6669723236419056E+00    1.0165262935862955E+01    1.6481305779404433E+01
O   -2.1503336279402013E-02    3.7475243036855668E+00   -4.9287109217246294E-01
H   -1.5605132805399814E-03    7.4540323573048939E+00    1.6712813714969947E+00
C    6.1145802781947090E-01    2.6227795533937224E+00   -1.1248853219106534E+00
H    1.6797565155769014E+00    2.5390580965836649E+00   -8.6305261577702230E-01
H    1.1864092738730257E-01    1.6697814482679894E+00   -8.6877618797900735E-01
H    5.3069002560242562E-01    2.7715666210751628E+00   -2.2117815417006574E+00
     &END COORD
     &KIND C
       BASIS_SET DZVP-MOLOPT-SR-GTH-q4
       POTENTIAL GTH-PBE-q4
       &POTENTIAL
 2 2
  0.3384712400000000E+00 2 -0.8803673979999999E+01  0.1339210850000000E+01
 2
  0.3025757500000000E+00 1  0.9622486650000001E+01
  0.2915069400000000E+00 0
         # Potential name:  GTH-PBE-Q4  for symbol:  C
         # Potential read from the potential filename: GTH_POTENTIALS
       &END POTENTIAL
     &END KIND
     &KIND O
       BASIS_SET DZVP-MOLOPT-SR-GTH-q6
       POTENTIAL GTH-PBE-q6
       &POTENTIAL
 2 4
  0.2445543000000000E+00 2 -0.1666721480000000E+02  0.2487311320000000E+01
 2
  0.2209559200000000E+00 1  0.1833745811000000E+02
  0.2113324700000000E+00 0
         # Potential name:  GTH-PBE-Q6  for symbol:  O
         # Potential read from the potential filename: GTH_POTENTIALS
       &END POTENTIAL
     &END KIND
     &KIND H
       BASIS_SET DZVP-MOLOPT-SR-GTH-q1
       POTENTIAL GTH-PBE-q1
       &POTENTIAL
 1
  0.2000000000000000E+00 2 -0.4178900440000000E+01  0.7244633100000000E+00
 0
         # Potential name:  GTH-PBE-Q1  for symbol:  H
         # Potential read from the potential filename: GTH_POTENTIALS
       &END POTENTIAL
     &END KIND
     &KIND N
       BASIS_SET DZVP-MOLOPT-SR-GTH
       POTENTIAL GTH-PBE-q5
       &POTENTIAL
 2 3
  0.2837905100000000E+00 2 -0.1241522559000000E+02  0.1868095920000000E+01
 2
  0.2554050000000000E+00 1  0.1363026257000000E+02
  0.2454945300000000E+00 0
         # Potential name:  GTH-PBE-Q5  for symbol:  N
         # Potential read from the potential filename: GTH_POTENTIALS
       &END POTENTIAL
     &END KIND
     &KIND Ga
       BASIS_SET DZVP-MOLOPT-SR-GTH
       POTENTIAL GTH-PBE-q13
       &POTENTIAL
 2 1 10
  0.4900000000000000E+00 0
 3
  0.4167772300000000E+00 3  0.1047568975000000E+02 -0.4921768140000000E+01  0.8707055900000000E+00
  0.7770178090000000E+01 -0.2248152160000000E+01
  0.1784415450000000E+01
  0.5696265200000000E+00 2  0.1777985340000000E+01  0.1958597600000000E+00
 -0.2317443900000000E+00
  0.2381265000000000E+00 1 -0.1624868022000000E+02
         # Potential name:  GTH-PBE-Q13  for symbol:  GA
         # Potential read from the potential filename: GTH_POTENTIALS
       &END POTENTIAL
     &END KIND
     &TOPOLOGY
       NUMBER_OF_ATOMS  206
       MULTIPLE_UNIT_CELL  1 1 1
     &END TOPOLOGY
   &END SUBSYS
 &END FORCE_EVAL
