 # Version information for this restart file 
 # current date 2019-06-24 16:02:22.090
 # current working dir /scratch/rzk/rzk/GaN-carbene/443-adatoms-both-2x2/03-DissMethanol/04-O-GaTop-H-NSur
 # Program compiled at                              Sun Apr  7 00:48:11 EDT 2019
 # Program compiled on                          beluga2.int.ets1.calculquebec.ca
 # Program compiled for                        Beluga-Linux-x86-64-intel-openmpi
 # Source code revision number                                         svn:18619
 &GLOBAL
   PRINT_LEVEL  MEDIUM
   PROJECT_NAME TEST
   RUN_TYPE  GEO_OPT
 &END GLOBAL
 &MOTION
   &GEO_OPT
     MAX_ITER  500
     STEP_START_VAL  10
   &END GEO_OPT
 &END MOTION
 &FORCE_EVAL
   METHOD  QS
   STRESS_TENSOR  ANALYTICAL
   &DFT
     BASIS_SET_FILE_NAME BASIS_MOLOPT
     POTENTIAL_FILE_NAME GTH_POTENTIALS
     UKS  T
     SURFACE_DIPOLE_CORRECTION  T
     SURF_DIP_DIR  Z
     &SCF
       MAX_SCF  80
       EPS_SCF     5.0000000000000004E-06
       &OT  T
         PRECONDITIONER  FULL_ALL
       &END OT
       &OUTER_SCF  T
         OPTIMIZER  NONE
         EPS_SCF     5.0000000000000004E-06
         MAX_SCF  4
       &END OUTER_SCF
       &PRINT
         &RESTART  OFF
           BACKUP_COPIES  1
           &EACH
             JUST_ENERGY  0
             QS_SCF  0
             MD  20
           &END EACH
         &END RESTART
       &END PRINT
     &END SCF
     &QS
       EPS_DEFAULT     1.0000000000000000E-14
       METHOD  GPW
     &END QS
     &MGRID
       NGRIDS  5
       CUTOFF     1.2000000000000000E+03
     &END MGRID
     &XC
       DENSITY_CUTOFF     1.0000000000000000E-10
       GRADIENT_CUTOFF     1.0000000000000000E-10
       TAU_CUTOFF     1.0000000000000000E-10
       &XC_FUNCTIONAL  NO_SHORTCUT
         &PBE  T
         &END PBE
       &END XC_FUNCTIONAL
       &VDW_POTENTIAL
         POTENTIAL_TYPE  PAIR_POTENTIAL
         &PAIR_POTENTIAL
           R_CUTOFF     1.0000000000000004E+01
           TYPE  DFTD3
           PARAMETER_FILE_NAME dftd3.dat
           REFERENCE_FUNCTIONAL PBE
           EPS_CN     9.9999999999999995E-07
           CALCULATE_C9_TERM  T
           REFERENCE_C9_TERM  T
           LONG_RANGE_CORRECTION  F
           VERBOSE_OUTPUT  F
         &END PAIR_POTENTIAL
       &END VDW_POTENTIAL
     &END XC
   &END DFT
   &SUBSYS
     &CELL
       A     1.2864472766435110E+01    0.0000000000000000E+00    0.0000000000000000E+00
       B    -6.4322363581020028E+00    1.1140960178524473E+01    0.0000000000000000E+00
       C     0.0000000000000000E+00    0.0000000000000000E+00    3.2000000000000000E+01
       MULTIPLE_UNIT_CELL  1 1 1
       &CELL_REF
         A     1.2982353780853531E+01    0.0000000000000000E+00    0.0000000000000000E+00
         B    -6.4911768904267628E+00    1.1243048175136114E+01    0.0000000000000000E+00
         C     0.0000000000000000E+00    0.0000000000000000E+00    3.2000000000000000E+01
         MULTIPLE_UNIT_CELL  1 1 1
       &END CELL_REF
     &END CELL
     &COORD
N   -1.0374936174077530E-02    2.0472960415378463E+00    2.5212550429412284E+00
Ga   -1.1823057175726367E-02    9.9379387427918020E-02    2.8472685072588879E+00
N   -1.2698640199712044E-02    5.4698016796184135E-02    5.0135240463899784E+00
Ga   -1.2992401438324485E-02    1.8905740011991490E+00    5.7845686571634012E+00
N   -1.2933049050320328E-02    1.9025436502252138E+00    7.7849297025289532E+00
Ga   -1.2845092350055430E-02    5.9163213711288833E-02    8.4378121235331101E+00
N   -1.1843399476052579E-02    5.6340086574000796E-02    1.0408392235292819E+01
Ga   -1.2064678763861438E-02    1.8959148405137216E+00    1.1065511631696690E+01
N   -1.2064339085057840E-02    1.8760886262987329E+00    1.3053926711271250E+01
Ga   -1.1491587322328833E-02    5.6792893426723549E-02    1.3871898331426300E+01
N   -1.0729835806376585E-02    5.6705645879121046E-02    1.6056345040160465E+01
Ga   -1.0641340092763076E-02    2.1036167745885934E+00    1.6475441456298693E+01
Ga   -1.1430740778741387E-02    3.7062956084501306E+00    1.3089303891894761E+00
N   -1.4877728335190787E+00    4.6314832655751719E+00    2.4637979755917567E+00
Ga   -1.6866766381645668E+00    2.7973612874525706E+00    3.2541108199576128E+00
N   -1.6235120847732558E+00    2.8448068604199461E+00    5.2367866528931462E+00
Ga   -1.6503501270913512E+00    4.7064324483501148E+00    5.7966399849821082E+00
N   -1.6297317880239048E+00    4.7063037008486424E+00    7.7882666952508695E+00
Ga   -1.6101604073400042E+00    2.8459668049634552E+00    8.4296310585500791E+00
N   -1.6090152833120626E+00    2.8487754946726329E+00    1.0419564654304535E+01
Ga   -1.6363225841642604E+00    4.7065225441564849E+00    1.1067018616069410E+01
N   -1.6525604398154652E+00    4.7177794371026334E+00    1.3054493627959204E+01
Ga   -1.6103915057290881E+00    2.8476459051277825E+00    1.3613884442528022E+01
N   -1.6395114201311083E+00    2.8320670078229644E+00    1.5569508706017272E+01
Ga   -1.4472047106896047E+00    4.5988586526124431E+00    1.6478662350622525E+01
N   -4.4306323359433047E-03    3.7656785308591552E+00    1.7603771969759425E+01
N   -3.2211515475908934E+00    7.6039475322790056E+00    2.4969414835766925E+00
Ga   -3.1993027048029767E+00    5.5989490678098726E+00    2.8216149402670698E+00
N   -3.2248436549679105E+00    5.6265207868541864E+00    5.0014917684069511E+00
Ga   -3.2353002303928058E+00    7.4441221085956011E+00    5.7977902339204404E+00
N   -3.2276563223946533E+00    7.4735629247675517E+00    7.7855537911242516E+00
Ga   -3.2284302913554006E+00    5.6262657174403747E+00    8.4412745148205044E+00
N   -3.2284342597554754E+00    5.6282828561858169E+00    1.0409634120249112E+01
Ga   -3.2290450074558277E+00    7.4664540773337844E+00    1.1069053984555135E+01
N   -3.2276045010381225E+00    7.4474946917889140E+00    1.3057232233849053E+01
Ga   -3.2275533868380935E+00    5.6269181723158743E+00    1.3870992602078015E+01
N   -3.2255261104773489E+00    5.6258511626353993E+00    1.6060508211608965E+01
Ga   -3.2273328429041213E+00    7.6690998954150613E+00    1.6480610208889789E+01
Ga   -3.2615664377554965E+00    9.3669053538964455E+00    1.4497491938323681E+00
N   -4.7339926673757882E+00    1.0210155095695777E+01    2.5176881656448256E+00
Ga   -4.9370193596292502E+00    8.3544930352764588E+00    3.2729933929806623E+00
N   -4.8338039125121623E+00    8.4106771253461705E+00    5.2355823218196811E+00
Ga   -4.8650736895360769E+00    1.0283992570713515E+01    5.7943120294417900E+00
N   -4.8461933555249921E+00    1.0274045800480243E+01    7.7866571209912490E+00
Ga   -4.8281127341731853E+00    8.4192329969043680E+00    8.4330844027611995E+00
N   -4.8243761075574456E+00    8.4188811483491026E+00    1.0420985403197621E+01
Ga   -4.8518197269779009E+00    1.0278225798424296E+01    1.1067116997472525E+01
N   -4.8675556935679500E+00    1.0287484644391057E+01    1.3055893781520600E+01
Ga   -4.8248717597970368E+00    8.4191664578302046E+00    1.3618360949607684E+01
N   -4.8494524691755032E+00    8.4043491557872763E+00    1.5577010910958435E+01
Ga   -4.6716746648909133E+00    1.0175307809475406E+01    1.6478685367494169E+01
N   -3.2222444778516341E+00    9.3388545278355917E+00    1.7624404609995384E+01
N    3.1951605860784351E+00    1.9177080090116589E+00    2.6110832552623138E+00
Ga    3.1971596849874202E+00    1.7705202677109921E-01    3.2826764732812848E+00
N    3.2053181748985060E+00    5.3852906779180330E-02    5.2435500854077306E+00
Ga    3.1962097713868012E+00    1.9163445144391766E+00    5.8694797082348344E+00
N    3.2041695182078440E+00    1.9126864308107094E+00    7.8415197382848074E+00
Ga    3.2015619808239184E+00    4.6666356549328103E-02    8.4341211602278356E+00
N    3.2043835021774192E+00    4.2821811687919542E-02    1.0422062286828881E+01
Ga    3.2051438725716768E+00    1.9134132086471041E+00    1.1020645513081975E+01
N    3.2061879160187856E+00    1.9125684836317187E+00    1.2987349587846746E+01
Ga    3.2043487936531379E+00    4.4104517604216874E-02    1.3617713405363340E+01
N    3.2049645634343920E+00    7.3107765444169928E-02    1.5576376043989354E+01
Ga    3.2069507514979305E+00    1.9128038145458028E+00    1.5855794476503171E+01
N    1.4749006612789830E+00    4.6328518106993704E+00    2.4899115935336225E+00
Ga    1.6648904813252148E+00    2.7997010124586157E+00    3.2635585179781907E+00
N    1.5995116039399324E+00    2.8435790267952528E+00    5.2441414550170506E+00
Ga    1.6254521610838670E+00    4.7073837349953216E+00    5.7993096391490955E+00
N    1.6044787038822843E+00    4.7067256831363862E+00    7.7906573654932760E+00
Ga    1.5842345577657027E+00    2.8461258626465011E+00    8.4312440305650149E+00
N    1.5854198426935722E+00    2.8482512237557818E+00    1.0421662995154231E+01
Ga    1.6120933324130986E+00    4.7064911895395367E+00    1.1068088444595942E+01
N    1.6287625651389077E+00    4.7179241142249397E+00    1.3055285459028127E+01
Ga    1.5860867502467264E+00    2.8476633376637226E+00    1.3613880371284820E+01
N    1.6178590065725764E+00    2.8296904594792793E+00    1.5569665753859093E+01
Ga    1.4321654878207999E+00    4.6024242812087746E+00    1.6475666036322568E+01
N   -1.3804274154358594E-02    7.4694429908450921E+00    2.6899433262527714E+00
Ga   -8.6027672725246460E-03    5.6013581744297198E+00    3.3061265275323457E+00
N   -1.3238122473175103E-02    5.6404765958520127E+00    5.2448835359352941E+00
Ga   -1.3550676952182190E-02    7.4744420063214623E+00    5.9010280470845178E+00
N   -1.3099379193619670E-02    7.4845606605499331E+00    7.8536580313506068E+00
Ga   -1.2867343677592529E-02    5.6113009998047696E+00    8.4413822783695167E+00
N   -1.2269189783510381E-02    5.6143179699506494E+00    1.0425592955134434E+01
Ga   -1.2387911929249727E-02    7.4842223983814904E+00    1.1023780462619685E+01
N   -1.2877253871123848E-02    7.4852801522008825E+00    1.2987422053559014E+01
Ga   -1.2100523365263139E-02    5.6157174822156009E+00    1.3615204065618318E+01
N   -1.2886495972685345E-02    5.6495613522429693E+00    1.5570513943486510E+01
Ga   -1.2621605763129904E-02    7.4846736849129849E+00    1.5860308708352957E+01
N   -1.7222389576200594E+00    1.0200172143899001E+01    2.5112658994703612E+00
Ga   -1.6035086815156814E+00    8.3931356844306730E+00    3.3207578362648951E+00
N   -1.6084987613391253E+00    8.4042887377990692E+00    5.2463106768769547E+00
Ga   -1.5960074101317716E+00    1.0290177889805575E+01    5.8043069336983342E+00
N   -1.6106231934277198E+00    1.0273016175658762E+01    7.7891875553381853E+00
Ga   -1.6337560991014382E+00    8.4191572269986512E+00    8.4417335853178521E+00
N   -1.6321442698277568E+00    8.4194262800823996E+00    1.0425096806094817E+01
Ga   -1.6053688194570168E+00    1.0278932611628637E+01    1.1069306513566618E+01
N   -1.5874819552589268E+00    1.0287620563892268E+01    1.3057328924930667E+01
Ga   -1.6307136623757206E+00    8.4190562016128929E+00    1.3619401352526552E+01
N   -1.6053294590633138E+00    8.4045238202182997E+00    1.5578380957349372E+01
Ga   -1.7789289103918335E+00    1.0177626548061145E+01    1.6480620740908876E+01
N    6.4194786232992067E+00    2.0390993308131349E+00    2.5275355586651043E+00
Ga    6.4193611230179801E+00    6.7044245286684609E-02    2.8667608704929135E+00
N    6.4188199376579620E+00    5.6654189053890969E-02    5.0134711669053651E+00
Ga    6.4201726739398826E+00    1.8910682832940993E+00    5.7974924539849386E+00
N    6.4197355214280289E+00    1.9027475932729512E+00    7.7880136699894082E+00
Ga    6.4193362629096189E+00    5.9089230764453951E-02    8.4430952196058531E+00
N    6.4195829162902784E+00    5.7091950958840045E-02    1.0410407506161285E+01
Ga    6.4208590679464193E+00    1.8978171939791730E+00    1.1065837487741293E+01
N    6.4209665762788726E+00    1.8767229989497012E+00    1.3054973595673525E+01
Ga    6.4212060676363674E+00    5.7038873831013061E-02    1.3871668137590309E+01
N    6.4229707490559260E+00    5.5881502973706525E-02    1.6060855098754210E+01
Ga    6.4211980813025553E+00    2.0967491848383011E+00    1.6479046596933621E+01
Ga    6.4173996635166191E+00    3.7652332124676620E+00    1.5110006923657686E+00
N    4.9193771581975767E+00    4.6361122027290733E+00    2.5204542643494556E+00
Ga    4.7013695757165745E+00    2.7850624495185690E+00    3.2913206103608266E+00
N    4.8097059217877147E+00    2.8419866469049140E+00    5.2488003698201844E+00
Ga    4.7865379201751050E+00    4.7150348602989478E+00    5.7959632965102212E+00
N    4.8020169834761735E+00    4.7063765319348718E+00    7.7882244698173650E+00
Ga    4.8205413522896476E+00    2.8483851154058959E+00    8.4322365744239125E+00
N    4.8239562856453189E+00    2.8492380108630830E+00    1.0421055678882837E+01
Ga    4.7980091251713262E+00    4.7079121096491994E+00    1.1066443497509283E+01
N    4.7811148050699863E+00    4.7174152878393807E+00    1.3055077519176303E+01
Ga    4.8238934438762762E+00    2.8484726579885411E+00    1.3616284724522709E+01
N    4.7993070404858100E+00    2.8337373117909914E+00    1.5575233826987798E+01
Ga    4.9764422278635996E+00    4.6037283212708466E+00    1.6477505628439260E+01
N    6.4262666671281021E+00    3.7661651604458002E+00    1.7623228266876001E+01
N    3.1954246538830025E+00    7.6048537602168036E+00    2.5034780421371576E+00
Ga    3.1754568753238064E+00    5.5992093930163875E+00    2.8377448660418025E+00
N    3.2032086505279791E+00    5.6286552414454363E+00    5.0126386632920577E+00
Ga    3.2094498997056982E+00    7.4466282567268633E+00    5.8023189013634209E+00
N    3.2017153517082759E+00    7.4749697607935115E+00    7.7890479321727142E+00
Ga    3.2035606885754753E+00    5.6269975359597675E+00    8.4435723692636557E+00
N    3.2043514872640508E+00    5.6281656791841437E+00    1.0411091541302193E+01
Ga    3.2051778106771991E+00    7.4665812445721755E+00    1.1069396802321878E+01
N    3.2040883516211540E+00    7.4472067856806570E+00    1.3056218205413478E+01
Ga    3.2050694584682673E+00    5.6270743961392578E+00    1.3872441396221284E+01
N    3.2054884377964017E+00    5.6265630958090105E+00    1.6056315671809202E+01
Ga    3.2059821963735802E+00    7.6762949907430640E+00    1.6478306692097838E+01
Ga    3.2357051896712283E+00    9.3636499648584781E+00    1.4507487847692853E+00
N    1.6958914097511442E+00    1.0200378919837961E+01    2.5109507642413149E+00
Ga    1.5761334711509574E+00    8.3941089596835727E+00    3.3219542794246291E+00
N    1.5815128268066623E+00    8.4045844656550219E+00    5.2476380022735167E+00
Ga    1.5696961005465018E+00    1.0291110833115578E+01    5.8034092953453031E+00
N    1.5844467022301729E+00    1.0273579675937192E+01    7.7884667633536644E+00
Ga    1.6073457784899809E+00    8.4200346414145990E+00    8.4426700507496371E+00
N    1.6073716385359962E+00    8.4197717643803411E+00    1.0425501404451715E+01
Ga    1.5811034499777528E+00    1.0279812373691634E+01    1.1068224545751152E+01
N    1.5638090682231109E+00    1.0288231080517457E+01    1.3055358568423859E+01
Ga    1.6061868418795142E+00    8.4189853986276351E+00    1.3616934140769711E+01
N    1.5767444305118359E+00    8.4027589263862943E+00    1.5572128524554641E+01
Ga    1.7708156987506092E+00    1.0169418895551631E+01    1.6481681033492549E+01
N    3.2124202602914775E+00    9.3372750288192545E+00    1.7608087019316585E+01
N    9.6452920655590582E+00    1.9178197491583682E+00    2.6086594190984220E+00
Ga    9.6426514641254997E+00    1.7708631097491725E-01    3.2797577552265467E+00
N    9.6331753457174987E+00    5.4050228778695295E-02    5.2412014684265271E+00
Ga    9.6437515256186757E+00    1.9173863863594074E+00    5.8633581694590431E+00
N    9.6353546764563589E+00    1.9133601299818843E+00    7.8365619821938939E+00
Ga    9.6372074729097843E+00    4.7868728043050569E-02    8.4318867628661565E+00
N    9.6357184627770192E+00    4.3623553293261036E-02    1.0419952212934646E+01
Ga    9.6359974556400427E+00    1.9142275487871401E+00    1.1018868527638338E+01
N    9.6350977236985038E+00    1.9140545257975183E+00    1.2984235266680718E+01
Ga    9.6364170025745253E+00    4.5713330641891863E-02    1.3615441774956741E+01
N    9.6356027306023080E+00    7.9023168065618085E-02    1.5570997645415762E+01
Ga    9.6355595317749092E+00    1.9145751789200154E+00    1.5858726910360863E+01
N    7.9214102169475735E+00    4.6366649208874620E+00    2.5143559941193914E+00
Ga    8.1393897351764224E+00    2.7857821617753853E+00    3.2860619202952601E+00
N    8.0295273028565877E+00    2.8419700213815027E+00    5.2440612304347853E+00
Ga    8.0553103451049584E+00    4.7148005867056115E+00    5.7898731413982842E+00
N    8.0383242288464203E+00    4.7065666038744229E+00    7.7838208218330101E+00
Ga    8.0197687196049543E+00    2.8488288364164869E+00    8.4291687243801814E+00
N    8.0169207991407667E+00    2.8494083419114982E+00    1.0418608631798177E+01
Ga    8.0430747345442413E+00    4.7073212254365124E+00    1.1065670490381207E+01
N    8.0606610501926212E+00    4.7172836983896529E+00    1.3054948659228645E+01
Ga    8.0178854867945635E+00    2.8483455928372088E+00    1.3616535742341259E+01
N    8.0427264692207387E+00    2.8338979832861648E+00    1.5576086191353875E+01
Ga    7.8697364537851708E+00    4.6059416677825800E+00    1.6479113273621916E+01
N    6.4183436979003998E+00    7.4838701940371957E+00    2.5960869099379957E+00
Ga    6.4202251763463689E+00    5.7447949218838481E+00    3.2831754658397831E+00
N    6.4203752179276163E+00    5.6300806253461779E+00    5.2417172488717680E+00
Ga    6.4192886359257662E+00    7.4859894390990300E+00    5.8665653480783533E+00
N    6.4193079785337979E+00    7.4858607896061917E+00    7.8365027924956951E+00
Ga    6.4207119166833166E+00    5.6172134457077512E+00    8.4309554815471444E+00
N    6.4207486896789936E+00    5.6149567950890056E+00    1.0419804981364493E+01
Ga    6.4214335928866619E+00    7.4835574801140714E+00    1.1021960505040290E+01
N    6.4220039931896720E+00    7.4834003891750989E+00    1.2988261704894519E+01
Ga    6.4208016907006931E+00    5.6142110265327316E+00    1.3617087664388881E+01
N    6.4211924636013364E+00    5.6429365793993034E+00    1.5576038771180736E+01
Ga    6.4230083164908951E+00    7.4824397500198483E+00    1.5856718105703214E+01
N    4.7093856511343741E+00    1.0210243951678656E+01    2.5175839862875735E+00
Ga    4.9104628370059862E+00    8.3557316705345102E+00    3.2758203484218686E+00
N    4.8078940022017633E+00    8.4117951584311310E+00    5.2380299070049627E+00
Ga    4.8392643259223753E+00    1.0285109874053530E+01    5.7940070913407515E+00
N    4.8204899489223418E+00    1.0274661906842203E+01    7.7864323538972480E+00
Ga    4.8028426793457557E+00    8.4202674359200405E+00    8.4346132594682128E+00
N    4.8015022036955202E+00    8.4187298510551685E+00    1.0422201317568303E+01
Ga    4.8276185965391889E+00    1.0278855065575703E+01    1.1066478046457874E+01
N    4.8444911578275081E+00    1.0288302253966833E+01    1.3054621777481515E+01
Ga    4.8023362996807943E+00    8.4189007431069065E+00    1.3615634935434674E+01
N    4.8341714014912336E+00    8.4002919436194983E+00    1.5571294618836067E+01
Ga    4.6472827814484399E+00    1.0172947456486726E+01    1.6478029180728914E+01
O    1.0395246726577942E-01    3.4717612503007809E+00   -4.9222531266518904E-01
H   -1.5021872196392661E-02    7.4645387480366221E+00    1.6638517054264992E+00
C    7.0941007499234610E-01    2.2124228022492765E+00   -8.4994726362635387E-01
H    1.7857253262323689E+00    2.1920367552399909E+00   -6.1484146689865271E-01
H    2.3575976266124865E-01    1.3586278734124535E+00   -3.3668240729426779E-01
H    5.8149186153490573E-01    2.0782833582877531E+00   -1.9334212051773096E+00
     &END COORD
     &KIND C
       BASIS_SET DZVP-MOLOPT-SR-GTH-q4
       POTENTIAL GTH-PBE-q4
       &POTENTIAL
 2 2
  0.3384712400000000E+00 2 -0.8803673979999999E+01  0.1339210850000000E+01
 2
  0.3025757500000000E+00 1  0.9622486650000001E+01
  0.2915069400000000E+00 0
         # Potential name:  GTH-PBE-Q4  for symbol:  C
         # Potential read from the potential filename: GTH_POTENTIALS
       &END POTENTIAL
     &END KIND
     &KIND O
       BASIS_SET DZVP-MOLOPT-SR-GTH-q6
       POTENTIAL GTH-PBE-q6
       &POTENTIAL
 2 4
  0.2445543000000000E+00 2 -0.1666721480000000E+02  0.2487311320000000E+01
 2
  0.2209559200000000E+00 1  0.1833745811000000E+02
  0.2113324700000000E+00 0
         # Potential name:  GTH-PBE-Q6  for symbol:  O
         # Potential read from the potential filename: GTH_POTENTIALS
       &END POTENTIAL
     &END KIND
     &KIND H
       BASIS_SET DZVP-MOLOPT-SR-GTH-q1
       POTENTIAL GTH-PBE-q1
       &POTENTIAL
 1
  0.2000000000000000E+00 2 -0.4178900440000000E+01  0.7244633100000000E+00
 0
         # Potential name:  GTH-PBE-Q1  for symbol:  H
         # Potential read from the potential filename: GTH_POTENTIALS
       &END POTENTIAL
     &END KIND
     &KIND N
       BASIS_SET DZVP-MOLOPT-SR-GTH
       POTENTIAL GTH-PBE-q5
       &POTENTIAL
 2 3
  0.2837905100000000E+00 2 -0.1241522559000000E+02  0.1868095920000000E+01
 2
  0.2554050000000000E+00 1  0.1363026257000000E+02
  0.2454945300000000E+00 0
         # Potential name:  GTH-PBE-Q5  for symbol:  N
         # Potential read from the potential filename: GTH_POTENTIALS
       &END POTENTIAL
     &END KIND
     &KIND Ga
       BASIS_SET DZVP-MOLOPT-SR-GTH
       POTENTIAL GTH-PBE-q13
       &POTENTIAL
 2 1 10
  0.4900000000000000E+00 0
 3
  0.4167772300000000E+00 3  0.1047568975000000E+02 -0.4921768140000000E+01  0.8707055900000000E+00
  0.7770178090000000E+01 -0.2248152160000000E+01
  0.1784415450000000E+01
  0.5696265200000000E+00 2  0.1777985340000000E+01  0.1958597600000000E+00
 -0.2317443900000000E+00
  0.2381265000000000E+00 1 -0.1624868022000000E+02
         # Potential name:  GTH-PBE-Q13  for symbol:  GA
         # Potential read from the potential filename: GTH_POTENTIALS
       &END POTENTIAL
     &END KIND
     &TOPOLOGY
       NUMBER_OF_ATOMS  206
       MULTIPLE_UNIT_CELL  1 1 1
     &END TOPOLOGY
   &END SUBSYS
 &END FORCE_EVAL
