 # Version information for this restart file 
 # current date 2019-06-24 16:05:39.389
 # current working dir /scratch/rzk/rzk/GaN-carbene/443-adatoms-both-2x2/03-DissMethanol/04-O-GaTop-H-NSur
 # Program compiled at                              Sun Apr  7 00:48:11 EDT 2019
 # Program compiled on                          beluga2.int.ets1.calculquebec.ca
 # Program compiled for                        Beluga-Linux-x86-64-intel-openmpi
 # Source code revision number                                         svn:18619
 &GLOBAL
   PRINT_LEVEL  MEDIUM
   PROJECT_NAME TEST
   RUN_TYPE  GEO_OPT
 &END GLOBAL
 &MOTION
   &GEO_OPT
     MAX_ITER  500
     STEP_START_VAL  11
   &END GEO_OPT
 &END MOTION
 &FORCE_EVAL
   METHOD  QS
   STRESS_TENSOR  ANALYTICAL
   &DFT
     BASIS_SET_FILE_NAME BASIS_MOLOPT
     POTENTIAL_FILE_NAME GTH_POTENTIALS
     UKS  T
     SURFACE_DIPOLE_CORRECTION  T
     SURF_DIP_DIR  Z
     &SCF
       MAX_SCF  80
       EPS_SCF     5.0000000000000004E-06
       &OT  T
         PRECONDITIONER  FULL_ALL
       &END OT
       &OUTER_SCF  T
         OPTIMIZER  NONE
         EPS_SCF     5.0000000000000004E-06
         MAX_SCF  4
       &END OUTER_SCF
       &PRINT
         &RESTART  OFF
           BACKUP_COPIES  1
           &EACH
             JUST_ENERGY  0
             QS_SCF  0
             MD  20
           &END EACH
         &END RESTART
       &END PRINT
     &END SCF
     &QS
       EPS_DEFAULT     1.0000000000000000E-14
       METHOD  GPW
     &END QS
     &MGRID
       NGRIDS  5
       CUTOFF     1.2000000000000000E+03
     &END MGRID
     &XC
       DENSITY_CUTOFF     1.0000000000000000E-10
       GRADIENT_CUTOFF     1.0000000000000000E-10
       TAU_CUTOFF     1.0000000000000000E-10
       &XC_FUNCTIONAL  NO_SHORTCUT
         &PBE  T
         &END PBE
       &END XC_FUNCTIONAL
       &VDW_POTENTIAL
         POTENTIAL_TYPE  PAIR_POTENTIAL
         &PAIR_POTENTIAL
           R_CUTOFF     1.0000000000000004E+01
           TYPE  DFTD3
           PARAMETER_FILE_NAME dftd3.dat
           REFERENCE_FUNCTIONAL PBE
           EPS_CN     9.9999999999999995E-07
           CALCULATE_C9_TERM  T
           REFERENCE_C9_TERM  T
           LONG_RANGE_CORRECTION  F
           VERBOSE_OUTPUT  F
         &END PAIR_POTENTIAL
       &END VDW_POTENTIAL
     &END XC
   &END DFT
   &SUBSYS
     &CELL
       A     1.2864472766435110E+01    0.0000000000000000E+00    0.0000000000000000E+00
       B    -6.4322363581020028E+00    1.1140960178524473E+01    0.0000000000000000E+00
       C     0.0000000000000000E+00    0.0000000000000000E+00    3.2000000000000000E+01
       MULTIPLE_UNIT_CELL  1 1 1
       &CELL_REF
         A     1.2982353780853531E+01    0.0000000000000000E+00    0.0000000000000000E+00
         B    -6.4911768904267628E+00    1.1243048175136114E+01    0.0000000000000000E+00
         C     0.0000000000000000E+00    0.0000000000000000E+00    3.2000000000000000E+01
         MULTIPLE_UNIT_CELL  1 1 1
       &END CELL_REF
     &END CELL
     &COORD
N    5.0564120067837824E-03    2.0475808308654777E+00    2.5130090036317991E+00
Ga    5.9534245363753726E-03    9.1790293973479431E-02    2.8397079142274446E+00
N    3.6534339051034880E-03    4.6280862979239050E-02    5.0037697723841061E+00
Ga    7.2238272666439434E-03    1.8774621043734072E+00    5.7822746932086924E+00
N   -4.5093122961656117E-03    1.8982558325277619E+00    7.7794065355880830E+00
Ga   -1.0050805828038677E-02    5.8830497757505894E-02    8.4365718148775972E+00
N   -1.5473998505327520E-02    5.9321713185708010E-02    1.0404987134385014E+01
Ga   -1.7161446571230855E-02    1.8995608876687662E+00    1.1061046959285518E+01
N   -1.7931388570164779E-02    1.8800191166723685E+00    1.3047992865779712E+01
Ga   -1.7858093171166007E-02    6.0084660646947036E-02    1.3868458911810903E+01
N   -1.5812969033274182E-02    5.4348843400851006E-02    1.6059936641356376E+01
Ga   -1.5778897729166280E-02    2.1057904972931047E+00    1.6470953199674643E+01
Ga   -6.1665245600907963E-02    3.7244397060637628E+00    1.3056720211024850E+00
N   -1.4716915495130347E+00    4.6190272302632067E+00    2.4893672132524238E+00
Ga   -1.6647549968691091E+00    2.7755131832505988E+00    3.2800672116658518E+00
N   -1.6075776582302417E+00    2.8342487044198847E+00    5.2449593481661392E+00
Ga   -1.6415121992114914E+00    4.7003664009040023E+00    5.7977717533290551E+00
N   -1.6273371237519021E+00    4.7034080452096001E+00    7.7860077222487636E+00
Ga   -1.6032508827234786E+00    2.8417283830620255E+00    8.4201462134741760E+00
N   -1.6113934323324570E+00    2.8504306961669510E+00    1.0407378073047935E+01
Ga   -1.6410742356851515E+00    4.7070295801763553E+00    1.1059525209858704E+01
N   -1.6581340326472471E+00    4.7201424418765381E+00    1.3048823819329217E+01
Ga   -1.6168890978379136E+00    2.8504088786463138E+00    1.3609586374382504E+01
N   -1.6422921385009241E+00    2.8325083635048656E+00    1.5568042124462242E+01
Ga   -1.4524462485439136E+00    4.6011097024944165E+00    1.6476553184160736E+01
N   -8.8000371115573642E-03    3.7668212729959345E+00    1.7603897898515534E+01
N   -3.1944424469559012E+00    7.5900280537206406E+00    2.5129109963365419E+00
Ga   -3.1807679572354211E+00    5.5812236434659699E+00    2.8320401938962325E+00
N   -3.2156464326506766E+00    5.6175251351811584E+00    5.0005083790965301E+00
Ga   -3.2252651839649435E+00    7.4364466712516135E+00    5.8077455113081298E+00
N   -3.2255275799953682E+00    7.4724467599231144E+00    7.7927962529569204E+00
Ga   -3.2256597215865996E+00    5.6234637950556383E+00    8.4382448590723911E+00
N   -3.2324503787217309E+00    5.6302375550865200E+00    1.0405967247614626E+01
Ga   -3.2367842224476369E+00    7.4671806553283071E+00    1.1072233945954682E+01
N   -3.2338459465800531E+00    7.4503551257621909E+00    1.3062253471461077E+01
Ga   -3.2310883915910731E+00    5.6286560608318537E+00    1.3870766579758929E+01
N   -3.2278330660008097E+00    5.6265176778422061E+00    1.6068308118323163E+01
Ga   -3.2292895027604773E+00    7.6688693096710363E+00    1.6484652762977671E+01
Ga   -3.2197583767593043E+00    9.3540298121100580E+00    1.4822005998835346E+00
N   -4.7092991129956410E+00    1.0195711990114667E+01    2.5307459251393434E+00
Ga   -4.9195631557094286E+00    8.3471025102737375E+00    3.2849640662364856E+00
N   -4.8221288368090827E+00    8.4020643779738915E+00    5.2442011540464435E+00
Ga   -4.8534881717517440E+00    1.0274894323872616E+01    5.8017697567065154E+00
N   -4.8452334836899960E+00    1.0272307765120889E+01    7.7907177679902828E+00
Ga   -4.8292866163713377E+00    8.4188670790491589E+00    8.4378469161826839E+00
N   -4.8291874124388654E+00    8.4218671747235625E+00    1.0422163720883127E+01
Ga   -4.8571109784611659E+00    1.0279824084587826E+01    1.1070351879044537E+01
N   -4.8720800801721138E+00    1.0289502639491140E+01    1.3059366560570965E+01
Ga   -4.8314313642817686E+00    8.4207384096407942E+00    1.3625605052929222E+01
N   -4.8523098083230396E+00    8.4036239451007688E+00    1.5586531160907777E+01
Ga   -4.6744234467515708E+00    1.0175661814389988E+01    1.6482907413967631E+01
N   -3.2247411599859568E+00    9.3409002271597643E+00    1.7641280484069508E+01
N    3.2157834784904220E+00    1.8978096685382497E+00    2.6272419774682709E+00
Ga    3.2139543431015092E+00    1.6113908493158022E-01    3.3134405829930982E+00
N    3.2243742581703896E+00    4.1646411275412742E-02    5.2651379663285782E+00
Ga    3.2108392143877786E+00    1.9095792564206060E+00    5.8845391165617587E+00
N    3.2104596298754031E+00    1.9092236236246338E+00    7.8489904387180935E+00
Ga    3.2018409956046407E+00    4.3019100810435820E-02    8.4404927159914287E+00
N    3.1998273489753730E+00    4.3631889057794429E-02    1.0423601800083878E+01
Ga    3.2031083246899534E+00    1.9163336174551573E+00    1.1019243438219558E+01
N    3.2012413053958539E+00    1.9162045325362356E+00    1.2986083455919195E+01
Ga    3.1997327021214281E+00    4.8242182009808586E-02    1.3621138244899813E+01
N    3.2029035265792305E+00    7.4032329906423056E-02    1.5583331123740102E+01
Ga    3.2010904827206557E+00    1.9137029751386567E+00    1.5857127594315630E+01
N    1.4730990556881882E+00    4.6133785297383216E+00    2.4640332971299266E+00
Ga    1.6751652585145349E+00    2.7874145294819423E+00    3.2556321670141100E+00
N    1.6151120486099011E+00    2.8352573499037672E+00    5.2359971576241495E+00
Ga    1.6435875125222057E+00    4.6947148414073627E+00    5.8040755136960280E+00
N    1.6119744396485176E+00    4.7006522129306676E+00    7.7910429583384175E+00
Ga    1.5875981471507143E+00    2.8417015238134624E+00    8.4332247223754599E+00
N    1.5819999137371523E+00    2.8499282376703778E+00    1.0415932079063719E+01
Ga    1.6087837436651369E+00    4.7085671950158989E+00    1.1063563543391561E+01
N    1.6238001988743722E+00    4.7212200514590492E+00    1.3049871543976105E+01
Ga    1.5806220169963825E+00    2.8510942150361060E+00    1.3610156441032151E+01
N    1.6128139881374335E+00    2.8308847701402691E+00    1.5569011083790128E+01
Ga    1.4271942762000651E+00    4.6049529521680617E+00    1.6471047894417239E+01
N    3.9442413785672212E-03    7.4428315529132112E+00    2.6950053181975600E+00
Ga    1.3511999523702316E-02    5.5846477896790878E+00    3.3179404066557630E+00
N    3.7456598557673239E-03    5.6304661589993366E+00    5.2572750748371586E+00
Ga    2.0101297889374122E-03    7.4608388008072932E+00    5.9293095976855703E+00
N   -8.8891305204359464E-03    7.4821899348332304E+00    7.8730555423763455E+00
Ga   -8.7679525874321904E-03    5.5998266102771730E+00    8.4423925003552984E+00
N   -1.5568922091373503E-02    5.6123410286869149E+00    1.0423333107790606E+01
Ga   -1.6372030529393424E-02    7.4852833554420162E+00    1.1020430067478388E+01
N   -1.8146252215930574E-02    7.4883590489899712E+00    1.2987693267662408E+01
Ga   -1.7699229436253943E-02    5.6197073890678340E+00    1.3609616686137510E+01
N   -1.6396026033152579E-02    5.6503776957344192E+00    1.5568636625358440E+01
Ga   -1.3631226951455763E-02    7.4841511651541914E+00    1.5860669557749752E+01
N   -1.6982276628209652E+00    1.0176119665975149E+01    2.5368952644262164E+00
Ga   -1.5796024208207893E+00    8.3674234766928794E+00    3.3459416686849401E+00
N   -1.5892883166061376E+00    8.3911401121683227E+00    5.2664712384336498E+00
Ga   -1.5807094846794314E+00    1.0277720133826771E+01    5.8213235057961539E+00
N   -1.6058905007073190E+00    1.0268485117295073E+01    7.8012534782072001E+00
Ga   -1.6361333181043034E+00    8.4179284752750760E+00    8.4578630473773533E+00
N   -1.6401574984528762E+00    8.4230127420744676E+00    1.0435312799794003E+01
Ga   -1.6098455817089330E+00    1.0282905529251808E+01    1.1072145520366535E+01
N   -1.5919065467106290E+00    1.0291531265511219E+01    1.3061760419610318E+01
Ga   -1.6336761089918819E+00    8.4206042599299007E+00    1.3621910190251864E+01
N   -1.6065749831788341E+00    8.4045782548408443E+00    1.5585946764892528E+01
Ga   -1.7794689670730592E+00    1.0178753700067743E+01    1.6485293149583224E+01
N    6.4397569263384211E+00    2.0203187654588244E+00    2.5435653994261500E+00
Ga    6.4431391631599029E+00    4.9216481688055688E-02    2.8802019198225435E+00
N    6.4340373354618716E+00    4.6135375546004546E-02    5.0147430434801494E+00
Ga    6.4369290796217671E+00    1.8803609381997244E+00    5.8113536311428602E+00
N    6.4257045686783894E+00    1.8992838041309583E+00    7.7948529519283474E+00
Ga    6.4243437973951707E+00    5.6092955411186099E-02    8.4454193300762324E+00
N    6.4161953854759330E+00    6.1230627060152039E-02    1.0410725351476747E+01
Ga    6.4184565165009602E+00    1.9036641673694010E+00    1.1065991774750737E+01
N    6.4163946499945848E+00    1.8800283332550569E+00    1.3057558412535176E+01
Ga    6.4174723324176064E+00    5.9585682855516665E-02    1.3869010942280118E+01
N    6.4229398013052066E+00    5.3160089405969099E-02    1.6071551775990937E+01
Ga    6.4192159834880753E+00    2.0963934963671331E+00    1.6482683549355148E+01
Ga    6.4339262908262524E+00    3.7450296258176028E+00    1.5139520731432263E+00
N    4.9364559507202053E+00    4.6189141672563299E+00    2.5359822149304341E+00
Ga    4.7222112265904839E+00    2.7686328918229610E+00    3.3092416338950228E+00
N    4.8300143475776078E+00    2.8293197662240175E+00    5.2647549004094660E+00
Ga    4.8020415875238704E+00    4.7051477825232553E+00    5.8037929106159867E+00
N    4.8068796006679522E+00    4.7050883655380051E+00    7.7919060087818242E+00
Ga    4.8247724438352906E+00    2.8477193627101678E+00    8.4386490545571604E+00
N    4.8222609666525154E+00    2.8538922139627814E+00    1.0423719949533963E+01
Ga    4.7962754344941878E+00    4.7125018744720819E+00    1.1068714873418177E+01
N    4.7770493464730119E+00    4.7208943744466021E+00    1.3058535211879652E+01
Ga    4.8178661394087952E+00    2.8504805576950778E+00    1.3619492429954684E+01
N    4.7947538917569368E+00    2.8313187630665420E+00    1.5580496248952478E+01
Ga    4.9750142154949328E+00    4.6037314161156786E+00    1.6479874830183441E+01
N    6.4220273326432151E+00    3.7650893920766810E+00    1.7635364651881670E+01
N    3.2092172166142547E+00    7.5808469862693393E+00    2.5140332147336610E+00
Ga    3.1861181321555350E+00    5.5772387921150646E+00    2.8436847007155923E+00
N    3.2181652295003302E+00    5.6137433652187383E+00    5.0047003250422790E+00
Ga    3.2216622186487736E+00    7.4364933334147132E+00    5.8034431916973492E+00
N    3.2056017323321071E+00    7.4715311062022751E+00    7.7895713570015452E+00
Ga    3.2074152679209105E+00    5.6251699538844440E+00    8.4433631306498160E+00
N    3.2022429164482555E+00    5.6307356510282611E+00    1.0407850796646473E+01
Ga    3.2049630304286172E+00    7.4699384760823868E+00    1.1068022307360168E+01
N    3.2001238859759353E+00    7.4519603563723003E+00    1.3054709995707253E+01
Ga    3.1989396911359895E+00    5.6306112732163278E+00    1.3868676114501078E+01
N    3.2025808244757554E+00    5.6298285459476523E+00    1.6058226528806781E+01
Ga    3.2028135406097689E+00    7.6752041712143919E+00    1.6475820236445148E+01
Ga    3.2481318707743987E+00    9.3333911297707761E+00    1.4479170979385234E+00
N    1.7131048545515686E+00    1.0171500334185788E+01    2.5153410267130072E+00
Ga    1.5939690061561358E+00    8.3705624972666790E+00    3.3302664814474330E+00
N    1.5894526952220545E+00    8.3914516511440933E+00    5.2557958156276143E+00
Ga    1.5848648157832574E+00    1.0277233161908121E+01    5.8081764033208803E+00
N    1.5887630094785830E+00    1.0269147181200825E+01    7.7908068288493233E+00
Ga    1.6170884494419073E+00    8.4195019805200975E+00    8.4532104501348488E+00
N    1.6073867008056204E+00    8.4243538232637292E+00    1.0430652737061608E+01
Ga    1.5788952839726904E+00    1.0284614858607082E+01    1.1066136788425188E+01
N    1.5589904567316417E+00    1.0291968440974173E+01    1.3055009448378099E+01
Ga    1.5996645068299933E+00    8.4213661076276125E+00    1.3613756501956525E+01
N    1.5749920939062141E+00    8.4030203593595800E+00    1.5574660363244156E+01
Ga    1.7664561257688132E+00    1.0170275228733146E+01    1.6484498591970553E+01
N    3.2098926115857722E+00    9.3366822941173471E+00    1.7623934773007850E+01
N    9.6695731460254493E+00    1.8961839496292052E+00    2.6151157779808676E+00
Ga    9.6638161237483633E+00    1.5076756261665120E-01    3.2837214478296031E+00
N    9.6434302991364031E+00    4.1015675785605860E-02    5.2434218451383368E+00
Ga    9.6546419077725130E+00    1.9041576561163083E+00    5.8713896487542048E+00
N    9.6385221910443892E+00    1.9087287314430195E+00    7.8358165903003325E+00
Ga    9.6439587318576869E+00    4.3501369975319747E-02    8.4287670676494457E+00
N    9.6330198516080365E+00    4.4994931848587008E-02    1.0413732101803687E+01
Ga    9.6321686053140869E+00    1.9176438058579837E+00    1.1011020003217123E+01
N    9.6296886718773766E+00    1.9173053744873221E+00    1.2978763122365926E+01
Ga    9.6309593000005442E+00    5.0090539058449193E-02    1.3613000240488583E+01
N    9.6334607093180455E+00    7.7621308291840080E-02    1.5573546427568715E+01
Ga    9.6356942021552570E+00    1.9124018011802217E+00    1.5859995535875129E+01
N    7.9378378466254205E+00    4.6192139043216898E+00    2.5256524449531605E+00
Ga    8.1610643424080997E+00    2.7666461431074629E+00    3.2928859616396458E+00
N    8.0421555355771357E+00    2.8298001340305157E+00    5.2503724826764904E+00
Ga    8.0662256390617895E+00    4.7041918351460570E+00    5.7938038044189213E+00
N    8.0412230461808196E+00    4.7040379424205963E+00    7.7848417739361215E+00
Ga    8.0248970806099837E+00    2.8477136585127032E+00    8.4323839895867412E+00
N    8.0134102930841653E+00    2.8544805458647624E+00    1.0419075499773637E+01
Ga    8.0392500397310691E+00    4.7115335505938765E+00    1.1067068923276391E+01
N    8.0548361717258672E+00    4.7202345604143066E+00    1.3059150242691604E+01
Ga    8.0156599556607429E+00    2.8497053196290776E+00    1.3620007759044647E+01
N    8.0430022952591500E+00    2.8312448182891314E+00    1.5582039723068831E+01
Ga    7.8661520038426289E+00    4.6049634538517177E+00    1.6483593773075913E+01
N    6.4380781041422317E+00    7.4725063764055193E+00    2.6069865539693584E+00
Ga    6.4372615716031802E+00    5.7294166987294144E+00    3.2891335153240240E+00
N    6.4336044512478869E+00    5.6206688379968881E+00    5.2486284093888926E+00
Ga    6.4312581398734308E+00    7.4758405035897475E+00    5.8755666618962783E+00
N    6.4231706762610381E+00    7.4837919570065559E+00    7.8410931256758198E+00
Ga    6.4241902965325224E+00    5.6189976176107095E+00    8.4346898836860102E+00
N    6.4181954177335356E+00    5.6184673394652584E+00    1.0421889762666231E+01
Ga    6.4166611349209264E+00    7.4863772382313840E+00    1.1022504526885555E+01
N    6.4162920271325987E+00    7.4870567195065654E+00    1.2989184486855850E+01
Ga    6.4161726394878000E+00    5.6200789530413680E+00    1.3623499267871317E+01
N    6.4196262084185829E+00    5.6467084964414367E+00    1.5583525719818798E+01
Ga    6.4197636937106157E+00    7.4842001131554401E+00    1.5863227872757122E+01
N    4.7263213564778699E+00    1.0186669516380832E+01    2.5204357310899037E+00
Ga    4.9272056107619271E+00    8.3432219568227630E+00    3.2853586874420513E+00
N    4.8219163709904498E+00    8.4005794486031924E+00    5.2436543589846512E+00
Ga    4.8533093984852371E+00    1.0276640115192322E+01    5.7904360419710237E+00
N    4.8283278976727848E+00    1.0274043372195187E+01    7.7814206282655389E+00
Ga    4.8073712821554544E+00    8.4203565663232940E+00    8.4305852338302714E+00
N    4.7987993524053447E+00    8.4223345430078052E+00    1.0415655436738700E+01
Ga    4.8234878424419909E+00    1.0280684632317165E+01    1.1063601563996412E+01
N    4.8370183599673950E+00    1.0289641423345431E+01    1.3051979914074581E+01
Ga    4.7983215026056865E+00    8.4211767866157405E+00    1.3618280088535931E+01
N    4.8313477879675588E+00    8.4006893020545004E+00    1.5576607031889523E+01
Ga    4.6446865808264857E+00    1.0173503634881953E+01    1.6478018378138781E+01
O   -1.2969567611939800E-01    3.5276285135560705E+00   -4.8905674566799634E-01
H   -1.5449579401205992E-03    7.4216133296065587E+00    1.6619052302342179E+00
C    6.0879281755553061E-01    2.3638153840049307E+00   -9.3131900192279393E-01
H    1.6718726750837263E+00    2.4255127579694657E+00   -6.0256226853029649E-01
H    1.7122614782956291E-01    1.4064817217542633E+00   -5.4476009620026278E-01
H    6.0517117933062614E-01    2.3282833582877531E+00   -2.0503750376795344E+00
     &END COORD
     &KIND C
       BASIS_SET DZVP-MOLOPT-SR-GTH-q4
       POTENTIAL GTH-PBE-q4
       &POTENTIAL
 2 2
  0.3384712400000000E+00 2 -0.8803673979999999E+01  0.1339210850000000E+01
 2
  0.3025757500000000E+00 1  0.9622486650000001E+01
  0.2915069400000000E+00 0
         # Potential name:  GTH-PBE-Q4  for symbol:  C
         # Potential read from the potential filename: GTH_POTENTIALS
       &END POTENTIAL
     &END KIND
     &KIND O
       BASIS_SET DZVP-MOLOPT-SR-GTH-q6
       POTENTIAL GTH-PBE-q6
       &POTENTIAL
 2 4
  0.2445543000000000E+00 2 -0.1666721480000000E+02  0.2487311320000000E+01
 2
  0.2209559200000000E+00 1  0.1833745811000000E+02
  0.2113324700000000E+00 0
         # Potential name:  GTH-PBE-Q6  for symbol:  O
         # Potential read from the potential filename: GTH_POTENTIALS
       &END POTENTIAL
     &END KIND
     &KIND H
       BASIS_SET DZVP-MOLOPT-SR-GTH-q1
       POTENTIAL GTH-PBE-q1
       &POTENTIAL
 1
  0.2000000000000000E+00 2 -0.4178900440000000E+01  0.7244633100000000E+00
 0
         # Potential name:  GTH-PBE-Q1  for symbol:  H
         # Potential read from the potential filename: GTH_POTENTIALS
       &END POTENTIAL
     &END KIND
     &KIND N
       BASIS_SET DZVP-MOLOPT-SR-GTH
       POTENTIAL GTH-PBE-q5
       &POTENTIAL
 2 3
  0.2837905100000000E+00 2 -0.1241522559000000E+02  0.1868095920000000E+01
 2
  0.2554050000000000E+00 1  0.1363026257000000E+02
  0.2454945300000000E+00 0
         # Potential name:  GTH-PBE-Q5  for symbol:  N
         # Potential read from the potential filename: GTH_POTENTIALS
       &END POTENTIAL
     &END KIND
     &KIND Ga
       BASIS_SET DZVP-MOLOPT-SR-GTH
       POTENTIAL GTH-PBE-q13
       &POTENTIAL
 2 1 10
  0.4900000000000000E+00 0
 3
  0.4167772300000000E+00 3  0.1047568975000000E+02 -0.4921768140000000E+01  0.8707055900000000E+00
  0.7770178090000000E+01 -0.2248152160000000E+01
  0.1784415450000000E+01
  0.5696265200000000E+00 2  0.1777985340000000E+01  0.1958597600000000E+00
 -0.2317443900000000E+00
  0.2381265000000000E+00 1 -0.1624868022000000E+02
         # Potential name:  GTH-PBE-Q13  for symbol:  GA
         # Potential read from the potential filename: GTH_POTENTIALS
       &END POTENTIAL
     &END KIND
     &TOPOLOGY
       NUMBER_OF_ATOMS  206
       MULTIPLE_UNIT_CELL  1 1 1
     &END TOPOLOGY
   &END SUBSYS
 &END FORCE_EVAL
