 # Version information for this restart file 
 # current date 2019-06-24 21:01:46.740
 # current working dir /scratch/rzk/rzk/GaN-carbene/443-adatoms-both-2x2/03-DissMethanol/04-O-GaTop-H-NSur
 # Program compiled at                              Sun Apr  7 00:48:11 EDT 2019
 # Program compiled on                          beluga2.int.ets1.calculquebec.ca
 # Program compiled for                        Beluga-Linux-x86-64-intel-openmpi
 # Source code revision number                                         svn:18619
 &GLOBAL
   PRINT_LEVEL  MEDIUM
   PROJECT_NAME TEST
   RUN_TYPE  GEO_OPT
 &END GLOBAL
 &MOTION
   &GEO_OPT
     MAX_ITER  500
     STEP_START_VAL  87
   &END GEO_OPT
 &END MOTION
 &FORCE_EVAL
   METHOD  QS
   STRESS_TENSOR  ANALYTICAL
   &DFT
     BASIS_SET_FILE_NAME BASIS_MOLOPT
     POTENTIAL_FILE_NAME GTH_POTENTIALS
     UKS  T
     SURFACE_DIPOLE_CORRECTION  T
     SURF_DIP_DIR  Z
     &SCF
       MAX_SCF  80
       EPS_SCF     5.0000000000000004E-06
       &OT  T
         PRECONDITIONER  FULL_ALL
       &END OT
       &OUTER_SCF  T
         OPTIMIZER  NONE
         EPS_SCF     5.0000000000000004E-06
         MAX_SCF  4
       &END OUTER_SCF
       &PRINT
         &RESTART  OFF
           BACKUP_COPIES  1
           &EACH
             JUST_ENERGY  0
             QS_SCF  0
             MD  20
           &END EACH
         &END RESTART
       &END PRINT
     &END SCF
     &QS
       EPS_DEFAULT     1.0000000000000000E-14
       METHOD  GPW
     &END QS
     &MGRID
       NGRIDS  5
       CUTOFF     1.2000000000000000E+03
     &END MGRID
     &XC
       DENSITY_CUTOFF     1.0000000000000000E-10
       GRADIENT_CUTOFF     1.0000000000000000E-10
       TAU_CUTOFF     1.0000000000000000E-10
       &XC_FUNCTIONAL  NO_SHORTCUT
         &PBE  T
         &END PBE
       &END XC_FUNCTIONAL
       &VDW_POTENTIAL
         POTENTIAL_TYPE  PAIR_POTENTIAL
         &PAIR_POTENTIAL
           R_CUTOFF     1.0000000000000004E+01
           TYPE  DFTD3
           PARAMETER_FILE_NAME dftd3.dat
           REFERENCE_FUNCTIONAL PBE
           EPS_CN     9.9999999999999995E-07
           CALCULATE_C9_TERM  T
           REFERENCE_C9_TERM  T
           LONG_RANGE_CORRECTION  F
           VERBOSE_OUTPUT  F
         &END PAIR_POTENTIAL
       &END VDW_POTENTIAL
     &END XC
   &END DFT
   &SUBSYS
     &CELL
       A     1.2864472766435110E+01    0.0000000000000000E+00    0.0000000000000000E+00
       B    -6.4322363581020028E+00    1.1140960178524473E+01    0.0000000000000000E+00
       C     0.0000000000000000E+00    0.0000000000000000E+00    3.2000000000000000E+01
       MULTIPLE_UNIT_CELL  1 1 1
       &CELL_REF
         A     1.2982353780853531E+01    0.0000000000000000E+00    0.0000000000000000E+00
         B    -6.4911768904267628E+00    1.1243048175136114E+01    0.0000000000000000E+00
         C     0.0000000000000000E+00    0.0000000000000000E+00    3.2000000000000000E+01
         MULTIPLE_UNIT_CELL  1 1 1
       &END CELL_REF
     &END CELL
     &COORD
N   -4.6629243737519154E-03    2.0427627743459649E+00    2.5078875209221767E+00
Ga   -2.2262931949334094E-02    8.7130518624541034E-02    2.8319298310006804E+00
N   -1.7947695712038131E-03    4.7879103238723290E-02    5.0220916646910805E+00
Ga   -2.5110263707169111E-03    1.8775557042060615E+00    5.7942773178806570E+00
N   -2.6634115396254681E-03    1.8916107422749504E+00    7.7991150798120312E+00
Ga   -4.6517691107219039E-03    4.6876503208461533E-02    8.4432028901258658E+00
N   -2.9984334267511548E-03    4.4589228145099885E-02    1.0419736766207789E+01
Ga   -3.1015616322906240E-03    1.8846802111216678E+00    1.1068803036416529E+01
N   -2.7033352082664014E-03    1.8644784287612581E+00    1.3064642596317983E+01
Ga   -2.0621992447735276E-03    4.3964963447778907E-02    1.3866782122409100E+01
N   -9.0149763760400022E-04    4.1992545029600918E-02    1.6070812575800105E+01
Ga   -2.5908460949073081E-03    2.0797556545809761E+00    1.6481134199023117E+01
Ga   -2.8389516706615263E-02    3.7318630445394843E+00    1.3221436768880328E+00
N   -1.4855384929323929E+00    4.6277635361335046E+00    2.5018236860294607E+00
Ga   -1.6775303491402906E+00    2.7838249578201717E+00    3.2696055758088671E+00
N   -1.6126025054977555E+00    2.8341319480036939E+00    5.2533958787292283E+00
Ga   -1.6399304270587713E+00    4.6969436403431910E+00    5.8052851749104990E+00
N   -1.6203830736493483E+00    4.6957964405058936E+00    7.8016680506634044E+00
Ga   -1.6015436914828092E+00    2.8341769484465140E+00    8.4340416084259839E+00
N   -1.6000239546355763E+00    2.8369414198604557E+00    1.0431065966442949E+01
Ga   -1.6263252251250333E+00    4.6940706430642178E+00    1.1071849393378116E+01
N   -1.6426506781272923E+00    4.7044707185070651E+00    1.3065839188041375E+01
Ga   -1.5999229740791450E+00    2.8356547739013793E+00    1.3621363434116850E+01
N   -1.6265495812475022E+00    2.8205135909252501E+00    1.5584298410225045E+01
Ga   -1.4478747536583101E+00    4.5906615461805957E+00    1.6482301293002212E+01
N    4.9840630056467187E-03    3.7513471857119334E+00    1.7616698122846849E+01
N   -3.2107869502101680E+00    7.5966741608545929E+00    2.5193828106613956E+00
Ga   -3.1921376587077073E+00    5.5881861744515025E+00    2.8456116173162092E+00
N   -3.2181321901856696E+00    5.6178697334747660E+00    5.0191242562504410E+00
Ga   -3.2255507477838803E+00    7.4366855562027636E+00    5.8080119724561232E+00
N   -3.2172718956904394E+00    7.4626859582902689E+00    7.7994552977031679E+00
Ga   -3.2188374295816935E+00    5.6152891231739863E+00    8.4498660862850468E+00
N   -3.2189838546670191E+00    5.6162690407363529E+00    1.0422776388969224E+01
Ga   -3.2203223330258246E+00    7.4549592689252373E+00    1.1074003929965142E+01
N   -3.2189673182733713E+00    7.4351147365002133E+00    1.3067234533572661E+01
Ga   -3.2185432814257182E+00    5.6141053029128791E+00    1.3869378711007769E+01
N   -3.2175315772669237E+00    5.6128850907402139E+00    1.6070894638743173E+01
Ga   -3.2190702551637451E+00    7.6529900647461284E+00    1.6483075689821423E+01
Ga   -3.2482675900535081E+00    9.3491170936589683E+00    1.4919135263603434E+00
N   -4.7262951172003316E+00    1.0201310423439381E+01    2.5252040137602800E+00
Ga   -4.9374514980655277E+00    8.3475486305221693E+00    3.2896913126238747E+00
N   -4.8244351744736624E+00    8.4023085764743097E+00    5.2515610314323400E+00
Ga   -4.8589727229287725E+00    1.0277370131602114E+01    5.8014471518068920E+00
N   -4.8362918053917756E+00    1.0263324974982071E+01    7.7991672050533021E+00
Ga   -4.8193591321291791E+00    8.4080319718796606E+00    8.4381442780126896E+00
N   -4.8153569578023685E+00    8.4067609524190363E+00    1.0431917941339620E+01
Ga   -4.8423534870281735E+00    1.0266237764408503E+01    1.1069716047965985E+01
N   -4.8583209731387091E+00    1.0274839235679210E+01    1.3064237493674948E+01
Ga   -4.8166064388648842E+00    8.4067159773595836E+00    1.3622341313033241E+01
N   -4.8440747058130320E+00    8.3908719130039859E+00    1.5584278189585538E+01
Ga   -4.6617855670604911E+00    1.0160177998501920E+01    1.6483790798626622E+01
N   -3.2115458930505669E+00    9.3226904862832622E+00    1.7616083945558785E+01
N    3.2010067333397334E+00    1.9104409386659689E+00    2.6198255780386703E+00
Ga    3.2020606738278006E+00    1.7262482570473883E-01    3.2926326390566207E+00
N    3.2141016171765018E+00    4.3586291375935983E-02    5.2545189051725210E+00
Ga    3.2039198655495871E+00    1.9076059299073254E+00    5.8737807298326938E+00
N    3.2132643726736796E+00    1.9015418503273920E+00    7.8511817726781103E+00
Ga    3.2111034544263362E+00    3.5778479833650678E-02    8.4399893284898955E+00
N    3.2137149301026362E+00    3.1993744075551590E-02    1.0433399845072771E+01
Ga    3.2134210600155950E+00    1.9018276182256428E+00    1.1027349048552928E+01
N    3.2135078708729421E+00    1.9008219885140258E+00    1.2999963369070223E+01
Ga    3.2128126533631627E+00    3.1536596714098225E-02    1.3622365826486286E+01
N    3.2118326132065604E+00    6.2062340011348541E-02    1.5584480096621373E+01
Ga    3.2134495108147387E+00    1.9002372518363901E+00    1.5864775184172791E+01
N    1.4812769157856003E+00    4.6260039869082847E+00    2.5032063279435537E+00
Ga    1.6661623304751161E+00    2.7937176594745621E+00    3.2625003641454535E+00
N    1.6062331176506301E+00    2.8330861810549983E+00    5.2507716251642860E+00
Ga    1.6364028240924748E+00    4.6969229049564305E+00    5.8054037111468801E+00
N    1.6136590770053392E+00    4.6946781652835980E+00    7.8031130598393768E+00
Ga    1.5943264126543641E+00    2.8350458551085862E+00    8.4374769341665132E+00
N    1.5948316894968417E+00    2.8364798397268753E+00    1.0433430676172465E+01
Ga    1.6209314731424596E+00    4.6944766311839823E+00    1.1072110862687190E+01
N    1.6373744218649542E+00    4.7045074895951258E+00    1.3066620835641247E+01
Ga    1.5941840879730702E+00    2.8354874118341895E+00    1.3621895165478941E+01
N    1.6211845420748674E+00    2.8190963887860772E+00    1.5585835782717833E+01
Ga    1.4489423245798132E+00    4.5941463144202004E+00    1.6481569863584543E+01
N    3.4768688853173786E-03    7.4637185349315986E+00    2.6981448095775367E+00
Ga    4.3304372088454031E-03    5.6013411795009356E+00    3.3235288168049233E+00
N   -3.4038701174554718E-03    5.6327001635992140E+00    5.2631324496102367E+00
Ga    3.2797011908353756E-03    7.4689405165594902E+00    5.9075835804576027E+00
N   -2.5557578800362597E-03    7.4741657191186999E+00    7.8658871953630918E+00
Ga   -2.6504761363476820E-03    5.6008861964806522E+00    8.4471298897758107E+00
N   -2.9230408008814527E-03    5.6027587334921938E+00    1.0437754830478479E+01
Ga   -1.8272618525574504E-03    7.4718786028776201E+00    1.1031095932756930E+01
N   -2.3439683131796542E-03    7.4714158232359118E+00    1.3002402184382902E+01
Ga   -2.9862700177063035E-03    5.6010976391736982E+00    1.3622755114999340E+01
N   -3.8371309032945496E-03    5.6312638477840196E+00    1.5585446888678620E+01
Ga   -1.9544482558864597E-03    7.4702319391392535E+00    1.5864795044077333E+01
N   -1.7150397718419257E+00    1.0190600831638804E+01    2.5224672827981114E+00
Ga   -1.5811031017933290E+00    8.3826407345225498E+00    3.3356128251008204E+00
N   -1.5978511130884461E+00    8.3950380058676437E+00    5.2606430072829378E+00
Ga   -1.5854207734480954E+00    1.0281959509200943E+01    5.8124350768939870E+00
N   -1.6016119167260956E+00    1.0261475784899913E+01    7.8026115075798677E+00
Ga   -1.6227619920420282E+00    8.4080007802838512E+00    8.4497264836105792E+00
N   -1.6220180298117020E+00    8.4069863809633176E+00    1.0438476764127115E+01
Ga   -1.5964870502102784E+00    1.0267303677162461E+01    1.1073630366802192E+01
N   -1.5788864612162115E+00    1.0275309274818985E+01    1.3067031944454280E+01
Ga   -1.6219883664062675E+00    8.4066181556270667E+00    1.3623691714723060E+01
N   -1.5935384576449325E+00    8.3889374304670987E+00    1.5586560533340329E+01
Ga   -1.7694348326781750E+00    1.0164021211268613E+01    1.6483021604252219E+01
N    6.4266770838813718E+00    2.0286523841278199E+00    2.5395052609305329E+00
Ga    6.4429886724974317E+00    5.0947488797274176E-02    2.8671877270134858E+00
N    6.4254787696654310E+00    4.7234336176532506E-02    5.0277009278771123E+00
Ga    6.4275691047609120E+00    1.8781202046872560E+00    5.8064056106334947E+00
N    6.4287288889505643E+00    1.8910306821869971E+00    7.8025790582423662E+00
Ga    6.4305239635618161E+00    4.6125085547073438E-02    8.4492436993913991E+00
N    6.4293749175678441E+00    4.4473544152683828E-02    1.0422303405197768E+01
Ga    6.4300707626689597E+00    1.8855890811320510E+00    1.1070327884700914E+01
N    6.4297068541980753E+00    1.8644061855501803E+00    1.3065216365610022E+01
Ga    6.4301863034522757E+00    4.4478162063348418E-02    1.3869135792159996E+01
N    6.4309152294328280E+00    4.2268298205272517E-02    1.6071019002483663E+01
Ga    6.4297962253590644E+00    2.0814387630093445E+00    1.6481198876475155E+01
Ga    6.4296244051757521E+00    3.7585588945547230E+00    1.5324813572137346E+00
N    4.9263687694349709E+00    4.6266855711965453E+00    2.5310785810341967E+00
Ga    4.7078547683170484E+00    2.7765663249209100E+00    3.2989619958201097E+00
N    4.8183376508619764E+00    2.8313970276621596E+00    5.2600314766698837E+00
Ga    4.7930584558744274E+00    4.7043828706188293E+00    5.8042183271597221E+00
N    4.8115416456231177E+00    4.6938234580379117E+00    7.8019847368345348E+00
Ga    4.8295241083380107E+00    2.8362958973845473E+00    8.4395320988282378E+00
N    4.8324175941037799E+00    2.8365349262822677E+00    1.0433665496923334E+01
Ga    4.8072643692409915E+00    4.6958491935244728E+00    1.1069878276843056E+01
N    4.7901604719376065E+00    4.7045931008759236E+00    1.3064513619553974E+01
Ga    4.8323256128016663E+00    2.8360029164255995E+00    1.3621321733842599E+01
N    4.8047422397723594E+00    2.8204581084533720E+00    1.5583707966164299E+01
Ga    4.9861192254616293E+00    4.5901487587401748E+00    1.6482406605611718E+01
N    6.4374785303849258E+00    3.7520178954795624E+00    1.7613959743964827E+01
N    3.2073770609406678E+00    7.5893239849618590E+00    2.5069747400123048E+00
Ga    3.1805365316641727E+00    5.6055068666809875E+00    2.8392824607546161E+00
N    3.2121033182484724E+00    5.6156075890281061E+00    5.0273770509598936E+00
Ga    3.2194860219439745E+00    7.4389330997478709E+00    5.8006571700010463E+00
N    3.2115105486274711E+00    7.4635424672370885E+00    7.7976873559957482E+00
Ga    3.2128712013768448E+00    5.6169099605578729E+00    8.4479337787398805E+00
N    3.2132310584826804E+00    5.6163394550562478E+00    1.0422185875214034E+01
Ga    3.2152501502691782E+00    7.4553142106122232E+00    1.1072590727002416E+01
N    3.2138156098190067E+00    7.4352904641214215E+00    1.3066606814714424E+01
Ga    3.2144986703238971E+00    5.6141298407341482E+00    1.3868121376284586E+01
N    3.2152389169559079E+00    5.6126052731514973E+00    1.6071221172207263E+01
Ga    3.2139891601948132E+00    7.6502557802683979E+00    1.6481338640879304E+01
Ga    3.2459139987379388E+00    9.3516203453597768E+00    1.3443434798273513E+00
N    1.7007646504678782E+00    1.0195242791894495E+01    2.5126327357468488E+00
Ga    1.6069562381411635E+00    8.3970664762404539E+00    3.3103199679618625E+00
N    1.5922512718038060E+00    8.3951637008991469E+00    5.2494847159473190E+00
Ga    1.5818716924927112E+00    1.0279005114742763E+01    5.8029196613348759E+00
N    1.5945347749705236E+00    1.0261583322734413E+01    7.7982501227556860E+00
Ga    1.6187330024767199E+00    8.4091272707336930E+00    8.4474645128404173E+00
N    1.6169939931039923E+00    8.4075676240717581E+00    1.0437302782941597E+01
Ga    1.5917356095265061E+00    1.0267632318925674E+01    1.1072157654069821E+01
N    1.5737729776521945E+00    1.0275358776977875E+01    1.3065769293675219E+01
Ga    1.6167174925612866E+00    8.4069938812157083E+00    1.3622735760808107E+01
N    1.5898677519891771E+00    8.3912097572889408E+00    1.5585353350745782E+01
Ga    1.7682895921502950E+00    1.0161860028411871E+01    1.6482009869435149E+01
N    3.2218749560234849E+00    9.3228202225014023E+00    1.7616656585718086E+01
N    9.6547682786963254E+00    1.9042542097232937E+00    2.6310661878622423E+00
Ga    9.6507662680570245E+00    1.4419852232338770E-01    3.2641324604578563E+00
N    9.6423190086686414E+00    4.3031933550003482E-02    5.2441271341717730E+00
Ga    9.6522773940572151E+00    1.9002311957528744E+00    5.8659979040129766E+00
N    9.6449745489786469E+00    1.9013201482317506E+00    7.8469955273642586E+00
Ga    9.6474106171568721E+00    3.5174198432826896E-02    8.4340906475199802E+00
N    9.6453575602478647E+00    3.1937752550708097E-02    1.0430394886267287E+01
Ga    9.6465266807211769E+00    1.9013915874675018E+00    1.1025313125942073E+01
N    9.6459855412538111E+00    1.9006462979616052E+00    1.2998822757702110E+01
Ga    9.6458147879472982E+00    3.1533976701541740E-02    1.3621524832049992E+01
N    9.6447547505293372E+00    6.0656047076948764E-02    1.5584594006366816E+01
Ga    9.6462299863562642E+00    1.8996889379454285E+00    1.5864322473360382E+01
N    7.9297516577587741E+00    4.6273273132315715E+00    2.5366214091367105E+00
Ga    8.1483597839687842E+00    2.7696613233596774E+00    3.3002032275429012E+00
N    8.0367778993006240E+00    2.8312355051465254E+00    5.2609528447077807E+00
Ga    8.0614800149037489E+00    4.7031333192311200E+00    5.8015930278010792E+00
N    8.0480474765143057E+00    4.6948747883928981E+00    7.7992134973148612E+00
Ga    8.0300748739779912E+00    2.8357786856021838E+00    8.4362441117373859E+00
N    8.0271446486237874E+00    2.8366364324052142E+00    1.0431995000819873E+01
Ga    8.0517250059920951E+00    4.6950864316961347E+00    1.1070701145326863E+01
N    8.0693997854146353E+00    4.7046170965969782E+00    1.3065472369582793E+01
Ga    8.0269035144980307E+00    2.8357070972122900E+00    1.3621338910720420E+01
N    8.0547436320594041E+00    2.8185306549351536E+00    1.5584904939106700E+01
Ga    7.8803364132604479E+00    4.5940202646883659E+00    1.6481474854321476E+01
N    6.4242075918605837E+00    7.4760267398776312E+00    2.6118222611943289E+00
Ga    6.4228599159328761E+00    5.7387607520420847E+00    3.2961981807634149E+00
N    6.4281606723226901E+00    5.6192590593068283E+00    5.2571238147986161E+00
Ga    6.4230141205412288E+00    7.4780026053821889E+00    5.8707243600187482E+00
N    6.4291946530639921E+00    7.4740597136890905E+00    7.8471351344432350E+00
Ga    6.4295075252545075E+00    5.6061485050988464E+00    8.4375141770979774E+00
N    6.4299711892303426E+00    5.6033405759082777E+00    1.0432029296159214E+01
Ga    6.4297158644690251E+00    7.4724286516906275E+00    1.1026403979598156E+01
N    6.4296694679367485E+00    7.4715415244226628E+00    1.2999030421088609E+01
Ga    6.4294113006144302E+00    5.6020425656397315E+00    1.3621502816737038E+01
N    6.4281334649106743E+00    5.6324425908358338E+00    1.5583918610653743E+01
Ga    6.4293869613968901E+00    7.4705805105475207E+00    1.5865422567454520E+01
N    4.7188286552863614E+00    1.0200595176320048E+01    2.5140945764625835E+00
Ga    4.9007092224448519E+00    8.3574055090980259E+00    3.2605171433937508E+00
N    4.8183557152061640E+00    8.4015808428991825E+00    5.2405163056092130E+00
Ga    4.8469438825724263E+00    1.0274292356083711E+01    5.7905208236081442E+00
N    4.8306528031478768E+00    1.0263232106247688E+01    7.7942558751607640E+00
Ga    4.8120905140674388E+00    8.4092144496185224E+00    8.4357604496089138E+00
N    4.8106937459745565E+00    8.4068784543385533E+00    1.0431302540082115E+01
Ga    4.8359847727465324E+00    1.0266146951283094E+01    1.1069106477903764E+01
N    4.8531137737702617E+00    1.0274952419801467E+01    1.3064576721553836E+01
Ga    4.8110031409695724E+00    8.4066878511827383E+00    1.3621982504604780E+01
N    4.8373777377614156E+00    8.3898994301222967E+00    1.5585890596119784E+01
Ga    4.6661353799988996E+00    1.0165516808269015E+01    1.6481131046311223E+01
O   -2.1234618520175681E-02    3.7450308938065091E+00   -4.9203784423099745E-01
H   -1.4925883625693220E-03    7.4540555975899192E+00    1.6715931065277572E+00
C    6.1154194986154908E-01    2.6193599134131773E+00   -1.1229105864915729E+00
H    1.6793357219678644E+00    2.5361850552915577E+00   -8.6083701768710152E-01
H    1.1851593378939695E-01    1.6673586461462420E+00   -8.6525367669458075E-01
H    5.3133565342500522E-01    2.7667533429173616E+00   -2.2099704949391259E+00
     &END COORD
     &KIND C
       BASIS_SET DZVP-MOLOPT-SR-GTH-q4
       POTENTIAL GTH-PBE-q4
       &POTENTIAL
 2 2
  0.3384712400000000E+00 2 -0.8803673979999999E+01  0.1339210850000000E+01
 2
  0.3025757500000000E+00 1  0.9622486650000001E+01
  0.2915069400000000E+00 0
         # Potential name:  GTH-PBE-Q4  for symbol:  C
         # Potential read from the potential filename: GTH_POTENTIALS
       &END POTENTIAL
     &END KIND
     &KIND O
       BASIS_SET DZVP-MOLOPT-SR-GTH-q6
       POTENTIAL GTH-PBE-q6
       &POTENTIAL
 2 4
  0.2445543000000000E+00 2 -0.1666721480000000E+02  0.2487311320000000E+01
 2
  0.2209559200000000E+00 1  0.1833745811000000E+02
  0.2113324700000000E+00 0
         # Potential name:  GTH-PBE-Q6  for symbol:  O
         # Potential read from the potential filename: GTH_POTENTIALS
       &END POTENTIAL
     &END KIND
     &KIND H
       BASIS_SET DZVP-MOLOPT-SR-GTH-q1
       POTENTIAL GTH-PBE-q1
       &POTENTIAL
 1
  0.2000000000000000E+00 2 -0.4178900440000000E+01  0.7244633100000000E+00
 0
         # Potential name:  GTH-PBE-Q1  for symbol:  H
         # Potential read from the potential filename: GTH_POTENTIALS
       &END POTENTIAL
     &END KIND
     &KIND N
       BASIS_SET DZVP-MOLOPT-SR-GTH
       POTENTIAL GTH-PBE-q5
       &POTENTIAL
 2 3
  0.2837905100000000E+00 2 -0.1241522559000000E+02  0.1868095920000000E+01
 2
  0.2554050000000000E+00 1  0.1363026257000000E+02
  0.2454945300000000E+00 0
         # Potential name:  GTH-PBE-Q5  for symbol:  N
         # Potential read from the potential filename: GTH_POTENTIALS
       &END POTENTIAL
     &END KIND
     &KIND Ga
       BASIS_SET DZVP-MOLOPT-SR-GTH
       POTENTIAL GTH-PBE-q13
       &POTENTIAL
 2 1 10
  0.4900000000000000E+00 0
 3
  0.4167772300000000E+00 3  0.1047568975000000E+02 -0.4921768140000000E+01  0.8707055900000000E+00
  0.7770178090000000E+01 -0.2248152160000000E+01
  0.1784415450000000E+01
  0.5696265200000000E+00 2  0.1777985340000000E+01  0.1958597600000000E+00
 -0.2317443900000000E+00
  0.2381265000000000E+00 1 -0.1624868022000000E+02
         # Potential name:  GTH-PBE-Q13  for symbol:  GA
         # Potential read from the potential filename: GTH_POTENTIALS
       &END POTENTIAL
     &END KIND
     &TOPOLOGY
       NUMBER_OF_ATOMS  206
       MULTIPLE_UNIT_CELL  1 1 1
     &END TOPOLOGY
   &END SUBSYS
 &END FORCE_EVAL
