 # Version information for this restart file 
 # current date 2019-06-24 16:09:42.094
 # current working dir /scratch/rzk/rzk/GaN-carbene/443-adatoms-both-2x2/03-DissMethanol/04-O-GaTop-H-NSur
 # Program compiled at                              Sun Apr  7 00:48:11 EDT 2019
 # Program compiled on                          beluga2.int.ets1.calculquebec.ca
 # Program compiled for                        Beluga-Linux-x86-64-intel-openmpi
 # Source code revision number                                         svn:18619
 &GLOBAL
   PRINT_LEVEL  MEDIUM
   PROJECT_NAME TEST
   RUN_TYPE  GEO_OPT
 &END GLOBAL
 &MOTION
   &GEO_OPT
     MAX_ITER  500
     STEP_START_VAL  12
   &END GEO_OPT
 &END MOTION
 &FORCE_EVAL
   METHOD  QS
   STRESS_TENSOR  ANALYTICAL
   &DFT
     BASIS_SET_FILE_NAME BASIS_MOLOPT
     POTENTIAL_FILE_NAME GTH_POTENTIALS
     UKS  T
     SURFACE_DIPOLE_CORRECTION  T
     SURF_DIP_DIR  Z
     &SCF
       MAX_SCF  80
       EPS_SCF     5.0000000000000004E-06
       &OT  T
         PRECONDITIONER  FULL_ALL
       &END OT
       &OUTER_SCF  T
         OPTIMIZER  NONE
         EPS_SCF     5.0000000000000004E-06
         MAX_SCF  4
       &END OUTER_SCF
       &PRINT
         &RESTART  OFF
           BACKUP_COPIES  1
           &EACH
             JUST_ENERGY  0
             QS_SCF  0
             MD  20
           &END EACH
         &END RESTART
       &END PRINT
     &END SCF
     &QS
       EPS_DEFAULT     1.0000000000000000E-14
       METHOD  GPW
     &END QS
     &MGRID
       NGRIDS  5
       CUTOFF     1.2000000000000000E+03
     &END MGRID
     &XC
       DENSITY_CUTOFF     1.0000000000000000E-10
       GRADIENT_CUTOFF     1.0000000000000000E-10
       TAU_CUTOFF     1.0000000000000000E-10
       &XC_FUNCTIONAL  NO_SHORTCUT
         &PBE  T
         &END PBE
       &END XC_FUNCTIONAL
       &VDW_POTENTIAL
         POTENTIAL_TYPE  PAIR_POTENTIAL
         &PAIR_POTENTIAL
           R_CUTOFF     1.0000000000000004E+01
           TYPE  DFTD3
           PARAMETER_FILE_NAME dftd3.dat
           REFERENCE_FUNCTIONAL PBE
           EPS_CN     9.9999999999999995E-07
           CALCULATE_C9_TERM  T
           REFERENCE_C9_TERM  T
           LONG_RANGE_CORRECTION  F
           VERBOSE_OUTPUT  F
         &END PAIR_POTENTIAL
       &END VDW_POTENTIAL
     &END XC
   &END DFT
   &SUBSYS
     &CELL
       A     1.2864472766435110E+01    0.0000000000000000E+00    0.0000000000000000E+00
       B    -6.4322363581020028E+00    1.1140960178524473E+01    0.0000000000000000E+00
       C     0.0000000000000000E+00    0.0000000000000000E+00    3.2000000000000000E+01
       MULTIPLE_UNIT_CELL  1 1 1
       &CELL_REF
         A     1.2982353780853531E+01    0.0000000000000000E+00    0.0000000000000000E+00
         B    -6.4911768904267628E+00    1.1243048175136114E+01    0.0000000000000000E+00
         C     0.0000000000000000E+00    0.0000000000000000E+00    3.2000000000000000E+01
         MULTIPLE_UNIT_CELL  1 1 1
       &END CELL_REF
     &END CELL
     &COORD
N   -8.7635164978762687E-03    2.0453264362235015E+00    2.5215897208818343E+00
Ga   -9.0072840028329760E-03    9.7454996119530984E-02    2.8462215285706702E+00
N   -9.9152988624543071E-03    5.2982309681991253E-02    5.0120777702076431E+00
Ga   -9.3313161136989748E-03    1.8880732050596125E+00    5.7848445254089507E+00
N   -1.1315765396656876E-02    1.9015306467070852E+00    7.7843293025839282E+00
Ga   -1.2106518030716173E-02    5.8747408604348100E-02    8.4377953600217062E+00
N   -1.2463940511720999E-02    5.6832296560397448E-02    1.0408094062434824E+01
Ga   -1.2749849636162613E-02    1.8965978072982810E+00    1.1064787720328871E+01
N   -1.2844435794930100E-02    1.8768236187494831E+00    1.3053268134333557E+01
Ga   -1.2408573492359744E-02    5.7348142645146136E-02    1.3870938110825511E+01
N   -1.1710728987734375E-02    5.6315929965120783E-02    1.6057821708674791E+01
Ga   -1.1678066308494826E-02    2.1048435925841114E+00    1.6475999115296883E+01
Ga   -2.1277381458874731E-02    3.7100911170217179E+00    1.3083932855731226E+00
N   -1.4858032477887491E+00    4.6289423649950230E+00    2.4691091605863420E+00
Ga   -1.6827483903624905E+00    2.7933476952236802E+00    3.2609257256685731E+00
N   -1.6208147419883401E+00    2.8431994815708106E+00    5.2398916240425066E+00
Ga   -1.6483150696580247E+00    4.7058756391789363E+00    5.7976569539368672E+00
N   -1.6290871580459945E+00    4.7060867741610890E+00    7.7884778626672198E+00
Ga   -1.6087910280720208E+00    2.8451854280335165E+00    8.4281411943527189E+00
N   -1.6092060867356504E+00    2.8490109344252410E+00    1.0417730933405657E+01
Ga   -1.6369121191755938E+00    4.7063459190950354E+00    1.1066214973430403E+01
N   -1.6532929366111149E+00    4.7179418448553072E+00    1.3054165554031574E+01
Ga   -1.6111131475805927E+00    2.8480240344679917E+00    1.3613901874099652E+01
N   -1.6400132482277348E+00    2.8320670137222388E+00    1.5569964439199726E+01
Ga   -1.4479798704920177E+00    4.5992558869228963E+00    1.6479147056354911E+01
N   -5.7263693938662368E-03    3.7663118452884397E+00    1.7605408890080220E+01
N   -3.2165132612297582E+00    7.6018176052490904E+00    2.5004207017362075E+00
Ga   -3.1966312753769728E+00    5.5960083040931377E+00    2.8253643195104203E+00
N   -3.2231502771938034E+00    5.6247468482464793E+00    5.0017694374297488E+00
Ga   -3.2331833358071802E+00    7.4431973661835853E+00    5.7994272041321011E+00
N   -3.2269529085901278E+00    7.4731021633356480E+00    7.7868090867564757E+00
Ga   -3.2277428740521712E+00    5.6258842474906947E+00    8.4416027393233879E+00
N   -3.2289295158036309E+00    5.6284738916415078E+00    1.0409808177231207E+01
Ga   -3.2304604403469956E+00    7.4664935919175779E+00    1.1069826337116229E+01
N   -3.2286961546976287E+00    7.4477854024675079E+00    1.3058070588755504E+01
Ga   -3.2280782992137760E+00    5.6270056820677921E+00    1.3870653220263041E+01
N   -3.2259929657625559E+00    5.6260653352220427E+00    1.6061946865224229E+01
Ga   -3.2277697420300444E+00    7.6689157624590845E+00    1.6480495762827001E+01
Ga   -3.2536835014259893E+00    9.3632933112760881E+00    1.4543179961780623E+00
N   -4.7299538747659780E+00    1.0207449107321818E+01    2.5190781497531081E+00
Ga   -4.9340950122244545E+00    8.3538715037879729E+00    3.2749777600337251E+00
N   -4.8316009724008273E+00    8.4091697706207977E+00    5.2372119089488640E+00
Ga   -4.8626794724918412E+00    1.0282468072608154E+01    5.7953384220676281E+00
N   -4.8457285655135545E+00    1.0273647149419633E+01    7.7872008163231881E+00
Ga   -4.8280915017676405E+00    8.4189839502890376E+00    8.4336295647295181E+00
N   -4.8251940774336006E+00    8.4192604272039624E+00    1.0421031794382753E+01
Ga   -4.8526607940234898E+00    1.0278449942679279E+01    1.1067323362600209E+01
N   -4.8683184640490929E+00    1.0287850291160638E+01    1.3055994411606637E+01
Ga   -4.8259436012116588E+00    8.4195075149474317E+00    1.3619094345522765E+01
N   -4.8501490224305970E+00    8.4043411872271516E+00    1.5577857994258155E+01
Ga   -4.6724929814343366E+00    1.0175383077756408E+01    1.6478911225363746E+01
N   -3.2228113812189156E+00    9.3389756890336670E+00    1.7625708950011223E+01
N    3.1978287501883993E+00    1.9149097815186613E+00    2.6128185164039870E+00
Ga    3.1991427848326301E+00    1.7475520148768786E-01    3.2859435149821947E+00
N    3.2085943076168921E+00    5.1729417299795084E-02    5.2459747896525561E+00
Ga    3.1990916602168560E+00    1.9151706142276430E+00    5.8709809958162404E+00
N    3.2053417560841240E+00    1.9120200196495873E+00    7.8419122345959789E+00
Ga    3.2018846534003407E+00    4.6102384461523906E-02    8.4349199733457816E+00
N    3.2036754299998758E+00    4.3092370545573459E-02    1.0422166312219087E+01
Ga    3.2044690300161331E+00    1.9140064026321164E+00    1.1020510109815190E+01
N    3.2051222152017647E+00    1.9133137596785454E+00    1.2987229735529823E+01
Ga    3.2034640247994042E+00    4.4776419477776483E-02    1.3617849441530614E+01
N    3.2043381412987029E+00    7.3286368426212264E-02    1.5576861607722726E+01
Ga    3.2059601672463631E+00    1.9128399326684662E+00    1.5855068233236397E+01
N    1.4743628229182031E+00    4.6297187583023653E+00    2.4854946957861475E+00
Ga    1.6653533164486729E+00    2.7976119288479815E+00    3.2619451811023858E+00
N    1.6019627646712431E+00    2.8422693767537028E+00    5.2426892409875716E+00
Ga    1.6281616840718391E+00    4.7054343221169423E+00    5.7994144733873076E+00
N    1.6058246782660930E+00    4.7059191369729980E+00    7.7903084695170701E+00
Ga    1.5851186432324702E+00    2.8454374438638848E+00    8.4310388704467787E+00
N    1.5848855067580823E+00    2.8486254883298403E+00    1.0420407843332036E+01
Ga    1.6117309674295162E+00    4.7065993373163240E+00    1.1067775343939289E+01
N    1.6281568339238346E+00    4.7182641402366894E+00    1.3055090840301563E+01
Ga    1.5850441280594008E+00    2.8482489199035421E+00    1.3614137125209579E+01
N    1.6169469801628034E+00    2.8298667195894662E+00    1.5570588033079316E+01
Ga    1.4305883306046507E+00    4.6027194987358131E+00    1.6476254445192343E+01
N   -1.0464819718210771E-02    7.4654975160766277E+00    2.6880848886291115E+00
Ga   -5.1355924707034333E-03    5.5994342921491720E+00    3.3073136791371205E+00
N   -1.0490927269622414E-02    5.6392056785216429E+00    5.2464784903001176E+00
Ga   -1.0724608500769704E-02    7.4724766796541235E+00    5.9055594226085466E+00
N   -1.2089470787437894E-02    7.4839505467664305E+00    7.8568738818692054E+00
Ga   -1.1799204765614755E-02    5.6094020861150655E+00    8.4422267225509362E+00
N   -1.2578108525765547E-02    5.6137369918864248E+00    1.0425779946571797E+01
Ga   -1.2810052134958281E-02    7.4840817288952923E+00    1.1023889150923312E+01
N   -1.3492093604498429E-02    7.4855074081373099E+00    1.2988055070200028E+01
Ga   -1.2841367554240193E-02    5.6160381721063306E+00    1.3614983359330346E+01
N   -1.3484579529653771E-02    5.6497164441179484E+00    1.5570901741350283E+01
Ga   -1.2817439016937777E-02    7.4846648610801125E+00    1.5859406867055652E+01
N   -1.7182253310049906E+00    1.0196521596014364E+01    2.5144334892903357E+00
Ga   -1.5990064976174487E+00    8.3894203460464940E+00    3.3243182045390149E+00
N   -1.6051034548250114E+00    8.4023729388383774E+00    5.2490426260533640E+00
Ga   -1.5934049294400698E+00    1.0288142371146721E+01    5.8066896212594887E+00
N   -1.6095662771730115E+00    1.0272081462064291E+01    7.7911903144377588E+00
Ga   -1.6338464911344082E+00    8.4188027399247343E+00    8.4448526717194365E+00
N   -1.6333635417642924E+00    8.4198479743822219E+00    1.0427064566763679E+01
Ga   -1.6062000527646065E+00    1.0279588635963274E+01    1.1069943863219411E+01
N   -1.5881885510974711E+00    1.0288354224478741E+01    1.3058050892298558E+01
Ga   -1.6311642452582551E+00    8.4192182764970624E+00    1.3619465027518284E+01
N   -1.6055159404268573E+00    8.4044369666799135E+00    1.5579135041368742E+01
Ga   -1.7792183083477309E+00    1.0177655846594961E+01    1.6480506662142339E+01
N    6.4226626397048063E+00    2.0354370540419091E+00    2.5293782107401985E+00
Ga    6.4232048912732624E+00    6.3919202918617496E-02    2.8679505826483420E+00
N    6.4217762945104342E+00    5.4588431840642354E-02    5.0135718180660120E+00
Ga    6.4226986574244327E+00    1.8889875842351964E+00    5.8000014925973202E+00
N    6.4207847437671628E+00    1.9015203695708658E+00    7.7896181723936291E+00
Ga    6.4204235216676029E+00    5.7955237022123782E-02    8.4442512193827781E+00
N    6.4192730088899124E+00    5.7450442713877954E-02    1.0411246311044836E+01
Ga    6.4204787749557957E+00    1.8986655854108092E+00    1.1066154350876026E+01
N    6.4202727364359768E+00    1.8772922468238662E+00    1.3055561485216430E+01
Ga    6.4206802486640946E+00    5.7522622674891069E-02    1.3870724861781126E+01
N    6.4228559457500154E+00    5.5441773172238543E-02    1.6062693978224605E+01
Ga    6.4207460170919335E+00    2.0973167502958168E+00    1.6479060091786955E+01
Ga    6.4207687274457381E+00    3.7624947083344260E+00    1.5094938977471541E+00
N    4.9221150207934361E+00    4.6333968583075285E+00    2.5224297666431683E+00
Ga    4.7046460444276779E+00    2.7822029231523326E+00    3.2928780720889494E+00
N    4.8132867881133228E+00    2.8396847126424438E+00    5.2507432206939271E+00
Ga    4.7892333518630297E+00    4.7127543564991994E+00    5.7967938361646736E+00
N    4.8026776090090566E+00    4.7058755335859246E+00    7.7885475241407249E+00
Ga    4.8212316108050128E+00    2.8479204691778039E+00    8.4335015742174697E+00
N    4.8235909601147959E+00    2.8498531132225540E+00    1.0421688873264285E+01
Ga    4.7976628060100355E+00    4.7085827722538838E+00    1.1066920730734662E+01
N    4.7804152316459678E+00    4.7179949418514102E+00    1.3055632444837146E+01
Ga    4.8228860126546991E+00    2.8488532286620276E+00    1.3616621418300742E+01
N    4.7982711576424393E+00    2.8334963719981920E+00    1.5575608270593607E+01
Ga    4.9760422693996968E+00    4.6040168648611388E+00    1.6477705255693614E+01
N    6.4255001399755001E+00    3.7664338752978739E+00    1.7623927552498259E+01
N    3.1977738985755924E+00    7.6009362200857780E+00    2.5048339162967084E+00
Ga    3.1771546696104296E+00    5.5954072891201623E+00    2.8381581897517525E+00
N    3.2055853179595530E+00    5.6258568159330320E+00    5.0102425231673182E+00
Ga    3.2116406182729578E+00    7.4447181517536949E+00    5.8020661870229269E+00
N    3.2025510308170499E+00    7.4739398660559493E+00    7.7888379915750674E+00
Ga    3.2042586626257705E+00    5.6265010216704727E+00    8.4435796102512590E+00
N    3.2039534400649878E+00    5.6285099257748383E+00    1.0410870270423167E+01
Ga    3.2055173520835436E+00    7.4669518695110382E+00    1.1069665320865312E+01
N    3.2037772573877707E+00    7.4477795352756075E+00    1.3056566104263279E+01
Ga    3.2042402919768285E+00    5.6274736820231945E+00    1.3871978238415691E+01
N    3.2048587483753410E+00    5.6272853026439931E+00    1.6057816121777979E+01
Ga    3.2051917900337585E+00    7.6760662596505167E+00    1.6478493588686675E+01
Ga    3.2370184596798919E+00    9.3577626837757322E+00    1.4504187571859046E+00
N    1.6988425284121098E+00    1.0195721540239974E+01    2.5109335492984592E+00
Ga    1.5791035518876169E+00    8.3903971908397281E+00    3.3229863074511763E+00
N    1.5833628416579693E+00    8.4024094636519866E+00    5.2484971514065659E+00
Ga    1.5725844723352769E+00    1.0288396298372229E+01    5.8045090730233593E+00
N    1.5854979878381428E+00    1.0272399071512091E+01    7.7894073309661049E+00
Ga    1.6092855228997662E+00    8.4195136826326316E+00    8.4450379565769644E+00
N    1.6076764935010339E+00    8.4202707731614481E+00    1.0426855584188930E+01
Ga    1.5811268085220556E+00    1.0280443771420767E+01    1.1068472613572698E+01
N    1.5632909778085005E+00    1.0288853678162139E+01    1.3055871937247138E+01
Ga    1.6054372979591633E+00    8.4192675913328863E+00    1.3616758807570339E+01
N    1.5764246810768723E+00    8.4027522890441588E+00    1.5572880641846760E+01
Ga    1.7694710799056386E+00    1.0169805531046105E+01    1.6481979117759625E+01
N    3.2113848319588691E+00    9.3374627371563630E+00    1.7610676492732694E+01
N    9.6490582394449671E+00    1.9144295911172720E+00    2.6115473471412285E+00
Ga    9.6464417513110838E+00    1.7259511540685207E-01    3.2804393336860422E+00
N    9.6351667495138020E+00    5.1370614091964348E-02    5.2418843334600806E+00
Ga    9.6450043752323538E+00    1.9148399167256700E+00    5.8653293321406110E+00
N    9.6360594361522747E+00    1.9122904429700911E+00    7.8368918533950200E+00
Ga    9.6386045564392369E+00    4.6821165209381316E-02    8.4319055351769059E+00
N    9.6355208144414206E+00    4.3751668282684147E-02    1.0419403189380452E+01
Ga    9.6358436095900988E+00    1.9147067970442198E+00    1.1017981148619972E+01
N    9.6346277690955038E+00    1.9145636634884549E+00    1.2983759053600439E+01
Ga    9.6358674740298653E+00    4.6385658862670744E-02    1.3615426907915623E+01
N    9.6353065755699667E+00    7.8838573114800220E-02    1.5571755810732004E+01
Ga    9.6355488904543183E+00    1.9141415805061361E+00    1.5858337837986213E+01
N    7.9240338593910220E+00    4.6336634420171761E+00    2.5173042426673793E+00
Ga    8.1420068053743417E+00    2.7821859653413492E+00    3.2879547154788273E+00
N    8.0312211364835218E+00    2.8397817453908551E+00    5.2463056205092204E+00
Ga    8.0568842109766443E+00    4.7125310868061536E+00    5.7914735124263181E+00
N    8.0392432421722049E+00    4.7059763696076979E+00    7.7847097123985280E+00
Ga    8.0206711299828211E+00    2.8482496013734191E+00    8.4305246574835095E+00
N    8.0165189001358179E+00    2.8500391404413326E+00    1.0419289907664883E+01
Ga    8.0424345579651924E+00    4.7079395087981046E+00    1.1066187174075852E+01
N    8.0597712411013891E+00    4.7177376683069641E+00    1.3055749233773838E+01
Ga    8.0177289578313111E+00    2.8485225376882397E+00    1.3617017109409204E+01
N    8.0429069792992127E+00    2.8334503769079116E+00    1.5576770967135118E+01
Ga    7.8689194695419618E+00    4.6059518383966074E+00    1.6479334020595871E+01
N    6.4219430736447665E+00    7.4818545748761336E+00    2.5978954898785691E+00
Ga    6.4229009541548887E+00    5.7420298388742106E+00    3.2844473996318313E+00
N    6.4226483605147120E+00    5.6282124730120087E+00    5.2434339039672642E+00
Ga    6.4215477567868255E+00    7.4839226678620223E+00    5.8679704569295694E+00
N    6.4201715913610657E+00    7.4851825176345539E+00    7.8371390231412326E+00
Ga    6.4212584366410299E+00    5.6171678141794930E+00    8.4317597800103830E+00
N    6.4202705952667909E+00    5.6154348348090384E+00    1.0420351078946373E+01
Ga    6.4205130982101846E+00    7.4840860432196408E+00    1.1021943661329578E+01
N    6.4209445432063870E+00    7.4841061656583916E+00    1.2988286943749788E+01
Ga    6.4200497725492651E+00    5.6151858604803451E+00    1.3617912581463202E+01
N    6.4207270460040320E+00    5.6437988318777270E+00    1.5576694536190054E+01
Ga    6.4224241408059566E+00    7.4828593908291827E+00    1.5856893909641723E+01
N    4.7119777894715176E+00    1.0206015837789094E+01    2.5176943216145746E+00
Ga    4.9136485806446668E+00    8.3538687710661055E+00    3.2770814269121340E+00
N    4.8104773454351220E+00    8.4096182966119262E+00    5.2388014171094675E+00
Ga    4.8417278348991282E+00    1.0283364531490454E+01    5.7937234261610921E+00
N    4.8220120733371576E+00    1.0274251126384749E+01    7.7858285790788191E+00
Ga    4.8037781588830493E+00    8.4198686580011444E+00    8.4336501999202280E+00
N    4.8010475816322451E+00    8.4191933450795027E+00    1.0421024938082295E+01
Ga    4.8270748490335915E+00    1.0278901010147528E+01    1.1066176219996221E+01
N    4.8434387894300528E+00    1.0288412795105240E+01    1.3054455389851556E+01
Ga    4.8017074632476131E+00    8.4193733986821933E+00    1.3616662806290126E+01
N    4.8336481158616547E+00    8.4004528422372005E+00    1.5572893636555564E+01
Ga    4.6467660748042396E+00    1.0173189073856113E+01    1.6478568430691933E+01
O    6.5556330256243203E-02    3.4807689580871140E+00   -4.8989813305324242E-01
H   -1.1505606813458923E-02    7.4592824371281967E+00    1.6608696740531661E+00
C    6.9390963941241157E-01    2.2405523434741692E+00   -8.6479603561346585E-01
H    1.7673782999972738E+00    2.2286491318311703E+00   -6.1457597282995602E-01
H    2.2547759702884049E-01    1.3701534576323415E+00   -3.7471444661780201E-01
H    5.8167388111213736E-01    2.1264266155463636E+00   -1.9525306236034603E+00
     &END COORD
     &KIND C
       BASIS_SET DZVP-MOLOPT-SR-GTH-q4
       POTENTIAL GTH-PBE-q4
       &POTENTIAL
 2 2
  0.3384712400000000E+00 2 -0.8803673979999999E+01  0.1339210850000000E+01
 2
  0.3025757500000000E+00 1  0.9622486650000001E+01
  0.2915069400000000E+00 0
         # Potential name:  GTH-PBE-Q4  for symbol:  C
         # Potential read from the potential filename: GTH_POTENTIALS
       &END POTENTIAL
     &END KIND
     &KIND O
       BASIS_SET DZVP-MOLOPT-SR-GTH-q6
       POTENTIAL GTH-PBE-q6
       &POTENTIAL
 2 4
  0.2445543000000000E+00 2 -0.1666721480000000E+02  0.2487311320000000E+01
 2
  0.2209559200000000E+00 1  0.1833745811000000E+02
  0.2113324700000000E+00 0
         # Potential name:  GTH-PBE-Q6  for symbol:  O
         # Potential read from the potential filename: GTH_POTENTIALS
       &END POTENTIAL
     &END KIND
     &KIND H
       BASIS_SET DZVP-MOLOPT-SR-GTH-q1
       POTENTIAL GTH-PBE-q1
       &POTENTIAL
 1
  0.2000000000000000E+00 2 -0.4178900440000000E+01  0.7244633100000000E+00
 0
         # Potential name:  GTH-PBE-Q1  for symbol:  H
         # Potential read from the potential filename: GTH_POTENTIALS
       &END POTENTIAL
     &END KIND
     &KIND N
       BASIS_SET DZVP-MOLOPT-SR-GTH
       POTENTIAL GTH-PBE-q5
       &POTENTIAL
 2 3
  0.2837905100000000E+00 2 -0.1241522559000000E+02  0.1868095920000000E+01
 2
  0.2554050000000000E+00 1  0.1363026257000000E+02
  0.2454945300000000E+00 0
         # Potential name:  GTH-PBE-Q5  for symbol:  N
         # Potential read from the potential filename: GTH_POTENTIALS
       &END POTENTIAL
     &END KIND
     &KIND Ga
       BASIS_SET DZVP-MOLOPT-SR-GTH
       POTENTIAL GTH-PBE-q13
       &POTENTIAL
 2 1 10
  0.4900000000000000E+00 0
 3
  0.4167772300000000E+00 3  0.1047568975000000E+02 -0.4921768140000000E+01  0.8707055900000000E+00
  0.7770178090000000E+01 -0.2248152160000000E+01
  0.1784415450000000E+01
  0.5696265200000000E+00 2  0.1777985340000000E+01  0.1958597600000000E+00
 -0.2317443900000000E+00
  0.2381265000000000E+00 1 -0.1624868022000000E+02
         # Potential name:  GTH-PBE-Q13  for symbol:  GA
         # Potential read from the potential filename: GTH_POTENTIALS
       &END POTENTIAL
     &END KIND
     &TOPOLOGY
       NUMBER_OF_ATOMS  206
       MULTIPLE_UNIT_CELL  1 1 1
     &END TOPOLOGY
   &END SUBSYS
 &END FORCE_EVAL
