 # Version information for this restart file 
 # current date 2019-05-25 04:47:42.695
 # current working dir /lustre03/project/6004141/rzk/GaN-carbene/00-Surface/00-Preoptimization/443-capped
 # Program compiled at                              Sun Apr  7 00:48:11 EDT 2019
 # Program compiled on                          beluga2.int.ets1.calculquebec.ca
 # Program compiled for                        Beluga-Linux-x86-64-intel-openmpi
 # Source code revision number                                         svn:18619
 &GLOBAL
   PRINT_LEVEL  MEDIUM
   PROJECT_NAME TEST
   RUN_TYPE  GEO_OPT
 &END GLOBAL
 &MOTION
   &GEO_OPT
     MAX_ITER  500
     STEP_START_VAL  25
   &END GEO_OPT
 &END MOTION
 &FORCE_EVAL
   METHOD  QS
   STRESS_TENSOR  ANALYTICAL
   &DFT
     BASIS_SET_FILE_NAME BASIS_MOLOPT
     POTENTIAL_FILE_NAME GTH_POTENTIALS
     &SCF
       MAX_SCF  100
       EPS_SCF     5.0000000000000004E-06
       &OT  T
         PRECONDITIONER  FULL_ALL
       &END OT
       &OUTER_SCF  T
         OPTIMIZER  NONE
         EPS_SCF     5.0000000000000004E-06
         MAX_SCF  4
       &END OUTER_SCF
       &PRINT
         &RESTART  OFF
           BACKUP_COPIES  1
           &EACH
             JUST_ENERGY  0
             QS_SCF  0
             MD  20
           &END EACH
         &END RESTART
       &END PRINT
     &END SCF
     &QS
       EPS_DEFAULT     1.0000000000000000E-14
       METHOD  GPW
     &END QS
     &MGRID
       NGRIDS  5
       CUTOFF     1.2000000000000000E+03
     &END MGRID
     &XC
       DENSITY_CUTOFF     1.0000000000000000E-10
       GRADIENT_CUTOFF     1.0000000000000000E-10
       TAU_CUTOFF     1.0000000000000000E-10
       &XC_FUNCTIONAL  NO_SHORTCUT
         &PBE  T
         &END PBE
       &END XC_FUNCTIONAL
       &VDW_POTENTIAL
         POTENTIAL_TYPE  PAIR_POTENTIAL
         &PAIR_POTENTIAL
           R_CUTOFF     1.0000000000000002E+01
           TYPE  DFTD3
           PARAMETER_FILE_NAME dftd3.dat
           REFERENCE_FUNCTIONAL PBE
           EPS_CN     9.9999999999999995E-07
           CALCULATE_C9_TERM  T
           REFERENCE_C9_TERM  T
           LONG_RANGE_CORRECTION  F
           VERBOSE_OUTPUT  F
         &END PAIR_POTENTIAL
       &END VDW_POTENTIAL
     &END XC
   &END DFT
   &SUBSYS
     &CELL
       A     1.2982353780853531E+01    0.0000000000000000E+00    0.0000000000000000E+00
       B    -6.4911768904267628E+00    1.1243048175136114E+01    0.0000000000000000E+00
       C     0.0000000000000000E+00    0.0000000000000000E+00    2.9000000000000000E+01
       MULTIPLE_UNIT_CELL  1 1 1
     &END CELL
     &COORD
Ga    8.5435117855667828E-04   -1.7780959752510624E-04   -1.3630182532904184E-01
N    9.2543171545876341E-04    1.8733029504047731E+00    6.3588677105264002E-01
Ga    1.3808470565842331E-03    1.8727608313151392E+00    2.5721732902275574E+00
N    9.2050142779811172E-04   -8.3619938855475937E-04    3.2494868837701105E+00
Ga    8.6995611838522650E-04    2.3812901512629256E-04    5.2106369590552610E+00
N    2.3835585342991267E-04    1.8746816034863694E+00    5.8589805535543871E+00
Ga    2.8256601469995196E-03    1.8764716158144363E+00    7.8268608619817837E+00
N    8.2336347263335793E-04    2.9857525169838073E-03    8.4624800464194418E+00
Ga    4.8239156003202568E-03    1.3982112807331497E-03    1.0448252729447081E+01
N   -6.5490127375938774E-03    1.8720001871739338E+00    1.1027114634713712E+01
Ga   -2.2195370253555810E-04    1.8717766793745747E+00    1.3102656509845197E+01
N   -4.3155616680549280E-04    1.3656393438386078E-03    1.3444002447833595E+01
Ga   -1.6216069393848342E+00    2.8108527694202170E+00   -1.3846936214496181E-01
N   -1.6218863208731771E+00    4.6843596287842324E+00    6.3358085748588278E-01
Ga   -1.6219592593045917E+00    4.6841805946461994E+00    2.5698746931255370E+00
N   -1.6221413507860252E+00    2.8100260069837470E+00    3.2471545241721378E+00
Ga   -1.6221185246299457E+00    2.8099946739025392E+00    5.2082740038806925E+00
N   -1.6233639479753266E+00    4.6834096677878287E+00    5.8567972090770901E+00
Ga   -1.6223330089765942E+00    4.6848905769161480E+00    7.8243683618759938E+00
N   -1.6248780120379236E+00    2.8100223088891152E+00    8.4641071196410049E+00
Ga   -1.6237491142428915E+00    2.8121452724549649E+00    1.0449939530525025E+01
N   -1.6217185343707603E+00    4.6874894953981059E+00    1.1026494920608981E+01
Ga   -1.6246143357967977E+00    4.6829032911501889E+00    1.3104411849053852E+01
N   -1.6231786400345616E+00    2.8097402757644296E+00    1.3439507332613845E+01
Ga   -3.2450655960911732E+00    5.6222135124030892E+00   -1.3935883297878590E-01
N   -3.2447904278658366E+00    7.4949116698976557E+00    6.3415202772868862E-01
Ga   -3.2445780596627110E+00    7.4956843188848223E+00    2.5705952498069897E+00
N   -3.2450462136537377E+00    5.6212842258815794E+00    3.2457627988270086E+00
Ga   -3.2459382695623273E+00    5.6210600766200365E+00    5.2069133473104623E+00
N   -3.2455837910737939E+00    7.4955658558853537E+00    5.8560682953660876E+00
Ga   -3.2457024101841627E+00    7.4954249344429744E+00    7.8237003697856302E+00
N   -3.2446325288945697E+00    5.6222167792467195E+00    8.4609889080316965E+00
Ga   -3.2450218697457904E+00    5.6232261875357024E+00    1.0446397749350623E+01
N   -3.2397055630457161E+00    7.5010083939330441E+00    1.1025089646003810E+01
Ga   -3.2443999744301744E+00    7.4963365921363723E+00    1.3103901663038885E+01
N   -3.2502950263673722E+00    5.6222426555590275E+00    1.3439817799788997E+01
Ga   -4.8680325783908316E+00    8.4327621856318515E+00   -1.3754234949255953E-01
N   -4.8676825053029944E+00    1.0305259095547457E+01    6.3664403006153858E-01
Ga   -4.8669384454196907E+00    1.0305605261942492E+01    2.5731358759101735E+00
N   -4.8677032181275095E+00    8.4317914361067210E+00    3.2470060461005996E+00
Ga   -4.8688470822046641E+00    8.4326638599958130E+00    5.2075846621493955E+00
N   -4.8683773704243496E+00    1.0305529004186248E+01    5.8575966367601433E+00
Ga   -4.8681136862147074E+00    1.0304259479153554E+01    7.8252858249259605E+00
N   -4.8701066955837566E+00    8.4292854323716906E+00    8.4651873849666686E+00
Ga   -4.8674164338372998E+00    8.4349489005796610E+00    1.0451593755693665E+01
N   -4.8688299390760612E+00    1.0303331655165158E+01    1.1025678368065083E+01
Ga   -4.8711632582473401E+00    1.0307666381094981E+01    1.3100551712645835E+01
N   -4.8663154163098570E+00    8.4344875481371968E+00    1.3439185754799787E+01
Ga    3.2461368093905949E+00   -1.5774959686709584E-04   -1.3634656655013330E-01
N    3.2464092420700248E+00    1.8734136883136980E+00    6.3632329891923911E-01
Ga    3.2473276226004240E+00    1.8725769178923410E+00    2.5727894617915146E+00
N    3.2467092744937616E+00   -9.7359133106929285E-04    3.2483071672746933E+00
Ga    3.2453572928355969E+00    2.6813796479095665E-04    5.2092199659163505E+00
N    3.2466067636253029E+00    1.8732798482891404E+00    5.8590092990999789E+00
Ga    3.2446807285872774E+00    1.8735385073908113E+00    7.8270433760604448E+00
N    3.2464608913706301E+00   -3.4561114788976034E-03    8.4619360728130353E+00
Ga    3.2435565544803047E+00   -2.6610334016432600E-03    1.0448024238987665E+01
N    3.2383470656626341E+00    1.8679411320480952E+00    1.1031571787002736E+01
Ga    3.2460230868102551E+00    1.8716433294123271E+00    1.3107205990875713E+01
N    3.2484744334902169E+00   -4.8497194716290055E-03    1.3434000788373600E+01
Ga    1.6232308480193793E+00    2.8106719600565078E+00   -1.3622846514981346E-01
N    1.6235660734097979E+00    4.6844683064273420E+00    6.3488238354055393E-01
Ga    1.6239301613923114E+00    4.6838989694980642E+00    2.5714789628921229E+00
N    1.6240735655458924E+00    2.8098693981199596E+00    3.2484136191800226E+00
Ga    1.6239447841574779E+00    2.8107846736033846E+00    5.2103081101257631E+00
N    1.6235333677654402E+00    4.6847535660665027E+00    5.8581844965695344E+00
Ga    1.6236360571571378E+00    4.6849727227910680E+00    7.8259236927266622E+00
N    1.6239993803151080E+00    2.8138439636943033E+00    8.4669748952388630E+00
Ga    1.6213870823210021E+00    2.8090020899640225E+00    1.0452488338564304E+01
N    1.6238845856457149E+00    4.6849440612063544E+00    1.1031637539119085E+01
Ga    1.6221557972934419E+00    4.6859142201448041E+00    1.3107130940229652E+01
N    1.6214838813381975E+00    2.8109773772477133E+00    1.3431017200027492E+01
Ga    4.1286139410546939E-04    5.6218900868796720E+00   -1.3881197488872138E-01
N    8.7357758365540672E-04    7.4949254635043090E+00    6.3388928214480289E-01
Ga    1.0210783815487175E-03    7.4957344587643790E+00    2.5707539285402747E+00
N    7.6343613497647665E-04    5.6214073691220880E+00    3.2464640667705020E+00
Ga    9.4118989469838443E-04    5.6205905581258353E+00    5.2083062495131127E+00
N    1.4197788918278375E-03    7.4954065615881476E+00    5.8572559556432395E+00
Ga    8.1458138505277763E-04    7.4939657743878199E+00    7.8249987042285323E+00
N   -1.6138250868227716E-03    5.6208287526522778E+00    8.4641243956704049E+00
Ga    3.0055790231738621E-03    5.6261183153899639E+00    1.0449384311916045E+01
N    3.2018169760139226E-03    7.4981340778191621E+00    1.1025312068665288E+01
Ga    2.6553002506006142E-03    7.4974740576882581E+00    1.3101579488020286E+01
N   -1.7041737569151601E-03    5.6213742682793884E+00    1.3436050668114287E+01
Ga   -1.6222448862133596E+00    8.4328620590210424E+00   -1.3886629035001424E-01
N   -1.6218121691408809E+00    1.0305425255622771E+01    6.3573318986700666E-01
Ga   -1.6212656021811387E+00    1.0305994256965100E+01    2.5724236062990151E+00
N   -1.6218307651998629E+00    8.4320542550531741E+00    3.2460185314950150E+00
Ga   -1.6216438290205388E+00    8.4322675241276102E+00    5.2066467446817599E+00
N   -1.6210852904077859E+00    1.0306528737193114E+01    5.8546481852820058E+00
Ga   -1.6224037268097420E+00    1.0306437791276304E+01    7.8216569555381401E+00
N   -1.6218765719056873E+00    8.4324492814484078E+00    8.4585735418389483E+00
Ga   -1.6177469836277034E+00    8.4299652059458712E+00    1.0443018819592469E+01
N   -1.6150819794335056E+00    1.0306561495255592E+01    1.1022272808152287E+01
Ga   -1.6190389752809913E+00    1.0304537997921859E+01    1.3099618647992408E+01
N   -1.6212602072475311E+00    8.4297297452955178E+00    1.3443483873901469E+01
Ga    6.4920741054307545E+00    3.0729094158936745E-04   -1.3893481196017182E-01
N    6.4921796912657843E+00    1.8733425124949028E+00    6.3480311919176857E-01
Ga    6.4921672881760077E+00    1.8728431003671526E+00    2.5712383327397856E+00
N    6.4925762828968425E+00   -5.7784800590113695E-04    3.2469518971498448E+00
Ga    6.4922372278230212E+00    3.5966916611202189E-04    5.2067969644728862E+00
N    6.4928154886149878E+00    1.8730618076370642E+00    5.8571736754249493E+00
Ga    6.4919254038745713E+00    1.8757602090013441E+00    7.8240067398498612E+00
N    6.4950645338816742E+00    2.3740596244755554E-04    8.4604754858937259E+00
Ga    6.4947661260856648E+00    5.6187469085393175E-03    1.0446055592478396E+01
N    6.4934132711694277E+00    1.8819683887154663E+00    1.1022396300016622E+01
Ga    6.4950395990824514E+00    1.8648973815271177E+00    1.3099586484710931E+01
N    6.4934225526788039E+00   -4.5188064479156275E-03    1.3450626792061302E+01
Ga    4.8683870879896824E+00    2.8110461615072539E+00   -1.3704749066409194E-01
N    4.8690476871539508E+00    4.6844578606863987E+00    6.3485614446094596E-01
Ga    4.8694068686724172E+00    4.6838861744476121E+00    2.5710135407873418E+00
N    4.8696612814590665E+00    2.8101722735499748E+00    3.2479199347573875E+00
Ga    4.8686552038653419E+00    2.8098788502971126E+00    5.2089464757033133E+00
N    4.8685864849811376E+00    4.6831123918549000E+00    5.8579242614169793E+00
Ga    4.8682024290781172E+00    4.6810003516130898E+00    7.8254736716698794E+00
N    4.8695086234309937E+00    2.8057695912428144E+00    8.4648123398089918E+00
Ga    4.8631257037787812E+00    2.8064508762021996E+00    1.0450964029617584E+01
N    4.8666882919281846E+00    4.6818962975640703E+00    1.1032466841713187E+01
Ga    4.8676901827719696E+00    4.6848487127211467E+00    1.3109469683340057E+01
N    4.8707565991664747E+00    2.8062370273423394E+00    1.3428793530762709E+01
Ga    3.2455269645431395E+00    5.6222144637607192E+00   -1.3671998912629349E-01
N    3.2463498269484643E+00    7.4949907359831656E+00    6.3515597215395247E-01
Ga    3.2471660671932994E+00    7.4955017505552570E+00    2.5714501406885955E+00
N    3.2467204827907628E+00    5.6215370539681810E+00    3.2476937516949196E+00
Ga    3.2463269905056911E+00    5.6214397761976729E+00    5.2095421013880303E+00
N    3.2473886206734539E+00    7.4965997928482988E+00    5.8591759104267833E+00
Ga    3.2485378470674560E+00    7.4943327093607977E+00    7.8269093466026458E+00
N    3.2475519336718524E+00    5.6228554093215815E+00    8.4643555402992678E+00
Ga    3.2453577032665120E+00    5.6259562065656370E+00    1.0450140348542408E+01
N    3.2435501328355634E+00    7.5006089933074760E+00    1.1027323033630614E+01
Ga    3.2475149266882402E+00    7.4964093718655045E+00    1.3103606741629051E+01
N    3.2458486314694515E+00    5.6230798799589303E+00    1.3436613684015413E+01
Ga    1.6235364144262912E+00    8.4328800405918773E+00   -1.3888832472494420E-01
N    1.6238101332886374E+00    1.0305410526488503E+01    6.3477374511494689E-01
Ga    1.6238460744134950E+00    1.0306040949147077E+01    2.5713813261293623E+00
N    1.6242498163380998E+00    8.4321384792142915E+00    3.2467302533602482E+00
Ga    1.6245138982018510E+00    8.4317840585631956E+00    5.2073445898092521E+00
N    1.6240875223007456E+00    1.0306022544038857E+01    5.8559848826004437E+00
Ga    1.6234399936674127E+00    1.0304260631764814E+01    7.8220048001042244E+00
N    1.6241890780081762E+00    8.4319747916342198E+00    8.4603031320290523E+00
Ga    1.6232485732432085E+00    8.4273741239710898E+00    1.0444963604286135E+01
N    1.6251036545374291E+00    1.0303993570620465E+01    1.1021891579621592E+01
Ga    1.6246928318086789E+00    1.0306970810770958E+01    1.3101228330662305E+01
N    1.6228263943781482E+00    8.4339450160300764E+00    1.3446074603272416E+01
Ga    9.7381609472032391E+00    3.1319324281338021E-04   -1.3859367536725950E-01
N    9.7378330987414383E+00    1.8734002862454262E+00    6.3437079495652549E-01
Ga    9.7374980023990005E+00    1.8731030338792767E+00    2.5703915486910911E+00
N    9.7377955987144666E+00   -4.8769847085367718E-04    3.2474136030100991E+00
Ga    9.7381108758661981E+00   -5.6910199072248021E-04    5.2071865190172542E+00
N    9.7367337877921134E+00    1.8722007474392670E+00    5.8588442385061272E+00
Ga    9.7367773694328967E+00    1.8729043468773350E+00    7.8263892913835251E+00
N    9.7369674338773926E+00   -3.0263133103076959E-03    8.4637052519315343E+00
Ga    9.7439008937005784E+00   -1.3449466554216365E-03    1.0451304789212198E+01
N    9.7393282352059281E+00    1.8705552816728030E+00    1.1021293980087261E+01
Ga    9.7373595128684372E+00    1.8700031163085544E+00    1.3100861114290085E+01
N    9.7367108787724366E+00   -7.4971802951481520E-04    1.3446949419030235E+01
Ga    8.1147821019043125E+00    2.8111468261518739E+00   -1.3932930748376920E-01
N    8.1150060474629750E+00    4.6841659995466651E+00    6.3356570858875483E-01
Ga    8.1147221160045859E+00    4.6839867116889691E+00    2.5694974362735965E+00
N    8.1149737533368551E+00    2.8103018471631125E+00    3.2470829705080053E+00
Ga    8.1143588024648370E+00    2.8107184826374065E+00    5.2076408817163733E+00
N    8.1138778533950937E+00    4.6838842094538329E+00    5.8583199383212143E+00
Ga    8.1134915206712872E+00    4.6851467027690976E+00    7.8262452735055028E+00
N    8.1170565133872721E+00    2.8100644752084123E+00    8.4604728524804180E+00
Ga    8.1181807844752303E+00    2.8097648764211152E+00    1.0445813639050971E+01
N    8.1248289508104392E+00    4.6787268838428764E+00    1.1022997606500462E+01
Ga    8.1104026147523136E+00    4.6825070302514193E+00    1.3100500996229750E+01
N    8.1147457532705189E+00    2.8057893006807375E+00    1.3436283941920289E+01
Ga    6.4911874920677102E+00    5.6224972227216616E+00   -1.3729539532302351E-01
N    6.4919131271709407E+00    7.4949180210388464E+00    6.3519823127931807E-01
Ga    6.4921736267966477E+00    7.4950460451082224E+00    2.5712303698302499E+00
N    6.4922199521580630E+00    5.6210077635740161E+00    3.2471261236071731E+00
Ga    6.4905379683334150E+00    5.6204807583776404E+00    5.2079994047882767E+00
N    6.4910012499478933E+00    7.4940932628291401E+00    5.8569998299888217E+00
Ga    6.4925322050137231E+00    7.4919905315986908E+00    7.8236705241579303E+00
N    6.4902242231119009E+00    5.6183746763859030E+00    8.4652524893599015E+00
Ga    6.4948544567319182E+00    5.6096145431570150E+00    1.0452010074949303E+01
N    6.4908693180628356E+00    7.4883700389089816E+00    1.1030220278606139E+01
Ga    6.4921192080973800E+00    7.5004551238014630E+00    1.3107188077523270E+01
N    6.4933038123579765E+00    5.6249598281158448E+00    1.3437953227900717E+01
Ga    4.8688112333852924E+00    8.4329426481550289E+00   -1.3633078259454914E-01
N    4.8691827001072552E+00    1.0305590491003111E+01    6.3634943234998842E-01
Ga    4.8696205850698870E+00    1.0305763099311946E+01    2.5725560313579385E+00
N    4.8696973190414932E+00    8.4321905664227454E+00    3.2480721992310277E+00
Ga    4.8692068007730418E+00    8.4327553858130351E+00    5.2086111939791664E+00
N    4.8682075084191645E+00    1.0307009940578283E+01    5.8577014517899979E+00
Ga    4.8715690603175972E+00    1.0306457109174955E+01    7.8241146623224891E+00
N    4.8728645508503847E+00    8.4351593270246052E+00    8.4636850626439237E+00
Ga    4.8677066026085187E+00    8.4329028830050490E+00    1.0449326570313428E+01
N    4.8743978237056016E+00    1.0303710365903866E+01    1.1021246197198511E+01
Ga    4.8677171584513559E+00    1.0310092149183696E+01    1.3100090468877855E+01
N    4.8684737095850217E+00    8.4352366243956425E+00    1.3440091285977109E+01
H    4.8688568610049394E+00    8.4321857173435077E+00   -1.6895289259878992E+00
H    1.6230679928383571E+00    8.4320149113894338E+00   -1.6923774179375208E+00
H   -1.6214113687551694E+00    8.4319638243990873E+00   -1.6923646988157863E+00
H   -4.8676448568022535E+00    8.4316017906234837E+00   -1.6909081212656429E+00
H    6.4925683242767454E+00    5.6214461700278804E+00   -1.6905560443879475E+00
H    3.2464285779024187E+00    5.6222781865520890E+00   -1.6899350710621344E+00
H    1.2607639962402544E-03    5.6227663404946009E+00   -1.6922687758359023E+00
H   -3.2445884461368109E+00    5.6218958074026562E+00   -1.6925785773628876E+00
H    8.1146697340171912E+00    2.8099110667993661E+00   -1.6926680848951752E+00
H    4.8698580340905409E+00    2.8103703458715756E+00   -1.6905450879403943E+00
H    1.6236021302542150E+00    2.8113628880060584E+00   -1.6895926739540512E+00
H   -1.6228421476419843E+00    2.8105476491975718E+00   -1.6917308254557490E+00
H   -1.7434740601761530E-04   -4.1598536605383976E-04   -1.6894438188635699E+00
H    3.2466535349823062E+00   -4.7000696012537165E-04   -1.6896897865267242E+00
H    6.4921488704006158E+00   -7.3886409341859956E-04   -1.6924190372652981E+00
H    9.7364573849836606E+00   -5.2133577909292098E-04   -1.6919302432733208E+00
     &END COORD
     &KIND H
       BASIS_SET DZVP-MOLOPT-SR-GTH-q1
       POTENTIAL GTH-PBE-q1
       &POTENTIAL
 1
  0.2000000000000000E+00 2 -0.4178900440000000E+01  0.7244633100000000E+00
 0
         # Potential name:  GTH-PBE-Q1  for symbol:  H
         # Potential read from the potential filename: GTH_POTENTIALS
       &END POTENTIAL
     &END KIND
     &KIND N
       BASIS_SET DZVP-MOLOPT-SR-GTH
       POTENTIAL GTH-PBE-q5
       &POTENTIAL
 2 3
  0.2837905100000000E+00 2 -0.1241522559000000E+02  0.1868095920000000E+01
 2
  0.2554050000000000E+00 1  0.1363026257000000E+02
  0.2454945300000000E+00 0
         # Potential name:  GTH-PBE-Q5  for symbol:  N
         # Potential read from the potential filename: GTH_POTENTIALS
       &END POTENTIAL
     &END KIND
     &KIND Ga
       BASIS_SET DZVP-MOLOPT-SR-GTH
       POTENTIAL GTH-PBE-q13
       &POTENTIAL
 2 1 10
  0.4900000000000000E+00 0
 3
  0.4167772300000000E+00 3  0.1047568975000000E+02 -0.4921768140000000E+01  0.8707055900000000E+00
  0.7770178090000000E+01 -0.2248152160000000E+01
  0.1784415450000000E+01
  0.5696265200000000E+00 2  0.1777985340000000E+01  0.1958597600000000E+00
 -0.2317443900000000E+00
  0.2381265000000000E+00 1 -0.1624868022000000E+02
         # Potential name:  GTH-PBE-Q13  for symbol:  GA
         # Potential read from the potential filename: GTH_POTENTIALS
       &END POTENTIAL
     &END KIND
     &TOPOLOGY
       COORD_FILE_NAME start.xyz
       COORD_FILE_FORMAT  XYZ
       NUMBER_OF_ATOMS  208
       MULTIPLE_UNIT_CELL  1 1 1
     &END TOPOLOGY
   &END SUBSYS
 &END FORCE_EVAL
