 # Version information for this restart file 
 # current date 2019-05-25 04:52:12.195
 # current working dir /lustre03/project/6004141/rzk/GaN-carbene/00-Surface/00-Preoptimization/443-capped
 # Program compiled at                              Sun Apr  7 00:48:11 EDT 2019
 # Program compiled on                          beluga2.int.ets1.calculquebec.ca
 # Program compiled for                        Beluga-Linux-x86-64-intel-openmpi
 # Source code revision number                                         svn:18619
 &GLOBAL
   PRINT_LEVEL  MEDIUM
   PROJECT_NAME TEST
   RUN_TYPE  GEO_OPT
 &END GLOBAL
 &MOTION
   &GEO_OPT
     MAX_ITER  500
     STEP_START_VAL  26
   &END GEO_OPT
 &END MOTION
 &FORCE_EVAL
   METHOD  QS
   STRESS_TENSOR  ANALYTICAL
   &DFT
     BASIS_SET_FILE_NAME BASIS_MOLOPT
     POTENTIAL_FILE_NAME GTH_POTENTIALS
     &SCF
       MAX_SCF  100
       EPS_SCF     5.0000000000000004E-06
       &OT  T
         PRECONDITIONER  FULL_ALL
       &END OT
       &OUTER_SCF  T
         OPTIMIZER  NONE
         EPS_SCF     5.0000000000000004E-06
         MAX_SCF  4
       &END OUTER_SCF
       &PRINT
         &RESTART  OFF
           BACKUP_COPIES  1
           &EACH
             JUST_ENERGY  0
             QS_SCF  0
             MD  20
           &END EACH
         &END RESTART
       &END PRINT
     &END SCF
     &QS
       EPS_DEFAULT     1.0000000000000000E-14
       METHOD  GPW
     &END QS
     &MGRID
       NGRIDS  5
       CUTOFF     1.2000000000000000E+03
     &END MGRID
     &XC
       DENSITY_CUTOFF     1.0000000000000000E-10
       GRADIENT_CUTOFF     1.0000000000000000E-10
       TAU_CUTOFF     1.0000000000000000E-10
       &XC_FUNCTIONAL  NO_SHORTCUT
         &PBE  T
         &END PBE
       &END XC_FUNCTIONAL
       &VDW_POTENTIAL
         POTENTIAL_TYPE  PAIR_POTENTIAL
         &PAIR_POTENTIAL
           R_CUTOFF     1.0000000000000002E+01
           TYPE  DFTD3
           PARAMETER_FILE_NAME dftd3.dat
           REFERENCE_FUNCTIONAL PBE
           EPS_CN     9.9999999999999995E-07
           CALCULATE_C9_TERM  T
           REFERENCE_C9_TERM  T
           LONG_RANGE_CORRECTION  F
           VERBOSE_OUTPUT  F
         &END PAIR_POTENTIAL
       &END VDW_POTENTIAL
     &END XC
   &END DFT
   &SUBSYS
     &CELL
       A     1.2982353780853531E+01    0.0000000000000000E+00    0.0000000000000000E+00
       B    -6.4911768904267628E+00    1.1243048175136114E+01    0.0000000000000000E+00
       C     0.0000000000000000E+00    0.0000000000000000E+00    2.9000000000000000E+01
       MULTIPLE_UNIT_CELL  1 1 1
     &END CELL
     &COORD
Ga    6.4236353554472246E-04   -1.2952004811151525E-04   -1.4463065913639209E-01
N    5.5529180640204363E-04    1.8736503498727144E+00    6.3015683506893450E-01
Ga    1.0982068812830626E-03    1.8734724698942842E+00    2.5675067928190707E+00
N    9.2850979233161329E-04   -2.9783738916390712E-04    3.2450001680488811E+00
Ga    8.5108898200548350E-04   -3.6049286339962327E-05    5.2076347440868131E+00
N    5.4549337974168794E-04    1.8740136964924952E+00    5.8569364769605299E+00
Ga    1.8153282156590214E-03    1.8742302531103996E+00    7.8266413452964017E+00
N    1.0664279041409453E-03    7.5953170082923484E-04    8.4664473586651940E+00
Ga    1.0878634105555760E-03    8.7683355347864165E-04    1.0455172796130000E+01
N   -1.1342686320935298E-03    1.8742635139401320E+00    1.1028880804442327E+01
Ga   -6.2869493333621448E-04    1.8738280910563145E+00    1.3107811648951891E+01
N    4.4965043158724273E-04    9.1574546020270530E-04    1.3440557892341277E+01
Ga   -1.6220971549197940E+00    2.8106601049743896E+00   -1.4563932623614625E-01
N   -1.6221720673825983E+00    4.6844741828490477E+00    6.2915784237718686E-01
Ga   -1.6218474442241326E+00    4.6843511563693792E+00    2.5663834946452133E+00
N   -1.6220344906490789E+00    2.8105420138509523E+00    3.2441122738625174E+00
Ga   -1.6218234680755061E+00    2.8102195344582062E+00    5.2065625990992075E+00
N   -1.6222861152923245E+00    4.6843881778630383E+00    5.8556488648680292E+00
Ga   -1.6218168716984140E+00    4.6844383614569098E+00    7.8249500535855336E+00
N   -1.6230622809759701E+00    2.8109147315738090E+00    8.4647972524408246E+00
Ga   -1.6225026169274239E+00    2.8101391949784200E+00    1.0453323683526987E+01
N   -1.6224458828461912E+00    4.6842696296055530E+00    1.1026889391326183E+01
Ga   -1.6230115160680303E+00    4.6846550380407130E+00    1.3106936599258626E+01
N   -1.6231024149951498E+00    2.8109030922099287E+00    1.3441758199054432E+01
Ga   -3.2449887530871133E+00    5.6216621842700105E+00   -1.4625277113586052E-01
N   -3.2449328301771296E+00    7.4951627728524821E+00    6.2947944504623887E-01
Ga   -3.2446593451676011E+00    7.4953038059127808E+00    2.5666962725453599E+00
N   -3.2447523169500028E+00    5.6213170561142825E+00    3.2434321132865525E+00
Ga   -3.2448837499953509E+00    5.6213003014999181E+00    5.2056268323079102E+00
N   -3.2446886384362656E+00    7.4952860803221801E+00    5.8556003894018351E+00
Ga   -3.2450219728998446E+00    7.4958628991657505E+00    7.8249199326781547E+00
N   -3.2447261510788095E+00    5.6221513494104238E+00    8.4638458708902338E+00
Ga   -3.2444290925400980E+00    5.6226242024983284E+00    1.0452488475064129E+01
N   -3.2433301923253244E+00    7.4971079228153981E+00    1.1026511378059034E+01
Ga   -3.2451784104932360E+00    7.4947270028778172E+00    1.3107186237238086E+01
N   -3.2461952602589013E+00    5.6212693278794355E+00    1.3443047876938474E+01
Ga   -4.8678263201809635E+00    8.4323982925519179E+00   -1.4532622701109260E-01
N   -4.8678318139381238E+00    1.0305797703239081E+01    6.3051159661848011E-01
Ga   -4.8673562121520080E+00    1.0305814580453628E+01    2.5678528688017472E+00
N   -4.8674990239709208E+00    8.4318541003518774E+00    3.2442421024361878E+00
Ga   -4.8680225093897818E+00    8.4322859551002800E+00    5.2065799304022660E+00
N   -4.8678564119758532E+00    1.0305590288077585E+01    5.8565423027693448E+00
Ga   -4.8679729559657190E+00    1.0305762271091714E+01    7.8260650089360420E+00
N   -4.8680688465168220E+00    8.4309636507572385E+00    8.4654656674046773E+00
Ga   -4.8685215357097409E+00    8.4313395341264439E+00    1.0454126817763012E+01
N   -4.8686545885191697E+00    1.0303619443597601E+01    1.1030262581795876E+01
Ga   -4.8687341966497772E+00    1.0305613418749708E+01    1.3109417511750483E+01
N   -4.8677874946182067E+00    8.4315620551457524E+00    1.3441821745045528E+01
Ga    3.2461607964172638E+00   -1.4825285070284297E-04   -1.4467967222390524E-01
N    3.2461722134393005E+00    1.8736066032829624E+00    6.3038696969002517E-01
Ga    3.2466687119271778E+00    1.8733831712892752E+00    2.5677989796671450E+00
N    3.2465364892032573E+00   -4.8719001650192990E-04    3.2446774401029046E+00
Ga    3.2460276465330686E+00   -1.0138728205856870E-04    5.2071752649814895E+00
N    3.2463215645618684E+00    1.8732814353523812E+00    5.8568654769357300E+00
Ga    3.2456860926970128E+00    1.8733573274148521E+00    7.8265770872092899E+00
N    3.2461082116387230E+00   -1.5662717725272320E-03    8.4661901639052850E+00
Ga    3.2449665841653483E+00   -9.8208284626847111E-04    1.0454963399665280E+01
N    3.2440113791147054E+00    1.8721872958348209E+00    1.1030932236790790E+01
Ga    3.2458304403141045E+00    1.8725015675369185E+00    1.3109906472480413E+01
N    3.2462487575826260E+00   -1.4798857808845708E-03    1.3440738012410677E+01
Ga    1.6233498798414754E+00    2.8106270414451204E+00   -1.4476574674519690E-01
N    1.6233434792795327E+00    4.6845286036504126E+00    6.2975972814113212E-01
Ga    1.6238790024280081E+00    4.6842767559720349E+00    2.5671778606069480E+00
N    1.6237540199548695E+00    2.8104772391853348E+00    3.2447421182906973E+00
Ga    1.6237717634143938E+00    2.8105882192681273E+00    5.2075722450763076E+00
N    1.6236556483707159E+00    4.6848263035806319E+00    5.8565140648948564E+00
Ga    1.6244916543003722E+00    4.6842907718294269E+00    7.8260960672808286E+00
N    1.6237134489623779E+00    2.8116890182962662E+00    8.4663589787105593E+00
Ga    1.6227190038751775E+00    2.8104813859876270E+00    1.0454814132449648E+01
N    1.6233294996389669E+00    4.6851099783918730E+00    1.1029840323971399E+01
Ga    1.6226730618563276E+00    4.6854545460596233E+00    1.3108550887101357E+01
N    1.6227284911327260E+00    2.8108720528439539E+00    1.3436941225478837E+01
Ga    5.6371104246473968E-04    5.6216305540497400E+00   -1.4588717128584694E-01
N    5.9595291992379411E-04    7.4952217377872525E+00    6.2948492192065975E-01
Ga    1.0014202921359234E-03    7.4952857502344346E+00    2.5668298442250110E+00
N    7.9875494292789141E-04    5.6213462876921820E+00    3.2437926427084345E+00
Ga    1.2338415703031405E-03    5.6210189018712757E+00    5.2062910916013898E+00
N    9.8771452707323401E-04    7.4951114188335737E+00    5.8559974463925499E+00
Ga    1.1946977206038923E-03    7.4948476711467045E+00    7.8253986167226381E+00
N    8.9120361800025961E-05    5.6210336517037733E+00    8.4650731003495654E+00
Ga    1.1653109622968832E-03    5.6221981161116430E+00    1.0453629576653512E+01
N    5.5019175552061873E-04    7.4958513430757669E+00    1.1027223678652854E+01
Ga    8.3473096069135437E-04    7.4952455501467714E+00    1.3107014771017946E+01
N   -4.7926142847062831E-04    5.6214259042660846E+00    1.3441142026290645E+01
Ga   -1.6221965966911303E+00    8.4324409774348439E+00   -1.4582445487162660E-01
N   -1.6221215992110642E+00    1.0305853050260120E+01    6.3015830399550021E-01
Ga   -1.6217488972501199E+00    1.0306009199128226E+01    2.5674813192292558E+00
N   -1.6218935994778183E+00    8.4320389936194076E+00    3.2438711627612009E+00
Ga   -1.6216520158910928E+00    8.4323941742750517E+00    5.2060949868694024E+00
N   -1.6216176335763122E+00    1.0306039752469571E+01    5.8558164792998504E+00
Ga   -1.6222943690593019E+00    1.0306943552455653E+01    7.8251643426836246E+00
N   -1.6216028873022970E+00    8.4324718448954599E+00    8.4636102850826482E+00
Ga   -1.6210953391241909E+00    8.4323797978532191E+00    1.0451952654480165E+01
N   -1.6206379317459352E+00    1.0306322110993166E+01    1.1028551834177811E+01
Ga   -1.6221298154126602E+00    1.0304593780862879E+01    1.3108778016243070E+01
N   -1.6224759099474515E+00    8.4306532249909587E+00    1.3443896920816213E+01
Ga    6.4918372820408088E+00   -1.3089326821548653E-05   -1.4548979336843362E-01
N    6.4918714501466956E+00    1.8735985704338254E+00    6.2986532402608630E-01
Ga    6.4920441294226023E+00    1.8734736601005855E+00    2.5671806604979031E+00
N    6.4921846379632004E+00   -2.7598957982775718E-04    3.2443367603309894E+00
Ga    6.4922454052281058E+00   -3.9435972553185613E-05    5.2065735506954267E+00
N    6.4924083703851210E+00    1.8735365858435493E+00    5.8561925593851898E+00
Ga    6.4914096482462913E+00    1.8741412541701961E+00    7.8254965127475806E+00
N    6.4925691813573234E+00    1.7359074288562937E-04    8.4653589471410751E+00
Ga    6.4929289102549834E+00    9.9786853476070106E-04    1.0454227498880149E+01
N    6.4926983231219833E+00    1.8760083127812952E+00    1.1027908989556513E+01
Ga    6.4925667964496059E+00    1.8720638753051873E+00    1.3107623619965532E+01
N    6.4918466655423082E+00   -1.0744101232116629E-03    1.3441058041495404E+01
Ga    4.8688531388649947E+00    2.8106532397247088E+00   -1.4499128159039956E-01
N    4.8689902127278275E+00    4.6844341891533672E+00    6.2982995513502882E-01
Ga    4.8693469936300708E+00    4.6841636676812621E+00    2.5671649209687404E+00
N    4.8693800368942179E+00    2.8103832412096774E+00    3.2445322219407529E+00
Ga    4.8688970999412211E+00    2.8102150306898133E+00    5.2070990836382274E+00
N    4.8691794013272061E+00    4.6840118487795044E+00    5.8563780627691662E+00
Ga    4.8687339964938037E+00    4.6830122160370999E+00    7.8258719638413918E+00
N    4.8689696607168145E+00    2.8090378836829202E+00    8.4658274167387759E+00
Ga    4.8671037959463908E+00    2.8087218667929279E+00    1.0454223567456308E+01
N    4.8684935526334501E+00    4.6826787351206969E+00    1.1030129803784302E+01
Ga    4.8681964370403836E+00    4.6839341674621755E+00    1.3109000220983447E+01
N    4.8690879788505761E+00    2.8091281980762375E+00    1.3439051606327267E+01
Ga    3.2460556324763603E+00    5.6216714861705377E+00   -1.4500807341970232E-01
N    3.2461251650985941E+00    7.4952568032854865E+00    6.3000966839007444E-01
Ga    3.2467291982920750E+00    7.4951907136302287E+00    2.5673742258837224E+00
N    3.2466155653803765E+00    5.6213356108329995E+00    3.2443962286466057E+00
Ga    3.2466329777754415E+00    5.6213687778726502E+00    5.2071344228012579E+00
N    3.2466389030770513E+00    7.4956250618098386E+00    5.8569102350745865E+00
Ga    3.2472676698889793E+00    7.4948110822726717E+00    7.8264925062545236E+00
N    3.2470720715613473E+00    5.6218959135029412E+00    8.4662554475177991E+00
Ga    3.2464333599065687E+00    5.6226833540957006E+00    1.0454752725000764E+01
N    3.2460962674817551E+00    7.4967772960662291E+00    1.1029670806217904E+01
Ga    3.2463876217968823E+00    7.4953065279984354E+00    1.3108793596316197E+01
N    3.2460737154619053E+00    5.6213774949296997E+00    1.3439887626229002E+01
Ga    1.6234004449096668E+00    8.4324728421682611E+00   -1.4557700043335564E-01
N    1.6234091845473748E+00    1.0305893301852590E+01    6.2996583730088029E-01
Ga    1.6237450040723285E+00    1.0305958015483151E+01    2.5672839951540953E+00
N    1.6237527458230112E+00    8.4320916118083566E+00    3.2442544130468129E+00
Ga    1.6241602775270738E+00    8.4321149764494407E+00    5.2066646466424222E+00
N    1.6238387863415003E+00    1.0305928803195718E+01    5.8564735400453491E+00
Ga    1.6236935323596915E+00    1.0305829253714812E+01    7.8258048984837085E+00
N    1.6233509887629682E+00    8.4318326536487813E+00    8.4648631976830391E+00
Ga    1.6238049859067623E+00    8.4308773383218245E+00    1.0453229381027304E+01
N    1.6231844112461717E+00    1.0304549454325901E+01    1.1028379196768192E+01
Ga    1.6237570070270650E+00    1.0305428182105658E+01    1.3108607776511919E+01
N    1.6231266512153202E+00    8.4316672157367947E+00    1.3442838434328145E+01
Ga    9.7375108861968602E+00   -1.2036774415493447E-05   -1.4535008733185145E-01
N    9.7373957028491898E+00    1.8736314591501859E+00    6.2965559937301441E-01
Ga    9.7376497135457694E+00    1.8735118025310962E+00    2.5668794617014368E+00
N    9.7376251773983853E+00   -2.4209721855750603E-04    3.2444641465356647E+00
Ga    9.7379325372354089E+00   -4.5733054307882945E-04    5.2067551122109998E+00
N    9.7374273667343108E+00    1.8733108174554254E+00    5.8564365538486740E+00
Ga    9.7374796012673315E+00    1.8730725017841545E+00    7.8258530605349117E+00
N    9.7375837188675138E+00   -7.2517354593537684E-04    8.4663085102612321E+00
Ga    9.7381732659652087E+00   -1.1456501671769901E-03    1.0455515906919288E+01
N    9.7373181211269255E+00    1.8730898969405096E+00    1.1027317804823191E+01
Ga    9.7367352481056955E+00    1.8735974654856771E+00    1.3107743481466571E+01
N    9.7369435282877426E+00    2.1869701429417000E-04    1.3441218700726710E+01
Ga    8.1146199898598876E+00    2.8107053908080282E+00   -1.4589779692182372E-01
N    8.1146997614289127E+00    4.6843913271554483E+00    6.2923044041577236E-01
Ga    8.1148327185586684E+00    4.6842974727721032E+00    2.5663939941587177E+00
N    8.1148747124646015E+00    2.8105519537993611E+00    3.2440034058096208E+00
Ga    8.1147266795713495E+00    2.8103936583420435E+00    5.2062396478068500E+00
N    8.1149826212817651E+00    4.6843171067532143E+00    5.8558181040504893E+00
Ga    8.1143605333841631E+00    4.6844688527844367E+00    7.8251355701733791E+00
N    8.1153076409068330E+00    2.8108005952038542E+00    8.4640328823392128E+00
Ga    8.1154525489637042E+00    2.8103460268816716E+00    1.0452368509455582E+01
N    8.1176341382430444E+00    4.6837598776389529E+00    1.1026541390068742E+01
Ga    8.1140818339319214E+00    4.6833363331469853E+00    1.3106496216925656E+01
N    8.1140759765760126E+00    2.8098023934309548E+00    1.3443591601462884E+01
Ga    6.4916655697760399E+00    5.6216822893702796E+00   -1.4541630244863954E-01
N    6.4917796550365221E+00    7.4951559958737466E+00    6.2995095138526636E-01
Ga    6.4921259544812786E+00    7.4950246044815492E+00    2.5672046289194537E+00
N    6.4921791154195034E+00    5.6211075794652601E+00    3.2441083390547281E+00
Ga    6.4915382510150117E+00    5.6209660104852350E+00    5.2065143600424149E+00
N    6.4918432783466145E+00    7.4946640870840531E+00    5.8564162290201818E+00
Ga    6.4917559434613334E+00    7.4939936756895769E+00    7.8258106065321567E+00
N    6.4919629947183921E+00    5.6197261314726239E+00    8.4655864628728246E+00
Ga    6.4918324611305636E+00    5.6188268763008891E+00    1.0454376554573329E+01
N    6.4917597158798825E+00    7.4926308806760478E+00    1.1028912347737812E+01
Ga    6.4918120261408632E+00    7.4957249888111859E+00    1.3108343567174705E+01
N    6.4916402441893846E+00    5.6211507796868583E+00    1.3438736293585078E+01
Ga    4.8689359818378337E+00    8.4324613717188406E+00   -1.4481797938826002E-01
N    4.8689210035920585E+00    1.0305940623820327E+01    6.3043403413410193E-01
Ga    4.8694458594739274E+00    1.0305892640254495E+01    2.5677574280679365E+00
N    4.8694515554980100E+00    8.4320675176050344E+00    3.2447194139333515E+00
Ga    4.8693006381865862E+00    8.4323417134370082E+00    5.2072535874462993E+00
N    4.8690875162026286E+00    1.0306236707733513E+01    5.8568650674793288E+00
Ga    4.8701778959835584E+00    1.0306040990478891E+01    7.8262427266897081E+00
N    4.8701878361774007E+00    8.4326727242436537E+00    8.4660051376525480E+00
Ga    4.8693818069376515E+00    8.4319010446185736E+00    1.0454430994901349E+01
N    4.8699347835746032E+00    1.0305099016209526E+01    1.1029541177082262E+01
Ga    4.8688312605047788E+00    1.0306528385506954E+01    1.3109267701257378E+01
N    4.8693265002808461E+00    8.4323487957590029E+00    1.3441358955119080E+01
H    4.8686482781961162E+00    8.4323577876545972E+00   -1.6979185853743866E+00
H    1.6229464738264987E+00    8.4325224632034850E+00   -1.6987055226613512E+00
H   -1.6223334684044808E+00    8.4324569494922486E+00   -1.6989336368438135E+00
H   -4.8679970802860622E+00    8.4322420411056704E+00   -1.6984450473908987E+00
H    6.4916989367141698E+00    5.6217590162327333E+00   -1.6985439502207620E+00
H    3.2460741695606035E+00    5.6219912296439309E+00   -1.6981312721099704E+00
H    4.0613880382838082E-04    5.6221871904544614E+00   -1.6990136636254651E+00
H   -3.2451950772840559E+00    5.6219207578770654E+00   -1.6993405416484355E+00
H    8.1142402058038599E+00    2.8103430320955503E+00   -1.6990141426030181E+00
H    4.8689166281290976E+00    2.8104043144815929E+00   -1.6981560228865771E+00
H    1.6231993836109810E+00    2.8106902609837836E+00   -1.6979000847641210E+00
H   -1.6227536477380693E+00    2.8105351662383580E+00   -1.6987429948693407E+00
H    1.4161697288801544E-04   -4.8674516219526873E-04   -1.6977089196627859E+00
H    3.2460370458070700E+00   -4.8271341872979759E-04   -1.6977866427793538E+00
H    6.4915339275800976E+00   -4.6953967798877460E-04   -1.6986130510517525E+00
H    9.7367335574702647E+00   -4.8033638190598035E-04   -1.6984559036876925E+00
     &END COORD
     &KIND H
       BASIS_SET DZVP-MOLOPT-SR-GTH-q1
       POTENTIAL GTH-PBE-q1
       &POTENTIAL
 1
  0.2000000000000000E+00 2 -0.4178900440000000E+01  0.7244633100000000E+00
 0
         # Potential name:  GTH-PBE-Q1  for symbol:  H
         # Potential read from the potential filename: GTH_POTENTIALS
       &END POTENTIAL
     &END KIND
     &KIND N
       BASIS_SET DZVP-MOLOPT-SR-GTH
       POTENTIAL GTH-PBE-q5
       &POTENTIAL
 2 3
  0.2837905100000000E+00 2 -0.1241522559000000E+02  0.1868095920000000E+01
 2
  0.2554050000000000E+00 1  0.1363026257000000E+02
  0.2454945300000000E+00 0
         # Potential name:  GTH-PBE-Q5  for symbol:  N
         # Potential read from the potential filename: GTH_POTENTIALS
       &END POTENTIAL
     &END KIND
     &KIND Ga
       BASIS_SET DZVP-MOLOPT-SR-GTH
       POTENTIAL GTH-PBE-q13
       &POTENTIAL
 2 1 10
  0.4900000000000000E+00 0
 3
  0.4167772300000000E+00 3  0.1047568975000000E+02 -0.4921768140000000E+01  0.8707055900000000E+00
  0.7770178090000000E+01 -0.2248152160000000E+01
  0.1784415450000000E+01
  0.5696265200000000E+00 2  0.1777985340000000E+01  0.1958597600000000E+00
 -0.2317443900000000E+00
  0.2381265000000000E+00 1 -0.1624868022000000E+02
         # Potential name:  GTH-PBE-Q13  for symbol:  GA
         # Potential read from the potential filename: GTH_POTENTIALS
       &END POTENTIAL
     &END KIND
     &TOPOLOGY
       COORD_FILE_NAME start.xyz
       COORD_FILE_FORMAT  XYZ
       NUMBER_OF_ATOMS  208
       MULTIPLE_UNIT_CELL  1 1 1
     &END TOPOLOGY
   &END SUBSYS
 &END FORCE_EVAL
