 # Version information for this restart file 
 # current date 2019-05-28 05:56:16.374
 # current working dir /lustre03/project/6004141/rzk/GaN-carbene/334-native/08-2Methanol-Htransfer/03-CO-constraint/1.74
 # Program compiled at                              Sun Apr  7 00:48:11 EDT 2019
 # Program compiled on                          beluga2.int.ets1.calculquebec.ca
 # Program compiled for                        Beluga-Linux-x86-64-intel-openmpi
 # Source code revision number                                         svn:18619
 &GLOBAL
   PRINT_LEVEL  MEDIUM
   PROJECT_NAME TEST
   RUN_TYPE  GEO_OPT
 &END GLOBAL
 &MOTION
   &GEO_OPT
     MAX_ITER  500
     STEP_START_VAL  396
   &END GEO_OPT
   &CONSTRAINT
     &COLLECTIVE
       COLVAR  1
       INTERMOLECULAR  T
       TARGET     3.2881234712210188E+00
       &RESTRAINT
         K     1.0000000000000001E-01
       &END RESTRAINT
     &END COLLECTIVE
     &COLVAR_RESTART
           3.2881234712210188E+00
     &END COLVAR_RESTART
   &END CONSTRAINT
 &END MOTION
 &FORCE_EVAL
   METHOD  QS
   STRESS_TENSOR  ANALYTICAL
   &DFT
     BASIS_SET_FILE_NAME BASIS_MOLOPT
     POTENTIAL_FILE_NAME GTH_POTENTIALS
     &SCF
       MAX_SCF  100
       EPS_SCF     5.0000000000000004E-06
       &OT  T
         PRECONDITIONER  FULL_ALL
       &END OT
       &OUTER_SCF  T
         OPTIMIZER  NONE
         EPS_SCF     5.0000000000000004E-06
         MAX_SCF  4
       &END OUTER_SCF
       &PRINT
         &RESTART  OFF
           BACKUP_COPIES  1
           &EACH
             JUST_ENERGY  0
             QS_SCF  0
             MD  20
           &END EACH
         &END RESTART
       &END PRINT
     &END SCF
     &QS
       EPS_DEFAULT     1.0000000000000000E-14
       ALMO_SCF  F
       METHOD  GPW
     &END QS
     &MGRID
       NGRIDS  5
       CUTOFF     1.2000000000000000E+03
     &END MGRID
     &XC
       DENSITY_CUTOFF     1.0000000000000000E-10
       GRADIENT_CUTOFF     1.0000000000000000E-10
       TAU_CUTOFF     1.0000000000000000E-10
       &XC_FUNCTIONAL  NO_SHORTCUT
         &PBE  T
         &END PBE
       &END XC_FUNCTIONAL
       &VDW_POTENTIAL
         POTENTIAL_TYPE  PAIR_POTENTIAL
         &PAIR_POTENTIAL
           R_CUTOFF     1.0000000000000005E+01
           TYPE  DFTD3
           PARAMETER_FILE_NAME dftd3.dat
           REFERENCE_FUNCTIONAL PBE
           EPS_CN     9.9999999999999995E-07
           CALCULATE_C9_TERM  T
           REFERENCE_C9_TERM  T
           LONG_RANGE_CORRECTION  F
           VERBOSE_OUTPUT  F
         &END PAIR_POTENTIAL
       &END VDW_POTENTIAL
     &END XC
   &END DFT
   &SUBSYS
     &CELL
       A     9.7367653356401487E+00    0.0000000000000000E+00    0.0000000000000000E+00
       B    -4.8591341382960209E+00    8.4162672083210595E+00    0.0000000000000000E+00
       C     0.0000000000000000E+00    0.0000000000000000E+00    3.0744000000000000E+01
       MULTIPLE_UNIT_CELL  1 1 1
       &CELL_REF
         A     9.5580000000000052E+00    0.0000000000000000E+00    0.0000000000000000E+00
         B    -4.7790000000000026E+00    8.2774708093716640E+00    0.0000000000000000E+00
         C     0.0000000000000000E+00    0.0000000000000000E+00    3.0744000000000000E+01
         MULTIPLE_UNIT_CELL  1 1 1
       &END CELL_REF
     &END CELL
     &COORD
Ga    8.9208357728499152E-02   -8.9796255020053839E-02   -5.9637595891255568E-01
N    9.3245930702073626E-02    1.7862326833926112E+00    5.5776664163892276E-01
Ga    9.2402256189390311E-02    1.7540196071533216E+00    2.5858948646556255E+00
N    8.9563030072987979E-02   -8.9729850636963038E-02    3.2192216055200351E+00
Ga    8.9702893964717312E-02   -8.8681651095250724E-02    5.2067258776047574E+00
N    9.2557624348422671E-02    1.7853812204836352E+00    5.7984329480065329E+00
Ga    9.1746694100292750E-02    1.7847503029982008E+00    7.7941065793587114E+00
N    8.9854262126811399E-02   -8.7915351328317445E-02    8.4014232217427018E+00
Ga    9.1198684674500888E-02   -8.4507602158250955E-02    1.0396611208428480E+01
N    9.0687941114218698E-02    1.7835765870456726E+00    1.1013572424424609E+01
Ga    8.4600164837009717E-02    1.7851816470079698E+00    1.3017834011768930E+01
N    8.7364716672517398E-02   -8.1992916223802739E-02    1.3644579908819644E+01
Ga    1.1435656784574268E-01   -5.9781574849066897E-02    1.5684674532894830E+01
N    1.0241332582735488E-01    1.8271043455051785E+00    1.6216107089018582E+01
Ga    8.2015945754271194E-02    1.8641601697949901E+00    1.8340433293329770E+01
N    1.3852987196130825E-01    2.2059975971407932E-02    1.8791868564367775E+01
Ga   -1.5290837350029602E+00    2.7154448046213129E+00    2.7117219010761301E-01
N   -1.5317231673768346E+00    4.5849530105487446E+00    5.5750522445706030E-01
Ga   -1.5032266260655585E+00    4.6011039579986655E+00    2.5856647857197470E+00
N   -1.5300291544778426E+00    2.7158525761627637E+00    3.1807608444116711E+00
Ga   -1.5300272859874953E+00    2.7165512631546274E+00    5.1886192538634361E+00
N   -1.5296332182637793E+00    4.5872223751970171E+00    5.7987646449734225E+00
Ga   -1.5296009493248002E+00    4.5878725225721553E+00    7.7946235238507970E+00
N   -1.5293396614371582E+00    2.7179129819196448E+00    8.4027238929408341E+00
Ga   -1.5267215385325121E+00    2.7178540697035314E+00    1.0395964228543646E+01
N   -1.5310284479249490E+00    4.5934421828526455E+00    1.1001939172934829E+01
Ga   -1.5307467739839535E+00    4.5879418112802153E+00    1.2991198559494586E+01
N   -1.5300280244313753E+00    2.7350862563398239E+00    1.3614975749522573E+01
Ga   -1.5062120562295807E+00    2.7603448038049456E+00    1.5633327903370528E+01
N   -1.5400503455600785E+00    4.6420605991028152E+00    1.6258324783524071E+01
Ga   -1.5847990353494263E+00    4.6698583100993183E+00    1.8347245535752322E+01
N   -1.5466559901424524E+00    2.8318860742024170E+00    1.8749209573735968E+01
Ga   -3.1498949825518450E+00    5.5215029049634774E+00    2.7149053304331461E-01
N   -3.1420537754550413E+00    7.3910029637902568E+00    5.5748645019882903E-01
Ga   -3.1711950654020273E+00    7.4067195418242990E+00    2.5855031562854141E+00
N   -3.1497138796681230E+00    5.5213178665469798E+00    3.1803595020258077E+00
Ga   -3.1498507535527391E+00    5.5221414016861754E+00    5.1879645847270730E+00
N   -3.1448170567867288E+00    7.3924402108028273E+00    5.7981937833295829E+00
Ga   -3.1467446034742617E+00    7.3929631209279929E+00    7.7935382698348370E+00
N   -3.1513294315207276E+00    5.5227201671240556E+00    8.4019036692484317E+00
Ga   -3.1513906433650303E+00    5.5273895547908367E+00    1.0392883546415730E+01
N   -3.1508461538893586E+00    7.3936287689134552E+00    1.1014329621728105E+01
Ga   -3.1590157824610179E+00    7.4081601071658190E+00    1.3013112949377430E+01
N   -3.1658350842797329E+00    5.5187184368095874E+00    1.3622216790811004E+01
Ga   -3.0572336553984307E+00    5.6178831349462577E+00    1.5591699715898518E+01
N   -3.1495875648556604E+00    7.3970427290298133E+00    1.6275262877314997E+01
Ga   -3.0658741029449996E+00    7.5868107361759476E+00    1.8434209433258371E+01
N   -2.8835125138184785E+00    5.8073378777152058E+00    1.9186017665411622E+01
Ga    3.3360922170242278E+00   -8.9998444156182425E-02    2.7113095263247755E-01
N    3.3335122256304959E+00    1.7794120811934058E+00    5.5748532712899090E-01
Ga    3.3620602048975483E+00    1.7955931261550540E+00    2.5856336940410851E+00
N    3.3351528498226011E+00   -8.9606793396622406E-02    3.1806505720552201E+00
Ga    3.3354005057522444E+00   -8.8453569298653459E-02    5.1884756716463540E+00
N    3.3356931353714354E+00    1.7811840268478054E+00    5.8012700425257675E+00
Ga    3.3354669443266398E+00    1.7808898446594663E+00    7.7984729969538007E+00
N    3.3336858618500225E+00   -9.1392844670516837E-02    8.4038572493499402E+00
Ga    3.3329873581666396E+00   -9.2794552568338878E-02    1.0397903331325725E+01
N    3.3330180112289485E+00    1.7806323725214523E+00    1.0991832964585813E+01
Ga    3.3217346056587203E+00    1.7683793544808781E+00    1.2979312105132122E+01
N    3.3298094867913455E+00   -9.0977919394421722E-02    1.3617846667327163E+01
Ga    3.3271913956742880E+00   -1.0253433161176789E-01    1.5645060851758053E+01
N    3.3201396193626058E+00    1.7984433895801553E+00    1.6150015830603579E+01
Ga    3.1967677186610959E+00    1.8180775000882043E+00    1.8151373275807956E+01
N    3.4322671017908211E+00    8.7966499237716253E-02    1.8747839984606877E+01
Ga    1.7155043898225437E+00    2.7159801814708664E+00    2.7123500073240925E-01
N    1.7237235168176186E+00    4.5854442337551582E+00    5.5833412328486187E-01
Ga    1.6945751069522257E+00    4.6012204535263495E+00    2.5862726034876165E+00
N    1.7157045143826735E+00    2.7156573472561134E+00    3.1810040554156416E+00
Ga    1.7160664404117214E+00    2.7165763067315920E+00    5.1889828392263038E+00
N    1.7206552756909161E+00    4.5871220438056755E+00    5.7991431693026829E+00
Ga    1.7176167884543712E+00    4.5874690380765211E+00    7.7950955701158700E+00
N    1.7133492045960341E+00    2.7172734805381902E+00    8.4027371390481083E+00
Ga    1.7101611428181314E+00    2.7168852539456410E+00    1.0395882363823793E+01
N    1.7182713256689377E+00    4.5944068999619549E+00    1.0994338700158261E+01
Ga    1.7081190092019864E+00    4.5925558853519286E+00    1.2977822291346518E+01
N    1.7157885010770144E+00    2.7322369336624095E+00    1.3584427563807198E+01
Ga    1.6975897814527356E+00    2.7252256309488856E+00    1.5571836597900470E+01
N    1.7184466293710206E+00    4.6297150474053455E+00    1.6199515011003534E+01
Ga    1.5150218828269861E+00    4.5100348778135073E+00    1.8136900193482660E+01
N    1.7416968990180079E+00    2.8152016941606117E+00    1.8832753086646608E+01
Ga    9.7459079552891431E-02    5.5219244903274340E+00   -5.9631296514558163E-01
N    9.9555794391910341E-02    7.3974780324787730E+00    5.5811473698994529E-01
Ga    9.8872995750142370E-02    7.3650812732551030E+00    2.5861013967220199E+00
N    9.5774283795292958E-02    5.5211282810309505E+00    3.2195552621436168E+00
Ga    9.6072557818117466E-02    5.5224175564454843E+00    5.2074190131371507E+00
N    9.8900834973322249E-02    7.3967775281930876E+00    5.7987359783561025E+00
Ga    9.7686551489683929E-02    7.3951385219902672E+00    7.7945804946548547E+00
N    9.4065951720248162E-02    5.5229210637346471E+00    8.4001672458908931E+00
Ga    9.2946032022996339E-02    5.5294442292996795E+00    1.0393940519750883E+01
N    9.9496515859871931E-02    7.3976351804661453E+00    1.1008579732207579E+01
Ga    9.7890575921019518E-02    7.4040742256083734E+00    1.3006929275236633E+01
N    9.0968049101224649E-02    5.5240936014308240E+00    1.3599883527593292E+01
Ga    6.8159782385227949E-02    5.5710554541079400E+00    1.5590035523160015E+01
N    1.1022433516802167E-01    7.4067974859466634E+00    1.6199627006363858E+01
Ga    1.2888529572665464E-01    7.5685175520815990E+00    1.8253176754025443E+01
N    1.3530242071383553E-01    5.6394655579514632E+00    1.8797559959283603E+01
Ga    6.5810234669512111E+00   -8.9366819202489303E-02    2.7111254584596667E-01
N    6.5888178360749015E+00    1.7799668160814903E+00    5.5786658371367526E-01
Ga    6.5598429045425535E+00    1.7955582905068763E+00    2.5859049706046866E+00
N    6.5809599791880959E+00   -8.9563378199000621E-02    3.1810446134121695E+00
Ga    6.5814882439637055E+00   -8.8593422822416931E-02    5.1887996108696921E+00
N    6.5865185781857463E+00    1.7812619358184265E+00    5.8004580571102675E+00
Ga    6.5855988583956107E+00    1.7813461452474220E+00    7.7971456079652972E+00
N    6.5809182465379843E+00   -9.0531751597002302E-02    8.4030822005761046E+00
Ga    6.5830431068828394E+00   -9.0638130908120534E-02    1.0396622954593708E+01
N    6.5902533272575345E+00    1.7807554019690650E+00    1.0998389667457618E+01
Ga    6.6087899416128639E+00    1.7731113465006927E+00    1.2990268161282582E+01
N    6.5931542051717846E+00   -9.5620646608903626E-02    1.3613170654658097E+01
Ga    6.6012821425609838E+00   -1.0755500116190636E-01    1.5628105591112464E+01
N    6.6055858148172240E+00    1.7813220563316969E+00    1.6149495299689686E+01
Ga    6.7416615535519568E+00    1.8134826161884501E+00    1.8153549282992834E+01
N    6.5860458090136742E+00    3.9600960083715636E-02    1.8753513863996989E+01
Ga    4.9621781130373019E+00    2.7164610511447460E+00   -5.9635850973841442E-01
N    4.9646458200655861E+00    4.5917213815484299E+00    5.5861548447550136E-01
Ga    4.9638422732692504E+00    4.5594294559539392E+00    2.5865676059863199E+00
N    4.9610929499912739E+00    2.7152413502775268E+00    3.2202257316523606E+00
Ga    4.9612939395059374E+00    2.7157306322495156E+00    5.2084647844893590E+00
N    4.9642369838887817E+00    4.5903712346136443E+00    5.7988066472098740E+00
Ga    4.9638595484866430E+00    4.5879825602703885E+00    7.7942826976100781E+00
N    4.9612512674071887E+00    2.7156259860706697E+00    8.4019659286869999E+00
Ga    4.9626059731013674E+00    2.7119017886463563E+00    1.0396656842564520E+01
N    4.9628290008061846E+00    4.5889781175701110E+00    1.0998804060979579E+01
Ga    4.9636624906914859E+00    4.5810446714085193E+00    1.2979230256395374E+01
N    4.9617568912487844E+00    2.6997402955999776E+00    1.3545011980219691E+01
Ga    4.9707357922123476E+00    2.5629970860237692E+00    1.5493285835301256E+01
N    4.9071249816585309E+00    4.4426014178818356E+00    1.6154618085823433E+01
Ga    5.1724298820054173E+00    5.1377299081065200E+00    1.9329479614531461E+01
N    4.9019854280092936E+00    3.3712119166272605E+00    1.8257374997960692E+01
Ga    3.3424881130599640E+00    5.5210440009947801E+00    2.7145038657982046E-01
N    3.3396196584660078E+00    7.3902818627785907E+00    5.5831256782251160E-01
Ga    3.3680584817951700E+00    7.4064404702640481E+00    2.5861801351722349E+00
N    3.3414941802535645E+00    5.5211863042700804E+00    3.1812398010212752E+00
Ga    3.3417092984555135E+00    5.5222162957435650E+00    5.1890279770095606E+00
N    3.3425355817972870E+00    7.3925981823035309E+00    5.7987309010009112E+00
Ga    3.3433456767719685E+00    7.3935731608340065E+00    7.7941751133991009E+00
N    3.3414309012672025E+00    5.5220827127991248E+00    8.3992894471872788E+00
Ga    3.3420193910122840E+00    5.5264597941820810E+00    1.0388551371434971E+01
N    3.3490260163097401E+00    7.3937163572120221E+00    1.1005320385907627E+01
Ga    3.3580994635425809E+00    7.4099682855665323E+00    1.2997198635864430E+01
N    3.3441760924292128E+00    5.5207661241171770E+00    1.3600783903511413E+01
Ga    3.2762522541744445E+00    5.5984871726121677E+00    1.5555131531023509E+01
N    3.3712398070666070E+00    7.3716642866058262E+00    1.6277741776670801E+01
Ga    3.3869405276998341E+00    7.6985064561881567E+00    1.8299189444330672E+01
N    4.7979050547598989E+00    4.4287683377269218E+00    1.7486435362770969E+01
O    9.8901398358495074E-01    3.8817694985628464E+00    2.1341549149167051E+01
H    1.8235940927342564E-01    5.5403394524420966E+00    1.9824507060219560E+01
C   -1.7396840046820486E-01    2.9815493354966258E+00    2.1974363601892986E+01
H   -9.2558260413386484E-01    2.7947396538620968E+00    2.1196591149886704E+01
H    2.7521969774068772E-01    2.0531944603895167E+00    2.2342017570031096E+01
H   -5.7074427206196021E-01    3.5878697641296586E+00    2.2792638958265666E+01
O    3.4189978921001409E+00    5.8789985982046806E+00    1.9493042873675680E+01
H    1.3277024020192565E+00    3.3267052022667167E+00    2.0584507730567196E+01
C    2.9941297468250148E+00    6.2513517732005122E+00    2.0857706897464656E+01
H    2.6846843082561653E+00    5.3475440058455481E+00    2.1396133113513464E+01
H    3.8129893575400189E+00    6.7804959061836563E+00    2.1363551458014477E+01
H    2.1458360425553340E+00    6.9407129452818292E+00    2.0756958673404561E+01
     &END COORD
     &KIND C
       BASIS_SET DZVP-MOLOPT-SR-GTH-q4
       POTENTIAL GTH-PBE-q4
       &POTENTIAL
 2 2
  0.3384712400000000E+00 2 -0.8803673979999999E+01  0.1339210850000000E+01
 2
  0.3025757500000000E+00 1  0.9622486650000001E+01
  0.2915069400000000E+00 0
         # Potential name:  GTH-PBE-Q4  for symbol:  C
         # Potential read from the potential filename: GTH_POTENTIALS
       &END POTENTIAL
     &END KIND
     &KIND O
       BASIS_SET DZVP-MOLOPT-SR-GTH-q6
       POTENTIAL GTH-PBE-q6
       &POTENTIAL
 2 4
  0.2445543000000000E+00 2 -0.1666721480000000E+02  0.2487311320000000E+01
 2
  0.2209559200000000E+00 1  0.1833745811000000E+02
  0.2113324700000000E+00 0
         # Potential name:  GTH-PBE-Q6  for symbol:  O
         # Potential read from the potential filename: GTH_POTENTIALS
       &END POTENTIAL
     &END KIND
     &KIND H
       BASIS_SET DZVP-MOLOPT-SR-GTH-q1
       POTENTIAL GTH-PBE-q1
       &POTENTIAL
 1
  0.2000000000000000E+00 2 -0.4178900440000000E+01  0.7244633100000000E+00
 0
         # Potential name:  GTH-PBE-Q1  for symbol:  H
         # Potential read from the potential filename: GTH_POTENTIALS
       &END POTENTIAL
     &END KIND
     &KIND N
       BASIS_SET DZVP-MOLOPT-SR-GTH-q5
       POTENTIAL GTH-PBE-q5
       &POTENTIAL
 2 3
  0.2837905100000000E+00 2 -0.1241522559000000E+02  0.1868095920000000E+01
 2
  0.2554050000000000E+00 1  0.1363026257000000E+02
  0.2454945300000000E+00 0
         # Potential name:  GTH-PBE-Q5  for symbol:  N
         # Potential read from the potential filename: GTH_POTENTIALS
       &END POTENTIAL
     &END KIND
     &KIND Ga
       BASIS_SET DZVP-MOLOPT-SR-GTH-q13
       POTENTIAL GTH-PBE-q13
       &POTENTIAL
 2 1 10
  0.4900000000000000E+00 0
 3
  0.4167772300000000E+00 3  0.1047568975000000E+02 -0.4921768140000000E+01  0.8707055900000000E+00
  0.7770178090000000E+01 -0.2248152160000000E+01
  0.1784415450000000E+01
  0.5696265200000000E+00 2  0.1777985340000000E+01  0.1958597600000000E+00
 -0.2317443900000000E+00
  0.2381265000000000E+00 1 -0.1624868022000000E+02
         # Potential name:  GTH-PBE-Q13  for symbol:  GA
         # Potential read from the potential filename: GTH_POTENTIALS
       &END POTENTIAL
     &END KIND
     &TOPOLOGY
       COORD_FILE_NAME ../start-first.xyz
       COORD_FILE_FORMAT  XYZ
       NUMBER_OF_ATOMS  156
       MULTIPLE_UNIT_CELL  1 1 1
     &END TOPOLOGY
     &COLVAR
       &DISTANCE
         ATOMS  145 147
       &END DISTANCE
       &PRINT
       &END PRINT
     &END COLVAR
   &END SUBSYS
 &END FORCE_EVAL
