 # Version information for this restart file 
 # current date 2019-05-28 05:57:08.756
 # current working dir /lustre03/project/6004141/rzk/GaN-carbene/334-native/08-2Methanol-Htransfer/03-CO-constraint/1.74
 # Program compiled at                              Sun Apr  7 00:48:11 EDT 2019
 # Program compiled on                          beluga2.int.ets1.calculquebec.ca
 # Program compiled for                        Beluga-Linux-x86-64-intel-openmpi
 # Source code revision number                                         svn:18619
 &GLOBAL
   PRINT_LEVEL  MEDIUM
   PROJECT_NAME TEST
   RUN_TYPE  GEO_OPT
 &END GLOBAL
 &MOTION
   &GEO_OPT
     MAX_ITER  500
     STEP_START_VAL  397
   &END GEO_OPT
   &CONSTRAINT
     &COLLECTIVE
       COLVAR  1
       INTERMOLECULAR  T
       TARGET     3.2881234712210188E+00
       &RESTRAINT
         K     1.0000000000000001E-01
       &END RESTRAINT
     &END COLLECTIVE
     &COLVAR_RESTART
           3.2881234712210188E+00
     &END COLVAR_RESTART
   &END CONSTRAINT
 &END MOTION
 &FORCE_EVAL
   METHOD  QS
   STRESS_TENSOR  ANALYTICAL
   &DFT
     BASIS_SET_FILE_NAME BASIS_MOLOPT
     POTENTIAL_FILE_NAME GTH_POTENTIALS
     &SCF
       MAX_SCF  100
       EPS_SCF     5.0000000000000004E-06
       &OT  T
         PRECONDITIONER  FULL_ALL
       &END OT
       &OUTER_SCF  T
         OPTIMIZER  NONE
         EPS_SCF     5.0000000000000004E-06
         MAX_SCF  4
       &END OUTER_SCF
       &PRINT
         &RESTART  OFF
           BACKUP_COPIES  1
           &EACH
             JUST_ENERGY  0
             QS_SCF  0
             MD  20
           &END EACH
         &END RESTART
       &END PRINT
     &END SCF
     &QS
       EPS_DEFAULT     1.0000000000000000E-14
       ALMO_SCF  F
       METHOD  GPW
     &END QS
     &MGRID
       NGRIDS  5
       CUTOFF     1.2000000000000000E+03
     &END MGRID
     &XC
       DENSITY_CUTOFF     1.0000000000000000E-10
       GRADIENT_CUTOFF     1.0000000000000000E-10
       TAU_CUTOFF     1.0000000000000000E-10
       &XC_FUNCTIONAL  NO_SHORTCUT
         &PBE  T
         &END PBE
       &END XC_FUNCTIONAL
       &VDW_POTENTIAL
         POTENTIAL_TYPE  PAIR_POTENTIAL
         &PAIR_POTENTIAL
           R_CUTOFF     1.0000000000000005E+01
           TYPE  DFTD3
           PARAMETER_FILE_NAME dftd3.dat
           REFERENCE_FUNCTIONAL PBE
           EPS_CN     9.9999999999999995E-07
           CALCULATE_C9_TERM  T
           REFERENCE_C9_TERM  T
           LONG_RANGE_CORRECTION  F
           VERBOSE_OUTPUT  F
         &END PAIR_POTENTIAL
       &END VDW_POTENTIAL
     &END XC
   &END DFT
   &SUBSYS
     &CELL
       A     9.7367653356401487E+00    0.0000000000000000E+00    0.0000000000000000E+00
       B    -4.8591341382960209E+00    8.4162672083210595E+00    0.0000000000000000E+00
       C     0.0000000000000000E+00    0.0000000000000000E+00    3.0744000000000000E+01
       MULTIPLE_UNIT_CELL  1 1 1
       &CELL_REF
         A     9.5580000000000052E+00    0.0000000000000000E+00    0.0000000000000000E+00
         B    -4.7790000000000026E+00    8.2774708093716640E+00    0.0000000000000000E+00
         C     0.0000000000000000E+00    0.0000000000000000E+00    3.0744000000000000E+01
         MULTIPLE_UNIT_CELL  1 1 1
       &END CELL_REF
     &END CELL
     &COORD
Ga    8.9049752243829119E-02   -9.0142764378253651E-02   -5.9636886479460316E-01
N    9.3023042695052405E-02    1.7859151333496217E+00    5.5771762463852914E-01
Ga    9.2247216545450400E-02    1.7538687045052364E+00    2.5859602370770500E+00
N    8.9370842164186018E-02   -8.9943279835804191E-02    3.2192961668229922E+00
Ga    8.9710241744184196E-02   -8.8609518043976362E-02    5.2068720749203319E+00
N    9.2501003786033278E-02    1.7854142532753727E+00    5.7986853644923340E+00
Ga    9.1817615973106184E-02    1.7848297268721989E+00    7.7943788963920007E+00
N    8.9978829869954369E-02   -8.7787761260858868E-02    8.4016901897895568E+00
Ga    9.1311328940004391E-02   -8.4384317380282362E-02    1.0396913415179510E+01
N    9.0753551830256032E-02    1.7836615598465979E+00    1.1013768880969875E+01
Ga    8.4661678811374916E-02    1.7852716530248769E+00    1.3017916436952104E+01
N    8.7434310566105858E-02   -8.1887237774738234E-02    1.3644593161490574E+01
Ga    1.1453661109805878E-01   -5.9692031747609349E-02    1.5684576355086678E+01
N    1.0255113784859561E-01    1.8271700859596676E+00    1.6215940218617234E+01
Ga    8.2133443420032926E-02    1.8642803466492690E+00    1.8339991878780701E+01
N    1.3859510056362020E-01    2.2226359041597612E-02    1.8791677425600678E+01
Ga   -1.5293244593763768E+00    2.7151925954099521E+00    2.7108160621572136E-01
N   -1.5318858949259366E+00    4.5846871715995121E+00    5.5760808772352166E-01
Ga   -1.5033425025093659E+00    4.6008375871100506E+00    2.5857338037528259E+00
N   -1.5302585599855794E+00    2.7155861918562927E+00    3.1808145372867513E+00
Ga   -1.5300913918479764E+00    2.7164794410909607E+00    5.1887414299354333E+00
N   -1.5296787423483631E+00    4.5871255777412161E+00    5.7989827873772359E+00
Ga   -1.5295537953645244E+00    4.5878131773007995E+00    7.7948578417370351E+00
N   -1.5292591381003562E+00    2.7179347078939040E+00    8.4030002968178064E+00
Ga   -1.5266383376953783E+00    2.7177822921251460E+00    1.0396169607850444E+01
N   -1.5310240906923576E+00    4.5934450327664118E+00    1.1002081241712769E+01
Ga   -1.5308011504858743E+00    4.5879080857113417E+00    1.2991303502799738E+01
N   -1.5299640555442193E+00    2.7350785088316196E+00    1.3614999118167161E+01
Ga   -1.5060770826586374E+00    2.7603485932891472E+00    1.5633259454012448E+01
N   -1.5400384072678215E+00    4.6420868466126812E+00    1.6258057802545128E+01
Ga   -1.5848027377841281E+00    4.6699653060557154E+00    1.8346894618789790E+01
N   -1.5465787741955437E+00    2.8319382167896543E+00    1.8748736719859803E+01
Ga   -3.1500868178086217E+00    5.5211809936631724E+00    2.7147950725174835E-01
N   -3.1422831258093096E+00    7.3907417619667077E+00    5.5755819054122313E-01
Ga   -3.1713088638820706E+00    7.4064609474494523E+00    2.5856511737449694E+00
N   -3.1498838972654792E+00    5.5210546872131676E+00    3.1804803100087247E+00
Ga   -3.1498344584014846E+00    5.5220876764565574E+00    5.1881414866464723E+00
N   -3.1448034581444606E+00    7.3924130554094019E+00    5.7984239528267070E+00
Ga   -3.1466375489508924E+00    7.3931175103728233E+00    7.7938279704079987E+00
N   -3.1512350476141320E+00    5.5228162256502742E+00    8.4021370784211520E+00
Ga   -3.1513662748434990E+00    5.5274961406234349E+00    1.0393129182149369E+01
N   -3.1507778172917758E+00    7.3937138407855896E+00    1.1014540735349135E+01
Ga   -3.1589702119501890E+00    7.4082497314366451E+00    1.3013254359681669E+01
N   -3.1658283289002700E+00    5.5187570788985747E+00    1.3622264499103897E+01
Ga   -3.0570663815746970E+00    5.6181565262954418E+00    1.5591680487730265E+01
N   -3.1495358380623060E+00    7.3972297499617676E+00    1.6274945005766845E+01
Ga   -3.0658300562885312E+00    7.5869937836156751E+00    1.8434191254917884E+01
N   -2.8838013975926624E+00    5.8073634719233702E+00    1.9185430715140267E+01
Ga    3.3359300478435960E+00   -9.0251838492355990E-02    2.7112997702447861E-01
N    3.3333082463351968E+00    1.7791816207808375E+00    5.5765401785438229E-01
Ga    3.3618662427673707E+00    1.7954691284281221E+00    2.5858117406982233E+00
N    3.3350385419463935E+00   -8.9794323564262299E-02    3.1807719363019653E+00
Ga    3.3354012034090390E+00   -8.8407196821210024E-02    5.1886731941870714E+00
N    3.3356335081125565E+00    1.7812361694357615E+00    5.8015478454886154E+00
Ga    3.3354869108560568E+00    1.7810116568700900E+00    7.7987745256394909E+00
N    3.3337941437083436E+00   -9.1261809823642029E-02    8.4041361642327956E+00
Ga    3.3330216914418420E+00   -9.2622966834084136E-02    1.0398181341057724E+01
N    3.3331062070567126E+00    1.7807389343099169E+00    1.0992004628020119E+01
Ga    3.3218104320811426E+00    1.7684754604102297E+00    1.2979386501357830E+01
N    3.3298691124447055E+00   -9.0860855095000442E-02    1.3617834960341144E+01
Ga    3.3271237622905572E+00   -1.0250248404798037E-01    1.5644925556784383E+01
N    3.3202419142770236E+00    1.7984986719171963E+00    1.6149876835931149E+01
Ga    3.1970843785619678E+00    1.8181776692385594E+00    1.8151179506380355E+01
N    3.4323101348566256E+00    8.8018752345466411E-02    1.8747751225242862E+01
Ga    1.7152855113529510E+00    2.7158030948679399E+00    2.7125517821466061E-01
N    1.7235129427723810E+00    4.5852145344374291E+00    5.5858385289145174E-01
Ga    1.6944140781402472E+00    4.6009754050554950E+00    2.5863971077111292E+00
N    1.7155173633583147E+00    2.7154545743258596E+00    3.1811673332420036E+00
Ga    1.7159936342801714E+00    2.7165099457391468E+00    5.1891566213706684E+00
N    1.7205665972998125E+00    4.5870791654057168E+00    5.7993797398127285E+00
Ga    1.7175988508827698E+00    4.5874261759854624E+00    7.7953452211736209E+00
N    1.7133982419068186E+00    2.7173202388988349E+00    8.4030488952909881E+00
Ga    1.7102065447379766E+00    2.7168523419931159E+00    1.0396174030775517E+01
N    1.7183205148266685E+00    4.5944223132178257E+00    1.0994539552507090E+01
Ga    1.7082281254075513E+00    4.5925086852641126E+00    1.2978012062914972E+01
N    1.7158649730953510E+00    2.7322092604625117E+00    1.3584446601040879E+01
Ga    1.6976672782306104E+00    2.7251792691249359E+00    1.5571716874608702E+01
N    1.7185525994586184E+00    4.6297097785358785E+00    1.6199321003600204E+01
Ga    1.5151381954008023E+00    4.5102134742104116E+00    1.8136623736534979E+01
N    1.7418701377464225E+00    2.8153262765825375E+00    1.8832592328627150E+01
Ga    9.7319755196037874E-02    5.5215750499102336E+00   -5.9631081318204660E-01
N    9.9367449150587234E-02    7.3971486884312982E+00    5.5829762966938967E-01
Ga    9.8740814136063670E-02    7.3647768347617779E+00    2.5861777260550460E+00
N    9.5612942251693006E-02    5.5208675588925029E+00    3.2197314455028057E+00
Ga    9.5982549211134513E-02    5.5223169300384640E+00    5.2075551967928737E+00
N    9.8868898209645076E-02    7.3967083203889459E+00    5.7989377084613585E+00
Ga    9.7718442961094693E-02    7.3952144690752268E+00    7.7948193595087716E+00
N    9.4086377210151451E-02    5.5229731440241485E+00    8.4003966222441804E+00
Ga    9.2963421405176341E-02    5.5294868618426465E+00    1.0394216722904531E+01
N    9.9581663711786672E-02    7.3977456461556219E+00    1.1008701737993954E+01
Ga    9.7952108029438295E-02    7.4041688668028689E+00    1.3007034426189579E+01
N    9.0996523607612012E-02    5.5241255023763181E+00    1.3599834225251461E+01
Ga    6.8194642575168232E-02    5.5710980613637995E+00    1.5589899774159365E+01
N    1.1023022562295735E-01    7.4068356412438359E+00    1.6199403172188283E+01
Ga    1.2889790981375762E-01    7.5684934133744663E+00    1.8253012472130692E+01
N    1.3522412489756128E-01    5.6394168605789989E+00    1.8797333681335399E+01
Ga    6.5808016296985565E+00   -8.9632023106582720E-02    2.7105401544383984E-01
N    6.5884830513865449E+00    1.7797626180312391E+00    5.5779828487277294E-01
Ga    6.5595774196808661E+00    1.7953770080400422E+00    2.5859236819610412E+00
N    6.5808105321155566E+00   -8.9747176889703392E-02    3.1810762347869601E+00
Ga    6.5813562694428587E+00   -8.8563605642843116E-02    5.1888727859110224E+00
N    6.5864560192293062E+00    1.7812763455291616E+00    5.8006706183343715E+00
Ga    6.5856672018475724E+00    1.7814644170693277E+00    7.7974134371566048E+00
N    6.5809604474868628E+00   -9.0449819397842218E-02    8.4033340881303413E+00
Ga    6.5832139603904025E+00   -9.0515433946353807E-02    1.0396904411868467E+01
N    6.5903635050478968E+00    1.7808243855019450E+00    1.0998583476664429E+01
Ga    6.6088575274881469E+00    1.7731585073912928E+00    1.2990349136980340E+01
N    6.5932639177614538E+00   -9.5557598596476043E-02    1.3613191824475679E+01
Ga    6.6013962869801039E+00   -1.0759286111847527E-01    1.5628089084659267E+01
N    6.6056498201288392E+00    1.7813629177046477E+00    1.6149301033719528E+01
Ga    6.7415860178930274E+00    1.8135550906796054E+00    1.8153389681091216E+01
N    6.5860714309441857E+00    3.9589244119626506E-02    1.8753187868000133E+01
Ga    4.9618389910211187E+00    2.7163261563228698E+00   -5.9623107016098609E-01
N    4.9644349379195969E+00    4.5914576899173776E+00    5.5875061946860538E-01
Ga    4.9635903997069803E+00    4.5591966600413736E+00    2.5866829475426556E+00
N    4.9609335589282564E+00    2.7150767561533655E+00    3.2203900842603215E+00
Ga    4.9611856761341420E+00    2.7156677049866227E+00    5.2086418523022191E+00
N    4.9641758726051926E+00    4.5903737632592021E+00    5.7990295482111183E+00
Ga    4.9639154501843006E+00    4.5880155663951658E+00    7.7945841348738822E+00
N    4.9612880647871664E+00    2.7156647697056737E+00    8.4022584004480780E+00
Ga    4.9627219408390220E+00    2.7119043444982598E+00    1.0396964477410858E+01
N    4.9629060384727204E+00    4.5889602619621268E+00    1.0999002788540752E+01
Ga    4.9637507727455139E+00    4.5809955532970674E+00    1.2979362501519081E+01
N    4.9618469127692348E+00    2.6997238610137129E+00    1.3545090243820855E+01
Ga    4.9707796684346670E+00    2.5631367676756365E+00    1.5493226732272058E+01
N    4.9071064580110502E+00    4.4426029160003457E+00    1.6154688556736499E+01
Ga    5.1721545674524680E+00    5.1377747044167776E+00    1.9329273027938378E+01
N    4.9020743199122867E+00    3.3710020192300396E+00    1.8257216318411956E+01
Ga    3.3422557848847991E+00    5.5207449777045792E+00    2.7150117698143278E-01
N    3.3394411335017442E+00    7.3900409271934295E+00    5.5824578123150426E-01
Ga    3.3678449675606141E+00    7.4061794895662612E+00    2.5861857172510962E+00
N    3.3413133716831203E+00    5.5210125955909906E+00    3.1813759855804733E+00
Ga    3.3415824150891087E+00    5.5221563166363223E+00    5.1891274590965635E+00
N    3.3424721132688360E+00    7.3925865671263056E+00    5.7989331897579541E+00
Ga    3.3434590868289509E+00    7.3937088150689148E+00    7.7944801828290791E+00
N    3.3414278359238190E+00    5.5221373946649273E+00    8.3995412144936097E+00
Ga    3.3420951278317585E+00    5.5265266328863101E+00    1.0388905753719563E+01
N    3.3491629894666821E+00    7.3937789351623460E+00    1.1005551944994208E+01
Ga    3.3582207460964408E+00    7.4100346499013217E+00    1.2997381454080593E+01
N    3.3443046189112642E+00    5.5207941619481113E+00    1.3600884224945831E+01
Ga    3.2764004337559167E+00    5.5985573158753326E+00    1.5555151626829330E+01
N    3.3714008557781723E+00    7.3716995393844629E+00    1.6277567877608966E+01
Ga    3.3870151448594168E+00    7.6986082585279885E+00    1.8298911732899935E+01
N    4.7979648817981051E+00    4.4286563745360539E+00    1.7486301284995179E+01
O    9.8856548204116057E-01    3.8816415619094200E+00    2.1341374164694439E+01
H    1.8232883962869148E-01    5.5403214118850999E+00    1.9824316076676020E+01
C   -1.7511041507257999E-01    2.9815648107257609E+00    2.1973324110289180E+01
H   -9.2625362726119231E-01    2.7954740272192238E+00    2.1195172211035786E+01
H    2.7325938090397878E-01    2.0527105716524945E+00    2.2340750615118818E+01
H   -5.7196992885877140E-01    3.5876179795702625E+00    2.2791642388630276E+01
O    3.4187475999544255E+00    5.8790989910726665E+00    1.9492790098896773E+01
H    1.3275425428319267E+00    3.3266990658368862E+00    2.0584347928017870E+01
C    2.9937330907606778E+00    6.2514541208829462E+00    2.0857526788423279E+01
H    2.6840179734083618E+00    5.3476628762665444E+00    2.1395963088425557E+01
H    3.8126961946351559E+00    6.7804970553348998E+00    2.1363479356559260E+01
H    2.1454513195341787E+00    6.9409906480050427E+00    2.0756635060541338E+01
     &END COORD
     &KIND C
       BASIS_SET DZVP-MOLOPT-SR-GTH-q4
       POTENTIAL GTH-PBE-q4
       &POTENTIAL
 2 2
  0.3384712400000000E+00 2 -0.8803673979999999E+01  0.1339210850000000E+01
 2
  0.3025757500000000E+00 1  0.9622486650000001E+01
  0.2915069400000000E+00 0
         # Potential name:  GTH-PBE-Q4  for symbol:  C
         # Potential read from the potential filename: GTH_POTENTIALS
       &END POTENTIAL
     &END KIND
     &KIND O
       BASIS_SET DZVP-MOLOPT-SR-GTH-q6
       POTENTIAL GTH-PBE-q6
       &POTENTIAL
 2 4
  0.2445543000000000E+00 2 -0.1666721480000000E+02  0.2487311320000000E+01
 2
  0.2209559200000000E+00 1  0.1833745811000000E+02
  0.2113324700000000E+00 0
         # Potential name:  GTH-PBE-Q6  for symbol:  O
         # Potential read from the potential filename: GTH_POTENTIALS
       &END POTENTIAL
     &END KIND
     &KIND H
       BASIS_SET DZVP-MOLOPT-SR-GTH-q1
       POTENTIAL GTH-PBE-q1
       &POTENTIAL
 1
  0.2000000000000000E+00 2 -0.4178900440000000E+01  0.7244633100000000E+00
 0
         # Potential name:  GTH-PBE-Q1  for symbol:  H
         # Potential read from the potential filename: GTH_POTENTIALS
       &END POTENTIAL
     &END KIND
     &KIND N
       BASIS_SET DZVP-MOLOPT-SR-GTH-q5
       POTENTIAL GTH-PBE-q5
       &POTENTIAL
 2 3
  0.2837905100000000E+00 2 -0.1241522559000000E+02  0.1868095920000000E+01
 2
  0.2554050000000000E+00 1  0.1363026257000000E+02
  0.2454945300000000E+00 0
         # Potential name:  GTH-PBE-Q5  for symbol:  N
         # Potential read from the potential filename: GTH_POTENTIALS
       &END POTENTIAL
     &END KIND
     &KIND Ga
       BASIS_SET DZVP-MOLOPT-SR-GTH-q13
       POTENTIAL GTH-PBE-q13
       &POTENTIAL
 2 1 10
  0.4900000000000000E+00 0
 3
  0.4167772300000000E+00 3  0.1047568975000000E+02 -0.4921768140000000E+01  0.8707055900000000E+00
  0.7770178090000000E+01 -0.2248152160000000E+01
  0.1784415450000000E+01
  0.5696265200000000E+00 2  0.1777985340000000E+01  0.1958597600000000E+00
 -0.2317443900000000E+00
  0.2381265000000000E+00 1 -0.1624868022000000E+02
         # Potential name:  GTH-PBE-Q13  for symbol:  GA
         # Potential read from the potential filename: GTH_POTENTIALS
       &END POTENTIAL
     &END KIND
     &TOPOLOGY
       COORD_FILE_NAME ../start-first.xyz
       COORD_FILE_FORMAT  XYZ
       NUMBER_OF_ATOMS  156
       MULTIPLE_UNIT_CELL  1 1 1
     &END TOPOLOGY
     &COLVAR
       &DISTANCE
         ATOMS  145 147
       &END DISTANCE
       &PRINT
       &END PRINT
     &END COLVAR
   &END SUBSYS
 &END FORCE_EVAL
