 # Version information for this restart file 
 # current date 2019-05-28 05:57:49.763
 # current working dir /lustre03/project/6004141/rzk/GaN-carbene/334-native/08-2Methanol-Htransfer/03-CO-constraint/1.74
 # Program compiled at                              Sun Apr  7 00:48:11 EDT 2019
 # Program compiled on                          beluga2.int.ets1.calculquebec.ca
 # Program compiled for                        Beluga-Linux-x86-64-intel-openmpi
 # Source code revision number                                         svn:18619
 &GLOBAL
   PRINT_LEVEL  MEDIUM
   PROJECT_NAME TEST
   RUN_TYPE  GEO_OPT
 &END GLOBAL
 &MOTION
   &GEO_OPT
     MAX_ITER  500
     STEP_START_VAL  398
   &END GEO_OPT
   &CONSTRAINT
     &COLLECTIVE
       COLVAR  1
       INTERMOLECULAR  T
       TARGET     3.2881234712210188E+00
       &RESTRAINT
         K     1.0000000000000001E-01
       &END RESTRAINT
     &END COLLECTIVE
     &COLVAR_RESTART
           3.2881234712210188E+00
     &END COLVAR_RESTART
   &END CONSTRAINT
 &END MOTION
 &FORCE_EVAL
   METHOD  QS
   STRESS_TENSOR  ANALYTICAL
   &DFT
     BASIS_SET_FILE_NAME BASIS_MOLOPT
     POTENTIAL_FILE_NAME GTH_POTENTIALS
     &SCF
       MAX_SCF  100
       EPS_SCF     5.0000000000000004E-06
       &OT  T
         PRECONDITIONER  FULL_ALL
       &END OT
       &OUTER_SCF  T
         OPTIMIZER  NONE
         EPS_SCF     5.0000000000000004E-06
         MAX_SCF  4
       &END OUTER_SCF
       &PRINT
         &RESTART  OFF
           BACKUP_COPIES  1
           &EACH
             JUST_ENERGY  0
             QS_SCF  0
             MD  20
           &END EACH
         &END RESTART
       &END PRINT
     &END SCF
     &QS
       EPS_DEFAULT     1.0000000000000000E-14
       ALMO_SCF  F
       METHOD  GPW
     &END QS
     &MGRID
       NGRIDS  5
       CUTOFF     1.2000000000000000E+03
     &END MGRID
     &XC
       DENSITY_CUTOFF     1.0000000000000000E-10
       GRADIENT_CUTOFF     1.0000000000000000E-10
       TAU_CUTOFF     1.0000000000000000E-10
       &XC_FUNCTIONAL  NO_SHORTCUT
         &PBE  T
         &END PBE
       &END XC_FUNCTIONAL
       &VDW_POTENTIAL
         POTENTIAL_TYPE  PAIR_POTENTIAL
         &PAIR_POTENTIAL
           R_CUTOFF     1.0000000000000005E+01
           TYPE  DFTD3
           PARAMETER_FILE_NAME dftd3.dat
           REFERENCE_FUNCTIONAL PBE
           EPS_CN     9.9999999999999995E-07
           CALCULATE_C9_TERM  T
           REFERENCE_C9_TERM  T
           LONG_RANGE_CORRECTION  F
           VERBOSE_OUTPUT  F
         &END PAIR_POTENTIAL
       &END VDW_POTENTIAL
     &END XC
   &END DFT
   &SUBSYS
     &CELL
       A     9.7367653356401487E+00    0.0000000000000000E+00    0.0000000000000000E+00
       B    -4.8591341382960209E+00    8.4162672083210595E+00    0.0000000000000000E+00
       C     0.0000000000000000E+00    0.0000000000000000E+00    3.0744000000000000E+01
       MULTIPLE_UNIT_CELL  1 1 1
       &CELL_REF
         A     9.5580000000000052E+00    0.0000000000000000E+00    0.0000000000000000E+00
         B    -4.7790000000000026E+00    8.2774708093716640E+00    0.0000000000000000E+00
         C     0.0000000000000000E+00    0.0000000000000000E+00    3.0744000000000000E+01
         MULTIPLE_UNIT_CELL  1 1 1
       &END CELL_REF
     &END CELL
     &COORD
Ga    8.8938523751070045E-02   -8.9980631058946145E-02   -5.9640377058883509E-01
N    9.2928999832032386E-02    1.7860678660247515E+00    5.5777772304761530E-01
Ga    9.2190323409058930E-02    1.7539689611021858E+00    2.5860233443748322E+00
N    8.9323414468903642E-02   -8.9815980066615161E-02    3.2193028678052742E+00
Ga    8.9665208740881241E-02   -8.8568532524647442E-02    5.2068952448623884E+00
N    9.2504879409266313E-02    1.7854875180707495E+00    5.7986772196576535E+00
Ga    9.1845839063096110E-02    1.7848878718145016E+00    7.7944107848312836E+00
N    8.9979816967338450E-02   -8.7771912798452603E-02    8.4017441706842231E+00
Ga    9.1319833208940923E-02   -8.4433082057227937E-02    1.0396983382415725E+01
N    9.0768017202592116E-02    1.7836171698874821E+00    1.1013871109809214E+01
Ga    8.4644386047308257E-02    1.7851671049577802E+00    1.3018038990968893E+01
N    8.7383718940449551E-02   -8.1991240665531012E-02    1.3644735646323477E+01
Ga    1.1445925332261926E-01   -5.9799549843486309E-02    1.5684746330824607E+01
N    1.0244264491289216E-01    1.8270787768763033E+00    1.6216078307005752E+01
Ga    8.1987916352707635E-02    1.8641649947589429E+00    1.8340124568922800E+01
N    1.3856362377312084E-01    2.2083456244069041E-02    1.8791708207859156E+01
Ga   -1.5294449927193714E+00    2.7153410531972937E+00    2.7113270853057264E-01
N   -1.5320241428034689E+00    4.5848541387707833E+00    5.5759186299798280E-01
Ga   -1.5034597732668922E+00    4.6010359496774154E+00    2.5857660705198873E+00
N   -1.5302914504372469E+00    2.7157697584850098E+00    3.1807931211731519E+00
Ga   -1.5300902190425640E+00    2.7166306021398547E+00    5.1887500372589130E+00
N   -1.5297021720756092E+00    4.5872815011916197E+00    5.7990285235409145E+00
Ga   -1.5294886961546155E+00    4.5879775249047619E+00    7.7949244074287272E+00
N   -1.5292391863563239E+00    2.7180342240824236E+00    8.4030354328450532E+00
Ga   -1.5266199612013935E+00    2.7178431163599290E+00    1.0396244788076858E+01
N   -1.5309674030101645E+00    4.5934641418157129E+00    1.1002199879093890E+01
Ga   -1.5308082780294603E+00    4.5878575375721296E+00    1.2991393675154614E+01
N   -1.5300057557447866E+00    2.7350127911762097E+00    1.3615127797052255E+01
Ga   -1.5061719975109251E+00    2.7602509052670943E+00    1.5633364743139920E+01
N   -1.5400566459712650E+00    4.6420012677067017E+00    1.6258162475991131E+01
Ga   -1.5849313587143921E+00    4.6698045311912555E+00    1.8346976546157720E+01
N   -1.5466551521999659E+00    2.8318359715023353E+00    1.8748946672197455E+01
Ga   -3.1502533710036920E+00    5.5213629231720933E+00    2.7150228542441091E-01
N   -3.1424053425859912E+00    7.3909204089873795E+00    5.5749637642004157E-01
Ga   -3.1713918470311482E+00    7.4066220539121614E+00    2.5856131932064370E+00
N   -3.1499533408707059E+00    5.5212411115518059E+00    3.1804588439691308E+00
Ga   -3.1498777820794928E+00    5.5222207703261867E+00    5.1881297301607328E+00
N   -3.1448398559340780E+00    7.3925282375717467E+00    5.7984380739648405E+00
Ga   -3.1466105537169535E+00    7.3931458588218080E+00    7.7938344323534912E+00
N   -3.1512246174081904E+00    5.5228723083906619E+00    8.4022180908161452E+00
Ga   -3.1513188795159119E+00    5.5274576223321477E+00    1.0393199640250954E+01
N   -3.1507372881715536E+00    7.3936863165320297E+00    1.1014652982584055E+01
Ga   -3.1590081971323514E+00    7.4081674260166039E+00    1.3013375016032963E+01
N   -3.1658501047751635E+00    5.5186763422643779E+00    1.3622370659916331E+01
Ga   -3.0571225705649705E+00    5.6180284460251224E+00    1.5591755447228110E+01
N   -3.1495384669109652E+00    7.3971111515289474E+00    1.6275057592797669E+01
Ga   -3.0657984818552682E+00    7.5868828339300745E+00    1.8434224783710359E+01
N   -2.8838286657278123E+00    5.8072394074071205E+00    1.9185574141389434E+01
Ga    3.3357960345738085E+00   -9.0059391999334118E-02    2.7114087959737670E-01
N    3.3331971876718591E+00    1.7793934468766657E+00    5.5762505663156026E-01
Ga    3.3618342784042285E+00    1.7956192056076712E+00    2.5858068244841692E+00
N    3.3349665013916647E+00   -8.9634595760140726E-02    3.1807439593053948E+00
Ga    3.3353635578470913E+00   -8.8327367146093405E-02    5.1886863120854967E+00
N    3.3356632527201002E+00    1.7813358440272917E+00    5.8015651452417725E+00
Ga    3.3355485214611922E+00    1.7810615301998192E+00    7.7988281824682772E+00
N    3.3338074547873280E+00   -9.1232737414815163E-02    8.4041906534217130E+00
Ga    3.3330789334787219E+00   -9.2683197253996888E-02    1.0398243171310245E+01
N    3.3331122704304166E+00    1.7807038720144441E+00    1.0992124282832425E+01
Ga    3.3217938772803319E+00    1.7683951224246290E+00    1.2979525677616028E+01
N    3.3298352838015370E+00   -9.0951872918079921E-02    1.3618021351348977E+01
Ga    3.3271338090628704E+00   -1.0254439817317337E-01    1.5645003012046248E+01
N    3.3201449567538597E+00    1.7984135864060364E+00    1.6149966352120856E+01
Ga    3.1970493155474751E+00    1.8181911526581982E+00    1.8151182686707173E+01
N    3.4322979847317883E+00    8.8028151133122484E-02    1.8747817970090281E+01
Ga    1.7151683962182107E+00    2.7160127168004102E+00    2.7131495515732357E-01
N    1.7233649770663824E+00    4.5854139940763075E+00    5.5846501772642876E-01
Ga    1.6943661246812063E+00    4.6011906359385781E+00    2.5863668876403798E+00
N    1.7154794954887356E+00    2.7156386910589720E+00    3.1811104404205297E+00
Ga    1.7159901022539228E+00    2.7166841870685148E+00    5.1891681441412496E+00
N    1.7206199900391328E+00    4.5872362153052135E+00    5.7994219153702034E+00
Ga    1.7176781996512249E+00    4.5875879103596811E+00    7.7953985734347047E+00
N    1.7134369406580774E+00    2.7174207361159661E+00    8.4030712690695566E+00
Ga    1.7102387038749991E+00    2.7168950227936413E+00    1.0396224330876846E+01
N    1.7183561155916089E+00    4.5944285316909976E+00    1.0994628025350243E+01
Ga    1.7081800734148045E+00    4.5924603656423733E+00    1.2978045876227318E+01
N    1.7158326423494499E+00    2.7321587927167585E+00    1.3584587051550166E+01
Ga    1.6975915503653176E+00    2.7251130153126701E+00    1.5571852999467790E+01
N    1.7184377244113715E+00    4.6296211912523644E+00    1.6199464064281070E+01
Ga    1.5149395908926124E+00    4.5100670514937127E+00    1.8136747055531114E+01
N    1.7416682486104320E+00    2.8151529003441476E+00    1.8832515892401453E+01
Ga    9.7124535868975445E-02    5.5217812628188216E+00   -5.9623828866698259E-01
N    9.9242668405072607E-02    7.3973424643511532E+00    5.5820766126953436E-01
Ga    9.8668454028766492E-02    7.3649932744059026E+00    2.5861791421486506E+00
N    9.5546564932369640E-02    5.5210618214763061E+00    3.2196962032810674E+00
Ga    9.6001816541696428E-02    5.5224624988129536E+00    5.2076021832696835E+00
N    9.8881359115595147E-02    7.3968718311149955E+00    5.7989899902199342E+00
Ga    9.7773907323505480E-02    7.3952896669902746E+00    7.7948906267803713E+00
N    9.4159373039578220E-02    5.5230596306478752E+00    8.4004783148188640E+00
Ga    9.3018141294393189E-02    5.5294737115909962E+00    1.0394275963728319E+01
N    9.9604819955690940E-02    7.3976867736906451E+00    1.1008871730112846E+01
Ga    9.7925147127575815E-02    7.4040798352996324E+00    1.3007181202083895E+01
N    9.0957064192432838E-02    5.5240461801797442E+00    1.3599950325454214E+01
Ga    6.8163285553496350E-02    5.5710177591729773E+00    1.5589979899340378E+01
N    1.1018960175168568E-01    7.4067327758287522E+00    1.6199552840118105E+01
Ga    1.2879805087186910E-01    7.5683665743757738E+00    1.8253113088656253E+01
N    1.3511428756256372E-01    5.6392804727243666E+00    1.8797433635899438E+01
Ga    6.5807222837429045E+00   -8.9497891547340960E-02    2.7110487624095475E-01
N    6.5883848694704445E+00    1.7799078745229138E+00    5.5788130960459692E-01
Ga    6.5595301547842073E+00    1.7955210578275949E+00    2.5860100194665172E+00
N    6.5807553059892010E+00   -8.9601191318356824E-02    3.1810967290192687E+00
Ga    6.5814103721135204E+00   -8.8470701429093843E-02    5.1889299866801935E+00
N    6.5864629718080820E+00    1.7813841412719251E+00    5.8007121022088954E+00
Ga    6.5856695103688487E+00    1.7815071302735808E+00    7.7974722221072748E+00
N    6.5810206722934508E+00   -9.0400335216565625E-02    8.4034017863979695E+00
Ga    6.5831877729325896E+00   -9.0560882382491548E-02    1.0396961129874617E+01
N    6.5903734143835484E+00    1.7807820042396854E+00    1.0998694590591858E+01
Ga    6.6088215613304184E+00    1.7730782382083952E+00    1.2990474110670243E+01
N    6.5932368129923384E+00   -9.5642732560937596E-02    1.3613308808417449E+01
Ga    6.6013182304007358E+00   -1.0765749304836585E-01    1.5628176487496850E+01
N    6.6055660009221073E+00    1.7812758468607752E+00    1.6149486064696895E+01
Ga    6.7417902820061624E+00    1.8132441705700810E+00    1.8153479517565053E+01
N    6.5860640914690141E+00    3.9377045431732184E-02    1.8753282955177578E+01
Ga    4.9617211384454096E+00    2.7164848729315652E+00   -5.9620920965235247E-01
N    4.9642913925933287E+00    4.5916372926644664E+00    5.5868028947496851E-01
Ga    4.9635361441608339E+00    4.5593942498361226E+00    2.5866517418935104E+00
N    4.9608789756006750E+00    2.7152501627508681E+00    3.2203864007115186E+00
Ga    4.9612255868672239E+00    2.7158708507883089E+00    5.2086779021784055E+00
N    4.9641812910150414E+00    4.5905286749338270E+00    5.7990656365326618E+00
Ga    4.9639434935936677E+00    4.5881426254332602E+00    7.7945783995662072E+00
N    4.9613343415322930E+00    2.7158031525939728E+00    8.4022952320518698E+00
Ga    4.9627324195036113E+00    2.7119140256631820E+00    1.0397002375366361E+01
N    4.9629090145780026E+00    4.5889803357158829E+00    1.0999105052933606E+01
Ga    4.9637272423327516E+00    4.5809573790140359E+00    1.2979433700403879E+01
N    4.9618314413529765E+00    2.6996765598523429E+00    1.3545224492430425E+01
Ga    4.9706794762653024E+00    2.5630457774979583E+00    1.5493372440749742E+01
N    4.9070339400614120E+00    4.4425453187226021E+00    1.6154767736793719E+01
Ga    5.1720859489091309E+00    5.1376654574295255E+00    1.9329237047077317E+01
N    4.9015401434311885E+00    3.3710051234246183E+00    1.8257331909914576E+01
Ga    3.3421226342985944E+00    5.5209487674566962E+00    2.7155592998303751E-01
N    3.3393538898182480E+00    7.3902138449128234E+00    5.5823211904032088E-01
Ga    3.3678128826967559E+00    7.4063460455947983E+00    2.5861730552555664E+00
N    3.3412608620564144E+00    5.5211825917741342E+00    3.1813658343195272E+00
Ga    3.3416157007069347E+00    5.5223154986450060E+00    5.1891629455007529E+00
N    3.3424821112182030E+00    7.3927052764833157E+00    5.7989746303167120E+00
Ga    3.3434488081084859E+00    7.3937321827333209E+00    7.7944872206981133E+00
N    3.3415128610214992E+00    5.5222190009248457E+00    8.3996171896274401E+00
Ga    3.3421131628896705E+00    5.5264916241112534E+00    1.0388919361037637E+01
N    3.3491443677484050E+00    7.3937209769849055E+00    1.1005659773934061E+01
Ga    3.3581722892344970E+00    7.4099175623878484E+00    1.2997481164352045E+01
N    3.3442511466733147E+00    5.5206794534973946E+00    1.3600962823611553E+01
Ga    3.2762871341451154E+00    5.5984138216171564E+00    1.5555190121358439E+01
N    3.3713288772629579E+00    7.3715650638192143E+00    1.6277633049662903E+01
Ga    3.3869882122235317E+00    7.6982903748405311E+00    1.8299021224435172E+01
N    4.7978784110823831E+00    4.4286484808304545E+00    1.7486455863155371E+01
O    9.8873274812218437E-01    3.8812647687982094E+00    2.1341355498078727E+01
H    1.8219310731220001E-01    5.5402042802528761E+00    1.9824411855639884E+01
C   -1.7444068659363882E-01    2.9809760744205565E+00    2.1973810083746507E+01
H   -9.2622028462889860E-01    2.7953774001366356E+00    2.1195914894628192E+01
H    2.7421418958254801E-01    2.0520526239205656E+00    2.2340592176979666E+01
H   -5.7093758268188488E-01    3.5865841804306404E+00    2.2792631593623945E+01
O    3.4185983072725672E+00    5.8789969368229738E+00    1.9492595379327170E+01
H    1.3277623571108739E+00    3.3263059091332794E+00    2.0584499099820675E+01
C    2.9935076726264502E+00    6.2514131583198953E+00    2.0857267310634839E+01
H    2.6830949272714433E+00    5.3476378807585609E+00    2.1395474170260794E+01
H    3.8126595569566981E+00    6.7799465340154939E+00    2.1363602541005093E+01
H    2.1456614317633917E+00    6.9413745415051009E+00    2.0756320130023436E+01
     &END COORD
     &KIND C
       BASIS_SET DZVP-MOLOPT-SR-GTH-q4
       POTENTIAL GTH-PBE-q4
       &POTENTIAL
 2 2
  0.3384712400000000E+00 2 -0.8803673979999999E+01  0.1339210850000000E+01
 2
  0.3025757500000000E+00 1  0.9622486650000001E+01
  0.2915069400000000E+00 0
         # Potential name:  GTH-PBE-Q4  for symbol:  C
         # Potential read from the potential filename: GTH_POTENTIALS
       &END POTENTIAL
     &END KIND
     &KIND O
       BASIS_SET DZVP-MOLOPT-SR-GTH-q6
       POTENTIAL GTH-PBE-q6
       &POTENTIAL
 2 4
  0.2445543000000000E+00 2 -0.1666721480000000E+02  0.2487311320000000E+01
 2
  0.2209559200000000E+00 1  0.1833745811000000E+02
  0.2113324700000000E+00 0
         # Potential name:  GTH-PBE-Q6  for symbol:  O
         # Potential read from the potential filename: GTH_POTENTIALS
       &END POTENTIAL
     &END KIND
     &KIND H
       BASIS_SET DZVP-MOLOPT-SR-GTH-q1
       POTENTIAL GTH-PBE-q1
       &POTENTIAL
 1
  0.2000000000000000E+00 2 -0.4178900440000000E+01  0.7244633100000000E+00
 0
         # Potential name:  GTH-PBE-Q1  for symbol:  H
         # Potential read from the potential filename: GTH_POTENTIALS
       &END POTENTIAL
     &END KIND
     &KIND N
       BASIS_SET DZVP-MOLOPT-SR-GTH-q5
       POTENTIAL GTH-PBE-q5
       &POTENTIAL
 2 3
  0.2837905100000000E+00 2 -0.1241522559000000E+02  0.1868095920000000E+01
 2
  0.2554050000000000E+00 1  0.1363026257000000E+02
  0.2454945300000000E+00 0
         # Potential name:  GTH-PBE-Q5  for symbol:  N
         # Potential read from the potential filename: GTH_POTENTIALS
       &END POTENTIAL
     &END KIND
     &KIND Ga
       BASIS_SET DZVP-MOLOPT-SR-GTH-q13
       POTENTIAL GTH-PBE-q13
       &POTENTIAL
 2 1 10
  0.4900000000000000E+00 0
 3
  0.4167772300000000E+00 3  0.1047568975000000E+02 -0.4921768140000000E+01  0.8707055900000000E+00
  0.7770178090000000E+01 -0.2248152160000000E+01
  0.1784415450000000E+01
  0.5696265200000000E+00 2  0.1777985340000000E+01  0.1958597600000000E+00
 -0.2317443900000000E+00
  0.2381265000000000E+00 1 -0.1624868022000000E+02
         # Potential name:  GTH-PBE-Q13  for symbol:  GA
         # Potential read from the potential filename: GTH_POTENTIALS
       &END POTENTIAL
     &END KIND
     &TOPOLOGY
       COORD_FILE_NAME ../start-first.xyz
       COORD_FILE_FORMAT  XYZ
       NUMBER_OF_ATOMS  156
       MULTIPLE_UNIT_CELL  1 1 1
     &END TOPOLOGY
     &COLVAR
       &DISTANCE
         ATOMS  145 147
       &END DISTANCE
       &PRINT
       &END PRINT
     &END COLVAR
   &END SUBSYS
 &END FORCE_EVAL
