 # Version information for this restart file 
 # current date 2019-05-25 04:55:27.575
 # current working dir /lustre03/project/6004141/rzk/GaN-carbene/00-Surface/00-Preoptimization/443-capped
 # Program compiled at                              Sun Apr  7 00:48:11 EDT 2019
 # Program compiled on                          beluga2.int.ets1.calculquebec.ca
 # Program compiled for                        Beluga-Linux-x86-64-intel-openmpi
 # Source code revision number                                         svn:18619
 &GLOBAL
   PRINT_LEVEL  MEDIUM
   PROJECT_NAME TEST
   RUN_TYPE  GEO_OPT
 &END GLOBAL
 &MOTION
   &GEO_OPT
     MAX_ITER 500
   &END GEO_OPT
 &END MOTION
 &FORCE_EVAL
   METHOD  QS
   STRESS_TENSOR  ANALYTICAL
   &DFT
     UKS  T
     SURFACE_DIPOLE_CORRECTION  TRUE
     SURF_DIP_DIR               Z
     BASIS_SET_FILE_NAME BASIS_MOLOPT
     POTENTIAL_FILE_NAME GTH_POTENTIALS
     &SCF
       MAX_SCF  80
       EPS_SCF     5.0000000000000004E-06
       &OT  T
         PRECONDITIONER  FULL_ALL
       &END OT
       &OUTER_SCF  T
         OPTIMIZER  NONE
         EPS_SCF     5.0000000000000004E-06
         MAX_SCF  4
       &END OUTER_SCF
       &PRINT
         &RESTART  OFF
           BACKUP_COPIES  1
           &EACH
             JUST_ENERGY  0
             QS_SCF  0
             MD  20
           &END EACH
         &END RESTART
       &END PRINT
     &END SCF
     &QS
       EPS_DEFAULT     1.0000000000000000E-14
       METHOD  GPW
     &END QS
     &MGRID
       NGRIDS  5
       CUTOFF     1.2000000000000000E+03
     &END MGRID
     &XC
       DENSITY_CUTOFF     1.0000000000000000E-10
       GRADIENT_CUTOFF     1.0000000000000000E-10
       TAU_CUTOFF     1.0000000000000000E-10
       &XC_FUNCTIONAL  NO_SHORTCUT
         &PBE  T
         &END PBE
       &END XC_FUNCTIONAL
       &VDW_POTENTIAL
         POTENTIAL_TYPE  PAIR_POTENTIAL
         &PAIR_POTENTIAL
           R_CUTOFF     1.0000000000000002E+01
           TYPE  DFTD3
           PARAMETER_FILE_NAME dftd3.dat
           REFERENCE_FUNCTIONAL PBE
           EPS_CN     9.9999999999999995E-07
           CALCULATE_C9_TERM  T
           REFERENCE_C9_TERM  T
           LONG_RANGE_CORRECTION  F
           VERBOSE_OUTPUT  F
         &END PAIR_POTENTIAL
       &END VDW_POTENTIAL
     &END XC
   &END DFT
   &SUBSYS
     &CELL
       A     1.2864472766435110E+01    0.0000000000000000E+00    0.0000000000000000E+00
       B    -6.4322363581020028E+00    1.1140960178524471E+01    0.0000000000000000E+00
       #A     1.2982353780853531E+01    0.0000000000000000E+00    0.0000000000000000E+00
       #B    -6.4911768904267628E+00    1.1243048175136114E+01    0.0000000000000000E+00
       C     0.0000000000000000E+00    0.0000000000000000E+00    3.2000000000000000E+01
       MULTIPLE_UNIT_CELL  1 1 1
       &CELL_REF
         A     1.2982353780853531E+01    0.0000000000000000E+00    0.0000000000000000E+00
         B    -6.4911768904267628E+00    1.1243048175136114E+01    0.0000000000000000E+00
         C     0.0000000000000000E+00    0.0000000000000000E+00    3.2000000000000000E+01
         MULTIPLE_UNIT_CELL  1 1 1
       &END CELL_REF
     &END CELL
     &COORD
 N                 -0.00100577    2.05458149    2.50730588
 Ga                 0.02042163    0.08709363    2.84865290
 N                 -0.01042778    0.06092291    5.01590323
 Ga                -0.00580921    1.88918797    5.79950337
 N                 -0.00742724    1.90049654    7.80050941
 Ga                -0.00298656    0.05511575    8.44018283
 N                 -0.00490281    0.05480017   10.41786707
 Ga                -0.00504876    1.89358125   11.07084672
 N                 -0.00506128    1.87556556   13.06651759
 Ga                -0.00438275    0.05527147   13.86819007
 N                 -0.00386549    0.05629402   16.07124248
 Ga                -0.00624232    2.09620878   16.48081535
 Ga                 0.03342883    3.73626329    1.37232137
 N                 -1.47418855    4.63367645    2.47432739
 Ga                -1.67951789    2.79924305    3.26659078
 N                 -1.61612815    2.84457195    5.24731100
 Ga                -1.64454457    4.70811373    5.81164375
 N                 -1.62462044    4.70473583    7.80547271
 Ga                -1.60244697    2.84569467    8.44129509
 N                 -1.60246553    2.84733508   10.43519622
 Ga                -1.63097685    4.70632098   11.07276176
 N                 -1.64482835    4.71595251   13.06653302
 Ga                -1.60234612    2.84714967   13.62064855
 N                 -1.63040982    2.83470180   15.58301896
 Ga                -1.45127012    4.60586653   16.47958209
 N                 -0.00378275    3.76623251   17.61066737
 N                 -3.21717011    7.59580278    2.49803884
 Ga                -3.19517628    5.62671970    2.84298225
 N                 -3.21796072    5.62052511    5.01485262
 Ga                -3.22976713    7.45047191    5.78796442
 N                 -3.22072474    7.47318716    7.78751935
 Ga                -3.22394105    5.62830917    8.44390408
 N                 -3.22233862    5.62736596   10.41892054
 Ga                -3.22378398    7.46685153   11.06849846
 N                 -3.22077680    7.44707152   13.06359605
 Ga                -3.21937209    5.62716638   13.86704696
 N                 -3.21908201    5.62823121   16.07050094
 Ga                -3.22234359    7.67119437   16.48345327
 Ga                -3.25678766    9.36651938    1.28135761
 N                 -4.72926894   10.21300798    2.50689287
 Ga                -4.90856463    8.36731182    3.23994541
 N                 -4.83256691    8.40861113    5.22543239
 Ga                -4.85318381   10.28281985    5.77736100
 N                 -4.83878013   10.27375118    7.78407517
 Ga                -4.82227751    8.41837072    8.42551465
 N                 -4.81854426    8.41799686   10.42439951
 Ga                -4.84386831   10.27581774   11.06609042
 N                 -4.86020156   10.28622195   13.06263299
 Ga                -4.81691400    8.41837044   13.62168470
 N                 -4.84403541    8.40404809   15.58340035
 Ga                -4.66931986   10.17715108   16.48472377
 N                 -3.22166452    9.34165872   17.62247734
 N                  3.19178810    1.92471439    2.59932346
 Ga                 3.20506159    0.15608741    3.24493144
 N                  3.21279510    0.06136411    5.23047105
 Ga                 3.20764861    1.91615994    5.86569224
 N                  3.21243528    1.91375867    7.84649392
 Ga                 3.20824111    0.04632813    8.42913397
 N                  3.21050940    0.04196376   10.42732537
 Ga                 3.21037333    1.90965917   11.02811889
 N                  3.21053870    1.91121456   13.00184324
 Ga                 3.21154860    0.04195397   13.62170512
 N                  3.21112582    0.07397138   15.58392982
 Ga                 3.21012176    1.91231160   15.86070984
 N                  1.47052071    4.64109085    2.52156275
 Ga                 1.68409358    2.80875242    3.29736206
 N                  1.60080406    2.84760840    5.26289484
 Ga                 1.65048739    4.72197162    5.82361106
 N                  1.60012471    4.70051755    7.82848265
 Ga                 1.59189589    2.84399901    8.44173993
 N                  1.59199609    2.84400794   10.43842457
 Ga                 1.61900068    4.70563416   11.06956836
 N                  1.63466207    4.71604633   13.06599608
 Ga                 1.59166100    2.84810233   13.62169590
 N                  1.61987966    2.83380841   15.58589925
 Ga                 1.44142369    4.60736161   16.47971437
 N                 -0.01540922    7.47558830    2.69273746
 Ga                 0.00161562    5.62479789    3.34048153
 N                 -0.00940925    5.64058932    5.26953509
 Ga                -0.00953109    7.48218119    5.90458472
 N                 -0.00513995    7.48639850    7.86446851
 Ga                -0.00781865    5.61295081    8.45431017
 N                 -0.00849031    5.61594688   10.44494996
 Ga                -0.00819406    7.48464012   11.03462259
 N                 -0.00589031    7.48404171   13.00594836
 Ga                -0.00458534    5.61292728   13.62174614
 N                 -0.00597920    5.64617705   15.58355959
 Ga                -0.00473681    7.48479405   15.85847565
 N                 -1.70921636   10.21271108    2.50660527
 Ga                -1.62637152    8.41699266    3.29907007
 N                 -1.60112319    8.40684427    5.24190081
 Ga                -1.59425257   10.29080794    5.79470490
 N                 -1.60407101   10.27321124    7.79134559
 Ga                -1.62813428    8.42000116    8.44086688
 N                 -1.62588683    8.41871888   10.43330132
 Ga                -1.59987788   10.27817740   11.06932668
 N                 -1.58097857   10.28652761   13.06430002
 Ga                -1.62520397    8.41885415   13.62397567
 N                 -1.59824917    8.40387476   15.58677565
 Ga                -1.77457525   10.17716097   16.48448707
 N                  6.42684021    2.03936627    2.54035291
 Ga                 6.40581078    0.05647498    2.88205631
 N                  6.43225596    0.05924737    5.02439799
 Ga                 6.42031833    1.89409043    5.79908077
 N                  6.42526369    1.90132899    7.79599730
 Ga                 6.42453715    0.05735280    8.44441173
 N                  6.42683172    0.05563719   10.41919339
 Ga                 6.42760478    1.89507946   11.07121889
 N                  6.42825286    1.87466189   13.06704666
 Ga                 6.42824743    0.05359213   13.86903776
 N                  6.42855968    0.05448775   16.07213731
 Ga                 6.42571761    2.08912903   16.47395588
 Ga                 6.46384895    3.74343229    1.51572684
 N                  4.92069260    4.63961512    2.41937711
 Ga                 4.69064109    2.80760238    3.27867710
 N                  4.81763019    2.85148829    5.23863717
 Ga                 4.77548818    4.72549935    5.81814713
 N                  4.82058327    4.69784764    7.82406716
 Ga                 4.82815718    2.84498662    8.44574490
 N                  4.82981835    2.84420537   10.43986450
 Ga                 4.80408248    4.70698159   11.06793173
 N                  4.78735821    4.71648767   13.06553662
 Ga                 4.83019870    2.84725728   13.61803221
 N                  4.80231325    2.83348725   15.58372572
 Ga                 4.97206734    4.61021087   16.47271653
 N                  6.42847696    3.76868315   17.59935978
 N                  3.20121536    7.60201443    2.42391138
 N                  3.21187743    5.63289983    5.15812583
 Ga                 3.21767204    7.42892930    5.83325383
 N                  3.20892333    7.48883519    7.82963214
 Ga                 3.21106261    5.62597823    8.44175465
 N                  3.21108772    5.62724212   10.42379863
 Ga                 3.21270530    7.46537945   11.07169032
 N                  3.21167889    7.44728441   13.06696284
 Ga                 3.21020615    5.62736269   13.86706620
 N                  3.21054485    5.62801647   16.07260460
 Ga                 3.21039719    7.67264009   16.48571447
 Ga                 3.23758344    9.60973203    1.38409165
 N                  1.70891875   10.19542638    2.52820324
 Ga                 1.58592599    8.36467150    3.32651196
 N                  1.59642769    8.40263725    5.24923927
 Ga                 1.57684703   10.28605502    5.80921043
 N                  1.59155741   10.27266298    7.79948050
 Ga                 1.61272678    8.42189573    8.45906144
 N                  1.61098666    8.42021033   10.44686879
 Ga                 1.58751903   10.27970349   11.07499157
 N                  1.57223849   10.28710340   13.06782044
 Ga                 1.61551791    8.41837434   13.62401506
 N                  1.58711980    8.40380518   15.58516317
 Ga                 1.76789178   10.17404794   16.48715622
 N                  3.21581138    9.34088551   17.62564535
 N                  9.65280629    1.91987562    2.61176436
 Ga                 9.65220797    0.18603979    3.30220313
 N                  9.64152646    0.05653873    5.25706705
 Ga                 9.65104967    1.91871269    5.88054408
 N                  9.64252988    1.91260514    7.85326103
 Ga                 9.64499898    0.04405504    8.43815889
 N                  9.64305802    0.04212912   10.43230228
 Ga                 9.64240464    1.91234172   11.02526718
 N                  9.64321042    1.91205594   12.99883218
 Ga                 9.64386024    0.04320828   13.62382720
 N                  9.64232494    0.07561752   15.58504021
 Ga                 9.64488841    1.91267802   15.86407243
 N                  7.92829663    4.63418635    2.52763473
 Ga                 8.14915592    2.78471635    3.30619449
 N                  8.03808390    2.84087670    5.26014406
 Ga                 8.05499583    4.71857678    5.79319325
 N                  8.04402580    4.70648058    7.79260843
 Ga                 8.02328532    2.84906618    8.43442270
 N                  8.02346279    2.84775439   10.43027021
 Ga                 8.05035069    4.70643233   11.07042392
 N                  8.06815300    4.71582927   13.06615103
 Ga                 8.02513423    2.84691873   13.62051021
 N                  8.05167055    2.83302234   15.58702743
 Ga                 7.88152674    4.61180258   16.47253895
 N                  6.42503969    7.48412901    2.58331341
 Ga                 6.40185296    5.74607514    3.27159749
 N                  6.41974320    5.62302290    5.23231746
 Ga                 6.42572118    7.48279408    5.85701713
 N                  6.42444943    7.48306423    7.83744869
 Ga                 6.42889807    5.61724907    8.44274765
 N                  6.42976448    5.61628746   10.43732075
 Ga                 6.42999158    7.48454728   11.02901971
 N                  6.42836595    7.48400037   13.00208864
 Ga                 6.42743066    5.61364742   13.61867957
 N                  6.42643079    5.64591388   15.58389160
 Ga                 6.42806518    7.48568865   15.86175319
 N                  4.71289771   10.20958988    2.52695008
 Ga                 4.91519543    8.33326749    3.27766118
 N                  4.80698484    8.41082059    5.23571522
 Ga                 4.84926986   10.28061740    5.79753703
 N                  4.82921620   10.27344270    7.79506792
 Ga                 4.81328441    8.42056010    8.44629705
 N                  4.81164820    8.41941088   10.43927758
 Ga                 4.83524064   10.27792461   11.07208575
 N                  4.85097719   10.28699452   13.06671228
 Ga                 4.80786538    8.41828468   13.62369881
 N                  4.83544932    8.40242361   15.58662398
 Ga                 4.65792374   10.17698957   16.48645035
 O                  0.73850164    3.85357207   -0.36122335
 H                  3.12945417    6.96215987    1.44712322
 C                  1.15131451    2.58874913   -0.92931239
 H                  1.84649181    2.04798711   -0.26626502
 H                  0.28257628    1.94414173   -1.13157740
 H                  1.65395224    2.79954440   -1.88296165
 Ga                 3.16408372    5.58966358    2.24886414
 O                  2.81830856    5.48193139    0.13256523
 H                  2.05082045    4.83082054   -0.06217032
 C                  3.90055215    5.25530369   -0.80212719
 H                  3.55056081    5.41592964   -1.82906142
 H                  4.69225695    5.97576890   -0.56640514
 H                  4.30106093    4.23224941   -0.70556572
     &END COORD

     &KIND C
       BASIS_SET DZVP-MOLOPT-SR-GTH-q4
       POTENTIAL GTH-PBE-q4
     &END KIND

     &KIND O
       BASIS_SET DZVP-MOLOPT-SR-GTH-q6
       POTENTIAL GTH-PBE-q6
     &END KIND

     &KIND H
       BASIS_SET DZVP-MOLOPT-SR-GTH-q1
       POTENTIAL GTH-PBE-q1
     &END KIND

     &KIND N
       BASIS_SET DZVP-MOLOPT-SR-GTH
       POTENTIAL GTH-PBE-q5
     &END KIND

     &KIND Ga
       BASIS_SET DZVP-MOLOPT-SR-GTH
       POTENTIAL GTH-PBE-q13
     &END KIND

     &TOPOLOGY
       MULTIPLE_UNIT_CELL  1 1 1
     &END TOPOLOGY
   &END SUBSYS
 &END FORCE_EVAL
