 # Version information for this restart file 
 # current date 2019-06-30 09:41:01.017
 # current working dir /scratch/rzk/rzk/GaN-carbene/443-adatoms-both-2x2/05-2DissMethanol/02-0501-MoveHToNTop
 # Program compiled at                              Sun Apr  7 00:48:11 EDT 2019
 # Program compiled on                          beluga2.int.ets1.calculquebec.ca
 # Program compiled for                        Beluga-Linux-x86-64-intel-openmpi
 # Source code revision number                                         svn:18619
 &GLOBAL
   PRINT_LEVEL  MEDIUM
   PROJECT_NAME TEST
   RUN_TYPE  GEO_OPT
 &END GLOBAL
 &MOTION
   &GEO_OPT
     MAX_ITER  500
     STEP_START_VAL  7
   &END GEO_OPT
 &END MOTION
 &FORCE_EVAL
   METHOD  QS
   STRESS_TENSOR  ANALYTICAL
   &DFT
     BASIS_SET_FILE_NAME BASIS_MOLOPT
     POTENTIAL_FILE_NAME GTH_POTENTIALS
     UKS  T
     SURFACE_DIPOLE_CORRECTION  T
     SURF_DIP_DIR  Z
     &SCF
       MAX_SCF  80
       EPS_SCF     5.0000000000000004E-06
       &OT  T
         PRECONDITIONER  FULL_ALL
       &END OT
       &OUTER_SCF  T
         OPTIMIZER  NONE
         EPS_SCF     5.0000000000000004E-06
         MAX_SCF  4
       &END OUTER_SCF
       &PRINT
         &RESTART  OFF
           BACKUP_COPIES  1
           &EACH
             JUST_ENERGY  0
             QS_SCF  0
             MD  20
           &END EACH
         &END RESTART
       &END PRINT
     &END SCF
     &QS
       EPS_DEFAULT     1.0000000000000000E-14
       METHOD  GPW
     &END QS
     &MGRID
       NGRIDS  5
       CUTOFF     1.2000000000000000E+03
     &END MGRID
     &XC
       DENSITY_CUTOFF     1.0000000000000000E-10
       GRADIENT_CUTOFF     1.0000000000000000E-10
       TAU_CUTOFF     1.0000000000000000E-10
       &XC_FUNCTIONAL  NO_SHORTCUT
         &PBE  T
         &END PBE
       &END XC_FUNCTIONAL
       &VDW_POTENTIAL
         POTENTIAL_TYPE  PAIR_POTENTIAL
         &PAIR_POTENTIAL
           R_CUTOFF     1.0000000000000004E+01
           TYPE  DFTD3
           PARAMETER_FILE_NAME dftd3.dat
           REFERENCE_FUNCTIONAL PBE
           EPS_CN     9.9999999999999995E-07
           CALCULATE_C9_TERM  T
           REFERENCE_C9_TERM  T
           LONG_RANGE_CORRECTION  F
           VERBOSE_OUTPUT  F
         &END PAIR_POTENTIAL
       &END VDW_POTENTIAL
     &END XC
   &END DFT
   &SUBSYS
     &CELL
       A     1.2864472766435110E+01    0.0000000000000000E+00    0.0000000000000000E+00
       B    -6.4322363581020028E+00    1.1140960178524473E+01    0.0000000000000000E+00
       C     0.0000000000000000E+00    0.0000000000000000E+00    3.2000000000000000E+01
       MULTIPLE_UNIT_CELL  1 1 1
       &CELL_REF
         A     1.2982353780853531E+01    0.0000000000000000E+00    0.0000000000000000E+00
         B    -6.4911768904267628E+00    1.1243048175136114E+01    0.0000000000000000E+00
         C     0.0000000000000000E+00    0.0000000000000000E+00    3.2000000000000000E+01
         MULTIPLE_UNIT_CELL  1 1 1
       &END CELL_REF
     &END CELL
     &COORD
N   -3.7067593336061891E-03    2.0262173300103705E+00    2.5150617646425784E+00
Ga   -1.8170433846121957E-02    8.8480965359200317E-02    2.8642458131599882E+00
N   -1.2439843467939676E-02    4.6167774959919479E-02    5.0308769728086338E+00
Ga   -1.6774913659296786E-02    1.8757127622692662E+00    5.8123386425488581E+00
N   -1.3028784767237764E-02    1.8951458726045547E+00    7.8107947086368661E+00
Ga   -9.8148223027336515E-03    4.6762374655534768E-02    8.4382976094816229E+00
N   -7.8415065018760562E-03    5.2192300360715864E-02    1.0416581655893621E+01
Ga   -4.6612306024768086E-03    1.8938185301682731E+00    1.1063805934150894E+01
N   -5.1500732577917339E-03    1.8759657141101240E+00    1.3062170945002329E+01
Ga   -8.0550450029038372E-03    5.5731610152657825E-02    1.3859945772542671E+01
N   -7.4961006323429370E-03    5.7098127694666045E-02    1.6068783290629600E+01
Ga   -6.4208806706379466E-03    2.1030286453923588E+00    1.6481156992886529E+01
Ga    5.0864105871807466E-02    3.7504782359810287E+00    1.3892452383210268E+00
N   -1.4740440150976244E+00    4.6082170565378551E+00    2.4824446114148970E+00
Ga   -1.6688002101621431E+00    2.7888788238525883E+00    3.2664001898568551E+00
N   -1.6179670396078831E+00    2.8357595059902283E+00    5.2504639979689056E+00
Ga   -1.6344008916448285E+00    4.7082954261292622E+00    5.7885115052887413E+00
N   -1.6246388622029304E+00    4.7039028171814854E+00    7.7934754225116132E+00
Ga   -1.6029368731882658E+00    2.8497491831781758E+00    8.4423393827747493E+00
N   -1.6034713461074424E+00    2.8490827775174798E+00    1.0437146618374159E+01
Ga   -1.6279039025381739E+00    4.7099342851458452E+00    1.1064972892158513E+01
N   -1.6447463921427452E+00    4.7171651912472923E+00    1.3062798487118679E+01
Ga   -1.6015932046475174E+00    2.8479155336958191E+00    1.3615866546364865E+01
N   -1.6285958876968654E+00    2.8337122851604124E+00    1.5580350570990754E+01
Ga   -1.4501617766917718E+00    4.6034483060328428E+00    1.6481407144236577E+01
N    1.7297072674937256E-03    3.7748702461856936E+00    1.7624438319453663E+01
N   -3.2206410718609559E+00    7.5963757129586487E+00    2.5468209124483123E+00
Ga   -3.1747160723042946E+00    5.5905572272424395E+00    2.8147476818840729E+00
N   -3.2197552690528624E+00    5.6153643357086924E+00    4.9953622383618015E+00
Ga   -3.2250650470851903E+00    7.4439844308137850E+00    5.7736170392021089E+00
N   -3.2225674164819798E+00    7.4712903214557924E+00    7.7788277912018033E+00
Ga   -3.2208637451155364E+00    5.6290981625815473E+00    8.4346908461226526E+00
N   -3.2221221030156570E+00    5.6277419244575544E+00    1.0413908371620941E+01
Ga   -3.2234591348604007E+00    7.4676630711968581E+00    1.1059652718304434E+01
N   -3.2219873307323335E+00    7.4467293766190270E+00    1.3059999468270734E+01
Ga   -3.2214418607621158E+00    5.6250074895622868E+00    1.3862668953455488E+01
N   -3.2208285619906976E+00    5.6253038855861703E+00    1.6071192032352002E+01
Ga   -3.2207544202899858E+00    7.6552564498405680E+00    1.6467149082685197E+01
Ga   -3.2242793981709186E+00    9.3385124884918636E+00    1.5634080540973045E+00
N   -4.7271709381565516E+00    1.0197721987194802E+01    2.5396521374976850E+00
Ga   -4.9659437596226157E+00    8.3360509781000030E+00    3.2827779657888980E+00
N   -4.8428000662990902E+00    8.4005970773474612E+00    5.2389514618481421E+00
Ga   -4.8606069586445741E+00    1.0274213694333165E+01    5.7935764967769181E+00
N   -4.8403869951097631E+00    1.0271662685110401E+01    7.7933043222560476E+00
Ga   -4.8266281797676376E+00    8.4120784653736074E+00    8.4143542583240993E+00
N   -4.8214702140298309E+00    8.4153701975485440E+00    1.0417737019502212E+01
Ga   -4.8461022509911631E+00    1.0273063185427555E+01    1.1060618791187462E+01
N   -4.8615063712650475E+00    1.0285683197257075E+01    1.3060467480303616E+01
Ga   -4.8189954618266837E+00    8.4173702618405670E+00    1.3614568381665405E+01
N   -4.8461734548887545E+00    8.4013782193946209E+00    1.5582493174225148E+01
Ga   -4.6799793862819579E+00    1.0182815687720179E+01    1.6466443360486551E+01
N   -3.2198543908113426E+00    9.3403495698698400E+00    1.7583534422875712E+01
N    3.1923225540416191E+00    1.9077550254163709E+00    2.6342016795631404E+00
Ga    3.2002842179028796E+00    1.7344958736023142E-01    3.3127116149327791E+00
N    3.2093657556637325E+00    4.9290718753666571E-02    5.2675242499001582E+00
Ga    3.2072951644829555E+00    1.9031272953357432E+00    5.8996652240415273E+00
N    3.2136072278258045E+00    1.9101103222674094E+00    7.8694588908265306E+00
Ga    3.2092739815926326E+00    3.9912084621135449E-02    8.4355809088812332E+00
N    3.2106068452357355E+00    4.1597201555035435E-02    1.0432982563224019E+01
Ga    3.2103593544466640E+00    1.9140721997802570E+00    1.1021570688386118E+01
N    3.2111190646042633E+00    1.9133378983612175E+00    1.2998836011451147E+01
Ga    3.2108275594153435E+00    4.2893466027225040E-02    1.3613764658455091E+01
N    3.2110470366533752E+00    7.5636979043175873E-02    1.5581833242878028E+01
Ga    3.2108635996349628E+00    1.9159447986596390E+00    1.5859132853979307E+01
N    1.4488716418150969E+00    4.5769059214600398E+00    2.6182825099585361E+00
Ga    1.6552296634766730E+00    2.7597596781057101E+00    3.3239235337909210E+00
N    1.6011103003630360E+00    2.8105608532547275E+00    5.2913265695235774E+00
Ga    1.6292708291598297E+00    4.6987277813158981E+00    5.7725610980575039E+00
N    1.6135663094820967E+00    4.7012274074808671E+00    7.7857819852454089E+00
Ga    1.5899900464711392E+00    2.8479122065915243E+00    8.4307381828912753E+00
N    1.5910702482047909E+00    2.8484153681256719E+00    1.0430608463250456E+01
Ga    1.6187564987556180E+00    4.7082562577738392E+00    1.1061489936372265E+01
N    1.6356162515896131E+00    4.7175064618280178E+00    1.3061125255929229E+01
Ga    1.5906293389451818E+00    2.8487852933061792E+00    1.3616852310836471E+01
N    1.6164144640155638E+00    2.8322556461592727E+00    1.5582678787961346E+01
Ga    1.4456295921582514E+00    4.6082303436618650E+00    1.6481640258196347E+01
N    9.7422546561916797E-03    7.4576416384272042E+00    2.5917479971204735E+00
Ga    2.7395626717609967E-03    5.6940129344488950E+00    3.2828057071132890E+00
N   -8.3972899200845264E-03    5.6280426444175307E+00    5.2532550591079836E+00
Ga    1.5708559255649727E-02    7.4771670654996507E+00    5.8479095106088188E+00
N    1.8392527794349502E-03    7.4855086784086025E+00    7.8300402472091486E+00
Ga   -1.1498149742105339E-03    5.6144493438284160E+00    8.4205136832172869E+00
N   -4.8419640087420330E-03    5.6139234197440846E+00    1.0423672266790200E+01
Ga   -3.2200809441074517E-03    7.4826385295947526E+00    1.1016727872972785E+01
N   -4.4912732426054119E-03    7.4842405368948564E+00    1.2994678136134185E+01
Ga   -4.5176826113904915E-03    5.6140566155052687E+00    1.3616171240447832E+01
N   -7.2654729501135515E-03    5.6438727854571793E+00    1.5581847399396171E+01
Ga   -2.2268897970929018E-03    7.4825651355091241E+00    1.5860342144909476E+01
N   -1.7182409189583470E+00    1.0197827996138811E+01    2.5569967501831745E+00
Ga   -1.4878077621061212E+00    8.3296081251694964E+00    3.2974384901809661E+00
N   -1.6046111375695089E+00    8.4032255094233044E+00    5.2435945116121507E+00
Ga   -1.5896672877978957E+00    1.0275756110454084E+01    5.7959325834364392E+00
N   -1.6031139172934250E+00    1.0272556541448431E+01    7.7943551328993195E+00
Ga   -1.6214030328385414E+00    8.4132541883015541E+00    8.4218943983788623E+00
N   -1.6241243535355088E+00    8.4169088830209429E+00    1.0423934445824248E+01
Ga   -1.5974710232330558E+00    1.0275161625290824E+01    1.1063464396405166E+01
N   -1.5802134591353194E+00    1.0287035463594025E+01    1.3062540955899822E+01
Ga   -1.6239908892796926E+00    8.4174985133038707E+00    1.3613431173848284E+01
N   -1.5962403465455421E+00    8.4013891495529016E+00    1.5581576552701179E+01
Ga   -1.7609687829913945E+00    1.0183160837205920E+01    1.6465570803128209E+01
N    6.4333427669147190E+00    2.0113885473846760E+00    2.5527203235799254E+00
Ga    6.4356140085006892E+00    4.2638863613756961E-02    2.8900853180047390E+00
N    6.4310609447825824E+00    5.0405778656518352E-02    5.0306716423426696E+00
Ga    6.4328023406825832E+00    1.8777056322032559E+00    5.8155755822343638E+00
N    6.4320465515237517E+00    1.8978391966142398E+00    7.8075574607246221E+00
Ga    6.4303975633730888E+00    4.7720319612501283E-02    8.4394053992971187E+00
N    6.4292444039648222E+00    5.3627765815017145E-02    1.0416568259409837E+01
Ga    6.4277807708955921E+00    1.8948172967550410E+00    1.1066050756074860E+01
N    6.4276821945993436E+00    1.8760132503767322E+00    1.3063199493282912E+01
Ga    6.4306068939043177E+00    5.6360171314928688E-02    1.3862538373749320E+01
N    6.4291891082216379E+00    5.6597196582265474E-02    1.6069245617160487E+01
Ga    6.4284255987971335E+00    2.1037482093925015E+00    1.6483739240491200E+01
Ga    6.4360838645697305E+00    3.7295867062592825E+00    1.5518645204104593E+00
N    4.9473122050430911E+00    4.5873096449722244E+00    2.5401950054524831E+00
Ga    4.7140126746629454E+00    2.7497776101068667E+00    3.3164255600935593E+00
N    4.8211359257103616E+00    2.8184744411481706E+00    5.2726946720367609E+00
Ga    4.7882514599623160E+00    4.7013054851408711E+00    5.7874273078774925E+00
N    4.8101947025804623E+00    4.6999097960613705E+00    7.7889280222007242E+00
Ga    4.8301296496973274E+00    2.8477136559485263E+00    8.4397058819600215E+00
N    4.8315136653981616E+00    2.8489988672804794E+00    1.0434701708189964E+01
Ga    4.8043930474288548E+00    4.7101756983551866E+00    1.1061836014055441E+01
N    4.7876437772434519E+00    4.7178849389216140E+00    1.3060598218485193E+01
Ga    4.8313551004006818E+00    2.8488600081025548E+00    1.3617565221864515E+01
N    4.8054187498822110E+00    2.8319617900536622E+00    1.5583028545947021E+01
Ga    4.9775424967223350E+00    4.6068857683007192E+00    1.6484578842454642E+01
N    6.4207025519744123E+00    3.7739032631821989E+00    1.7625452656613167E+01
N    3.1993830027000705E+00    7.4827279746867363E+00    2.4768769002677473E+00
N    3.2174511102793053E+00    5.5847765829034079E+00    4.9900470646301267E+00
Ga    3.2124159965739092E+00    7.4218241212005358E+00    5.7355791859912140E+00
N    3.2104298104543001E+00    7.4633609967590697E+00    7.7577127518993718E+00
Ga    3.2091901801862410E+00    5.6253589336674930E+00    8.4248883811811464E+00
N    3.2113770251248659E+00    5.6280709911716889E+00    1.0407536020655591E+01
Ga    3.2127958769617173E+00    7.4638443284631233E+00    1.1063235370928570E+01
N    3.2117386777349486E+00    7.4466985458812260E+00    1.3059829228508486E+01
Ga    3.2116107292817682E+00    5.6271474361730425E+00    1.3863887194467312E+01
N    3.2101961209816889E+00    5.6275587088922085E+00    1.6070874445320079E+01
Ga    3.2101557447296063E+00    7.6672665407055174E+00    1.6483221084818027E+01
Ga    3.1976787932454194E+00    1.0113420252983381E+01    1.0619502814519177E+00
N    1.7194269446662900E+00    1.0251661806602311E+01    2.5363351944263250E+00
Ga    1.5661351312136023E+00    8.3646112811199913E+00    3.1569300901857589E+00
N    1.6129789064286313E+00    8.3943995783284286E+00    5.1657154140780408E+00
Ga    1.5739630556428088E+00    1.0246276145194814E+01    5.7858945973850222E+00
N    1.5920647998215347E+00    1.0261061934006428E+01    7.7846595164004766E+00
Ga    1.6220939340949276E+00    8.4063885101234490E+00    8.4228759146086425E+00
N    1.6186924929522744E+00    8.4154622791154683E+00    1.0422006818141321E+01
Ga    1.5912540857550419E+00    1.0274194657122978E+01    1.1060636618101430E+01
N    1.5726232516862386E+00    1.0286170025138320E+01    1.3058143024857115E+01
Ga    1.6148925285930285E+00    8.4185702113374070E+00    1.3616290278774983E+01
N    1.5871218607829864E+00    8.4056268556496789E+00    1.5580273588145197E+01
Ga    1.7675642406126597E+00    1.0174901588053141E+01    1.6483100392374901E+01
N    3.2100168608647484E+00    9.3327992453959929E+00    1.7625776720884890E+01
N    9.6565356404707110E+00    1.8817030980967622E+00    2.6571577366223829E+00
Ga    9.6565888898165930E+00    1.5630201430012558E-01    3.3838163104260373E+00
N    9.6423006547268777E+00    5.1360662238025961E-02    5.3087178822012513E+00
Ga    9.6531215566171866E+00    1.9245364681307522E+00    5.8967411713835949E+00
N    9.6432450806597565E+00    1.9124916339012592E+00    7.8632848124199306E+00
Ga    9.6455003434024480E+00    3.5350142144739638E-02    8.4180647134675528E+00
N    9.6434213703269531E+00    4.1456136274769906E-02    1.0420264013373039E+01
Ga    9.6428257633090375E+00    1.9100647445372014E+00    1.1020925906751348E+01
N    9.6425465703848143E+00    1.9114415904648958E+00    1.2999711041170924E+01
Ga    9.6434870067424576E+00    4.1200043026152378E-02    1.3616762746780442E+01
N    9.6427313947627322E+00    7.3028607295040848E-02    1.5579038010281716E+01
Ga    9.6431381007861479E+00    1.9123477611245565E+00    1.5855156469842338E+01
N    7.9344457805861124E+00    4.6194488065685455E+00    2.5229455510161785E+00
Ga    8.1513174419403924E+00    2.7715427846544896E+00    3.3122268588290935E+00
N    8.0397981038989670E+00    2.8361223950502366E+00    5.2655756572019623E+00
Ga    8.0602538458148985E+00    4.7176811790906008E+00    5.7882390664547305E+00
N    8.0442088238292762E+00    4.7064404846209085E+00    7.7888947453077613E+00
Ga    8.0266047274988317E+00    2.8511225915255749E+00    8.4396491760757275E+00
N    8.0248264067112505E+00    2.8495669280423153E+00    1.0434552812901400E+01
Ga    8.0483972042585261E+00    4.7101701570513077E+00    1.1064450992557227E+01
N    8.0660763017708206E+00    4.7171227844793453E+00    1.3061966855211246E+01
Ga    8.0235758502249528E+00    2.8485100991243399E+00    1.3617902489500539E+01
N    8.0506880265991061E+00    2.8334284773417981E+00    1.5581813835773975E+01
Ga    7.8709884881273924E+00    4.6022553819205800E+00    1.6484901098557046E+01
N    6.4038020911124507E+00    7.4710891199767149E+00    2.5619579290102696E+00
Ga    6.4114631336708312E+00    5.7409494995215979E+00    3.2772916897816429E+00
N    6.4240270899790195E+00    5.6192554987324872E+00    5.2368947292154147E+00
Ga    6.3960817671546009E+00    7.4820817140277729E+00    5.8340848925735687E+00
N    6.4174972008378850E+00    7.4828358444477896E+00    7.8186170242584048E+00
Ga    6.4236070803744321E+00    5.6192934089797957E+00    8.4198219371678338E+00
N    6.4268977296566119E+00    5.6158227768338804E+00    1.0420306812122405E+01
Ga    6.4247647953102272E+00    7.4830402221310743E+00    1.1015697058831668E+01
N    6.4262271403948201E+00    7.4839729286967742E+00    1.2992913733558154E+01
Ga    6.4270413344250521E+00    5.6141857013237049E+00    1.3618251037705479E+01
N    6.4291093249363600E+00    5.6438889475740064E+00    1.5583416419919311E+01
Ga    6.4237441730922660E+00    7.4825481704735024E+00    1.5861612341988891E+01
N    4.7071606081817015E+00    1.0262208560877772E+01    2.5141700356808894E+00
Ga    4.8453284842558091E+00    8.3721252453116310E+00    3.1245979387050933E+00
N    4.7991817916736172E+00    8.3934145139116136E+00    5.1500599595685701E+00
Ga    4.8502095940367953E+00    1.0241019111516861E+01    5.7778420091626481E+00
N    4.8296999000358065E+00    1.0258866169475082E+01    7.7812394423717208E+00
Ga    4.8014244248441837E+00    8.4057813432606121E+00    8.4157945755699455E+00
N    4.8052933894062857E+00    8.4140252227810688E+00    1.0416325639435595E+01
Ga    4.8311035465410113E+00    1.0271991129648905E+01    1.1058761889188917E+01
N    4.8490006573514339E+00    1.0285089257441609E+01    1.3056889945268717E+01
Ga    4.8072304507476309E+00    8.4187808835374405E+00    1.3617736038432732E+01
N    4.8341465751815997E+00    8.4052774030898050E+00    1.5581644645186353E+01
Ga    4.6528083640924303E+00    1.0174702669005958E+01    1.6483888080021906E+01
O    6.8176843234640405E-01    3.8571334369131969E+00   -3.4557530299089284E-01
H    3.1535869723915488E+00    7.5323231252913390E+00    1.4638662804459202E+00
C    1.1356154782547605E+00    2.6094022156641250E+00   -9.1114450263357150E-01
H    1.8423598222936284E+00    2.0850275551083652E+00   -2.4559909209298181E-01
H    2.8718402897300693E-01    1.9435278659777020E+00   -1.1242198371907834E+00
H    1.6453702744488898E+00    2.8339773520770897E+00   -1.8589754685197439E+00
Ga    3.1685899553042054E+00    5.4755473084613424E+00    2.7676619099483091E+00
O    2.8935826137743983E+00    5.4760952284071474E+00    2.5183465376793007E-01
H    2.1067897569972804E+00    4.9006727201184965E+00    5.4139894143647317E-02
C    3.8966237248059037E+00    5.2559890586398303E+00   -7.3738069955442309E-01
H    3.4946272429140035E+00    5.4331093831213355E+00   -1.7455304746667313E+00
H    4.7120288960899295E+00    5.9637099357350865E+00   -5.4285692707405464E-01
H    4.2917878797468134E+00    4.2238940573981054E+00   -6.9038799052647559E-01
     &END COORD
     &KIND C
       BASIS_SET DZVP-MOLOPT-SR-GTH-q4
       POTENTIAL GTH-PBE-q4
       &POTENTIAL
 2 2
  0.3384712400000000E+00 2 -0.8803673979999999E+01  0.1339210850000000E+01
 2
  0.3025757500000000E+00 1  0.9622486650000001E+01
  0.2915069400000000E+00 0
         # Potential name:  GTH-PBE-Q4  for symbol:  C
         # Potential read from the potential filename: GTH_POTENTIALS
       &END POTENTIAL
     &END KIND
     &KIND O
       BASIS_SET DZVP-MOLOPT-SR-GTH-q6
       POTENTIAL GTH-PBE-q6
       &POTENTIAL
 2 4
  0.2445543000000000E+00 2 -0.1666721480000000E+02  0.2487311320000000E+01
 2
  0.2209559200000000E+00 1  0.1833745811000000E+02
  0.2113324700000000E+00 0
         # Potential name:  GTH-PBE-Q6  for symbol:  O
         # Potential read from the potential filename: GTH_POTENTIALS
       &END POTENTIAL
     &END KIND
     &KIND H
       BASIS_SET DZVP-MOLOPT-SR-GTH-q1
       POTENTIAL GTH-PBE-q1
       &POTENTIAL
 1
  0.2000000000000000E+00 2 -0.4178900440000000E+01  0.7244633100000000E+00
 0
         # Potential name:  GTH-PBE-Q1  for symbol:  H
         # Potential read from the potential filename: GTH_POTENTIALS
       &END POTENTIAL
     &END KIND
     &KIND N
       BASIS_SET DZVP-MOLOPT-SR-GTH
       POTENTIAL GTH-PBE-q5
       &POTENTIAL
 2 3
  0.2837905100000000E+00 2 -0.1241522559000000E+02  0.1868095920000000E+01
 2
  0.2554050000000000E+00 1  0.1363026257000000E+02
  0.2454945300000000E+00 0
         # Potential name:  GTH-PBE-Q5  for symbol:  N
         # Potential read from the potential filename: GTH_POTENTIALS
       &END POTENTIAL
     &END KIND
     &KIND Ga
       BASIS_SET DZVP-MOLOPT-SR-GTH
       POTENTIAL GTH-PBE-q13
       &POTENTIAL
 2 1 10
  0.4900000000000000E+00 0
 3
  0.4167772300000000E+00 3  0.1047568975000000E+02 -0.4921768140000000E+01  0.8707055900000000E+00
  0.7770178090000000E+01 -0.2248152160000000E+01
  0.1784415450000000E+01
  0.5696265200000000E+00 2  0.1777985340000000E+01  0.1958597600000000E+00
 -0.2317443900000000E+00
  0.2381265000000000E+00 1 -0.1624868022000000E+02
         # Potential name:  GTH-PBE-Q13  for symbol:  GA
         # Potential read from the potential filename: GTH_POTENTIALS
       &END POTENTIAL
     &END KIND
     &TOPOLOGY
       NUMBER_OF_ATOMS  212
       MULTIPLE_UNIT_CELL  1 1 1
     &END TOPOLOGY
   &END SUBSYS
 &END FORCE_EVAL
