 # Version information for this restart file 
 # current date 2019-06-30 12:09:36.990
 # current working dir /scratch/rzk/rzk/GaN-carbene/443-adatoms-both-2x2/05-2DissMethanol/02-0501-MoveHToNTop
 # Program compiled at                              Sun Apr  7 00:48:11 EDT 2019
 # Program compiled on                          beluga2.int.ets1.calculquebec.ca
 # Program compiled for                        Beluga-Linux-x86-64-intel-openmpi
 # Source code revision number                                         svn:18619
 &GLOBAL
   PRINT_LEVEL  MEDIUM
   PROJECT_NAME TEST
   RUN_TYPE  GEO_OPT
 &END GLOBAL
 &MOTION
   &GEO_OPT
     MAX_ITER  500
     STEP_START_VAL  60
   &END GEO_OPT
 &END MOTION
 &FORCE_EVAL
   METHOD  QS
   STRESS_TENSOR  ANALYTICAL
   &DFT
     BASIS_SET_FILE_NAME BASIS_MOLOPT
     POTENTIAL_FILE_NAME GTH_POTENTIALS
     UKS  T
     SURFACE_DIPOLE_CORRECTION  T
     SURF_DIP_DIR  Z
     &SCF
       MAX_SCF  80
       EPS_SCF     5.0000000000000004E-06
       &OT  T
         PRECONDITIONER  FULL_ALL
       &END OT
       &OUTER_SCF  T
         OPTIMIZER  NONE
         EPS_SCF     5.0000000000000004E-06
         MAX_SCF  4
       &END OUTER_SCF
       &PRINT
         &RESTART  OFF
           BACKUP_COPIES  1
           &EACH
             JUST_ENERGY  0
             QS_SCF  0
             MD  20
           &END EACH
         &END RESTART
       &END PRINT
     &END SCF
     &QS
       EPS_DEFAULT     1.0000000000000000E-14
       METHOD  GPW
     &END QS
     &MGRID
       NGRIDS  5
       CUTOFF     1.2000000000000000E+03
     &END MGRID
     &XC
       DENSITY_CUTOFF     1.0000000000000000E-10
       GRADIENT_CUTOFF     1.0000000000000000E-10
       TAU_CUTOFF     1.0000000000000000E-10
       &XC_FUNCTIONAL  NO_SHORTCUT
         &PBE  T
         &END PBE
       &END XC_FUNCTIONAL
       &VDW_POTENTIAL
         POTENTIAL_TYPE  PAIR_POTENTIAL
         &PAIR_POTENTIAL
           R_CUTOFF     1.0000000000000004E+01
           TYPE  DFTD3
           PARAMETER_FILE_NAME dftd3.dat
           REFERENCE_FUNCTIONAL PBE
           EPS_CN     9.9999999999999995E-07
           CALCULATE_C9_TERM  T
           REFERENCE_C9_TERM  T
           LONG_RANGE_CORRECTION  F
           VERBOSE_OUTPUT  F
         &END PAIR_POTENTIAL
       &END VDW_POTENTIAL
     &END XC
   &END DFT
   &SUBSYS
     &CELL
       A     1.2864472766435110E+01    0.0000000000000000E+00    0.0000000000000000E+00
       B    -6.4322363581020028E+00    1.1140960178524473E+01    0.0000000000000000E+00
       C     0.0000000000000000E+00    0.0000000000000000E+00    3.2000000000000000E+01
       MULTIPLE_UNIT_CELL  1 1 1
       &CELL_REF
         A     1.2982353780853531E+01    0.0000000000000000E+00    0.0000000000000000E+00
         B    -6.4911768904267628E+00    1.1243048175136114E+01    0.0000000000000000E+00
         C     0.0000000000000000E+00    0.0000000000000000E+00    3.2000000000000000E+01
         MULTIPLE_UNIT_CELL  1 1 1
       &END CELL_REF
     &END CELL
     &COORD
N    9.3140225604525957E-03    2.0436134982112679E+00    2.5053935533674903E+00
Ga   -8.0296584029937255E-03    1.0592196583245712E-01    2.8935486252530831E+00
N    5.2605394703696788E-03    5.1338530856245186E-02    5.0589554285617924E+00
Ga   -1.0602121465558046E-02    1.8781845372629200E+00    5.8155204267063212E+00
N   -1.0111518952775461E-02    1.8934934015500740E+00    7.8143169404294834E+00
Ga    3.3576262913226828E-03    4.7359846340959355E-02    8.4586429071591009E+00
N   -1.0623328552571895E-03    4.7298864416969573E-02    1.0431194338162644E+01
Ga   -5.4159325014555048E-04    1.8885730449140381E+00    1.1074422152581656E+01
N   -3.0093664952532515E-03    1.8685502718502520E+00    1.3066713360420373E+01
Ga   -1.2439776989775900E-02    5.1195951119857183E-02    1.3860018149797723E+01
N   -1.4618198681149648E-02    5.3025405706423473E-02    1.6069507362664545E+01
Ga   -5.0529848775521767E-03    2.1097399263072725E+00    1.6494258278316305E+01
Ga    6.6526302096744178E-02    3.7857587931733665E+00    1.3860642339280118E+00
N   -1.4846580031192185E+00    4.6016837168984033E+00    2.4871906745953756E+00
Ga   -1.6599723079266926E+00    2.7645888114229384E+00    3.2409483949537803E+00
N   -1.6293342059311848E+00    2.8198333750101181E+00    5.2246786642749479E+00
Ga   -1.6317074463083487E+00    4.7027835761510550E+00    5.7758887034514217E+00
N   -1.6217178019305203E+00    4.6910338132585716E+00    7.7853410232477795E+00
Ga   -1.5957027254333405E+00    2.8475314682497075E+00    8.4574993520256889E+00
N   -1.5980447105883031E+00    2.8413941855413132E+00    1.0445028219980667E+01
Ga   -1.6240662245839432E+00    4.7022674027013656E+00    1.1067259041945073E+01
N   -1.6416340603977055E+00    4.7075993345368108E+00    1.3061558437826793E+01
Ga   -1.6013423224369776E+00    2.8388044246398261E+00    1.3621274407543604E+01
N   -1.6282548615079750E+00    2.8229555432276352E+00    1.5580054726270838E+01
Ga   -1.4339144989634052E+00    4.5844175974811030E+00    1.6494970460819395E+01
N    5.6279708763375099E-03    3.7657027491978146E+00    1.7638490447880631E+01
N   -3.2164431133139244E+00    7.6067955435928338E+00    2.5364687194245192E+00
Ga   -3.1741528785870514E+00    5.6035549778954969E+00    2.8180415513784856E+00
N   -3.2164587004007124E+00    5.6183485045087416E+00    4.9970825630335547E+00
Ga   -3.2182612205029018E+00    7.4444351048835449E+00    5.7839014808220117E+00
N   -3.2189198052404553E+00    7.4616902275568346E+00    7.7870055261109075E+00
Ga   -3.2174843222816318E+00    5.6156300203248497E+00    8.4310288486949325E+00
N   -3.2192731305933795E+00    5.6164510556654097E+00    1.0411374774164614E+01
Ga   -3.2187198722168557E+00    7.4554483313367150E+00    1.1060002373329038E+01
N   -3.2188664262289399E+00    7.4354799462759757E+00    1.3064051965698583E+01
Ga   -3.2185114761379645E+00    5.6076163836201927E+00    1.3859088873195235E+01
N   -3.2191331204467870E+00    5.6042700324682260E+00    1.6069074150757256E+01
Ga   -3.2189830895882943E+00    7.6038342896886721E+00    1.6432804232837995E+01
Ga   -3.2108196585608586E+00    9.3475870947131625E+00    1.5585062761792425E+00
N   -4.7190009663900012E+00    1.0212631223915318E+01    2.5451806037736144E+00
Ga   -4.9512444788893983E+00    8.3568673816668522E+00    3.2851540611052230E+00
N   -4.8318682719617430E+00    8.4044940125103320E+00    5.2464143153233325E+00
Ga   -4.8473323179355692E+00    1.0274503292465663E+01    5.8123366003711308E+00
N   -4.8328136426468387E+00    1.0264038290703951E+01    7.8093315659051541E+00
Ga   -4.8218097610769659E+00    8.4022696894074738E+00    8.4241485892222308E+00
N   -4.8173081922170242E+00    8.4063750302841580E+00    1.0426306977184339E+01
Ga   -4.8422322242442082E+00    1.0264019397403986E+01    1.1070008186813945E+01
N   -4.8598990137901712E+00    1.0276477230146087E+01    1.3070960789984252E+01
Ga   -4.8152703055495882E+00    8.4070048711558485E+00    1.3613617310435567E+01
N   -4.8326181629868996E+00    8.3982089177985060E+00    1.5592319064474347E+01
Ga   -4.7145239197696212E+00    1.0194089173423878E+01    1.6431833906879461E+01
N   -3.2187395218318060E+00    9.3306280100152907E+00    1.7555195521998954E+01
N    3.1998694382522577E+00    1.9214293896060473E+00    2.6443083919711761E+00
Ga    3.2080274097459496E+00    1.8010650459838745E-01    3.3156031469187459E+00
N    3.2141354562560580E+00    5.2087897582883923E-02    5.2740113715874957E+00
Ga    3.2089806704434842E+00    1.9057862489164483E+00    5.9019610627138510E+00
N    3.2162441770741856E+00    1.9021881503651268E+00    7.8738187292500914E+00
Ga    3.2139551554923735E+00    3.3339637309268408E-02    8.4505825020343401E+00
N    3.2136098607732206E+00    3.2456594193323030E-02    1.0444560282312752E+01
Ga    3.2131901035987429E+00    1.9054508706190592E+00    1.1028818944765032E+01
N    3.2135509303544718E+00    1.9010065141406125E+00    1.3003888164650935E+01
Ga    3.2135763761711469E+00    3.3589400474962429E-02    1.3613643089775644E+01
N    3.2131366370615035E+00    5.3775559137940257E-02    1.5592792551056872E+01
Ga    3.2132463749200486E+00    1.9059860100800849E+00    1.5861213273468472E+01
N    1.4761846882760370E+00    4.6049923586920718E+00    2.6091549526378328E+00
Ga    1.6639413110180938E+00    2.7842763373666948E+00    3.3202258594077345E+00
N    1.6043852537697572E+00    2.8213596721848351E+00    5.2930799580324628E+00
Ga    1.6244741956570137E+00    4.7025558344676499E+00    5.8013671452269291E+00
N    1.6142982544753439E+00    4.6951880656884777E+00    7.8041156372998977E+00
Ga    1.5940408240794026E+00    2.8418178601366519E+00    8.4410343300242499E+00
N    1.5947586687349802E+00    2.8391135614478893E+00    1.0437758398403666E+01
Ga    1.6196575294321862E+00    4.7011311785026200E+00    1.1064392641128876E+01
N    1.6372778210653507E+00    4.7084611580124891E+00    1.3062911849705472E+01
Ga    1.5935815578412424E+00    2.8404025890884381E+00    1.3622729301501424E+01
N    1.6214468854097543E+00    2.8160084379442121E+00    1.5582788989130814E+01
Ga    1.4406316163979926E+00    4.5939262332929083E+00    1.6494251186206480E+01
N    1.9725915495597011E-02    7.4849292640488434E+00    2.6069622784433877E+00
Ga    1.2315202068089646E-02    5.7215665570202727E+00    3.2817771420612347E+00
N   -5.7946443995427173E-03    5.6262253112705372E+00    5.2576640061668609E+00
Ga    2.9672562150501611E-02    7.4863290641433986E+00    5.8286602570689565E+00
N    5.9142506010824904E-03    7.4802503750915754E+00    7.8247210589825347E+00
Ga   -3.9857316144713108E-03    5.6129175379687650E+00    8.4176224493786656E+00
N   -4.4198607499216416E-03    5.6071011620183926E+00    1.0422266785658314E+01
Ga   -3.2657634950669164E-03    7.4714325767318499E+00    1.1024516233574277E+01
N   -5.6107750655654360E-03    7.4748042692550500E+00    1.3000053887682000E+01
Ga   -2.4153133269867264E-03    5.6035540303110052E+00    1.3622454851772702E+01
N   -9.2339399801568516E-03    5.6393001176697979E+00    1.5582260287704214E+01
Ga   -1.4324717200078804E-03    7.4726852206583629E+00    1.5861728379055503E+01
N   -1.7133117035662271E+00    1.0214113031922990E+01    2.5569266942380326E+00
Ga   -1.4808099514995561E+00    8.3485580746874408E+00    3.2935939438362500E+00
N   -1.6063316959784673E+00    8.4063492524781047E+00    5.2539540927924380E+00
Ga   -1.5937905300470152E+00    1.0272451863717981E+01    5.8154964746701010E+00
N   -1.6029188528087757E+00    1.0265362513735166E+01    7.8107561543652029E+00
Ga   -1.6139858029236152E+00    8.4019675758798993E+00    8.4242884684399151E+00
N   -1.6205902155894281E+00    8.4068199247058057E+00    1.0427023873333654E+01
Ga   -1.5952377596619720E+00    1.0264090252258331E+01    1.1070196682986474E+01
N   -1.5772929768566617E+00    1.0276829017902237E+01    1.3071005839207919E+01
Ga   -1.6220762562566535E+00    8.4070537636625566E+00    1.3612956449279451E+01
N   -1.6055586051678432E+00    8.3981928625872673E+00    1.5591929226586066E+01
Ga   -1.7234069508819831E+00    1.0194106904849185E+01    1.6431642199744754E+01
N    6.4250730872324464E+00    2.0314152286477132E+00    2.5400525761823256E+00
Ga    6.4406889338199411E+00    6.1138344216580508E-02    2.9194336709271922E+00
N    6.4234518574445083E+00    5.2574546401352985E-02    5.0612009067429877E+00
Ga    6.4383215066427217E+00    1.8777958336619203E+00    5.8196447811520464E+00
N    6.4372263202357116E+00    1.8950391742686929E+00    7.8118540367083718E+00
Ga    6.4251192324108848E+00    4.6998829756660032E-02    8.4597036730775734E+00
N    6.4285552784370683E+00    4.8280994003442539E-02    1.0431314442027576E+01
Ga    6.4287262141544375E+00    1.8887964436079254E+00    1.1076070241630939E+01
N    6.4302376960982235E+00    1.8687369100067170E+00    1.3067357065881252E+01
Ga    6.4395723880033930E+00    5.1032050399336677E-02    1.3860596224581771E+01
N    6.4411030310636370E+00    5.3173451059071952E-02    1.6069330744716183E+01
Ga    6.4314465218821075E+00    2.1099985875702050E+00    1.6495299571730225E+01
Ga    6.4029341723788677E+00    3.7663562647705007E+00    1.5542777202712958E+00
N    4.9353437606788120E+00    4.6132032118203536E+00    2.5688864304654873E+00
Ga    4.7147033447709896E+00    2.7687768839550131E+00    3.3293952583138715E+00
N    4.8267471504978028E+00    2.8278319050991789E+00    5.2839927145480061E+00
Ga    4.7977418086161556E+00    4.7072249667336834E+00    5.8110664578899325E+00
N    4.8164269957725114E+00    4.6946311031622177E+00    7.8049375893956459E+00
Ga    4.8334319487008974E+00    2.8410271271987035E+00    8.4464182557410066E+00
N    4.8334916890784223E+00    2.8395970285719652E+00    1.0439663952186701E+01
Ga    4.8073284999462835E+00    4.7018345989000743E+00    1.1066238689174389E+01
N    4.7902435493120548E+00    4.7084619404337031E+00    1.3063672696162481E+01
Ga    4.8332270171875553E+00    2.8401589053537806E+00    1.3623286361805878E+01
N    4.8050301385546454E+00    2.8160353868983234E+00    1.5583065641389757E+01
Ga    4.9859797128844479E+00    4.5935091113634110E+00    1.6495339704637964E+01
N    6.4205950922306974E+00    3.7653565270547369E+00    1.7640353009400652E+01
N    3.2136824839178439E+00    7.4591622197887508E+00    2.5055224753414596E+00
N    3.2183950350435970E+00    5.6010295261934759E+00    5.0475782562468501E+00
Ga    3.2155870996966049E+00    7.4628392893065918E+00    5.7456680353652168E+00
N    3.2150558997824890E+00    7.4695023568591861E+00    7.7696663092922824E+00
Ga    3.2127712727515321E+00    5.6250024509517402E+00    8.4312809364876564E+00
N    3.2142502767588801E+00    5.6191592376607087E+00    1.0413298457867061E+01
Ga    3.2138477961753211E+00    7.4518337969953654E+00    1.1076137943712729E+01
N    3.2136563142545325E+00    7.4362987582670161E+00    1.3069690288323676E+01
Ga    3.2134351907105305E+00    5.6164180906846095E+00    1.3877307056844487E+01
N    3.2132460181938836E+00    5.6169352844657778E+00    1.6070617007028133E+01
Ga    3.2130010986930100E+00    7.6644446382810099E+00    1.6493789688872805E+01
Ga    3.2223562925931355E+00    1.1192066038573254E+01    1.1819462806859933E+00
N    1.7363853723980769E+00    1.0346128225585492E+01    2.5387302132754068E+00
Ga    1.5794893371061225E+00    8.4321864472435539E+00    3.0794486238139398E+00
N    1.6204523773494395E+00    8.4197960480039438E+00    5.1462258860197414E+00
Ga    1.5466726930175485E+00    1.0232026319821170E+01    5.8450250745773173E+00
N    1.5845179832117551E+00    1.0253103891721310E+01    7.8288116268469352E+00
Ga    1.6180631756214905E+00    8.3939088628570833E+00    8.4436715849650437E+00
N    1.6183616164647996E+00    8.4031752153105703E+00    1.0437548352517746E+01
Ga    1.5930713891450703E+00    1.0264925880079574E+01    1.1067825973448407E+01
N    1.5757924631542222E+00    1.0276234211600464E+01    1.3062298437882928E+01
Ga    1.6163127414633471E+00    8.4087855146332675E+00    1.3622873631392540E+01
N    1.5818638581392921E+00    8.3967221781402106E+00    1.5582612158712422E+01
Ga    1.7847669624900857E+00    1.0157645748846146E+01    1.6495957207685766E+01
N    3.2129499817023208E+00    9.3200160210241556E+00    1.7639534780242432E+01
N    9.6619104966829159E+00    1.7362327488549885E+00    2.6382045635809592E+00
Ga    9.6563601171316975E+00    2.0514028661777241E-02    3.5916040421657915E+00
N    9.6481444869202910E+00    4.3355372088859936E-02    5.4568923968281497E+00
Ga    9.6558319802239776E+00    1.9366727820084266E+00    5.9361091305809488E+00
N    9.6461233045680874E+00    1.9143116680015184E+00    7.8907046190499504E+00
Ga    9.6471756586259687E+00    2.8993324554309887E-02    8.4351945311482890E+00
N    9.6461731415673100E+00    3.3134918475837313E-02    1.0432054241925510E+01
Ga    9.6460946076682443E+00    1.9027745174041657E+00    1.1027319152033296E+01
N    9.6453670081851168E+00    1.9027461583386118E+00    1.2998476839094627E+01
Ga    9.6457565633931495E+00    3.4204843855831807E-02    1.3622596095605189E+01
N    9.6455642626822389E+00    6.6549345826241682E-02    1.5581030532076948E+01
Ga    9.6456174036215518E+00    1.9037274063200247E+00    1.5858149148232885E+01
N    7.9426279638996320E+00    4.6071280176547109E+00    2.5215771440034396E+00
Ga    8.1460783794186522E+00    2.7371518518529028E+00    3.2703469520102533E+00
N    8.0588481577405169E+00    2.8193665176382301E+00    5.2301353120887830E+00
Ga    8.0671892619354733E+00    4.7081490318273049E+00    5.7739434815256052E+00
N    8.0477407136653447E+00    4.6923149874680758E+00    7.7796147090874310E+00
Ga    8.0253635580171956E+00    2.8478266382861164E+00    8.4562327090444889E+00
N    8.0251362071385728E+00    2.8419172035511560E+00    1.0443053520766336E+01
Ga    8.0518838279685632E+00    4.7020217450359993E+00    1.1068722537769867E+01
N    8.0683944759981951E+00    4.7073847899284198E+00    1.3062149491962277E+01
Ga    8.0283881724012769E+00    2.8388273231675658E+00    1.3622577518707187E+01
N    8.0548991153691745E+00    2.8229586190694032E+00    1.5581030507453040E+01
Ga    7.8598858074934146E+00    4.5841553001270086E+00    1.6496421662384261E+01
N    6.4098777055177267E+00    7.4990902380050422E+00    2.5748919846046840E+00
Ga    6.4113552708851396E+00    5.7649936265929504E+00    3.2843693951065855E+00
N    6.4305965862878987E+00    5.6222121781731058E+00    5.2411552430858004E+00
Ga    6.3978358204550512E+00    7.4921213498464541E+00    5.8276823951396510E+00
N    6.4222628168842180E+00    7.4777400907296210E+00    7.8198257409534042E+00
Ga    6.4331814999747676E+00    5.6131214357549952E+00    8.4216869390163431E+00
N    6.4321572139059944E+00    5.6071823331669499E+00    1.0422703928573087E+01
Ga    6.4309380841338601E+00    7.4718253925055853E+00    1.1026125165134800E+01
N    6.4326416215353390E+00    7.4746183003036233E+00    1.3000805210310588E+01
Ga    6.4296566601492611E+00    5.6035442678795144E+00    1.3623829071063735E+01
N    6.4356442719717641E+00    5.6393145256363768E+00    1.5583199207887244E+01
Ga    6.4278702457012029E+00    7.4726487603470417E+00    1.5862619741683542E+01
N    4.7012087424062265E+00    1.0348925856358603E+01    2.5286302440850337E+00
Ga    4.8446282616847762E+00    8.4406643364814897E+00    3.0669490042748353E+00
N    4.8099175103216885E+00    8.4190251881715366E+00    5.1362204871825927E+00
Ga    4.8889100113909372E+00    1.0232853964703228E+01    5.8420311397683751E+00
N    4.8442466920427698E+00    1.0250989959261497E+01    7.8275359365590065E+00
Ga    4.8098671327371703E+00    8.3938269332038082E+00    8.4440980760530291E+00
N    4.8101339005865258E+00    8.4025023502264382E+00    1.0437212191977521E+01
Ga    4.8347921695708695E+00    1.0264793771958075E+01    1.1067727838280817E+01
N    4.8511437115936769E+00    1.0276013730342607E+01    1.3062303293878200E+01
Ga    4.8105262285734689E+00    8.4089057503972917E+00    1.3623458152202096E+01
N    4.8446295109601332E+00    8.3966266638977167E+00    1.5583071493644388E+01
Ga    4.6415304412104188E+00    1.0157522922461979E+01    1.6496223488330891E+01
O    5.7498584062698521E-01    3.8751050033667096E+00   -3.8340885302236294E-01
H    3.1853502326795207E+00    7.4646217526049998E+00    1.4753068260703779E+00
C    1.1103786340699660E+00    2.6460019478605186E+00   -9.1725150761541130E-01
H    1.9098003529891354E+00    2.2275879380528698E+00   -2.8164195832106625E-01
H    3.2680244589072210E-01    1.8817857385775143E+00   -1.0381430106820551E+00
H    1.5281710487488418E+00    2.8723173348859903E+00   -1.9090881472344032E+00
Ga    3.1714656673341777E+00    5.5262393641400260E+00    2.9076992182753187E+00
O    2.8778588867385602E+00    5.6540970926928109E+00    1.7544909968263463E-02
H    2.0788536740720067E+00    5.0881622692012742E+00   -1.2693921604922279E-01
C    3.9332447133867752E+00    5.1682736496556743E+00   -8.1022013052021880E-01
H    3.6712445492411474E+00    5.2032396865729877E+00   -1.8795589342079537E+00
H    4.8042896143916352E+00    5.8163037043923760E+00   -6.4220315804708150E-01
H    4.2118796744484550E+00    4.1283164186376045E+00   -5.5310155115437154E-01
     &END COORD
     &KIND C
       BASIS_SET DZVP-MOLOPT-SR-GTH-q4
       POTENTIAL GTH-PBE-q4
       &POTENTIAL
 2 2
  0.3384712400000000E+00 2 -0.8803673979999999E+01  0.1339210850000000E+01
 2
  0.3025757500000000E+00 1  0.9622486650000001E+01
  0.2915069400000000E+00 0
         # Potential name:  GTH-PBE-Q4  for symbol:  C
         # Potential read from the potential filename: GTH_POTENTIALS
       &END POTENTIAL
     &END KIND
     &KIND O
       BASIS_SET DZVP-MOLOPT-SR-GTH-q6
       POTENTIAL GTH-PBE-q6
       &POTENTIAL
 2 4
  0.2445543000000000E+00 2 -0.1666721480000000E+02  0.2487311320000000E+01
 2
  0.2209559200000000E+00 1  0.1833745811000000E+02
  0.2113324700000000E+00 0
         # Potential name:  GTH-PBE-Q6  for symbol:  O
         # Potential read from the potential filename: GTH_POTENTIALS
       &END POTENTIAL
     &END KIND
     &KIND H
       BASIS_SET DZVP-MOLOPT-SR-GTH-q1
       POTENTIAL GTH-PBE-q1
       &POTENTIAL
 1
  0.2000000000000000E+00 2 -0.4178900440000000E+01  0.7244633100000000E+00
 0
         # Potential name:  GTH-PBE-Q1  for symbol:  H
         # Potential read from the potential filename: GTH_POTENTIALS
       &END POTENTIAL
     &END KIND
     &KIND N
       BASIS_SET DZVP-MOLOPT-SR-GTH
       POTENTIAL GTH-PBE-q5
       &POTENTIAL
 2 3
  0.2837905100000000E+00 2 -0.1241522559000000E+02  0.1868095920000000E+01
 2
  0.2554050000000000E+00 1  0.1363026257000000E+02
  0.2454945300000000E+00 0
         # Potential name:  GTH-PBE-Q5  for symbol:  N
         # Potential read from the potential filename: GTH_POTENTIALS
       &END POTENTIAL
     &END KIND
     &KIND Ga
       BASIS_SET DZVP-MOLOPT-SR-GTH
       POTENTIAL GTH-PBE-q13
       &POTENTIAL
 2 1 10
  0.4900000000000000E+00 0
 3
  0.4167772300000000E+00 3  0.1047568975000000E+02 -0.4921768140000000E+01  0.8707055900000000E+00
  0.7770178090000000E+01 -0.2248152160000000E+01
  0.1784415450000000E+01
  0.5696265200000000E+00 2  0.1777985340000000E+01  0.1958597600000000E+00
 -0.2317443900000000E+00
  0.2381265000000000E+00 1 -0.1624868022000000E+02
         # Potential name:  GTH-PBE-Q13  for symbol:  GA
         # Potential read from the potential filename: GTH_POTENTIALS
       &END POTENTIAL
     &END KIND
     &TOPOLOGY
       NUMBER_OF_ATOMS  212
       MULTIPLE_UNIT_CELL  1 1 1
     &END TOPOLOGY
   &END SUBSYS
 &END FORCE_EVAL
