 # Version information for this restart file 
 # current date 2019-06-30 12:13:30.540
 # current working dir /scratch/rzk/rzk/GaN-carbene/443-adatoms-both-2x2/05-2DissMethanol/02-0501-MoveHToNTop
 # Program compiled at                              Sun Apr  7 00:48:11 EDT 2019
 # Program compiled on                          beluga2.int.ets1.calculquebec.ca
 # Program compiled for                        Beluga-Linux-x86-64-intel-openmpi
 # Source code revision number                                         svn:18619
 &GLOBAL
   PRINT_LEVEL  MEDIUM
   PROJECT_NAME TEST
   RUN_TYPE  GEO_OPT
 &END GLOBAL
 &MOTION
   &GEO_OPT
     MAX_ITER  500
     STEP_START_VAL  62
   &END GEO_OPT
 &END MOTION
 &FORCE_EVAL
   METHOD  QS
   STRESS_TENSOR  ANALYTICAL
   &DFT
     BASIS_SET_FILE_NAME BASIS_MOLOPT
     POTENTIAL_FILE_NAME GTH_POTENTIALS
     UKS  T
     SURFACE_DIPOLE_CORRECTION  T
     SURF_DIP_DIR  Z
     &SCF
       MAX_SCF  80
       EPS_SCF     5.0000000000000004E-06
       &OT  T
         PRECONDITIONER  FULL_ALL
       &END OT
       &OUTER_SCF  T
         OPTIMIZER  NONE
         EPS_SCF     5.0000000000000004E-06
         MAX_SCF  4
       &END OUTER_SCF
       &PRINT
         &RESTART  OFF
           BACKUP_COPIES  1
           &EACH
             JUST_ENERGY  0
             QS_SCF  0
             MD  20
           &END EACH
         &END RESTART
       &END PRINT
     &END SCF
     &QS
       EPS_DEFAULT     1.0000000000000000E-14
       METHOD  GPW
     &END QS
     &MGRID
       NGRIDS  5
       CUTOFF     1.2000000000000000E+03
     &END MGRID
     &XC
       DENSITY_CUTOFF     1.0000000000000000E-10
       GRADIENT_CUTOFF     1.0000000000000000E-10
       TAU_CUTOFF     1.0000000000000000E-10
       &XC_FUNCTIONAL  NO_SHORTCUT
         &PBE  T
         &END PBE
       &END XC_FUNCTIONAL
       &VDW_POTENTIAL
         POTENTIAL_TYPE  PAIR_POTENTIAL
         &PAIR_POTENTIAL
           R_CUTOFF     1.0000000000000004E+01
           TYPE  DFTD3
           PARAMETER_FILE_NAME dftd3.dat
           REFERENCE_FUNCTIONAL PBE
           EPS_CN     9.9999999999999995E-07
           CALCULATE_C9_TERM  T
           REFERENCE_C9_TERM  T
           LONG_RANGE_CORRECTION  F
           VERBOSE_OUTPUT  F
         &END PAIR_POTENTIAL
       &END VDW_POTENTIAL
     &END XC
   &END DFT
   &SUBSYS
     &CELL
       A     1.2864472766435110E+01    0.0000000000000000E+00    0.0000000000000000E+00
       B    -6.4322363581020028E+00    1.1140960178524473E+01    0.0000000000000000E+00
       C     0.0000000000000000E+00    0.0000000000000000E+00    3.2000000000000000E+01
       MULTIPLE_UNIT_CELL  1 1 1
       &CELL_REF
         A     1.2982353780853531E+01    0.0000000000000000E+00    0.0000000000000000E+00
         B    -6.4911768904267628E+00    1.1243048175136114E+01    0.0000000000000000E+00
         C     0.0000000000000000E+00    0.0000000000000000E+00    3.2000000000000000E+01
         MULTIPLE_UNIT_CELL  1 1 1
       &END CELL_REF
     &END CELL
     &COORD
N    9.4759810021667525E-03    2.0437508086718270E+00    2.5051206477253825E+00
Ga   -7.7557088206028123E-03    1.0611395817396056E-01    2.8935226498435878E+00
N    5.6393679562998129E-03    5.1325878894853537E-02    5.0588148877978680E+00
Ga   -1.0232095736041594E-02    1.8783096284687608E+00    5.8154637876224733E+00
N   -9.7568219298233526E-03    1.8936201206616459E+00    7.8143087070196584E+00
Ga    3.6742915931017367E-03    4.7452013646201288E-02    8.4586454614046147E+00
N   -7.3379920446901587E-04    4.7494496462807664E-02    1.0431176433728552E+01
Ga   -2.6391817363184103E-04    1.8887905358659793E+00    1.1074405746234344E+01
N   -2.6936542719935416E-03    1.8688610464931994E+00    1.3066629153746236E+01
Ga   -1.2156782697840532E-02    5.1561365365835617E-02    1.3860240947124346E+01
N   -1.4401454700456538E-02    5.3656016310903366E-02    1.6069271240518166E+01
Ga   -4.7448132310675163E-03    2.1102615103247286E+00    1.6494059707952150E+01
Ga    6.6553180310662999E-02    3.7858988884712304E+00    1.3860792159483555E+00
N   -1.4844962928720216E+00    4.6018535261170026E+00    2.4870251694233918E+00
Ga   -1.6597084321002382E+00    2.7648399240097192E+00    3.2410523171174557E+00
N   -1.6290144792575412E+00    2.8201100220353132E+00    5.2247044588754692E+00
Ga   -1.6315131456769583E+00    4.7030930247766234E+00    5.7758876280498006E+00
N   -1.6214379132733534E+00    4.6912346392723174E+00    7.7852951389483156E+00
Ga   -1.5953711347041439E+00    2.8477099526042782E+00    8.4573912879630715E+00
N   -1.5977646268344539E+00    2.8416052585313216E+00    1.0444906275630117E+01
Ga   -1.6238119150383836E+00    4.7024594881012662E+00    1.1067226940842318E+01
N   -1.6413534083279839E+00    4.7079326695633599E+00    1.3061463661587045E+01
Ga   -1.6009896171403437E+00    2.8391583015668598E+00    1.3621218512702466E+01
N   -1.6279844993380714E+00    2.8233619637762439E+00    1.5580003577973738E+01
Ga   -1.4335414681235044E+00    4.5848134771193951E+00    1.6494738400362863E+01
N    6.0215449633973196E-03    3.7662026450899089E+00    1.7638584536109359E+01
N   -3.2161846557241538E+00    7.6068672355334268E+00    2.5363337799819754E+00
Ga   -3.1739523038459878E+00    5.6037445366613436E+00    2.8182581318997229E+00
N   -3.2162738700514728E+00    5.6185354199879232E+00    4.9969102309465212E+00
Ga   -3.2179141015460169E+00    7.4446608054283772E+00    5.7836400492427122E+00
N   -3.2186027279621658E+00    7.4617694594346053E+00    7.7867206251964616E+00
Ga   -3.2172575357433200E+00    5.6157294400705355E+00    8.4310271317136856E+00
N   -3.2190133926017270E+00    5.6166145104773157E+00    1.0411289904408740E+01
Ga   -3.2184428971250383E+00    7.4556538360115274E+00    1.1059870671483113E+01
N   -3.2186110422581140E+00    7.4356762306219180E+00    1.3063917943154614E+01
Ga   -3.2182579380981919E+00    5.6079207235580828E+00    1.3859239917569779E+01
N   -3.2186988813869428E+00    5.6045075180833619E+00    1.6069094733912777E+01
Ga   -3.2186333810479484E+00    7.6040275097676604E+00    1.6432897126506642E+01
Ga   -3.2104056403465155E+00    9.3475414430108081E+00    1.5589619116736537E+00
N   -4.7187574765525655E+00    1.0212753639969170E+01    2.5450323589224060E+00
Ga   -4.9508518089150737E+00    8.3568668770163175E+00    3.2850697537913325E+00
N   -4.8315537741555463E+00    8.4045917561233185E+00    5.2461828600761198E+00
Ga   -4.8467518663094200E+00    1.0274526911968271E+01    5.8121706821943802E+00
N   -4.8324885451666653E+00    1.0264087734200192E+01    7.8091161732123151E+00
Ga   -4.8214695383930488E+00    8.4023529532305012E+00    8.4239909184689470E+00
N   -4.8169784530042108E+00    8.4065669394583296E+00    1.0426081896065677E+01
Ga   -4.8418801609453919E+00    1.0264176058594982E+01    1.1069886021035765E+01
N   -4.8597327611143211E+00    1.0276884586539264E+01    1.3070816363620416E+01
Ga   -4.8148821296165742E+00    8.4074265192345390E+00    1.3613753722162123E+01
N   -4.8321541416921772E+00    8.3987086767059349E+00    1.5592592682087796E+01
Ga   -4.7143903807748293E+00    1.0194664610217281E+01    1.6431955839116881E+01
N   -3.2183105314947529E+00    9.3311471929604384E+00    1.7554980190368216E+01
N    3.2000913802455861E+00    1.9217268389760276E+00    2.6442886172106235E+00
Ga    3.2083563257459651E+00    1.8035589800195900E-01    3.3152526284578165E+00
N    3.2145058734959910E+00    5.2287707084903969E-02    5.2735905960714664E+00
Ga    3.2092993515678669E+00    1.9058705331007255E+00    5.9019943636935990E+00
N    3.2164888365234154E+00    1.9022425953373852E+00    7.8737966981764762E+00
Ga    3.2142603634164417E+00    3.3358028997589398E-02    8.4503494038672855E+00
N    3.2138905736123045E+00    3.2626901715358821E-02    1.0444314872104368E+01
Ga    3.2134487142868142E+00    1.9055621740334832E+00    1.1028917703161328E+01
N    3.2138724949879349E+00    1.9013427041059567E+00    1.3003963676606309E+01
Ga    3.2138012340564215E+00    3.3878383236174606E-02    1.3613791031809496E+01
N    3.2134411191285803E+00    5.4060477657814625E-02    1.5593032581560831E+01
Ga    3.2135833746383615E+00    1.9063873293605262E+00    1.5861211916640777E+01
N    1.4765430638033736E+00    4.6051657873811989E+00    2.6089397645169257E+00
Ga    1.6640939383887794E+00    2.7844470557033598E+00    3.3200812128310409E+00
N    1.6047469742914013E+00    2.8215214712236314E+00    5.2929098452934147E+00
Ga    1.6248393216737322E+00    4.7026263638204728E+00    5.8015981537084720E+00
N    1.6145862723272943E+00    4.6953933173904367E+00    7.8042131588794472E+00
Ga    1.5943561780903850E+00    2.8419491699767825E+00    8.4410819105857104E+00
N    1.5950594453975928E+00    2.8393128717766816E+00    1.0437697557373301E+01
Ga    1.6198547770954668E+00    4.7013499770192420E+00    1.1064377437299370E+01
N    1.6375970217028206E+00    4.7088367378049476E+00    1.3062858742946728E+01
Ga    1.5938666400576937E+00    2.8407725299102498E+00    1.3622636250998873E+01
N    1.6217689468905965E+00    2.8164781927754357E+00    1.5582700617559105E+01
Ga    1.4409681889520605E+00    4.5944017244044586E+00    1.6494039444186363E+01
N    2.0161552303310140E-02    7.4848782310840472E+00    2.6078960510635385E+00
Ga    1.2571263089744829E-02    5.7211848359744986E+00    3.2818330510987748E+00
N   -5.4198710137418624E-03    5.6264167060975723E+00    5.2576600539286469E+00
Ga    2.9888568830687363E-02    7.4865168524806718E+00    5.8288128447640100E+00
N    6.2062957675513329E-03    7.4803719612898618E+00    7.8248295358992905E+00
Ga   -3.7808251213795104E-03    5.6130735765623516E+00    8.4177036572455499E+00
N   -4.1916654390462323E-03    5.6073067864836901E+00    1.0422205778452392E+01
Ga   -3.1145711994938563E-03    7.4716897783397531E+00    1.1024492387672364E+01
N   -5.4113766163733819E-03    7.4751795395242837E+00    1.3000073847462561E+01
Ga   -2.1284342794062341E-03    5.6038750561007369E+00    1.3622324992821909E+01
N   -8.9291140225493948E-03    5.6398096787906811E+00    1.5582172451645954E+01
Ga   -1.1331251617138188E-03    7.4732160328779864E+00    1.5861617589121161E+01
N   -1.7128235543630395E+00    1.0214366169125702E+01    2.5566474966341781E+00
Ga   -1.4808292614901817E+00    8.3487965664148263E+00    3.2933967122521386E+00
N   -1.6058939365797811E+00    8.4064696202586457E+00    5.2535846818660117E+00
Ga   -1.5935690370190032E+00    1.0272573232858793E+01    5.8151986976689756E+00
N   -1.6026395026160842E+00    1.0265379535052299E+01    7.8104246197134239E+00
Ga   -1.6137700551127390E+00    8.4020660865190511E+00    8.4241628514480951E+00
N   -1.6203903058211930E+00    8.4070302165377218E+00    1.0426812793209709E+01
Ga   -1.5950381132414175E+00    1.0264246583239201E+01    1.1070116947381278E+01
N   -1.5769909305215655E+00    1.0277220770598994E+01    1.3070967249146644E+01
Ga   -1.6219447103605766E+00    8.4074437764578764E+00    1.3613072811492261E+01
N   -1.6053882738790539E+00    8.3986744385423773E+00    1.5592178059098451E+01
Ga   -1.7227919562629133E+00    1.0194705852199874E+01    1.6431717747547523E+01
N    6.4253583128441818E+00    2.0314951475363636E+00    2.5395899516782143E+00
Ga    6.4410611083354103E+00    6.1272543155243039E-02    2.9191812404428910E+00
N    6.4237179722714384E+00    5.2648739570426262E-02    5.0608675747512128E+00
Ga    6.4384853823089738E+00    1.8778345228636224E+00    5.8195195866034828E+00
N    6.4373991314869956E+00    1.8951033409421871E+00    7.8117629666096180E+00
Ga    6.4253606775107999E+00    4.7086228058407814E-02    8.4596446720813603E+00
N    6.4287663919774527E+00    4.8457279323381140E-02    1.0431212597390163E+01
Ga    6.4289437524696993E+00    1.8889896884186643E+00    1.1076072560007322E+01
N    6.4304857493636254E+00    1.8690924433394318E+00    1.3067273409023056E+01
Ga    6.4398744174064069E+00    5.1452833578995980E-02    1.3860857895056329E+01
N    6.4415291809761408E+00    5.3683926449934131E-02    1.6069232727946332E+01
Ga    6.4318166108968367E+00    2.1105815075859624E+00    1.6495720156967675E+01
Ga    6.4030384788389876E+00    3.7666757975203624E+00    1.5543632952503077E+00
N    4.9356324514446319E+00    4.6133344835465575E+00    2.5691704948641578E+00
Ga    4.7149221065797899E+00    2.7688182505471390E+00    3.3294110006810467E+00
N    4.8269680670061028E+00    2.8279623285320232E+00    5.2838599418556225E+00
Ga    4.7979777454878336E+00    4.7073056784381464E+00    5.8111266766248226E+00
N    4.8166080701399760E+00    4.6948362045021330E+00    7.8049476240129625E+00
Ga    4.8336498327698960E+00    2.8411681989027762E+00    8.4463135692374927E+00
N    4.8336846209859825E+00    2.8397837436802673E+00    1.0439548756963816E+01
Ga    4.8076037697823129E+00    4.7020375699645944E+00    1.1066184125125689E+01
N    4.7904420639952887E+00    4.7088536717867759E+00    1.3063506538214314E+01
Ga    4.8335643597856404E+00    2.8406092114267500E+00    1.3623365298869276E+01
N    4.8053649037902710E+00    2.8165277195356273E+00    1.5583121379592608E+01
Ga    4.9863161136022454E+00    4.5939498571154633E+00    1.6495768668469324E+01
N    6.4209187404081423E+00    3.7658607500541694E+00    1.7640429059990797E+01
N    3.2139836273309985E+00    7.4590856247918902E+00    2.5057854514870330E+00
N    3.2186414420505365E+00    5.6011127242519585E+00    5.0476816386292835E+00
Ga    3.2159242305464946E+00    7.4628672306491586E+00    5.7458416230231570E+00
N    3.2153452886289382E+00    7.4696033464147842E+00    7.7697060617988836E+00
Ga    3.2130408667506600E+00    5.6251685861056959E+00    8.4314876467734745E+00
N    3.2144668094254651E+00    5.6194332160870513E+00    1.0413341747162162E+01
Ga    3.2141078170369983E+00    7.4521902906652917E+00    1.1076056719965043E+01
N    3.2139428348483232E+00    7.4366502515594490E+00    1.3069525126631749E+01
Ga    3.2137633915407742E+00    5.6168215395115215E+00    1.3877322926417609E+01
N    3.2134347320364047E+00    5.6173568802089155E+00    1.6070364206277691E+01
Ga    3.2132992200343171E+00    7.6648571526479552E+00    1.6493867334641426E+01
Ga    3.2229295840954788E+00    1.1192046089464524E+01    1.1823187607733756E+00
N    1.7366388310843230E+00    1.0346251381959300E+01    2.5385253559660201E+00
Ga    1.5802671366924430E+00    8.4323028011385652E+00    3.0794425766139386E+00
N    1.6208174855323938E+00    8.4197036267924776E+00    5.1460421206198683E+00
Ga    1.5467813843605722E+00    1.0232041646971442E+01    5.8448259695097748E+00
N    1.5847555780946703E+00    1.0253180651412153E+01    7.8285568684353164E+00
Ga    1.6183288989952482E+00    8.3940840561490102E+00    8.4436617955886373E+00
N    1.6185751201197198E+00    8.4034241656055908E+00    1.0437437864705155E+01
Ga    1.5933082477188583E+00    1.0265188390612630E+01    1.1067806109543003E+01
N    1.5760804533497059E+00    1.0276616103863290E+01    1.3062232636963056E+01
Ga    1.6166111628827915E+00    8.4091606558375798E+00    1.3622854124945148E+01
N    1.5822522898001417E+00    8.3972067965637933E+00    1.5582580375296866E+01
Ga    1.7851378271986154E+00    1.0158104231640591E+01    1.6496003857352445E+01
N    3.2133020291409067E+00    9.3204692099408035E+00    1.7640289611369898E+01
N    9.6621370279568417E+00    1.7362310717327680E+00    2.6384124552391244E+00
Ga    9.6566146243979478E+00    2.0477140106038367E-02    3.5919544322328183E+00
N    9.6484070502096682E+00    4.3440456261365688E-02    5.4571044757129528E+00
Ga    9.6559977138820940E+00    1.9369667853069819E+00    5.9361899103597109E+00
N    9.6463674899988270E+00    1.9145158338950115E+00    7.8907764954221653E+00
Ga    9.6474328617194107E+00    2.9092379587174682E-02    8.4349737218794019E+00
N    9.6464185296888196E+00    3.3345545763900732E-02    1.0431867303351357E+01
Ga    9.6463179970446919E+00    1.9030312226280741E+00    1.1027324133759482E+01
N    9.6456371801654779E+00    1.9031594571923207E+00    1.2998444019961632E+01
Ga    9.6460704451684762E+00    3.4590722365100628E-02    1.3622637070653893E+01
N    9.6458980275196975E+00    6.6890130032894027E-02    1.5581041299196196E+01
Ga    9.6458899196556764E+00    1.9040999919674930E+00    1.5858331674909751E+01
N    7.9427949807298655E+00    4.6074149043220078E+00    2.5214211469168113E+00
Ga    8.1463403083987878E+00    2.7375575169542898E+00    3.2702722869437482E+00
N    8.0589533163210181E+00    2.8196180708605669E+00    5.2300517436505709E+00
Ga    8.0673802806805810E+00    4.7083872900492745E+00    5.7739005162604604E+00
N    8.0479868532684389E+00    4.6924956984353114E+00    7.7795553175362144E+00
Ga    8.0254967444890308E+00    2.8480078150864281E+00    8.4560851376851929E+00
N    8.0253264609547603E+00    2.8421180417535021E+00    1.0442917137323239E+01
Ga    8.0521250002025617E+00    4.7021996720201225E+00    1.1068704420934422E+01
N    8.0687062950249331E+00    4.7077364990304806E+00    1.3062007169744415E+01
Ga    8.0285686201355855E+00    2.8392294624746017E+00    1.3622701064483454E+01
N    8.0552460250488682E+00    2.8233988276319808E+00    1.5581120459891748E+01
Ga    7.8601806187555461E+00    4.5844966117963457E+00    1.6496843499561560E+01
N    6.4101538433973735E+00    7.4992011743499623E+00    2.5752680224809823E+00
Ga    6.4116831118315547E+00    5.7652181118881591E+00    3.2845284196147753E+00
N    6.4307526270885180E+00    5.6223440235212925E+00    5.2411775228905384E+00
Ga    6.3982568835282168E+00    7.4922125081085289E+00    5.8276555965259993E+00
N    6.4225677709072517E+00    7.4778640351667400E+00    7.8197864100469472E+00
Ga    6.4334544494357386E+00    5.6132623073049208E+00    8.4216307986892716E+00
N    6.4324113469044768E+00    5.6073959456672915E+00    1.0422578387677039E+01
Ga    6.4312811413684923E+00    7.4720752181581682E+00    1.1026138767147724E+01
N    6.4329676952673154E+00    7.4749227046352411E+00    1.3000817332701123E+01
Ga    6.4299160393134489E+00    5.6037582241772874E+00    1.3623894530199895E+01
N    6.4359769524725108E+00    5.6396999611562952E+00    1.5583294458248016E+01
Ga    6.4281475281458116E+00    7.4731243861442191E+00    1.5862517929391425E+01
N    4.7016632795779847E+00    1.0349023046472935E+01    2.5287551656807028E+00
Ga    4.8447306822152827E+00    8.4404893279402078E+00    3.0671373656599887E+00
N    4.8101734921088974E+00    8.4190107508786500E+00    5.1362570398890801E+00
Ga    4.8892749718851736E+00    1.0232891803707798E+01    5.8419752885105414E+00
N    4.8445581976921153E+00    1.0251080261588271E+01    7.8274082055513059E+00
Ga    4.8102098569713254E+00    8.3939773993454132E+00    8.4440231546154898E+00
N    4.8104455655652503E+00    8.4027625198492331E+00    1.0437047046481009E+01
Ga    4.8350607242835988E+00    1.0265055374320198E+01    1.1067680677562953E+01
N    4.8514875413300356E+00    1.0276422336805208E+01    1.3062162159812125E+01
Ga    4.8107941863112833E+00    8.4093132627573972E+00    1.3623480843940291E+01
N    4.8447993664939393E+00    8.3971767623708313E+00    1.5583092223992795E+01
Ga    4.6418273908526357E+00    1.0158042306342869E+01    1.6496310938618766E+01
O    5.7337381554751943E-01    3.8749643014789337E+00   -3.8369009886866356E-01
H    3.1860543832433041E+00    7.4636556863091332E+00    1.4757016294862106E+00
C    1.1096733518603239E+00    2.6460702170058101E+00   -9.1729892690339410E-01
H    1.9105580157594719E+00    2.2290014544056569E+00   -2.8286276851503306E-01
H    3.2721112942357267E-01    1.8804726091729027E+00   -1.0366272972878490E+00
H    1.5257251467656987E+00    2.8720525880893035E+00   -1.9099019915079294E+00
Ga    3.1718683257269618E+00    5.5260446511152992E+00    2.9086115094536100E+00
O    2.8780659377668303E+00    5.6538182743952543E+00    1.6113133821205095E-02
H    2.0784399119971355E+00    5.0885885633080710E+00   -1.2668167522805104E-01
C    3.9326324654845850E+00    5.1637391381576858E+00   -8.1062572153263179E-01
H    3.6704185645649852E+00    5.1959033093914924E+00   -1.8800170331460815E+00
H    4.8043598019651048E+00    5.8110982278003256E+00   -6.4489729107532212E-01
H    4.2101280267762009E+00    4.1243511343429899E+00   -5.5034113961474262E-01
     &END COORD
     &KIND C
       BASIS_SET DZVP-MOLOPT-SR-GTH-q4
       POTENTIAL GTH-PBE-q4
       &POTENTIAL
 2 2
  0.3384712400000000E+00 2 -0.8803673979999999E+01  0.1339210850000000E+01
 2
  0.3025757500000000E+00 1  0.9622486650000001E+01
  0.2915069400000000E+00 0
         # Potential name:  GTH-PBE-Q4  for symbol:  C
         # Potential read from the potential filename: GTH_POTENTIALS
       &END POTENTIAL
     &END KIND
     &KIND O
       BASIS_SET DZVP-MOLOPT-SR-GTH-q6
       POTENTIAL GTH-PBE-q6
       &POTENTIAL
 2 4
  0.2445543000000000E+00 2 -0.1666721480000000E+02  0.2487311320000000E+01
 2
  0.2209559200000000E+00 1  0.1833745811000000E+02
  0.2113324700000000E+00 0
         # Potential name:  GTH-PBE-Q6  for symbol:  O
         # Potential read from the potential filename: GTH_POTENTIALS
       &END POTENTIAL
     &END KIND
     &KIND H
       BASIS_SET DZVP-MOLOPT-SR-GTH-q1
       POTENTIAL GTH-PBE-q1
       &POTENTIAL
 1
  0.2000000000000000E+00 2 -0.4178900440000000E+01  0.7244633100000000E+00
 0
         # Potential name:  GTH-PBE-Q1  for symbol:  H
         # Potential read from the potential filename: GTH_POTENTIALS
       &END POTENTIAL
     &END KIND
     &KIND N
       BASIS_SET DZVP-MOLOPT-SR-GTH
       POTENTIAL GTH-PBE-q5
       &POTENTIAL
 2 3
  0.2837905100000000E+00 2 -0.1241522559000000E+02  0.1868095920000000E+01
 2
  0.2554050000000000E+00 1  0.1363026257000000E+02
  0.2454945300000000E+00 0
         # Potential name:  GTH-PBE-Q5  for symbol:  N
         # Potential read from the potential filename: GTH_POTENTIALS
       &END POTENTIAL
     &END KIND
     &KIND Ga
       BASIS_SET DZVP-MOLOPT-SR-GTH
       POTENTIAL GTH-PBE-q13
       &POTENTIAL
 2 1 10
  0.4900000000000000E+00 0
 3
  0.4167772300000000E+00 3  0.1047568975000000E+02 -0.4921768140000000E+01  0.8707055900000000E+00
  0.7770178090000000E+01 -0.2248152160000000E+01
  0.1784415450000000E+01
  0.5696265200000000E+00 2  0.1777985340000000E+01  0.1958597600000000E+00
 -0.2317443900000000E+00
  0.2381265000000000E+00 1 -0.1624868022000000E+02
         # Potential name:  GTH-PBE-Q13  for symbol:  GA
         # Potential read from the potential filename: GTH_POTENTIALS
       &END POTENTIAL
     &END KIND
     &TOPOLOGY
       NUMBER_OF_ATOMS  212
       MULTIPLE_UNIT_CELL  1 1 1
     &END TOPOLOGY
   &END SUBSYS
 &END FORCE_EVAL
