 # Version information for this restart file 
 # current date 2019-06-30 09:31:38.365
 # current working dir /scratch/rzk/rzk/GaN-carbene/443-adatoms-both-2x2/05-2DissMethanol/02-0501-MoveHToNTop
 # Program compiled at                              Sun Apr  7 00:48:11 EDT 2019
 # Program compiled on                          beluga2.int.ets1.calculquebec.ca
 # Program compiled for                        Beluga-Linux-x86-64-intel-openmpi
 # Source code revision number                                         svn:18619
 &GLOBAL
   PRINT_LEVEL  MEDIUM
   PROJECT_NAME TEST
   RUN_TYPE  GEO_OPT
 &END GLOBAL
 &MOTION
   &GEO_OPT
     MAX_ITER  500
     STEP_START_VAL  5
   &END GEO_OPT
 &END MOTION
 &FORCE_EVAL
   METHOD  QS
   STRESS_TENSOR  ANALYTICAL
   &DFT
     BASIS_SET_FILE_NAME BASIS_MOLOPT
     POTENTIAL_FILE_NAME GTH_POTENTIALS
     UKS  T
     SURFACE_DIPOLE_CORRECTION  T
     SURF_DIP_DIR  Z
     &SCF
       MAX_SCF  80
       EPS_SCF     5.0000000000000004E-06
       &OT  T
         PRECONDITIONER  FULL_ALL
       &END OT
       &OUTER_SCF  T
         OPTIMIZER  NONE
         EPS_SCF     5.0000000000000004E-06
         MAX_SCF  4
       &END OUTER_SCF
       &PRINT
         &RESTART  OFF
           BACKUP_COPIES  1
           &EACH
             JUST_ENERGY  0
             QS_SCF  0
             MD  20
           &END EACH
         &END RESTART
       &END PRINT
     &END SCF
     &QS
       EPS_DEFAULT     1.0000000000000000E-14
       METHOD  GPW
     &END QS
     &MGRID
       NGRIDS  5
       CUTOFF     1.2000000000000000E+03
     &END MGRID
     &XC
       DENSITY_CUTOFF     1.0000000000000000E-10
       GRADIENT_CUTOFF     1.0000000000000000E-10
       TAU_CUTOFF     1.0000000000000000E-10
       &XC_FUNCTIONAL  NO_SHORTCUT
         &PBE  T
         &END PBE
       &END XC_FUNCTIONAL
       &VDW_POTENTIAL
         POTENTIAL_TYPE  PAIR_POTENTIAL
         &PAIR_POTENTIAL
           R_CUTOFF     1.0000000000000004E+01
           TYPE  DFTD3
           PARAMETER_FILE_NAME dftd3.dat
           REFERENCE_FUNCTIONAL PBE
           EPS_CN     9.9999999999999995E-07
           CALCULATE_C9_TERM  T
           REFERENCE_C9_TERM  T
           LONG_RANGE_CORRECTION  F
           VERBOSE_OUTPUT  F
         &END PAIR_POTENTIAL
       &END VDW_POTENTIAL
     &END XC
   &END DFT
   &SUBSYS
     &CELL
       A     1.2864472766435110E+01    0.0000000000000000E+00    0.0000000000000000E+00
       B    -6.4322363581020028E+00    1.1140960178524473E+01    0.0000000000000000E+00
       C     0.0000000000000000E+00    0.0000000000000000E+00    3.2000000000000000E+01
       MULTIPLE_UNIT_CELL  1 1 1
       &CELL_REF
         A     1.2982353780853531E+01    0.0000000000000000E+00    0.0000000000000000E+00
         B    -6.4911768904267628E+00    1.1243048175136114E+01    0.0000000000000000E+00
         C     0.0000000000000000E+00    0.0000000000000000E+00    3.2000000000000000E+01
         MULTIPLE_UNIT_CELL  1 1 1
       &END CELL_REF
     &END CELL
     &COORD
N   -1.2704074974150938E-02    2.0335921794165785E+00    2.5070963550548444E+00
Ga   -1.7847403630345517E-02    9.3392181710246880E-02    2.8570517051776636E+00
N   -6.2643221474820050E-03    5.2406383298762758E-02    5.0160010806020123E+00
Ga   -1.3398339339476274E-02    1.8807802263595479E+00    5.8119723684136817E+00
N   -1.0047400494420357E-02    1.8973276071498364E+00    7.8068704707844798E+00
Ga   -7.2892891718252337E-03    4.9784594138299901E-02    8.4391351155454810E+00
N   -5.7037180231711586E-03    5.3095886015905154E-02    1.0414892850184170E+01
Ga   -4.0552596125294910E-03    1.8935505227195983E+00    1.1068577449886085E+01
N   -4.9663975683356190E-03    1.8748429327625820E+00    1.3061806071450619E+01
Ga   -7.9361740302434092E-03    5.7688248183279507E-02    1.3869491958239037E+01
N   -6.5788465308998529E-03    5.6821714906908481E-02    1.6069692464719164E+01
Ga   -5.9547897960198510E-03    2.1051084440598093E+00    1.6488545471911038E+01
Ga    3.2232335117042356E-02    3.7542300843522325E+00    1.3794998933972609E+00
N   -1.4817222017715479E+00    4.6161342712897477E+00    2.4719563310055648E+00
Ga   -1.6795551142869101E+00    2.7949427640908771E+00    3.2733604682142214E+00
N   -1.6162471363598219E+00    2.8430011746139980E+00    5.2527625591005007E+00
Ga   -1.6316571634310923E+00    4.7159975148729236E+00    5.7963307083152040E+00
N   -1.6255245452232630E+00    4.7062417412945674E+00    7.7963434073071287E+00
Ga   -1.6023652029876574E+00    2.8512462636236782E+00    8.4449027585152052E+00
N   -1.6022200583707356E+00    2.8488173138949584E+00    1.0436676745806158E+01
Ga   -1.6278107712393859E+00    4.7101956607605544E+00    1.1068744881671206E+01
N   -1.6447904271279410E+00    4.7175235490781899E+00    1.3061860437273218E+01
Ga   -1.6002846951754421E+00    2.8488330059476681E+00    1.3618810035633427E+01
N   -1.6264443264511330E+00    2.8338562012329693E+00    1.5579817622681196E+01
Ga   -1.4476233653949446E+00    4.6022603145548775E+00    1.6488745966949370E+01
N    1.9494116171847387E-03    3.7745513215759394E+00    1.7632872979107585E+01
N   -3.2244743321993461E+00    7.6065482495093919E+00    2.5086102663129339E+00
Ga   -3.1812433316007609E+00    5.5915053425859762E+00    2.8212428328317070E+00
N   -3.2192139676821161E+00    5.6259755460794638E+00    4.9921405332562045E+00
Ga   -3.2217543168789153E+00    7.4533558821275525E+00    5.7811884691220357E+00
N   -3.2220286058964480E+00    7.4732515088507432E+00    7.7800517077484042E+00
Ga   -3.2219061928811197E+00    5.6291295644125361E+00    8.4407958759261952E+00
N   -3.2222032198153303E+00    5.6287931271409324E+00    1.0415541323778097E+01
Ga   -3.2214860370646186E+00    7.4680119084361563E+00    1.1066437887644021E+01
N   -3.2206514297291249E+00    7.4475447754796038E+00    1.3064139238102287E+01
Ga   -3.2206220818608311E+00    5.6235867920418894E+00    1.3869126906798934E+01
N   -3.2211568029267674E+00    5.6253591584503928E+00    1.6069324490775095E+01
Ga   -3.2215452260867892E+00    7.6575145109218958E+00    1.6470021699628724E+01
Ga   -3.2160539425159009E+00    9.3418529686554539E+00    1.5795588096781314E+00
N   -4.7179691419538328E+00    1.0202909815106850E+01    2.5160001877781268E+00
Ga   -4.9572995959621791E+00    8.3418231525555999E+00    3.2807669801892150E+00
N   -4.8389764790183900E+00    8.4073294249440362E+00    5.2320533221339982E+00
Ga   -4.8559789519132472E+00    1.0281247726393078E+01    5.7899679720500661E+00
N   -4.8371968982706743E+00    1.0273592405688071E+01    7.7858481621663325E+00
Ga   -4.8246047512682191E+00    8.4144453340270129E+00    8.4223098797409826E+00
N   -4.8199178819818833E+00    8.4168761546436901E+00    1.0421021161148964E+01
Ga   -4.8452838874455200E+00    1.0275020433330234E+01    1.1067778912417584E+01
N   -4.8611859190389541E+00    1.0286494460586765E+01    1.3065033319379490E+01
Ga   -4.8182654233916029E+00    8.4176070913541281E+00    1.3620523099931399E+01
N   -4.8488262888825204E+00    8.4004953179951709E+00    1.5585105096642664E+01
Ga   -4.6787537601131444E+00    1.0181707596104708E+01    1.6469623148988717E+01
N   -3.2208950108138392E+00    9.3406816689280312E+00    1.7584770333080790E+01
N    3.1945777487654881E+00    1.9292307982417751E+00    2.6092715512925357E+00
Ga    3.2025943306497902E+00    1.9255864131756420E-01    3.2953757516159810E+00
N    3.2102872120277559E+00    5.7587442771941867E-02    5.2456838808608408E+00
Ga    3.2063315872014972E+00    1.9146624675213524E+00    5.8841314745278908E+00
N    3.2140007706829046E+00    1.9122422561056551E+00    7.8554468791228755E+00
Ga    3.2107040492855248E+00    4.4167639632240872E-02    8.4371405756597007E+00
N    3.2106584467167623E+00    4.1856751419804016E-02    1.0431250145570418E+01
Ga    3.2102426179039742E+00    1.9124251849802734E+00    1.1028547357890409E+01
N    3.2108921228216500E+00    1.9127028839158713E+00    1.3000578002076974E+01
Ga    3.2116355640962202E+00    4.3654669771088693E-02    1.3618894422475920E+01
N    3.2108833662958709E+00    7.8796404813105195E-02    1.5584405767478501E+01
Ga    3.2108654858065884E+00    1.9190479240304323E+00    1.5861784660294397E+01
N    1.4486952917228360E+00    4.5782603349240603E+00    2.5866082532003887E+00
Ga    1.6481367637868229E+00    2.7623341361490112E+00    3.3185725213809003E+00
N    1.5970177862674924E+00    2.8229302133520839E+00    5.2798700015838103E+00
Ga    1.6357980353955153E+00    4.7122510038589480E+00    5.7947385660355719E+00
N    1.6063549405149526E+00    4.7010535033079410E+00    7.8061833320465155E+00
Ga    1.5913721648256742E+00    2.8480187537470707E+00    8.4389195888481154E+00
N    1.5921505328618246E+00    2.8460798908785581E+00    1.0433760205540413E+01
Ga    1.6170060894230800E+00    4.7087533952136038E+00    1.1064854888137100E+01
N    1.6337409971772903E+00    4.7171441980292936E+00    1.3061222610704950E+01
Ga    1.5900316223177666E+00    2.8486926071303436E+00    1.3620849208816514E+01
N    1.6147292844112777E+00    2.8319776311855032E+00    1.5582818012252286E+01
Ga    1.4430553428610111E+00    4.6067560545085913E+00    1.6488139007072590E+01
N   -4.6905740471122441E-03    7.4579265205007674E+00    2.5777012023227388E+00
Ga    5.7246738183947508E-04    5.7001037628518967E+00    3.2872766881347948E+00
N   -7.8265623462036912E-03    5.6362643960485075E+00    5.2601637291090988E+00
Ga    1.3824001650227501E-02    7.4817494522958929E+00    5.8630945496787934E+00
N   -1.7664804998803295E-04    7.4892940458583146E+00    7.8408300379146221E+00
Ga   -4.4931264188114006E-03    5.6195282745695687E+00    8.4316606760912087E+00
N   -7.5116072553266851E-03    5.6173163667968069E+00    1.0429185858257945E+01
Ga   -5.8155806978471159E-03    7.4838538719110259E+00    1.1023947756789786E+01
N   -5.5522682164227460E-03    7.4839526895373227E+00    1.2996682227438745E+01
Ga   -5.4763288014286629E-03    5.6134161778343366E+00    1.3621272275035579E+01
N   -7.6444429218698274E-03    5.6424513231300741E+00    1.5582674184130335E+01
Ga   -3.2526999532149205E-04    7.4801779228280223E+00    1.5864663629901768E+01
N   -1.7194553082482795E+00    1.0210155709139581E+01    2.5175757565773140E+00
Ga   -1.4970722438856494E+00    8.3385252635536879E+00    3.2928793921323458E+00
N   -1.6029802489607408E+00    8.4072778036523275E+00    5.2472921551565230E+00
Ga   -1.5945838203370191E+00    1.0278355971553601E+01    5.7951317152914754E+00
N   -1.6057533330725278E+00    1.0274017128456054E+01    7.7891333816376696E+00
Ga   -1.6206026288824806E+00    8.4154938968478810E+00    8.4266009326960827E+00
N   -1.6243246968184810E+00    8.4175612426232895E+00    1.0424708071877287E+01
Ga   -1.5978142238695796E+00    1.0274990904743833E+01    1.1067473924441328E+01
N   -1.5805549468196416E+00    1.0286256080229029E+01    1.3064571827517799E+01
Ga   -1.6227863272162333E+00    8.4175494702901208E+00    1.3620039877192188E+01
N   -1.5934055335788826E+00    8.4002989349554404E+00    1.5585113250417077E+01
Ga   -1.7636977085474406E+00    1.0182160231095601E+01    1.6469409322028991E+01
N    6.4398533301786562E+00    2.0184191377682965E+00    2.5389987806663910E+00
Ga    6.4414105083688931E+00    5.7067428745130822E-02    2.8878275872698040E+00
N    6.4244736569024106E+00    5.4225384580944967E-02    5.0197157260938647E+00
Ga    6.4284129665215799E+00    1.8826869243355879E+00    5.8120843334497367E+00
N    6.4283268312316482E+00    1.8996946322968913E+00    7.8015715165132438E+00
Ga    6.4281661474954319E+00    5.1155590645891993E-02    8.4394024742680802E+00
N    6.4272181780318673E+00    5.4245391072330472E-02    1.0414094558867561E+01
Ga    6.4271950137635114E+00    1.8936743541610201E+00    1.1069584506914971E+01
N    6.4276139827593468E+00    1.8748689354724597E+00    1.3061441505396173E+01
Ga    6.4305888492790286E+00    5.7336718921461020E-02    1.3868771677241224E+01
N    6.4290903736451552E+00    5.7111915239924080E-02    1.6068831280534688E+01
Ga    6.4275067178301715E+00    2.1066147488045077E+00    1.6489789751688306E+01
Ga    6.4669768350554122E+00    3.7243731521816739E+00    1.5240796568098931E+00
N    4.9527911666667963E+00    4.5856353007695336E+00    2.4936551315172477E+00
Ga    4.7240875861319411E+00    2.7577346787914143E+00    3.3036957710947878E+00
N    4.8233016194307448E+00    2.8317062615203068E+00    5.2557423496769111E+00
Ga    4.7786015921306015E+00    4.7143592633681495E+00    5.8061392725320085E+00
N    4.8172036286880209E+00    4.6987184838831260E+00    7.8069647070351733E+00
Ga    4.8301154609143797E+00    2.8466750729422428E+00    8.4451867639746840E+00
N    4.8303760781704641E+00    2.8462390136176632E+00    1.0435947632771526E+01
Ga    4.8036181972788654E+00    4.7094305139029249E+00    1.1066847307518710E+01
N    4.7882000058442760E+00    4.7168074051152784E+00    1.3061640548982259E+01
Ga    4.8320952937770683E+00    2.8479046402890691E+00    1.3621162404996706E+01
N    4.8065090101069305E+00    2.8315985945858082E+00    1.5582203326855961E+01
Ga    4.9799028313813620E+00    4.6059987769548201E+00    1.6489055835321999E+01
N    6.4199728349925751E+00    3.7746382551587745E+00    1.7635111969750582E+01
N    3.1964252855541400E+00    7.4926115684665309E+00    2.4112183937657496E+00
N    3.2146726585850298E+00    5.5940234897174150E+00    5.0479089504672370E+00
Ga    3.2093063638257608E+00    7.4207422391133546E+00    5.7574386325688414E+00
N    3.2105431903073214E+00    7.4781390113546395E+00    7.7755499559338972E+00
Ga    3.2096170699260034E+00    5.6288971402652219E+00    8.4337977527993662E+00
N    3.2110826605090037E+00    5.6293696735892809E+00    1.0414156099726618E+01
Ga    3.2107051380530898E+00    7.4655516312415235E+00    1.1070149082176888E+01
N    3.2105820173400925E+00    7.4482713706305113E+00    1.3063798731281386E+01
Ga    3.2108641769939199E+00    5.6263163716192794E+00    1.3868451032906709E+01
N    3.2112189937955802E+00    5.6272122769941406E+00    1.6067230798610218E+01
Ga    3.2107995953571096E+00    7.6683678678150331E+00    1.6486855048444021E+01
Ga    3.1956188540554611E+00    9.8440150694416833E+00    1.2078567235592026E+00
N    1.7082142005585814E+00    1.0231931041769188E+01    2.5547101702529549E+00
Ga    1.5387923234014163E+00    8.3478774097178743E+00    3.1859525093828891E+00
N    1.6102130223202102E+00    8.3957810606872183E+00    5.1762293148202767E+00
Ga    1.5751951142056684E+00    1.0250234837734371E+01    5.7870594515204195E+00
N    1.5893645661551292E+00    1.0264981739446851E+01    7.7838591008142055E+00
Ga    1.6166080615820859E+00    8.4128280249939618E+00    8.4362046280014500E+00
N    1.6139205399352736E+00    8.4174769021786009E+00    1.0429287401537897E+01
Ga    1.5884641095924952E+00    1.0275760451053658E+01    1.1066704832426117E+01
N    1.5712697317252222E+00    1.0286778737961402E+01    1.3059754069795783E+01
Ga    1.6134877129272216E+00    8.4193035940819136E+00    1.3621323898409555E+01
N    1.5871730800663857E+00    8.4060089478720617E+00    1.5582324391925900E+01
Ga    1.7691979562266398E+00    1.0173675216187185E+01    1.6488211374058196E+01
N    3.2110427566474100E+00    9.3323697671178554E+00    1.7633213489369524E+01
N    9.6539461372540600E+00    1.8960663971288592E+00    2.6350931414239058E+00
Ga    9.6494618624733963E+00    1.7674487876422343E-01    3.3729429202263055E+00
N    9.6424545422688386E+00    5.7976913837090749E-02    5.3002883804363456E+00
Ga    9.6542790886766419E+00    1.9251071151641859E+00    5.8991896570282520E+00
N    9.6426379148813375E+00    1.9141675123541306E+00    7.8641462467384020E+00
Ga    9.6436236425057533E+00    3.6406995283579401E-02    8.4237958907011645E+00
N    9.6434244642381142E+00    4.0685218246165666E-02    1.0421906298998922E+01
Ga    9.6427592096093466E+00    1.9107044676717078E+00    1.1023072581613210E+01
N    9.6430484764510069E+00    1.9121610992050748E+00    1.2998590802036368E+01
Ga    9.6429254188790097E+00    4.1527408187423509E-02    1.3620262696645996E+01
N    9.6436250902456759E+00    7.2996039278048680E-02    1.5580508928821242E+01
Ga    9.6437361376977719E+00    1.9138838948420613E+00    1.5853647668478455E+01
N    7.9326292980622677E+00    4.6252495085788636E+00    2.5212310813152383E+00
Ga    8.1574368223858720E+00    2.7761173983031311E+00    3.3156610984170740E+00
N    8.0390144633498615E+00    2.8414819832664824E+00    5.2647016130717530E+00
Ga    8.0578797043933488E+00    4.7241149306960324E+00    5.7905160659342521E+00
N    8.0439744518763430E+00    4.7082530992684468E+00    7.7876262868103678E+00
Ga    8.0236826592379167E+00    2.8517477101397537E+00    8.4386692272482051E+00
N    8.0233746968520769E+00    2.8492479920295373E+00    1.0431357883152314E+01
Ga    8.0502643447614570E+00    4.7092279229296619E+00    1.1069704599714273E+01
N    8.0675410939963044E+00    4.7167987710326491E+00    1.3061730438352168E+01
Ga    8.0226778535109133E+00    2.8483825777585916E+00    1.3620653414320630E+01
N    8.0495209863954837E+00    2.8338867108822772E+00    1.5580867472537099E+01
Ga    7.8684442238690755E+00    4.6021681485975856E+00    1.6490092241059759E+01
N    6.4171072791146777E+00    7.4690290712876228E+00    2.5534832127874081E+00
Ga    6.4089752610864199E+00    5.7381332925829085E+00    3.2728429973329045E+00
N    6.4209456507486680E+00    5.6238986354989091E+00    5.2290880210448414E+00
Ga    6.3998696703045894E+00    7.4859644985100715E+00    5.8396884081266114E+00
N    6.4195323601738696E+00    7.4853900608976662E+00    7.8200430945044870E+00
Ga    6.4265242599446708E+00    5.6203826582266316E+00    8.4328907269070967E+00
N    6.4293492197695583E+00    5.6176725579136031E+00    1.0427110261236354E+01
Ga    6.4274893343754860E+00    7.4842839834125456E+00    1.1027560744313453E+01
N    6.4277612611556325E+00    7.4840749713241150E+00    1.2998805568842798E+01
Ga    6.4280483387246159E+00    5.6127605381417247E+00    1.3622575343301110E+01
N    6.4299896891651729E+00    5.6429913793974329E+00    1.5582836360687287E+01
Ga    6.4226033268708216E+00    7.4804823439792951E+00    1.5863861888557029E+01
N    4.7050789226620537E+00    1.0232721065227890E+01    2.5429339993073978E+00
Ga    4.8746635366543316E+00    8.3521995197079590E+00    3.1548269726687637E+00
N    4.8005731748609959E+00    8.3959860243203615E+00    5.1510522000673715E+00
Ga    4.8500723341275762E+00    1.0249793881459860E+01    5.7780587350688393E+00
N    4.8318689691031933E+00    1.0263004501791967E+01    7.7784796617882863E+00
Ga    4.8046220948204930E+00    8.4121150685357424E+00    8.4330799917537664E+00
N    4.8086979764825104E+00    8.4168353040414470E+00    1.0426315657328294E+01
Ga    4.8336285543393043E+00    1.0275798816606761E+01    1.1067555157849407E+01
N    4.8507598405277195E+00    1.0287291694667026E+01    1.3060549298132583E+01
Ga    4.8076115969386324E+00    8.4194569439294487E+00    1.3622239325682923E+01
N    4.8347092625187340E+00    8.4063400526137428E+00    1.5583010000364618E+01
Ga    4.6531304042850623E+00    1.0173812213184872E+01    1.6488179623601511E+01
O    7.3063491522828994E-01    3.8680644927494647E+00   -3.5128540989304791E-01
H    3.1175963102298794E+00    7.4790696354734463E+00    1.3688393506274770E+00
C    1.1478051195992223E+00    2.6047223515985940E+00   -9.1696596679235731E-01
H    1.8478369755681507E+00    2.0639525391712938E+00   -2.5668946507198942E-01
H    2.8104173729973136E-01    1.9590093673499167E+00   -1.1183396567160728E+00
H    1.6533807168234058E+00    2.8179263538264632E+00   -1.8698650513863577E+00
Ga    3.1768821424768010E+00    5.4136844374272002E+00    2.6257633116855015E+00
O    2.8754137103608741E+00    5.4695642190127058E+00    2.3265386518317560E-01
H    2.0796511216765974E+00    4.8848290353957280E+00    1.5684990452890776E-02
C    3.8975186920460940E+00    5.2575576268107413E+00   -7.5428205403418469E-01
H    3.4916844874774542E+00    5.4301743737125934E+00   -1.7618361650672894E+00
H    4.7085060669760512E+00    5.9690606673634647E+00   -5.5357146878980001E-01
H    4.2924281553905281E+00    4.2277990989923824E+00   -6.9580542357282937E-01
     &END COORD
     &KIND C
       BASIS_SET DZVP-MOLOPT-SR-GTH-q4
       POTENTIAL GTH-PBE-q4
       &POTENTIAL
 2 2
  0.3384712400000000E+00 2 -0.8803673979999999E+01  0.1339210850000000E+01
 2
  0.3025757500000000E+00 1  0.9622486650000001E+01
  0.2915069400000000E+00 0
         # Potential name:  GTH-PBE-Q4  for symbol:  C
         # Potential read from the potential filename: GTH_POTENTIALS
       &END POTENTIAL
     &END KIND
     &KIND O
       BASIS_SET DZVP-MOLOPT-SR-GTH-q6
       POTENTIAL GTH-PBE-q6
       &POTENTIAL
 2 4
  0.2445543000000000E+00 2 -0.1666721480000000E+02  0.2487311320000000E+01
 2
  0.2209559200000000E+00 1  0.1833745811000000E+02
  0.2113324700000000E+00 0
         # Potential name:  GTH-PBE-Q6  for symbol:  O
         # Potential read from the potential filename: GTH_POTENTIALS
       &END POTENTIAL
     &END KIND
     &KIND H
       BASIS_SET DZVP-MOLOPT-SR-GTH-q1
       POTENTIAL GTH-PBE-q1
       &POTENTIAL
 1
  0.2000000000000000E+00 2 -0.4178900440000000E+01  0.7244633100000000E+00
 0
         # Potential name:  GTH-PBE-Q1  for symbol:  H
         # Potential read from the potential filename: GTH_POTENTIALS
       &END POTENTIAL
     &END KIND
     &KIND N
       BASIS_SET DZVP-MOLOPT-SR-GTH
       POTENTIAL GTH-PBE-q5
       &POTENTIAL
 2 3
  0.2837905100000000E+00 2 -0.1241522559000000E+02  0.1868095920000000E+01
 2
  0.2554050000000000E+00 1  0.1363026257000000E+02
  0.2454945300000000E+00 0
         # Potential name:  GTH-PBE-Q5  for symbol:  N
         # Potential read from the potential filename: GTH_POTENTIALS
       &END POTENTIAL
     &END KIND
     &KIND Ga
       BASIS_SET DZVP-MOLOPT-SR-GTH
       POTENTIAL GTH-PBE-q13
       &POTENTIAL
 2 1 10
  0.4900000000000000E+00 0
 3
  0.4167772300000000E+00 3  0.1047568975000000E+02 -0.4921768140000000E+01  0.8707055900000000E+00
  0.7770178090000000E+01 -0.2248152160000000E+01
  0.1784415450000000E+01
  0.5696265200000000E+00 2  0.1777985340000000E+01  0.1958597600000000E+00
 -0.2317443900000000E+00
  0.2381265000000000E+00 1 -0.1624868022000000E+02
         # Potential name:  GTH-PBE-Q13  for symbol:  GA
         # Potential read from the potential filename: GTH_POTENTIALS
       &END POTENTIAL
     &END KIND
     &TOPOLOGY
       NUMBER_OF_ATOMS  212
       MULTIPLE_UNIT_CELL  1 1 1
     &END TOPOLOGY
   &END SUBSYS
 &END FORCE_EVAL
