 # Version information for this restart file 
 # current date 2019-06-30 12:11:36.218
 # current working dir /scratch/rzk/rzk/GaN-carbene/443-adatoms-both-2x2/05-2DissMethanol/02-0501-MoveHToNTop
 # Program compiled at                              Sun Apr  7 00:48:11 EDT 2019
 # Program compiled on                          beluga2.int.ets1.calculquebec.ca
 # Program compiled for                        Beluga-Linux-x86-64-intel-openmpi
 # Source code revision number                                         svn:18619
 &GLOBAL
   PRINT_LEVEL  MEDIUM
   PROJECT_NAME TEST
   RUN_TYPE  GEO_OPT
 &END GLOBAL
 &MOTION
   &GEO_OPT
     MAX_ITER  500
     STEP_START_VAL  61
   &END GEO_OPT
 &END MOTION
 &FORCE_EVAL
   METHOD  QS
   STRESS_TENSOR  ANALYTICAL
   &DFT
     BASIS_SET_FILE_NAME BASIS_MOLOPT
     POTENTIAL_FILE_NAME GTH_POTENTIALS
     UKS  T
     SURFACE_DIPOLE_CORRECTION  T
     SURF_DIP_DIR  Z
     &SCF
       MAX_SCF  80
       EPS_SCF     5.0000000000000004E-06
       &OT  T
         PRECONDITIONER  FULL_ALL
       &END OT
       &OUTER_SCF  T
         OPTIMIZER  NONE
         EPS_SCF     5.0000000000000004E-06
         MAX_SCF  4
       &END OUTER_SCF
       &PRINT
         &RESTART  OFF
           BACKUP_COPIES  1
           &EACH
             JUST_ENERGY  0
             QS_SCF  0
             MD  20
           &END EACH
         &END RESTART
       &END PRINT
     &END SCF
     &QS
       EPS_DEFAULT     1.0000000000000000E-14
       METHOD  GPW
     &END QS
     &MGRID
       NGRIDS  5
       CUTOFF     1.2000000000000000E+03
     &END MGRID
     &XC
       DENSITY_CUTOFF     1.0000000000000000E-10
       GRADIENT_CUTOFF     1.0000000000000000E-10
       TAU_CUTOFF     1.0000000000000000E-10
       &XC_FUNCTIONAL  NO_SHORTCUT
         &PBE  T
         &END PBE
       &END XC_FUNCTIONAL
       &VDW_POTENTIAL
         POTENTIAL_TYPE  PAIR_POTENTIAL
         &PAIR_POTENTIAL
           R_CUTOFF     1.0000000000000004E+01
           TYPE  DFTD3
           PARAMETER_FILE_NAME dftd3.dat
           REFERENCE_FUNCTIONAL PBE
           EPS_CN     9.9999999999999995E-07
           CALCULATE_C9_TERM  T
           REFERENCE_C9_TERM  T
           LONG_RANGE_CORRECTION  F
           VERBOSE_OUTPUT  F
         &END PAIR_POTENTIAL
       &END VDW_POTENTIAL
     &END XC
   &END DFT
   &SUBSYS
     &CELL
       A     1.2864472766435110E+01    0.0000000000000000E+00    0.0000000000000000E+00
       B    -6.4322363581020028E+00    1.1140960178524473E+01    0.0000000000000000E+00
       C     0.0000000000000000E+00    0.0000000000000000E+00    3.2000000000000000E+01
       MULTIPLE_UNIT_CELL  1 1 1
       &CELL_REF
         A     1.2982353780853531E+01    0.0000000000000000E+00    0.0000000000000000E+00
         B    -6.4911768904267628E+00    1.1243048175136114E+01    0.0000000000000000E+00
         C     0.0000000000000000E+00    0.0000000000000000E+00    3.2000000000000000E+01
         MULTIPLE_UNIT_CELL  1 1 1
       &END CELL_REF
     &END CELL
     &COORD
N    9.4813159265777960E-03    2.0436480471974185E+00    2.5052295845872488E+00
Ga   -7.6155900655685950E-03    1.0599751586137268E-01    2.8937411477503465E+00
N    5.7003403850480810E-03    5.1280949898043354E-02    5.0589473720561875E+00
Ga   -1.0143612127334681E-02    1.8782542146520600E+00    5.8154133861215884E+00
N   -9.7907425964574510E-03    1.8936564360123518E+00    7.8142530453070878E+00
Ga    3.6887872170220156E-03    4.7521107014643807E-02    8.4586123965370366E+00
N   -7.6688041468576387E-04    4.7448232180199050E-02    1.0431221460889168E+01
Ga   -3.0778651265696283E-04    1.8888173328301376E+00    1.1074290891075375E+01
N   -2.7345862644881360E-03    1.8687898764796065E+00    1.3066643533325433E+01
Ga   -1.2093678244060763E-02    5.1441921528568128E-02    1.3860165143796982E+01
N   -1.4385026640792917E-02    5.3614777398744373E-02    1.6069323120014200E+01
Ga   -4.8202546150556656E-03    2.1099783620193717E+00    1.6493893380307895E+01
Ga    6.6617661663673014E-02    3.7860427875376623E+00    1.3863008737184350E+00
N   -1.4844134648235374E+00    4.6020293018835474E+00    2.4871631222920452E+00
Ga   -1.6595588260949881E+00    2.7651324685068728E+00    3.2410904291715719E+00
N   -1.6289539784766687E+00    2.8201979292066790E+00    5.2247344208584696E+00
Ga   -1.6314605040053907E+00    4.7032546873552485E+00    5.7757455155189623E+00
N   -1.6215027251723697E+00    4.6912173973066578E+00    7.7851566670200603E+00
Ga   -1.5952938566772703E+00    2.8478282082133815E+00    8.4573121252540382E+00
N   -1.5977998760748144E+00    2.8416248192799158E+00    1.0444846676478454E+01
Ga   -1.6238532501842455E+00    4.7024674103675581E+00    1.1067180141699797E+01
N   -1.6413891680857464E+00    4.7079465629142607E+00    1.3061504450865430E+01
Ga   -1.6009665201748129E+00    2.8392078364868119E+00    1.3621105985140124E+01
N   -1.6280345216691476E+00    2.8233715662313981E+00    1.5580007411113188E+01
Ga   -1.4337913530135222E+00    4.5849211490761324E+00    1.6494536807180769E+01
N    5.9970331310852179E-03    3.7662171408684761E+00    1.7638207557433340E+01
N   -3.2161199237644835E+00    7.6069644051400687E+00    2.5365101819980267E+00
Ga   -3.1738335646738820E+00    5.6038315696031908E+00    2.8182757633392717E+00
N   -3.2162496751958582E+00    5.6186721871613008E+00    4.9969115839005367E+00
Ga   -3.2178418028606219E+00    7.4447241292441957E+00    5.7836228084446013E+00
N   -3.2186582274732718E+00    7.4617184309906968E+00    7.7866865808152328E+00
Ga   -3.2172227297508469E+00    5.6156923186080059E+00    8.4309091356179593E+00
N   -3.2190075564974570E+00    5.6166399748202869E+00    1.0411226293223114E+01
Ga   -3.2184776538328799E+00    7.4556245973035997E+00    1.1060036535140648E+01
N   -3.2186217995854567E+00    7.4357290453975491E+00    1.3064003531103991E+01
Ga   -3.2182953290196803E+00    5.6080768934074641E+00    1.3859121278981441E+01
N   -3.2187213170121405E+00    5.6045785074854759E+00    1.6069017575990177E+01
Ga   -3.2186898255589846E+00    7.6040428123081796E+00    1.6432782123985405E+01
Ga   -3.2102890816067200E+00    9.3475571638157717E+00    1.5589230382612447E+00
N   -4.7186303158096941E+00    1.0212673984352842E+01    2.5450906888662539E+00
Ga   -4.9507685272426016E+00    8.3568852091442807E+00    3.2850927392688334E+00
N   -4.8314244425774939E+00    8.4046068196737149E+00    5.2461765301870118E+00
Ga   -4.8467385848111171E+00    1.0274512839741190E+01    5.8121219271257170E+00
N   -4.8324867948412509E+00    1.0264014792327277E+01    7.8091151462524664E+00
Ga   -4.8214424464201002E+00    8.4022938613519695E+00    8.4240336703795844E+00
N   -4.8169759213375309E+00    8.4065576314096919E+00    1.0426116084941578E+01
Ga   -4.8419040089961785E+00    1.0264132323856622E+01    1.1070026732946207E+01
N   -4.8597489129709048E+00    1.0276863512630756E+01    1.3070910157958556E+01
Ga   -4.8148019416156078E+00    8.4074397898002147E+00    1.3613811659279733E+01
N   -4.8321348800302797E+00    8.3987255569812511E+00    1.5592565101897566E+01
Ga   -4.7144124164283925E+00    1.0194576293025548E+01    1.6431894818459941E+01
N   -3.2181662552271053E+00    9.3311283261346887E+00    1.7554798171087707E+01
N    3.2001085569231624E+00    1.9218035331835595E+00    2.6444669705258255E+00
Ga    3.2084437993250101E+00    1.8040504319489076E-01    3.3151052578746611E+00
N    3.2144923527183380E+00    5.2268928580683258E-02    5.2735360148053587E+00
Ga    3.2092424038191147E+00    1.9058758216374176E+00    5.9019487005461304E+00
N    3.2164563496369141E+00    1.9022794353508123E+00    7.8737679893571126E+00
Ga    3.2142174429346739E+00    3.3397444178074165E-02    8.4503387244627177E+00
N    3.2138431711643580E+00    3.2601373801568967E-02    1.0444350221471852E+01
Ga    3.2134058688002582E+00    1.9055696267916873E+00    1.1028960074405948E+01
N    3.2138450188072238E+00    1.9012210185505320E+00    1.3004067321539184E+01
Ga    3.2137878491216445E+00    3.3726156492546823E-02    1.3613930936656573E+01
N    3.2133736779283510E+00    5.3979930944579466E-02    1.5593128811025499E+01
Ga    3.2136291964461545E+00    1.9063059996277569E+00    1.5861125999333415E+01
N    1.4764870150474889E+00    4.6052701828601270E+00    2.6092369836276785E+00
Ga    1.6641809544623161E+00    2.7846956342945628E+00    3.3200124666799753E+00
N    1.6047402505604527E+00    2.8216019687667564E+00    5.2928689555361510E+00
Ga    1.6246295605045937E+00    4.7027200939906777E+00    5.8015573085142176E+00
N    1.6145808734101974E+00    4.6954373208672102E+00    7.8041182318773306E+00
Ga    1.5942877694851376E+00    2.8420309493458804E+00    8.4409014276682797E+00
N    1.5950314741702125E+00    2.8392500686557356E+00    1.0437594670191325E+01
Ga    1.6197580618744063E+00    4.7012623547314414E+00    1.1064319799574507E+01
N    1.6375330343849612E+00    4.7087676276461803E+00    1.3062910937055733E+01
Ga    1.5938384170797988E+00    2.8407282935691431E+00    1.3622546489905579E+01
N    1.6217441785508462E+00    2.8164165880319176E+00    1.5582742002908514E+01
Ga    1.4411406706607257E+00    4.5945105510189954E+00    1.6493751931446251E+01
N    2.0011964685536648E-02    7.4847996702912472E+00    2.6079577942291814E+00
Ga    1.2708018722914282E-02    5.7215519281343257E+00    3.2817935317192033E+00
N   -5.4745888314261587E-03    5.6263915165671703E+00    5.2575560026531214E+00
Ga    2.9738023349493568E-02    7.4864593098861558E+00    5.8285554554221415E+00
N    6.1622883571787754E-03    7.4803259480725943E+00    7.8246973835168676E+00
Ga   -3.8413158788245172E-03    5.6129857637685507E+00    8.4174997675123002E+00
N   -4.2589473334452496E-03    5.6072688439055591E+00    1.0422076257396704E+01
Ga   -3.1754666166517224E-03    7.4716097651821114E+00    1.1024604845417651E+01
N   -5.5454516569668297E-03    7.4751738219261181E+00    1.3000181475512660E+01
Ga   -2.1581630422976314E-03    5.6039046234573142E+00    1.3622251531088445E+01
N   -8.9743131400874150E-03    5.6398112937586449E+00    1.5582217968172907E+01
Ga   -1.2664610252900311E-03    7.4732768742316740E+00    1.5861428764989558E+01
N   -1.7129750840634517E+00    1.0214198545846596E+01    2.5568042659607757E+00
Ga   -1.4804143921666537E+00    8.3486323099336222E+00    3.2932155793377413E+00
N   -1.6060223364414346E+00    8.4064938886167742E+00    5.2534323254734447E+00
Ga   -1.5936431906105726E+00    1.0272463735111034E+01    5.8151305863067453E+00
N   -1.6027143372993442E+00    1.0265324048549285E+01    7.8104280885686093E+00
Ga   -1.6137936216693802E+00    8.4019452813509883E+00    8.4241154389978803E+00
N   -1.6204555600138046E+00    8.4070018419993229E+00    1.0426812309215096E+01
Ga   -1.5950965376773829E+00    1.0264200255231247E+01    1.1070303466001379E+01
N   -1.5770085750867215E+00    1.0277188494871506E+01    1.3071102900409258E+01
Ga   -1.6220432956282307E+00    8.4074487498958259E+00    1.3613226517109931E+01
N   -1.6055016397133082E+00    8.3986686156841834E+00    1.5592265561683341E+01
Ga   -1.7227090311007958E+00    1.0194716535878952E+01    1.6431594271060540E+01
N    6.4253777567868049E+00    2.0314683568672356E+00    2.5396912324057879E+00
Ga    6.4408100171803024E+00    6.1209676938536732E-02    2.9193447535721773E+00
N    6.4236306195958299E+00    5.2617614830931671E-02    5.0610029799318053E+00
Ga    6.4384510284475880E+00    1.8777965400119461E+00    5.8195165632305308E+00
N    6.4374201456648210E+00    1.8951701635052995E+00    7.8117505334521704E+00
Ga    6.4252935020273680E+00    4.7127778753589998E-02    8.4596577882487178E+00
N    6.4287559260328146E+00    4.8406973369702039E-02    1.0431309569074399E+01
Ga    6.4289577330739371E+00    1.8890525713021538E+00    1.1075997710464147E+01
N    6.4304586097191692E+00    1.8689887014786501E+00    1.3067242176700965E+01
Ga    6.4397635891381393E+00    5.1349473979794696E-02    1.3860860490287505E+01
N    6.4414784608035793E+00    5.3636679453503276E-02    1.6069171847511896E+01
Ga    6.4318196830529830E+00    2.1104024105418810E+00    1.6495851590695462E+01
Ga    6.4029902894850741E+00    3.7669021958480307E+00    1.5545074016900100E+00
N    4.9355722725851656E+00    4.6134889084389190E+00    2.5693877749396195E+00
Ga    4.7149236472254774E+00    2.7689145565560862E+00    3.3294272185264040E+00
N    4.8269616977513623E+00    2.8280804023658557E+00    5.2839038883239899E+00
Ga    4.7979940560149954E+00    4.7074287599704823E+00    5.8112113515799040E+00
N    4.8165994360043420E+00    4.6949327495914188E+00    7.8049541287932875E+00
Ga    4.8336326256177067E+00    2.8412379419786973E+00    8.4462170352402275E+00
N    4.8336499677978999E+00    2.8397634281490856E+00    1.0439490398619634E+01
Ga    4.8076802582828488E+00    4.7020098759920099E+00    1.1066133568524734E+01
N    4.7904325787440794E+00    4.7088088841722096E+00    1.3063471536018719E+01
Ga    4.8335621903586334E+00    2.8405940178557696E+00    1.3623261970118721E+01
N    4.8053838513799834E+00    2.8165750860130956E+00    1.5583084575123520E+01
Ga    4.9863111957194475E+00    4.5939667590858386E+00    1.6495846236957888E+01
N    6.4209698622171718E+00    3.7657485002356577E+00    1.7640521683188069E+01
N    3.2138549035827171E+00    7.4590642091608625E+00    2.5059582259987718E+00
N    3.2185637059708014E+00    5.6011638544936835E+00    5.0478299197493524E+00
Ga    3.2158105282252234E+00    7.4629052318762286E+00    5.7460428696357067E+00
N    3.2153511590838915E+00    7.4695360992936184E+00    7.7698332085203017E+00
Ga    3.2129735054287090E+00    5.6251144864188340E+00    8.4315390833661805E+00
N    3.2144396445899397E+00    5.6193832111640072E+00    1.0413402131907414E+01
Ga    3.2141181163796348E+00    7.4521710005479980E+00    1.1076099868489869E+01
N    3.2139205356494136E+00    7.4366252633728207E+00    1.3069582699210425E+01
Ga    3.2137531049475889E+00    5.6167776757957606E+00    1.3877226327185060E+01
N    3.2133949820329017E+00    5.6173331627800911E+00    1.6070271176123775E+01
Ga    3.2133152688796489E+00    7.6648340961559027E+00    1.6493600473564772E+01
Ga    3.2228504650671477E+00    1.1192797721374253E+01    1.1821261242223806E+00
N    1.7364963557457287E+00    1.0346136827436434E+01    2.5386893675505409E+00
Ga    1.5797261627386394E+00    8.4320090721538286E+00    3.0795612858280470E+00
N    1.6208664623884972E+00    8.4196169822265698E+00    5.1462154020122686E+00
Ga    1.5466717194827901E+00    1.0231881807330124E+01    5.8448175521367132E+00
N    1.5847853875075690E+00    1.0253174162946115E+01    7.8286057201595760E+00
Ga    1.6183068114760886E+00    8.3939463033848831E+00    8.4436541011701038E+00
N    1.6185280152678958E+00    8.4033611122172811E+00    1.0437462990805543E+01
Ga    1.5933226390215944E+00    1.0265097701280244E+01    1.1067901915475572E+01
N    1.5760265464048830E+00    1.0276549430285430E+01    1.3062335384780098E+01
Ga    1.6165152854994673E+00    8.4090272036855911E+00    1.3622794186830737E+01
N    1.5821659625544719E+00    8.3971218733125657E+00    1.5582522997683025E+01
Ga    1.7849715036303222E+00    1.0158170821569136E+01    1.6495801903645447E+01
N    3.2132322136646470E+00    9.3205557580093732E+00    1.7640108294242424E+01
N    9.6621991172695498E+00    1.7360461312984512E+00    2.6385836789594848E+00
Ga    9.6566464975501454E+00    2.0239506018180954E-02    3.5921935715464466E+00
N    9.6484148280895017E+00    4.3500258502895926E-02    5.4574195746458525E+00
Ga    9.6560356771476545E+00    1.9371619442434633E+00    5.9364029531071818E+00
N    9.6463813577567503E+00    1.9145341434853176E+00    7.8909123445797738E+00
Ga    9.6474399269787536E+00    2.9093147388693390E-02    8.4351701661692697E+00
N    9.6464222687165737E+00    3.3357040814644821E-02    1.0432007335683585E+01
Ga    9.6463295870962753E+00    1.9030928839280885E+00    1.1027313197271065E+01
N    9.6456119521686663E+00    1.9031658385277899E+00    1.2998493845354242E+01
Ga    9.6460388834261863E+00    3.4506674904889796E-02    1.3622526964635817E+01
N    9.6458918855865239E+00    6.6937255775059198E-02    1.5580942571690182E+01
Ga    9.6457543750674439E+00    1.9041232442978511E+00    1.5858392715736519E+01
N    7.9429113026303959E+00    4.6076293587897075E+00    2.5214616428498524E+00
Ga    8.1461672608755862E+00    2.7377613806846552E+00    3.2702337067524594E+00
N    8.0589428438231163E+00    2.8197100535042776E+00    5.2300567914137090E+00
Ga    8.0675254011971855E+00    4.7084875145527212E+00    5.7738977124849615E+00
N    8.0480188344508399E+00    4.6925289204610721E+00    7.7794946632097552E+00
Ga    8.0254762441705516E+00    2.8481330577954189E+00    8.4560698288067169E+00
N    8.0253724733667937E+00    2.8421528103794547E+00    1.0442897286654981E+01
Ga    8.0521399370089650E+00    4.7022428055803207E+00    1.1068647955449851E+01
N    8.0687183934007987E+00    4.7077752997078228E+00    1.3061959790194354E+01
Ga    8.0284404730176124E+00    2.8393055751579093E+00    1.3622557192901064E+01
N    8.0551341772141427E+00    2.8234832446259643E+00    1.5581044251895747E+01
Ga    7.8602024351314066E+00    4.5845459612955128E+00    1.6496986720496231E+01
N    6.4102836255200009E+00    7.4991653642356351E+00    2.5755232922243447E+00
Ga    6.4116254910337673E+00    5.7652530446987615E+00    3.2846557163423737E+00
N    6.4308360122551971E+00    5.6223416196750788E+00    5.2412527817220287E+00
Ga    6.3984037586630498E+00    7.4922555574794281E+00    5.8276678662577019E+00
N    6.4225979338223791E+00    7.4778693493117858E+00    7.8197902893845086E+00
Ga    6.4335057618884193E+00    5.6132247001283284E+00    8.4215821540665292E+00
N    6.4324568610336890E+00    5.6074145259574353E+00    1.0422518877449102E+01
Ga    6.4313141432159799E+00    7.4720340968711936E+00    1.1026255061190001E+01
N    6.4330598418781175E+00    7.4749259663836014E+00    1.3000893296229117E+01
Ga    6.4298939532006338E+00    5.6037321219535468E+00    1.3623737430265631E+01
N    6.4359339401032267E+00    5.6396181681423574E+00    1.5583182903442090E+01
Ga    6.4282135956878816E+00    7.4730847438921266E+00    1.5862378125559088E+01
N    4.7017766006980422E+00    1.0349032038085030E+01    2.5287198021489203E+00
Ga    4.8447979174633025E+00    8.4403796732545935E+00    3.0672655701218052E+00
N    4.8101138957745793E+00    8.4188958814088863E+00    5.1364392801638985E+00
Ga    4.8894160470150494E+00    1.0232818232225974E+01    5.8420354829353753E+00
N    4.8445165975895881E+00    1.0251008138645274E+01    7.8274772846288911E+00
Ga    4.8101599749072150E+00    8.3938502551682106E+00    8.4441118348909789E+00
N    4.8104959116914809E+00    8.4027104324538406E+00    1.0437107616548476E+01
Ga    4.8350453472749697E+00    1.0264961490041632E+01    1.1067724825078267E+01
N    4.8514823154094415E+00    1.0276361409679152E+01    1.3062221459947592E+01
Ga    4.8108273790937330E+00    8.4091937356565243E+00    1.3623344796657971E+01
N    4.8448739982118880E+00    8.3971086142305484E+00    1.5582944428297710E+01
Ga    4.6419193598206014E+00    1.0158056788596628E+01    1.6496142358992728E+01
O    5.7293318548941241E-01    3.8749489604679916E+00   -3.8376837168421046E-01
H    3.1860656810894308E+00    7.4634589098204511E+00    1.4757146529167202E+00
C    1.1097873889194469E+00    2.6461449408292204E+00   -9.1723716306995018E-01
H    1.9107852184864202E+00    2.2292461828341850E+00   -2.8263256694252015E-01
H    3.2718818150059203E-01    1.8805421678563579E+00   -1.0365088236095037E+00
H    1.5255298069394887E+00    2.8725458971462996E+00   -1.9101201093537408E+00
Ga    3.1716429151135306E+00    5.5259025847862357E+00    2.9088149858408441E+00
O    2.8781230414385877E+00    5.6537903101757081E+00    1.6043034686048313E-02
H    2.0783261105885691E+00    5.0886851001706095E+00   -1.2679088393919399E-01
C    3.9327500954081631E+00    5.1636342159365700E+00   -8.1082165662828898E-01
H    3.6703582411656304E+00    5.1960156779818645E+00   -1.8803495243678021E+00
H    4.8044095238240461E+00    5.8111435215524399E+00   -6.4508403526371250E-01
H    4.2102125941275794E+00    4.1239316005583486E+00   -5.5020352019486973E-01
     &END COORD
     &KIND C
       BASIS_SET DZVP-MOLOPT-SR-GTH-q4
       POTENTIAL GTH-PBE-q4
       &POTENTIAL
 2 2
  0.3384712400000000E+00 2 -0.8803673979999999E+01  0.1339210850000000E+01
 2
  0.3025757500000000E+00 1  0.9622486650000001E+01
  0.2915069400000000E+00 0
         # Potential name:  GTH-PBE-Q4  for symbol:  C
         # Potential read from the potential filename: GTH_POTENTIALS
       &END POTENTIAL
     &END KIND
     &KIND O
       BASIS_SET DZVP-MOLOPT-SR-GTH-q6
       POTENTIAL GTH-PBE-q6
       &POTENTIAL
 2 4
  0.2445543000000000E+00 2 -0.1666721480000000E+02  0.2487311320000000E+01
 2
  0.2209559200000000E+00 1  0.1833745811000000E+02
  0.2113324700000000E+00 0
         # Potential name:  GTH-PBE-Q6  for symbol:  O
         # Potential read from the potential filename: GTH_POTENTIALS
       &END POTENTIAL
     &END KIND
     &KIND H
       BASIS_SET DZVP-MOLOPT-SR-GTH-q1
       POTENTIAL GTH-PBE-q1
       &POTENTIAL
 1
  0.2000000000000000E+00 2 -0.4178900440000000E+01  0.7244633100000000E+00
 0
         # Potential name:  GTH-PBE-Q1  for symbol:  H
         # Potential read from the potential filename: GTH_POTENTIALS
       &END POTENTIAL
     &END KIND
     &KIND N
       BASIS_SET DZVP-MOLOPT-SR-GTH
       POTENTIAL GTH-PBE-q5
       &POTENTIAL
 2 3
  0.2837905100000000E+00 2 -0.1241522559000000E+02  0.1868095920000000E+01
 2
  0.2554050000000000E+00 1  0.1363026257000000E+02
  0.2454945300000000E+00 0
         # Potential name:  GTH-PBE-Q5  for symbol:  N
         # Potential read from the potential filename: GTH_POTENTIALS
       &END POTENTIAL
     &END KIND
     &KIND Ga
       BASIS_SET DZVP-MOLOPT-SR-GTH
       POTENTIAL GTH-PBE-q13
       &POTENTIAL
 2 1 10
  0.4900000000000000E+00 0
 3
  0.4167772300000000E+00 3  0.1047568975000000E+02 -0.4921768140000000E+01  0.8707055900000000E+00
  0.7770178090000000E+01 -0.2248152160000000E+01
  0.1784415450000000E+01
  0.5696265200000000E+00 2  0.1777985340000000E+01  0.1958597600000000E+00
 -0.2317443900000000E+00
  0.2381265000000000E+00 1 -0.1624868022000000E+02
         # Potential name:  GTH-PBE-Q13  for symbol:  GA
         # Potential read from the potential filename: GTH_POTENTIALS
       &END POTENTIAL
     &END KIND
     &TOPOLOGY
       NUMBER_OF_ATOMS  212
       MULTIPLE_UNIT_CELL  1 1 1
     &END TOPOLOGY
   &END SUBSYS
 &END FORCE_EVAL
