 # Version information for this restart file 
 # current date 2019-06-30 09:22:55.520
 # current working dir /scratch/rzk/rzk/GaN-carbene/443-adatoms-both-2x2/05-2DissMethanol/02-0501-MoveHToNTop
 # Program compiled at                              Sun Apr  7 00:48:11 EDT 2019
 # Program compiled on                          beluga2.int.ets1.calculquebec.ca
 # Program compiled for                        Beluga-Linux-x86-64-intel-openmpi
 # Source code revision number                                         svn:18619
 &GLOBAL
   PRINT_LEVEL  MEDIUM
   PROJECT_NAME TEST
   RUN_TYPE  GEO_OPT
 &END GLOBAL
 &MOTION
   &GEO_OPT
     MAX_ITER  500
     STEP_START_VAL  3
   &END GEO_OPT
 &END MOTION
 &FORCE_EVAL
   METHOD  QS
   STRESS_TENSOR  ANALYTICAL
   &DFT
     BASIS_SET_FILE_NAME BASIS_MOLOPT
     POTENTIAL_FILE_NAME GTH_POTENTIALS
     UKS  T
     SURFACE_DIPOLE_CORRECTION  T
     SURF_DIP_DIR  Z
     &SCF
       MAX_SCF  80
       EPS_SCF     5.0000000000000004E-06
       &OT  T
         PRECONDITIONER  FULL_ALL
       &END OT
       &OUTER_SCF  T
         OPTIMIZER  NONE
         EPS_SCF     5.0000000000000004E-06
         MAX_SCF  4
       &END OUTER_SCF
       &PRINT
         &RESTART  OFF
           BACKUP_COPIES  1
           &EACH
             JUST_ENERGY  0
             QS_SCF  0
             MD  20
           &END EACH
         &END RESTART
       &END PRINT
     &END SCF
     &QS
       EPS_DEFAULT     1.0000000000000000E-14
       METHOD  GPW
     &END QS
     &MGRID
       NGRIDS  5
       CUTOFF     1.2000000000000000E+03
     &END MGRID
     &XC
       DENSITY_CUTOFF     1.0000000000000000E-10
       GRADIENT_CUTOFF     1.0000000000000000E-10
       TAU_CUTOFF     1.0000000000000000E-10
       &XC_FUNCTIONAL  NO_SHORTCUT
         &PBE  T
         &END PBE
       &END XC_FUNCTIONAL
       &VDW_POTENTIAL
         POTENTIAL_TYPE  PAIR_POTENTIAL
         &PAIR_POTENTIAL
           R_CUTOFF     1.0000000000000004E+01
           TYPE  DFTD3
           PARAMETER_FILE_NAME dftd3.dat
           REFERENCE_FUNCTIONAL PBE
           EPS_CN     9.9999999999999995E-07
           CALCULATE_C9_TERM  T
           REFERENCE_C9_TERM  T
           LONG_RANGE_CORRECTION  F
           VERBOSE_OUTPUT  F
         &END PAIR_POTENTIAL
       &END VDW_POTENTIAL
     &END XC
   &END DFT
   &SUBSYS
     &CELL
       A     1.2864472766435110E+01    0.0000000000000000E+00    0.0000000000000000E+00
       B    -6.4322363581020028E+00    1.1140960178524473E+01    0.0000000000000000E+00
       C     0.0000000000000000E+00    0.0000000000000000E+00    3.2000000000000000E+01
       MULTIPLE_UNIT_CELL  1 1 1
       &CELL_REF
         A     1.2982353780853531E+01    0.0000000000000000E+00    0.0000000000000000E+00
         B    -6.4911768904267628E+00    1.1243048175136114E+01    0.0000000000000000E+00
         C     0.0000000000000000E+00    0.0000000000000000E+00    3.2000000000000000E+01
         MULTIPLE_UNIT_CELL  1 1 1
       &END CELL_REF
     &END CELL
     &COORD
N   -1.4441068402275881E-02    2.0408943739531504E+00    2.4950130135800972E+00
Ga   -3.4035392572588233E-03    1.0057039961181738E-01    2.8576635919675994E+00
N   -4.8250353780440866E-03    5.6564415976714751E-02    5.0135076144559783E+00
Ga   -7.6577488675129354E-03    1.8892954008821097E+00    5.8039081229957903E+00
N   -7.9904861129970212E-03    1.9000792072834252E+00    7.8015654829059464E+00
Ga   -4.4858312694659418E-03    5.4867154288720965E-02    8.4393617527693436E+00
N   -4.3360896273054077E-03    5.4427362162564476E-02    1.0414666447836073E+01
Ga   -4.4143327032703985E-03    1.8939505107153924E+00    1.1070664358505377E+01
N   -5.0330967355765475E-03    1.8742902658010210E+00    1.3061903844677378E+01
Ga   -6.8923449507018193E-03    5.8365223693278748E-02    1.3872459724955831E+01
N   -6.8848651599265308E-03    5.8279990917306790E-02    1.6070246188957476E+01
Ga   -6.4669416893091657E-03    2.1064615035466270E+00    1.6489831819149984E+01
Ga    1.5256185127061747E-02    3.7593791785011468E+00    1.3808071788993701E+00
N   -1.4850668022990905E+00    4.6216095152592827E+00    2.4787678899635819E+00
Ga   -1.6793716926397109E+00    2.8039885376390346E+00    3.2726019588746178E+00
N   -1.6181532271914685E+00    2.8400502659980820E+00    5.2513486776711646E+00
Ga   -1.6327817494117405E+00    4.7111615962237545E+00    5.8039547025724252E+00
N   -1.6286955986991367E+00    4.7029085632131986E+00    7.8025217034313519E+00
Ga   -1.6021061668490082E+00    2.8488898709194439E+00    8.4434236488011933E+00
N   -1.6022139296369688E+00    2.8473651808029281E+00    1.0435244482943707E+01
Ga   -1.6282823399017430E+00    4.7084406992766032E+00    1.1070152735709758E+01
N   -1.6459255425557278E+00    4.7167873348496325E+00    1.3061853692189944E+01
Ga   -1.6009912625845693E+00    2.8477029385931623E+00    1.3619776050467843E+01
N   -1.6274972705410427E+00    2.8323855261965738E+00    1.5577534241682143E+01
Ga   -1.4467231609390663E+00    4.5999664362161434E+00    1.6489462827251039E+01
N    7.4991732209442032E-05    3.7729666652970417E+00    1.7637580171909839E+01
N   -3.2257196030580051E+00    7.6037653389046413E+00    2.5028712601086389E+00
Ga   -3.1780981321138335E+00    5.6079755097074795E+00    2.8301220736288415E+00
N   -3.2181596054451180E+00    5.6284672685370154E+00    5.0047159267447885E+00
Ga   -3.2231401860588975E+00    7.4565173656457420E+00    5.7878522613466714E+00
N   -3.2242982860789229E+00    7.4725939775354746E+00    7.7857639051206862E+00
Ga   -3.2221323508035713E+00    5.6277996876336909E+00    8.4450151187056601E+00
N   -3.2227290065045433E+00    5.6282127934654662E+00    1.0418198033922637E+01
Ga   -3.2211699359475690E+00    7.4674046174587012E+00    1.1069716498835522E+01
N   -3.2213120639281421E+00    7.4466047540843716E+00    1.3065901233434936E+01
Ga   -3.2205918899506085E+00    5.6233297964597115E+00    1.3871222934750509E+01
N   -3.2215826322040728E+00    5.6241373192778790E+00    1.6068551022791759E+01
Ga   -3.2212003938517237E+00    7.6584591380009428E+00    1.6474675941511325E+01
Ga   -3.2082864993098079E+00    9.3392898056124150E+00    1.4939535015254755E+00
N   -4.7315320505464040E+00    1.0213687225127510E+01    2.5000340954158191E+00
Ga   -4.9321681120797445E+00    8.3545685718362428E+00    3.2595976196347070E+00
N   -4.8373772750562010E+00    8.4108610794386376E+00    5.2261474097600100E+00
Ga   -4.8535955701755071E+00    1.0283726346658973E+01    5.7873897954173401E+00
N   -4.8366431524265625E+00    1.0273264843786800E+01    7.7849396736288181E+00
Ga   -4.8220679961569841E+00    8.4164764635973359E+00    8.4289425369753985E+00
N   -4.8188684376334798E+00    8.4181136514022992E+00    1.0424845701875130E+01
Ga   -4.8447160399732363E+00    1.0276340326985856E+01    1.1070508313657990E+01
N   -4.8614883780596694E+00    1.0286983680329506E+01    1.3066285733913055E+01
Ga   -4.8172938623783956E+00    8.4186669800787950E+00    1.3624265619230947E+01
N   -4.8481981879491665E+00    8.4020498939723662E+00    1.5589277592201556E+01
Ga   -4.6788083940327612E+00    1.0183105165200988E+01    1.6474704502719462E+01
N   -3.2227078584920799E+00    9.3411610403507463E+00    1.7585877551663803E+01
N    3.1910634833385005E+00    1.9370042306274859E+00    2.5982656537725020E+00
Ga    3.2060907856676844E+00    1.8231688567004248E-01    3.2639715542537520E+00
N    3.2093296587053817E+00    6.0949227684100042E-02    5.2309242264104903E+00
Ga    3.2076809051076607E+00    1.9181362629150183E+00    5.8724239193874421E+00
N    3.2131312327937382E+00    1.9110498918478593E+00    7.8475240325074758E+00
Ga    3.2101775634906966E+00    4.5711280799194717E-02    8.4366462559363402E+00
N    3.2101726859800959E+00    4.1973625844243474E-02    1.0430008767889596E+01
Ga    3.2099636136864791E+00    1.9108059406845190E+00    1.1030156329110344E+01
N    3.2115049314941873E+00    1.9110619107090681E+00    1.3000534155025051E+01
Ga    3.2112330356014418E+00    4.3077229174632900E-02    1.3622958359246789E+01
N    3.2113426691926885E+00    7.8144593232139556E-02    1.5588200871545546E+01
Ga    3.2113277531621049E+00    1.9187960610950474E+00    1.5862892356895332E+01
N    1.4420493411969959E+00    4.5937600760734600E+00    2.5605370556432656E+00
Ga    1.6535898625148366E+00    2.7795011637719611E+00    3.3065568956031322E+00
N    1.6031984712405687E+00    2.8344573129527362E+00    5.2678560223107729E+00
Ga    1.6356438204927617E+00    4.7182189708224129E+00    5.8139368544122760E+00
N    1.6041086136154294E+00    4.6990756379428245E+00    7.8241420267519857E+00
Ga    1.5919932322502444E+00    2.8456720468026719E+00    8.4420077846041810E+00
N    1.5925019849277469E+00    2.8437710884502971E+00    1.0436049784655799E+01
Ga    1.6159408366146959E+00    4.7070975235464116E+00    1.1067056112654495E+01
N    1.6342679207177793E+00    4.7161524252580023E+00    1.3061992589668449E+01
Ga    1.5909439630713040E+00    2.8473688347102293E+00    1.3621023233904614E+01
N    1.6153419076404263E+00    2.8299256644260593E+00    1.5580371636246621E+01
Ga    1.4402061342531356E+00    4.6038461340443755E+00    1.6489015783767396E+01
N   -1.1198416280869716E-02    7.4626241916399936E+00    2.6162931732231627E+00
Ga   -9.2178188467644286E-03    5.7195641170203979E+00    3.2954132781795473E+00
N   -9.7481911782504645E-03    5.6251023416984269E+00    5.2665402571403765E+00
Ga    5.0798106206013044E-03    7.4832727245671782E+00    5.8502516825015665E+00
N   -3.5966333561710307E-03    7.4896429426827646E+00    7.8356411648403004E+00
Ga   -8.3747571622611958E-03    5.6204258662024662E+00    8.4352833885645673E+00
N   -8.7176377741247923E-03    5.6180680410928447E+00    1.0431653096694344E+01
Ga   -8.0742342767052850E-03    7.4837659779955850E+00    1.1031592269167358E+01
N   -6.3498175116868307E-03    7.4848257781055745E+00    1.3002207024478786E+01
Ga   -5.5241754840837515E-03    5.6127680402287279E+00    1.3622253135679557E+01
N   -8.3206580438936108E-03    5.6431607869507454E+00    1.5581772261316853E+01
Ga   -5.6111293271257363E-04    7.4807994641662736E+00    1.5864486436056692E+01
N   -1.7161892062349549E+00    1.0216691303364907E+01    2.5101260358089386E+00
Ga   -1.5038156596448709E+00    8.3467964237058681E+00    3.2670185893353434E+00
N   -1.6181694030088325E+00    8.4172998293261738E+00    5.2411708037981111E+00
Ga   -1.5974587860180953E+00    1.0281746014910748E+01    5.7969526979965984E+00
N   -1.6066094727774172E+00    1.0276458342210999E+01    7.7911682629569770E+00
Ga   -1.6210910101985323E+00    8.4160287563959049E+00    8.4274502662551782E+00
N   -1.6248741388035690E+00    8.4179461126466943E+00    1.0424097204207232E+01
Ga   -1.5989350096385979E+00    1.0275630704378020E+01    1.1069801575686473E+01
N   -1.5808621824912852E+00    1.0287159282238859E+01    1.3065748949764963E+01
Ga   -1.6245953656209364E+00    8.4186354022917236E+00    1.3624143989802496E+01
N   -1.5940270991656191E+00    8.4023462823110577E+00    1.5589344008206375E+01
Ga   -1.7650831877059803E+00    1.0182220056082604E+01    1.6474978011740777E+01
N    6.4397455815622768E+00    2.0276146999452935E+00    2.5323796810709349E+00
Ga    6.4253753557958255E+00    5.7079945905521366E-02    2.8861574440703328E+00
N    6.4244367201933130E+00    5.4886778289706062E-02    5.0229815573443668E+00
Ga    6.4221411764662095E+00    1.8886228599431707E+00    5.8009831106181524E+00
N    6.4260136478202892E+00    1.9013744636070409E+00    7.7947519736838435E+00
Ga    6.4258192637265479E+00    5.5780974653446350E-02    8.4434955231896271E+00
N    6.4262898391146992E+00    5.5931723089915272E-02    1.0417096259900305E+01
Ga    6.4271801966916344E+00    1.8948138099935747E+00    1.1071637551250385E+01
N    6.4279018718271459E+00    1.8749939182182422E+00    1.3062203403306080E+01
Ga    6.4294379470318868E+00    5.7709542573581338E-02    1.3871498112580358E+01
N    6.4294924849451176E+00    5.8777329349631265E-02    1.6070389344147863E+01
Ga    6.4288352914332485E+00    2.1043252588166164E+00    1.6487106723665548E+01
Ga    6.4846914780063178E+00    3.7258928028504714E+00    1.5098153426778798E+00
N    4.9550007506110472E+00    4.6032513319499566E+00    2.4461124821051232E+00
Ga    4.7157780382025720E+00    2.7751602560545083E+00    3.2870609023346131E+00
N    4.8193762153904398E+00    2.8453975726564780E+00    5.2408220775244390E+00
Ga    4.7772698700493565E+00    4.7211555553959661E+00    5.8183135078999610E+00
N    4.8206616208792630E+00    4.6980330799716201E+00    7.8207727184115088E+00
Ga    4.8291004565226805E+00    2.8444709330378308E+00    8.4465864208442873E+00
N    4.8297197611281328E+00    2.8445335731536803E+00    1.0437402051891537E+01
Ga    4.8042746555881006E+00    4.7072818621648160E+00    1.1069842771330419E+01
N    4.7883735847129048E+00    4.7162451890765986E+00    1.3063427722168942E+01
Ga    4.8314863399018444E+00    2.8471133217874831E+00    1.3620555434268489E+01
N    4.8080090955005694E+00    2.8302155845756927E+00    1.5580387336496967E+01
Ga    4.9783864678016974E+00    4.6062085235282018E+00    1.6485578234078901E+01
N    6.4199863790234319E+00    3.7741404253622277E+00    1.7632260481116997E+01
N    3.1952234637957639E+00    7.5066620866995235E+00    2.3978077488336518E+00
N    3.2129143425227791E+00    5.6143061219707553E+00    5.1282259254293692E+00
Ga    3.2105022104643712E+00    7.4290561103069805E+00    5.8038125108803920E+00
N    3.2124578463937845E+00    7.4854284832878051E+00    7.8093667918741891E+00
Ga    3.2097882018801083E+00    5.6263832580672091E+00    8.4443076231771972E+00
N    3.2117525546962851E+00    5.6272602420695286E+00    1.0423697469852462E+01
Ga    3.2101639012811174E+00    7.4658368275893103E+00    1.1072037646672426E+01
N    3.2114840681327004E+00    7.4474021119305718E+00    1.3065914479095550E+01
Ga    3.2105004210556229E+00    5.6254956944805805E+00    1.3869405753170522E+01
N    3.2115943464960592E+00    5.6264472316178384E+00    1.6065235303332159E+01
Ga    3.2117501802815616E+00    7.6685395181193767E+00    1.6487577956583475E+01
Ga    3.2025383985933309E+00    9.6712682794063998E+00    1.3281166953578196E+00
N    1.7113697768308411E+00    1.0228577193481067E+01    2.5572797861254029E+00
Ga    1.4897389834365717E+00    8.3462860162321366E+00    3.2211447274691443E+00
N    1.6231252198563946E+00    8.4063215867131209E+00    5.1932821035673964E+00
Ga    1.5787010949767062E+00    1.0263144789619329E+01    5.7955720614319333E+00
N    1.5900827406608138E+00    1.0272421690805496E+01    7.7911512751849710E+00
Ga    1.6087536104453812E+00    8.4175652640993839E+00    8.4445264729435490E+00
N    1.6101562526129360E+00    8.4190495066241482E+00    1.0436069248096601E+01
Ga    1.5872119694544347E+00    1.0277466665541194E+01    1.1072365259305435E+01
N    1.5709077603600614E+00    1.0288110673771099E+01    1.3063998702101859E+01
Ga    1.6146261685944634E+00    8.4193911935157804E+00    1.3623785132126605E+01
N    1.5876779039234681E+00    8.4081277658382305E+00    1.5584747291814033E+01
Ga    1.7694564438122888E+00    1.0175886448278263E+01    1.6489180161163308E+01
N    3.2117383340079466E+00    9.3339779651638608E+00    1.7633734952108558E+01
N    9.6566714599670060E+00    1.9057039790081700E+00    2.6217188546636314E+00
Ga    9.6474731223601982E+00    1.8667078643431276E-01    3.3548575297061269E+00
N    9.6447514310626090E+00    6.3538230782973742E-02    5.2882432177935259E+00
Ga    9.6522838097071446E+00    1.9258263439257526E+00    5.8933464997175458E+00
N    9.6425871392807956E+00    1.9139323984780867E+00    7.8605435063680407E+00
Ga    9.6436544106639879E+00    4.1072743406651284E-02    8.4327726297159753E+00
N    9.6436341135616566E+00    4.1657727325992253E-02    1.0427636964906061E+01
Ga    9.6428970558170057E+00    1.9121657162104575E+00    1.1024672454304692E+01
N    9.6428098536739792E+00    1.9121078763761443E+00    1.2997527544323981E+01
Ga    9.6439271921806533E+00    4.2557498060299903E-02    1.3622488670847874E+01
N    9.6441494890978667E+00    7.3235919080623407E-02    1.5581232074812995E+01
Ga    9.6437053285770986E+00    1.9140165952451611E+00    1.5853974036142285E+01
N    7.9338032460324666E+00    4.6322013386609076E+00    2.5233440156631728E+00
Ga    8.1574093659659290E+00    2.7803693219519294E+00    3.3115924471093998E+00
N    8.0373558159786338E+00    2.8418830658766878E+00    5.2613997786470152E+00
Ga    8.0587602380700876E+00    4.7217452038921399E+00    5.7918198788779760E+00
N    8.0448627194956455E+00    4.7069448555644691E+00    7.7893941025654625E+00
Ga    8.0227732271788952E+00    2.8499673794522131E+00    8.4365277692951466E+00
N    8.0230943266605852E+00    2.8483717848619268E+00    1.0429736259380777E+01
Ga    8.0508947401451749E+00    4.7074028726323629E+00    1.1071359672409899E+01
N    8.0679675596703113E+00    4.7164198082118780E+00    1.3062013201530156E+01
Ga    8.0235806784276420E+00    2.8479538984878237E+00    1.3620246767404980E+01
N    8.0495321292658968E+00    2.8330558301614781E+00    1.5577911470587855E+01
Ga    7.8712471514319695E+00    4.6016307686172055E+00    1.6486747087845078E+01
N    6.4232318867305782E+00    7.4754620176462172E+00    2.5597168115527755E+00
Ga    6.4127925423012986E+00    5.7418670728114662E+00    3.2724520467215794E+00
N    6.4211578092557167E+00    5.6238474225123838E+00    5.2282817241116248E+00
Ga    6.4099666989564614E+00    7.4850024109440279E+00    5.8466427478028313E+00
N    6.4228331887663108E+00    7.4862570254177605E+00    7.8260633459600211E+00
Ga    6.4297300320204656E+00    5.6186445062481178E+00    8.4407158098935131E+00
N    6.4300851970940869E+00    5.6170929234214997E+00    1.0433279303077772E+01
Ga    6.4297636229082755E+00    7.4843558379270876E+00    1.1032331055499256E+01
N    6.4289368361851418E+00    7.4842925294989149E+00    1.3002392038730639E+01
Ga    6.4283822506288484E+00    5.6125980102692212E+00    1.3621720298284766E+01
N    6.4312348380588551E+00    5.6426202533238063E+00    1.5581148523845837E+01
Ga    6.4234242954403440E+00    7.4806493934634082E+00    1.5864783942277787E+01
N    4.7098814821092105E+00    1.0226728320033537E+01    2.5407483809906548E+00
Ga    4.9116026915071771E+00    8.3595315085153903E+00    3.1965612866872335E+00
N    4.8022131042244087E+00    8.4012250015152592E+00    5.1683998539238143E+00
Ga    4.8492781219069228E+00    1.0263510294720191E+01    5.7865598012683348E+00
N    4.8316142415150054E+00    1.0268172342903107E+01    7.7849733601717848E+00
Ga    4.8102591390620493E+00    8.4180678786196950E+00    8.4480162169673569E+00
N    4.8117140547691619E+00    8.4191790132389723E+00    1.0437866618478362E+01
Ga    4.8356230471130006E+00    1.0278614839118958E+01    1.1072845270871779E+01
N    4.8522149512470358E+00    1.0288075353532662E+01    1.3063962306456229E+01
Ga    4.8080784953228157E+00    8.4196633957938722E+00    1.3623402019021032E+01
N    4.8357842093506527E+00    8.4081890376515922E+00    1.5583747920669740E+01
Ga    4.6545292633727033E+00    1.0175964572608914E+01    1.6488981759027254E+01
O    7.4957378533074426E-01    3.8641656569480189E+00   -3.5008551835263618E-01
H    3.1065878225364671E+00    7.3091516228342535E+00    1.3751567331969130E+00
C    1.1520697700933986E+00    2.5968226362404709E+00   -9.2190962231521789E-01
H    1.8499140544203470E+00    2.0504426638191076E+00   -2.6586135191807936E-01
H    2.8241307938646715E-01    1.9554634394606913E+00   -1.1257527817160444E+00
H    1.6543450275955183E+00    2.8025259434024790E+00   -1.8786871900336954E+00
Ga    3.1645555804116015E+00    5.4039334264336398E+00    2.4833177011138390E+00
O    2.8564051041552214E+00    5.4721431331731827E+00    2.0304801352655022E-01
H    2.0478999013056272E+00    4.8721080350844588E+00   -2.3309696133336184E-02
C    3.9021385379655729E+00    5.2578214060381097E+00   -7.7439793039932281E-01
H    3.5159601510046148E+00    5.4246597029927770E+00   -1.7912524007266775E+00
H    4.7072796399979415E+00    5.9723438730523934E+00   -5.6954036253600804E-01
H    4.2953441886073822E+00    4.2333685840222222E+00   -7.0187244879357069E-01
     &END COORD
     &KIND C
       BASIS_SET DZVP-MOLOPT-SR-GTH-q4
       POTENTIAL GTH-PBE-q4
       &POTENTIAL
 2 2
  0.3384712400000000E+00 2 -0.8803673979999999E+01  0.1339210850000000E+01
 2
  0.3025757500000000E+00 1  0.9622486650000001E+01
  0.2915069400000000E+00 0
         # Potential name:  GTH-PBE-Q4  for symbol:  C
         # Potential read from the potential filename: GTH_POTENTIALS
       &END POTENTIAL
     &END KIND
     &KIND O
       BASIS_SET DZVP-MOLOPT-SR-GTH-q6
       POTENTIAL GTH-PBE-q6
       &POTENTIAL
 2 4
  0.2445543000000000E+00 2 -0.1666721480000000E+02  0.2487311320000000E+01
 2
  0.2209559200000000E+00 1  0.1833745811000000E+02
  0.2113324700000000E+00 0
         # Potential name:  GTH-PBE-Q6  for symbol:  O
         # Potential read from the potential filename: GTH_POTENTIALS
       &END POTENTIAL
     &END KIND
     &KIND H
       BASIS_SET DZVP-MOLOPT-SR-GTH-q1
       POTENTIAL GTH-PBE-q1
       &POTENTIAL
 1
  0.2000000000000000E+00 2 -0.4178900440000000E+01  0.7244633100000000E+00
 0
         # Potential name:  GTH-PBE-Q1  for symbol:  H
         # Potential read from the potential filename: GTH_POTENTIALS
       &END POTENTIAL
     &END KIND
     &KIND N
       BASIS_SET DZVP-MOLOPT-SR-GTH
       POTENTIAL GTH-PBE-q5
       &POTENTIAL
 2 3
  0.2837905100000000E+00 2 -0.1241522559000000E+02  0.1868095920000000E+01
 2
  0.2554050000000000E+00 1  0.1363026257000000E+02
  0.2454945300000000E+00 0
         # Potential name:  GTH-PBE-Q5  for symbol:  N
         # Potential read from the potential filename: GTH_POTENTIALS
       &END POTENTIAL
     &END KIND
     &KIND Ga
       BASIS_SET DZVP-MOLOPT-SR-GTH
       POTENTIAL GTH-PBE-q13
       &POTENTIAL
 2 1 10
  0.4900000000000000E+00 0
 3
  0.4167772300000000E+00 3  0.1047568975000000E+02 -0.4921768140000000E+01  0.8707055900000000E+00
  0.7770178090000000E+01 -0.2248152160000000E+01
  0.1784415450000000E+01
  0.5696265200000000E+00 2  0.1777985340000000E+01  0.1958597600000000E+00
 -0.2317443900000000E+00
  0.2381265000000000E+00 1 -0.1624868022000000E+02
         # Potential name:  GTH-PBE-Q13  for symbol:  GA
         # Potential read from the potential filename: GTH_POTENTIALS
       &END POTENTIAL
     &END KIND
     &TOPOLOGY
       NUMBER_OF_ATOMS  212
       MULTIPLE_UNIT_CELL  1 1 1
     &END TOPOLOGY
   &END SUBSYS
 &END FORCE_EVAL
