 # Version information for this restart file 
 # current date 2019-06-30 09:36:04.991
 # current working dir /scratch/rzk/rzk/GaN-carbene/443-adatoms-both-2x2/05-2DissMethanol/02-0501-MoveHToNTop
 # Program compiled at                              Sun Apr  7 00:48:11 EDT 2019
 # Program compiled on                          beluga2.int.ets1.calculquebec.ca
 # Program compiled for                        Beluga-Linux-x86-64-intel-openmpi
 # Source code revision number                                         svn:18619
 &GLOBAL
   PRINT_LEVEL  MEDIUM
   PROJECT_NAME TEST
   RUN_TYPE  GEO_OPT
 &END GLOBAL
 &MOTION
   &GEO_OPT
     MAX_ITER  500
     STEP_START_VAL  6
   &END GEO_OPT
 &END MOTION
 &FORCE_EVAL
   METHOD  QS
   STRESS_TENSOR  ANALYTICAL
   &DFT
     BASIS_SET_FILE_NAME BASIS_MOLOPT
     POTENTIAL_FILE_NAME GTH_POTENTIALS
     UKS  T
     SURFACE_DIPOLE_CORRECTION  T
     SURF_DIP_DIR  Z
     &SCF
       MAX_SCF  80
       EPS_SCF     5.0000000000000004E-06
       &OT  T
         PRECONDITIONER  FULL_ALL
       &END OT
       &OUTER_SCF  T
         OPTIMIZER  NONE
         EPS_SCF     5.0000000000000004E-06
         MAX_SCF  4
       &END OUTER_SCF
       &PRINT
         &RESTART  OFF
           BACKUP_COPIES  1
           &EACH
             JUST_ENERGY  0
             QS_SCF  0
             MD  20
           &END EACH
         &END RESTART
       &END PRINT
     &END SCF
     &QS
       EPS_DEFAULT     1.0000000000000000E-14
       METHOD  GPW
     &END QS
     &MGRID
       NGRIDS  5
       CUTOFF     1.2000000000000000E+03
     &END MGRID
     &XC
       DENSITY_CUTOFF     1.0000000000000000E-10
       GRADIENT_CUTOFF     1.0000000000000000E-10
       TAU_CUTOFF     1.0000000000000000E-10
       &XC_FUNCTIONAL  NO_SHORTCUT
         &PBE  T
         &END PBE
       &END XC_FUNCTIONAL
       &VDW_POTENTIAL
         POTENTIAL_TYPE  PAIR_POTENTIAL
         &PAIR_POTENTIAL
           R_CUTOFF     1.0000000000000004E+01
           TYPE  DFTD3
           PARAMETER_FILE_NAME dftd3.dat
           REFERENCE_FUNCTIONAL PBE
           EPS_CN     9.9999999999999995E-07
           CALCULATE_C9_TERM  T
           REFERENCE_C9_TERM  T
           LONG_RANGE_CORRECTION  F
           VERBOSE_OUTPUT  F
         &END PAIR_POTENTIAL
       &END VDW_POTENTIAL
     &END XC
   &END DFT
   &SUBSYS
     &CELL
       A     1.2864472766435110E+01    0.0000000000000000E+00    0.0000000000000000E+00
       B    -6.4322363581020028E+00    1.1140960178524473E+01    0.0000000000000000E+00
       C     0.0000000000000000E+00    0.0000000000000000E+00    3.2000000000000000E+01
       MULTIPLE_UNIT_CELL  1 1 1
       &CELL_REF
         A     1.2982353780853531E+01    0.0000000000000000E+00    0.0000000000000000E+00
         B    -6.4911768904267628E+00    1.1243048175136114E+01    0.0000000000000000E+00
         C     0.0000000000000000E+00    0.0000000000000000E+00    3.2000000000000000E+01
         MULTIPLE_UNIT_CELL  1 1 1
       &END CELL_REF
     &END CELL
     &COORD
N   -7.4257937506146494E-03    2.0271488262520387E+00    2.5140847062944336E+00
Ga   -2.2227221676423107E-02    8.9389354879774161E-02    2.8622062384640832E+00
N   -1.1487252108557592E-02    4.8197773136769359E-02    5.0261681253601767E+00
Ga   -1.6368217855452533E-02    1.8771613488317394E+00    5.8137468672962811E+00
N   -1.2577967581509478E-02    1.8950217200205903E+00    7.8101764083929224E+00
Ga   -9.5084955878559068E-03    4.6762077826119394E-02    8.4388561737775181E+00
N   -7.2891132733367532E-03    5.2158315388376321E-02    1.0416209672646257E+01
Ga   -4.3072456749042570E-03    1.8935699684518652E+00    1.1065353954742708E+01
N   -5.0000940668255018E-03    1.8756406342939222E+00    1.3062172691481868E+01
Ga   -8.1465816823942990E-03    5.6343096089957440E-02    1.3863556012230669E+01
N   -6.9979320905671433E-03    5.6879571267316097E-02    1.6068846737668821E+01
Ga   -5.9705814774280276E-03    2.1037179209472487E+00    1.6484103539199459E+01
Ga    4.7392428963599666E-02    3.7506609131414317E+00    1.3851886474731181E+00
N   -1.4745661659104992E+00    4.6090840319067272E+00    2.4777900174936360E+00
Ga   -1.6732358914864462E+00    2.7887095255054897E+00    3.2695368581484505E+00
N   -1.6170165964356134E+00    2.8399322537919649E+00    5.2512891315414585E+00
Ga   -1.6326943489998840E+00    4.7129291309340386E+00    5.7895692183171743E+00
N   -1.6246682135180661E+00    4.7060189570503725E+00    7.7930031243955096E+00
Ga   -1.6027413077690749E+00    2.8508787514760430E+00    8.4436052244398550E+00
N   -1.6028765402427996E+00    2.8494666931761068E+00    1.0437149254089507E+01
Ga   -1.6280410759955448E+00    4.7103557968798340E+00    1.1066843418329476E+01
N   -1.6446211018388692E+00    4.7174673941969738E+00    1.3063002413181332E+01
Ga   -1.6009115349561389E+00    2.8484709395971337E+00    1.3616978846517059E+01
N   -1.6276833961793131E+00    2.8341113964571250E+00    1.5581053114221648E+01
Ga   -1.4492282186026095E+00    4.6036175590216590E+00    1.6484436649752226E+01
N    2.1901342998473295E-03    3.7751493991944995E+00    1.7626982169977030E+01
N   -3.2212757360283786E+00    7.6015042796237848E+00    2.5357033805943465E+00
Ga   -3.1759302614953371E+00    5.5869777335882187E+00    2.8140876568073914E+00
N   -3.2201003556788077E+00    5.6186210685991975E+00    4.9897951880195173E+00
Ga   -3.2237179819708688E+00    7.4470652646800826E+00    5.7744522945634662E+00
N   -3.2220719842691432E+00    7.4721210940132803E+00    7.7776794070838617E+00
Ga   -3.2215973865917849E+00    5.6295628921475238E+00    8.4364497440593915E+00
N   -3.2221504392550324E+00    5.6282584847093586E+00    1.0414175956137349E+01
Ga   -3.2230939021618856E+00    7.4679417051946073E+00    1.1061839105511357E+01
N   -3.2213180137811031E+00    7.4470356150449231E+00    1.3061196153368845E+01
Ga   -3.2210753135752896E+00    5.6245907805645654E+00    1.3865486070568192E+01
N   -3.2207837829943942E+00    5.6254766413756894E+00    1.6070592422672291E+01
Ga   -3.2210129754305195E+00    7.6558572043866064E+00    1.6468135884689307E+01
Ga   -3.2250724635865864E+00    9.3420640408330495E+00    1.5897171973114246E+00
N   -4.7215294884768673E+00    1.0197917789893076E+01    2.5343207705145545E+00
Ga   -4.9685533832751450E+00    8.3352447652359896E+00    3.2867928988089914E+00
N   -4.8421324736373021E+00    8.4025463899328017E+00    5.2368962088489859E+00
Ga   -4.8588885015152412E+00    1.0276950097140235E+01    5.7915426759204749E+00
N   -4.8395907196165151E+00    1.0272978576668107E+01    7.7897955013845577E+00
Ga   -4.8266339271258190E+00    8.4130872969549326E+00    8.4154777301868187E+00
N   -4.8211125454100072E+00    8.4158895102675348E+00    1.0417880639937152E+01
Ga   -4.8457962432849575E+00    1.0273629076963509E+01    1.1062715952556788E+01
N   -4.8613663458020540E+00    1.0286047816871532E+01    1.3061644538092779E+01
Ga   -4.8187098885723829E+00    8.4173923822861774E+00    1.3616308088220373E+01
N   -4.8470004094040133E+00    8.4007944952584612E+00    1.5582626382322035E+01
Ga   -4.6793735953069797E+00    1.0182119154838546E+01    1.6467529005357417E+01
N   -3.2196163266346982E+00    9.3403575808075310E+00    1.7584317162707052E+01
N    3.1937462549081195E+00    1.9152884760138635E+00    2.6278987283021729E+00
Ga    3.1999104897955855E+00    1.8394363087732160E-01    3.3121193548694103E+00
N    3.2100630536893822E+00    5.3303963736105645E-02    5.2608868466360512E+00
Ga    3.2067621733304210E+00    1.9075579168324879E+00    5.8972929126907019E+00
N    3.2140189367774457E+00    1.9120513590816306E+00    7.8666050254798190E+00
Ga    3.2094749227601675E+00    4.1729222727174012E-02    8.4355900890248279E+00
N    3.2107129706071142E+00    4.1929346164185984E-02    1.0432094552172829E+01
Ga    3.2104472162698068E+00    1.9139824484314041E+00    1.1024134433963757E+01
N    3.2109085235675288E+00    1.9134628153900648E+00    1.2999614443358482E+01
Ga    3.2112650141366008E+00    4.3222855289872471E-02    1.3615187185746132E+01
N    3.2109437204448299E+00    7.6628706407247921E-02    1.5581989271127560E+01
Ga    3.2109128088199324E+00    1.9169031805863477E+00    1.5860235662931764E+01
N    1.4496069296044314E+00    4.5745994978118913E+00    2.6122242149603134E+00
Ga    1.6498711431886257E+00    2.7574373525996752E+00    3.3240660701092546E+00
N    1.5987087794446597E+00    2.8133992049155396E+00    5.2886489140717927E+00
Ga    1.6341416230487606E+00    4.7038246283810938E+00    5.7767312608923680E+00
N    1.6116208543548789E+00    4.7020140619901314E+00    7.7899862964268403E+00
Ga    1.5899841200224820E+00    2.8485015161805074E+00    8.4332334247811165E+00
N    1.5914193055183163E+00    2.8481505458249803E+00    1.0431267581820341E+01
Ga    1.6187190586783726E+00    4.7087934300435048E+00    1.1062929962919963E+01
N    1.6350866419689987E+00    4.7176741289274489E+00    1.3061337898334298E+01
Ga    1.5901306972719984E+00    2.8492086449337979E+00    1.3618644201655455E+01
N    1.6159212636907083E+00    2.8327973448765009E+00    1.5583625204893629E+01
Ga    1.4451756847791524E+00    4.6082810370582932E+00    1.6484309406502298E+01
N    5.7711774383900046E-03    7.4561606606076563E+00    2.5781837907932577E+00
Ga    4.6937070458638224E-03    5.6919682988366738E+00    3.2821199161695169E+00
N   -6.9011103468984997E-03    5.6340338173329316E+00    5.2530106056995214E+00
Ga    1.6989054492120629E-02    7.4788385386053244E+00    5.8563367480231356E+00
N    2.0985357092608088E-03    7.4870662667249581E+00    7.8352087955294376E+00
Ga   -1.5998549875915809E-03    5.6157126562395119E+00    8.4251354656816044E+00
N   -5.5780213483329222E-03    5.6147840216646694E+00    1.0426255909553866E+01
Ga   -3.6954393643926302E-03    7.4832443345266908E+00    1.1018507725567455E+01
N   -4.7168001330818408E-03    7.4840514193472814E+00    1.2994897302072962E+01
Ga   -4.7439484318004457E-03    5.6137795095700573E+00    1.3618026854308646E+01
N   -7.0359963181178655E-03    5.6433957716683150E+00    1.5582584665225170E+01
Ga   -1.5666484065495858E-03    7.4818151508542448E+00    1.5862725086115088E+01
N   -1.7194839897550274E+00    1.0200419537255261E+01    2.5450995336257369E+00
Ga   -1.4885004419445733E+00    8.3297868302242879E+00    3.3023011163768601E+00
N   -1.6002357953385933E+00    8.4031374695123731E+00    5.2451593999748747E+00
Ga   -1.5911243516345344E+00    1.0277229518915449E+01    5.7939577517377261E+00
N   -1.6038669762480666E+00    1.0273176928015980E+01    7.7911763895077693E+00
Ga   -1.6215866223442619E+00    8.4144814426503878E+00    8.4240419375905180E+00
N   -1.6243472931573260E+00    8.4174055843423847E+00    1.0425081752175629E+01
Ga   -1.5975382737409525E+00    1.0275382471463246E+01    1.1064843765196061E+01
N   -1.5800672653448617E+00    1.0286790695356322E+01    1.3063091095750753E+01
Ga   -1.6232914436879431E+00    8.4174669491311693E+00    1.3615301171757347E+01
N   -1.5952529484079365E+00    8.4006335661324893E+00    1.5581956177643617E+01
Ga   -1.7614985398729897E+00    1.0182853005822560E+01    1.6466595080324009E+01
N    6.4372657049610007E+00    2.0104153262882516E+00    2.5487710966285935E+00
Ga    6.4421515802632792E+00    4.6799253529940910E-02    2.8884675569245095E+00
N    6.4297711425950856E+00    5.2880201453569115E-02    5.0243927297323410E+00
Ga    6.4317854444948805E+00    1.8795251198490930E+00    5.8170571647656617E+00
N    6.4313968958801562E+00    1.8984005380005182E+00    7.8068143627931370E+00
Ga    6.4300821128021068E+00    4.8339473726843135E-02    8.4385753581075562E+00
N    6.4286373405172101E+00    5.3504551005876047E-02    1.0415033033570239E+01
Ga    6.4275177225587248E+00    1.8942929617380717E+00    1.1067054179021822E+01
N    6.4275792900844442E+00    1.8752054073096938E+00    1.3062386568220042E+01
Ga    6.4307899003675848E+00    5.6596054081772457E-02    1.3865421193293390E+01
N    6.4288980095642856E+00    5.6491902097370129E-02    1.6068504363866374E+01
Ga    6.4277537621686323E+00    2.1052385292796059E+00    1.6487666716454083E+01
Ga    6.4447369524373794E+00    3.7274540403411676E+00    1.5467704073990660E+00
N    4.9471508302914522E+00    4.5841913673088888E+00    2.5313199107899558E+00
Ga    4.7209430209919949E+00    2.7499459198692304E+00    3.3141555368670659E+00
N    4.8225012621658552E+00    2.8211659417887991E+00    5.2685249539776864E+00
Ga    4.7829891347225795E+00    4.7062492406509620E+00    5.7916624588114978E+00
N    4.8122657109410474E+00    4.6999942982528715E+00    7.7929937190598357E+00
Ga    4.8304149138007491E+00    2.8481897860832905E+00    8.4417034955525896E+00
N    4.8311667104189615E+00    2.8484248326652506E+00    1.0434914254973847E+01
Ga    4.8039601059221964E+00    4.7104427612709872E+00    1.1063286813206151E+01
N    4.7873843636983615E+00    4.7177945547668703E+00    1.3060531381968786E+01
Ga    4.8319224895575204E+00    2.8488309877865965E+00    1.3619391653121259E+01
N    4.8054705003554217E+00    2.8323783777936189E+00    1.5583504452113004E+01
Ga    4.9788389212729349E+00    4.6064650382320895E+00    1.6488247399043082E+01
N    6.4204780452362469E+00    3.7741203003786215E+00    1.7629352842184833E+01
N    3.1971572600699965E+00    7.4848733189622436E+00    2.4558296447442425E+00
N    3.2168759985435575E+00    5.5828078114674309E+00    4.9852711743590028E+00
Ga    3.2116537363803923E+00    7.4157811354648659E+00    5.7327053288588754E+00
N    3.2101387260631440E+00    7.4673736254301764E+00    7.7569847020026481E+00
Ga    3.2096506756296157E+00    5.6276811923793373E+00    8.4265041990058247E+00
N    3.2111785568438327E+00    5.6294213032567795E+00    1.0408294685063776E+01
Ga    3.2124631715138965E+00    7.4645267020558794E+00    1.1066149155289150E+01
N    3.2111231248314525E+00    7.4472324077969798E+00    1.3061070695594090E+01
Ga    3.2113452352980127E+00    5.6270589277882852E+00    1.3866360169769480E+01
N    3.2103379507791447E+00    5.6273099938090132E+00    1.6070013544314868E+01
Ga    3.2101641608191174E+00    7.6671861352342425E+00    1.6485111999176358E+01
Ga    3.1958992432223385E+00    1.0028400216081735E+01    1.0977996427526759E+00
N    1.7161106736590046E+00    1.0241793652211374E+01    2.5479608733751280E+00
Ga    1.5693770777764544E+00    8.3524794544777379E+00    3.1599547036626836E+00
N    1.6099080382901592E+00    8.3915280355766217E+00    5.1640343895443808E+00
Ga    1.5738784211991059E+00    1.0244170545157363E+01    5.7841427414882940E+00
N    1.5907855983622774E+00    1.0261436593664932E+01    7.7822995637344548E+00
Ga    1.6226264758519520E+00    8.4083734954659644E+00    8.4267821047907319E+00
N    1.6181143363644881E+00    8.4161676693404832E+00    1.0423889231496158E+01
Ga    1.5905500207866168E+00    1.0274822131922477E+01    1.1062159020842095E+01
N    1.5719935306303094E+00    1.0286348379544705E+01    1.3058032192424667E+01
Ga    1.6143028014792811E+00    8.4189581244650871E+00    1.3618038749572166E+01
N    1.5872491100020845E+00    8.4051939974605645E+00    1.5580926577685180E+01
Ga    1.7675658344018168E+00    1.0174193219019005E+01    1.6485466481628023E+01
N    3.2100591720434095E+00    9.3322864535251888E+00    1.7628061109371959E+01
N    9.6547609600787041E+00    1.8863811064977256E+00    2.6503303373582123E+00
Ga    9.6550940645734755E+00    1.6500002976105504E-01    3.3842089879990924E+00
N    9.6415922882758878E+00    5.2740516873078680E-02    5.3083844710799033E+00
Ga    9.6541181919000625E+00    1.9252215996219781E+00    5.8991209249705721E+00
N    9.6429267951551800E+00    1.9133347504491141E+00    7.8641342125605265E+00
Ga    9.6452517788994463E+00    3.4910095541700187E-02    8.4179624878953163E+00
N    9.6434044846620282E+00    4.0858300491329838E-02    1.0419266497100420E+01
Ga    9.6427087439374422E+00    1.9100142608694408E+00    1.1021202586230029E+01
N    9.6427120564619830E+00    1.9116849046612761E+00    1.2999367403255938E+01
Ga    9.6430350144851484E+00    4.1084232025959184E-02    1.3617978891091594E+01
N    9.6429165108004806E+00    7.2741002139725744E-02    1.5579876310343236E+01
Ga    9.6431717371335512E+00    1.9127640263931893E+00    1.5855425325544582E+01
N    7.9353603654837803E+00    4.6205141068051852E+00    2.5215698286956987E+00
Ga    8.1547008962628080E+00    2.7729671092160530E+00    3.3156406881210065E+00
N    8.0396450073128278E+00    2.8386547877718824E+00    5.2665730537698821E+00
Ga    8.0582838511695378E+00    4.7215812752849704E+00    5.7888337004267605E+00
N    8.0437509242423086E+00    4.7078003609869183E+00    7.7878626384535554E+00
Ga    8.0259639780136229E+00    2.8521339793431677E+00    8.4399141386421395E+00
N    8.0242640023752170E+00    2.8497811445206862E+00    1.0433655368298128E+01
Ga    8.0488119723430014E+00    4.7102016214781077E+00    1.1066454424198906E+01
N    8.0668280564411994E+00    4.7171442729742061E+00    1.3061981118523327E+01
Ga    8.0229197122890277E+00    2.8485540962236415E+00    1.3619326645869661E+01
N    8.0501797441246215E+00    2.8338863227502857E+00    1.5582501373452347E+01
Ga    7.8693048676817767E+00    4.6023221578168751E+00    1.6488777473145461E+01
N    6.4071463872982370E+00    7.4682238922406770E+00    2.5592110290825776E+00
Ga    6.4093737302625948E+00    5.7375863897222583E+00    3.2750954253248503E+00
N    6.4220660442050308E+00    5.6215731284082020E+00    5.2333756008622201E+00
Ga    6.3947536141059569E+00    7.4840688517858407E+00    5.8353540330727895E+00
N    6.4174958577008496E+00    7.4836596980708752E+00    7.8183390595846749E+00
Ga    6.4240105233861726E+00    5.6204438157355048E+00    8.4235529535054461E+00
N    6.4276740858429768E+00    5.6167196244965796E+00    1.0421744319403182E+01
Ga    6.4252909516212773E+00    7.4835609246731201E+00    1.1019050864185459E+01
N    6.4265118632083027E+00    7.4840429815452350E+00    1.2994227595269125E+01
Ga    6.4272779072196196E+00    5.6133628069734787E+00    1.3620294215634647E+01
N    6.4289886687971558E+00    5.6435537003217879E+00    1.5583884713549415E+01
Ga    6.4232185473473935E+00    7.4818154103486361E+00    1.5862803606789280E+01
N    4.7048598594266355E+00    1.0251499108652038E+01    2.5283151679433247E+00
Ga    4.8428280852393515E+00    8.3572770601108495E+00    3.1240084724877208E+00
N    4.7986130560353217E+00    8.3916553064125790E+00    5.1431613458326160E+00
Ga    4.8498266679528106E+00    1.0239633067547345E+01    5.7750682516771139E+00
N    4.8308920698226991E+00    1.0259815376353798E+01    7.7778179471655671E+00
Ga    4.8014272904276218E+00    8.4074478358961287E+00    8.4182272527383972E+00
N    4.8058317666067039E+00    8.4147489790215779E+00    1.0416909612764247E+01
Ga    4.8316176864726481E+00    1.0272895911073920E+01    1.1061090035292315E+01
N    4.8494387069184430E+00    1.0285920836927872E+01    1.3057494147162245E+01
Ga    4.8070090525737665E+00    8.4191520233014963E+00    1.3619641431317993E+01
N    4.8338599834284635E+00    8.4051503968807033E+00    1.5582475342056737E+01
Ga    4.6528986674740711E+00    1.0174007712418778E+01    1.6486134047006441E+01
O    6.9973705629846872E-01    3.8641572079513931E+00   -3.4588255332563150E-01
H    3.1404834973294427E+00    7.5587416258026296E+00    1.4169718780140497E+00
C    1.1397942120809259E+00    2.6111400845861241E+00   -9.1214267585456565E-01
H    1.8442564163544342E+00    2.0795496631066372E+00   -2.4949455586567873E-01
H    2.8516817006525741E-01    1.9523458471302924E+00   -1.1205455230815091E+00
H    1.6490199047595273E+00    2.8275339930892893E+00   -1.8617011450097338E+00
Ga    3.1734194057802303E+00    5.4563499241853872E+00    2.7405402486522972E+00
O    2.8871632930616942E+00    5.4747680111242891E+00    2.5695192205274842E-01
H    2.1080504131725770E+00    4.8950596782611022E+00    4.2776719909693714E-02
C    3.8876500725026522E+00    5.2542743116521287E+00   -7.3717065054224307E-01
H    3.4923860079367102E+00    5.4332367696974444E+00   -1.7456977591920095E+00
H    4.7057993182299143E+00    5.9614217448854721E+00   -5.4620493240112711E-01
H    4.2944043001909780E+00    4.2261060809690241E+00   -6.9463135548593358E-01
     &END COORD
     &KIND C
       BASIS_SET DZVP-MOLOPT-SR-GTH-q4
       POTENTIAL GTH-PBE-q4
       &POTENTIAL
 2 2
  0.3384712400000000E+00 2 -0.8803673979999999E+01  0.1339210850000000E+01
 2
  0.3025757500000000E+00 1  0.9622486650000001E+01
  0.2915069400000000E+00 0
         # Potential name:  GTH-PBE-Q4  for symbol:  C
         # Potential read from the potential filename: GTH_POTENTIALS
       &END POTENTIAL
     &END KIND
     &KIND O
       BASIS_SET DZVP-MOLOPT-SR-GTH-q6
       POTENTIAL GTH-PBE-q6
       &POTENTIAL
 2 4
  0.2445543000000000E+00 2 -0.1666721480000000E+02  0.2487311320000000E+01
 2
  0.2209559200000000E+00 1  0.1833745811000000E+02
  0.2113324700000000E+00 0
         # Potential name:  GTH-PBE-Q6  for symbol:  O
         # Potential read from the potential filename: GTH_POTENTIALS
       &END POTENTIAL
     &END KIND
     &KIND H
       BASIS_SET DZVP-MOLOPT-SR-GTH-q1
       POTENTIAL GTH-PBE-q1
       &POTENTIAL
 1
  0.2000000000000000E+00 2 -0.4178900440000000E+01  0.7244633100000000E+00
 0
         # Potential name:  GTH-PBE-Q1  for symbol:  H
         # Potential read from the potential filename: GTH_POTENTIALS
       &END POTENTIAL
     &END KIND
     &KIND N
       BASIS_SET DZVP-MOLOPT-SR-GTH
       POTENTIAL GTH-PBE-q5
       &POTENTIAL
 2 3
  0.2837905100000000E+00 2 -0.1241522559000000E+02  0.1868095920000000E+01
 2
  0.2554050000000000E+00 1  0.1363026257000000E+02
  0.2454945300000000E+00 0
         # Potential name:  GTH-PBE-Q5  for symbol:  N
         # Potential read from the potential filename: GTH_POTENTIALS
       &END POTENTIAL
     &END KIND
     &KIND Ga
       BASIS_SET DZVP-MOLOPT-SR-GTH
       POTENTIAL GTH-PBE-q13
       &POTENTIAL
 2 1 10
  0.4900000000000000E+00 0
 3
  0.4167772300000000E+00 3  0.1047568975000000E+02 -0.4921768140000000E+01  0.8707055900000000E+00
  0.7770178090000000E+01 -0.2248152160000000E+01
  0.1784415450000000E+01
  0.5696265200000000E+00 2  0.1777985340000000E+01  0.1958597600000000E+00
 -0.2317443900000000E+00
  0.2381265000000000E+00 1 -0.1624868022000000E+02
         # Potential name:  GTH-PBE-Q13  for symbol:  GA
         # Potential read from the potential filename: GTH_POTENTIALS
       &END POTENTIAL
     &END KIND
     &TOPOLOGY
       NUMBER_OF_ATOMS  212
       MULTIPLE_UNIT_CELL  1 1 1
     &END TOPOLOGY
   &END SUBSYS
 &END FORCE_EVAL
