 # Version information for this restart file 
 # current date 2019-06-30 09:27:31.003
 # current working dir /scratch/rzk/rzk/GaN-carbene/443-adatoms-both-2x2/05-2DissMethanol/02-0501-MoveHToNTop
 # Program compiled at                              Sun Apr  7 00:48:11 EDT 2019
 # Program compiled on                          beluga2.int.ets1.calculquebec.ca
 # Program compiled for                        Beluga-Linux-x86-64-intel-openmpi
 # Source code revision number                                         svn:18619
 &GLOBAL
   PRINT_LEVEL  MEDIUM
   PROJECT_NAME TEST
   RUN_TYPE  GEO_OPT
 &END GLOBAL
 &MOTION
   &GEO_OPT
     MAX_ITER  500
     STEP_START_VAL  4
   &END GEO_OPT
 &END MOTION
 &FORCE_EVAL
   METHOD  QS
   STRESS_TENSOR  ANALYTICAL
   &DFT
     BASIS_SET_FILE_NAME BASIS_MOLOPT
     POTENTIAL_FILE_NAME GTH_POTENTIALS
     UKS  T
     SURFACE_DIPOLE_CORRECTION  T
     SURF_DIP_DIR  Z
     &SCF
       MAX_SCF  80
       EPS_SCF     5.0000000000000004E-06
       &OT  T
         PRECONDITIONER  FULL_ALL
       &END OT
       &OUTER_SCF  T
         OPTIMIZER  NONE
         EPS_SCF     5.0000000000000004E-06
         MAX_SCF  4
       &END OUTER_SCF
       &PRINT
         &RESTART  OFF
           BACKUP_COPIES  1
           &EACH
             JUST_ENERGY  0
             QS_SCF  0
             MD  20
           &END EACH
         &END RESTART
       &END PRINT
     &END SCF
     &QS
       EPS_DEFAULT     1.0000000000000000E-14
       METHOD  GPW
     &END QS
     &MGRID
       NGRIDS  5
       CUTOFF     1.2000000000000000E+03
     &END MGRID
     &XC
       DENSITY_CUTOFF     1.0000000000000000E-10
       GRADIENT_CUTOFF     1.0000000000000000E-10
       TAU_CUTOFF     1.0000000000000000E-10
       &XC_FUNCTIONAL  NO_SHORTCUT
         &PBE  T
         &END PBE
       &END XC_FUNCTIONAL
       &VDW_POTENTIAL
         POTENTIAL_TYPE  PAIR_POTENTIAL
         &PAIR_POTENTIAL
           R_CUTOFF     1.0000000000000004E+01
           TYPE  DFTD3
           PARAMETER_FILE_NAME dftd3.dat
           REFERENCE_FUNCTIONAL PBE
           EPS_CN     9.9999999999999995E-07
           CALCULATE_C9_TERM  T
           REFERENCE_C9_TERM  T
           LONG_RANGE_CORRECTION  F
           VERBOSE_OUTPUT  F
         &END PAIR_POTENTIAL
       &END VDW_POTENTIAL
     &END XC
   &END DFT
   &SUBSYS
     &CELL
       A     1.2864472766435110E+01    0.0000000000000000E+00    0.0000000000000000E+00
       B    -6.4322363581020028E+00    1.1140960178524473E+01    0.0000000000000000E+00
       C     0.0000000000000000E+00    0.0000000000000000E+00    3.2000000000000000E+01
       MULTIPLE_UNIT_CELL  1 1 1
       &CELL_REF
         A     1.2982353780853531E+01    0.0000000000000000E+00    0.0000000000000000E+00
         B    -6.4911768904267628E+00    1.1243048175136114E+01    0.0000000000000000E+00
         C     0.0000000000000000E+00    0.0000000000000000E+00    3.2000000000000000E+01
         MULTIPLE_UNIT_CELL  1 1 1
       &END CELL_REF
     &END CELL
     &COORD
N   -1.4753610729271959E-02    2.0367475934287986E+00    2.5024448756460513E+00
Ga   -1.3483414280520618E-02    9.6228031575680148E-02    2.8559290508896917E+00
N   -4.3315903044161223E-03    5.4022971085284893E-02    5.0122732788701905E+00
Ga   -1.1650305765649531E-02    1.8828879437110133E+00    5.8099855375886893E+00
N   -8.8780187821216675E-03    1.8988559687848328E+00    7.8050539549417977E+00
Ga   -6.1365480541945017E-03    5.1793391780217371E-02    8.4387694939090636E+00
N   -4.8607364480830785E-03    5.3767725174455078E-02    1.0413910499874119E+01
Ga   -4.1303085176484112E-03    1.8935598886117384E+00    1.1070141883342201E+01
N   -4.9160299275649022E-03    1.8751446794946947E+00    1.3061813532593321E+01
Ga   -7.5624013941498480E-03    5.8414260700308633E-02    1.3871340962312047E+01
N   -6.4194422764203328E-03    5.6891958937141780E-02    1.6071456623478603E+01
Ga   -6.0830578591522556E-03    2.1068398076898567E+00    1.6488809985251994E+01
Ga    2.3985974100835184E-02    3.7560996442172940E+00    1.3778540271893560E+00
N   -1.4853318463954308E+00    4.6193749643115050E+00    2.4717209544932177E+00
Ga   -1.6812910108676360E+00    2.7985469716387823E+00    3.2744104022631682E+00
N   -1.6165074445381389E+00    2.8429949021183791E+00    5.2533090874683923E+00
Ga   -1.6315345946807052E+00    4.7157247586955728E+00    5.8003766119315969E+00
N   -1.6265211823420120E+00    4.7052117081851748E+00    7.7989761660346559E+00
Ga   -1.6023028095370464E+00    2.8508596644946094E+00    8.4448810520039874E+00
N   -1.6020323838333952E+00    2.8482657196750734E+00    1.0436136740468264E+01
Ga   -1.6278946034029069E+00    4.7098399885296818E+00    1.1069495315046227E+01
N   -1.6445286128958045E+00    4.7170616303958850E+00    1.3061483848806221E+01
Ga   -1.6005268957035330E+00    2.8484912776746891E+00    1.3619992576201405E+01
N   -1.6266535568682521E+00    2.8331763808176449E+00    1.5578857087161403E+01
Ga   -1.4461277068004916E+00    4.6007955690729059E+00    1.6488881440881091E+01
N    1.4718090152763966E-03    3.7740368080768265E+00    1.7637197381854254E+01
N   -3.2259540058226310E+00    7.6078658855264596E+00    2.4993072370434106E+00
Ga   -3.1830990192948581E+00    5.5971772323962323E+00    2.8254989746776236E+00
N   -3.2185095819194673E+00    5.6286592389426433E+00    4.9962232373442408E+00
Ga   -3.2210385721399493E+00    7.4558987992006776E+00    5.7846853470763051E+00
N   -3.2225943947582580E+00    7.4734513560230171E+00    7.7820030399661810E+00
Ga   -3.2217798639669808E+00    5.6287853632314313E+00    8.4425980799764506E+00
N   -3.2222933737579753E+00    5.6287974319881409E+00    1.0416031774140581E+01
Ga   -3.2207724034139233E+00    7.4676769363618245E+00    1.1068600534870084E+01
N   -3.2206896164943295E+00    7.4481176246449339E+00    1.3065641935343550E+01
Ga   -3.2204190073198986E+00    5.6231729771068828E+00    1.3870090537517841E+01
N   -3.2217137150373096E+00    5.6251224330214447E+00    1.6070249021744509E+01
Ga   -3.2215688305305745E+00    7.6593832985244905E+00    1.6470019955974806E+01
Ga   -3.2095893939871116E+00    9.3396198303652458E+00    1.5589224273723741E+00
N   -4.7200988510823159E+00    1.0206258899194067E+01    2.5076704337096909E+00
Ga   -4.9489942662250037E+00    8.3457100883445801E+00    3.2747988442749869E+00
N   -4.8376011914984547E+00    8.4095445666659661E+00    5.2300775669079824E+00
Ga   -4.8552028839188957E+00    1.0282899848882398E+01    5.7897685802046261E+00
N   -4.8361818476491942E+00    1.0273484569358171E+01    7.7850309615686948E+00
Ga   -4.8232898809842526E+00    8.4150163194623104E+00    8.4258148814125633E+00
N   -4.8192027323719691E+00    8.4175077356254953E+00    1.0422824279482663E+01
Ga   -4.8451878409169122E+00    1.0275830626943099E+01    1.1070215770714182E+01
N   -4.8606698336583829E+00    1.0286409683988504E+01    1.3066695132261426E+01
Ga   -4.8183230679087368E+00    8.4177225736168051E+00    1.3622994854237529E+01
N   -4.8498957356828694E+00    8.4004393330611347E+00    1.5586819986019234E+01
Ga   -4.6775085955583879E+00    1.0181390035069304E+01    1.6469729818447270E+01
N   -3.2218602507618499E+00    9.3408234043976357E+00    1.7586059012082625E+01
N    3.1938250194202560E+00    1.9347849383780007E+00    2.6003985021829363E+00
Ga    3.2045483883055290E+00    1.9283288179897756E-01    3.2839200937540176E+00
N    3.2100210163730432E+00    5.8632657076014852E-02    5.2389622403088634E+00
Ga    3.2065843545139381E+00    1.9172387031000979E+00    5.8776633761624373E+00
N    3.2137784793105930E+00    1.9115570590738500E+00    7.8504583494654510E+00
Ga    3.2111814958013825E+00    4.4892207013280214E-02    8.4378599444590776E+00
N    3.2105184978084371E+00    4.1719398017610099E-02    1.0430970975369172E+01
Ga    3.2101138729865193E+00    1.9115529734215937E+00    1.1030278106711094E+01
N    3.2110528178865421E+00    1.9121545448743134E+00    1.3000619250925237E+01
Ga    3.2115921511914491E+00    4.4187101409675661E-02    1.3621212642150121E+01
N    3.2109943615671912E+00    8.0075463912657741E-02    1.5585899897257770E+01
Ga    3.2108750870429357E+00    1.9197989155742268E+00    1.5861249835545147E+01
N    1.4474159274925540E+00    4.5828625389466620E+00    2.5731553464971970E+00
Ga    1.6487486776066527E+00    2.7668336977342567E+00    3.3145387924039880E+00
N    1.5975605598240927E+00    2.8279976138374670E+00    5.2754210691724390E+00
Ga    1.6357170913644601E+00    4.7160976585037275E+00    5.8041714002752967E+00
N    1.6042463770962183E+00    4.7001278892103588E+00    7.8148194837292122E+00
Ga    1.5920572385735374E+00    2.8472835204443858E+00    8.4412372602866448E+00
N    1.5923973588464373E+00    2.8449358946924059E+00    1.0435034332433272E+01
Ga    1.6161955862862318E+00    4.7084394490890480E+00    1.1065980298213754E+01
N    1.6328550862886633E+00    4.7163328175171886E+00    1.3061479983019131E+01
Ga    1.5906460910039775E+00    2.8479144832726009E+00    1.3621950405101106E+01
N    1.6148034929282622E+00    2.8309672708919642E+00    1.5581917381755691E+01
Ga    1.4409904963930711E+00    4.6051263569575607E+00    1.6488198348628998E+01
N   -8.2768370408908606E-03    7.4598494044687182E+00    2.5852919085499182E+00
Ga   -3.3021069093503407E-03    5.7086270058759450E+00    3.2901396739596165E+00
N   -8.8211908981438020E-03    5.6339819668590909E+00    5.2642261710609697E+00
Ga    1.1373263782060678E-02    7.4832141027122363E+00    5.8612960367381248E+00
N   -1.7728130787500070E-03    7.4899802739125771E+00    7.8408964814714475E+00
Ga   -6.4177958799990784E-03    5.6211701225625372E+00    8.4333201547207750E+00
N   -8.3375110516452581E-03    5.6182167655903470E+00    1.0429822260091569E+01
Ga   -6.9929298361129247E-03    7.4839590093673207E+00    1.1027152675899572E+01
N   -5.9884053289499537E-03    7.4840787399990392E+00    1.2998126108060481E+01
Ga   -5.7100330563840691E-03    5.6136016192819884E+00    1.3622907753541341E+01
N   -8.0227544532155155E-03    5.6426930034822558E+00    1.5582481602929869E+01
Ga    7.7579401066768633E-05    7.4796480351979211E+00    1.5863897968692195E+01
N   -1.7187109898239885E+00    1.0214260903632153E+01    2.5080417262008057E+00
Ga   -1.4993095593769172E+00    8.3418773800206711E+00    3.2834077652805109E+00
N   -1.6076052968499714E+00    8.4106526793503225E+00    5.2467294443972428E+00
Ga   -1.5958540359084736E+00    1.0278484242631295E+01    5.7963822252333994E+00
N   -1.6065627287444531E+00    1.0274793147401555E+01    7.7892883986475283E+00
Ga   -1.6202028790730894E+00    8.4157210934878250E+00    8.4266542967931866E+00
N   -1.6244368808389529E+00    8.4176754271952436E+00    1.0423751914503724E+01
Ga   -1.5979165022204533E+00    1.0274966815900985E+01    1.1068883755652095E+01
N   -1.5814724589393132E+00    1.0285968668833412E+01    1.3065502239284399E+01
Ga   -1.6226826113215767E+00    8.4175811800567679E+00    1.3622666374161028E+01
N   -1.5923104178568477E+00    8.4003567304065871E+00    1.5586946175783252E+01
Ga   -1.7657992801080808E+00    1.0181354258391865E+01    1.6469891287115853E+01
N    6.4405312571945910E+00    2.0235985453860854E+00    2.5346643096634658E+00
Ga    6.4371536772576858E+00    6.0365235465813960E-02    2.8879707076250378E+00
N    6.4228263292693297E+00    5.4156125286528779E-02    5.0198672152173183E+00
Ga    6.4264700679229891E+00    1.8842928905929650E+00    5.8083138720112855E+00
N    6.4269506294884726E+00    1.9002165374944078E+00    7.7986873536750707E+00
Ga    6.4271927181901392E+00    5.2701124062579152E-02    8.4403418899762652E+00
N    6.4265483559350036E+00    5.4929713438038014E-02    1.0414139386423312E+01
Ga    6.4271388548853334E+00    1.8935763570731576E+00    1.1070975510512383E+01
N    6.4276327918049248E+00    1.8755746299402563E+00    1.3061567201230455E+01
Ga    6.4301406177589211E+00    5.7716854384012174E-02    1.3869583924164184E+01
N    6.4291809792185433E+00    5.7889905690046095E-02    1.6070743545356731E+01
Ga    6.4277055536136904E+00    2.1081111220098960E+00    1.6488537973520675E+01
Ga    6.4766713436605166E+00    3.7237636251198265E+00    1.5129101926605024E+00
N    4.9562490274655078E+00    4.5890293485059273E+00    2.4736827904143377E+00
Ga    4.7226123513100333E+00    2.7628889934371514E+00    3.2975426384766062E+00
N    4.8230730262780224E+00    2.8375994966566589E+00    5.2494050392847047E+00
Ga    4.7771846110817151E+00    4.7180584714167733E+00    5.8129608057726809E+00
N    4.8192565454552927E+00    4.6981288660196174E+00    7.8139621740328282E+00
Ga    4.8298714707210237E+00    2.8455509612392818E+00    8.4463788122971959E+00
N    4.8300733730502303E+00    2.8452253161320642E+00    1.0436555083245590E+01
Ga    4.8035402226761779E+00    4.7086450773180415E+00    1.1068835291815459E+01
N    4.7891118526520646E+00    4.7160323142525060E+00    1.3062746373690649E+01
Ga    4.8315549293533859E+00    2.8471818420392339E+00    1.3621907847222166E+01
N    4.8066913845873502E+00    2.8306564475437321E+00    1.5581180924385599E+01
Ga    4.9810065450656449E+00    4.6050916943177791E+00    1.6487286701768856E+01
N    6.4197509769832708E+00    3.7748800727911558E+00    1.7637519063253677E+01
N    3.1969001877232257E+00    7.4890499686845162E+00    2.4062174102632050E+00
N    3.2136080927113317E+00    5.6022470349190741E+00    5.0829590390074548E+00
Ga    3.2084166645900796E+00    7.4250118792222732E+00    5.7750223580471252E+00
N    3.2111146875211252E+00    7.4826831306423367E+00    7.7883446217010928E+00
Ga    3.2094473681068640E+00    5.6285298569205668E+00    8.4379263206235393E+00
N    3.2111938064480703E+00    5.6286208515442793E+00    1.0417620453733292E+01
Ga    3.2098881206900067E+00    7.4656735189651364E+00    1.1071724493333067E+01
N    3.2107014951044297E+00    7.4489369668334602E+00    1.3065357138653868E+01
Ga    3.2105444597986921E+00    5.6257163698095276E+00    1.3868662886359076E+01
N    3.2119508572684805E+00    5.6270101114036732E+00    1.6067199934626466E+01
Ga    3.2111048577663208E+00    7.6697421423186123E+00    1.6486221618865073E+01
Ga    3.1962982768775934E+00    9.7546973492783380E+00    1.2668708687154131E+00
N    1.7057804915910657E+00    1.0231195404339157E+01    2.5556869646122684E+00
Ga    1.5174673277705295E+00    8.3488994405953871E+00    3.1990854822982397E+00
N    1.6137554704313093E+00    8.3994072021680939E+00    5.1822437504709757E+00
Ga    1.5764800045485738E+00    1.0254012575798555E+01    5.7895242946785421E+00
N    1.5892118645966957E+00    1.0267681270517947E+01    7.7857199921167908E+00
Ga    1.6126183701854673E+00    8.4150629785638191E+00    8.4398056512439297E+00
N    1.6117578774403158E+00    8.4181241056310743E+00    1.0431705895723285E+01
Ga    1.5873632951614458E+00    1.0276381995219701E+01    1.1069233883125463E+01
N    1.5715224648148500E+00    1.0286877464543078E+01    1.3061393029220284E+01
Ga    1.6130789871427385E+00    8.4191558523586441E+00    1.3623163566717194E+01
N    1.5867750686136342E+00    8.4065985878491087E+00    1.5583235413405188E+01
Ga    1.7707094350460122E+00    1.0173480273191863E+01    1.6487886864807962E+01
N    3.2116022656146801E+00    9.3326701850689204E+00    1.7635763962465539E+01
N    9.6545982241149524E+00    1.8997922895091097E+00    2.6279051376705875E+00
Ga    9.6471224731806444E+00    1.8112916045989319E-01    3.3670084751307923E+00
N    9.6433588420180048E+00    6.0641415927654096E-02    5.2962042946665600E+00
Ga    9.6538260002002900E+00    1.9250660353073272E+00    5.8981200276770798E+00
N    9.6425709715116685E+00    1.9143893896046607E+00    7.8635551411999245E+00
Ga    9.6429507972326984E+00    3.7852414987540745E-02    8.4272827570790181E+00
N    9.6434659995912906E+00    4.0952672898137539E-02    1.0423899659271516E+01
Ga    9.6428364683274683E+00    1.9113224779873725E+00    1.1024208001611647E+01
N    9.6430787333072594E+00    1.9123371854327305E+00    1.2998127402705345E+01
Ga    9.6431877202655620E+00    4.2271734196348942E-02    1.3621756321760364E+01
N    9.6439054441510379E+00    7.3664782091516598E-02    1.5580795518837864E+01
Ga    9.6440221192280315E+00    1.9143112713266863E+00    1.5851958865280745E+01
N    7.9309563013491564E+00    4.6273807733154220E+00    2.5216931097959767E+00
Ga    8.1586320738411100E+00    2.7774201154773976E+00    3.3148234092656170E+00
N    8.0385541416849229E+00    2.8422778940807794E+00    5.2635996836545100E+00
Ga    8.0583895880389367E+00    4.7241035837439576E+00    5.7915236641467969E+00
N    8.0445665252141136E+00    4.7079297776424953E+00    7.7881274070038993E+00
Ga    8.0227273153902505E+00    2.8511324373102980E+00    8.4376688507773494E+00
N    8.0230306386985841E+00    2.8488536067381571E+00    1.0430232616893544E+01
Ga    8.0510941525503750E+00    4.7085659071713151E+00    1.1071075049174160E+01
N    8.0672335065150342E+00    4.7163771271966688E+00    1.3061886543612999E+01
Ga    8.0231058244551807E+00    2.8481075480804856E+00    1.3621280009194347E+01
N    8.0498501794956514E+00    2.8332764333077418E+00    1.5579484211227475E+01
Ga    7.8676128341332854E+00    4.6011742935869062E+00    1.6488451512923088E+01
N    6.4206863110947232E+00    7.4712185199520427E+00    2.5521368788359644E+00
Ga    6.4100117775685650E+00    5.7401788419307112E+00    3.2724987136569483E+00
N    6.4209941855018693E+00    5.6241923871498152E+00    5.2281113627108144E+00
Ga    6.4031110695983768E+00    7.4863041972036779E+00    5.8416519424681441E+00
N    6.4209906591995605E+00    7.4861880366825009E+00    7.8212000722458450E+00
Ga    6.4281727998142939E+00    5.6199222087214862E+00    8.4368258625839747E+00
N    6.4299820593532013E+00    5.6176435082664753E+00    1.0429841379892125E+01
Ga    6.4286902282427549E+00    7.4844816574087192E+00    1.1031191202161413E+01
N    6.4284015665083949E+00    7.4840716052190155E+00    1.3000865974453314E+01
Ga    6.4283590585434993E+00    5.6129918141997397E+00    1.3623513316088847E+01
N    6.4305656755813416E+00    5.6432945605633567E+00    1.5582082732906708E+01
Ga    6.4225349283776811E+00    7.4800527805513291E+00    1.5863237099934768E+01
N    4.7066457674958269E+00    1.0227664903987952E+01    2.5456331103956735E+00
Ga    4.8931378659766196E+00    8.3553563165676970E+00    3.1717187665096391E+00
N    4.8010883593301550E+00    8.3985621743703955E+00    5.1561992834329349E+00
Ga    4.8500842054900160E+00    1.0255631826939405E+01    5.7808562214694499E+00
N    4.8318992698173782E+00    1.0264894375286945E+01    7.7801383159271973E+00
Ga    4.8068651538348721E+00    8.4146138931243950E+00    8.4405832780738024E+00
N    4.8101534027222730E+00    8.4179506837474580E+00    1.0431701861729827E+01
Ga    4.8348209841350753E+00    1.0277423877751527E+01    1.1070721615360105E+01
N    4.8510662379526011E+00    1.0287522313278025E+01    1.3062472791788812E+01
Ga    4.8083543041443404E+00    8.4193712024868965E+00    1.3623637657211319E+01
N    4.8356499905788572E+00    8.4069480659603641E+00    1.5583360372303904E+01
Ga    4.6525670929626450E+00    1.0173827477731443E+01    1.6487580193382531E+01
O    7.4213316079163383E-01    3.8685467676098018E+00   -3.5381745063662368E-01
H    3.1086467558478867E+00    7.4276081815310286E+00    1.3518525365860707E+00
C    1.1517077227971684E+00    2.6007842143163367E+00   -9.1835664344921297E-01
H    1.8498022070124251E+00    2.0557388631483442E+00   -2.5952188027239337E-01
H    2.7985684406302552E-01    1.9602472779476117E+00   -1.1193575790541710E+00
H    1.6538626140308519E+00    2.8138241713912100E+00   -1.8741237645671691E+00
Ga    3.1768389194073219E+00    5.3991368989008652E+00    2.5669577010445428E+00
O    2.8655434409162512E+00    5.4759974309039938E+00    2.2619333842204964E-01
H    2.0704615998380080E+00    4.8791197281552350E+00   -5.1381323316778832E-03
C    3.8934938260321479E+00    5.2538975914151447E+00   -7.5995520123563987E-01
H    3.5009236369228156E+00    5.4299738076935347E+00   -1.7724459944975701E+00
H    4.7044781500313313E+00    5.9672077501359437E+00   -5.6163414320006833E-01
H    4.2983600477250299E+00    4.2300484618755281E+00   -7.0015134208400454E-01
     &END COORD
     &KIND C
       BASIS_SET DZVP-MOLOPT-SR-GTH-q4
       POTENTIAL GTH-PBE-q4
       &POTENTIAL
 2 2
  0.3384712400000000E+00 2 -0.8803673979999999E+01  0.1339210850000000E+01
 2
  0.3025757500000000E+00 1  0.9622486650000001E+01
  0.2915069400000000E+00 0
         # Potential name:  GTH-PBE-Q4  for symbol:  C
         # Potential read from the potential filename: GTH_POTENTIALS
       &END POTENTIAL
     &END KIND
     &KIND O
       BASIS_SET DZVP-MOLOPT-SR-GTH-q6
       POTENTIAL GTH-PBE-q6
       &POTENTIAL
 2 4
  0.2445543000000000E+00 2 -0.1666721480000000E+02  0.2487311320000000E+01
 2
  0.2209559200000000E+00 1  0.1833745811000000E+02
  0.2113324700000000E+00 0
         # Potential name:  GTH-PBE-Q6  for symbol:  O
         # Potential read from the potential filename: GTH_POTENTIALS
       &END POTENTIAL
     &END KIND
     &KIND H
       BASIS_SET DZVP-MOLOPT-SR-GTH-q1
       POTENTIAL GTH-PBE-q1
       &POTENTIAL
 1
  0.2000000000000000E+00 2 -0.4178900440000000E+01  0.7244633100000000E+00
 0
         # Potential name:  GTH-PBE-Q1  for symbol:  H
         # Potential read from the potential filename: GTH_POTENTIALS
       &END POTENTIAL
     &END KIND
     &KIND N
       BASIS_SET DZVP-MOLOPT-SR-GTH
       POTENTIAL GTH-PBE-q5
       &POTENTIAL
 2 3
  0.2837905100000000E+00 2 -0.1241522559000000E+02  0.1868095920000000E+01
 2
  0.2554050000000000E+00 1  0.1363026257000000E+02
  0.2454945300000000E+00 0
         # Potential name:  GTH-PBE-Q5  for symbol:  N
         # Potential read from the potential filename: GTH_POTENTIALS
       &END POTENTIAL
     &END KIND
     &KIND Ga
       BASIS_SET DZVP-MOLOPT-SR-GTH
       POTENTIAL GTH-PBE-q13
       &POTENTIAL
 2 1 10
  0.4900000000000000E+00 0
 3
  0.4167772300000000E+00 3  0.1047568975000000E+02 -0.4921768140000000E+01  0.8707055900000000E+00
  0.7770178090000000E+01 -0.2248152160000000E+01
  0.1784415450000000E+01
  0.5696265200000000E+00 2  0.1777985340000000E+01  0.1958597600000000E+00
 -0.2317443900000000E+00
  0.2381265000000000E+00 1 -0.1624868022000000E+02
         # Potential name:  GTH-PBE-Q13  for symbol:  GA
         # Potential read from the potential filename: GTH_POTENTIALS
       &END POTENTIAL
     &END KIND
     &TOPOLOGY
       NUMBER_OF_ATOMS  212
       MULTIPLE_UNIT_CELL  1 1 1
     &END TOPOLOGY
   &END SUBSYS
 &END FORCE_EVAL
