 # Version information for this restart file 
 # current date 2019-05-16 15:35:27.798
 # current working dir /lustre03/project/6004141/rzk/GaN-carbene/00-Surface/00-Preoptimization/334-native/Trial4
 # Program compiled at                              Sun Apr  7 00:48:11 EDT 2019
 # Program compiled on                          beluga2.int.ets1.calculquebec.ca
 # Program compiled for                        Beluga-Linux-x86-64-intel-openmpi
 # Source code revision number                                         svn:18619
 &GLOBAL
   PRINT_LEVEL  MEDIUM
   PROJECT_NAME TEST
   RUN_TYPE  GEO_OPT
 &END GLOBAL
 &MOTION
   &GEO_OPT
     MAX_ITER 500
   &END GEO_OPT
 &END MOTION
 &FORCE_EVAL
   METHOD  QS
   STRESS_TENSOR  ANALYTICAL
   &DFT
     CHARGE -1
     BASIS_SET_FILE_NAME BASIS_MOLOPT
     POTENTIAL_FILE_NAME GTH_POTENTIALS
     &SCF
       MAX_SCF  100
       EPS_SCF     5.0000000000000004E-06
       &OT  T
         PRECONDITIONER  FULL_ALL
       &END OT
       &OUTER_SCF  T
         OPTIMIZER  NONE
         EPS_SCF     5.0000000000000004E-06
         MAX_SCF  4
       &END OUTER_SCF
       &PRINT
         &RESTART  OFF
           BACKUP_COPIES  1
           &EACH
             JUST_ENERGY  0
             QS_SCF  0
             MD  20
           &END EACH
         &END RESTART
       &END PRINT
     &END SCF
     &QS
       EPS_DEFAULT     1.0000000000000000E-14
       ALMO_SCF  F
       METHOD  GPW
     &END QS
     &MGRID
       NGRIDS  5
       CUTOFF     1.2000000000000000E+03
     &END MGRID
     &XC
       DENSITY_CUTOFF     1.0000000000000000E-10
       GRADIENT_CUTOFF     1.0000000000000000E-10
       TAU_CUTOFF     1.0000000000000000E-10
       &XC_FUNCTIONAL  NO_SHORTCUT
         &PBE  T
         &END PBE
       &END XC_FUNCTIONAL
       &VDW_POTENTIAL
         POTENTIAL_TYPE  PAIR_POTENTIAL
         &PAIR_POTENTIAL
           R_CUTOFF     1.0000000000000004E+01
           TYPE  DFTD3
           PARAMETER_FILE_NAME dftd3.dat
           REFERENCE_FUNCTIONAL PBE
           EPS_CN     9.9999999999999995E-07
           CALCULATE_C9_TERM  T
           REFERENCE_C9_TERM  T
           LONG_RANGE_CORRECTION  F
           VERBOSE_OUTPUT  F
         &END PAIR_POTENTIAL
       &END VDW_POTENTIAL
     &END XC
   &END DFT
   &SUBSYS
     &CELL
       A     9.7367653356401487E+00    0.0000000000000000E+00    0.0000000000000000E+00
       B    -4.8591341382960209E+00    8.4162672083210595E+00    0.0000000000000000E+00
       C     0.0000000000000000E+00    0.0000000000000000E+00    3.0744000000000000E+01
       MULTIPLE_UNIT_CELL  1 1 1
       &CELL_REF
         A     9.5580000000000034E+00    0.0000000000000000E+00    0.0000000000000000E+00
         B    -4.7790000000000017E+00    8.2774708093716640E+00    0.0000000000000000E+00
         C     0.0000000000000000E+00    0.0000000000000000E+00    3.0744000000000000E+01
         MULTIPLE_UNIT_CELL  1 1 1
       &END CELL_REF
     &END CELL
     &COORD
 Ga         0.0346157961       -0.0014360992       -0.5239576597
  N         0.0383365679        1.8717851399        0.6037146544
 Ga         0.0373466115        1.8412412914        2.6366720665
  N         0.0346083648       -0.0024708504        3.2670867728
 Ga         0.0348743466       -0.0013527500        5.2581438099
  N         0.0380936570        1.8732599753        5.8455142308
 Ga         0.0376545596        1.8717717311        7.8448539069
  N         0.0341063595       -0.0017299028        8.4447524065
 Ga         0.0343341798       -0.0006447820       10.4412837444
  N         0.0399987769        1.8692349202       11.0512448131
 Ga         0.0444796572        1.8708333173       13.0481107280
  N         0.0407142096       -0.0061816904       13.6455761158
 Ga         0.0311394462        0.0014578657       15.6480631084
  N         0.0241282779        1.8780294809       16.1882027996
 Ga         0.0060740787        1.8864151428       18.2174290963
  N         0.0090183317        0.0239135567       18.6780903400
 Ga        -1.5850464474        2.8034596123        0.3208489254
  N        -1.5854940902        4.6730510274        0.6047116039
 Ga        -1.5575999612        4.6886051945        2.6349498033
  N        -1.5848690826        2.8030712516        3.2267537747
 Ga        -1.5848808432        2.8037189303        5.2382950215
  N        -1.5843682177        4.6741649906        5.8447278637
 Ga        -1.5843476947        4.6739620114        7.8434824261
  N        -1.5838659960        2.8042901821        8.4497152862
 Ga        -1.5817797601        2.8061315956       10.4463913506
  N        -1.5810037510        4.6796099391       11.0488133284
 Ga        -1.5811588264        4.6857209474       13.0450051477
  N        -1.5867606186        2.8077464798       13.6217753535
 Ga        -1.5921335323        2.8112626200       15.6109006507
  N        -1.5945895984        4.6724156658       16.2280904255
 Ga        -1.6034249016        4.6922090727       18.2723017080
  N        -1.5799465337        2.8292763732       18.7437381526
 Ga        -3.2047435969        5.6080833553        0.3210490519
  N        -3.1988200119        7.4797597218        0.6033068873
 Ga        -3.2260340170        7.4940822312        2.6363968163
  N        -3.2045187375        5.6086715467        3.2262478264
 Ga        -3.2044241206        5.6096173657        5.2376881739
  N        -3.1990401667        7.4797572261        5.8454397532
 Ga        -3.2004919397        7.4793384036        7.8448818221
  N        -3.2053393120        5.6082451384        8.4474861580
 Ga        -3.2054008994        5.6090563615       10.4429567347
  N        -3.2017692402        7.4815531369       11.0412212050
 Ga        -3.2010245042        7.4801205480       13.0324287385
  N        -3.2060756101        5.6156336427       13.6492654858
 Ga        -3.2119348596        5.6190693349       15.6523837345
  N        -3.1997836533        7.4863186901       16.2923081432
 Ga        -3.2195430837        7.5009026516       18.3957763853
  N        -3.2277303743        5.6211652802       18.6954802472
 Ga         3.2822589615       -0.0017929801        0.3210598519
  N         3.2793229023        1.8673608534        0.6047596556
 Ga         3.3077829609        1.8831692777        2.6347900433
  N         3.2803645454       -0.0024366859        3.2264306382
 Ga         3.2808382879       -0.0011614946        5.2378785846
  N         3.2807794553        1.8689845367        5.8452378990
 Ga         3.2811936803        1.8692067787        7.8443627292
  N         3.2804440210       -0.0014377339        8.4479659060
 Ga         3.2816993202        0.0001472552       10.4437911281
  N         3.2837455907        1.8711559638       11.0502942302
 Ga         3.2806034442        1.8720087350       13.0478498427
  N         3.2746116411       -0.0029601638       13.6439888710
 Ga         3.2731419622        0.0027474186       15.6450127068
  N         3.2798351254        1.8818828182       16.2009403936
 Ga         3.2856402253        1.8775831443       18.2353570559
  N         3.2631129820        0.0247742492       18.7101369067
 Ga         1.6616572372        2.8041146756        0.3211778883
  N         1.6677204405        4.6737792456        0.6047377001
 Ga         1.6389681497        4.6891193351        2.6347633132
  N         1.6605898461        2.8032665365        3.2261264283
 Ga         1.6610529228        2.8042532658        5.2374571181
  N         1.6664208795        4.6741672357        5.8454068641
 Ga         1.6644639294        4.6740422656        7.8443560820
  N         1.6605573539        2.8039133642        8.4503145981
 Ga         1.6613760652        2.8059128011       10.4470991225
  N         1.6608409202        4.6783221260       11.0512823227
 Ga         1.6569856430        4.6806845418       13.0495303635
  N         1.6636427457        2.8130916860       13.6580006337
 Ga         1.6586018200        2.8314297606       15.6701503637
  N         1.6562711026        4.6797681445       16.3005816498
 Ga         1.6373224176        4.6907392339       18.8023363444
  N         1.6489644186        2.7979925126       18.6384032831
 Ga         0.0423999779        5.6098590792       -0.5486493451
  N         0.0448202594        7.4837524145        0.6053709498
 Ga         0.0441934272        7.4518927069        2.6353839811
  N         0.0409195576        5.6084233493        3.2671588928
 Ga         0.0414671037        5.6096219823        5.2571217657
  N         0.0441425399        7.4841166729        5.8448447618
 Ga         0.0431883369        7.4821643470        7.8435721777
  N         0.0402829869        5.6089370457        8.4435088173
 Ga         0.0409009691        5.6107313828       10.4394065324
  N         0.0423503121        7.4791612157       11.0499357000
 Ga         0.0385273265        7.4760827430       13.0470371045
  N         0.0387596514        5.6101114794       13.6789104497
 Ga         0.0469476888        5.6096763850       15.7007706031
  N         0.0425042248        7.4995792126       16.2245329486
 Ga         0.0229734771        7.5123114793       18.2691585739
  N        -0.0126209228        5.6553363387       18.7638339484
 Ga         6.5252256682       -0.0011299331        0.3204893510
  N         6.5332917177        1.8678339845        0.6049879078
 Ga         6.5045700520        1.8829961058        2.6348654121
  N         6.5260890591       -0.0022335256        3.2271483593
 Ga         6.5264298878       -0.0009257494        5.2385948057
  N         6.5316843518        1.8687515988        5.8471995455
 Ga         6.5303695241        1.8688869889        7.8473637626
  N         6.5255555848       -0.0032686301        8.4492381240
 Ga         6.5260554365       -0.0042686403       10.4457588762
  N         6.5287085266        1.8707834099       11.0357890392
 Ga         6.5268488620        1.8715529221       13.0255232580
  N         6.5240282556       -0.0002557807       13.6257883360
 Ga         6.5203630184        0.0081269304       15.6181662616
  N         6.5436082828        1.8681869379       16.2182986453
 Ga         6.5513899297        1.8759626003       18.2841220224
  N         6.5088844168        0.0054590074       18.7219868268
 Ga         4.9073009508        2.8034929653       -0.5491633970
  N         4.9097392978        4.6786333819        0.6049831994
 Ga         4.9090175771        4.6463627325        2.6349527220
  N         4.9064542102        2.8028413453        3.2672494878
 Ga         4.9069253227        2.8037410298        5.2575484411
  N         4.9090341257        4.6786569241        5.8446561967
 Ga         4.9083525677        4.6769497638        7.8435609763
  N         4.9052306700        2.8043983124        8.4448553770
 Ga         4.9047377398        2.8062715757       10.4417361199
  N         4.9085522424        4.6768715489       11.0515609240
 Ga         4.9058270818        4.6802734789       13.0498057763
  N         4.9101846553        2.8042456053       13.6396616473
 Ga         4.9155364654        2.8057228830       15.6379859341
  N         4.8973841657        4.6838288839       16.2107789305
 Ga         4.9004606747        4.6831916317       18.2484923095
  N         4.9096514715        2.8088734362       18.6390046775
 Ga         3.2876211188        5.6078703640        0.3208730870
  N         3.2866454390        7.4791989960        0.6036858682
 Ga         3.3130450548        7.4941108428        2.6366689895
  N         3.2863918529        5.6086946797        3.2263068915
 Ga         3.2866316083        5.6096978537        5.2375300748
  N         3.2870512551        7.4794896437        5.8455433603
 Ga         3.2873725602        7.4789612690        7.8446905351
  N         3.2860049938        5.6084540265        8.4496337291
 Ga         3.2857875894        5.6094169711       10.4461003616
  N         3.2914614459        7.4803259306       11.0508209900
 Ga         3.2909343264        7.4750931652       13.0473379951
  N         3.2793290770        5.6049128456       13.6643479137
 Ga         3.2626040859        5.6049504043       15.6788611714
  N         3.2788404205        7.4945961910       16.2103681003
 Ga         3.2663539425        7.5070703021       18.2539140430
  N         3.2812980434        5.6299529781       18.6702938715
  O         1.2448656498        4.7491042925       21.0590308648
  C         0.6952030895        3.5486011660       21.6661965848
  H        -0.1904312572        3.1927959353       21.1172570701
  H         1.4757097862        2.7820560210       21.6164695188
  H         0.4332587701        3.7526066729       22.7127612165
     &END COORD
    
     &KIND C
       BASIS_SET DZVP-MOLOPT-SR-GTH-q4
       POTENTIAL GTH-PBE-q4
     &END KIND

     &KIND O
       BASIS_SET DZVP-MOLOPT-SR-GTH-q6
       POTENTIAL GTH-PBE-q6
     &END KIND

     &KIND H
       BASIS_SET DZVP-MOLOPT-SR-GTH-q1
       POTENTIAL GTH-PBE-q1
     &END KIND

     &KIND N
       BASIS_SET DZVP-MOLOPT-SR-GTH-q5
       POTENTIAL GTH-PBE-q5
     &END KIND

     &KIND Ga
       BASIS_SET DZVP-MOLOPT-SR-GTH-q13
       POTENTIAL GTH-PBE-q13
     &END KIND

     &TOPOLOGY
       MULTIPLE_UNIT_CELL  1 1 1
     &END TOPOLOGY
   &END SUBSYS
 &END FORCE_EVAL
