 # Version information for this restart file 
 # current date 2019-05-27 15:29:34.700
 # current working dir /lustre03/project/6004141/rzk/GaN-carbene/334-native/01-Methanol/05-dissociated/01-OCH3
 # Program compiled at                              Sun Apr  7 00:48:11 EDT 2019
 # Program compiled on                          beluga2.int.ets1.calculquebec.ca
 # Program compiled for                        Beluga-Linux-x86-64-intel-openmpi
 # Source code revision number                                         svn:18619
 &GLOBAL
   PRINT_LEVEL  MEDIUM
   PROJECT_NAME TEST
   RUN_TYPE  GEO_OPT
 &END GLOBAL
 &MOTION
   &GEO_OPT
     MAX_ITER  500
     STEP_START_VAL  52
   &END GEO_OPT
 &END MOTION
 &FORCE_EVAL
   METHOD  QS
   STRESS_TENSOR  ANALYTICAL
   &DFT
     BASIS_SET_FILE_NAME BASIS_MOLOPT
     POTENTIAL_FILE_NAME GTH_POTENTIALS
     CHARGE  -1
     &SCF
       MAX_SCF  100
       EPS_SCF     5.0000000000000004E-06
       &OT  T
         PRECONDITIONER  FULL_ALL
       &END OT
       &OUTER_SCF  T
         OPTIMIZER  NONE
         EPS_SCF     5.0000000000000004E-06
         MAX_SCF  4
       &END OUTER_SCF
       &PRINT
         &RESTART  OFF
           BACKUP_COPIES  1
           &EACH
             JUST_ENERGY  0
             QS_SCF  0
             MD  20
           &END EACH
         &END RESTART
       &END PRINT
     &END SCF
     &QS
       EPS_DEFAULT     1.0000000000000000E-14
       ALMO_SCF  F
       METHOD  GPW
     &END QS
     &MGRID
       NGRIDS  5
       CUTOFF     1.2000000000000000E+03
     &END MGRID
     &XC
       DENSITY_CUTOFF     1.0000000000000000E-10
       GRADIENT_CUTOFF     1.0000000000000000E-10
       TAU_CUTOFF     1.0000000000000000E-10
       &XC_FUNCTIONAL  NO_SHORTCUT
         &PBE  T
         &END PBE
       &END XC_FUNCTIONAL
       &VDW_POTENTIAL
         POTENTIAL_TYPE  PAIR_POTENTIAL
         &PAIR_POTENTIAL
           R_CUTOFF     1.0000000000000005E+01
           TYPE  DFTD3
           PARAMETER_FILE_NAME dftd3.dat
           REFERENCE_FUNCTIONAL PBE
           EPS_CN     9.9999999999999995E-07
           CALCULATE_C9_TERM  T
           REFERENCE_C9_TERM  T
           LONG_RANGE_CORRECTION  F
           VERBOSE_OUTPUT  F
         &END PAIR_POTENTIAL
       &END VDW_POTENTIAL
     &END XC
   &END DFT
   &SUBSYS
     &CELL
       A     9.7367653356401487E+00    0.0000000000000000E+00    0.0000000000000000E+00
       B    -4.8591341382960209E+00    8.4162672083210595E+00    0.0000000000000000E+00
       C     0.0000000000000000E+00    0.0000000000000000E+00    3.0744000000000000E+01
       MULTIPLE_UNIT_CELL  1 1 1
       &CELL_REF
         A     9.5580000000000052E+00    0.0000000000000000E+00    0.0000000000000000E+00
         B    -4.7790000000000026E+00    8.2774708093716640E+00    0.0000000000000000E+00
         C     0.0000000000000000E+00    0.0000000000000000E+00    3.0744000000000000E+01
         MULTIPLE_UNIT_CELL  1 1 1
       &END CELL_REF
     &END CELL
     &COORD
Ga    6.3634992182733274E-02    1.8433694390975438E-03   -5.4098247928962284E-01
N    6.8142107457970835E-02    1.8722942186015343E+00    6.2105186355551156E-01
Ga    7.0458181207950540E-02    1.8429086906294510E+00    2.6591765151583813E+00
N    6.9031259952600926E-02   -2.3228363012627653E-04    3.2843193418088763E+00
Ga    7.3199588515555011E-02   -3.0575655762194805E-03    5.2859206360155380E+00
N    7.3415867007853769E-02    1.8727732236044377E+00    5.8574906782340950E+00
Ga    7.0319741931514704E-02    1.8660493565338589E+00    7.8694987844579103E+00
N    6.8196281491257657E-02   -7.0278997858769822E-03    8.4576186582016213E+00
Ga    6.4728707544270819E-02   -9.0102545525333668E-03    1.0469940369871644E+01
N    7.0179697200615385E-02    1.8596472295860722E+00    1.1065512886844033E+01
Ga    8.1257054588242075E-02    1.8676899483636873E+00    1.3080738188741398E+01
N    7.8183999230316645E-02   -6.9123713222135020E-03    1.3637841198965432E+01
Ga    9.8567451783118154E-02    7.3645469541431049E-05    1.5651302707740523E+01
N    8.2855869492815482E-02    1.8844690589507649E+00    1.6158378733156617E+01
Ga    1.6482067019233412E-01    1.8094023164911153E+00    1.8141001540627201E+01
N    1.1580668922344475E-01   -1.1334027472463849E-02    1.8700274295520131E+01
Ga   -1.5549511354582239E+00    2.8030250691436165E+00    3.4410663055547602E-01
N   -1.5551006622339478E+00    4.6750623071266322E+00    6.1707544874950815E-01
Ga   -1.5222947328261507E+00    4.6923686729619964E+00    2.6539800691566340E+00
N   -1.5527923636419330E+00    2.8062115132717862E+00    3.2366148531982741E+00
Ga   -1.5490293470119318E+00    2.8041336062301121E+00    5.2592953943954175E+00
N   -1.5473490959088754E+00    4.6727161659826901E+00    5.8595012871593779E+00
Ga   -1.5485705713369624E+00    4.6684334340283602E+00    7.8713922530374569E+00
N   -1.5493672743285221E+00    2.7980536863401149E+00    8.4673493615957121E+00
Ga   -1.5517926956807075E+00    2.7969563153135062E+00    1.0480031774846434E+01
N   -1.5503510351673249E+00    4.6688479790358732E+00    1.1063004299121586E+01
Ga   -1.5424181553169458E+00    4.6864713315694582E+00    1.3076019957673353E+01
N   -1.5533604513296448E+00    2.8053208167034898E+00    1.3619044407568957E+01
Ga   -1.5372559056987323E+00    2.8073129072061977E+00    1.5600012544204310E+01
N   -1.5334893051810212E+00    4.6484994617210225E+00    1.6175123848689047E+01
Ga   -1.5452282949552936E+00    4.6464385059258309E+00    1.8184509140020250E+01
N   -1.5178261969131563E+00    2.7227579284815087E+00    1.8692156694644442E+01
Ga   -3.1765434155652166E+00    5.6094999095583091E+00    3.4342573508213903E-01
N   -3.1709290068603591E+00    7.4814336601584737E+00    6.1605157726960580E-01
Ga   -3.1944065195734037E+00    7.4980831797302390E+00    2.6536830773278086E+00
N   -3.1702895789360350E+00    5.6118933861336320E+00    3.2371739595362814E+00
Ga   -3.1661654187698747E+00    5.6107402299625004E+00    5.2607487045820571E+00
N   -3.1591268212001382E+00    7.4795440592099309E+00    5.8637100329457406E+00
Ga   -3.1610555233547557E+00    7.4756881245489133E+00    7.8793856342753497E+00
N   -3.1683604377460099E+00    5.6021199940373370E+00    8.4642021213759673E+00
Ga   -3.1722569101386493E+00    5.5996103885942308E+00    1.0475281370868625E+01
N   -3.1697469965536564E+00    7.4734501337282770E+00    1.1044835093572940E+01
Ga   -3.1594328133852088E+00    7.4847242098372480E+00    1.3050164841403641E+01
N   -3.1667198618762535E+00    5.6234920875020746E+00    1.3648340605942726E+01
Ga   -3.1505415817094971E+00    5.6233961983068630E+00    1.5668727249568946E+01
N   -3.1408045380209035E+00    7.4942313982712081E+00    1.6262758618003478E+01
Ga   -3.1229319915077745E+00    7.4505092932728179E+00    1.8345219984298886E+01
N   -3.1140911114338805E+00    5.5792386018668072E+00    1.8726076819950737E+01
Ga    3.3106593031856746E+00   -1.6018230025398590E-03    3.4528209178003588E-01
N    3.3101100627962610E+00    1.8688073583853340E+00    6.1999542182903855E-01
Ga    3.3420620414476554E+00    1.8866097702289399E+00    2.6554954609959198E+00
N    3.3139800461331008E+00   -1.8332754384520043E-04    3.2380625787156623E+00
Ga    3.3175114440017217E+00   -1.6856322915551265E-03    5.2600999125527155E+00
N    3.3175529403621953E+00    1.8678239857059651E+00    5.8611274921925833E+00
Ga    3.3154477191952902E+00    1.8634430687457189E+00    7.8735224427324377E+00
N    3.3179146766633743E+00   -3.7547066048054258E-03    8.4683615099239429E+00
Ga    3.3180561730773332E+00   -5.8107259095941770E-03    1.0482587993373311E+01
N    3.3114458650969465E+00    1.8684475307956574E+00    1.1062756403370170E+01
Ga    3.3159419369293923E+00    1.8798631734935465E+00    1.3075526191049466E+01
N    3.3142576854584909E+00    7.2611047709316926E-03    1.3642334441770251E+01
Ga    3.3283800061697817E+00    2.5874486139173071E-02    1.5673243356539446E+01
N    3.3411669485684485E+00    1.8923115995395390E+00    1.6244125137001586E+01
Ga    3.3937992766977660E+00    1.8453192264782119E+00    1.8330813086091556E+01
N    3.3649803387334147E+00   -2.2872897191595735E-02    1.8733473571354853E+01
Ga    1.6902023502323520E+00    2.8045340650294346E+00    3.4619375527552454E-01
N    1.6950054607332889E+00    4.6761686558783033E+00    6.1845797899968924E-01
Ga    1.6725884235668298E+00    4.6920936936734270E+00    2.6553520093223040E+00
N    1.6948727920036430E+00    2.8061808175719052E+00    3.2389399984841991E+00
Ga    1.6982623539055277E+00    2.8044058202943827E+00    5.2620537231272300E+00
N    1.7040164293499576E+00    4.6729033470099202E+00    5.8599198367157612E+00
Ga    1.6977103245426546E+00    4.6688793960510209E+00    7.8733743088029211E+00
N    1.6924259048142163E+00    2.7962550723690223E+00    8.4624589301762150E+00
Ga    1.6886947581232454E+00    2.7931375488212455E+00    1.0472052659344129E+01
N    1.6915524247629163E+00    4.6671240504413234E+00    1.1052770517718482E+01
Ga    1.6998071958209002E+00    4.6836625262479554E+00    1.3058592670791937E+01
N    1.6989488196082079E+00    2.8245848207524831E+00    1.3670368799085992E+01
Ga    1.7132398480208313E+00    2.8518950953990507E+00    1.5685092976933358E+01
N    1.7107096307218292E+00    4.6871940060010848E+00    1.6388548384254907E+01
Ga    1.7595738809565362E+00    4.6631612688856192E+00    1.8377690363969009E+01
N    1.7205770916111160E+00    2.7571400700172468E+00    1.8701576341324547E+01
Ga    6.8384249114377335E-02    5.6120201935312757E+00   -5.4383921937846780E-01
N    7.3338465236580441E-02    7.4821009314549265E+00    6.1949802929879805E-01
Ga    7.7397122459424983E-02    7.4519719818811465E+00    2.6560246187303602E+00
N    7.5881173230093649E-02    5.6102292746905107E+00    3.2846265409521602E+00
Ga    7.9012804733590181E-02    5.6093928250108629E+00    5.2850794692604470E+00
N    8.0742374992988031E-02    7.4842558748153509E+00    5.8615372737663414E+00
Ga    7.8737760244401753E-02    7.4799631666265496E+00    7.8747246181148567E+00
N    7.3731346721707211E-02    5.6041684142743522E+00    8.4597868802637599E+00
Ga    6.9362105544468380E-02    5.6044012475905527E+00    1.0474902712247975E+01
N    7.8258131461269559E-02    7.4741399308481213E+00    1.1061662250973214E+01
Ga    8.2039967454199655E-02    7.4817923024216295E+00    1.3090282139128027E+01
N    8.7865618459835509E-02    5.6101944073142462E+00    1.3657595021754398E+01
Ga    1.1806196781061558E-01    5.6080957112130969E+00    1.5696820777328705E+01
N    1.0784053540016240E-01    7.4994606545332640E+00    1.6179646481717153E+01
Ga    1.4395483142552240E-01    7.5155228353789161E+00    1.8241252347417952E+01
N    6.5888282440866835E-02    5.6144273722727611E+00    1.8533867584849343E+01
Ga    6.5545142908136516E+00   -1.3291983557873885E-03    3.4435439566173526E-01
N    6.5598563206528011E+00    1.8695913296775548E+00    6.1670543379515275E-01
Ga    6.5344492072977642E+00    1.8870690925076028E+00    2.6548622371322543E+00
N    6.5589771348547981E+00    2.8385046405661268E-04    3.2369401476934270E+00
Ga    6.5625526869662458E+00   -1.4421160772698351E-03    5.2600411902263833E+00
N    6.5675540005140522E+00    1.8689463969661251E+00    5.8601493528822699E+00
Ga    6.5652503179631250E+00    1.8642668211562330E+00    7.8732239578801400E+00
N    6.5610959517242771E+00   -4.2089907485160765E-03    8.4637928203051782E+00
Ga    6.5551397436328234E+00   -8.2792162621768486E-03    1.0480535692720613E+01
N    6.5597801007028274E+00    1.8671249515849853E+00    1.1050698361630475E+01
Ga    6.5591408944847034E+00    1.8744048855911122E+00    1.3059010800115230E+01
N    6.5758194613558532E+00    7.0729883105860956E-03    1.3636243093056885E+01
Ga    6.5968225487965144E+00    1.7072932430830551E-02    1.5646282893460581E+01
N    6.5762439626783502E+00    1.8805779434267227E+00    1.6195187387479354E+01
Ga    6.5468563343047386E+00    1.8260345940958556E+00    1.8219183337420528E+01
N    6.5947861924152003E+00   -5.3007852608305376E-04    1.8787154633021434E+01
Ga    4.9343010611067104E+00    2.7996605824455414E+00   -5.4513715591020484E-01
N    4.9388347052622485E+00    4.6755900917561348E+00    6.1568843104359106E-01
Ga    4.9422720785795438E+00    4.6478924044474201E+00    2.6541166481070189E+00
N    4.9386277829284806E+00    2.8066277253276533E+00    3.2836906095561775E+00
Ga    4.9427208590691363E+00    2.8048365155632897E+00    5.2856747375353867E+00
N    4.9479172497697865E+00    4.6803128595615462E+00    5.8598691282391551E+00
Ga    4.9441557613828140E+00    4.6747533480106469E+00    7.8725966016651894E+00
N    4.9404884587857785E+00    2.8004031385682477E+00    8.4607642742272997E+00
Ga    4.9345675378380012E+00    2.8009047287029696E+00    1.0472402489372225E+01
N    4.9347014665477626E+00    4.6725109994625598E+00    1.1063697100849563E+01
Ga    4.9361462944426426E+00    4.6843637469989527E+00    1.3078639716673013E+01
N    4.9441903675235093E+00    2.8112049948374289E+00    1.3639988219217944E+01
Ga    4.9540494176308991E+00    2.8220511097678758E+00    1.5659896888331422E+01
N    4.9779353203689212E+00    4.6733911499852203E+00    1.6236387034597126E+01
Ga    5.0012225393250986E+00    4.6662530944000302E+00    1.8310338887872252E+01
N    4.9824008970491507E+00    2.8015064240738439E+00    1.8724471783144857E+01
Ga    3.3167871466342338E+00    5.6090470928896181E+00    3.4283456935582096E-01
N    3.3173747932355275E+00    7.4806798912688475E+00    6.1789534282950176E-01
Ga    3.3485712574251236E+00    7.4978503056215375E+00    2.6547003900858681E+00
N    3.3214140263648546E+00    5.6115635983113572E+00    3.2378415425476881E+00
Ga    3.3242698693057116E+00    5.6097165328541010E+00    5.2616860529725482E+00
N    3.3231554984291862E+00    7.4797619748889677E+00    5.8582469243012962E+00
Ga    3.3203089398073602E+00    7.4763043956850961E+00    7.8728788688706945E+00
N    3.3185903215810759E+00    5.6039094109893606E+00    8.4572382784057680E+00
Ga    3.3156390344698594E+00    5.6010409651925732E+00    1.0467690195759079E+01
N    3.3207142353550378E+00    7.4688658776313162E+00    1.1052371925410364E+01
Ga    3.3294612831056809E+00    7.4742468762969043E+00    1.3065430428921957E+01
N    3.3129237169409524E+00    5.6168274286274888E+00    1.3693242977323989E+01
Ga    3.3212822578859225E+00    5.6237445091528349E+00    1.5738444250536372E+01
N    3.3556174318412344E+00    7.5138543697396383E+00    1.6251700084339888E+01
Ga    3.3675854720725771E+00    7.4824760207357555E+00    1.8351271059193643E+01
N    3.3751726322512443E+00    5.6034489031061607E+00    1.8656717308014969E+01
O    1.5345366321494014E-01    4.6761073230473214E+00    2.1165076032507752E+01
C   -5.1687009494443681E-01    3.7087126354949769E+00    2.1482442537369458E+01
H   -1.4645149653258205E+00    2.5659098804338236E+00    1.9684967878050482E+01
H   -1.5610383567397018E-01    2.6857134434840755E+00    2.1320876260206912E+01
H   -1.5549454334895070E+00    3.7895312848289904E+00    2.1823196410751915E+01
     &END COORD
     &KIND C
       BASIS_SET DZVP-MOLOPT-SR-GTH-q4
       POTENTIAL GTH-PBE-q4
       &POTENTIAL
 2 2
  0.3384712400000000E+00 2 -0.8803673979999999E+01  0.1339210850000000E+01
 2
  0.3025757500000000E+00 1  0.9622486650000001E+01
  0.2915069400000000E+00 0
         # Potential name:  GTH-PBE-Q4  for symbol:  C
         # Potential read from the potential filename: GTH_POTENTIALS
       &END POTENTIAL
     &END KIND
     &KIND O
       BASIS_SET DZVP-MOLOPT-SR-GTH-q6
       POTENTIAL GTH-PBE-q6
       &POTENTIAL
 2 4
  0.2445543000000000E+00 2 -0.1666721480000000E+02  0.2487311320000000E+01
 2
  0.2209559200000000E+00 1  0.1833745811000000E+02
  0.2113324700000000E+00 0
         # Potential name:  GTH-PBE-Q6  for symbol:  O
         # Potential read from the potential filename: GTH_POTENTIALS
       &END POTENTIAL
     &END KIND
     &KIND H
       BASIS_SET DZVP-MOLOPT-SR-GTH-q1
       POTENTIAL GTH-PBE-q1
       &POTENTIAL
 1
  0.2000000000000000E+00 2 -0.4178900440000000E+01  0.7244633100000000E+00
 0
         # Potential name:  GTH-PBE-Q1  for symbol:  H
         # Potential read from the potential filename: GTH_POTENTIALS
       &END POTENTIAL
     &END KIND
     &KIND N
       BASIS_SET DZVP-MOLOPT-SR-GTH-q5
       POTENTIAL GTH-PBE-q5
       &POTENTIAL
 2 3
  0.2837905100000000E+00 2 -0.1241522559000000E+02  0.1868095920000000E+01
 2
  0.2554050000000000E+00 1  0.1363026257000000E+02
  0.2454945300000000E+00 0
         # Potential name:  GTH-PBE-Q5  for symbol:  N
         # Potential read from the potential filename: GTH_POTENTIALS
       &END POTENTIAL
     &END KIND
     &KIND Ga
       BASIS_SET DZVP-MOLOPT-SR-GTH-q13
       POTENTIAL GTH-PBE-q13
       &POTENTIAL
 2 1 10
  0.4900000000000000E+00 0
 3
  0.4167772300000000E+00 3  0.1047568975000000E+02 -0.4921768140000000E+01  0.8707055900000000E+00
  0.7770178090000000E+01 -0.2248152160000000E+01
  0.1784415450000000E+01
  0.5696265200000000E+00 2  0.1777985340000000E+01  0.1958597600000000E+00
 -0.2317443900000000E+00
  0.2381265000000000E+00 1 -0.1624868022000000E+02
         # Potential name:  GTH-PBE-Q13  for symbol:  GA
         # Potential read from the potential filename: GTH_POTENTIALS
       &END POTENTIAL
     &END KIND
     &TOPOLOGY
       NUMBER_OF_ATOMS  149
       MULTIPLE_UNIT_CELL  1 1 1
     &END TOPOLOGY
   &END SUBSYS
 &END FORCE_EVAL
