 # Version information for this restart file 
 # current date 2019-05-27 15:27:03.865
 # current working dir /lustre03/project/6004141/rzk/GaN-carbene/334-native/01-Methanol/05-dissociated/01-OCH3
 # Program compiled at                              Sun Apr  7 00:48:11 EDT 2019
 # Program compiled on                          beluga2.int.ets1.calculquebec.ca
 # Program compiled for                        Beluga-Linux-x86-64-intel-openmpi
 # Source code revision number                                         svn:18619
 &GLOBAL
   PRINT_LEVEL  MEDIUM
   PROJECT_NAME TEST
   RUN_TYPE  GEO_OPT
 &END GLOBAL
 &MOTION
   &GEO_OPT
     MAX_ITER  500
     STEP_START_VAL  51
   &END GEO_OPT
 &END MOTION
 &FORCE_EVAL
   METHOD  QS
   STRESS_TENSOR  ANALYTICAL
   &DFT
     BASIS_SET_FILE_NAME BASIS_MOLOPT
     POTENTIAL_FILE_NAME GTH_POTENTIALS
     CHARGE  -1
     &SCF
       MAX_SCF  100
       EPS_SCF     5.0000000000000004E-06
       &OT  T
         PRECONDITIONER  FULL_ALL
       &END OT
       &OUTER_SCF  T
         OPTIMIZER  NONE
         EPS_SCF     5.0000000000000004E-06
         MAX_SCF  4
       &END OUTER_SCF
       &PRINT
         &RESTART  OFF
           BACKUP_COPIES  1
           &EACH
             JUST_ENERGY  0
             QS_SCF  0
             MD  20
           &END EACH
         &END RESTART
       &END PRINT
     &END SCF
     &QS
       EPS_DEFAULT     1.0000000000000000E-14
       ALMO_SCF  F
       METHOD  GPW
     &END QS
     &MGRID
       NGRIDS  5
       CUTOFF     1.2000000000000000E+03
     &END MGRID
     &XC
       DENSITY_CUTOFF     1.0000000000000000E-10
       GRADIENT_CUTOFF     1.0000000000000000E-10
       TAU_CUTOFF     1.0000000000000000E-10
       &XC_FUNCTIONAL  NO_SHORTCUT
         &PBE  T
         &END PBE
       &END XC_FUNCTIONAL
       &VDW_POTENTIAL
         POTENTIAL_TYPE  PAIR_POTENTIAL
         &PAIR_POTENTIAL
           R_CUTOFF     1.0000000000000005E+01
           TYPE  DFTD3
           PARAMETER_FILE_NAME dftd3.dat
           REFERENCE_FUNCTIONAL PBE
           EPS_CN     9.9999999999999995E-07
           CALCULATE_C9_TERM  T
           REFERENCE_C9_TERM  T
           LONG_RANGE_CORRECTION  F
           VERBOSE_OUTPUT  F
         &END PAIR_POTENTIAL
       &END VDW_POTENTIAL
     &END XC
   &END DFT
   &SUBSYS
     &CELL
       A     9.7367653356401487E+00    0.0000000000000000E+00    0.0000000000000000E+00
       B    -4.8591341382960209E+00    8.4162672083210595E+00    0.0000000000000000E+00
       C     0.0000000000000000E+00    0.0000000000000000E+00    3.0744000000000000E+01
       MULTIPLE_UNIT_CELL  1 1 1
       &CELL_REF
         A     9.5580000000000052E+00    0.0000000000000000E+00    0.0000000000000000E+00
         B    -4.7790000000000026E+00    8.2774708093716640E+00    0.0000000000000000E+00
         C     0.0000000000000000E+00    0.0000000000000000E+00    3.0744000000000000E+01
         MULTIPLE_UNIT_CELL  1 1 1
       &END CELL_REF
     &END CELL
     &COORD
Ga    7.4393931583069339E-02    4.7539823779646426E-03   -5.4069067547150440E-01
N    7.7103408231822476E-02    1.8753300882734136E+00    6.1929089161418649E-01
Ga    7.3202696901925143E-02    1.8422368454018039E+00    2.6578680555142076E+00
N    7.0855485603791096E-02   -5.8831226721982549E-04    3.2829838434562459E+00
Ga    6.6587823495308354E-02   -5.1409180152595753E-03    5.2845653225359941E+00
N    6.6916444905452357E-02    1.8703902325383317E+00    5.8548155926183494E+00
Ga    5.8041559026542296E-02    1.8640548210013559E+00    7.8684336091688571E+00
N    5.5395364595561131E-02   -9.7492989977825371E-03    8.4526439455842919E+00
Ga    5.0998016628171494E-02   -9.1390478760884283E-03    1.0466820699882222E+01
N    5.5054911296774874E-02    1.8589886168519758E+00    1.1060901881814971E+01
Ga    6.9872954914985158E-02    1.8646727763608988E+00    1.3078958992907516E+01
N    6.7300712451430475E-02   -5.4273617432903940E-03    1.3647188960110990E+01
Ga    1.0069008948506904E-01   -4.1750091034643919E-03    1.5667394165288892E+01
N    9.6216730360878633E-02    1.8799939272281252E+00    1.6176116556819057E+01
Ga    1.9531504363160829E-01    1.8002554886312299E+00    1.8154788660349599E+01
N    1.3354293783382792E-01   -1.6597508564297491E-02    1.8726390181670450E+01
Ga   -1.5453794534978467E+00    2.8061424362871765E+00    3.4747449253139012E-01
N   -1.5459356702856795E+00    4.6772462585143879E+00    6.1638279226866133E-01
Ga   -1.5200384444141348E+00    4.6916244899701987E+00    2.6551774789751219E+00
N   -1.5504734692913791E+00    2.8055006298055298E+00    3.2355058549028008E+00
Ga   -1.5546008252698933E+00    2.8013192376987406E+00    5.2591820359542698E+00
N   -1.5548983529797606E+00    4.6697442151412352E+00    5.8573410044872665E+00
Ga   -1.5617850873499222E+00    4.6658410341595653E+00    7.8717521066717282E+00
N   -1.5634215203957629E+00    2.7947245997960843E+00    8.4621693176107051E+00
Ga   -1.5678316451946464E+00    2.7971442895350092E+00    1.0477324979677219E+01
N   -1.5674061645285560E+00    4.6702000775968981E+00    1.1056401639639494E+01
Ga   -1.5588067915248254E+00    4.6873588189162030E+00    1.3070175362428557E+01
N   -1.5588118309972132E+00    2.8063957344821686E+00    1.3624383270068096E+01
Ga   -1.5251986448878090E+00    2.8137659284451431E+00    1.5612139513702440E+01
N   -1.5304485002375998E+00    4.6628292215347686E+00    1.6152620768016543E+01
Ga   -1.5132172203767718E+00    4.6604943846520515E+00    1.8145393819180942E+01
N   -1.4515080787724222E+00    2.7671836985333624E+00    1.8705508059696900E+01
Ga   -3.1661847734656434E+00    5.6122752994022109E+00    3.4748977882471910E-01
N   -3.1606981501320131E+00    7.4836301356483768E+00    6.1536009200280561E-01
Ga   -3.1917668486475104E+00    7.4976810778098555E+00    2.6537324391264381E+00
N   -3.1683962883822625E+00    5.6108818208149041E+00    3.2360111769155488E+00
Ga   -3.1727094329194996E+00    5.6074784311169639E+00    5.2601772440797996E+00
N   -3.1668473324313617E+00    7.4763820348990269E+00    5.8587673151760615E+00
Ga   -3.1748694159123971E+00    7.4731521472862994E+00    7.8744732918155655E+00
N   -3.1827143010423411E+00    5.6014207866014782E+00    8.4603476119405556E+00
Ga   -3.1891571644178054E+00    5.6027593232342685E+00    1.0473991769438491E+01
N   -3.1837136764887797E+00    7.4764901057265805E+00    1.1047245094771860E+01
Ga   -3.1722747265860347E+00    7.4888074058077168E+00    1.3056659046791252E+01
N   -3.1812381284921849E+00    5.6249958357625003E+00    1.3647757710079558E+01
Ga   -3.1540600652869801E+00    5.6294895162947114E+00    1.5668421630643724E+01
N   -3.1342551054695971E+00    7.5021765292739184E+00    1.6264805245141861E+01
Ga   -3.1012607666252396E+00    7.4579237530785294E+00    1.8357435960229022E+01
N   -3.0930824367326926E+00    5.5769882172487586E+00    1.8699925520108977E+01
Ga    3.3204113059879936E+00    1.3436669434436941E-03    3.4849473574056689E-01
N    3.3195301679964246E+00    1.8716274823843766E+00    6.1784368591517314E-01
Ga    3.3448128747579915E+00    1.8860917857112856E+00    2.6560495717443873E+00
N    3.3161283980347789E+00   -8.2563345994156507E-04    3.2359094041814109E+00
Ga    3.3108784983766704E+00   -4.6975999233551920E-03    5.2590360047724616E+00
N    3.3103097934858994E+00    1.8647306402836163E+00    5.8568684979047294E+00
Ga    3.3026930539153656E+00    1.8612696601519920E+00    7.8707685705088437E+00
N    3.3037226124953105E+00   -6.7464416796767113E-03    8.4648606947374034E+00
Ga    3.3031963100517650E+00   -3.4191807452403251E-03    1.0481191679968385E+01
N    3.3006153189942600E+00    1.8710661142997216E+00    1.1059787064412378E+01
Ga    3.3120012982158356E+00    1.8837579924833372E+00    1.3078341797880121E+01
N    3.3054619994263015E+00    1.2239349690410075E-02    1.3636770722845261E+01
Ga    3.3363887312713696E+00    2.8279247370862126E-02    1.5667263003786845E+01
N    3.3408499408897177E+00    1.8976165472906719E+00    1.6239750105903845E+01
Ga    3.4095097190495047E+00    1.8421722765082822E+00    1.8325584855739685E+01
N    3.4027169449645327E+00   -3.7205371761866890E-02    1.8718966811837792E+01
Ga    1.6995969391412791E+00    2.8068949352547850E+00    3.4995223035509693E-01
N    1.7049295350402727E+00    4.6781729391891860E+00    6.1757221444020105E-01
Ga    1.6746289202266482E+00    4.6919136232184302E+00    2.6550570034895857E+00
N    1.6966476271924569E+00    2.8056631400563137E+00    3.2372171510100025E+00
Ga    1.6915786741405259E+00    2.8018088304026918E+00    5.2613345510044152E+00
N    1.6977665196700107E+00    4.6702109372516212E+00    5.8581556088900744E+00
Ga    1.6860654452904156E+00    4.6666176362441032E+00    7.8735224073216328E+00
N    1.6802313284341790E+00    2.7940967641459133E+00    8.4589806035677686E+00
Ga    1.6760405215907872E+00    2.7951489932105900E+00    1.0472372248846844E+01
N    1.6773627997045939E+00    4.6679438421409509E+00    1.1049925766081548E+01
Ga    1.6875159230267056E+00    4.6854744520578366E+00    1.3061762514336882E+01
N    1.6880980165895760E+00    2.8213001910497670E+00    1.3656533975181830E+01
Ga    1.7155209620967826E+00    2.8499727277670344E+00    1.5678194413392221E+01
N    1.7018127627087221E+00    4.6995932201161761E+00    1.6284869437405842E+01
Ga    1.7666073525917756E+00    4.6137796244048817E+00    1.8627690363969009E+01
N    1.7451689604634808E+00    2.7208767861495318E+00    1.8781963921499937E+01
Ga    7.9845947567197456E-02    5.6143142943021065E+00   -5.4151220342688433E-01
N    8.2960717002924275E-02    7.4856912143829986E+00    6.1796523605894083E-01
Ga    8.0157294960700523E-02    7.4515654808479237E+00    2.6556238899741773E+00
N    7.7439034489234934E-02    5.6096582897762755E+00    3.2839069657751825E+00
Ga    7.2353834346888510E-02    5.6059646849784537E+00    5.2850585526111331E+00
N    7.3445364107335903E-02    7.4813139498502981E+00    5.8580597861761285E+00
Ga    6.5952748736860911E-02    7.4766935288829979E+00    7.8725286254293945E+00
N    6.1130167979711984E-02    5.6020756292244673E+00    8.4574754943533677E+00
Ga    5.6175712879429324E-02    5.6066772513534255E+00    1.0475595316165585E+01
N    6.5630010065282615E-02    7.4787642632008646E+00    1.1059346060496923E+01
Ga    7.7184642098580225E-02    7.4928520626093942E+00    1.3088184288641436E+01
N    7.0161698560207819E-02    5.6170284190730513E+00    1.3625549379599322E+01
Ga    1.0777698109163270E-01    5.6208285369969211E+00    1.5652871183875654E+01
N    1.1713979865524561E-01    7.5072946645539380E+00    1.6158201307320120E+01
Ga    1.8059397209614367E-01    7.5009209535987376E+00    1.8205491415518317E+01
N    1.4619000759704154E-01    5.5851978115777134E+00    1.8462977337668477E+01
Ga    6.5643921672695758E+00    1.8857013200225632E-03    3.4774033960195239E-01
N    6.5700882307866131E+00    1.8721463656519994E+00    6.1565964286142150E-01
Ga    6.5378488712883520E+00    1.8871175649696454E+00    2.6542501560629765E+00
N    6.5609211715229900E+00   -1.2678349640725473E-04    3.2350159591112848E+00
Ga    6.5564627448026389E+00   -4.4959877848844629E-03    5.2588856123903502E+00
N    6.5611614301085899E+00    1.8654002995037566E+00    5.8556399705400413E+00
Ga    6.5525606490387078E+00    1.8612173993430527E+00    7.8697830114287033E+00
N    6.5480491803558882E+00   -7.1360993796048657E-03    8.4601186933146533E+00
Ga    6.5425370077387077E+00   -6.2021518816295163E-03    1.0478045293282712E+01
N    6.5437721352153968E+00    1.8680957194057231E+00    1.1053990681042903E+01
Ga    6.5517551775867444E+00    1.8751961976107723E+00    1.3067700744695411E+01
N    6.5733200190828702E+00    1.1795277790398316E-02    1.3644816810055653E+01
Ga    6.6129467035650498E+00    2.0773607720668434E-02    1.5669290319478549E+01
N    6.6007987998117752E+00    1.8865820356697653E+00    1.6233691488390150E+01
Ga    6.5935822610322434E+00    1.8408904195457669E+00    1.8272056004152070E+01
N    6.6177540907126469E+00    3.1715673935312383E-04    1.8765212856104895E+01
Ga    4.9463128221536907E+00    2.8053289377565593E+00   -5.4328823195378551E-01
N    4.9482575433344627E+00    4.6797048757692634E+00    6.1537689061354794E-01
Ga    4.9457200467250635E+00    4.6471729190478435E+00    2.6541583511216400E+00
N    4.9410788280126896E+00    2.8056950818710593E+00    3.2823444531606891E+00
Ga    4.9368330533239053E+00    2.8018291280039072E+00    5.2839880283882321E+00
N    4.9404538898889889E+00    4.6771436938880271E+00    5.8567131333066209E+00
Ga    4.9304610048942363E+00    4.6725031100169643E+00    7.8712815373285183E+00
N    4.9277169134434304E+00    2.7977594080171255E+00    8.4550010568076086E+00
Ga    4.9216550409778508E+00    2.8021474312070591E+00    1.0470322640773823E+01
N    4.9215527229900982E+00    4.6727009571282698E+00    1.1062105535206006E+01
Ga    4.9262821985451861E+00    4.6842438398415407E+00    1.3080759311535669E+01
N    4.9401490061545061E+00    2.8146512504762708E+00    1.3655875308105053E+01
Ga    4.9676034242506697E+00    2.8296992368890339E+00    1.5690764634223550E+01
N    4.9770685156020624E+00    4.6900108124391870E+00    1.6253822375513668E+01
Ga    5.0004906416259560E+00    4.6661919365679800E+00    1.8345229364235443E+01
N    5.0073361648823234E+00    2.7948363337591386E+00    1.8722977345570239E+01
Ga    3.3263036941484327E+00    5.6125692730562298E+00    3.4778957131358562E-01
N    3.3262484562331185E+00    7.4835962943822034E+00    6.1692694668551618E-01
Ga    3.3512468393141366E+00    7.4975319007869503E+00    2.6553293702860339E+00
N    3.3232221918922513E+00    5.6104592200568160E+00    3.2358769625044701E+00
Ga    3.3180029432596045E+00    5.6064504068567489E+00    5.2599748474839521E+00
N    3.3162029984909713E+00    7.4759972723300372E+00    5.8549819312400864E+00
Ga    3.3078544635340190E+00    7.4725909843804672E+00    7.8704216164569338E+00
N    3.3060785590357167E+00    5.6022136569579422E+00    8.4579234436482107E+00
Ga    3.3013169051329800E+00    5.6032129169365010E+00    1.0473100932258699E+01
N    3.3075573922148109E+00    7.4736092349462417E+00    1.1053323872332321E+01
Ga    3.3209905626701453E+00    7.4791314437248353E+00    1.3071313839596657E+01
N    3.3042331594534664E+00    5.6185649479896869E+00    1.3680830703109883E+01
Ga    3.3242098715835167E+00    5.6247302277599767E+00    1.5733577766382055E+01
N    3.3691504171037439E+00    7.5005511666425608E+00    1.6280567060200166E+01
Ga    3.3786389041813654E+00    7.4545700939050752E+00    1.8389221175307750E+01
N    3.3779566024486738E+00    5.5836851112618513E+00    1.8784841857164622E+01
O    1.2519894417786623E-01    4.6361789995699505E+00    2.1046091475296894E+01
C   -5.3748487489910857E-01    3.6854687527169507E+00    2.1400465093908988E+01
H   -1.3692135175132090E+00    2.6784639648042772E+00    1.9729790395331008E+01
H   -2.0727412818808374E-01    2.6385195860217951E+00    2.1286792963665668E+01
H   -1.5840024004750488E+00    3.8143494583018764E+00    2.1788435659479216E+01
     &END COORD
     &KIND C
       BASIS_SET DZVP-MOLOPT-SR-GTH-q4
       POTENTIAL GTH-PBE-q4
       &POTENTIAL
 2 2
  0.3384712400000000E+00 2 -0.8803673979999999E+01  0.1339210850000000E+01
 2
  0.3025757500000000E+00 1  0.9622486650000001E+01
  0.2915069400000000E+00 0
         # Potential name:  GTH-PBE-Q4  for symbol:  C
         # Potential read from the potential filename: GTH_POTENTIALS
       &END POTENTIAL
     &END KIND
     &KIND O
       BASIS_SET DZVP-MOLOPT-SR-GTH-q6
       POTENTIAL GTH-PBE-q6
       &POTENTIAL
 2 4
  0.2445543000000000E+00 2 -0.1666721480000000E+02  0.2487311320000000E+01
 2
  0.2209559200000000E+00 1  0.1833745811000000E+02
  0.2113324700000000E+00 0
         # Potential name:  GTH-PBE-Q6  for symbol:  O
         # Potential read from the potential filename: GTH_POTENTIALS
       &END POTENTIAL
     &END KIND
     &KIND H
       BASIS_SET DZVP-MOLOPT-SR-GTH-q1
       POTENTIAL GTH-PBE-q1
       &POTENTIAL
 1
  0.2000000000000000E+00 2 -0.4178900440000000E+01  0.7244633100000000E+00
 0
         # Potential name:  GTH-PBE-Q1  for symbol:  H
         # Potential read from the potential filename: GTH_POTENTIALS
       &END POTENTIAL
     &END KIND
     &KIND N
       BASIS_SET DZVP-MOLOPT-SR-GTH-q5
       POTENTIAL GTH-PBE-q5
       &POTENTIAL
 2 3
  0.2837905100000000E+00 2 -0.1241522559000000E+02  0.1868095920000000E+01
 2
  0.2554050000000000E+00 1  0.1363026257000000E+02
  0.2454945300000000E+00 0
         # Potential name:  GTH-PBE-Q5  for symbol:  N
         # Potential read from the potential filename: GTH_POTENTIALS
       &END POTENTIAL
     &END KIND
     &KIND Ga
       BASIS_SET DZVP-MOLOPT-SR-GTH-q13
       POTENTIAL GTH-PBE-q13
       &POTENTIAL
 2 1 10
  0.4900000000000000E+00 0
 3
  0.4167772300000000E+00 3  0.1047568975000000E+02 -0.4921768140000000E+01  0.8707055900000000E+00
  0.7770178090000000E+01 -0.2248152160000000E+01
  0.1784415450000000E+01
  0.5696265200000000E+00 2  0.1777985340000000E+01  0.1958597600000000E+00
 -0.2317443900000000E+00
  0.2381265000000000E+00 1 -0.1624868022000000E+02
         # Potential name:  GTH-PBE-Q13  for symbol:  GA
         # Potential read from the potential filename: GTH_POTENTIALS
       &END POTENTIAL
     &END KIND
     &TOPOLOGY
       NUMBER_OF_ATOMS  149
       MULTIPLE_UNIT_CELL  1 1 1
     &END TOPOLOGY
   &END SUBSYS
 &END FORCE_EVAL
