 # Version information for this restart file 
 # current date 2019-05-27 15:33:12.608
 # current working dir /lustre03/project/6004141/rzk/GaN-carbene/334-native/01-Methanol/05-dissociated/01-OCH3
 # Program compiled at                              Sun Apr  7 00:48:11 EDT 2019
 # Program compiled on                          beluga2.int.ets1.calculquebec.ca
 # Program compiled for                        Beluga-Linux-x86-64-intel-openmpi
 # Source code revision number                                         svn:18619
 &GLOBAL
   PRINT_LEVEL  MEDIUM
   PROJECT_NAME TEST
   RUN_TYPE  GEO_OPT
 &END GLOBAL
 &MOTION
   &GEO_OPT
     MAX_ITER  500
     STEP_START_VAL  53
   &END GEO_OPT
 &END MOTION
 &FORCE_EVAL
   METHOD  QS
   STRESS_TENSOR  ANALYTICAL
   &DFT
     BASIS_SET_FILE_NAME BASIS_MOLOPT
     POTENTIAL_FILE_NAME GTH_POTENTIALS
     CHARGE  -1
     &SCF
       MAX_SCF  100
       EPS_SCF     5.0000000000000004E-06
       &OT  T
         PRECONDITIONER  FULL_ALL
       &END OT
       &OUTER_SCF  T
         OPTIMIZER  NONE
         EPS_SCF     5.0000000000000004E-06
         MAX_SCF  4
       &END OUTER_SCF
       &PRINT
         &RESTART  OFF
           BACKUP_COPIES  1
           &EACH
             JUST_ENERGY  0
             QS_SCF  0
             MD  20
           &END EACH
         &END RESTART
       &END PRINT
     &END SCF
     &QS
       EPS_DEFAULT     1.0000000000000000E-14
       ALMO_SCF  F
       METHOD  GPW
     &END QS
     &MGRID
       NGRIDS  5
       CUTOFF     1.2000000000000000E+03
     &END MGRID
     &XC
       DENSITY_CUTOFF     1.0000000000000000E-10
       GRADIENT_CUTOFF     1.0000000000000000E-10
       TAU_CUTOFF     1.0000000000000000E-10
       &XC_FUNCTIONAL  NO_SHORTCUT
         &PBE  T
         &END PBE
       &END XC_FUNCTIONAL
       &VDW_POTENTIAL
         POTENTIAL_TYPE  PAIR_POTENTIAL
         &PAIR_POTENTIAL
           R_CUTOFF     1.0000000000000005E+01
           TYPE  DFTD3
           PARAMETER_FILE_NAME dftd3.dat
           REFERENCE_FUNCTIONAL PBE
           EPS_CN     9.9999999999999995E-07
           CALCULATE_C9_TERM  T
           REFERENCE_C9_TERM  T
           LONG_RANGE_CORRECTION  F
           VERBOSE_OUTPUT  F
         &END PAIR_POTENTIAL
       &END VDW_POTENTIAL
     &END XC
   &END DFT
   &SUBSYS
     &CELL
       A     9.7367653356401487E+00    0.0000000000000000E+00    0.0000000000000000E+00
       B    -4.8591341382960209E+00    8.4162672083210595E+00    0.0000000000000000E+00
       C     0.0000000000000000E+00    0.0000000000000000E+00    3.0744000000000000E+01
       MULTIPLE_UNIT_CELL  1 1 1
       &CELL_REF
         A     9.5580000000000052E+00    0.0000000000000000E+00    0.0000000000000000E+00
         B    -4.7790000000000026E+00    8.2774708093716640E+00    0.0000000000000000E+00
         C     0.0000000000000000E+00    0.0000000000000000E+00    3.0744000000000000E+01
         MULTIPLE_UNIT_CELL  1 1 1
       &END CELL_REF
     &END CELL
     &COORD
Ga    6.7270479182405932E-02    2.6484671505166094E-03   -5.3810558137579123E-01
N    7.1081993952233649E-02    1.8743265370067079E+00    6.2080870267261956E-01
Ga    7.1604218437887265E-02    1.8417700107080035E+00    2.6580451119698263E+00
N    6.8973279148066405E-02   -8.8648900150142622E-04    3.2843009034934272E+00
Ga    6.9764188647658154E-02   -3.9000657589376600E-03    5.2846474464964253E+00
N    7.0861276706254264E-02    1.8717447333269295E+00    5.8574287044777336E+00
Ga    6.6680724368850017E-02    1.8665380524341915E+00    7.8693729467785829E+00
N    6.4094249437304698E-02   -7.3793030329052933E-03    8.4536487882357907E+00
Ga    6.2627073716347723E-02   -8.7259887383519634E-03    1.0465280083278646E+01
N    6.6521232456015142E-02    1.8618299813971833E+00    1.1054697314766894E+01
Ga    8.0623080320741974E-02    1.8671970580534880E+00    1.3067240052208515E+01
N    7.5032217603958132E-02   -5.5413191770089364E-03    1.3637321736119700E+01
Ga    9.6678699310901700E-02   -4.7713521745637562E-03    1.5652927850326638E+01
N    8.4055250957464273E-02    1.8833909425439548E+00    1.6162198463595306E+01
Ga    1.7160096691436394E-01    1.8165584871126641E+00    1.8149399267751946E+01
N    1.1543110790036519E-01   -4.8701539611454223E-03    1.8726435440059870E+01
Ga   -1.5517935994660568E+00    2.8046680096746037E+00    3.4871938506268768E-01
N   -1.5528838389388386E+00    4.6758702531679255E+00    6.1839383972174033E-01
Ga   -1.5222613099265048E+00    4.6918113609910037E+00    2.6550041822652846E+00
N   -1.5517003000574312E+00    2.8052147807516641E+00    3.2374029425886377E+00
Ga   -1.5513694798278779E+00    2.8030229791879751E+00    5.2595168214332695E+00
N   -1.5508096038643115E+00    4.6718013602652739E+00    5.8592655888445346E+00
Ga   -1.5531543837530160E+00    4.6688426074706779E+00    7.8714910057416256E+00
N   -1.5540991641816195E+00    2.7984306771501242E+00    8.4621775042681975E+00
Ga   -1.5564162167475093E+00    2.7999879927159683E+00    1.0474268837779800E+01
N   -1.5566065477145152E+00    4.6726276801366264E+00    1.1057296144180842E+01
Ga   -1.5488694063592885E+00    4.6892904662017632E+00    1.3070379280397317E+01
N   -1.5533892114357641E+00    2.8043628459121348E+00    1.3607601628172853E+01
Ga   -1.5351629841392893E+00    2.8019752581482069E+00    1.5588427631962871E+01
N   -1.5376084773182377E+00    4.6428734907013816E+00    1.6173854759508828E+01
Ga   -1.5294092498093448E+00    4.6736313321394114E+00    1.8177893248291493E+01
N   -1.5035842802810770E+00    2.7529782669994511E+00    1.8709327452574271E+01
Ga   -3.1731787380825849E+00    5.6109968007862685E+00    3.4725213624020784E-01
N   -3.1667232947222073E+00    7.4818342308355623E+00    6.1753929781445260E-01
Ga   -3.1936459755353885E+00    7.4973304934775244E+00    2.6547205183928670E+00
N   -3.1703687906578280E+00    5.6108142649233130E+00    3.2377614287482377E+00
Ga   -3.1695004436586403E+00    5.6089297290039379E+00    5.2605660680929596E+00
N   -3.1633695322073851E+00    7.4778582171864860E+00    5.8604376154882249E+00
Ga   -3.1675931009051506E+00    7.4748249692854181E+00    7.8741605713509202E+00
N   -3.1751717707362519E+00    5.6025482522873373E+00    8.4594493551910936E+00
Ga   -3.1781756894156645E+00    5.6028774991720836E+00    1.0468989967291858E+01
N   -3.1725216743258744E+00    7.4745644657255061E+00    1.1049255402261332E+01
Ga   -3.1610268833771848E+00    7.4827034843450022E+00    1.3059129712398743E+01
N   -3.1727979629669485E+00    5.6186245551364475E+00    1.3657186567593833E+01
Ga   -3.1557957129329526E+00    5.6178727806153699E+00    1.5683869816224785E+01
N   -3.1393987623588941E+00    7.4981536011877381E+00    1.6256492315702488E+01
Ga   -3.1244515948107838E+00    7.4560134673005187E+00    1.8357442740485041E+01
N   -3.1107184400010741E+00    5.5832815415156514E+00    1.8714319114486596E+01
Ga    3.3135696165507968E+00   -3.5980030670526049E-04    3.4859406858480807E-01
N    3.3126294614977247E+00    1.8696648280700052E+00    6.2024893269565484E-01
Ga    3.3426657907067550E+00    1.8858627396641741E+00    2.6559876288209723E+00
N    3.3144204251503151E+00   -7.4692321230440109E-04    3.2385769948650274E+00
Ga    3.3148005039792450E+00   -3.2209939365362215E-03    5.2605403785903233E+00
N    3.3139902544699043E+00    1.8666316709233348E+00    5.8595584129818707E+00
Ga    3.3107023414350594E+00    1.8637591467970129E+00    7.8718644019747650E+00
N    3.3116463530561555E+00   -5.4770515036150378E-03    8.4622709175446253E+00
Ga    3.3125706791601579E+00   -5.4043189654739048E-03    1.0475487075329575E+01
N    3.3099055628398859E+00    1.8687924184080105E+00    1.1056491210333617E+01
Ga    3.3166939126977915E+00    1.8786892646699043E+00    1.3069153119024357E+01
N    3.3117073811910323E+00    1.0484700842417297E-02    1.3642331426896575E+01
Ga    3.3326797878195715E+00    2.3259344861445912E-02    1.5670767925489226E+01
N    3.3407832929829153E+00    1.8906903096024970E+00    1.6245245282779187E+01
Ga    3.3833527792902336E+00    1.8458737667873570E+00    1.8331900826054845E+01
N    3.3700693340212071E+00   -2.7541236574179860E-02    1.8710136845036772E+01
Ga    1.6933542357665596E+00    2.8057641148711014E+00    3.4940590042635572E-01
N    1.6990551045476616E+00    4.6764851648437320E+00    6.1936204525386684E-01
Ga    1.6726496208320216E+00    4.6914979251487914E+00    2.6557010801867946E+00
N    1.6950241133486239E+00    2.8052879230201895E+00    3.2389576458383464E+00
Ga    1.6950639985640998E+00    2.8029864519269676E+00    5.2612442011634499E+00
N    1.7003713640866911E+00    4.6718011106966486E+00    5.8592211782867993E+00
Ga    1.6932014583486039E+00    4.6688770753338025E+00    7.8719912218733530E+00
N    1.6886353360684037E+00    2.7976074760303233E+00    8.4603038994734110E+00
Ga    1.6864421679887576E+00    2.7989192342287215E+00    1.0471086526268600E+01
N    1.6893118086312129E+00    4.6721317817709140E+00    1.1056570031650416E+01
Ga    1.6974626669838808E+00    4.6861534024633285E+00    1.3070874933593894E+01
N    1.6961608538841271E+00    2.8184393510621910E+00    1.3656332868429971E+01
Ga    1.7164488508364473E+00    2.8302401792182423E+00    1.5675944480549482E+01
N    1.7035233210427401E+00    4.6849738727403336E+00    1.6269309994965180E+01
Ga    1.7619727336380071E+00    4.6531198938448695E+00    1.8516873777016354E+01
N    1.7292594298623689E+00    2.7634467663501812E+00    1.8731186898766069E+01
Ga    7.3081855592480621E-02    5.6124438563559460E+00   -5.3913644860267196E-01
N    7.6448823254511258E-02    7.4843445095879861E+00    6.2002003919976290E-01
Ga    7.7864365081268413E-02    7.4516776363307873E+00    2.6562284531902178E+00
N    7.5597950915677850E-02    5.6096367861386884E+00    3.2844251128176669E+00
Ga    7.5495144038872475E-02    5.6079075188427661E+00    5.2841359084604624E+00
N    7.7811834073336902E-02    7.4824640354807812E+00    5.8598520641725118E+00
Ga    7.4163931462388671E-02    7.4780840116494263E+00    7.8728185661065435E+00
N    6.9679289168672762E-02    5.6039437631695161E+00    8.4583030872779865E+00
Ga    6.6242938119824707E-02    5.6078488292626210E+00    1.0473980682677801E+01
N    7.3320372897618405E-02    7.4783356206804728E+00    1.1061404235377143E+01
Ga    7.7051440021307649E-02    7.4842056899845826E+00    1.3087325151512058E+01
N    7.5901558031347863E-02    5.6131885242572901E+00    1.3650832628288885E+01
Ga    9.8799655834295258E-02    5.6206357886272684E+00    1.5690504830007010E+01
N    1.0920585992647627E-01    7.5064315869071114E+00    1.6174725628296361E+01
Ga    1.4045422170825936E-01    7.5026079585167009E+00    1.8225651840529373E+01
N    1.1598468714389409E-01    5.5957556949715901E+00    1.8489913879590869E+01
Ga    6.5579142979653033E+00   -2.7753124061122590E-04    3.4834311969316156E-01
N    6.5637069519360116E+00    1.8703918460318547E+00    6.1816766274470858E-01
Ga    6.5357253696820301E+00    1.8861186818487774E+00    2.6555196414725462E+00
N    6.5597498773679126E+00   -5.7290502991543348E-04    3.2378586916439054E+00
Ga    6.5597319247918433E+00   -3.1200904035070813E-03    5.2603075814241285E+00
N    6.5653022533739271E+00    1.8671082403469541E+00    5.8592359214009502E+00
Ga    6.5606019330771987E+00    1.8641517548153692E+00    7.8720993778709873E+00
N    6.5562195508988781E+00   -5.9554755523511691E-03    8.4588376962869312E+00
Ga    6.5519386662095815E+00   -8.0503512274485226E-03    1.0472767692872580E+01
N    6.5546061179298434E+00    1.8671800164753243E+00    1.1045561800355429E+01
Ga    6.5569402029700532E+00    1.8706904743154400E+00    1.3052183015950867E+01
N    6.5747061231246651E+00    3.3966566736911680E-03    1.3636043753184342E+01
Ga    6.5991355945660217E+00    7.3308483367097114E-03    1.5647797638666553E+01
N    6.5905211735347624E+00    1.8746068380432319E+00    1.6201252445758559E+01
Ga    6.5497134267613948E+00    1.8309604001155109E+00    1.8225916625246931E+01
N    6.5895046601779601E+00   -8.4167943724845057E-04    1.8760129180698840E+01
Ga    4.9378909740173800E+00    2.8029992248988669E+00   -5.3997045085196504E-01
N    4.9419564519720991E+00    4.6783629887239053E+00    6.1745223831749851E-01
Ga    4.9428239427881993E+00    4.6472134702299579E+00    2.6547939310020143E+00
N    4.9395203357554447E+00    2.8055105068126136E+00    3.2839938365330026E+00
Ga    4.9399736274488015E+00    2.8030697975239884E+00    5.2846562574359170E+00
N    4.9436126556983329E+00    4.6785905906489944E+00    5.8577518787975702E+00
Ga    4.9385315098637008E+00    4.6737978788326249E+00    7.8691259660613788E+00
N    4.9352882602854509E+00    2.8008527011616544E+00    8.4559984235899961E+00
Ga    4.9314498347704632E+00    2.8032932727747468E+00    1.0466948339406214E+01
N    4.9327877204936890E+00    4.6740450386339214E+00    1.1062787381372635E+01
Ga    4.9354063994316695E+00    4.6835081626278088E+00    1.3078099576927286E+01
N    4.9443006049311684E+00    2.8091091908508745E+00    1.3647967597368698E+01
Ga    4.9563462278688668E+00    2.8154905191687636E+00    1.5668962534033954E+01
N    4.9705316466724563E+00    4.6689516833537121E+00    1.6257285964997244E+01
Ga    4.9932808029417535E+00    4.6669229539227892E+00    1.8343222522242559E+01
N    4.9833898226855897E+00    2.7925777005594008E+00    1.8725459183378614E+01
Ga    3.3197599663204658E+00    5.6103285674579872E+00    3.4715994145465834E-01
N    3.3194493482170611E+00    7.4810763868566577E+00    6.1825021700596949E-01
Ga    3.3490827702146206E+00    7.4969976350595422E+00    2.6550987034995326E+00
N    3.3211337922418878E+00    5.6106581944214033E+00    3.2380435009838409E+00
Ga    3.3206035948018848E+00    5.6082999007055720E+00    5.2608174657656290E+00
N    3.3200922927162297E+00    7.4778213294084974E+00    5.8577283433617451E+00
Ga    3.3162602756970472E+00    7.4746675159504310E+00    7.8709643529980688E+00
N    3.3146633576777997E+00    5.6029103441523409E+00    8.4560002920621535E+00
Ga    3.3121687376656506E+00    5.6026883638500991E+00    1.0465891146836126E+01
N    3.3176505854513576E+00    7.4718335888443796E+00    1.1050882830400313E+01
Ga    3.3287708925834520E+00    7.4724501803419052E+00    1.3063284042945611E+01
N    3.3162521974659103E+00    5.6147534422462293E+00    1.3688249442537227E+01
Ga    3.3306466611533243E+00    5.6248247151990967E+00    1.5735893560867948E+01
N    3.3622937064477347E+00    7.5009109893103574E+00    1.6263154286896658E+01
Ga    3.3628190023933557E+00    7.4760954667259902E+00    1.8362788347706754E+01
N    3.3735751467912589E+00    5.6046964077017938E+00    1.8720208548447644E+01
O    1.8515512719644234E-01    4.6715400254833117E+00    2.1166781579282137E+01
C   -5.0924527088035954E-01    3.6991851370728188E+00    2.1460359220033705E+01
H   -1.4193331314456106E+00    2.6420114701484003E+00    1.9713856818892790E+01
H   -1.3550209892933424E-01    2.6725827028392719E+00    2.1320293293255041E+01
H   -1.5417983063857159E+00    3.7934118681677171E+00    2.1829173676021526E+01
     &END COORD
     &KIND C
       BASIS_SET DZVP-MOLOPT-SR-GTH-q4
       POTENTIAL GTH-PBE-q4
       &POTENTIAL
 2 2
  0.3384712400000000E+00 2 -0.8803673979999999E+01  0.1339210850000000E+01
 2
  0.3025757500000000E+00 1  0.9622486650000001E+01
  0.2915069400000000E+00 0
         # Potential name:  GTH-PBE-Q4  for symbol:  C
         # Potential read from the potential filename: GTH_POTENTIALS
       &END POTENTIAL
     &END KIND
     &KIND O
       BASIS_SET DZVP-MOLOPT-SR-GTH-q6
       POTENTIAL GTH-PBE-q6
       &POTENTIAL
 2 4
  0.2445543000000000E+00 2 -0.1666721480000000E+02  0.2487311320000000E+01
 2
  0.2209559200000000E+00 1  0.1833745811000000E+02
  0.2113324700000000E+00 0
         # Potential name:  GTH-PBE-Q6  for symbol:  O
         # Potential read from the potential filename: GTH_POTENTIALS
       &END POTENTIAL
     &END KIND
     &KIND H
       BASIS_SET DZVP-MOLOPT-SR-GTH-q1
       POTENTIAL GTH-PBE-q1
       &POTENTIAL
 1
  0.2000000000000000E+00 2 -0.4178900440000000E+01  0.7244633100000000E+00
 0
         # Potential name:  GTH-PBE-Q1  for symbol:  H
         # Potential read from the potential filename: GTH_POTENTIALS
       &END POTENTIAL
     &END KIND
     &KIND N
       BASIS_SET DZVP-MOLOPT-SR-GTH-q5
       POTENTIAL GTH-PBE-q5
       &POTENTIAL
 2 3
  0.2837905100000000E+00 2 -0.1241522559000000E+02  0.1868095920000000E+01
 2
  0.2554050000000000E+00 1  0.1363026257000000E+02
  0.2454945300000000E+00 0
         # Potential name:  GTH-PBE-Q5  for symbol:  N
         # Potential read from the potential filename: GTH_POTENTIALS
       &END POTENTIAL
     &END KIND
     &KIND Ga
       BASIS_SET DZVP-MOLOPT-SR-GTH-q13
       POTENTIAL GTH-PBE-q13
       &POTENTIAL
 2 1 10
  0.4900000000000000E+00 0
 3
  0.4167772300000000E+00 3  0.1047568975000000E+02 -0.4921768140000000E+01  0.8707055900000000E+00
  0.7770178090000000E+01 -0.2248152160000000E+01
  0.1784415450000000E+01
  0.5696265200000000E+00 2  0.1777985340000000E+01  0.1958597600000000E+00
 -0.2317443900000000E+00
  0.2381265000000000E+00 1 -0.1624868022000000E+02
         # Potential name:  GTH-PBE-Q13  for symbol:  GA
         # Potential read from the potential filename: GTH_POTENTIALS
       &END POTENTIAL
     &END KIND
     &TOPOLOGY
       NUMBER_OF_ATOMS  149
       MULTIPLE_UNIT_CELL  1 1 1
     &END TOPOLOGY
   &END SUBSYS
 &END FORCE_EVAL
