 # Version information for this restart file 
 # current date 2019-05-27 15:24:25.349
 # current working dir /lustre03/project/6004141/rzk/GaN-carbene/334-native/01-Methanol/05-dissociated/01-OCH3
 # Program compiled at                              Sun Apr  7 00:48:11 EDT 2019
 # Program compiled on                          beluga2.int.ets1.calculquebec.ca
 # Program compiled for                        Beluga-Linux-x86-64-intel-openmpi
 # Source code revision number                                         svn:18619
 &GLOBAL
   PRINT_LEVEL  MEDIUM
   PROJECT_NAME TEST
   RUN_TYPE  GEO_OPT
 &END GLOBAL
 &MOTION
   &GEO_OPT
     MAX_ITER  500
     STEP_START_VAL  50
   &END GEO_OPT
 &END MOTION
 &FORCE_EVAL
   METHOD  QS
   STRESS_TENSOR  ANALYTICAL
   &DFT
     BASIS_SET_FILE_NAME BASIS_MOLOPT
     POTENTIAL_FILE_NAME GTH_POTENTIALS
     CHARGE  -1
     &SCF
       MAX_SCF  100
       EPS_SCF     5.0000000000000004E-06
       &OT  T
         PRECONDITIONER  FULL_ALL
       &END OT
       &OUTER_SCF  T
         OPTIMIZER  NONE
         EPS_SCF     5.0000000000000004E-06
         MAX_SCF  4
       &END OUTER_SCF
       &PRINT
         &RESTART  OFF
           BACKUP_COPIES  1
           &EACH
             JUST_ENERGY  0
             QS_SCF  0
             MD  20
           &END EACH
         &END RESTART
       &END PRINT
     &END SCF
     &QS
       EPS_DEFAULT     1.0000000000000000E-14
       ALMO_SCF  F
       METHOD  GPW
     &END QS
     &MGRID
       NGRIDS  5
       CUTOFF     1.2000000000000000E+03
     &END MGRID
     &XC
       DENSITY_CUTOFF     1.0000000000000000E-10
       GRADIENT_CUTOFF     1.0000000000000000E-10
       TAU_CUTOFF     1.0000000000000000E-10
       &XC_FUNCTIONAL  NO_SHORTCUT
         &PBE  T
         &END PBE
       &END XC_FUNCTIONAL
       &VDW_POTENTIAL
         POTENTIAL_TYPE  PAIR_POTENTIAL
         &PAIR_POTENTIAL
           R_CUTOFF     1.0000000000000005E+01
           TYPE  DFTD3
           PARAMETER_FILE_NAME dftd3.dat
           REFERENCE_FUNCTIONAL PBE
           EPS_CN     9.9999999999999995E-07
           CALCULATE_C9_TERM  T
           REFERENCE_C9_TERM  T
           LONG_RANGE_CORRECTION  F
           VERBOSE_OUTPUT  F
         &END PAIR_POTENTIAL
       &END VDW_POTENTIAL
     &END XC
   &END DFT
   &SUBSYS
     &CELL
       A     9.7367653356401487E+00    0.0000000000000000E+00    0.0000000000000000E+00
       B    -4.8591341382960209E+00    8.4162672083210595E+00    0.0000000000000000E+00
       C     0.0000000000000000E+00    0.0000000000000000E+00    3.0744000000000000E+01
       MULTIPLE_UNIT_CELL  1 1 1
       &CELL_REF
         A     9.5580000000000052E+00    0.0000000000000000E+00    0.0000000000000000E+00
         B    -4.7790000000000026E+00    8.2774708093716640E+00    0.0000000000000000E+00
         C     0.0000000000000000E+00    0.0000000000000000E+00    3.0744000000000000E+01
         MULTIPLE_UNIT_CELL  1 1 1
       &END CELL_REF
     &END CELL
     &COORD
Ga    7.5227671374168220E-02    7.7368288674272336E-03   -5.3671260943884724E-01
N    7.6369554911830076E-02    1.8784788982542686E+00    6.2036705952355076E-01
Ga    6.9411498756492440E-02    1.8439281042888052E+00    2.6570497550591154E+00
N    6.6426182978061452E-02    1.5874622338758098E-03    3.2855510693224894E+00
Ga    5.9402235936001670E-02   -2.3763433337347520E-03    5.2864242575390969E+00
N    6.0388330716043749E-02    1.8730187460201442E+00    5.8562841478980614E+00
Ga    5.3681084688291816E-02    1.8673072762296383E+00    7.8708849495347826E+00
N    5.0306309849216711E-02   -7.7315883951323836E-03    8.4504717029690521E+00
Ga    5.0346583660996730E-02   -8.3296406653877303E-03    1.0465589492447750E+01
N    5.4832637181043413E-02    1.8589655833315124E+00    1.1056394125521466E+01
Ga    7.1137742125182826E-02    1.8559341704303198E+00    1.3073403789218546E+01
N    6.7231912344918807E-02   -9.8120933863155516E-03    1.3658706619624727E+01
Ga    1.0042028365322948E-01   -1.8525510176328322E-02    1.5680774490447103E+01
N    1.0383859674176922E-01    1.8655343918278320E+00    1.6189921603789227E+01
Ga    1.9562520852801277E-01    1.7969546010270290E+00    1.8170191707841671E+01
N    1.2501148470204052E-01   -1.8411639708389722E-02    1.8755320284252800E+01
Ga   -1.5457717972690139E+00    2.8100722151712971E+00    3.5306432138333854E-01
N   -1.5461553013824534E+00    4.6805437211249590E+00    6.1856080367476596E-01
Ga   -1.5243619441846636E+00    4.6936858766244693E+00    2.6564465990800006E+00
N   -1.5543830357415653E+00    2.8074073432566582E+00    3.2383302886221021E+00
Ga   -1.5611344517856980E+00    2.8035855408701846E+00    5.2619629481816634E+00
N   -1.5620956142323130E+00    4.6722100904460682E+00    5.8584754060877877E+00
Ga   -1.5674499971323776E+00    4.6683055082875917E+00    7.8738854155555478E+00
N   -1.5693925971134328E+00    2.7966928073119561E+00    8.4598800893413575E+00
Ga   -1.5694837581285026E+00    2.7972702643787217E+00    1.0476302908288629E+01
N   -1.5691802108624329E+00    4.6709526006836306E+00    1.1053596768175771E+01
Ga   -1.5617419141538991E+00    4.6813599692590557E+00    1.3070068924843516E+01
N   -1.5540795125077418E+00    2.7973188928572661E+00    1.3628765030625214E+01
Ga   -1.5197951287554539E+00    2.8035287278168237E+00    1.5622436773707502E+01
N   -1.5375753565579557E+00    4.6612432412393385E+00    1.6149525755350105E+01
Ga   -1.5123724075022009E+00    4.6707578378465504E+00    1.8136864314801461E+01
N   -1.4307717486959786E+00    2.7927567714071402E+00    1.8746023462992419E+01
Ga   -3.1658663030209455E+00    5.6159221964408159E+00    3.5360569668299319E-01
N   -3.1608821668101363E+00    7.4871055732287708E+00    6.1811006876900654E-01
Ga   -3.1957497567879942E+00    7.4999234679418771E+00    2.6545848305775239E+00
N   -3.1730871301262402E+00    5.6127849207758720E+00    3.2385158267856742E+00
Ga   -3.1798818445972850E+00    5.6089574150319121E+00    5.2620900363768834E+00
N   -3.1744496648443645E+00    7.4780666577587249E+00    5.8577886307987521E+00
Ga   -3.1813572381694155E+00    7.4752027110714563E+00    7.8728299012087932E+00
N   -3.1888625563235187E+00    5.6043831974105736E+00    8.4589074908939210E+00
Ga   -3.1917668011309184E+00    5.6044421444095889E+00    1.0474402231963891E+01
N   -3.1845805550789401E+00    7.4784976555150191E+00    1.1052997242276126E+01
Ga   -3.1737271975726640E+00    7.4849119744055947E+00    1.3066618449673248E+01
N   -3.1852006181814052E+00    5.6175817172809488E+00    1.3650954747154021E+01
Ga   -3.1623880024703026E+00    5.6225938504672941E+00    1.5671241088393927E+01
N   -3.1333711544357952E+00    7.4936208863613860E+00    1.6270041955907594E+01
Ga   -3.1126010806272659E+00    7.4585527738109025E+00    1.8378198674710500E+01
N   -3.0975554643640071E+00    5.5735492844009729E+00    1.8696629015791956E+01
Ga    3.3202908310606194E+00    4.8828468334470247E-03    3.5343112653523229E-01
N    3.3193389301649945E+00    1.8753259032009006E+00    6.1900344812440522E-01
Ga    3.3411811477555546E+00    1.8882519817338459E+00    2.6570404630617945E+00
N    3.3118173188392195E+00    1.3809106446587205E-03    3.2382128530823766E+00
Ga    3.3039346823753437E+00   -2.5975628097692541E-03    5.2613229389383820E+00
N    3.3032065301437754E+00    1.8668100048890328E+00    5.8567503540208650E+00
Ga    3.2972099358657991E+00    1.8637509951633036E+00    7.8709378063969799E+00
N    3.2978739421094851E+00   -5.1347894627290017E-03    8.4625751483330092E+00
Ga    3.3009609493349075E+00   -1.7389824328060961E-03    1.0479417236565240E+01
N    3.3028868032994354E+00    1.8719240860512343E+00    1.1059977664475991E+01
Ga    3.3168665224254892E+00    1.8787751799976999E+00    1.3081215553197486E+01
N    3.3070621509295073E+00    8.3623601211084975E-03    1.3638847819441740E+01
Ga    3.3375483144533855E+00    1.8977039668942448E-02    1.5669163246429386E+01
N    3.3404708656527720E+00    1.8904967427633701E+00    1.6239459379297461E+01
Ga    3.3984062617418060E+00    1.8355453366570926E+00    1.8322779487615680E+01
N    3.4023469146703085E+00   -5.2042281739542132E-02    1.8706991487038700E+01
Ga    1.6991483124439803E+00    2.8101462075959467E+00    3.5464751361801072E-01
N    1.7045538889377554E+00    4.6811733273054594E+00    6.1918755376137191E-01
Ga    1.6697589172173750E+00    4.6942717398704827E+00    2.6553803802703722E+00
N    1.6922251801385750E+00    2.8076856651564657E+00    3.2393199923560996E+00
Ga    1.6844605868595814E+00    2.8040302596830382E+00    5.2632637726146196E+00
N    1.6906043016523766E+00    4.6728858438383858E+00    5.8593279223752193E+00
Ga    1.6814683416170064E+00    4.6694320095184736E+00    7.8751908476443830E+00
N    1.6766986747115504E+00    2.7975368803722143E+00    8.4589974343312129E+00
Ga    1.6769124375591355E+00    2.7986142486883541E+00    1.0474968518073913E+01
N    1.6781766989720281E+00    4.6690409208699064E+00    1.1055172682363001E+01
Ga    1.6884577012067303E+00    4.6783808182931530E+00    1.3075357870080797E+01
N    1.6873966761593731E+00    2.8055855957659293E+00    1.3646575740846270E+01
Ga    1.7211435831473492E+00    2.8298563327608068E+00    1.5673057933813269E+01
N    1.7018591708287625E+00    4.6909559559771479E+00    1.6196981203783661E+01
Ga    1.7482300897468022E+00    4.5923022920727661E+00    1.8811804140203837E+01
N    1.7483667535343099E+00    2.7015286589057830E+00    1.8837209546485479E+01
Ga    8.0931943488873864E-02    5.6174050449439221E+00   -5.3632225462076499E-01
N    8.2750433899950265E-02    7.4893751705095770E+00    6.1937579424050204E-01
Ga    7.6019096178148449E-02    7.4538499867085903E+00    2.6559328002046980E+00
N    7.2539195020755051E-02    5.6120574624490693E+00    3.2864342343112507E+00
Ga    6.4781877664833204E-02    5.6080580765337755E+00    5.2869501418089824E+00
N    6.6284005693396347E-02    7.4833077093018554E+00    5.8581881742706692E+00
Ga    6.0287216809816503E-02    7.4781478646579913E+00    7.8726396477986018E+00
N    5.6515029475790665E-02    5.6046773324290200E+00    8.4569582524621474E+00
Ga    5.7463694690527506E-02    5.6071304830204305E+00    1.0477498387992723E+01
N    6.5091703096078993E-02    7.4809462738292032E+00    1.1061134100626610E+01
Ga    8.0343642267987112E-02    7.4911620782604151E+00    1.3089835340579766E+01
N    6.3666815922785586E-02    5.6134704912448488E+00    1.3617773710012472E+01
Ga    1.0083839542242951E-01    5.6180429791164315E+00    1.5643098950349422E+01
N    1.2028316042792569E-01    7.5062333103192458E+00    1.6148786208368719E+01
Ga    1.7938725051043497E-01    7.4914560903526599E+00    1.8187840802862986E+01
N    1.7917117300301105E-01    5.5700941755097721E+00    1.8406597085606762E+01
Ga    6.5641890566970540E+00    5.7085111532058554E-03    3.5324681867182434E-01
N    6.5700059556431718E+00    1.8757428520128938E+00    6.1823933994741076E-01
Ga    6.5341614087724214E+00    1.8893411492984262E+00    2.6548985701635748E+00
N    6.5567041244079949E+00    1.9272553016116373E-03    3.2375258959327047E+00
Ga    6.5493758135984832E+00   -2.3680735256169706E-03    5.2610168410545777E+00
N    6.5547584326888675E+00    1.8669640304882058E+00    5.8556570954300389E+00
Ga    6.5472881795489375E+00    1.8630660752940791E+00    7.8697095768535501E+00
N    6.5428214814280583E+00   -6.0820564373810608E-03    8.4587161213153035E+00
Ga    6.5435891546686413E+00   -5.7202618917666951E-03    1.0475964504391255E+01
N    6.5410812238418368E+00    1.8672663484676839E+00    1.1057611615742388E+01
Ga    6.5533685180541834E+00    1.8673140050021428E+00    1.3073870925746085E+01
N    6.5777523782582437E+00    5.5983363882501835E-03    1.3656966718115935E+01
Ga    6.6222619336961994E+00    1.0243858856402211E-02    1.5689751186320429E+01
N    6.6149381583055602E+00    1.8810410225110470E+00    1.6261055874865637E+01
Ga    6.5990127041062614E+00    1.8408655220174486E+00    1.8308535099566257E+01
N    6.6179872307845713E+00   -7.1336941496842367E-03    1.8743020610454632E+01
Ga    4.9473657294173030E+00    2.8109172558591466E+00   -5.3768587242165389E-01
N    4.9478604622753251E+00    4.6839402802035313E+00    6.1826040704471941E-01
Ga    4.9418971121226543E+00    4.6486328515354600E+00    2.6552507523034854E+00
N    4.9371879742705085E+00    2.8073268733665810E+00    3.2852413398555291E+00
Ga    4.9303453323986588E+00    2.8033925708955789E+00    5.2855171757422710E+00
N    4.9329642885019078E+00    4.6786514010084490E+00    5.8566803452067404E+00
Ga    4.9248393375395709E+00    4.6740834433088390E+00    7.8713791593276063E+00
N    4.9227097149273344E+00    2.7992735861567000E+00    8.4521963600056260E+00
Ga    4.9216660624532356E+00    2.8024893425487982E+00    1.0468946737783783E+01
N    4.9223946324661547E+00    4.6708286708461229E+00    1.1063388652259508E+01
Ga    4.9276530192038033E+00    4.6762839210433427E+00    1.3084766948755107E+01
N    4.9437099280462133E+00    2.8076714422859386E+00    1.3671742270686211E+01
Ga    4.9724064504593253E+00    2.8208484249151393E+00    1.5713268257903158E+01
N    4.9737097313852230E+00    4.6872871355106120E+00    1.6273204411401977E+01
Ga    4.9859812635077576E+00    4.6582070117694450E+00    1.8379539479839220E+01
N    5.0045362267525375E+00    2.7832492706798155E+00    1.8738318859227387E+01
Ga    3.3258391812836474E+00    5.6164964283987358E+00    3.5395545419173341E-01
N    3.3257726446930334E+00    7.4873637503331549E+00    6.1880717320592660E-01
Ga    3.3472373903029187E+00    7.4996817019050575E+00    2.6561740895645811E+00
N    3.3185085808089605E+00    5.6122517576577371E+00    3.2379052069272785E+00
Ga    3.3108388892925511E+00    5.6080516285785409E+00    5.2612115389763563E+00
N    3.3090722181003533E+00    7.4774823158220887E+00    5.8552526386502999E+00
Ga    3.3029765901698926E+00    7.4736159524324810E+00    7.8701748783150833E+00
N    3.3022567438733810E+00    5.6044134782144956E+00    8.4607774536832707E+00
Ga    3.3006777959936069E+00    5.6047267533158500E+00    1.0478648106202749E+01
N    3.3084241135112937E+00    7.4769644162250817E+00    1.1057621082320452E+01
Ga    3.3241700243700372E+00    7.4754296100009183E+00    1.3078662054041008E+01
N    3.3093194743082561E+00    5.6128651608820537E+00    1.3674406197943204E+01
Ga    3.3295320925180873E+00    5.6111334670506201E+00    1.5730629344258645E+01
N    3.3782552134697861E+00    7.4753589710800519E+00    1.6297669146932193E+01
Ga    3.3692758138135810E+00    7.4362697120793380E+00    1.8403128976178106E+01
N    3.3642903047670902E+00    5.5706695768369077E+00    1.8869111622952101E+01
O    1.4893343732153458E-01    4.6651484058497914E+00    2.0928097704799534E+01
C   -5.0765004544868497E-01    3.6922559374209247E+00    2.1287810274886741E+01
H   -1.2322677648416158E+00    2.8372783691136996E+00    1.9739006872350355E+01
H   -1.4886829527956216E-01    2.6475137348710707E+00    2.1222331902922232E+01
H   -1.5137468678773718E+00    3.8398402419458399E+00    2.1764007828157794E+01
     &END COORD
     &KIND C
       BASIS_SET DZVP-MOLOPT-SR-GTH-q4
       POTENTIAL GTH-PBE-q4
       &POTENTIAL
 2 2
  0.3384712400000000E+00 2 -0.8803673979999999E+01  0.1339210850000000E+01
 2
  0.3025757500000000E+00 1  0.9622486650000001E+01
  0.2915069400000000E+00 0
         # Potential name:  GTH-PBE-Q4  for symbol:  C
         # Potential read from the potential filename: GTH_POTENTIALS
       &END POTENTIAL
     &END KIND
     &KIND O
       BASIS_SET DZVP-MOLOPT-SR-GTH-q6
       POTENTIAL GTH-PBE-q6
       &POTENTIAL
 2 4
  0.2445543000000000E+00 2 -0.1666721480000000E+02  0.2487311320000000E+01
 2
  0.2209559200000000E+00 1  0.1833745811000000E+02
  0.2113324700000000E+00 0
         # Potential name:  GTH-PBE-Q6  for symbol:  O
         # Potential read from the potential filename: GTH_POTENTIALS
       &END POTENTIAL
     &END KIND
     &KIND H
       BASIS_SET DZVP-MOLOPT-SR-GTH-q1
       POTENTIAL GTH-PBE-q1
       &POTENTIAL
 1
  0.2000000000000000E+00 2 -0.4178900440000000E+01  0.7244633100000000E+00
 0
         # Potential name:  GTH-PBE-Q1  for symbol:  H
         # Potential read from the potential filename: GTH_POTENTIALS
       &END POTENTIAL
     &END KIND
     &KIND N
       BASIS_SET DZVP-MOLOPT-SR-GTH-q5
       POTENTIAL GTH-PBE-q5
       &POTENTIAL
 2 3
  0.2837905100000000E+00 2 -0.1241522559000000E+02  0.1868095920000000E+01
 2
  0.2554050000000000E+00 1  0.1363026257000000E+02
  0.2454945300000000E+00 0
         # Potential name:  GTH-PBE-Q5  for symbol:  N
         # Potential read from the potential filename: GTH_POTENTIALS
       &END POTENTIAL
     &END KIND
     &KIND Ga
       BASIS_SET DZVP-MOLOPT-SR-GTH-q13
       POTENTIAL GTH-PBE-q13
       &POTENTIAL
 2 1 10
  0.4900000000000000E+00 0
 3
  0.4167772300000000E+00 3  0.1047568975000000E+02 -0.4921768140000000E+01  0.8707055900000000E+00
  0.7770178090000000E+01 -0.2248152160000000E+01
  0.1784415450000000E+01
  0.5696265200000000E+00 2  0.1777985340000000E+01  0.1958597600000000E+00
 -0.2317443900000000E+00
  0.2381265000000000E+00 1 -0.1624868022000000E+02
         # Potential name:  GTH-PBE-Q13  for symbol:  GA
         # Potential read from the potential filename: GTH_POTENTIALS
       &END POTENTIAL
     &END KIND
     &TOPOLOGY
       NUMBER_OF_ATOMS  149
       MULTIPLE_UNIT_CELL  1 1 1
     &END TOPOLOGY
   &END SUBSYS
 &END FORCE_EVAL
