 # Version information for this restart file 
 # current date 2019-05-27 07:48:59.522
 # current working dir /lustre03/project/6004141/rzk/GaN-carbene/334-native/07-Hydrogen/01-surface-atoms
 # Program compiled at                              Sun Apr  7 00:48:11 EDT 2019
 # Program compiled on                          beluga2.int.ets1.calculquebec.ca
 # Program compiled for                        Beluga-Linux-x86-64-intel-openmpi
 # Source code revision number                                         svn:18619
 &GLOBAL
   PRINT_LEVEL  MEDIUM
   PROJECT_NAME TEST
   RUN_TYPE  GEO_OPT
 &END GLOBAL
 &MOTION
   &GEO_OPT
     MAX_ITER  500
     STEP_START_VAL  25
   &END GEO_OPT
 &END MOTION
 &FORCE_EVAL
   METHOD  QS
   STRESS_TENSOR  ANALYTICAL
   &DFT
     BASIS_SET_FILE_NAME BASIS_MOLOPT
     POTENTIAL_FILE_NAME GTH_POTENTIALS
     &SCF
       MAX_SCF  100
       EPS_SCF     5.0000000000000004E-06
       &OT  T
         PRECONDITIONER  FULL_ALL
       &END OT
       &OUTER_SCF  T
         OPTIMIZER  NONE
         EPS_SCF     5.0000000000000004E-06
         MAX_SCF  4
       &END OUTER_SCF
       &PRINT
         &RESTART  OFF
           BACKUP_COPIES  1
           &EACH
             JUST_ENERGY  0
             QS_SCF  0
             MD  20
           &END EACH
         &END RESTART
       &END PRINT
     &END SCF
     &QS
       EPS_DEFAULT     1.0000000000000000E-14
       ALMO_SCF  F
       METHOD  GPW
     &END QS
     &MGRID
       NGRIDS  5
       CUTOFF     1.2000000000000000E+03
     &END MGRID
     &XC
       DENSITY_CUTOFF     1.0000000000000000E-10
       GRADIENT_CUTOFF     1.0000000000000000E-10
       TAU_CUTOFF     1.0000000000000000E-10
       &XC_FUNCTIONAL  NO_SHORTCUT
         &PBE  T
         &END PBE
       &END XC_FUNCTIONAL
       &VDW_POTENTIAL
         POTENTIAL_TYPE  PAIR_POTENTIAL
         &PAIR_POTENTIAL
           R_CUTOFF     1.0000000000000005E+01
           TYPE  DFTD3
           PARAMETER_FILE_NAME dftd3.dat
           REFERENCE_FUNCTIONAL PBE
           EPS_CN     9.9999999999999995E-07
           CALCULATE_C9_TERM  T
           REFERENCE_C9_TERM  T
           LONG_RANGE_CORRECTION  F
           VERBOSE_OUTPUT  F
         &END PAIR_POTENTIAL
       &END VDW_POTENTIAL
     &END XC
   &END DFT
   &SUBSYS
     &CELL
       A     9.7367653356401487E+00    0.0000000000000000E+00    0.0000000000000000E+00
       B    -4.8591341382960209E+00    8.4162672083210595E+00    0.0000000000000000E+00
       C     0.0000000000000000E+00    0.0000000000000000E+00    3.0744000000000000E+01
       MULTIPLE_UNIT_CELL  1 1 1
       &CELL_REF
         A     9.5580000000000052E+00    0.0000000000000000E+00    0.0000000000000000E+00
         B    -4.7790000000000026E+00    8.2774708093716640E+00    0.0000000000000000E+00
         C     0.0000000000000000E+00    0.0000000000000000E+00    3.0744000000000000E+01
         MULTIPLE_UNIT_CELL  1 1 1
       &END CELL_REF
     &END CELL
     &COORD
Ga   -5.0916813156951242E-02   -2.8023468163253525E-02   -5.3302172385196078E-01
N   -4.8282374488942584E-02    1.8462580544773770E+00    6.2009530054710449E-01
Ga   -4.9189427996715732E-02    1.8148307268360828E+00    2.6500448327454724E+00
N   -5.2389176631519714E-02   -2.7755176211601524E-02    3.2836572024299802E+00
Ga   -5.2366375782641521E-02   -2.5579043838681113E-02    5.2742088301927437E+00
N   -4.9677905485692342E-02    1.8495669964711119E+00    5.8609067732777236E+00
Ga   -5.0958061604885946E-02    1.8493843257897740E+00    7.8598368552766162E+00
N   -5.4130443233226792E-02   -2.4135987776680499E-02    8.4594766770632148E+00
Ga   -5.5028675263353130E-02   -2.1046260094055746E-02    1.0456385829066608E+01
N   -5.0390586299581520E-02    1.8483983516113256E+00    1.1066338125255548E+01
Ga   -5.0135024118065967E-02    1.8498038480703187E+00    1.3064760393313739E+01
N   -5.9188145812594163E-02   -1.8855083049456385E-02    1.3676109857537329E+01
Ga   -6.2299103150389210E-02   -3.1150710328783825E-02    1.5684976055155893E+01
N   -4.5835477387474788E-02    1.8550816829599648E+00    1.6273178606591202E+01
Ga   -5.8381749031494956E-02    1.8462690649124798E+00    1.8374301583581023E+01
N   -5.5961804436590955E-02   -2.9258090359963986E-02    1.8735081595703619E+01
Ga   -1.6705202934139112E+00    2.7775120169752219E+00    3.3903607875567288E-01
N   -1.6727059980489265E+00    4.6468841400669758E+00    6.2041630239233658E-01
Ga   -1.6444352842120220E+00    4.6635317423667875E+00    2.6496859508917487E+00
N   -1.6717970250967173E+00    2.7776805286649435E+00    3.2409787286274736E+00
Ga   -1.6718959359631600E+00    2.7798250255103016E+00    5.2513230025222661E+00
N   -1.6721318286824183E+00    4.6495227497957679E+00    5.8605544467393420E+00
Ga   -1.6721506629433838E+00    4.6506672841619627E+00    7.8591310740346874E+00
N   -1.6736366897035788E+00    2.7807407933992954E+00    8.4665524693792715E+00
Ga   -1.6733801223856739E+00    2.7817957110367573E+00    1.0463758989451884E+01
N   -1.6687897918473802E+00    4.6548153388575750E+00    1.1066397196129181E+01
Ga   -1.6645990403915740E+00    4.6518385763374495E+00    1.3063179663065887E+01
N   -1.6709652841246507E+00    2.7826409527009552E+00    1.3671098189241491E+01
Ga   -1.6794214154769107E+00    2.7828221745866699E+00    1.5679128913270873E+01
N   -1.6881135511501189E+00    4.6635745666909161E+00    1.6239922152276002E+01
Ga   -1.6483589851551772E+00    4.6461304907390257E+00    1.8252226619604997E+01
N   -1.6931914662788696E+00    2.7843713258694538E+00    1.8658706728408678E+01
Ga   -3.2909123854826574E+00    5.5829249415888160E+00    3.3915142046901064E-01
N   -3.2847793584239424E+00    7.4531318974566219E+00    6.2060751586207141E-01
Ga   -3.3138363359692198E+00    7.4690251495215030E+00    2.6504750141836904E+00
N   -3.2916621301244882E+00    5.5832116332529189E+00    3.2418359828548828E+00
Ga   -3.2919106676952459E+00    5.5850042967871776E+00    5.2524290160243687E+00
N   -3.2861738724745404E+00    7.4553451229768353E+00    5.8607284000832482E+00
Ga   -3.2885721827450030E+00    7.4573366220587367E+00    7.8594837353191398E+00
N   -3.2921172507891598E+00    5.5867503857772318E+00    8.4641909056352329E+00
Ga   -3.2912277471016544E+00    5.5885221272098748E+00    1.0459860260699433E+01
N   -3.2928731751081695E+00    7.4617638879668862E+00    1.1062662308412422E+01
Ga   -3.2970872101829842E+00    7.4684757714132655E+00    1.3056634749571250E+01
N   -3.2978274046325202E+00    5.5887593676186285E+00    1.3642992319282413E+01
Ga   -3.2988657527380969E+00    5.5925961363884014E+00    1.5621488723425683E+01
N   -3.2917682112592610E+00    7.4417459438495754E+00    1.6247118666895471E+01
Ga   -3.2964028139660848E+00    7.5000846638373293E+00    1.8270799730506276E+01
N   -3.2994124176275341E+00    5.5867419215530418E+00    1.8834748292378478E+01
Ga    3.1948662654530837E+00   -2.8815621385871692E-02    3.3929232434519085E-01
N    3.1939641073558986E+00    1.8422273099512305E+00    6.2138289995086493E-01
Ga    3.2208377629279581E+00    1.8581526527255052E+00    2.6525594905624454E+00
N    3.1933313734970357E+00   -2.7732345765714320E-02    3.2412702297773177E+00
Ga    3.1932531795760033E+00   -2.5657246837665213E-02    5.2516177105970563E+00
N    3.1929395410110875E+00    1.8442236536008694E+00    5.8607131388497971E+00
Ga    3.1928490005630970E+00    1.8452466818641693E+00    7.8594624900906087E+00
N    3.1919796954592110E+00   -2.4635556543055954E-02    8.4657127509858316E+00
Ga    3.1921096256402981E+00   -2.1957880809616397E-02    1.0462376331640241E+01
N    3.1964101979625457E+00    1.8492018536256905E+00    1.1068285908483908E+01
Ga    3.1930180522404350E+00    1.8493843291683938E+00    1.3066973422247775E+01
N    3.1887860328254494E+00   -2.6645954555351150E-02    1.3663400101823997E+01
Ga    3.1939535030221715E+00   -3.8386440060313248E-02    1.5664595026112355E+01
N    3.2083999658254081E+00    1.8363028758296165E+00    1.6228346198036618E+01
Ga    3.1957529914803917E+00    1.8355360072346623E+00    1.8298606178966530E+01
N    3.1808842663667827E+00   -3.2154840766551673E-02    1.8731815768132421E+01
Ga    1.5737846407000213E+00    2.7781347756211741E+00    3.3897489723098989E-01
N    1.5810169590806149E+00    4.6474363469036755E+00    6.2082524286091956E-01
Ga    1.5517703191853827E+00    4.6635729841620712E+00    2.6499660259746785E+00
N    1.5735238437798000E+00    2.7777440644751783E+00    3.2415251012853807E+00
Ga    1.5736022853575504E+00    2.7799120409145721E+00    5.2519730070367938E+00
N    1.5789318509744943E+00    4.6496572643721992E+00    5.8608359325002732E+00
Ga    1.5767313018185551E+00    4.6508890401092593E+00    7.8596431669727354E+00
N    1.5725741285560420E+00    2.7805003662136887E+00    8.4655695202557482E+00
Ga    1.5730791343388608E+00    2.7821118053834897E+00    1.0462649143841849E+01
N    1.5722336680027382E+00    4.6550086955645025E+00    1.1062478623071023E+01
Ga    1.5684707216196740E+00    4.6532215748158920E+00    1.3058613440431865E+01
N    1.5718754663443510E+00    2.7843965744252297E+00    1.3664196790217160E+01
Ga    1.5840723754785557E+00    2.7800628357455857E+00    1.5671336742881998E+01
N    1.5946904667431483E+00    4.6620278362415872E+00    1.6240966911560314E+01
Ga    1.5601423502851295E+00    4.6231705111566361E+00    1.8255613049256038E+01
N    1.5765355348408860E+00    2.7663920988280646E+00    1.8713352373473725E+01
Ga   -4.4785297292443814E-02    5.5828890236913757E+00   -5.3789494402532945E-01
N   -4.2285975034131992E-02    7.4576268484823975E+00    6.2053581477436659E-01
Ga   -4.3252017532086261E-02    7.4256867092260146E+00    2.6497555579280787E+00
N   -4.6177483324488004E-02    5.5829383679969720E+00    3.2833561768314246E+00
Ga   -4.6147612264010270E-02    5.5849944204039543E+00    5.2737327485893983E+00
N   -4.3591420799216629E-02    7.4601097147486568E+00    5.8603671671425781E+00
Ga   -4.4873083269754997E-02    7.4599170360748381E+00    7.8589871956698936E+00
N   -4.7834959302476159E-02    5.5864550029925759E+00    8.4594331927781425E+00
Ga   -4.7957430594787902E-02    5.5881083747636886E+00    1.0456291510490882E+01
N   -4.5085769456419511E-02    7.4583409439284720E+00    1.1066495197557154E+01
Ga   -4.5341280797205737E-02    7.4567185302803205E+00    1.3063257892532315E+01
N   -4.8288271892922570E-02    5.5889505680939227E+00    1.3682148755229614E+01
Ga   -4.6717864378040305E-02    5.5876967959874086E+00    1.5690914019740212E+01
N   -6.5018242327228096E-02    7.4719332076832927E+00    1.6298929252703410E+01
Ga   -4.5353140378466002E-02    7.4579826440535308E+00    1.8393434934681967E+01
N   -4.0775499104503378E-02    5.5672639069416601E+00    1.8671062422436719E+01
Ga    6.4388961069033668E+00   -2.8504411880998563E-02    3.3915898871574907E-01
N    6.4449356225715446E+00    1.8427051099677281E+00    6.2105459401233842E-01
Ga    6.4168964583719124E+00    1.8582029828476754E+00    2.6521578424221204E+00
N    6.4389061550814706E+00   -2.7735545812073516E-02    3.2410806065111015E+00
Ga    6.4386741725826431E+00   -2.5832689994689430E-02    5.2514504858756217E+00
N    6.4448255480503196E+00    1.8442035467031404E+00    5.8603149718115883E+00
Ga    6.4431121624000385E+00    1.8450511726402765E+00    7.8588975233394525E+00
N    6.4371218109628980E+00   -2.4766577294153581E-02    8.4648362323671531E+00
Ga    6.4367711361726965E+00   -2.2927667262956315E-02    1.0461212873733240E+01
N    6.4407716334492608E+00    1.8468692632632531E+00    1.1070837530841905E+01
Ga    6.4449138354831614E+00    1.8429920124580317E+00    1.3070426779422940E+01
N    6.4325770934802708E+00   -3.0273696222919609E-02    1.3678221946710904E+01
Ga    6.4311820893666560E+00   -4.4771793115155493E-02    1.5688543733619680E+01
N    6.4460262108618611E+00    1.8304677784035646E+00    1.6249076493271797E+01
Ga    6.4281046195880105E+00    1.8258246820497759E+00    1.8321780237918567E+01
N    6.4467459890055769E+00   -4.0627146617352519E-02    1.8715369464982512E+01
Ga    4.8198933457928170E+00    2.7776545049894312E+00   -5.1198888385773655E-01
N    4.8230228712514123E+00    4.6508362347286045E+00    6.2163942650630566E-01
Ga    4.8220325420055099E+00    4.6205059267065858E+00    2.6528394172216259E+00
N    4.8191764830033330E+00    2.7776001492189608E+00    3.2845960695705356E+00
Ga    4.8190929292443334E+00    2.7798035506046075E+00    5.2755814870992017E+00
N    4.8219063497209262E+00    4.6545821554132019E+00    5.8618744568728403E+00
Ga    4.8208410362748877E+00    4.6539444640245211E+00    7.8613194011028975E+00
N    4.8185638538121456E+00    2.7789846518501706E+00    8.4597080656183579E+00
Ga    4.8193935946505038E+00    2.7778796592395500E+00    1.0456771094573870E+01
N    4.8210597486597022E+00    4.6510280469703211E+00    1.1052099844218006E+01
Ga    4.8208624326514160E+00    4.6472085440166104E+00    1.3040241376050774E+01
N    4.8230116865099966E+00    2.7838518998584214E+00    1.3667831973077607E+01
Ga    4.8259055808799625E+00    2.7791038227020048E+00    1.5671063856403110E+01
N    4.8202256007164053E+00    4.6726578267699859E+00    1.6242496521905036E+01
Ga    4.8228039702554151E+00    4.6208592605193539E+00    1.8223859017488987E+01
N    4.8114826409719536E+00    2.7829348445690654E+00    1.8676915431893192E+01
Ga    3.2001069868183203E+00    5.5823061369331715E+00    3.3909317677022321E-01
N    3.1994205939788976E+00    7.4524683513283820E+00    6.2037468668014972E-01
Ga    3.2272209906088545E+00    7.4686756575513540E+00    2.6504230539475300E+00
N    3.1995275906205438E+00    5.5830962524758423E+00    3.2419682817373117E+00
Ga    3.1994944488746988E+00    5.5847661813834888E+00    5.2525893876484524E+00
N    3.1991301696439631E+00    7.4552499725928927E+00    5.8603302309680414E+00
Ga    3.1987830483614341E+00    7.4570022490476244E+00    7.8589810530601572E+00
N    3.1976220079749562E+00    5.5866688812781469E+00    8.4639780310693862E+00
Ga    3.1961586864140035E+00    5.5885769480920446E+00    1.0460207505880607E+01
N    3.2011225737575422E+00    7.4614818726523167E+00    1.1063609518911736E+01
Ga    3.1984056222022650E+00    7.4657457975996380E+00    1.3059342636691460E+01
N    3.2009519105121433E+00    5.5854966520101526E+00    1.3634482155264330E+01
Ga    3.1985167179865357E+00    5.5890134509080127E+00    1.5614449357511512E+01
N    3.1982212945106276E+00    7.4336830061534007E+00    1.6256392287696002E+01
Ga    3.2122067593164836E+00    7.4842082753638772E+00    1.8278554282586935E+01
N    3.2057367630566098E+00    5.5723211142338975E+00    1.8842181123894090E+01
H    3.2028240221621966E+00    5.5553422977220537E+00    1.9868646011333059E+01
H    6.4387062684960901E+00    5.5733362420370920E+00    1.9861222339217008E+01
     &END COORD
     &KIND C
       BASIS_SET DZVP-MOLOPT-SR-GTH-q4
       POTENTIAL GTH-PBE-q4
     &END KIND
     &KIND O
       BASIS_SET DZVP-MOLOPT-SR-GTH-q6
       POTENTIAL GTH-PBE-q6
     &END KIND
     &KIND H
       BASIS_SET DZVP-MOLOPT-SR-GTH-q1
       POTENTIAL GTH-PBE-q1
       &POTENTIAL
 1
  0.2000000000000000E+00 2 -0.4178900440000000E+01  0.7244633100000000E+00
 0
         # Potential name:  GTH-PBE-Q1  for symbol:  H
         # Potential read from the potential filename: GTH_POTENTIALS
       &END POTENTIAL
     &END KIND
     &KIND N
       BASIS_SET DZVP-MOLOPT-SR-GTH-q5
       POTENTIAL GTH-PBE-q5
       &POTENTIAL
 2 3
  0.2837905100000000E+00 2 -0.1241522559000000E+02  0.1868095920000000E+01
 2
  0.2554050000000000E+00 1  0.1363026257000000E+02
  0.2454945300000000E+00 0
         # Potential name:  GTH-PBE-Q5  for symbol:  N
         # Potential read from the potential filename: GTH_POTENTIALS
       &END POTENTIAL
     &END KIND
     &KIND Ga
       BASIS_SET DZVP-MOLOPT-SR-GTH-q13
       POTENTIAL GTH-PBE-q13
       &POTENTIAL
 2 1 10
  0.4900000000000000E+00 0
 3
  0.4167772300000000E+00 3  0.1047568975000000E+02 -0.4921768140000000E+01  0.8707055900000000E+00
  0.7770178090000000E+01 -0.2248152160000000E+01
  0.1784415450000000E+01
  0.5696265200000000E+00 2  0.1777985340000000E+01  0.1958597600000000E+00
 -0.2317443900000000E+00
  0.2381265000000000E+00 1 -0.1624868022000000E+02
         # Potential name:  GTH-PBE-Q13  for symbol:  GA
         # Potential read from the potential filename: GTH_POTENTIALS
       &END POTENTIAL
     &END KIND
     &TOPOLOGY
       NUMBER_OF_ATOMS  146
       MULTIPLE_UNIT_CELL  1 1 1
     &END TOPOLOGY
   &END SUBSYS
 &END FORCE_EVAL
