 # Version information for this restart file 
 # current date 2019-05-27 07:49:50.059
 # current working dir /lustre03/project/6004141/rzk/GaN-carbene/334-native/07-Hydrogen/01-surface-atoms
 # Program compiled at                              Sun Apr  7 00:48:11 EDT 2019
 # Program compiled on                          beluga2.int.ets1.calculquebec.ca
 # Program compiled for                        Beluga-Linux-x86-64-intel-openmpi
 # Source code revision number                                         svn:18619
 &GLOBAL
   PRINT_LEVEL  MEDIUM
   PROJECT_NAME TEST
   RUN_TYPE  GEO_OPT
 &END GLOBAL
 &MOTION
   &GEO_OPT
     MAX_ITER  500
     STEP_START_VAL  26
   &END GEO_OPT
 &END MOTION
 &FORCE_EVAL
   METHOD  QS
   STRESS_TENSOR  ANALYTICAL
   &DFT
     BASIS_SET_FILE_NAME BASIS_MOLOPT
     POTENTIAL_FILE_NAME GTH_POTENTIALS
     &SCF
       MAX_SCF  100
       EPS_SCF     5.0000000000000004E-06
       &OT  T
         PRECONDITIONER  FULL_ALL
       &END OT
       &OUTER_SCF  T
         OPTIMIZER  NONE
         EPS_SCF     5.0000000000000004E-06
         MAX_SCF  4
       &END OUTER_SCF
       &PRINT
         &RESTART  OFF
           BACKUP_COPIES  1
           &EACH
             JUST_ENERGY  0
             QS_SCF  0
             MD  20
           &END EACH
         &END RESTART
       &END PRINT
     &END SCF
     &QS
       EPS_DEFAULT     1.0000000000000000E-14
       ALMO_SCF  F
       METHOD  GPW
     &END QS
     &MGRID
       NGRIDS  5
       CUTOFF     1.2000000000000000E+03
     &END MGRID
     &XC
       DENSITY_CUTOFF     1.0000000000000000E-10
       GRADIENT_CUTOFF     1.0000000000000000E-10
       TAU_CUTOFF     1.0000000000000000E-10
       &XC_FUNCTIONAL  NO_SHORTCUT
         &PBE  T
         &END PBE
       &END XC_FUNCTIONAL
       &VDW_POTENTIAL
         POTENTIAL_TYPE  PAIR_POTENTIAL
         &PAIR_POTENTIAL
           R_CUTOFF     1.0000000000000005E+01
           TYPE  DFTD3
           PARAMETER_FILE_NAME dftd3.dat
           REFERENCE_FUNCTIONAL PBE
           EPS_CN     9.9999999999999995E-07
           CALCULATE_C9_TERM  T
           REFERENCE_C9_TERM  T
           LONG_RANGE_CORRECTION  F
           VERBOSE_OUTPUT  F
         &END PAIR_POTENTIAL
       &END VDW_POTENTIAL
     &END XC
   &END DFT
   &SUBSYS
     &CELL
       A     9.7367653356401487E+00    0.0000000000000000E+00    0.0000000000000000E+00
       B    -4.8591341382960209E+00    8.4162672083210595E+00    0.0000000000000000E+00
       C     0.0000000000000000E+00    0.0000000000000000E+00    3.0744000000000000E+01
       MULTIPLE_UNIT_CELL  1 1 1
       &CELL_REF
         A     9.5580000000000052E+00    0.0000000000000000E+00    0.0000000000000000E+00
         B    -4.7790000000000026E+00    8.2774708093716640E+00    0.0000000000000000E+00
         C     0.0000000000000000E+00    0.0000000000000000E+00    3.0744000000000000E+01
         MULTIPLE_UNIT_CELL  1 1 1
       &END CELL_REF
     &END CELL
     &COORD
Ga   -5.1012398499369435E-02   -2.7627117897686380E-02   -5.3761469552104280E-01
N   -4.8415559028793541E-02    1.8470389481100653E+00    6.2049521409516006E-01
Ga   -4.9272078692282312E-02    1.8152482400915713E+00    2.6497653478019023E+00
N   -5.2479664679490938E-02   -2.7351143341452024E-02    3.2839937134638206E+00
Ga   -5.2379450577517882E-02   -2.5335661737808400E-02    5.2743083377975752E+00
N   -4.9671222957009133E-02    1.8498744599469781E+00    5.8608578781978249E+00
Ga   -5.0893549441449033E-02    1.8495580084311383E+00    7.8596735929973791E+00
N   -5.4047968007442986E-02   -2.4053078465934193E-02    8.4592191565158039E+00
Ga   -5.4925254867485250E-02   -2.1051838181367275E-02    1.0455949212387395E+01
N   -5.0356657046888263E-02    1.8483648115057940E+00    1.1066156940902832E+01
Ga   -5.0062232829334849E-02    1.8497147135192791E+00    1.3064273170617415E+01
N   -5.9214215408009169E-02   -1.9016221572476320E-02    1.3674811020298044E+01
Ga   -6.1871715105780399E-02   -3.1486228383945776E-02    1.5683121479169134E+01
N   -4.5712868386043756E-02    1.8539788893886633E+00    1.6272393203201300E+01
Ga   -5.7854634380281190E-02    1.8461737442807398E+00    1.8374346106985382E+01
N   -5.5550332071685089E-02   -2.9639999851222572E-02    1.8736839459962294E+01
Ga   -1.6705233995918551E+00    2.7778464684801043E+00    3.3836969163093977E-01
N   -1.6727710208687785E+00    4.6473988243302049E+00    6.1958071763599565E-01
Ga   -1.6445115534640540E+00    4.6639636048359545E+00    2.6490788453558052E+00
N   -1.6718917087256735E+00    2.7782064469984777E+00    3.2409279080022695E+00
Ga   -1.6719145984839967E+00    2.7801487440221919E+00    5.2511974048151409E+00
N   -1.6720663018478192E+00    4.6498218039020509E+00    5.8603972593460494E+00
Ga   -1.6720354310650336E+00    4.6507692822021038E+00    7.8589376380451537E+00
N   -1.6736102848496461E+00    2.7808299027741823E+00    8.4664081259962973E+00
Ga   -1.6732606037152544E+00    2.7817276568301921E+00    1.0463438160245493E+01
N   -1.6687017032303910E+00    4.6545665353734194E+00    1.1066364223253945E+01
Ga   -1.6644290842579776E+00    4.6514861108293992E+00    1.3062951069180118E+01
N   -1.6710254137402130E+00    2.7822362280798352E+00    1.3671172093370259E+01
Ga   -1.6788326042535124E+00    2.7830107619526649E+00    1.5678960680274045E+01
N   -1.6884526081407503E+00    4.6630978047167533E+00    1.6239640147794653E+01
Ga   -1.6481377385492848E+00    4.6454133931773747E+00    1.8252025667684112E+01
N   -1.6926818576908862E+00    2.7847278604404218E+00    1.8659264137718505E+01
Ga   -3.2911102011201554E+00    5.5835636092539644E+00    3.3843678383638159E-01
N   -3.2846775577396863E+00    7.4534175178379920E+00    6.2108730603854001E-01
Ga   -3.3139145311464921E+00    7.4693969194297418E+00    2.6502819219883640E+00
N   -3.2916498447665785E+00    5.5835198628986600E+00    3.2418117021012121E+00
Ga   -3.2918789313031169E+00    5.5852206464411083E+00    5.2522900193204585E+00
N   -3.2860887682223980E+00    7.4555197921172081E+00    5.8606830103018908E+00
Ga   -3.2884595732545319E+00    7.4573429909592868E+00    7.8593584311334590E+00
N   -3.2920465416018270E+00    5.5867200179873686E+00    8.4641182037809415E+00
Ga   -3.2910572923224901E+00    5.5883377397642375E+00    1.0459682474722916E+01
N   -3.2928645446843823E+00    7.4616439963168641E+00    1.1062197967759444E+01
Ga   -3.2970248012403602E+00    7.4681991247161505E+00    1.3055832588543598E+01
N   -3.2977297410592326E+00    5.5885588696252064E+00    1.3642496863059877E+01
Ga   -3.2985984530787311E+00    5.5924848389485886E+00    1.5620158550501321E+01
N   -3.2915376305005744E+00    7.4412363201663743E+00    1.6245294987565924E+01
Ga   -3.2960255992954144E+00    7.4996672729647420E+00    1.8268395042588509E+01
N   -3.2993261298848360E+00    5.5869685980718211E+00    1.8834391629399935E+01
Ga    3.1944997308312657E+00   -2.8408234313858589E-02    3.3864553638667855E-01
N    3.1944536807478623E+00    1.8430429508275179E+00    6.2074755499784018E-01
Ga    3.2205400733058149E+00    1.8584503161908454E+00    2.6525151060967422E+00
N    3.1933881587422301E+00   -2.7385614650062631E-02    3.2412334959832187E+00
Ga    3.1933176628096995E+00   -2.5420493949160038E-02    5.2515033274296075E+00
N    3.1929326752464875E+00    1.8444726684299153E+00    5.8606559982261999E+00
Ga    3.1928720311333816E+00    1.8453282555402410E+00    7.8593959934203239E+00
N    3.1920588044579086E+00   -2.4591975773633243E-02    8.4656319727863210E+00
Ga    3.1922280562665915E+00   -2.2091866560139201E-02    1.0462216456270413E+01
N    3.1964962954157810E+00    1.8491622798704184E+00    1.1067977788959009E+01
Ga    3.1931179006559578E+00    1.8493395152073533E+00    1.3066282332173628E+01
N    3.1888876608104639E+00   -2.6643733581886847E-02    1.3662539720693241E+01
Ga    3.1942100444695991E+00   -3.9125565537676731E-02    1.5662868017188355E+01
N    3.2090088093182865E+00    1.8360478686920469E+00    1.6226670956895642E+01
Ga    3.1950444656453350E+00    1.8355264895881371E+00    1.8296795555864687E+01
N    3.1815437513038338E+00   -3.2200637995653078E-02    1.8729767045091798E+01
Ga    1.5735125715787344E+00    2.7784730783591653E+00    3.3830490843559546E-01
N    1.5808120609249932E+00    4.6479419997769682E+00    6.2001754358474503E-01
Ga    1.5516791655816957E+00    4.6640006535437450E+00    2.6493824602145821E+00
N    1.5734647998731379E+00    2.7782695356665519E+00    3.2414720953041867E+00
Ga    1.5735988856822285E+00    2.7802366913548644E+00    5.2518415654425068E+00
N    1.5788643885954907E+00    4.6499533013953762E+00    5.8607039721853296E+00
Ga    1.5767376957735884E+00    4.6509934214517639E+00    7.8594946787518909E+00
N    1.5726243691726327E+00    2.7805966713836101E+00    8.4654656743701455E+00
Ga    1.5730989890457958E+00    2.7820572044767662E+00    1.0462400058575032E+01
N    1.5723791704239638E+00    4.6548683475533874E+00    1.1062274828141769E+01
Ga    1.5685028931820633E+00    4.6529734382612462E+00    1.3058167670295274E+01
N    1.5720234317782087E+00    2.7841691182774864E+00    1.3663496468022089E+01
Ga    1.5837176779127848E+00    2.7798775998507379E+00    1.5670339720843707E+01
N    1.5946329043405831E+00    4.6620084469899590E+00    1.6240280591003870E+01
Ga    1.5605964771793599E+00    4.6218312765670779E+00    1.8255275315200201E+01
N    1.5767413473446779E+00    2.7662255817884382E+00    1.8716105485093387E+01
Ga   -4.4904865590947203E-02    5.5832788699769447E+00   -5.3607710577090473E-01
N   -4.2438088752276219E-02    7.4580334740612164E+00    6.1964366283654282E-01
Ga   -4.3349309059125610E-02    7.4260501957067193E+00    2.6490597930745330E+00
N   -4.6258708021128837E-02    5.5833699615655128E+00    3.2829000192819273E+00
Ga   -4.6159182021625965E-02    5.5853077258625747E+00    5.2732764445731171E+00
N   -4.3605049555523613E-02    7.4602898802557078E+00    5.8602892695900248E+00
Ga   -4.4826274320920921E-02    7.4599047931067091E+00    7.8588820007347318E+00
N   -4.7783938903716537E-02    5.5864937150543668E+00    8.4594065126838114E+00
Ga   -4.7883702504059683E-02    5.5879168915181001E+00    1.0456206061042440E+01
N   -4.4895024240677470E-02    7.4581673237128161E+00    1.1066243357728515E+01
Ga   -4.5058025287049490E-02    7.4563834339867814E+00    1.3062688835543922E+01
N   -4.8293220025155063E-02    5.5887439709759601E+00    1.3681230240150805E+01
Ga   -4.7406038682269259E-02    5.5877942592098000E+00    1.5689798236691351E+01
N   -6.5347562838810574E-02    7.4709446537208590E+00    1.6298996809820057E+01
Ga   -4.3790894356812882E-02    7.4568627616178773E+00    1.8392078535676923E+01
N   -4.0439010120401103E-02    5.5664935090575653E+00    1.8669281755666891E+01
Ga    6.4389585082655598E+00   -2.8091345925704579E-02    3.3851317418921018E-01
N    6.4441691336793570E+00    1.8435338202291485E+00    6.2043373065483642E-01
Ga    6.4170213717362588E+00    1.8584934061873906E+00    2.6521459445779172E+00
N    6.4386834691256070E+00   -2.7409386181829858E-02    3.2410349277688462E+00
Ga    6.4385785762533221E+00   -2.5611260081251950E-02    5.2513287900561130E+00
N    6.4448027539528088E+00    1.8444428963335342E+00    5.8602057242241283E+00
Ga    6.4431616703764441E+00    1.8451299673626242E+00    7.8587661096429571E+00
N    6.4371619201744155E+00   -2.4701863717920373E-02    8.4646729923923196E+00
Ga    6.4368637727883984E+00   -2.3043782188930998E-02    1.0460911443296961E+01
N    6.4408931609518785E+00    1.8467351557344962E+00    1.1070565025645344E+01
Ga    6.4451446531969028E+00    1.8426340852380672E+00    1.3069753025447399E+01
N    6.4326190998223955E+00   -3.0250741966175825E-02    1.3678544406841237E+01
Ga    6.4305040243164546E+00   -4.4966991079310362E-02    1.5688687211739536E+01
N    6.4468758492716347E+00    1.8305081686114109E+00    1.6250725016129568E+01
Ga    6.4297532732947822E+00    1.8250488354891874E+00    1.8323783520519022E+01
N    6.4470629088308096E+00   -4.1000003703177593E-02    1.8715574781450925E+01
Ga    4.8197473006317875E+00    2.7781598254341593E+00   -5.0997336711621954E-01
N    4.8228839488623256E+00    4.6505877904274850E+00    6.2101541050207343E-01
Ga    4.8219351403335695E+00    4.6211604697771618E+00    2.6528068066712041E+00
N    4.8190853041708088E+00    2.7779952956326421E+00    3.2842401646109560E+00
Ga    4.8190710253222306E+00    2.7800417523930361E+00    5.2753328447933878E+00
N    4.8218971617457012E+00    4.6547896446087949E+00    5.8617517798549317E+00
Ga    4.8209178118733735E+00    4.6539843746392044E+00    7.8611307751807242E+00
N    4.8186276655137057E+00    2.7790420421199320E+00    8.4596182764782206E+00
Ga    4.8195180880816775E+00    2.7777734022935245E+00    1.0456520550397281E+01
N    4.8211866454299024E+00    4.6508417607781256E+00    1.1052071653637247E+01
Ga    4.8209471445704075E+00    4.6470687095261463E+00    1.3039913628652450E+01
N    4.8233627896516191E+00    2.7835808569765477E+00    1.3667788795684956E+01
Ga    4.8263013428039168E+00    2.7794620745759220E+00    1.5670562250459829E+01
N    4.8206291003206179E+00    4.6724299457353338E+00    1.6241358027443376E+01
Ga    4.8235342620532542E+00    4.6210131276276050E+00    1.8222325831834318E+01
N    4.8112273595195498E+00    2.7827220208200845E+00    1.8674627338686186E+01
Ga    3.2000190133874669E+00    5.5829350728576390E+00    3.3837939875260126E-01
N    3.1990148039908668E+00    7.4527480057269369E+00    6.2081760216036153E-01
Ga    3.2271215552141701E+00    7.4690414523492157E+00    2.6501924402522343E+00
N    3.1993533144255628E+00    5.5834050210368176E+00    3.2419608550011563E+00
Ga    3.1994371811804436E+00    5.5850043438307804E+00    5.2524777499229067E+00
N    3.1990445482859973E+00    7.4554484446562705E+00    5.8602870910774350E+00
Ga    3.1988006001026750E+00    7.4570272774202051E+00    7.8588406764402912E+00
N    3.1977337182279828E+00    5.5866527325470754E+00    8.4638603668819243E+00
Ga    3.1962802861295208E+00    5.5884031482051295E+00    1.0459972255689067E+01
N    3.2012726424545810E+00    7.4613656087129678E+00    1.1063287709428204E+01
Ga    3.1983456542767308E+00    7.4655439278510212E+00    1.3058674311400113E+01
N    3.2009559960279250E+00    5.5853790481054295E+00    1.3633782234390956E+01
Ga    3.1986248614647299E+00    5.5890810685625718E+00    1.5613346398565954E+01
N    3.1987054813433362E+00    7.4337522535311491E+00    1.6256137504093847E+01
Ga    3.2122893134181014E+00    7.4836037931540931E+00    1.8278857991774174E+01
N    3.2062068473123291E+00    5.5716159903332363E+00    1.8841998002451462E+01
H    3.2037129799339676E+00    5.5539839016834538E+00    1.9868605620464443E+01
H    6.4378322355931745E+00    5.5736858025706502E+00    1.9860978595527538E+01
     &END COORD
     &KIND C
       BASIS_SET DZVP-MOLOPT-SR-GTH-q4
       POTENTIAL GTH-PBE-q4
     &END KIND
     &KIND O
       BASIS_SET DZVP-MOLOPT-SR-GTH-q6
       POTENTIAL GTH-PBE-q6
     &END KIND
     &KIND H
       BASIS_SET DZVP-MOLOPT-SR-GTH-q1
       POTENTIAL GTH-PBE-q1
       &POTENTIAL
 1
  0.2000000000000000E+00 2 -0.4178900440000000E+01  0.7244633100000000E+00
 0
         # Potential name:  GTH-PBE-Q1  for symbol:  H
         # Potential read from the potential filename: GTH_POTENTIALS
       &END POTENTIAL
     &END KIND
     &KIND N
       BASIS_SET DZVP-MOLOPT-SR-GTH-q5
       POTENTIAL GTH-PBE-q5
       &POTENTIAL
 2 3
  0.2837905100000000E+00 2 -0.1241522559000000E+02  0.1868095920000000E+01
 2
  0.2554050000000000E+00 1  0.1363026257000000E+02
  0.2454945300000000E+00 0
         # Potential name:  GTH-PBE-Q5  for symbol:  N
         # Potential read from the potential filename: GTH_POTENTIALS
       &END POTENTIAL
     &END KIND
     &KIND Ga
       BASIS_SET DZVP-MOLOPT-SR-GTH-q13
       POTENTIAL GTH-PBE-q13
       &POTENTIAL
 2 1 10
  0.4900000000000000E+00 0
 3
  0.4167772300000000E+00 3  0.1047568975000000E+02 -0.4921768140000000E+01  0.8707055900000000E+00
  0.7770178090000000E+01 -0.2248152160000000E+01
  0.1784415450000000E+01
  0.5696265200000000E+00 2  0.1777985340000000E+01  0.1958597600000000E+00
 -0.2317443900000000E+00
  0.2381265000000000E+00 1 -0.1624868022000000E+02
         # Potential name:  GTH-PBE-Q13  for symbol:  GA
         # Potential read from the potential filename: GTH_POTENTIALS
       &END POTENTIAL
     &END KIND
     &TOPOLOGY
       NUMBER_OF_ATOMS  146
       MULTIPLE_UNIT_CELL  1 1 1
     &END TOPOLOGY
   &END SUBSYS
 &END FORCE_EVAL
