 # Version information for this restart file 
 # current date 2019-05-27 07:50:37.813
 # current working dir /lustre03/project/6004141/rzk/GaN-carbene/334-native/07-Hydrogen/01-surface-atoms
 # Program compiled at                              Sun Apr  7 00:48:11 EDT 2019
 # Program compiled on                          beluga2.int.ets1.calculquebec.ca
 # Program compiled for                        Beluga-Linux-x86-64-intel-openmpi
 # Source code revision number                                         svn:18619
 &GLOBAL
   PRINT_LEVEL  MEDIUM
   PROJECT_NAME TEST
   RUN_TYPE  GEO_OPT
 &END GLOBAL
 &MOTION
   &GEO_OPT
     MAX_ITER  500
     STEP_START_VAL  27
   &END GEO_OPT
 &END MOTION
 &FORCE_EVAL
   METHOD  QS
   STRESS_TENSOR  ANALYTICAL
   &DFT
     BASIS_SET_FILE_NAME BASIS_MOLOPT
     POTENTIAL_FILE_NAME GTH_POTENTIALS
     &SCF
       MAX_SCF  100
       EPS_SCF     5.0000000000000004E-06
       &OT  T
         PRECONDITIONER  FULL_ALL
       &END OT
       &OUTER_SCF  T
         OPTIMIZER  NONE
         EPS_SCF     5.0000000000000004E-06
         MAX_SCF  4
       &END OUTER_SCF
       &PRINT
         &RESTART  OFF
           BACKUP_COPIES  1
           &EACH
             JUST_ENERGY  0
             QS_SCF  0
             MD  20
           &END EACH
         &END RESTART
       &END PRINT
     &END SCF
     &QS
       EPS_DEFAULT     1.0000000000000000E-14
       ALMO_SCF  F
       METHOD  GPW
     &END QS
     &MGRID
       NGRIDS  5
       CUTOFF     1.2000000000000000E+03
     &END MGRID
     &XC
       DENSITY_CUTOFF     1.0000000000000000E-10
       GRADIENT_CUTOFF     1.0000000000000000E-10
       TAU_CUTOFF     1.0000000000000000E-10
       &XC_FUNCTIONAL  NO_SHORTCUT
         &PBE  T
         &END PBE
       &END XC_FUNCTIONAL
       &VDW_POTENTIAL
         POTENTIAL_TYPE  PAIR_POTENTIAL
         &PAIR_POTENTIAL
           R_CUTOFF     1.0000000000000005E+01
           TYPE  DFTD3
           PARAMETER_FILE_NAME dftd3.dat
           REFERENCE_FUNCTIONAL PBE
           EPS_CN     9.9999999999999995E-07
           CALCULATE_C9_TERM  T
           REFERENCE_C9_TERM  T
           LONG_RANGE_CORRECTION  F
           VERBOSE_OUTPUT  F
         &END PAIR_POTENTIAL
       &END VDW_POTENTIAL
     &END XC
   &END DFT
   &SUBSYS
     &CELL
       A     9.7367653356401487E+00    0.0000000000000000E+00    0.0000000000000000E+00
       B    -4.8591341382960209E+00    8.4162672083210595E+00    0.0000000000000000E+00
       C     0.0000000000000000E+00    0.0000000000000000E+00    3.0744000000000000E+01
       MULTIPLE_UNIT_CELL  1 1 1
       &CELL_REF
         A     9.5580000000000052E+00    0.0000000000000000E+00    0.0000000000000000E+00
         B    -4.7790000000000026E+00    8.2774708093716640E+00    0.0000000000000000E+00
         C     0.0000000000000000E+00    0.0000000000000000E+00    3.0744000000000000E+01
         MULTIPLE_UNIT_CELL  1 1 1
       &END CELL_REF
     &END CELL
     &COORD
Ga   -5.1044427550709696E-02   -2.7553719773844944E-02   -5.3695123109302390E-01
N   -4.8435342691830877E-02    1.8471717907091176E+00    6.2019799222508865E-01
Ga   -4.9294062826615422E-02    1.8152894142194844E+00    2.6495651941456244E+00
N   -5.2492466229913867E-02   -2.7274484535286862E-02    3.2837450998252762E+00
Ga   -5.2387802731960913E-02   -2.5264296864583473E-02    5.2741443417333844E+00
N   -4.9680463879010262E-02    1.8499161739759762E+00    5.8607280198134148E+00
Ga   -5.0888794930706062E-02    1.8495391644082126E+00    7.8595762044983539E+00
N   -5.4042448412858296E-02   -2.4040625400549877E-02    8.4591644957121108E+00
Ga   -5.4932657120767565E-02   -2.1118417321745651E-02    1.0455971886216131E+01
N   -5.0296803906416207E-02    1.8483093088424358E+00    1.1066025567286960E+01
Ga   -4.9994141244638891E-02    1.8495775848588383E+00    1.3064232982625990E+01
N   -5.9167769704305415E-02   -1.9165226632201885E-02    1.3674877523619353E+01
Ga   -6.2099297816490484E-02   -3.1525868613297078E-02    1.5683290049985342E+01
N   -4.5479248161307911E-02    1.8540887741852272E+00    1.6272212060688059E+01
Ga   -5.7536767831194456E-02    1.8460682936646939E+00    1.8373965201253114E+01
N   -5.5343721703777264E-02   -2.9696677904663609E-02    1.8735789407997068E+01
Ga   -1.6705656537099840E+00    2.7779739768226639E+00    3.3836554010399489E-01
N   -1.6727770387962919E+00    4.6474837566075404E+00    6.1958889062811140E-01
Ga   -1.6445619587260176E+00    4.6640098026505470E+00    2.6490885758200484E+00
N   -1.6718783592659829E+00    2.7782225444227224E+00    3.2407718478686367E+00
Ga   -1.6718985788626468E+00    2.7801848247385417E+00    5.2510960135574152E+00
N   -1.6721072692551529E+00    4.6498534521849866E+00    5.8602811303163218E+00
Ga   -1.6720442200322050E+00    4.6507708087325081E+00    7.8588753684491675E+00
N   -1.6735981041289412E+00    2.7808073396664095E+00    8.4662947806033753E+00
Ga   -1.6732485781241511E+00    2.7816378726007036E+00    1.0463400434775957E+01
N   -1.6686273335167856E+00    4.6545285939765675E+00    1.1066111749572293E+01
Ga   -1.6643314044983581E+00    4.6513538757725073E+00    1.3062709801898883E+01
N   -1.6708609733076412E+00    2.7822109735060705E+00    1.3671070300298434E+01
Ga   -1.6790419969069823E+00    2.7826144142216962E+00    1.5678908338128192E+01
N   -1.6881647444077377E+00    4.6629539736613674E+00    1.6239497463803119E+01
Ga   -1.6480796750659374E+00    4.6457075277598134E+00    1.8252022666032637E+01
N   -1.6925852246749118E+00    2.7844952935409908E+00    1.8658919883540833E+01
Ga   -3.2910983937055227E+00    5.5836059371871523E+00    3.3847468108076656E-01
N   -3.2846435901512820E+00    7.4534776696148297E+00    6.2077878922162955E-01
Ga   -3.3139685859373431E+00    7.4695050894897408E+00    2.6500604589800596E+00
N   -3.2917043437718103E+00    5.5836588768783875E+00    3.2416540918884724E+00
Ga   -3.2918953843859522E+00    5.5853121110330779E+00    5.2522046442507149E+00
N   -3.2861232773714564E+00    7.4556016383758301E+00    5.8605681720306126E+00
Ga   -3.2884665917663645E+00    7.4573937387755560E+00    7.8592790789199602E+00
N   -3.2920291008904119E+00    5.5867756611530419E+00    8.4639693709998483E+00
Ga   -3.2910376325526212E+00    5.5882972298727625E+00    1.0459606548442327E+01
N   -3.2927831070315960E+00    7.4615993491396049E+00    1.1062151877348702E+01
Ga   -3.2969128043057800E+00    7.4681265466643882E+00    1.3055932984433055E+01
N   -3.2976263864104522E+00    5.5882929738369729E+00    1.3642246187449032E+01
Ga   -3.2986421040357312E+00    5.5922800282040663E+00    1.5620211443264594E+01
N   -3.2917612236949929E+00    7.4411038344774356E+00    1.6245076903529810E+01
Ga   -3.2958223254361476E+00    7.4997539083520337E+00    1.8268097409112904E+01
N   -3.2992190686833229E+00    5.5869975750435499E+00    1.8834133847693920E+01
Ga    3.1945374439116661E+00   -2.8329330792850101E-02    3.3864047091340538E-01
N    3.1941786750031289E+00    1.8429837050021094E+00    6.2080760201338225E-01
Ga    3.2205896538282190E+00    1.8585723221055119E+00    2.6524475279701614E+00
N    3.1932875129749867E+00   -2.7299695261901059E-02    3.2410806765981568E+00
Ga    3.1932737291401052E+00   -2.5358064401130628E-02    5.2514148156714020E+00
N    3.1929364761918198E+00    1.8445395139680401E+00    5.8604826714224547E+00
Ga    3.1929043573935201E+00    1.8453440303906212E+00    7.8592497626655993E+00
N    3.1920920539092168E+00   -2.4579661533135552E-02    8.4654889767716011E+00
Ga    3.1922934563275054E+00   -2.2112854737032072E-02    1.0462108962276416E+01
N    3.1965276986183113E+00    1.8490870387921359E+00    1.1068001573705560E+01
Ga    3.1931542604332286E+00    1.8491702281837943E+00    1.3066512827132646E+01
N    3.1889618627552530E+00   -2.6845735947513393E-02    1.3662655905032798E+01
Ga    3.1940357354944129E+00   -3.8946343099617697E-02    1.5663331933490952E+01
N    3.2084152310342380E+00    1.8361425347848164E+00    1.6226873612825830E+01
Ga    3.1953826787584796E+00    1.8356266886768351E+00    1.8297126409615824E+01
N    3.1813982543804435E+00   -3.2115889479892135E-02    1.8729959495913416E+01
Ga    1.5735093037251073E+00    2.7786026483397168E+00    3.3830102518396843E-01
N    1.5807753292146525E+00    4.6480288111826011E+00    6.2002202287572217E-01
Ga    1.5516989803878700E+00    4.6640524601438456E+00    2.6493920222046854E+00
N    1.5734107641897712E+00    2.7782861421204346E+00    3.2413234917665332E+00
Ga    1.5735733056676513E+00    2.7802751185320909E+00    5.2517564294620875E+00
N    1.5788942346742152E+00    4.6499903843923551E+00    5.8605803709590445E+00
Ga    1.5767699410185467E+00    4.6510059020937256E+00    7.8594236197300509E+00
N    1.5726435786700292E+00    2.7805721949406483E+00    8.4653287783630411E+00
Ga    1.5731662226424610E+00    2.7820134481475352E+00    1.0462346692704724E+01
N    1.5723809673008771E+00    4.6548286978398252E+00    1.1062180892531353E+01
Ga    1.5685612560396369E+00    4.6529185484298567E+00    1.3058154018334568E+01
N    1.5719888213341802E+00    2.7841207463957565E+00    1.3663349826420097E+01
Ga    1.5839284370222337E+00    2.7798498610492604E+00    1.5670148798658531E+01
N    1.5948511448999321E+00    4.6618387135943742E+00    1.6240237952039156E+01
Ga    1.5608035001453600E+00    4.6217381742194128E+00    1.8254910685382683E+01
N    1.5769668896270674E+00    2.7660685424082909E+00    1.8715558044926404E+01
Ga   -4.4931790507161944E-02    5.5833689574422367E+00   -5.3634963089035370E-01
N   -4.2457363242705985E-02    7.4580917873327337E+00    6.1966482194954742E-01
Ga   -4.3361781569726573E-02    7.4261828046961114E+00    2.6490997173041158E+00
N   -4.6276606438586922E-02    5.5834341776168586E+00    3.2828165241789908E+00
Ga   -4.6162680286573214E-02    5.5853441385359064E+00    5.2732757881650674E+00
N   -4.3605901087566235E-02    7.4603775798121763E+00    5.8601148063880224E+00
Ga   -4.4807585475124791E-02    7.4599466736805375E+00    7.8587371238403145E+00
N   -4.7774798172368342E-02    5.5865342163244947E+00    8.4592368978552717E+00
Ga   -4.7829913511398994E-02    5.5879263739873135E+00    1.0456071354497251E+01
N   -4.4854348438791936E-02    7.4581600662085474E+00    1.1066148335200982E+01
Ga   -4.5046469690739804E-02    7.4563862024535892E+00    1.3062698839046798E+01
N   -4.8270751287145836E-02    5.5886787442512595E+00    1.3681217619111163E+01
Ga   -4.6978614326123144E-02    5.5875045603154687E+00    1.5689790378243751E+01
N   -6.5230408646945723E-02    7.4709512201606643E+00    1.6298351114562600E+01
Ga   -4.4062586884231585E-02    7.4572117123413149E+00    1.8392132353607035E+01
N   -4.0149120858857516E-02    5.5666782200044249E+00    1.8669540621686483E+01
Ga    6.4388817502277664E+00   -2.8015070024873679E-02    3.3850765822137574E-01
N    6.4443909596905202E+00    1.8434758756963194E+00    6.2048815385132006E-01
Ga    6.4169307457497187E+00    1.8586093653946694E+00    2.6520755749498446E+00
N    6.4387495020199745E+00   -2.7324099116287019E-02    3.2408850961436473E+00
Ga    6.4386232172168123E+00   -2.5548016806047746E-02    5.2512416138845950E+00
N    6.4448016918350257E+00    1.8445163722169291E+00    5.8600195573344251E+00
Ga    6.4431837836830903E+00    1.8451515165651231E+00    7.8585912215023770E+00
N    6.4371735993129695E+00   -2.4680019042834754E-02    8.4645247521114975E+00
Ga    6.4368824352095695E+00   -2.3055602519365746E-02    1.0460789093220489E+01
N    6.4409421391709989E+00    1.8466552877490781E+00    1.1070651570148319E+01
Ga    6.4451292704303595E+00    1.8425081520320234E+00    1.3070075417845301E+01
N    6.4325972081222753E+00   -3.0454498036978677E-02    1.3678538262482810E+01
Ga    6.4309537068195564E+00   -4.4952178389567582E-02    1.5688878001921539E+01
N    6.4467009425240329E+00    1.8302559541558074E+00    1.6250608463809058E+01
Ga    6.4292339162133914E+00    1.8251514348091338E+00    1.8324003606928944E+01
N    6.4472663989869430E+00   -4.1120485787579493E-02    1.8715995675537972E+01
Ga    4.8197178714242348E+00    2.7782551536299782E+00   -5.1055244323280913E-01
N    4.8228599206637419E+00    4.6509552282986126E+00    6.2106378246376326E-01
Ga    4.8219149675712201E+00    4.6211510180345421E+00    2.6527200881459825E+00
N    4.8190663331842254E+00    2.7780807767242579E+00    3.2842746848615576E+00
Ga    4.8190679415608964E+00    2.7801178804333651E+00    5.2753158266062501E+00
N    4.8218947336545215E+00    4.6548617854136900E+00    5.8616047232971038E+00
Ga    4.8209271726034810E+00    4.6540231720186744E+00    7.8610384506413284E+00
N    4.8186643617874640E+00    2.7790423969687406E+00    8.4594765991548311E+00
Ga    4.8195608817420128E+00    2.7776884425828721E+00    1.0456476283923749E+01
N    4.8211893250567384E+00    4.6508001544214865E+00    1.1051887929847847E+01
Ga    4.8209591496943567E+00    4.6468961395371489E+00    1.3039855011073849E+01
N    4.8233111119406784E+00    2.7835165815738110E+00    1.3668045648691059E+01
Ga    4.8260765752561072E+00    2.7791306778343992E+00    1.5671155390877860E+01
N    4.8205099328643399E+00    4.6725096498917829E+00    1.6241511561177525E+01
Ga    4.8234938694153398E+00    4.6208949363541718E+00    1.8222807302946897E+01
N    4.8112527899335822E+00    2.7828789311791176E+00    1.8674701654854371E+01
Ga    3.1999637354795070E+00    5.5829810538158497E+00    3.3840791816991234E-01
N    3.1989454706736078E+00    7.4528089064798921E+00    6.2051616370818641E-01
Ga    3.2271389656879967E+00    7.4691520226081369E+00    2.6499785121339441E+00
N    3.1993782562268018E+00    5.5835466499496169E+00    3.2417990424646863E+00
Ga    3.1994421118704981E+00    5.5850926213330725E+00    5.2523847086206166E+00
N    3.1990767075017348E+00    7.4555193195114695E+00    5.8601610750170519E+00
Ga    3.1988383491144585E+00    7.4570675926856378E+00    7.8587407198475248E+00
N    3.1977420459929635E+00    5.5867107618508403E+00    8.4637228834648077E+00
Ga    3.1962785560434508E+00    5.5883857656057980E+00    1.0459904079314757E+01
N    3.2012160040205728E+00    7.4613211203513741E+00    1.1063261168088387E+01
Ga    3.1983118412790077E+00    7.4654797701451878E+00    1.3058787233627923E+01
N    3.2010611916965543E+00    5.5852906796178363E+00    1.3633801628666312E+01
Ga    3.1984776286785550E+00    5.5888561307613616E+00    1.5613527203853428E+01
N    3.1986895330220095E+00    7.4335411556704329E+00    1.6256387754870055E+01
Ga    3.2125070562244407E+00    7.4835094323140208E+00    1.8279013092833591E+01
N    3.2060227451975374E+00    5.5715811901265386E+00    1.8842013547322424E+01
H    3.2028262704899397E+00    5.5539574122957163E+00    1.9868480348715099E+01
H    6.4386925939916848E+00    5.5743236504848355E+00    1.9860663775228126E+01
     &END COORD
     &KIND C
       BASIS_SET DZVP-MOLOPT-SR-GTH-q4
       POTENTIAL GTH-PBE-q4
     &END KIND
     &KIND O
       BASIS_SET DZVP-MOLOPT-SR-GTH-q6
       POTENTIAL GTH-PBE-q6
     &END KIND
     &KIND H
       BASIS_SET DZVP-MOLOPT-SR-GTH-q1
       POTENTIAL GTH-PBE-q1
       &POTENTIAL
 1
  0.2000000000000000E+00 2 -0.4178900440000000E+01  0.7244633100000000E+00
 0
         # Potential name:  GTH-PBE-Q1  for symbol:  H
         # Potential read from the potential filename: GTH_POTENTIALS
       &END POTENTIAL
     &END KIND
     &KIND N
       BASIS_SET DZVP-MOLOPT-SR-GTH-q5
       POTENTIAL GTH-PBE-q5
       &POTENTIAL
 2 3
  0.2837905100000000E+00 2 -0.1241522559000000E+02  0.1868095920000000E+01
 2
  0.2554050000000000E+00 1  0.1363026257000000E+02
  0.2454945300000000E+00 0
         # Potential name:  GTH-PBE-Q5  for symbol:  N
         # Potential read from the potential filename: GTH_POTENTIALS
       &END POTENTIAL
     &END KIND
     &KIND Ga
       BASIS_SET DZVP-MOLOPT-SR-GTH-q13
       POTENTIAL GTH-PBE-q13
       &POTENTIAL
 2 1 10
  0.4900000000000000E+00 0
 3
  0.4167772300000000E+00 3  0.1047568975000000E+02 -0.4921768140000000E+01  0.8707055900000000E+00
  0.7770178090000000E+01 -0.2248152160000000E+01
  0.1784415450000000E+01
  0.5696265200000000E+00 2  0.1777985340000000E+01  0.1958597600000000E+00
 -0.2317443900000000E+00
  0.2381265000000000E+00 1 -0.1624868022000000E+02
         # Potential name:  GTH-PBE-Q13  for symbol:  GA
         # Potential read from the potential filename: GTH_POTENTIALS
       &END POTENTIAL
     &END KIND
     &TOPOLOGY
       NUMBER_OF_ATOMS  146
       MULTIPLE_UNIT_CELL  1 1 1
     &END TOPOLOGY
   &END SUBSYS
 &END FORCE_EVAL
