 # Version information for this restart file 
 # current date 2019-05-25 04:55:27.575
 # current working dir /lustre03/project/6004141/rzk/GaN-carbene/00-Surface/00-Preoptimization/443-capped
 # Program compiled at                              Sun Apr  7 00:48:11 EDT 2019
 # Program compiled on                          beluga2.int.ets1.calculquebec.ca
 # Program compiled for                        Beluga-Linux-x86-64-intel-openmpi
 # Source code revision number                                         svn:18619
 &GLOBAL
   PRINT_LEVEL  MEDIUM
   PROJECT_NAME TEST
   RUN_TYPE  GEO_OPT
 &END GLOBAL
 &MOTION
   &GEO_OPT
     MAX_ITER 500
   &END GEO_OPT
 &END MOTION
 &FORCE_EVAL
   METHOD  QS
   STRESS_TENSOR  ANALYTICAL
   &DFT
     UKS  T
     SURFACE_DIPOLE_CORRECTION  TRUE
     SURF_DIP_DIR               Z
     BASIS_SET_FILE_NAME BASIS_MOLOPT
     POTENTIAL_FILE_NAME GTH_POTENTIALS
     &SCF
       MAX_SCF  80
       EPS_SCF     5.0000000000000004E-06
       &OT  T
         PRECONDITIONER  FULL_ALL
       &END OT
       &OUTER_SCF  T
         OPTIMIZER  NONE
         EPS_SCF     5.0000000000000004E-06
         MAX_SCF  4
       &END OUTER_SCF
       &PRINT
         &RESTART  OFF
           BACKUP_COPIES  1
           &EACH
             JUST_ENERGY  0
             QS_SCF  0
             MD  20
           &END EACH
         &END RESTART
       &END PRINT
     &END SCF
     &QS
       EPS_DEFAULT     1.0000000000000000E-14
       METHOD  GPW
     &END QS
     &MGRID
       NGRIDS  5
       CUTOFF     1.2000000000000000E+03
     &END MGRID
     &XC
       DENSITY_CUTOFF     1.0000000000000000E-10
       GRADIENT_CUTOFF     1.0000000000000000E-10
       TAU_CUTOFF     1.0000000000000000E-10
       &XC_FUNCTIONAL  NO_SHORTCUT
         &PBE  T
         &END PBE
       &END XC_FUNCTIONAL
       &VDW_POTENTIAL
         POTENTIAL_TYPE  PAIR_POTENTIAL
         &PAIR_POTENTIAL
           R_CUTOFF     1.0000000000000002E+01
           TYPE  DFTD3
           PARAMETER_FILE_NAME dftd3.dat
           REFERENCE_FUNCTIONAL PBE
           EPS_CN     9.9999999999999995E-07
           CALCULATE_C9_TERM  T
           REFERENCE_C9_TERM  T
           LONG_RANGE_CORRECTION  F
           VERBOSE_OUTPUT  F
         &END PAIR_POTENTIAL
       &END VDW_POTENTIAL
     &END XC
   &END DFT
   &SUBSYS
     &CELL
       A     1.2864472766435110E+01    0.0000000000000000E+00    0.0000000000000000E+00
       B    -6.4322363581020028E+00    1.1140960178524471E+01    0.0000000000000000E+00
       #A     1.2982353780853531E+01    0.0000000000000000E+00    0.0000000000000000E+00
       #B    -6.4911768904267628E+00    1.1243048175136114E+01    0.0000000000000000E+00
       C     0.0000000000000000E+00    0.0000000000000000E+00    3.2000000000000000E+01
       MULTIPLE_UNIT_CELL  1 1 1
       &CELL_REF
         A     1.2982353780853531E+01    0.0000000000000000E+00    0.0000000000000000E+00
         B    -6.4911768904267628E+00    1.1243048175136114E+01    0.0000000000000000E+00
         C     0.0000000000000000E+00    0.0000000000000000E+00    3.2000000000000000E+01
         MULTIPLE_UNIT_CELL  1 1 1
       &END CELL_REF
     &END CELL
     &COORD
 N                 -0.02548118    2.04993306    2.50979877
 Ga                -0.02143620    0.07315309    2.86550124
 N                 -0.01681356    0.06101170    5.00714323
 Ga                -0.01608745    1.88952945    5.79616665
 N                 -0.01300747    1.90152049    7.78788363
 Ga                -0.01199833    0.05628926    8.43873171
 N                 -0.01105495    0.05569382   10.40934955
 Ga                -0.01010373    1.89631264   11.06463059
 N                 -0.00880887    1.87656302   13.05521970
 Ga                -0.00883994    0.05871732   13.86615058
 N                 -0.00723122    0.05618006   16.06274599
 Ga                -0.00980566    2.11506687   16.49300802
 Ga                -0.03595554    3.77397661    1.51556236
 N                 -1.51315300    4.63887720    2.51276481
 Ga                -1.72607500    2.78860079    3.29843030
 N                 -1.62896017    2.84379957    5.25496980
 Ga                -1.64766794    4.71686472    5.79929583
 N                 -1.63128811    4.70588722    7.79104651
 Ga                -1.61129343    2.84754364    8.43137451
 N                 -1.60730364    2.84763357   10.42123675
 Ga                -1.63254094    4.70608820   11.06621796
 N                 -1.64838460    4.71591602   13.05612089
 Ga                -1.60518687    2.84744947   13.62015385
 N                 -1.63506288    2.82863086   15.57524925
 Ga                -1.44493855    4.59527505   16.49121688
 N                 -0.00928827    3.77241944   17.62758429
 N                 -3.23346627    7.61008101    2.51515518
 Ga                -3.22621387    5.62901476    2.85257025
 N                 -3.23088640    5.62923145    5.00732432
 Ga                -3.23296703    7.45840375    5.79227563
 N                 -3.23005384    7.47270650    7.78591493
 Ga                -3.22910689    5.62767953    8.44144211
 N                 -3.22711531    5.62560155   10.41090847
 Ga                -3.22739389    7.46514491   11.06410631
 N                 -3.22498288    7.44564679   13.05245184
 Ga                -3.22215145    5.62569558   13.86615688
 N                 -3.22534993    5.62875536   16.06127538
 Ga                -3.22742094    7.66788752   16.46970879
 Ga                -3.22895416    9.33942050    1.45493587
 N                 -4.74129913   10.21762927    2.50225218
 Ga                -4.94036888    8.36465006    3.26916778
 N                 -4.84117638    8.41566245    5.23473413
 Ga                -4.86290598   10.28646530    5.78920446
 N                 -4.84672182   10.27475692    7.78316876
 Ga                -4.82816521    8.41775123    8.42966188
 N                 -4.82457643    8.41782539   10.42018591
 Ga                -4.85053456   10.27689429   11.06383166
 N                 -4.86519393   10.28695743   13.05357930
 Ga                -4.82264460    8.41656896   13.61024728
 N                 -4.84771561    8.39984721   15.56647125
 Ga                -4.67909237   10.17430678   16.46993463
 N                 -3.22829309    9.34577383   17.61424869
 N                  3.18545315    1.92439840    2.58037169
 Ga                 3.19326520    0.17696405    3.26471671
 N                  3.19960271    0.06292699    5.23125044
 Ga                 3.19864620    1.91530106    5.86883134
 N                  3.20315621    1.91300032    7.83859697
 Ga                 3.20212589    0.04594231    8.43147738
 N                  3.20427135    0.04324473   10.42057473
 Ga                 3.20410287    1.91353777   11.01980381
 N                  3.20620403    1.91342074   12.98648850
 Ga                 3.20731288    0.04462681   13.61194194
 N                  3.20744178    0.07162819   15.57247319
 Ga                 3.20557413    1.91072425   15.85683408
 N                  1.46832693    4.64140009    2.50069950
 Ga                 1.67959572    2.79377228    3.28841484
 N                  1.59457510    2.84444419    5.24668349
 Ga                 1.61570060    4.71675612    5.79642442
 N                  1.60577649    4.70598890    7.78860764
 Ga                 1.58556376    2.84801976    8.42978009
 N                  1.58595209    2.84816254   10.41963829
 Ga                 1.61202065    4.70579620   11.06734327
 N                  1.63092548    4.71590753   13.05779155
 Ga                 1.58763524    2.84736222   13.62171668
 N                  1.61704652    2.82898233   15.57801330
 Ga                 1.42669411    4.59628803   16.49331903
 N                 -0.02027163    7.48987868    2.60371373
 Ga                -0.01820601    5.74784590    3.29353262
 N                 -0.01643996    5.63600722    5.25203057
 Ga                -0.01626850    7.48905528    5.87501335
 N                 -0.01277764    7.48660391    7.84446945
 Ga                -0.01228416    5.61708923    8.43254654
 N                 -0.01012108    5.61354728   10.42251070
 Ga                -0.00987609    7.48245725   11.02181306
 N                 -0.00821628    7.48215912   12.98973388
 Ga                -0.00877024    5.61204520   13.62316912
 N                 -0.00869191    5.64733247   15.58062359
 Ga                -0.00930749    7.48294197   15.85172749
 N                 -1.73267019   10.21683447    2.51264327
 Ga                -1.53031704    8.36540983    3.28151680
 N                 -1.62368471    8.41703799    5.24414908
 Ga                -1.60124189   10.28867342    5.79447243
 N                 -1.61255854   10.27592550    7.78796273
 Ga                -1.63175737    8.41851725    8.43251446
 N                 -1.63027602    8.41740675   10.42207563
 Ga                -1.60496790   10.27645993   11.06282689
 N                 -1.58515259   10.28683738   13.05202504
 Ga                -1.62758396    8.41687463   13.61107218
 N                 -1.60350754    8.40059384   15.56899303
 Ga                -1.77720015   10.17355135   16.46808476
 N                  6.41035910    2.04139806    2.51647716
 Ga                 6.41233967    0.06106849    2.85798460
 N                  6.41686308    0.05926702    5.01372943
 Ga                 6.41364155    1.88672007    5.79624041
 N                  6.41780216    1.90213986    7.78849198
 Ga                 6.41931041    0.05614530    8.44148147
 N                  6.42199938    0.05500090   10.41129184
 Ga                 6.42152203    1.89585774   11.06389233
 N                  6.42333241    1.87557157   13.05426683
 Ga                 6.42384513    0.05552572   13.86006908
 N                  6.42207766    0.05738069   16.05899531
 Ga                 6.42096163    2.10399655   16.47246400
 Ga                 6.41859590    3.77673394    1.48578744
 N                  4.90753470    4.64336674    2.51095631
 Ga                 4.69893596    2.78811812    3.27349225
 N                  4.80449397    2.84212306    5.23556068
 Ga                 4.78198347    4.71382127    5.79087251
 N                  4.80075608    4.70372742    7.78422789
 Ga                 4.81980746    2.84734456    8.43203621
 N                  4.82400417    2.84791078   10.42134864
 Ga                 4.79850135    4.70665906   11.06706665
 N                  4.78285547    4.71612055   13.05796030
 Ga                 4.82535377    2.84618748   13.61360997
 N                  4.79604441    2.82863231   15.57219825
 Ga                 4.97179570    4.60557653   16.47341517
 N                  6.42292542    3.77720941   17.59569814
 N                  3.19356253    7.61116189    2.51217498
 Ga                 3.18309697    5.62810703    2.85203663
 N                  3.19800065    5.62951005    5.00411362
 Ga                 3.20156926    7.45760673    5.79322382
 N                  3.20415196    7.47199416    7.78657898
 Ga                 3.20406282    5.62693604    8.44127159
 N                  3.20563692    5.62587242   10.41172151
 Ga                 3.20691227    7.46479047   11.06870830
 N                  3.20732225    7.44625533   13.05845881
 Ga                 3.20495089    5.62616016   13.87134589
 N                  3.20820845    5.62765971   16.06632240
 Ga                 3.20603735    7.67009431   16.47976790
 Ga                 3.18977943    9.34858178    1.47232708
 N                  1.69307904   10.21500997    2.51826077
 Ga                 1.48915195    8.36274174    3.28412184
 N                  1.59167899    8.41551978    5.24516816
 Ga                 1.56859855   10.28610974    5.79971002
 N                  1.58635927   10.27445011    7.79176631
 Ga                 1.60666793    8.41712616    8.43518785
 N                  1.61010289    8.41702842   10.42450262
 Ga                 1.58430542   10.27614728   11.06621018
 N                  1.56800870   10.28651112   13.05623946
 Ga                 1.61007499    8.41712546   13.61716052
 N                  1.58481423    8.40080615   15.57483393
 Ga                 1.75796447   10.17225537   16.47680767
 N                  3.20940745    9.34707322   17.62460799
 N                  9.63015922    1.92054411    2.60517057
 Ga                 9.62878082    0.17549778    3.28169527
 N                  9.63256638    0.06015450    5.24394307
 Ga                 9.63150249    1.91481185    5.87588932
 N                  9.63404608    1.91226697    7.84458680
 Ga                 9.63710111    0.04470457    8.43518341
 N                  9.63898947    0.04240776   10.42394664
 Ga                 9.63893114    1.91279658   11.02162742
 N                  9.63992535    1.91263435   12.98896172
 Ga                 9.63943645    0.04438284   13.61912015
 N                  9.63782212    0.07173250   15.58044509
 Ga                 9.64106232    1.91176434   15.85841937
 N                  7.91565281    4.64260039    2.52015956
 Ga                 8.11908708    2.78782672    3.28670386
 N                  8.02350941    2.84298640    5.24660908
 Ga                 8.04971281    4.71590592    5.79479516
 N                  8.03707198    4.70478221    7.78717805
 Ga                 8.01695223    2.84736914    8.43315395
 N                  8.01849822    2.84746530   10.42233962
 Ga                 8.04413497    4.70650423   11.06555169
 N                  8.06358329    4.71604627   13.05639320
 Ga                 8.02113525    2.84649237   13.61484768
 N                  8.04877453    2.82852340   15.57469482
 Ga                 7.87193760    4.60668273   16.47146943
 N                  6.41304327    7.48951948    2.59468483
 Ga                 6.41162642    5.74906772    3.28019857
 N                  6.41533896    5.63045624    5.24061490
 Ga                 6.41653807    7.48790722    5.86435166
 N                  6.41899812    7.48404464    7.83624814
 Ga                 6.41865759    5.61604946    8.42993243
 N                  6.42081471    5.61337742   10.42091482
 Ga                 6.42107534    7.48292577   11.02014944
 N                  6.42224613    7.48268319   12.98756009
 Ga                 6.42345501    5.61400229   13.61674913
 N                  6.42215530    5.64945973   15.57675954
 Ga                 6.42358123    7.48556726   15.85516316
 N                  4.69803873   10.21599917    2.51081106
 Ga                 4.90290729    8.36183817    3.27192835
 N                  4.80888472    8.41471761    5.23635710
 Ga                 4.83304896   10.28468053    5.79396647
 N                  4.82176438   10.27407304    7.78666938
 Ga                 4.80234494    8.41708684    8.43189090
 N                  4.80232284    8.41761141   10.42210340
 Ga                 4.82936291   10.27619066   11.06704977
 N                  4.84671263   10.28669635   13.05811775
 Ga                 4.80471618    8.41698797   13.61892281
 N                  4.82853484    8.39994719   15.57725230
 Ga                 4.65831442   10.17486649   16.47752595
 O                  0.19168362    3.44101720   -0.54380138
 H                  1.45728999    4.64201407    1.50076060
 C                  0.77402778    2.12886885   -0.89129780
 H                  1.84041794    2.10316269   -0.64038694
 H                  0.23902396    1.39433174   -0.27876725
 H                  0.59302099    1.95127014   -1.95720910
     &END COORD

     &KIND C
       BASIS_SET DZVP-MOLOPT-SR-GTH-q4
       POTENTIAL GTH-PBE-q4
     &END KIND

     &KIND O
       BASIS_SET DZVP-MOLOPT-SR-GTH-q6
       POTENTIAL GTH-PBE-q6
     &END KIND

     &KIND H
       BASIS_SET DZVP-MOLOPT-SR-GTH-q1
       POTENTIAL GTH-PBE-q1
     &END KIND

     &KIND N
       BASIS_SET DZVP-MOLOPT-SR-GTH
       POTENTIAL GTH-PBE-q5
     &END KIND

     &KIND Ga
       BASIS_SET DZVP-MOLOPT-SR-GTH
       POTENTIAL GTH-PBE-q13
     &END KIND

     &TOPOLOGY
       MULTIPLE_UNIT_CELL  1 1 1
     &END TOPOLOGY
   &END SUBSYS
 &END FORCE_EVAL
