 # Version information for this restart file 
 # current date 2019-06-24 23:07:36.375
 # current working dir /scratch/rzk/rzk/GaN-carbene/443-adatoms-both-2x2/03-DissMethanol/03-O-GaTop-H-NTop
 # Program compiled at                              Sun Apr  7 00:48:11 EDT 2019
 # Program compiled on                          beluga2.int.ets1.calculquebec.ca
 # Program compiled for                        Beluga-Linux-x86-64-intel-openmpi
 # Source code revision number                                         svn:18619
 &GLOBAL
   PRINT_LEVEL  MEDIUM
   PROJECT_NAME TEST
   RUN_TYPE  GEO_OPT
 &END GLOBAL
 &MOTION
   &GEO_OPT
     MAX_ITER  500
     STEP_START_VAL  71
   &END GEO_OPT
 &END MOTION
 &FORCE_EVAL
   METHOD  QS
   STRESS_TENSOR  ANALYTICAL
   &DFT
     BASIS_SET_FILE_NAME BASIS_MOLOPT
     POTENTIAL_FILE_NAME GTH_POTENTIALS
     UKS  T
     SURFACE_DIPOLE_CORRECTION  T
     SURF_DIP_DIR  Z
     &SCF
       MAX_SCF  80
       EPS_SCF     5.0000000000000004E-06
       &OT  T
         PRECONDITIONER  FULL_ALL
       &END OT
       &OUTER_SCF  T
         OPTIMIZER  NONE
         EPS_SCF     5.0000000000000004E-06
         MAX_SCF  4
       &END OUTER_SCF
       &PRINT
         &RESTART  OFF
           BACKUP_COPIES  1
           &EACH
             JUST_ENERGY  0
             QS_SCF  0
             MD  20
           &END EACH
         &END RESTART
       &END PRINT
     &END SCF
     &QS
       EPS_DEFAULT     1.0000000000000000E-14
       METHOD  GPW
     &END QS
     &MGRID
       NGRIDS  5
       CUTOFF     1.2000000000000000E+03
     &END MGRID
     &XC
       DENSITY_CUTOFF     1.0000000000000000E-10
       GRADIENT_CUTOFF     1.0000000000000000E-10
       TAU_CUTOFF     1.0000000000000000E-10
       &XC_FUNCTIONAL  NO_SHORTCUT
         &PBE  T
         &END PBE
       &END XC_FUNCTIONAL
       &VDW_POTENTIAL
         POTENTIAL_TYPE  PAIR_POTENTIAL
         &PAIR_POTENTIAL
           R_CUTOFF     1.0000000000000004E+01
           TYPE  DFTD3
           PARAMETER_FILE_NAME dftd3.dat
           REFERENCE_FUNCTIONAL PBE
           EPS_CN     9.9999999999999995E-07
           CALCULATE_C9_TERM  T
           REFERENCE_C9_TERM  T
           LONG_RANGE_CORRECTION  F
           VERBOSE_OUTPUT  F
         &END PAIR_POTENTIAL
       &END VDW_POTENTIAL
     &END XC
   &END DFT
   &SUBSYS
     &CELL
       A     1.2864472766435110E+01    0.0000000000000000E+00    0.0000000000000000E+00
       B    -6.4322363581020028E+00    1.1140960178524473E+01    0.0000000000000000E+00
       C     0.0000000000000000E+00    0.0000000000000000E+00    3.2000000000000000E+01
       MULTIPLE_UNIT_CELL  1 1 1
       &CELL_REF
         A     1.2982353780853531E+01    0.0000000000000000E+00    0.0000000000000000E+00
         B    -6.4911768904267628E+00    1.1243048175136114E+01    0.0000000000000000E+00
         C     0.0000000000000000E+00    0.0000000000000000E+00    3.2000000000000000E+01
         MULTIPLE_UNIT_CELL  1 1 1
       &END CELL_REF
     &END CELL
     &COORD
N   -9.6566380999531007E-02    2.0238354766182955E+00    2.5255831720332544E+00
Ga   -2.1032270495309292E-02    5.2070866473563265E-02    2.8764146036245748E+00
N   -3.5668904959235445E-03    5.6054860836562997E-02    5.0277862982962063E+00
Ga    2.8623549780563494E-02    1.8790534729920758E+00    5.8200422292993119E+00
N    9.5540591306813218E-03    1.8965270876492379E+00    7.8078007329842949E+00
Ga    1.9937018386267649E-03    5.0825016991985085E-02    8.4519845508923410E+00
N   -7.9058413384126760E-04    5.1478804381021884E-02    1.0422210484338510E+01
Ga    1.2311953903715040E-04    1.8926164201473925E+00    1.1069088682189916E+01
N    4.6812935538296960E-04    1.8718470825893465E+00    1.3063776011175653E+01
Ga    1.6399452983747035E-03    4.8685630558269188E-02    1.3867167630606019E+01
N    3.1761148373884269E-04    4.8571836260093544E-02    1.6068723716020820E+01
Ga    2.1238844675184349E-03    2.0761559072500928E+00    1.6470038703194184E+01
Ga   -8.4618506091336554E-01    3.2889023463952296E+00    1.2034819387535900E+00
N   -1.5564388991427363E+00    4.5538301028602479E+00    2.5057420697633130E+00
Ga   -1.7136948749038015E+00    2.7703297757440439E+00    3.4932422414382094E+00
N   -1.6193475168134215E+00    2.8319974642897341E+00    5.3824010199070438E+00
Ga   -1.6198710858137730E+00    4.7342051903874136E+00    5.8194095288492127E+00
N   -1.6138562683147584E+00    4.7089531813126841E+00    7.8069607638248337E+00
Ga   -1.5967659387248581E+00    2.8441307102002864E+00    8.4340070806700904E+00
N   -1.5969146238857075E+00    2.8435460137688660E+00    1.0428369952897187E+01
Ga   -1.6220930820688133E+00    4.7021195147422050E+00    1.1068744784204032E+01
N   -1.6404139311778454E+00    4.7135087148711907E+00    1.3063253037597764E+01
Ga   -1.5965771136452473E+00    2.8441921482665595E+00    1.3619771018833614E+01
N   -1.6184292748869478E+00    2.8297286588824204E+00    1.5587267280420251E+01
Ga   -1.4655312583566582E+00    4.6122811317757302E+00    1.6469236039358162E+01
N   -6.5328695089211554E-03    3.7651978356397224E+00    1.7600240765937368E+01
N   -3.2239916122133474E+00    7.5907672624287086E+00    2.5235389121397791E+00
Ga   -3.2335885848299735E+00    5.6082806657530648E+00    2.8668021113777300E+00
N   -3.2126065371664767E+00    5.6164177998927283E+00    5.0209308442481779E+00
Ga   -3.2157946674178270E+00    7.4501719122254642E+00    5.7957917757944468E+00
N   -3.2177912444808938E+00    7.4664189855064436E+00    7.7919679659778556E+00
Ga   -3.2158568080375680E+00    5.6249298030571753E+00    8.4515387312238559E+00
N   -3.2170001654878719E+00    5.6225288875798523E+00    1.0422082787364173E+01
Ga   -3.2148967817071070E+00    7.4642282661388188E+00    1.1068276066435725E+01
N   -3.2155260479912000E+00    7.4431720721954129E+00    1.3061012428262941E+01
Ga   -3.2189254634604905E+00    5.6243602340943051E+00    1.3870163302197646E+01
N   -3.2185649549965634E+00    5.6240145858710209E+00    1.6068551540202090E+01
Ga   -3.2167508843595320E+00    7.6705035270545165E+00    1.6489128937818737E+01
Ga   -3.2291204825688622E+00    9.3289346067738332E+00    1.4763885606737648E+00
N   -4.7331487483307919E+00    1.0204064079291166E+01    2.5224928054923268E+00
Ga   -4.9231846677857041E+00    8.3522960760361507E+00    3.2908777149550557E+00
N   -4.8247130151239705E+00    8.4075450959402414E+00    5.2541001381418173E+00
Ga   -4.8484527045302697E+00    1.0279092494106836E+01    5.7981664427426391E+00
N   -4.8356674707858387E+00    1.0269544090251042E+01    7.7935837633548255E+00
Ga   -4.8122860633008235E+00    8.4143209928230842E+00    8.4382945661600921E+00
N   -4.8126806627264163E+00    8.4147631297999546E+00    1.0429602315145415E+01
Ga   -4.8372774976768902E+00    1.0273668944187181E+01    1.1068722449838045E+01
N   -4.8542446407873250E+00    1.0282464719261903E+01    1.3061206688324964E+01
Ga   -4.8134994447096275E+00    8.4136463803331818E+00    1.3622461778253363E+01
N   -4.8392932114181813E+00    8.4003283828586550E+00    1.5582830418019759E+01
Ga   -4.6554918439821291E+00    1.0169407070593019E+01    1.6489650061885943E+01
N   -3.2167513636953822E+00    9.3329349313863066E+00    1.7630202886472979E+01
N    3.1842724830370193E+00    1.9182644901466062E+00    2.5816843172045756E+00
Ga    3.1969958467311037E+00    1.7334632795617036E-01    3.2684747463398498E+00
N    3.2105333077134208E+00    5.7174881903550759E-02    5.2349422956410150E+00
Ga    3.1920480332470809E+00    1.9210455788457916E+00    5.8394378887786580E+00
N    3.2076720078466257E+00    1.9121407678004434E+00    7.8232983047413240E+00
Ga    3.2146749841623259E+00    4.4798036347957690E-02    8.4250341034953067E+00
N    3.2152411306889870E+00    4.0904949317127168E-02    1.0421112062038212E+01
Ga    3.2153334715469835E+00    1.9074645332948275E+00    1.1025917574811530E+01
N    3.2151021097576495E+00    1.9090296783832101E+00    1.2996964832135147E+01
Ga    3.2172611636012367E+00    3.8383767885125680E-02    1.3621720746518511E+01
N    3.2162001976210419E+00    7.1515404021152029E-02    1.5580003048317993E+01
Ga    3.2165458606619932E+00    1.9078468534858879E+00    1.5862706611308511E+01
N    1.6435543197652820E+00    4.7133919565949087E+00    2.5360365067677164E+00
Ga    1.6287770281126126E+00    2.8057020119496121E+00    3.1550342357290044E+00
N    1.5934096660864814E+00    2.8473296704545978E+00    5.1676301105764777E+00
Ga    1.6204689917731259E+00    4.7015155933098756E+00    5.7772649636318949E+00
N    1.6149191788921253E+00    4.6985767689193949E+00    7.7781398187728357E+00
Ga    1.6030289272060179E+00    2.8464624767717126E+00    8.4405910802134088E+00
N    1.5981424959650581E+00    2.8459272361376904E+00    1.0430430031224311E+01
Ga    1.6251374222874377E+00    4.7037658895278627E+00    1.1071185838748290E+01
N    1.6415695637451495E+00    4.7136381752831644E+00    1.3063749977263045E+01
Ga    1.5970730035388525E+00    2.8444828200470313E+00    1.3619330738311493E+01
N    1.6215755666509659E+00    2.8313776788280194E+00    1.5584776548431879E+01
Ga    1.4614936185856189E+00    4.6077207328489322E+00    1.6469721929092472E+01
N   -7.9205095570070699E-03    7.4514018145358936E+00    2.5888022000025823E+00
Ga   -1.1566713140248732E-02    5.6591919216684365E+00    3.1490911992096988E+00
N    2.6694729742802060E-04    5.6031778112476918E+00    5.1626184037296872E+00
Ga   -1.7780759904311501E-03    7.4516335800796494E+00    5.8372682116760322E+00
N   -1.1736996337328462E-03    7.4700004871899264E+00    7.8219152745719391E+00
Ga    5.1201623318042387E-03    5.6140807012933394E+00    8.4406451864732723E+00
N    2.6519781768920970E-03    5.6097220998561204E+00    1.0430545476984008E+01
Ga   -1.7946083832954137E-03    7.4799419773831479E+00    1.1024765699031452E+01
N    1.9321867701078174E-04    7.4782690750112888E+00    1.2996336909091321E+01
Ga    4.8098717733150343E-04    5.6089593184925439E+00    1.3620175400439637E+01
N    2.7027502320536756E-03    5.6360073440111584E+00    1.5586587184178940E+01
Ga   -1.0042477078145619E-03    7.4795906093581888E+00    1.5861220963664056E+01
N   -1.7275420559286778E+00    1.0196972655004343E+01    2.5192342857419479E+00
Ga   -1.5139973870587278E+00    8.3330522845009352E+00    3.2700591963835248E+00
N   -1.6069830448191562E+00    8.4008213136823766E+00    5.2359801326506190E+00
Ga   -1.5895142057682961E+00    1.0275544735698871E+01    5.7849923536912797E+00
N   -1.6024971079983623E+00    1.0267955084092566E+01    7.7842116411329165E+00
Ga   -1.6148789299736803E+00    8.4096508041275406E+00    8.4234380211170894E+00
N   -1.6183275152058214E+00    8.4130524347231539E+00    1.0419952168808413E+01
Ga   -1.5953092371626503E+00    1.0272087941352380E+01    1.1063557219515172E+01
N   -1.5767088756110164E+00    1.0282531508763062E+01    1.3057540335492178E+01
Ga   -1.6192324624739483E+00    8.4152509550702952E+00    1.3622895567077538E+01
N   -1.5919076874002180E+00    8.3996083510020600E+00    1.5582945473361162E+01
Ga   -1.7747125221572595E+00    1.0171139958467379E+01    1.6489191274694011E+01
N    6.4241894414108360E+00    2.0293292080794405E+00    2.5198560540185531E+00
Ga    6.4215746234807902E+00    4.6067082335739425E-02    2.8412873031144126E+00
N    6.4268740348278302E+00    4.8670314537003441E-02    5.0112891529387218E+00
Ga    6.4202369631803986E+00    1.8747436608210857E+00    5.7936666266519516E+00
N    6.4278959399941291E+00    1.8964741569160570E+00    7.7925321025973808E+00
Ga    6.4272934567152458E+00    4.8861045181222286E-02    8.4390016677972195E+00
N    6.4307339699142734E+00    5.1199599338269987E-02    1.0413519399388958E+01
Ga    6.4271505714881352E+00    1.8885402484154727E+00    1.1072029916837936E+01
N    6.4311305519016884E+00    1.8703636147691358E+00    1.3063433893933732E+01
Ga    6.4292472075713780E+00    5.1129266444457228E-02    1.3873899180388932E+01
N    6.4317195146399815E+00    5.1527375143219180E-02    1.6067770848745756E+01
Ga    6.4316202056124796E+00    2.0961151510997187E+00    1.6484348672053262E+01
Ga    6.4245320688527574E+00    3.7739805906067869E+00    1.4796429874094232E+00
N    4.9501784263589981E+00    4.6368683297703264E+00    2.5548917233831565E+00
Ga    4.7028409698790403E+00    2.7810198399713721E+00    3.2745625693807616E+00
N    4.8146557319553622E+00    2.8361589190671661E+00    5.2400754163798720E+00
Ga    4.8148908575704024E+00    4.7008910650918736E+00    5.8175106075387726E+00
N    4.8178697924801863E+00    4.6968297521203830E+00    7.8050203045653825E+00
Ga    4.8261983370777637E+00    2.8361163514013388E+00    8.4317254734109319E+00
N    4.8323759200670544E+00    2.8410663326698011E+00    1.0425710245114525E+01
Ga    4.8074810376171300E+00    4.7009030470401427E+00    1.1066484917216926E+01
N    4.7925427434041854E+00    4.7124363688215789E+00    1.3059102348112038E+01
Ga    4.8355466151596502E+00    2.8444705187746586E+00    1.3621518722215683E+01
N    4.8042737064969741E+00    2.8287217146619317E+00    1.5581118107861872E+01
Ga    4.9910401025498583E+00    4.5982337578405694E+00    1.6485896035268130E+01
N    6.4312337316897903E+00    3.7617127767098877E+00    1.7616048521364846E+01
N    3.2299543329729743E+00    7.6179325671948499E+00    2.5571081024616977E+00
Ga    3.3107095644304536E+00    5.6771916235693007E+00    2.9988121128572010E+00
N    3.2364321101430455E+00    5.6345645533972970E+00    5.0643978466784549E+00
Ga    3.2179214801214187E+00    7.4678222226919964E+00    5.8185924193811784E+00
N    3.2155226957582110E+00    7.4726648928130697E+00    7.8057235093062438E+00
Ga    3.2132306789889213E+00    5.6210990773953320E+00    8.4384736044504400E+00
N    3.2150648270169708E+00    5.6223183094495566E+00    1.0412781884211922E+01
Ga    3.2137200521029059E+00    7.4620445822399679E+00    1.1066467699982114E+01
N    3.2159398638389525E+00    7.4418749652502534E+00    1.3060074839729017E+01
Ga    3.2197482453362372E+00    5.6231651112048748E+00    1.3867190442166915E+01
N    3.2189818660939049E+00    5.6238865629656516E+00    1.6068068734470511E+01
Ga    3.2180681099866426E+00    7.6668383084007550E+00    1.6482640782206190E+01
Ga    3.2197400750166190E+00    9.3253348851372060E+00    1.4838829513405170E+00
N    1.7089614204162020E+00    1.0198437622102981E+01    2.5209784406070144E+00
Ga    1.4997971342068728E+00    8.3327735534737535E+00    3.2776235800101587E+00
N    1.6031001143282417E+00    8.4003025778618614E+00    5.2422922901264792E+00
Ga    1.5727303669562274E+00    1.0271659498422871E+01    5.7947870785594375E+00
N    1.5954260930657214E+00    1.0267163526444193E+01    7.7930475882570649E+00
Ga    1.6078802172990847E+00    8.4100414600751439E+00    8.4311363830991155E+00
N    1.6155613569965697E+00    8.4132724219229882E+00    1.0425569291366740E+01
Ga    1.5879422230820333E+00    1.0270536953054533E+01    1.1071937955993308E+01
N    1.5736238054044915E+00    1.0282996668614182E+01    1.3064077267862180E+01
Ga    1.6201573477202913E+00    8.4141560901626029E+00    1.3621847152327076E+01
N    1.5920845049731644E+00    8.3955644941527527E+00    1.5583753241174126E+01
Ga    1.7660608415863635E+00    1.0175357775349738E+01    1.6480892729910099E+01
N    3.2092939093083208E+00    9.3364890292142615E+00    1.7611647442975308E+01
N    9.6889024779581057E+00    1.9330834708080236E+00    2.6425540850221787E+00
Ga    9.6412878305434138E+00    1.6152896267240779E-01    3.2862542720125298E+00
N    9.6408577124560288E+00    5.4657877312078398E-02    5.2530779012812463E+00
Ga    9.6178599417292325E+00    1.8917875511092395E+00    5.9253359058041752E+00
N    9.6379456875252849E+00    1.9027328774680328E+00    7.8819475675819950E+00
Ga    9.6418662330221405E+00    3.2069306738949241E-02    8.4538430901447086E+00
N    9.6457224519341160E+00    3.5052623400360666E-02    1.0440539651602869E+01
Ga    9.6475727204665507E+00    1.9085986473326344E+00    1.1025733905857779E+01
N    9.6492089246709245E+00    1.9086843750885225E+00    1.2997153683343829E+01
Ga    9.6478182060662991E+00    3.8218930027834531E-02    1.3620990934804643E+01
N    9.6517554345038228E+00    7.2933675460678041E-02    1.5581344224752252E+01
Ga    9.6490972792648222E+00    1.9097366549565480E+00    1.5863646936870939E+01
N    7.9328419432654576E+00    4.6251383357261791E+00    2.5294518489406590E+00
Ga    8.1305791289236549E+00    2.7768882605211784E+00    3.2855296414951267E+00
N    8.0383368514700706E+00    2.8293492169817358E+00    5.2523613510044411E+00
Ga    8.0707148817471879E+00    4.7023240096475076E+00    5.8093666247305196E+00
N    8.0527669419408721E+00    4.6956457161862559E+00    7.8034169593082714E+00
Ga    8.0199082832083164E+00    2.8419047589037558E+00    8.4528504551023911E+00
N    8.0240195831208361E+00    2.8433693342898083E+00    1.0439585840729970E+01
Ga    8.0540743581153134E+00    4.7032663668386565E+00    1.1074343975276978E+01
N    8.0721418432087084E+00    4.7129748225574764E+00    1.3063798308994125E+01
Ga    8.0286659036615315E+00    2.8436672622240708E+00    1.3621915425674631E+01
N    8.0596851773990661E+00    2.8286133836612701E+00    1.5581565193641909E+01
Ga    7.8727039038337479E+00    4.5982017657899519E+00    1.6484619778521306E+01
N    6.4286945048978428E+00    7.4777605680080903E+00    2.6276544360022722E+00
Ga    6.4520388063894885E+00    5.7331387477521112E+00    3.3029341862978137E+00
N    6.4415227226159653E+00    5.6238482634160869E+00    5.2662025480400638E+00
Ga    6.4354754448788487E+00    7.4811148989732095E+00    5.8864990770073868E+00
N    6.4321552848629189E+00    7.4795418348175202E+00    7.8572995262437413E+00
Ga    6.4347990989890969E+00    5.6110428036632332E+00    8.4440655526662098E+00
N    6.4319956417969770E+00    5.6093032107803369E+00    1.0433421747323505E+01
Ga    6.4324609759972819E+00    7.4798576301889899E+00    1.1026727623058422E+01
N    6.4315987852631835E+00    7.4791452691399520E+00    1.2995700437828519E+01
Ga    6.4320870110403510E+00    5.6100689050084096E+00    1.3621892656945501E+01
N    6.4322916553889975E+00    5.6424806159660870E+00    1.5580902360138881E+01
Ga    6.4342722152481855E+00    7.4796348619258355E+00    1.5861038380282812E+01
N    4.7117409518822964E+00    1.0207490462632340E+01    2.5307562651703606E+00
Ga    4.9305896932937827E+00    8.3709140394465091E+00    3.3043202847781550E+00
N    4.8300824444850390E+00    8.4153422123653190E+00    5.2671988119246329E+00
Ga    4.8460701451249717E+00    1.0286376742875708E+01    5.8124595578858518E+00
N    4.8311536163011874E+00    1.0274404882902305E+01    7.8055920926558038E+00
Ga    4.8152613612990667E+00    8.4156493704357427E+00    8.4449578444148781E+00
N    4.8124302189748835E+00    8.4147135837354945E+00    1.0433983903265712E+01
Ga    4.8392239908016244E+00    1.0272120109787197E+01    1.1074921464613894E+01
N    4.8563371729191118E+00    1.0282713815196377E+01    1.3065128148481909E+01
Ga    4.8133149407750357E+00    8.4135617132345146E+00    1.3621306763438394E+01
N    4.8417964566479377E+00    8.3989297612343083E+00    1.5581760312410777E+01
Ga    4.6592864942277998E+00    1.0169427935181663E+01    1.6481783529813683E+01
O   -3.7913180343256475E-01    3.3731484378473615E+00   -5.3087838930371423E-01
H    1.6312318751761770E+00    4.7106592652919801E+00    1.5058060547772378E+00
C    5.5943900792689527E-01    2.3629703046737469E+00   -9.6850731839880344E-01
H    1.5558432910815119E+00    2.5129011750603913E+00   -5.2354115605218099E-01
H    2.2408863189336178E-01    1.3458590013758429E+00   -7.2134835649817097E-01
H    6.4058069027927966E-01    2.4571027178692995E+00   -2.0624922878299730E+00
     &END COORD
     &KIND C
       BASIS_SET DZVP-MOLOPT-SR-GTH-q4
       POTENTIAL GTH-PBE-q4
       &POTENTIAL
 2 2
  0.3384712400000000E+00 2 -0.8803673979999999E+01  0.1339210850000000E+01
 2
  0.3025757500000000E+00 1  0.9622486650000001E+01
  0.2915069400000000E+00 0
         # Potential name:  GTH-PBE-Q4  for symbol:  C
         # Potential read from the potential filename: GTH_POTENTIALS
       &END POTENTIAL
     &END KIND
     &KIND O
       BASIS_SET DZVP-MOLOPT-SR-GTH-q6
       POTENTIAL GTH-PBE-q6
       &POTENTIAL
 2 4
  0.2445543000000000E+00 2 -0.1666721480000000E+02  0.2487311320000000E+01
 2
  0.2209559200000000E+00 1  0.1833745811000000E+02
  0.2113324700000000E+00 0
         # Potential name:  GTH-PBE-Q6  for symbol:  O
         # Potential read from the potential filename: GTH_POTENTIALS
       &END POTENTIAL
     &END KIND
     &KIND H
       BASIS_SET DZVP-MOLOPT-SR-GTH-q1
       POTENTIAL GTH-PBE-q1
       &POTENTIAL
 1
  0.2000000000000000E+00 2 -0.4178900440000000E+01  0.7244633100000000E+00
 0
         # Potential name:  GTH-PBE-Q1  for symbol:  H
         # Potential read from the potential filename: GTH_POTENTIALS
       &END POTENTIAL
     &END KIND
     &KIND N
       BASIS_SET DZVP-MOLOPT-SR-GTH
       POTENTIAL GTH-PBE-q5
       &POTENTIAL
 2 3
  0.2837905100000000E+00 2 -0.1241522559000000E+02  0.1868095920000000E+01
 2
  0.2554050000000000E+00 1  0.1363026257000000E+02
  0.2454945300000000E+00 0
         # Potential name:  GTH-PBE-Q5  for symbol:  N
         # Potential read from the potential filename: GTH_POTENTIALS
       &END POTENTIAL
     &END KIND
     &KIND Ga
       BASIS_SET DZVP-MOLOPT-SR-GTH
       POTENTIAL GTH-PBE-q13
       &POTENTIAL
 2 1 10
  0.4900000000000000E+00 0
 3
  0.4167772300000000E+00 3  0.1047568975000000E+02 -0.4921768140000000E+01  0.8707055900000000E+00
  0.7770178090000000E+01 -0.2248152160000000E+01
  0.1784415450000000E+01
  0.5696265200000000E+00 2  0.1777985340000000E+01  0.1958597600000000E+00
 -0.2317443900000000E+00
  0.2381265000000000E+00 1 -0.1624868022000000E+02
         # Potential name:  GTH-PBE-Q13  for symbol:  GA
         # Potential read from the potential filename: GTH_POTENTIALS
       &END POTENTIAL
     &END KIND
     &TOPOLOGY
       NUMBER_OF_ATOMS  206
       MULTIPLE_UNIT_CELL  1 1 1
     &END TOPOLOGY
   &END SUBSYS
 &END FORCE_EVAL
