 # Version information for this restart file 
 # current date 2019-06-24 21:26:05.643
 # current working dir /scratch/rzk/rzk/GaN-carbene/443-adatoms-both-2x2/03-DissMethanol/03-O-GaTop-H-NTop
 # Program compiled at                              Sun Apr  7 00:48:11 EDT 2019
 # Program compiled on                          beluga2.int.ets1.calculquebec.ca
 # Program compiled for                        Beluga-Linux-x86-64-intel-openmpi
 # Source code revision number                                         svn:18619
 &GLOBAL
   PRINT_LEVEL  MEDIUM
   PROJECT_NAME TEST
   RUN_TYPE  GEO_OPT
 &END GLOBAL
 &MOTION
   &GEO_OPT
     MAX_ITER  500
     STEP_START_VAL  61
   &END GEO_OPT
 &END MOTION
 &FORCE_EVAL
   METHOD  QS
   STRESS_TENSOR  ANALYTICAL
   &DFT
     BASIS_SET_FILE_NAME BASIS_MOLOPT
     POTENTIAL_FILE_NAME GTH_POTENTIALS
     UKS  T
     SURFACE_DIPOLE_CORRECTION  T
     SURF_DIP_DIR  Z
     &SCF
       MAX_SCF  80
       EPS_SCF     5.0000000000000004E-06
       &OT  T
         PRECONDITIONER  FULL_ALL
       &END OT
       &OUTER_SCF  T
         OPTIMIZER  NONE
         EPS_SCF     5.0000000000000004E-06
         MAX_SCF  4
       &END OUTER_SCF
       &PRINT
         &RESTART  OFF
           BACKUP_COPIES  1
           &EACH
             JUST_ENERGY  0
             QS_SCF  0
             MD  20
           &END EACH
         &END RESTART
       &END PRINT
     &END SCF
     &QS
       EPS_DEFAULT     1.0000000000000000E-14
       METHOD  GPW
     &END QS
     &MGRID
       NGRIDS  5
       CUTOFF     1.2000000000000000E+03
     &END MGRID
     &XC
       DENSITY_CUTOFF     1.0000000000000000E-10
       GRADIENT_CUTOFF     1.0000000000000000E-10
       TAU_CUTOFF     1.0000000000000000E-10
       &XC_FUNCTIONAL  NO_SHORTCUT
         &PBE  T
         &END PBE
       &END XC_FUNCTIONAL
       &VDW_POTENTIAL
         POTENTIAL_TYPE  PAIR_POTENTIAL
         &PAIR_POTENTIAL
           R_CUTOFF     1.0000000000000004E+01
           TYPE  DFTD3
           PARAMETER_FILE_NAME dftd3.dat
           REFERENCE_FUNCTIONAL PBE
           EPS_CN     9.9999999999999995E-07
           CALCULATE_C9_TERM  T
           REFERENCE_C9_TERM  T
           LONG_RANGE_CORRECTION  F
           VERBOSE_OUTPUT  F
         &END PAIR_POTENTIAL
       &END VDW_POTENTIAL
     &END XC
   &END DFT
   &SUBSYS
     &CELL
       A     1.2864472766435110E+01    0.0000000000000000E+00    0.0000000000000000E+00
       B    -6.4322363581020028E+00    1.1140960178524473E+01    0.0000000000000000E+00
       C     0.0000000000000000E+00    0.0000000000000000E+00    3.2000000000000000E+01
       MULTIPLE_UNIT_CELL  1 1 1
       &CELL_REF
         A     1.2982353780853531E+01    0.0000000000000000E+00    0.0000000000000000E+00
         B    -6.4911768904267628E+00    1.1243048175136114E+01    0.0000000000000000E+00
         C     0.0000000000000000E+00    0.0000000000000000E+00    3.2000000000000000E+01
         MULTIPLE_UNIT_CELL  1 1 1
       &END CELL_REF
     &END CELL
     &COORD
N   -9.7400066216291686E-02    2.0229558777144505E+00    2.5265332897105197E+00
Ga   -2.1512850079492218E-02    5.1914521414046406E-02    2.8751015312588426E+00
N   -3.9243375492712890E-03    5.5646355061820481E-02    5.0278808718805257E+00
Ga    2.8026744928633378E-02    1.8783288913313181E+00    5.8199993647478783E+00
N    9.1430239505771674E-03    1.8967307935988851E+00    7.8085134740647666E+00
Ga    1.6355612051892063E-03    5.0678460975627913E-02    8.4517499526893811E+00
N   -1.0784781409116217E-03    5.1858511147619149E-02    1.0422704388536568E+01
Ga   -6.3427876863225935E-04    1.8931035129453000E+00    1.1068782078750171E+01
N    7.7421506549648909E-05    1.8727281272480700E+00    1.3063556785106131E+01
Ga    1.3069655797128244E-03    4.9512426799504683E-02    1.3865305407289540E+01
N    1.2761898268585186E-03    4.9145142888329753E-02    1.6067963290886969E+01
Ga    1.2637945163049835E-03    2.0770275886290572E+00    1.6466511323008206E+01
Ga   -8.4536884615555852E-01    3.2886738499785713E+00    1.2055938194625595E+00
N   -1.5575628585164818E+00    4.5535147496021704E+00    2.5058902515159143E+00
Ga   -1.7134735769485703E+00    2.7706160465432395E+00    3.4930915296190013E+00
N   -1.6197945061041770E+00    2.8320682892179585E+00    5.3832258615869675E+00
Ga   -1.6212376598952416E+00    4.7345278903252943E+00    5.8196412821384484E+00
N   -1.6145371505141977E+00    4.7093748805516942E+00    7.8079473318555737E+00
Ga   -1.5973900866838309E+00    2.8442106479360785E+00    8.4345869688642381E+00
N   -1.5980113402826979E+00    2.8441850109239684E+00    1.0429740574014321E+01
Ga   -1.6231590782493224E+00    4.7028929040421961E+00    1.1069382670026451E+01
N   -1.6400324294470190E+00    4.7133089379589350E+00    1.3064233958838248E+01
Ga   -1.5968353563065572E+00    2.8442169949910756E+00    1.3618595590580879E+01
N   -1.6200656706318297E+00    2.8295027333394955E+00    1.5585939723364193E+01
Ga   -1.4657807276211177E+00    4.6139237173318310E+00    1.6466000007380213E+01
N   -8.4674703979504481E-03    3.7658225076524463E+00    1.7593385663418097E+01
N   -3.2244001806729052E+00    7.5908508115525581E+00    2.5224485645474188E+00
Ga   -3.2338291126562813E+00    5.6084343462932651E+00    2.8657461005813976E+00
N   -3.2136979588036829E+00    5.6169649153124226E+00    5.0212416068624934E+00
Ga   -3.2162621532888980E+00    7.4508235468859381E+00    5.7949719653059431E+00
N   -3.2182588740766924E+00    7.4667997156209225E+00    7.7917931198654227E+00
Ga   -3.2171038463853550E+00    5.6254112323704826E+00    8.4514962102217641E+00
N   -3.2175924414150971E+00    5.6229706631724445E+00    1.0422288533228429E+01
Ga   -3.2155344213570207E+00    7.4645099284698686E+00    1.1068130926136988E+01
N   -3.2159424830320962E+00    7.4442028114990251E+00    1.3060736993507213E+01
Ga   -3.2194253082124331E+00    5.6252680453041446E+00    1.3867342730569344E+01
N   -3.2193655448844072E+00    5.6261869744919117E+00    1.6067472133826591E+01
Ga   -3.2162564733281336E+00    7.6750983060071345E+00    1.6488692387827818E+01
Ga   -3.2288051662396025E+00    9.3290808716993023E+00    1.4703736103998970E+00
N   -4.7336051187180859E+00    1.0204359636480330E+01    2.5206016053457510E+00
Ga   -4.9226651805632349E+00    8.3533620383536711E+00    3.2888401859012824E+00
N   -4.8253799748091755E+00    8.4076687555261778E+00    5.2529028576483121E+00
Ga   -4.8485819787721498E+00    1.0279223203815722E+01    5.7970445174893381E+00
N   -4.8358682125762629E+00    1.0269807513887216E+01    7.7932489320594254E+00
Ga   -4.8130029670627579E+00    8.4145311962330407E+00    8.4375491031977337E+00
N   -4.8134198681488325E+00    8.4146802602678648E+00    1.0429644699747834E+01
Ga   -4.8374145324395883E+00    1.0273613841761001E+01    1.1067979125555588E+01
N   -4.8549379689970271E+00    1.0283108075775719E+01    1.3060512274193526E+01
Ga   -4.8132549101654538E+00    8.4145742934846073E+00    1.3620815930946113E+01
N   -4.8407819098479807E+00    8.3996086697048611E+00    1.5580494954555325E+01
Ga   -4.6548777828214609E+00    1.0168012828684578E+01    1.6488869142954684E+01
N   -3.2187039390177237E+00    9.3356942880398606E+00    1.7632185253540044E+01
N    3.1836905417756767E+00    1.9184076997228903E+00    2.5812442618513476E+00
Ga    3.1969037708082788E+00    1.7241297285492546E-01    3.2661822954525115E+00
N    3.2101633444528979E+00    5.7645031515161205E-02    5.2337165158148746E+00
Ga    3.1919470933667213E+00    1.9212060191560618E+00    5.8387221628905710E+00
N    3.2071998350260507E+00    1.9125743261691570E+00    7.8234177500132489E+00
Ga    3.2143093825187012E+00    4.5118816263522543E-02    8.4244946966209895E+00
N    3.2147679512888940E+00    4.1418997458467277E-02    1.0421000335587721E+01
Ga    3.2148868916880344E+00    1.9077256775445093E+00    1.1025634271604838E+01
N    3.2146404347172521E+00    1.9095509101022854E+00    1.2996454378403913E+01
Ga    3.2168343041491769E+00    3.9065592771295253E-02    1.3620379494101432E+01
N    3.2166520291399445E+00    7.2434363834615184E-02    1.5579090807642297E+01
Ga    3.2177835243516637E+00    1.9086147571032361E+00    1.5859793929373307E+01
N    1.6407210125711478E+00    4.7129023913854615E+00    2.5342977566682330E+00
Ga    1.6275828010585938E+00    2.8049672829908752E+00    3.1547917625619051E+00
N    1.5926806622086498E+00    2.8475117597055828E+00    5.1677912729274755E+00
Ga    1.6205740163163436E+00    4.7019558208636729E+00    5.7770573945046335E+00
N    1.6142028204245378E+00    4.6986760839788850E+00    7.7785239254264971E+00
Ga    1.6026139112630666E+00    2.8466369208321045E+00    8.4410961199054277E+00
N    1.5975969261902039E+00    2.8462484103284824E+00    1.0431439575255528E+01
Ga    1.6242437007263368E+00    4.7042600493389886E+00    1.1070993722925000E+01
N    1.6403968991365458E+00    4.7134335096286044E+00    1.3063789435341910E+01
Ga    1.5972453578834336E+00    2.8444230755344599E+00    1.3618178248047196E+01
N    1.6223559043778573E+00    2.8317726096881191E+00    1.5583687849736210E+01
Ga    1.4595223339429588E+00    4.6089115972515158E+00    1.6465937200306076E+01
N   -8.4997843864338535E-03    7.4515599867370543E+00    2.5888208047833441E+00
Ga   -1.3753076344102362E-02    5.6592803671923244E+00    3.1495307915699211E+00
N   -4.1639576639730219E-04    5.6030604954878624E+00    5.1634557343446836E+00
Ga   -2.0900886866592459E-03    7.4522550086886863E+00    5.8366381420606412E+00
N   -1.7093967439926715E-03    7.4702402460684789E+00    7.8222504246148912E+00
Ga    4.6891219267305257E-03    5.6142552763628233E+00    8.4415113921339593E+00
N    1.5751501321627020E-03    5.6104304011055941E+00    1.0431835462560189E+01
Ga   -2.6052810738389971E-03    7.4803793805964762E+00    1.1025757704776654E+01
N   -3.7085718346870100E-04    7.4789913110876425E+00    1.2996710408486617E+01
Ga    3.7687513998771959E-04    5.6104452380183751E+00    1.3618214017154907E+01
N    3.1073456464319211E-03    5.6388669641461089E+00    1.5583962189931006E+01
Ga   -8.3008444841748655E-04    7.4810682533436976E+00    1.5861189799227136E+01
N   -1.7274046790364308E+00    1.0197356112177905E+01    2.5174952313100145E+00
Ga   -1.5151301416690373E+00    8.3341064787949080E+00    3.2686511695358238E+00
N   -1.6072930874892857E+00    8.4013751453334589E+00    5.2354959437224666E+00
Ga   -1.5896040036096952E+00    1.0276350306724703E+01    5.7837730396830329E+00
N   -1.6027500184612933E+00    1.0268507193030283E+01    7.7838937437473721E+00
Ga   -1.6156621883545768E+00    8.4103087650699067E+00    8.4231292771317055E+00
N   -1.6187233957897251E+00    8.4130498170479004E+00    1.0420124477165912E+01
Ga   -1.5959571371587034E+00    1.0272270323684062E+01    1.1062844629837979E+01
N   -1.5775085127954900E+00    1.0282742248190678E+01    1.3056925725943954E+01
Ga   -1.6194738216506592E+00    8.4156397910459138E+00    1.3620652895118539E+01
N   -1.5903667894193725E+00    8.3994948857991965E+00    1.5579385361924997E+01
Ga   -1.7767540177676693E+00    1.0168433781748883E+01    1.6489159259972684E+01
N    6.4237347528111073E+00    2.0296616149075759E+00    2.5191460966477499E+00
Ga    6.4213380701331211E+00    4.6282790136302730E-02    2.8392017424608893E+00
N    6.4268637387132559E+00    4.9257767433977404E-02    5.0106706550418272E+00
Ga    6.4196694367079585E+00    1.8749855878637605E+00    5.7924525145334247E+00
N    6.4271758472149507E+00    1.8969360114184737E+00    7.7916504193885130E+00
Ga    6.4269451283852934E+00    4.9733365550322629E-02    8.4382502592578525E+00
N    6.4300911448827414E+00    5.1604594291353993E-02    1.0413443601734663E+01
Ga    6.4266275190620270E+00    1.8893328614264013E+00    1.1071397826502837E+01
N    6.4305909523238336E+00    1.8716689710105694E+00    1.3063546522279474E+01
Ga    6.4285192448847983E+00    5.1847639120958529E-02    1.3870929097992796E+01
N    6.4298753041327812E+00    5.2600302984798411E-02    1.6067609797388684E+01
Ga    6.4319930584893026E+00    2.0982618573149607E+00    1.6485427386551095E+01
Ga    6.4240968107447891E+00    3.7741255414993531E+00    1.4766215419666853E+00
N    4.9492973493787273E+00    4.6373448547638301E+00    2.5538854174613892E+00
Ga    4.7024990059990976E+00    2.7815797816818990E+00    3.2734710837022396E+00
N    4.8142270597387480E+00    2.8368123436863608E+00    5.2393586190549817E+00
Ga    4.8139160602911666E+00    4.7013574531024283E+00    5.8163429134083922E+00
N    4.8172602096448012E+00    4.6969869037652758E+00    7.8040702249928717E+00
Ga    4.8259843167816179E+00    2.8366607083586373E+00    8.4309909390508331E+00
N    4.8314214580446500E+00    2.8412477491541361E+00    1.0425538291289007E+01
Ga    4.8074059898904524E+00    4.7010734989122076E+00    1.1065960044149836E+01
N    4.7923379832807482E+00    4.7124607173132622E+00    1.3059383856667417E+01
Ga    4.8347067887759216E+00    2.8446607923733738E+00    1.3621172130052654E+01
N    4.8056830150637611E+00    2.8301377752689576E+00    1.5581210451657427E+01
Ga    4.9914557139328775E+00    4.5993594767596910E+00    1.6486079202443129E+01
N    6.4279358874693111E+00    3.7618825030455261E+00    1.7623456658906061E+01
N    3.2294248305686097E+00    7.6175874570294368E+00    2.5557162120503820E+00
Ga    3.3097832674493239E+00    5.6771803655970148E+00    2.9981128230207132E+00
N    3.2358764843965648E+00    5.6345457395147163E+00    5.0633690560010667E+00
Ga    3.2175203506681065E+00    7.4674138394319538E+00    5.8171632224749219E+00
N    3.2149715276552979E+00    7.4726226109771661E+00    7.8048726787763849E+00
Ga    3.2130635296501020E+00    5.6211813513410274E+00    8.4378003952997940E+00
N    3.2143754668514126E+00    5.6223686188906541E+00    1.0413028776724831E+01
Ga    3.2129416111448603E+00    7.4623381589700575E+00    1.1066297586313983E+01
N    3.2154584566113464E+00    7.4432057895479780E+00    1.3060605373722080E+01
Ga    3.2190141450508318E+00    5.6235367018367626E+00    1.3864939958330343E+01
N    3.2187873772430859E+00    5.6243981619444829E+00    1.6067555664545750E+01
Ga    3.2171937056868023E+00    7.6661685336450835E+00    1.6477558564246763E+01
Ga    3.2187925140642455E+00    9.3253081700037459E+00    1.4791434589960979E+00
N    1.7084594539042719E+00    1.0198513280288987E+01    2.5199221537177094E+00
Ga    1.4998573310038437E+00    8.3330788588224785E+00    3.2766130148281674E+00
N    1.6030927057298432E+00    8.4005117418934532E+00    5.2419214000270280E+00
Ga    1.5723360085936284E+00    1.0272033305797136E+01    5.7934487590384194E+00
N    1.5947483622447729E+00    1.0267370012702786E+01    7.7924977761602685E+00
Ga    1.6078453263361812E+00    8.4103697430492925E+00    8.4306873856247542E+00
N    1.6143530752132171E+00    8.4133466942305564E+00    1.0425864026372160E+01
Ga    1.5872647551404298E+00    1.0270847954438494E+01    1.1071884747269166E+01
N    1.5742182730874266E+00    1.0282779796070173E+01    1.3064976319837537E+01
Ga    1.6191589564007427E+00    8.4139041598915636E+00    1.3620267062860281E+01
N    1.5922120410873382E+00    8.3960051381802074E+00    1.5582536201127553E+01
Ga    1.7621184576551794E+00    1.0176993231752196E+01    1.6476601578145960E+01
N    3.2058113475395422E+00    9.3377558361992765E+00    1.7606032582337821E+01
N    9.6888831289895059E+00    1.9334236466258712E+00    2.6420884419934190E+00
Ga    9.6411649713963694E+00    1.6088008422821776E-01    3.2846649605885911E+00
N    9.6406825697911973E+00    5.4862060208284359E-02    5.2522608171304608E+00
Ga    9.6171398767023000E+00    1.8917792800888493E+00    5.9249428265488708E+00
N    9.6371479744936845E+00    1.9030243605824524E+00    7.8823079236355671E+00
Ga    9.6412937158703542E+00    3.1976283117590931E-02    8.4534445976247401E+00
N    9.6449800193308874E+00    3.5725839901452276E-02    1.0440813828156351E+01
Ga    9.6464761063620017E+00    1.9089983763325957E+00    1.1026202778751635E+01
N    9.6490095497610362E+00    1.9095676001339235E+00    1.2997848090361023E+01
Ga    9.6477154897309738E+00    3.9417630193044235E-02    1.3619539508192791E+01
N    9.6518395720512498E+00    7.3256242548188744E-02    1.5581127729342052E+01
Ga    9.6481181366714175E+00    1.9105328062250921E+00    1.5861974199325717E+01
N    7.9321090264080398E+00    4.6256193734380124E+00    2.5289598892725547E+00
Ga    8.1298955483304525E+00    2.7774705353696221E+00    3.2845938240758463E+00
N    8.0378980968642377E+00    2.8297189959241784E+00    5.2518443925040508E+00
Ga    8.0699331512139647E+00    4.7027096436768492E+00    5.8086187332472310E+00
N    8.0519401362305327E+00    4.6960544110614855E+00    7.8029780710929586E+00
Ga    8.0186668851482228E+00    2.8423842266705970E+00    8.4523603728658436E+00
N    8.0237298085208923E+00    2.8439594261134680E+00    1.0439595527677922E+01
Ga    8.0532642034896362E+00    4.7038234658921620E+00    1.1073941364962819E+01
N    8.0711249459351038E+00    4.7130158387267782E+00    1.3064134101028815E+01
Ga    8.0283558707824714E+00    2.8439318096096358E+00    1.3620849352287536E+01
N    8.0590116371391272E+00    2.8298867040863613E+00    1.5580404063153246E+01
Ga    7.8701291531730613E+00    4.5976870842004480E+00    1.6485617216394935E+01
N    6.4285435137267228E+00    7.4781436081080788E+00    2.6264911108212581E+00
Ga    6.4513457055618266E+00    5.7332420378368631E+00    3.3018459655513390E+00
N    6.4407029165514160E+00    5.6241605729655957E+00    5.2654645892507759E+00
Ga    6.4349497788555485E+00    7.4814225955331679E+00    5.8848621351951875E+00
N    6.4317004397390223E+00    7.4796990113002133E+00    7.8563109656172641E+00
Ga    6.4338841139671192E+00    5.6112878626425440E+00    8.4430318669622029E+00
N    6.4314764743915340E+00    5.6100132362777257E+00    1.0433102008087644E+01
Ga    6.4319157063376524E+00    7.4799349140650486E+00    1.1026952608033712E+01
N    6.4315228441100638E+00    7.4799651363640844E+00    1.2996597028894231E+01
Ga    6.4315054467588233E+00    5.6106519623026312E+00    1.3620870810310484E+01
N    6.4324034442892968E+00    5.6426876146222984E+00    1.5579818199707342E+01
Ga    6.4341372369167491E+00    7.4798271033986365E+00    1.5859118122257073E+01
N    4.7113186651942618E+00    1.0207254592012802E+01    2.5291956731080263E+00
Ga    4.9297348042170386E+00    8.3712985918516409E+00    3.3026093432932382E+00
N    4.8294946012229003E+00    8.4151844079311378E+00    5.2661604383087255E+00
Ga    4.8457482637885745E+00    1.0286221729547190E+01    5.8111783812555382E+00
N    4.8307185363607887E+00    1.0274407371421729E+01    7.8050839795343441E+00
Ga    4.8147804657300304E+00    8.4155083305806251E+00    8.4440529672091191E+00
N    4.8120672719787487E+00    8.4146286406760193E+00    1.0434049687683133E+01
Ga    4.8385134744726779E+00    1.0272325957956381E+01    1.1074156304093739E+01
N    4.8555760053963990E+00    1.0282896591192438E+01    1.3065109661202321E+01
Ga    4.8131648486841492E+00    8.4138052293467371E+00    1.3619649860994212E+01
N    4.8413484053069125E+00    8.3995532946060507E+00    1.5580543323029353E+01
Ga    4.6600253946125898E+00    1.0170117433419630E+01    1.6477222644053473E+01
O   -3.7452865360840226E-01    3.3673159865641380E+00   -5.2953370272274491E-01
H    1.6290092246013195E+00    4.7113491292829544E+00    1.5042981832428453E+00
C    5.7462298519826605E-01    2.3607499185588496E+00   -9.5299407375862744E-01
H    1.5711691012561604E+00    2.5290516467981439E+00   -5.1472079082770461E-01
H    2.5417275315310278E-01    1.3412997855252555E+00   -6.8723100282136351E-01
H    6.4707295595935688E-01    2.4322494379854107E+00   -2.0470510709351837E+00
     &END COORD
     &KIND C
       BASIS_SET DZVP-MOLOPT-SR-GTH-q4
       POTENTIAL GTH-PBE-q4
       &POTENTIAL
 2 2
  0.3384712400000000E+00 2 -0.8803673979999999E+01  0.1339210850000000E+01
 2
  0.3025757500000000E+00 1  0.9622486650000001E+01
  0.2915069400000000E+00 0
         # Potential name:  GTH-PBE-Q4  for symbol:  C
         # Potential read from the potential filename: GTH_POTENTIALS
       &END POTENTIAL
     &END KIND
     &KIND O
       BASIS_SET DZVP-MOLOPT-SR-GTH-q6
       POTENTIAL GTH-PBE-q6
       &POTENTIAL
 2 4
  0.2445543000000000E+00 2 -0.1666721480000000E+02  0.2487311320000000E+01
 2
  0.2209559200000000E+00 1  0.1833745811000000E+02
  0.2113324700000000E+00 0
         # Potential name:  GTH-PBE-Q6  for symbol:  O
         # Potential read from the potential filename: GTH_POTENTIALS
       &END POTENTIAL
     &END KIND
     &KIND H
       BASIS_SET DZVP-MOLOPT-SR-GTH-q1
       POTENTIAL GTH-PBE-q1
       &POTENTIAL
 1
  0.2000000000000000E+00 2 -0.4178900440000000E+01  0.7244633100000000E+00
 0
         # Potential name:  GTH-PBE-Q1  for symbol:  H
         # Potential read from the potential filename: GTH_POTENTIALS
       &END POTENTIAL
     &END KIND
     &KIND N
       BASIS_SET DZVP-MOLOPT-SR-GTH
       POTENTIAL GTH-PBE-q5
       &POTENTIAL
 2 3
  0.2837905100000000E+00 2 -0.1241522559000000E+02  0.1868095920000000E+01
 2
  0.2554050000000000E+00 1  0.1363026257000000E+02
  0.2454945300000000E+00 0
         # Potential name:  GTH-PBE-Q5  for symbol:  N
         # Potential read from the potential filename: GTH_POTENTIALS
       &END POTENTIAL
     &END KIND
     &KIND Ga
       BASIS_SET DZVP-MOLOPT-SR-GTH
       POTENTIAL GTH-PBE-q13
       &POTENTIAL
 2 1 10
  0.4900000000000000E+00 0
 3
  0.4167772300000000E+00 3  0.1047568975000000E+02 -0.4921768140000000E+01  0.8707055900000000E+00
  0.7770178090000000E+01 -0.2248152160000000E+01
  0.1784415450000000E+01
  0.5696265200000000E+00 2  0.1777985340000000E+01  0.1958597600000000E+00
 -0.2317443900000000E+00
  0.2381265000000000E+00 1 -0.1624868022000000E+02
         # Potential name:  GTH-PBE-Q13  for symbol:  GA
         # Potential read from the potential filename: GTH_POTENTIALS
       &END POTENTIAL
     &END KIND
     &TOPOLOGY
       NUMBER_OF_ATOMS  206
       MULTIPLE_UNIT_CELL  1 1 1
     &END TOPOLOGY
   &END SUBSYS
 &END FORCE_EVAL
