 # Version information for this restart file 
 # current date 2019-06-24 17:50:10.500
 # current working dir /scratch/rzk/rzk/GaN-carbene/443-adatoms-both-2x2/03-DissMethanol/03-O-GaTop-H-NTop
 # Program compiled at                              Sun Apr  7 00:48:11 EDT 2019
 # Program compiled on                          beluga2.int.ets1.calculquebec.ca
 # Program compiled for                        Beluga-Linux-x86-64-intel-openmpi
 # Source code revision number                                         svn:18619
 &GLOBAL
   PRINT_LEVEL  MEDIUM
   PROJECT_NAME TEST
   RUN_TYPE  GEO_OPT
 &END GLOBAL
 &MOTION
   &GEO_OPT
     MAX_ITER  500
     STEP_START_VAL  35
   &END GEO_OPT
 &END MOTION
 &FORCE_EVAL
   METHOD  QS
   STRESS_TENSOR  ANALYTICAL
   &DFT
     BASIS_SET_FILE_NAME BASIS_MOLOPT
     POTENTIAL_FILE_NAME GTH_POTENTIALS
     UKS  T
     SURFACE_DIPOLE_CORRECTION  T
     SURF_DIP_DIR  Z
     &SCF
       MAX_SCF  80
       EPS_SCF     5.0000000000000004E-06
       &OT  T
         PRECONDITIONER  FULL_ALL
       &END OT
       &OUTER_SCF  T
         OPTIMIZER  NONE
         EPS_SCF     5.0000000000000004E-06
         MAX_SCF  4
       &END OUTER_SCF
       &PRINT
         &RESTART  OFF
           BACKUP_COPIES  1
           &EACH
             JUST_ENERGY  0
             QS_SCF  0
             MD  20
           &END EACH
         &END RESTART
       &END PRINT
     &END SCF
     &QS
       EPS_DEFAULT     1.0000000000000000E-14
       METHOD  GPW
     &END QS
     &MGRID
       NGRIDS  5
       CUTOFF     1.2000000000000000E+03
     &END MGRID
     &XC
       DENSITY_CUTOFF     1.0000000000000000E-10
       GRADIENT_CUTOFF     1.0000000000000000E-10
       TAU_CUTOFF     1.0000000000000000E-10
       &XC_FUNCTIONAL  NO_SHORTCUT
         &PBE  T
         &END PBE
       &END XC_FUNCTIONAL
       &VDW_POTENTIAL
         POTENTIAL_TYPE  PAIR_POTENTIAL
         &PAIR_POTENTIAL
           R_CUTOFF     1.0000000000000004E+01
           TYPE  DFTD3
           PARAMETER_FILE_NAME dftd3.dat
           REFERENCE_FUNCTIONAL PBE
           EPS_CN     9.9999999999999995E-07
           CALCULATE_C9_TERM  T
           REFERENCE_C9_TERM  T
           LONG_RANGE_CORRECTION  F
           VERBOSE_OUTPUT  F
         &END PAIR_POTENTIAL
       &END VDW_POTENTIAL
     &END XC
   &END DFT
   &SUBSYS
     &CELL
       A     1.2864472766435110E+01    0.0000000000000000E+00    0.0000000000000000E+00
       B    -6.4322363581020028E+00    1.1140960178524473E+01    0.0000000000000000E+00
       C     0.0000000000000000E+00    0.0000000000000000E+00    3.2000000000000000E+01
       MULTIPLE_UNIT_CELL  1 1 1
       &CELL_REF
         A     1.2982353780853531E+01    0.0000000000000000E+00    0.0000000000000000E+00
         B    -6.4911768904267628E+00    1.1243048175136114E+01    0.0000000000000000E+00
         C     0.0000000000000000E+00    0.0000000000000000E+00    3.2000000000000000E+01
         MULTIPLE_UNIT_CELL  1 1 1
       &END CELL_REF
     &END CELL
     &COORD
N   -1.0438014876695981E-01    2.0156446692618717E+00    2.5308543849741580E+00
Ga   -1.8508615489255149E-02    4.5614019603510206E-02    2.8619031076466892E+00
N   -3.7497526204311855E-03    5.4093193029047519E-02    5.0361801681484701E+00
Ga    2.5601727366815357E-02    1.8705577658513675E+00    5.8245905384934993E+00
N    8.0202848735902426E-03    1.8940918756574630E+00    7.8208037457496129E+00
Ga    7.8465167546753600E-04    4.7814900742902358E-02    8.4497188532405740E+00
N    4.9769895433197722E-03    5.3439563053398330E-02    1.0429300285712648E+01
Ga    3.9293601703396554E-03    1.8914868985194071E+00    1.1079513687324706E+01
N    4.8855755694627682E-03    1.8766322283149388E+00    1.3091347343983728E+01
Ga   -9.5032599332031415E-03    3.9514025688253143E-02    1.3867158816806205E+01
N    2.9235262395870287E-03    4.9442083373738996E-02    1.6068436290324410E+01
Ga    1.4217185639452241E-02    2.0417591937340922E+00    1.6423584650898572E+01
Ga   -8.7656360809800071E-01    3.2939008414517223E+00    1.2416245983780798E+00
N   -1.5688212694570283E+00    4.5540864000143806E+00    2.5352017367192077E+00
Ga   -1.7149423705146640E+00    2.7602370515876498E+00    3.5061383289100032E+00
N   -1.6182984558533884E+00    2.8283722792938035E+00    5.3964028922537093E+00
Ga   -1.6238262412794584E+00    4.7304196129811711E+00    5.8221425526330579E+00
N   -1.6154468724031401E+00    4.7055590350239731E+00    7.8197553242691367E+00
Ga   -1.5973630999171620E+00    2.8410804965361471E+00    8.4341490176301104E+00
N   -1.5922537213629890E+00    2.8428108174834708E+00    1.0440671074920049E+01
Ga   -1.6205983152708161E+00    4.7025997475787324E+00    1.1067056727092263E+01
N   -1.6356994934415230E+00    4.7143109275983850E+00    1.3073218822431196E+01
Ga   -1.5991321414187438E+00    2.8479839234156770E+00    1.3615465572771097E+01
N   -1.6375413255829174E+00    2.8355442079309130E+00    1.5594801823766170E+01
Ga   -1.4478472435766931E+00    4.6061915869762959E+00    1.6429893549958312E+01
N    4.6958840870904205E-02    3.7418220317430491E+00    1.7459757098166186E+01
N   -3.2189914668136046E+00    7.5866442081342989E+00    2.5288537618005988E+00
Ga   -3.2374189061972110E+00    5.6125395663307085E+00    2.8720375706979109E+00
N   -3.2121697923534080E+00    5.6146961342950741E+00    5.0372913813682860E+00
Ga   -3.2114937485983091E+00    7.4480549473921034E+00    5.7903075467167602E+00
N   -3.2155432952710687E+00    7.4655218147138225E+00    7.7964246889876563E+00
Ga   -3.2178786730334070E+00    5.6228528902746202E+00    8.4477911448862617E+00
N   -3.2166165022534785E+00    5.6217778056581595E+00    1.0429497356552329E+01
Ga   -3.2124675724941274E+00    7.4643547088651845E+00    1.1062659106839234E+01
N   -3.2118318111564501E+00    7.4420341548033813E+00    1.3065861327286653E+01
Ga   -3.2124062562261999E+00    5.6258830625254426E+00    1.3845830364836686E+01
N   -3.2153855520045767E+00    5.6273521674057259E+00    1.6082522037809333E+01
Ga   -3.2081181143210920E+00    7.6533809706113116E+00    1.6455724090598867E+01
Ga   -3.2232407803965804E+00    9.3273525143156562E+00    1.4454864603636950E+00
N   -4.7325134455898024E+00    1.0204444492422148E+01    2.5241621623021833E+00
Ga   -4.9137067480838708E+00    8.3556966738632905E+00    3.2823616176065880E+00
N   -4.8194344715245663E+00    8.4073793055192123E+00    5.2549367715854629E+00
Ga   -4.8488312056873717E+00    1.0279190702643167E+01    5.7904232235582844E+00
N   -4.8345231696312156E+00    1.0267989624591285E+01    7.7967311750065420E+00
Ga   -4.8117360856096312E+00    8.4126044561273083E+00    8.4302291205394244E+00
N   -4.8106507325807693E+00    8.4141070368280229E+00    1.0434352606098749E+01
Ga   -4.8346249876329583E+00    1.0272611400564875E+01    1.1069267800235030E+01
N   -4.8501964816518939E+00    1.0285158751841127E+01    1.3075155966948488E+01
Ga   -4.8065423356200370E+00    8.4144358146800968E+00    1.3609996720634141E+01
N   -4.8294798571990176E+00    8.3952597866605974E+00    1.5587770731797784E+01
Ga   -4.6714261376316184E+00    1.0181930692798689E+01    1.6453343448327438E+01
N   -3.1819434001113414E+00    9.3482695551849115E+00    1.7577396684835566E+01
N    3.1775813742578474E+00    1.9126942737496138E+00    2.5944339127026050E+00
Ga    3.2020184555958000E+00    1.6328932648034744E-01    3.2638552309733133E+00
N    3.2140486007155231E+00    5.3494630633537418E-02    5.2373824075205997E+00
Ga    3.1887791077727741E+00    1.9162987234368423E+00    5.8339951606738545E+00
N    3.2064868955082741E+00    1.9089322797023598E+00    7.8290027628373702E+00
Ga    3.2162713754100252E+00    4.1600245683676720E-02    8.4215508185178134E+00
N    3.2181153772622011E+00    3.8802325724306967E-02    1.0429591862429032E+01
Ga    3.2196653547048433E+00    1.9043613383390541E+00    1.1031872828140161E+01
N    3.2198718378291438E+00    1.9074654786223608E+00    1.3009580149500753E+01
Ga    3.2198638242113642E+00    4.4376174275467965E-02    1.3618311143083980E+01
N    3.2147767707480241E+00    7.2262642761552046E-02    1.5591344674372516E+01
Ga    3.2295308774484988E+00    1.9039680759392688E+00    1.5904492705720410E+01
N    1.6376321963687344E+00    4.7009235956363780E+00    2.5467659159731038E+00
Ga    1.6199251604655205E+00    2.7887075924739668E+00    3.1599344327146026E+00
N    1.5874390061150612E+00    2.8396211762579133E+00    5.1807748861692531E+00
Ga    1.6174989668392632E+00    4.6938213307825176E+00    5.7782578883860518E+00
N    1.6128274442535708E+00    4.6917818581439734E+00    7.7866933860273377E+00
Ga    1.6016670209533785E+00    2.8415885689832745E+00    8.4475977922770582E+00
N    1.6013935001258313E+00    2.8422351307411828E+00    1.0449974247697615E+01
Ga    1.6289050569383106E+00    4.7013556075055725E+00    1.1079609492116475E+01
N    1.6423962428011334E+00    4.7116045715878077E+00    1.3091122716389673E+01
Ga    1.6095922728250958E+00    2.8412690431995546E+00    1.3618155006079018E+01
N    1.6509145185948655E+00    2.8185350054265590E+00    1.5592990190557458E+01
Ga    1.5030216562243555E+00    4.6211595282476363E+00    1.6422955326433872E+01
N   -6.4191165344523468E-03    7.4418635550577541E+00    2.6021490275937884E+00
Ga   -2.1288803231389319E-02    5.6530827835460489E+00    3.1544540129423511E+00
N   -1.8231162346353054E-03    5.5965255293217382E+00    5.1781345665437275E+00
Ga    8.4698560005687230E-05    7.4467353711849293E+00    5.8289445917101990E+00
N   -1.3572714306701382E-03    7.4654680863133063E+00    7.8240719154308298E+00
Ga    4.9711824992329443E-03    5.6095455775778618E+00    8.4408823962129933E+00
N    5.6706663883345776E-03    5.6053338739309435E+00    1.0442678815411679E+01
Ga    4.1832788353905260E-04    7.4773845058390309E+00    1.1021711893764360E+01
N   -2.6290014175833483E-03    7.4770770569637541E+00    1.3001129645604724E+01
Ga    1.6967532866429065E-04    5.6157911900839963E+00    1.3614517510018555E+01
N   -7.6302678192989555E-03    5.6555381434647476E+00    1.5594587456297555E+01
Ga    1.8792555228230725E-02    7.5033424439593892E+00    1.5864966497866368E+01
N   -1.7209509492613748E+00    1.0195201232566122E+01    2.5200559394189983E+00
Ga   -1.5137647478148679E+00    8.3346716474333267E+00    3.2644065870768588E+00
N   -1.6022883099272778E+00    8.3992218376181320E+00    5.2379903109600789E+00
Ga   -1.5825709338146194E+00    1.0275076094638758E+01    5.7762206769401265E+00
N   -1.6014120110493750E+00    1.0265315399769637E+01    7.7841800663641347E+00
Ga   -1.6125566418883361E+00    8.4086815604717593E+00    8.4171752381659921E+00
N   -1.6168289525312771E+00    8.4135205365442136E+00    1.0425033285729551E+01
Ga   -1.5929848393375967E+00    1.0270456878238013E+01    1.1063511866207554E+01
N   -1.5759007957932407E+00    1.0283233501719039E+01    1.3073460210509547E+01
Ga   -1.6176394633224025E+00    8.4137330349889954E+00    1.3611467213109290E+01
N   -1.5972309117675705E+00    8.3905968512715745E+00    1.5588687939180522E+01
Ga   -1.7265456660198237E+00    1.0192954298357062E+01    1.6451970053045624E+01
N    6.4213950989490725E+00    2.0242863106599098E+00    2.5214220101050788E+00
Ga    6.4224408770493318E+00    4.0175123103882916E-02    2.8265939855355184E+00
N    6.4324199781920468E+00    4.6522995175830126E-02    5.0154677135626189E+00
Ga    6.4221576512598624E+00    1.8694004152317765E+00    5.7840829461160013E+00
N    6.4275400243183549E+00    1.8954185784934321E+00    7.7931759581188871E+00
Ga    6.4290893811753751E+00    4.7794429020182869E-02    8.4277947155185515E+00
N    6.4274905839376544E+00    5.2448140733520277E-02    1.0412818794522725E+01
Ga    6.4282095368695327E+00    1.8869566402152258E+00    1.1072224411639009E+01
N    6.4324115447595309E+00    1.8720066032442730E+00    1.3081408843009733E+01
Ga    6.4515300696126454E+00    3.8861378112166611E-02    1.3862243096885400E+01
N    6.4380608543345028E+00    5.1221474584094068E-02    1.6064422199787145E+01
Ga    6.4386051632728298E+00    2.0449762598720533E+00    1.6446550053082209E+01
Ga    6.4222825125202938E+00    3.7715107540376565E+00    1.4711299121264998E+00
N    4.9432088935315868E+00    4.6342528217180936E+00    2.5654426496258225E+00
Ga    4.6997211627522049E+00    2.7778688926981978E+00    3.2725454882799969E+00
N    4.8138650720610299E+00    2.8323766422167300E+00    5.2443925259311035E+00
Ga    4.8127808672059311E+00    4.6985053290315859E+00    5.8099335802893970E+00
N    4.8181359893117586E+00    4.6918366556082809E+00    7.8051062434107097E+00
Ga    4.8264908964566438E+00    2.8313687821647093E+00    8.4263655853810207E+00
N    4.8328995627448501E+00    2.8375335422632570E+00    1.0434203151864256E+01
Ga    4.8078691314480340E+00    4.6973512282829848E+00    1.1064025611778376E+01
N    4.7942306647958048E+00    4.7093830413740383E+00    1.3074656844839298E+01
Ga    4.8322002669314923E+00    2.8421591577197804E+00    1.3618061325800749E+01
N    4.8084015092274779E+00    2.8355583769069033E+00    1.5593642163619171E+01
Ga    4.9702898053639144E+00    4.6130697918417463E+00    1.6448727175427049E+01
N    6.4435432209951280E+00    3.7352512587058668E+00    1.7571335129338667E+01
N    3.2302068590593329E+00    7.6049073619324199E+00    2.5629821305239835E+00
Ga    3.3098244240423744E+00    5.6702311433928267E+00    3.0141688567128457E+00
N    3.2312685821280187E+00    5.6266276908255524E+00    5.0757577150666000E+00
Ga    3.2203726755202307E+00    7.4610554840253762E+00    5.8088116082303172E+00
N    3.2169131477543509E+00    7.4676803167322596E+00    7.8032823246380154E+00
Ga    3.2125405488276475E+00    5.6158729663601648E+00    8.4289942867056808E+00
N    3.2156465953463327E+00    5.6141048694140476E+00    1.0415398267815515E+01
Ga    3.2159859506352309E+00    7.4585681916233630E+00    1.1053751641392550E+01
N    3.2175085970350921E+00    7.4419162518399826E+00    1.3046908940378174E+01
Ga    3.2238411825138820E+00    5.6426985334787050E+00    1.3867596293058151E+01
N    3.2243062481299494E+00    5.6288428567538240E+00    1.6068088894065369E+01
Ga    3.2318597956122366E+00    7.7208897698167220E+00    1.6546961233150846E+01
Ga    3.2180075470128502E+00    9.3119404719057624E+00    1.4623380305920342E+00
N    1.7087631461191792E+00    1.0190917440068128E+01    2.5168526029333322E+00
Ga    1.5052583790547724E+00    8.3265618223166324E+00    3.2743571416523496E+00
N    1.6065628593844465E+00    8.3966605678642221E+00    5.2448123664686914E+00
Ga    1.5756208974472548E+00    1.0270550699457997E+01    5.7827395172970233E+00
N    1.5965150802868573E+00    1.0263970079279545E+01    7.7918888741602004E+00
Ga    1.6085687130225828E+00    8.4067796999119810E+00    8.4163388473738063E+00
N    1.6155307190001484E+00    8.4083592842925423E+00    1.0420080879643914E+01
Ga    1.5894763240427499E+00    1.0268226305183228E+01    1.1055594290099229E+01
N    1.5787862505946768E+00    1.0281604270028184E+01    1.3044837928115740E+01
Ga    1.6239421012976758E+00    8.4160744443410795E+00    1.3621399404557168E+01
N    1.6082670004198583E+00    8.4054357258874521E+00    1.5569949680229353E+01
Ga    1.8369707452960105E+00    1.0137042691445341E+01    1.6548286897796842E+01
N    3.2385805560989809E+00    9.3291506699562241E+00    1.7726019425203354E+01
N    9.6891911042600452E+00    1.9309169063174487E+00    2.6594100352855352E+00
Ga    9.6412587856998115E+00    1.4687712093150790E-01    3.2759474853201205E+00
N    9.6445707463141019E+00    5.1084551422885163E-02    5.2521401975020519E+00
Ga    9.6182525322962498E+00    1.8870333707690741E+00    5.9238314690058589E+00
N    9.6367328409927246E+00    1.9013733326149089E+00    7.8876328626510217E+00
Ga    9.6436782373642931E+00    2.8809333395988557E-02    8.4431198532743057E+00
N    9.6489591737456610E+00    3.7207455010073852E-02    1.0437135812972901E+01
Ga    9.6497201065765736E+00    1.9090723945886670E+00    1.1023180933894146E+01
N    9.6527802000482268E+00    1.9163632974508080E+00    1.3002527222573343E+01
Ga    9.6478113485945158E+00    3.7521777561462730E-02    1.3621197652250130E+01
N    9.6519918511698553E+00    5.9910721827868295E-02    1.5569839052725948E+01
Ga    9.6415879262785609E+00    1.8869819815190974E+00    1.5868404934832284E+01
N    7.9343836210560363E+00    4.6259100747373729E+00    2.5377179677308224E+00
Ga    8.1219693815449574E+00    2.7776249312613195E+00    3.2847244516830556E+00
N    8.0398082379257971E+00    2.8284740413174099E+00    5.2573950074146705E+00
Ga    8.0735977034433581E+00    4.7025764452084138E+00    5.8060596284699129E+00
N    8.0518792073642125E+00    4.6934487865748284E+00    7.8083492203002391E+00
Ga    8.0182198027445448E+00    2.8399997710667040E+00    8.4472188481654999E+00
N    8.0241135525036427E+00    2.8418296301051105E+00    1.0445853962637381E+01
Ga    8.0540514330862099E+00    4.7005469358710767E+00    1.1068701324848380E+01
N    8.0770435144931643E+00    4.7139496581244753E+00    1.3071906381685869E+01
Ga    8.0325360072434222E+00    2.8455423699876823E+00    1.3611165793416038E+01
N    8.0638720448173782E+00    2.8425707477017852E+00    1.5590750383448638E+01
Ga    7.9042438136635917E+00    4.6099575734170966E+00    1.6451369477555019E+01
N    6.4348339264837326E+00    7.4757860428614231E+00    2.6349268241059254E+00
Ga    6.4513369883015415E+00    5.7275639797523024E+00    3.2987649856224053E+00
N    6.4415761815938160E+00    5.6215623579761669E+00    5.2688924261562757E+00
Ga    6.4387795747927656E+00    7.4807497458597609E+00    5.8729309900788866E+00
N    6.4346094279403507E+00    7.4759553138482913E+00    7.8545185950709993E+00
Ga    6.4337029254176654E+00    5.6077984786402100E+00    8.4338209796234516E+00
N    6.4317482268495265E+00    5.6045672511310016E+00    1.0436784378566079E+01
Ga    6.4359439593925387E+00    7.4746569758801256E+00    1.1021981236947193E+01
N    6.4412319842665724E+00    7.4757892075625376E+00    1.3004248654842060E+01
Ga    6.4347922407194176E+00    5.6072951922888858E+00    1.3609229555701550E+01
N    6.4428986544470686E+00    5.6385332315713068E+00    1.5589001875315574E+01
Ga    6.4198382542523067E+00    7.4907915342235727E+00    1.5853943271924585E+01
N    4.7159241405944616E+00    1.0201097281197757E+01    2.5272868291882675E+00
Ga    4.9301533571034231E+00    8.3676278889071529E+00    3.2943008838308736E+00
N    4.8314509800427823E+00    8.4114757246278646E+00    5.2653820283496131E+00
Ga    4.8497944041016776E+00    1.0283267462737433E+01    5.8036544432052581E+00
N    4.8324375851921841E+00    1.0270497118362165E+01    7.8060922445219081E+00
Ga    4.8169951131196713E+00    8.4115317221202073E+00    8.4315756435471112E+00
N    4.8182667502943808E+00    8.4095664261936509E+00    1.0430296868979999E+01
Ga    4.8409325737719797E+00    1.0269371865151703E+01    1.1065217751018400E+01
N    4.8589712799798992E+00    1.0283835235171987E+01    1.3053777091250870E+01
Ga    4.8094608602650659E+00    8.4154388341712014E+00    1.3616193868491315E+01
N    4.8414448697422676E+00    8.4003713723392170E+00    1.5562538094122393E+01
Ga    4.6268069935436680E+00    1.0138089307269837E+01    1.6546612473636426E+01
O   -4.7193702482530742E-01    3.4132644348078331E+00   -5.1538625396613691E-01
H    1.6361794033803037E+00    4.6995059464394613E+00    1.5196414159449740E+00
C    5.0490244656819894E-01    2.4339303030003672E+00   -9.7745324716081272E-01
H    1.4877989507652525E+00    2.5741135569677289E+00   -5.0013442167739031E-01
H    1.6457665499365412E-01    1.3935567475626398E+00   -7.8445586891797348E-01
H    5.9230487756658590E-01    2.5612478359872020E+00   -2.0680448521904022E+00
     &END COORD
     &KIND C
       BASIS_SET DZVP-MOLOPT-SR-GTH-q4
       POTENTIAL GTH-PBE-q4
       &POTENTIAL
 2 2
  0.3384712400000000E+00 2 -0.8803673979999999E+01  0.1339210850000000E+01
 2
  0.3025757500000000E+00 1  0.9622486650000001E+01
  0.2915069400000000E+00 0
         # Potential name:  GTH-PBE-Q4  for symbol:  C
         # Potential read from the potential filename: GTH_POTENTIALS
       &END POTENTIAL
     &END KIND
     &KIND O
       BASIS_SET DZVP-MOLOPT-SR-GTH-q6
       POTENTIAL GTH-PBE-q6
       &POTENTIAL
 2 4
  0.2445543000000000E+00 2 -0.1666721480000000E+02  0.2487311320000000E+01
 2
  0.2209559200000000E+00 1  0.1833745811000000E+02
  0.2113324700000000E+00 0
         # Potential name:  GTH-PBE-Q6  for symbol:  O
         # Potential read from the potential filename: GTH_POTENTIALS
       &END POTENTIAL
     &END KIND
     &KIND H
       BASIS_SET DZVP-MOLOPT-SR-GTH-q1
       POTENTIAL GTH-PBE-q1
       &POTENTIAL
 1
  0.2000000000000000E+00 2 -0.4178900440000000E+01  0.7244633100000000E+00
 0
         # Potential name:  GTH-PBE-Q1  for symbol:  H
         # Potential read from the potential filename: GTH_POTENTIALS
       &END POTENTIAL
     &END KIND
     &KIND N
       BASIS_SET DZVP-MOLOPT-SR-GTH
       POTENTIAL GTH-PBE-q5
       &POTENTIAL
 2 3
  0.2837905100000000E+00 2 -0.1241522559000000E+02  0.1868095920000000E+01
 2
  0.2554050000000000E+00 1  0.1363026257000000E+02
  0.2454945300000000E+00 0
         # Potential name:  GTH-PBE-Q5  for symbol:  N
         # Potential read from the potential filename: GTH_POTENTIALS
       &END POTENTIAL
     &END KIND
     &KIND Ga
       BASIS_SET DZVP-MOLOPT-SR-GTH
       POTENTIAL GTH-PBE-q13
       &POTENTIAL
 2 1 10
  0.4900000000000000E+00 0
 3
  0.4167772300000000E+00 3  0.1047568975000000E+02 -0.4921768140000000E+01  0.8707055900000000E+00
  0.7770178090000000E+01 -0.2248152160000000E+01
  0.1784415450000000E+01
  0.5696265200000000E+00 2  0.1777985340000000E+01  0.1958597600000000E+00
 -0.2317443900000000E+00
  0.2381265000000000E+00 1 -0.1624868022000000E+02
         # Potential name:  GTH-PBE-Q13  for symbol:  GA
         # Potential read from the potential filename: GTH_POTENTIALS
       &END POTENTIAL
     &END KIND
     &TOPOLOGY
       NUMBER_OF_ATOMS  206
       MULTIPLE_UNIT_CELL  1 1 1
     &END TOPOLOGY
   &END SUBSYS
 &END FORCE_EVAL
