 # Version information for this restart file 
 # current date 2019-06-25 11:00:50.758
 # current working dir /scratch/rzk/rzk/GaN-carbene/443-adatoms-both-2x2/03-DissMethanol/03-O-GaTop-H-NTop
 # Program compiled at                              Sun Apr  7 00:48:11 EDT 2019
 # Program compiled on                          beluga2.int.ets1.calculquebec.ca
 # Program compiled for                        Beluga-Linux-x86-64-intel-openmpi
 # Source code revision number                                         svn:18619
 &GLOBAL
   PRINT_LEVEL  MEDIUM
   PROJECT_NAME TEST
   RUN_TYPE  GEO_OPT
 &END GLOBAL
 &MOTION
   &GEO_OPT
     MAX_ITER  500
     STEP_START_VAL  154
   &END GEO_OPT
 &END MOTION
 &FORCE_EVAL
   METHOD  QS
   STRESS_TENSOR  ANALYTICAL
   &DFT
     BASIS_SET_FILE_NAME BASIS_MOLOPT
     POTENTIAL_FILE_NAME GTH_POTENTIALS
     UKS  T
     SURFACE_DIPOLE_CORRECTION  T
     SURF_DIP_DIR  Z
     &SCF
       MAX_SCF  80
       EPS_SCF     5.0000000000000004E-06
       &OT  T
         PRECONDITIONER  FULL_ALL
       &END OT
       &OUTER_SCF  T
         OPTIMIZER  NONE
         EPS_SCF     5.0000000000000004E-06
         MAX_SCF  4
       &END OUTER_SCF
       &PRINT
         &RESTART  OFF
           BACKUP_COPIES  1
           &EACH
             JUST_ENERGY  0
             QS_SCF  0
             MD  20
           &END EACH
         &END RESTART
       &END PRINT
     &END SCF
     &QS
       EPS_DEFAULT     1.0000000000000000E-14
       METHOD  GPW
     &END QS
     &MGRID
       NGRIDS  5
       CUTOFF     1.2000000000000000E+03
     &END MGRID
     &XC
       DENSITY_CUTOFF     1.0000000000000000E-10
       GRADIENT_CUTOFF     1.0000000000000000E-10
       TAU_CUTOFF     1.0000000000000000E-10
       &XC_FUNCTIONAL  NO_SHORTCUT
         &PBE  T
         &END PBE
       &END XC_FUNCTIONAL
       &VDW_POTENTIAL
         POTENTIAL_TYPE  PAIR_POTENTIAL
         &PAIR_POTENTIAL
           R_CUTOFF     1.0000000000000005E+01
           TYPE  DFTD3
           PARAMETER_FILE_NAME dftd3.dat
           REFERENCE_FUNCTIONAL PBE
           EPS_CN     9.9999999999999995E-07
           CALCULATE_C9_TERM  T
           REFERENCE_C9_TERM  T
           LONG_RANGE_CORRECTION  F
           VERBOSE_OUTPUT  F
         &END PAIR_POTENTIAL
       &END VDW_POTENTIAL
     &END XC
   &END DFT
   &SUBSYS
     &CELL
       A     1.2864472766435110E+01    0.0000000000000000E+00    0.0000000000000000E+00
       B    -6.4322363581020028E+00    1.1140960178524475E+01    0.0000000000000000E+00
       C     0.0000000000000000E+00    0.0000000000000000E+00    3.2000000000000000E+01
       MULTIPLE_UNIT_CELL  1 1 1
       &CELL_REF
         A     1.2982353780853531E+01    0.0000000000000000E+00    0.0000000000000000E+00
         B    -6.4911768904267628E+00    1.1243048175136114E+01    0.0000000000000000E+00
         C     0.0000000000000000E+00    0.0000000000000000E+00    3.2000000000000000E+01
         MULTIPLE_UNIT_CELL  1 1 1
       &END CELL_REF
     &END CELL
     &COORD
N   -8.8354595831778890E-02    2.0211075301654327E+00    2.5138608582288189E+00
Ga   -1.4278878123529881E-02    5.0886364028531209E-02    2.8685496161996564E+00
N    7.5898281378529364E-03    5.5070656021723827E-02    5.0215664080917932E+00
Ga    4.2464746761761075E-02    1.8766749841508172E+00    5.8157943267606447E+00
N    1.9952797547857309E-02    1.8952522265781588E+00    7.8028476220612779E+00
Ga    1.0523849875370870E-02    4.9378504001998814E-02    8.4440163449375252E+00
N    7.1470141431669654E-03    4.9807692164991188E-02    1.0415849027439412E+01
Ga    7.8533158618889314E-03    1.8932111110411713E+00    1.1060459496285544E+01
N    6.9569367220611803E-03    1.8727853367424085E+00    1.3052037575299721E+01
Ga    1.4502204392340281E-02    5.7464207872971469E-02    1.3855684098240024E+01
N    1.4496590811767910E-02    5.6827777798347169E-02    1.6060148880828326E+01
Ga    7.4443825314697756E-03    2.1160574477515062E+00    1.6491785814300048E+01
Ga   -9.1503336853742034E-01    3.2417629769814744E+00    1.1911553243154345E+00
N   -1.5496134308432854E+00    4.5493364664938252E+00    2.5008474203606124E+00
Ga   -1.6936715606517561E+00    2.7752723828751429E+00    3.5025619925090554E+00
N   -1.6069701006771029E+00    2.8319991795815520E+00    5.3876808852781783E+00
Ga   -1.6093235409089692E+00    4.7373655513703499E+00    5.8153193058295249E+00
N   -1.6049185416735778E+00    4.7098025794091765E+00    7.8024049409794909E+00
Ga   -1.5876656236996904E+00    2.8436590610604036E+00    8.4259160743504644E+00
N   -1.5900956834796045E+00    2.8427913947632439E+00    1.0421113454421931E+01
Ga   -1.6145827766481087E+00    4.7010375848166586E+00    1.1064054599768838E+01
N   -1.6328180551663196E+00    4.7107472226283464E+00    1.3056116052134008E+01
Ga   -1.5900842079715669E+00    2.8424050210547267E+00    1.3616475810411359E+01
N   -1.6188207058581461E+00    2.8216556214386146E+00    1.5573628842364750E+01
Ga   -1.4301730519682185E+00    4.5938465477953665E+00    1.6491995436710869E+01
N    3.6248494560740968E-03    3.7672106633436666E+00    1.7642494768891595E+01
N   -3.2128409943262088E+00    7.5896528854283165E+00    2.5200243985949911E+00
Ga   -3.2218207043996556E+00    5.6032202991039446E+00    2.8619472970723847E+00
N   -3.2027962125464593E+00    5.6170590425095952E+00    5.0162401407128927E+00
Ga   -3.2056353601802288E+00    7.4497377246015386E+00    5.7900121913044833E+00
N   -3.2083166244828596E+00    7.4655416841792270E+00    7.7861866526924430E+00
Ga   -3.2081498794422858E+00    5.6240266822268472E+00    8.4453492588720600E+00
N   -3.2096667313277583E+00    5.6212457099531541E+00    1.0416239704327852E+01
Ga   -3.2068900262897415E+00    7.4614595706375928E+00    1.1063673040701488E+01
N   -3.2089995566344220E+00    7.4415538558545995E+00    1.3057902313667652E+01
Ga   -3.2076781721949303E+00    5.6197491796677381E+00    1.3870498673492522E+01
N   -3.2096789058677357E+00    5.6191160008652830E+00    1.6062232552698447E+01
Ga   -3.2091225316865817E+00    7.6588495885900780E+00    1.6477535611251611E+01
Ga   -3.2172644298251076E+00    9.3272549826295297E+00    1.4876064086967220E+00
N   -4.7219046835968435E+00    1.0203274038380895E+01    2.5175033470216852E+00
Ga   -4.9153193402821733E+00    8.3496595849297570E+00    3.2873185751716512E+00
N   -4.8147450307348434E+00    8.4066483095808007E+00    5.2491671090958443E+00
Ga   -4.8385528969301257E+00    1.0278425158852514E+01    5.7913192287987512E+00
N   -4.8264405383327507E+00    1.0268523574080008E+01    7.7871423774150221E+00
Ga   -4.8035554646489009E+00    8.4128856174316837E+00    8.4299170378191590E+00
N   -4.8044288607932160E+00    8.4125896952682879E+00    1.0423521317378688E+01
Ga   -4.8283519123040790E+00    1.0272236698256247E+01    1.1059618841661377E+01
N   -4.8476361903881751E+00    1.0281592659651377E+01    1.3052924621641791E+01
Ga   -4.8063321154054686E+00    8.4136601280276544E+00    1.3614254303435533E+01
N   -4.8400999377759906E+00    8.4016514833319231E+00    1.5575576402117163E+01
Ga   -4.6461009040047578E+00    1.0166944613399140E+01    1.6477761987978557E+01
N   -3.2070506415376516E+00    9.3235274784811626E+00    1.7613014881063439E+01
N    3.1948530576630381E+00    1.9185292336251087E+00    2.5738253813367686E+00
Ga    3.2083342690873811E+00    1.7624868707165034E-01    3.2635356945358804E+00
N    3.2208920921683530E+00    5.6670018526033990E-02    5.2287700695394550E+00
Ga    3.2030211677526816E+00    1.9227015465571211E+00    5.8272762425444879E+00
N    3.2174750548999382E+00    1.9121353214348433E+00    7.8131119220011147E+00
Ga    3.2239960161043655E+00    4.5071668326278867E-02    8.4150571115488848E+00
N    3.2233953313556238E+00    4.0012586747281476E-02    1.0411743221250751E+01
Ga    3.2237939227877948E+00    1.9066963803477384E+00    1.1017374100588935E+01
N    3.2225383830759631E+00    1.9060259052824597E+00    1.2986703559975311E+01
Ga    3.2232443706216380E+00    3.8370690163492989E-02    1.3611967271147158E+01
N    3.2221998410439463E+00    6.9898948119329077E-02    1.5571849818854599E+01
Ga    3.2206073532007173E+00    1.9088656199122047E+00    1.5850008046312766E+01
N    1.6528843561510587E+00    4.7132822037956990E+00    2.5239485378227369E+00
Ga    1.6356666137456111E+00    2.8074092052736823E+00    3.1395865699685346E+00
N    1.6026036499384162E+00    2.8469657799408621E+00    5.1565362953180243E+00
Ga    1.6312089244214503E+00    4.7017925918420227E+00    5.7661637835704473E+00
N    1.6235198751631268E+00    4.6977399367713568E+00    7.7689107608387218E+00
Ga    1.6134080596956115E+00    2.8463266205458577E+00    8.4316909639870730E+00
N    1.6069941970516495E+00    2.8445975046016572E+00    1.0421672999329774E+01
Ga    1.6316707442324403E+00    4.7018546604217049E+00    1.1063596110541427E+01
N    1.6452142612621707E+00    4.7099253954602363E+00    1.3053431938200244E+01
Ga    1.6040005018291565E+00    2.8417475573491520E+00    1.3615361846370181E+01
N    1.6308512824624606E+00    2.8250982284756194E+00    1.5572111761006839E+01
Ga    1.4354533404159544E+00    4.5881171376849137E+00    1.6490297898744732E+01
N    4.0289653911786110E-03    7.4502662005942382E+00    2.5812542635921942E+00
Ga   -3.7109860815848204E-03    5.6541544287593588E+00    3.1342605436502939E+00
N    9.8520014900725338E-03    5.6024043060519775E+00    5.1529191640523493E+00
Ga    1.0878740210266422E-02    7.4510018034446901E+00    5.8266476558696523E+00
N    8.7963257707468542E-03    7.4694168892278894E+00    7.8137499069422178E+00
Ga    1.5031140482910871E-02    5.6135998013198547E+00    8.4334019010804546E+00
N    9.9988705680183199E-03    5.6094032045970303E+00    1.0423772908124413E+01
Ga    6.2369092127100428E-03    7.4782644923041053E+00    1.1018515926929734E+01
N    7.6148695708885238E-03    7.4799120946707074E+00    1.2990035140438565E+01
Ga    6.3318656718002768E-03    5.6080320492162610E+00    1.3615448196286128E+01
N    9.1093909307736441E-03    5.6430670405669288E+00    1.5572200485879488E+01
Ga    4.4148596167110539E-03    7.4759007672606197E+00    1.5854654417954020E+01
N   -1.7151090243598062E+00    1.0197172439605527E+01    2.5131735787052509E+00
Ga   -1.4991651402113595E+00    8.3310777905261766E+00    3.2661882224715253E+00
N   -1.5964848272523471E+00    8.4006521488952597E+00    5.2307504968827034E+00
Ga   -1.5779036474773083E+00    1.0276106638515916E+01    5.7771016182283397E+00
N   -1.5927686913526524E+00    1.0267092478524967E+01    7.7770856893204350E+00
Ga   -1.6052451636019984E+00    8.4084829367869105E+00    8.4156947092919125E+00
N   -1.6102531316158413E+00    8.4108683707049874E+00    1.0413568427327542E+01
Ga   -1.5877874686704292E+00    1.0270883739299181E+01    1.1052386184166485E+01
N   -1.5716859135517582E+00    1.0280650892467751E+01    1.3048042200222810E+01
Ga   -1.6126294284260383E+00    8.4140174830064307E+00    1.3613114977345518E+01
N   -1.5804332139613235E+00    8.4016507766577835E+00    1.5574394568439132E+01
Ga   -1.7716562657307870E+00    1.0167220829811638E+01    1.6477288335867655E+01
N    6.4388365964807655E+00    2.0294645122523574E+00    2.5079623882947382E+00
Ga    6.4379401139364552E+00    4.7768592973726869E-02    2.8299668685930395E+00
N    6.4368730606948796E+00    4.8423507228641992E-02    5.0017552025138503E+00
Ga    6.4319130711594461E+00    1.8755719013639833E+00    5.7790838412530885E+00
N    6.4380634366292018E+00    1.8967173678783040E+00    7.7804441752461866E+00
Ga    6.4374956043156519E+00    4.9589298245518061E-02    8.4262211437375871E+00
N    6.4387186791202744E+00    5.0287436434132908E-02    1.0403411147447963E+01
Ga    6.4349225796408183E+00    1.8888018782894633E+00    1.1060424669010668E+01
N    6.4369182202253450E+00    1.8708686594732282E+00    1.3052309966217909E+01
Ga    6.4300178113335535E+00    5.4272384144092682E-02    1.3852587307452065E+01
N    6.4303574833902717E+00    5.6259572044301084E-02    1.6058743893033672E+01
Ga    6.4363397770987945E+00    2.1093974493234007E+00    1.6481825380247777E+01
Ga    6.4365337260874460E+00    3.7762911328800266E+00    1.4556683378580073E+00
N    4.9607717705208580E+00    4.6376456811541980E+00    2.5422217327604519E+00
Ga    4.7165961587198026E+00    2.7835534215819311E+00    3.2598929392589282E+00
N    4.8258024216216473E+00    2.8366579211481073E+00    5.2282672338084408E+00
Ga    4.8237660088486587E+00    4.7008958087879487E+00    5.8069769320825282E+00
N    4.8268735384672556E+00    4.6963698699238945E+00    7.7954057089197679E+00
Ga    4.8363330709662415E+00    2.8358953244831224E+00    8.4196509164912374E+00
N    4.8402151437717009E+00    2.8395099590485957E+00    1.0414554401545885E+01
Ga    4.8159832330748289E+00    4.6987226705464540E+00    1.1055677432918751E+01
N    4.7989743753094647E+00    4.7093910967008874E+00    1.3049334428268708E+01
Ga    4.8397187980696659E+00    2.8418244531547940E+00    1.3612237680394333E+01
N    4.8131148143838640E+00    2.8264682138891053E+00    1.5570611060182937E+01
Ga    5.0037973963278297E+00    4.5900598322833250E+00    1.6482278218369061E+01
N    6.4476511054051437E+00    3.7678790711985153E+00    1.7625181235071061E+01
N    3.2413195005349751E+00    7.6172264310903675E+00    2.5444457026044822E+00
Ga    3.3211660688540463E+00    5.6780635123053642E+00    2.9854658452687404E+00
N    3.2464050886395790E+00    5.6338686715425759E+00    5.0543963742055436E+00
Ga    3.2276513445587880E+00    7.4663997906535720E+00    5.8076744115374437E+00
N    3.2246444610694116E+00    7.4716572477400076E+00    7.7967165049848806E+00
Ga    3.2220770410206439E+00    5.6199129201920712E+00    8.4274102052636337E+00
N    3.2225953952972444E+00    5.6205462620462452E+00    1.0403988908665770E+01
Ga    3.2208869684572616E+00    7.4592496552669880E+00    1.1056632538208584E+01
N    3.2213949517846667E+00    7.4393318829451216E+00    1.3056025014155317E+01
Ga    3.2216005103568937E+00    5.6112457024056885E+00    1.3854246636832031E+01
N    3.2222855003393636E+00    5.6097291160687748E+00    1.6057440877411508E+01
Ga    3.2208800762292458E+00    7.6160823738653205E+00    1.6429089002076779E+01
Ga    3.2316436721738859E+00    9.3236196941666876E+00    1.4534408058037946E+00
N    1.7218947047939905E+00    1.0200604890478095E+01    2.5095382553721324E+00
Ga    1.5152338396154839E+00    8.3337926986602433E+00    3.2633398385819579E+00
N    1.6142379815515802E+00    8.4003385971486182E+00    5.2314772881985636E+00
Ga    1.5846220774189250E+00    1.0271937151379630E+01    5.7801272565298945E+00
N    1.6052959127001660E+00    1.0266605272367668E+01    7.7819968820312164E+00
Ga    1.6179092724210675E+00    8.4098166850908616E+00    8.4206213489785018E+00
N    1.6232227757585491E+00    8.4121907893941046E+00    1.0418064314351797E+01
Ga    1.5950863010545620E+00    1.0269812269763843E+01    1.1060735736859385E+01
N    1.5795748092758795E+00    1.0281368927616834E+01    1.3057918377969269E+01
Ga    1.6246011100200624E+00    8.4120759710326674E+00    1.3604602595723790E+01
N    1.6032980462266686E+00    8.4028106131830107E+00    1.5578309203039005E+01
Ga    1.7390994291139885E+00    1.0191301157471294E+01    1.6429133497370440E+01
N    3.2274402774148574E+00    9.3304754880311229E+00    1.7544589304601338E+01
N    9.7151644831127975E+00    1.9402199691947468E+00    2.6302085486750908E+00
Ga    9.6573475429862761E+00    1.6088086395076584E-01    3.2675680621393512E+00
N    9.6523783282710944E+00    5.6947846234539745E-02    5.2385581104029564E+00
Ga    9.6270331300694778E+00    1.8898760345695516E+00    5.9181495200351515E+00
N    9.6466729753150595E+00    1.9016388237440214E+00    7.8755426862597444E+00
Ga    9.6506800570913409E+00    3.0773271627000789E-02    8.4445552264567709E+00
N    9.6537637828355773E+00    3.3761817571626253E-02    1.0433863505887077E+01
Ga    9.6552800447772871E+00    1.9079445123843950E+00    1.1018615598054513E+01
N    9.6547320317763408E+00    1.9047151387933943E+00    1.2991057407783115E+01
Ga    9.6529450408862321E+00    3.7909857424276411E-02    1.3604527002807785E+01
N    9.6520394259275406E+00    6.2019757809939867E-02    1.5578721387197644E+01
Ga    9.6547137882625567E+00    1.9102908849178879E+00    1.5853971273541243E+01
N    7.9438529588796012E+00    4.6269979641213803E+00    2.5196315167463839E+00
Ga    8.1458241674297014E+00    2.7794981702772614E+00    3.2676001890248223E+00
N    8.0521534274112998E+00    2.8283807908006717E+00    5.2378828464617717E+00
Ga    8.0805619629945689E+00    4.7008016956927348E+00    5.8001742195873396E+00
N    8.0619217461819357E+00    4.6945557671354585E+00    7.7948795492988232E+00
Ga    8.0284923036541951E+00    2.8414155613895820E+00    8.4440445361307361E+00
N    8.0328077690557134E+00    2.8429279417666917E+00    1.0432102572456555E+01
Ga    8.0620693021975729E+00    4.7022054560790423E+00    1.1069408094357344E+01
N    8.0784713381330082E+00    4.7109718648046082E+00    1.3060895026203768E+01
Ga    8.0344517560771376E+00    2.8407406742206405E+00    1.3613574495297359E+01
N    8.0611897823454655E+00    2.8194363660403221E+00    1.5574082650650618E+01
Ga    7.8833310906355232E+00    4.5984130779205152E+00    1.6482548245812502E+01
N    6.4381843806849375E+00    7.4768600723750067E+00    2.6218890422431680E+00
Ga    6.4611367802191424E+00    5.7299071170167393E+00    3.2931789231100410E+00
N    6.4516808565449812E+00    5.6228912923316008E+00    5.2581632642036915E+00
Ga    6.4436679406719293E+00    7.4800180365895583E+00    5.8766397192972502E+00
N    6.4411904305532959E+00    7.4785502886413413E+00    7.8492775599680504E+00
Ga    6.4435084191147389E+00    5.6096690029006862E+00    8.4336885368565575E+00
N    6.4407561142803633E+00    5.6084782063433991E+00    1.0425541030472026E+01
Ga    6.4405964022432070E+00    7.4777237099683216E+00    1.1019427983529651E+01
N    6.4369923080934628E+00    7.4798243090981904E+00    1.2991853844283989E+01
Ga    6.4365415723105812E+00    5.6078053069081459E+00    1.3613277299619632E+01
N    6.4309750864559261E+00    5.6428130467877660E+00    1.5573224624130104E+01
Ga    6.4380695707529449E+00    7.4772853770190109E+00    1.5856278753188832E+01
N    4.7242443380557928E+00    1.0205710154175838E+01    2.5190314223738191E+00
Ga    4.9368809538332057E+00    8.3715177944169366E+00    3.2930621419494250E+00
N    4.8397187371562449E+00    8.4147627418076958E+00    5.2585398395226983E+00
Ga    4.8551875310711541E+00    1.0285655370896830E+01    5.8019798523394037E+00
N    4.8399577039845783E+00    1.0273337317973919E+01    7.7970304591971669E+00
Ga    4.8239619106472187E+00    8.4141871487132036E+00    8.4346194748717931E+00
N    4.8204658299251211E+00    8.4132540068706430E+00    1.0427946205172981E+01
Ga    4.8472938920320310E+00    1.0271298009353531E+01    1.1066644612476885E+01
N    4.8639491543687541E+00    1.0282389995863142E+01    1.3062786684408909E+01
Ga    4.8182290711815305E+00    8.4117991100122680E+00    1.3605081166501506E+01
N    4.8388984956695538E+00    8.4015716749563936E+00    1.5580677461934723E+01
Ga    4.7086599926177133E+00    1.0194939140466429E+01    1.6429470673887440E+01
O   -5.7457197496440005E-01    3.3308144735602925E+00   -5.7319074622593935E-01
H    1.6353593669299693E+00    4.7062357353700568E+00    1.4943265244650212E+00
C    2.1983571525555681E-01    2.2622104663347518E+00   -1.1340387174838846E+00
H    1.1145388409652657E+00    2.0342509093101637E+00   -5.2947605968350786E-01
H   -3.7114208217035244E-01    1.3390147211887460E+00   -1.2511612630611137E+00
H    5.4586464270880330E-01    2.5989584647413970E+00   -2.1294755607406954E+00
     &END COORD
     &KIND C
       BASIS_SET DZVP-MOLOPT-SR-GTH-q4
       POTENTIAL GTH-PBE-q4
       &POTENTIAL
2 2
0.3384712400000000E+00 2 -0.8803673979999999E+01  0.1339210850000000E+01
2
0.3025757500000000E+00 1  0.9622486650000001E+01
0.2915069400000000E+00 0
       &END POTENTIAL
     &END KIND
     &KIND O
       BASIS_SET DZVP-MOLOPT-SR-GTH-q6
       POTENTIAL GTH-PBE-q6
       &POTENTIAL
2 4
0.2445543000000000E+00 2 -0.1666721480000000E+02  0.2487311320000000E+01
2
0.2209559200000000E+00 1  0.1833745811000000E+02
0.2113324700000000E+00 0
       &END POTENTIAL
     &END KIND
     &KIND H
       BASIS_SET DZVP-MOLOPT-SR-GTH-q1
       POTENTIAL GTH-PBE-q1
       &POTENTIAL
1
0.2000000000000000E+00 2 -0.4178900440000000E+01  0.7244633100000000E+00
0
       &END POTENTIAL
     &END KIND
     &KIND N
       BASIS_SET DZVP-MOLOPT-SR-GTH
       POTENTIAL GTH-PBE-q5
       &POTENTIAL
2 3
0.2837905100000000E+00 2 -0.1241522559000000E+02  0.1868095920000000E+01
2
0.2554050000000000E+00 1  0.1363026257000000E+02
0.2454945300000000E+00 0
       &END POTENTIAL
     &END KIND
     &KIND Ga
       BASIS_SET DZVP-MOLOPT-SR-GTH
       POTENTIAL GTH-PBE-q13
       &POTENTIAL
2 1 10
0.4900000000000000E+00 0
3
0.4167772300000000E+00 3  0.1047568975000000E+02 -0.4921768140000000E+01  0.8707055900000000E+00
0.7770178090000000E+01 -0.2248152160000000E+01
0.1784415450000000E+01
0.5696265200000000E+00 2  0.1777985340000000E+01  0.1958597600000000E+00
-0.2317443900000000E+00
0.2381265000000000E+00 1 -0.1624868022000000E+02
       &END POTENTIAL
     &END KIND
     &TOPOLOGY
       NUMBER_OF_ATOMS  206
       MULTIPLE_UNIT_CELL  1 1 1
     &END TOPOLOGY
   &END SUBSYS
 &END FORCE_EVAL
