 # Version information for this restart file 
 # current date 2019-06-24 22:38:37.259
 # current working dir /scratch/rzk/rzk/GaN-carbene/443-adatoms-both-2x2/03-DissMethanol/03-O-GaTop-H-NTop
 # Program compiled at                              Sun Apr  7 00:48:11 EDT 2019
 # Program compiled on                          beluga2.int.ets1.calculquebec.ca
 # Program compiled for                        Beluga-Linux-x86-64-intel-openmpi
 # Source code revision number                                         svn:18619
 &GLOBAL
   PRINT_LEVEL  MEDIUM
   PROJECT_NAME TEST
   RUN_TYPE  GEO_OPT
 &END GLOBAL
 &MOTION
   &GEO_OPT
     MAX_ITER  500
     STEP_START_VAL  68
   &END GEO_OPT
 &END MOTION
 &FORCE_EVAL
   METHOD  QS
   STRESS_TENSOR  ANALYTICAL
   &DFT
     BASIS_SET_FILE_NAME BASIS_MOLOPT
     POTENTIAL_FILE_NAME GTH_POTENTIALS
     UKS  T
     SURFACE_DIPOLE_CORRECTION  T
     SURF_DIP_DIR  Z
     &SCF
       MAX_SCF  80
       EPS_SCF     5.0000000000000004E-06
       &OT  T
         PRECONDITIONER  FULL_ALL
       &END OT
       &OUTER_SCF  T
         OPTIMIZER  NONE
         EPS_SCF     5.0000000000000004E-06
         MAX_SCF  4
       &END OUTER_SCF
       &PRINT
         &RESTART  OFF
           BACKUP_COPIES  1
           &EACH
             JUST_ENERGY  0
             QS_SCF  0
             MD  20
           &END EACH
         &END RESTART
       &END PRINT
     &END SCF
     &QS
       EPS_DEFAULT     1.0000000000000000E-14
       METHOD  GPW
     &END QS
     &MGRID
       NGRIDS  5
       CUTOFF     1.2000000000000000E+03
     &END MGRID
     &XC
       DENSITY_CUTOFF     1.0000000000000000E-10
       GRADIENT_CUTOFF     1.0000000000000000E-10
       TAU_CUTOFF     1.0000000000000000E-10
       &XC_FUNCTIONAL  NO_SHORTCUT
         &PBE  T
         &END PBE
       &END XC_FUNCTIONAL
       &VDW_POTENTIAL
         POTENTIAL_TYPE  PAIR_POTENTIAL
         &PAIR_POTENTIAL
           R_CUTOFF     1.0000000000000004E+01
           TYPE  DFTD3
           PARAMETER_FILE_NAME dftd3.dat
           REFERENCE_FUNCTIONAL PBE
           EPS_CN     9.9999999999999995E-07
           CALCULATE_C9_TERM  T
           REFERENCE_C9_TERM  T
           LONG_RANGE_CORRECTION  F
           VERBOSE_OUTPUT  F
         &END PAIR_POTENTIAL
       &END VDW_POTENTIAL
     &END XC
   &END DFT
   &SUBSYS
     &CELL
       A     1.2864472766435110E+01    0.0000000000000000E+00    0.0000000000000000E+00
       B    -6.4322363581020028E+00    1.1140960178524473E+01    0.0000000000000000E+00
       C     0.0000000000000000E+00    0.0000000000000000E+00    3.2000000000000000E+01
       MULTIPLE_UNIT_CELL  1 1 1
       &CELL_REF
         A     1.2982353780853531E+01    0.0000000000000000E+00    0.0000000000000000E+00
         B    -6.4911768904267628E+00    1.1243048175136114E+01    0.0000000000000000E+00
         C     0.0000000000000000E+00    0.0000000000000000E+00    3.2000000000000000E+01
         MULTIPLE_UNIT_CELL  1 1 1
       &END CELL_REF
     &END CELL
     &COORD
N   -9.7027554571356492E-02    2.0228885389035431E+00    2.5260098702112188E+00
Ga   -2.0990897498486899E-02    5.2260725987733743E-02    2.8754924336515422E+00
N   -3.5047919683630848E-03    5.5572216583966862E-02    5.0279037119832592E+00
Ga    2.8250732193846696E-02    1.8781538116899354E+00    5.8203245259199328E+00
N    9.5839266437601038E-03    1.8965391954443660E+00    7.8083438306476927E+00
Ga    2.0682917068355665E-03    5.0451269940315277E-02    8.4518798639293973E+00
N   -3.8125743203793789E-04    5.1686425118304999E-02    1.0422532269948373E+01
Ga    1.7220712943892940E-04    1.8927004272982935E+00    1.1069217457728834E+01
N    5.3600435478852991E-04    1.8722715553883886E+00    1.3064114732371964E+01
Ga    1.3261110853247508E-03    4.8158603820723740E-02    1.3866652006285932E+01
N    9.2495643428436433E-04    4.7113043595157680E-02    1.6067396511410752E+01
Ga    1.4077132769188515E-03    2.0720897292366618E+00    1.6468541384962847E+01
Ga   -8.4407486316013058E-01    3.2905799729902037E+00    1.2069776499280780E+00
N   -1.5572108664203244E+00    4.5537990164818165E+00    2.5071053022863570E+00
Ga   -1.7133930796730690E+00    2.7703029400564305E+00    3.4929916687925129E+00
N   -1.6194676969012618E+00    2.8316998661274360E+00    5.3828993635598374E+00
Ga   -1.6208744152903662E+00    4.7340678448595250E+00    5.8198074690724848E+00
N   -1.6140297246885125E+00    4.7088652063298069E+00    7.8076906926437539E+00
Ga   -1.5968654973216738E+00    2.8437803235608627E+00    8.4347670513021118E+00
N   -1.5971004697842288E+00    2.8436850876033497E+00    1.0429534484034363E+01
Ga   -1.6221125870975635E+00    4.7024257910812883E+00    1.1068989227442250E+01
N   -1.6395158775944270E+00    4.7126715183171095E+00    1.3063571364599005E+01
Ga   -1.5964804997525763E+00    2.8439997765999392E+00    1.3619620398160315E+01
N   -1.6187890672181098E+00    2.8311566835269426E+00    1.5587244664782306E+01
Ga   -1.4640126783152123E+00    4.6117552271815736E+00    1.6467563689838730E+01
N    8.0368127854273203E-05    3.7624920053789923E+00    1.7602938118749670E+01
N   -3.2239082737569849E+00    7.5908704183603097E+00    2.5241026958644732E+00
Ga   -3.2334208289566431E+00    5.6082189296626899E+00    2.8668859002111167E+00
N   -3.2133971893597733E+00    5.6167145285162761E+00    5.0217050885145769E+00
Ga   -3.2159575841238599E+00    7.4504558220034420E+00    5.7953283362297103E+00
N   -3.2177979576221936E+00    7.4662507570953807E+00    7.7917371439889500E+00
Ga   -3.2167231939479835E+00    5.6248415635705218E+00    8.4514821600539047E+00
N   -3.2171281714997870E+00    5.6221167093635982E+00    1.0422289658425465E+01
Ga   -3.2145425298279897E+00    7.4639777088842081E+00    1.1068139323427609E+01
N   -3.2156264494214435E+00    7.4438875934690980E+00    1.3060488220795724E+01
Ga   -3.2174814182411060E+00    5.6257053752447996E+00    1.3867653708738398E+01
N   -3.2187818708364437E+00    5.6257228715782386E+00    1.6068701135027922E+01
Ga   -3.2161225490694556E+00    7.6775961157838024E+00    1.6491507517101802E+01
Ga   -3.2285764735426028E+00    9.3290530885805296E+00    1.4773858272829676E+00
N   -4.7330067659767865E+00    1.0204068575737637E+01    2.5224155207715411E+00
Ga   -4.9228873941620197E+00    8.3527225144408064E+00    3.2905594495384598E+00
N   -4.8252301611023132E+00    8.4072470333846603E+00    5.2536210278368101E+00
Ga   -4.8483800874850491E+00    1.0278939685064124E+01    5.7973159341297125E+00
N   -4.8355952744416468E+00    1.0269427638882741E+01    7.7931494343500383E+00
Ga   -4.8125202167365826E+00    8.4141570783979631E+00    8.4376902105257034E+00
N   -4.8125004288664543E+00    8.4142979896767773E+00    1.0429374182550250E+01
Ga   -4.8367582475268627E+00    1.0273336220278845E+01    1.1068160826338909E+01
N   -4.8543023038949187E+00    1.0282506739705774E+01    1.3060497695754476E+01
Ga   -4.8132542127115796E+00    8.4138908846142737E+00    1.3621927593202718E+01
N   -4.8419731357381073E+00    8.3979973230663170E+00    1.5580868497385596E+01
Ga   -4.6515687649360480E+00    1.0165883319751250E+01    1.6491939002367058E+01
N   -3.2141610073480611E+00    9.3364518820352540E+00    1.7627882081307295E+01
N    3.1839318880883214E+00    1.9180483653981188E+00    2.5835221873109724E+00
Ga    3.1976064609139154E+00    1.7264884504884545E-01    3.2684285708047871E+00
N    3.2105765158634409E+00    5.7369767641616935E-02    5.2348327365739289E+00
Ga    3.1923962255987948E+00    1.9210029284496737E+00    5.8395093627370551E+00
N    3.2077910370802667E+00    1.9122607116107262E+00    7.8238512085633314E+00
Ga    3.2147148189905415E+00    4.4627216463096413E-02    8.4249427918559121E+00
N    3.2156873409748647E+00    4.1173560185765866E-02    1.0421248017051735E+01
Ga    3.2159121677920584E+00    1.9074638891939806E+00    1.1025960443985964E+01
N    3.2154322114308851E+00    1.9094555437756355E+00    1.2996456560951227E+01
Ga    3.2169218253300809E+00    3.8940877292981520E-02    1.3621544680166975E+01
N    3.2153551320799596E+00    7.3816251783179035E-02    1.5579441700030461E+01
Ga    3.2151890014907023E+00    1.9077525595600739E+00    1.5866286869532850E+01
N    1.6410293168962786E+00    4.7123757190503781E+00    2.5356300657996123E+00
Ga    1.6278385598918765E+00    2.8046596295346204E+00    3.1561922873856481E+00
N    1.5929361217304123E+00    2.8470774748062548E+00    5.1683320482100967E+00
Ga    1.6207763234850561E+00    4.7012703320022657E+00    5.7775885238498335E+00
N    1.6146861352050061E+00    4.6980274681995100E+00    7.7784997807826164E+00
Ga    1.6031620662479171E+00    2.8460798466256980E+00    8.4416778978529852E+00
N    1.5984735353611474E+00    2.8457868540962350E+00    1.0431726045261753E+01
Ga    1.6249256436335058E+00    4.7037810780937885E+00    1.1071240742332769E+01
N    1.6406801776282607E+00    4.7126896823190236E+00    1.3064409197633172E+01
Ga    1.5975873522091695E+00    2.8434989805895543E+00    1.3619019775163709E+01
N    1.6199832709409867E+00    2.8316499575256051E+00    1.5585890188537681E+01
Ga    1.4639626502716989E+00    4.6100978103038841E+00    1.6468394459105948E+01
N   -8.1320036612353847E-03    7.4511462266712725E+00    2.5909167418944761E+00
Ga   -1.3113695862939093E-02    5.6588556918675232E+00    3.1508220168233612E+00
N    8.8517520593633069E-05    5.6024585855725677E+00    5.1639782696579903E+00
Ga   -1.7073742619453888E-03    7.4517211704290416E+00    5.8368231205084227E+00
N   -1.2221003752590056E-03    7.4696378457113530E+00    7.8218693800375014E+00
Ga    5.2785364341036726E-03    5.6137798486558008E+00    8.4413401337696747E+00
N    2.5894654829542907E-03    5.6098539050157168E+00    1.0431318999221718E+01
Ga   -1.2070002434280090E-03    7.4797070622456996E+00    1.1026015403372892E+01
N    2.2446466704960312E-04    7.4782269499372394E+00    1.2997443224925970E+01
Ga    1.5308473402283218E-04    5.6094939991616224E+00    1.3619107279634566E+01
N    1.0023370896466378E-03    5.6353839698023451E+00    1.5586255755192026E+01
Ga    4.9563205603812203E-04    7.4803093487595609E+00    1.5860974199140818E+01
N   -1.7270645392872401E+00    1.0197084035603961E+01    2.5192289056678456E+00
Ga   -1.5142078224647288E+00    8.3338609830943025E+00    3.2704670528094346E+00
N   -1.6068648057380333E+00    8.4010480174516751E+00    5.2363001020367896E+00
Ga   -1.5893276454224392E+00    1.0275934571355707E+01    5.7843881453251296E+00
N   -1.6022041543896330E+00    1.0268010690237016E+01    7.7838523587749018E+00
Ga   -1.6150643936965678E+00    8.4097741967515418E+00    8.4232713548947800E+00
N   -1.6174954670130155E+00    8.4125489989384548E+00    1.0420185888637244E+01
Ga   -1.5949543209981933E+00    1.0271850910339760E+01    1.1063586328173004E+01
N   -1.5771238765586304E+00    1.0282520862944887E+01    1.3057797534127328E+01
Ga   -1.6196062330839831E+00    8.4153042423086681E+00    1.3621504555468425E+01
N   -1.5895705229430703E+00    8.3967120428331068E+00    1.5580486445119368E+01
Ga   -1.7766238366319902E+00    1.0168256860618360E+01    1.6491464881352236E+01
N    6.4239707331650324E+00    2.0294765970511199E+00    2.5196106378164913E+00
Ga    6.4215413725060673E+00    4.6251463957485500E-02    2.8400983629001426E+00
N    6.4272961687650598E+00    4.9051400528862206E-02    5.0108200983729496E+00
Ga    6.4201157088910294E+00    1.8748949116911848E+00    5.7925718013738976E+00
N    6.4278735168760806E+00    1.8966723832156531E+00    7.7915724607909143E+00
Ga    6.4274025890732940E+00    4.9437144583798207E-02    8.4381274549324417E+00
N    6.4306888270844400E+00    5.1594206048818127E-02    1.0413030763643290E+01
Ga    6.4276839109055173E+00    1.8885562428597926E+00    1.1072623194214801E+01
N    6.4310528391863375E+00    1.8710299707054645E+00    1.3065657248680916E+01
Ga    6.4302794886758567E+00    4.9384681359084914E-02    1.3872350168639292E+01
N    6.4309654207980014E+00    5.0147290742222808E-02    1.6067387138569181E+01
Ga    6.4322864477658701E+00    2.0903289454320224E+00    1.6478849317931054E+01
Ga    6.4243736581503743E+00    3.7738489928862253E+00    1.4795996883568592E+00
N    4.9496010718222943E+00    4.6370095057804690E+00    2.5546717121315718E+00
Ga    4.7027094426496641E+00    2.7814440794307931E+00    3.2742881457124127E+00
N    4.8146581343970150E+00    2.8363653295251843E+00    5.2396745621707419E+00
Ga    4.8145905534777924E+00    4.7006831462924419E+00    5.8167759375739889E+00
N    4.8177789310600341E+00    4.6963301485678297E+00    7.8042435336882745E+00
Ga    4.8266978825048774E+00    2.8360804716477057E+00    8.4317253604327185E+00
N    4.8327426654624954E+00    2.8407367677232531E+00    1.0426248257732741E+01
Ga    4.8081921776882028E+00    4.7006005907090262E+00    1.1066381396815487E+01
N    4.7932571081011304E+00    4.7117492155436800E+00    1.3060602796292264E+01
Ga    4.8344693079573497E+00    2.8435983646518168E+00    1.3621176583340928E+01
N    4.8039691071845967E+00    2.8288991344215826E+00    1.5582224368237197E+01
Ga    4.9891727713968690E+00    4.6001119422512531E+00    1.6480527066326189E+01
N    6.4334308824778041E+00    3.7610169530588577E+00    1.7603371071754257E+01
N    3.2298296885999163E+00    7.6169857151974378E+00    2.5566711111724549E+00
Ga    3.3104941791101892E+00    5.6765224862730728E+00    2.9995121777304550E+00
N    3.2363161871202255E+00    5.6340064730363411E+00    5.0639477727946156E+00
Ga    3.2180246469747344E+00    7.4670047618583055E+00    5.8175005691723092E+00
N    3.2155326880170727E+00    7.4719476738451824E+00    7.8046997304845851E+00
Ga    3.2135006198449880E+00    5.6204210876096692E+00    8.4379668081775954E+00
N    3.2152898122927565E+00    5.6214396332036127E+00    1.0412949442423390E+01
Ga    3.2137403715534347E+00    7.4621644966956984E+00    1.1065153490394314E+01
N    3.2160748151777852E+00    7.4434074390530975E+00    1.3058314911133765E+01
Ga    3.2190435070418588E+00    5.6250201752763820E+00    1.3863421172897816E+01
N    3.2193044985437593E+00    5.6249222425256233E+00    1.6067472408569184E+01
Ga    3.2174585223092329E+00    7.6703162122441571E+00    1.6487005444981715E+01
Ga    3.2191039940072739E+00    9.3249303888217003E+00    1.4838345735587006E+00
N    1.7087741609629412E+00    1.0198214931561022E+01    2.5204690141854762E+00
Ga    1.5001553863157726E+00    8.3324557365753353E+00    3.2776784295343671E+00
N    1.6036129863172661E+00    8.4002144115439137E+00    5.2423003465049787E+00
Ga    1.5728284933122731E+00    1.0271858393064557E+01    5.7934618580238126E+00
N    1.5953440224863229E+00    1.0267100190863035E+01    7.7920407684738464E+00
Ga    1.6082296209459261E+00    8.4099228099589567E+00    8.4300285544060980E+00
N    1.6150636942987553E+00    8.4130504912591846E+00    1.0424436596711720E+01
Ga    1.5882101413848033E+00    1.0270549655266556E+01    1.1071021072485140E+01
N    1.5748305015802484E+00    1.0282466832009170E+01    1.3062685853058452E+01
Ga    1.6200791810118840E+00    8.4143567508530737E+00    1.3621266201393553E+01
N    1.5938689307801879E+00    8.3974384280956720E+00    1.5582502925629926E+01
Ga    1.7691334738428441E+00    1.0172713142579768E+01    1.6484864684142664E+01
N    3.2150571949622333E+00    9.3371681923608811E+00    1.7628823507778836E+01
N    9.6885233315611305E+00    1.9331614284465575E+00    2.6432901578204278E+00
Ga    9.6414415303970031E+00    1.6113257462424671E-01    3.2854299071042234E+00
N    9.6410654854711559E+00    5.4569430411729368E-02    5.2522969030685278E+00
Ga    9.6174071436932831E+00    1.8917707159997925E+00    5.9247258554488509E+00
N    9.6375778348975807E+00    1.9029072000440965E+00    7.8818527984845606E+00
Ga    9.6419283455183873E+00    3.1892488632298641E-02    8.4531188943658542E+00
N    9.6459047503071336E+00    3.5843527936219845E-02    1.0440064776760527E+01
Ga    9.6478500630788879E+00    1.9085601802672527E+00    1.1027037372776148E+01
N    9.6496035698549676E+00    1.9095033859366504E+00    1.2999088031557795E+01
Ga    9.6476026782954314E+00    3.8324806025925438E-02    1.3621083546697049E+01
N    9.6493096283390383E+00    7.0561200790210887E-02    1.5581556949493541E+01
Ga    9.6495374399998237E+00    1.9074603533353995E+00    1.5863073896469285E+01
N    7.9324165339117894E+00    4.6255148326127840E+00    2.5293904717125564E+00
Ga    8.1300725416963449E+00    2.7773970608657517E+00    3.2852734859831134E+00
N    8.0380702303860847E+00    2.8295363965893849E+00    5.2518500181073149E+00
Ga    8.0702246815788516E+00    4.7023278825412866E+00    5.8087729906968164E+00
N    8.0523458183590311E+00    4.6953540924998443E+00    7.8029600809993287E+00
Ga    8.0192196775163911E+00    2.8418811628042109E+00    8.4530198994418697E+00
N    8.0247112846924278E+00    2.8433522630215817E+00    1.0440752535279001E+01
Ga    8.0542461416327260E+00    4.7031984844309331E+00    1.1075299940690632E+01
N    8.0717086938262987E+00    4.7125391794914586E+00    1.3066594910323662E+01
Ga    8.0289589244343738E+00    2.8430812806261287E+00    1.3620909074879519E+01
N    8.0603116065686784E+00    2.8272765283795107E+00    1.5582228935705507E+01
Ga    7.8773840801590032E+00    4.6008235957905503E+00    1.6478807912245557E+01
N    6.4290243939066247E+00    7.4776565505903365E+00    2.6275902205929480E+00
Ga    6.4516629610052085E+00    5.7328521094324278E+00    3.3024985277084342E+00
N    6.4410512085224996E+00    5.6236287263620834E+00    5.2655678219783244E+00
Ga    6.4352449454545990E+00    7.4806496425286317E+00    5.8855367945728130E+00
N    6.4321227473236871E+00    7.4788206317747683E+00    7.8564977376158600E+00
Ga    6.4343918528042918E+00    5.6104073413299815E+00    8.4437403875289387E+00
N    6.4324506589301933E+00    5.6089173350554935E+00    1.0433719726763258E+01
Ga    6.4328396891154860E+00    7.4793735509968213E+00    1.1026827353117463E+01
N    6.4322848812586217E+00    7.4789982191909345E+00    1.2995970151884304E+01
Ga    6.4319436500285310E+00    5.6109898084618299E+00    1.3620826036613327E+01
N    6.4312244184174272E+00    5.6436325034975141E+00    1.5581494518165929E+01
Ga    6.4318099651175036E+00    7.4813806949966120E+00    1.5864049453053925E+01
N    4.7117527930208309E+00    1.0206964057518965E+01    2.5295839221861720E+00
Ga    4.9305647491146063E+00    8.3707419821875089E+00    3.3034361293923404E+00
N    4.8299460071107925E+00    8.4148572537708635E+00    5.2663612068250645E+00
Ga    4.8462957797026940E+00    1.0286080091397977E+01    5.8110660371555136E+00
N    4.8312085216468645E+00    1.0274106270027680E+01    7.8045913208613724E+00
Ga    4.8153889068031130E+00    8.4151411588178835E+00    8.4439386747131042E+00
N    4.8130860612696988E+00    8.4142949358479733E+00    1.0433190892739921E+01
Ga    4.8391162538509986E+00    1.0271961692979509E+01    1.1074214566714927E+01
N    4.8558300611701588E+00    1.0282347268058745E+01    1.3064449123291316E+01
Ga    4.8133726546540982E+00    8.4134240270479843E+00    1.3620841237544763E+01
N    4.8386576100042893E+00    8.3987043007893742E+00    1.5581664049850014E+01
Ga    4.6602466952674595E+00    1.0169736210542091E+01    1.6485826169986058E+01
O   -3.7989917296778769E-01    3.3782025997195362E+00   -5.2839059596161830E-01
H    1.6300986555078225E+00    4.7105970256365870E+00    1.5063573190589206E+00
C    5.5795762247339764E-01    2.3674186034336673E+00   -9.6814889762003775E-01
H    1.5550783936474701E+00    2.5148816558084701E+00   -5.2403678105291751E-01
H    2.2271644108228805E-01    1.3478674458461577E+00   -7.2337950021901620E-01
H    6.3546475198660068E-01    2.4583048038195749E+00   -2.0598762595654025E+00
     &END COORD
     &KIND C
       BASIS_SET DZVP-MOLOPT-SR-GTH-q4
       POTENTIAL GTH-PBE-q4
       &POTENTIAL
 2 2
  0.3384712400000000E+00 2 -0.8803673979999999E+01  0.1339210850000000E+01
 2
  0.3025757500000000E+00 1  0.9622486650000001E+01
  0.2915069400000000E+00 0
         # Potential name:  GTH-PBE-Q4  for symbol:  C
         # Potential read from the potential filename: GTH_POTENTIALS
       &END POTENTIAL
     &END KIND
     &KIND O
       BASIS_SET DZVP-MOLOPT-SR-GTH-q6
       POTENTIAL GTH-PBE-q6
       &POTENTIAL
 2 4
  0.2445543000000000E+00 2 -0.1666721480000000E+02  0.2487311320000000E+01
 2
  0.2209559200000000E+00 1  0.1833745811000000E+02
  0.2113324700000000E+00 0
         # Potential name:  GTH-PBE-Q6  for symbol:  O
         # Potential read from the potential filename: GTH_POTENTIALS
       &END POTENTIAL
     &END KIND
     &KIND H
       BASIS_SET DZVP-MOLOPT-SR-GTH-q1
       POTENTIAL GTH-PBE-q1
       &POTENTIAL
 1
  0.2000000000000000E+00 2 -0.4178900440000000E+01  0.7244633100000000E+00
 0
         # Potential name:  GTH-PBE-Q1  for symbol:  H
         # Potential read from the potential filename: GTH_POTENTIALS
       &END POTENTIAL
     &END KIND
     &KIND N
       BASIS_SET DZVP-MOLOPT-SR-GTH
       POTENTIAL GTH-PBE-q5
       &POTENTIAL
 2 3
  0.2837905100000000E+00 2 -0.1241522559000000E+02  0.1868095920000000E+01
 2
  0.2554050000000000E+00 1  0.1363026257000000E+02
  0.2454945300000000E+00 0
         # Potential name:  GTH-PBE-Q5  for symbol:  N
         # Potential read from the potential filename: GTH_POTENTIALS
       &END POTENTIAL
     &END KIND
     &KIND Ga
       BASIS_SET DZVP-MOLOPT-SR-GTH
       POTENTIAL GTH-PBE-q13
       &POTENTIAL
 2 1 10
  0.4900000000000000E+00 0
 3
  0.4167772300000000E+00 3  0.1047568975000000E+02 -0.4921768140000000E+01  0.8707055900000000E+00
  0.7770178090000000E+01 -0.2248152160000000E+01
  0.1784415450000000E+01
  0.5696265200000000E+00 2  0.1777985340000000E+01  0.1958597600000000E+00
 -0.2317443900000000E+00
  0.2381265000000000E+00 1 -0.1624868022000000E+02
         # Potential name:  GTH-PBE-Q13  for symbol:  GA
         # Potential read from the potential filename: GTH_POTENTIALS
       &END POTENTIAL
     &END KIND
     &TOPOLOGY
       NUMBER_OF_ATOMS  206
       MULTIPLE_UNIT_CELL  1 1 1
     &END TOPOLOGY
   &END SUBSYS
 &END FORCE_EVAL
