 # Version information for this restart file 
 # current date 2019-06-24 16:13:34.807
 # current working dir /scratch/rzk/rzk/GaN-carbene/443-adatoms-both-2x2/03-DissMethanol/03-O-GaTop-H-NTop
 # Program compiled at                              Sun Apr  7 00:48:11 EDT 2019
 # Program compiled on                          beluga2.int.ets1.calculquebec.ca
 # Program compiled for                        Beluga-Linux-x86-64-intel-openmpi
 # Source code revision number                                         svn:18619
 &GLOBAL
   PRINT_LEVEL  MEDIUM
   PROJECT_NAME TEST
   RUN_TYPE  GEO_OPT
 &END GLOBAL
 &MOTION
   &GEO_OPT
     MAX_ITER  500
     STEP_START_VAL  12
   &END GEO_OPT
 &END MOTION
 &FORCE_EVAL
   METHOD  QS
   STRESS_TENSOR  ANALYTICAL
   &DFT
     BASIS_SET_FILE_NAME BASIS_MOLOPT
     POTENTIAL_FILE_NAME GTH_POTENTIALS
     UKS  T
     SURFACE_DIPOLE_CORRECTION  T
     SURF_DIP_DIR  Z
     &SCF
       MAX_SCF  80
       EPS_SCF     5.0000000000000004E-06
       &OT  T
         PRECONDITIONER  FULL_ALL
       &END OT
       &OUTER_SCF  T
         OPTIMIZER  NONE
         EPS_SCF     5.0000000000000004E-06
         MAX_SCF  4
       &END OUTER_SCF
       &PRINT
         &RESTART  OFF
           BACKUP_COPIES  1
           &EACH
             JUST_ENERGY  0
             QS_SCF  0
             MD  20
           &END EACH
         &END RESTART
       &END PRINT
     &END SCF
     &QS
       EPS_DEFAULT     1.0000000000000000E-14
       METHOD  GPW
     &END QS
     &MGRID
       NGRIDS  5
       CUTOFF     1.2000000000000000E+03
     &END MGRID
     &XC
       DENSITY_CUTOFF     1.0000000000000000E-10
       GRADIENT_CUTOFF     1.0000000000000000E-10
       TAU_CUTOFF     1.0000000000000000E-10
       &XC_FUNCTIONAL  NO_SHORTCUT
         &PBE  T
         &END PBE
       &END XC_FUNCTIONAL
       &VDW_POTENTIAL
         POTENTIAL_TYPE  PAIR_POTENTIAL
         &PAIR_POTENTIAL
           R_CUTOFF     1.0000000000000004E+01
           TYPE  DFTD3
           PARAMETER_FILE_NAME dftd3.dat
           REFERENCE_FUNCTIONAL PBE
           EPS_CN     9.9999999999999995E-07
           CALCULATE_C9_TERM  T
           REFERENCE_C9_TERM  T
           LONG_RANGE_CORRECTION  F
           VERBOSE_OUTPUT  F
         &END PAIR_POTENTIAL
       &END VDW_POTENTIAL
     &END XC
   &END DFT
   &SUBSYS
     &CELL
       A     1.2864472766435110E+01    0.0000000000000000E+00    0.0000000000000000E+00
       B    -6.4322363581020028E+00    1.1140960178524473E+01    0.0000000000000000E+00
       C     0.0000000000000000E+00    0.0000000000000000E+00    3.2000000000000000E+01
       MULTIPLE_UNIT_CELL  1 1 1
       &CELL_REF
         A     1.2982353780853531E+01    0.0000000000000000E+00    0.0000000000000000E+00
         B    -6.4911768904267628E+00    1.1243048175136114E+01    0.0000000000000000E+00
         C     0.0000000000000000E+00    0.0000000000000000E+00    3.2000000000000000E+01
         MULTIPLE_UNIT_CELL  1 1 1
       &END CELL_REF
     &END CELL
     &COORD
N   -9.5863466694469560E-02    2.0292101760328416E+00    2.5223527473082017E+00
Ga   -2.5393492104956145E-02    5.9099719339052163E-02    2.8773943627469816E+00
N   -1.0946217123016383E-02    5.9982888488502348E-02    5.0173077284779879E+00
Ga    1.3298413827840945E-02    1.8865433024586784E+00    5.8122098038003136E+00
N   -1.9424378595452305E-03    1.9022214468234926E+00    7.7960493315299351E+00
Ga   -7.7291554662265692E-03    5.6390789271081987E-02    8.4462685899438359E+00
N   -1.0890590009721382E-02    5.6609409558381042E-02    1.0412157968278315E+01
Ga   -1.0202047163977442E-02    1.8974667155063065E+00    1.1065583452525123E+01
N   -1.0754290403052086E-02    1.8767972769629435E+00    1.3051826034781955E+01
Ga   -7.7876397072574105E-03    5.8729583020846986E-02    1.3870878961572659E+01
N   -9.6355726813760617E-03    5.7279497872825089E-02    1.6058102365549047E+01
Ga   -9.8703384764541359E-03    2.1099711248074109E+00    1.6482201701873240E+01
Ga   -6.9080854573351769E-01    3.3817508252173720E+00    1.2092958376683647E+00
N   -1.5443094384182883E+00    4.5699059072130357E+00    2.4873570984321249E+00
Ga   -1.7242668885820458E+00    2.7727739951217449E+00    3.4449625531124770E+00
N   -1.6261138368690717E+00    2.8395804840443621E+00    5.3462965071316217E+00
Ga   -1.6277122352462683E+00    4.7330000776275449E+00    5.8110502552657968E+00
N   -1.6230795098112931E+00    4.7125185445947064E+00    7.7945245294199301E+00
Ga   -1.6066977861430018E+00    2.8490115932632922E+00    8.4317027871730996E+00
N   -1.6074375062080275E+00    2.8489611205577607E+00    1.0419387427304024E+01
Ga   -1.6325896670419839E+00    4.7076592549191876E+00    1.1065631692230131E+01
N   -1.6500688140329478E+00    4.7169732997643772E+00    1.3052622251348909E+01
Ga   -1.6074136875301557E+00    2.8477946027069847E+00    1.3615791801909364E+01
N   -1.6334339918822174E+00    2.8307921363562123E+00    1.5570797528501744E+01
Ga   -1.4519559739742720E+00    4.6024792309188962E+00    1.6481997843689697E+01
N   -1.4590132352914639E-02    3.7732339968514323E+00    1.7629215615808196E+01
N   -3.2284168052194877E+00    7.5994153725187301E+00    2.5144923980450606E+00
Ga   -3.2330780798439709E+00    5.6169160326744496E+00    2.8618572917216096E+00
N   -3.2190202241814925E+00    5.6212662440765744E+00    5.0049512384988359E+00
Ga   -3.2216390773936205E+00    7.4557848606448331E+00    5.7886868629640853E+00
N   -3.2258934528151602E+00    7.4704953478257856E+00    7.7804224967117968E+00
Ga   -3.2249110077579379E+00    5.6292147928942384E+00    8.4453629652905402E+00
N   -3.2268876791105154E+00    5.6274353493120053E+00    1.0411306824165516E+01
Ga   -3.2248786077493916E+00    7.4676675227726248E+00    1.1065684598560290E+01
N   -3.2261174373830017E+00    7.4472222472915091E+00    1.3052439868362612E+01
Ga   -3.2253024002764832E+00    5.6271592721575612E+00    1.3870181681437083E+01
N   -3.2263830351787885E+00    5.6270453516179151E+00    1.6056049566311088E+01
Ga   -3.2267179413501306E+00    7.6730791225681969E+00    1.6480139763356654E+01
Ga   -3.2353652708826699E+00    9.3355675453903881E+00    1.4765921389996444E+00
N   -4.7380723135741230E+00    1.0210082018009560E+01    2.5126854884890140E+00
Ga   -4.9293277731958920E+00    8.3585941289464092E+00    3.2857330184170017E+00
N   -4.8322760135504108E+00    8.4122963795898666E+00    5.2448075342012892E+00
Ga   -4.8552956549587067E+00    1.0284309528662638E+01    5.7933685949235150E+00
N   -4.8446051021171979E+00    1.0275426444196535E+01    7.7838368657212387E+00
Ga   -4.8206179511325491E+00    8.4191667006151238E+00    8.4339105272150512E+00
N   -4.8216059198572232E+00    8.4199633202662287E+00    1.0419866487295851E+01
Ga   -4.8484694047709107E+00    1.0278961160560955E+01    1.1065746303835967E+01
N   -4.8666879175836026E+00    1.0287994519861886E+01    1.3051661451368943E+01
Ga   -4.8230306100698979E+00    8.4194546559980026E+00    1.3615942947619976E+01
N   -4.8505436681804905E+00    8.4056723425179136E+00    1.5571116790806469E+01
Ga   -4.6673935252007688E+00    1.0173280590632670E+01    1.6480206098237630E+01
N   -3.2264939415654097E+00    9.3355495883071118E+00    1.7627620751829852E+01
N    3.1769726223849388E+00    1.9225035601828380E+00    2.5749993221252718E+00
Ga    3.1929806366543132E+00    1.7991037721745143E-01    3.2623445987810933E+00
N    3.2036903340421055E+00    6.1187906359408885E-02    5.2259546123940872E+00
Ga    3.1880220394743017E+00    1.9230995910827182E+00    5.8432278197765699E+00
N    3.2010911107087394E+00    1.9162970440321163E+00    7.8196285195550743E+00
Ga    3.2058754237049651E+00    4.8350849742028357E-02    8.4233745620804914E+00
N    3.2052282448468672E+00    4.5191336963215215E-02    1.0413158694278041E+01
Ga    3.2049596840490064E+00    1.9125783682239395E+00    1.1021948694051501E+01
N    3.2050837313104008E+00    1.9128756773236193E+00    1.2986707487944139E+01
Ga    3.2056607217790001E+00    4.3102728136064632E-02    1.3614575971353974E+01
N    3.2054417262043580E+00    7.3858966723322539E-02    1.5569092109537445E+01
Ga    3.2047757274293853E+00    1.9128969172295278E+00    1.5846673677019631E+01
N    1.6414268958795877E+00    4.7164133460480020E+00    2.5393510418083634E+00
Ga    1.6319224559926295E+00    2.8095954066250508E+00    3.1781952309331816E+00
N    1.5884760820771699E+00    2.8514354225721461E+00    5.1716783459954270E+00
Ga    1.6197101403449294E+00    4.7093361076732245E+00    5.7791253233849993E+00
N    1.6092409130315330E+00    4.7052878384923869E+00    7.7725094235622540E+00
Ga    1.5928707985734010E+00    2.8512072960663342E+00    8.4358740831497485E+00
N    1.5879597963867362E+00    2.8505323120241046E+00    1.0420551302910090E+01
Ga    1.6142547222960841E+00    4.7085807200548695E+00    1.1068284838158577E+01
N    1.6299656423209701E+00    4.7176762028984927E+00    1.3053448327281199E+01
Ga    1.5856338858391117E+00    2.8486433051363815E+00    1.3614615323129692E+01
N    1.6130859228463292E+00    2.8323559171563262E+00    1.5568889007527888E+01
Ga    1.4279417878012552E+00    4.6000483008750308E+00    1.6481741101712537E+01
N   -1.0524509749728021E-02    7.4595202964395337E+00    2.5821662780933692E+00
Ga   -5.7500885327585677E-03    5.6760605394060102E+00    3.1704407426360190E+00
N   -4.2750813273101191E-03    5.6109717333221480E+00    5.1646794834182357E+00
Ga   -8.2569061259366392E-03    7.4614314966514277E+00    5.8401647991926735E+00
N   -9.2347070773914942E-03    7.4773604483283389E+00    7.8171550147941762E+00
Ga   -4.0186005563803045E-03    5.6184568987933741E+00    8.4361916160807322E+00
N   -8.0641806746385054E-03    5.6146545252933251E+00    1.0420248933791955E+01
Ga   -1.2078004877491685E-02    7.4842760751580411E+00    1.1021291325017787E+01
N   -1.1345471790950204E-02    7.4842824252192459E+00    1.2984954775064407E+01
Ga   -1.0076856038526731E-02    5.6146901206440072E+00    1.3615058124360763E+01
N   -8.8058128206809430E-03    5.6448306583492140E+00    1.5570047348274491E+01
Ga   -1.4616317782687158E-02    7.4815752293477296E+00    1.5854634211433828E+01
N   -1.7317840872095007E+00    1.0203708016900475E+01    2.5073268831910402E+00
Ga   -1.5155040766966394E+00    8.3405418045160253E+00    3.2627896637718563E+00
N   -1.6137786801760015E+00    8.4068533201573512E+00    5.2264452716140628E+00
Ga   -1.5974895496205337E+00    1.0279829815473999E+01    5.7788897929582976E+00
N   -1.6118766666474922E+00    1.0272672782817605E+01    7.7749741590725714E+00
Ga   -1.6252344122436337E+00    8.4152881517566076E+00    8.4214616684704158E+00
N   -1.6290082344695982E+00    8.4180061121546164E+00    1.0411221841165119E+01
Ga   -1.6056233207435084E+00    1.0276523788224672E+01    1.1061946346340081E+01
N   -1.5874576839863639E+00    1.0287008204150375E+01    1.3049167034885931E+01
Ga   -1.6294774544599240E+00    8.4191942320918720E+00    1.3615467800169698E+01
N   -1.6028437004589662E+00    8.4056558233134009E+00    1.5570864807548533E+01
Ga   -1.7865793329769621E+00    1.0172992776388323E+01    1.6480214393458464E+01
N    6.4148029932190198E+00    2.0365548568156182E+00    2.5157034697337863E+00
Ga    6.4169903950699707E+00    5.2753620876831442E-02    2.8414937086332719E+00
N    6.4198478319806656E+00    5.3501154532889117E-02    5.0011069888201307E+00
Ga    6.4124550553703106E+00    1.8804771964677092E+00    5.7911450031132743E+00
N    6.4185672511162917E+00    1.9007670299815527E+00    7.7836876017509686E+00
Ga    6.4172623411340552E+00    5.3824580387988048E-02    8.4356348640529131E+00
N    6.4195427154880633E+00    5.5582982313433740E-02    1.0405021643077436E+01
Ga    6.4186901003964891E+00    1.8936797230724742E+00    1.1068095157682235E+01
N    6.4209404536522197E+00    1.8752514269335598E+00    1.3053374126771457E+01
Ga    6.4180720881412698E+00    5.6996855894158614E-02    1.3869455491892898E+01
N    6.4198316258314971E+00    5.6753012494689947E-02    1.6057111162439242E+01
Ga    6.4200974470911971E+00    2.1071605356483896E+00    1.6480276634772338E+01
Ga    6.4232738796592486E+00    3.7803141330642127E+00    1.4941120032943149E+00
N    4.9477947105445281E+00    4.6442521715472713E+00    2.5453520597337693E+00
Ga    4.6922092231649950E+00    2.7858349905142861E+00    3.2716095531993901E+00
N    4.8074816521475494E+00    2.8425211075813190E+00    5.2337618810872000E+00
Ga    4.8077520818261021E+00    4.7068911911072000E+00    5.8153237105383466E+00
N    4.8101020897784155E+00    4.7023507426886795E+00    7.7984565813395301E+00
Ga    4.8194194768211238E+00    2.8426442494316913E+00    8.4325787598366553E+00
N    4.8230296510853377E+00    2.8471249408687203E+00    1.0419765735508555E+01
Ga    4.7988054915802758E+00    4.7069579493646145E+00    1.1067564328075212E+01
N    4.7818144524789643E+00    4.7171443986745327E+00    1.3053401975883968E+01
Ga    4.8243097231347578E+00    2.8479362768452012E+00    1.3615269319421222E+01
N    4.7973036288452970E+00    2.8325980168339506E+00    1.5569592368141922E+01
Ga    4.9796312535312648E+00    4.6014417507563614E+00    1.6480249700457360E+01
N    6.4253550602591680E+00    3.7727330034825237E+00    1.7627485721024456E+01
N    3.2280248913033556E+00    7.6245151027690783E+00    2.5486952870179356E+00
Ga    3.3048371185271774E+00    5.6816818735499348E+00    2.9868907993216545E+00
N    3.2332704683204008E+00    5.6413040154637351E+00    5.0521805557045880E+00
Ga    3.2123843134982621E+00    7.4718846249591593E+00    5.8169175076576778E+00
N    3.2081064531121148E+00    7.4775973140505334E+00    7.7995689482792505E+00
Ga    3.2074530184556198E+00    5.6272735246107892E+00    8.4409457196811264E+00
N    3.2063768807517659E+00    5.6280991647012959E+00    1.0408617100666769E+01
Ga    3.2051078482277964E+00    7.4673674046715162E+00    1.1068567031858194E+01
N    3.2053242764128638E+00    7.4473087456903668E+00    1.3056976887457182E+01
Ga    3.2054857709390805E+00    5.6247885113759910E+00    1.3870686468066488E+01
N    3.2049736977504475E+00    5.6258555577319695E+00    1.6058188315848838E+01
Ga    3.2047043491300427E+00    7.6674199424152247E+00    1.6470299789229809E+01
Ga    3.2180206455479978E+00    9.3340862683308359E+00    1.4950558945284826E+00
N    1.7039258056421298E+00    1.0202524006945035E+01    2.5166657671150592E+00
Ga    1.4943489034929673E+00    8.3385968149788550E+00    3.2763039974160426E+00
N    1.5991927428000114E+00    8.4064105121284136E+00    5.2378133687047423E+00
Ga    1.5673317610441777E+00    1.0277206528729593E+01    5.7930679097694640E+00
N    1.5860201428963445E+00    1.0272794711132814E+01    7.7851243063680258E+00
Ga    1.6017585164649129E+00    8.4160906337612484E+00    8.4325133532040777E+00
N    1.6066713175169285E+00    8.4184465261440167E+00    1.0419955891028486E+01
Ga    1.5782455372260060E+00    1.0276931567247038E+01    1.1069045813636111E+01
N    1.5636731674968731E+00    1.0287815594996591E+01    1.3056754267271753E+01
Ga    1.6065269889307541E+00    8.4178380864577136E+00    1.3615340637145980E+01
N    1.5765769821175155E+00    8.4005299439156733E+00    1.5573507337617022E+01
Ga    1.7560439601502751E+00    1.0176658732743002E+01    1.6469941917751623E+01
N    3.2045783133581871E+00    9.3402999052598634E+00    1.7588277270152716E+01
N    9.6665914777657207E+00    1.9313466952559226E+00    2.6241904350759810E+00
Ga    9.6342095482562033E+00    1.7017353978670979E-01    3.2855378344236779E+00
N    9.6347699332343311E+00    5.9887396342731991E-02    5.2468835899640371E+00
Ga    9.6172232903800303E+00    1.9019680044185221E+00    5.9102542447763744E+00
N    9.6313957689380736E+00    1.9094366763483563E+00    7.8662537860435569E+00
Ga    9.6336130034997023E+00    3.9741323043144594E-02    8.4471632494479323E+00
N    9.6360639058263420E+00    4.1331990569093806E-02    1.0429687583365045E+01
Ga    9.6374837634566273E+00    1.9140984498632867E+00    1.1022311909910467E+01
N    9.6375182747167010E+00    1.9134778737671285E+00    1.2986273770942974E+01
Ga    9.6368002002945747E+00    4.5337780278117697E-02    1.3615603403545503E+01
N    9.6368859935313473E+00    7.9420923806040267E-02    1.5573797743856669E+01
Ga    9.6375844228691179E+00    1.9170194210048250E+00    1.5854987641863460E+01
N    7.9306657183951197E+00    4.6324917595723916E+00    2.5237281274419234E+00
Ga    8.1255462493814807E+00    2.7810057562317776E+00    3.2859331082660299E+00
N    8.0295360890349432E+00    2.8353248246528211E+00    5.2463460818032850E+00
Ga    8.0623281259535897E+00    4.7075178845450738E+00    5.8038645974171885E+00
N    8.0438751653152014E+00    4.7013630870228971E+00    7.7921624252467216E+00
Ga    8.0127855073212544E+00    2.8462457536404795E+00    8.4451679425176476E+00
N    8.0151803917543454E+00    2.8485854010934490E+00    1.0427489861358021E+01
Ga    8.0459089897116591E+00    4.7077842473911682E+00    1.1071647793651394E+01
N    8.0624853543176247E+00    4.7169865439928440E+00    1.3056549495916501E+01
Ga    8.0182433983379280E+00    2.8469949816988565E+00    1.3616361641571867E+01
N    8.0432397970231282E+00    2.8307459957178729E+00    1.5571573480733091E+01
Ga    7.8652007063827014E+00    4.6038109364960809E+00    1.6480376880042055E+01
N    6.4249089816245233E+00    7.4848739434421692E+00    2.6148527568020299E+00
Ga    6.4474188345059096E+00    5.7436064586668714E+00    3.2996498004263324E+00
N    6.4339730096337009E+00    5.6288762825834118E+00    5.2576884636932135E+00
Ga    6.4287027473573284E+00    7.4861003148430312E+00    5.8837217714972567E+00
N    6.4238033466971913E+00    7.4844205853652870E+00    7.8490709274259238E+00
Ga    6.4272570321089697E+00    5.6158309133814983E+00    8.4423184079496814E+00
N    6.4236455144899329E+00    5.6147340064787148E+00    1.0426104196830822E+01
Ga    6.4242552364987411E+00    7.4852495806953172E+00    1.1024275173381932E+01
N    6.4220642416650255E+00    7.4846393035455643E+00    1.2987798051822260E+01
Ga    6.4216418180459165E+00    5.6147476551257132E+00    1.3616971416509966E+01
N    6.4192043750647754E+00    5.6446776165071695E+00    1.5571819227444069E+01
Ga    6.4253965892586082E+00    7.4821612827592192E+00    1.5854969302701184E+01
N    4.7074673902912822E+00    1.0214391940890717E+01    2.5256861502264587E+00
Ga    4.9285425794545734E+00    8.3744408935435182E+00    3.3017575463831799E+00
N    4.8232596952708020E+00    8.4197859553257572E+00    5.2594409314599737E+00
Ga    4.8382261504730995E+00    1.0290160564613791E+01    5.8081280683682532E+00
N    4.8226415963954432E+00    1.0278660769211442E+01    7.7955596498426143E+00
Ga    4.8070824931315190E+00    8.4214738306539623E+00    8.4436922364012208E+00
N    4.8039425083591194E+00    8.4204523785311789E+00    1.0427844392867406E+01
Ga    4.8296621634302550E+00    1.0278882057692922E+01    1.1072952175104954E+01
N    4.8459875976359719E+00    1.0288632677321401E+01    1.3059462966445500E+01
Ga    4.8035336039830705E+00    8.4185231603193174E+00    1.3616842372398944E+01
N    4.8337389988497446E+00    8.4004292896715054E+00    1.5574880102393557E+01
Ga    4.6536971408715146E+00    1.0177072057755902E+01    1.6470406671852551E+01
O    6.7845816354165256E-02    3.4735034233342250E+00   -4.2673962972665841E-01
H    1.6135812176351347E+00    4.6899679370963865E+00    1.5097801629477696E+00
C    7.4383020742491335E-01    2.2512788382533957E+00   -8.2785271658815229E-01
H    1.8133283863230187E+00    2.2847062038024970E+00   -5.6418570408473045E-01
H    3.1223568498226495E-01    1.3549539188797903E+00   -3.5243285847066153E-01
H    6.3259298176960099E-01    2.1590343575621693E+00   -1.9160666531544885E+00
     &END COORD
     &KIND C
       BASIS_SET DZVP-MOLOPT-SR-GTH-q4
       POTENTIAL GTH-PBE-q4
       &POTENTIAL
 2 2
  0.3384712400000000E+00 2 -0.8803673979999999E+01  0.1339210850000000E+01
 2
  0.3025757500000000E+00 1  0.9622486650000001E+01
  0.2915069400000000E+00 0
         # Potential name:  GTH-PBE-Q4  for symbol:  C
         # Potential read from the potential filename: GTH_POTENTIALS
       &END POTENTIAL
     &END KIND
     &KIND O
       BASIS_SET DZVP-MOLOPT-SR-GTH-q6
       POTENTIAL GTH-PBE-q6
       &POTENTIAL
 2 4
  0.2445543000000000E+00 2 -0.1666721480000000E+02  0.2487311320000000E+01
 2
  0.2209559200000000E+00 1  0.1833745811000000E+02
  0.2113324700000000E+00 0
         # Potential name:  GTH-PBE-Q6  for symbol:  O
         # Potential read from the potential filename: GTH_POTENTIALS
       &END POTENTIAL
     &END KIND
     &KIND H
       BASIS_SET DZVP-MOLOPT-SR-GTH-q1
       POTENTIAL GTH-PBE-q1
       &POTENTIAL
 1
  0.2000000000000000E+00 2 -0.4178900440000000E+01  0.7244633100000000E+00
 0
         # Potential name:  GTH-PBE-Q1  for symbol:  H
         # Potential read from the potential filename: GTH_POTENTIALS
       &END POTENTIAL
     &END KIND
     &KIND N
       BASIS_SET DZVP-MOLOPT-SR-GTH
       POTENTIAL GTH-PBE-q5
       &POTENTIAL
 2 3
  0.2837905100000000E+00 2 -0.1241522559000000E+02  0.1868095920000000E+01
 2
  0.2554050000000000E+00 1  0.1363026257000000E+02
  0.2454945300000000E+00 0
         # Potential name:  GTH-PBE-Q5  for symbol:  N
         # Potential read from the potential filename: GTH_POTENTIALS
       &END POTENTIAL
     &END KIND
     &KIND Ga
       BASIS_SET DZVP-MOLOPT-SR-GTH
       POTENTIAL GTH-PBE-q13
       &POTENTIAL
 2 1 10
  0.4900000000000000E+00 0
 3
  0.4167772300000000E+00 3  0.1047568975000000E+02 -0.4921768140000000E+01  0.8707055900000000E+00
  0.7770178090000000E+01 -0.2248152160000000E+01
  0.1784415450000000E+01
  0.5696265200000000E+00 2  0.1777985340000000E+01  0.1958597600000000E+00
 -0.2317443900000000E+00
  0.2381265000000000E+00 1 -0.1624868022000000E+02
         # Potential name:  GTH-PBE-Q13  for symbol:  GA
         # Potential read from the potential filename: GTH_POTENTIALS
       &END POTENTIAL
     &END KIND
     &TOPOLOGY
       NUMBER_OF_ATOMS  206
       MULTIPLE_UNIT_CELL  1 1 1
     &END TOPOLOGY
   &END SUBSYS
 &END FORCE_EVAL
