 # Version information for this restart file 
 # current date 2019-06-24 17:41:16.408
 # current working dir /scratch/rzk/rzk/GaN-carbene/443-adatoms-both-2x2/03-DissMethanol/03-O-GaTop-H-NTop
 # Program compiled at                              Sun Apr  7 00:48:11 EDT 2019
 # Program compiled on                          beluga2.int.ets1.calculquebec.ca
 # Program compiled for                        Beluga-Linux-x86-64-intel-openmpi
 # Source code revision number                                         svn:18619
 &GLOBAL
   PRINT_LEVEL  MEDIUM
   PROJECT_NAME TEST
   RUN_TYPE  GEO_OPT
 &END GLOBAL
 &MOTION
   &GEO_OPT
     MAX_ITER  500
     STEP_START_VAL  33
   &END GEO_OPT
 &END MOTION
 &FORCE_EVAL
   METHOD  QS
   STRESS_TENSOR  ANALYTICAL
   &DFT
     BASIS_SET_FILE_NAME BASIS_MOLOPT
     POTENTIAL_FILE_NAME GTH_POTENTIALS
     UKS  T
     SURFACE_DIPOLE_CORRECTION  T
     SURF_DIP_DIR  Z
     &SCF
       MAX_SCF  80
       EPS_SCF     5.0000000000000004E-06
       &OT  T
         PRECONDITIONER  FULL_ALL
       &END OT
       &OUTER_SCF  T
         OPTIMIZER  NONE
         EPS_SCF     5.0000000000000004E-06
         MAX_SCF  4
       &END OUTER_SCF
       &PRINT
         &RESTART  OFF
           BACKUP_COPIES  1
           &EACH
             JUST_ENERGY  0
             QS_SCF  0
             MD  20
           &END EACH
         &END RESTART
       &END PRINT
     &END SCF
     &QS
       EPS_DEFAULT     1.0000000000000000E-14
       METHOD  GPW
     &END QS
     &MGRID
       NGRIDS  5
       CUTOFF     1.2000000000000000E+03
     &END MGRID
     &XC
       DENSITY_CUTOFF     1.0000000000000000E-10
       GRADIENT_CUTOFF     1.0000000000000000E-10
       TAU_CUTOFF     1.0000000000000000E-10
       &XC_FUNCTIONAL  NO_SHORTCUT
         &PBE  T
         &END PBE
       &END XC_FUNCTIONAL
       &VDW_POTENTIAL
         POTENTIAL_TYPE  PAIR_POTENTIAL
         &PAIR_POTENTIAL
           R_CUTOFF     1.0000000000000004E+01
           TYPE  DFTD3
           PARAMETER_FILE_NAME dftd3.dat
           REFERENCE_FUNCTIONAL PBE
           EPS_CN     9.9999999999999995E-07
           CALCULATE_C9_TERM  T
           REFERENCE_C9_TERM  T
           LONG_RANGE_CORRECTION  F
           VERBOSE_OUTPUT  F
         &END PAIR_POTENTIAL
       &END VDW_POTENTIAL
     &END XC
   &END DFT
   &SUBSYS
     &CELL
       A     1.2864472766435110E+01    0.0000000000000000E+00    0.0000000000000000E+00
       B    -6.4322363581020028E+00    1.1140960178524473E+01    0.0000000000000000E+00
       C     0.0000000000000000E+00    0.0000000000000000E+00    3.2000000000000000E+01
       MULTIPLE_UNIT_CELL  1 1 1
       &CELL_REF
         A     1.2982353780853531E+01    0.0000000000000000E+00    0.0000000000000000E+00
         B    -6.4911768904267628E+00    1.1243048175136114E+01    0.0000000000000000E+00
         C     0.0000000000000000E+00    0.0000000000000000E+00    3.2000000000000000E+01
         MULTIPLE_UNIT_CELL  1 1 1
       &END CELL_REF
     &END CELL
     &COORD
N   -9.6068128320364501E-02    2.0235304730059145E+00    2.5249567293998210E+00
Ga   -2.1848260452396767E-02    5.4457461966076995E-02    2.8765892887046283E+00
N   -5.2010729604522214E-03    5.6817988631318310E-02    5.0218057615419163E+00
Ga    2.6109019491874604E-02    1.8812951490647201E+00    5.8167271462580867E+00
N    6.3828613733629275E-03    1.8992610473041243E+00    7.8017477794841135E+00
Ga   -1.6874505614777040E-03    5.3768085837343806E-02    8.4512698393820536E+00
N   -5.4400879806114711E-03    5.5115907427900235E-02    1.0418055300870869E+01
Ga   -4.7114605740487840E-03    1.8962920833143668E+00    1.1069824359951653E+01
N   -5.7543931080485241E-03    1.8755594575677439E+00    1.3058556512039020E+01
Ga   -4.5963412011312561E-03    5.5388368103877442E-02    1.3875064467335555E+01
N   -8.2868125714782599E-03    5.5154907429211447E-02    1.6063050611136077E+01
Ga   -9.0790289888736820E-03    2.1011768543119032E+00    1.6479517250905886E+01
Ga   -8.2783383798964094E-01    3.2924996894517222E+00    1.1977762751285339E+00
N   -1.5545235025234998E+00    4.5548754896526829E+00    2.4929509758873807E+00
Ga   -1.7140417862348483E+00    2.7723686001370909E+00    3.4837095800653364E+00
N   -1.6213101867754418E+00    2.8347093990152152E+00    5.3737663106247240E+00
Ga   -1.6215771356746012E+00    4.7364167585999457E+00    5.8149473268779994E+00
N   -1.6171603618637860E+00    4.7123311266597971E+00    7.7998691649180492E+00
Ga   -1.5996662560741135E+00    2.8474463931480449E+00    8.4337254210313173E+00
N   -1.6012740414468978E+00    2.8476263183666295E+00    1.0423442062639335E+01
Ga   -1.6269798996942877E+00    4.7059023963520961E+00    1.1069459183274571E+01
N   -1.6455026045963974E+00    4.7162534635584770E+00    1.3058045388534659E+01
Ga   -1.6031200042208431E+00    2.8472465593774352E+00    1.3619178674383981E+01
N   -1.6328554252086880E+00    2.8335745656855726E+00    1.5575967031904527E+01
Ga   -1.4498197199594451E+00    4.6027949221167654E+00    1.6480811119590562E+01
N   -4.9158118737849940E-03    3.7684824737919937E+00    1.7612062953000244E+01
N   -3.2248730922036746E+00    7.5930330623856523E+00    2.5180591044902036E+00
Ga   -3.2323349026603032E+00    5.6092951582974075E+00    2.8616170658523030E+00
N   -3.2146247573413884E+00    5.6189338632728854E+00    5.0109090299041208E+00
Ga   -3.2175673525132256E+00    7.4525677039749807E+00    5.7926628455595219E+00
N   -3.2211229548593883E+00    7.4688846869403074E+00    7.7855906413901588E+00
Ga   -3.2193981682495649E+00    5.6276473039561346E+00    8.4500672821430545E+00
N   -3.2216183280508761E+00    5.6257162622418413E+00    1.0417097503756498E+01
Ga   -3.2191862959966824E+00    7.4664744848664473E+00    1.1068907516277717E+01
N   -3.2214837602791997E+00    7.4463450162839457E+00    1.3057386003039481E+01
Ga   -3.2215240038146056E+00    5.6266914892982092E+00    1.3873623424719515E+01
N   -3.2214175212908560E+00    5.6258130429902709E+00    1.6064584898471338E+01
Ga   -3.2239163281740457E+00    7.6719598274534544E+00    1.6483118772439727E+01
Ga   -3.2303533799781232E+00    9.3315641461454923E+00    1.4815306999646720E+00
N   -4.7336835578317755E+00    1.0205575870574810E+01    2.5180021541651474E+00
Ga   -4.9256329116453168E+00    8.3534525123571886E+00    3.2887234935772955E+00
N   -4.8274378016478865E+00    8.4091727326828778E+00    5.2492157308672347E+00
Ga   -4.8502994032429125E+00    1.0280866778537156E+01    5.7969907261584090E+00
N   -4.8390727249023247E+00    1.0272292502626867E+01    7.7887646727349464E+00
Ga   -4.8154452277712378E+00    8.4169805491277749E+00    8.4380460587510093E+00
N   -4.8165834562320882E+00    8.4180045725065344E+00    1.0425405151922755E+01
Ga   -4.8425795037382233E+00    1.0277354734308272E+01    1.1069062674734266E+01
N   -4.8617092974600338E+00    1.0286811613584149E+01    1.3057033585222367E+01
Ga   -4.8187421100401444E+00    8.4181219857283818E+00    1.3619425168087851E+01
N   -4.8461006254135812E+00    8.4030354456979772E+00    1.5576194303103325E+01
Ga   -4.6655113469270715E+00    1.0171693068784757E+01    1.6482482410043879E+01
N   -3.2193598204294260E+00    9.3370729179067720E+00    1.7623244954379107E+01
N    3.1833822018460478E+00    1.9196274641603870E+00    2.5731204789797824E+00
Ga    3.1959457153539788E+00    1.7672689696749871E-01    3.2665010593394226E+00
N    3.2085521545877471E+00    5.9827855909360746E-02    5.2304178831392703E+00
Ga    3.1904930194560284E+00    1.9233687755812625E+00    5.8410558065376890E+00
N    3.2047639449397858E+00    1.9150553715891050E+00    7.8205396626781569E+00
Ga    3.2113902626960553E+00    4.7145281175155221E-02    8.4245800211374604E+00
N    3.2107478193347809E+00    4.3973656193743701E-02    1.0416475654540438E+01
Ga    3.2110489938433271E+00    1.9108010017566261E+00    1.1025410764217829E+01
N    3.2097726293739459E+00    1.9121709352210607E+00    1.2992441876907765E+01
Ga    3.2103548468642003E+00    4.1385412355980360E-02    1.3619188665422227E+01
N    3.2084514151792249E+00    7.3393189546374679E-02    1.5576545677625250E+01
Ga    3.2096794879281312E+00    1.9120048103233274E+00    1.5854182708412264E+01
N    1.6423772063494881E+00    4.7131270875789744E+00    2.5297874816931412E+00
Ga    1.6286476325444881E+00    2.8057604097926756E+00    3.1551638293347777E+00
N    1.5925588920250433E+00    2.8494050426349755E+00    5.1637853137472227E+00
Ga    1.6196826792779691E+00    4.7044515231187347E+00    5.7746905411759002E+00
N    1.6121530393655348E+00    4.7017836785931797E+00    7.7721618600082820E+00
Ga    1.5991970749954307E+00    2.8497695020758473E+00    8.4401717802664766E+00
N    1.5939714821134900E+00    2.8493950133950059E+00    1.0426211878756332E+01
Ga    1.6203024338458223E+00    4.7074385469522984E+00    1.1072549071068744E+01
N    1.6352198793515138E+00    4.7169605721346430E+00    1.3059892702702621E+01
Ga    1.5900127332512308E+00    2.8479877073313751E+00    1.3620416894389752E+01
N    1.6179740463597980E+00    2.8316913809811890E+00    1.5578943589788276E+01
Ga    1.4367306205205117E+00    4.6057528301082229E+00    1.6479179533314682E+01
N   -8.1423836579239336E-03    7.4531748122675685E+00    2.5779850460073961E+00
Ga   -1.1861090072715613E-02    5.6614672095682490E+00    3.1442226468429300E+00
N   -8.8964050156262512E-04    5.6055217415765801E+00    5.1555216671978936E+00
Ga   -2.9817111545820908E-03    7.4536340041912421E+00    5.8366510009898880E+00
N   -4.1023943592228031E-03    7.4729486421435496E+00    7.8175288118130188E+00
Ga    1.9600195647957049E-03    5.6165168481095842E+00    8.4399298292042424E+00
N   -2.0390112471034118E-03    5.6128795718296329E+00    1.0425345514327214E+01
Ga   -6.4967150455488175E-03    7.4827998638500377E+00    1.1023756537483807E+01
N   -7.6317442837660846E-03    7.4823570990060171E+00    1.2988689648369773E+01
Ga   -5.9178799175687909E-03    5.6137228920848408E+00    1.3619094708832030E+01
N   -9.1153802987869684E-03    5.6455889993976029E+00    1.5575606379973355E+01
Ga   -9.6596747330652682E-03    7.4826120564987146E+00    1.5857458286229562E+01
N   -1.7281691021794547E+00    1.0198778584488343E+01    2.5149756031937573E+00
Ga   -1.5126802742512404E+00    8.3332871567356381E+00    3.2663409221208588E+00
N   -1.6080613908046786E+00    8.4027698318838748E+00    5.2300054211740141E+00
Ga   -1.5914223189444154E+00    1.0277588671387848E+01    5.7821424983141068E+00
N   -1.6052732020096458E+00    1.0270941581741887E+01    7.7781070171484172E+00
Ga   -1.6187544058318830E+00    8.4125261426048663E+00    8.4223149827506507E+00
N   -1.6231144869667409E+00    8.4160271985612489E+00    1.0414494999974236E+01
Ga   -1.5998541868229974E+00    1.0274950812521331E+01    1.1063394200453093E+01
N   -1.5826835986426486E+00    1.0285998658395950E+01    1.3053602161308277E+01
Ga   -1.6253058261420161E+00    8.4183053555312988E+00    1.3619592915981025E+01
N   -1.6006297572758488E+00    8.4025102028876830E+00    1.5577368229181962E+01
Ga   -1.7786309203390323E+00    1.0173804515123084E+01    1.6482756450521745E+01
N    6.4231528922787335E+00    2.0326839172424211E+00    2.5168480765234600E+00
Ga    6.4210564319710990E+00    4.8087804193741243E-02    2.8408681627559460E+00
N    6.4255166598803877E+00    5.1203912377941384E-02    5.0025214384205565E+00
Ga    6.4182552150340353E+00    1.8775634737976432E+00    5.7910458424578124E+00
N    6.4246142684578658E+00    1.8989996049536093E+00    7.7860083056071430E+00
Ga    6.4241393686054353E+00    5.2037243057615881E-02    8.4373919987651895E+00
N    6.4257402254536826E+00    5.4436563351147244E-02    1.0408447151627890E+01
Ga    6.4231376061948664E+00    1.8919483717125862E+00    1.1071586211226009E+01
N    6.4249514467123765E+00    1.8741555566371018E+00    1.3059527545078746E+01
Ga    6.4243276349982512E+00    5.4457796915064589E-02    1.3874420868740167E+01
N    6.4274536893695986E+00    5.3772823624697492E-02    1.6062984578833980E+01
Ga    6.4249578930563240E+00    2.1000227490789256E+00    1.6480764490060754E+01
Ga    6.4242269212923082E+00    3.7746146035706878E+00    1.4898555836153231E+00
N    4.9501219663001237E+00    4.6384576982303489E+00    2.5503520091558696E+00
Ga    4.6984765087751903E+00    2.7820021656665905E+00    3.2739449459230543E+00
N    4.8124151166077258E+00    2.8389010854089887E+00    5.2359034452363034E+00
Ga    4.8127620872128327E+00    4.7037800111947519E+00    5.8159341238992601E+00
N    4.8146842980823950E+00    4.6998358029157634E+00    7.7996627374858774E+00
Ga    4.8237607524683241E+00    2.8395997401501996E+00    8.4313276234890253E+00
N    4.8280593984072118E+00    2.8444576676602922E+00    1.0421194743214723E+01
Ga    4.8026945414638487E+00    4.7045306922351138E+00    1.1067645525944947E+01
N    4.7856728700189040E+00    4.7158314642121129E+00    1.3056524099554036E+01
Ga    4.8292859071015561E+00    2.8480156268931212E+00    1.3620357975397441E+01
N    4.8009254482445458E+00    2.8337971047686255E+00    1.5577910424042095E+01
Ga    4.9823224108787034E+00    4.6039350818070908E+00    1.6481320294765755E+01
N    6.4295720206981120E+00    3.7677322196525602E+00    1.7620976034729260E+01
N    3.2294879308495261E+00    7.6202347107380257E+00    2.5520717211161976E+00
Ga    3.3092547636154701E+00    5.6786249246900899E+00    2.9958742493470516E+00
N    3.2359233467687201E+00    5.6375276630148887E+00    5.0573280858615801E+00
Ga    3.2164104234877775E+00    7.4697498443814059E+00    5.8168387800777932E+00
N    3.2125699789194839E+00    7.4754790573539029E+00    7.8004810351054950E+00
Ga    3.2103097824869709E+00    5.6242019271284542E+00    8.4377857711272490E+00
N    3.2104308124577918E+00    5.6255122965853195E+00    1.0408756217937860E+01
Ga    3.2088409881787743E+00    7.4648431535011168E+00    1.1068285264306782E+01
N    3.2094013917638011E+00    7.4453224944083063E+00    1.3057179742597173E+01
Ga    3.2114311229277854E+00    5.6262282118434177E+00    1.3874906495431933E+01
N    3.2091313891458326E+00    5.6283485167991607E+00    1.6063107823391597E+01
Ga    3.2078380423778730E+00    7.6770108646004864E+00    1.6478292080680475E+01
Ga    3.2192507737389451E+00    9.3287109209880725E+00    1.4908995431456540E+00
N    1.7091587821508176E+00    1.0199840230446327E+01    2.5173313591732880E+00
Ga    1.4971671674028273E+00    8.3326513098237243E+00    3.2754403744247487E+00
N    1.6018505184151646E+00    8.4023916067417854E+00    5.2372537990235841E+00
Ga    1.5714088851173473E+00    1.0273831161830650E+01    5.7920464784976220E+00
N    1.5918307768677538E+00    1.0270221657570524E+01    7.7867816278510729E+00
Ga    1.6054977950203930E+00    8.4132266635931749E+00    8.4308356177843482E+00
N    1.6109078623418978E+00    8.4165740786556444E+00    1.0420910829707866E+01
Ga    1.5831636520416037E+00    1.0274184324090077E+01    1.1071636590594679E+01
N    1.5681345978305630E+00    1.0286044930379829E+01    1.3059033205407996E+01
Ga    1.6114351092650410E+00    8.4164132172810397E+00    1.3617656787258657E+01
N    1.5789008279626147E+00    8.3995979287660969E+00    1.5571799778662983E+01
Ga    1.7705659323710163E+00    1.0170087071485872E+01    1.6478232379269748E+01
N    3.2115642360316610E+00    9.3385042819817237E+00    1.7606974504639485E+01
N    9.6873136129767463E+00    1.9345472545074791E+00    2.6336879030677935E+00
Ga    9.6412700477619087E+00    1.6611544537365330E-01    3.2851154023587195E+00
N    9.6395715459194395E+00    5.7465999434637205E-02    5.2486779518267896E+00
Ga    9.6171223140031650E+00    1.8950689779747580E+00    5.9236272661491149E+00
N    9.6349388257760040E+00    1.9058388497443610E+00    7.8773361559482931E+00
Ga    9.6385260998080451E+00    3.4910285639364803E-02    8.4531754744714114E+00
N    9.6412224062784713E+00    3.8638866295998567E-02    1.0435956262226929E+01
Ga    9.6432247357270970E+00    1.9125069965507009E+00    1.1024647988206283E+01
N    9.6424021638505479E+00    1.9138956025424416E+00    1.2990290067606926E+01
Ga    9.6411045706907821E+00    4.4251931190966418E-02    1.3617406020041805E+01
N    9.6394329522855635E+00    8.0810855142272320E-02    1.5571922876332472E+01
Ga    9.6406617706426996E+00    1.9149414330528798E+00    1.5857550860646938E+01
N    7.9312530702307962E+00    4.6269667829436472E+00    2.5246378127231535E+00
Ga    8.1330761197208599E+00    2.7780156927404556E+00    3.2848313996360887E+00
N    8.0368706822696048E+00    2.8318913797542709E+00    5.2476994758257121E+00
Ga    8.0686928548429648E+00    4.7051413204837536E+00    5.8066454213551255E+00
N    8.0495663972783191E+00    4.6988109621006240E+00    7.7970069761370437E+00
Ga    8.0163673931218558E+00    2.8450214475873135E+00    8.4513351912294592E+00
N    8.0196812517487626E+00    2.8471847219918627E+00    1.0434258736487928E+01
Ga    8.0502491474809510E+00    4.7065886089529609E+00    1.1075641506121435E+01
N    8.0665725695971879E+00    4.7161433957545764E+00    1.3062319690087035E+01
Ga    8.0225461004988752E+00    2.8463379930354704E+00    1.3620463211305491E+01
N    8.0483130438885802E+00    2.8330268499730136E+00    1.5578869741891998E+01
Ga    7.8705684561885034E+00    4.6051531200879339E+00    1.6481195562583533E+01
N    6.4278075758414124E+00    7.4800637652164559E+00    2.6175237135499851E+00
Ga    6.4513936457514918E+00    5.7383813250742284E+00    3.3018267468704385E+00
N    6.4395097098887506E+00    5.6269873060842306E+00    5.2615953064612722E+00
Ga    6.4332156616513529E+00    7.4834111477694014E+00    5.8875972531427454E+00
N    6.4285875767395435E+00    7.4822460085286773E+00    7.8542939938963272E+00
Ga    6.4314793145903568E+00    5.6132637273994446E+00    8.4440930714320590E+00
N    6.4279224408723215E+00    5.6121724498885195E+00    1.0429447251226080E+01
Ga    6.4286277896941639E+00    7.4826084912171877E+00    1.1026672052290532E+01
N    6.4272420995360857E+00    7.4823765521051344E+00    1.2991722571940034E+01
Ga    6.4252710444027459E+00    5.6130099618806888E+00    1.3620181297661230E+01
N    6.4244861851457760E+00    5.6435848288490353E+00    1.5577224931339744E+01
Ga    6.4277837115364287E+00    7.4818853277212618E+00    1.5855421913812391E+01
N    4.7104868000488649E+00    1.0208797463111518E+01    2.5267488707199131E+00
Ga    4.9318642907173418E+00    8.3718633760615404E+00    3.3032295572106301E+00
N    4.8287166455697452E+00    8.4171670474115263E+00    5.2628981620302246E+00
Ga    4.8442382170550990E+00    1.0288172011965832E+01    5.8110266801709418E+00
N    4.8278904895340533E+00    1.0276904933812418E+01    7.8005832449807171E+00
Ga    4.8113281636365004E+00    8.4186841094904548E+00    8.4461366626505843E+00
N    4.8082525922558839E+00    8.4179389765410413E+00    1.0431442745909749E+01
Ga    4.8348466334986409E+00    1.0276206377378129E+01    1.1076569539514482E+01
N    4.8507495966875345E+00    1.0287091738504795E+01    1.3062671417475478E+01
Ga    4.8072400251965171E+00    8.4167521291593790E+00    1.3618759801434765E+01
N    4.8382442396789953E+00    8.3985868084462272E+00    1.5574483397411756E+01
Ga    4.6484462497070700E+00    1.0172427372288794E+01    1.6477607698002664E+01
O   -3.1871356488538377E-01    3.3250091826151147E+00   -5.2840817457457456E-01
H    1.6340983331049448E+00    4.7073154248704236E+00    1.4995496924766778E+00
C    6.4920612033289748E-01    2.3137606891500937E+00   -8.9039271888843607E-01
H    1.6477449055440050E+00    2.5499348663968804E+00   -4.9181947834357509E-01
H    3.7151358115075001E-01    1.3109351339539106E+00   -5.2899696143700881E-01
H    6.9635375627329721E-01    2.2937945726783950E+00   -1.9883286838154457E+00
     &END COORD
     &KIND C
       BASIS_SET DZVP-MOLOPT-SR-GTH-q4
       POTENTIAL GTH-PBE-q4
       &POTENTIAL
 2 2
  0.3384712400000000E+00 2 -0.8803673979999999E+01  0.1339210850000000E+01
 2
  0.3025757500000000E+00 1  0.9622486650000001E+01
  0.2915069400000000E+00 0
         # Potential name:  GTH-PBE-Q4  for symbol:  C
         # Potential read from the potential filename: GTH_POTENTIALS
       &END POTENTIAL
     &END KIND
     &KIND O
       BASIS_SET DZVP-MOLOPT-SR-GTH-q6
       POTENTIAL GTH-PBE-q6
       &POTENTIAL
 2 4
  0.2445543000000000E+00 2 -0.1666721480000000E+02  0.2487311320000000E+01
 2
  0.2209559200000000E+00 1  0.1833745811000000E+02
  0.2113324700000000E+00 0
         # Potential name:  GTH-PBE-Q6  for symbol:  O
         # Potential read from the potential filename: GTH_POTENTIALS
       &END POTENTIAL
     &END KIND
     &KIND H
       BASIS_SET DZVP-MOLOPT-SR-GTH-q1
       POTENTIAL GTH-PBE-q1
       &POTENTIAL
 1
  0.2000000000000000E+00 2 -0.4178900440000000E+01  0.7244633100000000E+00
 0
         # Potential name:  GTH-PBE-Q1  for symbol:  H
         # Potential read from the potential filename: GTH_POTENTIALS
       &END POTENTIAL
     &END KIND
     &KIND N
       BASIS_SET DZVP-MOLOPT-SR-GTH
       POTENTIAL GTH-PBE-q5
       &POTENTIAL
 2 3
  0.2837905100000000E+00 2 -0.1241522559000000E+02  0.1868095920000000E+01
 2
  0.2554050000000000E+00 1  0.1363026257000000E+02
  0.2454945300000000E+00 0
         # Potential name:  GTH-PBE-Q5  for symbol:  N
         # Potential read from the potential filename: GTH_POTENTIALS
       &END POTENTIAL
     &END KIND
     &KIND Ga
       BASIS_SET DZVP-MOLOPT-SR-GTH
       POTENTIAL GTH-PBE-q13
       &POTENTIAL
 2 1 10
  0.4900000000000000E+00 0
 3
  0.4167772300000000E+00 3  0.1047568975000000E+02 -0.4921768140000000E+01  0.8707055900000000E+00
  0.7770178090000000E+01 -0.2248152160000000E+01
  0.1784415450000000E+01
  0.5696265200000000E+00 2  0.1777985340000000E+01  0.1958597600000000E+00
 -0.2317443900000000E+00
  0.2381265000000000E+00 1 -0.1624868022000000E+02
         # Potential name:  GTH-PBE-Q13  for symbol:  GA
         # Potential read from the potential filename: GTH_POTENTIALS
       &END POTENTIAL
     &END KIND
     &TOPOLOGY
       NUMBER_OF_ATOMS  206
       MULTIPLE_UNIT_CELL  1 1 1
     &END TOPOLOGY
   &END SUBSYS
 &END FORCE_EVAL
