 # Version information for this restart file 
 # current date 2019-06-24 21:46:13.294
 # current working dir /scratch/rzk/rzk/GaN-carbene/443-adatoms-both-2x2/03-DissMethanol/03-O-GaTop-H-NTop
 # Program compiled at                              Sun Apr  7 00:48:11 EDT 2019
 # Program compiled on                          beluga2.int.ets1.calculquebec.ca
 # Program compiled for                        Beluga-Linux-x86-64-intel-openmpi
 # Source code revision number                                         svn:18619
 &GLOBAL
   PRINT_LEVEL  MEDIUM
   PROJECT_NAME TEST
   RUN_TYPE  GEO_OPT
 &END GLOBAL
 &MOTION
   &GEO_OPT
     MAX_ITER  500
     STEP_START_VAL  63
   &END GEO_OPT
 &END MOTION
 &FORCE_EVAL
   METHOD  QS
   STRESS_TENSOR  ANALYTICAL
   &DFT
     BASIS_SET_FILE_NAME BASIS_MOLOPT
     POTENTIAL_FILE_NAME GTH_POTENTIALS
     UKS  T
     SURFACE_DIPOLE_CORRECTION  T
     SURF_DIP_DIR  Z
     &SCF
       MAX_SCF  80
       EPS_SCF     5.0000000000000004E-06
       &OT  T
         PRECONDITIONER  FULL_ALL
       &END OT
       &OUTER_SCF  T
         OPTIMIZER  NONE
         EPS_SCF     5.0000000000000004E-06
         MAX_SCF  4
       &END OUTER_SCF
       &PRINT
         &RESTART  OFF
           BACKUP_COPIES  1
           &EACH
             JUST_ENERGY  0
             QS_SCF  0
             MD  20
           &END EACH
         &END RESTART
       &END PRINT
     &END SCF
     &QS
       EPS_DEFAULT     1.0000000000000000E-14
       METHOD  GPW
     &END QS
     &MGRID
       NGRIDS  5
       CUTOFF     1.2000000000000000E+03
     &END MGRID
     &XC
       DENSITY_CUTOFF     1.0000000000000000E-10
       GRADIENT_CUTOFF     1.0000000000000000E-10
       TAU_CUTOFF     1.0000000000000000E-10
       &XC_FUNCTIONAL  NO_SHORTCUT
         &PBE  T
         &END PBE
       &END XC_FUNCTIONAL
       &VDW_POTENTIAL
         POTENTIAL_TYPE  PAIR_POTENTIAL
         &PAIR_POTENTIAL
           R_CUTOFF     1.0000000000000004E+01
           TYPE  DFTD3
           PARAMETER_FILE_NAME dftd3.dat
           REFERENCE_FUNCTIONAL PBE
           EPS_CN     9.9999999999999995E-07
           CALCULATE_C9_TERM  T
           REFERENCE_C9_TERM  T
           LONG_RANGE_CORRECTION  F
           VERBOSE_OUTPUT  F
         &END PAIR_POTENTIAL
       &END VDW_POTENTIAL
     &END XC
   &END DFT
   &SUBSYS
     &CELL
       A     1.2864472766435110E+01    0.0000000000000000E+00    0.0000000000000000E+00
       B    -6.4322363581020028E+00    1.1140960178524473E+01    0.0000000000000000E+00
       C     0.0000000000000000E+00    0.0000000000000000E+00    3.2000000000000000E+01
       MULTIPLE_UNIT_CELL  1 1 1
       &CELL_REF
         A     1.2982353780853531E+01    0.0000000000000000E+00    0.0000000000000000E+00
         B    -6.4911768904267628E+00    1.1243048175136114E+01    0.0000000000000000E+00
         C     0.0000000000000000E+00    0.0000000000000000E+00    3.2000000000000000E+01
         MULTIPLE_UNIT_CELL  1 1 1
       &END CELL_REF
     &END CELL
     &COORD
N   -9.7462820361642957E-02    2.0227899260460589E+00    2.5270867369813286E+00
Ga   -2.1917347496999817E-02    5.1724094455475080E-02    2.8747896123068979E+00
N   -3.8257526527341597E-03    5.5420040348949526E-02    5.0281855265887163E+00
Ga    2.7894890921185096E-02    1.8779620591662056E+00    5.8202386920999771E+00
N    9.1886888205334073E-03    1.8964858398168629E+00    7.8092337210443299E+00
Ga    1.6264987751856404E-03    5.0398736371938826E-02    8.4518149196429970E+00
N   -8.3865189138900259E-04    5.1540201323042135E-02    1.0423304112432250E+01
Ga   -4.6657961043758590E-04    1.8927081992660193E+00    1.1069291744760026E+01
N    3.4199733353780770E-04    1.8726129693482090E+00    1.3064651409220536E+01
Ga    1.7953307844469075E-03    4.9222475739482748E-02    1.3865529026322889E+01
N    1.9555937525750152E-03    4.9004249288446954E-02    1.6068371520845961E+01
Ga    1.2999952639949491E-03    2.0749267305061356E+00    1.6464998951147759E+01
Ga   -8.4401974554121206E-01    3.2897561556582984E+00    1.2073413329459344E+00
N   -1.5577150442026821E+00    4.5536132360133141E+00    2.5073131254775118E+00
Ga   -1.7139874731850280E+00    2.7703419833768241E+00    3.4933764693330449E+00
N   -1.6199018710293405E+00    2.8317693995805087E+00    5.3838558062930755E+00
Ga   -1.6215565774880687E+00    4.7342500159548573E+00    5.8201117234089228E+00
N   -1.6144475640470617E+00    4.7090757668973646E+00    7.8088769460700362E+00
Ga   -1.5974270376524904E+00    2.8438433381497616E+00    8.4349210743614584E+00
N   -1.5978681779176795E+00    2.8438788666308485E+00    1.0430871052804834E+01
Ga   -1.6229798364180941E+00    4.7026898350074688E+00    1.1069711127214520E+01
N   -1.6395611741138052E+00    4.7129852459293691E+00    1.3065105901359651E+01
Ga   -1.5963750732926578E+00    2.8441456295082608E+00    1.3618785902030163E+01
N   -1.6200078504644493E+00    2.8298491289494772E+00    1.5586226546471559E+01
Ga   -1.4652371169308362E+00    4.6135748202081635E+00    1.6464947390603356E+01
N   -6.1478172885054598E-03    3.7643095364175410E+00    1.7591859854971698E+01
N   -3.2241810080136051E+00    7.5904970392256530E+00    2.5224912577857181E+00
Ga   -3.2340428883372545E+00    5.6078951735369182E+00    2.8660210872150507E+00
N   -3.2137289304744416E+00    5.6170346092535510E+00    5.0220574117619172E+00
Ga   -3.2161667117652888E+00    7.4507035699044160E+00    5.7952670675088624E+00
N   -3.2179839333952618E+00    7.4666867871632610E+00    7.7924977430218867E+00
Ga   -3.2170972130675963E+00    5.6251479486284222E+00    8.4516707225603191E+00
N   -3.2174383531865187E+00    5.6226885601542174E+00    1.0422992401885505E+01
Ga   -3.2151302444176517E+00    7.4642835752065064E+00    1.1068111223827735E+01
N   -3.2155770157951102E+00    7.4441624091199223E+00    1.3060768036956423E+01
Ga   -3.2184440745804803E+00    5.6258361881430599E+00    1.3866528495059537E+01
N   -3.2186932390053831E+00    5.6266019642792635E+00    1.6068260403896758E+01
Ga   -3.2155144582660631E+00    7.6765381558288723E+00    1.6488656356684459E+01
Ga   -3.2280611632994662E+00    9.3290813171761613E+00    1.4704422644312214E+00
N   -4.7336635838967069E+00    1.0204572648644799E+01    2.5202159399081734E+00
Ga   -4.9225225679256850E+00    8.3534719631986682E+00    3.2884345315126438E+00
N   -4.8251602231313742E+00    8.4076908576185136E+00    5.2529996789154874E+00
Ga   -4.8485217022265044E+00    1.0279250481187109E+01    5.7970171526187073E+00
N   -4.8356884777717486E+00    1.0269670900480081E+01    7.7937378013328109E+00
Ga   -4.8128936830845062E+00    8.4143204812854009E+00    8.4374673273091734E+00
N   -4.8131403891723314E+00    8.4144427361965253E+00    1.0430223826128532E+01
Ga   -4.8370492643785665E+00    1.0273470098917523E+01    1.1068119183543844E+01
N   -4.8546893303355505E+00    1.0283077780061092E+01    1.3060814078237964E+01
Ga   -4.8126562983748427E+00    8.4146017941959776E+00    1.3620491996873159E+01
N   -4.8408496998568955E+00    8.3983692879344716E+00    1.5579784706413287E+01
Ga   -4.6542500398959303E+00    1.0167053364253427E+01    1.6488475625642518E+01
N   -3.2182685576738095E+00    9.3368727846857595E+00    1.7630775412479377E+01
N    3.1837010981333305E+00    1.9185225409274465E+00    2.5814768215816781E+00
Ga    3.1969624563389760E+00    1.7248929946720470E-01    3.2660293621493857E+00
N    3.2103035007901046E+00    5.7613711984790747E-02    5.2339587348431253E+00
Ga    3.1919814537022062E+00    1.9213038333005046E+00    5.8387257705313447E+00
N    3.2072637963391886E+00    1.9125581178830477E+00    7.8240613658814500E+00
Ga    3.2145201967717081E+00    4.4973556709455603E-02    8.4244390256790940E+00
N    3.2151173105745743E+00    4.1236730630248401E-02    1.0421455267071801E+01
Ga    3.2150921786944595E+00    1.9074067953786920E+00    1.1026098772735347E+01
N    3.2150302207371162E+00    1.9094515297016810E+00    1.2997217973787578E+01
Ga    3.2170768004479249E+00    3.8975518997883485E-02    1.3620690807782985E+01
N    3.2169951900367515E+00    7.3023887561408735E-02    1.5579567033173110E+01
Ga    3.2176553692026721E+00    1.9084195990052175E+00    1.5860614167834242E+01
N    1.6399901872943261E+00    4.7128454952624494E+00    2.5343858960118846E+00
Ga    1.6276625997766871E+00    2.8048585309743617E+00    3.1550115553894491E+00
N    1.5924607858040882E+00    2.8473901162184054E+00    5.1683094902781450E+00
Ga    1.6207236557634412E+00    4.7018345077169617E+00    5.7774570495666895E+00
N    1.6142409004960361E+00    4.6983869572819845E+00    7.7793190584134830E+00
Ga    1.6025284246307210E+00    2.8464084957887579E+00    8.4415433541734188E+00
N    1.5977608782695059E+00    2.8459136905990539E+00    1.0432469321598008E+01
Ga    1.6242664201520141E+00    4.7039233229026562E+00    1.1071532970726285E+01
N    1.6405218279911615E+00    4.7130780442046900E+00    1.3065084347075114E+01
Ga    1.5976913927095349E+00    2.8439718008330774E+00    1.3618634038156205E+01
N    1.6225255721789018E+00    2.8318509446696973E+00    1.5584749190137829E+01
Ga    1.4608036662947270E+00    4.6094661281579468E+00    1.6464728226445381E+01
N   -8.5146619261356714E-03    7.4515051810279926E+00    2.5896259609258303E+00
Ga   -1.4153004327382659E-02    5.6594429516026095E+00    3.1505906807208968E+00
N   -5.3003143263874767E-04    5.6028262190957525E+00    5.1645890451999801E+00
Ga   -1.8678028612964801E-03    7.4521715164301661E+00    5.8368576562565506E+00
N   -1.4379775078889111E-03    7.4699583812150223E+00    7.8228951536747227E+00
Ga    4.7725411137985070E-03    5.6139272290534645E+00    8.4419097075166611E+00
N    1.7499300712277277E-03    5.6101598274289515E+00    1.0432815793526458E+01
Ga   -2.2442434806195111E-03    7.4800619170683920E+00    1.1026120957198547E+01
N   -8.8357438525284995E-05    7.4787625209557396E+00    1.2997540664784617E+01
Ga    5.6527060847486911E-04    5.6104910187122723E+00    1.3618491453966767E+01
N    3.1064774195056380E-03    5.6386101686791692E+00    1.5584766100347730E+01
Ga    1.0030766964519827E-04    7.4811928044000613E+00    1.5860816857928357E+01
N   -1.7269288569913954E+00    1.0197579505192694E+01    2.5173401398087014E+00
Ga   -1.5150892545348074E+00    8.3341910607677665E+00    3.2690698701811791E+00
N   -1.6072221226499728E+00    8.4014937819100943E+00    5.2361507773096188E+00
Ga   -1.5892001725538547E+00    1.0276647450406143E+01    5.7839482719212887E+00
N   -1.6024588410378766E+00    1.0268371714036041E+01    7.7845909111640017E+00
Ga   -1.6153273939071400E+00    8.4101342248356072E+00    8.4232492299400459E+00
N   -1.6182771337377657E+00    8.4128192801061719E+00    1.0420796320142125E+01
Ga   -1.5956975530887967E+00    1.0272025004329471E+01    1.1063083369878493E+01
N   -1.5771746100448427E+00    1.0282633115016919E+01    1.3057421466578742E+01
Ga   -1.6192297979952111E+00    8.4154624742164330E+00    1.3620369530291699E+01
N   -1.5893637570093133E+00    8.3982260789398122E+00    1.5578708044148607E+01
Ga   -1.7767912249042803E+00    1.0167063279726573E+01    1.6488977572523030E+01
N    6.4234862221943247E+00    2.0295996351728047E+00    2.5187276823179934E+00
Ga    6.4216691613494108E+00    4.6715739569060992E-02    2.8389437144814060E+00
N    6.4269772256216466E+00    4.9223368560952427E-02    5.0112218015297634E+00
Ga    6.4197057636270802E+00    1.8749736510294541E+00    5.7921724497577785E+00
N    6.4272952480017693E+00    1.8968775568475698E+00    7.7919871151816249E+00
Ga    6.4273642757488769E+00    4.9725003351142619E-02    8.4381402875346403E+00
N    6.4302832844095938E+00    5.1355950739536908E-02    1.0413860547781765E+01
Ga    6.4270205372448137E+00    1.8890432335327292E+00    1.1071516243387853E+01
N    6.4308747616511512E+00    1.8715707497820155E+00    1.3064468624794566E+01
Ga    6.4292524566595306E+00    5.1166605485104294E-02    1.3870256405148963E+01
N    6.4301020919085152E+00    5.2188517000185994E-02    1.6068172835847633E+01
Ga    6.4323334738757181E+00    2.0949787034653857E+00    1.6482405689441009E+01
Ga    6.4238942177643663E+00    3.7742996852804334E+00    1.4743317992546270E+00
N    4.9490434228553823E+00    4.6375498396643771E+00    2.5535969684839235E+00
Ga    4.7028406045792561E+00    2.7819072464721231E+00    3.2730694994466676E+00
N    4.8141818463125317E+00    2.8368333669252719E+00    5.2395099151265798E+00
Ga    4.8137842591025288E+00    4.7013673899269213E+00    5.8160751203860279E+00
N    4.8172707861015560E+00    4.6969129204753424E+00    7.8043439111393589E+00
Ga    4.8262765376520500E+00    2.8366760894264691E+00    8.4309318147976136E+00
N    4.8316084725000694E+00    2.8409430074442601E+00    1.0426260752641562E+01
Ga    4.8077229802677053E+00    4.7008886867330704E+00    1.1065988487352209E+01
N    4.7924521704036742E+00    4.7121903035013029E+00    1.3060351858339017E+01
Ga    4.8347801901853114E+00    2.8443549743958423E+00    1.3621007732806687E+01
N    4.8058382847828325E+00    2.8301048174224750E+00    1.5581826041744506E+01
Ga    4.9894733276018544E+00    4.6000718548014454E+00    1.6483126820585820E+01
N    6.4283664755659657E+00    3.7612995700993577E+00    1.7617827844378958E+01
N    3.2293185859400078E+00    7.6172429267929189E+00    2.5553601903513772E+00
Ga    3.3097400137305963E+00    5.6770208000009186E+00    2.9985050542554368E+00
N    3.2356460138675511E+00    5.6343570954774487E+00    5.0638215068965637E+00
Ga    3.2176035123622428E+00    7.4671181012943713E+00    5.8169714618639237E+00
N    3.2151443792285725E+00    7.4722768480056097E+00    7.8050755209010827E+00
Ga    3.2132156170176112E+00    5.6209843513469249E+00    8.4378488007803121E+00
N    3.2144133161882311E+00    5.6218856565007025E+00    1.0413774669365623E+01
Ga    3.2132405337726779E+00    7.4621461803259956E+00    1.1065974827445531E+01
N    3.2156672900114995E+00    7.4432088904581306E+00    1.3060585261595760E+01
Ga    3.2191127938017621E+00    5.6241352894003418E+00    1.3864269782703060E+01
N    3.2189161404483619E+00    5.6244104362919680E+00    1.6068473130440573E+01
Ga    3.2168811120145731E+00    7.6668735594177715E+00    1.6478969231938425E+01
Ga    3.2182887953369512E+00    9.3248671435648802E+00    1.4771952710485119E+00
N    1.7080746787613366E+00    1.0198324683836525E+01    2.5195364166407885E+00
Ga    1.5001671774868268E+00    8.3331692524944501E+00    3.2765887988962650E+00
N    1.6032484258222996E+00    8.4004381354425330E+00    5.2422905317561561E+00
Ga    1.5724274527014104E+00    1.0272036941554040E+01    5.7933044260464532E+00
N    1.5949756322216397E+00    1.0267073568231496E+01    7.7928311141829765E+00
Ga    1.6082250266313944E+00    8.4101399706540771E+00    8.4305801326903396E+00
N    1.6144985737252830E+00    8.4130379957834709E+00    1.0426297067870109E+01
Ga    1.5876960566231397E+00    1.0270653359304184E+01    1.1071681508320165E+01
N    1.5748035368119762E+00    1.0282466868434163E+01    1.3065050448545382E+01
Ga    1.6195168082545670E+00    8.4137095899497147E+00    1.3620046498872966E+01
N    1.5933386175262687E+00    8.3958306806084764E+00    1.5581790502280446E+01
Ga    1.7633189088783692E+00    1.0175108404520689E+01    1.6478058300428280E+01
N    3.2080678252936465E+00    9.3380930926301655E+00    1.7612117094927608E+01
N    9.6884312666163623E+00    1.9331796175605080E+00    2.6423650078034542E+00
Ga    9.6409535432324684E+00    1.6022248651511412E-01    3.2840802512870022E+00
N    9.6407699860856031E+00    5.4671327716160970E-02    5.2521995049279111E+00
Ga    9.6169060636910100E+00    1.8914775257668488E+00    5.9248306740070555E+00
N    9.6372013127975400E+00    1.9027841575928000E+00    7.8827746231429927E+00
Ga    9.6415193103746919E+00    3.1708462843758840E-02    8.4532053366779643E+00
N    9.6453074794844813E+00    3.5591448526558579E-02    1.0441118123703950E+01
Ga    9.6467249219146787E+00    1.9085841293990922E+00    1.1026698054029378E+01
N    9.6493723362915436E+00    1.9096477619213978E+00    1.2999205880700393E+01
Ga    9.6479155324634149E+00    3.9165592528440187E-02    1.3620121785959039E+01
N    9.6516119133026166E+00    7.2159964921465175E-02    1.5582261451690231E+01
Ga    9.6488529852752762E+00    1.9096547191662125E+00    1.5861713147117337E+01
N    7.9320554786767783E+00    4.6257345429315038E+00    2.5289082497984126E+00
Ga    8.1291643202588642E+00    2.7776688914313930E+00    3.2841876431923476E+00
N    8.0379224715795026E+00    2.8297215616939324E+00    5.2519447532511130E+00
Ga    8.0698722932749263E+00    4.7026370220424569E+00    5.8084893955031047E+00
N    8.0520050898063023E+00    4.6959166483922754E+00    7.8034021039862953E+00
Ga    8.0187802848032597E+00    2.8422359389786274E+00    8.4523386103464180E+00
N    8.0241259883427603E+00    2.8437341198886488E+00    1.0440392158101565E+01
Ga    8.0534222808595786E+00    4.7036032307218116E+00    1.1074197912722767E+01
N    8.0716150277514096E+00    4.7128917543193580E+00    1.3065397101563574E+01
Ga    8.0285824076717613E+00    2.8437061655354268E+00    1.3620787529345373E+01
N    8.0596296398774179E+00    2.8296229831948461E+00    1.5581452604819958E+01
Ga    7.8727762772508969E+00    4.5985168340638989E+00    1.6482826399142652E+01
N    6.4286064362867510E+00    7.4781231811128546E+00    2.6266302865565629E+00
Ga    6.4512426398673819E+00    5.7328775134280319E+00    3.3014572936857896E+00
N    6.4406589356463106E+00    5.6241414467472293E+00    5.2656083541993732E+00
Ga    6.4349923172620249E+00    7.4813778781899813E+00    5.8843306895873120E+00
N    6.4319155991026946E+00    7.4795753918324834E+00    7.8563514036844611E+00
Ga    6.4339592640729721E+00    5.6111294171123998E+00    8.4426736708404970E+00
N    6.4317369124684429E+00    5.6097747726820906E+00    1.0433553379534112E+01
Ga    6.4320540693797641E+00    7.4796158187788411E+00    1.1026998885838639E+01
N    6.4319970024968889E+00    7.4796913531315985E+00    1.2997388645043580E+01
Ga    6.4316130590946834E+00    5.6104528623731902E+00    1.3620833896403903E+01
N    6.4324312023871650E+00    5.6425188702876001E+00    1.5581203851807382E+01
Ga    6.4337296569451716E+00    7.4804056664611185E+00    1.5859259670826077E+01
N    4.7112638527584965E+00    1.0207118656903569E+01    2.5286381065690313E+00
Ga    4.9294192895812392E+00    8.3713601606538948E+00    3.3019543197597314E+00
N    4.8294831004073275E+00    8.4150014941523317E+00    5.2660823517732975E+00
Ga    4.8457609586478254E+00    1.0286017913591929E+01    5.8108018205606564E+00
N    4.8308990644529626E+00    1.0274093620267585E+01    7.8052080403939366E+00
Ga    4.8149284100018130E+00    8.4152285304647663E+00    8.4436293601108332E+00
N    4.8124101452565684E+00    8.4143205180686653E+00    1.0434247649116076E+01
Ga    4.8386067285677132E+00    1.0271985112151700E+01    1.1074207629044480E+01
N    4.8558918983430956E+00    1.0282791015231766E+01    1.3065700535484561E+01
Ga    4.8131819387072827E+00    8.4135517153164869E+00    1.3619802056382524E+01
N    4.8402625397253747E+00    8.3988972064873622E+00    1.5580956719713251E+01
Ga    4.6607349564240046E+00    1.0169520468940199E+01    1.6478457337882904E+01
O   -3.6849237813290370E-01    3.3762056350937968E+00   -5.2583416493606361E-01
H    1.6279693569986458E+00    4.7119004190805347E+00    1.5044839096154561E+00
C    5.7002631943714832E-01    2.3633689259556010E+00   -9.5740427154351004E-01
H    1.5689316194595926E+00    2.5200971594197581E+00   -5.1975652574204756E-01
H    2.3998513934911300E-01    1.3456948697281486E+00   -6.9805919615119383E-01
H    6.4067150336838530E-01    2.4408792854546539E+00   -2.0508147213585608E+00
     &END COORD
     &KIND C
       BASIS_SET DZVP-MOLOPT-SR-GTH-q4
       POTENTIAL GTH-PBE-q4
       &POTENTIAL
 2 2
  0.3384712400000000E+00 2 -0.8803673979999999E+01  0.1339210850000000E+01
 2
  0.3025757500000000E+00 1  0.9622486650000001E+01
  0.2915069400000000E+00 0
         # Potential name:  GTH-PBE-Q4  for symbol:  C
         # Potential read from the potential filename: GTH_POTENTIALS
       &END POTENTIAL
     &END KIND
     &KIND O
       BASIS_SET DZVP-MOLOPT-SR-GTH-q6
       POTENTIAL GTH-PBE-q6
       &POTENTIAL
 2 4
  0.2445543000000000E+00 2 -0.1666721480000000E+02  0.2487311320000000E+01
 2
  0.2209559200000000E+00 1  0.1833745811000000E+02
  0.2113324700000000E+00 0
         # Potential name:  GTH-PBE-Q6  for symbol:  O
         # Potential read from the potential filename: GTH_POTENTIALS
       &END POTENTIAL
     &END KIND
     &KIND H
       BASIS_SET DZVP-MOLOPT-SR-GTH-q1
       POTENTIAL GTH-PBE-q1
       &POTENTIAL
 1
  0.2000000000000000E+00 2 -0.4178900440000000E+01  0.7244633100000000E+00
 0
         # Potential name:  GTH-PBE-Q1  for symbol:  H
         # Potential read from the potential filename: GTH_POTENTIALS
       &END POTENTIAL
     &END KIND
     &KIND N
       BASIS_SET DZVP-MOLOPT-SR-GTH
       POTENTIAL GTH-PBE-q5
       &POTENTIAL
 2 3
  0.2837905100000000E+00 2 -0.1241522559000000E+02  0.1868095920000000E+01
 2
  0.2554050000000000E+00 1  0.1363026257000000E+02
  0.2454945300000000E+00 0
         # Potential name:  GTH-PBE-Q5  for symbol:  N
         # Potential read from the potential filename: GTH_POTENTIALS
       &END POTENTIAL
     &END KIND
     &KIND Ga
       BASIS_SET DZVP-MOLOPT-SR-GTH
       POTENTIAL GTH-PBE-q13
       &POTENTIAL
 2 1 10
  0.4900000000000000E+00 0
 3
  0.4167772300000000E+00 3  0.1047568975000000E+02 -0.4921768140000000E+01  0.8707055900000000E+00
  0.7770178090000000E+01 -0.2248152160000000E+01
  0.1784415450000000E+01
  0.5696265200000000E+00 2  0.1777985340000000E+01  0.1958597600000000E+00
 -0.2317443900000000E+00
  0.2381265000000000E+00 1 -0.1624868022000000E+02
         # Potential name:  GTH-PBE-Q13  for symbol:  GA
         # Potential read from the potential filename: GTH_POTENTIALS
       &END POTENTIAL
     &END KIND
     &TOPOLOGY
       NUMBER_OF_ATOMS  206
       MULTIPLE_UNIT_CELL  1 1 1
     &END TOPOLOGY
   &END SUBSYS
 &END FORCE_EVAL
