 # Version information for this restart file 
 # current date 2019-06-25 10:58:28.085
 # current working dir /scratch/rzk/rzk/GaN-carbene/443-adatoms-both-2x2/03-DissMethanol/03-O-GaTop-H-NTop
 # Program compiled at                              Sun Apr  7 00:48:11 EDT 2019
 # Program compiled on                          beluga2.int.ets1.calculquebec.ca
 # Program compiled for                        Beluga-Linux-x86-64-intel-openmpi
 # Source code revision number                                         svn:18619
 &GLOBAL
   PRINT_LEVEL  MEDIUM
   PROJECT_NAME TEST
   RUN_TYPE  GEO_OPT
 &END GLOBAL
 &MOTION
   &GEO_OPT
     MAX_ITER  500
     STEP_START_VAL  153
   &END GEO_OPT
 &END MOTION
 &FORCE_EVAL
   METHOD  QS
   STRESS_TENSOR  ANALYTICAL
   &DFT
     BASIS_SET_FILE_NAME BASIS_MOLOPT
     POTENTIAL_FILE_NAME GTH_POTENTIALS
     UKS  T
     SURFACE_DIPOLE_CORRECTION  T
     SURF_DIP_DIR  Z
     &SCF
       MAX_SCF  80
       EPS_SCF     5.0000000000000004E-06
       &OT  T
         PRECONDITIONER  FULL_ALL
       &END OT
       &OUTER_SCF  T
         OPTIMIZER  NONE
         EPS_SCF     5.0000000000000004E-06
         MAX_SCF  4
       &END OUTER_SCF
       &PRINT
         &RESTART  OFF
           BACKUP_COPIES  1
           &EACH
             JUST_ENERGY  0
             QS_SCF  0
             MD  20
           &END EACH
         &END RESTART
       &END PRINT
     &END SCF
     &QS
       EPS_DEFAULT     1.0000000000000000E-14
       METHOD  GPW
     &END QS
     &MGRID
       NGRIDS  5
       CUTOFF     1.2000000000000000E+03
     &END MGRID
     &XC
       DENSITY_CUTOFF     1.0000000000000000E-10
       GRADIENT_CUTOFF     1.0000000000000000E-10
       TAU_CUTOFF     1.0000000000000000E-10
       &XC_FUNCTIONAL  NO_SHORTCUT
         &PBE  T
         &END PBE
       &END XC_FUNCTIONAL
       &VDW_POTENTIAL
         POTENTIAL_TYPE  PAIR_POTENTIAL
         &PAIR_POTENTIAL
           R_CUTOFF     1.0000000000000005E+01
           TYPE  DFTD3
           PARAMETER_FILE_NAME dftd3.dat
           REFERENCE_FUNCTIONAL PBE
           EPS_CN     9.9999999999999995E-07
           CALCULATE_C9_TERM  T
           REFERENCE_C9_TERM  T
           LONG_RANGE_CORRECTION  F
           VERBOSE_OUTPUT  F
         &END PAIR_POTENTIAL
       &END VDW_POTENTIAL
     &END XC
   &END DFT
   &SUBSYS
     &CELL
       A     1.2864472766435110E+01    0.0000000000000000E+00    0.0000000000000000E+00
       B    -6.4322363581020028E+00    1.1140960178524475E+01    0.0000000000000000E+00
       C     0.0000000000000000E+00    0.0000000000000000E+00    3.2000000000000000E+01
       MULTIPLE_UNIT_CELL  1 1 1
       &CELL_REF
         A     1.2982353780853531E+01    0.0000000000000000E+00    0.0000000000000000E+00
         B    -6.4911768904267628E+00    1.1243048175136114E+01    0.0000000000000000E+00
         C     0.0000000000000000E+00    0.0000000000000000E+00    3.2000000000000000E+01
         MULTIPLE_UNIT_CELL  1 1 1
       &END CELL_REF
     &END CELL
     &COORD
N   -8.7839792137868203E-02    2.0212769631837557E+00    2.5143717758303405E+00
Ga   -1.3161127774141548E-02    5.0834122754036329E-02    2.8685004167904515E+00
N    7.4771200826962486E-03    5.5128043262082642E-02    5.0219565814641038E+00
Ga    4.2159195659558682E-02    1.8767751622617630E+00    5.8160250926466226E+00
N    1.9631637432905677E-02    1.8954500702295343E+00    7.8032563610011003E+00
Ga    1.0480877355597426E-02    4.9486780122620200E-02    8.4443917317556814E+00
N    6.8090559153673519E-03    5.0168227140516830E-02    1.0416217387814084E+01
Ga    7.4094455430145341E-03    1.8934099514524609E+00    1.1060735353585262E+01
N    6.4511378407653575E-03    1.8731833446809831E+00    1.3052435555267961E+01
Ga    1.4497867235128817E-02    5.7765583398504981E-02    1.3855648848952614E+01
N    1.4862695550052471E-02    5.7057828150343957E-02    1.6060366965450765E+01
Ga    7.0565422420121914E-03    2.1166523250588178E+00    1.6491833709457886E+01
Ga   -9.0812414212363524E-01    3.2451667275885661E+00    1.1916182494772320E+00
N   -1.5489408585899955E+00    4.5494649628668951E+00    2.5007940707386358E+00
Ga   -1.6942181816133182E+00    2.7748744707580868E+00    3.5013410611454741E+00
N   -1.6070659201029507E+00    2.8320000087118462E+00    5.3869257086709155E+00
Ga   -1.6095211442126254E+00    4.7371711674853429E+00    5.8155377836267590E+00
N   -1.6051125336243448E+00    4.7097187180115876E+00    7.8027467621055715E+00
Ga   -1.5879637094483197E+00    2.8437386165339138E+00    8.4264191438096603E+00
N   -1.5904107976535258E+00    2.8430170006647786E+00    1.0421697788745188E+01
Ga   -1.6149949351289052E+00    4.7011762685945246E+00    1.1064725194917942E+01
N   -1.6332136653485012E+00    4.7108386557890434E+00    1.3057026110133597E+01
Ga   -1.5904167025220131E+00    2.8425333354499771E+00    1.3616902135526285E+01
N   -1.6193677921625564E+00    2.8206224819182832E+00    1.5574395762751958E+01
Ga   -1.4316585902322660E+00    4.5942799749315659E+00    1.6491670266367393E+01
N    9.7947377219792715E-04    3.7683073835434264E+00    1.7640197826733129E+01
N   -3.2127691506837142E+00    7.5896774519625128E+00    2.5197476283646179E+00
Ga   -3.2216631886329212E+00    5.6038680310769244E+00    2.8617379545432273E+00
N   -3.2027922314025505E+00    5.6169587812041160E+00    5.0166121603202107E+00
Ga   -3.2056208605972030E+00    7.4497849945291490E+00    5.7901475551760102E+00
N   -3.2085154624115941E+00    7.4655639461442238E+00    7.7865199574226942E+00
Ga   -3.2083753886890332E+00    5.6241131172894914E+00    8.4457213942277107E+00
N   -3.2098968960943286E+00    5.6212578962438933E+00    1.0416693033724529E+01
Ga   -3.2073445465938337E+00    7.4616080867370203E+00    1.1063926295700799E+01
N   -3.2095486742890094E+00    7.4415295620336748E+00    1.3057844500266370E+01
Ga   -3.2084040905069200E+00    5.6200654466533262E+00    1.3870868889616718E+01
N   -3.2104554812126205E+00    5.6193901663014092E+00    1.6062286331749242E+01
Ga   -3.2099801303378683E+00    7.6599547536893455E+00    1.6479028454424725E+01
Ga   -3.2172820397439525E+00    9.3272318286051750E+00    1.4831307398049327E+00
N   -4.7218053884318998E+00    1.0203236956292137E+01    2.5173040096089103E+00
Ga   -4.9143716057211204E+00    8.3501110109464971E+00    3.2869149526167769E+00
N   -4.8147108060911235E+00    8.4066870801521993E+00    5.2491491508743886E+00
Ga   -4.8384341002672349E+00    1.0278423099509137E+01    5.7914650932767815E+00
N   -4.8265911458919204E+00    1.0268611197301109E+01    7.7874970245297845E+00
Ga   -4.8036503424599957E+00    8.4130037813888610E+00    8.4302098839395239E+00
N   -4.8048396483505007E+00    8.4127462514258688E+00    1.0423861375685844E+01
Ga   -4.8287519173166809E+00    1.0272339207483867E+01    1.1059828307671745E+01
N   -4.8481435308756442E+00    1.0281721162783183E+01    1.3052923477123842E+01
Ga   -4.8064888134949415E+00    8.4138749884462047E+00    1.3614390002947147E+01
N   -4.8402478773222732E+00    8.4016659486990530E+00    1.5575430706455538E+01
Ga   -4.6457952611542259E+00    1.0166314703431537E+01    1.6479737723551107E+01
N   -3.2086961617088066E+00    9.3235428963676359E+00    1.7617239000738245E+01
N    3.1949159914631853E+00    1.9183244377733135E+00    2.5740346694853380E+00
Ga    3.2085099553223491E+00    1.7533713622621735E-01    3.2629284083559007E+00
N    3.2208668148335846E+00    5.6659804102718522E-02    5.2285914277921721E+00
Ga    3.2031029227787235E+00    1.9224483429813590E+00    5.8276799273472850E+00
N    3.2173106749158205E+00    1.9122024217507649E+00    7.8135452248873110E+00
Ga    3.2237706792592142E+00    4.5114652091318749E-02    8.4154000281286248E+00
N    3.2228791903083245E+00    4.0300001219345023E-02    1.0412153697819786E+01
Ga    3.2232043851964631E+00    1.9068748106808606E+00    1.1017775651543847E+01
N    3.2216491799805920E+00    1.9062942873687598E+00    1.2987040474626015E+01
Ga    3.2226540165719384E+00    3.8470029335813144E-02    1.3612097913590766E+01
N    3.2218967401844383E+00    6.9303974493120951E-02    1.5571616827976168E+01
Ga    3.2206309327900877E+00    1.9082630464110579E+00    1.5849738696898763E+01
N    1.6531050793296755E+00    4.7132798587391651E+00    2.5245868573338552E+00
Ga    1.6361569241583538E+00    2.8072307567551524E+00    3.1405524450889382E+00
N    1.6026861101739502E+00    2.8469899081850563E+00    5.1571130726059415E+00
Ga    1.6312220765945440E+00    4.7017939630924559E+00    5.7668197960031806E+00
N    1.6233779031547320E+00    4.6978340214087346E+00    7.7695416411249747E+00
Ga    1.6132418519108835E+00    2.8462849389837772E+00    8.4320794858971126E+00
N    1.6064430544691057E+00    2.8447818828344094E+00    1.0422163648369148E+01
Ga    1.6311913906191879E+00    4.7019750004213714E+00    1.1063940169584338E+01
N    1.6445136849369411E+00    4.7099745598895373E+00    1.3053916875494451E+01
Ga    1.6034605457933504E+00    2.8418653791439192E+00    1.3615456715269936E+01
N    1.6305127548283374E+00    2.8250245950569619E+00    1.5572073854501488E+01
Ga    1.4343170122977413E+00    4.5875141577949297E+00    1.6490386009784785E+01
N    3.9013857852827228E-03    7.4503391037754589E+00    2.5813961200280344E+00
Ga   -3.4713567282542690E-03    5.6545251838873440E+00    3.1351908148005760E+00
N    9.9176070043214617E-03    5.6024508802007338E+00    5.1534981385292973E+00
Ga    1.0503454254193415E-02    7.4511586061170290E+00    5.8271043843620012E+00
N    8.5185096706748131E-03    7.4694701811279449E+00    7.8142718735701706E+00
Ga    1.4693411460642214E-02    5.6136066805525351E+00    8.4337517486347586E+00
N    9.5263285645060640E-03    5.6093356383498447E+00    1.0424228030780242E+01
Ga    5.4825217427275138E-03    7.4782229921365158E+00    1.1018820848156363E+01
N    6.8735064243933674E-03    7.4796491360748645E+00    1.2990478943894594E+01
Ga    5.8898503637391355E-03    5.6079156567181654E+00    1.3616005582956616E+01
N    9.5196595191424458E-03    5.6436270773739281E+00    1.5573151861568617E+01
Ga    3.1095192208333341E-03    7.4762495028156124E+00    1.5855169818995037E+01
N   -1.7151332662462606E+00    1.0197105483034518E+01    2.5127602586896973E+00
Ga   -1.4999105370258590E+00    8.3315989578207361E+00    3.2655629297683455E+00
N   -1.5965554020908042E+00    8.4007062505583594E+00    5.2305941041546156E+00
Ga   -1.5780522732575470E+00    1.0276105614097904E+01    5.7772027200914593E+00
N   -1.5930089648374131E+00    1.0267178437847351E+01    7.7774476018994161E+00
Ga   -1.6056747020341497E+00    8.4086369297779342E+00    8.4159233694252311E+00
N   -1.6107220326920459E+00    8.4109486563352611E+00    1.0413796901656191E+01
Ga   -1.5884429955232715E+00    1.0270920508759771E+01    1.1052522870141665E+01
N   -1.5724051740747567E+00    1.0280712565426031E+01    1.3047913862028647E+01
Ga   -1.6134627395815386E+00    8.4141446486609315E+00    1.3613519606426836E+01
N   -1.5813688804281645E+00    8.4019995119275919E+00    1.5574318282924756E+01
Ga   -1.7739847862324951E+00    1.0166376007974522E+01    1.6479247700893630E+01
N    6.4386718888432828E+00    2.0294218216004722E+00    2.5082601591807374E+00
Ga    6.4369692758738317E+00    4.7569353475344058E-02    2.8299198635214964E+00
N    6.4369919239570486E+00    4.8504865994921507E-02    5.0023107810011771E+00
Ga    6.4317126966712124E+00    1.8754986056329381E+00    5.7798618608148358E+00
N    6.4378089871426818E+00    1.8968277330632954E+00    7.7811485082567664E+00
Ga    6.4370855078740359E+00    4.9711271646217046E-02    8.4268250607220416E+00
N    6.4382841106614173E+00    5.0463835561136067E-02    1.0404037278665021E+01
Ga    6.4345005463302005E+00    1.8891594034133605E+00    1.1060788607463223E+01
N    6.4362150645827461E+00    1.8711721679266946E+00    1.3052470595535569E+01
Ga    6.4288317225340901E+00    5.4719232957747721E-02    1.3852549615321527E+01
N    6.4286291883924260E+00    5.6595739677217788E-02    1.6058988989358962E+01
Ga    6.4353884781473862E+00    2.1118265700409782E+00    1.6483989459576730E+01
Ga    6.4367170145987114E+00    3.7761775167662228E+00    1.4560097040965607E+00
N    4.9610184445958296E+00    4.6375795894107323E+00    2.5428312582625110E+00
Ga    4.7165992090754258E+00    2.7832968569777918E+00    3.2602813135876563E+00
N    4.8257963833659536E+00    2.8367138425650142E+00    5.2285284703347719E+00
Ga    4.8239688851414213E+00    4.7008239064208439E+00    5.8074875540898265E+00
N    4.8267534600259063E+00    4.6963867238424326E+00    7.7958474832581732E+00
Ga    4.8360721874442607E+00    2.8359550538995912E+00    8.4202843837757779E+00
N    4.8396459664351283E+00    2.8396670982271046E+00    1.0415189984430649E+01
Ga    4.8156184289632229E+00    4.6988638924912527E+00    1.1056351350256049E+01
N    4.7983478263311845E+00    4.7094721023642148E+00    1.3049791829927058E+01
Ga    4.8390732383651640E+00    2.8419101062387440E+00    1.3612663109355108E+01
N    4.8121705600637457E+00    2.8259665749446499E+00    1.5570296280815203E+01
Ga    5.0046267628995027E+00    4.5889499980508432E+00    1.6484577104647332E+01
N    6.4464425553699858E+00    3.7684945290712881E+00    1.7627976021649378E+01
N    3.2414541676108688E+00    7.6172666305652665E+00    2.5449901198672884E+00
Ga    3.3215106623704722E+00    5.6777017336179494E+00    2.9863155781605584E+00
N    3.2465299990436032E+00    5.6339484964087942E+00    5.0548856417431072E+00
Ga    3.2277029979164156E+00    7.4665263140898794E+00    5.8082671556686067E+00
N    3.2244513962504953E+00    7.4717319276492526E+00    7.7972973081250707E+00
Ga    3.2220541830748370E+00    5.6199008248704363E+00    8.4279679576556656E+00
N    3.2221227534473242E+00    5.6205234224775218E+00    1.0404517529016761E+01
Ga    3.2204785138141108E+00    7.4591773994807244E+00    1.1057178421146553E+01
N    3.2208501621294112E+00    7.4391402356570477E+00    1.3056719877608838E+01
Ga    3.2211020942362967E+00    5.6108327104617679E+00    1.3854798412150441E+01
N    3.2216790142229619E+00    5.6089349952578349E+00    1.6058350578463031E+01
Ga    3.2204311691356668E+00    7.6141096067520664E+00    1.6428215849389371E+01
Ga    3.2316817107964124E+00    9.3237578922183211E+00    1.4560100664092599E+00
N    1.7218659755448593E+00    1.0200383872331217E+01    2.5097614246767783E+00
Ga    1.5147716107364051E+00    8.3336314638125550E+00    3.2641098337338783E+00
N    1.6142313597563396E+00    8.4003354107009347E+00    5.2319543299219147E+00
Ga    1.5843318501124020E+00    1.0271965309086664E+01    5.7810743675868563E+00
N    1.6050700904744883E+00    1.0266667979668981E+01    7.7828327354839901E+00
Ga    1.6176025985646634E+00    8.4098379792750393E+00    8.4212373361413775E+00
N    1.6227392596726620E+00    8.4122130331714011E+00    1.0418839918515053E+01
Ga    1.5946493936527648E+00    1.0269979008870644E+01    1.1061270568649178E+01
N    1.5790197438958373E+00    1.0281480799338466E+01    1.3058824690768233E+01
Ga    1.6239142173207037E+00    8.4118582771081361E+00    1.3604914318632391E+01
N    1.6031000056788873E+00    8.4022968827513260E+00    1.5579456513907001E+01
Ga    1.7355177539058300E+00    1.0192736606936522E+01    1.6428397318079551E+01
N    3.2247020208221659E+00    9.3313558015281792E+00    1.7543229144954495E+01
N    9.7139835104346091E+00    1.9395652178834806E+00    2.6307473844531444E+00
Ga    9.6570187849716191E+00    1.6098944226012959E-01    3.2689015650005149E+00
N    9.6523000361428100E+00    5.6605411378004920E-02    5.2394679627628316E+00
Ga    9.6270284028119537E+00    1.8901020949215528E+00    5.9182116199698465E+00
N    9.6464601471429425E+00    1.9018106901530678E+00    7.8757516544610509E+00
Ga    9.6504642704875039E+00    3.1024803476113211E-02    8.4451861230303926E+00
N    9.6534043213586358E+00    3.4086653538106491E-02    1.0434609339395948E+01
Ga    9.6548363351756681E+00    1.9083841435412583E+00    1.1019127207230927E+01
N    9.6544386428064186E+00    1.9052009620900161E+00    1.2991498366318195E+01
Ga    9.6526786629313577E+00    3.8457124162747873E-02    1.3604989546774009E+01
N    9.6521023122866954E+00    6.1563729066813663E-02    1.5579881405310333E+01
Ga    9.6536464167493907E+00    1.9106165971240863E+00    1.5854714036655356E+01
N    7.9440102980601663E+00    4.6268038780891274E+00    2.5200151934799750E+00
Ga    8.1454038108696878E+00    2.7793228540808066E+00    3.2686364615180490E+00
N    8.0517184490031237E+00    2.8285402325257816E+00    5.2386659275894170E+00
Ga    8.0805997162830980E+00    4.7009352427782227E+00    5.8007417603642537E+00
N    8.0616967100423889E+00    4.6946622716766875E+00    7.7954214254011704E+00
Ga    8.0282289716274491E+00    2.8415918405010223E+00    8.4445557064319097E+00
N    8.0324552118388706E+00    2.8431368905318926E+00    1.0432515925569135E+01
Ga    8.0616598704610567E+00    4.7023912742581500E+00    1.1069993368535723E+01
N    8.0781087727999950E+00    4.7112810543660091E+00    1.3061217403698553E+01
Ga    8.0338988614536184E+00    2.8410655230849282E+00    1.3614385950707952E+01
N    8.0607782921932536E+00    2.8191287540252823E+00    1.5573573127365462E+01
Ga    7.8807949930640158E+00    4.5974457589095437E+00    1.6484023711381745E+01
N    6.4386135462605205E+00    7.4769208647914409E+00    2.6219883504871504E+00
Ga    6.4615395189757239E+00    5.7299944803037972E+00    3.2935795270883697E+00
N    6.4517069537655383E+00    5.6229105878929158E+00    5.2584279177171540E+00
Ga    6.4439683827890457E+00    7.4800424258862748E+00    5.8770601611441728E+00
N    6.4410599817502519E+00    7.4785490713832417E+00    7.8497397474554349E+00
Ga    6.4433434119802326E+00    5.6096873592275731E+00    8.4343080496758311E+00
N    6.4403502544017677E+00    5.6085637818935554E+00    1.0426097070997605E+01
Ga    6.4403252638464723E+00    7.4777716638192002E+00    1.1019874856642042E+01
N    6.4366243559981813E+00    7.4798528780407212E+00    1.2992305611690723E+01
Ga    6.4361431326771310E+00    5.6076363383378123E+00    1.3614004437978993E+01
N    6.4305025377081311E+00    5.6432435001831083E+00    1.5573012805356921E+01
Ga    6.4384961950455661E+00    7.4768901876896718E+00    1.5855951470953567E+01
N    4.7242655558353155E+00    1.0205859160837656E+01    2.5193225438060303E+00
Ga    4.9376451036823337E+00    8.3714465322036986E+00    3.2936974271543433E+00
N    4.8398074051135804E+00    8.4147901924497166E+00    5.2589013218334202E+00
Ga    4.8553136289840166E+00    1.0285675859848954E+01    5.8026902425504892E+00
N    4.8397463968921768E+00    1.0273380405104970E+01    7.7977790416014683E+00
Ga    4.8239061186262919E+00    8.4141800309708419E+00    8.4352895314254628E+00
N    4.8200559210360181E+00    8.4133922043817755E+00    1.0428669873332215E+01
Ga    4.8470573134678858E+00    1.0271561933443218E+01    1.1066978821354498E+01
N    4.8636493784468469E+00    1.0282658534114947E+01    1.3063285719675706E+01
Ga    4.8179947597354378E+00    8.4118227093570610E+00    1.3605282952694122E+01
N    4.8382569474778219E+00    8.4016409321080570E+00    1.5581027385729515E+01
Ga    4.7095436915590261E+00    1.0195345712016273E+01    1.6428320815002081E+01
O   -5.6213333409818944E-01    3.3343131422426748E+00   -5.7180402425570731E-01
H    1.6360531069063591E+00    4.7064661439059758E+00    1.4948525378800810E+00
C    2.3724645236186054E-01    2.2671561459166689E+00   -1.1289785217385324E+00
H    1.1377248909750792E+00    2.0531640762861270E+00   -5.2841301586171918E-01
H   -3.4536851934538165E-01    1.3375537578884056E+00   -1.2333219497733610E+00
H    5.5346637893680917E-01    2.5981832798487310E+00   -2.1295452805489092E+00
     &END COORD
     &KIND C
       BASIS_SET DZVP-MOLOPT-SR-GTH-q4
       POTENTIAL GTH-PBE-q4
       &POTENTIAL
2 2
0.3384712400000000E+00 2 -0.8803673979999999E+01  0.1339210850000000E+01
2
0.3025757500000000E+00 1  0.9622486650000001E+01
0.2915069400000000E+00 0
       &END POTENTIAL
     &END KIND
     &KIND O
       BASIS_SET DZVP-MOLOPT-SR-GTH-q6
       POTENTIAL GTH-PBE-q6
       &POTENTIAL
2 4
0.2445543000000000E+00 2 -0.1666721480000000E+02  0.2487311320000000E+01
2
0.2209559200000000E+00 1  0.1833745811000000E+02
0.2113324700000000E+00 0
       &END POTENTIAL
     &END KIND
     &KIND H
       BASIS_SET DZVP-MOLOPT-SR-GTH-q1
       POTENTIAL GTH-PBE-q1
       &POTENTIAL
1
0.2000000000000000E+00 2 -0.4178900440000000E+01  0.7244633100000000E+00
0
       &END POTENTIAL
     &END KIND
     &KIND N
       BASIS_SET DZVP-MOLOPT-SR-GTH
       POTENTIAL GTH-PBE-q5
       &POTENTIAL
2 3
0.2837905100000000E+00 2 -0.1241522559000000E+02  0.1868095920000000E+01
2
0.2554050000000000E+00 1  0.1363026257000000E+02
0.2454945300000000E+00 0
       &END POTENTIAL
     &END KIND
     &KIND Ga
       BASIS_SET DZVP-MOLOPT-SR-GTH
       POTENTIAL GTH-PBE-q13
       &POTENTIAL
2 1 10
0.4900000000000000E+00 0
3
0.4167772300000000E+00 3  0.1047568975000000E+02 -0.4921768140000000E+01  0.8707055900000000E+00
0.7770178090000000E+01 -0.2248152160000000E+01
0.1784415450000000E+01
0.5696265200000000E+00 2  0.1777985340000000E+01  0.1958597600000000E+00
-0.2317443900000000E+00
0.2381265000000000E+00 1 -0.1624868022000000E+02
       &END POTENTIAL
     &END KIND
     &TOPOLOGY
       NUMBER_OF_ATOMS  206
       MULTIPLE_UNIT_CELL  1 1 1
     &END TOPOLOGY
   &END SUBSYS
 &END FORCE_EVAL
