 # Version information for this restart file 
 # current date 2019-06-25 10:56:15.918
 # current working dir /scratch/rzk/rzk/GaN-carbene/443-adatoms-both-2x2/03-DissMethanol/03-O-GaTop-H-NTop
 # Program compiled at                              Sun Apr  7 00:48:11 EDT 2019
 # Program compiled on                          beluga2.int.ets1.calculquebec.ca
 # Program compiled for                        Beluga-Linux-x86-64-intel-openmpi
 # Source code revision number                                         svn:18619
 &GLOBAL
   PRINT_LEVEL  MEDIUM
   PROJECT_NAME TEST
   RUN_TYPE  GEO_OPT
 &END GLOBAL
 &MOTION
   &GEO_OPT
     MAX_ITER  500
     STEP_START_VAL  152
   &END GEO_OPT
 &END MOTION
 &FORCE_EVAL
   METHOD  QS
   STRESS_TENSOR  ANALYTICAL
   &DFT
     BASIS_SET_FILE_NAME BASIS_MOLOPT
     POTENTIAL_FILE_NAME GTH_POTENTIALS
     UKS  T
     SURFACE_DIPOLE_CORRECTION  T
     SURF_DIP_DIR  Z
     &SCF
       MAX_SCF  80
       EPS_SCF     5.0000000000000004E-06
       &OT  T
         PRECONDITIONER  FULL_ALL
       &END OT
       &OUTER_SCF  T
         OPTIMIZER  NONE
         EPS_SCF     5.0000000000000004E-06
         MAX_SCF  4
       &END OUTER_SCF
       &PRINT
         &RESTART  OFF
           BACKUP_COPIES  1
           &EACH
             JUST_ENERGY  0
             QS_SCF  0
             MD  20
           &END EACH
         &END RESTART
       &END PRINT
     &END SCF
     &QS
       EPS_DEFAULT     1.0000000000000000E-14
       METHOD  GPW
     &END QS
     &MGRID
       NGRIDS  5
       CUTOFF     1.2000000000000000E+03
     &END MGRID
     &XC
       DENSITY_CUTOFF     1.0000000000000000E-10
       GRADIENT_CUTOFF     1.0000000000000000E-10
       TAU_CUTOFF     1.0000000000000000E-10
       &XC_FUNCTIONAL  NO_SHORTCUT
         &PBE  T
         &END PBE
       &END XC_FUNCTIONAL
       &VDW_POTENTIAL
         POTENTIAL_TYPE  PAIR_POTENTIAL
         &PAIR_POTENTIAL
           R_CUTOFF     1.0000000000000005E+01
           TYPE  DFTD3
           PARAMETER_FILE_NAME dftd3.dat
           REFERENCE_FUNCTIONAL PBE
           EPS_CN     9.9999999999999995E-07
           CALCULATE_C9_TERM  T
           REFERENCE_C9_TERM  T
           LONG_RANGE_CORRECTION  F
           VERBOSE_OUTPUT  F
         &END PAIR_POTENTIAL
       &END VDW_POTENTIAL
     &END XC
   &END DFT
   &SUBSYS
     &CELL
       A     1.2864472766435110E+01    0.0000000000000000E+00    0.0000000000000000E+00
       B    -6.4322363581020028E+00    1.1140960178524475E+01    0.0000000000000000E+00
       C     0.0000000000000000E+00    0.0000000000000000E+00    3.2000000000000000E+01
       MULTIPLE_UNIT_CELL  1 1 1
       &CELL_REF
         A     1.2982353780853531E+01    0.0000000000000000E+00    0.0000000000000000E+00
         B    -6.4911768904267628E+00    1.1243048175136114E+01    0.0000000000000000E+00
         C     0.0000000000000000E+00    0.0000000000000000E+00    3.2000000000000000E+01
         MULTIPLE_UNIT_CELL  1 1 1
       &END CELL_REF
     &END CELL
     &COORD
N   -8.7349571165972681E-02    2.0212729899217976E+00    2.5144919397883481E+00
Ga   -1.1842943890528184E-02    5.0830601630875910E-02    2.8686151320114246E+00
N    7.3705182593397575E-03    5.5199681768690272E-02    5.0227058037410162E+00
Ga    4.2355518037413366E-02    1.8768741560961710E+00    5.8161743323361179E+00
N    1.9732421970446810E-02    1.8955573728278707E+00    7.8033685107427377E+00
Ga    1.0616661846118147E-02    4.9524404964055566E-02    8.4444416754936107E+00
N    6.9495017929106619E-03    5.0676956227883659E-02    1.0416204330574967E+01
Ga    7.4266875195862486E-03    1.8937057016465055E+00    1.1060342539405450E+01
N    6.4386916114001986E-03    1.8737504283971640E+00    1.3052209926730587E+01
Ga    1.5075098592190356E-02    5.8245924994840471E-02    1.3854810560358056E+01
N    1.5456066980129832E-02    5.7408241754656336E-02    1.6060405131915289E+01
Ga    6.7824665057222757E-03    2.1173838935251559E+00    1.6491768032845847E+01
Ga   -9.0683483266065656E-01    3.2456225123848434E+00    1.1920716941296865E+00
N   -1.5485766365106202E+00    4.5496511780171804E+00    2.5008072902519083E+00
Ga   -1.6941973224696154E+00    2.7747624319830182E+00    3.5009125960633467E+00
N   -1.6069108102674960E+00    2.8319505816313200E+00    5.3865459752538429E+00
Ga   -1.6093521250082277E+00    4.7372026323548777E+00    5.8155364412620854E+00
N   -1.6049950201215724E+00    4.7096207003406896E+00    7.8027418429576345E+00
Ga   -1.5878616703472022E+00    2.8437263443836831E+00    8.4264805570808470E+00
N   -1.5902742108252141E+00    2.8431487529554307E+00    1.0421832704680366E+01
Ga   -1.6148953583453975E+00    4.7011128284706194E+00    1.1064694659367612E+01
N   -1.6333972553435612E+00    4.7109856809725432E+00    1.3056906848729778E+01
Ga   -1.5901185632155082E+00    2.8430097482363368E+00    1.3616715283302694E+01
N   -1.6196194443596343E+00    2.8199882048802762E+00    1.5574586957920765E+01
Ga   -1.4321450900582651E+00    4.5941273023084594E+00    1.6491062814959495E+01
N   -7.8046784208208046E-05    3.7690189020748868E+00    1.7638739860921515E+01
N   -3.2126237113244280E+00    7.5897513120642301E+00    2.5198395556984359E+00
Ga   -3.2214202415426292E+00    5.6044886658806803E+00    2.8619432560399396E+00
N   -3.2027204808387810E+00    5.6167351673426094E+00    5.0174458789612277E+00
Ga   -3.2054732698250930E+00    7.4499792308165471E+00    5.7897650352783385E+00
N   -3.2085284697288290E+00    7.4655699365713524E+00    7.7862752506690347E+00
Ga   -3.2083320036197236E+00    5.6241961588726745E+00    8.4457381111155367E+00
N   -3.2097038765360448E+00    5.6211616650470679E+00    1.0416880024470816E+01
Ga   -3.2074784634216482E+00    7.4617441224119192E+00    1.1063703545252928E+01
N   -3.2097529378133296E+00    7.4411627362968034E+00    1.3057386659211549E+01
Ga   -3.2084916139695476E+00    5.6201337991711933E+00    1.3870791048695288E+01
N   -3.2102071146502764E+00    5.6196732349742646E+00    1.6062349646368364E+01
Ga   -3.2105140922989888E+00    7.6607409204427430E+00    1.6479838086408570E+01
Ga   -3.2171780364931375E+00    9.3271210465945344E+00    1.4793454244211850E+00
N   -4.7214688777426446E+00    1.0203072100450138E+01    2.5174281007702186E+00
Ga   -4.9135653842315063E+00    8.3503843903320796E+00    3.2866002334127784E+00
N   -4.8146793906459155E+00    8.4066605031640265E+00    5.2490284585415941E+00
Ga   -4.8380464026737862E+00    1.0278301277732893E+01    5.7911692901159588E+00
N   -4.8265769505984100E+00    1.0268732524547559E+01    7.7873271059019435E+00
Ga   -4.8035937590950564E+00    8.4131240058523176E+00    8.4301415981127441E+00
N   -4.8049226893427024E+00    8.4128381677534101E+00    1.0423907800886367E+01
Ga   -4.8287533996510899E+00    1.0272406301917854E+01    1.1059432965369979E+01
N   -4.8480057116311874E+00    1.0281538321139191E+01    1.3052578042017553E+01
Ga   -4.8059231989547877E+00    8.4138794228657190E+00    1.3614259801782925E+01
N   -4.8402829529111333E+00    8.4013497434697957E+00    1.5575361657918318E+01
Ga   -4.6451930706900084E+00    1.0165692440444966E+01    1.6481508674577739E+01
N   -3.2093372958847142E+00    9.3235388283127936E+00    1.7618293863558101E+01
N    3.1952294919598310E+00    1.9180449075440960E+00    2.5745201327573555E+00
Ga    3.2088489525596868E+00    1.7458168608595470E-01    3.2623532891829576E+00
N    3.2209832031889336E+00    5.6681425847998158E-02    5.2282923811299531E+00
Ga    3.2034403794754351E+00    1.9223526762401117E+00    5.8272256686707484E+00
N    3.2172922302448357E+00    1.9122812992885232E+00    7.8131471162104189E+00
Ga    3.2237264714588356E+00    4.5264192374229385E-02    8.4154890555555060E+00
N    3.2226527927084878E+00    4.0632953595397661E-02    1.0412216195415454E+01
Ga    3.2228808192811491E+00    1.9069686696820018E+00    1.1017726173603720E+01
N    3.2211547010514425E+00    1.9065924189825112E+00    1.2986766961021653E+01
Ga    3.2225009068795587E+00    3.8818720137328303E-02    1.3612032310716787E+01
N    3.2221933389389315E+00    6.9136497988702278E-02    1.5571596522182759E+01
Ga    3.2213615148359409E+00    1.9078818623128730E+00    1.5851144228463880E+01
N    1.6532951785010934E+00    4.7132702507058823E+00    2.5246476038604970E+00
Ga    1.6367617328082866E+00    2.8069520777250254E+00    3.1408028730484379E+00
N    1.6028098014812231E+00    2.8469967569295478E+00    5.1572930740144747E+00
Ga    1.6313823339569948E+00    4.7017277451004844E+00    5.7668115925308756E+00
N    1.6234849253179353E+00    4.6977460107104214E+00    7.7696054744229626E+00
Ga    1.6134361223403577E+00    2.8461457072880720E+00    8.4323280869892656E+00
N    1.6062838223531128E+00    2.8449156205311485E+00    1.0422331395173293E+01
Ga    1.6309097378308570E+00    4.7018543175573493E+00    1.1063652960500090E+01
N    1.6441023056742405E+00    4.7099081990181704E+00    1.3053727091533426E+01
Ga    1.6035235282863085E+00    2.8419248404477098E+00    1.3615250650160380E+01
N    1.6305149716017890E+00    2.8250731518778704E+00    1.5571972275718858E+01
Ga    1.4337732751968735E+00    4.5872024058140006E+00    1.6490340082746830E+01
N    3.8040124564631800E-03    7.4504404718572346E+00    2.5815963621847042E+00
Ga   -3.2827534796455674E-03    5.6548837179541689E+00    3.1354631193777296E+00
N    1.0170344628533516E-02    5.6023655479234495E+00    5.1536721502953702E+00
Ga    1.0499280765124200E-02    7.4512229871912901E+00    5.8266687543428883E+00
N    8.5324683353564142E-03    7.4694043773931709E+00    7.8139927438360495E+00
Ga    1.4737831836204912E-02    5.6135719799118080E+00    8.4337211822319524E+00
N    9.4442681974414976E-03    5.6091724635260460E+00    1.0424311557727396E+01
Ga    4.9948748895031047E-03    7.4779862362326739E+00    1.1018642396925003E+01
N    6.2617087638588672E-03    7.4789872522601186E+00    1.2990816375375323E+01
Ga    5.6221825773666891E-03    5.6072082967700405E+00    1.3616287071627710E+01
N    9.9045651611139335E-03    5.6438129638482195E+00    1.5573859326311187E+01
Ga    2.7814277224236105E-03    7.4765445988351660E+00    1.5854964833142688E+01
N   -1.7150993396096916E+00    1.0196933637324307E+01    2.5124990153471622E+00
Ga   -1.5004010900023097E+00    8.3320344961262922E+00    3.2649303451980667E+00
N   -1.5963597312986275E+00    8.4006838714117738E+00    5.2302535743886267E+00
Ga   -1.5780456625608881E+00    1.0276070293571873E+01    5.7766582306543102E+00
N   -1.5931060104162991E+00    1.0267249082104481E+01    7.7771691707283335E+00
Ga   -1.6057961526433415E+00    8.4087399952591220E+00    8.4157561343042087E+00
N   -1.6108141416086985E+00    8.4108527680308658E+00    1.0413664185248782E+01
Ga   -1.5889681674643081E+00    1.0270813550089995E+01    1.1052032241428112E+01
N   -1.5728982850340327E+00    1.0280511105821930E+01    1.3047497727661666E+01
Ga   -1.6142709545212017E+00    8.4140962259136742E+00    1.3613891935150185E+01
N   -1.5815278885931670E+00    8.4020866136808436E+00    1.5574580649126904E+01
Ga   -1.7752360356648837E+00    1.0165881482463821E+01    1.6481050455308097E+01
N    6.4389051931992860E+00    2.0291675915679823E+00    2.5082052986174035E+00
Ga    6.4360165533162892E+00    4.7436617115135131E-02    2.8299279978341354E+00
N    6.4373874193786840E+00    4.8593484839959455E-02    5.0030179163339739E+00
Ga    6.4317802530106452E+00    1.8755849803779534E+00    5.7796875921827979E+00
N    6.4377437567805087E+00    1.8969523988891921E+00    7.7810783856606012E+00
Ga    6.4370139657910777E+00    4.9752057881286151E-02    8.4266184368200001E+00
N    6.4380233537514115E+00    5.0685335509255393E-02    1.0404103038116936E+01
Ga    6.4343209910799608E+00    1.8895345282176399E+00    1.1060741787953708E+01
N    6.4359856846938284E+00    1.8718347459838638E+00    1.3052520951688992E+01
Ga    6.4280566499320724E+00    5.5038204267094680E-02    1.3852054793761187E+01
N    6.4277843060782223E+00    5.6869569244661661E-02    1.6058898880682069E+01
Ga    6.4348838433009199E+00    2.1136753579760534E+00    1.6485698169040095E+01
Ga    6.4369901464403165E+00    3.7762205546237531E+00    1.4552614830725619E+00
N    4.9612708882431287E+00    4.6376159923933198E+00    2.5432627783444728E+00
Ga    4.7169055009219365E+00    2.7831479312970546E+00    3.2601345629406779E+00
N    4.8260839800526689E+00    2.8368063133853174E+00    5.2282588281187010E+00
Ga    4.8243180497447797E+00    4.7006458755995011E+00    5.8072558056399162E+00
N    4.8267678665381668E+00    4.6963259651490707E+00    7.7956499297459194E+00
Ga    4.8359320742927814E+00    2.8358833431093764E+00    8.4205178890694388E+00
N    4.8393389976401409E+00    2.8398082356945133E+00    1.0415486932500826E+01
Ga    4.8155675201107906E+00    4.6989284046232394E+00    1.1056603535048742E+01
N    4.7985377851038935E+00    4.7094454856106678E+00    1.3050076769731985E+01
Ga    4.8385430102611631E+00    2.8418546995884761E+00    1.3613177142332669E+01
N    4.8117117992117802E+00    2.8252948726523743E+00    1.5569792752254225E+01
Ga    5.0055860081105354E+00    4.5880302966649040E+00    1.6486158368994609E+01
N    6.4455184010184805E+00    3.7687207747811642E+00    1.7628800650877086E+01
N    3.2417811351332881E+00    7.6170946158070336E+00    2.5452870190805008E+00
Ga    3.3217891417818612E+00    5.6770835270401063E+00    2.9869566008230999E+00
N    3.2467722533862693E+00    5.6340179773681154E+00    5.0553898585050190E+00
Ga    3.2278442015122533E+00    7.4666032453056976E+00    5.8082273485005196E+00
N    3.2245316060965425E+00    7.4717264492026079E+00    7.7972349154445908E+00
Ga    3.2222004124572066E+00    5.6198736065040045E+00    8.4280504094499076E+00
N    3.2218804057577648E+00    5.6202011492208843E+00    1.0404676949448643E+01
Ga    3.2204939266251249E+00    7.4589458866092526E+00    1.1056791925950142E+01
N    3.2209159645251422E+00    7.4385589142928374E+00    1.3056447689249387E+01
Ga    3.2208422707263180E+00    5.6101872823342207E+00    1.3854604417444994E+01
N    3.2215285751143474E+00    5.6083328271971409E+00    1.6058291939660691E+01
Ga    3.2200949401534182E+00    7.6121118520234150E+00    1.6427761296225551E+01
Ga    3.2319321441122999E+00    9.3237062143356120E+00    1.4565407429655775E+00
N    1.7218498685923003E+00    1.0200489252354789E+01    2.5095190003997363E+00
Ga    1.5144937587390084E+00    8.3334636804238720E+00    3.2641353421958019E+00
N    1.6145715601707573E+00    8.4003828333149482E+00    5.2317403147493806E+00
Ga    1.5843898601581945E+00    1.0271950291183291E+01    5.7810873606190700E+00
N    1.6052071339493417E+00    1.0266660047967093E+01    7.7828174289201879E+00
Ga    1.6175505393229794E+00    8.4098251285221313E+00    8.4211481830408594E+00
N    1.6225419165252224E+00    8.4119806620046216E+00    1.0419038191366038E+01
Ga    1.5946291313085124E+00    1.0270059731776355E+01    1.1060690466068440E+01
N    1.5787170560078219E+00    1.0281676371265393E+01    1.3058543177608859E+01
Ga    1.6237409793831423E+00    8.4115351170953936E+00    1.3604898793895385E+01
N    1.6039215252022954E+00    8.4026471731420767E+00    1.5580195126362090E+01
Ga    1.7330484309968077E+00    1.0193759662642856E+01    1.6428473909170229E+01
N    3.2229853356864178E+00    9.3315330661827804E+00    1.7546981765890589E+01
N    9.7138155356520759E+00    1.9395571542881349E+00    2.6308085547232629E+00
Ga    9.6570409659389007E+00    1.6122724024114551E-01    3.2691803900097911E+00
N    9.6524748601880361E+00    5.6299479262003543E-02    5.2394744686901973E+00
Ga    9.6269091829277276E+00    1.8901577166299726E+00    5.9177869542107757E+00
N    9.6465341348205413E+00    1.9018974957297041E+00    7.8753858495592270E+00
Ga    9.6505494591654379E+00    3.1099588447119016E-02    8.4450799355264312E+00
N    9.6534817237681274E+00    3.4506147354965343E-02    1.0434684966258528E+01
Ga    9.6548420654535683E+00    1.9089265168249054E+00    1.1019234544990677E+01
N    9.6545417589964142E+00    1.9060984777427536E+00    1.2991608770860026E+01
Ga    9.6529252312813085E+00    3.9169610923706501E-02    1.3605115696687175E+01
N    9.6521261295489875E+00    6.0433747388300485E-02    1.5580428426307655E+01
Ga    9.6531956161833605E+00    1.9106701957464605E+00    1.5855175870073914E+01
N    7.9445123747420840E+00    4.6267852135724850E+00    2.5201995904538963E+00
Ga    8.1451927604131082E+00    2.7794053145979887E+00    3.2687448524754350E+00
N    8.0516116034415681E+00    2.8286373560092155E+00    5.2386011078376589E+00
Ga    8.0805115575558712E+00    4.7008474318622557E+00    5.8006584909049064E+00
N    8.0616632530872021E+00    4.6947440862690142E+00    7.7953889412985857E+00
Ga    8.0281376329935590E+00    2.8416616578919074E+00    8.4444204324415839E+00
N    8.0323726385519674E+00    2.8433238742220799E+00    1.0432460986819930E+01
Ga    8.0616002611556663E+00    4.7025721178112736E+00    1.1070211890344570E+01
N    8.0782136523541102E+00    4.7116345780422551E+00    1.3061048650143729E+01
Ga    8.0337721879632884E+00    2.8417222092344776E+00    1.3615097786059991E+01
N    8.0613753091930764E+00    2.8189406287213430E+00    1.5573214571060291E+01
Ga    7.8788383964332862E+00    4.5964859246381318E+00    1.6484382380906379E+01
N    6.4391285392953357E+00    7.4768028494862575E+00    2.6223801680390535E+00
Ga    6.4620048030406592E+00    5.7298433298917502E+00    3.2936540226081923E+00
N    6.4517836256506245E+00    5.6227962686603812E+00    5.2583176594108485E+00
Ga    6.4442672428142931E+00    7.4799058236860017E+00    5.8767124892284235E+00
N    6.4411034443790403E+00    7.4785300350837538E+00    7.8494275206532356E+00
Ga    6.4432878353012244E+00    5.6097213384080113E+00    8.4344116760478283E+00
N    6.4402294522108692E+00    5.6084976059290828E+00    1.0426274805818222E+01
Ga    6.4405418666267966E+00    7.4776709777064392E+00    1.1019929764828397E+01
N    6.4370079334766306E+00    7.4794756964508284E+00    1.2992447688130135E+01
Ga    6.4365011452740921E+00    5.6072391521455227E+00    1.3614812340907076E+01
N    6.4310284462077769E+00    5.6438393778646585E+00    1.5572815841053027E+01
Ga    6.4390927115227647E+00    7.4764752760475144E+00    1.5855706187387847E+01
N    4.7246347903875181E+00    1.0206066193038353E+01    2.5193381787202442E+00
Ga    4.9385190581045100E+00    8.3713058054725575E+00    3.2939552189225356E+00
N    4.8398636648103430E+00    8.4148112593967461E+00    5.2588603693944123E+00
Ga    4.8553758324763896E+00    1.0285552703860590E+01    5.8028375648119264E+00
N    4.8398469837795295E+00    1.0273353555841547E+01    7.7978504389259751E+00
Ga    4.8240876084803892E+00    8.4141344779640086E+00    8.4353651186124416E+00
N    4.8201059009988070E+00    8.4133204134645609E+00    1.0428850961026379E+01
Ga    4.8472963094107167E+00    1.0271737379217987E+01    1.1066349937499250E+01
N    4.8640844865292285E+00    1.0282845231606467E+01    1.3062825856458698E+01
Ga    4.8184413930888024E+00    8.4116202157171820E+00    1.3605349354255726E+01
N    4.8372858502397369E+00    8.4020512802741791E+00    1.5581200543688965E+01
Ga    4.7105934523041624E+00    1.0195884436543055E+01    1.6427378840600216E+01
O   -5.5946284338803065E-01    3.3352509459471338E+00   -5.7114885128518211E-01
H    1.6363217250386377E+00    4.7062048284979463E+00    1.4949125786410220E+00
C    2.3912713850952527E-01    2.2675190502076981E+00   -1.1296596283718432E+00
H    1.1397945337538224E+00    2.0542329118581146E+00   -5.2819073154180896E-01
H   -3.4280305881467227E-01    1.3372846615069061E+00   -1.2330414207182205E+00
H    5.5447238439522262E-01    2.5993397855083948E+00   -2.1304400860951169E+00
     &END COORD
     &KIND C
       BASIS_SET DZVP-MOLOPT-SR-GTH-q4
       POTENTIAL GTH-PBE-q4
       &POTENTIAL
2 2
0.3384712400000000E+00 2 -0.8803673979999999E+01  0.1339210850000000E+01
2
0.3025757500000000E+00 1  0.9622486650000001E+01
0.2915069400000000E+00 0
       &END POTENTIAL
     &END KIND
     &KIND O
       BASIS_SET DZVP-MOLOPT-SR-GTH-q6
       POTENTIAL GTH-PBE-q6
       &POTENTIAL
2 4
0.2445543000000000E+00 2 -0.1666721480000000E+02  0.2487311320000000E+01
2
0.2209559200000000E+00 1  0.1833745811000000E+02
0.2113324700000000E+00 0
       &END POTENTIAL
     &END KIND
     &KIND H
       BASIS_SET DZVP-MOLOPT-SR-GTH-q1
       POTENTIAL GTH-PBE-q1
       &POTENTIAL
1
0.2000000000000000E+00 2 -0.4178900440000000E+01  0.7244633100000000E+00
0
       &END POTENTIAL
     &END KIND
     &KIND N
       BASIS_SET DZVP-MOLOPT-SR-GTH
       POTENTIAL GTH-PBE-q5
       &POTENTIAL
2 3
0.2837905100000000E+00 2 -0.1241522559000000E+02  0.1868095920000000E+01
2
0.2554050000000000E+00 1  0.1363026257000000E+02
0.2454945300000000E+00 0
       &END POTENTIAL
     &END KIND
     &KIND Ga
       BASIS_SET DZVP-MOLOPT-SR-GTH
       POTENTIAL GTH-PBE-q13
       &POTENTIAL
2 1 10
0.4900000000000000E+00 0
3
0.4167772300000000E+00 3  0.1047568975000000E+02 -0.4921768140000000E+01  0.8707055900000000E+00
0.7770178090000000E+01 -0.2248152160000000E+01
0.1784415450000000E+01
0.5696265200000000E+00 2  0.1777985340000000E+01  0.1958597600000000E+00
-0.2317443900000000E+00
0.2381265000000000E+00 1 -0.1624868022000000E+02
       &END POTENTIAL
     &END KIND
     &TOPOLOGY
       NUMBER_OF_ATOMS  206
       MULTIPLE_UNIT_CELL  1 1 1
     &END TOPOLOGY
   &END SUBSYS
 &END FORCE_EVAL
