 # Version information for this restart file 
 # current date 2019-06-24 21:18:24.799
 # current working dir /scratch/rzk/rzk/GaN-carbene/443-adatoms-both-2x2/03-DissMethanol/03-O-GaTop-H-NTop
 # Program compiled at                              Sun Apr  7 00:48:11 EDT 2019
 # Program compiled on                          beluga2.int.ets1.calculquebec.ca
 # Program compiled for                        Beluga-Linux-x86-64-intel-openmpi
 # Source code revision number                                         svn:18619
 &GLOBAL
   PRINT_LEVEL  MEDIUM
   PROJECT_NAME TEST
   RUN_TYPE  GEO_OPT
 &END GLOBAL
 &MOTION
   &GEO_OPT
     MAX_ITER  500
     STEP_START_VAL  60
   &END GEO_OPT
 &END MOTION
 &FORCE_EVAL
   METHOD  QS
   STRESS_TENSOR  ANALYTICAL
   &DFT
     BASIS_SET_FILE_NAME BASIS_MOLOPT
     POTENTIAL_FILE_NAME GTH_POTENTIALS
     UKS  T
     SURFACE_DIPOLE_CORRECTION  T
     SURF_DIP_DIR  Z
     &SCF
       MAX_SCF  80
       EPS_SCF     5.0000000000000004E-06
       &OT  T
         PRECONDITIONER  FULL_ALL
       &END OT
       &OUTER_SCF  T
         OPTIMIZER  NONE
         EPS_SCF     5.0000000000000004E-06
         MAX_SCF  4
       &END OUTER_SCF
       &PRINT
         &RESTART  OFF
           BACKUP_COPIES  1
           &EACH
             JUST_ENERGY  0
             QS_SCF  0
             MD  20
           &END EACH
         &END RESTART
       &END PRINT
     &END SCF
     &QS
       EPS_DEFAULT     1.0000000000000000E-14
       METHOD  GPW
     &END QS
     &MGRID
       NGRIDS  5
       CUTOFF     1.2000000000000000E+03
     &END MGRID
     &XC
       DENSITY_CUTOFF     1.0000000000000000E-10
       GRADIENT_CUTOFF     1.0000000000000000E-10
       TAU_CUTOFF     1.0000000000000000E-10
       &XC_FUNCTIONAL  NO_SHORTCUT
         &PBE  T
         &END PBE
       &END XC_FUNCTIONAL
       &VDW_POTENTIAL
         POTENTIAL_TYPE  PAIR_POTENTIAL
         &PAIR_POTENTIAL
           R_CUTOFF     1.0000000000000004E+01
           TYPE  DFTD3
           PARAMETER_FILE_NAME dftd3.dat
           REFERENCE_FUNCTIONAL PBE
           EPS_CN     9.9999999999999995E-07
           CALCULATE_C9_TERM  T
           REFERENCE_C9_TERM  T
           LONG_RANGE_CORRECTION  F
           VERBOSE_OUTPUT  F
         &END PAIR_POTENTIAL
       &END VDW_POTENTIAL
     &END XC
   &END DFT
   &SUBSYS
     &CELL
       A     1.2864472766435110E+01    0.0000000000000000E+00    0.0000000000000000E+00
       B    -6.4322363581020028E+00    1.1140960178524473E+01    0.0000000000000000E+00
       C     0.0000000000000000E+00    0.0000000000000000E+00    3.2000000000000000E+01
       MULTIPLE_UNIT_CELL  1 1 1
       &CELL_REF
         A     1.2982353780853531E+01    0.0000000000000000E+00    0.0000000000000000E+00
         B    -6.4911768904267628E+00    1.1243048175136114E+01    0.0000000000000000E+00
         C     0.0000000000000000E+00    0.0000000000000000E+00    3.2000000000000000E+01
         MULTIPLE_UNIT_CELL  1 1 1
       &END CELL_REF
     &END CELL
     &COORD
N   -9.6547498274317120E-02    2.0229348245435439E+00    2.5257558672863052E+00
Ga   -2.2359140755925370E-02    5.1810302679208872E-02    2.8760476186102610E+00
N   -3.6003218697868745E-03    5.5541984450172610E-02    5.0282902104224911E+00
Ga    2.8416928973853905E-02    1.8784652815124578E+00    5.8207654958517656E+00
N    9.6460504401715743E-03    1.8968462991821284E+00    7.8089038768595813E+00
Ga    1.7570285357838668E-03    5.0713488905282510E-02    8.4524312786936715E+00
N   -3.3742049405727112E-04    5.1840275976809333E-02    1.0423023278285878E+01
Ga   -1.8511340263848539E-04    1.8933451301579325E+00    1.1068876604502353E+01
N    3.4012519373902118E-04    1.8733463484796429E+00    1.3062958907573641E+01
Ga    2.6686440998625362E-04    5.0839977240475134E-02    1.3865519294201411E+01
N   -1.8055419484026153E-03    4.9282342259907547E-02    1.6067098718616489E+01
Ga    3.2906529226912687E-03    2.0797670066391838E+00    1.6467838934199520E+01
Ga   -8.4938854843209766E-01    3.2858290663636076E+00    1.2035225638898448E+00
N   -1.5575061728024602E+00    4.5536175032839994E+00    2.5041416941039123E+00
Ga   -1.7127676463858201E+00    2.7710386939048113E+00    3.4929335032792310E+00
N   -1.6195757331087903E+00    2.8320988141324133E+00    5.3829968113310178E+00
Ga   -1.6209272839220237E+00    4.7347183033928850E+00    5.8203186352848544E+00
N   -1.6142783836206958E+00    4.7098881965466877E+00    7.8082343700362982E+00
Ga   -1.5972038928008798E+00    2.8444940267641763E+00    8.4348848873358975E+00
N   -1.5977155202531308E+00    2.8441543449829392E+00    1.0429446169000963E+01
Ga   -1.6227242845303347E+00    4.7029909199090616E+00    1.1068772886792452E+01
N   -1.6395191473341808E+00    4.7128985621781139E+00    1.3062562759562162E+01
Ga   -1.5969953599965416E+00    2.8443531303386069E+00    1.3618809715593617E+01
N   -1.6208281189993206E+00    2.8316903056438356E+00    1.5586177133975092E+01
Ga   -1.4596149270386203E+00    4.6142822138399540E+00    1.6468796136419741E+01
N   -1.0470427232338040E-02    3.7613216577501163E+00    1.7603058043258240E+01
N   -3.2244474639602827E+00    7.5905521528975521E+00    2.5220082036805489E+00
Ga   -3.2341272353965520E+00    5.6075057764361862E+00    2.8662354622184987E+00
N   -3.2135561690561869E+00    5.6171652597235173E+00    5.0212693270894420E+00
Ga   -3.2162568453794327E+00    7.4507929384422305E+00    5.7963332174068958E+00
N   -3.2181910325324337E+00    7.4668109227774586E+00    7.7926364494058475E+00
Ga   -3.2171081877885763E+00    5.6254448730756312E+00    8.4522308265842678E+00
N   -3.2174718887953051E+00    5.6233944517520351E+00    1.0422801105283535E+01
Ga   -3.2150492638337256E+00    7.4643811215043820E+00    1.1069046281608747E+01
N   -3.2160218078514848E+00    7.4442821453348227E+00    1.3062265157975210E+01
Ga   -3.2177445771672706E+00    5.6240124877651008E+00    1.3865762640019970E+01
N   -3.2200708476687629E+00    5.6241152131440844E+00    1.6067599301926073E+01
Ga   -3.2133559788002000E+00    7.6678953959913381E+00    1.6482567075547600E+01
Ga   -3.2294034981233755E+00    9.3288848456756224E+00    1.4737437347456861E+00
N   -4.7336681089682617E+00    1.0204311689163468E+01    2.5205692168566025E+00
Ga   -4.9234446577505739E+00    8.3526268649511852E+00    3.2902325292381094E+00
N   -4.8253813811723099E+00    8.4074511883514482E+00    5.2536682390268741E+00
Ga   -4.8484628286553573E+00    1.0278926198905127E+01    5.7985030168380858E+00
N   -4.8357310076285902E+00    1.0269509785128278E+01    7.7942731835081824E+00
Ga   -4.8128959722421936E+00    8.4141926283586006E+00    8.4388593430208552E+00
N   -4.8128417097644389E+00    8.4149785112414790E+00    1.0431086232710436E+01
Ga   -4.8372016254743739E+00    1.0273955547543020E+01    1.1069399474614526E+01
N   -4.8547857139705739E+00    1.0282958583914516E+01    1.3062699337283844E+01
Ga   -4.8125098452714905E+00    8.4147994218799749E+00    1.3622378524159613E+01
N   -4.8392766600846304E+00    8.4001802099446934E+00    1.5585602403768124E+01
Ga   -4.6608998905455508E+00    1.0174733013270721E+01    1.6482055566474227E+01
N   -3.2240238359623326E+00    9.3332279137798082E+00    1.7623903383939894E+01
N    3.1844045643714041E+00    1.9185589809156962E+00    2.5803988589706286E+00
Ga    3.1971454611137173E+00    1.7305691382767047E-01    3.2675609445449689E+00
N    3.2102515769021895E+00    5.7320085667584689E-02    5.2344977710530411E+00
Ga    3.1925369284141847E+00    1.9211982722869185E+00    5.8398221714127230E+00
N    3.2075557419670764E+00    1.9126350563708558E+00    7.8242730868257082E+00
Ga    3.2145543438119288E+00    4.5026913380708813E-02    8.4254605983319308E+00
N    3.2150277398800000E+00    4.1082113575251614E-02    1.0421922534631253E+01
Ga    3.2150445788359687E+00    1.9071186290234940E+00    1.1027210045938723E+01
N    3.2151723376183794E+00    1.9087445811461849E+00    1.2997834398354664E+01
Ga    3.2170541882014763E+00    3.9060479013270977E-02    1.3619510007262079E+01
N    3.2191304742529185E+00    7.1822691411534051E-02    1.5579258593450994E+01
Ga    3.2165912761879389E+00    1.9089586700711008E+00    1.5859184590563036E+01
N    1.6410094625094691E+00    4.7127636921502161E+00    2.5326507649590062E+00
Ga    1.6279998737253201E+00    2.8050956856195906E+00    3.1548330923352461E+00
N    1.5931616541822833E+00    2.8475524138662833E+00    5.1679410125111520E+00
Ga    1.6212443133312566E+00    4.7023398671407257E+00    5.7773767643239875E+00
N    1.6144418851554518E+00    4.6989237614291612E+00    7.7786972153756642E+00
Ga    1.6030491167517920E+00    2.8469892920557864E+00    8.4419841568563481E+00
N    1.5985127858287442E+00    2.8461844418057840E+00    1.0431825681791160E+01
Ga    1.6245435195393034E+00    4.7043052305566082E+00    1.1071413506874341E+01
N    1.6401506623258209E+00    4.7129017631406231E+00    1.3063152979401279E+01
Ga    1.5977290055988693E+00    2.8444102830744145E+00    1.3617546747579226E+01
N    1.6242544624047208E+00    2.8335775027665360E+00    1.5580887427428870E+01
Ga    1.4539224773205881E+00    4.6071230239852845E+00    1.6468239186875255E+01
N   -7.8807006007582583E-03    7.4517630203289489E+00    2.5875490136360555E+00
Ga   -1.3453072607323240E-02    5.6591507303144288E+00    3.1487288889925278E+00
N   -1.4223855790395016E-04    5.6032116277169202E+00    5.1630526709416635E+00
Ga   -1.7557899183090265E-03    7.4524545544953593E+00    5.8374427691753672E+00
N   -1.6352209833324814E-03    7.4703296429159938E+00    7.8227129583666235E+00
Ga    5.0335239504054633E-03    5.6144514311637304E+00    8.4421986871639803E+00
N    2.1184145832729988E-03    5.6107265614425268E+00    1.0431841477702072E+01
Ga   -3.2090772208764004E-03    7.4804041374928794E+00    1.1025927135622828E+01
N   -1.6063469035379411E-03    7.4796718540416256E+00    1.2996050281259333E+01
Ga    3.9966688978529267E-04    5.6109651606125892E+00    1.3615923003913137E+01
N    3.4770036968505683E-03    5.6399952989585360E+00    1.5578541493318331E+01
Ga   -7.2624515280994236E-04    7.4812023655452577E+00    1.5858887233081566E+01
N   -1.7271450487869429E+00    1.0197306825053923E+01    2.5171621010746272E+00
Ga   -1.5143665040711578E+00    8.3335172904929156E+00    3.2694683385696819E+00
N   -1.6073526968901757E+00    8.4012488673408612E+00    5.2358647363044808E+00
Ga   -1.5894722329479334E+00    1.0276129374295703E+01    5.7852520149258657E+00
N   -1.6025769545635704E+00    1.0268289690729345E+01    7.7848412186128124E+00
Ga   -1.6156486560005332E+00    8.4101548557896493E+00    8.4239727993090892E+00
N   -1.6190095793758499E+00    8.4134177732670530E+00    1.0420802139157086E+01
Ga   -1.5958078602153918E+00    1.0272207925338497E+01    1.1064035717401721E+01
N   -1.5778359733518967E+00    1.0282568586985301E+01    1.3058520822366741E+01
Ga   -1.6195386143901884E+00    8.4157026158653228E+00    1.3619626850153862E+01
N   -1.5904459066062542E+00    8.4021265633589461E+00    1.5579442206365306E+01
Ga   -1.7732632663700387E+00    1.0170406445157958E+01    1.6483368935062295E+01
N    6.4242099240302117E+00    2.0293215438744352E+00    2.5188528329091628E+00
Ga    6.4226247711621989E+00    4.6719564616042951E-02    2.8408076384795615E+00
N    6.4267181423089372E+00    4.8967605142208111E-02    5.0113981064202608E+00
Ga    6.4200344060863097E+00    1.8749550909565975E+00    5.7933931899751583E+00
N    6.4273652523813860E+00    1.8969088293888647E+00    7.7922350190920104E+00
Ga    6.4270477426751942E+00    4.9841918033856632E-02    8.4389589505198010E+00
N    6.4295609790382802E+00    5.1565631908543373E-02    1.0413876182105112E+01
Ga    6.4268327502394120E+00    1.8892773372737961E+00    1.1071833763937244E+01
N    6.4301543675369590E+00    1.8717228964767390E+00    1.3064468974317924E+01
Ga    6.4294991988929606E+00    5.1202445699239520E-02    1.3870491575570959E+01
N    6.4291186071411799E+00    5.1151183736513339E-02    1.6067966234051411E+01
Ga    6.4346051958265598E+00    2.0962788456961103E+00    1.6484572842352886E+01
Ga    6.4245517800222149E+00    3.7739024938776242E+00    1.4745243935679448E+00
N    4.9492169707518743E+00    4.6372125123888921E+00    2.5531123530478377E+00
Ga    4.7034971885999592E+00    2.7817617602982381E+00    3.2740983804917696E+00
N    4.8145764196303089E+00    2.8367597969599037E+00    5.2399919406636171E+00
Ga    4.8141149798774228E+00    4.7014161338490874E+00    5.8173611421910021E+00
N    4.8175045378997199E+00    4.6970941062663440E+00    7.8047522421820910E+00
Ga    4.8264596359208696E+00    2.8369794034310956E+00    8.4320228315843782E+00
N    4.8312095069520469E+00    2.8410220347585184E+00    1.0426523165449789E+01
Ga    4.8072186540964159E+00    4.7010891294056849E+00    1.1066939326344079E+01
N    4.7919467294294140E+00    4.7120638549618050E+00    1.3060936622892953E+01
Ga    4.8343566542958705E+00    2.8443395661038675E+00    1.3622957539579259E+01
N    4.8054418672429895E+00    2.8298897609952984E+00    1.5585521775042023E+01
Ga    4.9895736711272933E+00    4.6039338230046845E+00    1.6485291989146724E+01
N    6.4227283961441914E+00    3.7591991019786262E+00    1.7621179311129989E+01
N    3.2295904192510605E+00    7.6175910601267072E+00    2.5552811208684214E+00
Ga    3.3104988003207065E+00    5.6776615372483619E+00    2.9997972834567217E+00
N    3.2363809362197724E+00    5.6347939377744556E+00    5.0639457498768383E+00
Ga    3.2176620988335891E+00    7.4674061897350468E+00    5.8181014880894208E+00
N    3.2151120898270795E+00    7.4726768726365034E+00    7.8054125595427051E+00
Ga    3.2134423525364832E+00    5.6213203889960024E+00    8.4385570770199259E+00
N    3.2145734855285824E+00    5.6221774042361812E+00    1.0413217452596035E+01
Ga    3.2129710464001886E+00    7.4620117453765049E+00    1.1066507670899076E+01
N    3.2152640900401468E+00    7.4428301609794714E+00    1.3060122737610742E+01
Ga    3.2172666541602912E+00    5.6235198081284219E+00    1.3866667288094666E+01
N    3.2157086351567208E+00    5.6238658051999009E+00    1.6065524047685383E+01
Ga    3.2189705410897402E+00    7.6693683329453872E+00    1.6480639939361229E+01
Ga    3.2194986177848239E+00    9.3257914200632648E+00    1.4781260196654979E+00
N    1.7087898958408339E+00    1.0198607082523406E+01    2.5199715238676155E+00
Ga    1.5005306764487898E+00    8.3332284849783456E+00    3.2772672469086310E+00
N    1.6032348072848754E+00    8.4005242902246824E+00    5.2424676388790106E+00
Ga    1.5725624574633315E+00    1.0272003008385873E+01    5.7943152860588665E+00
N    1.5947288396924828E+00    1.0267317868573258E+01    7.7929853666041939E+00
Ga    1.6081044243194089E+00    8.4102791521313947E+00    8.4312611997923970E+00
N    1.6140452566179035E+00    8.4130597369625075E+00    1.0426079259559906E+01
Ga    1.5872487843684604E+00    1.0270951413497414E+01    1.1071338144638462E+01
N    1.5739480955613845E+00    1.0282469106411222E+01    1.3063460222411665E+01
Ga    1.6184898630017381E+00    8.4136491040463266E+00    1.3620467650487132E+01
N    1.5905453713701794E+00    8.3975284083811008E+00    1.5582280496735439E+01
Ga    1.7678640600594901E+00    1.0176630011830843E+01    1.6480406075365540E+01
N    3.2034154208436822E+00    9.3337424115839838E+00    1.7608816117940787E+01
N    9.6895986520164250E+00    1.9335249504458702E+00    2.6421441525955358E+00
Ga    9.6416010165857440E+00    1.6103759643446486E-01    3.2852911502635518E+00
N    9.6408887448262952E+00    5.5069303834437075E-02    5.2527663338080606E+00
Ga    9.6172713004358403E+00    1.8918360751252210E+00    5.9259693073467270E+00
N    9.6372888878438481E+00    1.9032249036334921E+00    7.8827558836417841E+00
Ga    9.6414278284753294E+00    3.2055810286229343E-02    8.4534733015638501E+00
N    9.6451354612764533E+00    3.5509434344166819E-02    1.0440144742751617E+01
Ga    9.6462773841728939E+00    1.9089655045685938E+00    1.1025594382242266E+01
N    9.6488699258248047E+00    1.9103598123108942E+00    1.2996337849894656E+01
Ga    9.6477361119414695E+00    3.9927068611027232E-02    1.3617403461898562E+01
N    9.6524521171099860E+00    7.4150205272915659E-02    1.5576380753265559E+01
Ga    9.6483248728809716E+00    1.9100990552093291E+00    1.5860111360188084E+01
N    7.9322940573100995E+00    4.6256490994185402E+00    2.5284875423124000E+00
Ga    8.1303227475537660E+00    2.7775317460677607E+00    3.2846268285801301E+00
N    8.0383208954438459E+00    2.8296538229799375E+00    5.2520019621541065E+00
Ga    8.0699101763181229E+00    4.7026257176232971E+00    5.8095475489381245E+00
N    8.0521540091724333E+00    4.6962587936818219E+00    7.8034828290689529E+00
Ga    8.0187333651895223E+00    2.8426753750927798E+00    8.4526795537191148E+00
N    8.0234538299813458E+00    2.8441220272664443E+00    1.0439444006770852E+01
Ga    8.0536700500605800E+00    4.7037007392068224E+00    1.1073984028752994E+01
N    8.0715778083251291E+00    4.7130939697092744E+00    1.3064521056771637E+01
Ga    8.0286376149841097E+00    2.8439366409044560E+00    1.3620010346333652E+01
N    8.0603305133868162E+00    2.8325371253044827E+00    1.5579992893660275E+01
Ga    7.8685103079025343E+00    4.5972485147691833E+00    1.6486914978661165E+01
N    6.4281270888520847E+00    7.4777717491200653E+00    2.6262750195218891E+00
Ga    6.4512494988366740E+00    5.7325292783214339E+00    3.3022734632718591E+00
N    6.4408880675939715E+00    5.6242364988469919E+00    5.2658982531685323E+00
Ga    6.4348056050528717E+00    7.4811731859199826E+00    5.8864263403182449E+00
N    6.4318647630692345E+00    7.4796191883405649E+00    7.8574091142130928E+00
Ga    6.4340977949941882E+00    5.6111337395939875E+00    8.4441243978946385E+00
N    6.4315997607719897E+00    5.6098786175739566E+00    1.0434055822907219E+01
Ga    6.4323979246059446E+00    7.4797444320606203E+00    1.1027420910892188E+01
N    6.4331100801744441E+00    7.4803426501399359E+00    1.2997186813717153E+01
Ga    6.4317841485122909E+00    5.6106558507991187E+00    1.3619650444066036E+01
N    6.4354216704472247E+00    5.6437669521119549E+00    1.5578433623799800E+01
Ga    6.4329458946960330E+00    7.4809847200854493E+00    1.5861223932938268E+01
N    4.7115707567720868E+00    1.0207108687530306E+01    2.5295352947722258E+00
Ga    4.9294082595351103E+00    8.3712495838312488E+00    3.3036918502199115E+00
N    4.8296908458212728E+00    8.4150781102085634E+00    5.2669663798316151E+00
Ga    4.8457122758280002E+00    1.0286014620732907E+01    5.8120653472041566E+00
N    4.8310004321523659E+00    1.0274280147587577E+01    7.8055744871179833E+00
Ga    4.8148619353747355E+00    8.4153337563826121E+00    8.4449775795355411E+00
N    4.8125066976159108E+00    8.4144925683906600E+00    1.0434668229341694E+01
Ga    4.8387953574006497E+00    1.0272591854336095E+01    1.1073922326353870E+01
N    4.8562362352839052E+00    1.0283051492880229E+01    1.3064077662205765E+01
Ga    4.8132807787753364E+00    8.4138943418472003E+00    1.3618819121472258E+01
N    4.8436124622881644E+00    8.4014018501182157E+00    1.5577242043433463E+01
Ga    4.6533701714168414E+00    1.0167132669904303E+01    1.6481752931320163E+01
O   -3.9476385432130229E-01    3.3532648668274150E+00   -5.3832348347921444E-01
H    1.6302143443777846E+00    4.7108543390782458E+00    1.5025893675242958E+00
C    5.7418318284520342E-01    2.3604825241833871E+00   -9.5578118522358180E-01
H    1.5658001219878297E+00    2.5425014010445381E+00   -5.0957237903759212E-01
H    2.6171659257779123E-01    1.3367064523777119E+00   -6.9357403893796266E-01
H    6.5253065564623425E-01    2.4342910011699161E+00   -2.0499442607391347E+00
     &END COORD
     &KIND C
       BASIS_SET DZVP-MOLOPT-SR-GTH-q4
       POTENTIAL GTH-PBE-q4
       &POTENTIAL
 2 2
  0.3384712400000000E+00 2 -0.8803673979999999E+01  0.1339210850000000E+01
 2
  0.3025757500000000E+00 1  0.9622486650000001E+01
  0.2915069400000000E+00 0
         # Potential name:  GTH-PBE-Q4  for symbol:  C
         # Potential read from the potential filename: GTH_POTENTIALS
       &END POTENTIAL
     &END KIND
     &KIND O
       BASIS_SET DZVP-MOLOPT-SR-GTH-q6
       POTENTIAL GTH-PBE-q6
       &POTENTIAL
 2 4
  0.2445543000000000E+00 2 -0.1666721480000000E+02  0.2487311320000000E+01
 2
  0.2209559200000000E+00 1  0.1833745811000000E+02
  0.2113324700000000E+00 0
         # Potential name:  GTH-PBE-Q6  for symbol:  O
         # Potential read from the potential filename: GTH_POTENTIALS
       &END POTENTIAL
     &END KIND
     &KIND H
       BASIS_SET DZVP-MOLOPT-SR-GTH-q1
       POTENTIAL GTH-PBE-q1
       &POTENTIAL
 1
  0.2000000000000000E+00 2 -0.4178900440000000E+01  0.7244633100000000E+00
 0
         # Potential name:  GTH-PBE-Q1  for symbol:  H
         # Potential read from the potential filename: GTH_POTENTIALS
       &END POTENTIAL
     &END KIND
     &KIND N
       BASIS_SET DZVP-MOLOPT-SR-GTH
       POTENTIAL GTH-PBE-q5
       &POTENTIAL
 2 3
  0.2837905100000000E+00 2 -0.1241522559000000E+02  0.1868095920000000E+01
 2
  0.2554050000000000E+00 1  0.1363026257000000E+02
  0.2454945300000000E+00 0
         # Potential name:  GTH-PBE-Q5  for symbol:  N
         # Potential read from the potential filename: GTH_POTENTIALS
       &END POTENTIAL
     &END KIND
     &KIND Ga
       BASIS_SET DZVP-MOLOPT-SR-GTH
       POTENTIAL GTH-PBE-q13
       &POTENTIAL
 2 1 10
  0.4900000000000000E+00 0
 3
  0.4167772300000000E+00 3  0.1047568975000000E+02 -0.4921768140000000E+01  0.8707055900000000E+00
  0.7770178090000000E+01 -0.2248152160000000E+01
  0.1784415450000000E+01
  0.5696265200000000E+00 2  0.1777985340000000E+01  0.1958597600000000E+00
 -0.2317443900000000E+00
  0.2381265000000000E+00 1 -0.1624868022000000E+02
         # Potential name:  GTH-PBE-Q13  for symbol:  GA
         # Potential read from the potential filename: GTH_POTENTIALS
       &END POTENTIAL
     &END KIND
     &TOPOLOGY
       NUMBER_OF_ATOMS  206
       MULTIPLE_UNIT_CELL  1 1 1
     &END TOPOLOGY
   &END SUBSYS
 &END FORCE_EVAL
