 # Version information for this restart file 
 # current date 2019-06-24 16:06:09.818
 # current working dir /scratch/rzk/rzk/GaN-carbene/443-adatoms-both-2x2/03-DissMethanol/03-O-GaTop-H-NTop
 # Program compiled at                              Sun Apr  7 00:48:11 EDT 2019
 # Program compiled on                          beluga2.int.ets1.calculquebec.ca
 # Program compiled for                        Beluga-Linux-x86-64-intel-openmpi
 # Source code revision number                                         svn:18619
 &GLOBAL
   PRINT_LEVEL  MEDIUM
   PROJECT_NAME TEST
   RUN_TYPE  GEO_OPT
 &END GLOBAL
 &MOTION
   &GEO_OPT
     MAX_ITER  500
     STEP_START_VAL  9
   &END GEO_OPT
 &END MOTION
 &FORCE_EVAL
   METHOD  QS
   STRESS_TENSOR  ANALYTICAL
   &DFT
     BASIS_SET_FILE_NAME BASIS_MOLOPT
     POTENTIAL_FILE_NAME GTH_POTENTIALS
     UKS  T
     SURFACE_DIPOLE_CORRECTION  T
     SURF_DIP_DIR  Z
     &SCF
       MAX_SCF  80
       EPS_SCF     5.0000000000000004E-06
       &OT  T
         PRECONDITIONER  FULL_ALL
       &END OT
       &OUTER_SCF  T
         OPTIMIZER  NONE
         EPS_SCF     5.0000000000000004E-06
         MAX_SCF  4
       &END OUTER_SCF
       &PRINT
         &RESTART  OFF
           BACKUP_COPIES  1
           &EACH
             JUST_ENERGY  0
             QS_SCF  0
             MD  20
           &END EACH
         &END RESTART
       &END PRINT
     &END SCF
     &QS
       EPS_DEFAULT     1.0000000000000000E-14
       METHOD  GPW
     &END QS
     &MGRID
       NGRIDS  5
       CUTOFF     1.2000000000000000E+03
     &END MGRID
     &XC
       DENSITY_CUTOFF     1.0000000000000000E-10
       GRADIENT_CUTOFF     1.0000000000000000E-10
       TAU_CUTOFF     1.0000000000000000E-10
       &XC_FUNCTIONAL  NO_SHORTCUT
         &PBE  T
         &END PBE
       &END XC_FUNCTIONAL
       &VDW_POTENTIAL
         POTENTIAL_TYPE  PAIR_POTENTIAL
         &PAIR_POTENTIAL
           R_CUTOFF     1.0000000000000004E+01
           TYPE  DFTD3
           PARAMETER_FILE_NAME dftd3.dat
           REFERENCE_FUNCTIONAL PBE
           EPS_CN     9.9999999999999995E-07
           CALCULATE_C9_TERM  T
           REFERENCE_C9_TERM  T
           LONG_RANGE_CORRECTION  F
           VERBOSE_OUTPUT  F
         &END PAIR_POTENTIAL
       &END VDW_POTENTIAL
     &END XC
   &END DFT
   &SUBSYS
     &CELL
       A     1.2864472766435110E+01    0.0000000000000000E+00    0.0000000000000000E+00
       B    -6.4322363581020028E+00    1.1140960178524473E+01    0.0000000000000000E+00
       C     0.0000000000000000E+00    0.0000000000000000E+00    3.2000000000000000E+01
       MULTIPLE_UNIT_CELL  1 1 1
       &CELL_REF
         A     1.2982353780853531E+01    0.0000000000000000E+00    0.0000000000000000E+00
         B    -6.4911768904267628E+00    1.1243048175136114E+01    0.0000000000000000E+00
         C     0.0000000000000000E+00    0.0000000000000000E+00    3.2000000000000000E+01
         MULTIPLE_UNIT_CELL  1 1 1
       &END CELL_REF
     &END CELL
     &COORD
N   -8.7329461913588244E-02    2.0305420229257751E+00    2.5228114417029230E+00
Ga   -2.8665245514663696E-02    5.8954231053131502E-02    2.8829736012210669E+00
N   -1.2146553987148123E-02    6.0762462515048368E-02    5.0142083790454963E+00
Ga    1.5259339767138884E-02    1.8908935020201478E+00    5.7937062944822175E+00
N   -1.1326292588470879E-03    1.9042961246752077E+00    7.7814248163006168E+00
Ga   -7.5917770428600437E-03    6.1990377385547128E-02    8.4457809049920378E+00
N   -9.9764667524861149E-03    5.9558511517791832E-02    1.0411127702351965E+01
Ga   -1.0985336911901213E-02    1.9009923233657384E+00    1.1062690784897264E+01
N   -1.0535823206229171E-02    1.8782660977361501E+00    1.3049516243247860E+01
Ga   -7.5184532451917094E-03    5.8802431480180481E-02    1.3871095163690439E+01
N   -9.2142468462956453E-03    5.7377703879813710E-02    1.6055849845547137E+01
Ga   -9.8216008777377243E-03    2.1057005358423240E+00    1.6479010548897602E+01
Ga   -6.6901198893109448E-01    3.3897180166808525E+00    1.2228400121750396E+00
N   -1.5355454119051162E+00    4.5757078786562380E+00    2.4823722645261332E+00
Ga   -1.7370674442036318E+00    2.7640633095373035E+00    3.4351763384976697E+00
N   -1.6332979752344354E+00    2.8341250032678875E+00    5.3321753316331346E+00
Ga   -1.6232524455888862E+00    4.7331230375008992E+00    5.7842634278567111E+00
N   -1.6216680388290965E+00    4.7133971254871989E+00    7.7745730624808553E+00
Ga   -1.6056647929262349E+00    2.8516237421674586E+00    8.4189505323160869E+00
N   -1.6072121239692785E+00    2.8503845361089741E+00    1.0409243804312990E+01
Ga   -1.6314094368857701E+00    4.7071622145818885E+00    1.1061532546906941E+01
N   -1.6500682302150933E+00    4.7173232674911265E+00    1.3049052399089501E+01
Ga   -1.6073661189128030E+00    2.8488417779507329E+00    1.3613841002643689E+01
N   -1.6320837540870894E+00    2.8320477846662047E+00    1.5569881568316278E+01
Ga   -1.4557216701418829E+00    4.6043152757644092E+00    1.6480530534053141E+01
N   -1.5082897931711454E-02    3.7724051253486603E+00    1.7626599194816144E+01
N   -3.2329912791902520E+00    7.5942499952588127E+00    2.5072728206305523E+00
Ga   -3.2356518308174107E+00    5.6118375329999672E+00    2.8486221856856346E+00
N   -3.2190731903596035E+00    5.6194745253779281E+00    4.9943972684908280E+00
Ga   -3.2224486008662403E+00    7.4518352092869806E+00    5.7845576706427755E+00
N   -3.2271081810459239E+00    7.4708495180321597E+00    7.7759793725328352E+00
Ga   -3.2198349512803435E+00    5.6284502265375940E+00    8.4396686689490537E+00
N   -3.2249413979825730E+00    5.6276222724442686E+00    1.0406872392247388E+01
Ga   -3.2229412754738842E+00    7.4674026498595767E+00    1.1065053704711580E+01
N   -3.2255640736653048E+00    7.4470311733072432E+00    1.3052543291436184E+01
Ga   -3.2252212726763316E+00    5.6278311238284626E+00    1.3871810876738465E+01
N   -3.2254521261047095E+00    5.6265450139981317E+00    1.6059629295844342E+01
Ga   -3.2258958778648190E+00    7.6757740471877121E+00    1.6486436660049101E+01
Ga   -3.2413578058440518E+00    9.3386689641167582E+00    1.4901909003017937E+00
N   -4.7428286516914753E+00    1.0208127654443775E+01    2.5192601505670500E+00
Ga   -4.9354009181345031E+00    8.3532439216383079E+00    3.2896533800218535E+00
N   -4.8317163272615629E+00    8.4120698446279789E+00    5.2469769306536342E+00
Ga   -4.8572436591030925E+00    1.0283782642717540E+01    5.7957672638145850E+00
N   -4.8462861115198983E+00    1.0275403130061646E+01    7.7837116354755738E+00
Ga   -4.8189630539637829E+00    8.4203939512711354E+00    8.4380808904217144E+00
N   -4.8205592019679173E+00    8.4207656818103995E+00    1.0422822987328415E+01
Ga   -4.8475191783475156E+00    1.0280991808130807E+01    1.1066634087369200E+01
N   -4.8656103854307551E+00    1.0288222330190605E+01    1.3053504092025792E+01
Ga   -4.8223039329170563E+00    8.4190865320450996E+00    1.3617928559650082E+01
N   -4.8497282552419332E+00    8.4038374383164456E+00    1.5574102308468273E+01
Ga   -4.6633486573714702E+00    1.0171631326879071E+01    1.6484793968054067E+01
N   -3.2260892361310050E+00    9.3364052952263137E+00    1.7633722734009424E+01
N    3.1880881177746550E+00    1.9206925734056786E+00    2.5561646773517603E+00
Ga    3.1851300529843503E+00    1.8126569744853246E-01    3.2677604441645833E+00
N    3.1995099495932879E+00    6.5142596148743015E-02    5.2255938723633486E+00
Ga    3.1839990065880395E+00    1.9271160167428976E+00    5.8423746117077426E+00
N    3.1977245807435484E+00    1.9186133125020592E+00    7.8173961471242261E+00
Ga    3.2039435471399074E+00    5.0200529259286600E-02    8.4211431731834168E+00
N    3.2050776171494570E+00    4.6792378210879934E-02    1.0410809171983729E+01
Ga    3.2035354349294947E+00    1.9135231821694352E+00    1.1020630118523352E+01
N    3.2044697024384812E+00    1.9131117827678097E+00    1.2985952389468004E+01
Ga    3.2062535839697164E+00    4.3626164232090689E-02    1.3617605434752324E+01
N    3.2070878652255388E+00    7.4889992991883397E-02    1.5572553449166049E+01
Ga    3.2050197962937412E+00    1.9130978054279020E+00    1.5851020588635732E+01
N    1.6580800489347196E+00    4.7197474497031511E+00    2.5273397079755204E+00
Ga    1.6396702366778855E+00    2.8062054367132760E+00    3.1480745520377162E+00
N    1.5926550242647854E+00    2.8555014916567525E+00    5.1592884803718135E+00
Ga    1.6182114025940542E+00    4.7087622378288030E+00    5.7712899284846095E+00
N    1.6071889186984112E+00    4.7052350039534776E+00    7.7649877566936443E+00
Ga    1.5898882752511858E+00    2.8527762141516004E+00    8.4298463991892074E+00
N    1.5871650530326624E+00    2.8514612924021314E+00    1.0415524021067860E+01
Ga    1.6129503490127477E+00    4.7090362186624528E+00    1.1063132679901038E+01
N    1.6292445315614226E+00    4.7174208537564475E+00    1.3049235097265640E+01
Ga    1.5859584160907860E+00    2.8489133312319086E+00    1.3614227711057826E+01
N    1.6128425057575091E+00    2.8328157938351342E+00    1.5569153276983815E+01
Ga    1.4309211832922282E+00    4.6013386962932614E+00    1.6479029381390745E+01
N   -5.8613976609579871E-03    7.4663360986705030E+00    2.5509071198704150E+00
Ga    1.1058040452942351E-03    5.6821012152965515E+00    3.1298548529357082E+00
N    3.0791297524097221E-03    5.6116422587894244E+00    5.1447369150778695E+00
Ga   -9.0273235732871958E-03    7.4548849503316319E+00    5.8334350216622726E+00
N   -1.1726729714195033E-02    7.4752888994520168E+00    7.8106953118158646E+00
Ga   -6.3160359389704225E-03    5.6170645414981912E+00    8.4261909155819357E+00
N   -8.8935612658770525E-03    5.6145718755546445E+00    1.0412261441803812E+01
Ga   -1.4271583472267495E-02    7.4832420576279146E+00    1.1017200495297491E+01
N   -1.2987503847245703E-02    7.4830655499961489E+00    1.2981544540888772E+01
Ga   -1.0615560103539864E-02    5.6140766819698076E+00    1.3613258393501996E+01
N   -8.9900180001990272E-03    5.6433994144293909E+00    1.5569305918371272E+01
Ga   -1.3343060269811909E-02    7.4810889534310023E+00    1.5854290920141489E+01
N   -1.7397181001358668E+00    1.0198730368822639E+01    2.5142522110962009E+00
Ga   -1.5184937312891202E+00    8.3286198748250779E+00    3.2565717367763529E+00
N   -1.6125306116922460E+00    8.3999777613250455E+00    5.2163250192907915E+00
Ga   -1.6009564044150077E+00    1.0276952921786240E+01    5.7761661355801541E+00
N   -1.6133497212328221E+00    1.0272916972927471E+01    7.7689022784008772E+00
Ga   -1.6263058068047791E+00    8.4143685563708654E+00    8.4167373832928494E+00
N   -1.6292925331796442E+00    8.4186037184968523E+00    1.0406978278922734E+01
Ga   -1.6068819677192363E+00    1.0276633434818770E+01    1.1060759688114871E+01
N   -1.5883794667780475E+00    1.0286766102521202E+01    1.3049458663609471E+01
Ga   -1.6298412109466567E+00    8.4193117060884202E+00    1.3617205574358007E+01
N   -1.6021279647146391E+00    8.4048354235227283E+00    1.5573097673132827E+01
Ga   -1.7877893063498458E+00    1.0171974512905397E+01    1.6486662352998106E+01
N    6.4114381463635963E+00    2.0318539631068653E+00    2.5140361165189615E+00
Ga    6.4076166972466329E+00    4.7443214815123536E-02    2.8411828234983862E+00
N    6.4153693578391513E+00    5.3428101651533257E-02    4.9995652848396714E+00
Ga    6.4086028102916881E+00    1.8784792622610149E+00    5.7964054977362478E+00
N    6.4159697509133746E+00    1.9015721558150052E+00    7.7863889583146628E+00
Ga    6.4137776999353360E+00    5.4836495091815922E-02    8.4373887486089654E+00
N    6.4178423032474505E+00    5.7318958327603614E-02    1.0405639420265819E+01
Ga    6.4159879566977462E+00    1.8948999410382459E+00    1.1069878021429332E+01
N    6.4194542187469299E+00    1.8762771732540304E+00    1.3056034884913533E+01
Ga    6.4170927036808507E+00    5.6701518405206236E-02    1.3873412820779663E+01
N    6.4203747609125212E+00    5.5967679379944520E-02    1.6059290386954753E+01
Ga    6.4212249566315016E+00    2.1070561677144020E+00    1.6484133555237594E+01
Ga    6.4125068794315512E+00    3.7774616039195874E+00    1.4923041733073339E+00
N    4.9474445786004981E+00    4.6378840902739711E+00    2.5596225782536774E+00
Ga    4.6978324712988542E+00    2.7801798700689488E+00    3.2788301185582305E+00
N    4.8049715718394586E+00    2.8416199439966685E+00    5.2360113066527756E+00
Ga    4.8128336075742002E+00    4.7071215185496014E+00    5.8212371311500419E+00
N    4.8107183492508430E+00    4.7035497960605435E+00    7.7991319399491443E+00
Ga    4.8157881121559543E+00    2.8431214117462114E+00    8.4309121433083121E+00
N    4.8207522005967256E+00    2.8466617662538902E+00    1.0417553502587928E+01
Ga    4.7955050675205344E+00    4.7064645498421758E+00    1.1063381515385213E+01
N    4.7803567913049410E+00    4.7167378952406294E+00    1.3051532282681745E+01
Ga    4.8229014764765159E+00    2.8488086103490446E+00    1.3617913846312998E+01
N    4.7971590816694896E+00    2.8320144441692734E+00    1.5573161949014489E+01
Ga    4.9831188166974103E+00    4.5989717189744388E+00    1.6484501441205079E+01
N    6.4262372744698144E+00    3.7709401212690832E+00    1.7630679537276144E+01
N    3.2231360365845103E+00    7.6279881040433395E+00    2.5624143876768803E+00
Ga    3.3132666644166822E+00    5.6871079737970982E+00    3.0228725859949805E+00
N    3.2358929145877080E+00    5.6447285668004197E+00    5.0709712752272784E+00
Ga    3.2115156052580143E+00    7.4784553511052820E+00    5.8226162741224865E+00
N    3.2054519042403515E+00    7.4816004960859548E+00    7.8004869590980652E+00
Ga    3.2036138357623285E+00    5.6278463331330864E+00    8.4318248471478583E+00
N    3.2037733034321527E+00    5.6268445311218551E+00    1.0401384472533412E+01
Ga    3.2008296590443028E+00    7.4652756841629726E+00    1.1062276615371955E+01
N    3.2036695467833978E+00    7.4447902153820698E+00    1.3050561109236877E+01
Ga    3.2050937665117836E+00    5.6248046595691727E+00    1.3869591510354793E+01
N    3.2049323284309965E+00    5.6252219784370121E+00    1.6056068345950973E+01
Ga    3.2053461014201536E+00    7.6683188793840111E+00    1.6468900148201477E+01
Ga    3.2155744342507528E+00    9.3306745105190725E+00    1.5007100805965101E+00
N    1.6983551249636828E+00    1.0202181276163463E+01    2.5152178527892826E+00
Ga    1.4904707224295846E+00    8.3441939503455522E+00    3.2779710901619779E+00
N    1.5932035549291685E+00    8.4054943766350014E+00    5.2349981810120791E+00
Ga    1.5587235572352260E+00    1.0276511053793193E+01    5.7969259358926220E+00
N    1.5811434557392128E+00    1.0273532671870687E+01    7.7869922147121828E+00
Ga    1.5958059318002726E+00    8.4162448777823045E+00    8.4285678901203678E+00
N    1.6026436666605433E+00    8.4184971874209875E+00    1.0415817832459769E+01
Ga    1.5751852679698453E+00    1.0276151686849410E+01    1.1069117264996249E+01
N    1.5618496095334733E+00    1.0287295001143136E+01    1.3055648147555029E+01
Ga    1.6062481352120135E+00    8.4163949306721051E+00    1.3612706645214891E+01
N    1.5780342740476949E+00    8.3995322101788972E+00    1.5570125809808754E+01
Ga    1.7566525065848857E+00    1.0176939701454112E+01    1.6469172967114538E+01
N    3.2051452010155073E+00    9.3410343462417718E+00    1.7586339468176792E+01
N    9.6538520987087768E+00    1.9224050722862203E+00    2.6332498816591965E+00
Ga    9.6227528723988147E+00    1.6373601281373429E-01    3.2945006966460233E+00
N    9.6276593711672209E+00    5.4876581727606392E-02    5.2544989028686819E+00
Ga    9.6092479975153076E+00    1.8989396165004335E+00    5.9145584601964414E+00
N    9.6273849851155724E+00    1.9096452371502304E+00    7.8668122464481822E+00
Ga    9.6301969452316882E+00    3.9661235686503579E-02    8.4511508770597228E+00
N    9.6335562782523727E+00    4.1305263962439207E-02    1.0431435192516728E+01
Ga    9.6376885210024650E+00    1.9165486565011551E+00    1.1018708220334101E+01
N    9.6380759393821460E+00    1.9153768559594551E+00    1.2983542637325701E+01
Ga    9.6364292789038686E+00    4.5752170465519618E-02    1.3612427928748795E+01
N    9.6372100904952109E+00    7.9349949767291886E-02    1.5570204265493597E+01
Ga    9.6388765457270207E+00    1.9164097240707936E+00    1.5854331391160372E+01
N    7.9272198358819796E+00    4.6263925615565631E+00    2.5227432947182025E+00
Ga    8.1139314927768034E+00    2.7741060687766224E+00    3.2883649021740684E+00
N    8.0227248631429902E+00    2.8344482444417629E+00    5.2489780173038003E+00
Ga    8.0663787539623595E+00    4.7068975711411660E+00    5.8052827619665939E+00
N    8.0458119617434587E+00    4.7020956280217527E+00    7.7931355398195050E+00
Ga    8.0101445080099971E+00    2.8487054211404348E+00    8.4486750839870073E+00
N    8.0125929892609289E+00    2.8498380079845158E+00    1.0429234518373558E+01
Ga    8.0467391540437436E+00    4.7092602754660051E+00    1.1071962190705992E+01
N    8.0627824480664589E+00    4.7181155736945515E+00    1.3057690229205972E+01
Ga    8.0182873126844232E+00    2.8478252529043400E+00    1.3617183165890275E+01
N    8.0448053773375463E+00    2.8303981567351348E+00    1.5573559398575270E+01
Ga    7.8642799907223209E+00    4.6017031026969404E+00    1.6484277112576500E+01
N    6.4172615484469642E+00    7.4810518410622588E+00    2.6215988861920887E+00
Ga    6.4500453885100884E+00    5.7398006859479400E+00    3.3069918783316767E+00
N    6.4376724520998154E+00    5.6325296334719308E+00    5.2641617826119678E+00
Ga    6.4303874276807322E+00    7.4875056671410878E+00    5.8951105786455908E+00
N    6.4235160247921881E+00    7.4864001409369454E+00    7.8574657645384223E+00
Ga    6.4283569096038526E+00    5.6167747009006428E+00    8.4459273291257659E+00
N    6.4225564708292211E+00    5.6140960937904918E+00    1.0427597777617695E+01
Ga    6.4238617779682148E+00    7.4847042360948368E+00    1.1025314926539046E+01
N    6.4228294564339308E+00    7.4837408607144997E+00    1.2988703113830988E+01
Ga    6.4205384481056385E+00    5.6134388200472722E+00    1.3617409535927147E+01
N    6.4199067692194811E+00    5.6437223149865625E+00    1.5573997478194666E+01
Ga    6.4247107045575929E+00    7.4815528491588168E+00    1.5854154878828371E+01
N    4.7017679191406634E+00    1.0214052366502562E+01    2.5374476274625790E+00
Ga    4.9275384851574948E+00    8.3781362970409905E+00    3.3149706481814594E+00
N    4.8260754591735768E+00    8.4223960903456003E+00    5.2705270560593576E+00
Ga    4.8366069880892413E+00    1.0294569785062714E+01    5.8153078925456185E+00
N    4.8213455803169758E+00    1.0282898030461403E+01    7.8010260074323696E+00
Ga    4.8057818505569578E+00    8.4240458411149888E+00    8.4488361750956891E+00
N    4.8019837222435049E+00    8.4203153609832917E+00    1.0429947139896298E+01
Ga    4.8296338891540280E+00    1.0280325484493199E+01    1.1072653556955336E+01
N    4.8470597531294377E+00    1.0289021060417396E+01    1.3057815708933948E+01
Ga    4.8019787304224630E+00    8.4172481834400408E+00    1.3612705904976474E+01
N    4.8324409182611667E+00    8.3994583706859771E+00    1.5570321532828576E+01
Ga    4.6530161275708126E+00    1.0176518526972806E+01    1.6467342104389154E+01
O    1.6535928921945733E-01    3.5108137430632866E+00   -3.6179834960646506E-01
H    1.7122118713282051E+00    4.7213136869545957E+00    1.4932974076095731E+00
C    7.4758456480871638E-01    2.2544895209290008E+00   -8.0286261954142979E-01
H    1.8222274003999070E+00    2.2235169880910712E+00   -5.6866460646876804E-01
H    2.7484217485678758E-01    1.3858308083002568E+00   -3.1505002331447940E-01
H    5.9508955767410410E-01    2.1693349712629661E+00   -1.8878622235001634E+00
     &END COORD
     &KIND C
       BASIS_SET DZVP-MOLOPT-SR-GTH-q4
       POTENTIAL GTH-PBE-q4
       &POTENTIAL
 2 2
  0.3384712400000000E+00 2 -0.8803673979999999E+01  0.1339210850000000E+01
 2
  0.3025757500000000E+00 1  0.9622486650000001E+01
  0.2915069400000000E+00 0
         # Potential name:  GTH-PBE-Q4  for symbol:  C
         # Potential read from the potential filename: GTH_POTENTIALS
       &END POTENTIAL
     &END KIND
     &KIND O
       BASIS_SET DZVP-MOLOPT-SR-GTH-q6
       POTENTIAL GTH-PBE-q6
       &POTENTIAL
 2 4
  0.2445543000000000E+00 2 -0.1666721480000000E+02  0.2487311320000000E+01
 2
  0.2209559200000000E+00 1  0.1833745811000000E+02
  0.2113324700000000E+00 0
         # Potential name:  GTH-PBE-Q6  for symbol:  O
         # Potential read from the potential filename: GTH_POTENTIALS
       &END POTENTIAL
     &END KIND
     &KIND H
       BASIS_SET DZVP-MOLOPT-SR-GTH-q1
       POTENTIAL GTH-PBE-q1
       &POTENTIAL
 1
  0.2000000000000000E+00 2 -0.4178900440000000E+01  0.7244633100000000E+00
 0
         # Potential name:  GTH-PBE-Q1  for symbol:  H
         # Potential read from the potential filename: GTH_POTENTIALS
       &END POTENTIAL
     &END KIND
     &KIND N
       BASIS_SET DZVP-MOLOPT-SR-GTH
       POTENTIAL GTH-PBE-q5
       &POTENTIAL
 2 3
  0.2837905100000000E+00 2 -0.1241522559000000E+02  0.1868095920000000E+01
 2
  0.2554050000000000E+00 1  0.1363026257000000E+02
  0.2454945300000000E+00 0
         # Potential name:  GTH-PBE-Q5  for symbol:  N
         # Potential read from the potential filename: GTH_POTENTIALS
       &END POTENTIAL
     &END KIND
     &KIND Ga
       BASIS_SET DZVP-MOLOPT-SR-GTH
       POTENTIAL GTH-PBE-q13
       &POTENTIAL
 2 1 10
  0.4900000000000000E+00 0
 3
  0.4167772300000000E+00 3  0.1047568975000000E+02 -0.4921768140000000E+01  0.8707055900000000E+00
  0.7770178090000000E+01 -0.2248152160000000E+01
  0.1784415450000000E+01
  0.5696265200000000E+00 2  0.1777985340000000E+01  0.1958597600000000E+00
 -0.2317443900000000E+00
  0.2381265000000000E+00 1 -0.1624868022000000E+02
         # Potential name:  GTH-PBE-Q13  for symbol:  GA
         # Potential read from the potential filename: GTH_POTENTIALS
       &END POTENTIAL
     &END KIND
     &TOPOLOGY
       NUMBER_OF_ATOMS  206
       MULTIPLE_UNIT_CELL  1 1 1
     &END TOPOLOGY
   &END SUBSYS
 &END FORCE_EVAL
