 # Version information for this restart file 
 # current date 2019-06-24 22:44:44.021
 # current working dir /scratch/rzk/rzk/GaN-carbene/443-adatoms-both-2x2/03-DissMethanol/03-O-GaTop-H-NTop
 # Program compiled at                              Sun Apr  7 00:48:11 EDT 2019
 # Program compiled on                          beluga2.int.ets1.calculquebec.ca
 # Program compiled for                        Beluga-Linux-x86-64-intel-openmpi
 # Source code revision number                                         svn:18619
 &GLOBAL
   PRINT_LEVEL  MEDIUM
   PROJECT_NAME TEST
   RUN_TYPE  GEO_OPT
 &END GLOBAL
 &MOTION
   &GEO_OPT
     MAX_ITER  500
     STEP_START_VAL  69
   &END GEO_OPT
 &END MOTION
 &FORCE_EVAL
   METHOD  QS
   STRESS_TENSOR  ANALYTICAL
   &DFT
     BASIS_SET_FILE_NAME BASIS_MOLOPT
     POTENTIAL_FILE_NAME GTH_POTENTIALS
     UKS  T
     SURFACE_DIPOLE_CORRECTION  T
     SURF_DIP_DIR  Z
     &SCF
       MAX_SCF  80
       EPS_SCF     5.0000000000000004E-06
       &OT  T
         PRECONDITIONER  FULL_ALL
       &END OT
       &OUTER_SCF  T
         OPTIMIZER  NONE
         EPS_SCF     5.0000000000000004E-06
         MAX_SCF  4
       &END OUTER_SCF
       &PRINT
         &RESTART  OFF
           BACKUP_COPIES  1
           &EACH
             JUST_ENERGY  0
             QS_SCF  0
             MD  20
           &END EACH
         &END RESTART
       &END PRINT
     &END SCF
     &QS
       EPS_DEFAULT     1.0000000000000000E-14
       METHOD  GPW
     &END QS
     &MGRID
       NGRIDS  5
       CUTOFF     1.2000000000000000E+03
     &END MGRID
     &XC
       DENSITY_CUTOFF     1.0000000000000000E-10
       GRADIENT_CUTOFF     1.0000000000000000E-10
       TAU_CUTOFF     1.0000000000000000E-10
       &XC_FUNCTIONAL  NO_SHORTCUT
         &PBE  T
         &END PBE
       &END XC_FUNCTIONAL
       &VDW_POTENTIAL
         POTENTIAL_TYPE  PAIR_POTENTIAL
         &PAIR_POTENTIAL
           R_CUTOFF     1.0000000000000004E+01
           TYPE  DFTD3
           PARAMETER_FILE_NAME dftd3.dat
           REFERENCE_FUNCTIONAL PBE
           EPS_CN     9.9999999999999995E-07
           CALCULATE_C9_TERM  T
           REFERENCE_C9_TERM  T
           LONG_RANGE_CORRECTION  F
           VERBOSE_OUTPUT  F
         &END PAIR_POTENTIAL
       &END VDW_POTENTIAL
     &END XC
   &END DFT
   &SUBSYS
     &CELL
       A     1.2864472766435110E+01    0.0000000000000000E+00    0.0000000000000000E+00
       B    -6.4322363581020028E+00    1.1140960178524473E+01    0.0000000000000000E+00
       C     0.0000000000000000E+00    0.0000000000000000E+00    3.2000000000000000E+01
       MULTIPLE_UNIT_CELL  1 1 1
       &CELL_REF
         A     1.2982353780853531E+01    0.0000000000000000E+00    0.0000000000000000E+00
         B    -6.4911768904267628E+00    1.1243048175136114E+01    0.0000000000000000E+00
         C     0.0000000000000000E+00    0.0000000000000000E+00    3.2000000000000000E+01
         MULTIPLE_UNIT_CELL  1 1 1
       &END CELL_REF
     &END CELL
     &COORD
N   -9.6361029068746523E-02    2.0217419671887331E+00    2.5271549635336288E+00
Ga   -2.1574620713243363E-02    5.1009789324594206E-02    2.8750830579896878E+00
N   -3.6624926436468952E-03    5.4790882154595780E-02    5.0282250740240997E+00
Ga    2.7553191146490012E-02    1.8773855341535728E+00    5.8199296942021723E+00
N    9.7003062720995448E-03    1.8963255545510882E+00    7.8093827626815076E+00
Ga    1.6748552464448750E-03    4.9840641463613063E-02    8.4521685845972687E+00
N   -1.5546552191093912E-05    5.1371733176349382E-02    1.0423696542034476E+01
Ga   -2.1394473900397388E-04    1.8926939369749123E+00    1.1069348356396807E+01
N    1.8502488521924618E-04    1.8725322129803448E+00    1.3063742605754427E+01
Ga    1.7140649142963515E-03    5.0011021424550627E-02    1.3867598539122024E+01
N    6.7048000163177413E-04    4.9130679710453824E-02    1.6070864840881718E+01
Ga   -1.2294132528215249E-03    2.0765378412687325E+00    1.6466922045423672E+01
Ga   -8.3597165201773371E-01    3.2937339454365100E+00    1.2100835660562468E+00
N   -1.5570942073941008E+00    4.5543796291276655E+00    2.5068798805266428E+00
Ga   -1.7143864074237765E+00    2.7705201362070810E+00    3.4900638809936448E+00
N   -1.6199170392202498E+00    2.8316648037618664E+00    5.3820986354364084E+00
Ga   -1.6221253538916676E+00    4.7342485795996048E+00    5.8196871636111176E+00
N   -1.6143950201211459E+00    4.7095732439123710E+00    7.8089257594240413E+00
Ga   -1.5972493196768280E+00    2.8439174266713296E+00    8.4354935007137506E+00
N   -1.5974693424224289E+00    2.8443245354455708E+00    1.0431132255863995E+01
Ga   -1.6224890155675729E+00    4.7028707906292357E+00    1.1070654127083266E+01
N   -1.6383254033873260E+00    4.7118112212411152E+00    1.3065521719762261E+01
Ga   -1.5963087359351567E+00    2.8431521372441297E+00    1.3619300221324078E+01
N   -1.6215487046092407E+00    2.8309121431995723E+00    1.5585829528898815E+01
Ga   -1.4606147782130945E+00    4.6112091771264225E+00    1.6466993958637378E+01
N   -2.1754421696872630E-03    3.7617190854192182E+00    1.7600709617338410E+01
N   -3.2241168771704074E+00    7.5905817472537711E+00    2.5242316233008668E+00
Ga   -3.2333796597394606E+00    5.6082975137773357E+00    2.8660463181879470E+00
N   -3.2144660835632419E+00    5.6175186153198622E+00    5.0220963699400016E+00
Ga   -3.2162908926769247E+00    7.4511067257437427E+00    5.7955032286806238E+00
N   -3.2176872051946823E+00    7.4664786670105636E+00    7.7926924638581507E+00
Ga   -3.2176278787693815E+00    5.6251539425507104E+00    8.4524585277925564E+00
N   -3.2166441944917938E+00    5.6230603530132424E+00    1.0423667898273962E+01
Ga   -3.2147089077213264E+00    7.4644516457701942E+00    1.1069326336146855E+01
N   -3.2158802107929967E+00    7.4449674044456851E+00    1.3062017793735095E+01
Ga   -3.2166976544117154E+00    5.6261502890592432E+00    1.3864624361873242E+01
N   -3.2193418909801861E+00    5.6247380537343901E+00    1.6066792330522830E+01
Ga   -3.2143837816795866E+00    7.6758607033949122E+00    1.6486489314968839E+01
Ga   -3.2277247918670153E+00    9.3292945891891339E+00    1.4735220283696737E+00
N   -4.7334748992175797E+00    1.0204671542733088E+01    2.5217577533441662E+00
Ga   -4.9222717006822521E+00    8.3536753321575237E+00    3.2895302452603521E+00
N   -4.8256304850651928E+00    8.4072165440616295E+00    5.2536981044436493E+00
Ga   -4.8483314629255023E+00    1.0278792300158193E+01    5.7970889758908850E+00
N   -4.8354427464901653E+00    1.0269517693085804E+01    7.7938946298094400E+00
Ga   -4.8130661747907517E+00    8.4138353154257626E+00    8.4374912298741247E+00
N   -4.8120354261892659E+00    8.4143725087972339E+00    1.0429976920298419E+01
Ga   -4.8362893788096066E+00    1.0272987993878374E+01    1.1068686449635456E+01
N   -4.8554269417190552E+00    1.0282687196779323E+01    1.3061452929174440E+01
Ga   -4.8121784145113855E+00    8.4151500157890666E+00    1.3620901323920336E+01
N   -4.8413391025493615E+00    8.3969989786314958E+00    1.5580827073993492E+01
Ga   -4.6564840436891730E+00    1.0165382093629116E+01    1.6486931615980382E+01
N   -3.2171180551482226E+00    9.3380266835377803E+00    1.7626408497701402E+01
N    3.1844262177613052E+00    1.9180531715060505E+00    2.5833751360597912E+00
Ga    3.1974068877518205E+00    1.7190785266903783E-01    3.2678225810658414E+00
N    3.2106025107504390E+00    5.7631599184732270E-02    5.2355344590017054E+00
Ga    3.1931009830703010E+00    1.9215838658800666E+00    5.8397006264522320E+00
N    3.2077092815049304E+00    1.9127406235601334E+00    7.8251281165809177E+00
Ga    3.2149434784749875E+00    4.4685377443326693E-02    8.4246165769530030E+00
N    3.2156519782823811E+00    4.0595117056646882E-02    1.0421271021724232E+01
Ga    3.2154614507137587E+00    1.9065057985569334E+00    1.1025970316632833E+01
N    3.2143395905010421E+00    1.9080642464082409E+00    1.2996508655722748E+01
Ga    3.2162904230297924E+00    3.8286507134427446E-02    1.3621229597250982E+01
N    3.2167791952434568E+00    7.1669060846219795E-02    1.5581985944943543E+01
Ga    3.2166990272675315E+00    1.9085357895321249E+00    1.5860158877916454E+01
N    1.6384169913984927E+00    4.7124648725820588E+00    2.5338932772934033E+00
Ga    1.6282681330593858E+00    2.8043534694828729E+00    3.1562097998518435E+00
N    1.5925000617240290E+00    2.8475726092728282E+00    5.1692948056220844E+00
Ga    1.6221202808675557E+00    4.7026395992244989E+00    5.7775211231871229E+00
N    1.6146413063118550E+00    4.6983958924899270E+00    7.7792597574555948E+00
Ga    1.6029143711004827E+00    2.8466501456360458E+00    8.4421470734860744E+00
N    1.5983567802640788E+00    2.8456693221858225E+00    1.0432673198964581E+01
Ga    1.6238110213838299E+00    4.7038150613402605E+00    1.1071467005047680E+01
N    1.6388390446173711E+00    4.7119577406234479E+00    1.3064565872175640E+01
Ga    1.5975029109345866E+00    2.8428286178084932E+00    1.3619310740063053E+01
N    1.6210703647276377E+00    2.8318680675736014E+00    1.5586093467664428E+01
Ga    1.4578222546180541E+00    4.6110497669508810E+00    1.6467345218358169E+01
N   -8.3779671717887465E-03    7.4524060296192109E+00    2.5916806278208151E+00
Ga   -1.4922486804609886E-02    5.6603474047776752E+00    3.1520781843598091E+00
N   -2.4251220571515903E-04    5.6026489428664545E+00    5.1659212568243156E+00
Ga   -1.0525347720088275E-03    7.4528821461701176E+00    5.8374422304105744E+00
N   -1.1099004556356599E-03    7.4699134192322205E+00    7.8232742048120025E+00
Ga    5.3160400276744029E-03    5.6139321434555383E+00    8.4426977147895226E+00
N    1.6809081627221871E-03    5.6106155198062231E+00    1.0433061374923660E+01
Ga   -2.2412876553021990E-03    7.4801230655932684E+00    1.1027672299792219E+01
N   -1.8087070495450663E-03    7.4786472413291607E+00    1.2997351006392590E+01
Ga    2.5393810214835498E-04    5.6117836787867388E+00    1.3618549568118482E+01
N    6.0549232766047136E-04    5.6392225705173411E+00    1.5583498647501404E+01
Ga   -5.0185525858556442E-05    7.4804440126252514E+00    1.5864570265209343E+01
N   -1.7258467097120131E+00    1.0198195137001198E+01    2.5192605653854865E+00
Ga   -1.5152136200288440E+00    8.3347040592873096E+00    3.2708460702890485E+00
N   -1.6070915007968327E+00    8.4018270018628307E+00    5.2376948605687375E+00
Ga   -1.5884488196534343E+00    1.0277055369202850E+01    5.7847405258166482E+00
N   -1.6016299364282893E+00    1.0268493957526259E+01    7.7852013515664398E+00
Ga   -1.6151690142090249E+00    8.4101269825274567E+00    8.4239784688797723E+00
N   -1.6180233049070645E+00    8.4125261781950549E+00    1.0421341394845228E+01
Ga   -1.5956464821574738E+00    1.0271473409666839E+01    1.1064368383455809E+01
N   -1.5782190199970521E+00    1.0281445484153254E+01    1.3058929954164677E+01
Ga   -1.6192650528531165E+00    8.4147655192719952E+00    1.3620412141477725E+01
N   -1.5886881377160960E+00    8.3964338575859934E+00    1.5578365212967915E+01
Ga   -1.7727118868761567E+00    1.0165215576025602E+01    1.6486235418966832E+01
N    6.4234816014723455E+00    2.0298730589820786E+00    2.5197628337817490E+00
Ga    6.4221848712511074E+00    4.7124365066645059E-02    2.8412281562687736E+00
N    6.4276749505708368E+00    4.9709732765565597E-02    5.0117467230993125E+00
Ga    6.4200192520398351E+00    1.8753072079758204E+00    5.7920785454129691E+00
N    6.4274240452623239E+00    1.8966092990686381E+00    7.7915011336631554E+00
Ga    6.4280682285847588E+00    5.0186849602166385E-02    8.4386658800862300E+00
N    6.4301267811785259E+00    5.0545642312841650E-02    1.0414369496684825E+01
Ga    6.4274732645507298E+00    1.8886309268429695E+00    1.1070955176893307E+01
N    6.4303351864990148E+00    1.8703843607514665E+00    1.3063968187231714E+01
Ga    6.4289243722930145E+00    4.9657020367377847E-02    1.3870832529225050E+01
N    6.4316217754174909E+00    5.2644222288868704E-02    1.6068331687742699E+01
Ga    6.4346119709154612E+00    2.0954536161249440E+00    1.6482275989047498E+01
Ga    6.4245574940456516E+00    3.7738623190676295E+00    1.4783506498328489E+00
N    4.9488205304454862E+00    4.6379635231838030E+00    2.5540589544907895E+00
Ga    4.7029420284800878E+00    2.7824532824363120E+00    3.2740860839478452E+00
N    4.8148224501891566E+00    2.8374725503995410E+00    5.2401404844165285E+00
Ga    4.8139179389399072E+00    4.7017037629527358E+00    5.8158612567003392E+00
N    4.8173749676722011E+00    4.6966061370352890E+00    7.8035348767835018E+00
Ga    4.8273679642103247E+00    2.8370894725326128E+00    8.4307053669675440E+00
N    4.8315326147993298E+00    2.8401134983769141E+00    1.0425781341165434E+01
Ga    4.8084686030792749E+00    4.7004200574579356E+00    1.1064825649429068E+01
N    4.7915239310792961E+00    4.7118629228674349E+00    1.3059615387030096E+01
Ga    4.8337191929515742E+00    2.8430884732708570E+00    1.3619612933708369E+01
N    4.8064232292756763E+00    2.8291962721791810E+00    1.5581088015678189E+01
Ga    4.9928866477665936E+00    4.6000668479299565E+00    1.6484249474486166E+01
N    6.4295988091966354E+00    3.7598741222768077E+00    1.7618139956186987E+01
N    3.2296682705163846E+00    7.6170283979614890E+00    2.5559416692299064E+00
Ga    3.3095992953401652E+00    5.6770367873846022E+00    3.0007062039575021E+00
N    3.2367081269080646E+00    5.6345397133522237E+00    5.0636701132678290E+00
Ga    3.2181474190754118E+00    7.4667318140769243E+00    5.8161625417843359E+00
N    3.2152329980347347E+00    7.4717600479998110E+00    7.8037163164091261E+00
Ga    3.2140888710614677E+00    5.6210093244699788E+00    8.4374263188873222E+00
N    3.2142233776994305E+00    5.6216710089984616E+00    1.0413601342714598E+01
Ga    3.2130789737005454E+00    7.4628053314584903E+00    1.1065689054398158E+01
N    3.2151589019492111E+00    7.4444209033467255E+00    1.3060792516116646E+01
Ga    3.2170740365858483E+00    5.6243196015100532E+00    1.3863982368467198E+01
N    3.2200796265763989E+00    5.6246241514445483E+00    1.6068933826853797E+01
Ga    3.2158271604661923E+00    7.6725316243704826E+00    1.6484614911992363E+01
Ga    3.2181230885683361E+00    9.3256982918421691E+00    1.4812176287375542E+00
N    1.7082368458069939E+00    1.0198211482329523E+01    2.5207493164084767E+00
Ga    1.5006656154927809E+00    8.3328321797161617E+00    3.2779512505766437E+00
N    1.6041990373083501E+00    8.4006490471069011E+00    5.2430715866616406E+00
Ga    1.5730158151760636E+00    1.0272211762686517E+01    5.7928560973767445E+00
N    1.5946655048977103E+00    1.0267075725557262E+01    7.7920173435437938E+00
Ga    1.6092255609275867E+00    8.4102324116482343E+00    8.4302844621942121E+00
N    1.6137427731280543E+00    8.4127328786280042E+00    1.0425717088220242E+01
Ga    1.5881462890445883E+00    1.0270266606282242E+01    1.1072134785312334E+01
N    1.5753385749850810E+00    1.0281040526174914E+01    1.3066017308042762E+01
Ga    1.6169820153913985E+00    8.4122021730386081E+00    1.3620952314562375E+01
N    1.5904147719876414E+00    8.3956375402515668E+00    1.5581309533848611E+01
Ga    1.7686915783011550E+00    1.0170317529972943E+01    1.6482500564299279E+01
N    3.2119196985350755E+00    9.3382602732214313E+00    1.7619663176122849E+01
N    9.6870786237673041E+00    1.9324408199338743E+00    2.6431929387230975E+00
Ga    9.6416462300413226E+00    1.6055842231818498E-01    3.2847658051269941E+00
N    9.6412405547812767E+00    5.4764087220962404E-02    5.2522475973747706E+00
Ga    9.6167098553332231E+00    1.8916032486355658E+00    5.9245533770900689E+00
N    9.6372460978676813E+00    1.9029343638271550E+00    7.8828056283432026E+00
Ga    9.6415327852091082E+00    3.1244918733699324E-02    8.4525151646282843E+00
N    9.6453770928961369E+00    3.5618027571913451E-02    1.0440340758173123E+01
Ga    9.6472013527482332E+00    1.9082415612889114E+00    1.1026554246020840E+01
N    9.6503722358583648E+00    1.9103423473320840E+00    1.2997768627431924E+01
Ga    9.6476244157349136E+00    4.0483757202050705E-02    1.3620470057452808E+01
N    9.6503625050983146E+00    7.2628772225146757E-02    1.5581754862888321E+01
Ga    9.6487160622289352E+00    1.9091169629139304E+00    1.5862775008407471E+01
N    7.9320694169051693E+00    4.6263765835941202E+00    2.5296786082989047E+00
Ga    8.1297421606907445E+00    2.7781430095327910E+00    3.2848854498883528E+00
N    8.0378406102208668E+00    2.8302685998758328E+00    5.2520606994003476E+00
Ga    8.0694500582097319E+00    4.7027207760600369E+00    5.8085282662739290E+00
N    8.0521123283939815E+00    4.6959943143225766E+00    7.8032196792727930E+00
Ga    8.0183471559871418E+00    2.8422891846071785E+00    8.4521072400011956E+00
N    8.0248096176171693E+00    2.8436169877389710E+00    1.0440283099825098E+01
Ga    8.0538743105879131E+00    4.7035277953785144E+00    1.1073896994232078E+01
N    8.0721704158087739E+00    4.7128388844560289E+00    1.3065748018238562E+01
Ga    8.0288954129937160E+00    2.8421404973090847E+00    1.3618247938850075E+01
N    8.0604347349789141E+00    2.8291697550450419E+00    1.5577828399166201E+01
Ga    7.8720761259444147E+00    4.5972622115895998E+00    1.6483599074870863E+01
N    6.4289907429719095E+00    7.4783428615120187E+00    2.6274068571203673E+00
Ga    6.4514318397201675E+00    5.7334604912470724E+00    3.3020539362371109E+00
N    6.4406900498207156E+00    5.6241478096482274E+00    5.2656655028164474E+00
Ga    6.4344982156318178E+00    7.4809400682196125E+00    5.8845522324528829E+00
N    6.4319400685218406E+00    7.4790702846509012E+00    7.8560082975830143E+00
Ga    6.4337050110789926E+00    5.6105837290386482E+00    8.4423384699580275E+00
N    6.4324315736325106E+00    5.6097672096479583E+00    1.0432856685276255E+01
Ga    6.4329768730575445E+00    7.4796613802621144E+00    1.1026565581310763E+01
N    6.4339474374084498E+00    7.4806240573199103E+00    1.2996448060952384E+01
Ga    6.4311044200154477E+00    5.6113346966157884E+00    1.3618103928859757E+01
N    6.4337664425068448E+00    5.6435138894440993E+00    1.5577806918938800E+01
Ga    6.4328228053336796E+00    7.4803951652201572E+00    1.5864299363022351E+01
N    4.7113960595470310E+00    1.0206730019155549E+01    2.5291186864936184E+00
Ga    4.9300620121537557E+00    8.3714091254813479E+00    3.3025709900416316E+00
N    4.8297400029689159E+00    8.4146336276384925E+00    5.2660289572355552E+00
Ga    4.8456700527877938E+00    1.0285411184203745E+01    5.8100433135663216E+00
N    4.8313297991570314E+00    1.0273798566884514E+01    7.8043551138505789E+00
Ga    4.8147711997955778E+00    8.4146621078847748E+00    8.4430717639706732E+00
N    4.8129789428247864E+00    8.4140562214302879E+00    1.0433555635816937E+01
Ga    4.8385076727644734E+00    1.0271859277346895E+01    1.1073988214954822E+01
N    4.8559475433140413E+00    1.0282444975780356E+01    1.3066203908722679E+01
Ga    4.8141790325449936E+00    8.4127317541415891E+00    1.3620045180812482E+01
N    4.8414731835414404E+00    8.3985811059567759E+00    1.5580585482496581E+01
Ga    4.6582565722149374E+00    1.0167873928699233E+01    1.6483783024148330E+01
O   -3.6657792339444589E-01    3.3805658321812611E+00   -5.2572976449079867E-01
H    1.6272247578172387E+00    4.7113771531291713E+00    1.5047680719698244E+00
C    5.6449691313507855E-01    2.3640796443995669E+00   -9.6520829801245667E-01
H    1.5639048094580013E+00    2.5057855013342714E+00   -5.2611349109774286E-01
H    2.2448475116028976E-01    1.3446532486859759E+00   -7.1795905218062361E-01
H    6.3479677973762727E-01    2.4478931216497810E+00   -2.0561039628581241E+00
     &END COORD
     &KIND C
       BASIS_SET DZVP-MOLOPT-SR-GTH-q4
       POTENTIAL GTH-PBE-q4
       &POTENTIAL
 2 2
  0.3384712400000000E+00 2 -0.8803673979999999E+01  0.1339210850000000E+01
 2
  0.3025757500000000E+00 1  0.9622486650000001E+01
  0.2915069400000000E+00 0
         # Potential name:  GTH-PBE-Q4  for symbol:  C
         # Potential read from the potential filename: GTH_POTENTIALS
       &END POTENTIAL
     &END KIND
     &KIND O
       BASIS_SET DZVP-MOLOPT-SR-GTH-q6
       POTENTIAL GTH-PBE-q6
       &POTENTIAL
 2 4
  0.2445543000000000E+00 2 -0.1666721480000000E+02  0.2487311320000000E+01
 2
  0.2209559200000000E+00 1  0.1833745811000000E+02
  0.2113324700000000E+00 0
         # Potential name:  GTH-PBE-Q6  for symbol:  O
         # Potential read from the potential filename: GTH_POTENTIALS
       &END POTENTIAL
     &END KIND
     &KIND H
       BASIS_SET DZVP-MOLOPT-SR-GTH-q1
       POTENTIAL GTH-PBE-q1
       &POTENTIAL
 1
  0.2000000000000000E+00 2 -0.4178900440000000E+01  0.7244633100000000E+00
 0
         # Potential name:  GTH-PBE-Q1  for symbol:  H
         # Potential read from the potential filename: GTH_POTENTIALS
       &END POTENTIAL
     &END KIND
     &KIND N
       BASIS_SET DZVP-MOLOPT-SR-GTH
       POTENTIAL GTH-PBE-q5
       &POTENTIAL
 2 3
  0.2837905100000000E+00 2 -0.1241522559000000E+02  0.1868095920000000E+01
 2
  0.2554050000000000E+00 1  0.1363026257000000E+02
  0.2454945300000000E+00 0
         # Potential name:  GTH-PBE-Q5  for symbol:  N
         # Potential read from the potential filename: GTH_POTENTIALS
       &END POTENTIAL
     &END KIND
     &KIND Ga
       BASIS_SET DZVP-MOLOPT-SR-GTH
       POTENTIAL GTH-PBE-q13
       &POTENTIAL
 2 1 10
  0.4900000000000000E+00 0
 3
  0.4167772300000000E+00 3  0.1047568975000000E+02 -0.4921768140000000E+01  0.8707055900000000E+00
  0.7770178090000000E+01 -0.2248152160000000E+01
  0.1784415450000000E+01
  0.5696265200000000E+00 2  0.1777985340000000E+01  0.1958597600000000E+00
 -0.2317443900000000E+00
  0.2381265000000000E+00 1 -0.1624868022000000E+02
         # Potential name:  GTH-PBE-Q13  for symbol:  GA
         # Potential read from the potential filename: GTH_POTENTIALS
       &END POTENTIAL
     &END KIND
     &TOPOLOGY
       NUMBER_OF_ATOMS  206
       MULTIPLE_UNIT_CELL  1 1 1
     &END TOPOLOGY
   &END SUBSYS
 &END FORCE_EVAL
