 # Version information for this restart file 
 # current date 2019-06-24 21:36:15.065
 # current working dir /scratch/rzk/rzk/GaN-carbene/443-adatoms-both-2x2/03-DissMethanol/03-O-GaTop-H-NTop
 # Program compiled at                              Sun Apr  7 00:48:11 EDT 2019
 # Program compiled on                          beluga2.int.ets1.calculquebec.ca
 # Program compiled for                        Beluga-Linux-x86-64-intel-openmpi
 # Source code revision number                                         svn:18619
 &GLOBAL
   PRINT_LEVEL  MEDIUM
   PROJECT_NAME TEST
   RUN_TYPE  GEO_OPT
 &END GLOBAL
 &MOTION
   &GEO_OPT
     MAX_ITER  500
     STEP_START_VAL  62
   &END GEO_OPT
 &END MOTION
 &FORCE_EVAL
   METHOD  QS
   STRESS_TENSOR  ANALYTICAL
   &DFT
     BASIS_SET_FILE_NAME BASIS_MOLOPT
     POTENTIAL_FILE_NAME GTH_POTENTIALS
     UKS  T
     SURFACE_DIPOLE_CORRECTION  T
     SURF_DIP_DIR  Z
     &SCF
       MAX_SCF  80
       EPS_SCF     5.0000000000000004E-06
       &OT  T
         PRECONDITIONER  FULL_ALL
       &END OT
       &OUTER_SCF  T
         OPTIMIZER  NONE
         EPS_SCF     5.0000000000000004E-06
         MAX_SCF  4
       &END OUTER_SCF
       &PRINT
         &RESTART  OFF
           BACKUP_COPIES  1
           &EACH
             JUST_ENERGY  0
             QS_SCF  0
             MD  20
           &END EACH
         &END RESTART
       &END PRINT
     &END SCF
     &QS
       EPS_DEFAULT     1.0000000000000000E-14
       METHOD  GPW
     &END QS
     &MGRID
       NGRIDS  5
       CUTOFF     1.2000000000000000E+03
     &END MGRID
     &XC
       DENSITY_CUTOFF     1.0000000000000000E-10
       GRADIENT_CUTOFF     1.0000000000000000E-10
       TAU_CUTOFF     1.0000000000000000E-10
       &XC_FUNCTIONAL  NO_SHORTCUT
         &PBE  T
         &END PBE
       &END XC_FUNCTIONAL
       &VDW_POTENTIAL
         POTENTIAL_TYPE  PAIR_POTENTIAL
         &PAIR_POTENTIAL
           R_CUTOFF     1.0000000000000004E+01
           TYPE  DFTD3
           PARAMETER_FILE_NAME dftd3.dat
           REFERENCE_FUNCTIONAL PBE
           EPS_CN     9.9999999999999995E-07
           CALCULATE_C9_TERM  T
           REFERENCE_C9_TERM  T
           LONG_RANGE_CORRECTION  F
           VERBOSE_OUTPUT  F
         &END PAIR_POTENTIAL
       &END VDW_POTENTIAL
     &END XC
   &END DFT
   &SUBSYS
     &CELL
       A     1.2864472766435110E+01    0.0000000000000000E+00    0.0000000000000000E+00
       B    -6.4322363581020028E+00    1.1140960178524473E+01    0.0000000000000000E+00
       C     0.0000000000000000E+00    0.0000000000000000E+00    3.2000000000000000E+01
       MULTIPLE_UNIT_CELL  1 1 1
       &CELL_REF
         A     1.2982353780853531E+01    0.0000000000000000E+00    0.0000000000000000E+00
         B    -6.4911768904267628E+00    1.1243048175136114E+01    0.0000000000000000E+00
         C     0.0000000000000000E+00    0.0000000000000000E+00    3.2000000000000000E+01
         MULTIPLE_UNIT_CELL  1 1 1
       &END CELL_REF
     &END CELL
     &COORD
N   -9.8044032594983954E-02    2.0227884933895504E+00    2.5274521346586720E+00
Ga   -2.1603641270381471E-02    5.1625783520711295E-02    2.8739807269021576E+00
N   -3.9111051927577384E-03    5.5586726657742863E-02    5.0279528136027860E+00
Ga    2.7719099433943802E-02    1.8779292088601764E+00    5.8199427721153016E+00
N    8.8771481819557609E-03    1.8964687983859365E+00    7.8092701506078379E+00
Ga    1.5649530354474740E-03    5.0467424933705679E-02    8.4515639053586114E+00
N   -1.1856464716267095E-03    5.1493825453796042E-02    1.0423330927314739E+01
Ga   -7.9470227145036706E-04    1.8925405525272905E+00    1.1069309273152426E+01
N    9.1484048619688645E-05    1.8722800972544378E+00    1.3065196556174268E+01
Ga    1.8715454065119852E-03    4.8371980298263097E-02    1.3865290004434547E+01
N    2.7407856182273828E-03    4.8955344223249937E-02    1.6068933211811132E+01
Ga    1.0199022922150074E-03    2.0742586554443116E+00    1.6464004479657905E+01
Ga   -8.4237129262404065E-01    3.2911347443573642E+00    1.2078757013543562E+00
N   -1.5579028890008142E+00    4.5535548778207282E+00    2.5083108053833763E+00
Ga   -1.7143325322595300E+00    2.7701172633948965E+00    3.4936904707921612E+00
N   -1.6199621836743252E+00    2.8318343983425303E+00    5.3843344795523782E+00
Ga   -1.6217267803157220E+00    4.7342077271974077E+00    5.8199570753037229E+00
N   -1.6145976505144755E+00    4.7087968578197117E+00    7.8090424000636149E+00
Ga   -1.5975208840298472E+00    2.8437165685241959E+00    8.4348817309643653E+00
N   -1.5981268785673126E+00    2.8438459752971852E+00    1.0431210298263363E+01
Ga   -1.6233143991778707E+00    4.7026323227275730E+00    1.1069936232618296E+01
N   -1.6400912392799034E+00    4.7132540087549648E+00    1.3066048047385840E+01
Ga   -1.5967782093945786E+00    2.8439268815836476E+00    1.3618546650899241E+01
N   -1.6200113255308282E+00    2.8284055874088927E+00    1.5586187789056593E+01
Ga   -1.4678394212223549E+00    4.6135599118718051E+00    1.6463030710258266E+01
N   -5.8154214663932637E-03    3.7667647121733236E+00    1.7585079119515296E+01
N   -3.2240512114243511E+00    7.5906162765704082E+00    2.5227412901032302E+00
Ga   -3.2342008086947489E+00    5.6082907469862846E+00    2.8654996134851198E+00
N   -3.2136033105632409E+00    5.6169761174296360E+00    5.0220449786020884E+00
Ga   -3.2160869768074982E+00    7.4506470944414733E+00    5.7947261792310343E+00
N   -3.2180249343968268E+00    7.4667586708484466E+00    7.7923395065472638E+00
Ga   -3.2170732682764420E+00    5.6251798063611460E+00    8.4513877903400498E+00
N   -3.2176714032393585E+00    5.6225887694438637E+00    1.0422983466801211E+01
Ga   -3.2153849103814114E+00    7.4644175147773968E+00    1.1067793223410574E+01
N   -3.2156775471222647E+00    7.4441279806887044E+00    1.3060483179710230E+01
Ga   -3.2199328039591113E+00    5.6260931119937148E+00    1.3866948204629814E+01
N   -3.2185497779764969E+00    5.6273777534377318E+00    1.6068460153902564E+01
Ga   -3.2164613415288645E+00    7.6784469275110201E+00    1.6490161740894688E+01
Ga   -3.2276016754753125E+00    9.3291904534594536E+00    1.4677138964031871E+00
N   -4.7335934356671192E+00    1.0204638532466154E+01    2.5202052009359530E+00
Ga   -4.9219583237837501E+00    8.3539294208817054E+00    3.2874561604350951E+00
N   -4.8250073154870261E+00    8.4079234714866775E+00    5.2526370601550854E+00
Ga   -4.8485854341540602E+00    1.0279545297499896E+01    5.7964052086290945E+00
N   -4.8357510761214524E+00    1.0269866563025641E+01    7.7934751292547837E+00
Ga   -4.8129165379300272E+00    8.4145680207113926E+00    8.4369157299012496E+00
N   -4.8134410406391801E+00    8.4143647123901655E+00    1.0429825597389154E+01
Ga   -4.8372076992962167E+00    1.0273358930263340E+01    1.1067610625920338E+01
N   -4.8547390251167863E+00    1.0283117166161201E+01    1.3060198343682499E+01
Ga   -4.8130736470726143E+00    8.4145492027153459E+00    1.3620077359380458E+01
N   -4.8414004795112895E+00    8.3984704672918902E+00    1.5578633040255154E+01
Ga   -4.6522867675323107E+00    1.0165334752056706E+01    1.6490205843537460E+01
N   -3.2159648791398432E+00    9.3375575153719339E+00    1.7631932561784645E+01
N    3.1831798985087989E+00    1.9185689977670606E+00    2.5817320390137901E+00
Ga    3.1968202394484528E+00    1.7220066667671419E-01    3.2651046837868476E+00
N    3.2102849453980773E+00    5.7869971225051532E-02    5.2335859269060263E+00
Ga    3.1915234599008411E+00    1.9214030060022376E+00    5.8382464439632606E+00
N    3.2069857072341397E+00    1.9125290388922791E+00    7.8238495903963310E+00
Ga    3.2143789060649142E+00    4.5041116894069401E-02    8.4241221777250246E+00
N    3.2150171581007005E+00    4.1311179671222990E-02    1.0421395775563305E+01
Ga    3.2150752885609402E+00    1.9076417669017824E+00    1.1025438379844578E+01
N    3.2150676465178294E+00    1.9096103659273260E+00    1.2996781885085309E+01
Ga    3.2169544794381855E+00    3.8934780554182175E-02    1.3621084487314391E+01
N    3.2160829060041962E+00    7.3310725853288766E-02    1.5579628977732749E+01
Ga    3.2185410818698656E+00    1.9082687347098715E+00    1.5860733385240968E+01
N    1.6398379451938825E+00    4.7129735271823350E+00    2.5352555904118801E+00
Ga    1.6271866327549653E+00    2.8048901485446693E+00    3.1547365092123396E+00
N    1.5921462401550612E+00    2.8473506715033507E+00    5.1682404096130323E+00
Ga    1.6202019804198731E+00    4.7015534833909527E+00    5.7773618233894526E+00
N    1.6139784526428220E+00    4.6982130116328467E+00    7.7794322919103145E+00
Ga    1.6022019303206785E+00    2.8462188194924960E+00    8.4412748147295797E+00
N    1.5973138650904233E+00    2.8458853752683493E+00    1.0432653055466664E+01
Ga    1.6241688647330634E+00    4.7039636159502809E+00    1.1071353503522978E+01
N    1.6406751892675484E+00    4.7134021770230374E+00    1.3065618516243395E+01
Ga    1.5976550915246657E+00    2.8438495995932658E+00    1.3618455101474296E+01
N    1.6224200820158252E+00    2.8305770755741149E+00    1.5585133445684724E+01
Ga    1.4631983872701426E+00    4.6097638952189994E+00    1.6463215238919219E+01
N   -8.8883627045325455E-03    7.4512431923366105E+00    2.5901811832357939E+00
Ga   -1.4343014938102352E-02    5.6592969851934889E+00    3.1508404216928225E+00
N   -7.6427410382125022E-04    5.6027752857215543E+00    5.1648740990608886E+00
Ga   -2.0805641536275885E-03    7.4519687411596847E+00    5.8366391584140320E+00
N   -1.5467633212383702E-03    7.4699077108045291E+00    7.8229296211368737E+00
Ga    4.5252840945484915E-03    5.6138163166911603E+00    8.4417383082994899E+00
N    1.4279318928869505E-03    5.6100586687245322E+00    1.0433111163209343E+01
Ga   -2.0838612352541831E-03    7.4801981386281113E+00    1.1025991662505456E+01
N    2.6778370269555973E-04    7.4788115120291589E+00    1.2997878761727156E+01
Ga    4.3805701020569577E-04    5.6104557488818214E+00    1.3619191356051358E+01
N    3.0986660815771816E-03    5.6387331008609554E+00    1.5586790384617421E+01
Ga   -1.6830330610215335E-04    7.4814217858021488E+00    1.5862039895231446E+01
N   -1.7270283373845190E+00    1.0197630731321233E+01    2.5176230432098547E+00
Ga   -1.5154828542241525E+00    8.3345351110183454E+00    3.2685437703406945E+00
N   -1.6071422991741549E+00    8.4016122429963520E+00    5.2360665189359619E+00
Ga   -1.5891763769097638E+00    1.0276883028333286E+01    5.7832602307271772E+00
N   -1.6026425457738873E+00    1.0268510116484519E+01    7.7843246501404577E+00
Ga   -1.6153660827853145E+00    8.4102855859113745E+00    8.4229505465827685E+00
N   -1.6183025118783865E+00    8.4128443239193587E+00    1.0420739010709765E+01
Ga   -1.5957128912271916E+00    1.0272130433900369E+01    1.1062777316943729E+01
N   -1.5770526664547697E+00    1.0282831742150410E+01    1.3057158758353896E+01
Ga   -1.6194168291908762E+00    8.4156288271340802E+00    1.3620781033291394E+01
N   -1.5895519733202310E+00    8.3976030920019351E+00    1.5579051994499689E+01
Ga   -1.7774470905855440E+00    1.0167088838416449E+01    1.6490276342960176E+01
N    6.4232015046171806E+00    2.0299967757855040E+00    2.5190307211991820E+00
Ga    6.4211381235388165E+00    4.6691931124350029E-02    2.8376981449318959E+00
N    6.4270100938468842E+00    4.9378627010653091E-02    5.0108018246861681E+00
Ga    6.4194876673136942E+00    1.8750373515622352E+00    5.7915989623151773E+00
N    6.4271612066918111E+00    1.8969777745955967E+00    7.7918530651293878E+00
Ga    6.4272377657204824E+00    4.9681997309366663E-02    8.4378188539041883E+00
N    6.4304333317784597E+00    5.1452103368843739E-02    1.0413826833198385E+01
Ga    6.4269009425223471E+00    1.8890587187553847E+00    1.1071489508631462E+01
N    6.4310005050565868E+00    1.8717170398453664E+00    1.3064159126956271E+01
Ga    6.4288835110440656E+00    5.1778848569593465E-02    1.3870350423208915E+01
N    6.4303094272947980E+00    5.2583291932735463E-02    1.6068318822830069E+01
Ga    6.4315635924455075E+00    2.0959037819205308E+00    1.6482395496839882E+01
Ga    6.4236140138922408E+00    3.7744463596651543E+00    1.4741953331562390E+00
N    4.9491590320659791E+00    4.6375978204489954E+00    2.5541253224632889E+00
Ga    4.7023573303453592E+00    2.7819272000045689E+00    3.2725842235678893E+00
N    4.8138247435571824E+00    2.8368106806122935E+00    5.2392851847049995E+00
Ga    4.8135948315730648E+00    4.7013702657068155E+00    5.8154200726498839E+00
N    4.8171218295220761E+00    4.6969282707062776E+00    7.8041253107077369E+00
Ga    4.8259322901235420E+00    2.8365484924528959E+00    8.4304608803565930E+00
N    4.8317565470991646E+00    2.8410643054843554E+00    1.0426034702979617E+01
Ga    4.8077232408338819E+00    4.7008834561350010E+00    1.1065579870981928E+01
N    4.7928141273403515E+00    4.7122387506401360E+00    1.3059668699657488E+01
Ga    4.8350181395288745E+00    2.8445405305697991E+00    1.3620521853822401E+01
N    4.8062461081400309E+00    2.8301115475785297E+00    1.5580325017593578E+01
Ga    4.9902568106025047E+00    4.5983891839057724E+00    1.6482992616191762E+01
N    6.4302532555089114E+00    3.7623704128920687E+00    1.7618940441115036E+01
N    3.2291572057867031E+00    7.6172564412312598E+00    2.5556838853144388E+00
Ga    3.3094201143677506E+00    5.6767149119831828E+00    2.9972049156400877E+00
N    3.2351039373512154E+00    5.6341450842308491E+00    5.0636152873429223E+00
Ga    3.2174779709192634E+00    7.4670289125602878E+00    5.8164764562851543E+00
N    3.2150876418425978E+00    7.4722816025590255E+00    7.8049802604676097E+00
Ga    3.2128869351946214E+00    5.6208908942752567E+00    8.4374656616357626E+00
N    3.2143511095407327E+00    5.6219822403973296E+00    1.0413752915927780E+01
Ga    3.2131567876457687E+00    7.4622847754793185E+00    1.1065862249883558E+01
N    3.2156835973544382E+00    7.4433368498393415E+00    1.3060867689882460E+01
Ga    3.2202543890408024E+00    5.6240914610405399E+00    1.3863617586179227E+01
N    3.2197492904755780E+00    5.6248055064694373E+00    1.6069332663296990E+01
Ga    3.2167275359530416E+00    7.6660066751060016E+00    1.6477730974472276E+01
Ga    3.2177992952620018E+00    9.3245415249473105E+00    1.4763871235813388E+00
N    1.7079514798421866E+00    1.0198205527610694E+01    2.5196264507416344E+00
Ga    1.4998469027358332E+00    8.3331197343767176E+00    3.2760998310927998E+00
N    1.6030534483209069E+00    8.4004028326302631E+00    5.2421528784424556E+00
Ga    1.5722325166753741E+00    1.0272116644309314E+01    5.7928706292068011E+00
N    1.5950146763928017E+00    1.0267119091398124E+01    7.7928035629474870E+00
Ga    1.6080401338560910E+00    8.4101590396797725E+00    8.4303213181486072E+00
N    1.6146184714556466E+00    8.4132498606999597E+00    1.0426304161080939E+01
Ga    1.5876208664628353E+00    1.0270672726212105E+01    1.1071964060128394E+01
N    1.5747336671012386E+00    1.0282754103768971E+01    1.3065751992844502E+01
Ga    1.6198681708081073E+00    8.4140431431373894E+00    1.3620253534941849E+01
N    1.5936834816172196E+00    8.3952291023449899E+00    1.5582508444011957E+01
Ga    1.7614761639629442E+00    1.0175733815454549E+01    1.6476316335405560E+01
N    3.2082287343196900E+00    9.3395628867895866E+00    1.7609246267039236E+01
N    9.6881364137511081E+00    1.9332545559457148E+00    2.6423731763162825E+00
Ga    9.6407111806518007E+00    1.6005239123274426E-01    3.2835639181099983E+00
N    9.6406623782412311E+00    5.4653884185480547E-02    5.2521133274935643E+00
Ga    9.6168798221178129E+00    1.8915215200607980E+00    5.9244708683450851E+00
N    9.6371394403351900E+00    1.9027294162322392E+00    7.8827970322166614E+00
Ga    9.6414824655530094E+00    3.1736310185264009E-02    8.4532296731366312E+00
N    9.6451550673133823E+00    3.5686077791935340E-02    1.0441497479413636E+01
Ga    9.6466093200051883E+00    1.9086143788716297E+00    1.1026928344812260E+01
N    9.6490089781366812E+00    1.9092471520560013E+00    1.2999688112555649E+01
Ga    9.6478516039691193E+00    3.8923394479943280E-02    1.3620980771915237E+01
N    9.6515891905519204E+00    7.2365998210533869E-02    1.5583907883663441E+01
Ga    9.6480808433556025E+00    1.9099665184028389E+00    1.5862008222729706E+01
N    7.9318464058364979E+00    4.6256649593378176E+00    2.5292223330132440E+00
Ga    8.1287928844850637E+00    2.7777346714029063E+00    3.2840653206865928E+00
N    8.0378019588877638E+00    2.8297420213463300E+00    5.2520543062103320E+00
Ga    8.0699709186220296E+00    4.7027595947901641E+00    5.8079339294523997E+00
N    8.0518789321645752E+00    4.6959037495528744E+00    7.8032949679371137E+00
Ga    8.0187624113340839E+00    2.8421557709547978E+00    8.4521995590028283E+00
N    8.0240434119388233E+00    2.8437074007323435E+00    1.0440555567939489E+01
Ga    8.0531147740894777E+00    4.7036110279353505E+00    1.1074166841979221E+01
N    8.0710271306606920E+00    4.7127355165274691E+00    1.3065028816383215E+01
Ga    8.0283056931960868E+00    2.8438265125473188E+00    1.3621089569054959E+01
N    8.0586653748017465E+00    2.8287163555883463E+00    1.5581259723317199E+01
Ga    7.8732639439999828E+00    4.5984258630101627E+00    1.6481789399821807E+01
N    6.4288595628317209E+00    7.4783375943404717E+00    2.6266160753099297E+00
Ga    6.4512854144565575E+00    5.7330974168494890E+00    3.3010411950817553E+00
N    6.4405529340338816E+00    5.6242198743235310E+00    5.2654630722066571E+00
Ga    6.4351573233363935E+00    7.4815704352206955E+00    5.8835254756244355E+00
N    6.4318941227965576E+00    7.4797186411223704E+00    7.8559564904562169E+00
Ga    6.4338469216200984E+00    5.6113034092742939E+00    8.4421253761057979E+00
N    6.4316013307558251E+00    5.6098171238879813E+00    1.0433267962061720E+01
Ga    6.4317832231968133E+00    7.4796940260274738E+00    1.1026805265534573E+01
N    6.4313262124229702E+00    7.4794713768876431E+00    1.2997323990415497E+01
Ga    6.4314869173426281E+00    5.6103215700691313E+00    1.3621495432713386E+01
N    6.4313997981617881E+00    5.6418333183150375E+00    1.5581738583774282E+01
Ga    6.4341628733956879E+00    7.4795522699110091E+00    1.5857721676896446E+01
N    4.7110412541215814E+00    1.0207158028046154E+01    2.5284505390040066E+00
Ga    4.9294316342710429E+00    8.3714498236536041E+00    3.3011398494686564E+00
N    4.8293974807767750E+00    8.4150725899384611E+00    5.2657492082645572E+00
Ga    4.8458629653622003E+00    1.0286228691980774E+01    5.8103791872533259E+00
N    4.8307760491846103E+00    1.0274164502208880E+01    7.8051611343320166E+00
Ga    4.8149260591118832E+00    8.4153366665059561E+00    8.4431857468512419E+00
N    4.8121856308420439E+00    8.4143824974641621E+00    1.0434070353712320E+01
Ga    4.8383916166471979E+00    1.0271894890292435E+01    1.1074274087209652E+01
N    4.8554329765373128E+00    1.0282729076400580E+01    1.3065975848472837E+01
Ga    4.8130188141877843E+00    8.4136823981922628E+00    1.3620084132075080E+01
N    4.8400329800798083E+00    8.3982789018297765E+00    1.5582053666082492E+01
Ga    4.6626696687534945E+00    1.0170448819796555E+01    1.6476480368601614E+01
O   -3.5753872529675518E-01    3.3823951407199613E+00   -5.2131558475117490E-01
H    1.6271931655317160E+00    4.7121988118060338E+00    1.5052144541482027E+00
C    5.7150384101569962E-01    2.3628450681190816E+00   -9.5513053046141649E-01
H    1.5728917498585970E+00    2.5140866850432437E+00   -5.2155369835860765E-01
H    2.3819715595237079E-01    1.3477485239791767E+00   -6.9222275841743741E-01
H    6.3855200987520344E-01    2.4383639482977153E+00   -2.0485986154916747E+00
     &END COORD
     &KIND C
       BASIS_SET DZVP-MOLOPT-SR-GTH-q4
       POTENTIAL GTH-PBE-q4
       &POTENTIAL
 2 2
  0.3384712400000000E+00 2 -0.8803673979999999E+01  0.1339210850000000E+01
 2
  0.3025757500000000E+00 1  0.9622486650000001E+01
  0.2915069400000000E+00 0
         # Potential name:  GTH-PBE-Q4  for symbol:  C
         # Potential read from the potential filename: GTH_POTENTIALS
       &END POTENTIAL
     &END KIND
     &KIND O
       BASIS_SET DZVP-MOLOPT-SR-GTH-q6
       POTENTIAL GTH-PBE-q6
       &POTENTIAL
 2 4
  0.2445543000000000E+00 2 -0.1666721480000000E+02  0.2487311320000000E+01
 2
  0.2209559200000000E+00 1  0.1833745811000000E+02
  0.2113324700000000E+00 0
         # Potential name:  GTH-PBE-Q6  for symbol:  O
         # Potential read from the potential filename: GTH_POTENTIALS
       &END POTENTIAL
     &END KIND
     &KIND H
       BASIS_SET DZVP-MOLOPT-SR-GTH-q1
       POTENTIAL GTH-PBE-q1
       &POTENTIAL
 1
  0.2000000000000000E+00 2 -0.4178900440000000E+01  0.7244633100000000E+00
 0
         # Potential name:  GTH-PBE-Q1  for symbol:  H
         # Potential read from the potential filename: GTH_POTENTIALS
       &END POTENTIAL
     &END KIND
     &KIND N
       BASIS_SET DZVP-MOLOPT-SR-GTH
       POTENTIAL GTH-PBE-q5
       &POTENTIAL
 2 3
  0.2837905100000000E+00 2 -0.1241522559000000E+02  0.1868095920000000E+01
 2
  0.2554050000000000E+00 1  0.1363026257000000E+02
  0.2454945300000000E+00 0
         # Potential name:  GTH-PBE-Q5  for symbol:  N
         # Potential read from the potential filename: GTH_POTENTIALS
       &END POTENTIAL
     &END KIND
     &KIND Ga
       BASIS_SET DZVP-MOLOPT-SR-GTH
       POTENTIAL GTH-PBE-q13
       &POTENTIAL
 2 1 10
  0.4900000000000000E+00 0
 3
  0.4167772300000000E+00 3  0.1047568975000000E+02 -0.4921768140000000E+01  0.8707055900000000E+00
  0.7770178090000000E+01 -0.2248152160000000E+01
  0.1784415450000000E+01
  0.5696265200000000E+00 2  0.1777985340000000E+01  0.1958597600000000E+00
 -0.2317443900000000E+00
  0.2381265000000000E+00 1 -0.1624868022000000E+02
         # Potential name:  GTH-PBE-Q13  for symbol:  GA
         # Potential read from the potential filename: GTH_POTENTIALS
       &END POTENTIAL
     &END KIND
     &TOPOLOGY
       NUMBER_OF_ATOMS  206
       MULTIPLE_UNIT_CELL  1 1 1
     &END TOPOLOGY
   &END SUBSYS
 &END FORCE_EVAL
