 # Version information for this restart file 
 # current date 2019-06-24 17:35:47.798
 # current working dir /scratch/rzk/rzk/GaN-carbene/443-adatoms-both-2x2/03-DissMethanol/03-O-GaTop-H-NTop
 # Program compiled at                              Sun Apr  7 00:48:11 EDT 2019
 # Program compiled on                          beluga2.int.ets1.calculquebec.ca
 # Program compiled for                        Beluga-Linux-x86-64-intel-openmpi
 # Source code revision number                                         svn:18619
 &GLOBAL
   PRINT_LEVEL  MEDIUM
   PROJECT_NAME TEST
   RUN_TYPE  GEO_OPT
 &END GLOBAL
 &MOTION
   &GEO_OPT
     MAX_ITER  500
     STEP_START_VAL  32
   &END GEO_OPT
 &END MOTION
 &FORCE_EVAL
   METHOD  QS
   STRESS_TENSOR  ANALYTICAL
   &DFT
     BASIS_SET_FILE_NAME BASIS_MOLOPT
     POTENTIAL_FILE_NAME GTH_POTENTIALS
     UKS  T
     SURFACE_DIPOLE_CORRECTION  T
     SURF_DIP_DIR  Z
     &SCF
       MAX_SCF  80
       EPS_SCF     5.0000000000000004E-06
       &OT  T
         PRECONDITIONER  FULL_ALL
       &END OT
       &OUTER_SCF  T
         OPTIMIZER  NONE
         EPS_SCF     5.0000000000000004E-06
         MAX_SCF  4
       &END OUTER_SCF
       &PRINT
         &RESTART  OFF
           BACKUP_COPIES  1
           &EACH
             JUST_ENERGY  0
             QS_SCF  0
             MD  20
           &END EACH
         &END RESTART
       &END PRINT
     &END SCF
     &QS
       EPS_DEFAULT     1.0000000000000000E-14
       METHOD  GPW
     &END QS
     &MGRID
       NGRIDS  5
       CUTOFF     1.2000000000000000E+03
     &END MGRID
     &XC
       DENSITY_CUTOFF     1.0000000000000000E-10
       GRADIENT_CUTOFF     1.0000000000000000E-10
       TAU_CUTOFF     1.0000000000000000E-10
       &XC_FUNCTIONAL  NO_SHORTCUT
         &PBE  T
         &END PBE
       &END XC_FUNCTIONAL
       &VDW_POTENTIAL
         POTENTIAL_TYPE  PAIR_POTENTIAL
         &PAIR_POTENTIAL
           R_CUTOFF     1.0000000000000004E+01
           TYPE  DFTD3
           PARAMETER_FILE_NAME dftd3.dat
           REFERENCE_FUNCTIONAL PBE
           EPS_CN     9.9999999999999995E-07
           CALCULATE_C9_TERM  T
           REFERENCE_C9_TERM  T
           LONG_RANGE_CORRECTION  F
           VERBOSE_OUTPUT  F
         &END PAIR_POTENTIAL
       &END VDW_POTENTIAL
     &END XC
   &END DFT
   &SUBSYS
     &CELL
       A     1.2864472766435110E+01    0.0000000000000000E+00    0.0000000000000000E+00
       B    -6.4322363581020028E+00    1.1140960178524473E+01    0.0000000000000000E+00
       C     0.0000000000000000E+00    0.0000000000000000E+00    3.2000000000000000E+01
       MULTIPLE_UNIT_CELL  1 1 1
       &CELL_REF
         A     1.2982353780853531E+01    0.0000000000000000E+00    0.0000000000000000E+00
         B    -6.4911768904267628E+00    1.1243048175136114E+01    0.0000000000000000E+00
         C     0.0000000000000000E+00    0.0000000000000000E+00    3.2000000000000000E+01
         MULTIPLE_UNIT_CELL  1 1 1
       &END CELL_REF
     &END CELL
     &COORD
N   -9.5571299662035855E-02    2.0228805863131347E+00    2.5254351908933241E+00
Ga   -2.1558220414874915E-02    5.4717008651685398E-02    2.8775252808654512E+00
N   -5.3092704107352293E-03    5.6840439770472477E-02    5.0215570144263602E+00
Ga    2.6009324685461188E-02    1.8817035873904779E+00    5.8165905753877407E+00
N    6.2143545750450654E-03    1.8994007108219313E+00    7.8009067292626835E+00
Ga   -1.7410101021942180E-03    5.4045062370356507E-02    8.4512558556615893E+00
N   -5.6737135686793271E-03    5.5124961220541641E-02    1.0417302506869667E+01
Ga   -4.9397652133185014E-03    1.8964589713706368E+00    1.1069357264831520E+01
N   -6.1726013046463817E-03    1.8758181295629315E+00    1.3056948110968859E+01
Ga   -4.1361069042990476E-03    5.6382909246265468E-02    1.3874961577190856E+01
N   -7.5064416782843115E-03    5.5007359246063231E-02    1.6062294924454221E+01
Ga   -8.9235826290821173E-03    2.1024211617007755E+00    1.6481939864001546E+01
Ga   -8.2599502577529504E-01    3.2914708140987914E+00    1.1991106376830953E+00
N   -1.5543023746081959E+00    4.5550367000753624E+00    2.4915164698125074E+00
Ga   -1.7142529816782344E+00    2.7727433376104429E+00    3.4824685250332927E+00
N   -1.6214974924914007E+00    2.8348663998342247E+00    5.3723253843542853E+00
Ga   -1.6214991851823533E+00    4.7365366512460989E+00    5.8148330308021769E+00
N   -1.6173889725960695E+00    4.7124881528392875E+00    7.7990466725867016E+00
Ga   -1.5997627182224168E+00    2.8476286963221416E+00    8.4335973224659764E+00
N   -1.6016405880494622E+00    2.8478491761911404E+00    1.0422368099166134E+01
Ga   -1.6271690764922706E+00    4.7061326628577289E+00    1.1069593576753171E+01
N   -1.6458256158500046E+00    4.7163465016170791E+00    1.3057353134245043E+01
Ga   -1.6031413600711710E+00    2.8472979718367042E+00    1.3619396488904650E+01
N   -1.6312930482554648E+00    2.8329849990188740E+00    1.5575992587969759E+01
Ga   -1.4518708425803042E+00    4.6037123931061910E+00    1.6482690892014112E+01
N   -8.3747952593022298E-03    3.7702529234818547E+00    1.7619959395613407E+01
N   -3.2248520166813206E+00    7.5934104051505527E+00    2.5179179180021571E+00
Ga   -3.2315964374774824E+00    5.6096528541499504E+00    2.8617267678828449E+00
N   -3.2148225627751525E+00    5.6191555924389025E+00    5.0102627522582521E+00
Ga   -3.2177407006024596E+00    7.4529463563087806E+00    5.7927156573180696E+00
N   -3.2212459412941690E+00    7.4690683371363722E+00    7.7849035962467825E+00
Ga   -3.2194843827262938E+00    5.6278189769309108E+00    8.4500352906158067E+00
N   -3.2217388019156448E+00    5.6259477911896445E+00    1.0416167864645946E+01
Ga   -3.2195258413677199E+00    7.4666340666558098E+00    1.1068955787495009E+01
N   -3.2218953094500344E+00    7.4464777014229488E+00    1.3056548218529404E+01
Ga   -3.2220215877191438E+00    5.6268142647671295E+00    1.3874413677902853E+01
N   -3.2225656941257008E+00    5.6265914342741574E+00    1.6062728656640619E+01
Ga   -3.2243724587706475E+00    7.6739042311751060E+00    1.6485198854905818E+01
Ga   -3.2302788109244784E+00    9.3317639497002300E+00    1.4839903474728922E+00
N   -4.7334201039512580E+00    1.0205776204622117E+01    2.5178496489484430E+00
Ga   -4.9258938153204959E+00    8.3535731964557769E+00    3.2890923074035281E+00
N   -4.8274789870462920E+00    8.4094662288815929E+00    5.2486002995324785E+00
Ga   -4.8501917971265005E+00    1.0281001254990191E+01    5.7971484784508442E+00
N   -4.8391335107850768E+00    1.0272516353276808E+01    7.7881510455756162E+00
Ga   -4.8156127535786331E+00    8.4171627057139471E+00    8.4381224207131513E+00
N   -4.8169545380723608E+00    8.4181045982606708E+00    1.0424555214706562E+01
Ga   -4.8428086065299736E+00    1.0277450855708716E+01    1.1068990821146361E+01
N   -4.8621141439887436E+00    1.0286876091426896E+01    1.3056028594767376E+01
Ga   -4.8193380636740386E+00    8.4181210978220733E+00    1.3619261553581547E+01
N   -4.8470799777799769E+00    8.4036830901674708E+00    1.5575128037472513E+01
Ga   -4.6637982016468289E+00    1.0171125974152480E+01    1.6484825007176237E+01
N   -3.2215869979376714E+00    9.3363856372802534E+00    1.7629252830885918E+01
N    3.1833945727980879E+00    1.9199681096342487E+00    2.5724040561279322E+00
Ga    3.1958282883951612E+00    1.7748466011676858E-01    3.2670009964485960E+00
N    3.2085201624976958E+00    6.0160704514009677E-02    5.2299422833914200E+00
Ga    3.1904503810504203E+00    1.9236141994561735E+00    5.8409431453120959E+00
N    3.2047813907820153E+00    1.9152956368875982E+00    7.8196380603703357E+00
Ga    3.2112574630707100E+00    4.7561035444447300E-02    8.4245300800047485E+00
N    3.2104951693794170E+00    4.4074690253894468E-02    1.0415493359393688E+01
Ga    3.2106875079890069E+00    1.9110008921171622E+00    1.1024919327383847E+01
N    3.2091506573260311E+00    1.9125323656608413E+00    1.2991302303452112E+01
Ga    3.2101114786936988E+00    4.1554357195106272E-02    1.3618605788522657E+01
N    3.2083490994300132E+00    7.3784937692244798E-02    1.5574797280603267E+01
Ga    3.2089918080909507E+00    1.9123592543570163E+00    1.5852679570402159E+01
N    1.6423603056137914E+00    4.7135884176786478E+00    2.5292857524878047E+00
Ga    1.6288316376868364E+00    2.8059757588898591E+00    3.1553123227273474E+00
N    1.5925898867019244E+00    2.8496664422411366E+00    5.1634611366197900E+00
Ga    1.6193127688282771E+00    4.7046458974560519E+00    5.7746542371550937E+00
N    1.6121839241729385E+00    4.7021276502028542E+00    7.7714257864521032E+00
Ga    1.5991660560844845E+00    2.8500395589287377E+00    8.4397314972987214E+00
N    1.5936913609173122E+00    2.8495869132511653E+00    1.0424957695334944E+01
Ga    1.6199570803097532E+00    4.7076696549917871E+00    1.1072043822438411E+01
N    1.6346921363941225E+00    4.7170620090835058E+00    1.3058279323093041E+01
Ga    1.5893969417643385E+00    2.8482149665231398E+00    1.3620138815404168E+01
N    1.6161397500379278E+00    2.8325076669315123E+00    1.5577826685397692E+01
Ga    1.4354440631956398E+00    4.6045730005521337E+00    1.6481656253724502E+01
N   -8.3651227682829624E-03    7.4535093607326139E+00    2.5775383290386524E+00
Ga   -1.2148211599649428E-02    5.6618174773865384E+00    3.1442047369977617E+00
N   -1.0557244420171469E-03    5.6059134699237108E+00    5.1551889914923192E+00
Ga   -3.1949726036754685E-03    7.4539631364743419E+00    5.8366901674964300E+00
N   -4.2188844934462023E-03    7.4733006901920813E+00    7.8168436977426534E+00
Ga    1.8907144157222250E-03    5.6167450263814072E+00    8.4397031729842471E+00
N   -2.4294160756065716E-03    5.6132521322642086E+00    1.0424252900866112E+01
Ga   -6.7926774195398868E-03    7.4830198601073112E+00    1.1023913019555151E+01
N   -7.5925032140082048E-03    7.4824241783717307E+00    1.2988348686062558E+01
Ga   -6.0999041446130669E-03    5.6135681436024312E+00    1.3619347333507339E+01
N   -8.0399904417841894E-03    5.6441951540243389E+00    1.5575688287553488E+01
Ga   -1.1083652396103299E-02    7.4816824358584189E+00    1.5858378235181107E+01
N   -1.7282907082750187E+00    1.0199109952372741E+01    2.5151723972935920E+00
Ga   -1.5125551049695476E+00    8.3332983852353646E+00    3.2670924320771388E+00
N   -1.6082125898079671E+00    8.4031712981153444E+00    5.2297234229071883E+00
Ga   -1.5918304258892575E+00    1.0277789316175992E+01    5.7825009012807982E+00
N   -1.6052980326220536E+00    1.0271332011564242E+01    7.7773860906821115E+00
Ga   -1.6188700256948332E+00    8.4127735223521896E+00    8.4223172746351711E+00
N   -1.6233866992169206E+00    8.4161973906421803E+00    1.0413569181378810E+01
Ga   -1.6000652962641653E+00    1.0275179004882951E+01    1.1063139743358102E+01
N   -1.5830364196652140E+00    1.0286120928607740E+01    1.3052218027487113E+01
Ga   -1.6256180578490185E+00    8.4185641296921201E+00    1.3619184253608703E+01
N   -1.6003502739135507E+00    8.4034349212503248E+00    1.5575770632183179E+01
Ga   -1.7822957833578186E+00    1.0172611456117183E+01    1.6485142216604704E+01
N    6.4229355062819335E+00    2.0330118962170105E+00    2.5164084401362117E+00
Ga    6.4207937012044205E+00    4.8212768172657884E-02    2.8419709686918471E+00
N    6.4255132076662909E+00    5.1642407674651364E-02    5.0020974660449200E+00
Ga    6.4182453806130040E+00    1.8781524811028045E+00    5.7913416185835320E+00
N    6.4244672158805685E+00    1.8992146230701652E+00    7.7853116475219624E+00
Ga    6.4240282884747275E+00    5.2345031038386419E-02    8.4375007413148744E+00
N    6.4257330619040367E+00    5.4470757546169743E-02    1.0407722633527573E+01
Ga    6.4227858164279787E+00    1.8921025313533890E+00    1.1071206100515186E+01
N    6.4245703415322328E+00    1.8743195380845217E+00    1.3058011654869620E+01
Ga    6.4226988616003933E+00    5.5376947984936344E-02    1.3874584217475663E+01
N    6.4254696340544912E+00    5.4412226999596337E-02    1.6061872827258270E+01
Ga    6.4240548820094858E+00    2.1032846542193537E+00    1.6483472225802181E+01
Ga    6.4243466888646195E+00    3.7749218420732906E+00    1.4932704406624293E+00
N    4.9498117678160076E+00    4.6387581057287228E+00    2.5495530501827659E+00
Ga    4.6977976303507791E+00    2.7822950775691297E+00    3.2743511640417649E+00
N    4.8125018084486761E+00    2.8392952739593773E+00    5.2353052971781828E+00
Ga    4.8129328605318591E+00    4.7041434195420013E+00    5.8159569360768950E+00
N    4.8145889617504967E+00    4.6999949768926745E+00    7.7987336046907094E+00
Ga    4.8235084600708715E+00    2.8397721411348922E+00    8.4312256924700328E+00
N    4.8277493578434818E+00    2.8446787582624906E+00    1.0420182445222389E+01
Ga    4.8023932998305474E+00    4.7047704888379105E+00    1.1067395594781935E+01
N    4.7853568505177844E+00    4.7159948636209545E+00    1.3055326882117999E+01
Ga    4.8289959003037071E+00    2.8480326876435589E+00    1.3619937693234228E+01
N    4.8006764181451285E+00    2.8336247675412212E+00    1.5576393368618030E+01
Ga    4.9833882630046897E+00    4.6025259675204735E+00    1.6484119752729978E+01
N    6.4289680425321389E+00    3.7697692736519848E+00    1.7626461813446056E+01
N    3.2291444771696289E+00    7.6204626383964547E+00    2.5514162336316888E+00
Ga    3.3086636558737195E+00    5.6789190690337810E+00    2.9966263262941766E+00
N    3.2360650875902190E+00    5.6379312554250935E+00    5.0569113330283519E+00
Ga    3.2164909883234998E+00    7.4702936345452402E+00    5.8167921985825277E+00
N    3.2123644511416951E+00    7.4757693077523291E+00    7.7996463950119619E+00
Ga    3.2101300228115566E+00    5.6243796193623732E+00    8.4375588205336136E+00
N    3.2102067982984699E+00    5.6258437911993067E+00    1.0407853963602518E+01
Ga    3.2085113525937521E+00    7.4648949915888476E+00    1.1068604301979500E+01
N    3.2090219552546424E+00    7.4453228183458080E+00    1.3057543569008477E+01
Ga    3.2107720545264145E+00    5.6251559044544726E+00    1.3874743995335420E+01
N    3.2092212721387212E+00    5.6276351535652562E+00    1.6062354782035296E+01
Ga    3.2074262005975118E+00    7.6732758229406270E+00    1.6475547864911359E+01
Ga    3.2191082665928072E+00    9.3293023208265549E+00    1.4939723272487442E+00
N    1.7089214707926708E+00    1.0200111095459805E+01    2.5170852300997977E+00
Ga    1.4966691465615685E+00    8.3325012661519597E+00    3.2758864596666495E+00
N    1.6017768037085058E+00    8.4027469488218003E+00    5.2367488157028772E+00
Ga    1.5715723138571229E+00    1.0274044665988979E+01    5.7923084578158477E+00
N    1.5916406454367140E+00    1.0270501872785522E+01    7.7862033743830903E+00
Ga    1.6052698601094406E+00    8.4134227110560715E+00    8.4310063620107005E+00
N    1.6106762020605609E+00    8.4168037384967178E+00    1.0420409057341196E+01
Ga    1.5828615519762645E+00    1.0274287874241931E+01    1.1072258565934140E+01
N    1.5675263242313011E+00    1.0286281484903409E+01    1.3059771460656590E+01
Ga    1.6110155880220312E+00    8.4164679493718584E+00    1.3617695351488868E+01
N    1.5785544903255515E+00    8.3992851697013240E+00    1.5573290372612474E+01
Ga    1.7653616590887271E+00    1.0172931655210338E+01    1.6475235673383573E+01
N    3.2097760996471516E+00    9.3393842765054078E+00    1.7600085279643782E+01
N    9.6869114692201315E+00    1.9345489713560913E+00    2.6336429886606822E+00
Ga    9.6412359342725633E+00    1.6668980708708386E-01    3.2856819239965893E+00
N    9.6395252051373372E+00    5.7588377327688858E-02    5.2483056438686448E+00
Ga    9.6170750096865181E+00    1.8953888003525530E+00    5.9235849839909083E+00
N    9.6347183766614588E+00    1.9059928697594313E+00    7.8764450208751775E+00
Ga    9.6384650563677532E+00    3.5103725471486248E-02    8.4533450475955370E+00
N    9.6409137838850789E+00    3.8669820011181702E-02    1.0435446811680990E+01
Ga    9.6429488658289628E+00    1.9126269071227384E+00    1.1024805858210746E+01
N    9.6421726571093078E+00    1.9137027960084014E+00    1.2990020826645940E+01
Ga    9.6407879813322293E+00    4.4349755730097001E-02    1.3617446576184516E+01
N    9.6393991615225811E+00    8.1035487215499524E-02    1.5573471236098809E+01
Ga    9.6405088941076738E+00    1.9164186986784579E+00    1.5858356408402923E+01
N    7.9312861361972500E+00    4.6274589026589910E+00    2.5241777211514251E+00
Ga    8.1333447247467134E+00    2.7781491051135934E+00    3.2852375392217485E+00
N    8.0366356245285679E+00    2.8322979160495954E+00    5.2471958772913361E+00
Ga    8.0685526478855909E+00    4.7054876268553940E+00    5.8068018122127256E+00
N    8.0494268560349003E+00    4.6990673262140623E+00    7.7962549483837460E+00
Ga    8.0162295169289735E+00    2.8453116905848690E+00    8.4513068182536344E+00
N    8.0195061064949211E+00    2.8473919299050614E+00    1.0433320817013239E+01
Ga    8.0500628579499338E+00    4.7069027939834589E+00    1.1075578810839028E+01
N    8.0661280096819716E+00    4.7163266168293561E+00    1.3061358492608056E+01
Ga    8.0219638476424997E+00    2.8464076320952221E+00    1.3620208906371120E+01
N    8.0472918790688404E+00    2.8321731889075705E+00    1.5577514717488214E+01
Ga    7.8687613357500581E+00    4.6043687310598154E+00    1.6483620131138810E+01
N    6.4278734773592987E+00    7.4805094160632404E+00    2.6169610064881872E+00
Ga    6.4511816066040506E+00    5.7392905969827961E+00    3.3019602423770817E+00
N    6.4395282951715949E+00    5.6273338540069675E+00    5.2607594643766191E+00
Ga    6.4332030873977741E+00    7.4837677184596885E+00    5.8876048175624351E+00
N    6.4283431345941153E+00    7.4824587537991158E+00    7.8535036075616160E+00
Ga    6.4312612307914554E+00    5.6135405667821026E+00    8.4440962772163051E+00
N    6.4276886273049998E+00    5.6124531115893523E+00    1.0428468079206974E+01
Ga    6.4282306281050374E+00    7.4828468750476498E+00    1.1026702837567099E+01
N    6.4263652942011378E+00    7.4826768577408904E+00    1.2990889048330152E+01
Ga    6.4248880339718397E+00    5.6132856530609851E+00    1.3620169375730333E+01
N    6.4232787081711349E+00    5.6434931700912365E+00    1.5576423328988392E+01
Ga    6.4283380098320597E+00    7.4812698064374130E+00    1.5856939942831788E+01
N    4.7104471868064932E+00    1.0208994116992857E+01    2.5265489170636606E+00
Ga    4.9321004736369272E+00    8.3718010115323551E+00    3.3033231851659184E+00
N    4.8287534915354176E+00    8.4174794469134113E+00    5.2620847352211051E+00
Ga    4.8441610370403971E+00    1.0288272609870550E+01    5.8113233857686923E+00
N    4.8278017141338880E+00    1.0277121063496612E+01    7.8000594436984958E+00
Ga    4.8111504213106429E+00    8.4188208811954759E+00    8.4463256313496107E+00
N    4.8078161859073782E+00    8.4182384503412688E+00    1.0430859161163578E+01
Ga    4.8346897999124110E+00    1.0276474293215898E+01    1.1076935441703993E+01
N    4.8505374375756274E+00    1.0287245892341174E+01    1.3063083209652655E+01
Ga    4.8071028384641146E+00    8.4167428868502903E+00    1.3618699491129428E+01
N    4.8376419593924123E+00    8.3988006952372380E+00    1.5575580701346004E+01
Ga    4.6514085733836641E+00    1.0174477808785339E+01    1.6474796234700030E+01
O   -3.1462134300798467E-01    3.3218348497607901E+00   -5.2844091216281242E-01
H    1.6339375245505163E+00    4.7087049872011812E+00    1.4990808997918348E+00
C    6.5714904808783559E-01    2.3094349282893938E+00   -8.8730906203928139E-01
H    1.6564127920236911E+00    2.5483649823558334E+00   -4.9165696948471360E-01
H    3.8026357722064241E-01    1.3088664222393005E+00   -5.1995117079083852E-01
H    7.0082051440493032E-01    2.2806532433211171E+00   -1.9846396269542665E+00
     &END COORD
     &KIND C
       BASIS_SET DZVP-MOLOPT-SR-GTH-q4
       POTENTIAL GTH-PBE-q4
       &POTENTIAL
 2 2
  0.3384712400000000E+00 2 -0.8803673979999999E+01  0.1339210850000000E+01
 2
  0.3025757500000000E+00 1  0.9622486650000001E+01
  0.2915069400000000E+00 0
         # Potential name:  GTH-PBE-Q4  for symbol:  C
         # Potential read from the potential filename: GTH_POTENTIALS
       &END POTENTIAL
     &END KIND
     &KIND O
       BASIS_SET DZVP-MOLOPT-SR-GTH-q6
       POTENTIAL GTH-PBE-q6
       &POTENTIAL
 2 4
  0.2445543000000000E+00 2 -0.1666721480000000E+02  0.2487311320000000E+01
 2
  0.2209559200000000E+00 1  0.1833745811000000E+02
  0.2113324700000000E+00 0
         # Potential name:  GTH-PBE-Q6  for symbol:  O
         # Potential read from the potential filename: GTH_POTENTIALS
       &END POTENTIAL
     &END KIND
     &KIND H
       BASIS_SET DZVP-MOLOPT-SR-GTH-q1
       POTENTIAL GTH-PBE-q1
       &POTENTIAL
 1
  0.2000000000000000E+00 2 -0.4178900440000000E+01  0.7244633100000000E+00
 0
         # Potential name:  GTH-PBE-Q1  for symbol:  H
         # Potential read from the potential filename: GTH_POTENTIALS
       &END POTENTIAL
     &END KIND
     &KIND N
       BASIS_SET DZVP-MOLOPT-SR-GTH
       POTENTIAL GTH-PBE-q5
       &POTENTIAL
 2 3
  0.2837905100000000E+00 2 -0.1241522559000000E+02  0.1868095920000000E+01
 2
  0.2554050000000000E+00 1  0.1363026257000000E+02
  0.2454945300000000E+00 0
         # Potential name:  GTH-PBE-Q5  for symbol:  N
         # Potential read from the potential filename: GTH_POTENTIALS
       &END POTENTIAL
     &END KIND
     &KIND Ga
       BASIS_SET DZVP-MOLOPT-SR-GTH
       POTENTIAL GTH-PBE-q13
       &POTENTIAL
 2 1 10
  0.4900000000000000E+00 0
 3
  0.4167772300000000E+00 3  0.1047568975000000E+02 -0.4921768140000000E+01  0.8707055900000000E+00
  0.7770178090000000E+01 -0.2248152160000000E+01
  0.1784415450000000E+01
  0.5696265200000000E+00 2  0.1777985340000000E+01  0.1958597600000000E+00
 -0.2317443900000000E+00
  0.2381265000000000E+00 1 -0.1624868022000000E+02
         # Potential name:  GTH-PBE-Q13  for symbol:  GA
         # Potential read from the potential filename: GTH_POTENTIALS
       &END POTENTIAL
     &END KIND
     &TOPOLOGY
       NUMBER_OF_ATOMS  206
       MULTIPLE_UNIT_CELL  1 1 1
     &END TOPOLOGY
   &END SUBSYS
 &END FORCE_EVAL
