 # Version information for this restart file 
 # current date 2019-06-24 23:00:39.261
 # current working dir /scratch/rzk/rzk/GaN-carbene/443-adatoms-both-2x2/03-DissMethanol/03-O-GaTop-H-NTop
 # Program compiled at                              Sun Apr  7 00:48:11 EDT 2019
 # Program compiled on                          beluga2.int.ets1.calculquebec.ca
 # Program compiled for                        Beluga-Linux-x86-64-intel-openmpi
 # Source code revision number                                         svn:18619
 &GLOBAL
   PRINT_LEVEL  MEDIUM
   PROJECT_NAME TEST
   RUN_TYPE  GEO_OPT
 &END GLOBAL
 &MOTION
   &GEO_OPT
     MAX_ITER  500
     STEP_START_VAL  70
   &END GEO_OPT
 &END MOTION
 &FORCE_EVAL
   METHOD  QS
   STRESS_TENSOR  ANALYTICAL
   &DFT
     BASIS_SET_FILE_NAME BASIS_MOLOPT
     POTENTIAL_FILE_NAME GTH_POTENTIALS
     UKS  T
     SURFACE_DIPOLE_CORRECTION  T
     SURF_DIP_DIR  Z
     &SCF
       MAX_SCF  80
       EPS_SCF     5.0000000000000004E-06
       &OT  T
         PRECONDITIONER  FULL_ALL
       &END OT
       &OUTER_SCF  T
         OPTIMIZER  NONE
         EPS_SCF     5.0000000000000004E-06
         MAX_SCF  4
       &END OUTER_SCF
       &PRINT
         &RESTART  OFF
           BACKUP_COPIES  1
           &EACH
             JUST_ENERGY  0
             QS_SCF  0
             MD  20
           &END EACH
         &END RESTART
       &END PRINT
     &END SCF
     &QS
       EPS_DEFAULT     1.0000000000000000E-14
       METHOD  GPW
     &END QS
     &MGRID
       NGRIDS  5
       CUTOFF     1.2000000000000000E+03
     &END MGRID
     &XC
       DENSITY_CUTOFF     1.0000000000000000E-10
       GRADIENT_CUTOFF     1.0000000000000000E-10
       TAU_CUTOFF     1.0000000000000000E-10
       &XC_FUNCTIONAL  NO_SHORTCUT
         &PBE  T
         &END PBE
       &END XC_FUNCTIONAL
       &VDW_POTENTIAL
         POTENTIAL_TYPE  PAIR_POTENTIAL
         &PAIR_POTENTIAL
           R_CUTOFF     1.0000000000000004E+01
           TYPE  DFTD3
           PARAMETER_FILE_NAME dftd3.dat
           REFERENCE_FUNCTIONAL PBE
           EPS_CN     9.9999999999999995E-07
           CALCULATE_C9_TERM  T
           REFERENCE_C9_TERM  T
           LONG_RANGE_CORRECTION  F
           VERBOSE_OUTPUT  F
         &END PAIR_POTENTIAL
       &END VDW_POTENTIAL
     &END XC
   &END DFT
   &SUBSYS
     &CELL
       A     1.2864472766435110E+01    0.0000000000000000E+00    0.0000000000000000E+00
       B    -6.4322363581020028E+00    1.1140960178524473E+01    0.0000000000000000E+00
       C     0.0000000000000000E+00    0.0000000000000000E+00    3.2000000000000000E+01
       MULTIPLE_UNIT_CELL  1 1 1
       &CELL_REF
         A     1.2982353780853531E+01    0.0000000000000000E+00    0.0000000000000000E+00
         B    -6.4911768904267628E+00    1.1243048175136114E+01    0.0000000000000000E+00
         C     0.0000000000000000E+00    0.0000000000000000E+00    3.2000000000000000E+01
         MULTIPLE_UNIT_CELL  1 1 1
       &END CELL_REF
     &END CELL
     &COORD
N   -9.6537488371798055E-02    2.0226055616839074E+00    2.5265098409034970E+00
Ga   -2.1395788362782719E-02    5.1523973902087218E-02    2.8756924676167848E+00
N   -3.6216438140557472E-03    5.5242438997097104E-02    5.0280966648113052E+00
Ga    2.8004333277238593E-02    1.8779707290581606E+00    5.8200966418271269E+00
N    9.6675909618360468E-03    1.8963498698751997E+00    7.8088391998784381E+00
Ga    1.8755822571466681E-03    5.0163702463258394E-02    8.4520465549367980E+00
N   -2.2118529659879952E-04    5.1384345920782205E-02    1.0423076955945422E+01
Ga   -3.8746921931601963E-06    1.8926080970587280E+00    1.1069324338375658E+01
N    4.3766286723167190E-04    1.8722336486140529E+00    1.3063958355708273E+01
Ga    1.6914184458309805E-03    4.9275138160931167E-02    1.3867460674896224E+01
N    1.0376875069552712E-03    4.8635052780905498E-02    1.6069731380094577E+01
Ga    2.8221741224012292E-04    2.0752951418111354E+00    1.6467875400660525E+01
Ga   -8.4069708436929413E-01    3.2916009877220418E+00    1.2077014681979805E+00
N   -1.5569524647062909E+00    4.5540656954646384E+00    2.5067215246888268E+00
Ga   -1.7140580154313956E+00    2.7703935525455963E+00    3.4916924945472423E+00
N   -1.6196629628729995E+00    2.8317276941238632E+00    5.3824563390677227E+00
Ga   -1.6212631859900635E+00    4.7341633038525401E+00    5.8197390215514551E+00
N   -1.6141828503836599E+00    4.7092505798360929E+00    7.8082729947306859E+00
Ga   -1.5970467281259972E+00    2.8439162892853065E+00    8.4348970778711561E+00
N   -1.5972045044533729E+00    2.8439250887955496E+00    1.0430127032260549E+01
Ga   -1.6222917497599501E+00    4.7025240175117604E+00    1.1069845944390421E+01
N   -1.6390722053815514E+00    4.7125098551715707E+00    1.3064602016232257E+01
Ga   -1.5962018214007487E+00    2.8437122797288317E+00    1.3619579987957270E+01
N   -1.6201346271891415E+00    2.8307521586755784E+00    1.5586648241246859E+01
Ga   -1.4625089535776921E+00    4.6117226647329961E+00    1.6467749573835480E+01
N   -2.9290069109558980E-03    3.7624699879474344E+00    1.7600994073865806E+01
N   -3.2240537316927527E+00    7.5906217731980572E+00    2.5239241171802589E+00
Ga   -3.2334848084301040E+00    5.6081286456110702E+00    2.8665874582533992E+00
N   -3.2137445992992033E+00    5.6170380429377431E+00    5.0218184950653910E+00
Ga   -3.2160682194754289E+00    7.4506634885892637E+00    5.7956911538506146E+00
N   -3.2176742679054486E+00    7.4664113141266810E+00    7.7924389407810342E+00
Ga   -3.2169519645203204E+00    5.6250137104231177E+00    8.4520490998611812E+00
N   -3.2167899556991890E+00    5.6227420170658231E+00    1.0423042591452440E+01
Ga   -3.2147028874779453E+00    7.4642923997712325E+00    1.1068852168928949E+01
N   -3.2156372408900036E+00    7.4441533185966273E+00    1.3061465120882430E+01
Ga   -3.2172884399429069E+00    5.6256158270736005E+00    1.3866768096345194E+01
N   -3.2186622265212690E+00    5.6249693296195664E+00    1.6067681258414751E+01
Ga   -3.2152489462952376E+00    7.6753235698625657E+00    1.6488556963674679E+01
Ga   -3.2282237382707821E+00    9.3291106271153446E+00    1.4749970875547158E+00
N   -4.7333254053985883E+00    1.0204386906867727E+01    2.5219703250081262E+00
Ga   -4.9227232094319016E+00    8.3530406347092256E+00    3.2901109147781034E+00
N   -4.8252251906753827E+00    8.4073194037040704E+00    5.2538465961620204E+00
Ga   -4.8483766664958079E+00    1.0278898127088331E+01    5.7975206473837071E+00
N   -4.8354643206578416E+00    1.0269474738737193E+01    7.7937592191245484E+00
Ga   -4.8126846471781164E+00    8.4139885371226519E+00    8.4378012035853818E+00
N   -4.8122490581032116E+00    8.4144608106179799E+00    1.0429820791101328E+01
Ga   -4.8365748005660025E+00    1.0273206821760756E+01    1.1068716438739367E+01
N   -4.8548931958367714E+00    1.0282613159782676E+01    1.3061316674887699E+01
Ga   -4.8126106990921551E+00    8.4144799986339969E+00    1.3621472525457058E+01
N   -4.8410498322352851E+00    8.3978680879939311E+00    1.5581159407364256E+01
Ga   -4.6547865463899356E+00    1.0166305573268932E+01    1.6488932705168260E+01
N   -3.2167416432954772E+00    9.3363012085199024E+00    1.7627695629906345E+01
N    3.1843052938562852E+00    1.9181464289043078E+00    2.5826953666034198E+00
Ga    3.1972689192772412E+00    1.7258167551237905E-01    3.2681174392948558E+00
N    3.2105935886118711E+00    5.7383906704372094E-02    5.2352606591370385E+00
Ga    3.1926839701225389E+00    1.9213216418237793E+00    5.8396153213720110E+00
N    3.2077589568001761E+00    1.9124544783968935E+00    7.8244428615857160E+00
Ga    3.2148845847372756E+00    4.4670910380391622E-02    8.4248142793174008E+00
N    3.2155545675547370E+00    4.0747343197391338E-02    1.0421232110912081E+01
Ga    3.2155306705396698E+00    1.9068705177468483E+00    1.1026053998132493E+01
N    3.2147793887933669E+00    1.9086157355483582E+00    1.2996758251004822E+01
Ga    3.2167645123136466E+00    3.8420763855175490E-02    1.3621347422294710E+01
N    3.2165312707878315E+00    7.2357509196872768E-02    1.5580716528540856E+01
Ga    3.2163782589051846E+00    1.9082661323149130E+00    1.5862051447789119E+01
N    1.6404098340187323E+00    4.7127672184331137E+00    2.5347455836473407E+00
Ga    1.6284283801856205E+00    2.8048322262066856E+00    3.1558123031482475E+00
N    1.5928485130803531E+00    2.8474001440480152E+00    5.1686481823421060E+00
Ga    1.6214502106050048E+00    4.7020861712037183E+00    5.7775130493269078E+00
N    1.6147771387257912E+00    4.6983714182573193E+00    7.7789129454690435E+00
Ga    1.6030066618601468E+00    2.8464584535385544E+00    8.4416206403011937E+00
N    1.5983580777522080E+00    2.8456815985808945E+00    1.0431898696866343E+01
Ga    1.6243776514098662E+00    4.7036931557212380E+00    1.1071366254278203E+01
N    1.6400521321897785E+00    4.7125843619045797E+00    1.3064379750305635E+01
Ga    1.5974770837748717E+00    2.8434585305677702E+00    1.3619365043900524E+01
N    1.6211400785953871E+00    2.8318974899775191E+00    1.5585809878254576E+01
Ga    1.4599080712655075E+00    4.6099445802350818E+00    1.6468086895692945E+01
N   -8.1807864023954215E-03    7.4518670941874205E+00    2.5905782205982733E+00
Ga   -1.3639935862195411E-02    5.6597706189715247E+00    3.1510327377990857E+00
N   -5.2167818553511489E-05    5.6027676298802618E+00    5.1646754522117106E+00
Ga   -1.3458116055842821E-03    7.4523043962221633E+00    5.8373350047462553E+00
N   -1.1260534167359451E-03    7.4698681879813149E+00    7.8226922957442371E+00
Ga    5.2480409920975645E-03    5.6139159559142264E+00    8.4418603287377501E+00
N    2.1424706660661992E-03    5.6101828401118814E+00    1.0432101259846947E+01
Ga   -1.9268958161305335E-03    7.4799554666670760E+00    1.1026534902384190E+01
N   -7.7486546458124328E-04    7.4783813728706132E+00    1.2997116985910610E+01
Ga    3.9819527507179841E-04    5.6105290334699580E+00    1.3619181752959301E+01
N    1.4467855901552553E-03    5.6375668049091487E+00    1.5584896619866507E+01
Ga    5.5537866170837305E-05    7.4801471331265788E+00    1.5862734999509106E+01
N   -1.7265432543387942E+00    1.0197632610883712E+01    2.5191280038982624E+00
Ga   -1.5146193375590273E+00    8.3339578725019869E+00    3.2706104949348682E+00
N   -1.6070530164379444E+00    8.4013875729666125E+00    5.2370006692067879E+00
Ga   -1.5888483877069657E+00    1.0276422614362634E+01    5.7848187730974079E+00
N   -1.6019588483510372E+00    1.0268204595950746E+01    7.7847805381530355E+00
Ga   -1.6150210237133704E+00    8.4098954304574747E+00    8.4237448892834124E+00
N   -1.6179948587904762E+00    8.4126475694537621E+00    1.0420809273876165E+01
Ga   -1.5954451467677653E+00    1.0271683384904769E+01    1.1063997708613382E+01
N   -1.5774531775873037E+00    1.0281933712152808E+01    1.3058315342614616E+01
Ga   -1.6192289453434197E+00    8.4149480603983342E+00    1.3621280854792541E+01
N   -1.5893296175344176E+00    8.3971897209857627E+00    1.5579787189876482E+01
Ga   -1.7746777851041646E+00    1.0166913810835057E+01    1.6488458046562894E+01
N    6.4237648104985388E+00    2.0296080810233867E+00    2.5196668656647487E+00
Ga    6.4219458412466244E+00    4.6715558657900780E-02    2.8411378231897806E+00
N    6.4273526621331687E+00    4.9223339701827788E-02    5.0115857851059875E+00
Ga    6.4201161858519944E+00    1.8750322761668112E+00    5.7926790670224539E+00
N    6.4276712082743632E+00    1.8965586722734007E+00    7.7919190977519719E+00
Ga    6.4277416895013868E+00    4.9645883746598035E-02    8.4386902622109314E+00
N    6.4304152996223527E+00    5.0875426060266273E-02    1.0413960766916761E+01
Ga    6.4274305986806679E+00    1.8885807775407195E+00    1.1071542100805278E+01
N    6.4307303273437375E+00    1.8704433564837570E+00    1.3064226513762923E+01
Ga    6.4293598689810461E+00    4.9907096684324685E-02    1.3871883745171502E+01
N    6.4313395721987083E+00    5.1663868026706153E-02    1.6068126097264486E+01
Ga    6.4333241878164040E+00    2.0938776316045158E+00    1.6481694150968604E+01
Ga    6.4244707919875896E+00    3.7739458365636480E+00    1.4783398512743031E+00
N    4.9493434334976651E+00    4.6374926510237549E+00    2.5543385927045175E+00
Ga    4.7029182894511541E+00    2.7818438422620733E+00    3.2741954392433956E+00
N    4.8147661620424511E+00    2.8368938074060042E+00    5.2400597268157068E+00
Ga    4.8142972051182955E+00    4.7012998398173069E+00    5.8165579803528686E+00
N    4.8176329478290070E+00    4.6966234998167868E+00    7.8042067972232898E+00
Ga    4.8269611958430989E+00    2.8366343723636978E+00    8.4312211319320252E+00
N    4.8319794466236941E+00    2.8404731792575295E+00    1.0425927675364978E+01
Ga    4.8082194522422537E+00    4.7005420297785747E+00    1.1065612303601005E+01
N    4.7920828769936419E+00    4.7120442424114124E+00    1.3059819080429035E+01
Ga    4.8343641796346928E+00    2.8435791820824590E+00    1.3620386550581093E+01
N    4.8055194348767829E+00    2.8291889538883024E+00    1.5581496610902724E+01
Ga    4.9909978762969489E+00    4.5998882785929656E+00    1.6483502923375998E+01
N    6.4306003732840802E+00    3.7604740287175380E+00    1.7614489859652224E+01
N    3.2297765735521899E+00    7.6172864245968963E+00    2.5563255692844749E+00
Ga    3.3100413012930834E+00    5.6769698328957059E+00    3.0000259349671121E+00
N    3.2365544946311910E+00    5.6344626617558324E+00    5.0640019494408426E+00
Ga    3.2180519526788807E+00    7.4670792859830124E+00    5.8171533867239802E+00
N    3.2154056383456990E+00    7.4720173594076131E+00    7.8045582267617295E+00
Ga    3.2138059453993586E+00    5.6209193075160400E+00    8.4378825706996121E+00
N    3.2146831475140973E+00    5.6217625666487336E+00    1.0413388015931124E+01
Ga    3.2134605324281278E+00    7.4624615834323649E+00    1.1065800857606872E+01
N    3.2155977256264729E+00    7.4434285248300105E+00    1.3060154441308070E+01
Ga    3.2181493596181667E+00    5.6241771285581406E+00    1.3864777866005220E+01
N    3.2194424913679489E+00    5.6243437933636180E+00    1.6068724181764200E+01
Ga    3.2167012732039146E+00    7.6701618746725257E+00    1.6484271642320685E+01
Ga    3.2187535958602771E+00    9.3253750214254456E+00    1.4821067738806719E+00
N    1.7085061018837906E+00    1.0198242886125277E+01    2.5206913329577416E+00
Ga    1.5003140745737271E+00    8.3327471195925682E+00    3.2778101678599407E+00
N    1.6037856860725368E+00    8.4004591722166833E+00    5.2427268655045252E+00
Ga    1.5729098243926056E+00    1.0271950807071226E+01    5.7935825500715268E+00
N    1.5950155441217468E+00    1.0267071286430292E+01    7.7924069239616465E+00
Ga    1.6086901533003655E+00    8.4100802112531365E+00    8.4304868711873837E+00
N    1.6145402595196403E+00    8.4128725439366914E+00    1.0425515331302734E+01
Ga    1.5881507084357549E+00    1.0270354505019952E+01    1.1071848690107890E+01
N    1.5748119902574091E+00    1.0281776634198401E+01    1.3064868482432903E+01
Ga    1.6185251212324461E+00    8.4130508287029109E+00    1.3621239445037014E+01
N    1.5919173452618316E+00    8.3960058218818538E+00    1.5582223954739742E+01
Ga    1.7678012140782460E+00    1.0172111372223663E+01    1.6482452141115150E+01
N    3.2118768486802001E+00    9.3374571503150143E+00    1.7619880921221569E+01
N    9.6879466809830088E+00    1.9327379849159716E+00    2.6429054383447310E+00
Ga    9.6414677122775601E+00    1.6087911483197639E-01    3.2852621232976382E+00
N    9.6410982435170673E+00    5.4660638485556474E-02    5.2524774710282802E+00
Ga    9.6171495562171607E+00    1.8916168270312357E+00    5.9248111085882069E+00
N    9.6375114363674967E+00    1.9028329060906455E+00    7.8824341631708803E+00
Ga    9.6417260111728229E+00    3.1570907450555040E-02    8.4529529139832071E+00
N    9.6456372831632837E+00    3.5441207932291448E-02    1.0440364307516782E+01
Ga    9.6474663502899372E+00    1.9083553252203647E+00    1.1026464462946073E+01
N    9.6499894379061786E+00    1.9097052883026635E+00    1.2998125632378722E+01
Ga    9.6477521524714493E+00    3.9309846698038817E-02    1.3620779270533125E+01
N    9.6506535422228410E+00    7.1941897713165004E-02    1.5581868285639263E+01
Ga    9.6492016098807447E+00    1.9088514754530601E+00    1.5862699188187040E+01
N    7.9323627517529367E+00    4.6258330085287440E+00    2.5295333819619419E+00
Ga    8.1299968013142223E+00    2.7776179526380522E+00    3.2850296818459381E+00
N    8.0380502228679696E+00    2.8298437558006224E+00    5.2520900604954273E+00
Ga    8.0699418703087247E+00    4.7024959351098046E+00    5.8088933481793710E+00
N    8.0523680079803874E+00    4.6957538626990569E+00    7.8033378497290826E+00
Ga    8.0189936817194152E+00    2.8420930664098214E+00    8.4525018026686602E+00
N    8.0246092737418575E+00    2.8434744984538534E+00    1.0440260216047793E+01
Ga    8.0540424771363153E+00    4.7033905777237628E+00    1.1074285861613046E+01
N    8.0722043838966897E+00    4.7128959451984596E+00    1.3065481366224761E+01
Ga    8.0288577119721847E+00    2.8428030839248462E+00    1.3619802894012071E+01
N    8.0602355790854485E+00    2.8288511716638864E+00    1.5580061429318881E+01
Ga    7.8739404635728443E+00    4.5985958376093343E+00    1.6482580768616160E+01
N    6.4288437243707568E+00    7.4780273338630616E+00    2.6274542313397755E+00
Ga    6.4516326847886276E+00    5.7331923463397141E+00    3.3023551443770640E+00
N    6.4409995187105729E+00    5.6239495360581770E+00    5.2658489015641887E+00
Ga    6.4349259945492818E+00    7.4809430288011578E+00    5.8852818963634652E+00
N    6.4321168676170410E+00    7.4791561213547704E+00    7.8564967950803419E+00
Ga    6.4342086454286473E+00    5.6106879842255371E+00    8.4430826237375527E+00
N    6.4323542453525038E+00    5.6094895223348189E+00    1.0433242882912687E+01
Ga    6.4328816924885288E+00    7.4796436325810989E+00    1.1026690603737087E+01
N    6.4330125224443329E+00    7.4798828751278039E+00    1.2996275552481135E+01
Ga    6.4315575887867258E+00    5.6109021503704302E+00    1.3619661235942287E+01
N    6.4329241456085553E+00    5.6429885647307367E+00    1.5579638196471247E+01
Ga    6.4329659690572818E+00    7.4804585884543835E+00    1.5863010577450117E+01
N    4.7115481157199630E+00    1.0206993798186229E+01    2.5296423224990434E+00
Ga    4.9302392408378619E+00    8.3711336323675294E+00    3.3032289951319167E+00
N    4.8298581345579539E+00    8.4148470013750742E+00    5.2664530667814144E+00
Ga    4.8458487713993632E+00    1.0285745868081758E+01    5.8109523555285847E+00
N    4.8312949476741478E+00    1.0273986876307440E+01    7.8048017744197589E+00
Ga    4.8150881820303502E+00    8.4149874467737593E+00    8.4437141588413045E+00
N    4.8129294586093083E+00    8.4142409609592441E+00    1.0433621547000040E+01
Ga    4.8388944792831294E+00    1.0271900495689238E+01    1.1074330452298643E+01
N    4.8561519456873627E+00    1.0282439607783486E+01    1.3065661590369523E+01
Ga    4.8137924442856201E+00    8.4130140285006085E+00    1.3620616624030450E+01
N    4.8407120820940923E+00    8.3987956089066103E+00    1.5581292970099517E+01
Ga    4.6594016174972488E+00    1.0168771588148680E+01    1.6483454955580171E+01
O   -3.7279366820794119E-01    3.3786022105135292E+00   -5.2764669338803538E-01
H    1.6288189439604077E+00    4.7111618083612647E+00    1.5052538395964838E+00
C    5.6107552033770414E-01    2.3647059879332337E+00   -9.6718928043437635E-01
H    1.5593380014406444E+00    2.5090779964552490E+00   -5.2559713257757024E-01
H    2.2252379912118786E-01    1.3461646063125163E+00   -7.2118551776570283E-01
H    6.3622897448896176E-01    2.4541623793181384E+00   -2.0593943862214603E+00
     &END COORD
     &KIND C
       BASIS_SET DZVP-MOLOPT-SR-GTH-q4
       POTENTIAL GTH-PBE-q4
       &POTENTIAL
 2 2
  0.3384712400000000E+00 2 -0.8803673979999999E+01  0.1339210850000000E+01
 2
  0.3025757500000000E+00 1  0.9622486650000001E+01
  0.2915069400000000E+00 0
         # Potential name:  GTH-PBE-Q4  for symbol:  C
         # Potential read from the potential filename: GTH_POTENTIALS
       &END POTENTIAL
     &END KIND
     &KIND O
       BASIS_SET DZVP-MOLOPT-SR-GTH-q6
       POTENTIAL GTH-PBE-q6
       &POTENTIAL
 2 4
  0.2445543000000000E+00 2 -0.1666721480000000E+02  0.2487311320000000E+01
 2
  0.2209559200000000E+00 1  0.1833745811000000E+02
  0.2113324700000000E+00 0
         # Potential name:  GTH-PBE-Q6  for symbol:  O
         # Potential read from the potential filename: GTH_POTENTIALS
       &END POTENTIAL
     &END KIND
     &KIND H
       BASIS_SET DZVP-MOLOPT-SR-GTH-q1
       POTENTIAL GTH-PBE-q1
       &POTENTIAL
 1
  0.2000000000000000E+00 2 -0.4178900440000000E+01  0.7244633100000000E+00
 0
         # Potential name:  GTH-PBE-Q1  for symbol:  H
         # Potential read from the potential filename: GTH_POTENTIALS
       &END POTENTIAL
     &END KIND
     &KIND N
       BASIS_SET DZVP-MOLOPT-SR-GTH
       POTENTIAL GTH-PBE-q5
       &POTENTIAL
 2 3
  0.2837905100000000E+00 2 -0.1241522559000000E+02  0.1868095920000000E+01
 2
  0.2554050000000000E+00 1  0.1363026257000000E+02
  0.2454945300000000E+00 0
         # Potential name:  GTH-PBE-Q5  for symbol:  N
         # Potential read from the potential filename: GTH_POTENTIALS
       &END POTENTIAL
     &END KIND
     &KIND Ga
       BASIS_SET DZVP-MOLOPT-SR-GTH
       POTENTIAL GTH-PBE-q13
       &POTENTIAL
 2 1 10
  0.4900000000000000E+00 0
 3
  0.4167772300000000E+00 3  0.1047568975000000E+02 -0.4921768140000000E+01  0.8707055900000000E+00
  0.7770178090000000E+01 -0.2248152160000000E+01
  0.1784415450000000E+01
  0.5696265200000000E+00 2  0.1777985340000000E+01  0.1958597600000000E+00
 -0.2317443900000000E+00
  0.2381265000000000E+00 1 -0.1624868022000000E+02
         # Potential name:  GTH-PBE-Q13  for symbol:  GA
         # Potential read from the potential filename: GTH_POTENTIALS
       &END POTENTIAL
     &END KIND
     &TOPOLOGY
       NUMBER_OF_ATOMS  206
       MULTIPLE_UNIT_CELL  1 1 1
     &END TOPOLOGY
   &END SUBSYS
 &END FORCE_EVAL
