 # Version information for this restart file 
 # current date 2019-06-24 17:45:21.668
 # current working dir /scratch/rzk/rzk/GaN-carbene/443-adatoms-both-2x2/03-DissMethanol/03-O-GaTop-H-NTop
 # Program compiled at                              Sun Apr  7 00:48:11 EDT 2019
 # Program compiled on                          beluga2.int.ets1.calculquebec.ca
 # Program compiled for                        Beluga-Linux-x86-64-intel-openmpi
 # Source code revision number                                         svn:18619
 &GLOBAL
   PRINT_LEVEL  MEDIUM
   PROJECT_NAME TEST
   RUN_TYPE  GEO_OPT
 &END GLOBAL
 &MOTION
   &GEO_OPT
     MAX_ITER  500
     STEP_START_VAL  34
   &END GEO_OPT
 &END MOTION
 &FORCE_EVAL
   METHOD  QS
   STRESS_TENSOR  ANALYTICAL
   &DFT
     BASIS_SET_FILE_NAME BASIS_MOLOPT
     POTENTIAL_FILE_NAME GTH_POTENTIALS
     UKS  T
     SURFACE_DIPOLE_CORRECTION  T
     SURF_DIP_DIR  Z
     &SCF
       MAX_SCF  80
       EPS_SCF     5.0000000000000004E-06
       &OT  T
         PRECONDITIONER  FULL_ALL
       &END OT
       &OUTER_SCF  T
         OPTIMIZER  NONE
         EPS_SCF     5.0000000000000004E-06
         MAX_SCF  4
       &END OUTER_SCF
       &PRINT
         &RESTART  OFF
           BACKUP_COPIES  1
           &EACH
             JUST_ENERGY  0
             QS_SCF  0
             MD  20
           &END EACH
         &END RESTART
       &END PRINT
     &END SCF
     &QS
       EPS_DEFAULT     1.0000000000000000E-14
       METHOD  GPW
     &END QS
     &MGRID
       NGRIDS  5
       CUTOFF     1.2000000000000000E+03
     &END MGRID
     &XC
       DENSITY_CUTOFF     1.0000000000000000E-10
       GRADIENT_CUTOFF     1.0000000000000000E-10
       TAU_CUTOFF     1.0000000000000000E-10
       &XC_FUNCTIONAL  NO_SHORTCUT
         &PBE  T
         &END PBE
       &END XC_FUNCTIONAL
       &VDW_POTENTIAL
         POTENTIAL_TYPE  PAIR_POTENTIAL
         &PAIR_POTENTIAL
           R_CUTOFF     1.0000000000000004E+01
           TYPE  DFTD3
           PARAMETER_FILE_NAME dftd3.dat
           REFERENCE_FUNCTIONAL PBE
           EPS_CN     9.9999999999999995E-07
           CALCULATE_C9_TERM  T
           REFERENCE_C9_TERM  T
           LONG_RANGE_CORRECTION  F
           VERBOSE_OUTPUT  F
         &END PAIR_POTENTIAL
       &END VDW_POTENTIAL
     &END XC
   &END DFT
   &SUBSYS
     &CELL
       A     1.2864472766435110E+01    0.0000000000000000E+00    0.0000000000000000E+00
       B    -6.4322363581020028E+00    1.1140960178524473E+01    0.0000000000000000E+00
       C     0.0000000000000000E+00    0.0000000000000000E+00    3.2000000000000000E+01
       MULTIPLE_UNIT_CELL  1 1 1
       &CELL_REF
         A     1.2982353780853531E+01    0.0000000000000000E+00    0.0000000000000000E+00
         B    -6.4911768904267628E+00    1.1243048175136114E+01    0.0000000000000000E+00
         C     0.0000000000000000E+00    0.0000000000000000E+00    3.2000000000000000E+01
         MULTIPLE_UNIT_CELL  1 1 1
       &END CELL_REF
     &END CELL
     &COORD
N   -9.6730657549202181E-02    2.0227586532460782E+00    2.5254265517313419E+00
Ga   -2.1536808086649459E-02    5.3819755494848853E-02    2.8753177827195464E+00
N   -5.1848212695468779E-03    5.6624325633909615E-02    5.0227159447546104E+00
Ga    2.5885773395791740E-02    1.8804866278389514E+00    5.8173486465782585E+00
N    6.3658257236320166E-03    1.8988737551945256E+00    7.8031603116566455E+00
Ga   -1.6210226793718272E-03    5.3341621185943704E-02    8.4512245954933132E+00
N   -4.6628087974993453E-03    5.5050436329773772E-02    1.0418875009054883E+01
Ga   -4.0553608194938383E-03    1.8959833783819531E+00    1.1070765505719498E+01
N   -4.9634316941515062E-03    1.8756946776015315E+00    1.3061144651847064E+01
Ga   -5.0569652771424679E-03    5.4252194166493975E-02    1.3874738233148694E+01
N   -7.3963206667175254E-03    5.5141809995238378E-02    1.6063396509590667E+01
Ga   -7.2930958654882361E-03    2.0972244404891720E+00    1.6475419325851092E+01
Ga   -8.3017211558446891E-01    3.2931663323524694E+00    1.2016936538114107E+00
N   -1.5555859238591401E+00    4.5549037197330948E+00    2.4961199983953510E+00
Ga   -1.7142600360422211E+00    2.7714669018023144E+00    3.4850506877559169E+00
N   -1.6211579084294063E+00    2.8342828697665254E+00    5.3751626122489702E+00
Ga   -1.6218811566100002E+00    4.7359449066212322E+00    5.8155943111296953E+00
N   -1.6171368248266038E+00    4.7118206143309385E+00    7.8014058436475837E+00
Ga   -1.5995845293560473E+00    2.8469848027387528E+00    8.4339242919581103E+00
N   -1.6006080812484513E+00    2.8472825598048908E+00    1.0424747373608362E+01
Ga   -1.6265719885726950E+00    4.7057044021265284E+00    1.1069407379295209E+01
N   -1.6448495119769040E+00    4.7161511378669712E+00    1.3059150568152933E+01
Ga   -1.6028754191553019E+00    2.8473709436140342E+00    1.3618936764818638E+01
N   -1.6335496985624292E+00    2.8336443814817964E+00    1.5577275913704170E+01
Ga   -1.4493443319813748E+00    4.6028054663803912E+00    1.6477172134718483E+01
N   -1.0188070670497451E-03    3.7664340629620292E+00    1.7600628541784666E+01
N   -3.2242965215878856E+00    7.5927049235190704E+00    2.5188994152129127E+00
Ga   -3.2325958823795093E+00    5.6096924587088148E+00    2.8622503478038510E+00
N   -3.2144385517453844E+00    5.6186980213611841E+00    5.0127087257669114E+00
Ga   -3.2170799205358480E+00    7.4522531939201171E+00    5.7925272678290032E+00
N   -3.2207135384478538E+00    7.4686904141266721E+00    7.7863616303611902E+00
Ga   -3.2193534708775005E+00    5.6273049373808819E+00    8.4500256130355247E+00
N   -3.2213313947593618E+00    5.6254576971731005E+00    1.0418039624531660E+01
Ga   -3.2187352278868127E+00    7.4663446641284983E+00    1.1068513561024520E+01
N   -3.2208358412744640E+00    7.4459719256647121E+00    1.3058003388851171E+01
Ga   -3.2208477583078725E+00    5.6266056994708986E+00    1.3871756013898619E+01
N   -3.2211344729690365E+00    5.6258406443345557E+00    1.6065971005820440E+01
Ga   -3.2227394737120436E+00    7.6704780356419127E+00    1.6480895257964868E+01
Ga   -3.2296474654763405E+00    9.3313221443577472E+00    1.4787915652377144E+00
N   -4.7334554738640229E+00    1.0205611124791453E+01    2.5183785839713870E+00
Ga   -4.9247238175577959E+00    8.3537157877323480E+00    3.2880943290366131E+00
N   -4.8267475408835399E+00    8.4091505401868361E+00    5.2494603791743852E+00
Ga   -4.8502460489454702E+00    1.0280858332449887E+01    5.7964882720230761E+00
N   -4.8387645967380983E+00    1.0272011882282014E+01    7.7892953020125599E+00
Ga   -4.8152459778834302E+00    8.4166565615844373E+00    8.4374961247185496E+00
N   -4.8162163572464252E+00    8.4177370178620041E+00    1.0426008866256229E+01
Ga   -4.8420118344781047E+00    1.0277029663447790E+01    1.1069169319507193E+01
N   -4.8608988423200410E+00    1.0286790530271823E+01    1.3058427798169630E+01
Ga   -4.8178788636189154E+00    8.4178965127426473E+00    1.3618594290492545E+01
N   -4.8449961445298921E+00    8.4024044349742457E+00    1.5577034078287838E+01
Ga   -4.6661362125070163E+00    1.0172663458030028E+01    1.6480046704353366E+01
N   -3.2167690635037984E+00    9.3379231783281202E+00    1.7619589673307967E+01
N    3.1827417026147193E+00    1.9192597858054414E+00    2.5744119257466358E+00
Ga    3.1964365423692471E+00    1.7597585014039629E-01    3.2662804231328639E+00
N    3.2090013464729314E+00    5.9412097833477319E-02    5.2308429054924366E+00
Ga    3.1902605078184534E+00    1.9229400128723513E+00    5.8404924803143770E+00
N    3.2048461254846470E+00    1.9146385618143213E+00    7.8210856979299441E+00
Ga    3.2117423138289873E+00    4.6788145030731337E-02    8.4244283694163471E+00
N    3.2112728264221899E+00    4.3643031729820571E-02    1.0417396042794229E+01
Ga    3.2116130722492278E+00    1.9103661024088283E+00    1.1026097110348827E+01
N    3.2104060401136678E+00    1.9118531720394627E+00    1.2993699754374623E+01
Ga    3.2109952802435755E+00    4.1795082927212193E-02    1.3619059802148675E+01
N    3.2088576036980929E+00    7.3409770469569993E-02    1.5577534058302819E+01
Ga    3.2110760691387372E+00    1.9114276245398152E+00    1.5858112811272282E+01
N    1.6416957409532258E+00    4.7121402440755347E+00    2.5311068166456203E+00
Ga    1.6278724716225050E+00    2.8043171898151167E+00    3.1556591215980956E+00
N    1.5919827980724131E+00    2.8487128736014986E+00    5.1651723000380345E+00
Ga    1.6194497220318107E+00    4.7037213477516833E+00    5.7750793957073654E+00
N    1.6121282591128299E+00    4.7010690070960885E+00    7.7732751272496960E+00
Ga    1.5992649184732162E+00    2.8491733067712679E+00    8.4408499538874562E+00
N    1.5944922375814257E+00    2.8488314328525344E+00    1.0427982906050492E+01
Ga    1.6209133992281288E+00    4.7069516776913778E+00    1.1073229981716901E+01
N    1.6357112913117027E+00    4.7165260802542273E+00    1.3062316830672916E+01
Ga    1.5915097394167297E+00    2.8474966565057067E+00    1.3620328331160186E+01
N    1.6206166585743869E+00    2.8305659573357085E+00    1.5579836361072697E+01
Ga    1.4412855422102295E+00    4.6065637930096814E+00    1.6475047924631536E+01
N   -8.0781859089002830E-03    7.4522981886885198E+00    2.5797099943152326E+00
Ga   -1.2817579259936158E-02    5.6609812343373855E+00    3.1452258394275945E+00
N   -1.1025699701182408E-03    5.6048992233902757E+00    5.1574477601628805E+00
Ga   -2.7227237448176592E-03    7.4531946617767924E+00    5.8361826878264473E+00
N   -3.9124910456968245E-03    7.4724579530550921E+00    7.8180372476289239E+00
Ga    2.0986078433739060E-03    5.6160140296651671E+00    8.4401740608100528E+00
N   -1.5103282549866707E-03    5.6122871532734688E+00    1.0426680170319710E+01
Ga   -6.0779349838971878E-03    7.4823685878133395E+00    1.1023656710868995E+01
N   -7.3673920112944614E-03    7.4819375515156139E+00    1.2989566196892090E+01
Ga   -5.5152981944053131E-03    5.6138640594935447E+00    1.3618779507049615E+01
N   -9.1392652509828705E-03    5.6466396769793175E+00    1.5576950901156758E+01
Ga   -7.4515482545720810E-03    7.4843760438453453E+00    1.5857975049760912E+01
N   -1.7276313720927372E+00    1.0198610767138513E+01    2.5154372545291332E+00
Ga   -1.5126356055346806E+00    8.3334687905434617E+00    3.2663550762654627E+00
N   -1.6075995987752232E+00    8.4026516923158834E+00    5.2306360907770282E+00
Ga   -1.5906861745874912E+00    1.0277551014637611E+01    5.7817630439034389E+00
N   -1.6049546737868061E+00    1.0270596583046412E+01    7.7784528190877573E+00
Ga   -1.6182894670706525E+00    8.4122961713615130E+00    8.4220290842399912E+00
N   -1.6227244188964181E+00    8.4159183332089817E+00    1.0415226473518979E+01
Ga   -1.5993904871356683E+00    1.0274646373626588E+01    1.1063487855840078E+01
N   -1.5823157209262106E+00    1.0285865015136370E+01    1.3055121812589077E+01
Ga   -1.6248008475426927E+00    8.4179955988902879E+00    1.3618863168815150E+01
N   -1.6004346558988363E+00    8.4016085878017073E+00    1.5578099911212099E+01
Ga   -1.7748857848384922E+00    1.0175259702847887E+01    1.6480234032701585E+01
N    6.4228496985072621E+00    2.0322034136175877E+00    2.5170804957643460E+00
Ga    6.4211252645203336E+00    4.7570689717230309E-02    2.8396910924739975E+00
N    6.4261368392665021E+00    5.0941883219123726E-02    5.0032640571388312E+00
Ga    6.4185523327744773E+00    1.8770060884734456E+00    5.7904878864762566E+00
N    6.4247786144042207E+00    1.8987846285059533E+00    7.7864242733179800E+00
Ga    6.4245706479065534E+00    5.1778786255432543E-02    8.4366751838103973E+00
N    6.4257632732585748E+00    5.4368413467298198E-02    1.0408666981196280E+01
Ga    6.4234225661593225E+00    1.8916366247561520E+00    1.1071719450907723E+01
N    6.4253525302680838E+00    1.8740683760108343E+00    1.3061220299972483E+01
Ga    6.4263526207277888E+00    5.3285125128575417E-02    1.3873506133113073E+01
N    6.4278474077490815E+00    5.3946782528599586E-02    1.6062958831440003E+01
Ga    6.4258792599948329E+00    2.0963059493512883E+00    1.6478134020815038E+01
Ga    6.4240801311416700E+00    3.7744907831779737E+00    1.4886168186375273E+00
N    4.9494015647089746E+00    4.6382437568255925E+00    2.5513631449100602E+00
Ga    4.6982824454462815E+00    2.7817803542803436E+00    3.2737567187417072E+00
N    4.8125296410996468E+00    2.8385490278625176E+00    5.2363998195163770E+00
Ga    4.8126004758103926E+00    4.7035761912991756E+00    5.8153939946827942E+00
N    4.8148858104435330E+00    4.6992755546463600E+00    7.7998633508702255E+00
Ga    4.8239035862097772E+00    2.8390341281991249E+00    8.4309538583858927E+00
N    4.8283018485134814E+00    2.8439095379616615E+00    1.0422066426395061E+01
Ga    4.8029725383703044E+00    4.7039659420426618E+00    1.1067394213760227E+01
N    4.7861721816634661E+00    4.7153049571635242E+00    1.3057888908964445E+01
Ga    4.8292769492698273E+00    2.8475493151123312E+00    1.3620096115151291E+01
N    4.8012706622622510E+00    2.8338561004940948E+00    1.5578878687220378E+01
Ga    4.9813963504949150E+00    4.6044830485370447E+00    1.6478783191753557E+01
N    6.4304912408453516E+00    3.7654464020108023E+00    1.7617325605809334E+01
N    3.2293708227332640E+00    7.6190612757724159E+00    2.5527363455621153E+00
Ga    3.3090297118705734E+00    5.6779809635891594E+00    2.9973716477651124E+00
N    3.2354568263701382E+00    5.6367971306619582E+00    5.0585549495749458E+00
Ga    3.2166998484604190E+00    7.4690702238982425E+00    5.8161771614991009E+00
N    3.2128472393194598E+00    7.4749479375048580E+00    7.8005007102621384E+00
Ga    3.2103969881787213E+00    5.6236320101478263E+00    8.4370464950391426E+00
N    3.2107429066802768E+00    5.6245895740321448E+00    1.0409115435869348E+01
Ga    3.2093226864376678E+00    7.4642910606330748E+00    1.1067150472075873E+01
N    3.2099176691953053E+00    7.4450148910788938E+00    1.3056295176642456E+01
Ga    3.2122577913249009E+00    5.6274719548843075E+00    1.3874649874726721E+01
N    3.2100812270040846E+00    5.6280320534502009E+00    1.6063419170232180E+01
Ga    3.2096162428516708E+00    7.6797030997842146E+00    1.6483418466304840E+01
Ga    3.2189820946770014E+00    9.3274867610094851E+00    1.4887698296332639E+00
N    1.7090649011002359E+00    1.0199123702731100E+01    2.5171809408366377E+00
Ga    1.4976259348500223E+00    8.3321235338366897E+00    3.2753923703031758E+00
N    1.6022545775127810E+00    8.4020637377590042E+00    5.2377283540376682E+00
Ga    1.5717731378478179E+00    1.0273669211061511E+01    5.7913429734238235E+00
N    1.5921654071802152E+00    1.0269748993709005E+01    7.7870695864300741E+00
Ga    1.6057267753628270E+00    8.4127623981126387E+00    8.4297733670407169E+00
N    1.6111817941715139E+00    8.4159234867945063E+00    1.0420794789321345E+01
Ga    1.5835411132443640E+00    1.0273749691237223E+01    1.1070371909502965E+01
N    1.5688956541472177E+00    1.0285702975356582E+01    1.3057800749296955E+01
Ga    1.6122581248436918E+00    8.4163659334444567E+00    1.3617964483705471E+01
N    1.5813414241715900E+00    8.4002808085351344E+00    1.5571696098180416E+01
Ga    1.7750423133434294E+00    1.0167896669334370E+01    1.6483503154837170E+01
N    3.2136402903946322E+00    9.3377670864770383E+00    1.7614895294547619E+01
N    9.6872699459939948E+00    1.9342896561485539E+00    2.6355815561274598E+00
Ga    9.6412031193664891E+00    1.6470374388461312E-01    3.2843240239430744E+00
N    9.6399720037317671E+00    5.6979398436098533E-02    5.2487820174155031E+00
Ga    9.6172317948516355E+00    1.8945115064612172E+00    5.9236809901997649E+00
N    9.6349930543655180E+00    1.9055027441151522E+00    7.8780466388713890E+00
Ga    9.6388906200041919E+00    3.4450659329652293E-02    8.4524526110056701E+00
N    9.6417734602556706E+00    3.8585246999119249E-02    1.0435985440321875E+01
Ga    9.6436340364961151E+00    1.9123410113080210E+00    1.1024592025353147E+01
N    9.6431456793091783E+00    1.9141627033151429E+00    1.2991131401997047E+01
Ga    9.6415126369464463E+00    4.3836134812561822E-02    1.3617721460562803E+01
N    9.6402691617180771E+00    7.8899151121421443E-02    1.5571803112472280E+01
Ga    9.6405823798884036E+00    1.9126566247540506E+00    1.5858348838075814E+01
N    7.9315013170647406E+00    4.6270700114397449E+00    2.5255752569166416E+00
Ga    8.1321411593052382E+00    2.7780881425222508E+00    3.2847861463826988E+00
N    8.0370506637516694E+00    2.8317794614754779E+00    5.2483330505644634E+00
Ga    8.0691111668105933E+00    4.7051383144035421E+00    5.8066135792391682E+00
N    8.0496742756228183E+00    4.6984777673677902E+00    7.7977654692483727E+00
Ga    8.0164661305126295E+00    2.8447066759460014E+00    8.4510524899239599E+00
N    8.0199080227955619E+00    2.8468169849737142E+00    1.0435027552041264E+01
Ga    8.0504332842213095E+00    4.7061476564766354E+00    1.1075174195889044E+01
N    8.0673231158831236E+00    4.7160511601053976E+00    1.3063026019776526E+01
Ga    8.0232109848238480E+00    2.8463027530097440E+00    1.3619624878368679E+01
N    8.0495162115113335E+00    2.8337174345991896E+00    1.5579551224945481E+01
Ga    7.8728844531444899E+00    4.6053367709092115E+00    1.6478957936436338E+01
N    6.4283999556252267E+00    7.4799017969925163E+00    2.6184082219774321E+00
Ga    6.4513393989552288E+00    5.7378000284674364E+00    3.3014010250725332E+00
N    6.4396241317342842E+00    5.6266838727521984E+00    5.2618956092213942E+00
Ga    6.4335890197001913E+00    7.4833652776925295E+00    5.8863339505749268E+00
N    6.4289426758416059E+00    7.4818216979349197E+00    7.8541089039285286E+00
Ga    6.4315611490980844E+00    5.6128961509642004E+00    8.4432729243575668E+00
N    6.4280950729543100E+00    5.6115606383987746E+00    1.0429840424680197E+01
Ga    6.4290945072943133E+00    7.4819566102093775E+00    1.1026304035204841E+01
N    6.4282136935532037E+00    7.4818929974482575E+00    1.2992585596749519E+01
Ga    6.4258514591849982E+00    5.6125372291661240E+00    1.3619201990012810E+01
N    6.4258291739935878E+00    5.6433846021713698E+00    1.5577989830250452E+01
Ga    6.4268278821305387E+00    7.4827345397285594E+00    1.5855243575153441E+01
N    4.7108527039854859E+00    1.0208236663929412E+01    2.5265971132689313E+00
Ga    4.9317692343953743E+00    8.3715446176307662E+00    3.3022874409700846E+00
N    4.8288309573928494E+00    8.4168021054379363E+00    5.2627655721220012E+00
Ga    4.8446736974319444E+00    1.0287813950840670E+01    5.8104959079311937E+00
N    4.8281699010015968E+00    1.0276410587425206E+01    7.8009104468188948E+00
Ga    4.8116556617155322E+00    8.4181581412836284E+00    8.4450184271221982E+00
N    4.8089485390152458E+00    8.4172845035590953E+00    1.0431218873199420E+01
Ga    4.8352798015612644E+00    1.0275680334639731E+01    1.1075719182323361E+01
N    4.8513331478178197E+00    1.0286887634638411E+01    1.3061924100433501E+01
Ga    4.8072757098170031E+00    8.4166552433012960E+00    1.3618563572498788E+01
N    4.8380804632339203E+00    8.3989447608078969E+00    1.5573575783090527E+01
Ga    4.6472846373439216E+00    1.0170153485483203E+01    1.6482771181022795E+01
O   -3.2647485498253248E-01    3.3329445819797257E+00   -5.2631441204496021E-01
H    1.6338616918043902E+00    4.7069582710983005E+00    1.5010841847215015E+00
C    6.4018581345711156E-01    2.3219593575756128E+00   -8.9623818053218973E-01
H    1.6383901257983782E+00    2.5492232750203443E+00   -4.9307178097158078E-01
H    3.5617638555696030E-01    1.3173303633656785E+00   -5.4616818614008011E-01
H    6.8823594080999251E-01    2.3112478359872020E+00   -1.9934521648369998E+00
     &END COORD
     &KIND C
       BASIS_SET DZVP-MOLOPT-SR-GTH-q4
       POTENTIAL GTH-PBE-q4
       &POTENTIAL
 2 2
  0.3384712400000000E+00 2 -0.8803673979999999E+01  0.1339210850000000E+01
 2
  0.3025757500000000E+00 1  0.9622486650000001E+01
  0.2915069400000000E+00 0
         # Potential name:  GTH-PBE-Q4  for symbol:  C
         # Potential read from the potential filename: GTH_POTENTIALS
       &END POTENTIAL
     &END KIND
     &KIND O
       BASIS_SET DZVP-MOLOPT-SR-GTH-q6
       POTENTIAL GTH-PBE-q6
       &POTENTIAL
 2 4
  0.2445543000000000E+00 2 -0.1666721480000000E+02  0.2487311320000000E+01
 2
  0.2209559200000000E+00 1  0.1833745811000000E+02
  0.2113324700000000E+00 0
         # Potential name:  GTH-PBE-Q6  for symbol:  O
         # Potential read from the potential filename: GTH_POTENTIALS
       &END POTENTIAL
     &END KIND
     &KIND H
       BASIS_SET DZVP-MOLOPT-SR-GTH-q1
       POTENTIAL GTH-PBE-q1
       &POTENTIAL
 1
  0.2000000000000000E+00 2 -0.4178900440000000E+01  0.7244633100000000E+00
 0
         # Potential name:  GTH-PBE-Q1  for symbol:  H
         # Potential read from the potential filename: GTH_POTENTIALS
       &END POTENTIAL
     &END KIND
     &KIND N
       BASIS_SET DZVP-MOLOPT-SR-GTH
       POTENTIAL GTH-PBE-q5
       &POTENTIAL
 2 3
  0.2837905100000000E+00 2 -0.1241522559000000E+02  0.1868095920000000E+01
 2
  0.2554050000000000E+00 1  0.1363026257000000E+02
  0.2454945300000000E+00 0
         # Potential name:  GTH-PBE-Q5  for symbol:  N
         # Potential read from the potential filename: GTH_POTENTIALS
       &END POTENTIAL
     &END KIND
     &KIND Ga
       BASIS_SET DZVP-MOLOPT-SR-GTH
       POTENTIAL GTH-PBE-q13
       &POTENTIAL
 2 1 10
  0.4900000000000000E+00 0
 3
  0.4167772300000000E+00 3  0.1047568975000000E+02 -0.4921768140000000E+01  0.8707055900000000E+00
  0.7770178090000000E+01 -0.2248152160000000E+01
  0.1784415450000000E+01
  0.5696265200000000E+00 2  0.1777985340000000E+01  0.1958597600000000E+00
 -0.2317443900000000E+00
  0.2381265000000000E+00 1 -0.1624868022000000E+02
         # Potential name:  GTH-PBE-Q13  for symbol:  GA
         # Potential read from the potential filename: GTH_POTENTIALS
       &END POTENTIAL
     &END KIND
     &TOPOLOGY
       NUMBER_OF_ATOMS  206
       MULTIPLE_UNIT_CELL  1 1 1
     &END TOPOLOGY
   &END SUBSYS
 &END FORCE_EVAL
