 # Version information for this restart file 
 # current date 2019-06-24 16:10:50.368
 # current working dir /scratch/rzk/rzk/GaN-carbene/443-adatoms-both-2x2/03-DissMethanol/03-O-GaTop-H-NTop
 # Program compiled at                              Sun Apr  7 00:48:11 EDT 2019
 # Program compiled on                          beluga2.int.ets1.calculquebec.ca
 # Program compiled for                        Beluga-Linux-x86-64-intel-openmpi
 # Source code revision number                                         svn:18619
 &GLOBAL
   PRINT_LEVEL  MEDIUM
   PROJECT_NAME TEST
   RUN_TYPE  GEO_OPT
 &END GLOBAL
 &MOTION
   &GEO_OPT
     MAX_ITER  500
     STEP_START_VAL  11
   &END GEO_OPT
 &END MOTION
 &FORCE_EVAL
   METHOD  QS
   STRESS_TENSOR  ANALYTICAL
   &DFT
     BASIS_SET_FILE_NAME BASIS_MOLOPT
     POTENTIAL_FILE_NAME GTH_POTENTIALS
     UKS  T
     SURFACE_DIPOLE_CORRECTION  T
     SURF_DIP_DIR  Z
     &SCF
       MAX_SCF  80
       EPS_SCF     5.0000000000000004E-06
       &OT  T
         PRECONDITIONER  FULL_ALL
       &END OT
       &OUTER_SCF  T
         OPTIMIZER  NONE
         EPS_SCF     5.0000000000000004E-06
         MAX_SCF  4
       &END OUTER_SCF
       &PRINT
         &RESTART  OFF
           BACKUP_COPIES  1
           &EACH
             JUST_ENERGY  0
             QS_SCF  0
             MD  20
           &END EACH
         &END RESTART
       &END PRINT
     &END SCF
     &QS
       EPS_DEFAULT     1.0000000000000000E-14
       METHOD  GPW
     &END QS
     &MGRID
       NGRIDS  5
       CUTOFF     1.2000000000000000E+03
     &END MGRID
     &XC
       DENSITY_CUTOFF     1.0000000000000000E-10
       GRADIENT_CUTOFF     1.0000000000000000E-10
       TAU_CUTOFF     1.0000000000000000E-10
       &XC_FUNCTIONAL  NO_SHORTCUT
         &PBE  T
         &END PBE
       &END XC_FUNCTIONAL
       &VDW_POTENTIAL
         POTENTIAL_TYPE  PAIR_POTENTIAL
         &PAIR_POTENTIAL
           R_CUTOFF     1.0000000000000004E+01
           TYPE  DFTD3
           PARAMETER_FILE_NAME dftd3.dat
           REFERENCE_FUNCTIONAL PBE
           EPS_CN     9.9999999999999995E-07
           CALCULATE_C9_TERM  T
           REFERENCE_C9_TERM  T
           LONG_RANGE_CORRECTION  F
           VERBOSE_OUTPUT  F
         &END PAIR_POTENTIAL
       &END VDW_POTENTIAL
     &END XC
   &END DFT
   &SUBSYS
     &CELL
       A     1.2864472766435110E+01    0.0000000000000000E+00    0.0000000000000000E+00
       B    -6.4322363581020028E+00    1.1140960178524473E+01    0.0000000000000000E+00
       C     0.0000000000000000E+00    0.0000000000000000E+00    3.2000000000000000E+01
       MULTIPLE_UNIT_CELL  1 1 1
       &CELL_REF
         A     1.2982353780853531E+01    0.0000000000000000E+00    0.0000000000000000E+00
         B    -6.4911768904267628E+00    1.1243048175136114E+01    0.0000000000000000E+00
         C     0.0000000000000000E+00    0.0000000000000000E+00    3.2000000000000000E+01
         MULTIPLE_UNIT_CELL  1 1 1
       &END CELL_REF
     &END CELL
     &COORD
N   -9.0537520832686430E-02    2.0294474849092459E+00    2.5226028996963876E+00
Ga   -2.6367140684911267E-02    5.9124984132660492E-02    2.8797863045744609E+00
N   -1.1680312794049168E-02    6.0247743840362952E-02    5.0160836716226678E+00
Ga    1.1760791782685302E-02    1.8876713063492492E+00    5.8066374037594288E+00
N   -3.1660413759862440E-03    1.9025379208699176E+00    7.7916727030714785E+00
Ga   -8.2114665873506670E-03    5.8020912155725517E-02    8.4454377567172401E+00
N   -1.0609434700138207E-02    5.7530770603371133E-02    1.0411191277591705E+01
Ga   -1.0710842177973436E-02    1.8986093055115318E+00    1.1064058862434560E+01
N   -1.0800459778838397E-02    1.8769846513900650E+00    1.3050629594400798E+01
Ga   -7.7523545835645660E-03    5.8863771308002924E-02    1.3871082147784605E+01
N   -9.3467531459552403E-03    5.6856310440099110E-02    1.6057698452507573E+01
Ga   -9.6591031931087135E-03    2.1082919968022180E+00    1.6481457803972944E+01
Ga   -6.7034591007321587E-01    3.3922679793446981E+00    1.2138450206054039E+00
N   -1.5406836917976803E+00    4.5757785142048570E+00    2.4863147703370716E+00
Ga   -1.7256395509390743E+00    2.7715485057148115E+00    3.4343237980006096E+00
N   -1.6275959307687586E+00    2.8385831953334626E+00    5.3379009351655347E+00
Ga   -1.6279097427894127E+00    4.7316833061988133E+00    5.8024894696964306E+00
N   -1.6237120843113639E+00    4.7117303708717433E+00    7.7883983912417394E+00
Ga   -1.6070433648597529E+00    2.8495182127653660E+00    8.4274340173385180E+00
N   -1.6077135153348603E+00    2.8491937074457208E+00    1.0415919817452982E+01
Ga   -1.6324119202166560E+00    4.7073371557399977E+00    1.1063445730045288E+01
N   -1.6502534255729957E+00    4.7169941738488186E+00    1.3050970417911019E+01
Ga   -1.6070992448400192E+00    2.8481886880303269E+00    1.3615334134018376E+01
N   -1.6325759311404426E+00    2.8310051871217867E+00    1.5570745476081102E+01
Ga   -1.4532851639243456E+00    4.6031876299514369E+00    1.6481844834462848E+01
N   -1.4550605579619678E-02    3.7728729713032219E+00    1.7627171966062217E+01
N   -3.2304019702060800E+00    7.5984210242307011E+00    2.5123863671303917E+00
Ga   -3.2340487038196208E+00    5.6161857593951563E+00    2.8592570875837588E+00
N   -3.2199820156422612E+00    5.6210302881748389E+00    5.0023622427102330E+00
Ga   -3.2221764541344728E+00    7.4549067169994885E+00    5.7874185549539696E+00
N   -3.2263513005704114E+00    7.4706052297455452E+00    7.7790642666091356E+00
Ga   -3.2238781174432685E+00    5.6286342997817576E+00    8.4426907530124282E+00
N   -3.2264444408933168E+00    5.6275561929946711E+00    1.0409295350391611E+01
Ga   -3.2245200114680479E+00    7.4674689607579277E+00    1.1065189737769117E+01
N   -3.2258553156057830E+00    7.4467499759076334E+00    1.3052159925378854E+01
Ga   -3.2249873544982024E+00    5.6272332310681827E+00    1.3870747826653036E+01
N   -3.2262642729178457E+00    5.6271274221038734E+00    1.6057336375591248E+01
Ga   -3.2265121011410489E+00    7.6736564005911845E+00    1.6481926595419932E+01
Ga   -3.2377355459168222E+00    9.3368159169118670E+00    1.4800339421203670E+00
N   -4.7403308227776293E+00    1.0209881937130923E+01    2.5143287183367873E+00
Ga   -4.9320676192010948E+00    8.3571866242334920E+00    3.2867169523290700E+00
N   -4.8323731643692236E+00    8.4125031536443426E+00    5.2453756145047343E+00
Ga   -4.8559300177321285E+00    1.0284323453725316E+01    5.7937158073547437E+00
N   -4.8454290547757264E+00    1.0275729692337196E+01    7.7834499392315060E+00
Ga   -4.8202687639310300E+00    8.4197267790870480E+00    8.4351841602667204E+00
N   -4.8213836925179487E+00    8.4203726473732150E+00    1.0420640230745555E+01
Ga   -4.8484188155844734E+00    1.0279670451769885E+01    1.1065873322991166E+01
N   -4.8666407582611084E+00    1.0288370270204151E+01    1.3051873857462079E+01
Ga   -4.8226933694044609E+00    8.4194036856103267E+00    1.3616420172060105E+01
N   -4.8503918999281153E+00    8.4051456971753797E+00    1.5571821695599976E+01
Ga   -4.6665065620282578E+00    1.0172938341883125E+01    1.6481513957439628E+01
N   -3.2263477867089136E+00    9.3361497130565052E+00    1.7629127188411488E+01
N    3.1796558960628123E+00    1.9218770949115427E+00    2.5693209328422983E+00
Ga    3.1902093538505847E+00    1.7970513050883580E-01    3.2630983778106701E+00
N    3.2020721895038640E+00    6.2266392750189331E-02    5.2249523776701778E+00
Ga    3.1881066078824998E+00    1.9231551301529142E+00    5.8450372082202113E+00
N    3.2010386425711612E+00    1.9162239946735347E+00    7.8203982132883967E+00
Ga    3.2050455587525564E+00    4.8153691019278508E-02    8.4229315594936196E+00
N    3.2049964798367467E+00    4.5181851028061576E-02    1.0412339501801174E+01
Ga    3.2042060497841014E+00    1.9128481735673624E+00    1.1020661761999348E+01
N    3.2048062017368415E+00    1.9130000264614671E+00    1.2985739968656004E+01
Ga    3.2058692905870703E+00    4.3459463703193910E-02    1.3615323078544703E+01
N    3.2059874607009964E+00    7.4208782647896904E-02    1.5569956804576366E+01
Ga    3.2046060593641035E+00    1.9128921573992010E+00    1.5848571874582282E+01
N    1.6432178809640714E+00    4.7148179736629414E+00    2.5336717587097506E+00
Ga    1.6337366731911960E+00    2.8028931840488114E+00    3.1768215942347648E+00
N    1.5902295155662349E+00    2.8515494609126075E+00    5.1732976779177902E+00
Ga    1.6204711492696475E+00    4.7100184225535111E+00    5.7788524884692611E+00
N    1.6095049432110624E+00    4.7057730696532207E+00    7.7721969142597231E+00
Ga    1.5913775535160717E+00    2.8509836798188530E+00    8.4332361987957007E+00
N    1.5872023395980761E+00    2.8502986015990377E+00    1.0418607097048840E+01
Ga    1.6134229613230142E+00    4.7084936163285853E+00    1.1065414304170332E+01
N    1.6299216702353523E+00    4.7176351261660061E+00    1.3051544532406220E+01
Ga    1.5856299889243339E+00    2.8488074481296564E+00    1.3614292483772283E+01
N    1.6128062208791636E+00    2.8325467372528341E+00    1.5569044165080214E+01
Ga    1.4292564929064395E+00    4.6005257520232661E+00    1.6481255065799772E+01
N   -9.0603346589807152E-03    7.4619893350873783E+00    2.5732554716604970E+00
Ga   -8.4699146802703455E-03    5.6804348174595551E+00    3.1656586251346992E+00
N   -2.6435957452739236E-03    5.6127466099874921E+00    5.1636293867799328E+00
Ga   -8.9228195726749095E-03    7.4615662103613509E+00    5.8402654202556246E+00
N   -1.0292273387675402E-02    7.4781296872657617E+00    7.8165136344724457E+00
Ga   -5.6855098123064314E-03    5.6178823077942868E+00    8.4322304943015709E+00
N   -9.0125324220070493E-03    5.6145917218545689E+00    1.0417512485232848E+01
Ga   -1.2899826282262987E-02    7.4838501142234879E+00    1.1019271102756198E+01
N   -1.1726515589042391E-02    7.4839108575722131E+00    1.2983607038948033E+01
Ga   -1.0133427749577841E-02    5.6142390859036224E+00    1.3614124570576815E+01
N   -8.5659005827470117E-03    5.6440467993603791E+00    1.5569781374966611E+01
Ga   -1.3957263553841748E-02    7.4812753413253210E+00    1.5854542750054431E+01
N   -1.7339016284922626E+00    1.0202810964907984E+01    2.5081442364930706E+00
Ga   -1.5172814363189184E+00    8.3379279564369018E+00    3.2601351779317103E+00
N   -1.6139808319166509E+00    8.4047237132866091E+00    5.2226978328833313E+00
Ga   -1.5994181026302807E+00    1.0278626396879561E+01    5.7770291096364268E+00
N   -1.6130352904058747E+00    1.0272550386902985E+01    7.7722193983826902E+00
Ga   -1.6264259527852076E+00    8.4155328784116765E+00    8.4205291837191467E+00
N   -1.6296467997197774E+00    8.4185463367862443E+00    1.0410112154884075E+01
Ga   -1.6063972079209983E+00    1.0276590038492904E+01    1.1061749284755736E+01
N   -1.5874679268458534E+00    1.0287144375006434E+01    1.3049134102234381E+01
Ga   -1.6294998304863744E+00    8.4192209519262082E+00    1.3615761256008193E+01
N   -1.6023935747738773E+00    8.4053815301391488E+00    1.5571435088291745E+01
Ga   -1.7866228710867020E+00    1.0172860179724372E+01    1.6482090677770223E+01
N    6.4139212845299518E+00    2.0346822318219648E+00    2.5161031761376558E+00
Ga    6.4136845149735118E+00    5.1283507898113680E-02    2.8424263213543379E+00
N    6.4177634657314506E+00    5.2922923933079034E-02    5.0017121808746676E+00
Ga    6.4114212418628691E+00    1.8796573885245880E+00    5.7939751158473367E+00
N    6.4175853467205366E+00    1.9008502785618966E+00    7.7852842417705785E+00
Ga    6.4152912995718152E+00    5.3870446480339909E-02    8.4362393307626657E+00
N    6.4183630178844009E+00    5.6006008960826706E-02    1.0405277607001626E+01
Ga    6.4179521025901956E+00    1.8942273456891308E+00    1.1068223605087866E+01
N    6.4205724113291538E+00    1.8752523674441182E+00    1.3053879828138884E+01
Ga    6.4178813604865201E+00    5.6777030424964688E-02    1.3870522037293476E+01
N    6.4199409929115951E+00    5.6365695933959847E-02    1.6057875496934948E+01
Ga    6.4204267396867980E+00    2.1068336448837957E+00    1.6480948154260989E+01
Ga    6.4210435204368608E+00    3.7794518895531799E+00    1.4926281563426012E+00
N    4.9475895144326003E+00    4.6423984712756887E+00    2.5478302652407319E+00
Ga    4.6943987571491030E+00    2.7840041214450286E+00    3.2732961428490763E+00
N    4.8071529208458399E+00    2.8418373180436416E+00    5.2343317467646289E+00
Ga    4.8088796839284802E+00    4.7069034797460816E+00    5.8168266300888938E+00
N    4.8103562478154220E+00    4.7027263445131444E+00    7.7989754890088276E+00
Ga    4.8186299355651805E+00    2.8430709614417444E+00    8.4330155893944507E+00
N    4.8223794980755930E+00    2.8474202079277786E+00    1.0419945919457549E+01
Ga    4.7981406117621237E+00    4.7069200185408784E+00    1.1066768003648523E+01
N    4.7812339938364206E+00    4.7170621775378390E+00    1.3053305285983287E+01
Ga    4.8236612497299385E+00    2.8479854452218532E+00    1.3615910540129311E+01
N    4.7970255933304777E+00    2.8322404625123623E+00    1.5570507671691592E+01
Ga    4.9802040421465250E+00    4.6009352471339149E+00    1.6481133389956753E+01
N    6.4253582187855498E+00    3.7722075894539318E+00    1.7627252228555420E+01
N    3.2263862135133703E+00    7.6258651963336650E+00    2.5510998970843644E+00
Ga    3.3070624339395098E+00    5.6831342670380236E+00    2.9943151435350286E+00
N    3.2339397588410983E+00    5.6424205265523426E+00    5.0568873346272598E+00
Ga    3.2117672668082475E+00    7.4736108324204649E+00    5.8184787822189357E+00
N    3.2073187143739568E+00    7.4789628874717700E+00    7.8001324057004080E+00
Ga    3.2071664887490128E+00    5.6279526997969009E+00    8.4395554163404061E+00
N    3.2061734268401714E+00    5.6280594013694882E+00    1.0407645890599349E+01
Ga    3.2041340398021165E+00    7.4671316333578250E+00    1.1066798158383339E+01
N    3.2048808690554016E+00    7.4464405026840783E+00    1.3055134199759173E+01
Ga    3.2050091382810875E+00    5.6246920895581143E+00    1.3870378849278268E+01
N    3.2051772510897076E+00    5.6257711910862183E+00    1.6058103808820302E+01
Ga    3.2050281746729858E+00    7.6671150234396688E+00    1.6470166194898955E+01
Ga    3.2178564407878802E+00    9.3344713207452763E+00    1.4958928909136482E+00
N    1.7021560314345858E+00    1.0203631162607836E+01    2.5170482950418380E+00
Ga    1.4935798565827085E+00    8.3420017355381386E+00    3.2765771907537133E+00
N    1.5973648680006161E+00    8.4070760804639200E+00    5.2370643038123434E+00
Ga    1.5646551761368888E+00    1.0277437982483313E+01    5.7956007266443503E+00
N    1.5841864967458419E+00    1.0273230847198134E+01    7.7865449712745631E+00
Ga    1.6002684442854735E+00    8.4164696502486063E+00    8.4322660619863168E+00
N    1.6057291333439458E+00    8.4184635784419743E+00    1.0419366258775716E+01
Ga    1.5774010635973099E+00    1.0276980133038654E+01    1.1068321198137303E+01
N    1.5629831069225337E+00    1.0287890420846736E+01    1.3055732413324801E+01
Ga    1.6065612047949152E+00    8.4174965187433060E+00    1.3614375082894661E+01
N    1.5775932585133186E+00    8.4003354083306814E+00    1.5572776559844671E+01
Ga    1.7557983349212321E+00    1.0176974304158108E+01    1.6470085945296628E+01
N    3.2048279633253047E+00    9.3405292454339222E+00    1.7588260993756840E+01
N    9.6633044372841717E+00    1.9293380895745207E+00    2.6257325768323510E+00
Ga    9.6311643352895384E+00    1.6872492332890229E-01    3.2884002502661853E+00
N    9.6317623881433168E+00    5.8610025743033013E-02    5.2494482897813368E+00
Ga    9.6160792113678522E+00    1.9019567350294242E+00    5.9090023401234157E+00
N    9.6303762347581170E+00    1.9097384547554512E+00    7.8644004726408223E+00
Ga    9.6328375905264476E+00    4.0374311333888524E-02    8.4474723708061159E+00
N    9.6354066447095210E+00    4.1628478929840507E-02    1.0429365080557838E+01
Ga    9.6374864777852789E+00    1.9147670640700594E+00    1.1020893353823574E+01
N    9.6378311278639366E+00    1.9139900666565124E+00    1.2985196504442317E+01
Ga    9.6367304165132435E+00    4.5224344411158898E-02    1.3614622619624589E+01
N    9.6371791875696946E+00    7.8770445377799148E-02    1.5573054448858263E+01
Ga    9.6383731542302566E+00    1.9165217698030175E+00    1.5854994544488342E+01
N    7.9298790073057894E+00    4.6306243311232587E+00    2.5242381608071329E+00
Ga    8.1220410400599832E+00    2.7793029337216968E+00    3.2866688951043335E+00
N    8.0270581803839995E+00    2.8341729502259780E+00    5.2473661564983649E+00
Ga    8.0621328758507875E+00    4.7065794263717926E+00    5.8037790867033134E+00
N    8.0438856709073061E+00    4.7014309052764629E+00    7.7920587673276511E+00
Ga    8.0124629273036589E+00    2.8468964245465891E+00    8.4456216692834083E+00
N    8.0146118966552713E+00    2.8489636766427098E+00    1.0427651999682318E+01
Ga    8.0462533517172847E+00    4.7081163563681283E+00    1.1071252437748567E+01
N    8.0629013203260111E+00    4.7173958441395003E+00    1.3056587948511105E+01
Ga    8.0183312211224376E+00    2.8471860719571840E+00    1.3616507287933512E+01
N    8.0440048716309764E+00    2.8303088712130418E+00    1.5572077873425217E+01
Ga    7.8652099726948741E+00    4.6034142413770276E+00    1.6481228912340931E+01
N    6.4216426701585521E+00    7.4835999464775247E+00    2.6177358632251502E+00
Ga    6.4472881106177855E+00    5.7418786075841117E+00    3.3012006702443215E+00
N    6.4339718516542836E+00    5.6299444373388301E+00    5.2588546508800285E+00
Ga    6.4289999622307601E+00    7.4864286586965436E+00    5.8868081742629661E+00
N    6.4238540522179157E+00    7.4851126756637347E+00    7.8512911486396382E+00
Ga    6.4277485266992409E+00    5.6163710705361591E+00    8.4433933739728513E+00
N    6.4234119338490610E+00    5.6146562634874044E+00    1.0426677363339595E+01
Ga    6.4239739759427454E+00    7.4852509612904754E+00    1.1024241214493719E+01
N    6.4220993521419327E+00    7.4844599162640941E+00    1.2987752948996379E+01
Ga    6.4213681045402682E+00    5.6143919773908753E+00    1.3617002323338191E+01
N    6.4192308929376889E+00    5.6444888746160160E+00    1.5572221911630711E+01
Ga    6.4249798979860833E+00    7.4821337814089031E+00    1.5854716422023422E+01
N    4.7058167135893099E+00    1.0214997012356116E+01    2.5299908931023838E+00
Ga    4.9272298248619286E+00    8.3754425218407214E+00    3.3055707470559947E+00
N    4.8235104394420629E+00    8.4199935948828895E+00    5.2623541564095131E+00
Ga    4.8365755698104289E+00    1.0291057362403428E+01    5.8096116188909290E+00
N    4.8221177483342137E+00    1.0279922481897939E+01    7.7965238145155880E+00
Ga    4.8070203786514787E+00    8.4225799736864637E+00    8.4448201703810923E+00
N    4.8034664797444009E+00    8.4206851334170096E+00    1.0427970417520141E+01
Ga    4.8295250212520084E+00    1.0279554679061281E+01    1.1072202649252793E+01
N    4.8464990658323233E+00    1.0288930045743188E+01    1.3058246379800353E+01
Ga    4.8028918366420772E+00    8.4183195168439848E+00    1.3615694585797860E+01
N    4.8328309677439716E+00    8.4003502890823558E+00    1.5573798984392695E+01
Ga    4.6541703135227790E+00    1.0177038793487432E+01    1.6469852828820013E+01
O    1.1152495306625060E-01    3.4903612304810365E+00   -4.0787461956141952E-01
H    1.6388630144426886E+00    4.6965498992149444E+00    1.4996227242560904E+00
C    7.4549769665475951E-01    2.2504541255706054E+00   -8.1899916210142998E-01
H    1.8173928278990275E+00    2.2551859299096275E+00   -5.6815734536640805E-01
H    2.9756948596455002E-01    1.3662115863205706E+00   -3.3657148598244330E-01
H    6.1719798143505500E-01    2.1575182662344141E+00   -1.9060619789043780E+00
     &END COORD
     &KIND C
       BASIS_SET DZVP-MOLOPT-SR-GTH-q4
       POTENTIAL GTH-PBE-q4
       &POTENTIAL
 2 2
  0.3384712400000000E+00 2 -0.8803673979999999E+01  0.1339210850000000E+01
 2
  0.3025757500000000E+00 1  0.9622486650000001E+01
  0.2915069400000000E+00 0
         # Potential name:  GTH-PBE-Q4  for symbol:  C
         # Potential read from the potential filename: GTH_POTENTIALS
       &END POTENTIAL
     &END KIND
     &KIND O
       BASIS_SET DZVP-MOLOPT-SR-GTH-q6
       POTENTIAL GTH-PBE-q6
       &POTENTIAL
 2 4
  0.2445543000000000E+00 2 -0.1666721480000000E+02  0.2487311320000000E+01
 2
  0.2209559200000000E+00 1  0.1833745811000000E+02
  0.2113324700000000E+00 0
         # Potential name:  GTH-PBE-Q6  for symbol:  O
         # Potential read from the potential filename: GTH_POTENTIALS
       &END POTENTIAL
     &END KIND
     &KIND H
       BASIS_SET DZVP-MOLOPT-SR-GTH-q1
       POTENTIAL GTH-PBE-q1
       &POTENTIAL
 1
  0.2000000000000000E+00 2 -0.4178900440000000E+01  0.7244633100000000E+00
 0
         # Potential name:  GTH-PBE-Q1  for symbol:  H
         # Potential read from the potential filename: GTH_POTENTIALS
       &END POTENTIAL
     &END KIND
     &KIND N
       BASIS_SET DZVP-MOLOPT-SR-GTH
       POTENTIAL GTH-PBE-q5
       &POTENTIAL
 2 3
  0.2837905100000000E+00 2 -0.1241522559000000E+02  0.1868095920000000E+01
 2
  0.2554050000000000E+00 1  0.1363026257000000E+02
  0.2454945300000000E+00 0
         # Potential name:  GTH-PBE-Q5  for symbol:  N
         # Potential read from the potential filename: GTH_POTENTIALS
       &END POTENTIAL
     &END KIND
     &KIND Ga
       BASIS_SET DZVP-MOLOPT-SR-GTH
       POTENTIAL GTH-PBE-q13
       &POTENTIAL
 2 1 10
  0.4900000000000000E+00 0
 3
  0.4167772300000000E+00 3  0.1047568975000000E+02 -0.4921768140000000E+01  0.8707055900000000E+00
  0.7770178090000000E+01 -0.2248152160000000E+01
  0.1784415450000000E+01
  0.5696265200000000E+00 2  0.1777985340000000E+01  0.1958597600000000E+00
 -0.2317443900000000E+00
  0.2381265000000000E+00 1 -0.1624868022000000E+02
         # Potential name:  GTH-PBE-Q13  for symbol:  GA
         # Potential read from the potential filename: GTH_POTENTIALS
       &END POTENTIAL
     &END KIND
     &TOPOLOGY
       NUMBER_OF_ATOMS  206
       MULTIPLE_UNIT_CELL  1 1 1
     &END TOPOLOGY
   &END SUBSYS
 &END FORCE_EVAL
