 # Version information for this restart file 
 # current date 2019-06-25 10:53:32.763
 # current working dir /scratch/rzk/rzk/GaN-carbene/443-adatoms-both-2x2/03-DissMethanol/03-O-GaTop-H-NTop
 # Program compiled at                              Sun Apr  7 00:48:11 EDT 2019
 # Program compiled on                          beluga2.int.ets1.calculquebec.ca
 # Program compiled for                        Beluga-Linux-x86-64-intel-openmpi
 # Source code revision number                                         svn:18619
 &GLOBAL
   PRINT_LEVEL  MEDIUM
   PROJECT_NAME TEST
   RUN_TYPE  GEO_OPT
 &END GLOBAL
 &MOTION
   &GEO_OPT
     MAX_ITER  500
     STEP_START_VAL  151
   &END GEO_OPT
 &END MOTION
 &FORCE_EVAL
   METHOD  QS
   STRESS_TENSOR  ANALYTICAL
   &DFT
     BASIS_SET_FILE_NAME BASIS_MOLOPT
     POTENTIAL_FILE_NAME GTH_POTENTIALS
     UKS  T
     SURFACE_DIPOLE_CORRECTION  T
     SURF_DIP_DIR  Z
     &SCF
       MAX_SCF  80
       EPS_SCF     5.0000000000000004E-06
       &OT  T
         PRECONDITIONER  FULL_ALL
       &END OT
       &OUTER_SCF  T
         OPTIMIZER  NONE
         EPS_SCF     5.0000000000000004E-06
         MAX_SCF  4
       &END OUTER_SCF
       &PRINT
         &RESTART  OFF
           BACKUP_COPIES  1
           &EACH
             JUST_ENERGY  0
             QS_SCF  0
             MD  20
           &END EACH
         &END RESTART
       &END PRINT
     &END SCF
     &QS
       EPS_DEFAULT     1.0000000000000000E-14
       METHOD  GPW
     &END QS
     &MGRID
       NGRIDS  5
       CUTOFF     1.2000000000000000E+03
     &END MGRID
     &XC
       DENSITY_CUTOFF     1.0000000000000000E-10
       GRADIENT_CUTOFF     1.0000000000000000E-10
       TAU_CUTOFF     1.0000000000000000E-10
       &XC_FUNCTIONAL  NO_SHORTCUT
         &PBE  T
         &END PBE
       &END XC_FUNCTIONAL
       &VDW_POTENTIAL
         POTENTIAL_TYPE  PAIR_POTENTIAL
         &PAIR_POTENTIAL
           R_CUTOFF     1.0000000000000005E+01
           TYPE  DFTD3
           PARAMETER_FILE_NAME dftd3.dat
           REFERENCE_FUNCTIONAL PBE
           EPS_CN     9.9999999999999995E-07
           CALCULATE_C9_TERM  T
           REFERENCE_C9_TERM  T
           LONG_RANGE_CORRECTION  F
           VERBOSE_OUTPUT  F
         &END PAIR_POTENTIAL
       &END VDW_POTENTIAL
     &END XC
   &END DFT
   &SUBSYS
     &CELL
       A     1.2864472766435110E+01    0.0000000000000000E+00    0.0000000000000000E+00
       B    -6.4322363581020028E+00    1.1140960178524475E+01    0.0000000000000000E+00
       C     0.0000000000000000E+00    0.0000000000000000E+00    3.2000000000000000E+01
       MULTIPLE_UNIT_CELL  1 1 1
       &CELL_REF
         A     1.2982353780853531E+01    0.0000000000000000E+00    0.0000000000000000E+00
         B    -6.4911768904267628E+00    1.1243048175136114E+01    0.0000000000000000E+00
         C     0.0000000000000000E+00    0.0000000000000000E+00    3.2000000000000000E+01
         MULTIPLE_UNIT_CELL  1 1 1
       &END CELL_REF
     &END CELL
     &COORD
N   -8.6837559162319736E-02    2.0211664562289453E+00    2.5146192666475762E+00
Ga   -1.1611257644011974E-02    5.0604794552248346E-02    2.8690605546557806E+00
N    7.5518003243896089E-03    5.5404986840588359E-02    5.0236246011293693E+00
Ga    4.2934372001125473E-02    1.8769265715116805E+00    5.8162914914902242E+00
N    2.0059376553398640E-02    1.8957714326035404E+00    7.8033088256644429E+00
Ga    1.0708308239269304E-02    4.9615718137189742E-02    8.4438051213090031E+00
N    7.2839985615867154E-03    5.1401134424122169E-02    1.0415850133796598E+01
Ga    7.6831118762890937E-03    1.8944607211095195E+00    1.1059845214020941E+01
N    6.9110384110242932E-03    1.8744755629581367E+00    1.3051649858281170E+01
Ga    1.5753025896115855E-02    5.9541871953273533E-02    1.3854340253190424E+01
N    1.6333012950488071E-02    5.7919093315202716E-02    1.6060869264341154E+01
Ga    6.5506769694616317E-03    2.1178570174039772E+00    1.6491435897600557E+01
Ga   -9.0926929084316510E-01    3.2441938891822582E+00    1.1924160566582918E+00
N   -1.5482558096543724E+00    4.5498129374526437E+00    2.5010788266312831E+00
Ga   -1.6940430090646190E+00    2.7747238534319894E+00    3.5012237450058810E+00
N   -1.6065123870700846E+00    2.8319561525307559E+00    5.3866429617821812E+00
Ga   -1.6089673082620568E+00    4.7374097268869741E+00    5.8154455623180450E+00
N   -1.6048763132285262E+00    4.7096120982529905E+00    7.8025350654807513E+00
Ga   -1.5877614034659771E+00    2.8436240319967276E+00    8.4258987935165521E+00
N   -1.5899200700589673E+00    2.8432380168994533E+00    1.0421311334512023E+01
Ga   -1.6144767840527026E+00    4.7008256146112490E+00    1.1064698949425315E+01
N   -1.6328991882194714E+00    4.7110297852856418E+00    1.3056152678017076E+01
Ga   -1.5892594114678669E+00    2.8439361033690154E+00    1.3616440741952051E+01
N   -1.6198344000455605E+00    2.8199616107253060E+00    1.5574563725627987E+01
Ga   -1.4317478103850982E+00    4.5937228850891687E+00    1.6490153884513724E+01
N    7.1199443587211593E-04    3.7690141074347672E+00    1.7638036586006482E+01
N   -3.2125456749226040E+00    7.5897693020113044E+00    2.5203128687476224E+00
Ga   -3.2211941621780897E+00    5.6046404280781532E+00    2.8623896666787538E+00
N   -3.2026391535240180E+00    5.6165965293530826E+00    5.0184635099528760E+00
Ga   -3.2053787063007588E+00    7.4502480328719995E+00    5.7892815615837705E+00
N   -3.2083907932911675E+00    7.4652768440816848E+00    7.7857315336216528E+00
Ga   -3.2084754919728797E+00    5.6239400959815482E+00    8.4453283922785545E+00
N   -3.2092805692407977E+00    5.6206952486184463E+00    1.0416702761430189E+01
Ga   -3.2073218044669964E+00    7.4614530983021812E+00    1.1063308739387573E+01
N   -3.2095080749911635E+00    7.4405295990413620E+00    1.3056818582578442E+01
Ga   -3.2069495342474710E+00    5.6198941802806335E+00    1.3870433137484120E+01
N   -3.2099549150290807E+00    5.6194365344018440E+00    1.6062936209850751E+01
Ga   -3.2102048574925393E+00    7.6611364081274367E+00    1.6480071107224880E+01
Ga   -3.2168919313809408E+00    9.3270564043106070E+00    1.4781020791146262E+00
N   -4.7212474430426647E+00    1.0203089897849059E+01    2.5177966527189541E+00
Ga   -4.9134105012045959E+00    8.3504192305541896E+00    3.2867891253826160E+00
N   -4.8146045948610983E+00    8.4066368988781655E+00    5.2490616510639576E+00
Ga   -4.8376766733066168E+00    1.0278145900242125E+01    5.7907787452475663E+00
N   -4.8264160293447489E+00    1.0268835804998265E+01    7.7869513858367245E+00
Ga   -4.8036325358106877E+00    8.4129737973736809E+00    8.4292483104537190E+00
N   -4.8048396009050158E+00    8.4127449436356176E+00    1.0423394008651142E+01
Ga   -4.8284162621241329E+00    1.0272457569367248E+01    1.1058617704638747E+01
N   -4.8479046843846874E+00    1.0281396578137537E+01    1.3052301204329151E+01
Ga   -4.8047978668318665E+00    8.4135523012127038E+00    1.3614029282641638E+01
N   -4.8404341865447513E+00    8.4009351806904444E+00    1.5575500524650659E+01
Ga   -4.6444772831676691E+00    1.0165423404585075E+01    1.6483084668720775E+01
N   -3.2089410220147032E+00    9.3236066905123707E+00    1.7616251273455841E+01
N    3.1956021572662041E+00    1.9177589038645744E+00    2.5751612169419178E+00
Ga    3.2092405551665308E+00    1.7423303180151031E-01    3.2624221382382048E+00
N    3.2211122122241869E+00    5.6681996040013824E-02    5.2282283054912098E+00
Ga    3.2038040743425928E+00    1.9223730621196962E+00    5.8264099473207516E+00
N    3.2176733672019857E+00    1.9125982606044065E+00    7.8122681168757246E+00
Ga    3.2239471213523281E+00    4.5706074660537235E-02    8.4147662807831747E+00
N    3.2227040197817072E+00    4.1154456542315546E-02    1.0411656643730156E+01
Ga    3.2229884145674497E+00    1.9074727928543920E+00    1.1017488060997996E+01
N    3.2204407242753850E+00    1.9067989071730109E+00    1.2986334327709075E+01
Ga    3.2227716568512266E+00    3.9428418199491951E-02    1.3612186143709856E+01
N    3.2228284854995697E+00    6.9548998921345112E-02    1.5572130466955475E+01
Ga    3.2218611032857871E+00    1.9078918888363463E+00    1.5853118758733846E+01
N    1.6535394755428323E+00    4.7132139822627739E+00    2.5245563422650430E+00
Ga    1.6373710353509092E+00    2.8068393343604305E+00    3.1407523157736041E+00
N    1.6029943912490436E+00    2.8469742687114903E+00    5.1571694259911487E+00
Ga    1.6315250918010626E+00    4.7015143477818100E+00    5.7665210128578037E+00
N    1.6239177071789885E+00    4.6976894780783489E+00    7.7693728249198548E+00
Ga    1.6139913724707886E+00    2.8460396203350866E+00    8.4320109490739732E+00
N    1.6063358828907599E+00    2.8450452016433894E+00    1.0421879462606096E+01
Ga    1.6307895128321874E+00    4.7015631658735879E+00    1.1063539373706886E+01
N    1.6435177928279376E+00    4.7096252290723388E+00    1.3053275878573094E+01
Ga    1.6038167653895279E+00    2.8423487614987439E+00    1.3615624669137885E+01
N    1.6306544664008722E+00    2.8251512053883916E+00    1.5572661932270403E+01
Ga    1.4338102668720833E+00    4.5872870579817437E+00    1.6489814381707493E+01
N    3.9092802663201788E-03    7.4507264439840366E+00    2.5821240070339271E+00
Ga   -3.0062983168940472E-03    5.6553268789552424E+00    3.1352745806091824E+00
N    1.0496143628902973E-02    5.6021971342181276E+00    5.1535163506545425E+00
Ga    1.0682809367321203E-02    7.4512042066356630E+00    5.8256287708185077E+00
N    8.6903119814290188E-03    7.4692439165860645E+00    7.8131770825210660E+00
Ga    1.5049736022372789E-02    5.6133479125205561E+00    8.4330620014184259E+00
N    9.5729115998913691E-03    5.6086834911850483E+00    1.0423706018906509E+01
Ga    4.9965667224823604E-03    7.4773139682788603E+00    1.1018462745902772E+01
N    5.9276635232676528E-03    7.4780820106446750E+00    1.2991006500597862E+01
Ga    5.5406656876120924E-03    5.6063018015673203E+00    1.3616514069692933E+01
N    9.9934379813149243E-03    5.6437034228791338E+00    1.5574347148002433E+01
Ga    3.1397450353116987E-03    7.4767485609688240E+00    1.5853803449099606E+01
N   -1.7148116534573448E+00    1.0197023601769938E+01    2.5125745023704553E+00
Ga   -1.5003970128608157E+00    8.3322985298392762E+00    3.2647838607782500E+00
N   -1.5962011989645437E+00    8.4007247558063423E+00    5.2301209146445933E+00
Ga   -1.5779668057937946E+00    1.0276149210127194E+01    5.7760189584901802E+00
N   -1.5928507141195389E+00    1.0267377317000596E+01    7.7765788125860684E+00
Ga   -1.6057651927329775E+00    8.4088191714708422E+00    8.4148897225688906E+00
N   -1.6105414240247529E+00    8.4105753678426112E+00    1.0413056436762481E+01
Ga   -1.5891142003644214E+00    1.0270754552200465E+01    1.1051324902105268E+01
N   -1.5730026308873075E+00    1.0279979239770299E+01    1.3047332437088526E+01
Ga   -1.6145346286675826E+00    8.4135116138054009E+00    1.3614499739228547E+01
N   -1.5808931748527320E+00    8.4020888992400273E+00    1.5575156220810113E+01
Ga   -1.7751755266584224E+00    1.0165626022978849E+01    1.6482347388166215E+01
N    6.4391313712004807E+00    2.0287385375674094E+00    2.5082853426325715E+00
Ga    6.4360724330376335E+00    4.7195872295223810E-02    2.8302291989400929E+00
N    6.4375730444548003E+00    4.8763952824344418E-02    5.0038574113411824E+00
Ga    6.4318027573258325E+00    1.8756919840646997E+00    5.7791789142275940E+00
N    6.4378204117552835E+00    1.8972446669465064E+00    7.7803508989925962E+00
Ga    6.4372352175205778E+00    5.0237865426291613E-02    8.4257757332460557E+00
N    6.4379114012617418E+00    5.1047686951453751E-02    1.0403659909704274E+01
Ga    6.4344740351392549E+00    1.8902516236684423E+00    1.1060144019765733E+01
N    6.4360402903199079E+00    1.8723633667554593E+00    1.3052814906731935E+01
Ga    6.4280114742192929E+00    5.4781851772121845E-02    1.3851805575529591E+01
N    6.4273716505316525E+00    5.7875924630181930E-02    1.6058740816671790E+01
Ga    6.4349113708427295E+00    2.1144335396168716E+00    1.6486785194856989E+01
Ga    6.4371409381869951E+00    3.7762463811894502E+00    1.4538979036262627E+00
N    4.9613686546511175E+00    4.6377460848624716E+00    2.5437841617924017E+00
Ga    4.7173219192446751E+00    2.7831558025492145E+00    3.2598978046881841E+00
N    4.8263648621890347E+00    2.8369477774146095E+00    5.2279034343472501E+00
Ga    4.8246999466286820E+00    4.7004779068522797E+00    5.8069435388073503E+00
N    4.8268922625412962E+00    4.6961266651129225E+00    7.7950304440214797E+00
Ga    4.8362089310791783E+00    2.8359625689584926E+00    8.4202909146744709E+00
N    4.8392397809966878E+00    2.8398384953375531E+00    1.0415154045566352E+01
Ga    4.8159192265013822E+00    4.6987737090789645E+00    1.1056276596541396E+01
N    4.7988722101235419E+00    4.7095099421540141E+00    1.3050400849467657E+01
Ga    4.8376654366023972E+00    2.8416509284997584E+00    1.3613237949430484E+01
N    4.8116103620321669E+00    2.8245894067857620E+00    1.5569500179530449E+01
Ga    5.0062762794042346E+00    4.5873342075988033E+00    1.6487057075943106E+01
N    6.4450907255581935E+00    3.7684894809941332E+00    1.7626814930434950E+01
N    3.2421823504630036E+00    7.6169888007473725E+00    2.5456617646444668E+00
Ga    3.3218688144024098E+00    5.6770958192688346E+00    2.9872666052868935E+00
N    3.2469756580226279E+00    5.6338325553602280E+00    5.0559527002638305E+00
Ga    3.2281131489929362E+00    7.4668103003066584E+00    5.8075182773513321E+00
N    3.2246844656520048E+00    7.4713566234665967E+00    7.7966261838687450E+00
Ga    3.2227795048088166E+00    5.6196194802408677E+00    8.4276512814883304E+00
N    3.2217085504352849E+00    5.6194893139283160E+00    1.0404361988008096E+01
Ga    3.2207463480786998E+00    7.4583093657180068E+00    1.1055943963102720E+01
N    3.2211601429337158E+00    7.4377043294282679E+00    1.3055551509639532E+01
Ga    3.2198614654460771E+00    5.6094713798168128E+00    1.3853473236701127E+01
N    3.2222443925987987E+00    5.6072628194961851E+00    1.6057747145630703E+01
Ga    3.2195148855961730E+00    7.6095263976977936E+00    1.6427529596873345E+01
Ga    3.2320902034459369E+00    9.3235490070357709E+00    1.4551523919868008E+00
N    1.7218162516892943E+00    1.0200704892136809E+01    2.5094084971090944E+00
Ga    1.5148521502988879E+00    8.3336125644405517E+00    3.2637422223460177E+00
N    1.6148031639576801E+00    8.4002515868331145E+00    5.2313248210068499E+00
Ga    1.5846592780054285E+00    1.0271816145105209E+01    5.7801349187991411E+00
N    1.6053151529808873E+00    1.0266714302295219E+01    7.7820255679366639E+00
Ga    1.6178169655197745E+00    8.4098215370670086E+00    8.4201497358131032E+00
N    1.6226063661571126E+00    8.4116852410915790E+00    1.0418488492847603E+01
Ga    1.5948225538980350E+00    1.0270245431429359E+01    1.1059510938293139E+01
N    1.5784797143867100E+00    1.0281582497787104E+01    1.3057545451827369E+01
Ga    1.6237685120109502E+00    8.4109357589430331E+00    1.3604590228014850E+01
N    1.6053637379813226E+00    8.4040557357856009E+00    1.5580533082152268E+01
Ga    1.7310623935894625E+00    1.0194757404153711E+01    1.6428959788688200E+01
N    3.2230860849918868E+00    9.3310383670635400E+00    1.7553021208705243E+01
N    9.7142067056821571E+00    1.9396344013228501E+00    2.6309019517175729E+00
Ga    9.6572384725716010E+00    1.6099486311621455E-01    3.2687182104357584E+00
N    9.6527496727039583E+00    5.6305142026526013E-02    5.2390599669764226E+00
Ga    9.6268098148120487E+00    1.8901370831634070E+00    5.9171043208256142E+00
N    9.6464603707221404E+00    1.9021664604660367E+00    7.8746219000905562E+00
Ga    9.6506764828369747E+00    3.1301661665516650E-02    8.4441013961928739E+00
N    9.6538021358700021E+00    3.5027941746564879E-02    1.0434008879317179E+01
Ga    9.6548800358172802E+00    1.9096514817267090E+00    1.1019001221947466E+01
N    9.6553908775041535E+00    1.9068713839830358E+00    1.2991693400719738E+01
Ga    9.6531865914864277E+00    3.9606260814049915E-02    1.3605007016941212E+01
N    9.6517300885174677E+00    5.8879588506649580E-02    1.5580678490398954E+01
Ga    9.6534345722638193E+00    1.9103917016535972E+00    1.5855300024814035E+01
N    7.9448369913117860E+00    4.6269409916812538E+00    2.5204912568993532E+00
Ga    8.1452234876619123E+00    2.7795212538227303E+00    3.2682715878599682E+00
N    8.0515873115875731E+00    2.8287190350811309E+00    5.2381929883956868E+00
Ga    8.0802700318187792E+00    4.7007808952942662E+00    5.8003470529039900E+00
N    8.0616220232879954E+00    4.6946894938396690E+00    7.7948514000836058E+00
Ga    8.0278997664160485E+00    2.8417523634856749E+00    8.4438852085318352E+00
N    8.0326176298184748E+00    2.8434221980412882E+00    1.0431813318030436E+01
Ga    8.0615125162068502E+00    4.7023578529660028E+00    1.1070030862723536E+01
N    8.0789503157229170E+00    4.7121494429484985E+00    1.3061040431882876E+01
Ga    8.0343417666837755E+00    2.8422521923161579E+00    1.3615186600750613E+01
N    8.0625409970853532E+00    2.8186078160120491E+00    1.5573200489215337E+01
Ga    7.8779926758189935E+00    4.5956368637246454E+00    1.6484173298519291E+01
N    6.4392907089616909E+00    7.4767227007698587E+00    2.6231201618814919E+00
Ga    6.4622541299332266E+00    5.7297399839930874E+00    3.2937078082315656E+00
N    6.4518061326880112E+00    5.6226591365852654E+00    5.2581592050054997E+00
Ga    6.4444227562275955E+00    7.4797462552677834E+00    5.8758885206979024E+00
N    6.4412791644216680E+00    7.4781051359072066E+00    7.8485586325523133E+00
Ga    6.4431885760625009E+00    5.6094078841026329E+00    8.4338949903589739E+00
N    6.4404011024607435E+00    5.6081774861959328E+00    1.0425692240064352E+01
Ga    6.4408150111248075E+00    7.4769011151542157E+00    1.1019571180831578E+01
N    6.4376020365588076E+00    7.4794282165079515E+00    1.2992493954658128E+01
Ga    6.4371146508803294E+00    5.6069590501068829E+00    1.3614777202927122E+01
N    6.4318652158190979E+00    5.6444990184473571E+00    1.5572667539173429E+01
Ga    6.4392410016473569E+00    7.4765079353765369E+00    1.5856316116473515E+01
N    4.7249715442556681E+00    1.0206073837755506E+01    2.5194165927254559E+00
Ga    4.9387800891500051E+00    8.3713959821972317E+00    3.2940270136764678E+00
N    4.8401144139742520E+00    8.4146408024409585E+00    5.2586702132943568E+00
Ga    4.8554124415991033E+00    1.0285196437691665E+01    5.8021906378097317E+00
N    4.8400100398425900E+00    1.0273231930430292E+01    7.7973103078146258E+00
Ga    4.8244303955113166E+00    8.4137928763814482E+00    8.4344222529394877E+00
N    4.8203657067253642E+00    8.4131497311521706E+00    1.0428253541678725E+01
Ga    4.8475132766151514E+00    1.0271804000255642E+01    1.1065186409331721E+01
N    4.8653153355403047E+00    1.0282976385122224E+01    1.3062021196447541E+01
Ga    4.8185845258608948E+00    8.4111598853668568E+00    1.3605508329335720E+01
N    4.8357862484641165E+00    8.4030050681113160E+00    1.5581954777353232E+01
Ga    4.7124122269114244E+00    1.0197442538240390E+01    1.6426893551044891E+01
O   -5.6363133853285718E-01    3.3342923010687864E+00   -5.7119448227773795E-01
H    1.6360976211099831E+00    4.7058018105168369E+00    1.4948035277438629E+00
C    2.3124695091258346E-01    2.2652952326854061E+00   -1.1338605319854724E+00
H    1.1284632173417755E+00    2.0436554335650987E+00   -5.2828703222979057E-01
H   -3.5480184755033300E-01    1.3379532241151793E+00   -1.2432589527118811E+00
H    5.5136214760825975E-01    2.6012667679436570E+00   -2.1318065017945891E+00
     &END COORD
     &KIND C
       BASIS_SET DZVP-MOLOPT-SR-GTH-q4
       POTENTIAL GTH-PBE-q4
       &POTENTIAL
2 2
0.3384712400000000E+00 2 -0.8803673979999999E+01  0.1339210850000000E+01
2
0.3025757500000000E+00 1  0.9622486650000001E+01
0.2915069400000000E+00 0
       &END POTENTIAL
     &END KIND
     &KIND O
       BASIS_SET DZVP-MOLOPT-SR-GTH-q6
       POTENTIAL GTH-PBE-q6
       &POTENTIAL
2 4
0.2445543000000000E+00 2 -0.1666721480000000E+02  0.2487311320000000E+01
2
0.2209559200000000E+00 1  0.1833745811000000E+02
0.2113324700000000E+00 0
       &END POTENTIAL
     &END KIND
     &KIND H
       BASIS_SET DZVP-MOLOPT-SR-GTH-q1
       POTENTIAL GTH-PBE-q1
       &POTENTIAL
1
0.2000000000000000E+00 2 -0.4178900440000000E+01  0.7244633100000000E+00
0
       &END POTENTIAL
     &END KIND
     &KIND N
       BASIS_SET DZVP-MOLOPT-SR-GTH
       POTENTIAL GTH-PBE-q5
       &POTENTIAL
2 3
0.2837905100000000E+00 2 -0.1241522559000000E+02  0.1868095920000000E+01
2
0.2554050000000000E+00 1  0.1363026257000000E+02
0.2454945300000000E+00 0
       &END POTENTIAL
     &END KIND
     &KIND Ga
       BASIS_SET DZVP-MOLOPT-SR-GTH
       POTENTIAL GTH-PBE-q13
       &POTENTIAL
2 1 10
0.4900000000000000E+00 0
3
0.4167772300000000E+00 3  0.1047568975000000E+02 -0.4921768140000000E+01  0.8707055900000000E+00
0.7770178090000000E+01 -0.2248152160000000E+01
0.1784415450000000E+01
0.5696265200000000E+00 2  0.1777985340000000E+01  0.1958597600000000E+00
-0.2317443900000000E+00
0.2381265000000000E+00 1 -0.1624868022000000E+02
       &END POTENTIAL
     &END KIND
     &TOPOLOGY
       NUMBER_OF_ATOMS  206
       MULTIPLE_UNIT_CELL  1 1 1
     &END TOPOLOGY
   &END SUBSYS
 &END FORCE_EVAL
