 # Version information for this restart file 
 # current date 2019-06-24 16:08:25.481
 # current working dir /scratch/rzk/rzk/GaN-carbene/443-adatoms-both-2x2/03-DissMethanol/03-O-GaTop-H-NTop
 # Program compiled at                              Sun Apr  7 00:48:11 EDT 2019
 # Program compiled on                          beluga2.int.ets1.calculquebec.ca
 # Program compiled for                        Beluga-Linux-x86-64-intel-openmpi
 # Source code revision number                                         svn:18619
 &GLOBAL
   PRINT_LEVEL  MEDIUM
   PROJECT_NAME TEST
   RUN_TYPE  GEO_OPT
 &END GLOBAL
 &MOTION
   &GEO_OPT
     MAX_ITER  500
     STEP_START_VAL  10
   &END GEO_OPT
 &END MOTION
 &FORCE_EVAL
   METHOD  QS
   STRESS_TENSOR  ANALYTICAL
   &DFT
     BASIS_SET_FILE_NAME BASIS_MOLOPT
     POTENTIAL_FILE_NAME GTH_POTENTIALS
     UKS  T
     SURFACE_DIPOLE_CORRECTION  T
     SURF_DIP_DIR  Z
     &SCF
       MAX_SCF  80
       EPS_SCF     5.0000000000000004E-06
       &OT  T
         PRECONDITIONER  FULL_ALL
       &END OT
       &OUTER_SCF  T
         OPTIMIZER  NONE
         EPS_SCF     5.0000000000000004E-06
         MAX_SCF  4
       &END OUTER_SCF
       &PRINT
         &RESTART  OFF
           BACKUP_COPIES  1
           &EACH
             JUST_ENERGY  0
             QS_SCF  0
             MD  20
           &END EACH
         &END RESTART
       &END PRINT
     &END SCF
     &QS
       EPS_DEFAULT     1.0000000000000000E-14
       METHOD  GPW
     &END QS
     &MGRID
       NGRIDS  5
       CUTOFF     1.2000000000000000E+03
     &END MGRID
     &XC
       DENSITY_CUTOFF     1.0000000000000000E-10
       GRADIENT_CUTOFF     1.0000000000000000E-10
       TAU_CUTOFF     1.0000000000000000E-10
       &XC_FUNCTIONAL  NO_SHORTCUT
         &PBE  T
         &END PBE
       &END XC_FUNCTIONAL
       &VDW_POTENTIAL
         POTENTIAL_TYPE  PAIR_POTENTIAL
         &PAIR_POTENTIAL
           R_CUTOFF     1.0000000000000004E+01
           TYPE  DFTD3
           PARAMETER_FILE_NAME dftd3.dat
           REFERENCE_FUNCTIONAL PBE
           EPS_CN     9.9999999999999995E-07
           CALCULATE_C9_TERM  T
           REFERENCE_C9_TERM  T
           LONG_RANGE_CORRECTION  F
           VERBOSE_OUTPUT  F
         &END PAIR_POTENTIAL
       &END VDW_POTENTIAL
     &END XC
   &END DFT
   &SUBSYS
     &CELL
       A     1.2864472766435110E+01    0.0000000000000000E+00    0.0000000000000000E+00
       B    -6.4322363581020028E+00    1.1140960178524473E+01    0.0000000000000000E+00
       C     0.0000000000000000E+00    0.0000000000000000E+00    3.2000000000000000E+01
       MULTIPLE_UNIT_CELL  1 1 1
       &CELL_REF
         A     1.2982353780853531E+01    0.0000000000000000E+00    0.0000000000000000E+00
         B    -6.4911768904267628E+00    1.1243048175136114E+01    0.0000000000000000E+00
         C     0.0000000000000000E+00    0.0000000000000000E+00    3.2000000000000000E+01
         MULTIPLE_UNIT_CELL  1 1 1
       &END CELL_REF
     &END CELL
     &COORD
N   -8.8299262714072860E-02    2.0308508273567525E+00    2.5211798834446184E+00
Ga   -2.6880201906002658E-02    5.9171407781201245E-02    2.8821557331471461E+00
N   -1.1968690913951162E-02    6.0937079714118256E-02    5.0148584998117336E+00
Ga    1.2905761603348817E-02    1.8887569931030008E+00    5.8015578699857651E+00
N   -3.0545026121755058E-03    1.9031325091222744E+00    7.7872589103773713E+00
Ga   -8.0590030104790277E-03    5.9883961273378944E-02    8.4454817890016436E+00
N   -1.0291751717912105E-02    5.8500145184054171E-02    1.0410741705798513E+01
Ga   -1.1027266019659442E-02    1.8998161088086107E+00    1.1063602905265153E+01
N   -1.0772239854089068E-02    1.8779175954156360E+00    1.3050175172441277E+01
Ga   -7.8419186838284919E-03    5.8984171287263278E-02    1.3870244250002365E+01
N   -9.3205211251867759E-03    5.6958351664392719E-02    1.6057102327599285E+01
Ga   -9.7445641183981271E-03    2.1080541816321090E+00    1.6479923089657731E+01
Ga   -6.7857688981693187E-01    3.3871158924473921E+00    1.2108847048761280E+00
N   -1.5372401796382620E+00    4.5772554395327587E+00    2.4844173012198216E+00
Ga   -1.7286825691488985E+00    2.7686693296859453E+00    3.4337237424309897E+00
N   -1.6293830526747870E+00    2.8368231167160558E+00    5.3351241840042700E+00
Ga   -1.6263036137911160E+00    4.7318718992205424E+00    5.7944359693185987E+00
N   -1.6233345499282335E+00    4.7117010935602970E+00    7.7821606247369681E+00
Ga   -1.6066569177186261E+00    2.8502623562004694E+00    8.4235155574488658E+00
N   -1.6077593807966721E+00    2.8495916554286032E+00    1.0412565662370659E+01
Ga   -1.6320024134590116E+00    4.7071324887884272E+00    1.1062468894646027E+01
N   -1.6498617710871442E+00    4.7168827718032320E+00    1.3050025725719479E+01
Ga   -1.6072680915005504E+00    2.8484658535422689E+00    1.3614599763063273E+01
N   -1.6325421883876650E+00    2.8312128917692827E+00    1.5569948353363891E+01
Ga   -1.4535365685960029E+00    4.6032336881453668E+00    1.6480910609663013E+01
N   -1.4689354228211125E-02    3.7725762417789226E+00    1.7627398619856752E+01
N   -3.2317239774752649E+00    7.5970957666070698E+00    2.5101922490641018E+00
Ga   -3.2347592448015674E+00    5.6149515652242163E+00    2.8564865607791412E+00
N   -3.2197380149128181E+00    5.6201103485815098E+00    4.9993421169671883E+00
Ga   -3.2219751923378217E+00    7.4534924694299409E+00    5.7859982125893037E+00
N   -3.2266678906083910E+00    7.4706085356374414E+00    7.7774513394811082E+00
Ga   -3.2220974165737286E+00    5.6282225287443888E+00    8.4410089006717186E+00
N   -3.2257979597345985E+00    5.6276619802806866E+00    1.0407755031449710E+01
Ga   -3.2238279551104951E+00    7.4673227055676472E+00    1.1065629821130164E+01
N   -3.2256798306263881E+00    7.4471348357158602E+00    1.3052664117835876E+01
Ga   -3.2248155926128654E+00    5.6274232317174704E+00    1.3870339452605753E+01
N   -3.2259230555384506E+00    5.6269182572581329E+00    1.6058634135860313E+01
Ga   -3.2262480712105503E+00    7.6749730851353144E+00    1.6483156879187263E+01
Ga   -3.2395431281682292E+00    9.3378731105936392E+00    1.4832430350475545E+00
N   -4.7416290269340857E+00    1.0209178299174310E+01    2.5163559693729307E+00
Ga   -4.9340333056776977E+00    8.3555702088963155E+00    3.2883976231820244E+00
N   -4.8317207635839727E+00    8.4126016797900665E+00    5.2467386848002562E+00
Ga   -4.8563773391901295E+00    1.0284520296518620E+01    5.7942114527118385E+00
N   -4.8459788519100595E+00    1.0275685835379280E+01    7.7830652490901437E+00
Ga   -4.8194690371618734E+00    8.4202352036403703E+00    8.4369496318722490E+00
N   -4.8209348675710046E+00    8.4207260801656698E+00    1.0421779087788963E+01
Ga   -4.8481643355413491E+00    1.0280464232752802E+01    1.1066873643414196E+01
N   -4.8659952710563417E+00    1.0288330332332356E+01    1.3052982327606710E+01
Ga   -4.8226696497413428E+00    8.4192159658497960E+00    1.3617024801972265E+01
N   -4.8503704348520316E+00    8.4044454770762353E+00    1.5572551604586161E+01
Ga   -4.6649456805168699E+00    1.0172284769011009E+01    1.6482201667388598E+01
N   -3.2263034799764592E+00    9.3365637236674672E+00    1.7631779428698181E+01
N    3.1821511835304763E+00    1.9220763346398255E+00    2.5625934876627952E+00
Ga    3.1872969432537417E+00    1.8062539357412491E-01    3.2641091062987435E+00
N    3.2008790886936382E+00    6.3537258608348385E-02    5.2243010188602534E+00
Ga    3.1869797275219494E+00    1.9243300952539131E+00    5.8444891416418017E+00
N    3.2003094043507567E+00    1.9167912305937260E+00    7.8193916564650268E+00
Ga    3.2044423753177562E+00    4.8637323512184645E-02    8.4221478501678426E+00
N    3.2049380412866371E+00    4.5536873130483664E-02    1.0411404772533780E+01
Ga    3.2037683589209651E+00    1.9131549482060652E+00    1.1020630281085497E+01
N    3.2045717966825022E+00    1.9131120124040386E+00    1.2985651957953849E+01
Ga    3.2060477329603247E+00    4.3900891598979377E-02    1.3616160287393264E+01
N    3.2065609085840214E+00    7.4796898021968053E-02    1.5570755206445847E+01
Ga    3.2045263808367994E+00    1.9129413540351092E+00    1.5849775738003014E+01
N    1.6538725279350328E+00    4.7179593682067704E+00    2.5350296530743264E+00
Ga    1.6349143261833317E+00    2.8025394787796052E+00    3.1677356986458687E+00
N    1.5914494363665130E+00    2.8524241293267001E+00    5.1705288378102860E+00
Ga    1.6209667205787057E+00    4.7099326897058029E+00    5.7763731834393264E+00
N    1.6093169704581785E+00    4.7057874751400055E+00    7.7699417124867072E+00
Ga    1.5905565531659183E+00    2.8513286391726393E+00    8.4312598027778147E+00
N    1.5869037846206144E+00    2.8505311447072601E+00    1.0416951034155394E+01
Ga    1.6130580886029542E+00    4.7087093981580841E+00    1.1064025121408303E+01
N    1.6293626370914616E+00    4.7174115407589126E+00    1.3050418901811717E+01
Ga    1.5858273119326747E+00    2.8488822970773700E+00    1.3613989942981199E+01
N    1.6130337501906788E+00    2.8325168827245193E+00    1.5568641085508345E+01
Ga    1.4291743510633539E+00    4.6004759191017790E+00    1.6479936592902057E+01
N   -6.8314223399494689E-03    7.4627400433478961E+00    2.5626126381438130E+00
Ga   -5.1366642047630121E-03    5.6807406033932359E+00    3.1531248413778177E+00
N   -2.6554620982410538E-04    5.6127147776146549E+00    5.1581868426178188E+00
Ga   -8.8439144073106744E-03    7.4592844446702484E+00    5.8379581121213677E+00
N   -1.0974500910453785E-02    7.4776577924789009E+00    7.8142480273768156E+00
Ga   -6.3417149917811147E-03    5.6173020950741330E+00    8.4289111463625943E+00
N   -9.3542004711411175E-03    5.6146202388244770E+00    1.0414878617201543E+01
Ga   -1.3541459505134777E-02    7.4835606106498895E+00    1.1018371979747373E+01
N   -1.2199616733952512E-02    7.4836223555868360E+00    1.2982682031872168E+01
Ga   -1.0309098894919403E-02    5.6142687863623824E+00    1.3613271694697101E+01
N   -8.6630118906698660E-03    5.6440433232867324E+00    1.5568940095988618E+01
Ga   -1.3512113726979946E-02    7.4811456287855496E+00    1.5853880581775101E+01
N   -1.7365480851633810E+00    1.0200872649108312E+01    2.5101105643172237E+00
Ga   -1.5176495543733934E+00    8.3332860745076793E+00    3.2573448798311793E+00
N   -1.6131914645721994E+00    8.4021347410671350E+00    5.2189351456991790E+00
Ga   -1.6005968422308912E+00    1.0277430372274537E+01    5.7751038139047628E+00
N   -1.6136324559203112E+00    1.0272410384650374E+01    7.7693567167368798E+00
Ga   -1.6267736324838826E+00    8.4152173986038061E+00    8.4191143319460213E+00
N   -1.6298286747806785E+00    8.4188099683921251E+00    1.0408678144922183E+01
Ga   -1.6067992920752892E+00    1.0276661928467231E+01    1.1061882666619583E+01
N   -1.5881324273994164E+00    1.0286926474475671E+01    1.3049595821892082E+01
Ga   -1.6293920834495370E+00    8.4191772319269624E+00    1.3616123732973488E+01
N   -1.6019524952262429E+00    8.4050755925771750E+00    1.5571808964916237E+01
Ga   -1.7874269375312690E+00    1.0172320023753651E+01    1.6483458747900787E+01
N    6.4133217755536283E+00    2.0331207691507207E+00    2.5155740024556570E+00
Ga    6.4105740195694887E+00    4.9169450174673779E-02    2.8421045224332153E+00
N    6.4164658966672157E+00    5.2572134977839156E-02    5.0009974272408355E+00
Ga    6.4102391016981892E+00    1.8786211286715293E+00    5.7958204361216668E+00
N    6.4169024932125138E+00    1.9010940242471266E+00    7.7861567688286613E+00
Ga    6.4139390229412330E+00    5.4028580723413773E-02    8.4367315356845385E+00
N    6.4177272825711622E+00    5.6530305581629449E-02    1.0405261245645153E+01
Ga    6.4170523732679534E+00    1.8945139153123296E+00    1.1069430753655404E+01
N    6.4200128029708452E+00    1.8759545703041804E+00    1.3055251225772693E+01
Ga    6.4176333562319119E+00    5.6570195296545583E-02    1.3870756200074611E+01
N    6.4200962575403802E+00    5.6062140599643533E-02    1.6058663953414303E+01
Ga    6.4207543091227990E+00    2.1073950859618966E+00    1.6481372789728258E+01
Ga    6.4179159734052380E+00    3.7788915033248780E+00    1.4915443609011227E+00
N    4.9488383954979316E+00    4.6401381152333689E+00    2.5520948409968782E+00
Ga    4.6960181593302028E+00    2.7821408210699312E+00    3.2751158287352031E+00
N    4.8067915443842653E+00    2.8412751642171994E+00    5.2348161608086459E+00
Ga    4.8105615148319618E+00    4.7068757769128684E+00    5.8187388430087896E+00
N    4.8110450322359526E+00    4.7029972236008506E+00    7.7992754630105088E+00
Ga    4.8175285834455881E+00    2.8431575351979479E+00    8.4327500394805064E+00
N    4.8217904589519875E+00    2.8473682020857898E+00    1.0419403895266466E+01
Ga    4.7970939276135836E+00    4.7068073082628414E+00    1.1066160284326953E+01
N    4.7810637979894715E+00    4.7167621545039218E+00    1.3053334672011580E+01
Ga    4.8229036248858996E+00    2.8481744193063085E+00    1.3616660435223210E+01
N    4.7966030936658601E+00    2.8318415631565110E+00    1.5571339039607603E+01
Ga    4.9816349662934840E+00    4.5999413919091046E+00    1.6481696792977143E+01
N    6.4254564242076313E+00    3.7716649239131299E+00    1.7628789540791768E+01
N    3.2258814332939356E+00    7.6276840882156787E+00    2.5552793491562009E+00
Ga    3.3108986616104144E+00    5.6850745646177270E+00    3.0053534401111341E+00
N    3.2356546643174604E+00    5.6436918864038068E+00    5.0635302062576280E+00
Ga    3.2118577659192886E+00    7.4753221424300103E+00    5.8203547127180038E+00
N    3.2067845190672406E+00    7.4804542191514365E+00    7.8005400806699994E+00
Ga    3.2063789293194218E+00    5.6281796241567328E+00    8.4369228718563356E+00
N    3.2055875651517156E+00    5.6278212375219763E+00    1.0405497129489149E+01
Ga    3.2028006009722794E+00    7.4665281409082036E+00    1.1065427553544458E+01
N    3.2043231766996625E+00    7.4461258970022985E+00    1.3053433901467088E+01
Ga    3.2047196831929048E+00    5.6248610293968611E+00    1.3869041215215718E+01
N    3.2050153958080987E+00    5.6255852452861568E+00    1.6057518433606962E+01
Ga    3.2051163979996358E+00    7.6680934034514543E+00    1.6469024470192110E+01
Ga    3.2182943755864786E+00    9.3329481471522939E+00    1.4974671801997916E+00
N    1.7010347829001440E+00    1.0203573264557711E+01    2.5164847139223498E+00
Ga    1.4929220476330840E+00    8.3434424096281941E+00    3.2767050558089901E+00
N    1.5958028040044765E+00    8.4068421369857163E+00    5.2360208051694856E+00
Ga    1.5619562104559002E+00    1.0277084685738027E+01    5.7970102807306993E+00
N    1.5827553992817898E+00    1.0273452544372260E+01    7.7871827415815442E+00
Ga    1.5984968065209011E+00    8.4164477572994034E+00    8.4312913115971568E+00
N    1.6045628215821477E+00    8.4185783010787478E+00    1.0418128543558616E+01
Ga    1.5763203367667891E+00    1.0276787865470498E+01    1.1068901701181129E+01
N    1.5626987736231523E+00    1.0287530393810934E+01    1.3055629214396554E+01
Ga    1.6063466823625359E+00    8.4169868400491303E+00    1.3613389116067239E+01
N    1.5778250701978431E+00    8.3999478777589083E+00    1.5571321452834429E+01
Ga    1.7566204248018338E+00    1.0176689849786166E+01    1.6469197341311951E+01
N    3.2050025143066612E+00    9.3407414832291913E+00    1.7588866325877245E+01
N    9.6609831055785111E+00    1.9271843420419139E+00    2.6284106271197794E+00
Ga    9.6278301628795759E+00    1.6685119338210933E-01    3.2915178921966253E+00
N    9.6295068915212862E+00    5.6911019781626729E-02    5.2522911283130398E+00
Ga    9.6135593054972297E+00    1.9006972133392819E+00    5.9108447911037372E+00
N    9.6291229228295894E+00    1.9097302324696768E+00    7.8646052867538465E+00
Ga    9.6319742244374087E+00    4.0338390946113745E-02    8.4491842289111609E+00
N    9.6345762220275599E+00    4.1561490918846561E-02    1.0429993436417647E+01
Ga    9.6375273305280977E+00    1.9154986818537403E+00    1.1020427847516551E+01
N    9.6379802623082345E+00    1.9145341223812746E+00    1.2984629943145407E+01
Ga    9.6365385244802333E+00    4.5474999443841438E-02    1.3613572768379912E+01
N    9.6371350266072184E+00    7.8959220991705645E-02    1.5571612119008549E+01
Ga    9.6388613235447878E+00    1.9162109666514135E+00    1.5854311880727092E+01
N    7.9292929597160242E+00    4.6280429857301675E+00    2.5246221110102494E+00
Ga    8.1188371853206132E+00    2.7765509911855517E+00    3.2877430219678603E+00
N    8.0250261911829668E+00    2.8334017267499756E+00    5.2486544479134833E+00
Ga    8.0635985114626667E+00    4.7059693503520004E+00    5.8045855378056528E+00
N    8.0446504111027224E+00    4.7014545631745213E+00    7.7925017368696601E+00
Ga    8.0117604446211352E+00    2.8476468893935332E+00    8.4472932374086795E+00
N    8.0137321091106113E+00    2.8493654771956449E+00    1.0428449520186108E+01
Ga    8.0466819621044117E+00    4.7085897199480504E+00    1.1072095169478011E+01
N    8.0626145953896557E+00    4.7175689579645788E+00    1.3057555612041702E+01
Ga    8.0185505412733953E+00    2.8472999518051352E+00    1.3616711293808258E+01
N    8.0447595522396771E+00    2.8299139158982736E+00    1.5572435602095148E+01
Ga    7.8643719241438195E+00    4.6024393455870909E+00    1.6481652313029784E+01
N    6.4194183759175951E+00    7.4821761930936130E+00    2.6202774187686604E+00
Ga    6.4483596443979865E+00    5.7404991647531736E+00    3.3040114489293879E+00
N    6.4354611835054332E+00    5.6309341154668022E+00    5.2614767814019325E+00
Ga    6.4299580050145542E+00    7.4868286561844926E+00    5.8909437666393716E+00
N    6.4241174984410137E+00    7.4857393110363697E+00    7.8542880853481805E+00
Ga    6.4283970239332344E+00    5.6166487830940213E+00    8.4451292158897395E+00
N    6.4231914316327217E+00    5.6144499217300661E+00    1.0427509312371951E+01
Ga    6.4238367865780104E+00    7.4851542415091084E+00    1.1025346098254735E+01
N    6.4222187635750876E+00    7.4842896415122810E+00    1.2988482216015520E+01
Ga    6.4209659359211466E+00    5.6142867937001757E+00    1.3617074358124169E+01
N    6.4193490994768059E+00    5.6445526107318864E+00    1.5572623111947038E+01
Ga    6.4246120795879840E+00    7.4820650117623515E+00    1.5853875874450404E+01
N    4.7043978672928821E+00    1.0215255911770882E+01    2.5343673543659264E+00
Ga    4.9274362696485063E+00    8.3765587741549865E+00    3.3104609985695181E+00
N    4.8247729292314627E+00    8.4208990170686011E+00    5.2665754224022807E+00
Ga    4.8363229774641896E+00    1.0292618081114590E+01    5.8120763577625949E+00
N    4.8218517556934435E+00    1.0281394061555018E+01    7.7982636981978404E+00
Ga    4.8069371816407278E+00    8.4235579286412055E+00    8.4468819184894048E+00
N    4.8028745954520460E+00    8.4208033657934163E+00    1.0428784188125670E+01
Ga    4.8295502020083001E+00    1.0280167179688103E+01    1.1072847668827421E+01
N    4.8464164103634992E+00    1.0288880267081455E+01    1.3058096438991740E+01
Ga    4.8023966026674172E+00    8.4179090597937929E+00    1.3614396196625064E+01
N    4.8324670432455141E+00    8.3999208151559746E+00    1.5572121447214718E+01
Ga    4.6532408530436564E+00    1.0176577266592512E+01    1.6468147101752621E+01
O    1.3380469039711745E-01    3.5008871022705437E+00   -3.8938268620715155E-01
H    1.6650574373443587E+00    4.7025252748193358E+00    1.4968758428292066E+00
C    7.4768497860713901E-01    2.2536268771831676E+00   -8.1131084017112931E-01
H    1.8206895481274374E+00    2.2430784389091194E+00   -5.6711994028655899E-01
H    2.8711824776643857E-01    1.3758012301078990E+00   -3.2831985801374319E-01
H    6.0764491046549585E-01    2.1638277082989354E+00   -1.8984888327700165E+00
     &END COORD
     &KIND C
       BASIS_SET DZVP-MOLOPT-SR-GTH-q4
       POTENTIAL GTH-PBE-q4
       &POTENTIAL
 2 2
  0.3384712400000000E+00 2 -0.8803673979999999E+01  0.1339210850000000E+01
 2
  0.3025757500000000E+00 1  0.9622486650000001E+01
  0.2915069400000000E+00 0
         # Potential name:  GTH-PBE-Q4  for symbol:  C
         # Potential read from the potential filename: GTH_POTENTIALS
       &END POTENTIAL
     &END KIND
     &KIND O
       BASIS_SET DZVP-MOLOPT-SR-GTH-q6
       POTENTIAL GTH-PBE-q6
       &POTENTIAL
 2 4
  0.2445543000000000E+00 2 -0.1666721480000000E+02  0.2487311320000000E+01
 2
  0.2209559200000000E+00 1  0.1833745811000000E+02
  0.2113324700000000E+00 0
         # Potential name:  GTH-PBE-Q6  for symbol:  O
         # Potential read from the potential filename: GTH_POTENTIALS
       &END POTENTIAL
     &END KIND
     &KIND H
       BASIS_SET DZVP-MOLOPT-SR-GTH-q1
       POTENTIAL GTH-PBE-q1
       &POTENTIAL
 1
  0.2000000000000000E+00 2 -0.4178900440000000E+01  0.7244633100000000E+00
 0
         # Potential name:  GTH-PBE-Q1  for symbol:  H
         # Potential read from the potential filename: GTH_POTENTIALS
       &END POTENTIAL
     &END KIND
     &KIND N
       BASIS_SET DZVP-MOLOPT-SR-GTH
       POTENTIAL GTH-PBE-q5
       &POTENTIAL
 2 3
  0.2837905100000000E+00 2 -0.1241522559000000E+02  0.1868095920000000E+01
 2
  0.2554050000000000E+00 1  0.1363026257000000E+02
  0.2454945300000000E+00 0
         # Potential name:  GTH-PBE-Q5  for symbol:  N
         # Potential read from the potential filename: GTH_POTENTIALS
       &END POTENTIAL
     &END KIND
     &KIND Ga
       BASIS_SET DZVP-MOLOPT-SR-GTH
       POTENTIAL GTH-PBE-q13
       &POTENTIAL
 2 1 10
  0.4900000000000000E+00 0
 3
  0.4167772300000000E+00 3  0.1047568975000000E+02 -0.4921768140000000E+01  0.8707055900000000E+00
  0.7770178090000000E+01 -0.2248152160000000E+01
  0.1784415450000000E+01
  0.5696265200000000E+00 2  0.1777985340000000E+01  0.1958597600000000E+00
 -0.2317443900000000E+00
  0.2381265000000000E+00 1 -0.1624868022000000E+02
         # Potential name:  GTH-PBE-Q13  for symbol:  GA
         # Potential read from the potential filename: GTH_POTENTIALS
       &END POTENTIAL
     &END KIND
     &TOPOLOGY
       NUMBER_OF_ATOMS  206
       MULTIPLE_UNIT_CELL  1 1 1
     &END TOPOLOGY
   &END SUBSYS
 &END FORCE_EVAL
