#p

 i =      110, E =     -8480.5357050094

0 1 
  N         0.0075104682        2.0229373366        2.4932480679
 Ga         0.0076459785        0.0466998321        2.8261343046
  N         0.0104566464        0.0456121858        4.9823691286
 Ga         0.0133149926        1.8753951913        5.7626441540
  N         0.0103765619        1.8908740723        7.7591945469
 Ga         0.0097377202        0.0453555329        8.4065457082
  N         0.0095560629        0.0455242064       10.3811504908
 Ga         0.0092207983        1.8861657205       11.0308577262
  N         0.0089334350        1.8676663816       13.0238948691
 Ga         0.0045165959        0.0512330109       13.8256991938
  N         0.0033515144        0.0505360121       16.0329549248
 Ga         0.0084089063        2.1069969087       16.4638779194
 Ga        -0.0144107028        3.7387921232        1.4448419192
  N        -1.4940836678        4.6235487802        2.4917768472
 Ga        -1.6989468625        2.7719735777        3.2608991401
  N        -1.6001154493        2.8291398014        5.2202778610
 Ga        -1.6195904093        4.7030847103        5.7624112945
  N        -1.6080965275        4.6939121826        7.7588535699
 Ga        -1.5875677763        2.8370561916        8.4000812704
  N        -1.5880233345        2.8371442464       10.3928934491
 Ga        -1.6127071173        4.6958735817       11.0311520736
  N        -1.6294088863        4.7052765115       13.0241846665
 Ga        -1.5877229559        2.8375884426       13.5858569344
  N        -1.6159089206        2.8212231749       15.5447607995
 Ga        -1.4226642781        4.5854694433       16.4639370772
  N         0.0089220577        3.7595508547       17.6135157757
  N        -3.2061138661        7.5945188280        2.4853524033
 Ga        -3.2051552587        5.6122301633        2.8234337636
  N        -3.2057656230        5.6150655954        4.9805828433
 Ga        -3.2062408981        7.4440271228        5.7591585336
  N        -3.2068411323        7.4623128310        7.7567452099
 Ga        -3.2062790640        5.6165788777        8.4066632206
  N        -3.2065666089        5.6163389835       10.3811514878
 Ga        -3.2069988386        7.4551709373       11.0311475960
  N        -3.2067054925        7.4353330546       13.0291345255
 Ga        -3.2049558961        5.6094280607       13.8268487213
  N        -3.2057327600        5.6089967359       16.0331194246
 Ga        -3.2063397658        7.6255575764       16.4182820370
 Ga        -3.2060149263        9.3318372847        1.4602864776
  N        -4.7086434968       10.1954965915        2.4880519911
 Ga        -4.9196153410        8.3393702512        3.2460888075
  N        -4.8178494257        8.3982912582        5.2088925117
 Ga        -4.8394381071       10.2708819467        5.7609570838
  N        -4.8241568716       10.2623769231        7.7580099481
 Ga        -4.8051955189        8.4063933745        8.4000545075
  N        -4.8039171661        8.4074454840       10.3947485380
 Ga        -4.8299956084       10.2669626565       11.0304578559
  N        -4.8474418775       10.2774876412       13.0285617867
 Ga        -4.8035793178        8.4083133107       13.5795708867
  N        -4.8269588009        8.3952332553       15.5517757994
 Ga        -4.6823521502       10.1831534881       16.4183249300
  N        -3.2143740890        9.3255367999       17.5399749474
  N         3.2270937377        1.9052233373        2.5712113166
 Ga         3.2258176210        0.1629699733        3.2525538872
  N         3.2259543547        0.0469208624        5.2141214929
 Ga         3.2251821440        1.9057574138        5.8367176031
  N         3.2252635557        1.9022519759        7.8105886792
 Ga         3.2252361454        0.0345581035        8.3979038672
  N         3.2249819160        0.0325808137       10.3928207346
 Ga         3.2243959559        1.9024518647       10.9877332033
  N         3.2255906389        1.9009921442       12.9613890577
 Ga         3.2255589518        0.0337078472       13.5793356046
  N         3.2275786873        0.0596375630       15.5502685548
 Ga         3.2241591342        1.9057271237       15.8258821094
  N         1.4970404503        4.6231614531        2.4534479209
 Ga         1.7184381080        2.7822630913        3.2456747036
  N         1.6185734208        2.8330793920        5.2084511923
 Ga         1.6582313900        4.7101850623        5.7569174553
  N         1.6251111439        4.6918124893        7.7614016684
 Ga         1.6080485155        2.8378374722        8.3999621904
  N         1.6063376491        2.8368650299       10.3937494425
 Ga         1.6322737094        4.6964905023       11.0314238064
  N         1.6483575011        4.7059285889       13.0254268519
 Ga         1.6057079389        2.8380738517       13.5858783393
  N         1.6339226871        2.8195787835       15.5446931105
 Ga         1.4430116868        4.5873075715       16.4636747910
  N         0.0179159302        7.4686966298        2.5593349019
 Ga         0.0165102610        5.7258845207        3.2478854930
  N         0.0121155399        5.6157302071        5.2092403292
 Ga         0.0128675131        7.4701352216        5.8382830496
  N         0.0093896249        7.4721498268        7.8113728386
 Ga         0.0109370045        5.6036673429        8.4001723763
  N         0.0089322177        5.6038119474       10.3938546566
 Ga         0.0086485691        7.4724733375       10.9878753220
  N         0.0079390009        7.4742019744       12.9616355653
 Ga         0.0093950023        5.6027123343       13.5862116990
  N         0.0076334420        5.6370187804       15.5450042767
 Ga         0.0106962388        7.4710485450       15.8260375065
  N        -1.7039116262       10.1957564320        2.4885805852
 Ga        -1.4926891802        8.3395188033        3.2465206299
  N        -1.5945648511        8.3982791404        5.2092797757
 Ga        -1.5730654849       10.2709305208        5.7610272348
  N        -1.5894072551       10.2624715521        7.7580036386
 Ga        -1.6079510240        8.4059239721        8.3989069175
  N        -1.6106291453        8.4074789294       10.3934674187
 Ga        -1.5844635685       10.2667151143       11.0291703700
  N        -1.5669259995       10.2768856172       13.0269870695
 Ga        -1.6092645018        8.4079734234       13.5793976007
  N        -1.5859737142        8.3971324237       15.5504270429
 Ga        -1.7383308340       10.1782728826       16.4187788986
  N         6.4449848871        2.0229489076        2.4933773029
 Ga         6.4443919834        0.0461380635        2.8266716347
  N         6.4419417734        0.0455396169        4.9824984569
 Ga         6.4399144184        1.8747659926        5.7643368415
  N         6.4413496256        1.8906557379        7.7605335824
 Ga         6.4411639182        0.0449125525        8.4065652625
  N         6.4411648817        0.0452154997       10.3811777112
 Ga         6.4406418703        1.8858244089       11.0297464428
  N         6.4417058527        1.8669904116       13.0241230229
 Ga         6.4452452113        0.0484023026       13.8215995733
  N         6.4454092601        0.0479156362       16.0321714315
 Ga         6.4431887574        2.0931172491       16.4463914149
 Ga         6.4583022481        3.7436608231        1.4553184464
  N         4.9609002414        4.6199128231        2.4740423310
 Ga         4.7342064800        2.7791164112        3.2529828894
  N         4.8340050018        2.8313824374        5.2136395068
 Ga         4.7954841289        4.7098396654        5.7580466959
  N         4.8263573811        4.6918749695        7.7625320580
 Ga         4.8427638578        2.8377149761        8.3997765743
  N         4.8434321945        2.8366152436       10.3942833664
 Ga         4.8176957594        4.6963324326       11.0314471415
  N         4.8013759331        4.7062211290       13.0273016808
 Ga         4.8447457967        2.8374624092       13.5829625999
  N         4.8192491204        2.8175543288       15.5461807076
 Ga         4.9897142613        4.5976918558       16.4456476590
  N         6.4321046585        3.7613100737       17.5826710256
  N         3.2254733126        7.6124137314        2.4703007519
 Ga         3.2331211805        5.6114092662        2.5686812990
  N         3.2273108029        5.6146001583        4.9904962611
 Ga         3.2267609489        7.4264756908        5.7561548828
  N         3.2258710769        7.4639552062        7.7614185962
 Ga         3.2254759530        5.6160297688        8.4038991148
  N         3.2253382274        5.6159827573       10.3812487907
 Ga         3.2248136129        7.4547227728       11.0315489596
  N         3.2251018572        7.4361311395       13.0275630860
 Ga         3.2226776188        5.6144840427       13.8338093407
  N         3.2230670457        5.6145122945       16.0326349711
 Ga         3.2255291614        7.6505593730       16.4433806234
 Ga         3.2246189262        9.3624891002        1.4473416906
  N         1.7230079147       10.2010061039        2.4975594640
 Ga         1.5268701607        8.3395301852        3.2515037987
  N         1.6180653358        8.3990487004        5.2126180226
 Ga         1.5930294721       10.2688212970        5.7633224434
  N         1.6070919415       10.2629490617        7.7598810483
 Ga         1.6285450282        8.4054747183        8.3995843476
  N         1.6274233565        8.4070106098       10.3942542833
 Ga         1.6028483728       10.2657826855       11.0295835943
  N         1.5864748199       10.2764235069       13.0242585615
 Ga         1.6283934005        8.4082691624       13.5827038054
  N         1.5987037703        8.3958494007       15.5464681577
 Ga         1.7817539154       10.1649884601       16.4443338109
  N         3.2223089136        9.3197492923       17.5787573951
  N         9.6591715916        1.9014404351        2.5752374575
 Ga         9.6591242170        0.1620485738        3.2626645818
  N         9.6585985956        0.0475873026        5.2219051669
 Ga         9.6582360436        1.9022086374        5.8472661695
  N         9.6579229539        1.9022354476        7.8172038803
 Ga         9.6577266894        0.0326337312        8.3999680542
  N         9.6575273290        0.0325394567       10.3931209120
 Ga         9.6572458564        1.9023506723       10.9870352573
  N         9.6573321326        1.9022831179       12.9594249172
 Ga         9.6576470604        0.0338087881       13.5818195058
  N         9.6575892358        0.0636800453       15.5438316168
 Ga         9.6589456535        1.9035793576       15.8223835490
  N         7.9472855434        4.6239564899        2.4906847050
 Ga         8.1525250532        2.7718701959        3.2598388299
  N         8.0524417101        2.8293174364        5.2197228728
 Ga         8.0738714108        4.7025773777        5.7647392173
  N         8.0599303675        4.6934601682        7.7606661517
 Ga         8.0391494056        2.8366556507        8.4010373342
  N         8.0380388880        2.8374287622       10.3937283801
 Ga         8.0641136777        4.6964658927       11.0306159320
  N         8.0812085842        4.7055359372       13.0248780356
 Ga         8.0393083344        2.8371077806       13.5820552242
  N         8.0652723533        2.8217933709       15.5435419297
 Ga         7.8844738522        4.5903361308       16.4472028171
  N         6.4345516105        7.4664244171        2.5587080718
 Ga         6.4410717057        5.7263341809        3.2562687945
  N         6.4427455197        5.6165722234        5.2150953928
 Ga         6.4394994169        7.4713397670        5.8406971073
  N         6.4418952805        7.4726114415        7.8133293060
 Ga         6.4403485586        5.6035957879        8.4008322248
  N         6.4415885885        5.6037642217       10.3950911024
 Ga         6.4406623218        7.4727184809       10.9881491550
  N         6.4426626724        7.4738084996       12.9625053783
 Ga         6.4418991860        5.6026478426       13.5829545462
  N         6.4463129753        5.6358558600       15.5456034283
 Ga         6.4402874093        7.4724985161       15.8274413551
  N         4.7294086971       10.2006480947        2.4953667159
 Ga         4.9262262373        8.3411006333        3.2502543883
  N         4.8351086681        8.3993113665        5.2118105671
 Ga         4.8596073335       10.2690193907        5.7635990190
  N         4.8440315276       10.2628777119        7.7601325653
 Ga         4.8223739894        8.4057771986        8.4006501956
  N         4.8224783096        8.4075250360       10.3951006463
 Ga         4.8480085195       10.2666186680       11.0302544420
  N         4.8644498849       10.2769376153       13.0247727803
 Ga         4.8219432574        8.4086466792       13.5822777301
  N         4.8522643799        8.3959530612       15.5453994729
 Ga         4.6676989375       10.1643477844       16.4448917414
  O         3.2143758807        5.5739311763        0.2045253060
  H         2.3094435774        5.8560297390       -0.0142093464
  C         4.1640361203        6.4061688376       -0.5031887004
  H         3.7886602846        7.4338391530       -0.6264471992
  H         5.0770465470        6.4511573654        0.1064136470
  H         4.3817349402        5.9751324158       -1.4897793497

