#p

title

0 1
 N                  0.02063389    2.02827309    2.47584382
 Ga                 0.02027824    0.04798839    2.80397285
 N                  0.02031485    0.04733874    4.96931357
 Ga                 0.02036180    1.87480694    5.75252748
 N                  0.02016969    1.89319317    7.74921728
 Ga                 0.01962537    0.04756000    8.39736708
 N                  0.01957219    0.04765671   10.37131899
 Ga                 0.01963921    1.88687056   11.02145390
 N                  0.01921554    1.86750726   13.01808722
 Ga                 0.01664940    0.04278248   13.81655493
 N                  0.01867316    0.04273782   16.02236357
 Ga                 0.01874611    2.06435267   16.41231527
 Ga                 0.02029301    3.76203934    1.44010883
 N                 -1.48064482    4.62806418    2.47627196
 Ga                -1.68533162    2.77610650    3.24107067
 N                 -1.58845909    2.83193811    5.20452239
 Ga                -1.61306065    4.70376139    5.75235933
 N                 -1.59789135    4.69528232    7.74908121
 Ga                -1.57839255    2.83831210    8.38888481
 N                 -1.57680401    2.83923383   10.38306116
 Ga                -1.60290017    4.69821566   11.02008863
 N                 -1.62023432    4.70846436   13.01622361
 Ga                -1.57856907    2.83955489   13.56963606
 N                 -1.60261481    2.82764487   15.53808665
 Ga                -1.44357579    4.60650924   16.41251311
 N                  0.02845839    3.75873286   17.53193002
 N                 -3.19576632    7.59881261    2.47584094
 Ga                -3.19575107    5.61822094    2.80413326
 N                 -3.19584006    5.61771701    4.96911980
 Ga                -3.19609733    7.44539175    5.75215148
 N                 -3.19619327    7.46365778    7.74860603
 Ga                -3.19646700    5.61816815    8.39694821
 N                 -3.19613545    5.61810540   10.37101135
 Ga                -3.19655344    7.45843188   11.01983915
 N                 -3.19673879    7.43960028   13.01429228
 Ga                -3.20022213    5.61924838   13.81198471
 N                 -3.19927937    5.61881703   16.02205708
 Ga                -3.19782255    7.65823248   16.42974020
 Ga                -3.19585569    9.33288156    1.44124688
 N                 -4.69681822   10.19870628    2.47639743
 Ga                -4.90197085    8.34657170    3.24097999
 N                 -4.80492418    8.40262082    5.20425932
 Ga                -4.82933631   10.27453822    5.75221270
 N                 -4.81405932   10.26597275    7.74874200
 Ga                -4.79490788    8.40894505    8.38825601
 N                 -4.79344694    8.40991062   10.38184989
 Ga                -4.81911145   10.26858658   11.02046554
 N                 -4.83630000   10.27826819   13.01482890
 Ga                -4.79464638    8.40960830   13.57152133
 N                 -4.81921311    8.39571273   15.53422707
 Ga                -4.64575205   10.16767483   16.42984147
 N                 -3.18648259    9.33424127   17.56057077
 N                  3.23669883    1.90448115    2.56520065
 Ga                 3.23682167    0.16130826    3.24172099
 N                  3.23636744    0.04859981    5.20479804
 Ga                 3.23629964    1.90445851    5.82830678
 N                  3.23617371    1.90448103    7.80166781
 Ga                 3.23616667    0.03635504    8.38908170
 N                  3.23627693    0.03510128   10.38311090
 Ga                 3.23651746    1.90462590   10.97722720
 N                  3.23476224    1.90494698   12.95073067
 Ga                 3.23523863    0.03486544   13.57193830
 N                  3.23115996    0.06618100   15.53549988
 Ga                 3.23644050    1.90476069   15.81622365
 N                  1.52153905    4.62805952    2.47621861
 Ga                 1.72661585    2.77618723    3.24099430
 N                  1.62925404    2.83189054    5.20453544
 Ga                 1.65349224    4.70367387    5.75246340
 N                  1.63784537    4.69512593    7.74919084
 Ga                 1.61848090    2.83840972    8.38955726
 N                  1.61689195    2.83941243   10.38418188
 Ga                 1.64325803    4.69881930   11.02177478
 N                  1.65981509    4.70922212   13.01836452
 Ga                 1.61626978    2.83992939   13.56949227
 N                  1.64028304    2.82517421   15.53944328
 Ga                 1.49088382    4.61257490   16.41122704
 N                  0.02037875    7.47484045    2.56512580
 Ga                 0.02051180    5.73145460    3.24142662
 N                  0.02024624    5.61888406    5.20478446
 Ga                 0.02008594    7.47483097    5.82788112
 N                  0.01990324    7.47484887    7.80123560
 Ga                 0.02002871    5.60696079    8.38895613
 N                  0.02017148    5.60555774   10.38336591
 Ga                 0.02038744    7.47551908   10.97766531
 N                  0.01927795    7.47448616   12.95058215
 Ga                 0.01907386    5.60666510   13.56955036
 N                  0.01636166    5.63454673   15.53803526
 Ga                 0.02063259    7.47819897   15.81550107
 N                 -1.69470936   10.19862148    2.47650339
 Ga                -1.48957393    8.34647560    3.24111926
 N                 -1.58708484    8.40249483    5.20444753
 Ga                -1.56261309   10.27438424    5.75236827
 N                 -1.57822901   10.26582003    7.74874909
 Ga                -1.59777810    8.40906233    8.38903852
 N                 -1.59889965    8.41001625   10.38304277
 Ga                -1.57288247   10.26908130   11.02231004
 N                 -1.55640362   10.27871107   13.01725200
 Ga                -1.59961626    8.40974995   13.57245220
 N                 -1.57527558    8.39174072   15.53684620
 Ga                -1.73858007   10.17485682   16.42879525
 N                  6.45293000    2.02811721    2.47609877
 Ga                 6.45290670    0.04765908    2.80467860
 N                  6.45254942    0.04705305    4.96903487
 Ga                 6.45266359    1.87459518    5.75238483
 N                  6.45244707    1.89291206    7.74869684
 Ga                 6.45231976    0.04757454    8.39783240
 N                  6.45244642    0.04740442   10.37148935
 Ga                 6.45246859    1.88702294   11.02204265
 N                  6.45224659    1.86799710   13.01600022
 Ga                 6.45545482    0.04722479   13.82265988
 N                  6.45510863    0.04728457   16.02175957
 Ga                 6.45210023    2.08685395   16.43589471
 Ga                 6.45264805    3.76173805    1.44103088
 N                  4.95174759    4.62784792    2.47636008
 Ga                 4.74670472    2.77589321    3.24133368
 N                  4.84369303    2.83172799    5.20467964
 Ga                 4.81912795    4.70363599    5.75231601
 N                  4.83433860    4.69503410    7.74872397
 Ga                 4.85423080    2.83824756    8.38929129
 N                  4.85535875    2.83897068   10.38291028
 Ga                 4.82977237    4.69827187   11.02060832
 N                  4.81262047    4.70852517   13.01395119
 Ga                 4.85526869    2.84032629   13.57234659
 N                  4.82503681    2.82631652   15.53363667
 Ga                 5.01086366    4.59478312   16.43637665
 N                  6.45473265    3.75299217   17.57424432
 N                  3.23652777    7.59862734    2.47562916
 Ga                 3.23640178    5.61816291    2.80434224
 N                  3.23633203    5.61748945    4.96915816
 Ga                 3.23626263    7.44517017    5.75223893
 N                  3.23603017    7.46349075    7.74854876
 Ga                 3.23619365    5.61821738    8.39747704
 N                  3.23597422    5.61824832   10.37135184
 Ga                 3.23607664    7.45853054   11.02214453
 N                  3.23576961    7.44034362   13.01467667
 Ga                 3.23988217    5.62305677   13.81840881
 N                  3.24075981    5.62171471   16.02132695
 Ga                 3.23673123    7.67751262   16.45202186
 Ga                 3.23624493    9.33273966    1.44038244
 N                  1.73551197   10.19850667    2.47652836
 Ga                 1.53054639    8.34631734    3.24098721
 N                  1.62737224    8.40229611    5.20437606
 Ga                 1.60310785   10.27422090    5.75217424
 N                  1.61816935   10.26572792    7.74852423
 Ga                 1.63772856    8.40901701    8.38921322
 N                  1.63894071    8.40983791   10.38253253
 Ga                 1.61378461   10.26861153   11.02282033
 N                  1.59705285   10.27808196   13.01546933
 Ga                 1.63909552    8.41035724   13.57707273
 N                  1.60995353    8.39259637   15.53502288
 Ga                 1.80356056   10.15891582   16.45302910
 N                  3.23686678    9.32987497   17.60165565
 N                  9.66933726    1.90426164    2.56509400
 Ga                 9.66932932    0.16095777    3.24151890
 N                  9.66878072    0.04835565    5.20460361
 Ga                 9.66882367    1.90420859    5.82797656
 N                  9.66859433    1.90424762    7.80108393
 Ga                 9.66827527    0.03614214    8.38899709
 N                  9.66823892    0.03500598   10.38222157
 Ga                 9.66844270    1.90397298   10.97758575
 N                  9.66916811    1.90499934   12.95024603
 Ga                 9.66784400    0.03457575   13.57724137
 N                  9.66985519    0.06844210   15.53548680
 Ga                 9.66676072    1.90255724   15.81656670
 N                  7.95391631    4.62784723    2.47621652
 Ga                 8.15926084    2.77576931    3.24100055
 N                  8.06165080    2.83168878    5.20437192
 Ga                 8.08591139    4.70358926    5.75209209
 N                  8.07012563    4.69489161    7.74851244
 Ga                 8.05077973    2.83802905    8.38905104
 N                  8.04955978    2.83858819   10.38260965
 Ga                 8.07420066    4.69770663   11.01960039
 N                  8.09071569    4.70777210   13.01309780
 Ga                 8.04919006    2.83962132   13.57296483
 N                  8.07893474    2.82659268   15.53500928
 Ga                 7.89401736    4.59495593   16.43662853
 N                  6.45275760    7.47476074    2.56497654
 Ga                 6.45282018    5.73145626    3.24141107
 N                  6.45253883    5.61871347    5.20458432
 Ga                 6.45225065    7.47478492    5.82738690
 N                  6.45214891    7.47473273    7.80039787
 Ga                 6.45222855    5.60682104    8.38837095
 N                  6.45213933    5.60566877   10.38173742
 Ga                 6.45193132    7.47507276   10.97705217
 N                  6.45222079    7.47524187   12.94905568
 Ga                 6.45170746    5.60616257   13.57211465
 N                  6.45274180    5.63693518   15.53265255
 Ga                 6.45077600    7.47589151   15.81349827
 N                  4.73770689   10.19846163    2.47602620
 Ga                 4.94252348    8.34635288    3.24068323
 N                  4.84514759    8.40237244    5.20409269
 Ga                 4.86977060   10.27419788    5.75225932
 N                  4.85390873   10.26557506    7.74852907
 Ga                 4.83450935    8.40869147    8.38892042
 N                  4.83310813    8.40959694   10.38212115
 Ga                 4.85793531   10.26817547   11.02183075
 N                  4.87398850   10.27748440   13.01442632
 Ga                 4.83263785    8.40978102   13.57679411
 N                  4.86225059    8.39376717   15.53517798
 Ga                 4.66762340   10.15736906   16.45334226
 O                  3.23137334    5.66778800   -0.13183412
 H                  2.56238111    5.29028094   -0.74857103
 C                  4.01747842    6.64470010   -0.86645541
 H                  3.37709756    7.27845046   -1.49934795
 H                  4.51644560    7.27458831   -0.12246107
 H                  4.76363833    6.12724618   -1.48372151

