 # Version information for this restart file 
 # current date 2019-06-24 17:40:41.832
 # current working dir /scratch/rzk/rzk/GaN-carbene/443-adatoms-both-2x2/02-Methanol/02-O-GaSur
 # Program compiled at                              Sun Apr  7 00:48:11 EDT 2019
 # Program compiled on                          beluga2.int.ets1.calculquebec.ca
 # Program compiled for                        Beluga-Linux-x86-64-intel-openmpi
 # Source code revision number                                         svn:18619
 &GLOBAL
   PRINT_LEVEL  MEDIUM
   PROJECT_NAME TEST
   RUN_TYPE  GEO_OPT
 &END GLOBAL
 &MOTION
   &GEO_OPT
     MAX_ITER  500
     STEP_START_VAL  108
   &END GEO_OPT
 &END MOTION
 &FORCE_EVAL
   METHOD  QS
   STRESS_TENSOR  ANALYTICAL
   &DFT
     BASIS_SET_FILE_NAME BASIS_MOLOPT
     POTENTIAL_FILE_NAME GTH_POTENTIALS
     UKS  T
     SURFACE_DIPOLE_CORRECTION  T
     SURF_DIP_DIR  Z
     &SCF
       MAX_SCF  80
       EPS_SCF     5.0000000000000004E-06
       &OT  T
         PRECONDITIONER  FULL_ALL
       &END OT
       &OUTER_SCF  T
         OPTIMIZER  NONE
         EPS_SCF     5.0000000000000004E-06
         MAX_SCF  4
       &END OUTER_SCF
       &PRINT
         &RESTART  OFF
           BACKUP_COPIES  1
           &EACH
             JUST_ENERGY  0
             QS_SCF  0
             MD  20
           &END EACH
         &END RESTART
       &END PRINT
     &END SCF
     &QS
       EPS_DEFAULT     1.0000000000000000E-14
       METHOD  GPW
     &END QS
     &MGRID
       NGRIDS  5
       CUTOFF     1.2000000000000000E+03
     &END MGRID
     &XC
       DENSITY_CUTOFF     1.0000000000000000E-10
       GRADIENT_CUTOFF     1.0000000000000000E-10
       TAU_CUTOFF     1.0000000000000000E-10
       &XC_FUNCTIONAL  NO_SHORTCUT
         &PBE  T
         &END PBE
       &END XC_FUNCTIONAL
       &VDW_POTENTIAL
         POTENTIAL_TYPE  PAIR_POTENTIAL
         &PAIR_POTENTIAL
           R_CUTOFF     1.0000000000000004E+01
           TYPE  DFTD3
           PARAMETER_FILE_NAME dftd3.dat
           REFERENCE_FUNCTIONAL PBE
           EPS_CN     9.9999999999999995E-07
           CALCULATE_C9_TERM  T
           REFERENCE_C9_TERM  T
           LONG_RANGE_CORRECTION  F
           VERBOSE_OUTPUT  F
         &END PAIR_POTENTIAL
       &END VDW_POTENTIAL
     &END XC
   &END DFT
   &SUBSYS
     &CELL
       A     1.2864472766435110E+01    0.0000000000000000E+00    0.0000000000000000E+00
       B    -6.4322363581020028E+00    1.1140960178524473E+01    0.0000000000000000E+00
       C     0.0000000000000000E+00    0.0000000000000000E+00    3.2000000000000000E+01
       MULTIPLE_UNIT_CELL  1 1 1
       &CELL_REF
         A     1.2982353780853531E+01    0.0000000000000000E+00    0.0000000000000000E+00
         B    -6.4911768904267628E+00    1.1243048175136114E+01    0.0000000000000000E+00
         C     0.0000000000000000E+00    0.0000000000000000E+00    3.2000000000000000E+01
         MULTIPLE_UNIT_CELL  1 1 1
       &END CELL_REF
     &END CELL
     &COORD
N    7.4416739206480068E-03    2.0229418124137597E+00    2.4933761529452454E+00
Ga    7.6402571395878241E-03    4.6731040089087517E-02    2.8261747392327496E+00
N    1.0391133565195490E-02    4.5547533878243708E-02    4.9825005955464299E+00
Ga    1.3233375429575971E-02    1.8752915067896163E+00    5.7628564291608475E+00
N    1.0402807930288667E-02    1.8908433922075008E+00    7.7594393954542316E+00
Ga    9.6614483325582461E-03    4.5242848705964171E-02    8.4065325823345933E+00
N    9.5528812935771271E-03    4.5640299647680946E-02    1.0381124473726118E+01
Ga    9.2884215983119536E-03    1.8862334007459876E+00    1.1030960165130844E+01
N    8.8913700060222773E-03    1.8678992490779223E+00    1.3023856353370698E+01
Ga    4.5934348850318043E-03    5.1599881592600275E-02    1.3825535248242669E+01
N    3.2434493641184951E-03    5.0584994630388701E-02    1.6032828061362654E+01
Ga    8.5667512525449113E-03    2.1072475262884014E+00    1.6463933428826778E+01
Ga   -1.4649309846249639E-02    3.7386592691805398E+00    1.4449369234103266E+00
N   -1.4941449655750099E+00    4.6235535897911344E+00    2.4918785128761423E+00
Ga   -1.6990148495646418E+00    2.7719621847517679E+00    3.2610035536867530E+00
N   -1.6002045342205657E+00    2.8290941348780008E+00    5.2204431192209189E+00
Ga   -1.6197414972227182E+00    4.7030723893536717E+00    5.7626170339275182E+00
N   -1.6080755764716754E+00    4.6939010190009220E+00    7.7591154402145541E+00
Ga   -1.5876572656408052E+00    2.8369560126598312E+00    8.4001543270327677E+00
N   -1.5879646322052046E+00    2.8371415513965146E+00    1.0392949207408499E+01
Ga   -1.6125829090217065E+00    4.6958290631208488E+00    1.1031298617273931E+01
N   -1.6292286287723436E+00    4.7051157450631189E+00    1.3024205838635426E+01
Ga   -1.5877486588549363E+00    2.8375432674644512E+00    1.3586034774501426E+01
N   -1.6158380721432768E+00    2.8212651635745636E+00    1.5544813949443300E+01
Ga   -1.4223473590016749E+00    4.5855314592623913E+00    1.6464036892355814E+01
N    8.9358313811433495E-03    3.7595663461406792E+00    1.7613776678067204E+01
N   -3.2061142589357967E+00    7.5945485114922100E+00    2.4853901496716970E+00
Ga   -3.2052151943740950E+00    5.6122143613732858E+00    2.8234201513511326E+00
N   -3.2058393752658545E+00    5.6150694007353250E+00    4.9807017928218338E+00
Ga   -3.2062559203425476E+00    7.4440454666113620E+00    5.7592700441650262E+00
N   -3.2067808505828777E+00    7.4623378906882643E+00    7.7568882666822203E+00
Ga   -3.2063863987772381E+00    5.6165676601620165E+00    8.4066054018081431E+00
N   -3.2064753948432307E+00    5.6162068159240448E+00    1.0381106390222113E+01
Ga   -3.2068775684270960E+00    7.4551204522321131E+00    1.1030840774525391E+01
N   -3.2066177167440788E+00    7.4352148950366557E+00    1.3029020678671111E+01
Ga   -3.2046024104812831E+00    5.6092360366315237E+00    1.3826924102034914E+01
N   -3.2056798506883011E+00    5.6088652610424701E+00    1.6033177655703309E+01
Ga   -3.2060869022462066E+00    7.6251476159219420E+00    1.6418613469124399E+01
Ga   -3.2060987145826756E+00    9.3318144955484481E+00    1.4603319111674076E+00
N   -4.7086135637925599E+00    1.0195492415841271E+01    2.4881350030564184E+00
Ga   -4.9196530265712024E+00    8.3393499475741493E+00    3.2461177648184862E+00
N   -4.8179337430940867E+00    8.3982344048488695E+00    5.2089279617186879E+00
Ga   -4.8394245490245158E+00    1.0270857904378270E+01    5.7610811714021368E+00
N   -4.8241294664671956E+00    1.0262430626406561E+01    7.7581518957260229E+00
Ga   -4.8052316099010479E+00    8.4063905366196003E+00    8.3998943966911490E+00
N   -4.8038767265632289E+00    8.4074393878831692E+00    1.0394668251461427E+01
Ga   -4.8299450457302209E+00    1.0267069700974506E+01    1.1030064915474062E+01
N   -4.8474299016489457E+00    1.0277569708426135E+01    1.3028339642745737E+01
Ga   -4.8035765827605159E+00    8.4083093159147495E+00    1.3579654360476601E+01
N   -4.8264909673687626E+00    8.3954292716873891E+00    1.5551931856336482E+01
Ga   -4.6824453131765047E+00    1.0183436026678617E+01    1.6418625031867350E+01
N   -3.2143846575156978E+00    9.3254149420253949E+00    1.7540917565223825E+01
N    3.2270833722715739E+00    1.9052128602538532E+00    2.5712020114257319E+00
Ga    3.2258100336900934E+00    1.6302842848150670E-01    3.2525714169789919E+00
N    3.2260051463355439E+00    4.6952601774609685E-02    5.2141594587329880E+00
Ga    3.2252733018200832E+00    1.9058000743915742E+00    5.8368095586135462E+00
N    3.2253274652572768E+00    1.9022155911834879E+00    7.8107238818292082E+00
Ga    3.2253281681118531E+00    3.4498341779282356E-02    8.3978290427780919E+00
N    3.2250547737170527E+00    3.2691656150168273E-02    1.0392754157503594E+01
Ga    3.2243305209168369E+00    1.9025397481039532E+00    1.0987662945847944E+01
N    3.2255042216950072E+00    1.9011633270219894E+00    1.2961331410166927E+01
Ga    3.2255822474610354E+00    3.3976373863497909E-02    1.3579489163063059E+01
N    3.2276989443402213E+00    5.9272809225539798E-02    1.5550335724190797E+01
Ga    3.2241096096451818E+00    1.9054568980914983E+00    1.5826013979391382E+01
N    1.4970595065183445E+00    4.6232343673261767E+00    2.4532165448022520E+00
Ga    1.7184344533110660E+00    2.7822403547113459E+00    3.2455835588082067E+00
N    1.6185236745240943E+00    2.8330633360237818E+00    5.2084743059763392E+00
Ga    1.6582131374718803E+00    4.7101893028859889E+00    5.7571009408559561E+00
N    1.6250884638448702E+00    4.6917702500825396E+00    7.7616375436718457E+00
Ga    1.6081289320524430E+00    2.8377491047596832E+00    8.4000482712892310E+00
N    1.6063159861505996E+00    2.8368915653387261E+00    1.0393765376778452E+01
Ga    1.6322022991988983E+00    4.6963998610024014E+00    1.1031723381313153E+01
N    1.6482420681720922E+00    4.7058517874198920E+00    1.3025548441379787E+01
Ga    1.6056236855951460E+00    2.8381189944483252E+00    1.3585886859656878E+01
N    1.6341181467882693E+00    2.8196268610233459E+00    1.5544587591647154E+01
Ga    1.4428835114382441E+00    4.5872853903898161E+00    1.6463797388314184E+01
N    1.7869226405510048E-02    7.4687294071789516E+00    2.5593556341479280E+00
Ga    1.6447445853608765E-02    5.7259051927214779E+00    3.2478723940930143E+00
N    1.2051173744853648E-02    5.6157100905919330E+00    5.2093148047681774E+00
Ga    1.2948144116630381E-02    7.4702136467972204E+00    5.8383523058777653E+00
N    9.4200868451066594E-03    7.4722065710899583E+00    7.8114763209001259E+00
Ga    1.0942295861440292E-02    5.6037751911220237E+00    8.4002458557333508E+00
N    8.9766373607457900E-03    5.6037100668205628E+00    1.0393861899264683E+01
Ga    8.7079305355708281E-03    7.4723218868776575E+00    1.0987781004265987E+01
N    8.0230862281152789E-03    7.4739913080781504E+00    1.2961545917350845E+01
Ga    9.4195868545212322E-03    5.6025956434156239E+00    1.3586242796201454E+01
N    7.7881834520562125E-03    5.6371764066990204E+00    1.5544886954440964E+01
Ga    1.0456046099250688E-02    7.4710911408804641E+00    1.5826223256686804E+01
N   -1.7039752206291887E+00    1.0195727728907165E+01    2.4885908939443580E+00
Ga   -1.4927144643398431E+00    8.3395156919344036E+00    3.2465645806245549E+00
N   -1.5945285287556961E+00    8.3982970835130946E+00    5.2093334207895889E+00
Ga   -1.5729796814212551E+00    1.0270968783090121E+01    5.7612041008312520E+00
N   -1.5893104211919089E+00    1.0262522302897292E+01    7.7581379151621261E+00
Ga   -1.6079061309216920E+00    8.4060151360629156E+00    8.3988221914849799E+00
N   -1.6104975502453742E+00    8.4074545878414000E+00    1.0393395661175793E+01
Ga   -1.5844255455826401E+00    1.0266731070738134E+01    1.1028869111025680E+01
N   -1.5669252704504544E+00    1.0276868844383220E+01    1.3026855274873306E+01
Ga   -1.6089939185386650E+00    8.4078389382849146E+00    1.3579522835848262E+01
N   -1.5861995535533995E+00    8.3973142032464203E+00    1.5550469114032595E+01
Ga   -1.7380687934190611E+00    1.0178343546530282E+01    1.6418949294223083E+01
N    6.4449327972491792E+00    2.0229680923205358E+00    2.4933416322762412E+00
Ga    6.4443160330489571E+00    4.6200457031585193E-02    2.8268034711908996E+00
N    6.4419987511270378E+00    4.5566775042859074E-02    4.9826378491494081E+00
Ga    6.4399205169167013E+00    1.8747488827697143E+00    5.7645191690459416E+00
N    6.4413222479152648E+00    1.8905887357026525E+00    7.7606485333238915E+00
Ga    6.4412383553138124E+00    4.4927264389387662E-02    8.4064770760551184E+00
N    6.4411724791938765E+00    4.5238910784719526E-02    1.0381052548119436E+01
Ga    6.4406250285120867E+00    1.8857936768465926E+00    1.1029631591215818E+01
N    6.4417366508105918E+00    1.8669585330688467E+00    1.3024090690144822E+01
Ga    6.4452589535113773E+00    4.8398264513732428E-02    1.3821821745429043E+01
N    6.4454739120571540E+00    4.7872080762398156E-02    1.6032328881910558E+01
Ga    6.4430763347880120E+00    2.0932052555825416E+00    1.6446708165236608E+01
Ga    6.4583136957547822E+00    3.7437103403256962E+00    1.4553251774141969E+00
N    4.9609409001393434E+00    4.6198196169972938E+00    2.4738980129108286E+00
Ga    4.7341412184178076E+00    2.7792556157434420E+00    3.2528434900842362E+00
N    4.8340548557234220E+00    2.8313811556934594E+00    5.2135483348425549E+00
Ga    4.7955819829059436E+00    4.7098067858863573E+00    5.7580884900315272E+00
N    4.8263813310157726E+00    4.6917899419873583E+00    7.7626251199314087E+00
Ga    4.8428546951550180E+00    2.8376413791142094E+00    8.3997599126752451E+00
N    4.8434099509826627E+00    2.8365459957207668E+00    1.0394250303354722E+01
Ga    4.8176489008979209E+00    4.6962235391674936E+00    1.1031461402464290E+01
N    4.8012121112852046E+00    4.7062355670991449E+00    1.3027361949856582E+01
Ga    4.8447397176352611E+00    2.8374257446697917E+00    1.3582969897164855E+01
N    4.8191443118890760E+00    2.8174723824613039E+00    1.5546162602820521E+01
Ga    4.9895982469885478E+00    4.5975292649678519E+00    1.6446042025161212E+01
N    6.4320517700414470E+00    3.7613940849956804E+00    1.7582902319874542E+01
N    3.2253656741277079E+00    7.6124191832770869E+00    2.4703088926398280E+00
Ga    3.2333071782720832E+00    5.6114034298872415E+00    2.5681951424019789E+00
N    3.2272914609659225E+00    5.6146666274935617E+00    4.9906144686420086E+00
Ga    3.2267609271635207E+00    7.4265983604636636E+00    5.7563148515562581E+00
N    3.2258250019706614E+00    7.4640198866959295E+00    7.7615262363003454E+00
Ga    3.2255512255442866E+00    5.6161017283088466E+00    8.4037866776572976E+00
N    3.2252449014521165E+00    5.6158659222317082E+00    1.0381239150599448E+01
Ga    3.2247300734595301E+00    7.4546759774879146E+00    1.1031466054233475E+01
N    3.2250353769379503E+00    7.4359884152653217E+00    1.3027600330835773E+01
Ga    3.2224100778956024E+00    5.6142677595286976E+00    1.3833990951277279E+01
N    3.2230062673419950E+00    5.6145110657908059E+00    1.6032601357179640E+01
Ga    3.2253012389348226E+00    7.6505921293926029E+00    1.6443691688675781E+01
Ga    3.2246470400585707E+00    9.3625738015245421E+00    1.4473273661939452E+00
N    1.7229260200358143E+00    1.0201039783286980E+01    2.4976466060506519E+00
Ga    1.5268682619257663E+00    8.3395304278370936E+00    3.2515234284975998E+00
N    1.6181076811185069E+00    8.3991565864642546E+00    5.2126283895213703E+00
Ga    1.5929809406460143E+00    1.0268888566509032E+01    5.7636056166698673E+00
N    1.6070476651719423E+00    1.0262973029422154E+01    7.7600227912737942E+00
Ga    1.6285611642877682E+00    8.4055915293117494E+00    8.3995168554443769E+00
N    1.6273705713641167E+00    8.4069901884289351E+00    1.0394204395487618E+01
Ga    1.6028131636687624E+00    1.0265780930461169E+01    1.1029332088090660E+01
N    1.5865248356771062E+00    1.0276416222560430E+01    1.3024158774413621E+01
Ga    1.6282987289887603E+00    8.4082140835164036E+00    1.3582653350736278E+01
N    1.5985724960613144E+00    8.3957196495302338E+00    1.5546385616913728E+01
Ga    1.7818630812524470E+00    1.0164735062939220E+01    1.6444548337883571E+01
N    3.2222960608707591E+00    9.3196006432050638E+00    1.7578601212100828E+01
N    9.6590386871401961E+00    1.9014567195592431E+00    2.5754596045893514E+00
Ga    9.6590889764481069E+00    1.6203286804880346E-01    3.2627991483071406E+00
N    9.6585610781905995E+00    4.7532782976184622E-02    5.2220029402526782E+00
Ga    9.6581113698644359E+00    1.9021391110724568E+00    5.8474332975070142E+00
N    9.6578591350556362E+00    1.9021661004916706E+00    7.8174001777664843E+00
Ga    9.6576637860106000E+00    3.2548113987575775E-02    8.3999131889356757E+00
N    9.6574932745528521E+00    3.2596423969814881E-02    1.0393093155150552E+01
Ga    9.6572900794749916E+00    1.9023802461251234E+00    1.0986954678045283E+01
N    9.6574375933398819E+00    1.9023924620843489E+00    1.2959268978260097E+01
Ga    9.6575984888145694E+00    3.4077001125433139E-02    1.3581872090804852E+01
N    9.6575083743341246E+00    6.3697479266479992E-02    1.5543856738907957E+01
Ga    9.6590509555397546E+00    1.9036451191661210E+00    1.5822703879237050E+01
N    7.9472545974880981E+00    4.6239560553159071E+00    2.4906822827099351E+00
Ga    8.1523801299500160E+00    2.7719463461147296E+00    3.2599462183377343E+00
N    8.0524042980224522E+00    2.8293093591594327E+00    5.2197965852530421E+00
Ga    8.0737950314728515E+00    4.7025624929314445E+00    5.7648315024612478E+00
N    8.0598689866785378E+00    4.6934069078154597E+00    7.7607616486174740E+00
Ga    8.0390678429484339E+00    2.8365872242086838E+00    8.4009653540356943E+00
N    8.0380536790972315E+00    2.8373510039009244E+00    1.0393672085692335E+01
Ga    8.0641347920055875E+00    4.6963728505282525E+00    1.1030514100640625E+01
N    8.0813895304857617E+00    4.7054802488277767E+00    1.3024928094996381E+01
Ga    8.0394386960513451E+00    2.8369585386163787E+00    1.3582163298170665E+01
N    8.0652409608669782E+00    2.8217273702643464E+00    1.5543634634237451E+01
Ga    7.8844369439102415E+00    4.5901833333182811E+00    1.6447705602729208E+01
N    6.4345139791825625E+00    7.4664500746848601E+00    2.5588451277371185E+00
Ga    6.4408857279153509E+00    5.7262814846621213E+00    3.2561002086756021E+00
N    6.4427321595721194E+00    5.6165772447534028E+00    5.2149613453797841E+00
Ga    6.4393553496681584E+00    7.4712934088773864E+00    5.8406555070306352E+00
N    6.4418649340447400E+00    7.4726106707708029E+00    7.8133447887078606E+00
Ga    6.4403411069592176E+00    5.6036288422119815E+00    8.4007498449464979E+00
N    6.4415686106600649E+00    5.6036265282667994E+00    1.0395028314308645E+01
Ga    6.4405930525599517E+00    7.4726496850074113E+00    1.0987708963803431E+01
N    6.4426098582739320E+00    7.4737089153379213E+00    1.2962316092615721E+01
Ga    6.4418986808003540E+00    5.6024087181721764E+00    1.3582987144922825E+01
N    6.4462912995750479E+00    5.6358588399579546E+00    1.5545761404001686E+01
Ga    6.4405879005379667E+00    7.4726183240769180E+00    1.5827734912217206E+01
N    4.7293814888249992E+00    1.0200719971907175E+01    2.4955041799377384E+00
Ga    4.9261275702075151E+00    8.3410843233740373E+00    3.2501940402014138E+00
N    4.8350415581618051E+00    8.3993540925016923E+00    5.2117381787278436E+00
Ga    4.8595578505036228E+00    1.0269001203828605E+01    5.7638047039597815E+00
N    4.8439800260682810E+00    1.0262874526521751E+01    7.7602409817883728E+00
Ga    4.8223651467792497E+00    8.4057994845376935E+00    8.4005218701538347E+00
N    4.8223878455113907E+00    8.4075391878993795E+00    1.0395022688459528E+01
Ga    4.8479941178035322E+00    1.0266675991901884E+01    1.1029981921194290E+01
N    4.8644340524120180E+00    1.0277074594733087E+01    1.3024710819119425E+01
Ga    4.8218259708625331E+00    8.4087043520648734E+00    1.3582213534859129E+01
N    4.8522836311241750E+00    8.3958410800509569E+00    1.5545473092885789E+01
Ga    4.6673743660452747E+00    1.0164274907097049E+01    1.6445238462559185E+01
O    3.2147695887575196E+00    5.5740251263269611E+00    2.0452311345360322E-01
H    2.3096857521574647E+00    5.8563832312436954E+00   -1.3644458365405485E-02
C    4.1639837468351004E+00    6.4062908897201796E+00   -5.0337376901621955E-01
H    3.7886368257551006E+00    7.4339688392697179E+00   -6.2655300787749590E-01
H    5.0771495130874893E+00    6.4511096816316345E+00    1.0613366662119143E-01
H    4.3816938097586657E+00    5.9751749002444114E+00   -1.4899715117580230E+00
     &END COORD
     &KIND C
       BASIS_SET DZVP-MOLOPT-SR-GTH-q4
       POTENTIAL GTH-PBE-q4
       &POTENTIAL
 2 2
  0.3384712400000000E+00 2 -0.8803673979999999E+01  0.1339210850000000E+01
 2
  0.3025757500000000E+00 1  0.9622486650000001E+01
  0.2915069400000000E+00 0
         # Potential name:  GTH-PBE-Q4  for symbol:  C
         # Potential read from the potential filename: GTH_POTENTIALS
       &END POTENTIAL
     &END KIND
     &KIND O
       BASIS_SET DZVP-MOLOPT-SR-GTH-q6
       POTENTIAL GTH-PBE-q6
       &POTENTIAL
 2 4
  0.2445543000000000E+00 2 -0.1666721480000000E+02  0.2487311320000000E+01
 2
  0.2209559200000000E+00 1  0.1833745811000000E+02
  0.2113324700000000E+00 0
         # Potential name:  GTH-PBE-Q6  for symbol:  O
         # Potential read from the potential filename: GTH_POTENTIALS
       &END POTENTIAL
     &END KIND
     &KIND H
       BASIS_SET DZVP-MOLOPT-SR-GTH-q1
       POTENTIAL GTH-PBE-q1
       &POTENTIAL
 1
  0.2000000000000000E+00 2 -0.4178900440000000E+01  0.7244633100000000E+00
 0
         # Potential name:  GTH-PBE-Q1  for symbol:  H
         # Potential read from the potential filename: GTH_POTENTIALS
       &END POTENTIAL
     &END KIND
     &KIND N
       BASIS_SET DZVP-MOLOPT-SR-GTH
       POTENTIAL GTH-PBE-q5
       &POTENTIAL
 2 3
  0.2837905100000000E+00 2 -0.1241522559000000E+02  0.1868095920000000E+01
 2
  0.2554050000000000E+00 1  0.1363026257000000E+02
  0.2454945300000000E+00 0
         # Potential name:  GTH-PBE-Q5  for symbol:  N
         # Potential read from the potential filename: GTH_POTENTIALS
       &END POTENTIAL
     &END KIND
     &KIND Ga
       BASIS_SET DZVP-MOLOPT-SR-GTH
       POTENTIAL GTH-PBE-q13
       &POTENTIAL
 2 1 10
  0.4900000000000000E+00 0
 3
  0.4167772300000000E+00 3  0.1047568975000000E+02 -0.4921768140000000E+01  0.8707055900000000E+00
  0.7770178090000000E+01 -0.2248152160000000E+01
  0.1784415450000000E+01
  0.5696265200000000E+00 2  0.1777985340000000E+01  0.1958597600000000E+00
 -0.2317443900000000E+00
  0.2381265000000000E+00 1 -0.1624868022000000E+02
         # Potential name:  GTH-PBE-Q13  for symbol:  GA
         # Potential read from the potential filename: GTH_POTENTIALS
       &END POTENTIAL
     &END KIND
     &TOPOLOGY
       NUMBER_OF_ATOMS  206
       MULTIPLE_UNIT_CELL  1 1 1
     &END TOPOLOGY
   &END SUBSYS
 &END FORCE_EVAL
