 # Version information for this restart file 
 # current date 2019-06-24 17:38:43.705
 # current working dir /scratch/rzk/rzk/GaN-carbene/443-adatoms-both-2x2/02-Methanol/02-O-GaSur
 # Program compiled at                              Sun Apr  7 00:48:11 EDT 2019
 # Program compiled on                          beluga2.int.ets1.calculquebec.ca
 # Program compiled for                        Beluga-Linux-x86-64-intel-openmpi
 # Source code revision number                                         svn:18619
 &GLOBAL
   PRINT_LEVEL  MEDIUM
   PROJECT_NAME TEST
   RUN_TYPE  GEO_OPT
 &END GLOBAL
 &MOTION
   &GEO_OPT
     MAX_ITER  500
     STEP_START_VAL  107
   &END GEO_OPT
 &END MOTION
 &FORCE_EVAL
   METHOD  QS
   STRESS_TENSOR  ANALYTICAL
   &DFT
     BASIS_SET_FILE_NAME BASIS_MOLOPT
     POTENTIAL_FILE_NAME GTH_POTENTIALS
     UKS  T
     SURFACE_DIPOLE_CORRECTION  T
     SURF_DIP_DIR  Z
     &SCF
       MAX_SCF  80
       EPS_SCF     5.0000000000000004E-06
       &OT  T
         PRECONDITIONER  FULL_ALL
       &END OT
       &OUTER_SCF  T
         OPTIMIZER  NONE
         EPS_SCF     5.0000000000000004E-06
         MAX_SCF  4
       &END OUTER_SCF
       &PRINT
         &RESTART  OFF
           BACKUP_COPIES  1
           &EACH
             JUST_ENERGY  0
             QS_SCF  0
             MD  20
           &END EACH
         &END RESTART
       &END PRINT
     &END SCF
     &QS
       EPS_DEFAULT     1.0000000000000000E-14
       METHOD  GPW
     &END QS
     &MGRID
       NGRIDS  5
       CUTOFF     1.2000000000000000E+03
     &END MGRID
     &XC
       DENSITY_CUTOFF     1.0000000000000000E-10
       GRADIENT_CUTOFF     1.0000000000000000E-10
       TAU_CUTOFF     1.0000000000000000E-10
       &XC_FUNCTIONAL  NO_SHORTCUT
         &PBE  T
         &END PBE
       &END XC_FUNCTIONAL
       &VDW_POTENTIAL
         POTENTIAL_TYPE  PAIR_POTENTIAL
         &PAIR_POTENTIAL
           R_CUTOFF     1.0000000000000004E+01
           TYPE  DFTD3
           PARAMETER_FILE_NAME dftd3.dat
           REFERENCE_FUNCTIONAL PBE
           EPS_CN     9.9999999999999995E-07
           CALCULATE_C9_TERM  T
           REFERENCE_C9_TERM  T
           LONG_RANGE_CORRECTION  F
           VERBOSE_OUTPUT  F
         &END PAIR_POTENTIAL
       &END VDW_POTENTIAL
     &END XC
   &END DFT
   &SUBSYS
     &CELL
       A     1.2864472766435110E+01    0.0000000000000000E+00    0.0000000000000000E+00
       B    -6.4322363581020028E+00    1.1140960178524473E+01    0.0000000000000000E+00
       C     0.0000000000000000E+00    0.0000000000000000E+00    3.2000000000000000E+01
       MULTIPLE_UNIT_CELL  1 1 1
       &CELL_REF
         A     1.2982353780853531E+01    0.0000000000000000E+00    0.0000000000000000E+00
         B    -6.4911768904267628E+00    1.1243048175136114E+01    0.0000000000000000E+00
         C     0.0000000000000000E+00    0.0000000000000000E+00    3.2000000000000000E+01
         MULTIPLE_UNIT_CELL  1 1 1
       &END CELL_REF
     &END CELL
     &COORD
N    7.9329585868947727E-03    2.0227644578782873E+00    2.4929873908174995E+00
Ga    8.0891314634411130E-03    4.6533326595040801E-02    2.8260040532674524E+00
N    1.0646552287326881E-02    4.5507605773916465E-02    4.9819216962926953E+00
Ga    1.3379980136193445E-02    1.8754503187342813E+00    5.7621967376280221E+00
N    1.0202605534981550E-02    1.8909979079743973E+00    7.7586336600549499E+00
Ga    9.4684791250123704E-03    4.5560854190343676E-02    8.4063299165921403E+00
N    9.3588474800481089E-03    4.5701707546230104E-02    1.0380915585618656E+01
Ga    9.0320491104184820E-03    1.8863093195821410E+00    1.1030818472447304E+01
N    8.9486083262953608E-03    1.8675351661850690E+00    1.3023772552728136E+01
Ga    4.6639832675659547E-03    5.1191910166605632E-02    1.3826067770837327E+01
N    3.7533064912521844E-03    5.0775796626400083E-02    1.6032715537245647E+01
Ga    8.6922654168769178E-03    2.1088245261472647E+00    1.6465169039830759E+01
Ga   -1.3594304921011146E-02    3.7389882414345945E+00    1.4447328822188934E+00
N   -1.4938055150963421E+00    4.6235698006178492E+00    2.4914416393332628E+00
Ga   -1.6986138902380219E+00    2.7719240676100760E+00    3.2604887154364706E+00
N   -1.6000425855014990E+00    2.8291459243293251E+00    5.2196859170606107E+00
Ga   -1.6194986353733323E+00    4.7031025534706581E+00    5.7619595637539449E+00
N   -1.6082322778057119E+00    4.6939527611247929E+00    7.7582777675683161E+00
Ga   -1.5876858130070344E+00    2.8371800759009607E+00    8.3998020026421596E+00
N   -1.5881786645993687E+00    2.8372955231300834E+00    1.0392481856024697E+01
Ga   -1.6129066946552761E+00    4.6960195478394269E+00    1.1030961619988362E+01
N   -1.6296327429388722E+00    4.7055141107945797E+00    1.3023870218489387E+01
Ga   -1.5877800191909899E+00    2.8376413033241636E+00    1.3585623128458941E+01
N   -1.6160553048422079E+00    2.8211320624040823E+00    1.5544445143627936E+01
Ga   -1.4207586457094816E+00    4.5845563167919003E+00    1.6465414398227438E+01
N    9.5686327965423430E-03    3.7597390006327971E+00    1.7615064739985169E+01
N   -3.2057793763372322E+00    7.5944611857714204E+00    2.4847174697356884E+00
Ga   -3.2048099492949640E+00    5.6123897305549564E+00    2.8232845366547115E+00
N   -3.2057363692960661E+00    5.6152179434310181E+00    4.9801868030435861E+00
Ga   -3.2061683839697297E+00    7.4442167124139127E+00    5.7588536258224403E+00
N   -3.2070059339187007E+00    7.4623559729208679E+00    7.7562808589988759E+00
Ga   -3.2064060352479662E+00    5.6165718955566897E+00    8.4063579903726886E+00
N   -3.2067572864580902E+00    5.6165125315956326E+00    1.0380870781420315E+01
Ga   -3.2072263534473238E+00    7.4553275286582279E+00    1.1031152265523048E+01
N   -3.2068705937325968E+00    7.4357372681560827E+00    1.3029090463001177E+01
Ga   -3.2050037884880451E+00    5.6098408551707157E+00    1.3826555576226601E+01
N   -3.2055705563872756E+00    5.6092055655621014E+00    1.6032972650121497E+01
Ga   -3.2061501975429878E+00    7.6247617740612679E+00    1.6417235768105829E+01
Ga   -3.2056415966966423E+00    9.3317511334951924E+00    1.4593591074695060E+00
N   -4.7083179509346245E+00    1.0195479982662201E+01    2.4874119845412812E+00
Ga   -4.9191218105784689E+00    8.3394750768991006E+00    3.2457226540227540E+00
N   -4.8176761023634054E+00    8.3983812255986372E+00    5.2084015774951062E+00
Ga   -4.8392248156351751E+00    1.0270843385971377E+01    5.7606395077653643E+00
N   -4.8243842159828993E+00    1.0262546202452647E+01    7.7575464311258227E+00
Ga   -4.8053381672055169E+00    8.4065437951425324E+00    8.3999174452011616E+00
N   -4.8041287898366551E+00    8.4076332375093674E+00    1.0394544976144591E+01
Ga   -4.8302729258580577E+00    1.0267112756222527E+01    1.1030629016240878E+01
N   -4.8473603011486146E+00    1.0277406988214398E+01    1.3028705754094984E+01
Ga   -4.8035245290657702E+00    8.4084926028888329E+00    1.3579718938288067E+01
N   -4.8266655138853114E+00    8.3954035778368219E+00    1.5552034661160089E+01
Ga   -4.6832981479447788E+00    1.0184044940186686E+01    1.6417052354532032E+01
N   -3.2145380533423666E+00    9.3257927656240387E+00    1.7537374232855623E+01
N    3.2274783208022710E+00    1.9051822058294789E+00    2.5706400306713557E+00
Ga    3.2261760245606372E+00    1.6278140834437094E-01    3.2521369081180307E+00
N    3.2260667767378113E+00    4.6892845496729708E-02    5.2136435644089483E+00
Ga    3.2253154295576318E+00    1.9056654545611957E+00    5.8367060370017452E+00
N    3.2251620675308836E+00    1.9023433286937617E+00    7.8103022657277412E+00
Ga    3.2250177435857346E+00    3.4617174238922299E-02    8.3976794736712712E+00
N    3.2246949521547026E+00    3.2692895001691057E-02    1.0392548671711831E+01
Ga    3.2241060954461762E+00    1.9025315435956773E+00    1.0987650569244447E+01
N    3.2255156227016433E+00    1.9008597253304873E+00    1.2960970191660602E+01
Ga    3.2253566444030581E+00    3.3878161969540757E-02    1.3579332401557359E+01
N    3.2275690092941032E+00    5.9907064240544136E-02    1.5550206816291176E+01
Ga    3.2245413338185682E+00    1.9057573757161534E+00    1.5825645646194571E+01
N    1.4973415513004498E+00    4.6230732937215482E+00    2.4539056211924297E+00
Ga    1.7187187415721847E+00    2.7820731488332839E+00    3.2456419572423680E+00
N    1.6188481717243810E+00    2.8329224992979984E+00    5.2081805243460559E+00
Ga    1.6581973264938163E+00    4.7101155656397040E+00    5.7564654965292927E+00
N    1.6250553675904815E+00    4.6919189062897182E+00    7.7607691588876300E+00
Ga    1.6078444171974329E+00    2.8379705979189391E+00    8.3995907872664244E+00
N    1.6060900815186148E+00    2.8370038410172378E+00    1.0393344410437185E+01
Ga    1.6320740087396650E+00    4.6966143136022689E+00    1.1031329562455428E+01
N    1.6482345362398414E+00    4.7059482740922380E+00    1.3025163880504227E+01
Ga    1.6057713439447849E+00    2.8378935691756424E+00    1.3585888130009204E+01
N    1.6345487082737769E+00    2.8191925481605646E+00    1.5544564273410264E+01
Ga    1.4420627710787965E+00    4.5866210645705472E+00    1.6465062075903717E+01
N    1.8220243983686532E-02    7.4686888751237950E+00    2.5588818965912763E+00
Ga    1.6660689419446525E-02    5.7259062628454878E+00    3.2477792907244627E+00
N    1.2171587992552213E-02    5.6159025345676437E+00    5.2089449372794645E+00
Ga    1.2867717932428106E-02    7.4702550653460742E+00    5.8380739432115467E+00
N    9.2663204356793483E-03    7.4722911557865608E+00    7.8109444658908007E+00
Ga    1.0794792579211043E-02    5.6037285913984443E+00    8.3996971026454990E+00
N    8.7240469435147707E-03    5.6039245125899848E+00    1.0393367730298799E+01
Ga    8.3422971868583745E-03    7.4725797330088986E+00    1.0987654309761309E+01
N    7.6486207584914485E-03    7.4743744410716273E+00    1.2961105894095773E+01
Ga    9.1921429176931961E-03    5.6029577238090846E+00    1.3586071736939838E+01
N    7.5957480844915737E-03    5.6375975219039898E+00    1.5544831416767902E+01
Ga    1.0768344186506821E-02    7.4713288838850369E+00    1.5826060732535787E+01
N   -1.7034991503008079E+00    1.0195761025376402E+01    2.4879052566969482E+00
Ga   -1.4924461115334129E+00    8.3395744215458443E+00    3.2461267534695648E+00
N   -1.5945248892234416E+00    8.3983821587948810E+00    5.2087969308796138E+00
Ga   -1.5731183437840313E+00    1.0270916220987237E+01    5.7607477849384292E+00
N   -1.5895124595988173E+00    1.0262647718755645E+01    7.7575559792978348E+00
Ga   -1.6081594535013997E+00    8.4060368418051272E+00    8.3985440225032288E+00
N   -1.6108829166808643E+00    8.4076100853341362E+00    1.0393053310043939E+01
Ga   -1.5848240273786784E+00    1.0266762780166136E+01    1.1029195000081767E+01
N   -1.5674082326321781E+00    1.0276780247692329E+01    1.3026910468728493E+01
Ga   -1.6093395417620444E+00    8.4079409305641164E+00    1.3579351442414641E+01
N   -1.5859550104722187E+00    8.3971063418614325E+00    1.5550358034239480E+01
Ga   -1.7379640903268767E+00    1.0178633873140273E+01    1.6417462067873924E+01
N    6.4453599159910873E+00    2.0229625513854597E+00    2.4929379172674335E+00
Ga    6.4447342192939603E+00    4.6066233457179064E-02    2.8263113424155217E+00
N    6.4420118596362830E+00    4.5585832677471697E-02    4.9820600269047626E+00
Ga    6.4401146093022401E+00    1.8748501958707551E+00    5.7641114122862751E+00
N    6.4412673260396494E+00    1.8908108972635027E+00    7.7601982015309616E+00
Ga    6.4410741185760401E+00    4.5052561065568590E-02    8.4063665448946239E+00
N    6.4408499039543390E+00    4.5312483424739286E-02    1.0380979621078492E+01
Ga    6.4404001214712077E+00    1.8860013084044007E+00    1.1029654118005054E+01
N    6.4415444600172167E+00    1.8669794603628660E+00    1.3023811873564904E+01
Ga    6.4449331868579831E+00    4.8317062295512830E-02    1.3820789275430727E+01
N    6.4453072887651146E+00    4.8132248598176788E-02    1.6031942334705384E+01
Ga    6.4431302562839257E+00    2.0934940294176219E+00    1.6446180852284648E+01
Ga    6.4583238130059168E+00    3.7440702743305478E+00    1.4552783199692141E+00
N    4.9612871699559538E+00    4.6199833232864469E+00    2.4745018420788378E+00
Ga    4.7346906164017311E+00    2.7788228743162589E+00    3.2528967360835894E+00
N    4.8341440108143354E+00    2.8312932365606045E+00    5.2134122847713442E+00
Ga    4.7957143067811119E+00    4.7098262088743050E+00    5.7576990907724177E+00
N    4.8261841415368885E+00    4.6919945512890449E+00    7.7620307161817124E+00
Ga    4.8425934905322832E+00    2.8378690867411458E+00    8.3995792983017967E+00
N    4.8431628307728900E+00    2.8367515069502161E+00    1.0394015833913489E+01
Ga    4.8173136388174491E+00    4.6965068668630394E+00    1.1031423746073685E+01
N    4.8013500508506173E+00    4.7063252937969740E+00    1.3027044289529623E+01
Ga    4.8445425895304997E+00    2.8374126746308677E+00    1.3582568084381984E+01
N    4.8196905263804979E+00    2.8175343593051738E+00    1.5545832300180773E+01
Ga    4.9896325611836332E+00    4.5978243812153492E+00    1.6445375687864914E+01
N    6.4322948601598329E+00    3.7616771155334630E+00    1.7583042223102971E+01
N    3.2258404384891803E+00    7.6123385069760561E+00    2.4702998172519197E+00
Ga    3.2332747621096738E+00    5.6112491544260115E+00    2.5706824120690110E+00
N    3.2274796204972978E+00    5.6146130887249637E+00    4.9897084289118183E+00
Ga    3.2269079519101367E+00    7.4266231697666933E+00    5.7557279749006920E+00
N    3.2257672672704452E+00    7.4640020332962997E+00    7.7608687334937398E+00
Ga    3.2252980296693146E+00    5.6161076928992317E+00    8.4036626996770529E+00
N    3.2250308888412413E+00    5.6160636347434387E+00    1.0380846178152602E+01
Ga    3.2245784725747786E+00    7.4547097734404399E+00    1.1031519720624463E+01
N    3.2250981008937303E+00    7.4362332437547609E+00    1.3027276775095617E+01
Ga    3.2226092851006825E+00    5.6146107175562694E+00    1.3833735185432872E+01
N    3.2234598447674592E+00    5.6145186337559281E+00    1.6032404354371824E+01
Ga    3.2257269298861808E+00    7.6506606031625051E+00    1.6443854438044600E+01
Ga    3.2251200164192371E+00    9.3619701320543314E+00    1.4474676338721806E+00
N    1.7235017666065213E+00    1.0200924269742007E+01    2.4970760831807417E+00
Ga    1.5270208037213437E+00    8.3396686683315675E+00    3.2512011581505256E+00
N    1.6181232486393260E+00    8.3991351883276071E+00    5.2122492490996972E+00
Ga    1.5931614516102404E+00    1.0268913432985203E+01    5.7629779076389669E+00
N    1.6070086492582139E+00    1.0263091328619486E+01    7.7594461133418164E+00
Ga    1.6284217369025562E+00    8.4055600422476484E+00    8.3993251728003351E+00
N    1.6271823461494475E+00    8.4071019521154096E+00    1.0393877125595532E+01
Ga    1.6026594174412747E+00    1.0265864872573546E+01    1.1029479675780292E+01
N    1.5862430725581884E+00    1.0276523792588101E+01    1.3023895790971984E+01
Ga    1.6281903543048233E+00    8.4083183225965143E+00    1.3582397094121090E+01
N    1.5988571507242499E+00    8.3962081131815651E+00    1.5546192130695264E+01
Ga    1.7821995576874901E+00    1.0164734753579944E+01    1.6444880439514357E+01
N    3.2229177491570309E+00    9.3198963778232002E+00    1.7580900294804319E+01
N    9.6595496014024018E+00    1.9013884926914926E+00    2.5744449017321887E+00
Ga    9.6594712461248697E+00    1.6205179120440211E-01    3.2622008927715864E+00
N    9.6587324569480852E+00    4.7719940121171957E-02    5.2213798544698049E+00
Ga    9.6583647458476722E+00    1.9022808820344399E+00    5.8470102660350536E+00
N    9.6577783737780170E+00    1.9023262869725139E+00    7.8168358057379788E+00
Ga    9.6576112814997135E+00    3.2741684815569029E-02    8.3998310859889624E+00
N    9.6573366719009641E+00    3.2620633623707526E-02    1.0392756048656095E+01
Ga    9.6571034194341365E+00    1.9025024289722074E+00    1.0986669140431161E+01
N    9.6573004465671008E+00    1.9023698706588019E+00    1.2958844904227085E+01
Ga    9.6577214616775127E+00    3.3870887751215592E-02    1.3581730402003586E+01
N    9.6576604134970196E+00    6.3581229491861860E-02    1.5543804713676288E+01
Ga    9.6589429600268897E+00    1.9036328110714333E+00    1.5822725579810998E+01
N    7.9476642208141683E+00    4.6241060918789287E+00    2.4903585384669378E+00
Ga    8.1529400219888402E+00    2.7718411306733728E+00    3.2593819379089144E+00
N    8.0526389806441845E+00    2.8293261707239492E+00    5.2192221684577849E+00
Ga    8.0739796059943387E+00    4.7025428422109377E+00    5.7645068629002205E+00
N    8.0597497135609668E+00    4.6934702961133494E+00    7.7603047302830781E+00
Ga    8.0390487593522941E+00    2.8367675485616091E+00    8.4009150852332066E+00
N    8.0377943520332451E+00    2.8375877696735081E+00    1.0393391891599988E+01
Ga    8.0639447615534827E+00    4.6966436329512744E+00    1.1030624478822144E+01
N    8.0812330689524217E+00    4.7058547008330436E+00    1.3024664766147508E+01
Ga    8.0393486392683773E+00    2.8372519502594411E+00    1.3581796204717689E+01
N    8.0651009223215961E+00    2.8219513417804776E+00    1.5543385915962869E+01
Ga    7.8847426405792360E+00    4.5906253433444091E+00    1.6446682079066246E+01
N    6.4350152578825037E+00    7.4664558590724255E+00    2.5581928263738161E+00
Ga    6.4415882249660967E+00    5.7265008115543479E+00    3.2562724442642157E+00
N    6.4429699042201989E+00    5.6167207219140147E+00    5.2148918034190865E+00
Ga    6.4397441544976513E+00    7.4714554759411200E+00    5.8405632918892429E+00
N    6.4417721718413317E+00    7.4727254327624051E+00    7.8130149355738165E+00
Ga    6.4401701284782575E+00    5.6037316063519471E+00    8.4006703275005670E+00
N    6.4413219996282027E+00    5.6039226297988423E+00    1.0394901147755927E+01
Ga    6.4405699459641887E+00    7.4729279280214884E+00    1.0988273625624332E+01
N    6.4428822704219950E+00    7.4740334385590659E+00    1.2962509207608978E+01
Ga    6.4419568112400221E+00    5.6028143197265043E+00    1.3582864553280901E+01
N    6.4466301981391396E+00    5.6359688664530969E+00    1.5545496924065393E+01
Ga    6.4406233238386292E+00    7.4725871826848680E+00    1.5826686415059676E+01
N    4.7298030006196541E+00    1.0200448119764280E+01    2.4950204138011256E+00
Ga    4.9267197687687574E+00    8.3410264819397728E+00    3.2500070112433370E+00
N    4.8354215036185728E+00    8.3993134633930140E+00    5.2114291228940237E+00
Ga    4.8596741795475857E+00    1.0269067980093419E+01    5.7632247739147795E+00
N    4.8438266969430872E+00    1.0262994869186924E+01    7.7596714055348368E+00
Ga    4.8222368984117114E+00    8.4058777949459031E+00    8.4005309788949578E+00
N    4.8222739570381963E+00    8.4076309514569871E+00    1.0394869604161521E+01
Ga    4.8478757194306992E+00    1.0266753505038498E+01    1.1030393907316800E+01
N    4.8646842259624394E+00    1.0277021298863087E+01    1.3024688347724208E+01
Ga    4.8220335255256019E+00    8.4088057372278975E+00    1.3582427572740077E+01
N    4.8526878568396530E+00    8.3960873745798583E+00    1.5545432496176129E+01
Ga    4.6682620567101178E+00    1.0164456605683462E+01    1.6444998404323361E+01
O    3.2159042305940817E+00    5.5710055098050741E+00    2.0462574855750978E-01
H    2.3103726830643820E+00    5.8512438488724898E+00   -1.5328110788481857E-02
C    4.1642991732207477E+00    6.4055268631028746E+00   -5.0169429615705519E-01
H    3.7871387836931936E+00    7.4329084076301166E+00   -6.2317727367301179E-01
H    5.0772517551573504E+00    6.4511630759589194E+00    1.0814866187630064E-01
H    4.3828052897631489E+00    5.9765202151156913E+00   -1.4888980468473791E+00
     &END COORD
     &KIND C
       BASIS_SET DZVP-MOLOPT-SR-GTH-q4
       POTENTIAL GTH-PBE-q4
       &POTENTIAL
 2 2
  0.3384712400000000E+00 2 -0.8803673979999999E+01  0.1339210850000000E+01
 2
  0.3025757500000000E+00 1  0.9622486650000001E+01
  0.2915069400000000E+00 0
         # Potential name:  GTH-PBE-Q4  for symbol:  C
         # Potential read from the potential filename: GTH_POTENTIALS
       &END POTENTIAL
     &END KIND
     &KIND O
       BASIS_SET DZVP-MOLOPT-SR-GTH-q6
       POTENTIAL GTH-PBE-q6
       &POTENTIAL
 2 4
  0.2445543000000000E+00 2 -0.1666721480000000E+02  0.2487311320000000E+01
 2
  0.2209559200000000E+00 1  0.1833745811000000E+02
  0.2113324700000000E+00 0
         # Potential name:  GTH-PBE-Q6  for symbol:  O
         # Potential read from the potential filename: GTH_POTENTIALS
       &END POTENTIAL
     &END KIND
     &KIND H
       BASIS_SET DZVP-MOLOPT-SR-GTH-q1
       POTENTIAL GTH-PBE-q1
       &POTENTIAL
 1
  0.2000000000000000E+00 2 -0.4178900440000000E+01  0.7244633100000000E+00
 0
         # Potential name:  GTH-PBE-Q1  for symbol:  H
         # Potential read from the potential filename: GTH_POTENTIALS
       &END POTENTIAL
     &END KIND
     &KIND N
       BASIS_SET DZVP-MOLOPT-SR-GTH
       POTENTIAL GTH-PBE-q5
       &POTENTIAL
 2 3
  0.2837905100000000E+00 2 -0.1241522559000000E+02  0.1868095920000000E+01
 2
  0.2554050000000000E+00 1  0.1363026257000000E+02
  0.2454945300000000E+00 0
         # Potential name:  GTH-PBE-Q5  for symbol:  N
         # Potential read from the potential filename: GTH_POTENTIALS
       &END POTENTIAL
     &END KIND
     &KIND Ga
       BASIS_SET DZVP-MOLOPT-SR-GTH
       POTENTIAL GTH-PBE-q13
       &POTENTIAL
 2 1 10
  0.4900000000000000E+00 0
 3
  0.4167772300000000E+00 3  0.1047568975000000E+02 -0.4921768140000000E+01  0.8707055900000000E+00
  0.7770178090000000E+01 -0.2248152160000000E+01
  0.1784415450000000E+01
  0.5696265200000000E+00 2  0.1777985340000000E+01  0.1958597600000000E+00
 -0.2317443900000000E+00
  0.2381265000000000E+00 1 -0.1624868022000000E+02
         # Potential name:  GTH-PBE-Q13  for symbol:  GA
         # Potential read from the potential filename: GTH_POTENTIALS
       &END POTENTIAL
     &END KIND
     &TOPOLOGY
       NUMBER_OF_ATOMS  206
       MULTIPLE_UNIT_CELL  1 1 1
     &END TOPOLOGY
   &END SUBSYS
 &END FORCE_EVAL
