 # Version information for this restart file 
 # current date 2019-05-25 04:55:27.575
 # current working dir /lustre03/project/6004141/rzk/GaN-carbene/00-Surface/00-Preoptimization/443-capped
 # Program compiled at                              Sun Apr  7 00:48:11 EDT 2019
 # Program compiled on                          beluga2.int.ets1.calculquebec.ca
 # Program compiled for                        Beluga-Linux-x86-64-intel-openmpi
 # Source code revision number                                         svn:18619
 &GLOBAL
   PRINT_LEVEL  MEDIUM
   PROJECT_NAME TEST
   RUN_TYPE  CELL_OPT
 &END GLOBAL
 &MOTION
   &CELL_OPT
     MAX_ITER  300
     KEEP_ANGLES T
     EXTERNAL_PRESSURE 1
     PRESSURE_TOLERANCE 500
     KEEP_SYMMETRY T
   &END
 &END MOTION
 &FORCE_EVAL
   METHOD  QS
   STRESS_TENSOR  ANALYTICAL
   &DFT
     BASIS_SET_FILE_NAME BASIS_MOLOPT
     POTENTIAL_FILE_NAME GTH_POTENTIALS
     &SCF
       MAX_SCF  100
       EPS_SCF     1.0000000000000004E-07
       &OT  T
         PRECONDITIONER  FULL_ALL
       &END OT
       &OUTER_SCF  T
         OPTIMIZER  NONE
         EPS_SCF     1.0000000000000004E-07
         MAX_SCF  4
       &END OUTER_SCF
       &PRINT
         &RESTART  OFF
           BACKUP_COPIES  1
           &EACH
             JUST_ENERGY  0
             QS_SCF  0
             MD  20
           &END EACH
         &END RESTART
       &END PRINT
     &END SCF
     &QS
       EPS_DEFAULT     1.0000000000000000E-14
       METHOD  GPW
     &END QS
     &MGRID
       NGRIDS  5
       CUTOFF     1.2000000000000000E+03
     &END MGRID
     &XC
       DENSITY_CUTOFF     1.0000000000000000E-10
       GRADIENT_CUTOFF     1.0000000000000000E-10
       TAU_CUTOFF     1.0000000000000000E-10
       &XC_FUNCTIONAL  NO_SHORTCUT
         &PBE  T
         &END PBE
       &END XC_FUNCTIONAL
       &VDW_POTENTIAL
         POTENTIAL_TYPE  PAIR_POTENTIAL
         &PAIR_POTENTIAL
           R_CUTOFF     1.0000000000000002E+01
           TYPE  DFTD3
           PARAMETER_FILE_NAME dftd3.dat
           REFERENCE_FUNCTIONAL PBE
           EPS_CN     9.9999999999999995E-07
           CALCULATE_C9_TERM  T
           REFERENCE_C9_TERM  T
           LONG_RANGE_CORRECTION  F
           VERBOSE_OUTPUT  F
         &END PAIR_POTENTIAL
       &END VDW_POTENTIAL
     &END XC
   &END DFT
   &SUBSYS
     &CELL
       A     1.2982353780853531E+01    0.0000000000000000E+00    0.0000000000000000E+00
       B    -6.4911768904267628E+00    1.1243048175136114E+01    0.0000000000000000E+00
       C     0.0000000000000000E+00    0.0000000000000000E+00    15.558
       MULTIPLE_UNIT_CELL  1 1 1
       &CELL_REF
         A     1.2982353780853531E+01    0.0000000000000000E+00    0.0000000000000000E+00
         B    -6.4911768904267628E+00    1.1243048175136114E+01    0.0000000000000000E+00
         C     0.0000000000000000E+00    0.0000000000000000E+00    15.558
         MULTIPLE_UNIT_CELL  1 1 1
       &END CELL_REF
     &END CELL
     &COORD
       N       0.00000000       0.00000000       0.00000000 
       Ga       0.00000000       1.87384136       0.61943069
       N       0.00000000       1.87384136       2.59300000 
       Ga       0.00000000       0.00000000       3.21243069
       N       0.00000000       0.00000000       5.18600000 
       Ga       0.00000000       1.87384136       5.80543069
       N       0.00000000       1.87384136       7.77900000 
       Ga       0.00000000       0.00000000       8.39843069
       N       0.00000000       0.00000000      10.37200000 
       Ga       0.00000000       1.87384136      10.99143069
       N       0.00000000       1.87384136      12.96500000 
       Ga       0.00000000       0.00000000      13.58443069
       N      -1.62279422       2.81076204       0.00000000 
       Ga      -1.62279422       4.68460341       0.61943069
       N      -1.62279422       4.68460341       2.59300000 
       Ga      -1.62279422       2.81076204       3.21243069
       N      -1.62279422       2.81076204       5.18600000 
       Ga      -1.62279422       4.68460341       5.80543069
       N      -1.62279422       4.68460341       7.77900000 
       Ga      -1.62279422       2.81076204       8.39843069
       N      -1.62279422       2.81076204      10.37200000 
       Ga      -1.62279422       4.68460341      10.99143069
       N      -1.62279422       4.68460341      12.96500000 
       Ga      -1.62279422       2.81076204      13.58443069
       N      -3.24558845       5.62152409       0.00000000 
       Ga      -3.24558845       7.49536545       0.61943069
       N      -3.24558845       7.49536545       2.59300000 
       Ga      -3.24558845       5.62152409       3.21243069
       N      -3.24558845       5.62152409       5.18600000 
       Ga      -3.24558845       7.49536545       5.80543069
       N      -3.24558845       7.49536545       7.77900000 
       Ga      -3.24558845       5.62152409       8.39843069
       N      -3.24558845       5.62152409      10.37200000 
       Ga      -3.24558845       7.49536545      10.99143069
       N      -3.24558845       7.49536545      12.96500000 
       Ga      -3.24558845       5.62152409      13.58443069
       N      -4.86838267       8.43228613       0.00000000 
       Ga      -4.86838267      10.30612749       0.61943069
       N      -4.86838267      10.30612749       2.59300000 
       Ga      -4.86838267       8.43228613       3.21243069
       N      -4.86838267       8.43228613       5.18600000 
       Ga      -4.86838267      10.30612749       5.80543069
       N      -4.86838267      10.30612749       7.77900000 
       Ga      -4.86838267       8.43228613       8.39843069
       N      -4.86838267       8.43228613      10.37200000 
       Ga      -4.86838267      10.30612749      10.99143069
       N      -4.86838267      10.30612749      12.96500000 
       Ga      -4.86838267       8.43228613      13.58443069
       N       3.24558845       0.00000000       0.00000000 
       Ga       3.24558845       1.87384136       0.61943069
       N       3.24558845       1.87384136       2.59300000 
       Ga       3.24558845       0.00000000       3.21243069
       N       3.24558845       0.00000000       5.18600000 
       Ga       3.24558845       1.87384136       5.80543069
       N       3.24558845       1.87384136       7.77900000 
       Ga       3.24558845       0.00000000       8.39843069
       N       3.24558845       0.00000000      10.37200000 
       Ga       3.24558845       1.87384136      10.99143069
       N       3.24558845       1.87384136      12.96500000 
       Ga       3.24558845       0.00000000      13.58443069
       N       1.62279422       2.81076204       0.00000000 
       Ga       1.62279422       4.68460341       0.61943069
       N       1.62279422       4.68460341       2.59300000 
       Ga       1.62279422       2.81076204       3.21243069
       N       1.62279422       2.81076204       5.18600000 
       Ga       1.62279422       4.68460341       5.80543069
       N       1.62279422       4.68460341       7.77900000 
       Ga       1.62279422       2.81076204       8.39843069
       N       1.62279422       2.81076204      10.37200000 
       Ga       1.62279422       4.68460341      10.99143069
       N       1.62279422       4.68460341      12.96500000 
       Ga       1.62279422       2.81076204      13.58443069
       N       0.00000000       5.62152409       0.00000000 
       Ga       0.00000000       7.49536545       0.61943069
       N       0.00000000       7.49536545       2.59300000 
       Ga       0.00000000       5.62152409       3.21243069
       N       0.00000000       5.62152409       5.18600000 
       Ga       0.00000000       7.49536545       5.80543069
       N       0.00000000       7.49536545       7.77900000 
       Ga       0.00000000       5.62152409       8.39843069
       N       0.00000000       5.62152409      10.37200000 
       Ga       0.00000000       7.49536545      10.99143069
       N       0.00000000       7.49536545      12.96500000 
       Ga       0.00000000       5.62152409      13.58443069
       N      -1.62279422       8.43228613       0.00000000 
       Ga      -1.62279422      10.30612749       0.61943069
       N      -1.62279422      10.30612749       2.59300000 
       Ga      -1.62279422       8.43228613       3.21243069
       N      -1.62279422       8.43228613       5.18600000 
       Ga      -1.62279422      10.30612749       5.80543069
       N      -1.62279422      10.30612749       7.77900000 
       Ga      -1.62279422       8.43228613       8.39843069
       N      -1.62279422       8.43228613      10.37200000 
       Ga      -1.62279422      10.30612749      10.99143069
       N      -1.62279422      10.30612749      12.96500000 
       Ga      -1.62279422       8.43228613      13.58443069
       N       6.49117689       0.00000000       0.00000000 
       Ga       6.49117689       1.87384136       0.61943069
       N       6.49117689       1.87384136       2.59300000 
       Ga       6.49117689       0.00000000       3.21243069
       N       6.49117689       0.00000000       5.18600000 
       Ga       6.49117689       1.87384136       5.80543069
       N       6.49117689       1.87384136       7.77900000 
       Ga       6.49117689       0.00000000       8.39843069
       N       6.49117689       0.00000000      10.37200000 
       Ga       6.49117689       1.87384136      10.99143069
       N       6.49117689       1.87384136      12.96500000 
       Ga       6.49117689       0.00000000      13.58443069
       N       4.86838267       2.81076204       0.00000000 
       Ga       4.86838267       4.68460341       0.61943069
       N       4.86838267       4.68460341       2.59300000 
       Ga       4.86838267       2.81076204       3.21243069
       N       4.86838267       2.81076204       5.18600000 
       Ga       4.86838267       4.68460341       5.80543069
       N       4.86838267       4.68460341       7.77900000 
       Ga       4.86838267       2.81076204       8.39843069
       N       4.86838267       2.81076204      10.37200000 
       Ga       4.86838267       4.68460341      10.99143069
       N       4.86838267       4.68460341      12.96500000 
       Ga       4.86838267       2.81076204      13.58443069
       N       3.24558845       5.62152409       0.00000000 
       Ga       3.24558845       7.49536545       0.61943069
       N       3.24558845       7.49536545       2.59300000 
       Ga       3.24558845       5.62152409       3.21243069
       N       3.24558845       5.62152409       5.18600000 
       Ga       3.24558845       7.49536545       5.80543069
       N       3.24558845       7.49536545       7.77900000 
       Ga       3.24558845       5.62152409       8.39843069
       N       3.24558845       5.62152409      10.37200000 
       Ga       3.24558845       7.49536545      10.99143069
       N       3.24558845       7.49536545      12.96500000 
       Ga       3.24558845       5.62152409      13.58443069
       N       1.62279422       8.43228613       0.00000000 
       Ga       1.62279422      10.30612749       0.61943069
       N       1.62279422      10.30612749       2.59300000 
       Ga       1.62279422       8.43228613       3.21243069
       N       1.62279422       8.43228613       5.18600000 
       Ga       1.62279422      10.30612749       5.80543069
       N       1.62279422      10.30612749       7.77900000 
       Ga       1.62279422       8.43228613       8.39843069
       N       1.62279422       8.43228613      10.37200000 
       Ga       1.62279422      10.30612749      10.99143069
       N       1.62279422      10.30612749      12.96500000 
       Ga       1.62279422       8.43228613      13.58443069
       N       9.73676534       0.00000000       0.00000000 
       Ga       9.73676534       1.87384136       0.61943069
       N       9.73676534       1.87384136       2.59300000 
       Ga       9.73676534       0.00000000       3.21243069
       N       9.73676534       0.00000000       5.18600000 
       Ga       9.73676534       1.87384136       5.80543069
       N       9.73676534       1.87384136       7.77900000 
       Ga       9.73676534       0.00000000       8.39843069
       N       9.73676534       0.00000000      10.37200000 
       Ga       9.73676534       1.87384136      10.99143069
       N       9.73676534       1.87384136      12.96500000 
       Ga       9.73676534       0.00000000      13.58443069
       N       8.11397111       2.81076204       0.00000000 
       Ga       8.11397111       4.68460341       0.61943069
       N       8.11397111       4.68460341       2.59300000 
       Ga       8.11397111       2.81076204       3.21243069
       N       8.11397111       2.81076204       5.18600000 
       Ga       8.11397111       4.68460341       5.80543069
       N       8.11397111       4.68460341       7.77900000 
       Ga       8.11397111       2.81076204       8.39843069
       N       8.11397111       2.81076204      10.37200000 
       Ga       8.11397111       4.68460341      10.99143069
       N       8.11397111       4.68460341      12.96500000 
       Ga       8.11397111       2.81076204      13.58443069
       N       6.49117689       5.62152409       0.00000000 
       Ga       6.49117689       7.49536545       0.61943069
       N       6.49117689       7.49536545       2.59300000 
       Ga       6.49117689       5.62152409       3.21243069
       N       6.49117689       5.62152409       5.18600000 
       Ga       6.49117689       7.49536545       5.80543069
       N       6.49117689       7.49536545       7.77900000 
       Ga       6.49117689       5.62152409       8.39843069
       N       6.49117689       5.62152409      10.37200000 
       Ga       6.49117689       7.49536545      10.99143069
       N       6.49117689       7.49536545      12.96500000 
       Ga       6.49117689       5.62152409      13.58443069
       N       4.86838267       8.43228613       0.00000000 
       Ga       4.86838267      10.30612749       0.61943069
       N       4.86838267      10.30612749       2.59300000 
       Ga       4.86838267       8.43228613       3.21243069
       N       4.86838267       8.43228613       5.18600000 
       Ga       4.86838267      10.30612749       5.80543069
       N       4.86838267      10.30612749       7.77900000 
       Ga       4.86838267       8.43228613       8.39843069
       N       4.86838267       8.43228613      10.37200000 
       Ga       4.86838267      10.30612749      10.99143069
       N       4.86838267      10.30612749      12.96500000 
       Ga       4.86838267       8.43228613      13.58443069
     &END COORD

     &KIND N
       BASIS_SET DZVP-MOLOPT-SR-GTH
       POTENTIAL GTH-PBE-q5
     &END KIND

     &KIND Ga
       BASIS_SET DZVP-MOLOPT-SR-GTH
       POTENTIAL GTH-PBE-q13
     &END KIND

     &TOPOLOGY
       MULTIPLE_UNIT_CELL  1 1 1
     &END TOPOLOGY
   &END SUBSYS
 &END FORCE_EVAL

