 # Version information for this restart file 
 # current date 2019-06-23 21:29:57.010
 # current working dir /scratch/rzk/rzk/GaN-carbene/443-adatoms-both-2x2/00-Bulk-optimization
 # Program compiled at                              Sun Apr  7 00:48:11 EDT 2019
 # Program compiled on                          beluga2.int.ets1.calculquebec.ca
 # Program compiled for                        Beluga-Linux-x86-64-intel-openmpi
 # Source code revision number                                         svn:18619
 &GLOBAL
   PRINT_LEVEL  MEDIUM
   PROJECT_NAME TEST
   RUN_TYPE  CELL_OPT
 &END GLOBAL
 &MOTION
   &CELL_OPT
     MAX_ITER  300
     STEP_START_VAL  1
     EXTERNAL_PRESSURE     1.0000000000000000E+00
     KEEP_ANGLES  T
     KEEP_SYMMETRY  T
     PRESSURE_TOLERANCE     5.0000000000000000E+02
   &END CELL_OPT
 &END MOTION
 &FORCE_EVAL
   METHOD  QS
   STRESS_TENSOR  ANALYTICAL
   &DFT
     BASIS_SET_FILE_NAME BASIS_MOLOPT
     POTENTIAL_FILE_NAME GTH_POTENTIALS
     &SCF
       MAX_SCF  100
       EPS_SCF     1.0000000000000004E-07
       &OT  T
         PRECONDITIONER  FULL_ALL
       &END OT
       &OUTER_SCF  T
         OPTIMIZER  NONE
         EPS_SCF     1.0000000000000004E-07
         MAX_SCF  4
       &END OUTER_SCF
       &PRINT
         &RESTART  OFF
           BACKUP_COPIES  1
           &EACH
             JUST_ENERGY  0
             QS_SCF  0
             MD  20
           &END EACH
         &END RESTART
       &END PRINT
     &END SCF
     &QS
       EPS_DEFAULT     1.0000000000000000E-14
       METHOD  GPW
     &END QS
     &MGRID
       NGRIDS  5
       CUTOFF     1.2000000000000000E+03
     &END MGRID
     &XC
       DENSITY_CUTOFF     1.0000000000000000E-10
       GRADIENT_CUTOFF     1.0000000000000000E-10
       TAU_CUTOFF     1.0000000000000000E-10
       &XC_FUNCTIONAL  NO_SHORTCUT
         &PBE  T
         &END PBE
       &END XC_FUNCTIONAL
       &VDW_POTENTIAL
         POTENTIAL_TYPE  PAIR_POTENTIAL
         &PAIR_POTENTIAL
           R_CUTOFF     1.0000000000000004E+01
           TYPE  DFTD3
           PARAMETER_FILE_NAME dftd3.dat
           REFERENCE_FUNCTIONAL PBE
           EPS_CN     9.9999999999999995E-07
           CALCULATE_C9_TERM  T
           REFERENCE_C9_TERM  T
           LONG_RANGE_CORRECTION  F
           VERBOSE_OUTPUT  F
         &END PAIR_POTENTIAL
       &END VDW_POTENTIAL
     &END XC
   &END DFT
   &SUBSYS
     &CELL
       A     1.2949484842934298E+01    0.0000000000000000E+00    0.0000000000000000E+00
       B    -6.4747423707106737E+00    1.1214582751989855E+01    0.0000000000000000E+00
       C     0.0000000000000000E+00    0.0000000000000000E+00    1.5574084038110074E+01
       MULTIPLE_UNIT_CELL  1 1 1
       &CELL_REF
         A     1.2982353780853531E+01    0.0000000000000000E+00    0.0000000000000000E+00
         B    -6.4911768904267628E+00    1.1243048175136114E+01    0.0000000000000000E+00
         C     0.0000000000000000E+00    0.0000000000000000E+00    1.5558000000000000E+01
         MULTIPLE_UNIT_CELL  1 1 1
       &END CELL_REF
     &END CELL
     &COORD
N   -9.0311112062605955E-08   -1.0217714510233177E-07   -6.8119144034508564E-04
Ga    4.6282035719937631E-06    1.8690942294428761E+00    6.2077925633380127E-01
N   -4.5496193444752663E-06    1.8690997064915551E+00    2.5949929712259361E+00
Ga    9.1239363761187436E-08    1.9640718479430726E-07    3.2164603813013231E+00
N   -1.1864431901837816E-09    1.4212111453671954E-07    5.1906807120865244E+00
Ga    4.8134092182110642E-06    1.8690945013628206E+00    5.8121405503625594E+00
N   -4.3284341601339864E-06    1.8690996939387023E+00    7.7863550841164164E+00
Ga   -9.0891588412663697E-08    8.9956081976554119E-09    8.4078219052556094E+00
N    1.0965163721357905E-07   -2.3661813670469492E-08    1.0382040732514609E+01
Ga    4.6132908076317804E-06    1.8690941757058739E+00    1.1003502005130260E+01
N   -4.2412943864141645E-06    1.8690997137197214E+00    1.2977716881913270E+01
Ga   -4.0521092248414096E-08    8.3840513533247127E-08    1.3599183338516227E+01
N   -1.6186856052997203E+00    2.8036456777844210E+00   -6.8128729971023616E-04
Ga   -1.6186808571334559E+00    4.6727400339194283E+00    6.2077921374623735E-01
N   -1.6186901394079498E+00    4.6727454425575088E+00    2.5949926964962451E+00
Ga   -1.6186854348201640E+00    2.8036456679586110E+00    3.2164604699971977E+00
N   -1.6186856535469809E+00    2.8036457224914839E+00    5.1906805223005250E+00
Ga   -1.6186808530867447E+00    4.6727400079345545E+00    5.8121403978609223E+00
N   -1.6186900377883722E+00    4.6727453187865935E+00    7.7863549821014812E+00
Ga   -1.6186855831281559E+00    2.8036456387867057E+00    8.4078218910904159E+00
N   -1.6186856346936502E+00    2.8036457260970242E+00    1.0382040333511956E+01
Ga   -1.6186808007952249E+00    4.6727399054714063E+00    1.1003502201222355E+01
N   -1.6186899571244959E+00    4.6727453690797773E+00    1.2977716608058069E+01
Ga   -1.6186855184751885E+00    2.8036458915197437E+00    1.3599183081652800E+01
N   -3.2373712314398597E+00    5.6072914496408215E+00   -6.8097453620980333E-04
Ga   -3.2373669308028230E+00    7.4763858386999713E+00    6.2077908350861988E-01
N   -3.2373757171538555E+00    7.4763912136400128E+00    2.5949929195090711E+00
Ga   -3.2373712671851367E+00    5.6072912001407387E+00    3.2164604942095631E+00
N   -3.2373712665082914E+00    5.6072913726294811E+00    5.1906807292053436E+00
Ga   -3.2373669762944348E+00    7.4763855308721752E+00    5.8121404401451011E+00
N   -3.2373754770357523E+00    7.4763909624659943E+00    7.7863553613009957E+00
Ga   -3.2373713751722426E+00    5.6072913863634213E+00    8.4078216988188501E+00
N   -3.2373712859287109E+00    5.6072915062792008E+00    1.0382040628343178E+01
Ga   -3.2373667624086644E+00    7.4763857936501266E+00    1.1003501893224197E+01
N   -3.2373755359097349E+00    7.4763913506288926E+00    1.2977716815352750E+01
Ga   -3.2373711598001513E+00    5.6072910710033153E+00    1.3599183004682999E+01
N   -4.8560567596792623E+00    8.4109371970714193E+00   -6.8131214715351127E-04
Ga   -4.8560522307142113E+00    1.0280031224041657E+01    6.2077908186316233E-01
N   -4.8560613801428376E+00    1.0280036774916564E+01    2.5949926928018248E+00
Ga   -4.8560570061945141E+00    8.4109372464655436E+00    3.2164605675795652E+00
N   -4.8560567414035720E+00    8.4109371488510085E+00    5.1906803675070803E+00
Ga   -4.8560521756050425E+00    1.0280031310479103E+01    5.8121404643115344E+00
N   -4.8560611557977467E+00    1.0280036931849825E+01    7.7863549720669933E+00
Ga   -4.8560570690680525E+00    8.4109369787540214E+00    8.4078216770041809E+00
N   -4.8560567059098174E+00    8.4109370207838605E+00    1.0382040692888085E+01
Ga   -4.8560522947960028E+00    1.0280031597478294E+01    1.1003501910653718E+01
N   -4.8560610058891980E+00    1.0280036680033444E+01    1.2977716676763318E+01
Ga   -4.8560569184972948E+00    8.4109371681171847E+00    1.3599183307964642E+01
N    3.2373712718575702E+00   -1.8706052920484928E-07   -6.8134140764937109E-04
Ga    3.2373758387129072E+00    1.8690944315441267E+00    6.2077914402929135E-01
N    3.2373668302364411E+00    1.8690996071393295E+00    2.5949931691955084E+00
Ga    3.2373708259455181E+00    4.1010865524983870E-08    3.2164604732977731E+00
N    3.2373711447620268E+00    6.2894389810859838E-08    5.1906805024457707E+00
Ga    3.2373757361318165E+00    1.8690944319662612E+00    5.8121405905312926E+00
N    3.2373669284920035E+00    1.8690994863620953E+00    7.7863555095254160E+00
Ga    3.2373709325756796E+00    2.3085351198868524E-07    8.4078217786357019E+00
N    3.2373713339801000E+00   -9.3012892261428691E-09    1.0382040601898924E+01
Ga    3.2373757130237273E+00    1.8690941963799412E+00    1.1003501986093285E+01
N    3.2373669158406355E+00    1.8690995730271251E+00    1.2977717041524022E+01
Ga    3.2373709237457766E+00    3.7586636928710337E-08    1.3599183105070029E+01
N    1.6186855503395354E+00    2.8036457395819645E+00   -6.8157009495976189E-04
Ga    1.6186902214444485E+00    4.6727400315923369E+00    6.2077919815352700E-01
N    1.6186810419856212E+00    4.6727454818838439E+00    2.5949928901065484E+00
Ga    1.6186852634171343E+00    2.8036456087684085E+00    3.2164605775963793E+00
N    1.6186854379069635E+00    2.8036454791922236E+00    5.1906802764294113E+00
Ga    1.6186902770190683E+00    4.6727400973678739E+00    5.8121404859490990E+00
N    1.6186811823858243E+00    4.6727453008736859E+00    7.7863553014994125E+00
Ga    1.6186854852565031E+00    2.8036455946914751E+00    8.4078216908383538E+00
N    1.6186857322370489E+00    2.8036456666348637E+00    1.0382040278976008E+01
Ga    1.6186901305363370E+00    4.6727401883360224E+00    1.1003501890136127E+01
N    1.6186812761553162E+00    4.6727453883089822E+00    1.2977716903572107E+01
Ga    1.6186853835233486E+00    2.8036454872262353E+00    1.3599183122318541E+01
N    5.1709604478787270E-08    5.6072914081628227E+00   -6.8130867051643550E-04
Ga    4.6790270020421042E-06    7.4763855044130088E+00    6.2077918584846681E-01
N   -4.4369079562460566E-06    7.4763910423048232E+00    2.5949931073780017E+00
Ga   -8.5044199046280197E-08    5.6072912637571219E+00    3.2164605500576782E+00
N   -1.2426976205538581E-07    5.6072913157792792E+00    5.1906804457966684E+00
Ga    4.9855115839566036E-06    7.4763854600128639E+00    5.8121403692571434E+00
N   -4.3418065061295530E-06    7.4763908607715654E+00    7.7863555482874363E+00
Ga    5.9981088222160954E-08    5.6072913017109842E+00    8.4078219164663306E+00
N    1.4819296087891757E-07    5.6072914674662044E+00    1.0382040462874315E+01
Ga    4.7167667384729312E-06    7.4763854981537792E+00    1.1003501963508759E+01
N   -4.1498781576434157E-06    7.4763911081439280E+00    1.2977717103314303E+01
Ga   -2.1434136800705394E-07    5.6072911894407031E+00    1.3599183070547697E+01
N   -1.6186856270583059E+00    8.4109372461435079E+00   -6.8159122180670446E-04
Ga   -1.6186810912067617E+00    1.0280031548622528E+01    6.2077896512189290E-01
N   -1.6186900916308040E+00    1.0280036788980524E+01    2.5949929003308951E+00
Ga   -1.6186856459476175E+00    8.4109369368364710E+00    3.2164603652906392E+00
N   -1.6186856421237155E+00    8.4109371106226334E+00    5.1906801766524699E+00
Ga   -1.6186810435203718E+00    1.0280031689198362E+01    5.8121404693937428E+00
N   -1.6186899709096998E+00    1.0280036837560068E+01    7.7863553177284155E+00
Ga   -1.6186857777358457E+00    8.4109369362313586E+00    8.4078217795407504E+00
N   -1.6186856111837737E+00    8.4109371701649405E+00    1.0382040458070390E+01
Ga   -1.6186811264932548E+00    1.0280031585282135E+01    1.1003501861920695E+01
N   -1.6186899245287332E+00    1.0280036583441902E+01    1.2977716960126315E+01
Ga   -1.6186856767863347E+00    8.4109371663803518E+00    1.3599183095129955E+01
N    6.4747424324573233E+00   -1.0707558929510149E-07   -6.8113138006073860E-04
Ga    6.4747472484407700E+00    1.8690946038163008E+00    6.2077912630093479E-01
N    6.4747379567541294E+00    1.8690997573460291E+00    2.5949930032219979E+00
Ga    6.4747424325594869E+00    2.0282408899569649E-07    3.2164603267492979E+00
N    6.4747423222724949E+00    2.6813981540020357E-07    5.1906806693080014E+00
Ga    6.4747470544982084E+00    1.8690946074946280E+00    5.8121404401877799E+00
N    6.4747380381490469E+00    1.8690995350741875E+00    7.7863550504165087E+00
Ga    6.4747424369386355E+00   -3.3508167604264578E-08    8.4078216870681484E+00
N    6.4747422138411128E+00   -1.3249202651504350E-08    1.0382040750445455E+01
Ga    6.4747471918280874E+00    1.8690943886849674E+00    1.1003502162757355E+01
N    6.4747381107039130E+00    1.8690995222626936E+00    1.2977716888114754E+01
Ga    6.4747423021953789E+00    1.5175844038031410E-07    1.3599183041426167E+01
N    4.8560569053887050E+00    2.8036458156474464E+00   -6.8127975187293015E-04
Ga    4.8560616015682259E+00    4.6727400685389542E+00    6.2077911315139478E-01
N    4.8560524346966298E+00    4.6727454276734006E+00    2.5949926615777907E+00
Ga    4.8560568000523698E+00    2.8036457281462090E+00    3.2164605229428318E+00
N    4.8560570213974561E+00    2.8036455714253012E+00    5.1906803997025248E+00
Ga    4.8560615676971883E+00    4.6727402844269825E+00    5.8121405767479368E+00
N    4.8560524109999532E+00    4.6727453811174096E+00    7.7863549984855416E+00
Ga    4.8560564391542620E+00    2.8036458322420201E+00    8.4078216185488817E+00
N    4.8560567115734932E+00    2.8036456836823209E+00    1.0382040533734383E+01
Ga    4.8560614909290329E+00    4.6727402058149883E+00    1.1003501789087512E+01
N    4.8560524266531271E+00    4.6727454839377272E+00    1.2977716761801572E+01
Ga    4.8560566773858751E+00    2.8036455173167258E+00    1.3599183166670647E+01
N    3.2373712503141792E+00    5.6072914780330176E+00   -6.8122815391174812E-04
Ga    3.2373762124386163E+00    7.4763856714516246E+00    6.2077919316289287E-01
N    3.2373666901895013E+00    7.4763912160545072E+00    2.5949927384299611E+00
Ga    3.2373710308040144E+00    5.6072913718115815E+00    3.2164607206473672E+00
N    3.2373712884357486E+00    5.6072914395622675E+00    5.1906805653050476E+00
Ga    3.2373762855647614E+00    7.4763857629483716E+00    5.8121403885664913E+00
N    3.2373669421896150E+00    7.4763908954209093E+00    7.7863553811181623E+00
Ga    3.2373712716473015E+00    5.6072914700289989E+00    8.4078217215657549E+00
N    3.2373711822885785E+00    5.6072914576633366E+00    1.0382040693909671E+01
Ga    3.2373759303518868E+00    7.4763856383361347E+00    1.1003502199447757E+01
N    3.2373667903575609E+00    7.4763910788833368E+00    1.2977716863810251E+01
Ga    3.2373710411752423E+00    5.6072916321775041E+00    1.3599183167838802E+01
N    1.6186856321403202E+00    8.4109371888538256E+00   -6.8139309968177843E-04
Ga    1.6186906534055250E+00    1.0280031759841096E+01    6.2077908885843314E-01
N    1.6186810989109848E+00    1.0280036859023362E+01    2.5949926094015319E+00
Ga    1.6186856887421124E+00    8.4109369911303595E+00    3.2164606576504711E+00
N    1.6186856508921328E+00    8.4109370418584568E+00    5.1906803041044798E+00
Ga    1.6186906695816050E+00    1.0280031444165825E+01    5.8121405906038150E+00
N    1.6186811126473937E+00    1.0280036845009320E+01    7.7863549591144769E+00
Ga    1.6186857539485482E+00    8.4109370409056936E+00    8.4078216615908445E+00
N    1.6186856672730137E+00    8.4109369803068983E+00    1.0382040684587244E+01
Ga    1.6186906609617455E+00    1.0280031648484496E+01    1.1003501914188762E+01
N    1.6186812281267564E+00    1.0280036578194212E+01    1.2977716837145868E+01
Ga    1.6186858014349788E+00    8.4109369114207357E+00    1.3599182875397593E+01
N    9.7121135657317463E+00   -1.5879957628280706E-07   -6.8133319747533307E-04
Ga    9.7121183572807919E+00    1.8690943474342834E+00    6.2077918150698319E-01
N    9.7121091339151633E+00    1.8690996595858747E+00    2.5949931311974677E+00
Ga    9.7121137412266769E+00    1.4536893748675634E-07    3.2164604697149559E+00
N    9.7121135486428685E+00    1.8663637024771669E-07    5.1906803902662304E+00
Ga    9.7121185894095667E+00    1.8690943961024133E+00    5.8121406133038764E+00
N    9.7121093327682555E+00    1.8690997495230062E+00    7.7863552930156512E+00
Ga    9.7121138169628249E+00   -1.1276327375456641E-08    8.4078218905732083E+00
N    9.7121136223042672E+00    3.5758643962671908E-08    1.0382040569041266E+01
Ga    9.7121184235055900E+00    1.8690943357830339E+00    1.1003501894618317E+01
N    9.7121093478536924E+00    1.8690995299385775E+00    1.2977717077836772E+01
Ga    9.7121137197181735E+00    5.6041814996597274E-08    1.3599183322373033E+01
N    8.0934279525219939E+00    2.8036456878351115E+00   -6.8145078848385785E-04
Ga    8.0934327680522458E+00    4.6727400177891996E+00    6.2077923927562417E-01
N    8.0934235020233647E+00    4.6727454241922342E+00    2.5949929924428470E+00
Ga    8.0934280047123277E+00    2.8036458048214135E+00    3.2164603802258784E+00
N    8.0934278862189633E+00    2.8036457555190264E+00    5.1906802052623613E+00
Ga    8.0934327808585937E+00    4.6727402544931493E+00    5.8121405401453465E+00
N    8.0934238464627040E+00    4.6727452991898053E+00    7.7863551627595511E+00
Ga    8.0934283008207828E+00    2.8036458710874421E+00    8.4078217518546783E+00
N    8.0934281310548997E+00    2.8036457845600578E+00    1.0382040254079881E+01
Ga    8.0934328210576574E+00    4.6727400386902067E+00    1.1003502136936065E+01
N    8.0934236402602622E+00    4.6727454517265352E+00    1.2977716809345603E+01
Ga    8.0934279905548223E+00    2.8036457114984308E+00    1.3599183146051606E+01
N    6.4747423128509638E+00    5.6072913652599068E+00   -6.8126149236399881E-04
Ga    6.4747474506129707E+00    7.4763859244916233E+00    6.2077928240314739E-01
N    6.4747380130676291E+00    7.4763911043855522E+00    2.5949930579054192E+00
Ga    6.4747425098254148E+00    5.6072914527836186E+00    3.2164605590229609E+00
N    6.4747424503410667E+00    5.6072912242621769E+00    5.1906803565766886E+00
Ga    6.4747470261625102E+00    7.4763859883508905E+00    5.8121406798073956E+00
N    6.4747381565056630E+00    7.4763909647497027E+00    7.7863555045650559E+00
Ga    6.4747422817101254E+00    5.6072916745661239E+00    8.4078215572115820E+00
N    6.4747424424825955E+00    5.6072915248865929E+00    1.0382040554040303E+01
Ga    6.4747473414780714E+00    7.4763858038312554E+00    1.1003502038226282E+01
N    6.4747382067069186E+00    7.4763911007928785E+00    1.2977717011228277E+01
Ga    6.4747425845114357E+00    5.6072914295487672E+00    1.3599183066672980E+01
N    4.8560567376089168E+00    8.4109371644045137E+00   -6.8151147270995830E-04
Ga    4.8560616684707476E+00    1.0280031698234266E+01    6.2077913994699141E-01
N    4.8560523274578928E+00    1.0280036754447513E+01    2.5949927829122363E+00
Ga    4.8560569635911683E+00    8.4109371465069316E+00    3.2164607919206416E+00
N    4.8560568417205561E+00    8.4109370496666802E+00    5.1906801363155939E+00
Ga    4.8560616575424431E+00    1.0280031198949862E+01    5.8121406275405931E+00
N    4.8560525544493354E+00    1.0280036768356879E+01    7.7863551854874657E+00
Ga    4.8560569883760110E+00    8.4109370831129446E+00    8.4078214212522191E+00
N    4.8560568509614104E+00    8.4109370241697814E+00    1.0382040393309760E+01
Ga    4.8560616515134916E+00    1.0280031779828441E+01    1.1003501910949144E+01
N    4.8560525019135090E+00    1.0280036628304821E+01    1.2977716932687629E+01
Ga    4.8560566992779783E+00    8.4109371156332866E+00    1.3599183068126111E+01
     &END COORD
     &KIND N
       BASIS_SET DZVP-MOLOPT-SR-GTH
       POTENTIAL GTH-PBE-q5
       &POTENTIAL
 2 3
  0.2837905100000000E+00 2 -0.1241522559000000E+02  0.1868095920000000E+01
 2
  0.2554050000000000E+00 1  0.1363026257000000E+02
  0.2454945300000000E+00 0
         # Potential name:  GTH-PBE-Q5  for symbol:  N
         # Potential read from the potential filename: GTH_POTENTIALS
       &END POTENTIAL
     &END KIND
     &KIND Ga
       BASIS_SET DZVP-MOLOPT-SR-GTH
       POTENTIAL GTH-PBE-q13
       &POTENTIAL
 2 1 10
  0.4900000000000000E+00 0
 3
  0.4167772300000000E+00 3  0.1047568975000000E+02 -0.4921768140000000E+01  0.8707055900000000E+00
  0.7770178090000000E+01 -0.2248152160000000E+01
  0.1784415450000000E+01
  0.5696265200000000E+00 2  0.1777985340000000E+01  0.1958597600000000E+00
 -0.2317443900000000E+00
  0.2381265000000000E+00 1 -0.1624868022000000E+02
         # Potential name:  GTH-PBE-Q13  for symbol:  GA
         # Potential read from the potential filename: GTH_POTENTIALS
       &END POTENTIAL
     &END KIND
     &TOPOLOGY
       NUMBER_OF_ATOMS  192
       MULTIPLE_UNIT_CELL  1 1 1
     &END TOPOLOGY
   &END SUBSYS
 &END FORCE_EVAL
