 # Version information for this restart file 
 # current date 2019-06-23 21:36:21.739
 # current working dir /scratch/rzk/rzk/GaN-carbene/443-adatoms-both-2x2/00-Bulk-optimization
 # Program compiled at                              Sun Apr  7 00:48:11 EDT 2019
 # Program compiled on                          beluga2.int.ets1.calculquebec.ca
 # Program compiled for                        Beluga-Linux-x86-64-intel-openmpi
 # Source code revision number                                         svn:18619
 &GLOBAL
   PRINT_LEVEL  MEDIUM
   PROJECT_NAME TEST
   RUN_TYPE  CELL_OPT
 &END GLOBAL
 &MOTION
   &CELL_OPT
     MAX_ITER  300
     STEP_START_VAL  5
     EXTERNAL_PRESSURE     1.0000000000000000E+00
     KEEP_ANGLES  T
     KEEP_SYMMETRY  T
     PRESSURE_TOLERANCE     5.0000000000000000E+02
   &END CELL_OPT
 &END MOTION
 &FORCE_EVAL
   METHOD  QS
   STRESS_TENSOR  ANALYTICAL
   &DFT
     BASIS_SET_FILE_NAME BASIS_MOLOPT
     POTENTIAL_FILE_NAME GTH_POTENTIALS
     &SCF
       MAX_SCF  100
       EPS_SCF     1.0000000000000004E-07
       &OT  T
         PRECONDITIONER  FULL_ALL
       &END OT
       &OUTER_SCF  T
         OPTIMIZER  NONE
         EPS_SCF     1.0000000000000004E-07
         MAX_SCF  4
       &END OUTER_SCF
       &PRINT
         &RESTART  OFF
           BACKUP_COPIES  1
           &EACH
             JUST_ENERGY  0
             QS_SCF  0
             MD  20
           &END EACH
         &END RESTART
       &END PRINT
     &END SCF
     &QS
       EPS_DEFAULT     1.0000000000000000E-14
       METHOD  GPW
     &END QS
     &MGRID
       NGRIDS  5
       CUTOFF     1.2000000000000000E+03
     &END MGRID
     &XC
       DENSITY_CUTOFF     1.0000000000000000E-10
       GRADIENT_CUTOFF     1.0000000000000000E-10
       TAU_CUTOFF     1.0000000000000000E-10
       &XC_FUNCTIONAL  NO_SHORTCUT
         &PBE  T
         &END PBE
       &END XC_FUNCTIONAL
       &VDW_POTENTIAL
         POTENTIAL_TYPE  PAIR_POTENTIAL
         &PAIR_POTENTIAL
           R_CUTOFF     1.0000000000000004E+01
           TYPE  DFTD3
           PARAMETER_FILE_NAME dftd3.dat
           REFERENCE_FUNCTIONAL PBE
           EPS_CN     9.9999999999999995E-07
           CALCULATE_C9_TERM  T
           REFERENCE_C9_TERM  T
           LONG_RANGE_CORRECTION  F
           VERBOSE_OUTPUT  F
         &END PAIR_POTENTIAL
       &END VDW_POTENTIAL
     &END XC
   &END DFT
   &SUBSYS
     &CELL
       A     1.2863639360111074E+01    0.0000000000000000E+00    0.0000000000000000E+00
       B    -6.4318196422128802E+00    1.1140238405432189E+01    0.0000000000000000E+00
       C     9.5753470737087136E-18   -1.5623067953774013E-17    1.5720766252750600E+01
       MULTIPLE_UNIT_CELL  1 1 1
       &CELL_REF
         A     1.2982353780853531E+01    0.0000000000000000E+00    0.0000000000000000E+00
         B    -6.4911768904267628E+00    1.1243048175136114E+01    0.0000000000000000E+00
         C     0.0000000000000000E+00    0.0000000000000000E+00    1.5558000000000000E+01
         MULTIPLE_UNIT_CELL  1 1 1
       &END CELL_REF
     &END CELL
     &COORD
N    1.6095627924948401E-05   -9.4039208850101061E-06   -1.0872418130751342E-02
Ga    3.5871052943864173E-05    1.8566853995314696E+00    6.3720427800067236E-01
N   -5.2762051347426850E-06    1.8567093170997881E+00    2.6092478830141377E+00
Ga   -3.1335858980860397E-06    1.9898943608090288E-06    3.2573334845149295E+00
N    1.6112687536666757E-05   -9.1572953416615602E-06    5.2293862782826359E+00
Ga    3.6015690339993998E-05    1.8566856580246658E+00    5.8774618657819531E+00
N   -5.0190302099359447E-06    1.8567091842880059E+00    7.8495063868878869E+00
Ga   -3.1178043268764862E-06    1.8603846188045505E-06    8.4975874134420728E+00
N    1.6233933456814132E-05   -9.2851621838041064E-06    1.0469635041685342E+01
Ga    3.5899378080241156E-05    1.8566854360897149E+00    1.1117716548079208E+01
N   -4.9321401998931518E-06    1.8567092399989547E+00    1.3089765538918479E+01
Ga   -3.0551881810943478E-06    1.8478722418671510E-06    1.3737846123175215E+01
N   -1.6079386624707410E+00    2.7850501900553883E+00   -1.0872500779285385E-02
Ga   -1.6079189712409250E+00    4.6417451809973764E+00    6.3720423585373076E-01
N   -1.6079601433774859E+00    4.6417688775999881E+00    2.6092478677119608E+00
Ga   -1.6079578725606409E+00    2.7850614616282292E+00    3.2573334275494816E+00
N   -1.6079386804641502E+00    2.7850502855201476E+00    5.2293860757242969E+00
Ga   -1.6079190339031444E+00    4.6417452229693854E+00    5.8774615845490636E+00
N   -1.6079600635344717E+00    4.6417687058061903E+00    7.8495062366293098E+00
Ga   -1.6079577346774134E+00    2.7850613601714271E+00    8.4975873568904010E+00
N   -1.6079386546317163E+00    2.7850501941113293E+00    1.0469634767155817E+01
Ga   -1.6079189321580292E+00    4.6417449792356553E+00    1.1117716588370429E+01
N   -1.6079599180286424E+00    4.6417688364605052E+00    1.3089765406788974E+01
Ga   -1.6079577807428758E+00    2.7850615576724809E+00    1.3737845859616465E+01
N   -3.2158938020143228E+00    5.5701098666848727E+00   -1.0872213604848109E-02
Ga   -3.2158743089612525E+00    7.4268048307619772E+00    6.3720407708261539E-01
N   -3.2159153224790802E+00    7.4268285844424478E+00    2.6092479201197398E+00
Ga   -3.2159131334445852E+00    5.5701207637650141E+00    3.2573333798597530E+00
N   -3.2158937918280497E+00    5.5701097618727404E+00    5.2293864221274067E+00
Ga   -3.2158742702261791E+00    7.4268044364750141E+00    5.8774616898358634E+00
N   -3.2159150974943440E+00    7.4268283334574026E+00    7.8495065617364892E+00
Ga   -3.2159130177461557E+00    5.5701208868698142E+00    8.4975872447910117E+00
N   -3.2158937514037382E+00    5.5701098905338737E+00    1.0469635165856984E+01
Ga   -3.2158741028216649E+00    7.4268048045235719E+00    1.1117716442504857E+01
N   -3.2159151130624535E+00    7.4268286192304132E+00    1.3089765551249149E+01
Ga   -3.2159128730901765E+00    5.5701207200999754E+00    1.3737845686604505E+01
N   -4.8238488234112333E+00    8.3551696567457725E+00   -1.0872618098030895E-02
Ga   -4.8238289445610052E+00    1.0211864202118182E+01    6.3720406192896140E-01
N   -4.8238702878739614E+00    1.0211888252794992E+01    2.6092475892783273E+00
Ga   -4.8238680386897892E+00    8.3551808802861416E+00    3.2573335636988530E+00
N   -4.8238487483536980E+00    8.3551695936990562E+00    5.2293861198068425E+00
Ga   -4.8238289587356551E+00    1.0211864358869496E+01    5.8774616582292367E+00
N   -4.8238699742875415E+00    1.0211888236022872E+01    7.8495062809925216E+00
Ga   -4.8238679039186039E+00    8.3551805468103701E+00    8.4975873255151875E+00
N   -4.8238486894891652E+00    8.3551695686610064E+00    1.0469635017203384E+01
Ga   -4.8238289838340336E+00    1.0211864467646857E+01    1.1117716460626628E+01
N   -4.8238699381351369E+00    1.0211888058390159E+01    1.3089765393735886E+01
Ga   -4.8238678428874211E+00    8.3551807118355690E+00    1.3737846059986582E+01
N    3.2159255731883079E+00   -9.4030597911559025E-06   -1.0872545873536367E-02
Ga    3.2159457445734372E+00    1.8566856713773741E+00    6.3720416346168796E-01
N    3.2159044666759802E+00    1.8567092985621578E+00    2.6092481362073032E+00
Ga    3.2159062619530969E+00    1.6904817538288140E-06    3.2573334362588420E+00
N    3.2159256008248986E+00   -9.2234438376108659E-06    5.2293861773770844E+00
Ga    3.2159456170900018E+00    1.8566857584084928E+00    5.8774618037412711E+00
N    3.2159046967907154E+00    1.8567091510713709E+00    7.8495066935728071E+00
Ga    3.2159064945948330E+00    1.8569175845462416E-06    8.4975873565263225E+00
N    3.2159256954821194E+00   -9.3201777001340626E-06    1.0469634984873789E+01
Ga    3.2159456082149083E+00    1.8566855409692367E+00    1.1117716580889562E+01
N    3.2159046635030770E+00    1.8567092157334995E+00    1.3089765741853727E+01
Ga    3.2159064916868156E+00    1.6853767085578061E-06    1.3737845902513989E+01
N    1.6079708066186289E+00    2.7850501703569956E+00   -1.0872753536125336E-02
Ga    1.6079908514496968E+00    4.6417450248334511E+00    6.3720421865964294E-01
N    1.6079496463443175E+00    4.6417689014854400E+00    2.6092480411233625E+00
Ga    1.6079514609297301E+00    2.7850613851757564E+00    3.2573335149172431E+00
N    1.6079707562437160E+00    2.7850500471644439E+00    5.2293859221665562E+00
Ga    1.6079909031837838E+00    4.6417450906353448E+00    5.8774616792764371E+00
N    1.6079498877125888E+00    4.6417686472960531E+00    7.8495065158962714E+00
Ga    1.6079516946241192E+00    2.7850612544073594E+00    8.4975872076250258E+00
N    1.6079709302087737E+00    2.7850500955613637E+00    1.0469634709501245E+01
Ga    1.6079907779892180E+00    4.6417449901254377E+00    1.1117716415859705E+01
N    1.6079499814424763E+00    4.6417688416627501E+00    1.3089765710574696E+01
Ga    1.6079517319796226E+00    2.7850611928982825E+00    1.3737845833097850E+01
N    1.6114636173211345E-05    5.5701095675572976E+00   -1.0872502999704403E-02
Ga    3.6028770874719047E-05    7.4268045254558270E+00    6.3720410880964773E-01
N   -5.0479452105939529E-06    7.4268282370800947E+00    2.6092481711346180E+00
Ga   -3.3323707076667155E-06    5.5701206232341027E+00    3.2573333448884290E+00
N    1.5954038905192104E-05    5.5701095055498140E+00    5.2293861399082129E+00
Ga    3.6260370201635353E-05    7.4268044131139277E+00    5.8774615109759347E+00
N   -4.9358215851090471E-06    7.4268281875368709E+00    7.8495067401698480E+00
Ga   -3.0014083371048121E-06    5.5701206143969424E+00    8.4975874228905681E+00
N    1.6138724807949388E-05    5.5701096655113860E+00    1.0469635076945645E+01
Ga    3.6017784809175822E-05    7.4268045966145566E+00    1.1117716552244783E+01
N   -4.7222400829166571E-06    7.4268282171995450E+00    1.3089765822269229E+01
Ga   -3.2946322438147211E-06    5.5701206242486503E+00    1.3737845724776165E+01
N   -1.6079390305037125E+00    8.3551694146018320E+00   -1.0872697236212153E-02
Ga   -1.6079190528733860E+00    1.0211864529895479E+01    6.3720396710858695E-01
N   -1.6079603300902470E+00    1.0211888285977695E+01    2.6092479413649583E+00
Ga   -1.6079580774701261E+00    8.3551804768456623E+00    3.2573332827328265E+00
N   -1.6079389712175882E+00    8.3551693587802873E+00    5.2293859987869098E+00
Ga   -1.6079189847356994E+00    1.0211864648464859E+01    5.8774616499792769E+00
N   -1.6079601392039060E+00    1.0211888260652259E+01    7.8495065962359885E+00
Ga   -1.6079581879031979E+00    8.3551803881736948E+00    8.4975873533549695E+00
N   -1.6079389765735836E+00    8.3551694027231349E+00    1.0469634952921485E+01
Ga   -1.6079190610211227E+00    1.0211864479141218E+01    1.1117716427518140E+01
N   -1.6079601202870908E+00    1.0211888081598525E+01    1.3089765645652065E+01
Ga   -1.6079578927206928E+00    8.3551805310966820E+00    1.3737845795549584E+01
N    6.4318358741810089E+00   -9.1790324948125554E-06   -1.0872220530239000E-02
Ga    6.4318557452395089E+00    1.8566858914261273E+00    6.3720417071235635E-01
N    6.4318146012502888E+00    1.8567095634079229E+00    2.6092480686825388E+00
Ga    6.4318165268306933E+00    2.0785644502052427E-06    3.2573331982567315E+00
N    6.4318357775060422E+00   -8.9642366870446050E-06    5.2293864324395170E+00
Ga    6.4318556228557613E+00    1.8566858982909435E+00    5.8774617022275706E+00
N    6.4318147663397278E+00    1.8567094201374363E+00    7.8495063505148837E+00
Ga    6.4318166784631954E+00    1.8645357323759762E-06    8.4975872235504859E+00
N    6.4318357285433398E+00   -9.2022950895281228E-06    1.0469635244365531E+01
Ga    6.4318557472453977E+00    1.8566857497874412E+00    1.1117716667735873E+01
N    6.4318147368006411E+00    1.8567093563128583E+00    1.3089765725587792E+01
Ga    6.4318166098533975E+00    1.8661658742310781E-06    1.3737845702825002E+01
N    4.8238808316626995E+00    2.7850504894228809E+00   -1.0872424405042666E-02
Ga    4.8239007293658061E+00    4.6417453470257453E+00    6.3720406141469443E-01
N    4.8238596893112806E+00    4.6417690821803284E+00    2.6092478888403514E+00
Ga    4.8238615593612293E+00    2.7850615075489427E+00    3.2573333219176859E+00
N    4.8238808667836492E+00    2.7850502746146497E+00    5.2293862374680895E+00
Ga    4.8239006476003814E+00    4.6417454623409098E+00    5.8774615689354377E+00
N    4.8238597841861939E+00    4.6417690434962120E+00    7.8495062260241717E+00
Ga    4.8238614892089249E+00    2.7850614566327900E+00    8.4975870967969200E+00
N    4.8238806863259587E+00    2.7850503278188445E+00    1.0469635071450616E+01
Ga    4.8239005947921383E+00    4.6417453338810128E+00    1.1117716341333395E+01
N    4.8238597744121892E+00    4.6417691808139070E+00    1.3089765727720698E+01
Ga    4.8238615233294988E+00    2.7850612769297860E+00    1.3737845726482798E+01
N    3.2159258656760676E+00    5.5701099763945825E+00   -1.0872403331712374E-02
Ga    3.2159463002567370E+00    7.4268048141922103E+00    6.3720415536922348E-01
N    3.2159048863717352E+00    7.4268286264844638E+00    2.6092479005379814E+00
Ga    3.2159065352049341E+00    5.5701209891051464E+00    3.2573334441841868E+00
N    3.2159258542299818E+00    5.5701099460239645E+00    5.2293864007780311E+00
Ga    3.2159463323871393E+00    7.4268046985232310E+00    5.8774616674932512E+00
N    3.2159052294022770E+00    7.4268284092209012E+00    7.8495064998458854E+00
Ga    3.2159068500305641E+00    5.5701210327907518E+00    8.4975873464548641E+00
N    3.2159257756103781E+00    5.5701099771616462E+00    1.0469635322556737E+01
Ga    3.2159460857013045E+00    7.4268047970361870E+00    1.1117716718251931E+01
N    3.2159050932088245E+00    7.4268284033276828E+00    1.3089765700812393E+01
Ga    3.2159066232786317E+00    5.5701212011300925E+00    1.3737845694308012E+01
N    1.6079713246082366E+00    8.3551694607842926E+00   -1.0872535026672405E-02
Ga    1.6079912277804134E+00    1.0211864672919516E+01    6.3720403837874839E-01
N    1.6079499354702158E+00    1.0211888334924433E+01    2.6092478410744815E+00
Ga    1.6079519897057513E+00    8.3551807309831236E+00    3.2573333388031158E+00
N    1.6079713454114024E+00    8.3551694226339421E+00    5.2293861822473744E+00
Ga    1.6079911036415393E+00    1.0211864516271044E+01    5.8774616303396812E+00
N    1.6079501273353758E+00    1.0211888320468697E+01    7.8495062438543508E+00
Ga    1.6079522696824737E+00    8.3551805131570944E+00    8.4975872553900587E+00
N    1.6079713058150034E+00    8.3551693400615328E+00    1.0469635258295547E+01
Ga    1.6079912003768615E+00    1.0211864584003253E+01    1.1117716479899659E+01
N    1.6079502337882192E+00    1.0211887935906670E+01    1.3089765666582190E+01
Ga    1.6079521772556788E+00    8.3551804608119316E+00    1.3737845506558397E+01
N    9.6477459895761282E+00   -9.3077887241996967E-06   -1.0872506225673919E-02
Ga    9.6477654619973467E+00    1.8566856139494834E+00    6.3720422250774000E-01
N    9.6477245155004905E+00    1.8567094463213014E+00    2.6092480959336575E+00
Ga    9.6477265482834262E+00    1.8628786714203221E-06    3.2573334332346171E+00
N    9.6477458897958481E+00   -9.1112032684025097E-06    5.2293860804537582E+00
Ga    9.6477656333007875E+00    1.8566857573307758E+00    5.8774617811926939E+00
N    9.6477247675359301E+00    1.8567093646698378E+00    7.8495065883160891E+00
Ga    9.6477267394114747E+00    1.6719254855008536E-06    8.4975873592758546E+00
N    9.6477459945652573E+00   -9.1603199185204219E-06    1.0469634909019925E+01
Ga    9.6477655549221204E+00    1.8566857171145525E+00    1.1117716515838232E+01
N    9.6477247751554884E+00    1.8567092760356430E+00    1.3089765750728080E+01
Ga    9.6477266208378083E+00    1.7230043170888046E-06    1.3737846115834975E+01
N    8.0397908676356256E+00    2.7850503972666165E+00   -1.0872648276172250E-02
Ga    8.0398105332611163E+00    4.6417451918265256E+00    6.3720433408719357E-01
N    8.0397694929847727E+00    4.6417690778949652E+00    2.6092480478049036E+00
Ga    8.0397714533797906E+00    2.7850616323607342E+00    3.2573333986306352E+00
N    8.0397908168345165E+00    2.7850504446364326E+00    5.2293859142887582E+00
Ga    8.0398106405504617E+00    4.6417453870902223E+00    5.8774617271325855E+00
N    8.0397697365834109E+00    4.6417689598730654E+00    7.8495063723323488E+00
Ga    8.0397717186652997E+00    2.7850615891841359E+00    8.4975872314977785E+00
N    8.0397909977170219E+00    2.7850504375868894E+00    1.0469634677755552E+01
Ga    8.0398106968957741E+00    4.6417451228669799E+00    1.1117716633768319E+01
N    8.0397696304590731E+00    4.6417690747540199E+00    1.3089765633652789E+01
Ga    8.0397715607904505E+00    2.7850613800384116E+00    1.3737845895682330E+01
N    6.4318358091374073E+00    5.5701100667840153E+00   -1.0872490286719357E-02
Ga    6.4318558926069365E+00    7.4268049336389543E+00    6.3720427465328044E-01
N    6.4318146400824139E+00    7.4268287273435041E+00    2.6092479723077169E+00
Ga    6.4318166258694465E+00    5.5701210925782991E+00    3.2573333503556046E+00
N    6.4318359067784865E+00    5.5701099562773564E+00    5.2293862390768249E+00
Ga    6.4318555556495696E+00    7.4268049350936804E+00    5.8774618490568917E+00
N    6.4318148487184592E+00    7.4268285735738919E+00    7.8495066243450360E+00
Ga    6.4318166248135302E+00    5.5701211776803872E+00    8.4975869854845580E+00
N    6.4318359290566276E+00    5.5701101308390975E+00    1.0469635056616067E+01
Ga    6.4318558674163517E+00    7.4268049556793727E+00    1.1117716665109159E+01
N    6.4318148086594462E+00    7.4268286746345451E+00    1.3089765776909834E+01
Ga    6.4318167584027197E+00    5.5701211173454723E+00    1.3737845685020448E+01
N    4.8238811446362462E+00    8.3551696870934649E+00   -1.0872834269286615E-02
Ga    4.8239008573017603E+00    1.0211864623054078E+01    6.3720419374144022E-01
N    4.8238598046840915E+00    1.0211888296261106E+01    2.6092477581537366E+00
Ga    4.8238617808760154E+00    8.3551807359357575E+00    3.2573336401320385E+00
N    4.8238811047874011E+00    8.3551695906893215E+00    5.2293859284905020E+00
Ga    4.8239009299376363E+00    1.0211864305894249E+01    5.8774617863045995E+00
N    4.8238600458812577E+00    1.0211888149483974E+01    7.8495064451296601E+00
Ga    4.8238618383149250E+00    8.3551805112786379E+00    8.4975870525899619E+00
N    4.8238811363652863E+00    8.3551695827119108E+00    1.0469634835244715E+01
Ga    4.8239009518924743E+00    1.0211864683632168E+01    1.1117716509113004E+01
N    4.8238600299072987E+00    1.0211887976579558E+01    1.3089765641959385E+01
Ga    4.8238616418773956E+00    8.3551805062047588E+00    1.3737845791807253E+01
     &END COORD
     &KIND N
       BASIS_SET DZVP-MOLOPT-SR-GTH
       POTENTIAL GTH-PBE-q5
       &POTENTIAL
 2 3
  0.2837905100000000E+00 2 -0.1241522559000000E+02  0.1868095920000000E+01
 2
  0.2554050000000000E+00 1  0.1363026257000000E+02
  0.2454945300000000E+00 0
         # Potential name:  GTH-PBE-Q5  for symbol:  N
         # Potential read from the potential filename: GTH_POTENTIALS
       &END POTENTIAL
     &END KIND
     &KIND Ga
       BASIS_SET DZVP-MOLOPT-SR-GTH
       POTENTIAL GTH-PBE-q13
       &POTENTIAL
 2 1 10
  0.4900000000000000E+00 0
 3
  0.4167772300000000E+00 3  0.1047568975000000E+02 -0.4921768140000000E+01  0.8707055900000000E+00
  0.7770178090000000E+01 -0.2248152160000000E+01
  0.1784415450000000E+01
  0.5696265200000000E+00 2  0.1777985340000000E+01  0.1958597600000000E+00
 -0.2317443900000000E+00
  0.2381265000000000E+00 1 -0.1624868022000000E+02
         # Potential name:  GTH-PBE-Q13  for symbol:  GA
         # Potential read from the potential filename: GTH_POTENTIALS
       &END POTENTIAL
     &END KIND
     &TOPOLOGY
       NUMBER_OF_ATOMS  192
       MULTIPLE_UNIT_CELL  1 1 1
     &END TOPOLOGY
   &END SUBSYS
 &END FORCE_EVAL
