 # Version information for this restart file 
 # current date 2019-06-23 21:31:24.681
 # current working dir /scratch/rzk/rzk/GaN-carbene/443-adatoms-both-2x2/00-Bulk-optimization
 # Program compiled at                              Sun Apr  7 00:48:11 EDT 2019
 # Program compiled on                          beluga2.int.ets1.calculquebec.ca
 # Program compiled for                        Beluga-Linux-x86-64-intel-openmpi
 # Source code revision number                                         svn:18619
 &GLOBAL
   PRINT_LEVEL  MEDIUM
   PROJECT_NAME TEST
   RUN_TYPE  CELL_OPT
 &END GLOBAL
 &MOTION
   &CELL_OPT
     MAX_ITER  300
     STEP_START_VAL  2
     EXTERNAL_PRESSURE     1.0000000000000000E+00
     KEEP_ANGLES  T
     KEEP_SYMMETRY  T
     PRESSURE_TOLERANCE     5.0000000000000000E+02
   &END CELL_OPT
 &END MOTION
 &FORCE_EVAL
   METHOD  QS
   STRESS_TENSOR  ANALYTICAL
   &DFT
     BASIS_SET_FILE_NAME BASIS_MOLOPT
     POTENTIAL_FILE_NAME GTH_POTENTIALS
     &SCF
       MAX_SCF  100
       EPS_SCF     1.0000000000000004E-07
       &OT  T
         PRECONDITIONER  FULL_ALL
       &END OT
       &OUTER_SCF  T
         OPTIMIZER  NONE
         EPS_SCF     1.0000000000000004E-07
         MAX_SCF  4
       &END OUTER_SCF
       &PRINT
         &RESTART  OFF
           BACKUP_COPIES  1
           &EACH
             JUST_ENERGY  0
             QS_SCF  0
             MD  20
           &END EACH
         &END RESTART
       &END PRINT
     &END SCF
     &QS
       EPS_DEFAULT     1.0000000000000000E-14
       METHOD  GPW
     &END QS
     &MGRID
       NGRIDS  5
       CUTOFF     1.2000000000000000E+03
     &END MGRID
     &XC
       DENSITY_CUTOFF     1.0000000000000000E-10
       GRADIENT_CUTOFF     1.0000000000000000E-10
       TAU_CUTOFF     1.0000000000000000E-10
       &XC_FUNCTIONAL  NO_SHORTCUT
         &PBE  T
         &END PBE
       &END XC_FUNCTIONAL
       &VDW_POTENTIAL
         POTENTIAL_TYPE  PAIR_POTENTIAL
         &PAIR_POTENTIAL
           R_CUTOFF     1.0000000000000004E+01
           TYPE  DFTD3
           PARAMETER_FILE_NAME dftd3.dat
           REFERENCE_FUNCTIONAL PBE
           EPS_CN     9.9999999999999995E-07
           CALCULATE_C9_TERM  T
           REFERENCE_C9_TERM  T
           LONG_RANGE_CORRECTION  F
           VERBOSE_OUTPUT  F
         &END PAIR_POTENTIAL
       &END VDW_POTENTIAL
     &END XC
   &END DFT
   &SUBSYS
     &CELL
       A     1.2871877868685996E+01    0.0000000000000000E+00    0.0000000000000000E+00
       B    -6.4359389144468118E+00    1.1147373194231569E+01    0.0000000000000000E+00
       C     1.5532133155047226E-17   -1.8490561070901254E-17    1.5630380625927014E+01
       MULTIPLE_UNIT_CELL  1 1 1
       &CELL_REF
         A     1.2982353780853531E+01    0.0000000000000000E+00    0.0000000000000000E+00
         B    -6.4911768904267628E+00    1.1243048175136114E+01    0.0000000000000000E+00
         C     0.0000000000000000E+00    0.0000000000000000E+00    1.5558000000000000E+01
         MULTIPLE_UNIT_CELL  1 1 1
       &END CELL_REF
     &END CELL
     &COORD
N    1.5755019606427990E-06   -1.0016099127314606E-06   -3.6733110094802402E-03
Ga    1.8342735993212998E-05    1.8578845502321106E+00    6.2614631674487076E-01
N   -3.7315235036031874E-06    1.8578977786615516E+00    2.6013850833880916E+00
Ga   -1.8780375976186074E-06    1.2426163771523463E-06    3.2312117814399421E+00
N    1.5618791361415603E-06   -9.0651544232497883E-07    5.2064553639489963E+00
Ga    1.8346520737356918E-05    1.8578847370159806E+00    5.8362736787877445E+00
N   -3.5670436730372112E-06    1.8578977280628177E+00    7.8115143291506683E+00
Ga   -1.8449628423661878E-06    1.1652360316881359E-06    8.4413382655838856E+00
N    1.6427301113002006E-06   -9.3575376523649509E-07    1.0416578302178475E+01
Ga    1.8361323708259121E-05    1.8578845701767401E+00    1.1046400311338250E+01
N   -3.5694106979304583E-06    1.8578977509693284E+00    1.3021642703479380E+01
Ga   -1.8544645971142137E-06    1.0614776134937750E-06    1.3651466092852278E+01
N   -1.6089832872584167E+00    2.7868424754782186E+00   -3.6734268329640927E-03
Ga   -1.6089662201354631E+00    4.6447278794387534E+00    6.2614617282824114E-01
N   -1.6089884745925707E+00    4.6447411376942540E+00    2.6013849613791367E+00
Ga   -1.6089863316149240E+00    2.7868441501164112E+00    3.2312118198297148E+00
N   -1.6089832307616319E+00    2.7868425282312352E+00    5.2064552207475696E+00
Ga   -1.6089663341847213E+00    4.6447277580604220E+00    5.8362735400207857E+00
N   -1.6089883404997636E+00    4.6447410823860666E+00    7.8115142402064572E+00
Ga   -1.6089863290274120E+00    2.7868441784128812E+00    8.4413381641154839E+00
N   -1.6089832514337143E+00    2.7868424669552252E+00    1.0416578140126143E+01
Ga   -1.6089662074798474E+00    4.6447278287262108E+00    1.1046400222046930E+01
N   -1.6089883462384518E+00    4.6447410731582179E+00    1.3021642547686620E+01
Ga   -1.6089862481808950E+00    2.7868442544392997E+00    1.3651465937461539E+01
N   -3.2179679493070061E+00    5.5736857296530236E+00   -3.6731116123620952E-03
Ga   -3.2179516726919872E+00    7.4315714288023784E+00    6.2614619644027159E-01
N   -3.2179730948754011E+00    7.4315843813685394E+00    2.6013850961742668E+00
Ga   -3.2179715215713625E+00    5.5736874555551559E+00    3.2312117452908953E+00
N   -3.2179679616344417E+00    5.5736857261079615E+00    5.2064553674073837E+00
Ga   -3.2179516171677904E+00    7.4315711687778254E+00    5.8362735398992278E+00
N   -3.2179729583813881E+00    7.4315842470746327E+00    7.8115144442156508E+00
Ga   -3.2179713617511165E+00    5.5736873671885245E+00    8.4413381175840030E+00
N   -3.2179679086637991E+00    5.5736857436836758E+00    1.0416578356937436E+01
Ga   -3.2179516030296984E+00    7.4315713460880080E+00    1.1046400244572068E+01
N   -3.2179728387142554E+00    7.4315844234587818E+00    1.3021642747673276E+01
Ga   -3.2179714571552442E+00    5.5736874502926064E+00    1.3651465746916264E+01
N   -4.8269524875174419E+00    8.3605290410296114E+00   -3.6733992466198395E-03
Ga   -4.8269362836349261E+00    1.0218414686975676E+01    6.2614616947628354E-01
N   -4.8269578449828945E+00    1.0218427544666783E+01    2.6013848884959425E+00
Ga   -4.8269564590684899E+00    8.3605312056694743E+00    3.2312117514803789E+00
N   -4.8269526177582627E+00    8.3605289470358137E+00    5.2064551847643905E+00
Ga   -4.8269361818999688E+00    1.0218414807858816E+01    5.8362735753662331E+00
N   -4.8269576865557617E+00    1.0218427592984927E+01    7.8115142533162265E+00
Ga   -4.8269563880573285E+00    8.3605310836012379E+00    8.4413381621055699E+00
N   -4.8269524651952196E+00    8.3605290005219803E+00    1.0416578214366613E+01
Ga   -4.8269362508174796E+00    1.0218414842487000E+01    1.1046400289959296E+01
N   -4.8269575657288311E+00    1.0218427544239589E+01    1.3021642601274973E+01
Ga   -4.8269564424700633E+00    8.3605311157946183E+00    1.3651465935097724E+01
N    3.2179712322441016E+00   -1.0495805954237319E-06   -3.6734538358295793E-03
Ga    3.2179874822619756E+00    1.8578849433053450E+00    6.2614626577873433E-01
N    3.2179659129612261E+00    1.8578976478388729E+00    2.6013852477826460E+00
Ga    3.2179668133196562E+00    1.0889555590885221E-06    3.2312117513299765E+00
N    3.2179711211053776E+00   -8.7387042088547593E-07    5.2064552510598032E+00
Ga    3.2179874937540291E+00    1.8578848883288066E+00    5.8362736576203016E+00
N    3.2179659821132818E+00    1.8578975787996355E+00    7.8115145424527430E+00
Ga    3.2179669338470034E+00    1.1930843911600874E-06    8.4413381525348807E+00
N    3.2179712738460986E+00   -9.6477258240040531E-07    1.0416578248037947E+01
Ga    3.2179874033773062E+00    1.8578848122956770E+00    1.1046400343778743E+01
N    3.2179660233501024E+00    1.8578974986479433E+00    1.3021642842084580E+01
Ga    3.2179668810359106E+00    1.0489529751121720E-06    1.3651465841302844E+01
N    1.6089863595305067E+00    2.7868424585853062E+00   -3.6735572741905102E-03
Ga    1.6090031185527605E+00    4.6447278887152734E+00    6.2614614196418783E-01
N    1.6089809387064522E+00    4.6447411165508088E+00    2.6013851402922463E+00
Ga    1.6089823686208162E+00    2.7868440530464502E+00    3.2312117500197064E+00
N    1.6089863609828396E+00    2.7868424361165864E+00    5.2064551320569370E+00
Ga    1.6090030284750181E+00    4.6447278321062067E+00    5.8362735445999459E+00
N    1.6089811408351768E+00    4.6447410318125577E+00    7.8115144107104104E+00
Ga    1.6089825247839502E+00    2.7868440020685665E+00    8.4413380905399027E+00
N    1.6089864596473318E+00    2.7868424494925828E+00    1.0416578034789747E+01
Ga    1.6090030582326715E+00    4.6447279053066444E+00    1.1046400202403001E+01
N    1.6089810862493987E+00    4.6447410567924212E+00    1.3021642760930451E+01
Ga    1.6089825495549717E+00    2.7868440897146689E+00    1.3651465860639085E+01
N    1.5083603604557440E-06    5.5736857957931045E+00   -3.6733232619984174E-03
Ga    1.8490443407022526E-05    7.4315710112623838E+00    6.2614617217775781E-01
N   -3.6426424933350989E-06    7.4315842968903585E+00    2.6013852656483873E+00
Ga   -2.0709771117565908E-06    5.5736871132761836E+00    3.2312117660322648E+00
N    1.5330175786981542E-06    5.5736857717676758E+00    5.2064552164767619E+00
Ga    1.8559391676731548E-05    7.4315709503991165E+00    5.8362734491487478E+00
N   -3.5556554678995973E-06    7.4315842267596857E+00    7.8115145700991020E+00
Ga   -1.9663382016478706E-06    5.5736870649650694E+00    8.4413381778261165E+00
N    1.5741790474540253E-06    5.5736858437859613E+00    1.0416578301620376E+01
Ga    1.8416742277562672E-05    7.4315710002332009E+00    1.1046400298595282E+01
N   -3.5047245083154766E-06    7.4315843252150531E+00    1.3021642891618161E+01
Ga   -1.9294403587280953E-06    5.5736870553092333E+00    1.3651465813382540E+01
N   -1.6089831220058555E+00    8.3605291379516444E+00   -3.6735650094762585E-03
Ga   -1.6089667337616462E+00    1.0218414879281905E+01    6.2614608809315442E-01
N   -1.6089883443246451E+00    1.0218427543136180E+01    2.6013850328319057E+00
Ga   -1.6089869144641689E+00    8.3605306965583637E+00    3.2312116001478115E+00
N   -1.6089830897241286E+00    8.3605290101914207E+00    5.2064550938001215E+00
Ga   -1.6089666969630740E+00    1.0218414984507573E+01    5.8362734851320077E+00
N   -1.6089882833676088E+00    1.0218427539782315E+01    7.8115145054928652E+00
Ga   -1.6089869833566590E+00    8.3605307165526970E+00    8.4413380852665743E+00
N   -1.6089830372039713E+00    8.3605291143120812E+00    1.0416578201886656E+01
Ga   -1.6089667919859332E+00    1.0218414892910062E+01    1.1046400200323458E+01
N   -1.6089881960153911E+00    1.0218427487710150E+01    1.3021642764197772E+01
Ga   -1.6089868988560352E+00    8.3605307306276000E+00    1.3651465768995653E+01
N    6.4359404960484730E+00   -8.9135498126095964E-07   -3.6732747141384101E-03
Ga    6.4359575260512711E+00    1.8578851860741670E+00    6.2614624099577165E-01
N    6.4359351693219127E+00    1.8578976507927683E+00    2.6013850835007801E+00
Ga    6.4359370785231942E+00    1.4066551833026336E-06    3.2312116219228928E+00
N    6.4359404545161860E+00   -7.9983056155103226E-07    5.2064553511118321E+00
Ga    6.4359574842141383E+00    1.8578852300043709E+00    5.8362735650907087E+00
N    6.4359352473382172E+00    1.8578975355634477E+00    7.8115143243684138E+00
Ga    6.4359372288129197E+00    1.2293476143857184E-06    8.4413379948408060E+00
N    6.4359404071885162E+00   -9.4069806438240119E-07    1.0416578449578328E+01
Ga    6.4359574985084524E+00    1.8578851432993200E+00    1.1046400256293266E+01
N    6.4359353065132989E+00    1.8578973719075051E+00    1.3021642846950950E+01
Ga    6.4359372001969666E+00    1.2021221944505338E-06    1.3651465740793157E+01
N    4.8269559188876272E+00    2.7868423654571370E+00   -3.6733206135739038E-03
Ga    4.8269726908765511E+00    4.6447284351384948E+00    6.2614613111388306E-01
N    4.8269505076610431E+00    4.6447409175598766E+00    2.6013850969039427E+00
Ga    4.8269521999194609E+00    2.7868445521069214E+00    3.2312115746586767E+00
N    4.8269558411936924E+00    2.7868424019636944E+00    5.2064552973055633E+00
Ga    4.8269727817918318E+00    4.6447283535628490E+00    5.8362736126511994E+00
N    4.8269504733450077E+00    4.6447409657336109E+00    7.8115141856479848E+00
Ga    4.8269520481420489E+00    2.7868445766292740E+00    8.4413379634409402E+00
N    4.8269557785514490E+00    2.7868423563299221E+00    1.0416578258153919E+01
Ga    4.8269726949728602E+00    4.6447284451456747E+00    1.1046400140462870E+01
N    4.8269505369192744E+00    4.6447408938316181E+00    1.3021642772427851E+01
Ga    4.8269520782989472E+00    2.7868445826401436E+00    1.3651465685026578E+01
N    3.2179710075496533E+00    5.5736856734739435E+00   -3.6732201097450031E-03
Ga    3.2179885116057219E+00    7.4315714585618764E+00    6.2614616048602501E-01
N    3.2179655664376776E+00    7.4315843466503697E+00    2.6013851219060671E+00
Ga    3.2179676778330575E+00    5.5736877230500408E+00    3.2312116319180753E+00
N    3.2179710575383194E+00    5.5736857129208319E+00    5.2064554511128316E+00
Ga    3.2179884880012679E+00    7.4315714486788815E+00    5.8362735331268230E+00
N    3.2179657825590451E+00    7.4315841664609312E+00    7.8115143675142118E+00
Ga    3.2179677184772264E+00    5.5736874782331070E+00    8.4413381245557524E+00
N    3.2179709163030195E+00    5.5736857713256001E+00    1.0416578411038678E+01
Ga    3.2179884066972129E+00    7.4315713106541477E+00    1.1046400441886636E+01
N    3.2179656137651280E+00    7.4315842493866420E+00    1.3021642736910938E+01
Ga    3.2179676099075887E+00    5.5736877743498043E+00    1.3651465732868573E+01
N    1.6089861520362265E+00    8.3605291496440231E+00   -3.6734571476528528E-03
Ga    1.6090038330799941E+00    1.0218414906874600E+01    6.2614611091533035E-01
N    1.6089808105079744E+00    1.0218427576893101E+01    2.6013848932195982E+00
Ga    1.6089832886067152E+00    8.3605308706186410E+00    3.2312115856546040E+00
N    1.6089863425195949E+00    8.3605290109246297E+00    5.2064553262531996E+00
Ga    1.6090037593501461E+00    1.0218414947527449E+01    5.8362734500043638E+00
N    1.6089809299706028E+00    1.0218427478877654E+01    7.8115142788570973E+00
Ga    1.6089832905355335E+00    8.3605309056692896E+00    8.4413380047455480E+00
N    1.6089862102971637E+00    8.3605290703083774E+00    1.0416578400563234E+01
Ga    1.6090038247508764E+00    1.0218414847217607E+01    1.1046400178602337E+01
N    1.6089808820569218E+00    1.0218427425480371E+01    1.3021642708463723E+01
Ga    1.6089834551042665E+00    8.3605307362188857E+00    1.3651465732220046E+01
N    9.6539097064711541E+00   -9.7675121087593133E-07   -3.6734252516766280E-03
Ga    9.6539273175408837E+00    1.8578848764315434E+00    6.2614634156532534E-01
N    9.6539045092755398E+00    1.8578976834394842E+00    2.6013851754616160E+00
Ga    9.6539071791722844E+00    1.3025801162872432E-06    3.2312117168020862E+00
N    9.6539097572879005E+00   -9.3730775878133007E-07    5.2064552013409919E+00
Ga    9.6539273933018528E+00    1.8578850056548386E+00    5.8362737047981392E+00
N    9.6539047095962900E+00    1.8578976035796404E+00    7.8115144886255141E+00
Ga    9.6539072596406701E+00    1.2567666631078123E-06    8.4413381560628391E+00
N    9.6539097411161219E+00   -9.1344321420884748E-07    1.0416578198136625E+01
Ga    9.6539273371977004E+00    1.8578849544889717E+00    1.1046400263390211E+01
N    9.6539046631171530E+00    1.8578975684322261E+00    1.3021642856168228E+01
Ga    9.6539072789356979E+00    1.0963485089727390E-06    1.3651466017501324E+01
N    8.0449250720899919E+00    2.7868423129699762E+00   -3.6735250110490713E-03
Ga    8.0449422546841074E+00    4.6447283574938805E+00    6.2614629468249827E-01
N    8.0449198840157461E+00    4.6447409704212230E+00    2.6013851524429197E+00
Ga    8.0449221234126114E+00    2.7868446021285327E+00    3.2312116407999740E+00
N    8.0449250450145797E+00    2.7868424348193210E+00    5.2064550421967857E+00
Ga    8.0449423040435324E+00    4.6447283337576160E+00    5.8362737008855170E+00
N    8.0449200272441672E+00    4.6447409301717082E+00    7.8115143178776183E+00
Ga    8.0449223098417164E+00    2.7868446411317414E+00    8.4413379514859255E+00
N    8.0449251719547910E+00    2.7868423452393856E+00    1.0416578071036620E+01
Ga    8.0449423087621170E+00    4.6447283959778485E+00    1.1046400349505356E+01
N    8.0449200688143865E+00    4.6447408624047348E+00    1.3021642739590101E+01
Ga    8.0449221246234366E+00    2.7868445708377507E+00    1.3651465788457422E+01
N    6.4359404618577747E+00    5.5736855882297602E+00   -3.6732689268877293E-03
Ga    6.4359575484857148E+00    7.4315717198816857E+00    6.2614633646137507E-01
N    6.4359352468473343E+00    7.4315842255275735E+00    2.6013852681250031E+00
Ga    6.4359371846623796E+00    5.5736879073402950E+00    3.2312115293782333E+00
N    6.4359404101744051E+00    5.5736856346328993E+00    5.2064552923514915E+00
Ga    6.4359574792733616E+00    7.4315716834897376E+00    5.8362737839641143E+00
N    6.4359353053008883E+00    7.4315841420600179E+00    7.8115144547630164E+00
Ga    6.4359372104818116E+00    5.5736879401773809E+00    8.4413380006487095E+00
N    6.4359404541150775E+00    5.5736856236298928E+00    1.0416578174714422E+01
Ga    6.4359575537256664E+00    7.4315716539836725E+00    1.1046400561862033E+01
N    6.4359353997563451E+00    7.4315842356891233E+00    1.3021642848921200E+01
Ga    6.4359372296335575E+00    5.5736879724324604E+00    1.3651465634273332E+01
N    4.8269556604593875E+00    8.3605290111494828E+00   -3.6735161549729255E-03
Ga    4.8269731212458442E+00    1.0218414969427213E+01    6.2614623958766014E-01
N    4.8269503472543072E+00    1.0218427517478792E+01    2.6013850379330297E+00
Ga    4.8269527875271958E+00    8.3605312229736644E+00    3.2312116732268383E+00
N    4.8269556714080331E+00    8.3605288395160766E+00    5.2064550958164233E+00
Ga    4.8269731170879906E+00    1.0218414921882596E+01    5.8362736741452377E+00
N    4.8269504682446813E+00    1.0218427438716995E+01    7.8115143692987328E+00
Ga    4.8269528646382369E+00    8.3605311631504549E+00    8.4413379999547953E+00
N    4.8269556344650582E+00    8.3605289232374034E+00    1.0416578024578408E+01
Ga    4.8269731722946423E+00    1.0218415010569826E+01    1.1046400379513299E+01
N    4.8269504237416916E+00    1.0218427508597554E+01    1.3021642737191151E+01
Ga    4.8269526792194002E+00    8.3605310408350650E+00    1.3651465786944648E+01
     &END COORD
     &KIND N
       BASIS_SET DZVP-MOLOPT-SR-GTH
       POTENTIAL GTH-PBE-q5
       &POTENTIAL
 2 3
  0.2837905100000000E+00 2 -0.1241522559000000E+02  0.1868095920000000E+01
 2
  0.2554050000000000E+00 1  0.1363026257000000E+02
  0.2454945300000000E+00 0
         # Potential name:  GTH-PBE-Q5  for symbol:  N
         # Potential read from the potential filename: GTH_POTENTIALS
       &END POTENTIAL
     &END KIND
     &KIND Ga
       BASIS_SET DZVP-MOLOPT-SR-GTH
       POTENTIAL GTH-PBE-q13
       &POTENTIAL
 2 1 10
  0.4900000000000000E+00 0
 3
  0.4167772300000000E+00 3  0.1047568975000000E+02 -0.4921768140000000E+01  0.8707055900000000E+00
  0.7770178090000000E+01 -0.2248152160000000E+01
  0.1784415450000000E+01
  0.5696265200000000E+00 2  0.1777985340000000E+01  0.1958597600000000E+00
 -0.2317443900000000E+00
  0.2381265000000000E+00 1 -0.1624868022000000E+02
         # Potential name:  GTH-PBE-Q13  for symbol:  GA
         # Potential read from the potential filename: GTH_POTENTIALS
       &END POTENTIAL
     &END KIND
     &TOPOLOGY
       NUMBER_OF_ATOMS  192
       MULTIPLE_UNIT_CELL  1 1 1
     &END TOPOLOGY
   &END SUBSYS
 &END FORCE_EVAL
