 # Version information for this restart file 
 # current date 2019-06-23 21:34:44.776
 # current working dir /scratch/rzk/rzk/GaN-carbene/443-adatoms-both-2x2/00-Bulk-optimization
 # Program compiled at                              Sun Apr  7 00:48:11 EDT 2019
 # Program compiled on                          beluga2.int.ets1.calculquebec.ca
 # Program compiled for                        Beluga-Linux-x86-64-intel-openmpi
 # Source code revision number                                         svn:18619
 &GLOBAL
   PRINT_LEVEL  MEDIUM
   PROJECT_NAME TEST
   RUN_TYPE  CELL_OPT
 &END GLOBAL
 &MOTION
   &CELL_OPT
     MAX_ITER  300
     STEP_START_VAL  4
     EXTERNAL_PRESSURE     1.0000000000000000E+00
     KEEP_ANGLES  T
     KEEP_SYMMETRY  T
     PRESSURE_TOLERANCE     5.0000000000000000E+02
   &END CELL_OPT
 &END MOTION
 &FORCE_EVAL
   METHOD  QS
   STRESS_TENSOR  ANALYTICAL
   &DFT
     BASIS_SET_FILE_NAME BASIS_MOLOPT
     POTENTIAL_FILE_NAME GTH_POTENTIALS
     &SCF
       MAX_SCF  100
       EPS_SCF     1.0000000000000004E-07
       &OT  T
         PRECONDITIONER  FULL_ALL
       &END OT
       &OUTER_SCF  T
         OPTIMIZER  NONE
         EPS_SCF     1.0000000000000004E-07
         MAX_SCF  4
       &END OUTER_SCF
       &PRINT
         &RESTART  OFF
           BACKUP_COPIES  1
           &EACH
             JUST_ENERGY  0
             QS_SCF  0
             MD  20
           &END EACH
         &END RESTART
       &END PRINT
     &END SCF
     &QS
       EPS_DEFAULT     1.0000000000000000E-14
       METHOD  GPW
     &END QS
     &MGRID
       NGRIDS  5
       CUTOFF     1.2000000000000000E+03
     &END MGRID
     &XC
       DENSITY_CUTOFF     1.0000000000000000E-10
       GRADIENT_CUTOFF     1.0000000000000000E-10
       TAU_CUTOFF     1.0000000000000000E-10
       &XC_FUNCTIONAL  NO_SHORTCUT
         &PBE  T
         &END PBE
       &END XC_FUNCTIONAL
       &VDW_POTENTIAL
         POTENTIAL_TYPE  PAIR_POTENTIAL
         &PAIR_POTENTIAL
           R_CUTOFF     1.0000000000000004E+01
           TYPE  DFTD3
           PARAMETER_FILE_NAME dftd3.dat
           REFERENCE_FUNCTIONAL PBE
           EPS_CN     9.9999999999999995E-07
           CALCULATE_C9_TERM  T
           REFERENCE_C9_TERM  T
           LONG_RANGE_CORRECTION  F
           VERBOSE_OUTPUT  F
         &END PAIR_POTENTIAL
       &END VDW_POTENTIAL
     &END XC
   &END DFT
   &SUBSYS
     &CELL
       A     1.2859761180542465E+01    0.0000000000000000E+00    0.0000000000000000E+00
       B    -6.4298805389997460E+00    1.1136879780145922E+01    0.0000000000000000E+00
       C     9.9420003325124566E-18   -1.6790407632991337E-17    1.5721287247706414E+01
       MULTIPLE_UNIT_CELL  1 1 1
       &CELL_REF
         A     1.2982353780853531E+01    0.0000000000000000E+00    0.0000000000000000E+00
         B    -6.4911768904267628E+00    1.1243048175136114E+01    0.0000000000000000E+00
         C     0.0000000000000000E+00    0.0000000000000000E+00    1.5558000000000000E+01
         MULTIPLE_UNIT_CELL  1 1 1
       &END CELL_REF
     &END CELL
     &COORD
N    1.3775462312918660E-05   -8.0443951822446630E-06   -1.0778785543977988E-02
Ga    3.5165104558958516E-05    1.8561261641153008E+00    6.3712470172197855E-01
N   -6.0022388685811136E-06    1.8561498829961349E+00    2.6094272011038417E+00
Ga   -3.0278083986445796E-06    2.1007863582626240E-06    3.2573404973802895E+00
N    1.3815130248041867E-05   -7.7604654292006667E-06    5.2296534612230587E+00
Ga    3.5388722787042485E-05    1.8561265025502593E+00    5.8775558790738280E+00
N   -5.7222669657072180E-06    1.8561497869171728E+00    7.8498595577008299E+00
Ga   -3.1574611155973343E-06    1.8494836009808286E-06    8.4977683697486395E+00
N    1.3956147520232305E-05   -7.9515123428737256E-06    1.0470075757573635E+01
Ga    3.5077875572473191E-05    1.8561262270040353E+00    1.1117984077215301E+01
N   -5.6149398174267006E-06    1.8561498057207741E+00    1.3090292326354980E+01
Ga   -3.0234525209066658E-06    1.8520090697036508E-06    1.3738200473971190E+01
N   -1.6074561271996692E+00    2.7842118381330923E+00   -1.0778861400924064E-02
Ga   -1.6074348651225645E+00    4.6403465764484286E+00    6.3712456219200109E-01
N   -1.6074760938117112E+00    4.6403697737116438E+00    2.6094271312833635E+00
Ga   -1.6074730438103055E+00    2.7842219173605907E+00    3.2573403818101885E+00
N   -1.6074561744646374E+00    2.7842119137800472E+00    5.2296532503480977E+00
Ga   -1.6074350207378418E+00    4.6403467823459295E+00    5.8775552584768613E+00
N   -1.6074759824614642E+00    4.6403695819480202E+00    7.8498594367429195E+00
Ga   -1.6074729792931730E+00    2.7842216215702318E+00    8.4977684156648756E+00
N   -1.6074561346187808E+00    2.7842118610064226E+00    1.0470075388169299E+01
Ga   -1.6074348840753196E+00    4.6403462042064110E+00    1.1117984295374647E+01
N   -1.6074758458549681E+00    4.6403697238277122E+00    1.3090292147943481E+01
Ga   -1.6074730497159411E+00    2.7842221455922589E+00    1.3738200023459123E+01
N   -3.2149265103410816E+00    5.5684318896157707E+00   -1.0778494465308796E-02
Ga   -3.2149056474746178E+00    7.4245663666172836E+00    6.3712423078896352E-01
N   -3.2149465376137281E+00    7.4245898996141468E+00    2.6094272306127406E+00
Ga   -3.2149435610807009E+00    5.5684413652730536E+00    3.2573407277749924E+00
N   -3.2149265173545869E+00    5.5684317433440071E+00    5.2296536309229644E+00
Ga   -3.2149053884845156E+00    7.4245657693891198E+00    5.8775557205476350E+00
N   -3.2149462600906613E+00    7.4245895983321750E+00    7.8498598109973567E+00
Ga   -3.2149437042432232E+00    5.5684418664700637E+00    8.4977681478800875E+00
N   -3.2149265035265659E+00    5.5684319248416339E+00    1.0470075858056152E+01
Ga   -3.2149052364010440E+00    7.4245663563503053E+00    1.1117983927144635E+01
N   -3.2149463106704932E+00    7.4245899614286079E+00    1.3090292330985827E+01
Ga   -3.2149433545911497E+00    5.5684413303315559E+00    1.3738199942484659E+01
N   -4.8223968253162912E+00    8.3526520625087972E+00   -1.0778947953489488E-02
Ga   -4.8223751956091387E+00    1.0208785754928064E+01    6.3712420826003735E-01
N   -4.8224167362635830E+00    1.0208809880876101E+01    2.6094268791846700E+00
Ga   -4.8224134974426054E+00    8.3526619386236884E+00    3.2573408761698177E+00
N   -4.8223967499677007E+00    8.3526520214935456E+00    5.2296532307598023E+00
Ga   -4.8223751196986857E+00    1.0208786022279664E+01    5.8775555132910906E+00
N   -4.8224163897076675E+00    1.0208809929140859E+01    7.8498594435960563E+00
Ga   -4.8224133606159292E+00    8.3526613160961691E+00    8.4977683110324751E+00
N   -4.8223967075345566E+00    8.3526519437093842E+00    1.0470075736830786E+01
Ga   -4.8223753123100277E+00    1.0208786138953494E+01    1.1117983889208224E+01
N   -4.8224163387637811E+00    1.0208809702743329E+01    1.3090292129963183E+01
Ga   -4.8224135349908286E+00    8.3526615096052073E+00    1.3738200584314471E+01
N    3.2149536379638808E+00   -8.0836933726795494E-06   -1.0778890629339006E-02
Ga    3.2149755987461552E+00    1.8561263596431867E+00    6.3712438487878953E-01
N    3.2149342469869033E+00    1.8561499352678887E+00    2.6094274950368828E+00
Ga    3.2149370646602833E+00    1.6654147202058807E-06    3.2573406828944278E+00
N    3.2149536285616844E+00   -7.8733659533605145E-06    5.2296533469722561E+00
Ga    3.2149754004855646E+00    1.8561263790048501E+00    5.8775557426246801E+00
N    3.2149344553035113E+00    1.8561497648202239E+00    7.8498599626135714E+00
Ga    3.2149373688221972E+00    1.8414100301547722E-06    8.4977682973189630E+00
N    3.2149537643625963E+00   -7.9831923535394581E-06    1.0470075673322922E+01
Ga    3.2149753976474567E+00    1.8561262188498413E+00    1.1117984247082159E+01
N    3.2149344054462166E+00    1.8561498405993067E+00    1.3090292541389648E+01
Ga    3.2149372433313403E+00    1.8338018749136325E-06    1.3738200309533257E+01
N    1.6074836239427477E+00    2.7842118071160318E+00   -1.0779155665425484E-02
Ga    1.6075052345312006E+00    4.6403463588563705E+00    6.3712449257543291E-01
N    1.6074642382471862E+00    4.6403698479355713E+00    2.6094273426441306E+00
Ga    1.6074667580755484E+00    2.7842218329724817E+00    3.2573406295143901E+00
N    1.6074835669789045E+00    2.7842116123656595E+00    5.2296530523177909E+00
Ga    1.6075053228625793E+00    4.6403465159322161E+00    5.8775553462901078E+00
N    1.6074644253703683E+00    4.6403695592381222E+00    7.8498597804845502E+00
Ga    1.6074670770309964E+00    2.7842215408885362E+00    8.4977681543322170E+00
N    1.6074838040718857E+00    2.7842117425350095E+00    1.0470075348344334E+01
Ga    1.6075051074988411E+00    4.6403462688436887E+00    1.1117983998102359E+01
N    1.6074645786865462E+00    4.6403697477721728E+00    1.3090292483555126E+01
Ga    1.6074672117712185E+00    2.7842215774442662E+00    1.3738200107492085E+01
N    1.3808493663331548E-05    5.5684315366897037E+00   -1.0778839795454347E-02
Ga    3.5160150249636675E-05    7.4245658102843786E+00    6.3712448463601701E-01
N   -5.7117729667506530E-06    7.4245895143292451E+00    2.6094275173475987E+00
Ga   -3.2485254747097545E-06    5.5684414702488763E+00    3.2573406699293170E+00
N    1.3590434585943180E-05    5.5684314407863447E+00    5.2296533460425065E+00
Ga    3.5517209545323448E-05    7.4245658244272867E+00    5.8775553028358214E+00
N   -5.6107773489677243E-06    7.4245894044864365E+00    7.8498600266627019E+00
Ga   -2.8790736277462820E-06    5.5684416083312920E+00    8.4977685499001545E+00
N    1.3856322738502914E-05    5.5684316415271065E+00    1.0470075711728603E+01
Ga    3.5151558797008559E-05    7.4245660833472797E+00    1.1117984261330760E+01
N   -5.3646884203632251E-06    7.4245895086854974E+00    1.3090292675344195E+01
Ga   -3.3111096899113167E-06    5.5684415572123065E+00    1.3738200095173243E+01
N   -1.6074565888356436E+00    8.3526517616058360E+00   -1.0779071024924005E-02
Ga   -1.6074350424122992E+00    1.0208786354563264E+01    6.3712434527339046E-01
N   -1.6074763101855662E+00    1.0208809940549738E+01    2.6094272502662110E+00
Ga   -1.6074730407851039E+00    8.3526616601842818E+00    3.2573405590048594E+00
N   -1.6074565432647976E+00    8.3526517061997350E+00    5.2296530988842465E+00
Ga   -1.6074347526897954E+00    1.0208786496209431E+01    5.8775556282531740E+00
N   -1.6074761096529369E+00    1.0208809940755661E+01    7.8498598544357527E+00
Ga   -1.6074734748835311E+00    8.3526615623728926E+00    8.4977683276065150E+00
N   -1.6074565494925899E+00    8.3526517460829446E+00    1.0470075646455765E+01
Ga   -1.6074349081726627E+00    1.0208786205152510E+01    1.1117983926451076E+01
N   -1.6074760925097999E+00    1.0208809717641641E+01    1.3090292466995056E+01
Ga   -1.6074728890198142E+00    8.3526615657699512E+00    1.3738200062956926E+01
N    6.4298944818804511E+00   -7.9103039436854181E-06   -1.0778519043869035E-02
Ga    6.4299157964327067E+00    1.8561265672991474E+00    6.3712444944218360E-01
N    6.4298748409465780E+00    1.8561502571525168E+00    2.6094273943396900E+00
Ga    6.4298773732018306E+00    2.1017862218633445E-06    3.2573406247422185E+00
N    6.4298943709077800E+00   -7.6042789334646474E-06    5.2296536302833507E+00
Ga    6.4299156667571946E+00    1.8561262445274611E+00    5.8775557291332898E+00
N    6.4298750130266802E+00    1.8561500814484733E+00    7.8498595538903810E+00
Ga    6.4298775360832252E+00    1.9121063566877027E-06    8.4977681694280474E+00
N    6.4298942915076864E+00   -7.9022274788979026E-06    1.0470075999799937E+01
Ga    6.4299159069095069E+00    1.8561262994161589E+00    1.1117984268318629E+01
N    6.4298749990944080E+00    1.8561499957495324E+00    1.3090292529326920E+01
Ga    6.4298774681957314E+00    2.0297554016185754E-06    1.3738200051951424E+01
N    4.8224241654556277E+00    2.7842122088838228E+00   -1.0778726936817537E-02
Ga    4.8224454740790001E+00    4.6403463040492090E+00    6.3712394197975086E-01
N    4.8224047693186387E+00    4.6403700934176610E+00    2.6094271633309338E+00
Ga    4.8224074421580365E+00    2.7842214840075861E+00    3.2573406150423816E+00
N    4.8224242346894188E+00    2.7842119475612437E+00    5.2296533822139066E+00
Ga    4.8224452061238159E+00    4.6403465292393244E+00    5.8775553215831602E+00
N    4.8224048453831312E+00    4.6403700311582972E+00    7.8498594347496873E+00
Ga    4.8224074082138335E+00    2.7842214831704633E+00    8.4977680954734804E+00
N    4.8224239930215420E+00    2.7842120541533899E+00    1.0470075764552508E+01
Ga    4.8224452361925829E+00    4.6403462113233092E+00    1.1117983852022499E+01
N    4.8224048332562477E+00    4.6403701887635789E+00    1.3090292455638670E+01
Ga    4.8224073466180526E+00    2.7842213564612366E+00    1.3738200155821632E+01
N    3.2149540252283053E+00    5.5684319966655211E+00   -1.0778710643309675E-02
Ga    3.2149757844368652E+00    7.4245660176467405E+00    6.3712430414678833E-01
N    3.2149347526435834E+00    7.4245899562206281E+00    2.6094271462075116E+00
Ga    3.2149367002722471E+00    5.5684417388177536E+00    3.2573409785224672E+00
N    3.2149540396608063E+00    5.5684319194016219E+00    5.2296535806103011E+00
Ga    3.2149757217617014E+00    7.4245659964870026E+00    5.8775556182990805E+00
N    3.2149350874427425E+00    7.4245896806436722E+00    7.8498597959500849E+00
Ga    3.2149372873932376E+00    5.5684420582053322E+00    8.4977683333804421E+00
N    3.2149539516872627E+00    5.5684319708563814E+00    1.0470076035943071E+01
Ga    3.2149753609086886E+00    7.4245661368892124E+00    1.1117984642270597E+01
N    3.2149349536445553E+00    7.4245897186979652E+00    1.3090292493347791E+01
Ga    3.2149370074087806E+00    5.5684422977557713E+00    1.3738200110256281E+01
N    1.6074842695631859E+00    8.3526518128949228E+00   -1.0778847056015286E-02
Ga    1.6075055507736462E+00    1.0208786556978366E+01    6.3712434482462010E-01
N    1.6074645959376630E+00    1.0208810014456267E+01    2.6094270997724762E+00
Ga    1.6074670381908618E+00    8.3526618007455511E+00    3.2573407535700452E+00
N    1.6074842760915178E+00    8.3526517781026932E+00    5.2296533161067815E+00
Ga    1.6075051717392395E+00    1.0208786224305072E+01    5.8775555561751345E+00
N    1.6074647639260153E+00    1.0208810031428039E+01    7.8498594487109941E+00
Ga    1.6074675794913373E+00    8.3526616164620613E+00    8.4977681744503251E+00
N    1.6074842665225222E+00    8.3526516636843624E+00    1.0470075962963058E+01
Ga    1.6075053964309776E+00    1.0208786353365140E+01    1.1117983941345344E+01
N    1.6074648841368568E+00    1.0208809610375912E+01    1.3090292458731700E+01
Ga    1.6074675032128647E+00    8.3526612500027166E+00    1.3738199619428769E+01
N    9.6448351489321595E+00   -7.9947050584366000E-06   -1.0778866042827146E-02
Ga    9.6448556105703478E+00    1.8561261616728564E+00    6.3712441135796727E-01
N    9.6448152624433163E+00    1.8561500618943714E+00    2.6094274530348787E+00
Ga    9.6448175783331020E+00    1.7874306421628622E-06    3.2573407197720980E+00
N    9.6448350599906121E+00   -7.6906108417991624E-06    5.2296532224141590E+00
Ga    9.6448557961086347E+00    1.8561263073222380E+00    5.8775556507233579E+00
N    9.6448155446876029E+00    1.8561500178387764E+00    7.8498597841885323E+00
Ga    9.6448177926846697E+00    1.4686343548669659E-06    8.4977684317162527E+00
N    9.6448351611955481E+00   -7.8358096687606368E-06    1.0470075615894110E+01
Ga    9.6448557470030103E+00    1.8561264041252057E+00    1.1117983883054320E+01
N    9.6448155609841173E+00    1.8561498594421777E+00    1.3090292560362192E+01
Ga    9.6448176999687441E+00    1.6276819722718314E-06    1.3738200669391007E+01
N    8.0373648105667730E+00    2.7842120867897124E+00   -1.0779004032720243E-02
Ga    8.0373857758197378E+00    4.6403461063084990E+00    6.3712453507092104E-01
N    8.0373448989199225E+00    4.6403701068048662E+00    2.6094273559784611E+00
Ga    8.0373473202763286E+00    2.7842219094129343E+00    3.2573406334430164E+00
N    8.0373647483893915E+00    2.7842121258597645E+00    5.2296530366351242E+00
Ga    8.0373861261755390E+00    4.6403464081112240E+00    5.8775556545667742E+00
N    8.0373452161813912E+00    4.6403699512557690E+00    7.8498596030486425E+00
Ga    8.0373474857813463E+00    2.7842218708272974E+00    8.4977683589711237E+00
N    8.0373649399238154E+00    2.7842121662759931E+00    1.0470075332072613E+01
Ga    8.0373861336344294E+00    4.6403458526871244E+00    1.1117984294095690E+01
N    8.0373450671111044E+00    4.6403701157900930E+00    1.3090292383775035E+01
Ga    8.0373473420174850E+00    2.7842217347903313E+00    1.3738200309752951E+01
N    6.4298943956540064E+00    5.5684321257680569E+00   -1.0778804095615895E-02
Ga    6.4299161548121875E+00    7.4245663134104749E+00    6.3712420924273605E-01
N    6.4298748742713085E+00    7.4245900106249270E+00    2.6094272971525827E+00
Ga    6.4298777648090226E+00    5.5684415774679046E+00    3.2573406388130630E+00
N    6.4298945394406823E+00    5.5684319692439672E+00    5.2296533793714222E+00
Ga    6.4299155581312801E+00    7.4245664194330079E+00    5.8775558105361307E+00
N    6.4298751087526371E+00    7.4245898450251344E+00    7.8498598960459907E+00
Ga    6.4298776808590148E+00    5.5684418709988011E+00    8.4977678115820154E+00
N    6.4298945263714762E+00    5.5684322199292833E+00    1.0470075745943101E+01
Ga    6.4299160947444971E+00    7.4245664553665165E+00    1.1117984391850376E+01
N    6.4298750756410454E+00    7.4245899885675959E+00    1.3090292543057798E+01
Ga    6.4298777961249654E+00    5.5684418111328284E+00    1.3738200074141034E+01
N    4.8224245486940376E+00    8.3526521192160921E+00   -1.0779170540706599E-02
Ga    4.8224454272455866E+00    1.0208786412714584E+01    6.3712431794355373E-01
N    4.8224048828924637E+00    1.0208809928174032E+01    2.6094270363722631E+00
Ga    4.8224072407828888E+00    8.3526617042584466E+00    3.2573410818911448E+00
N    4.8224245644704542E+00    8.3526520314827621E+00    5.2296529954583955E+00
Ga    4.8224454613475185E+00    1.0208785852042169E+01    5.8775557144962640E+00
N    4.8224051477350951E+00    1.0208809838245523E+01    7.8498596605167910E+00
Ga    4.8224072917765586E+00    8.3526613551807927E+00    8.4977677922931445E+00
N    4.8224245815707079E+00    8.3526519791018199E+00    1.0470075496522835E+01
Ga    4.8224455614726693E+00    1.0208786545193488E+01    1.1117983956363323E+01
N    4.8224051430673818E+00    1.0208809634112416E+01    1.3090292409134511E+01
Ga    4.8224070281106517E+00    8.3526611203486798E+00    1.3738200018859217E+01
     &END COORD
     &KIND N
       BASIS_SET DZVP-MOLOPT-SR-GTH
       POTENTIAL GTH-PBE-q5
       &POTENTIAL
 2 3
  0.2837905100000000E+00 2 -0.1241522559000000E+02  0.1868095920000000E+01
 2
  0.2554050000000000E+00 1  0.1363026257000000E+02
  0.2454945300000000E+00 0
         # Potential name:  GTH-PBE-Q5  for symbol:  N
         # Potential read from the potential filename: GTH_POTENTIALS
       &END POTENTIAL
     &END KIND
     &KIND Ga
       BASIS_SET DZVP-MOLOPT-SR-GTH
       POTENTIAL GTH-PBE-q13
       &POTENTIAL
 2 1 10
  0.4900000000000000E+00 0
 3
  0.4167772300000000E+00 3  0.1047568975000000E+02 -0.4921768140000000E+01  0.8707055900000000E+00
  0.7770178090000000E+01 -0.2248152160000000E+01
  0.1784415450000000E+01
  0.5696265200000000E+00 2  0.1777985340000000E+01  0.1958597600000000E+00
 -0.2317443900000000E+00
  0.2381265000000000E+00 1 -0.1624868022000000E+02
         # Potential name:  GTH-PBE-Q13  for symbol:  GA
         # Potential read from the potential filename: GTH_POTENTIALS
       &END POTENTIAL
     &END KIND
     &TOPOLOGY
       NUMBER_OF_ATOMS  192
       MULTIPLE_UNIT_CELL  1 1 1
     &END TOPOLOGY
   &END SUBSYS
 &END FORCE_EVAL
