 # Version information for this restart file 
 # current date 2019-06-23 21:33:14.712
 # current working dir /scratch/rzk/rzk/GaN-carbene/443-adatoms-both-2x2/00-Bulk-optimization
 # Program compiled at                              Sun Apr  7 00:48:11 EDT 2019
 # Program compiled on                          beluga2.int.ets1.calculquebec.ca
 # Program compiled for                        Beluga-Linux-x86-64-intel-openmpi
 # Source code revision number                                         svn:18619
 &GLOBAL
   PRINT_LEVEL  MEDIUM
   PROJECT_NAME TEST
   RUN_TYPE  CELL_OPT
 &END GLOBAL
 &MOTION
   &CELL_OPT
     MAX_ITER  300
     STEP_START_VAL  3
     EXTERNAL_PRESSURE     1.0000000000000000E+00
     KEEP_ANGLES  T
     KEEP_SYMMETRY  T
     PRESSURE_TOLERANCE     5.0000000000000000E+02
   &END CELL_OPT
 &END MOTION
 &FORCE_EVAL
   METHOD  QS
   STRESS_TENSOR  ANALYTICAL
   &DFT
     BASIS_SET_FILE_NAME BASIS_MOLOPT
     POTENTIAL_FILE_NAME GTH_POTENTIALS
     &SCF
       MAX_SCF  100
       EPS_SCF     1.0000000000000004E-07
       &OT  T
         PRECONDITIONER  FULL_ALL
       &END OT
       &OUTER_SCF  T
         OPTIMIZER  NONE
         EPS_SCF     1.0000000000000004E-07
         MAX_SCF  4
       &END OUTER_SCF
       &PRINT
         &RESTART  OFF
           BACKUP_COPIES  1
           &EACH
             JUST_ENERGY  0
             QS_SCF  0
             MD  20
           &END EACH
         &END RESTART
       &END PRINT
     &END SCF
     &QS
       EPS_DEFAULT     1.0000000000000000E-14
       METHOD  GPW
     &END QS
     &MGRID
       NGRIDS  5
       CUTOFF     1.2000000000000000E+03
     &END MGRID
     &XC
       DENSITY_CUTOFF     1.0000000000000000E-10
       GRADIENT_CUTOFF     1.0000000000000000E-10
       TAU_CUTOFF     1.0000000000000000E-10
       &XC_FUNCTIONAL  NO_SHORTCUT
         &PBE  T
         &END PBE
       &END XC_FUNCTIONAL
       &VDW_POTENTIAL
         POTENTIAL_TYPE  PAIR_POTENTIAL
         &PAIR_POTENTIAL
           R_CUTOFF     1.0000000000000004E+01
           TYPE  DFTD3
           PARAMETER_FILE_NAME dftd3.dat
           REFERENCE_FUNCTIONAL PBE
           EPS_CN     9.9999999999999995E-07
           CALCULATE_C9_TERM  T
           REFERENCE_C9_TERM  T
           LONG_RANGE_CORRECTION  F
           VERBOSE_OUTPUT  F
         &END PAIR_POTENTIAL
       &END VDW_POTENTIAL
     &END XC
   &END DFT
   &SUBSYS
     &CELL
       A     1.2864704259288235E+01    0.0000000000000000E+00    0.0000000000000000E+00
       B    -6.4323521017376972E+00    1.1141160652382148E+01    0.0000000000000000E+00
       C     1.4303995087168983E-17   -2.5272797557459291E-17    1.5652270964892690E+01
       MULTIPLE_UNIT_CELL  1 1 1
       &CELL_REF
         A     1.2982353780853531E+01    0.0000000000000000E+00    0.0000000000000000E+00
         B    -6.4911768904267628E+00    1.1243048175136114E+01    0.0000000000000000E+00
         C     0.0000000000000000E+00    0.0000000000000000E+00    1.5558000000000000E+01
         MULTIPLE_UNIT_CELL  1 1 1
       &END CELL_REF
     &END CELL
     &COORD
N    3.7703747321256664E-06   -2.2619936792292865E-06   -5.2769081778024397E-03
Ga    2.2432462257572452E-05    1.8568468591563991E+00    6.2867840609287506E-01
N   -4.3115571871407770E-06    1.8568625791837998E+00    2.6034290052724183E+00
Ga   -2.1808700471915273E-06    1.4153790292208631E-06    3.2373923069133572E+00
N    3.7711485621476433E-06   -2.1242160075557219E-06    5.2121489167704889E+00
Ga    2.2484587060463484E-05    1.8568470633059126E+00    5.8461029744200532E+00
N   -4.1215200037814151E-06    1.8568625289263869E+00    7.8208553825453002E+00
Ga   -2.1672352797178337E-06    1.3276622019778642E-06    8.4548153563975390E+00
N    3.8647770924410943E-06   -2.1898682305440253E-06    1.0429567864319798E+01
Ga    2.2452193461080531E-05    1.8568468857966296E+00    1.1063526159371991E+01
N   -4.0970261295997757E-06    1.8568625418617224E+00    1.3038280974961275E+01
Ga   -2.1496860448525460E-06    1.2388718972493287E-06    1.3672240312820948E+01
N   -1.6080842652630121E+00    2.7852879823504977E+00   -5.2770174798566737E-03
Ga   -1.6080654441683131E+00    4.6421371503391198E+00    6.2867828406521820E-01
N   -1.6080923371859837E+00    4.6421527565684571E+00    2.6034288961640302E+00
Ga   -1.6080900330542813E+00    2.7852913308701108E+00    3.2373923249914878E+00
N   -1.6080842309893293E+00    2.7852880395241160E+00    5.2121487660416870E+00
Ga   -1.6080655590193069E+00    4.6421370794501033E+00    5.8461027902086853E+00
N   -1.6080921977677345E+00    4.6421526680150862E+00    7.8208552908696980E+00
Ga   -1.6080900019733682E+00    2.7852913144372211E+00    8.4548152824663507E+00
N   -1.6080842351773605E+00    2.7852879865296121E+00    1.0429567650546019E+01
Ga   -1.6080654248508734E+00    4.6421370564841107E+00    1.1063526127619426E+01
N   -1.6080921783334963E+00    4.6421526974102880E+00    1.3038280816742144E+01
Ga   -1.6080899617351931E+00    2.7852914398675757E+00    1.3672240114838489E+01
N   -3.2161723258178054E+00    5.5705781436453243E+00   -5.2766733989894291E-03
Ga   -3.2161540458766096E+00    7.4274274437384253E+00    6.2867825851935544E-01
N   -3.2161803985943971E+00    7.4274429564893776E+00    2.6034290265481741E+00
Ga   -3.2161784455109044E+00    5.5705814006267378E+00    3.2373923005426524E+00
N   -3.2161723377479992E+00    5.5705781052041266E+00    5.2121489664272724E+00
Ga   -3.2161539978019067E+00    7.4274271302732222E+00    5.8461028360748513E+00
N   -3.2161802293308863E+00    7.4274427797774605E+00    7.8208555377426903E+00
Ga   -3.2161783016145065E+00    5.5705813827900457E+00    8.4548152196460915E+00
N   -3.2161722907044479E+00    5.5705781565903543E+00    1.0429567934512161E+01
Ga   -3.2161539351145989E+00    7.4274273730652860E+00    1.1063526086713670E+01
N   -3.2161801425554941E+00    7.4274430031158039E+00    1.3038281013021491E+01
Ga   -3.2161783356876241E+00    5.5705813909611459E+00    1.3672239958736133E+01
N   -4.8242602833117791E+00    8.3558684152396943E+00   -5.2770053437283986E-03
Ga   -4.8242418916671070E+00    1.0212717459495208E+01    6.2867821950590486E-01
N   -4.8242684560376210E+00    1.0212733038734219E+01    2.6034287846989810E+00
Ga   -4.8242665400463478E+00    8.3558719573143492E+00    3.2373923406509633E+00
N   -4.8242603764501446E+00    8.3558683320981331E+00    5.2121487238455488E+00
Ga   -4.8242418202654669E+00    1.0212717586269646E+01    5.8461028346617230E+00
N   -4.8242682576610427E+00    1.0212733094841855E+01    7.8208553009693791E+00
Ga   -4.8242664573028335E+00    8.3558717704706833E+00    8.4548152733397846E+00
N   -4.8242602467999376E+00    8.3558683580718327E+00    1.0429567796183182E+01
Ga   -4.8242418851226665E+00    1.0212717649927132E+01    1.1063526113385945E+01
N   -4.8242681488543058E+00    1.0212733006038746E+01    1.3038280846664161E+01
Ga   -4.8242664899641081E+00    8.3558718409667261E+00    1.3672240211422720E+01
N    3.2161798112255102E+00   -2.3198970563696485E-06   -5.2770409174643677E-03
Ga    3.2161983470548563E+00    1.8568471485981113E+00    6.2867833215980207E-01
N    3.2161718403819815E+00    1.8568625332350062E+00    2.6034292054603019E+00
Ga    3.2161733361930467E+00    1.2309152977326467E-06    3.2373923056149501E+00
N    3.2161797127308183E+00   -2.1293342321648866E-06    5.2121488086313503E+00
Ga    3.2161983236153473E+00    1.8568471302976117E+00    5.8461029512366505E+00
N    3.2161719327046048E+00    1.8568624470233124E+00    7.8208556451067706E+00
Ga    3.2161734819452805E+00    1.3597448444656313E-06    8.4548152811371473E+00
N    3.2161798639311625E+00   -2.2253292356451498E-06    1.0429567811012092E+01
Ga    3.2161982446066713E+00    1.8568470213926405E+00    1.1063526212338884E+01
N    3.2161719591040492E+00    1.8568623907521447E+00    1.3038281132487890E+01
Ga    3.2161734441320973E+00    1.2101555921593215E-06    1.3672240092793396E+01
N    1.6080917374991328E+00    2.7852879650470119E+00   -5.2771814253070193E-03
Ga    1.6081104824580224E+00    4.6421371097886350E+00    6.2867825939054311E-01
N    1.6080837092550018E+00    4.6421527615087577E+00    2.6034290821894222E+00
Ga    1.6080854688033195E+00    2.7852912359564233E+00    3.2373923069771204E+00
N    1.6080917255333198E+00    2.7852879020065742E+00    5.2121486546204325E+00
Ga    1.6081104457357260E+00    4.6421370934986497E+00    5.8461028180332839E+00
N    1.6080838993162325E+00    4.6421526285494430E+00    7.8208555084646090E+00
Ga    1.6080856443062950E+00    2.7852911583948674E+00    8.4548151766809507E+00
N    1.6080918565706839E+00    2.7852879484731630E+00    1.0429567560756878E+01
Ga    1.6081104217005884E+00    4.6421371180401980E+00    1.1063526055830627E+01
N    1.6080838952374485E+00    4.6421526923349310E+00    1.3038281058330305E+01
Ga    1.6080856844249214E+00    2.7852912094741500E+00    1.3672240059516824E+01
N    3.7176669428767847E-06    5.5705780751289291E+00   -5.2769168220839725E-03
Ga    2.2550909249804215E-05    7.4274270784070904E+00    6.2867828483700816E-01
N   -4.1641496556882184E-06    7.4274427861609977E+00    2.6034292226664877E+00
Ga   -2.3758951240015637E-06    5.5705812018411747E+00    3.2373923014852517E+00
N    3.6899905346607806E-06    5.5705780293124310E+00    5.2121487897415939E+00
Ga    2.2676432949864817E-05    7.4274270094963111E+00    5.8461027388035429E+00
N   -4.0754966029461463E-06    7.4274426937016678E+00    7.8208556921697454E+00
Ga   -2.2108380724402662E-06    5.5705811732289270E+00    8.4548153121638041E+00
N    3.7813487365067479E-06    5.5705781266755841E+00    1.0429567853690948E+01
Ga    2.2496982200693488E-05    7.4274270973986161E+00    1.1063526207412893E+01
N   -3.9844531146167159E-06    7.4274428057450574E+00    1.3038281211183804E+01
Ga   -2.2675518279790044E-06    5.5705811702965908E+00    1.3672240009917719E+01
N   -1.6080843136754095E+00    8.3558683755450929E+00   -5.2771606725090523E-03
Ga   -1.6080657883186831E+00    1.0212717698168357E+01    6.2867817641126145E-01
N   -1.6080923200267561E+00    1.0212733052313670E+01    2.6034289845155851E+00
Ga   -1.6080903781535107E+00    8.3558715678434829E+00    3.2373921683542464E+00
N   -1.6080842834501554E+00    8.3558682563392424E+00    5.2121486344537580E+00
Ga   -1.6080657347944181E+00    1.0212717806650348E+01    5.8461028031991971E+00
N   -1.6080922345799677E+00    1.0212733053127099E+01    7.8208555981138446E+00
Ga   -1.6080904798798195E+00    8.3558715640143539E+00    8.4548152426763235E+00
N   -1.6080842400241764E+00    8.3558683491721837E+00    1.0429567768309166E+01
Ga   -1.6080658285742575E+00    1.0212717689288894E+01    1.1063526080975953E+01
N   -1.6080921546983558E+00    1.0212732964185149E+01    1.3038281061605050E+01
Ga   -1.6080903284209755E+00    8.3558716089593013E+00    1.3672240013329851E+01
N    6.4323559377115531E+00   -2.1502471498003043E-06   -5.2768072827082055E-03
Ga    6.4323747474069837E+00    1.8568473057806347E+00    6.2867831166583166E-01
N    6.4323478780897494E+00    1.8568626485588078E+00    2.6034290561192579E+00
Ga    6.4323499133529287E+00    1.5622152723313745E-06    3.2373921834673896E+00
N    6.4323558791824080E+00   -2.0061290438863460E-06    5.2121489581177176E+00
Ga    6.4323746745817045E+00    1.8568473356816633E+00    5.8461028575248042E+00
N    6.4323479766089724E+00    1.8568625269858678E+00    7.8208553852542773E+00
Ga    6.4323500705435439E+00    1.3732801794004152E-06    8.4548151540305838E+00
N    6.4323558252497364E+00   -2.1858918812273748E-06    1.0429568049785747E+01
Ga    6.4323747241269338E+00    1.8568472364898987E+00    1.1063526154180792E+01
N    6.4323480195704246E+00    1.8568623628023966E+00    1.3038281138690950E+01
Ga    6.4323500287298128E+00    1.3597206681898502E-06    1.3672239987176201E+01
N    4.8242679465996181E+00    2.7852880331566721E+00   -5.2768871168983860E-03
Ga    4.8242866181417057E+00    4.6421374374566158E+00    6.2867817232061507E-01
N    4.8242599216386779E+00    4.6421527356339283E+00    2.6034290147075190E+00
Ga    4.8242618576621252E+00    2.7852915331265549E+00    3.2373921672933044E+00
N    4.8242678966194905E+00    2.7852880114064473E+00    5.2121488613468330E+00
Ga    4.8242866578899637E+00    4.6421374286621697E+00    5.8461028407157869E+00
N    4.8242599056312372E+00    4.6421527608998696E+00    7.8208552522585677E+00
Ga    4.8242617099640244E+00    2.7852915456718326E+00    8.4548150953645749E+00
N    4.8242677915226606E+00    2.7852880025902107E+00    1.0429567840277283E+01
Ga    4.8242865748249297E+00    4.6421374462982383E+00    1.1063525956697903E+01
N    4.8242599542172666E+00    4.6421527385567849E+00    1.3038281053802466E+01
Ga    4.8242617465042361E+00    2.7852914953107106E+00    1.3672239949297792E+01
N    3.2161798174253566E+00    5.5705781291218921E+00   -5.2767983729970101E-03
Ga    3.2161990071933557E+00    7.4274274130835227E+00    6.2867823977936066E-01
N    3.2161718146288067E+00    7.4274429589760675E+00    2.6034290265813222E+00
Ga    3.2161738697061386E+00    5.5705816597838202E+00    3.2373922550728480E+00
N    3.2161798650063709E+00    5.5705781372238610E+00    5.2121490252373421E+00
Ga    3.2161990118952288E+00    7.4274273743926971E+00    5.8461028204468750E+00
N    3.2161720532101361E+00    7.4274427507925811E+00    7.8208554786005662E+00
Ga    3.2161739771112505E+00    5.5705814893984336E+00    8.4548152500633371E+00
N    3.2161797280081128E+00    5.5705781960247354E+00    1.0429568017820385E+01
Ga    3.2161988636290073E+00    7.4274272916787334E+00    1.1063526319353166E+01
N    3.2161718897913545E+00    7.4274428282042324E+00    1.3038281038643429E+01
Ga    3.2161738366514037E+00    5.5705817697729101E+00    1.3672239963310892E+01
N    1.6080918054322346E+00    8.3558684117109010E+00   -5.2770216582451700E-03
Ga    1.6081109945670282E+00    1.0212717740826690E+01    6.2867820061737356E-01
N    1.6080837556828258E+00    1.0212733103714040E+01    2.6034288367386176E+00
Ga    1.6080861251370988E+00    8.3558717310130657E+00    3.2373921865184654E+00
N    1.6080919609804891E+00    8.3558682907432278E+00    5.2121488710625874E+00
Ga    1.6081109021390005E+00    1.0212717712244819E+01    5.8461027613842100E+00
N    1.6080838904367112E+00    1.0212733032484946E+01    7.8208553307874755E+00
Ga    1.6080862039176218E+00    8.3558717105574161E+00    8.4548151479978060E+00
N    1.6080918528473456E+00    8.3558683104731131E+00    1.0429567997153544E+01
Ga    1.6081109755731573E+00    1.0212717649741997E+01    1.1063526062913741E+01
N    1.6080838721183335E+00    1.0212732899944164E+01    1.3038281016921953E+01
Ga    1.6080863018966121E+00    8.3558715614597254E+00    1.3672239908726970E+01
N    9.6485319612224352E+00   -2.2247099589974838E-06   -5.2770105222805083E-03
Ga    9.6485509242680241E+00    1.8568470723711383E+00    6.2867839613752707E-01
N    9.6485239231013153E+00    1.8568625902294167E+00    2.6034291351185157E+00
Ga    9.6485263509396635E+00    1.4076395757285415E-06    3.2373922797556145E+00
N    9.6485319897439030E+00   -2.1200985540022089E-06    5.2121487426189601E+00
Ga    9.6485510240331003E+00    1.8568472079255474E+00    5.8461029688639243E+00
N    9.6485241476581685E+00    1.8568625226935920E+00    7.8208555576086880E+00
Ga    9.6485264613037920E+00    1.3221020352849892E-06    8.4548152967730701E+00
N    9.6485319966964180E+00   -2.1367460790583718E-06    1.0429567754245463E+01
Ga    9.6485509656480737E+00    1.8568471696191537E+00    1.1063526111192223E+01
N    9.6485241073966908E+00    1.8568624533981735E+00    1.3038281149800007E+01
Ga    9.6485264348731672E+00    1.2182896965068583E-06    1.3672240288586817E+01
N    8.0404439295372647E+00    2.7852879643987638E+00   -5.2771144612912555E-03
Ga    8.0404627678765124E+00    4.6421373605803549E+00    6.2867837341679744E-01
N    8.0404358674334997E+00    4.6421527728232386E+00    2.6034290990529438E+00
Ga    8.0404380984925083E+00    2.7852916132038370E+00    3.2373922238096342E+00
N    8.0404438998883112E+00    2.7852880743542663E+00    5.2121485799573257E+00
Ga    8.0404628289703162E+00    4.6421374125945771E+00    5.8461029425144861E+00
N    8.0404360486365398E+00    4.6421527054200968E+00    7.8208553876610925E+00
Ga    8.0404382998169588E+00    2.7852916320988990E+00    8.4548151227692081E+00
N    8.0404440384924261E+00    2.7852880148916053E+00    1.0429567594145247E+01
Ga    8.0404628555969104E+00    4.6421373704481814E+00    1.1063526202332797E+01
N    8.0404360528478396E+00    4.6421526890884737E+00    1.3038281011579047E+01
Ga    8.0404381144583983E+00    2.7852915212425655E+00    1.3672240063074401E+01
N    6.4323558930178333E+00    5.5705781413886051E+00   -5.2768588810204681E-03
Ga    6.4323748398539591E+00    7.4274276033197388E+00    6.2867837356258660E-01
N    6.4323479328941122E+00    7.4274428995240402E+00    2.6034291752663470E+00
Ga    6.4323500350365768E+00    5.5705817143811034E+00    3.2373921399160617E+00
N    6.4323558805991521E+00    5.5705781443545019E+00    5.2121488481750671E+00
Ga    6.4323746797987091E+00    7.4274275760477702E+00    5.8461030364726110E+00
N    6.4323480300253486E+00    7.4274427940011201E+00    7.8208555615964093E+00
Ga    6.4323500417746837E+00    5.5705817812401355E+00    8.4548150793667762E+00
N    6.4323559110287860E+00    5.5705781872778761E+00    1.0429567767645734E+01
Ga    6.4323748248145929E+00    7.4274275646527368E+00    1.1063526370350555E+01
N    6.4323481003087952E+00    7.4274429024719604E+00    1.3038281126257678E+01
Ga    6.4323500951462078E+00    5.5705817828929387E+00    1.3672239903160802E+01
N    4.8242679066627980E+00    8.3558684116766369E+00   -5.2771422297765705E-03
Ga    4.8242868793607165E+00    1.0212717780887704E+01    6.2867830003159597E-01
N    4.8242598645842083E+00    1.0212733040670068E+01    2.6034289341582997E+00
Ga    4.8242621926296705E+00    8.3558719170987530E+00    3.2373923199703243E+00
N    4.8242679296557265E+00    8.3558682552822603E+00    5.2121486021022925E+00
Ga    4.8242868998738491E+00    1.0212717628555010E+01    5.8461029418243031E+00
N    4.8242600178971635E+00    1.0212732966209501E+01    7.8208554391863725E+00
Ga    4.8242622549731342E+00    8.3558718128861127E+00    8.4548150659236239E+00
N    4.8242678997595272E+00    8.3558683088660803E+00    1.0429567593659202E+01
Ga    4.8242869461616822E+00    1.0212717818683119E+01    1.1063526187968405E+01
N    4.8242599783502156E+00    1.0212732977128219E+01    1.3038281016141706E+01
Ga    4.8242620618317060E+00    8.3558717056435459E+00    1.3672240019214311E+01
     &END COORD
     &KIND N
       BASIS_SET DZVP-MOLOPT-SR-GTH
       POTENTIAL GTH-PBE-q5
       &POTENTIAL
 2 3
  0.2837905100000000E+00 2 -0.1241522559000000E+02  0.1868095920000000E+01
 2
  0.2554050000000000E+00 1  0.1363026257000000E+02
  0.2454945300000000E+00 0
         # Potential name:  GTH-PBE-Q5  for symbol:  N
         # Potential read from the potential filename: GTH_POTENTIALS
       &END POTENTIAL
     &END KIND
     &KIND Ga
       BASIS_SET DZVP-MOLOPT-SR-GTH
       POTENTIAL GTH-PBE-q13
       &POTENTIAL
 2 1 10
  0.4900000000000000E+00 0
 3
  0.4167772300000000E+00 3  0.1047568975000000E+02 -0.4921768140000000E+01  0.8707055900000000E+00
  0.7770178090000000E+01 -0.2248152160000000E+01
  0.1784415450000000E+01
  0.5696265200000000E+00 2  0.1777985340000000E+01  0.1958597600000000E+00
 -0.2317443900000000E+00
  0.2381265000000000E+00 1 -0.1624868022000000E+02
         # Potential name:  GTH-PBE-Q13  for symbol:  GA
         # Potential read from the potential filename: GTH_POTENTIALS
       &END POTENTIAL
     &END KIND
     &TOPOLOGY
       NUMBER_OF_ATOMS  192
       MULTIPLE_UNIT_CELL  1 1 1
     &END TOPOLOGY
   &END SUBSYS
 &END FORCE_EVAL
