 # Version information for this restart file 
 # current date 2019-06-23 21:38:01.421
 # current working dir /scratch/rzk/rzk/GaN-carbene/443-adatoms-both-2x2/00-Bulk-optimization
 # Program compiled at                              Sun Apr  7 00:48:11 EDT 2019
 # Program compiled on                          beluga2.int.ets1.calculquebec.ca
 # Program compiled for                        Beluga-Linux-x86-64-intel-openmpi
 # Source code revision number                                         svn:18619
 &GLOBAL
   PRINT_LEVEL  MEDIUM
   PROJECT_NAME TEST
   RUN_TYPE  CELL_OPT
 &END GLOBAL
 &MOTION
   &CELL_OPT
     MAX_ITER  300
     STEP_START_VAL  6
     EXTERNAL_PRESSURE     1.0000000000000000E+00
     KEEP_ANGLES  T
     KEEP_SYMMETRY  T
     PRESSURE_TOLERANCE     5.0000000000000000E+02
   &END CELL_OPT
 &END MOTION
 &FORCE_EVAL
   METHOD  QS
   STRESS_TENSOR  ANALYTICAL
   &DFT
     BASIS_SET_FILE_NAME BASIS_MOLOPT
     POTENTIAL_FILE_NAME GTH_POTENTIALS
     &SCF
       MAX_SCF  100
       EPS_SCF     1.0000000000000004E-07
       &OT  T
         PRECONDITIONER  FULL_ALL
       &END OT
       &OUTER_SCF  T
         OPTIMIZER  NONE
         EPS_SCF     1.0000000000000004E-07
         MAX_SCF  4
       &END OUTER_SCF
       &PRINT
         &RESTART  OFF
           BACKUP_COPIES  1
           &EACH
             JUST_ENERGY  0
             QS_SCF  0
             MD  20
           &END EACH
         &END RESTART
       &END PRINT
     &END SCF
     &QS
       EPS_DEFAULT     1.0000000000000000E-14
       METHOD  GPW
     &END QS
     &MGRID
       NGRIDS  5
       CUTOFF     1.2000000000000000E+03
     &END MGRID
     &XC
       DENSITY_CUTOFF     1.0000000000000000E-10
       GRADIENT_CUTOFF     1.0000000000000000E-10
       TAU_CUTOFF     1.0000000000000000E-10
       &XC_FUNCTIONAL  NO_SHORTCUT
         &PBE  T
         &END PBE
       &END XC_FUNCTIONAL
       &VDW_POTENTIAL
         POTENTIAL_TYPE  PAIR_POTENTIAL
         &PAIR_POTENTIAL
           R_CUTOFF     1.0000000000000004E+01
           TYPE  DFTD3
           PARAMETER_FILE_NAME dftd3.dat
           REFERENCE_FUNCTIONAL PBE
           EPS_CN     9.9999999999999995E-07
           CALCULATE_C9_TERM  T
           REFERENCE_C9_TERM  T
           LONG_RANGE_CORRECTION  F
           VERBOSE_OUTPUT  F
         &END PAIR_POTENTIAL
       &END VDW_POTENTIAL
     &END XC
   &END DFT
   &SUBSYS
     &CELL
       A     1.2864472766435110E+01    0.0000000000000000E+00    0.0000000000000000E+00
       B    -6.4322363581020028E+00    1.1140960178524471E+01    0.0000000000000000E+00
       C     9.3140737539283937E-18   -1.5302607831440858E-17    1.5719991659510200E+01
       MULTIPLE_UNIT_CELL  1 1 1
       &CELL_REF
         A     1.2982353780853531E+01    0.0000000000000000E+00    0.0000000000000000E+00
         B    -6.4911768904267628E+00    1.1243048175136114E+01    0.0000000000000000E+00
         C     0.0000000000000000E+00    0.0000000000000000E+00    1.5558000000000000E+01
         MULTIPLE_UNIT_CELL  1 1 1
       &END CELL_REF
     &END CELL
     &COORD
N    1.8437323139000001E-05   -1.0751089260752001E-05   -1.0876320590641302E-02
Ga    3.7067469389035286E-05    1.8568048728385103E+00    6.3718449160456769E-01
N   -4.3612058320815505E-06    1.8568291793734493E+00    2.6091162382139701E+00
Ga   -3.1580998223761892E-06    1.8283277577681972E-06    3.2571846632025236E+00
N    1.8432894586866880E-05   -1.0555262481977873E-05    5.2291244452793961E+00
Ga    3.7152073411135392E-05    1.8568050728820251E+00    5.8771836931654597E+00
N   -4.1351975332823450E-06    1.8568290048839295E+00    7.8491164374915448E+00
Ga   -3.0132273415916917E-06    1.8421000691291893E-06    8.4971801033000389E+00
N    1.8527118325511119E-05   -1.0630474509805090E-05    1.0469115040837870E+01
Ga    3.7194606983340167E-05    1.8568049245202989E+00    1.1117180492072452E+01
N   -4.0728168227441545E-06    1.8568290952244835E+00    1.3089117334355494E+01
Ga   -3.0000431941441492E-06    1.7919768135728605E-06    1.3737181048220345E+01
N   -1.6080405850910033E+00    2.7852293426567436E+00   -1.0876395320915225E-02
Ga   -1.6080219760705086E+00    4.6420448882134453E+00    6.3718452883094212E-01
N   -1.6080634082762897E+00    4.6420691952353677E+00    2.6091162831243246E+00
Ga   -1.6080620123242961E+00    2.7852417340959410E+00    3.2571846443820593E+00
N   -1.6080405827524764E+00    2.7852294467908374E+00    5.2291242483812734E+00
Ga   -1.6080219850835318E+00    4.6420447930497790E+00    5.8771836566824165E+00
N   -1.6080633626035277E+00    4.6420690568613425E+00    7.8491162725666763E+00
Ga   -1.6080617711438521E+00    2.7852417815033466E+00    8.4971799760026627E+00
N   -1.6080405727775027E+00    2.7852293206742074E+00    1.0469114866762215E+01
Ga   -1.6080218942604696E+00    4.6420447913526575E+00    1.1117180391892832E+01
N   -1.6080632196115103E+00    4.6420691608862015E+00    1.3089117247129051E+01
Ga   -1.6080618318498348E+00    2.7852417131253060E+00    1.3737180935369617E+01
N   -3.2160998690023028E+00    5.5704694153066736E+00   -1.0876192743413582E-02
Ga   -3.2160813402377122E+00    7.4272851608746642E+00    6.3718450967688300E-01
N   -3.2161227102289409E+00    7.4273092650251344E+00    2.6091162931668217E+00
Ga   -3.2161214621225032E+00    5.5704816503747034E+00    3.2571843133000784E+00
N   -3.2160998369808564E+00    5.5704693569964778E+00    5.2291245634721317E+00
Ga   -3.2160814592884162E+00    7.4272848799352129E+00    5.8771835117609035E+00
N   -3.2161225401106059E+00    7.4273090707010052E+00    7.8491165307581685E+00
Ga   -3.2161211333277588E+00    5.5704814978467789E+00    8.4971799843708880E+00
N   -3.2160997880906819E+00    5.5704694329045852E+00    1.0469115197523704E+01
Ga   -3.2160812725732431E+00    7.4272851179405306E+00    1.1117180449206275E+01
N   -3.2161225279343286E+00    7.4273092601590109E+00    1.3089117356773974E+01
Ga   -3.2161211325136381E+00    5.5704816376245896E+00    1.3737180703096985E+01
N   -4.8241589985338500E+00    8.3557095939769628E+00   -1.0876535724294114E-02
Ga   -4.8241404122849749E+00    1.0212525230553744E+01    6.3718450121643977E-01
N   -4.8241818357443575E+00    1.0212549390250460E+01    2.6091159911297925E+00
Ga   -4.8241806946027888E+00    8.3557221460055509E+00    3.2571844838301325E+00
N   -4.8241589202085882E+00    8.3557095272344277E+00    5.2291243681196589E+00
Ga   -4.8241405309344332E+00    1.0212525333442537E+01    5.8771835861941284E+00
N   -4.8241815542039861E+00    1.0212549309128397E+01    7.8491163392860468E+00
Ga   -4.8241805304880083E+00    8.3557220184196535E+00    8.4971800206575043E+00
N   -4.8241588538094256E+00    8.3557095438645792E+00    1.0469115014421181E+01
Ga   -4.8241404005460424E+00    1.0212525403681987E+01    1.1117180523875561E+01
N   -4.8241815506311658E+00    1.0212549188882400E+01    1.3089117236624247E+01
Ga   -4.8241803071919973E+00    8.3557221721651196E+00    1.3737180849971891E+01
N    3.2161363520245372E+00   -1.0715073819590926E-05   -1.0876443395291339E-02
Ga    3.2161551724219799E+00    1.8568052159921571E+00    6.3718452992261332E-01
N    3.2161137217461628E+00    1.8568290854292289E+00    2.6091164531779945E+00
Ga    3.2161143798622507E+00    1.6488429444326870E-06    3.2571844147919791E+00
N    3.2161364215119330E+00   -1.0584729904608973E-05    5.2291243725338656E+00
Ga    3.2161550641681198E+00    1.8568053931712003E+00    5.8771836748716551E+00
N    3.2161139703531654E+00    1.8568289478908084E+00    7.8491166367266079E+00
Ga    3.2161145553292583E+00    1.8181907369634734E-06    8.4971800811163654E+00
N    3.2161364736711384E+00   -1.0670224310148175E-05    1.0469115004616194E+01
Ga    3.2161550683998241E+00    1.8568051435490078E+00    1.1117180444924188E+01
N    3.2161139407797674E+00    1.8568290148609032E+00    1.3089117518154900E+01
Ga    3.2161146550858484E+00    1.5264154093695156E-06    1.3737180798925467E+01
N    1.6080774001658831E+00    2.7852293145568354E+00   -1.0876597491024350E-02
Ga    1.6080963252576894E+00    4.6420447726557503E+00    6.3718457104607984E-01
N    1.6080546640916697E+00    4.6420691827830058E+00    2.6091164196843635E+00
Ga    1.6080556530093941E+00    2.7852416888139291E+00    3.2571846204118087E+00
N    1.6080773664479979E+00    2.7852292616768888E+00    5.2291241447008039E+00
Ga    1.6080963578734730E+00    4.6420447371825926E+00    5.8771837646638589E+00
N    1.6080549451258033E+00    4.6420689782624578E+00    7.8491164780515756E+00
Ga    1.6080557972686971E+00    2.7852416802205218E+00    8.4971799339057501E+00
N    1.6080774720354531E+00    2.7852292343118501E+00    1.0469114803928960E+01
Ga    1.6080962994344006E+00    4.6420447267852820E+00    1.1117180327876719E+01
N    1.6080549892961440E+00    4.6420691578296989E+00    1.3089117512098394E+01
Ga    1.6080557902479817E+00    2.7852415309921312E+00    1.3737180815957457E+01
N    1.8432339308050419E-05    5.5704691833982061E+00   -1.0876407946369177E-02
Ga    3.7352013635829788E-05    7.4272850403596076E+00    6.3718434411317626E-01
N   -4.1877199204846833E-06    7.4273089633261025E+00    2.6091165163316972E+00
Ga   -3.3077057400716914E-06    5.5704812774425534E+00    3.2571842667343307E+00
N    1.8326731378970218E-05    5.5704691715808501E+00    5.2291243016779019E+00
Ga    3.7465456188816772E-05    7.4272847920397105E+00    5.8771834953263040E+00
N   -4.0681852899273560E-06    7.4273089792275728E+00    7.8491166575478051E+00
Ga   -3.0033178887969180E-06    5.5704811405498544E+00    8.4971799981776908E+00
N    1.8432953833974755E-05    5.5704692817218122E+00    1.0469115165597987E+01
Ga    3.7327410359993026E-05    7.4272849623969384E+00    1.1117180391410727E+01
N   -3.8926922703813691E-06    7.4273089234651408E+00    1.3089117546595558E+01
Ga   -3.1931625106017008E-06    5.5704812561578239E+00    1.3737180655377204E+01
N   -1.6080408419343817E+00    8.3557094143137700E+00   -1.0876560299921356E-02
Ga   -1.6080220151853639E+00    1.0212525324237436E+01    6.3718422684885812E-01
N   -1.6080635559317551E+00    1.0212549409219816E+01    2.6091163206822205E+00
Ga   -1.6080624200582512E+00    8.3557216424875680E+00    3.2571842375553914E+00
N   -1.6080407592864374E+00    8.3557093772549198E+00    5.2291242577782606E+00
Ga   -1.6080221112663218E+00    1.0212525432358312E+01    5.8771834864230774E+00
N   -1.6080633737835315E+00    1.0212549361500747E+01    7.8491165618430427E+00
Ga   -1.6080623005730754E+00    8.3557215324405814E+00    8.4971800720642303E+00
N   -1.6080407759750479E+00    8.3557094192719337E+00    1.0469114984709391E+01
Ga   -1.6080221166973243E+00    1.0212525337130572E+01    1.1117180434300245E+01
N   -1.6080633614348969E+00    1.0212549233909783E+01    1.3089117402754697E+01
Ga   -1.6080621851402910E+00    8.3557217770851651E+00    1.3737180789277815E+01
N    6.4322548816386762E+00   -1.0462427015279279E-05   -1.0876171062590789E-02
Ga    6.4322737782603090E+00    1.8568054724731979E+00    6.3718451772422835E-01
N    6.4322321452229358E+00    1.8568292784318510E+00    2.6091164229135098E+00
Ga    6.4322333662531435E+00    2.0245256016775462E-06    3.2571840580756284E+00
N    6.4322548030241684E+00   -1.0355742772925123E-05    5.2291245918476950E+00
Ga    6.4322736822635260E+00    1.8568057437851673E+00    5.8771835200824913E+00
N    6.4322323075556316E+00    1.8568291585662691E+00    7.8491163796268362E+00
Ga    6.4322335030959072E+00    1.8290493473153272E-06    8.4971799522211722E+00
N    6.4322547877358405E+00   -1.0524090318852743E-05    1.0469115210990129E+01
Ga    6.4322736970377212E+00    1.8568054449709721E+00    1.1117180571481288E+01
N    6.4322322650606862E+00    1.8568291292264121E+00    1.3089117516297778E+01
Ga    6.4322334530919267E+00    1.7002369271695824E-06    1.3737180648297347E+01
N    4.8241957105163742E+00    2.7852295401130429E+00   -1.0876363986090331E-02
Ga    4.8242146407675301E+00    4.6420454433847391E+00    6.3718472025388972E-01
N    4.8241730175199988E+00    4.6420692656780478E+00    2.6091163018138714E+00
Ga    4.8241740173816483E+00    2.7852422130269123E+00    3.2571842676373781E+00
N    4.8241957118885308E+00    2.7852293646535284E+00    5.2291244481596788E+00
Ga    4.8242146714591874E+00    4.6420454683709114E+00    5.8771835632390550E+00
N    4.8241731357366318E+00    4.6420692540754063E+00    7.8491162435253878E+00
Ga    4.8241739391169771E+00    2.7852421189742151E+00    8.4971797836575362E+00
N    4.8241956081802604E+00    2.7852293784381783E+00    1.0469115104796305E+01
Ga    4.8242145553971385E+00    4.6420454450221840E+00    1.1117180316644808E+01
N    4.8241731270469579E+00    4.6420693667843835E+00    1.3089117577061300E+01
Ga    4.8241740189742366E+00    2.7852418825464484E+00    1.3737180582695691E+01
N    3.2161365088339839E+00    5.5704695234811235E+00   -1.0876351229917147E-02
Ga    3.2161560957389512E+00    7.4272854261986039E+00    6.3718459201218103E-01
N    3.2161139918540225E+00    7.4273092789933965E+00    2.6091163374414159E+00
Ga    3.2161152308872532E+00    5.5704817656592098E+00    3.2571842102765505E+00
N    3.2161364690738909E+00    5.5704695343581854E+00    5.2291245777833586E+00
Ga    3.2161562094025458E+00    7.4272851827495678E+00    5.8771835360259592E+00
N    3.2161143316203882E+00    7.4273091358251078E+00    7.8491164319583859E+00
Ga    3.2161153135434351E+00    5.5704815940361110E+00    8.4971800273901152E+00
N    3.2161364151789100E+00    5.5704695529680590E+00    1.0469115346599816E+01
Ga    3.2161560361943025E+00    7.4272852899638639E+00    1.1117180376641599E+01
N    3.2161142106015794E+00    7.4273090714315249E+00    1.3089117498025692E+01
Ga    3.2161151356569548E+00    5.5704817251389205E+00    1.3737180566636773E+01
N    1.6080777728708435E+00    8.3557094511665007E+00   -1.0876460172203164E-02
Ga    1.6080967900458980E+00    1.0212525419099281E+01    6.3718435061936485E-01
N    1.6080548614956005E+00    1.0212549430487536E+01    2.6091162788625812E+00
Ga    1.6080564357907103E+00    8.3557219898805730E+00    3.2571841649047308E+00
N    1.6080777899885130E+00    8.3557094327339527E+00    5.2291244149146250E+00
Ga    1.6080968498671750E+00    1.0212525436113289E+01    5.8771834855000300E+00
N    1.6080550676727767E+00    1.0212549389518367E+01    7.8491162737870646E+00
Ga    1.6080565313615316E+00    8.3557217077657988E+00    8.4971800273842302E+00
N    1.6080777398464348E+00    8.3557093853270015E+00    1.0469115269626046E+01
Ga    1.6080968346369651E+00    1.0212525414872097E+01    1.1117180513925907E+01
N    1.6080551619131478E+00    1.0212549058273723E+01    1.3089117449093800E+01
Ga    1.6080563874100846E+00    8.3557219182341189E+00    1.3737180638960432E+01
N    9.6483732341442359E+00   -1.0627720649897489E-05   -1.0876400305179787E-02
Ga    9.6483921571662918E+00    1.8568052778107980E+00    6.3718462648907148E-01
N    9.6483503460377289E+00    1.8568292424090715E+00    2.6091164168149930E+00
Ga    9.6483520303128056E+00    1.8784203104973732E-06    3.2571843694942961E+00
N    9.6483731163754385E+00   -1.0541472699902046E-05    5.2291243053272023E+00
Ga    9.6483923234618292E+00    1.8568054553948037E+00    5.8771836952470240E+00
N    9.6483505597948405E+00    1.8568291122163803E+00    7.8491166050236547E+00
Ga    9.6483522088700795E+00    1.8017784884683596E-06    8.4971799582256065E+00
N    9.6483732251840593E+00   -1.0511914754000745E-05    1.0469114923296376E+01
Ga    9.6483922327602887E+00    1.8568053195810872E+00    1.1117180615326118E+01
N    9.6483505675234387E+00    1.8568291049354704E+00    1.3089117508364422E+01
Ga    9.6483520476754752E+00    1.7647552769101303E-06    1.3737180901244971E+01
N    8.0403139573419100E+00    2.7852294774112218E+00   -1.0876539986331046E-02
Ga    8.0403327669354905E+00    4.6420453108564601E+00    6.3718475265815433E-01
N    8.0402912625544563E+00    4.6420692622114172E+00    2.6091164102891331E+00
Ga    8.0402926578607214E+00    2.7852421148933457E+00    3.2571844093757676E+00
N    8.0403139192719610E+00    2.7852295125222879E+00    5.2291241583896388E+00
Ga    8.0403327214268092E+00    4.6420454070307180E+00    5.8771835955853033E+00
N    8.0402914306516440E+00    4.6420691830500518E+00    7.8491163776231767E+00
Ga    8.0402929652876747E+00    2.7852420682168662E+00    8.4971798027168433E+00
N    8.0403140771572943E+00    2.7852294752435336E+00    1.0469114762330419E+01
Ga    8.0403328167887960E+00    4.6420453504733850E+00    1.1117180480459405E+01
N    8.0402913714027111E+00    4.6420692475822491E+00    1.3089117462442415E+01
Ga    8.0402928319239280E+00    2.7852417686551028E+00    1.3737180786293886E+01
N    6.4322548378333693E+00    5.5704695650028420E+00   -1.0876438368650420E-02
Ga    6.4322737382086199E+00    7.4272854083444750E+00    6.3718487327992157E-01
N    6.4322322056909531E+00    7.4273094027188327E+00    2.6091163250476264E+00
Ga    6.4322332543570546E+00    5.5704821045668860E+00    3.2571842940721587E+00
N    6.4322548927090288E+00    5.5704695037225864E+00    5.2291244675734099E+00
Ga    6.4322736077127720E+00    7.4272853159228998E+00    5.8771836775267836E+00
N    6.4322323847928455E+00    7.4273092675944827E+00    7.8491165648705312E+00
Ga    6.4322333271077516E+00    5.5704820124043728E+00    8.4971797799666060E+00
N    6.4322549428269928E+00    5.5704695981730898E+00    1.0469115090433363E+01
Ga    6.4322737494206317E+00    7.4272853672570021E+00    1.1117180494461619E+01
N    6.4322323357468978E+00    7.4273093231611380E+00    1.3089117578206238E+01
Ga    6.4322334534936729E+00    5.5704819948815913E+00    1.3737180595696987E+01
N    4.8241959430665871E+00    8.3557096040285970E+00   -1.0876741723296614E-02
Ga    4.8242149328405075E+00    1.0212525453956564E+01    6.3718466056995726E-01
N    4.8241731019396115E+00    1.0212549423964717E+01    2.6091161623367221E+00
Ga    4.8241746126408103E+00    8.3557220956900640E+00    3.2571844620294361E+00
N    4.8241958486020176E+00    8.3557095167528939E+00    5.2291242254510895E+00
Ga    4.8242150700686848E+00    1.0212525368867960E+01    5.8771836437577116E+00
N    4.8241733074155251E+00    1.0212549226664208E+01    7.8491164563010383E+00
Ga    4.8241746604406428E+00    8.3557219392513371E+00    8.4971799469358675E+00
N    4.8241958969983019E+00    8.3557095449325338E+00    1.0469114895388685E+01
Ga    4.8242150251097797E+00    1.0212525470360864E+01    1.1117180552887261E+01
N    4.8241732968400681E+00    1.0212549094427692E+01    1.3089117438354284E+01
Ga    4.8241745264815208E+00    8.3557221121704544E+00    1.3737180827085529E+01
     &END COORD
     &KIND N
       BASIS_SET DZVP-MOLOPT-SR-GTH
       POTENTIAL GTH-PBE-q5
       &POTENTIAL
 2 3
  0.2837905100000000E+00 2 -0.1241522559000000E+02  0.1868095920000000E+01
 2
  0.2554050000000000E+00 1  0.1363026257000000E+02
  0.2454945300000000E+00 0
         # Potential name:  GTH-PBE-Q5  for symbol:  N
         # Potential read from the potential filename: GTH_POTENTIALS
       &END POTENTIAL
     &END KIND
     &KIND Ga
       BASIS_SET DZVP-MOLOPT-SR-GTH
       POTENTIAL GTH-PBE-q13
       &POTENTIAL
 2 1 10
  0.4900000000000000E+00 0
 3
  0.4167772300000000E+00 3  0.1047568975000000E+02 -0.4921768140000000E+01  0.8707055900000000E+00
  0.7770178090000000E+01 -0.2248152160000000E+01
  0.1784415450000000E+01
  0.5696265200000000E+00 2  0.1777985340000000E+01  0.1958597600000000E+00
 -0.2317443900000000E+00
  0.2381265000000000E+00 1 -0.1624868022000000E+02
         # Potential name:  GTH-PBE-Q13  for symbol:  GA
         # Potential read from the potential filename: GTH_POTENTIALS
       &END POTENTIAL
     &END KIND
     &TOPOLOGY
       NUMBER_OF_ATOMS  192
       MULTIPLE_UNIT_CELL  1 1 1
     &END TOPOLOGY
   &END SUBSYS
 &END FORCE_EVAL
