 # Version information for this restart file 
 # current date 2019-05-28 05:03:17.917
 # current working dir /lustre03/project/6004141/rzk/GaN-carbene/334-native/08-2Methanol-Htransfer/02-NH-constraint/1.44
 # Program compiled at                              Sun Apr  7 00:48:11 EDT 2019
 # Program compiled on                          beluga2.int.ets1.calculquebec.ca
 # Program compiled for                        Beluga-Linux-x86-64-intel-openmpi
 # Source code revision number                                         svn:18619
 &GLOBAL
   PRINT_LEVEL  MEDIUM
   PROJECT_NAME TEST
   RUN_TYPE  GEO_OPT
 &END GLOBAL
 &MOTION
   &GEO_OPT
     MAX_ITER  500
     STEP_START_VAL  294
   &END GEO_OPT
   &CONSTRAINT
     &COLLECTIVE
       COLVAR  1
       INTERMOLECULAR  T
       TARGET     2.7212056313553257E+00
       &RESTRAINT
         K     1.0000000000000001E-01
       &END RESTRAINT
     &END COLLECTIVE
     &COLVAR_RESTART
           2.7212056313553257E+00
     &END COLVAR_RESTART
   &END CONSTRAINT
 &END MOTION
 &FORCE_EVAL
   METHOD  QS
   STRESS_TENSOR  ANALYTICAL
   &DFT
     BASIS_SET_FILE_NAME BASIS_MOLOPT
     POTENTIAL_FILE_NAME GTH_POTENTIALS
     &SCF
       MAX_SCF  100
       EPS_SCF     5.0000000000000004E-06
       &OT  T
         PRECONDITIONER  FULL_ALL
       &END OT
       &OUTER_SCF  T
         OPTIMIZER  NONE
         EPS_SCF     5.0000000000000004E-06
         MAX_SCF  4
       &END OUTER_SCF
       &PRINT
         &RESTART  OFF
           BACKUP_COPIES  1
           &EACH
             JUST_ENERGY  0
             QS_SCF  0
             MD  20
           &END EACH
         &END RESTART
       &END PRINT
     &END SCF
     &QS
       EPS_DEFAULT     1.0000000000000000E-14
       ALMO_SCF  F
       METHOD  GPW
     &END QS
     &MGRID
       NGRIDS  5
       CUTOFF     1.2000000000000000E+03
     &END MGRID
     &XC
       DENSITY_CUTOFF     1.0000000000000000E-10
       GRADIENT_CUTOFF     1.0000000000000000E-10
       TAU_CUTOFF     1.0000000000000000E-10
       &XC_FUNCTIONAL  NO_SHORTCUT
         &PBE  T
         &END PBE
       &END XC_FUNCTIONAL
       &VDW_POTENTIAL
         POTENTIAL_TYPE  PAIR_POTENTIAL
         &PAIR_POTENTIAL
           R_CUTOFF     1.0000000000000005E+01
           TYPE  DFTD3
           PARAMETER_FILE_NAME dftd3.dat
           REFERENCE_FUNCTIONAL PBE
           EPS_CN     9.9999999999999995E-07
           CALCULATE_C9_TERM  T
           REFERENCE_C9_TERM  T
           LONG_RANGE_CORRECTION  F
           VERBOSE_OUTPUT  F
         &END PAIR_POTENTIAL
       &END VDW_POTENTIAL
     &END XC
   &END DFT
   &SUBSYS
     &CELL
       A     9.7367653356401487E+00    0.0000000000000000E+00    0.0000000000000000E+00
       B    -4.8591341382960209E+00    8.4162672083210595E+00    0.0000000000000000E+00
       C     0.0000000000000000E+00    0.0000000000000000E+00    3.0744000000000000E+01
       MULTIPLE_UNIT_CELL  1 1 1
       &CELL_REF
         A     9.5580000000000052E+00    0.0000000000000000E+00    0.0000000000000000E+00
         B    -4.7790000000000026E+00    8.2774708093716640E+00    0.0000000000000000E+00
         C     0.0000000000000000E+00    0.0000000000000000E+00    3.0744000000000000E+01
         MULTIPLE_UNIT_CELL  1 1 1
       &END CELL_REF
     &END CELL
     &COORD
Ga   -3.5982398695985636E-02    3.9775583147155943E-02   -5.4322452105345953E-01
N   -3.1838706694908979E-02    1.9135036375090941E+00    6.1111284532566323E-01
Ga   -3.2290239432256167E-02    1.8816536068640359E+00    2.6410468691381825E+00
N   -3.5028100624240638E-02    3.8843643556755576E-02    3.2738973253912569E+00
Ga   -3.4608657500345967E-02    3.9749113449004753E-02    5.2638578581082385E+00
N   -3.1833144821554776E-02    1.9140057266913864E+00    5.8520771649438288E+00
Ga   -3.2178320266053433E-02    1.9118859476731176E+00    7.8514832980129681E+00
N   -3.4660082196342958E-02    3.8880725270386433E-02    8.4552505682655443E+00
Ga   -3.4860311050006268E-02    3.9153381846699337E-02    1.0454868137685267E+01
N   -3.1728415303606733E-02    1.9115173707952917E+00    1.1057361323129690E+01
Ga   -3.2941724379920989E-02    1.9088037763275725E+00    1.3055911772895639E+01
N   -3.6967628501400014E-02    3.8421725137323712E-02    1.3657136797219541E+01
Ga   -4.0526270399029188E-02    3.7207643360679610E-02    1.5664631579251203E+01
N   -4.6309941540816031E-02    1.9224599735274928E+00    1.6214832644192491E+01
Ga    6.0956718436060934E-03    1.8878753395471315E+00    1.8226858275938824E+01
N   -4.1172041060714606E-02    2.8778078370509323E-02    1.8690334319787453E+01
Ga   -1.6543497153764537E+00    2.8441679364794106E+00    3.3048409089164260E-01
N   -1.6553396576488584E+00    4.7145597425772161E+00    6.1066660118877258E-01
Ga   -1.6271871350825255E+00    4.7301804623241468E+00    2.6407923077742215E+00
N   -1.6547096431162842E+00    2.8443488565127542E+00    3.2322984788222291E+00
Ga   -1.6542239415206825E+00    2.8447507380174573E+00    5.2435125334116508E+00
N   -1.6539895389445605E+00    4.7151478784704999E+00    5.8511624048595472E+00
Ga   -1.6532186821396329E+00    4.7153100870421474E+00    7.8500734215324632E+00
N   -1.6541378907492512E+00    2.8451256409413355E+00    8.4558294603204835E+00
Ga   -1.6537041278679552E+00    2.8446306726611228E+00    1.0452153032183849E+01
N   -1.6536567087468352E+00    4.7184495490356051E+00    1.1054861032402421E+01
Ga   -1.6583841797111660E+00    4.7208939094047082E+00    1.3048378924205661E+01
N   -1.6632138080582726E+00    2.8474276646361090E+00    1.3642134730216805E+01
Ga   -1.6568270444068756E+00    2.8453448708817470E+00    1.5629231018861585E+01
N   -1.6421944706041325E+00    4.7134800643010992E+00    1.6250784544140991E+01
Ga   -1.6851037664642943E+00    4.7328886663197620E+00    1.8240343610086381E+01
N   -1.6381198648234216E+00    2.8465232785077044E+00    1.8805694286720225E+01
Ga   -3.2750054032762210E+00    5.6503497063067663E+00    3.3031425739981030E-01
N   -3.2686371519622637E+00    7.5207665416517226E+00    6.1018870045769058E-01
Ga   -3.2966734476291308E+00    7.5359447770729133E+00    2.6402655467779810E+00
N   -3.2743747752775114E+00    5.6501462903536419E+00    3.2320768068649608E+00
Ga   -3.2739383640412831E+00    5.6510673847464492E+00    5.2433244945402242E+00
N   -3.2684771139347215E+00    7.5212053254468882E+00    5.8520652279701846E+00
Ga   -3.2694417201170651E+00    7.5217893060903185E+00    7.8514066140715286E+00
N   -3.2739725546757668E+00    5.6507416989559500E+00    8.4536844414719443E+00
Ga   -3.2736987118350456E+00    5.6535689446737276E+00    1.0448397378595191E+01
N   -3.2709465505238340E+00    7.5216592699550819E+00    1.1060584606405106E+01
Ga   -3.2708399335596661E+00    7.5266718399673076E+00    1.3060297166407775E+01
N   -3.2743255943182246E+00    5.6567162089345731E+00    1.3681201757428523E+01
Ga   -3.2730568882023889E+00    5.6595390196330282E+00    1.5686862797328198E+01
N   -3.2705018945939366E+00    7.5492836349924382E+00    1.6272192673720038E+01
Ga   -3.2701850663574423E+00    7.5067889933162935E+00    1.8358951031622187E+01
N   -3.2716959864864417E+00    5.6329270583804831E+00    1.8771386917081326E+01
Ga    3.2111561258640209E+00    3.8885341927909052E-02    3.3051445220755749E-01
N    3.2098933539885475E+00    1.9091598552157574E+00    6.1061660483705871E-01
Ga    3.2381406312236942E+00    1.9248760974674284E+00    2.6407348384203715E+00
N    3.2106092943769982E+00    3.8961134401772256E-02    3.2317817009293441E+00
Ga    3.2111158197515635E+00    3.9790946055605361E-02    5.2429109556895783E+00
N    3.2115470965410022E+00    1.9094917245418224E+00    5.8519442162966824E+00
Ga    3.2126577173063184E+00    1.9091333948408029E+00    7.8513077105265250E+00
N    3.2112614761759413E+00    3.8855926389169348E-02    8.4582075241173325E+00
Ga    3.2119696603907744E+00    3.9044073032113345E-02    1.0456249548931543E+01
N    3.2148794016614994E+00    1.9120531361243644E+00    1.1056132233322812E+01
Ga    3.2150663812346063E+00    1.9089912581939001E+00    1.3053799325710211E+01
N    3.2135505595332510E+00    3.9877803903080343E-02    1.3657916849970583E+01
Ga    3.2164518675432419E+00    4.1729472159835683E-02    1.5666218284572009E+01
N    3.2293714274727856E+00    1.9248659197487614E+00    1.6228233413124826E+01
Ga    3.1652453502076896E+00    1.8881538142508039E+00    1.8246412218714291E+01
N    3.2194218456605537E+00    2.7259062361935128E-02    1.8694501152743047E+01
Ga    1.5904127725995159E+00    2.8449752774690382E+00    3.3076563648473939E-01
N    1.5972235281353280E+00    4.7152731337562210E+00    6.1118819317397133E-01
Ga    1.5690787252722700E+00    4.7305178548664157E+00    2.6411806753059004E+00
N    1.5909326477230514E+00    2.8444636638092851E+00    3.2326294610070820E+00
Ga    1.5914014952387467E+00    2.8450940004325771E+00    5.2440840354695011E+00
N    1.5969795109255756E+00    4.7153895151337348E+00    5.8522520339265274E+00
Ga    1.5953219536832395E+00    4.7152687204952590E+00    7.8517409740129978E+00
N    1.5912727391691797E+00    2.8437065356100488E+00    8.4541031504739141E+00
Ga    1.5914891507727966E+00    2.8422939525474256E+00    1.0449731723734548E+01
N    1.5945105494533922E+00    4.7159459009934013E+00    1.1045928698465724E+01
Ga    1.5942469829142403E+00    4.7090301164668018E+00    1.3034861166878388E+01
N    1.5919830203035097E+00    2.8467148585091109E+00    1.3652481950287477E+01
Ga    1.5930103791655064E+00    2.8430399388095324E+00    1.5651361197143027E+01
N    1.5943500506460704E+00    4.7287772314368279E+00    1.6271346627736332E+01
Ga    1.5985316901752449E+00    4.6650935160631617E+00    1.8261994764905172E+01
N    1.5850045721491930E+00    2.8297775190302885E+00    1.8770559738587160E+01
Ga   -2.7774519233095707E-02    5.6508303956704760E+00   -5.4276803415407360E-01
N   -2.5329913482698717E-02    7.5245022973751192E+00    6.1107393634603080E-01
Ga   -2.5569751803991028E-02    7.4926515279158696E+00    2.6410684714342989E+00
N   -2.8849281083825954E-02    5.6496731356042291E+00    3.2739967615531884E+00
Ga   -2.8045385908502515E-02    5.6505842448517312E+00    5.2640761801048956E+00
N   -2.5689083495436353E-02    7.5252413951620278E+00    5.8514102249033071E+00
Ga   -2.6599989198673488E-02    7.5231032984876851E+00    7.8504206440768840E+00
N   -2.9250552787633510E-02    5.6501738111866473E+00    8.4521776841762737E+00
Ga   -2.9454729858434527E-02    5.6520065972584455E+00    1.0449515947798915E+01
N   -2.3756999406380132E-02    7.5212851741300888E+00    1.1060348813982866E+01
Ga   -2.4206404265068454E-02    7.5244491243256695E+00    1.3059238378549466E+01
N   -2.6501806665114081E-02    5.6409854172195670E+00    1.3644673026030937E+01
Ga   -2.5335567013281615E-02    5.6469312595545587E+00    1.5629530411284474E+01
N   -2.7805280632612329E-02    7.4941593769939105E+00    1.6245698828410216E+01
Ga   -9.1177917553515835E-03    7.5540174581234467E+00    1.8265217330580157E+01
N   -2.4118896242309753E-02    5.6436233124644586E+00    1.8840719847792155E+01
Ga    6.4560457255180541E+00    3.9481269725024658E-02    3.3000458083360307E-01
N    6.4621767811883677E+00    1.9095457928453856E+00    6.1089584399327090E-01
Ga    6.4343086997942827E+00    1.9245696678935007E+00    2.6409305873482931E+00
N    6.4562627308384464E+00    3.9036783385836112E-02    3.2327860140140117E+00
Ga    6.4569346106697356E+00    3.9751678561727059E-02    5.2439963867653479E+00
N    6.4622013896785795E+00    1.9097329558077933E+00    5.8522614710252894E+00
Ga    6.4611070577756946E+00    1.9099334082150405E+00    7.8516751710071402E+00
N    6.4564488995123677E+00    3.8022528666726944E-02    8.4540290572069132E+00
Ga    6.4570598291934722E+00    3.6107280634701332E-02    1.0449611456327540E+01
N    6.4594291982522289E+00    1.9078140723589900E+00    1.1049566819675633E+01
Ga    6.4594529943519241E+00    1.9030354547920678E+00    1.3041802374677664E+01
N    6.4573963486191071E+00    3.9507776210418892E-02    1.3671389793700978E+01
Ga    6.4592111556404532E+00    2.9860040314299105E-02    1.5683301874363103E+01
N    6.4588680836480599E+00    1.9259827449122886E+00    1.6278309690318800E+01
Ga    6.4650993877290777E+00    1.8873981736843366E+00    1.8286116940685396E+01
N    6.4557788894746455E+00    4.3779209681434859E-02    1.8725286801386524E+01
Ga    4.8369214825191875E+00    2.8448525491000685E+00   -5.4263326794513400E-01
N    4.8395274057397168E+00    4.7189552523364764E+00    6.1093137389145891E-01
Ga    4.8392145972005398E+00    4.6873487984073998E+00    2.6410439077122883E+00
N    4.8365146939057126E+00    2.8442252072607448E+00    3.2738154823774837E+00
Ga    4.8371650903951169E+00    2.8448836679773173E+00    5.2640191220306809E+00
N    4.8398682704913094E+00    4.7197691861821260E+00    5.8510305795206987E+00
Ga    4.8400068236378857E+00    4.7181632313314648E+00    7.8498364148730468E+00
N    4.8368691689003835E+00    2.8452197824369558E+00    8.4522085940953016E+00
Ga    4.8373055721724239E+00    2.8449683637033933E+00    1.0449680219400731E+01
N    4.8428117051447046E+00    4.7179884044482057E+00    1.1055155606837884E+01
Ga    4.8463573956059136E+00    4.7201206876621082E+00    1.3048774052302178E+01
N    4.8450946620616362E+00    2.8466095122662449E+00    1.3643071826226866E+01
Ga    4.8385549654919089E+00    2.8432549805511762E+00    1.5629618755659337E+01
N    4.8335595583540041E+00    4.7097698648577344E+00    1.6254475183283290E+01
Ga    4.8726840982312023E+00    4.7368236062342852E+00    1.8241717491080404E+01
N    4.8223813696995332E+00    2.8440515524014041E+00    1.8832800151979175E+01
Ga    3.2173680530619464E+00    5.6501716498016243E+00    3.3058285201722615E-01
N    3.2161077466543659E+00    7.5201980938931694E+00    6.1111401193594228E-01
Ga    3.2441312326146261E+00    7.5358771234080200E+00    2.6410145610366111E+00
N    3.2168473929681554E+00    5.6500235397440868E+00    3.2324138011118522E+00
Ga    3.2172299023458617E+00    5.6509040449826733E+00    5.2435281934651226E+00
N    3.2178003073255108E+00    7.5207738238083754E+00    5.8517559484205233E+00
Ga    3.2192236240607195E+00    7.5206724000091265E+00    7.8507211325075090E+00
N    3.2178737204781713E+00    5.6500969987645204E+00    8.4550364096975930E+00
Ga    3.2192933681895801E+00    5.6519154963038014E+00    1.0450828309150401E+01
N    3.2190938794919264E+00    7.5212803235166712E+00    1.1059945129746293E+01
Ga    3.2190660211364661E+00    7.5238511092118117E+00    1.3058493366864054E+01
N    3.2157813543586635E+00    5.6406659457542343E+00    1.3646645513071558E+01
Ga    3.2164812258822848E+00    5.6466713523585881E+00    1.5632563747395077E+01
N    3.2238485449134893E+00    7.4923461299862408E+00    1.6253147310453723E+01
Ga    3.2040746444879047E+00    7.5475838541560636E+00    1.8280561528822265E+01
N    3.2156130316662916E+00    5.6392673994011160E+00    1.8842934322326592E+01
O   -9.1210936493938843E-01    3.3263424846066365E+00    2.1733713286172300E+01
H   -4.9562352489321948E-02    5.6519751854448641E+00    1.9866476043457585E+01
C    3.0997279532730276E-01    3.1968699011637085E+00    2.1789600228077763E+01
H   -1.5456948541083049E+00    2.9002151103634044E+00    2.0039179938607031E+01
H    9.1152209468507139E-01    2.9013549435917558E+00    2.0897234042717383E+01
H    8.4789336986406583E-01    3.4012155071763965E+00    2.2737772588395266E+01
O    4.5103309446630178E+00    4.5839278435954700E+00    2.1727873081077416E+01
H    3.2695354283497342E+00    5.5979579244488304E+00    1.9869009475697560E+01
C    5.6929482489993797E+00    4.8900104181972495E+00    2.1835114840407467E+01
H    4.7846383485401525E+00    2.8639830790728129E+00    1.9858498288937565E+01
H    6.2438824227280421E+00    5.3499969244823138E+00    2.0980688969072020E+01
H    6.2520421384646658E+00    4.6933156664560238E+00    2.2774262514671292E+01
     &END COORD
     &KIND C
       BASIS_SET DZVP-MOLOPT-SR-GTH-q4
       POTENTIAL GTH-PBE-q4
       &POTENTIAL
 2 2
  0.3384712400000000E+00 2 -0.8803673979999999E+01  0.1339210850000000E+01
 2
  0.3025757500000000E+00 1  0.9622486650000001E+01
  0.2915069400000000E+00 0
         # Potential name:  GTH-PBE-Q4  for symbol:  C
         # Potential read from the potential filename: GTH_POTENTIALS
       &END POTENTIAL
     &END KIND
     &KIND O
       BASIS_SET DZVP-MOLOPT-SR-GTH-q6
       POTENTIAL GTH-PBE-q6
       &POTENTIAL
 2 4
  0.2445543000000000E+00 2 -0.1666721480000000E+02  0.2487311320000000E+01
 2
  0.2209559200000000E+00 1  0.1833745811000000E+02
  0.2113324700000000E+00 0
         # Potential name:  GTH-PBE-Q6  for symbol:  O
         # Potential read from the potential filename: GTH_POTENTIALS
       &END POTENTIAL
     &END KIND
     &KIND H
       BASIS_SET DZVP-MOLOPT-SR-GTH-q1
       POTENTIAL GTH-PBE-q1
       &POTENTIAL
 1
  0.2000000000000000E+00 2 -0.4178900440000000E+01  0.7244633100000000E+00
 0
         # Potential name:  GTH-PBE-Q1  for symbol:  H
         # Potential read from the potential filename: GTH_POTENTIALS
       &END POTENTIAL
     &END KIND
     &KIND N
       BASIS_SET DZVP-MOLOPT-SR-GTH-q5
       POTENTIAL GTH-PBE-q5
       &POTENTIAL
 2 3
  0.2837905100000000E+00 2 -0.1241522559000000E+02  0.1868095920000000E+01
 2
  0.2554050000000000E+00 1  0.1363026257000000E+02
  0.2454945300000000E+00 0
         # Potential name:  GTH-PBE-Q5  for symbol:  N
         # Potential read from the potential filename: GTH_POTENTIALS
       &END POTENTIAL
     &END KIND
     &KIND Ga
       BASIS_SET DZVP-MOLOPT-SR-GTH-q13
       POTENTIAL GTH-PBE-q13
       &POTENTIAL
 2 1 10
  0.4900000000000000E+00 0
 3
  0.4167772300000000E+00 3  0.1047568975000000E+02 -0.4921768140000000E+01  0.8707055900000000E+00
  0.7770178090000000E+01 -0.2248152160000000E+01
  0.1784415450000000E+01
  0.5696265200000000E+00 2  0.1777985340000000E+01  0.1958597600000000E+00
 -0.2317443900000000E+00
  0.2381265000000000E+00 1 -0.1624868022000000E+02
         # Potential name:  GTH-PBE-Q13  for symbol:  GA
         # Potential read from the potential filename: GTH_POTENTIALS
       &END POTENTIAL
     &END KIND
     &TOPOLOGY
       COORD_FILE_NAME ../start-first.xyz
       COORD_FILE_FORMAT  XYZ
       NUMBER_OF_ATOMS  156
       MULTIPLE_UNIT_CELL  1 1 1
     &END TOPOLOGY
     &COLVAR
       &DISTANCE
         ATOMS  32 148
       &END DISTANCE
       &PRINT
       &END PRINT
     &END COLVAR
   &END SUBSYS
 &END FORCE_EVAL
