 # Version information for this restart file 
 # current date 2019-05-28 05:02:36.613
 # current working dir /lustre03/project/6004141/rzk/GaN-carbene/334-native/08-2Methanol-Htransfer/02-NH-constraint/1.44
 # Program compiled at                              Sun Apr  7 00:48:11 EDT 2019
 # Program compiled on                          beluga2.int.ets1.calculquebec.ca
 # Program compiled for                        Beluga-Linux-x86-64-intel-openmpi
 # Source code revision number                                         svn:18619
 &GLOBAL
   PRINT_LEVEL  MEDIUM
   PROJECT_NAME TEST
   RUN_TYPE  GEO_OPT
 &END GLOBAL
 &MOTION
   &GEO_OPT
     MAX_ITER  500
     STEP_START_VAL  293
   &END GEO_OPT
   &CONSTRAINT
     &COLLECTIVE
       COLVAR  1
       INTERMOLECULAR  T
       TARGET     2.7212056313553257E+00
       &RESTRAINT
         K     1.0000000000000001E-01
       &END RESTRAINT
     &END COLLECTIVE
     &COLVAR_RESTART
           2.7212056313553257E+00
     &END COLVAR_RESTART
   &END CONSTRAINT
 &END MOTION
 &FORCE_EVAL
   METHOD  QS
   STRESS_TENSOR  ANALYTICAL
   &DFT
     BASIS_SET_FILE_NAME BASIS_MOLOPT
     POTENTIAL_FILE_NAME GTH_POTENTIALS
     &SCF
       MAX_SCF  100
       EPS_SCF     5.0000000000000004E-06
       &OT  T
         PRECONDITIONER  FULL_ALL
       &END OT
       &OUTER_SCF  T
         OPTIMIZER  NONE
         EPS_SCF     5.0000000000000004E-06
         MAX_SCF  4
       &END OUTER_SCF
       &PRINT
         &RESTART  OFF
           BACKUP_COPIES  1
           &EACH
             JUST_ENERGY  0
             QS_SCF  0
             MD  20
           &END EACH
         &END RESTART
       &END PRINT
     &END SCF
     &QS
       EPS_DEFAULT     1.0000000000000000E-14
       ALMO_SCF  F
       METHOD  GPW
     &END QS
     &MGRID
       NGRIDS  5
       CUTOFF     1.2000000000000000E+03
     &END MGRID
     &XC
       DENSITY_CUTOFF     1.0000000000000000E-10
       GRADIENT_CUTOFF     1.0000000000000000E-10
       TAU_CUTOFF     1.0000000000000000E-10
       &XC_FUNCTIONAL  NO_SHORTCUT
         &PBE  T
         &END PBE
       &END XC_FUNCTIONAL
       &VDW_POTENTIAL
         POTENTIAL_TYPE  PAIR_POTENTIAL
         &PAIR_POTENTIAL
           R_CUTOFF     1.0000000000000005E+01
           TYPE  DFTD3
           PARAMETER_FILE_NAME dftd3.dat
           REFERENCE_FUNCTIONAL PBE
           EPS_CN     9.9999999999999995E-07
           CALCULATE_C9_TERM  T
           REFERENCE_C9_TERM  T
           LONG_RANGE_CORRECTION  F
           VERBOSE_OUTPUT  F
         &END PAIR_POTENTIAL
       &END VDW_POTENTIAL
     &END XC
   &END DFT
   &SUBSYS
     &CELL
       A     9.7367653356401487E+00    0.0000000000000000E+00    0.0000000000000000E+00
       B    -4.8591341382960209E+00    8.4162672083210595E+00    0.0000000000000000E+00
       C     0.0000000000000000E+00    0.0000000000000000E+00    3.0744000000000000E+01
       MULTIPLE_UNIT_CELL  1 1 1
       &CELL_REF
         A     9.5580000000000052E+00    0.0000000000000000E+00    0.0000000000000000E+00
         B    -4.7790000000000026E+00    8.2774708093716640E+00    0.0000000000000000E+00
         C     0.0000000000000000E+00    0.0000000000000000E+00    3.0744000000000000E+01
         MULTIPLE_UNIT_CELL  1 1 1
       &END CELL_REF
     &END CELL
     &COORD
Ga   -3.6037474159638101E-02    3.9781360253545284E-02   -5.4315563302256131E-01
N   -3.1922275789216289E-02    1.9135171975934104E+00    6.1119626460551513E-01
Ga   -3.2333886733673892E-02    1.8817135418583564E+00    2.6411243126292154E+00
N   -3.5069506129067278E-02    3.8896809798562922E-02    3.2739820657861194E+00
Ga   -3.4688668633475070E-02    3.9797937751034754E-02    5.2639275532282639E+00
N   -3.1891747576980357E-02    1.9140530835011036E+00    5.8521745888318417E+00
Ga   -3.2229320512092839E-02    1.9119434383984888E+00    7.8515703430195192E+00
N   -3.4746765252399697E-02    3.8938642933503492E-02    8.4553729865483991E+00
Ga   -3.4935414691072260E-02    3.9219455661752473E-02    1.0454973667461099E+01
N   -3.1762835125545626E-02    1.9115802892234777E+00    1.1057504422948407E+01
Ga   -3.2932161640782734E-02    1.9088291888057527E+00    1.3055997725384316E+01
N   -3.6964588490805181E-02    3.8457777854063034E-02    1.3657217262873424E+01
Ga   -4.0474416592511532E-02    3.7270528610825443E-02    1.5664692149623306E+01
N   -4.6226210070614192E-02    1.9225356090291992E+00    1.6214837199347475E+01
Ga    6.2183038021695180E-03    1.8879193497783138E+00    1.8226848443985528E+01
N   -4.1047631763616393E-02    2.8753679340546266E-02    1.8690266832927801E+01
Ga   -1.6544245703694924E+00    2.8441757606117970E+00    3.3047469599497636E-01
N   -1.6553995027864190E+00    4.7145855267044690E+00    6.1075864932832902E-01
Ga   -1.6272364554743315E+00    4.7302318775931402E+00    2.6408659415391971E+00
N   -1.6547454140636200E+00    2.8444044875063708E+00    3.2323559332059624E+00
Ga   -1.6542887094363206E+00    2.8447802295836442E+00    5.2435489857020086E+00
N   -1.6540578027289683E+00    4.7151766522862273E+00    5.8512380248358999E+00
Ga   -1.6532592971668714E+00    4.7153566940566094E+00    7.8501304936272529E+00
N   -1.6541975960668842E+00    2.8451805865936231E+00    8.4559606984104612E+00
Ga   -1.6537498407981479E+00    2.8446662471178672E+00    1.0452254170450464E+01
N   -1.6536877457746415E+00    4.7184814362105740E+00    1.1054976324928120E+01
Ga   -1.6583730790897575E+00    4.7208805712798814E+00    1.3048415936410933E+01
N   -1.6632083086198330E+00    2.8474226239193716E+00    1.3642200246339835E+01
Ga   -1.6567908624837868E+00    2.8453164836357279E+00    1.5629240041512318E+01
N   -1.6421257464964842E+00    4.7134411878211333E+00    1.6250788992625314E+01
Ga   -1.6849276905172392E+00    4.7328502770317060E+00    1.8240343518645680E+01
N   -1.6380265478244800E+00    2.8464764520749744E+00    1.8805741671850541E+01
Ga   -3.2750783616421040E+00    5.6503701022329338E+00    3.3028227771749480E-01
N   -3.2687053375290231E+00    7.5207738694798199E+00    6.1029218411081654E-01
Ga   -3.2967195888896441E+00    7.5359855653332231E+00    2.6403450441373693E+00
N   -3.2744244663705042E+00    5.6501900045510283E+00    3.2321425084704862E+00
Ga   -3.2740228774187292E+00    5.6510948676797828E+00    5.2433694891217195E+00
N   -3.2685577387612712E+00    7.5212409465846717E+00    5.8521505230276976E+00
Ga   -3.2695217981193569E+00    7.5218579418445470E+00    7.8514673014234315E+00
N   -3.2740177910025086E+00    5.6508048589405604E+00    8.4537888523272908E+00
Ga   -3.2737205080295491E+00    5.6536254983096486E+00    1.0448456984588015E+01
N   -3.2709958053593131E+00    7.5217162867341836E+00    1.1060703341080126E+01
Ga   -3.2708365260511245E+00    7.5267013314158646E+00    1.3060360365399326E+01
N   -3.2742982377240337E+00    5.6567204896842833E+00    1.3681257301297313E+01
Ga   -3.2730040409640333E+00    5.6594967417518784E+00    1.5686889170367122E+01
N   -3.2704507672521341E+00    7.5492521462589011E+00    1.6272167078343237E+01
Ga   -3.2700920481335305E+00    7.5067230833652676E+00    1.8358759859596326E+01
N   -3.2715658229479372E+00    5.6328666776812470E+00    1.8771435782690869E+01
Ga    3.2110740003911054E+00    3.8905295967925253E-02    3.3054827737024134E-01
N    3.2098080210763018E+00    1.9091894383640025E+00    6.1060920596106971E-01
Ga    3.2381020961677511E+00    1.9249297272931267E+00    2.6407081915783528E+00
N    3.2105607828876463E+00    3.9019064042161940E-02    3.2318353129262860E+00
Ga    3.2110361775305263E+00    3.9846925892365145E-02    5.2429308427248396E+00
N    3.2115007808560434E+00    1.9095324053619307E+00    5.8520235389263027E+00
Ga    3.2125820378856691E+00    1.9091836889984044E+00    7.8513675800723099E+00
N    3.2111726626734782E+00    3.8916216857210174E-02    8.4583202475614208E+00
Ga    3.2118928379618459E+00    3.9119636710703599E-02    1.0456316408897948E+01
N    3.2148370236672736E+00    1.9121247591276394E+00    1.1056277260373697E+01
Ga    3.2150605497837614E+00    1.9090287368591754E+00    1.3053896909924262E+01
N    3.2135583739359279E+00    3.9899178653990064E-02    1.3657968714060772E+01
Ga    3.2165354531285626E+00    4.1705691686377153E-02    1.5666278069857144E+01
N    3.2294502670646947E+00    1.9248631611687927E+00    1.6228287434689221E+01
Ga    3.1654211375682899E+00    1.8881532013879836E+00    1.8246472372913505E+01
N    3.2195644301841684E+00    2.7214161670658803E-02    1.8694417938784742E+01
Ga    1.5903067727697044E+00    2.8449881473059397E+00    3.3080126455331410E-01
N    1.5971496997976689E+00    4.7153223799738777E+00    6.1129161747864935E-01
Ga    1.5690494957051733E+00    4.7305727871235037E+00    2.6412433656679646E+00
N    1.5909042849845005E+00    2.8445133420653717E+00    3.2326751576486776E+00
Ga    1.5913663496455253E+00    2.8451098627423232E+00    5.2441019825379698E+00
N    1.5969352156688401E+00    4.7154095779420331E+00    5.8523016917666784E+00
Ga    1.5952507813303061E+00    4.7153072148807027E+00    7.8517910977204446E+00
N    1.5912140992695176E+00    2.8437704048145656E+00    8.4542271113147578E+00
Ga    1.5914505344885419E+00    2.8423551613819242E+00    1.0449839579078168E+01
N    1.5944651156613958E+00    4.7159932744947879E+00    1.1046056748854685E+01
Ga    1.5942773238006944E+00    4.7090390943056644E+00    1.3034932452247485E+01
N    1.5919889449602407E+00    2.8467504302037812E+00    1.3652581246122688E+01
Ga    1.5930966202907804E+00    2.8430923528878758E+00    1.5651435501373095E+01
N    1.5944220461460314E+00    4.7287973010202657E+00    1.6271347336497435E+01
Ga    1.5986722952404810E+00    4.6651527303724256E+00    1.8261970191477833E+01
N    1.5851680143902174E+00    2.8298271438827598E+00    1.8770558178555419E+01
Ga   -2.7829835701584683E-02    5.6508480977942845E+00   -5.4264666108626536E-01
N   -2.5385726394691239E-02    7.5245295075030416E+00    6.1116396320520794E-01
Ga   -2.5609008148149585E-02    7.4927307432491856E+00    2.6411375218281212E+00
N   -2.8887577805850492E-02    5.6497358677021854E+00    3.2740479698232980E+00
Ga   -2.8110238812529817E-02    5.6506198713567564E+00    5.2641248492239523E+00
N   -2.5772055778141123E-02    7.5252886917464972E+00    5.8514788894731415E+00
Ga   -2.6702177186157791E-02    7.5231524388946163E+00    7.8504713173146410E+00
N   -2.9305957036699637E-02    5.6502212779705667E+00    8.4522838963153077E+00
Ga   -2.9488557433857442E-02    5.6520534049735582E+00    1.0449577486938106E+01
N   -2.3848768759703640E-02    7.5213354492045452E+00    1.1060439341250680E+01
Ga   -2.4232946970207146E-02    7.5244392355052971E+00    1.3059267446070306E+01
N   -2.6495384438789620E-02    5.6409814384397059E+00    1.3644758362063870E+01
Ga   -2.5263718609369396E-02    5.6469412092279994E+00    1.5629568136339408E+01
N   -2.7722326432811566E-02    7.4941314601243798E+00    1.6245641739099327E+01
Ga   -9.0384187461852120E-03    7.5539005935608845E+00    1.8265143292305734E+01
N   -2.3968567074671536E-02    5.6435843636818506E+00    1.8840696862638527E+01
Ga    6.4560140876057135E+00    3.9531363543744681E-02    3.3000774813556133E-01
N    6.4620996945317586E+00    1.9095904263912888E+00    6.1089865886125982E-01
Ga    6.4342890136443636E+00    1.9246189014998583E+00    2.6409399372549358E+00
N    6.4562329132239302E+00    3.9095710035191709E-02    3.2328605247276676E+00
Ga    6.4568642196702672E+00    3.9806799354429961E-02    5.2440451159938615E+00
N    6.4621356564368986E+00    1.9097766585256422E+00    5.8523650070677578E+00
Ga    6.4610472907107530E+00    1.9099862871139559E+00    7.8517543604150113E+00
N    6.4563455697515764E+00    3.8075589624753492E-02    8.4541492928431392E+00
Ga    6.4569647704455813E+00    3.6170034553880237E-02    1.0449690524366586E+01
N    6.4593643437465218E+00    1.9078612697712396E+00    1.1049688591770304E+01
Ga    6.4594310527420342E+00    1.9030278794438167E+00    1.3041862104019799E+01
N    6.4573544399400395E+00    3.9482942093005617E-02    1.3671453472507977E+01
Ga    6.4592397096643630E+00    2.9868293379761372E-02    1.5683336057763769E+01
N    6.4589255580276177E+00    1.9259601555007015E+00    1.6278349161055733E+01
Ga    6.4652075928717521E+00    1.8873149379255645E+00    1.8286084466843764E+01
N    6.4559073886608491E+00    4.3691928238425153E-02    1.8725112883052027E+01
Ga    4.8367910818441420E+00    2.8448820543484459E+00   -5.4283613341568782E-01
N    4.8394746406311349E+00    4.7189568268813957E+00    6.1090498435306662E-01
Ga    4.8391957261459071E+00    4.6874017591728272E+00    2.6410577439893514E+00
N    4.8364829035121488E+00    2.8442778220817564E+00    3.2738302979650729E+00
Ga    4.8371184917935386E+00    2.8449019583839901E+00    5.2640379104384944E+00
N    4.8398106951011206E+00    4.7197753864856598E+00    5.8511273381713762E+00
Ga    4.8399370618961326E+00    4.7182219291115279E+00    7.8499161314044921E+00
N    4.8367968370514225E+00    2.8452723048743525E+00    8.4523190524025704E+00
Ga    4.8372596881787597E+00    2.8450344378564645E+00    1.0449746123900564E+01
N    4.8427830281443827E+00    4.7180642716220937E+00    1.1055254710209455E+01
Ga    4.8463554860424827E+00    4.7201505298065998E+00    1.3048792235092330E+01
N    4.8451056222307791E+00    2.8466340675039841E+00    1.3643155011632428E+01
Ga    4.8386413498517937E+00    2.8432344017305180E+00    1.5629652495241491E+01
N    4.8336120643534528E+00    4.7097335476485469E+00    1.6254510552033398E+01
Ga    4.8727810221543972E+00    4.7367113496030040E+00    1.8241778624091836E+01
N    4.8225181135789388E+00    2.8439560921851905E+00    1.8832842226943054E+01
Ga    3.2173306101082928E+00    5.6502177231772013E+00    3.3060373316006902E-01
N    3.2160712163751843E+00    7.5202472677383518E+00    6.1122063374478619E-01
Ga    3.2440958800502600E+00    7.5359251997770782E+00    2.6411082740713092E+00
N    3.2168291918846821E+00    5.6500644495294745E+00    3.2324767376426484E+00
Ga    3.2171849759504223E+00    5.6509193059281690E+00    5.2435699954202546E+00
N    3.2177202537587397E+00    7.5208005405078184E+00    5.8518459455789511E+00
Ga    3.2191193683842880E+00    7.5207320394028532E+00    7.8507891475996852E+00
N    3.2177966484914644E+00    5.6501555482493311E+00    8.4551488126164820E+00
Ga    3.2192284245604350E+00    5.6519817558364842E+00    1.0450909220570233E+01
N    3.2190170675238221E+00    7.5213435080604247E+00    1.1060077422189110E+01
Ga    3.2190543184957745E+00    7.5238575576917883E+00    1.3058590764315214E+01
N    3.2157960202921116E+00    5.6406733597546213E+00    1.3646759161137505E+01
Ga    3.2165752572357253E+00    5.6466816705628355E+00    1.5632635368932482E+01
N    3.2238987733908187E+00    7.4923547268242006E+00    1.6253163615510505E+01
Ga    3.2042082508132319E+00    7.5475127887476789E+00    1.8280548328560258E+01
N    3.2157676439736393E+00    5.6392570965362552E+00    1.8842883953672541E+01
O   -9.1191065731296828E-01    3.3271053481664734E+00    2.1734052925342780E+01
H   -4.9546589266848282E-02    5.6520705622575713E+00    1.9866465524868790E+01
C    3.1019507028904314E-01    3.1975612595857745E+00    2.1789735735583236E+01
H   -1.5457137794251925E+00    2.9001449474512957E+00    2.0039213263769341E+01
H    9.1164000135616985E-01    2.9014417022206249E+00    2.0897428827739063E+01
H    8.4837703813623333E-01    3.4023519949220233E+00    2.2737706230828792E+01
O    4.5110845500029590E+00    4.5835324672761271E+00    2.1727619187917945E+01
H    3.2697778455740405E+00    5.5980623055773027E+00    1.9868953090551631E+01
C    5.6937160340905786E+00    4.8896068685722121E+00    2.1834993964203711E+01
H    4.7847268414988555E+00    2.8639236609365706E+00    1.9858556627004464E+01
H    6.2448057698376882E+00    5.3496174391882301E+00    2.0980611893634045E+01
H    6.2526341429487218E+00    4.6930113010358454E+00    2.2774353042856944E+01
     &END COORD
     &KIND C
       BASIS_SET DZVP-MOLOPT-SR-GTH-q4
       POTENTIAL GTH-PBE-q4
       &POTENTIAL
 2 2
  0.3384712400000000E+00 2 -0.8803673979999999E+01  0.1339210850000000E+01
 2
  0.3025757500000000E+00 1  0.9622486650000001E+01
  0.2915069400000000E+00 0
         # Potential name:  GTH-PBE-Q4  for symbol:  C
         # Potential read from the potential filename: GTH_POTENTIALS
       &END POTENTIAL
     &END KIND
     &KIND O
       BASIS_SET DZVP-MOLOPT-SR-GTH-q6
       POTENTIAL GTH-PBE-q6
       &POTENTIAL
 2 4
  0.2445543000000000E+00 2 -0.1666721480000000E+02  0.2487311320000000E+01
 2
  0.2209559200000000E+00 1  0.1833745811000000E+02
  0.2113324700000000E+00 0
         # Potential name:  GTH-PBE-Q6  for symbol:  O
         # Potential read from the potential filename: GTH_POTENTIALS
       &END POTENTIAL
     &END KIND
     &KIND H
       BASIS_SET DZVP-MOLOPT-SR-GTH-q1
       POTENTIAL GTH-PBE-q1
       &POTENTIAL
 1
  0.2000000000000000E+00 2 -0.4178900440000000E+01  0.7244633100000000E+00
 0
         # Potential name:  GTH-PBE-Q1  for symbol:  H
         # Potential read from the potential filename: GTH_POTENTIALS
       &END POTENTIAL
     &END KIND
     &KIND N
       BASIS_SET DZVP-MOLOPT-SR-GTH-q5
       POTENTIAL GTH-PBE-q5
       &POTENTIAL
 2 3
  0.2837905100000000E+00 2 -0.1241522559000000E+02  0.1868095920000000E+01
 2
  0.2554050000000000E+00 1  0.1363026257000000E+02
  0.2454945300000000E+00 0
         # Potential name:  GTH-PBE-Q5  for symbol:  N
         # Potential read from the potential filename: GTH_POTENTIALS
       &END POTENTIAL
     &END KIND
     &KIND Ga
       BASIS_SET DZVP-MOLOPT-SR-GTH-q13
       POTENTIAL GTH-PBE-q13
       &POTENTIAL
 2 1 10
  0.4900000000000000E+00 0
 3
  0.4167772300000000E+00 3  0.1047568975000000E+02 -0.4921768140000000E+01  0.8707055900000000E+00
  0.7770178090000000E+01 -0.2248152160000000E+01
  0.1784415450000000E+01
  0.5696265200000000E+00 2  0.1777985340000000E+01  0.1958597600000000E+00
 -0.2317443900000000E+00
  0.2381265000000000E+00 1 -0.1624868022000000E+02
         # Potential name:  GTH-PBE-Q13  for symbol:  GA
         # Potential read from the potential filename: GTH_POTENTIALS
       &END POTENTIAL
     &END KIND
     &TOPOLOGY
       COORD_FILE_NAME ../start-first.xyz
       COORD_FILE_FORMAT  XYZ
       NUMBER_OF_ATOMS  156
       MULTIPLE_UNIT_CELL  1 1 1
     &END TOPOLOGY
     &COLVAR
       &DISTANCE
         ATOMS  32 148
       &END DISTANCE
       &PRINT
       &END PRINT
     &END COLVAR
   &END SUBSYS
 &END FORCE_EVAL
