 # Version information for this restart file 
 # current date 2019-05-28 05:01:56.483
 # current working dir /lustre03/project/6004141/rzk/GaN-carbene/334-native/08-2Methanol-Htransfer/02-NH-constraint/1.44
 # Program compiled at                              Sun Apr  7 00:48:11 EDT 2019
 # Program compiled on                          beluga2.int.ets1.calculquebec.ca
 # Program compiled for                        Beluga-Linux-x86-64-intel-openmpi
 # Source code revision number                                         svn:18619
 &GLOBAL
   PRINT_LEVEL  MEDIUM
   PROJECT_NAME TEST
   RUN_TYPE  GEO_OPT
 &END GLOBAL
 &MOTION
   &GEO_OPT
     MAX_ITER  500
     STEP_START_VAL  292
   &END GEO_OPT
   &CONSTRAINT
     &COLLECTIVE
       COLVAR  1
       INTERMOLECULAR  T
       TARGET     2.7212056313553257E+00
       &RESTRAINT
         K     1.0000000000000001E-01
       &END RESTRAINT
     &END COLLECTIVE
     &COLVAR_RESTART
           2.7212056313553257E+00
     &END COLVAR_RESTART
   &END CONSTRAINT
 &END MOTION
 &FORCE_EVAL
   METHOD  QS
   STRESS_TENSOR  ANALYTICAL
   &DFT
     BASIS_SET_FILE_NAME BASIS_MOLOPT
     POTENTIAL_FILE_NAME GTH_POTENTIALS
     &SCF
       MAX_SCF  100
       EPS_SCF     5.0000000000000004E-06
       &OT  T
         PRECONDITIONER  FULL_ALL
       &END OT
       &OUTER_SCF  T
         OPTIMIZER  NONE
         EPS_SCF     5.0000000000000004E-06
         MAX_SCF  4
       &END OUTER_SCF
       &PRINT
         &RESTART  OFF
           BACKUP_COPIES  1
           &EACH
             JUST_ENERGY  0
             QS_SCF  0
             MD  20
           &END EACH
         &END RESTART
       &END PRINT
     &END SCF
     &QS
       EPS_DEFAULT     1.0000000000000000E-14
       ALMO_SCF  F
       METHOD  GPW
     &END QS
     &MGRID
       NGRIDS  5
       CUTOFF     1.2000000000000000E+03
     &END MGRID
     &XC
       DENSITY_CUTOFF     1.0000000000000000E-10
       GRADIENT_CUTOFF     1.0000000000000000E-10
       TAU_CUTOFF     1.0000000000000000E-10
       &XC_FUNCTIONAL  NO_SHORTCUT
         &PBE  T
         &END PBE
       &END XC_FUNCTIONAL
       &VDW_POTENTIAL
         POTENTIAL_TYPE  PAIR_POTENTIAL
         &PAIR_POTENTIAL
           R_CUTOFF     1.0000000000000005E+01
           TYPE  DFTD3
           PARAMETER_FILE_NAME dftd3.dat
           REFERENCE_FUNCTIONAL PBE
           EPS_CN     9.9999999999999995E-07
           CALCULATE_C9_TERM  T
           REFERENCE_C9_TERM  T
           LONG_RANGE_CORRECTION  F
           VERBOSE_OUTPUT  F
         &END PAIR_POTENTIAL
       &END VDW_POTENTIAL
     &END XC
   &END DFT
   &SUBSYS
     &CELL
       A     9.7367653356401487E+00    0.0000000000000000E+00    0.0000000000000000E+00
       B    -4.8591341382960209E+00    8.4162672083210595E+00    0.0000000000000000E+00
       C     0.0000000000000000E+00    0.0000000000000000E+00    3.0744000000000000E+01
       MULTIPLE_UNIT_CELL  1 1 1
       &CELL_REF
         A     9.5580000000000052E+00    0.0000000000000000E+00    0.0000000000000000E+00
         B    -4.7790000000000026E+00    8.2774708093716640E+00    0.0000000000000000E+00
         C     0.0000000000000000E+00    0.0000000000000000E+00    3.0744000000000000E+01
         MULTIPLE_UNIT_CELL  1 1 1
       &END CELL_REF
     &END CELL
     &COORD
Ga   -3.6046590190044095E-02    3.9955347756542317E-02   -5.4335029022528114E-01
N   -3.2022470381109357E-02    1.9136837868972636E+00    6.1112302138193442E-01
Ga   -3.2470212278572254E-02    1.8819058896669330E+00    2.6411137573151731E+00
N   -3.5163497829114654E-02    3.9058880697268095E-02    3.2739579108169443E+00
Ga   -3.4705139965404710E-02    3.9863911368876861E-02    5.2639908805703115E+00
N   -3.1935067675045357E-02    1.9141258814815507E+00    5.8521845060489275E+00
Ga   -3.2214702003843236E-02    1.9120050445076857E+00    7.8516055453790017E+00
N   -3.4712447043095881E-02    3.9009346284772005E-02    8.4554261563144966E+00
Ga   -3.4838610032266827E-02    3.9263024160670512E-02    1.0455082494740505E+01
N   -3.1610900621585274E-02    1.9116079879854853E+00    1.1057497929983450E+01
Ga   -3.2677732786278321E-02    1.9087759173411836E+00    1.3056005286292166E+01
N   -3.6791859719895646E-02    3.8414870005453197E-02    1.3657214781775179E+01
Ga   -4.0250865382555803E-02    3.7172857300659091E-02    1.5664729451526938E+01
N   -4.6013159280660694E-02    1.9223144565385673E+00    1.6215225426761066E+01
Ga    6.3968817820797674E-03    1.8878386690427518E+00    1.8227294742766230E+01
N   -4.0832443189639224E-02    2.8675236108308331E-02    1.8690519276914834E+01
Ga   -1.6544686581599208E+00    2.8443753055804009E+00    3.3043934578219158E-01
N   -1.6554431013040309E+00    4.7147955274899465E+00    6.1061335389498239E-01
Ga   -1.6274065867902858E+00    4.7304143151168176E+00    2.6408382313874479E+00
N   -1.6548663433776387E+00    2.8446104142724535E+00    3.2323530572416717E+00
Ga   -1.6543370813150875E+00    2.8448884790047178E+00    5.2435723099530920E+00
N   -1.6540821461472306E+00    4.7152812429595166E+00    5.8512709067349231E+00
Ga   -1.6532208109751501E+00    4.7154635969072247E+00    7.8502042682686737E+00
N   -1.6541505344283858E+00    2.8452689656666728E+00    8.4560206196441907E+00
Ga   -1.6535869105779533E+00    2.8447159804215825E+00    1.0452406625253834E+01
N   -1.6535280030643225E+00    4.7185336249599814E+00    1.1055021176854195E+01
Ga   -1.6581452913791315E+00    4.7208494978137381E+00    1.3048496468776461E+01
N   -1.6629699836715059E+00    2.8473762811421475E+00    1.3642237740991121E+01
Ga   -1.6565461287193519E+00    2.8452401824601266E+00    1.5629323393579995E+01
N   -1.6419646019102767E+00    4.7134035257104063E+00    1.6250955765980191E+01
Ga   -1.6845469107826865E+00    4.7327094226688526E+00    1.8240614518705652E+01
N   -1.6378350674322342E+00    2.8463721161606657E+00    1.8805891957923805E+01
Ga   -3.2750995959831557E+00    5.6505707021722271E+00    3.3015744376555906E-01
N   -3.2688051761622101E+00    7.5209641538958110E+00    6.1015439026113172E-01
Ga   -3.2967993538215712E+00    7.5361325404002635E+00    2.6403286757649136E+00
N   -3.2745352404049943E+00    5.6503625030063525E+00    3.2321394040826434E+00
Ga   -3.2740382604229357E+00    5.6511880976635585E+00    5.2434169125488799E+00
N   -3.2685507282775941E+00    7.5213285231050602E+00    5.8521993452456131E+00
Ga   -3.2694775699794851E+00    7.5219427617616166E+00    7.8515710068999649E+00
N   -3.2739469034946795E+00    5.6509050844149531E+00    8.4538832531706163E+00
Ga   -3.2735733413558297E+00    5.6537297484767768E+00    1.0448599049441446E+01
N   -3.2708570984575123E+00    7.5218020207577698E+00    1.1060745294659647E+01
Ga   -3.2705857656777853E+00    7.5267442482297620E+00    1.3060416676740747E+01
N   -3.2740727773289233E+00    5.6566707030155108E+00    1.3681220176598403E+01
Ga   -3.2728525938563737E+00    5.6595653566688657E+00    1.5686858884901799E+01
N   -3.2702577635044898E+00    7.5491900771395652E+00    1.6272272762997773E+01
Ga   -3.2698632064782625E+00    7.5068128372635012E+00    1.8359014072990053E+01
N   -3.2713442425340076E+00    5.6329587359587991E+00    1.8771573852317623E+01
Ga    3.2109491323193002E+00    3.9114929927512830E-02    3.3040034444355620E-01
N    3.2096510007411778E+00    1.9093924999114245E+00    6.1062719260298948E-01
Ga    3.2379872958385074E+00    1.9251068866605794E+00    2.6407089534262411E+00
N    3.2104309393150769E+00    3.9187988028774171E-02    3.2318188387666824E+00
Ga    3.2110206119154339E+00    3.9947211637957829E-02    5.2429614765947665E+00
N    3.2114636761612281E+00    1.9096168740195343E+00    5.8520855887468590E+00
Ga    3.2126499264286963E+00    1.9092801334519136E+00    7.8514447835289429E+00
N    3.2112624936608198E+00    3.9009669790198605E-02    8.4583946398539052E+00
Ga    3.2120430002080380E+00    3.9234307555360767E-02    1.0456438843124268E+01
N    3.2149882582758997E+00    1.9122102753288175E+00    1.1056305616175422E+01
Ga    3.2152313529235301E+00    1.9089964622769389E+00    1.3053942535275027E+01
N    3.2137683165190758E+00    3.9930562021429035E-02    1.3658074704610177E+01
Ga    3.2167319533327636E+00    4.1677206912806519E-02    1.5666453656722815E+01
N    3.2296670536712941E+00    1.9248108022866526E+00    1.6228629507805579E+01
Ga    3.1658173650294432E+00    1.8880748926183692E+00    1.8246958729760987E+01
N    3.2196695566656617E+00    2.7238727118462432E-02    1.8694769431107655E+01
Ga    1.5901483177730482E+00    2.8451907898217095E+00    3.3070366488999353E-01
N    1.5969076646118270E+00    4.7155420147538605E+00    6.1112559588896698E-01
Ga    1.5688739765993476E+00    4.7307532273219266E+00    2.6412054303332928E+00
N    1.5907560328014001E+00    2.8446784948338752E+00    3.2326333786064088E+00
Ga    1.5913005352107537E+00    2.8451809831805286E+00    5.2440878444167156E+00
N    1.5968818958404549E+00    4.7154616273751628E+00    5.8522778123929653E+00
Ga    1.5953199914158893E+00    4.7153554384093797E+00    7.8517761649764521E+00
N    1.5912437100186765E+00    2.8438283620736273E+00    8.4542643764800243E+00
Ga    1.5915872367459734E+00    2.8423954424083453E+00    1.0449939772392465E+01
N    1.5946141906887072E+00    4.7160318939953818E+00    1.1046105827512495E+01
Ga    1.5944054423845782E+00    4.7088965539458405E+00    1.3035040465652498E+01
N    1.5921746493242488E+00    2.8466441705540819E+00    1.3652703071450723E+01
Ga    1.5932703001439261E+00    2.8429311799458001E+00    1.5651690230791035E+01
N    1.5945041906445974E+00    4.7287271435048455E+00    1.6271509788121310E+01
Ga    1.5987002312905658E+00    4.6651268739397524E+00    1.8262279771616409E+01
N    1.5854480006502427E+00    2.8297470698101361E+00    1.8770671374461877E+01
Ga   -2.7998047052931043E-02    5.6510581536244961E+00   -5.4254453325309104E-01
N   -2.5554224658378834E-02    7.5246658154715869E+00    6.1103084980757305E-01
Ga   -2.5766428044211448E-02    7.4929426520056834E+00    2.6411183114698606E+00
N   -2.9051198859947558E-02    5.6499261637899867E+00    3.2739309017216041E+00
Ga   -2.8163632654529796E-02    5.6507029642970386E+00    5.2640971778493570E+00
N   -2.5775750276132089E-02    7.5253635891158472E+00    5.8514903081170573E+00
Ga   -2.6614307938578451E-02    7.5232353752088752E+00    7.8505345413033103E+00
N   -2.9229328487545676E-02    5.6502919907117661E+00    8.4523350676373923E+00
Ga   -2.9317609183289742E-02    5.6521070682956980E+00    1.0449698889148474E+01
N   -2.3716221571582884E-02    7.5213842916149112E+00    1.1060463982880460E+01
Ga   -2.4096359981760934E-02    7.5244692534315982E+00    1.3059295142204256E+01
N   -2.6292144608703674E-02    5.6410035195429957E+00    1.3644824456196746E+01
Ga   -2.5074045909362325E-02    5.6470600810936613E+00    1.5629695063722640E+01
N   -2.7613606642356691E-02    7.4941532282330066E+00    1.6245956943833388E+01
Ga   -9.0867290235347141E-03    7.5537907737290091E+00    1.8265334874679908E+01
N   -2.3832709243276618E-02    5.6436168989871875E+00    1.8841114258082349E+01
Ga    6.4558285939062792E+00    3.9704259515483731E-02    3.2989001239177540E-01
N    6.4620082373947341E+00    1.9097951674564269E+00    6.1093457091499981E-01
Ga    6.4341525211081647E+00    1.9248352426772448E+00    2.6409547047674993E+00
N    6.4561189952397227E+00    3.9280240283561724E-02    3.2328011031742441E+00
Ga    6.4568595668822617E+00    3.9881772674518742E-02    5.2440456538144389E+00
N    6.4621316691681026E+00    1.9098499771243425E+00    5.8524145955684599E+00
Ga    6.4611167812630557E+00    1.9100482150899507E+00    7.8518442951341374E+00
N    6.4564339254737382E+00    3.8130862688237128E-02    8.4542348810566139E+00
Ga    6.4571346299326073E+00    3.6198932172012740E-02    1.0449853814744413E+01
N    6.4595259278143251E+00    1.9078997123923991E+00    1.1049761176472330E+01
Ga    6.4596503916671031E+00    1.9029476082303940E+00    1.3041948344131463E+01
N    6.4575430357246146E+00    3.9392616597600551E-02    1.3671436852658466E+01
Ga    6.4592431115756099E+00    2.9697322321719438E-02    1.5683266270423545E+01
N    6.4591438634321632E+00    1.9257557887599026E+00    1.6278339154848428E+01
Ga    6.4654599504823365E+00    1.8872280426512944E+00    1.8286104222763274E+01
N    6.4560941975916109E+00    4.3509248841499010E-02    1.8725112309971657E+01
Ga    4.8367295022871710E+00    2.8450808073021165E+00   -5.4302536617296981E-01
N    4.8393735743026793E+00    4.7191927256590924E+00    6.1086752667407618E-01
Ga    4.8390967492595216E+00    4.6875574625356817E+00    2.6410475759020993E+00
N    4.8363592595242100E+00    2.8444520883238549E+00    3.2739452980497092E+00
Ga    4.8370896482512791E+00    2.8449921853986839E+00    5.2642013437507194E+00
N    4.8397986996596671E+00    4.7198719669065925E+00    5.8511934289265204E+00
Ga    4.8400149875197318E+00    4.7182874422176058E+00    7.8500117368233795E+00
N    4.8368909242601346E+00    2.8453355920079741E+00    8.4523890239488839E+00
Ga    4.8374138629772236E+00    2.8450573152786558E+00    1.0449861894282252E+01
N    4.8429474789164209E+00    4.7180995109198713E+00    1.1055233939635293E+01
Ga    4.8465751901821807E+00    4.7201072392511323E+00    1.3048754319588554E+01
N    4.8453057262042272E+00    2.8466009653418749E+00    1.3643185195863706E+01
Ga    4.8388197015134011E+00    2.8431802842452569E+00    1.5629739052089542E+01
N    4.8338594055644757E+00    4.7096944649009966E+00    1.6254865617434866E+01
Ga    4.8729534072025409E+00    4.7365631085407047E+00    1.8242209858434691E+01
N    4.8228935464115077E+00    2.8438466118181664E+00    1.8833175286877680E+01
Ga    3.2171408400688688E+00    5.6504013575993559E+00    3.3045620713480800E-01
N    3.2159513292175741E+00    7.5204555134816600E+00    6.1103739568491977E-01
Ga    3.2439839187665673E+00    7.5361265010839373E+00    2.6410652461229942E+00
N    3.2166943112213469E+00    5.6502304305386497E+00    3.2323793640774197E+00
Ga    3.2171509928008604E+00    5.6509562276873551E+00    5.2435524597736372E+00
N    3.2176951005909751E+00    7.5208297535716708E+00    5.8518505914448937E+00
Ga    3.2191767288111941E+00    7.5207349675701280E+00    7.8508372925236642E+00
N    3.2178540815434573E+00    5.6501762318470030E+00    8.4552110264050278E+00
Ga    3.2193274140758796E+00    5.6519939358979228E+00    1.0450990808951445E+01
N    3.2191675393632169E+00    7.5213423970823143E+00    1.1060121517846008E+01
Ga    3.2192602209366972E+00    7.5237857278540208E+00    1.3058648272209428E+01
N    3.2160005850971727E+00    5.6405649157031119E+00    1.3646751731981725E+01
Ga    3.2167362928814489E+00    5.6465402202236490E+00    1.5632725290689271E+01
N    3.2240345362772951E+00    7.4922454101752392E+00    1.6253236224095549E+01
Ga    3.2045446653089686E+00    7.5473772752386985E+00    1.8280660309323586E+01
N    3.2159180050859106E+00    5.6391223282664331E+00    1.8843086509214139E+01
O   -9.1178993376238315E-01    3.3285140071216084E+00    2.1734166545603365E+01
H   -4.9465681871325017E-02    5.6521082808169441E+00    1.9866840663278474E+01
C    3.1022748586468107E-01    3.1987052649554801E+00    2.1790070151502036E+01
H   -1.5457080323790953E+00    2.9001564558907149E+00    2.0039383953490766E+01
H    9.1156017558292390E-01    2.9009245295316388E+00    2.0898273671858615E+01
H    8.4855400609719622E-01    3.4050155545854790E+00    2.2737549501811984E+01
O    4.5110974812850158E+00    4.5824688572280676E+00    2.1727678983111407E+01
H    3.2696765019223801E+00    5.5981335292722569E+00    1.9869151422793841E+01
C    5.6937227480290060E+00    4.8881009043997601E+00    2.1836452408951217E+01
H    4.7854085880165238E+00    2.8637924109551225E+00    1.9858899626460492E+01
H    6.2460150515352648E+00    5.3484857539994639E+00    2.0982985860348222E+01
H    6.2514199419236123E+00    4.6907081926063361E+00    2.2776507900598013E+01
     &END COORD
     &KIND C
       BASIS_SET DZVP-MOLOPT-SR-GTH-q4
       POTENTIAL GTH-PBE-q4
       &POTENTIAL
 2 2
  0.3384712400000000E+00 2 -0.8803673979999999E+01  0.1339210850000000E+01
 2
  0.3025757500000000E+00 1  0.9622486650000001E+01
  0.2915069400000000E+00 0
         # Potential name:  GTH-PBE-Q4  for symbol:  C
         # Potential read from the potential filename: GTH_POTENTIALS
       &END POTENTIAL
     &END KIND
     &KIND O
       BASIS_SET DZVP-MOLOPT-SR-GTH-q6
       POTENTIAL GTH-PBE-q6
       &POTENTIAL
 2 4
  0.2445543000000000E+00 2 -0.1666721480000000E+02  0.2487311320000000E+01
 2
  0.2209559200000000E+00 1  0.1833745811000000E+02
  0.2113324700000000E+00 0
         # Potential name:  GTH-PBE-Q6  for symbol:  O
         # Potential read from the potential filename: GTH_POTENTIALS
       &END POTENTIAL
     &END KIND
     &KIND H
       BASIS_SET DZVP-MOLOPT-SR-GTH-q1
       POTENTIAL GTH-PBE-q1
       &POTENTIAL
 1
  0.2000000000000000E+00 2 -0.4178900440000000E+01  0.7244633100000000E+00
 0
         # Potential name:  GTH-PBE-Q1  for symbol:  H
         # Potential read from the potential filename: GTH_POTENTIALS
       &END POTENTIAL
     &END KIND
     &KIND N
       BASIS_SET DZVP-MOLOPT-SR-GTH-q5
       POTENTIAL GTH-PBE-q5
       &POTENTIAL
 2 3
  0.2837905100000000E+00 2 -0.1241522559000000E+02  0.1868095920000000E+01
 2
  0.2554050000000000E+00 1  0.1363026257000000E+02
  0.2454945300000000E+00 0
         # Potential name:  GTH-PBE-Q5  for symbol:  N
         # Potential read from the potential filename: GTH_POTENTIALS
       &END POTENTIAL
     &END KIND
     &KIND Ga
       BASIS_SET DZVP-MOLOPT-SR-GTH-q13
       POTENTIAL GTH-PBE-q13
       &POTENTIAL
 2 1 10
  0.4900000000000000E+00 0
 3
  0.4167772300000000E+00 3  0.1047568975000000E+02 -0.4921768140000000E+01  0.8707055900000000E+00
  0.7770178090000000E+01 -0.2248152160000000E+01
  0.1784415450000000E+01
  0.5696265200000000E+00 2  0.1777985340000000E+01  0.1958597600000000E+00
 -0.2317443900000000E+00
  0.2381265000000000E+00 1 -0.1624868022000000E+02
         # Potential name:  GTH-PBE-Q13  for symbol:  GA
         # Potential read from the potential filename: GTH_POTENTIALS
       &END POTENTIAL
     &END KIND
     &TOPOLOGY
       COORD_FILE_NAME ../start-first.xyz
       COORD_FILE_FORMAT  XYZ
       NUMBER_OF_ATOMS  156
       MULTIPLE_UNIT_CELL  1 1 1
     &END TOPOLOGY
     &COLVAR
       &DISTANCE
         ATOMS  32 148
       &END DISTANCE
       &PRINT
       &END PRINT
     &END COLVAR
   &END SUBSYS
 &END FORCE_EVAL
