 # Version information for this restart file 
 # current date 2019-05-28 04:02:45.516
 # current working dir /lustre03/project/6004141/rzk/GaN-carbene/334-native/08-2Methanol-Htransfer/03-CO-constraint/1.64
 # Program compiled at                              Sun Apr  7 00:48:11 EDT 2019
 # Program compiled on                          beluga2.int.ets1.calculquebec.ca
 # Program compiled for                        Beluga-Linux-x86-64-intel-openmpi
 # Source code revision number                                         svn:18619
 &GLOBAL
   PRINT_LEVEL  MEDIUM
   PROJECT_NAME TEST
   RUN_TYPE  GEO_OPT
 &END GLOBAL
 &MOTION
   &GEO_OPT
     MAX_ITER  500
     STEP_START_VAL  302
   &END GEO_OPT
   &CONSTRAINT
     &COLLECTIVE
       COLVAR  1
       INTERMOLECULAR  T
       TARGET     3.0991508579324543E+00
       &RESTRAINT
         K     1.0000000000000001E-01
       &END RESTRAINT
     &END COLLECTIVE
     &COLVAR_RESTART
           3.0991508579324543E+00
     &END COLVAR_RESTART
   &END CONSTRAINT
 &END MOTION
 &FORCE_EVAL
   METHOD  QS
   STRESS_TENSOR  ANALYTICAL
   &DFT
     BASIS_SET_FILE_NAME BASIS_MOLOPT
     POTENTIAL_FILE_NAME GTH_POTENTIALS
     &SCF
       MAX_SCF  100
       EPS_SCF     5.0000000000000004E-06
       &OT  T
         PRECONDITIONER  FULL_ALL
       &END OT
       &OUTER_SCF  T
         OPTIMIZER  NONE
         EPS_SCF     5.0000000000000004E-06
         MAX_SCF  4
       &END OUTER_SCF
       &PRINT
         &RESTART  OFF
           BACKUP_COPIES  1
           &EACH
             JUST_ENERGY  0
             QS_SCF  0
             MD  20
           &END EACH
         &END RESTART
       &END PRINT
     &END SCF
     &QS
       EPS_DEFAULT     1.0000000000000000E-14
       ALMO_SCF  F
       METHOD  GPW
     &END QS
     &MGRID
       NGRIDS  5
       CUTOFF     1.2000000000000000E+03
     &END MGRID
     &XC
       DENSITY_CUTOFF     1.0000000000000000E-10
       GRADIENT_CUTOFF     1.0000000000000000E-10
       TAU_CUTOFF     1.0000000000000000E-10
       &XC_FUNCTIONAL  NO_SHORTCUT
         &PBE  T
         &END PBE
       &END XC_FUNCTIONAL
       &VDW_POTENTIAL
         POTENTIAL_TYPE  PAIR_POTENTIAL
         &PAIR_POTENTIAL
           R_CUTOFF     1.0000000000000005E+01
           TYPE  DFTD3
           PARAMETER_FILE_NAME dftd3.dat
           REFERENCE_FUNCTIONAL PBE
           EPS_CN     9.9999999999999995E-07
           CALCULATE_C9_TERM  T
           REFERENCE_C9_TERM  T
           LONG_RANGE_CORRECTION  F
           VERBOSE_OUTPUT  F
         &END PAIR_POTENTIAL
       &END VDW_POTENTIAL
     &END XC
   &END DFT
   &SUBSYS
     &CELL
       A     9.7367653356401487E+00    0.0000000000000000E+00    0.0000000000000000E+00
       B    -4.8591341382960209E+00    8.4162672083210595E+00    0.0000000000000000E+00
       C     0.0000000000000000E+00    0.0000000000000000E+00    3.0744000000000000E+01
       MULTIPLE_UNIT_CELL  1 1 1
       &CELL_REF
         A     9.5580000000000052E+00    0.0000000000000000E+00    0.0000000000000000E+00
         B    -4.7790000000000026E+00    8.2774708093716640E+00    0.0000000000000000E+00
         C     0.0000000000000000E+00    0.0000000000000000E+00    3.0744000000000000E+01
         MULTIPLE_UNIT_CELL  1 1 1
       &END CELL_REF
     &END CELL
     &COORD
Ga    7.3748921814631066E-02   -1.6848228845041496E-01   -5.9540430423217938E-01
N    7.6909551686722005E-02    1.7071876789691183E+00    5.5923992596579386E-01
Ga    7.6454049999500479E-02    1.6746992352805592E+00    2.5872587878204438E+00
N    7.3573130105243689E-02   -1.6934884001976477E-01    3.2205634029387844E+00
Ga    7.4178679658090038E-02   -1.6824381952388190E-01    5.2082125175718179E+00
N    7.7193946618295622E-02    1.7055847112187679E+00    5.8013111370639194E+00
Ga    7.7424273526980586E-02    1.7040039238534495E+00    7.7973533261845764E+00
N    7.5390648948571837E-02   -1.6911707218583036E-01    8.4043320101056356E+00
Ga    7.7012381858976173E-02   -1.6785366163447213E-01    1.0399437042456864E+01
N    7.7069829509157417E-02    1.7019372411615667E+00    1.1010476728811733E+01
Ga    7.3289168709145133E-02    1.7029963827103058E+00    1.3010609703051822E+01
N    7.5323105467590079E-02   -1.6616378570357054E-01    1.3631919853607162E+01
Ga    1.0685943966905168E-01   -1.4422167202716954E-01    1.5655650906516085E+01
N    9.3471346427361532E-02    1.7251554800879223E+00    1.6225227813674145E+01
Ga    5.9220739669333694E-02    1.7586220025087782E+00    1.8384833843019763E+01
N    1.0561091215923518E-01   -1.1201857545491808E-01    1.8837136336091600E+01
Ga   -1.5456825616549477E+00    2.6360945007315499E+00    2.7209531222498273E-01
N   -1.5481077235797363E+00    4.5054271402972565E+00    5.5878908132610305E-01
Ga   -1.5191954521057929E+00    4.5215837754794421E+00    2.5868773566120322E+00
N   -1.5460917801560272E+00    2.6362495857598738E+00    3.1826378001758711E+00
Ga   -1.5455442652342346E+00    2.6367932416443951E+00    5.1904428846135078E+00
N   -1.5450048201550284E+00    4.5074259576748386E+00    5.8010473221988024E+00
Ga   -1.5440461129595857E+00    4.5076543552451058E+00    7.7966686631862041E+00
N   -1.5441912937169935E+00    2.6376197998346895E+00    8.4051394352404110E+00
Ga   -1.5423296891889287E+00    2.6373600717598125E+00    1.0398119358093556E+01
N   -1.5465967651397377E+00    4.5122714114836260E+00    1.1005767458505481E+01
Ga   -1.5454881235422038E+00    4.5039829899213499E+00    1.2995712378247481E+01
N   -1.5377926669431363E+00    2.6505093482101838E+00    1.3613992880641444E+01
Ga   -1.5080117685514081E+00    2.6668779877725424E+00    1.5633186011937575E+01
N   -1.5399425614792306E+00    4.5496422916705548E+00    1.6257957498690615E+01
Ga   -1.5564473673083483E+00    4.5747881068879535E+00    1.8344273367243535E+01
N   -1.5539980074935864E+00    2.7362170486518398E+00    1.8754231684850485E+01
Ga   -3.1661863846543468E+00    5.4419561650924200E+00    2.7247782989034797E-01
N   -3.1580574359038383E+00    7.3115563496790621E+00    5.5880321395764199E-01
Ga   -3.1866250575418755E+00    7.3272407078311055E+00    2.5868544094035095E+00
N   -3.1657666080257028E+00    5.4415893514169662E+00    3.1816822599941976E+00
Ga   -3.1650289191154264E+00    5.4421915038351258E+00    5.1891150440915830E+00
N   -3.1602158845116124E+00    7.3125244994907028E+00    5.7997753985823710E+00
Ga   -3.1618123324238945E+00    7.3126044930551268E+00    7.7947178540301660E+00
N   -3.1662050668665542E+00    5.4422703851057923E+00    8.4036758194077592E+00
Ga   -3.1656596135234576E+00    5.4451644170506412E+00    1.0393827313679944E+01
N   -3.1637410596806270E+00    7.3100638906123692E+00    1.1017879498289199E+01
Ga   -3.1694424705057918E+00    7.3201013387991205E+00    1.3015668140575828E+01
N   -3.1803635036101836E+00    5.4324459229840327E+00    1.3641830901714226E+01
Ga   -3.0644039283700581E+00    5.5232701362336298E+00    1.5616205791748826E+01
N   -3.1676080785164085E+00    7.3100598847599132E+00    1.6276001716793530E+01
Ga   -3.1018682899113759E+00    7.4400618281656170E+00    1.8422553237916837E+01
N   -2.8684897024358182E+00    5.6798240497856929E+00    1.9156413358928077E+01
Ga    3.3200427847827729E+00   -1.6955254320665980E-01    2.7165779605306545E-01
N    3.3171495921336325E+00    1.6997026932813413E+00    5.5914714122264753E-01
Ga    3.3461756399226266E+00    1.7157535409703808E+00    2.5870851677764382E+00
N    3.3193846768452389E+00   -1.6921987375587560E-01    3.1828591553334933E+00
Ga    3.3203712477813472E+00   -1.6828811310082084E-01    5.1906105400119928E+00
N    3.3204002836611668E+00    1.7014543636039925E+00    5.8032538395209317E+00
Ga    3.3209767395015293E+00    1.7013229599540511E+00    7.7999942830200588E+00
N    3.3182924614233018E+00   -1.7108461870469358E-01    8.4055535116592424E+00
Ga    3.3182015318206739E+00   -1.7348040708995366E-01    1.0398819509461196E+01
N    3.3211963723278775E+00    1.6992112360377629E+00    1.0997290243217599E+01
Ga    3.3116536636956879E+00    1.6880330336388389E+00    1.2985294026797700E+01
N    3.3156940356479030E+00   -1.7310200935897174E-01    1.3622016868395541E+01
Ga    3.3192115953235581E+00   -1.8812975045521133E-01    1.5647997548705634E+01
N    3.3204798394576591E+00    1.7155860438142425E+00    1.6164013031104108E+01
Ga    3.1331808472347928E+00    1.6726451570816336E+00    1.8154627836159392E+01
N    3.3991021552593295E+00   -4.8282493653387257E-02    1.8737196877484649E+01
Ga    1.6993554727618512E+00    2.6366451927667840E+00    2.7246468938616053E-01
N    1.7070590004208617E+00    4.5059737074095185E+00    5.5939109398165732E-01
Ga    1.6783806044869471E+00    4.5217450151528800E+00    2.5873838208257580E+00
N    1.6998195353218704E+00    2.6361421736399051E+00    3.1827189017428905E+00
Ga    1.7005391393743772E+00    2.6367247348207394E+00    5.1906001601784206E+00
N    1.7051392882559624E+00    4.5072882322355072E+00    5.8012289143782301E+00
Ga    1.7035184937851287E+00    4.5072246874449995E+00    7.7969642122334495E+00
N    1.6994621236988736E+00    2.6371623972262221E+00    8.4056780357274388E+00
Ga    1.6982395699985549E+00    2.6359121236836431E+00    1.0398761957762988E+01
N    1.7054889243865832E+00    4.5123762961051934E+00    1.1000574564714817E+01
Ga    1.6992548076194844E+00    4.5095655030283694E+00    1.2986174979745286E+01
N    1.7030900620394640E+00    2.6445159987136324E+00    1.3585853093181724E+01
Ga    1.6856347733529831E+00    2.6279150392781134E+00    1.5572388109814213E+01
N    1.6957233229136444E+00    4.5324070609041369E+00    1.6177678687460556E+01
Ga    1.4742165763274522E+00    4.3639048281785682E+00    1.8103498232123542E+01
N    1.7201714237495687E+00    2.6965073421298467E+00    1.8827229652773642E+01
Ga    8.0336291987947631E-02    5.4429395763207440E+00   -5.9571193412684242E-01
N    8.3072347524809478E-02    7.3178012202701508E+00    5.5953347506669004E-01
Ga    8.2744119620110232E-02    7.2856757137960679E+00    2.5874261818969027E+00
N    7.9746483324423134E-02    5.4416664178601239E+00    3.2213766549425431E+00
Ga    8.0419673134657241E-02    5.4428369263890000E+00    5.2093724445221277E+00
N    8.3482782195806002E-02    7.3167787989585635E+00    5.8020825075133224E+00
Ga    8.3385411865592396E-02    7.3150375856470546E+00    7.7982295921584015E+00
N    7.9934677509022445E-02    5.4419361793423526E+00    8.4037001040018282E+00
Ga    7.9075586304154635E-02    5.4467098586299683E+00    1.0397992297187729E+01
N    8.3798940935044919E-02    7.3163656107239410E+00    1.1006540281554486E+01
Ga    8.1482026187590054E-02    7.3221239920608285E+00    1.3001739228935248E+01
N    7.7382540062641170E-02    5.4430314323638438E+00    1.3593046833057283E+01
Ga    5.8035206637406980E-02    5.4866088194351423E+00    1.5579753483128771E+01
N    9.9610971799718354E-02    7.3206102583788297E+00    1.6192085161624107E+01
Ga    1.1998005558059170E-01    7.4686457075689665E+00    1.8249146886301439E+01
N    1.7119566092694560E-01    5.5511947726534903E+00    1.8788596176432957E+01
Ga    6.5641746957868170E+00   -1.6891139726191925E-01    2.7171328670765105E-01
N    6.5723770924615872E+00    1.7003860014684360E+00    5.5932423264380904E-01
Ga    6.5436225222327735E+00    1.7158357554301638E+00    2.5872833190252269E+00
N    6.5649076238273505E+00   -1.6920658077624659E-01    3.1830055605771959E+00
Ga    6.5653653270018966E+00   -1.6832504321992187E-01    5.1907780615874968E+00
N    6.5708550036144189E+00    1.7015411396940034E+00    5.8026681410817611E+00
Ga    6.5705414136079439E+00    1.7016638937482156E+00    7.7991411054150319E+00
N    6.5666107281708364E+00   -1.6988693102380537E-01    8.4065087154985907E+00
Ga    6.5679331269655767E+00   -1.6977833374818219E-01    1.0400499215741970E+01
N    6.5742736435985956E+00    1.7022844852045591E+00    1.1003307018228091E+01
Ga    6.5931081874682596E+00    1.6989976126271980E+00    1.2995945642343880E+01
N    6.5752785541495262E+00   -1.7437040062959264E-01    1.3599885364781219E+01
Ga    6.5727385848373521E+00   -1.7733068644599681E-01    1.5604455619271933E+01
N    6.5951700648677765E+00    1.7054491920863930E+00    1.6134757789152310E+01
Ga    6.6774589655945515E+00    1.7940988982070087E+00    1.8144802943139730E+01
N    6.5557511621245723E+00   -1.2472172812271108E-02    1.8736459792727580E+01
Ga    4.9453660133872273E+00    2.6357556563000895E+00   -5.9543109900004831E-01
N    4.9482281392013592E+00    4.5120726910443905E+00    5.5925034176346566E-01
Ga    4.9477932765996266E+00    4.4794390798151529E+00    2.5872802769930816E+00
N    4.9451100417132379E+00    2.6355882199867295E+00    3.2217607024225963E+00
Ga    4.9457664588213630E+00    2.6357526131795641E+00    5.2099122436363530E+00
N    4.9487398965836924E+00    4.5105722935448798E+00    5.8002052748863244E+00
Ga    4.9488678472146548E+00    4.5083477199894952E+00    7.7951934524827147E+00
N    4.9463508986673501E+00    2.6364009158659067E+00    8.4046136051948199E+00
Ga    4.9482809531349865E+00    2.6322949831601545E+00    1.0398992740181768E+01
N    4.9485901672309183E+00    4.5091620069828258E+00    1.1004656386108385E+01
Ga    4.9480199890528054E+00    4.5039698581042327E+00    1.2985872202889897E+01
N    4.9461344518955839E+00    2.6279708827783366E+00    1.3563646579408573E+01
Ga    4.9639734647256804E+00    2.5080473665718506E+00    1.5516020272022432E+01
N    4.8567034190348455E+00    4.3752077104109608E+00    1.6250688308105538E+01
Ga    5.2993784231437564E+00    4.9039156777788984E+00    1.9621444463223735E+01
N    5.0038172573444912E+00    3.3139168964014751E+00    1.8338151377441591E+01
Ga    3.3258073634077125E+00    5.4415084373932716E+00    2.7255994089243701E-01
N    3.3230486419010634E+00    7.3109624433913689E+00    5.5896829326409514E-01
Ga    3.3517451079454785E+00    7.3270692400265434E+00    2.5869904459450064E+00
N    3.3255396262332222E+00    5.4416838601256963E+00    3.1824148946670352E+00
Ga    3.3258780533243368E+00    5.4424350918869360E+00    5.1901330650367274E+00
N    3.3268893209340904E+00    7.3128493306420088E+00    5.8009429802983155E+00
Ga    3.3286130187597576E+00    7.3134273714695546E+00    7.7964705045098066E+00
N    3.3269280020504963E+00    5.4417684506452240E+00    8.4018050058851532E+00
Ga    3.3272683202084461E+00    5.4445914073118242E+00    1.0390802868083501E+01
N    3.3336054574954379E+00    7.3113953435448398E+00    1.1007542546349702E+01
Ga    3.3417040403895131E+00    7.3233223983623761E+00    1.2998868476740880E+01
N    3.3324174677538010E+00    5.4399704152481476E+00    1.3617754450356077E+01
Ga    3.2709047527435526E+00    5.5035564361962699E+00    1.5581118294919158E+01
N    3.3473560763133579E+00    7.3077669910620422E+00    1.6245813922383942E+01
Ga    3.3486640541280219E+00    7.7279499749745462E+00    1.8210949207001036E+01
N    4.7262564790717185E+00    4.3490938761195377E+00    1.7587946221881918E+01
O    1.0622188971498701E+00    4.7143932772330750E+00    2.1455502764028022E+01
H    2.6977615578710862E-01    5.4605033848954259E+00    1.9821145449351295E+01
C    4.7290033997816333E-01    3.3492789515456378E+00    2.1864890708420511E+01
H   -5.8909129518806091E-01    3.3803890179508835E+00    2.1599894817052718E+01
H    9.7320392067286643E-01    2.5574993247287581E+00    2.1296352298785507E+01
H    6.0910979595483683E-01    3.2238836055383016E+00    2.2944673196381629E+01
O    3.7510072058372219E+00    5.2948125006609077E+00    2.0495107040299843E+01
H    1.9785451136464847E+00    4.5269245945528995E+00    2.1161503707657840E+01
C    3.7862241212937175E+00    6.3985463731072896E+00    2.1451154201639064E+01
H    4.1650745283431370E+00    6.0443709666173104E+00    2.2419455495876473E+01
H    4.3976030469182943E+00    7.2363249390053035E+00    2.1083570037932432E+01
H    2.7512686617962543E+00    6.7450639853890006E+00    2.1573020564357464E+01
     &END COORD
     &KIND C
       BASIS_SET DZVP-MOLOPT-SR-GTH-q4
       POTENTIAL GTH-PBE-q4
       &POTENTIAL
 2 2
  0.3384712400000000E+00 2 -0.8803673979999999E+01  0.1339210850000000E+01
 2
  0.3025757500000000E+00 1  0.9622486650000001E+01
  0.2915069400000000E+00 0
         # Potential name:  GTH-PBE-Q4  for symbol:  C
         # Potential read from the potential filename: GTH_POTENTIALS
       &END POTENTIAL
     &END KIND
     &KIND O
       BASIS_SET DZVP-MOLOPT-SR-GTH-q6
       POTENTIAL GTH-PBE-q6
       &POTENTIAL
 2 4
  0.2445543000000000E+00 2 -0.1666721480000000E+02  0.2487311320000000E+01
 2
  0.2209559200000000E+00 1  0.1833745811000000E+02
  0.2113324700000000E+00 0
         # Potential name:  GTH-PBE-Q6  for symbol:  O
         # Potential read from the potential filename: GTH_POTENTIALS
       &END POTENTIAL
     &END KIND
     &KIND H
       BASIS_SET DZVP-MOLOPT-SR-GTH-q1
       POTENTIAL GTH-PBE-q1
       &POTENTIAL
 1
  0.2000000000000000E+00 2 -0.4178900440000000E+01  0.7244633100000000E+00
 0
         # Potential name:  GTH-PBE-Q1  for symbol:  H
         # Potential read from the potential filename: GTH_POTENTIALS
       &END POTENTIAL
     &END KIND
     &KIND N
       BASIS_SET DZVP-MOLOPT-SR-GTH-q5
       POTENTIAL GTH-PBE-q5
       &POTENTIAL
 2 3
  0.2837905100000000E+00 2 -0.1241522559000000E+02  0.1868095920000000E+01
 2
  0.2554050000000000E+00 1  0.1363026257000000E+02
  0.2454945300000000E+00 0
         # Potential name:  GTH-PBE-Q5  for symbol:  N
         # Potential read from the potential filename: GTH_POTENTIALS
       &END POTENTIAL
     &END KIND
     &KIND Ga
       BASIS_SET DZVP-MOLOPT-SR-GTH-q13
       POTENTIAL GTH-PBE-q13
       &POTENTIAL
 2 1 10
  0.4900000000000000E+00 0
 3
  0.4167772300000000E+00 3  0.1047568975000000E+02 -0.4921768140000000E+01  0.8707055900000000E+00
  0.7770178090000000E+01 -0.2248152160000000E+01
  0.1784415450000000E+01
  0.5696265200000000E+00 2  0.1777985340000000E+01  0.1958597600000000E+00
 -0.2317443900000000E+00
  0.2381265000000000E+00 1 -0.1624868022000000E+02
         # Potential name:  GTH-PBE-Q13  for symbol:  GA
         # Potential read from the potential filename: GTH_POTENTIALS
       &END POTENTIAL
     &END KIND
     &TOPOLOGY
       COORD_FILE_NAME ../start-first.xyz
       COORD_FILE_FORMAT  XYZ
       NUMBER_OF_ATOMS  156
       MULTIPLE_UNIT_CELL  1 1 1
     &END TOPOLOGY
     &COLVAR
       &DISTANCE
         ATOMS  145 147
       &END DISTANCE
       &PRINT
       &END PRINT
     &END COLVAR
   &END SUBSYS
 &END FORCE_EVAL
