 # Version information for this restart file 
 # current date 2019-05-28 04:01:23.163
 # current working dir /lustre03/project/6004141/rzk/GaN-carbene/334-native/08-2Methanol-Htransfer/03-CO-constraint/1.64
 # Program compiled at                              Sun Apr  7 00:48:11 EDT 2019
 # Program compiled on                          beluga2.int.ets1.calculquebec.ca
 # Program compiled for                        Beluga-Linux-x86-64-intel-openmpi
 # Source code revision number                                         svn:18619
 &GLOBAL
   PRINT_LEVEL  MEDIUM
   PROJECT_NAME TEST
   RUN_TYPE  GEO_OPT
 &END GLOBAL
 &MOTION
   &GEO_OPT
     MAX_ITER  500
     STEP_START_VAL  300
   &END GEO_OPT
   &CONSTRAINT
     &COLLECTIVE
       COLVAR  1
       INTERMOLECULAR  T
       TARGET     3.0991508579324543E+00
       &RESTRAINT
         K     1.0000000000000001E-01
       &END RESTRAINT
     &END COLLECTIVE
     &COLVAR_RESTART
           3.0991508579324543E+00
     &END COLVAR_RESTART
   &END CONSTRAINT
 &END MOTION
 &FORCE_EVAL
   METHOD  QS
   STRESS_TENSOR  ANALYTICAL
   &DFT
     BASIS_SET_FILE_NAME BASIS_MOLOPT
     POTENTIAL_FILE_NAME GTH_POTENTIALS
     &SCF
       MAX_SCF  100
       EPS_SCF     5.0000000000000004E-06
       &OT  T
         PRECONDITIONER  FULL_ALL
       &END OT
       &OUTER_SCF  T
         OPTIMIZER  NONE
         EPS_SCF     5.0000000000000004E-06
         MAX_SCF  4
       &END OUTER_SCF
       &PRINT
         &RESTART  OFF
           BACKUP_COPIES  1
           &EACH
             JUST_ENERGY  0
             QS_SCF  0
             MD  20
           &END EACH
         &END RESTART
       &END PRINT
     &END SCF
     &QS
       EPS_DEFAULT     1.0000000000000000E-14
       ALMO_SCF  F
       METHOD  GPW
     &END QS
     &MGRID
       NGRIDS  5
       CUTOFF     1.2000000000000000E+03
     &END MGRID
     &XC
       DENSITY_CUTOFF     1.0000000000000000E-10
       GRADIENT_CUTOFF     1.0000000000000000E-10
       TAU_CUTOFF     1.0000000000000000E-10
       &XC_FUNCTIONAL  NO_SHORTCUT
         &PBE  T
         &END PBE
       &END XC_FUNCTIONAL
       &VDW_POTENTIAL
         POTENTIAL_TYPE  PAIR_POTENTIAL
         &PAIR_POTENTIAL
           R_CUTOFF     1.0000000000000005E+01
           TYPE  DFTD3
           PARAMETER_FILE_NAME dftd3.dat
           REFERENCE_FUNCTIONAL PBE
           EPS_CN     9.9999999999999995E-07
           CALCULATE_C9_TERM  T
           REFERENCE_C9_TERM  T
           LONG_RANGE_CORRECTION  F
           VERBOSE_OUTPUT  F
         &END PAIR_POTENTIAL
       &END VDW_POTENTIAL
     &END XC
   &END DFT
   &SUBSYS
     &CELL
       A     9.7367653356401487E+00    0.0000000000000000E+00    0.0000000000000000E+00
       B    -4.8591341382960209E+00    8.4162672083210595E+00    0.0000000000000000E+00
       C     0.0000000000000000E+00    0.0000000000000000E+00    3.0744000000000000E+01
       MULTIPLE_UNIT_CELL  1 1 1
       &CELL_REF
         A     9.5580000000000052E+00    0.0000000000000000E+00    0.0000000000000000E+00
         B    -4.7790000000000026E+00    8.2774708093716640E+00    0.0000000000000000E+00
         C     0.0000000000000000E+00    0.0000000000000000E+00    3.0744000000000000E+01
         MULTIPLE_UNIT_CELL  1 1 1
       &END CELL_REF
     &END CELL
     &COORD
Ga    7.3614420421023230E-02   -1.6859311984283415E-01   -5.9549669137312278E-01
N    7.6731600436453884E-02    1.7070498589014564E+00    5.5912039237755773E-01
Ga    7.6399875528879002E-02    1.6745552559019441E+00    2.5870918181191329E+00
N    7.3528763851744963E-02   -1.6947459628923112E-01    3.2203199909220745E+00
Ga    7.4156692769529103E-02   -1.6828274493764339E-01    5.2079579159619263E+00
N    7.7151789370952142E-02    1.7055619005760849E+00    5.8009912824390577E+00
Ga    7.7428983133004281E-02    1.7040366423022575E+00    7.7970561665946612E+00
N    7.5389732220547553E-02   -1.6908532017024314E-01    8.4039441388294005E+00
Ga    7.7064728381319558E-02   -1.6781162975480765E-01    1.0399079308921229E+01
N    7.7117842832383390E-02    1.7020055320865122E+00    1.1010069591906337E+01
Ga    7.3347447714729369E-02    1.7031473792440448E+00    1.3010198529678721E+01
N    7.5299609715005197E-02   -1.6597583855431061E-01    1.3631549987620648E+01
Ga    1.0675994779349639E-01   -1.4392793333299739E-01    1.5655174212382331E+01
N    9.3417521236073844E-02    1.7254227919407172E+00    1.6224929947094569E+01
Ga    5.8891493859570730E-02    1.7588850662723463E+00    1.8384632723250434E+01
N    1.0536204826492730E-01   -1.1169570095307590E-01    1.8837091947106259E+01
Ga   -1.5458693068347400E+00    2.6359518016851342E+00    2.7199501253632652E-01
N   -1.5482641675431452E+00    4.5052981096669624E+00    5.5871627463957163E-01
Ga   -1.5192605611386651E+00    4.5214530720224078E+00    2.5867549482647112E+00
N   -1.5461483331054038E+00    2.6360839847785567E+00    3.1823972530211559E+00
Ga   -1.5455750780202284E+00    2.6367592636720127E+00    5.1901988742989857E+00
N   -1.5450210608403161E+00    4.5074019426676504E+00    5.8006943559324666E+00
Ga   -1.5440523878349453E+00    4.5076936450485929E+00    7.7963307638732378E+00
N   -1.5442004011600421E+00    2.6376710375529284E+00    8.4047296921795294E+00
Ga   -1.5422661420288899E+00    2.6374447174530715E+00    1.0397720054871831E+01
N   -1.5465803649416952E+00    4.5123368016382086E+00    1.1005424146004785E+01
Ga   -1.5455591073985511E+00    4.5041958463499343E+00    1.2995397119093589E+01
N   -1.5376958699504604E+00    2.6507248018201657E+00    1.3613658406011057E+01
Ga   -1.5080265334224812E+00    2.6671907535991135E+00    1.5632805036236745E+01
N   -1.5401328353404471E+00    4.5499323738730917E+00    1.6257659509384236E+01
Ga   -1.5566443271564663E+00    4.5751266053769344E+00    1.8343906082361514E+01
N   -1.5541867379983858E+00    2.7366074740470316E+00    1.8754107685433482E+01
Ga   -3.1663173562715485E+00    5.4419012564611782E+00    2.7235341836068344E-01
N   -3.1582078871157258E+00    7.3114691967219931E+00    5.5873261573326649E-01
Ga   -3.1866393894170777E+00    7.3271222465768400E+00    2.5867404852828044E+00
N   -3.1658246634336740E+00    5.4414837082319778E+00    3.1814714912881050E+00
Ga   -3.1650380231646387E+00    5.4421774161566487E+00    5.1888738541465553E+00
N   -3.1602035781867679E+00    7.3125229586637133E+00    5.7994169677576819E+00
Ga   -3.1618129308650533E+00    7.3126749672369451E+00    7.7943592936776813E+00
N   -3.1662068563645556E+00    5.4423328268631854E+00    8.4032540112024066E+00
Ga   -3.1656391775422179E+00    5.4452368294335214E+00    1.0393437695938097E+01
N   -3.1636865551209046E+00    7.3101268432324353E+00    1.1017481295481058E+01
Ga   -3.1694682281252149E+00    7.3202971036299029E+00    1.3015306435560198E+01
N   -3.1804259847798995E+00    5.4326599606874133E+00    1.3641514882660649E+01
Ga   -3.0645538762065283E+00    5.5236328411080260E+00    1.5615831896425435E+01
N   -3.1677374351473522E+00    7.3103822722118545E+00    1.6275681876239886E+01
Ga   -3.1021498272118850E+00    7.4404511077299373E+00    1.8422285072024650E+01
N   -2.8687416800432484E+00    5.6800990654775321E+00    1.9156086091982196E+01
Ga    3.3198924859865091E+00   -1.6966594529715634E-01    2.7153775546797282E-01
N    3.3170191683318060E+00    1.6995921112037022E+00    5.5898679126792639E-01
Ga    3.3461032534073936E+00    1.7156128704216262E+00    2.5869055766220681E+00
N    3.3193542535175418E+00   -1.6933177548819053E-01    3.1826365443747853E+00
Ga    3.3203899673193225E+00   -1.6832782485101985E-01    5.1903579138432727E+00
N    3.3203652530330952E+00    1.7014223473555101E+00    5.8028926613329563E+00
Ga    3.3209976298088457E+00    1.7013840515564471E+00    7.7996596247319632E+00
N    3.3182962849843363E+00   -1.7102567243017641E-01    8.4051681684469131E+00
Ga    3.3182463663869748E+00   -1.7338416662032544E-01    1.0398443782704998E+01
N    3.3212674099220245E+00    1.6993073489655632E+00    1.0996894852638373E+01
Ga    3.3116605019976824E+00    1.6882160713887231E+00    1.2984960621919726E+01
N    3.3156548393321148E+00   -1.7293211739690417E-01    1.3621683852211111E+01
Ga    3.3191078805096366E+00   -1.8782450818451799E-01    1.5647571401774382E+01
N    3.3204150556007908E+00    1.7158699875597663E+00    1.6163708875621438E+01
Ga    3.1329617303117585E+00    1.6729326682460772E+00    1.8154197239736380E+01
N    3.3988548369095826E+00   -4.7964590113878811E-02    1.8736891783659154E+01
Ga    1.6991771721308404E+00    2.6364983577963828E+00    2.7226929688171048E-01
N    1.7068781020983088E+00    4.5058622621650644E+00    5.5919825792244293E-01
Ga    1.6783008320363961E+00    4.5216041506890594E+00    2.5872253561364591E+00
N    1.6997625660007034E+00    2.6359935126861829E+00    3.1825016199326099E+00
Ga    1.7004952900655730E+00    2.6366850180962929E+00    5.1903735269533655E+00
N    1.7050901543734249E+00    4.5072566266845460E+00    5.8008915851928675E+00
Ga    1.7034631742451742E+00    4.5072580719298898E+00    7.7966357567441733E+00
N    1.6994733496269427E+00    2.6371901957072437E+00    8.4052622507950474E+00
Ga    1.6983075692442715E+00    2.6359700823807608E+00    1.0398351884940872E+01
N    1.7054662035908810E+00    4.5124452418774448E+00    1.1000220713530819E+01
Ga    1.6992276521709244E+00    4.5097386558041581E+00    1.2985881231647223E+01
N    1.7030960067212855E+00    2.6446896694209245E+00    1.3585499938257488E+01
Ga    1.6855778143844258E+00    2.6282372557976257E+00    1.5572025412237330E+01
N    1.6954648016278733E+00    4.5326752506953563E+00    1.6177342498385062E+01
Ga    1.4740067251253011E+00    4.3642919256220649E+00    1.8103099286425788E+01
N    1.7199248902893765E+00    2.6968502969497261E+00    1.8826834299145876E+01
Ga    8.0063377337006095E-02    5.4427934127592579E+00   -5.9586013796122650E-01
N    8.2921682145139133E-02    7.3176616157530221E+00    5.5939261009527885E-01
Ga    8.2669485197200077E-02    7.2855216212081224E+00    2.5872628805474265E+00
N    7.9680161104088751E-02    5.4415293852365654E+00    3.2211671135130642E+00
Ga    8.0395921157712824E-02    5.4428022481654468E+00    5.2091238970392801E+00
N    8.3461421641797734E-02    7.3167348409196435E+00    5.8017553546869056E+00
Ga    8.3369466586061411E-02    7.3150875221623304E+00    7.7978967957405816E+00
N    7.9902376200456302E-02    5.4420006636050875E+00    8.4033192428851926E+00
Ga    7.9056106846687166E-02    5.4467715230296117E+00    1.0397652038743651E+01
N    8.3830773147559365E-02    7.3164483521922872E+00    1.1006183365240672E+01
Ga    8.1495990284193937E-02    7.3223350767075583E+00    1.3001375060547227E+01
N    7.7318193493275747E-02    5.4432508865560703E+00    1.3592693828128361E+01
Ga    5.7902198550611121E-02    5.4868947041643628E+00    1.5579392588928856E+01
N    9.9506339638842728E-02    7.3209105007392239E+00    1.6191784342854092E+01
Ga    1.1973584442832806E-01    7.4690211270307438E+00    1.8248823190223089E+01
N    1.7089095304219890E-01    5.5515779455067857E+00    1.8788290576887448E+01
Ga    6.5639983230416306E+00   -1.6904099396920674E-01    2.7155944290818956E-01
N    6.5722103564485357E+00    1.7002338404799162E+00    5.5917047001210818E-01
Ga    6.5435394086148255E+00    1.7156748840577982E+00    2.5871090111805475E+00
N    6.5648446853460145E+00   -1.6933983173531347E-01    3.1827582201898013E+00
Ga    6.5653223539259509E+00   -1.6836797450820681E-01    5.1905025074930808E+00
N    6.5708314300019053E+00    1.7015210288201477E+00    5.8023028621443435E+00
Ga    6.5705463110676563E+00    1.7017172886587315E+00    7.7988075085675650E+00
N    6.5665939483312741E+00   -1.6983233286060637E-01    8.4061107160469053E+00
Ga    6.5679754018339249E+00   -1.6971191054265697E-01    1.0400129869516954E+01
N    6.5743602463331614E+00    1.7023745094224816E+00    1.1002925833375913E+01
Ga    6.5931551834962834E+00    1.6991676868799086E+00    1.2995594815844653E+01
N    6.5753011214657207E+00   -1.7416111484941948E-01    1.3599511916552620E+01
Ga    6.5726750444057664E+00   -1.7696357087047820E-01    1.5604081989702230E+01
N    6.5951395925439220E+00    1.7058306122156928E+00    1.6134422940104006E+01
Ga    6.6773674598965709E+00    1.7944387071410082E+00    1.8144339297641448E+01
N    6.5555696802631909E+00   -1.2120430263644091E-02    1.8735985959037979E+01
Ga    4.9452211817656959E+00    2.6356791207725281E+00   -5.9551058231498877E-01
N    4.9480840384083491E+00    4.5119883103078298E+00    5.5912944663055864E-01
Ga    4.9477437070490540E+00    4.4793249034681759E+00    2.5871205285678411E+00
N    4.9450436524305639E+00    2.6354675306263027E+00    3.2215259383720660E+00
Ga    4.9457286624260970E+00    2.6357260647691549E+00    5.2096301011199442E+00
N    4.9487038205930558E+00    4.5105854408568797E+00    5.7998228356344965E+00
Ga    4.9488359023379793E+00    4.5084033752188670E+00    7.7948268456627829E+00
N    4.9463733844274707E+00    2.6364623269769876E+00    8.4041912170244668E+00
Ga    4.9483476178857195E+00    2.6323797336966277E+00    1.0398566583623881E+01
N    4.9485942308115236E+00    4.5092511947231442E+00    1.1004239016435193E+01
Ga    4.9479212754207236E+00    4.5042003532772297E+00    1.2985545106712623E+01
N    4.9461731380799883E+00    2.6281847247151591E+00    1.3563270095621784E+01
Ga    4.9638659546145707E+00    2.5083732690401330E+00    1.5515621768086755E+01
N    4.8562775115187664E+00    4.3755730257953589E+00    1.6250427747893831E+01
Ga    5.2994060546858863E+00    4.9039700294102309E+00    1.9621496820060482E+01
N    5.0035964850078383E+00    3.3145146915866146E+00    1.8337980476849197E+01
Ga    3.3256387013002091E+00    5.4414062902579783E+00    2.7232861635256322E-01
N    3.3228845619896523E+00    7.3108548878254371E+00    5.5881366628845364E-01
Ga    3.3516777847831660E+00    7.3269374699597982E+00    2.5868087788386340E+00
N    3.3254746654778806E+00    5.4415490535745237E+00    3.1821690788125929E+00
Ga    3.3258139778414089E+00    5.4424264881412103E+00    5.1898602791213326E+00
N    3.3268372282460215E+00    7.3128472156235134E+00    5.8006002018645422E+00
Ga    3.3285994384555249E+00    7.3134927504665832E+00    7.7961332818248259E+00
N    3.3268929919085881E+00    5.4418219802760808E+00    8.4013769197547585E+00
Ga    3.3272499151701211E+00    5.4446460565806900E+00    1.0390411003326433E+01
N    3.3336297690490366E+00    7.3114504925292039E+00    1.1007124091183234E+01
Ga    3.3416870219662869E+00    7.3234666823125663E+00    1.2998441030556929E+01
N    3.3323346845527735E+00    5.4402029861185239E+00    1.3617395313933631E+01
Ga    3.2707259153021666E+00    5.5038349927978913E+00    1.5580751188625285E+01
N    3.3472767920027882E+00    7.3081246291384065E+00    1.6245466186337385E+01
Ga    3.3485453508577554E+00    7.7282269366724972E+00    1.8210459897892012E+01
N    4.7256280746272052E+00    4.3494705816508725E+00    1.7587675377401499E+01
O    1.0647814107665257E+00    4.7159681700257901E+00    2.1454515634798668E+01
H    2.6989083949870157E-01    5.4609036639613118E+00    1.9820753529943662E+01
C    4.7688795706652948E-01    3.3505056212189657E+00    2.1864543778449733E+01
H   -5.8544132253051817E-01    3.3809568247845712E+00    2.1600550954506481E+01
H    9.7711692563103314E-01    2.5590108884391785E+00    2.1295393378196998E+01
H    6.1408465619744190E-01    3.2250360692222366E+00    2.2944274268679489E+01
O    3.7512105037935144E+00    5.2955226398351289E+00    2.0495587973384286E+01
H    1.9814395957989299E+00    4.5294551539202743E+00    2.1160760235551752E+01
C    3.7872300520820898E+00    6.3995285250115410E+00    2.1451390527518004E+01
H    4.1673833828837505E+00    6.0457425378086000E+00    2.2419364796456332E+01
H    4.3978690102762164E+00    7.2374275931962577E+00    2.1082663322917082E+01
H    2.7521759259603118E+00    6.7456514607084213E+00    2.1574312421390573E+01
     &END COORD
     &KIND C
       BASIS_SET DZVP-MOLOPT-SR-GTH-q4
       POTENTIAL GTH-PBE-q4
       &POTENTIAL
 2 2
  0.3384712400000000E+00 2 -0.8803673979999999E+01  0.1339210850000000E+01
 2
  0.3025757500000000E+00 1  0.9622486650000001E+01
  0.2915069400000000E+00 0
         # Potential name:  GTH-PBE-Q4  for symbol:  C
         # Potential read from the potential filename: GTH_POTENTIALS
       &END POTENTIAL
     &END KIND
     &KIND O
       BASIS_SET DZVP-MOLOPT-SR-GTH-q6
       POTENTIAL GTH-PBE-q6
       &POTENTIAL
 2 4
  0.2445543000000000E+00 2 -0.1666721480000000E+02  0.2487311320000000E+01
 2
  0.2209559200000000E+00 1  0.1833745811000000E+02
  0.2113324700000000E+00 0
         # Potential name:  GTH-PBE-Q6  for symbol:  O
         # Potential read from the potential filename: GTH_POTENTIALS
       &END POTENTIAL
     &END KIND
     &KIND H
       BASIS_SET DZVP-MOLOPT-SR-GTH-q1
       POTENTIAL GTH-PBE-q1
       &POTENTIAL
 1
  0.2000000000000000E+00 2 -0.4178900440000000E+01  0.7244633100000000E+00
 0
         # Potential name:  GTH-PBE-Q1  for symbol:  H
         # Potential read from the potential filename: GTH_POTENTIALS
       &END POTENTIAL
     &END KIND
     &KIND N
       BASIS_SET DZVP-MOLOPT-SR-GTH-q5
       POTENTIAL GTH-PBE-q5
       &POTENTIAL
 2 3
  0.2837905100000000E+00 2 -0.1241522559000000E+02  0.1868095920000000E+01
 2
  0.2554050000000000E+00 1  0.1363026257000000E+02
  0.2454945300000000E+00 0
         # Potential name:  GTH-PBE-Q5  for symbol:  N
         # Potential read from the potential filename: GTH_POTENTIALS
       &END POTENTIAL
     &END KIND
     &KIND Ga
       BASIS_SET DZVP-MOLOPT-SR-GTH-q13
       POTENTIAL GTH-PBE-q13
       &POTENTIAL
 2 1 10
  0.4900000000000000E+00 0
 3
  0.4167772300000000E+00 3  0.1047568975000000E+02 -0.4921768140000000E+01  0.8707055900000000E+00
  0.7770178090000000E+01 -0.2248152160000000E+01
  0.1784415450000000E+01
  0.5696265200000000E+00 2  0.1777985340000000E+01  0.1958597600000000E+00
 -0.2317443900000000E+00
  0.2381265000000000E+00 1 -0.1624868022000000E+02
         # Potential name:  GTH-PBE-Q13  for symbol:  GA
         # Potential read from the potential filename: GTH_POTENTIALS
       &END POTENTIAL
     &END KIND
     &TOPOLOGY
       COORD_FILE_NAME ../start-first.xyz
       COORD_FILE_FORMAT  XYZ
       NUMBER_OF_ATOMS  156
       MULTIPLE_UNIT_CELL  1 1 1
     &END TOPOLOGY
     &COLVAR
       &DISTANCE
         ATOMS  145 147
       &END DISTANCE
       &PRINT
       &END PRINT
     &END COLVAR
   &END SUBSYS
 &END FORCE_EVAL
