 # Version information for this restart file 
 # current date 2019-05-28 04:02:05.530
 # current working dir /lustre03/project/6004141/rzk/GaN-carbene/334-native/08-2Methanol-Htransfer/03-CO-constraint/1.64
 # Program compiled at                              Sun Apr  7 00:48:11 EDT 2019
 # Program compiled on                          beluga2.int.ets1.calculquebec.ca
 # Program compiled for                        Beluga-Linux-x86-64-intel-openmpi
 # Source code revision number                                         svn:18619
 &GLOBAL
   PRINT_LEVEL  MEDIUM
   PROJECT_NAME TEST
   RUN_TYPE  GEO_OPT
 &END GLOBAL
 &MOTION
   &GEO_OPT
     MAX_ITER  500
     STEP_START_VAL  301
   &END GEO_OPT
   &CONSTRAINT
     &COLLECTIVE
       COLVAR  1
       INTERMOLECULAR  T
       TARGET     3.0991508579324543E+00
       &RESTRAINT
         K     1.0000000000000001E-01
       &END RESTRAINT
     &END COLLECTIVE
     &COLVAR_RESTART
           3.0991508579324543E+00
     &END COLVAR_RESTART
   &END CONSTRAINT
 &END MOTION
 &FORCE_EVAL
   METHOD  QS
   STRESS_TENSOR  ANALYTICAL
   &DFT
     BASIS_SET_FILE_NAME BASIS_MOLOPT
     POTENTIAL_FILE_NAME GTH_POTENTIALS
     &SCF
       MAX_SCF  100
       EPS_SCF     5.0000000000000004E-06
       &OT  T
         PRECONDITIONER  FULL_ALL
       &END OT
       &OUTER_SCF  T
         OPTIMIZER  NONE
         EPS_SCF     5.0000000000000004E-06
         MAX_SCF  4
       &END OUTER_SCF
       &PRINT
         &RESTART  OFF
           BACKUP_COPIES  1
           &EACH
             JUST_ENERGY  0
             QS_SCF  0
             MD  20
           &END EACH
         &END RESTART
       &END PRINT
     &END SCF
     &QS
       EPS_DEFAULT     1.0000000000000000E-14
       ALMO_SCF  F
       METHOD  GPW
     &END QS
     &MGRID
       NGRIDS  5
       CUTOFF     1.2000000000000000E+03
     &END MGRID
     &XC
       DENSITY_CUTOFF     1.0000000000000000E-10
       GRADIENT_CUTOFF     1.0000000000000000E-10
       TAU_CUTOFF     1.0000000000000000E-10
       &XC_FUNCTIONAL  NO_SHORTCUT
         &PBE  T
         &END PBE
       &END XC_FUNCTIONAL
       &VDW_POTENTIAL
         POTENTIAL_TYPE  PAIR_POTENTIAL
         &PAIR_POTENTIAL
           R_CUTOFF     1.0000000000000005E+01
           TYPE  DFTD3
           PARAMETER_FILE_NAME dftd3.dat
           REFERENCE_FUNCTIONAL PBE
           EPS_CN     9.9999999999999995E-07
           CALCULATE_C9_TERM  T
           REFERENCE_C9_TERM  T
           LONG_RANGE_CORRECTION  F
           VERBOSE_OUTPUT  F
         &END PAIR_POTENTIAL
       &END VDW_POTENTIAL
     &END XC
   &END DFT
   &SUBSYS
     &CELL
       A     9.7367653356401487E+00    0.0000000000000000E+00    0.0000000000000000E+00
       B    -4.8591341382960209E+00    8.4162672083210595E+00    0.0000000000000000E+00
       C     0.0000000000000000E+00    0.0000000000000000E+00    3.0744000000000000E+01
       MULTIPLE_UNIT_CELL  1 1 1
       &CELL_REF
         A     9.5580000000000052E+00    0.0000000000000000E+00    0.0000000000000000E+00
         B    -4.7790000000000026E+00    8.2774708093716640E+00    0.0000000000000000E+00
         C     0.0000000000000000E+00    0.0000000000000000E+00    3.0744000000000000E+01
         MULTIPLE_UNIT_CELL  1 1 1
       &END CELL_REF
     &END CELL
     &COORD
Ga    7.3671753628504200E-02   -1.6852314246283001E-01   -5.9561860256452392E-01
N    7.6852102223038274E-02    1.7070796495698579E+00    5.5882830855681609E-01
Ga    7.6454402257350826E-02    1.6749494117312986E+00    2.5870707281932139E+00
N    7.3600799343109966E-02   -1.6911954501125143E-01    3.2204271165496032E+00
Ga    7.4275893880964838E-02   -1.6815788218101205E-01    5.2081401735426525E+00
N    7.7326421450310032E-02    1.7056387851514545E+00    5.8013425197913975E+00
Ga    7.7633693779640925E-02    1.7039281957229675E+00    7.7972971888841505E+00
N    7.5568574575904005E-02   -1.6920254214510175E-01    8.4043226436333924E+00
Ga    7.7075077384258422E-02   -1.6782714687747463E-01    1.0399322607321126E+01
N    7.7223736216642441E-02    1.7019313302302841E+00    1.1010395872509010E+01
Ga    7.3293653258886440E-02    1.7030175004681827E+00    1.3010487831404372E+01
N    7.5230845132318105E-02   -1.6610676650642034E-01    1.3631559235707146E+01
Ga    1.0671476145346044E-01   -1.4408051610023775E-01    1.5655343523695167E+01
N    9.3332355669182854E-02    1.7252217996887240E+00    1.6224755919761275E+01
Ga    5.9321807403214223E-02    1.7588424900044044E+00    1.8384445146773803E+01
N    1.0543273826447300E-01   -1.1187695588470908E-01    1.8836797862568016E+01
Ga   -1.5456754055122992E+00    2.6362373417076159E+00    2.7195373153954266E-01
N   -1.5480710725553162E+00    4.5055938383739171E+00    5.5831874268620196E-01
Ga   -1.5192631190252663E+00    4.5217752147991632E+00    2.5865560603465987E+00
N   -1.5460514945813886E+00    2.6364924728149943E+00    3.1825274200930340E+00
Ga   -1.5454550231927158E+00    2.6368128867447664E+00    5.1903450216540401E+00
N   -1.5449194687543086E+00    4.5074618160982363E+00    5.8010045732285214E+00
Ga   -1.5439060305262844E+00    4.5075695316743429E+00    7.7965682413584414E+00
N   -1.5440318742889285E+00    2.6375375252642503E+00    8.4051408923307633E+00
Ga   -1.5422276869417317E+00    2.6372763893953906E+00    1.0398002791175969E+01
N   -1.5465361498278367E+00    4.5121962817894818E+00    1.1005705378272115E+01
Ga   -1.5454893525631210E+00    4.5039247758510603E+00    1.2995582286496926E+01
N   -1.5377221996319810E+00    2.6504911517053755E+00    1.3613877001384873E+01
Ga   -1.5080951334639947E+00    2.6670203946599123E+00    1.5633055750273106E+01
N   -1.5399220880887030E+00    4.5497548934609453E+00    1.6257720885862796E+01
Ga   -1.5562828196378788E+00    4.5749455576101017E+00    1.8344079238684937E+01
N   -1.5542167266132398E+00    2.7363217689919286E+00    1.8753637750387032E+01
Ga   -3.1662527911921767E+00    5.4419690293631806E+00    2.7240094268482068E-01
N   -3.1582492160169959E+00    7.3116286007722318E+00    5.5840518872524758E-01
Ga   -3.1866843718512379E+00    7.3273270181352670E+00    2.5866304894863101E+00
N   -3.1657855003483211E+00    5.4417073929989526E+00    3.1815854097439944E+00
Ga   -3.1649738421138394E+00    5.4422456181807721E+00    5.1890283055847704E+00
N   -3.1601213820640015E+00    7.3125758612640936E+00    5.7997452504761062E+00
Ga   -3.1616287066954953E+00    7.3125300357018004E+00    7.7946029491762570E+00
N   -3.1660674667376929E+00    5.4422021358911872E+00    8.4036690758782679E+00
Ga   -3.1656298362321982E+00    5.4450915351231881E+00    1.0393680467538095E+01
N   -3.1637020149226234E+00    7.3099732252390837E+00    1.1017790377339496E+01
Ga   -3.1694423526693321E+00    7.3201447654203093E+00    1.3015570773674341E+01
N   -3.1804167494323461E+00    5.4324109908288456E+00    1.3641459881841323E+01
Ga   -3.0642620373312699E+00    5.5233196784698482E+00    1.5615782745903729E+01
N   -3.1678285394859178E+00    7.3100766728946542E+00    1.6275574326004872E+01
Ga   -3.1019784211622707E+00    7.4401570533008128E+00    1.8422448349877090E+01
N   -2.8688290939108270E+00    5.6796293669824740E+00    1.9155855935869315E+01
Ga    3.3198999671947109E+00   -1.6951481985272301E-01    2.7154363538743193E-01
N    3.3171128611452940E+00    1.6997768937789324E+00    5.5889568390423816E-01
Ga    3.3461120545667922E+00    1.7159832174458638E+00    2.5868621444278399E+00
N    3.3193238995918746E+00   -1.6902632242120022E-01    3.1827753635513703E+00
Ga    3.3204823667114760E+00   -1.6820514363112951E-01    5.1905699503772498E+00
N    3.3205119787655764E+00    1.7015036675488140E+00    5.8032836623802790E+00
Ga    3.3211837375808795E+00    1.7012524346923112E+00    7.7999691532259154E+00
N    3.3184490113268033E+00   -1.7113367782379610E-01    8.4055995750577175E+00
Ga    3.3182857887454058E+00   -1.7346980820190119E-01    1.0398728806865810E+01
N    3.3212967689902246E+00    1.6992223134267104E+00    1.0997201112962889E+01
Ga    3.3117001102738284E+00    1.6879231888711956E+00    1.2985166714494941E+01
N    3.3157030556261611E+00   -1.7317212928258111E-01    1.3621861121241320E+01
Ga    3.3191395648957345E+00   -1.8822527499483688E-01    1.5647811826359154E+01
N    3.3204634804153730E+00    1.7155668122797796E+00    1.6163521079404195E+01
Ga    3.1333869574068820E+00    1.6730654594874872E+00    1.8154382285812794E+01
N    3.3989307079100279E+00   -4.8109044138381948E-02    1.8736326407154806E+01
Ga    1.6992552564158527E+00    2.6366854441717420E+00    2.7239292789722719E-01
N    1.7068955888082744E+00    4.5060654252920518E+00    5.5901547518492434E-01
Ga    1.6783607065748987E+00    4.5219103772272575E+00    2.5871691698232397E+00
N    1.6997925778931311E+00    2.6363602663782255E+00    3.1826306928521673E+00
Ga    1.7006352789587711E+00    2.6367840504552920E+00    5.1905115152551513E+00
N    1.7052758416887444E+00    4.5073307002508631E+00    5.8011967490821705E+00
Ga    1.7036846911305266E+00    4.5072024126167145E+00    7.7968703395271994E+00
N    1.6996750678210433E+00    2.6371200784274667E+00    8.4056846255625359E+00
Ga    1.6983703821552918E+00    2.6359483049924251E+00    1.0398658290487232E+01
N    1.7056314992134274E+00    4.5123918261075016E+00    1.1000545154800891E+01
Ga    1.6992414740753741E+00    4.5095814519032222E+00    1.2986088405743104E+01
N    1.7031518855738539E+00    2.6445136317056432E+00    1.3585699236954103E+01
Ga    1.6855247346700817E+00    2.6280197085548092E+00    1.5572329371930824E+01
N    1.6957770081539167E+00    4.5325550495678426E+00    1.6177576575054545E+01
Ga    1.4743085123278312E+00    4.3639944633850813E+00    1.8103454057895444E+01
N    1.7202473751770346E+00    2.6966541123451724E+00    1.8826735435395729E+01
Ga    8.0332959356063660E-02    5.4429939155901383E+00   -5.9583544617207973E-01
N    8.2973723064822535E-02    7.3178155276558785E+00    5.5922419886370611E-01
Ga    8.2682063970604971E-02    7.2858334119753261E+00    2.5873100156645790E+00
N    7.9687659520755419E-02    5.4417704167980379E+00    3.2212582128539138E+00
Ga    8.0519009253765275E-02    5.4429019443052908E+00    5.2093190430278034E+00
N    8.3628351160197359E-02    7.3168021702448538E+00    5.8021080541853252E+00
Ga    8.3547698309658483E-02    7.3150011214364401E+00    7.7981822408240511E+00
N    8.0084933607417030E-02    5.4418548884094813E+00    8.4037221188044029E+00
Ga    7.9162769127113605E-02    5.4466360967638829E+00    1.0397898959794647E+01
N    8.3869359533345386E-02    7.3163599026852086E+00    1.1006470807333757E+01
Ga    8.1427067326690569E-02    7.3220938042155854E+00    1.3001600960110361E+01
N    7.7374917548296757E-02    5.4429947340348956E+00    1.3592865384075536E+01
Ga    5.7970541619619925E-02    5.4865568925841783E+00    1.5579537941215396E+01
N    9.9659551522619183E-02    7.3205347921175443E+00    1.6191761709359760E+01
Ga    1.1992482053718118E-01    7.4686964792113946E+00    1.8248795799610015E+01
N    1.7122186023918357E-01    5.5512822259924768E+00    1.8788286183782265E+01
Ga    6.5641079894780550E+00   -1.6885435145339125E-01    2.7151566304848601E-01
N    6.5723147755385867E+00    1.7005078601546384E+00    5.5903324191753712E-01
Ga    6.5436543397323161E+00    1.7160440086367237E+00    2.5871318269242374E+00
N    6.5649427629697099E+00   -1.6906147413556694E-01    3.1829143511562052E+00
Ga    6.5655279293629194E+00   -1.6826160608382640E-01    5.1907664378453795E+00
N    6.5709585060098945E+00    1.7015963375925074E+00    5.8027193979779232E+00
Ga    6.5707075972974707E+00    1.7015529626694157E+00    7.7991243669093411E+00
N    6.5667593123682710E+00   -1.6996739699995689E-01    8.4065664993244145E+00
Ga    6.5680291713257128E+00   -1.6972187773287289E-01    1.0400412766333561E+01
N    6.5743612283140775E+00    1.7023022480778949E+00    1.1003281627335118E+01
Ga    6.5931410452838506E+00    1.6990840402798548E+00    1.2995832132680722E+01
N    6.5751666558969477E+00   -1.7429566291910140E-01    1.3599602102808802E+01
Ga    6.5725902802086233E+00   -1.7715308916923864E-01    1.5604203331783870E+01
N    6.5950992086340090E+00    1.7055369767436688E+00    1.6134540307496589E+01
Ga    6.6774263829746765E+00    1.7941446166635526E+00    1.8144517641554071E+01
N    6.5554868539977145E+00   -1.2333729827957014E-02    1.8735880292267208E+01
Ga    4.9452138405803741E+00    2.6357516033405255E+00   -5.9571135514720441E-01
N    4.9481759081074799E+00    4.5120003057047429E+00    5.5887591307899276E-01
Ga    4.9477849429483811E+00    4.4796189764238754E+00    2.5870182266463524E+00
N    4.9450961348433395E+00    2.6357757250381209E+00    3.2216978753651038E+00
Ga    4.9458680941690067E+00    2.6357976799041909E+00    5.2098841530019024E+00
N    4.9488193668497011E+00    4.5106282269579996E+00    5.8001964478073456E+00
Ga    4.9489750723808488E+00    4.5082876064325799E+00    7.7951141253449361E+00
N    4.9465256191906253E+00    2.6363568956734591E+00    8.4046598200236744E+00
Ga    4.9484125908793199E+00    2.6322667317268262E+00    1.0398899458174418E+01
N    4.9485734629644824E+00    4.5091604336515516E+00    1.1004597155402733E+01
Ga    4.9479290089593686E+00    4.5039433378338014E+00    1.2985725526790121E+01
N    4.9461631447956762E+00    2.6279697376642952E+00    1.3563393547409904E+01
Ga    4.9639960401279515E+00    2.5080907089607796E+00    1.5515602247136222E+01
N    4.8564722966557383E+00    4.3751572911611909E+00    1.6250127273003528E+01
Ga    5.2991910778648874E+00    4.9035352594585353E+00    1.9621039677950396E+01
N    5.0028925843421899E+00    3.3140092128910523E+00    1.8337644461355598E+01
Ga    3.3257797405632759E+00    5.4414696771504687E+00    2.7250172387662652E-01
N    3.3230940488850043E+00    7.3110333167092660E+00    5.5864593261492157E-01
Ga    3.3517980530898530E+00    7.3271309901793247E+00    2.5868486343143471E+00
N    3.3255155987272205E+00    5.4417685456484355E+00    3.1823240118222711E+00
Ga    3.3260067191937446E+00    5.4425225624308355E+00    5.1900657385854476E+00
N    3.3270382402312646E+00    7.3128951587859694E+00    5.8009791779657451E+00
Ga    3.3287405044107667E+00    7.3133966435294049E+00    7.7964168486460244E+00
N    3.3270842683845916E+00    5.4417355330638530E+00    8.4017964493182067E+00
Ga    3.3273200689749154E+00    5.4446131871580485E+00    1.0390693325419853E+01
N    3.3336270660495617E+00    7.3113895530639939E+00    1.1007508795970457E+01
Ga    3.3416389273874829E+00    7.3234484118428504E+00    1.2998753943407268E+01
N    3.3323784528076557E+00    5.4400539998696633E+00    1.3617605817745062E+01
Ga    3.2707794581055909E+00    5.5038110777047917E+00    1.5580887610960124E+01
N    3.3471530670585437E+00    7.3079830055507173E+00    1.6245509028250765E+01
Ga    3.3485251021010796E+00    7.7279894094568160E+00    1.8210742123329862E+01
N    4.7260703123440804E+00    4.3490971271005376E+00    1.7587289898601199E+01
O    1.0628052459105619E+00    4.7139450736464488E+00    2.1456002007054895E+01
H    2.6974340610241376E-01    5.4608307650304218E+00    1.9820859889521849E+01
C    4.7280562548348598E-01    3.3489532186381648E+00    2.1864832675921793E+01
H   -5.8925294043718357E-01    3.3801765179516523E+00    2.1599144295303983E+01
H    9.7322023509279210E-01    2.5569078664155924E+00    2.1296526834485089E+01
H    6.0828439600004713E-01    3.2230630375068459E+00    2.2944667127123367E+01
O    3.7503076648389504E+00    5.2956910345099288E+00    2.0493733358627807E+01
H    1.9790397864055389E+00    4.5262765118381836E+00    2.1161967520887814E+01
C    3.7855887635472922E+00    6.3994274474107149E+00    2.1449762466609592E+01
H    4.1646375538602776E+00    6.0450399791207721E+00    2.2418049277799387E+01
H    4.3968763646471896E+00    7.2370848391028639E+00    2.1082277495120668E+01
H    2.7507304641012897E+00    6.7462139762088995E+00    2.1571984851310368E+01
     &END COORD
     &KIND C
       BASIS_SET DZVP-MOLOPT-SR-GTH-q4
       POTENTIAL GTH-PBE-q4
       &POTENTIAL
 2 2
  0.3384712400000000E+00 2 -0.8803673979999999E+01  0.1339210850000000E+01
 2
  0.3025757500000000E+00 1  0.9622486650000001E+01
  0.2915069400000000E+00 0
         # Potential name:  GTH-PBE-Q4  for symbol:  C
         # Potential read from the potential filename: GTH_POTENTIALS
       &END POTENTIAL
     &END KIND
     &KIND O
       BASIS_SET DZVP-MOLOPT-SR-GTH-q6
       POTENTIAL GTH-PBE-q6
       &POTENTIAL
 2 4
  0.2445543000000000E+00 2 -0.1666721480000000E+02  0.2487311320000000E+01
 2
  0.2209559200000000E+00 1  0.1833745811000000E+02
  0.2113324700000000E+00 0
         # Potential name:  GTH-PBE-Q6  for symbol:  O
         # Potential read from the potential filename: GTH_POTENTIALS
       &END POTENTIAL
     &END KIND
     &KIND H
       BASIS_SET DZVP-MOLOPT-SR-GTH-q1
       POTENTIAL GTH-PBE-q1
       &POTENTIAL
 1
  0.2000000000000000E+00 2 -0.4178900440000000E+01  0.7244633100000000E+00
 0
         # Potential name:  GTH-PBE-Q1  for symbol:  H
         # Potential read from the potential filename: GTH_POTENTIALS
       &END POTENTIAL
     &END KIND
     &KIND N
       BASIS_SET DZVP-MOLOPT-SR-GTH-q5
       POTENTIAL GTH-PBE-q5
       &POTENTIAL
 2 3
  0.2837905100000000E+00 2 -0.1241522559000000E+02  0.1868095920000000E+01
 2
  0.2554050000000000E+00 1  0.1363026257000000E+02
  0.2454945300000000E+00 0
         # Potential name:  GTH-PBE-Q5  for symbol:  N
         # Potential read from the potential filename: GTH_POTENTIALS
       &END POTENTIAL
     &END KIND
     &KIND Ga
       BASIS_SET DZVP-MOLOPT-SR-GTH-q13
       POTENTIAL GTH-PBE-q13
       &POTENTIAL
 2 1 10
  0.4900000000000000E+00 0
 3
  0.4167772300000000E+00 3  0.1047568975000000E+02 -0.4921768140000000E+01  0.8707055900000000E+00
  0.7770178090000000E+01 -0.2248152160000000E+01
  0.1784415450000000E+01
  0.5696265200000000E+00 2  0.1777985340000000E+01  0.1958597600000000E+00
 -0.2317443900000000E+00
  0.2381265000000000E+00 1 -0.1624868022000000E+02
         # Potential name:  GTH-PBE-Q13  for symbol:  GA
         # Potential read from the potential filename: GTH_POTENTIALS
       &END POTENTIAL
     &END KIND
     &TOPOLOGY
       COORD_FILE_NAME ../start-first.xyz
       COORD_FILE_FORMAT  XYZ
       NUMBER_OF_ATOMS  156
       MULTIPLE_UNIT_CELL  1 1 1
     &END TOPOLOGY
     &COLVAR
       &DISTANCE
         ATOMS  145 147
       &END DISTANCE
       &PRINT
       &END PRINT
     &END COLVAR
   &END SUBSYS
 &END FORCE_EVAL
