#p freq rpbepbe/cc-pvdz

i =       12, E =       -24.0810440354

0 1
 O                 -0.19088389    3.96335717   -0.80912607
 H                 -0.32602093    4.70441714   -1.42022951
 C                  0.00985330    2.77402211   -1.58940305
 H                  0.90290261    2.83869171   -2.23032571
 H                  0.15804616    1.95452683   -0.87466987
 H                 -0.86232846    2.53151139   -2.21633459

