 # Version information for this restart file 
 # current date 2019-06-24 10:46:35.716
 # current working dir /scratch/rzk/rzk/GaN-carbene/443-adatoms-both-2x2/02-Methanol/00-Gas/02-Standard
 # Program compiled at                              Sun Apr  7 00:48:11 EDT 2019
 # Program compiled on                          beluga2.int.ets1.calculquebec.ca
 # Program compiled for                        Beluga-Linux-x86-64-intel-openmpi
 # Source code revision number                                         svn:18619
 &GLOBAL
   PRINT_LEVEL  MEDIUM
   PROJECT_NAME TEST
   RUN_TYPE  GEO_OPT
 &END GLOBAL
 &MOTION
   &GEO_OPT
     MAX_ITER  500
     STEP_START_VAL  10
   &END GEO_OPT
 &END MOTION
 &FORCE_EVAL
   METHOD  QS
   STRESS_TENSOR  ANALYTICAL
   &DFT
     BASIS_SET_FILE_NAME BASIS_MOLOPT
     POTENTIAL_FILE_NAME GTH_POTENTIALS
     UKS  T
     &SCF
       MAX_SCF  80
       EPS_SCF     5.0000000000000004E-06
       &OT  T
         PRECONDITIONER  FULL_ALL
       &END OT
       &OUTER_SCF  T
         OPTIMIZER  NONE
         EPS_SCF     5.0000000000000004E-06
         MAX_SCF  4
       &END OUTER_SCF
       &PRINT
         &RESTART  OFF
           BACKUP_COPIES  1
           &EACH
             JUST_ENERGY  0
             QS_SCF  0
             MD  20
           &END EACH
         &END RESTART
       &END PRINT
     &END SCF
     &QS
       EPS_DEFAULT     1.0000000000000000E-14
       METHOD  GPW
     &END QS
     &MGRID
       NGRIDS  5
       CUTOFF     1.2000000000000000E+03
     &END MGRID
     &XC
       DENSITY_CUTOFF     1.0000000000000000E-10
       GRADIENT_CUTOFF     1.0000000000000000E-10
       TAU_CUTOFF     1.0000000000000000E-10
       &XC_FUNCTIONAL  NO_SHORTCUT
         &PBE  T
         &END PBE
       &END XC_FUNCTIONAL
       &VDW_POTENTIAL
         POTENTIAL_TYPE  PAIR_POTENTIAL
         &PAIR_POTENTIAL
           R_CUTOFF     1.0000000000000004E+01
           TYPE  DFTD3
           PARAMETER_FILE_NAME dftd3.dat
           REFERENCE_FUNCTIONAL PBE
           EPS_CN     9.9999999999999995E-07
           CALCULATE_C9_TERM  T
           REFERENCE_C9_TERM  T
           LONG_RANGE_CORRECTION  F
           VERBOSE_OUTPUT  F
         &END PAIR_POTENTIAL
       &END VDW_POTENTIAL
     &END XC
   &END DFT
   &SUBSYS
     &CELL
       A     1.2864472766435110E+01    0.0000000000000000E+00    0.0000000000000000E+00
       B    -6.4322363581020028E+00    1.1140960178524473E+01    0.0000000000000000E+00
       C     0.0000000000000000E+00    0.0000000000000000E+00    3.2000000000000000E+01
       MULTIPLE_UNIT_CELL  1 1 1
       &CELL_REF
         A     1.2982353780853531E+01    0.0000000000000000E+00    0.0000000000000000E+00
         B    -6.4911768904267628E+00    1.1243048175136114E+01    0.0000000000000000E+00
         C     0.0000000000000000E+00    0.0000000000000000E+00    3.2000000000000000E+01
         MULTIPLE_UNIT_CELL  1 1 1
       &END CELL_REF
     &END CELL
     &COORD
O   -1.9144192094609022E-01    3.9633759605403398E+00   -8.0892267761214232E-01
H   -3.2533493407961150E-01    4.7044026238527454E+00   -1.4205134103469665E+00
C    9.7041490439595864E-03    2.7738810995888632E+00   -1.5894194075224970E+00
H    9.0267933153817892E-01    2.8392657749475783E+00   -2.2302858374291477E+00
H    1.5834219233366037E-01    1.9543387796851972E+00   -8.7474665174235455E-01
H   -8.6249071277271927E-01    2.5312372776196703E+00   -2.2162171822490349E+00
     &END COORD
     &KIND C
       BASIS_SET DZVP-MOLOPT-SR-GTH-q4
       POTENTIAL GTH-PBE-q4
       &POTENTIAL
 2 2
  0.3384712400000000E+00 2 -0.8803673979999999E+01  0.1339210850000000E+01
 2
  0.3025757500000000E+00 1  0.9622486650000001E+01
  0.2915069400000000E+00 0
         # Potential name:  GTH-PBE-Q4  for symbol:  C
         # Potential read from the potential filename: GTH_POTENTIALS
       &END POTENTIAL
     &END KIND
     &KIND O
       BASIS_SET DZVP-MOLOPT-SR-GTH-q6
       POTENTIAL GTH-PBE-q6
       &POTENTIAL
 2 4
  0.2445543000000000E+00 2 -0.1666721480000000E+02  0.2487311320000000E+01
 2
  0.2209559200000000E+00 1  0.1833745811000000E+02
  0.2113324700000000E+00 0
         # Potential name:  GTH-PBE-Q6  for symbol:  O
         # Potential read from the potential filename: GTH_POTENTIALS
       &END POTENTIAL
     &END KIND
     &KIND H
       BASIS_SET DZVP-MOLOPT-SR-GTH-q1
       POTENTIAL GTH-PBE-q1
       &POTENTIAL
 1
  0.2000000000000000E+00 2 -0.4178900440000000E+01  0.7244633100000000E+00
 0
         # Potential name:  GTH-PBE-Q1  for symbol:  H
         # Potential read from the potential filename: GTH_POTENTIALS
       &END POTENTIAL
     &END KIND
     &TOPOLOGY
       NUMBER_OF_ATOMS  6
       MULTIPLE_UNIT_CELL  1 1 1
     &END TOPOLOGY
   &END SUBSYS
 &END FORCE_EVAL
