 # Version information for this restart file 
 # current date 2019-06-24 22:00:05.258
 # current working dir /scratch/rzk/rzk/GaN-carbene/443-adatoms-both-2x2/02-Methanol/01-O-GaTop
 # Program compiled at                              Sun Apr  7 00:48:11 EDT 2019
 # Program compiled on                          beluga2.int.ets1.calculquebec.ca
 # Program compiled for                        Beluga-Linux-x86-64-intel-openmpi
 # Source code revision number                                         svn:18619
 &GLOBAL
   PRINT_LEVEL  MEDIUM
   PROJECT_NAME TEST
   RUN_TYPE  GEO_OPT
 &END GLOBAL
 &MOTION
   &GEO_OPT
     MAX_ITER  500
     STEP_START_VAL  153
   &END GEO_OPT
 &END MOTION
 &FORCE_EVAL
   METHOD  QS
   STRESS_TENSOR  ANALYTICAL
   &DFT
     BASIS_SET_FILE_NAME BASIS_MOLOPT
     POTENTIAL_FILE_NAME GTH_POTENTIALS
     UKS  T
     SURFACE_DIPOLE_CORRECTION  T
     SURF_DIP_DIR  Z
     &SCF
       MAX_SCF  80
       EPS_SCF     5.0000000000000004E-06
       &OT  T
         PRECONDITIONER  FULL_ALL
       &END OT
       &OUTER_SCF  T
         OPTIMIZER  NONE
         EPS_SCF     5.0000000000000004E-06
         MAX_SCF  4
       &END OUTER_SCF
       &PRINT
         &RESTART  OFF
           BACKUP_COPIES  1
           &EACH
             JUST_ENERGY  0
             QS_SCF  0
             MD  20
           &END EACH
         &END RESTART
       &END PRINT
     &END SCF
     &QS
       EPS_DEFAULT     1.0000000000000000E-14
       METHOD  GPW
     &END QS
     &MGRID
       NGRIDS  5
       CUTOFF     1.2000000000000000E+03
     &END MGRID
     &XC
       DENSITY_CUTOFF     1.0000000000000000E-10
       GRADIENT_CUTOFF     1.0000000000000000E-10
       TAU_CUTOFF     1.0000000000000000E-10
       &XC_FUNCTIONAL  NO_SHORTCUT
         &PBE  T
         &END PBE
       &END XC_FUNCTIONAL
       &VDW_POTENTIAL
         POTENTIAL_TYPE  PAIR_POTENTIAL
         &PAIR_POTENTIAL
           R_CUTOFF     1.0000000000000005E+01
           TYPE  DFTD3
           PARAMETER_FILE_NAME dftd3.dat
           REFERENCE_FUNCTIONAL PBE
           EPS_CN     9.9999999999999995E-07
           CALCULATE_C9_TERM  T
           REFERENCE_C9_TERM  T
           LONG_RANGE_CORRECTION  F
           VERBOSE_OUTPUT  F
         &END PAIR_POTENTIAL
       &END VDW_POTENTIAL
     &END XC
   &END DFT
   &SUBSYS
     &CELL
       A     1.2864472766435110E+01    0.0000000000000000E+00    0.0000000000000000E+00
       B    -6.4322363581020028E+00    1.1140960178524475E+01    0.0000000000000000E+00
       C     0.0000000000000000E+00    0.0000000000000000E+00    3.2000000000000000E+01
       MULTIPLE_UNIT_CELL  1 1 1
       &CELL_REF
         A     1.2982353780853531E+01    0.0000000000000000E+00    0.0000000000000000E+00
         B    -6.4911768904267628E+00    1.1243048175136114E+01    0.0000000000000000E+00
         C     0.0000000000000000E+00    0.0000000000000000E+00    3.2000000000000000E+01
         MULTIPLE_UNIT_CELL  1 1 1
       &END CELL_REF
     &END CELL
     &COORD
N   -3.3636091440127344E-02    2.0301636666669443E+00    2.5500613878705258E+00
Ga   -2.7241746215274573E-02    5.3929512349227868E-02    2.8801712739913783E+00
N   -3.1832094790729820E-02    4.8769953715814517E-02    5.0330478749655585E+00
Ga   -3.2945943236468801E-02    1.8757313436130669E+00    5.8174049094319287E+00
N   -3.1163521639282349E-02    1.8934429418131997E+00    7.8125706566766047E+00
Ga   -3.0797827311165343E-02    4.7383373254709406E-02    8.4555426724109832E+00
N   -3.1130019733254875E-02    4.7930708640723255E-02    1.0429521465188516E+01
Ga   -3.2011890093986972E-02    1.8894957138862656E+00    1.1077151456137999E+01
N   -3.2429341074108400E-02    1.8705939546674815E+00    1.3069469675293989E+01
Ga   -4.1182181323765020E-02    5.4893188249570839E-02    1.3868572759131691E+01
N   -4.3600400409547095E-02    5.5795784907827099E-02    1.6077277054771425E+01
Ga   -3.4098500129271798E-02    2.1138100522017305E+00    1.6508361739430487E+01
Ga   -2.8436051596742458E-02    3.7332732335923415E+00    1.5252819469130150E+00
N   -1.5146977547664464E+00    4.6146606953287268E+00    2.5153812742082833E+00
Ga   -1.7345598503579081E+00    2.7724715318419793E+00    3.3157462731450313E+00
N   -1.6431599937182062E+00    2.8320580550953909E+00    5.2751309781376996E+00
Ga   -1.6622727458745159E+00    4.7053587715381857E+00    5.8139318480882771E+00
N   -1.6487727819213676E+00    4.6970499092583582E+00    7.8106237360104638E+00
Ga   -1.6304331027433361E+00    2.8397815181214323E+00    8.4482711941724933E+00
N   -1.6289108135545671E+00    2.8402244086675790E+00    1.0439973068530415E+01
Ga   -1.6536056234476602E+00    4.6985737310282216E+00    1.1077191310461000E+01
N   -1.6704881597506129E+00    4.7077627002136744E+00    1.3069626758222823E+01
Ga   -1.6297870257500939E+00    2.8398367495697312E+00    1.3630944400228946E+01
N   -1.6569411865110271E+00    2.8237660363414800E+00    1.5588500643371114E+01
Ga   -1.4608093670677926E+00    4.5847099664154358E+00    1.6508282815744369E+01
N   -2.5812314136671746E-02    3.7657334325411629E+00    1.7654776039506242E+01
N   -3.2450941470448535E+00    7.5947491461735659E+00    2.5290148325454798E+00
Ga   -3.2374779034567633E+00    5.6181660618025315E+00    2.8522072295395300E+00
N   -3.2419986011764830E+00    5.6146439293195360E+00    5.0217503392159690E+00
Ga   -3.2458641515570665E+00    7.4457560700191090E+00    5.8021471960124069E+00
N   -3.2473497631677408E+00    7.4640154120314159E+00    7.8029191407378491E+00
Ga   -3.2478294928589797E+00    5.6195298893925889E+00    8.4539989128994222E+00
N   -3.2479651327748496E+00    5.6192747630363113E+00    1.0428494009095422E+01
Ga   -3.2478932555899238E+00    7.4577830890976688E+00    1.1076802180100561E+01
N   -3.2480012106398428E+00    7.4375106400266144E+00    1.3076685181568381E+01
Ga   -3.2478526495907434E+00    5.6075206167261751E+00    1.3869359032672495E+01
N   -3.2478311590712754E+00    5.6047842446323850E+00    1.6077045237781672E+01
Ga   -3.2476766594606929E+00    7.6040406438979309E+00    1.6441365054240787E+01
Ga   -3.2434405605056305E+00    9.3250033008528099E+00    1.4432309829637351E+00
N   -4.7508651633219490E+00    1.0203614552582939E+01    2.5246579784760623E+00
Ga   -4.9445765964098536E+00    8.3518968733286822E+00    3.2843737249473244E+00
N   -4.8551641359775388E+00    8.4032132000696258E+00    5.2549437851541345E+00
Ga   -4.8777590501154915E+00    1.0274122268487558E+01    5.8060858094518348E+00
N   -4.8644100759085864E+00    1.0266439435385175E+01    7.8051369496972756E+00
Ga   -4.8447591257543596E+00    8.4093304219352518E+00    8.4444465485601956E+00
N   -4.8441880345551311E+00    8.4106658050282626E+00    1.0440575322688877E+01
Ga   -4.8712372462285680E+00    1.0269375876134928E+01    1.1077359102917745E+01
N   -4.8892253656701650E+00    1.0280193162201218E+01    1.3076833144664306E+01
Ga   -4.8450024544500376E+00    8.4106403707148356E+00    1.3622824814109725E+01
N   -4.8611902374553884E+00    8.4018421916693988E+00    1.5601021230567023E+01
Ga   -4.7432381597802262E+00    1.0196671886107870E+01    1.6441368735984156E+01
N   -3.2492453860209483E+00    9.3302671983374648E+00    1.7567737371982481E+01
N    3.1699813544915902E+00    1.9097201552904541E+00    2.6064281675565244E+00
Ga    3.1828724389232015E+00    1.5370966178702311E-01    3.2851693662459223E+00
N    3.1850114625480734E+00    5.3297142919601498E-02    5.2541178029950864E+00
Ga    3.1872553840310838E+00    1.9019504845224851E+00    5.8954258954456336E+00
N    3.1863207228025261E+00    1.9041598861237261E+00    7.8661820998404952E+00
Ga    3.1848425879994333E+00    3.5531902282131309E-02    8.4490642652435604E+00
N    3.1844277213052266E+00    3.5298696183878965E-02    1.0443510147195004E+01
Ga    3.1843440920185637E+00    1.9060736332177897E+00    1.1036194923354044E+01
N    3.1843612089044981E+00    1.9028285986832085E+00    1.3009660052297001E+01
Ga    3.1842369572586593E+00    3.6160717606318879E-02    1.3622495885821195E+01
N    3.1846617836068232E+00    5.4946929404110258E-02    1.5600283097191317E+01
Ga    3.1838280735829265E+00    1.9077943590097912E+00    1.5870579987486376E+01
N    1.4726707307855440E+00    4.6260840132282359E+00    2.5345428870045899E+00
Ga    1.6693157756859720E+00    2.7832394088066161E+00    3.3299913810101165E+00
N    1.5816833883326373E+00    2.8313423013567482E+00    5.2819268505987571E+00
Ga    1.5993108613878158E+00    4.7068078377543747E+00    5.8170053934928374E+00
N    1.5870106297426061E+00    4.6972607458864575E+00    7.8119024727593995E+00
Ga    1.5674199316343831E+00    2.8398067118571415E+00    8.4502345301171360E+00
N    1.5661701402840096E+00    2.8410164034026995E+00    1.0442970519479944E+01
Ga    1.5922724624089133E+00    4.7000571757652461E+00    1.1082859600291611E+01
N    1.6085356678182827E+00    4.7095482927038956E+00    1.3075927521612845E+01
Ga    1.5637477050664796E+00    2.8406616032273426E+00    1.3632601761472486E+01
N    1.5923779733060930E+00    2.8174671392477597E+00    1.5591035014573988E+01
Ga    1.4073633099931910E+00    4.5930542705886372E+00    1.6508219303781747E+01
N   -3.2575982051075390E-02    7.4729554784538719E+00    2.6227680252189516E+00
Ga   -2.2373182967902604E-02    5.7277673064145800E+00    3.3004197418954400E+00
N   -3.0989603518783566E-02    5.6215212017107845E+00    5.2659995599809113E+00
Ga   -3.3654770142772406E-02    7.4754774039118699E+00    5.8877124294853020E+00
N   -3.1493147254194824E-02    7.4764348080143286E+00    7.8619668897673867E+00
Ga   -3.1395087296535451E-02    5.6087801065010590E+00    8.4503399545682001E+00
N   -3.0634726915672771E-02    5.6070114608410933E+00    1.0443092991440075E+01
Ga   -3.1665239594803406E-02    7.4760707135564246E+00    1.1035733547616607E+01
N   -3.4129862007872103E-02    7.4776629132953358E+00    1.3009506825156608E+01
Ga   -3.2376750033418465E-02    5.6051879443943964E+00    1.3632643802014067E+01
N   -3.7751843816667345E-02    5.6418555711418552E+00    1.5591185186469273E+01
Ga   -3.0819326760113522E-02    7.4747890215703947E+00    1.5871490457300071E+01
N   -1.7457916455601978E+00    1.0202260841154020E+01    2.5295878110747734E+00
Ga   -1.5475744035188761E+00    8.3505819395383050E+00    3.2886228069031183E+00
N   -1.6372566148219396E+00    8.4038997169611562E+00    5.2579658787843035E+00
Ga   -1.6158280547692576E+00    1.0274941286894801E+01    5.8055920016169198E+00
N   -1.6311643533463349E+00    1.0266355918044317E+01    7.8054901047242504E+00
Ga   -1.6499733530287128E+00    8.4097079187597839E+00    8.4454644742039271E+00
N   -1.6513726061139808E+00    8.4108715089047337E+00    1.0441540771734314E+01
Ga   -1.6239319211925105E+00    1.0269940050076546E+01    1.1076870548325022E+01
N   -1.6066557700507569E+00    1.0280397536535300E+01    1.3076489604693174E+01
Ga   -1.6508381040918920E+00    8.4106644049031924E+00    1.3622632432045638E+01
N   -1.6343589224618025E+00    8.4021582290249519E+00    1.5600634521389328E+01
Ga   -1.7535583201072678E+00    1.0195958002151512E+01    1.6441426668828324E+01
N    6.3976443582070699E+00    2.0265588165366042E+00    2.5324192941006971E+00
Ga    6.3950171566555261E+00    4.5179385198162607E-02    2.8661417285827389E+00
N    6.4020543203317066E+00    4.8135253633956473E-02    5.0311150519597820E+00
Ga    6.3993625644054388E+00    1.8756903942398913E+00    5.8081607939807141E+00
N    6.3994880474345122E+00    1.8950052079919939E+00    7.8060472880309959E+00
Ga    6.3995493637453107E+00    4.8612515346464297E-02    8.4531276164843447E+00
N    6.4004903217637947E+00    4.8709926761700807E-02    1.0428075721471812E+01
Ga    6.4009619728019800E+00    1.8895367354365420E+00    1.1077033321374159E+01
N    6.4010559856099327E+00    1.8707465360582058E+00    1.3069422183197453E+01
Ga    6.4095507881950002E+00    5.4636982160837053E-02    1.3868251534841571E+01
N    6.4118249428149134E+00    5.5531542023937480E-02    1.6077290563994769E+01
Ga    6.4024239794308144E+00    2.1125891219803536E+00    1.6506429391706238E+01
Ga    6.4062309581676331E+00    3.7626189699167458E+00    1.4914383081748299E+00
N    4.8951778418262339E+00    4.6279162717504567E+00    2.5314110099619707E+00
Ga    4.6906993862676174E+00    2.7744104416432158E+00    3.2910741377779122E+00
N    4.7881658940508878E+00    2.8305739629860946E+00    5.2555803578201106E+00
Ga    4.7708675598818004E+00    4.7025671136670191E+00    5.8090963469729795E+00
N    4.7832991853006019E+00    4.6954771233214974E+00    7.8055036698430387E+00
Ga    4.8033353541964603E+00    2.8401174122959691E+00    8.4507033311944753E+00
N    4.8031871441378238E+00    2.8412356936699492E+00    1.0442904206194981E+01
Ga    4.7777608233898166E+00    4.7001638519696778E+00    1.1082866131368176E+01
N    4.7602169434749415E+00    4.7097534995967862E+00    1.3076055793812719E+01
Ga    4.8045519843059328E+00    2.8407310572129023E+00    1.3632270856999678E+01
N    4.7758618287775336E+00    2.8170625144302721E+00    1.5591362486585833E+01
Ga    4.9588673255335580E+00    4.5946835972023470E+00    1.6506125209268710E+01
N    6.3925624508432968E+00    3.7664915904883185E+00    1.7649482730403392E+01
N    3.1844033614000957E+00    7.5976974891106854E+00    2.5426398672005401E+00
Ga    3.1761351421077268E+00    5.6156715749809276E+00    2.8942345251158956E+00
N    3.1858703843069853E+00    5.6192289481909734E+00    5.0347146791451074E+00
Ga    3.1859891883848790E+00    7.4491328519870876E+00    5.8126993533525777E+00
N    3.1852482583463990E+00    7.4645206043525141E+00    7.8082950959510873E+00
Ga    3.1857537106784592E+00    5.6191317836396069E+00    8.4574496828789218E+00
N    3.1854251071607287E+00    5.6191052835575315E+00    1.0430526630682998E+01
Ga    3.1847783517004693E+00    7.4577554769337056E+00    1.1082635306417645E+01
N    3.1844152419440412E+00    7.4385447723927927E+00    1.3076450923494392E+01
Ga    3.1836354243991494E+00    5.6184008873945510E+00    1.3891659833262816E+01
N    3.1840027082061622E+00    5.6184517236578762E+00    1.6080664349258964E+01
Ga    3.1845750437136537E+00    7.6633084477275322E+00    1.6501261647969166E+01
Ga    3.1838405619975934E+00    9.3317435518373681E+00    1.5122381705448658E+00
N    1.6827568756145301E+00    1.0199565257428210E+01    2.5380158563873452E+00
Ga    1.4735245466918594E+00    8.3466146576495621E+00    3.3026379320059118E+00
N    1.5756060538447541E+00    8.4030745942193246E+00    5.2652074210355577E+00
Ga    1.5508178094686642E+00    1.0275287745157840E+01    5.8122644220766801E+00
N    1.5667555284972829E+00    1.0266035524140561E+01    7.8090232136034050E+00
Ga    1.5863523389984748E+00    8.4094646849754753E+00    8.4490889810796759E+00
N    1.5879143008764152E+00    8.4096042051669748E+00    1.0442323681721321E+01
Ga    1.5627240688667414E+00    1.0269239192627554E+01    1.1076597570519560E+01
N    1.5461468872191009E+00    1.0279337015490743E+01    1.3069669766572144E+01
Ga    1.5879701864353293E+00    8.4117848895164151E+00    1.3631661503870367E+01
N    1.5532496825002258E+00    8.3989750605446591E+00    1.5591870217682878E+01
Ga    1.7533305987086811E+00    1.0161492854851591E+01    1.6501742510887720E+01
N    3.1841000127763186E+00    9.3224886752099838E+00    1.7640609012996105E+01
N    9.6197789140678633E+00    1.9066886232795057E+00    2.6248055071495227E+00
Ga    9.6161692604983227E+00    1.6394063184958688E-01    3.3028702140170951E+00
N    9.6170061525771668E+00    4.9450138880534379E-02    5.2655680833602023E+00
Ga    9.6151098805317492E+00    1.9052424400720009E+00    5.8922757431658308E+00
N    9.6156836057710802E+00    1.9045670862977948E+00    7.8634844104803650E+00
Ga    9.6164352991397735E+00    3.6485063156036619E-02    8.4484821709176785E+00
N    9.6169899630040714E+00    3.5760558290782118E-02    1.0439968871113980E+01
Ga    9.6163514496376692E+00    1.9058726883535464E+00    1.1033746565588450E+01
N    9.6164464990486280E+00    1.9054514553707971E+00    1.3003507631575918E+01
Ga    9.6164644880293935E+00    3.7564374352373538E-02    1.3629828412644995E+01
N    9.6163929517345501E+00    6.8520950853187809E-02    1.5588567645064307E+01
Ga    9.6166170134870068E+00    1.9064080891318622E+00    1.5867566651690865E+01
N    7.9055185648441020E+00    4.6278390307560038E+00    2.5328503118136321E+00
Ga    8.1061778094851498E+00    2.7757438761546793E+00    3.2976039500700725E+00
N    8.0090949917580048E+00    2.8315679364215378E+00    5.2615909600238773E+00
Ga    8.0367919634361193E+00    4.7044880917900622E+00    5.8053103112994124E+00
N    8.0190782712933952E+00    4.6964717414427763E+00    7.8038606151681131E+00
Ga    7.9980411062534040E+00    2.8398914787791618E+00    8.4463516932546536E+00
N    7.9972181754418488E+00    2.8406856466447867E+00    1.0438481482303573E+01
Ga    8.0224286880372428E+00    4.6988617485577606E+00    1.1076674562527652E+01
N    8.0387877380933226E+00    4.7077862672864033E+00    1.3069294667421989E+01
Ga    7.9987657407593868E+00    2.8396770541839071E+00    1.3630587137028522E+01
N    8.0253578947501101E+00    2.8238383145928636E+00    1.5588319775188280E+01
Ga    7.8303886874971216E+00    4.5853121301067405E+00    1.6506470332077324E+01
N    6.4036287705931079E+00    7.4763524708429303E+00    2.6182747437826590E+00
Ga    6.4031730117076240E+00    5.7328062570702771E+00    3.2935440709953485E+00
N    6.4021747667461719E+00    5.6194555851644239E+00    5.2584897865954687E+00
Ga    6.4047494874024595E+00    7.4758687452211134E+00    5.8835346123061756E+00
N    6.4015817216362203E+00    7.4756197971961580E+00    7.8582070678841953E+00
Ga    6.4012435632141900E+00    5.6075786876629898E+00    8.4458534629299589E+00
N    6.4000325629616812E+00    5.6067118911656975E+00    1.0439706474768153E+01
Ga    6.4007145354430257E+00    7.4756368995737947E+00    1.1034470647875345E+01
N    6.4029692306030164E+00    7.4774569370850479E+00    1.3008405825344644E+01
Ga    6.4008893361453696E+00    5.6057384261544021E+00    1.3632488249053690E+01
N    6.4068312938740233E+00    5.6423421621106620E+00    1.5591326760273358E+01
Ga    6.3995155091564744E+00    7.4753414051859917E+00    1.5872185365998998E+01
N    4.6866137075706380E+00    1.0200520315554604E+01    2.5388888240577678E+00
Ga    4.8963171698599606E+00    8.3464261954029233E+00    3.2998553388897283E+00
N    4.7957422365807547E+00    8.4029559247982331E+00    5.2629337592366134E+00
Ga    4.8179585081603005E+00    1.0274501848361218E+01    5.8122029877918360E+00
N    4.8025601620413108E+00    1.0265852945727906E+01    7.8084649298768447E+00
Ga    4.7838655023257397E+00    8.4088516596387564E+00    8.4481955955038739E+00
N    4.7816454282937713E+00    8.4096738260378903E+00    1.0441460678755350E+01
Ga    4.8064704403375362E+00    1.0269123755323760E+01    1.1077173034768343E+01
N    4.8223988388807317E+00    1.0279133373860766E+01    1.3069971771606813E+01
Ga    4.7810343263058002E+00    8.4114436196094253E+00    1.3631542123389039E+01
N    4.8155082123460469E+00    8.3991024248327406E+00    1.5591474368990943E+01
Ga    4.6149502519019219E+00    1.0161524745872949E+01    1.6501659117451510E+01
O    1.0593900882776013E+00    3.4598763537448520E+00   -2.6054412379359959E-01
H    1.8228899281658089E+00    4.0014572527331200E+00    3.8071982418353280E-02
C    1.5550228941804418E+00    2.0741508364405434E+00   -4.4991809321487375E-01
H    2.2234383839946679E+00    1.8028548969511706E+00    3.8424917251010426E-01
H    6.7106453818021283E-01    1.4292815897105813E+00   -4.5459523040256433E-01
H    2.0643310772495416E+00    2.0359180344796197E+00   -1.4192294651891653E+00
     &END COORD
     &KIND C
       BASIS_SET DZVP-MOLOPT-SR-GTH-q4
       POTENTIAL GTH-PBE-q4
       &POTENTIAL
2 2
0.3384712400000000E+00 2 -0.8803673979999999E+01  0.1339210850000000E+01
2
0.3025757500000000E+00 1  0.9622486650000001E+01
0.2915069400000000E+00 0
       &END POTENTIAL
     &END KIND
     &KIND O
       BASIS_SET DZVP-MOLOPT-SR-GTH-q6
       POTENTIAL GTH-PBE-q6
       &POTENTIAL
2 4
0.2445543000000000E+00 2 -0.1666721480000000E+02  0.2487311320000000E+01
2
0.2209559200000000E+00 1  0.1833745811000000E+02
0.2113324700000000E+00 0
       &END POTENTIAL
     &END KIND
     &KIND H
       BASIS_SET DZVP-MOLOPT-SR-GTH-q1
       POTENTIAL GTH-PBE-q1
       &POTENTIAL
1
0.2000000000000000E+00 2 -0.4178900440000000E+01  0.7244633100000000E+00
0
       &END POTENTIAL
     &END KIND
     &KIND N
       BASIS_SET DZVP-MOLOPT-SR-GTH
       POTENTIAL GTH-PBE-q5
       &POTENTIAL
2 3
0.2837905100000000E+00 2 -0.1241522559000000E+02  0.1868095920000000E+01
2
0.2554050000000000E+00 1  0.1363026257000000E+02
0.2454945300000000E+00 0
       &END POTENTIAL
     &END KIND
     &KIND Ga
       BASIS_SET DZVP-MOLOPT-SR-GTH
       POTENTIAL GTH-PBE-q13
       &POTENTIAL
2 1 10
0.4900000000000000E+00 0
3
0.4167772300000000E+00 3  0.1047568975000000E+02 -0.4921768140000000E+01  0.8707055900000000E+00
0.7770178090000000E+01 -0.2248152160000000E+01
0.1784415450000000E+01
0.5696265200000000E+00 2  0.1777985340000000E+01  0.1958597600000000E+00
-0.2317443900000000E+00
0.2381265000000000E+00 1 -0.1624868022000000E+02
       &END POTENTIAL
     &END KIND
     &TOPOLOGY
       NUMBER_OF_ATOMS  206
       MULTIPLE_UNIT_CELL  1 1 1
     &END TOPOLOGY
   &END SUBSYS
 &END FORCE_EVAL
