 # Version information for this restart file 
 # current date 2019-06-24 15:43:11.622
 # current working dir /scratch/rzk/rzk/GaN-carbene/443-adatoms-both-2x2/02-Methanol/01-O-GaTop
 # Program compiled at                              Sun Apr  7 00:48:11 EDT 2019
 # Program compiled on                          beluga2.int.ets1.calculquebec.ca
 # Program compiled for                        Beluga-Linux-x86-64-intel-openmpi
 # Source code revision number                                         svn:18619
 &GLOBAL
   PRINT_LEVEL  MEDIUM
   PROJECT_NAME TEST
   RUN_TYPE  GEO_OPT
 &END GLOBAL
 &MOTION
   &GEO_OPT
     MAX_ITER  500
     STEP_START_VAL  68
   &END GEO_OPT
 &END MOTION
 &FORCE_EVAL
   METHOD  QS
   STRESS_TENSOR  ANALYTICAL
   &DFT
     BASIS_SET_FILE_NAME BASIS_MOLOPT
     POTENTIAL_FILE_NAME GTH_POTENTIALS
     UKS  T
     SURFACE_DIPOLE_CORRECTION  T
     SURF_DIP_DIR  Z
     &SCF
       MAX_SCF  80
       EPS_SCF     5.0000000000000004E-06
       &OT  T
         PRECONDITIONER  FULL_ALL
       &END OT
       &OUTER_SCF  T
         OPTIMIZER  NONE
         EPS_SCF     5.0000000000000004E-06
         MAX_SCF  4
       &END OUTER_SCF
       &PRINT
         &RESTART  OFF
           BACKUP_COPIES  1
           &EACH
             JUST_ENERGY  0
             QS_SCF  0
             MD  20
           &END EACH
         &END RESTART
       &END PRINT
     &END SCF
     &QS
       EPS_DEFAULT     1.0000000000000000E-14
       METHOD  GPW
     &END QS
     &MGRID
       NGRIDS  5
       CUTOFF     1.2000000000000000E+03
     &END MGRID
     &XC
       DENSITY_CUTOFF     1.0000000000000000E-10
       GRADIENT_CUTOFF     1.0000000000000000E-10
       TAU_CUTOFF     1.0000000000000000E-10
       &XC_FUNCTIONAL  NO_SHORTCUT
         &PBE  T
         &END PBE
       &END XC_FUNCTIONAL
       &VDW_POTENTIAL
         POTENTIAL_TYPE  PAIR_POTENTIAL
         &PAIR_POTENTIAL
           R_CUTOFF     1.0000000000000005E+01
           TYPE  DFTD3
           PARAMETER_FILE_NAME dftd3.dat
           REFERENCE_FUNCTIONAL PBE
           EPS_CN     9.9999999999999995E-07
           CALCULATE_C9_TERM  T
           REFERENCE_C9_TERM  T
           LONG_RANGE_CORRECTION  F
           VERBOSE_OUTPUT  F
         &END PAIR_POTENTIAL
       &END VDW_POTENTIAL
     &END XC
   &END DFT
   &SUBSYS
     &CELL
       A     1.2864472766435110E+01    0.0000000000000000E+00    0.0000000000000000E+00
       B    -6.4322363581020028E+00    1.1140960178524475E+01    0.0000000000000000E+00
       C     0.0000000000000000E+00    0.0000000000000000E+00    3.2000000000000000E+01
       MULTIPLE_UNIT_CELL  1 1 1
       &CELL_REF
         A     1.2982353780853531E+01    0.0000000000000000E+00    0.0000000000000000E+00
         B    -6.4911768904267628E+00    1.1243048175136114E+01    0.0000000000000000E+00
         C     0.0000000000000000E+00    0.0000000000000000E+00    3.2000000000000000E+01
         MULTIPLE_UNIT_CELL  1 1 1
       &END CELL_REF
     &END CELL
     &COORD
N   -3.1085165443861505E-02    2.0451603795048316E+00    2.5397433033075867E+00
Ga   -2.6783303611749843E-02    7.0167681149296210E-02    2.8750025949698759E+00
N   -2.0884827188813331E-02    5.4722895971367584E-02    5.0175572275994371E+00
Ga   -1.9599526940158849E-02    1.8824172034340756E+00    5.8154088925771870E+00
N   -1.6827108748241757E-02    1.8954089977667947E+00    7.8077676354361563E+00
Ga   -1.4925237176793135E-02    4.9232227020812966E-02    8.4542030797020367E+00
N   -1.7236596991123426E-02    4.8863688539613689E-02    1.0423878918062030E+01
Ga   -1.7536732641863617E-02    1.8889109202292795E+00    1.1082825987534173E+01
N   -2.2382285718759963E-02    1.8740692379926442E+00    1.3070821917274259E+01
Ga   -2.1499391464026383E-02    5.6421679510187554E-02    1.3881238904713911E+01
N   -2.5313559873723367E-02    6.2853829805854605E-02    1.6075471044145345E+01
Ga   -2.8023724637482750E-02    2.1198241494853529E+00    1.6499699109837330E+01
Ga   -3.8625187315202501E-02    3.7606346988784001E+00    1.5365949498870479E+00
N   -1.5139451511875082E+00    4.6286580593926567E+00    2.5248317109382747E+00
Ga   -1.7293868280736275E+00    2.7815381293351678E+00    3.3223768948563706E+00
N   -1.6324288292655953E+00    2.8372912724567310E+00    5.2770613515396798E+00
Ga   -1.6489654478897688E+00    4.7100371541865744E+00    5.8182606967839838E+00
N   -1.6338325299841383E+00    4.6988294026762345E+00    7.8105717287007383E+00
Ga   -1.6144166858412707E+00    2.8414950402147436E+00    8.4560449897023311E+00
N   -1.6140528410475588E+00    2.8427899153756289E+00    1.0442883818547191E+01
Ga   -1.6416137442122751E+00    4.7035650176228607E+00    1.1086382154026861E+01
N   -1.6633770423736072E+00    4.7176522598946828E+00    1.3071986361116336E+01
Ga   -1.6212360419450178E+00    2.8474890812873470E+00    1.3632650764382930E+01
N   -1.6573555529600879E+00    2.8349396413145778E+00    1.5587591240898092E+01
Ga   -1.4691975216405655E+00    4.6097828681936477E+00    1.6498327442339718E+01
N   -2.8554741359676155E-02    3.7831239517821706E+00    1.7625344626519041E+01
N   -3.2374419105028913E+00    7.6053818663671651E+00    2.5158477395272407E+00
Ga   -3.2299793752870114E+00    5.6227333946333546E+00    2.8605922176721985E+00
N   -3.2313003321644098E+00    5.6213086720597163E+00    5.0147352132668228E+00
Ga   -3.2340617225072772E+00    7.4521179824514885E+00    5.7964791629170023E+00
N   -3.2324833120965488E+00    7.4658004161061440E+00    7.7915523819581782E+00
Ga   -3.2314090890775979E+00    5.6230293938856519E+00    8.4565808869805004E+00
N   -3.2345587512309679E+00    5.6226912829219975E+00    1.0424967934326673E+01
Ga   -3.2350006690813666E+00    7.4628171875066824E+00    1.1079262100026625E+01
N   -3.2385815303432932E+00    7.4459916743459189E+00    1.3068629226573480E+01
Ga   -3.2384986448299649E+00    5.6290296299347027E+00    1.3885363450777264E+01
N   -3.2435375400419812E+00    5.6365760967549887E+00    1.6072340295422418E+01
Ga   -3.2429249525800699E+00    7.6763202953211183E+00    1.6490033139083319E+01
Ga   -3.2332759039244996E+00    9.3335273298854382E+00    1.4668574099143077E+00
N   -4.7438001549923525E+00    1.0214057629510163E+01    2.5020473284939198E+00
Ga   -4.9438420902961795E+00    8.3593979187802816E+00    3.2755271870613272E+00
N   -4.8431649109489090E+00    8.4095940178055280E+00    5.2393469009256846E+00
Ga   -4.8653737212234924E+00    1.0280076559233311E+01    5.7956130901484730E+00
N   -4.8501964687833290E+00    1.0269159639595346E+01    7.7897981825232172E+00
Ga   -4.8302688064513015E+00    8.4118769692763138E+00    8.4368421768505453E+00
N   -4.8305854242114838E+00    8.4133149355311190E+00    1.0428449894823846E+01
Ga   -4.8562652395855430E+00    1.0270211732466372E+01    1.1076868450151700E+01
N   -4.8775981585069870E+00    1.0286082877453147E+01    1.3067460882408351E+01
Ga   -4.8355526245141371E+00    8.4172364455500936E+00    1.3630046026162621E+01
N   -4.8657989535644992E+00    8.4078738472717127E+00    1.5587321305170033E+01
Ga   -4.6919058836421694E+00    1.0184436672588356E+01    1.6490164420380232E+01
N   -3.2446258699839365E+00    9.3539937022776733E+00    1.7632443852480769E+01
N    3.1763757228354468E+00    1.9234605447467186E+00    2.5818890273386867E+00
Ga    3.1889754870583817E+00    1.7296627480725127E-01    3.2699270489133911E+00
N    3.1959052583284442E+00    5.9367368570151506E-02    5.2342858539796779E+00
Ga    3.1951279392474916E+00    1.9067747679544969E+00    5.8897857829701215E+00
N    3.1981082575587934E+00    1.9054263426154237E+00    7.8561388520272866E+00
Ga    3.1989597695442002E+00    3.6612842576983294E-02    8.4430571692889611E+00
N    3.1973513241946954E+00    3.6508772050919902E-02    1.0432462071546734E+01
Ga    3.1972682352822606E+00    1.9068393658013114E+00    1.1031999295966813E+01
N    3.1944222958999191E+00    1.9113557889460580E+00    1.2998192325110637E+01
Ga    3.1939499787125807E+00    4.3505456165494810E-02    1.3630017969300546E+01
N    3.1916667464855655E+00    7.9272392449485793E-02    1.5588662161576757E+01
Ga    3.1914824560985680E+00    1.9173719071265358E+00    1.5869716154060935E+01
N    1.4708444462138559E+00    4.6367646325947254E+00    2.5232440324227770E+00
Ga    1.6756340255792130E+00    2.7938173126181343E+00    3.3135614560388786E+00
N    1.5924503096245262E+00    2.8369245360975559E+00    5.2678778373472444E+00
Ga    1.6096840636627994E+00    4.7100394888346120E+00    5.8161190101034332E+00
N    1.5998301192343805E+00    4.6987167833598775E+00    7.8075909755890542E+00
Ga    1.5805265281360128E+00    2.8414779136397517E+00    8.4523064467825151E+00
N    1.5781641627531118E+00    2.8430082396587077E+00    1.0440117548634396E+01
Ga    1.6054030163712913E+00    4.7030426979583719E+00    1.1086909051465009E+01
N    1.6184447826552877E+00    4.7173635958829880E+00    1.3072451835439329E+01
Ga    1.5756257961303206E+00    2.8475651723065365E+00    1.3632462699540252E+01
N    1.6018462048365525E+00    2.8346392447607842E+00    1.5588794586093695E+01
Ga    1.4125066590587976E+00    4.6089374450094214E+00    1.6498233618875691E+01
N   -2.1910703982095041E-02    7.4796930020947112E+00    2.6077273208881535E+00
Ga   -1.5860196533709986E-02    5.7410509812651256E+00    3.3074487397892263E+00
N   -2.0355901032295710E-02    5.6293619813576372E+00    5.2662072285802255E+00
Ga   -2.2033460878701085E-02    7.4818567273384824E+00    5.8906511166087849E+00
N   -1.8333298221644929E-02    7.4788470867198518E+00    7.8593415402876117E+00
Ga   -1.7066969048309674E-02    5.6102476696843899E+00    8.4557028997900350E+00
N   -1.7743711516219455E-02    5.6097611016675897E+00    1.0443586341729384E+01
Ga   -1.9457722518014010E-02    7.4812448864312246E+00    1.1036996971465308E+01
N   -2.3023588713937931E-02    7.4857934762691709E+00    1.3003174372407651E+01
Ga   -2.2497547776090619E-02    5.6159225971696554E+00    1.3633905599702031E+01
N   -2.7047287948730174E-02    5.6584388205250287E+00    1.5589802145781285E+01
Ga   -2.7294316385317416E-02    7.4932139119453884E+00    1.5869355499588508E+01
N   -1.7383429184765742E+00    1.0211047620019579E+01    2.5119992595423151E+00
Ga   -1.5317112500594239E+00    8.3557362014892060E+00    3.2822832268234401E+00
N   -1.6250749790278523E+00    8.4085823628822212E+00    5.2454058035374835E+00
Ga   -1.6062559561749719E+00    1.0279536126229502E+01    5.7955594339296326E+00
N   -1.6172439276408632E+00    1.0268416785508006E+01    7.7908385760783911E+00
Ga   -1.6373159899361240E+00    8.4130642170653349E+00    8.4438342141706944E+00
N   -1.6392540746861810E+00    8.4139289262763590E+00    1.0433730728580487E+01
Ga   -1.6127998222121795E+00    1.0271540767638026E+01    1.1079821812395005E+01
N   -1.5983308258424824E+00    1.0287031855867658E+01    1.3067875665724737E+01
Ga   -1.6429372332175087E+00    8.4189444547645671E+00    1.3632506898325898E+01
N   -1.6206585463627794E+00    8.4106270741368210E+00    1.5589499052832343E+01
Ga   -1.7930051860043410E+00    1.0184655287941046E+01    1.6492789303225887E+01
N    6.4060719279493172E+00    2.0389456819395853E+00    2.5313885462547780E+00
Ga    6.4092699696789008E+00    5.7946280684073523E-02    2.8657213073099461E+00
N    6.4129366689968785E+00    5.3047970472167749E-02    5.0153191486994055E+00
Ga    6.4093576089058866E+00    1.8803909706067421E+00    5.8065928989105053E+00
N    6.4129783828175402E+00    1.8954281843425635E+00    7.7978407977301387E+00
Ga    6.4125428239883515E+00    4.8647598928728025E-02    8.4513040578430711E+00
N    6.4125667386882990E+00    4.9882205615359235E-02    1.0421376059118986E+01
Ga    6.4122285897575431E+00    1.8898138215495177E+00    1.1075433943229346E+01
N    6.4086107978542772E+00    1.8749967008471684E+00    1.3065079024232164E+01
Ga    6.4084365041646558E+00    5.6375884140949517E-02    1.3878727968654060E+01
N    6.4037195992688680E+00    6.3046894419138508E-02    1.6073169819499224E+01
Ga    6.4030144174942523E+00    2.1191000827071185E+00    1.6490571332809765E+01
Ga    6.4163719399347920E+00    3.7737444308874775E+00    1.5063990045874216E+00
N    4.9038943229966101E+00    4.6380857649702198E+00    2.5290512218812085E+00
Ga    4.6930051963959283E+00    2.7835034628899455E+00    3.2881038345680000E+00
N    4.7974740758168064E+00    2.8347681041263164E+00    5.2482017612581044E+00
Ga    4.7784823958209843E+00    4.7075234655614437E+00    5.8065154682460696E+00
N    4.7952750115978811E+00    4.6978293378751301E+00    7.7963454130488730E+00
Ga    4.8156380050562175E+00    2.8410047801907869E+00    8.4451287606189958E+00
N    4.8162457400457033E+00    2.8434218702892755E+00    1.0432516628386614E+01
Ga    4.7910542336918605E+00    4.7030515896428415E+00    1.1076039668901965E+01
N    4.7694210250970999E+00    4.7173848784679793E+00    1.3066096670879308E+01
Ga    4.8115945000484084E+00    2.8479746382706161E+00    1.3624848615239070E+01
N    4.7809040908704725E+00    2.8371807315912889E+00    1.5582758253723989E+01
Ga    4.9615117187740498E+00    4.6111960931178553E+00    1.6486029738507597E+01
N    6.4014349589102659E+00    3.7858704323394292E+00    1.7618870200930278E+01
N    3.1907969252666737E+00    7.6085909043461371E+00    2.5286027792934855E+00
Ga    3.1793450477479595E+00    5.6240987524714550E+00    2.8812303919787796E+00
N    3.1942723287505679E+00    5.6244289189910974E+00    5.0208634861342469E+00
Ga    3.1952392038479984E+00    7.4531252045108856E+00    5.8077605584840599E+00
N    3.1974189035337557E+00    7.4664480418031403E+00    7.7991526072337489E+00
Ga    3.1975610818766911E+00    5.6215214878446869E+00    8.4567274516484829E+00
N    3.1977826299410843E+00    5.6222074995980780E+00    1.0424887604676737E+01
Ga    3.1978983185895546E+00    7.4619711180817268E+00    1.1080389007469661E+01
N    3.1937757219000504E+00    7.4460339049653763E+00    1.3069653283693835E+01
Ga    3.1928459043882715E+00    5.6284761138152106E+00    1.3889540009977136E+01
N    3.1881294028664113E+00    5.6349097116067677E+00    1.6070663864816176E+01
Ga    3.1890705863240632E+00    7.6792917724761027E+00    1.6490460807173523E+01
Ga    3.1884698064827832E+00    9.3455455939699874E+00    1.5012787261940830E+00
N    1.6910551915404368E+00    1.0210332001611430E+01    2.5290335518086819E+00
Ga    1.4825504090966375E+00    8.3547335587889417E+00    3.2946673026860354E+00
N    1.5848604186728308E+00    8.4078850839154686E+00    5.2551585839062431E+00
Ga    1.5635716717254067E+00    1.0278795027197811E+01    5.8086769495845463E+00
N    1.5803289472006115E+00    1.0268213260806307E+01    7.8009944379517311E+00
Ga    1.5999455270231417E+00    8.4119988490156654E+00    8.4492241466705789E+00
N    1.6016177860031686E+00    8.4135112264768974E+00    1.0437385104634979E+01
Ga    1.5736170379234813E+00    1.0271940727368635E+01    1.1080546323338863E+01
N    1.5530413433758190E+00    1.0287519246050119E+01    1.3068767497661332E+01
Ga    1.5968702129879746E+00    8.4185662411122806E+00    1.3631404402448984E+01
N    1.5670584642639531E+00    8.4104350489571136E+00    1.5588879177210721E+01
Ga    1.7403839179627416E+00    1.0184623931573556E+01    1.6492824529643737E+01
N    3.1895669546276646E+00    9.3548023682967880E+00    1.7631867498353742E+01
N    9.6275688194151456E+00    1.9180429416358171E+00    2.6224909696144874E+00
Ga    9.6249710830207977E+00    1.7436275945777110E-01    3.2986326113299969E+00
N    9.6282797642035636E+00    5.5458210602530318E-02    5.2590437408593163E+00
Ga    9.6280785654621965E+00    1.9089883311427531E+00    5.8998457963859909E+00
N    9.6304502152596037E+00    1.9063128083911236E+00    7.8655339289488895E+00
Ga    9.6309666314216038E+00    3.7226015059224224E-02    8.4511097906862886E+00
N    9.6303023941036994E+00    3.6772628491857952E-02    1.0438243133307891E+01
Ga    9.6289502204265709E+00    1.9080138748883726E+00    1.1034516917689816E+01
N    9.6232618314006935E+00    1.9127216083180110E+00    1.3000091579334956E+01
Ga    9.6247938059040496E+00    4.4224352067854973E-02    1.3629133238314390E+01
N    9.6188205512653830E+00    8.0497968904373579E-02    1.5589020058645461E+01
Ga    9.6160925369349268E+00    1.9197393635328095E+00    1.5868752358280831E+01
N    7.9123282330400988E+00    4.6377193909113732E+00    2.5375280132009421E+00
Ga    8.1171480623089565E+00    2.7835934763304340E+00    3.3045673536501492E+00
N    8.0209869547152088E+00    2.8364602675910588E+00    5.2632962029902473E+00
Ga    8.0484978395152051E+00    4.7101433781912734E+00    5.8081835895402536E+00
N    8.0350513280433074E+00    4.6994268345296426E+00    7.7987254143483984E+00
Ga    8.0114327598430890E+00    2.8421174401898601E+00    8.4478284115710434E+00
N    8.0092157501675434E+00    2.8436527659764423E+00    1.0434778882427540E+01
Ga    8.0353492286231756E+00    4.7038547434446185E+00    1.1076365077121750E+01
N    8.0491386933970759E+00    4.7180461656332007E+00    1.3066450555789576E+01
Ga    8.0040959980239759E+00    2.8489961117217506E+00    1.3624571490165271E+01
N    8.0258356716333310E+00    2.8376769524003600E+00    1.5584231886075276E+01
Ga    7.8433291992090259E+00    4.6106358843101782E+00    1.6488263607889188E+01
N    6.4071732928182694E+00    7.4840144847883749E+00    2.6094280605584372E+00
Ga    6.4081078848541875E+00    5.7448891632409644E+00    3.2976953457077194E+00
N    6.4125644682653835E+00    5.6247694476549919E+00    5.2556226740585288E+00
Ga    6.4147782951912138E+00    7.4837666346850842E+00    5.8760299955609705E+00
N    6.4151978037666932E+00    7.4795523359097800E+00    7.8452931564189123E+00
Ga    6.4151214412920723E+00    5.6111734210559288E+00    8.4385800504356432E+00
N    6.4132826398047014E+00    5.6104481206945715E+00    1.0429272009496653E+01
Ga    6.4138948644212874E+00    7.4805762079733666E+00    1.1027781596063042E+01
N    6.4098289294311455E+00    7.4841691436966808E+00    1.2996954454219006E+01
Ga    6.4085852831641752E+00    5.6153771506301187E+00    1.3623798339755236E+01
N    6.4034174657177374E+00    5.6549992506565046E+00    1.5583673335387989E+01
Ga    6.4058771005443038E+00    7.4902466415501054E+00    1.5866309972051148E+01
N    4.6935382653152766E+00    1.0212486017133925E+01    2.5257323726422034E+00
Ga    4.8998063686794886E+00    8.3567889052225066E+00    3.2905739116756090E+00
N    4.8044372407698344E+00    8.4095360457618042E+00    5.2511465326606910E+00
Ga    4.8290889592153681E+00    1.0279987941100210E+01    5.8081659962610557E+00
N    4.8170446229518573E+00    1.0269635572552341E+01    7.7996196631948482E+00
Ga    4.7974231517996211E+00    8.4119541137101823E+00    8.4417335465192114E+00
N    4.7943946354070812E+00    8.4132839103896870E+00    1.0431880792653173E+01
Ga    4.8207158209815759E+00    1.0270818408958245E+01    1.1078680809797937E+01
N    4.8337732793411572E+00    1.0286940961753867E+01    1.3069070477050291E+01
Ga    4.7902227328447688E+00    8.4175369129796032E+00    1.3628900355988776E+01
N    4.8119291982909340E+00    8.4078918358516699E+00    1.5588635819319508E+01
Ga    4.6351129356525371E+00    1.0183560452971696E+01    1.6491651912327747E+01
O    7.8863996572602602E-01    3.4339215860813956E+00   -3.6227415632675092E-01
H    1.5755671623680980E+00    4.0168585959158571E+00   -3.1864086342524128E-01
C    1.2566716197983159E+00    2.0344842973102062E+00   -5.2724849162570220E-01
H    2.0093096246025257E+00    1.8028392858338096E+00    2.4907341431506586E-01
H    3.6904427562059311E-01    1.4050569068703624E+00   -3.8937150353447836E-01
H    1.6567611097438513E+00    1.9393894952306909E+00   -1.5520735748754946E+00
     &END COORD
     &KIND C
       BASIS_SET DZVP-MOLOPT-SR-GTH-q4
       POTENTIAL GTH-PBE-q4
       &POTENTIAL
2 2
0.3384712400000000E+00 2 -0.8803673979999999E+01  0.1339210850000000E+01
2
0.3025757500000000E+00 1  0.9622486650000001E+01
0.2915069400000000E+00 0
       &END POTENTIAL
     &END KIND
     &KIND O
       BASIS_SET DZVP-MOLOPT-SR-GTH-q6
       POTENTIAL GTH-PBE-q6
       &POTENTIAL
2 4
0.2445543000000000E+00 2 -0.1666721480000000E+02  0.2487311320000000E+01
2
0.2209559200000000E+00 1  0.1833745811000000E+02
0.2113324700000000E+00 0
       &END POTENTIAL
     &END KIND
     &KIND H
       BASIS_SET DZVP-MOLOPT-SR-GTH-q1
       POTENTIAL GTH-PBE-q1
       &POTENTIAL
1
0.2000000000000000E+00 2 -0.4178900440000000E+01  0.7244633100000000E+00
0
       &END POTENTIAL
     &END KIND
     &KIND N
       BASIS_SET DZVP-MOLOPT-SR-GTH
       POTENTIAL GTH-PBE-q5
       &POTENTIAL
2 3
0.2837905100000000E+00 2 -0.1241522559000000E+02  0.1868095920000000E+01
2
0.2554050000000000E+00 1  0.1363026257000000E+02
0.2454945300000000E+00 0
       &END POTENTIAL
     &END KIND
     &KIND Ga
       BASIS_SET DZVP-MOLOPT-SR-GTH
       POTENTIAL GTH-PBE-q13
       &POTENTIAL
2 1 10
0.4900000000000000E+00 0
3
0.4167772300000000E+00 3  0.1047568975000000E+02 -0.4921768140000000E+01  0.8707055900000000E+00
0.7770178090000000E+01 -0.2248152160000000E+01
0.1784415450000000E+01
0.5696265200000000E+00 2  0.1777985340000000E+01  0.1958597600000000E+00
-0.2317443900000000E+00
0.2381265000000000E+00 1 -0.1624868022000000E+02
       &END POTENTIAL
     &END KIND
     &TOPOLOGY
       NUMBER_OF_ATOMS  206
       MULTIPLE_UNIT_CELL  1 1 1
     &END TOPOLOGY
   &END SUBSYS
 &END FORCE_EVAL
