 # Version information for this restart file 
 # current date 2019-06-24 17:59:55.996
 # current working dir /scratch/rzk/rzk/GaN-carbene/443-adatoms-both-2x2/02-Methanol/01-O-GaTop
 # Program compiled at                              Sun Apr  7 00:48:11 EDT 2019
 # Program compiled on                          beluga2.int.ets1.calculquebec.ca
 # Program compiled for                        Beluga-Linux-x86-64-intel-openmpi
 # Source code revision number                                         svn:18619
 &GLOBAL
   PRINT_LEVEL  MEDIUM
   PROJECT_NAME TEST
   RUN_TYPE  GEO_OPT
 &END GLOBAL
 &MOTION
   &GEO_OPT
     MAX_ITER  500
     STEP_START_VAL  87
   &END GEO_OPT
 &END MOTION
 &FORCE_EVAL
   METHOD  QS
   STRESS_TENSOR  ANALYTICAL
   &DFT
     BASIS_SET_FILE_NAME BASIS_MOLOPT
     POTENTIAL_FILE_NAME GTH_POTENTIALS
     UKS  T
     SURFACE_DIPOLE_CORRECTION  T
     SURF_DIP_DIR  Z
     &SCF
       MAX_SCF  80
       EPS_SCF     5.0000000000000004E-06
       &OT  T
         PRECONDITIONER  FULL_ALL
       &END OT
       &OUTER_SCF  T
         OPTIMIZER  NONE
         EPS_SCF     5.0000000000000004E-06
         MAX_SCF  4
       &END OUTER_SCF
       &PRINT
         &RESTART  OFF
           BACKUP_COPIES  1
           &EACH
             JUST_ENERGY  0
             QS_SCF  0
             MD  20
           &END EACH
         &END RESTART
       &END PRINT
     &END SCF
     &QS
       EPS_DEFAULT     1.0000000000000000E-14
       METHOD  GPW
     &END QS
     &MGRID
       NGRIDS  5
       CUTOFF     1.2000000000000000E+03
     &END MGRID
     &XC
       DENSITY_CUTOFF     1.0000000000000000E-10
       GRADIENT_CUTOFF     1.0000000000000000E-10
       TAU_CUTOFF     1.0000000000000000E-10
       &XC_FUNCTIONAL  NO_SHORTCUT
         &PBE  T
         &END PBE
       &END XC_FUNCTIONAL
       &VDW_POTENTIAL
         POTENTIAL_TYPE  PAIR_POTENTIAL
         &PAIR_POTENTIAL
           R_CUTOFF     1.0000000000000005E+01
           TYPE  DFTD3
           PARAMETER_FILE_NAME dftd3.dat
           REFERENCE_FUNCTIONAL PBE
           EPS_CN     9.9999999999999995E-07
           CALCULATE_C9_TERM  T
           REFERENCE_C9_TERM  T
           LONG_RANGE_CORRECTION  F
           VERBOSE_OUTPUT  F
         &END PAIR_POTENTIAL
       &END VDW_POTENTIAL
     &END XC
   &END DFT
   &SUBSYS
     &CELL
       A     1.2864472766435110E+01    0.0000000000000000E+00    0.0000000000000000E+00
       B    -6.4322363581020028E+00    1.1140960178524475E+01    0.0000000000000000E+00
       C     0.0000000000000000E+00    0.0000000000000000E+00    3.2000000000000000E+01
       MULTIPLE_UNIT_CELL  1 1 1
       &CELL_REF
         A     1.2982353780853531E+01    0.0000000000000000E+00    0.0000000000000000E+00
         B    -6.4911768904267628E+00    1.1243048175136114E+01    0.0000000000000000E+00
         C     0.0000000000000000E+00    0.0000000000000000E+00    3.2000000000000000E+01
         MULTIPLE_UNIT_CELL  1 1 1
       &END CELL_REF
     &END CELL
     &COORD
N   -2.8838085900617701E-02    2.0372637850602646E+00    2.5536656606798576E+00
Ga   -2.7261630697783857E-02    6.2574737584613918E-02    2.8845749586401199E+00
N   -2.7079177971053896E-02    5.5968784971425267E-02    5.0338466555767214E+00
Ga   -2.9129459326424235E-02    1.8840242778931910E+00    5.8172123664247151E+00
N   -2.6568563978121851E-02    1.9011347426994785E+00    7.8127649599491464E+00
Ga   -2.6307430986080876E-02    5.5156079968937899E-02    8.4556239231516468E+00
N   -2.5987130724799898E-02    5.5526569911140522E-02    1.0429938786992640E+01
Ga   -2.6626862590196022E-02    1.8968558859519200E+00    1.1077047707205264E+01
N   -2.6544764366869807E-02    1.8772427647956900E+00    1.3071106004604427E+01
Ga   -3.4383157793664451E-02    5.9041160021268559E-02    1.3867940767358450E+01
N   -3.5463537502914151E-02    5.9795096446287173E-02    1.6078741886714489E+01
Ga   -2.8191885945568897E-02    2.1070175456022802E+00    1.6494860603739674E+01
Ga   -1.8142273713832143E-02    3.7391036042211807E+00    1.5242144410640912E+00
N   -1.5090414445264866E+00    4.6221491602423654E+00    2.5129562910956058E+00
Ga   -1.7306758324796498E+00    2.7806049336148155E+00    3.3140304035437791E+00
N   -1.6390254703029756E+00    2.8401337608918533E+00    5.2745239988012127E+00
Ga   -1.6577306157247338E+00    4.7129829216194592E+00    5.8137912351029275E+00
N   -1.6439455129024660E+00    4.7049294087056115E+00    7.8109682371090026E+00
Ga   -1.6259801352991914E+00    2.8473678253448904E+00    8.4478705450444664E+00
N   -1.6235656303146278E+00    2.8478812835870793E+00    1.0440709320978149E+01
Ga   -1.6487755687816010E+00    4.7062499497195196E+00    1.1077300599335693E+01
N   -1.6654070444831297E+00    4.7154718744197552E+00    1.3071260729888285E+01
Ga   -1.6243559367759395E+00    2.8469555017308799E+00    1.3628996528997032E+01
N   -1.6498070885934635E+00    2.8309417606055822E+00    1.5589794041663328E+01
Ga   -1.4664282612324770E+00    4.5975514380733742E+00    1.6495102737347899E+01
N   -1.5650376829036146E-02    3.7739182612708846E+00    1.7631816355534578E+01
N   -3.2405566722117229E+00    7.6029898522208690E+00    2.5321796334999029E+00
Ga   -3.2342223952920968E+00    5.6208306187619765E+00    2.8524041037571481E+00
N   -3.2374766502591097E+00    5.6228369714755022E+00    5.0215025851631143E+00
Ga   -3.2415668208267849E+00    7.4525834788957779E+00    5.8039646868803336E+00
N   -3.2424941565654057E+00    7.4717561523952298E+00    7.8040368991253812E+00
Ga   -3.2431786560599454E+00    5.6269140744195498E+00    8.4541717113925650E+00
N   -3.2428985122143210E+00    5.6268382344989316E+00    1.0429003423337058E+01
Ga   -3.2425864489104868E+00    7.4655953548351919E+00    1.1077431896456181E+01
N   -3.2423249700796912E+00    7.4451569022382253E+00    1.3077027275648369E+01
Ga   -3.2446014626156998E+00    5.6165192071878671E+00    1.3869648081830231E+01
N   -3.2434175880272771E+00    5.6144144278506172E+00    1.6078558474616059E+01
Ga   -3.2432902886699391E+00    7.6198049860185852E+00    1.6449829089565601E+01
Ga   -3.2386200587220033E+00    9.3331479473024341E+00    1.4734486096264050E+00
N   -4.7457446451821355E+00    1.0211159316701442E+01    2.5274281217036516E+00
Ga   -4.9457265733088862E+00    8.3562303831851850E+00    3.2900670826462051E+00
N   -4.8509980427583743E+00    8.4108260745461827E+00    5.2572808325571820E+00
Ga   -4.8738980169028530E+00    1.0281860758294954E+01    5.8084545947267525E+00
N   -4.8595340468316381E+00    1.0274183304865787E+01    7.8064791180079567E+00
Ga   -4.8403394786379952E+00    8.4166994229487386E+00    8.4449689066046680E+00
N   -4.8388495561949698E+00    8.4181710208257687E+00    1.0440882912202591E+01
Ga   -4.8658230146860015E+00    1.0276619744090901E+01    1.1077703124698035E+01
N   -4.8829372047952022E+00    1.0286884538427501E+01    1.3076849810611733E+01
Ga   -4.8399429467256931E+00    8.4172888067147085E+00    1.3624325339727093E+01
N   -4.8586783997624083E+00    8.4073394559093320E+00    1.5599986863924082E+01
Ga   -4.7290091920605866E+00    1.0197328426089523E+01    1.6449616132571407E+01
N   -3.2369772936773646E+00    9.3391475814306304E+00    1.7569899620145776E+01
N    3.1741364812657449E+00    1.9184455265534932E+00    2.6078214213260131E+00
Ga    3.1877322787364353E+00    1.6698728482231104E-01    3.2919941838064757E+00
N    3.1891900339602306E+00    6.0956830015160293E-02    5.2573544636323062E+00
Ga    3.1923472076326056E+00    1.9112884402994115E+00    5.8964239715579634E+00
N    3.1910279360226328E+00    1.9119587185243216E+00    7.8670207456621197E+00
Ga    3.1898386888609815E+00    4.3608857664667530E-02    8.4503929937547060E+00
N    3.1898714820878089E+00    4.2828806649799329E-02    1.0444792681805421E+01
Ga    3.1902387924157352E+00    1.9136302061652521E+00    1.1036549082061844E+01
N    3.1897746005723326E+00    1.9103817636588207E+00    1.3010157606829454E+01
Ga    3.1899351734150465E+00    4.3464359306609267E-02    1.3624620414570844E+01
N    3.1882485707657673E+00    6.4547419900560968E-02    1.5600780852343279E+01
Ga    3.1913868794778106E+00    1.9146011135124652E+00    1.5873756918635770E+01
N    1.4758379788468647E+00    4.6327542522467828E+00    2.5322797496422536E+00
Ga    1.6738097547944442E+00    2.7919753215554297E+00    3.3320402877912065E+00
N    1.5860229255074743E+00    2.8394521967526938E+00    5.2834590205340257E+00
Ga    1.6041778276111962E+00    4.7154531245935614E+00    5.8172742160382214E+00
N    1.5914869611602496E+00    4.7051656996811690E+00    7.8126407656781689E+00
Ga    1.5720915568337386E+00    2.8476498027569157E+00    8.4501935919913418E+00
N    1.5714580372686007E+00    2.8483911308767285E+00    1.0443713402775659E+01
Ga    1.5977526490052125E+00    4.7074446890272519E+00    1.1082268212683999E+01
N    1.6145871765839939E+00    4.7168315135974117E+00    1.3077185479083241E+01
Ga    1.5702393369106749E+00    2.8473195495731036E+00    1.3631102709953252E+01
N    1.5967270306130710E+00    2.8244230195471314E+00    1.5593511230179503E+01
Ga    1.4269735339432192E+00    4.6077947053677812E+00    1.6493740843960961E+01
N   -2.6667734313135360E-02    7.4806245640267939E+00    2.6230016513306538E+00
Ga   -1.7786401078856776E-02    5.7345638288719645E+00    3.2995068653416539E+00
N   -2.6734896058162889E-02    5.6293179238129518E+00    5.2655886140477790E+00
Ga   -2.7672040566155076E-02    7.4828033191054377E+00    5.8882543178861200E+00
N   -2.6715614190651379E-02    7.4842641270575010E+00    7.8625397943064792E+00
Ga   -2.6564004769517799E-02    5.6166725532667385E+00    8.4506863213809016E+00
N   -2.5533958954919972E-02    5.6145036297653776E+00    1.0444142421534361E+01
Ga   -2.5826947673694249E-02    7.4838207205611438E+00    1.1036222374896141E+01
N   -2.8158982147604626E-02    7.4842886717735757E+00    1.3010332401910482E+01
Ga   -2.6781084187247842E-02    5.6128561527756444E+00    1.3631059162218019E+01
N   -3.2529410928525897E-02    5.6469032899359224E+00    1.5593381296720965E+01
Ga   -2.4094372070292209E-02    7.4827399014051856E+00    1.5874616146513370E+01
N   -1.7418722759541927E+00    1.0209918188720620E+01    2.5327289494530265E+00
Ga   -1.5380123755638107E+00    8.3558937398545936E+00    3.2948885728604895E+00
N   -1.6329636371810656E+00    8.4116587552754272E+00    5.2607438295655244E+00
Ga   -1.6107012267344194E+00    1.0283088070919698E+01    5.8080603417905516E+00
N   -1.6264232606666778E+00    1.0274094963795948E+01    7.8071164404643643E+00
Ga   -1.6449237086520390E+00    8.4174443562304884E+00    8.4467711628524729E+00
N   -1.6457917393393817E+00    8.4183990117339853E+00    1.0442862668149296E+01
Ga   -1.6184304215447680E+00    1.0277383006887119E+01    1.1078669504085164E+01
N   -1.6008802744402426E+00    1.0287487775924854E+01    1.3078241639562670E+01
Ga   -1.6452079413783818E+00    8.4177192447199243E+00    1.3625079813373739E+01
N   -1.6268919589471913E+00    8.4058918147250701E+00    1.5601740006769552E+01
Ga   -1.7504130883842997E+00    1.0201288369871923E+01    1.6449000275320898E+01
N    6.4017790583996614E+00    2.0339545940706030E+00    2.5309388088149789E+00
Ga    6.4036982624015693E+00    5.6257965059064829E-02    2.8666850991766428E+00
N    6.4054507806599457E+00    5.5277857637159131E-02    5.0316105707828092E+00
Ga    6.4033073630892776E+00    1.8837083720210490E+00    5.8071065388179388E+00
N    6.4041958514603969E+00    1.9025877583556847E+00    7.8057676661532094E+00
Ga    6.4048212358621148E+00    5.6615129029357052E-02    8.4536223144410272E+00
N    6.4055933495362520E+00    5.6261135453755752E-02    1.0428776693209265E+01
Ga    6.4065173013960761E+00    1.8969464623655636E+00    1.1078005458776854E+01
N    6.4067414625468402E+00    1.8776222347269307E+00    1.3070213493058505E+01
Ga    6.4150620230990381E+00    6.1870013778874931E-02    1.3872304898258301E+01
N    6.4172174571386922E+00    6.1886882459966035E-02    1.6078083165578356E+01
Ga    6.4079167268865778E+00    2.1206325414573968E+00    1.6511535087264882E+01
Ga    6.4115636930881248E+00    3.7696889330378078E+00    1.4750844309002453E+00
N    4.8996140075080037E+00    4.6356481313205986E+00    2.5280782896949963E+00
Ga    4.6979020390950552E+00    2.7850889402698074E+00    3.2875972346185645E+00
N    4.7921991769171148E+00    2.8381391703734846E+00    5.2542341945360951E+00
Ga    4.7742512166718427E+00    4.7101670400664037E+00    5.8074658550736649E+00
N    4.7880455052529580E+00    4.7029329127909234E+00    7.8049762782563921E+00
Ga    4.8084693290337972E+00    2.8478010527666298E+00    8.4505044339192636E+00
N    4.8088002526920581E+00    2.8484830002215613E+00    1.0442910755702561E+01
Ga    4.7835820861988738E+00    4.7074165209080823E+00    1.1081785479843536E+01
N    4.7667610656437427E+00    4.7163721203447464E+00    1.3074607843508714E+01
Ga    4.8104649258528243E+00    2.8477526447953569E+00    1.3633442995271251E+01
N    4.7812816929294915E+00    2.8253753759320173E+00    1.5591275172001914E+01
Ga    4.9700163555777719E+00    4.5977611775457268E+00    1.6511269077241714E+01
N    6.4009230498053666E+00    3.7713243013453241E+00    1.7661268422771862E+01
N    3.1885681335309459E+00    7.6050768730126981E+00    2.5385024410846100E+00
Ga    3.1823793737273633E+00    5.6230694159363663E+00    2.8867809179552419E+00
N    3.1891891636841772E+00    5.6264548728441941E+00    5.0335458360328653E+00
Ga    3.1899816474755602E+00    7.4558211213570109E+00    5.8111638042387366E+00
N    3.1898760262234767E+00    7.4722603844220155E+00    7.8077559519001642E+00
Ga    3.1909246032318586E+00    5.6269086431554625E+00    8.4567807926413057E+00
N    3.1906346309822111E+00    5.6265889293698148E+00    1.0430403872782076E+01
Ga    3.1904058480611819E+00    7.4657411119712345E+00    1.1081505975282624E+01
N    3.1902919218053705E+00    7.4462397926601831E+00    1.3075376277929411E+01
Ga    3.1928213349926686E+00    5.6265368864813237E+00    1.3887952993370158E+01
N    3.1924814049310499E+00    5.6264319370829812E+00    1.6080241127906049E+01
Ga    3.1904750911657231E+00    7.6730585297670357E+00    1.6504016111511149E+01
Ga    3.1883179392584382E+00    9.3406418354422733E+00    1.4997675938493416E+00
N    1.6867267081953639E+00    1.0207538721175297E+01    2.5361931402999738E+00
Ga    1.4815984302936875E+00    8.3554398886624632E+00    3.2998981548594934E+00
N    1.5799342459569881E+00    8.4108188853947521E+00    5.2640266760939092E+00
Ga    1.5551961299552972E+00    1.0282803480521730E+01    5.8114230972997776E+00
N    1.5714770548634149E+00    1.0273847761113393E+01    7.8088132507368790E+00
Ga    1.5914490152517242E+00    8.4173957499470138E+00    8.4488421554947415E+00
N    1.5932130293976543E+00    8.4174639169836656E+00    1.0442375975186984E+01
Ga    1.5678307101410360E+00    1.0276942971992703E+01    1.1077323905737222E+01
N    1.5515170590685647E+00    1.0286532680081365E+01    1.3070435687899764E+01
Ga    1.5938866441596520E+00    8.4190010161879574E+00    1.3632129079598817E+01
N    1.5604884269155821E+00    8.4049779374697273E+00    1.5591857716763560E+01
Ga    1.7591630406746315E+00    1.0168018285788758E+01    1.6504704581732877E+01
N    3.1908074649722571E+00    9.3303686076590751E+00    1.7646473684949427E+01
N    9.6233659418827582E+00    1.9143987993525717E+00    2.6254752794363805E+00
Ga    9.6199559568749482E+00    1.7005808027262301E-01    3.3002066566786707E+00
N    9.6210490154996844E+00    5.7097692992541277E-02    5.2643995260405392E+00
Ga    9.6189708444840480E+00    1.9129107787152400E+00    5.8904409080937077E+00
N    9.6204674954909084E+00    1.9123828586870630E+00    7.8627795840775487E+00
Ga    9.6211791121277646E+00    4.4521851936440648E-02    8.4478123597452495E+00
N    9.6221339730293884E+00    4.3395268838323564E-02    1.0440099604334025E+01
Ga    9.6216744836536101E+00    1.9132198575229116E+00    1.1033943923384056E+01
N    9.6225588990239928E+00    1.9127832228034638E+00    1.3004916026397975E+01
Ga    9.6220992768621478E+00    4.4052889326636355E-02    1.3630217062832653E+01
N    9.6232754528627868E+00    7.4661404795930753E-02    1.5589067363673294E+01
Ga    9.6209676002005917E+00    1.9120898328591553E+00    1.5868322971568229E+01
N    7.9099511311503372E+00    4.6356829629230676E+00    2.5315698670002198E+00
Ga    8.1079876604688330E+00    2.7844501923325189E+00    3.2947691025042509E+00
N    8.0130645762483539E+00    2.8390406149384386E+00    5.2605226718038018E+00
Ga    8.0402708955112718E+00    4.7116523632800602E+00    5.8039683148616730E+00
N    8.0240381842165434E+00    4.7041675362051354E+00    7.8032797001701040E+00
Ga    8.0028872657919639E+00    2.8474114567002933E+00    8.4455541913891725E+00
N    8.0026928207966019E+00    2.8478546028369274E+00    1.0438541614201926E+01
Ga    8.0273057789685947E+00    4.7059001499714288E+00    1.1076613528316553E+01
N    8.0443100580191729E+00    4.7148892696411044E+00    1.3069038808159538E+01
Ga    8.0037676318981124E+00    2.8471093258441353E+00    1.3631933161521511E+01
N    8.0317155712141908E+00    2.8308837001816456E+00    1.5589275905091924E+01
Ga    7.8332050885795983E+00    4.5905504713265426E+00    1.6511991267036237E+01
N    6.4062863580681206E+00    7.4828951708088969E+00    2.6186670795301801E+00
Ga    6.4059836326968798E+00    5.7366072721459336E+00    3.2904908611923451E+00
N    6.4060003856890324E+00    5.6268942557540047E+00    5.2572704226963669E+00
Ga    6.4072472819890285E+00    7.4823159217853927E+00    5.8829796987986915E+00
N    6.4062744199039541E+00    7.4833308422492300E+00    7.8577717805555105E+00
Ga    6.4060505982230920E+00    5.6151316461383178E+00    8.4447136029222154E+00
N    6.4054963830992691E+00    5.6141096994244464E+00    1.0438872084163625E+01
Ga    6.4061212286008962E+00    7.4828570107323493E+00    1.1034233872127759E+01
N    6.4084312318513561E+00    7.4842248209564239E+00    1.3007947202476592E+01
Ga    6.4066254687238571E+00    5.6126473116875646E+00    1.3633397241733130E+01
N    6.4112315642525264E+00    5.6477073650994534E+00    1.5591584824804421E+01
Ga    6.4039378107786575E+00    7.4807954028945520E+00    1.5873150007433614E+01
N    4.6914039517026840E+00    1.0208394078728514E+01    2.5379161186576860E+00
Ga    4.8970385798015332E+00    8.3541355760839835E+00    3.2969053712267180E+00
N    4.7995271087958020E+00    8.4103502569200383E+00    5.2615130114230064E+00
Ga    4.8211185557633582E+00    1.0281445031736107E+01    5.8112607540988055E+00
N    4.8073204484611445E+00    1.0273706888113638E+01    7.8079518875352933E+00
Ga    4.7885608331829399E+00    8.4165395289042877E+00    8.4471865098229770E+00
N    4.7872112062875605E+00    8.4172095186220943E+00    1.0440678677634670E+01
Ga    4.8114488791648240E+00    1.0276175237629491E+01    1.1076822387477982E+01
N    4.8281295826676693E+00    1.0285978477232039E+01    1.3069789490798179E+01
Ga    4.7870135737604826E+00    8.4183022130260277E+00    1.3631750325772993E+01
N    4.8200647123780556E+00    8.4057363698159531E+00    1.5591846859472998E+01
Ga    4.6204482961921896E+00    1.0167269660705660E+01    1.6504756563639301E+01
O    1.0161419535461533E+00    3.3861722664096230E+00   -2.8489618813264289E-01
H    1.8012140914579824E+00    3.9335440281423137E+00   -6.6836523960681501E-02
C    1.4857712118058295E+00    1.9854387229811534E+00   -4.2677717667467674E-01
H    2.1393228538318989E+00    1.7246938183244127E+00    4.2183855177654056E-01
H    5.8853561201829663E-01    1.3616365905026913E+00   -4.2278313280332419E-01
H    2.0049539653317945E+00    1.9062819847742229E+00   -1.3872570644510189E+00
     &END COORD
     &KIND C
       BASIS_SET DZVP-MOLOPT-SR-GTH-q4
       POTENTIAL GTH-PBE-q4
       &POTENTIAL
2 2
0.3384712400000000E+00 2 -0.8803673979999999E+01  0.1339210850000000E+01
2
0.3025757500000000E+00 1  0.9622486650000001E+01
0.2915069400000000E+00 0
       &END POTENTIAL
     &END KIND
     &KIND O
       BASIS_SET DZVP-MOLOPT-SR-GTH-q6
       POTENTIAL GTH-PBE-q6
       &POTENTIAL
2 4
0.2445543000000000E+00 2 -0.1666721480000000E+02  0.2487311320000000E+01
2
0.2209559200000000E+00 1  0.1833745811000000E+02
0.2113324700000000E+00 0
       &END POTENTIAL
     &END KIND
     &KIND H
       BASIS_SET DZVP-MOLOPT-SR-GTH-q1
       POTENTIAL GTH-PBE-q1
       &POTENTIAL
1
0.2000000000000000E+00 2 -0.4178900440000000E+01  0.7244633100000000E+00
0
       &END POTENTIAL
     &END KIND
     &KIND N
       BASIS_SET DZVP-MOLOPT-SR-GTH
       POTENTIAL GTH-PBE-q5
       &POTENTIAL
2 3
0.2837905100000000E+00 2 -0.1241522559000000E+02  0.1868095920000000E+01
2
0.2554050000000000E+00 1  0.1363026257000000E+02
0.2454945300000000E+00 0
       &END POTENTIAL
     &END KIND
     &KIND Ga
       BASIS_SET DZVP-MOLOPT-SR-GTH
       POTENTIAL GTH-PBE-q13
       &POTENTIAL
2 1 10
0.4900000000000000E+00 0
3
0.4167772300000000E+00 3  0.1047568975000000E+02 -0.4921768140000000E+01  0.8707055900000000E+00
0.7770178090000000E+01 -0.2248152160000000E+01
0.1784415450000000E+01
0.5696265200000000E+00 2  0.1777985340000000E+01  0.1958597600000000E+00
-0.2317443900000000E+00
0.2381265000000000E+00 1 -0.1624868022000000E+02
       &END POTENTIAL
     &END KIND
     &TOPOLOGY
       NUMBER_OF_ATOMS  206
       MULTIPLE_UNIT_CELL  1 1 1
     &END TOPOLOGY
   &END SUBSYS
 &END FORCE_EVAL
