 # Version information for this restart file 
 # current date 2019-06-24 21:35:36.336
 # current working dir /scratch/rzk/rzk/GaN-carbene/443-adatoms-both-2x2/02-Methanol/01-O-GaTop
 # Program compiled at                              Sun Apr  7 00:48:11 EDT 2019
 # Program compiled on                          beluga2.int.ets1.calculquebec.ca
 # Program compiled for                        Beluga-Linux-x86-64-intel-openmpi
 # Source code revision number                                         svn:18619
 &GLOBAL
   PRINT_LEVEL  MEDIUM
   PROJECT_NAME TEST
   RUN_TYPE  GEO_OPT
 &END GLOBAL
 &MOTION
   &GEO_OPT
     MAX_ITER  500
     STEP_START_VAL  149
   &END GEO_OPT
 &END MOTION
 &FORCE_EVAL
   METHOD  QS
   STRESS_TENSOR  ANALYTICAL
   &DFT
     BASIS_SET_FILE_NAME BASIS_MOLOPT
     POTENTIAL_FILE_NAME GTH_POTENTIALS
     UKS  T
     SURFACE_DIPOLE_CORRECTION  T
     SURF_DIP_DIR  Z
     &SCF
       MAX_SCF  80
       EPS_SCF     5.0000000000000004E-06
       &OT  T
         PRECONDITIONER  FULL_ALL
       &END OT
       &OUTER_SCF  T
         OPTIMIZER  NONE
         EPS_SCF     5.0000000000000004E-06
         MAX_SCF  4
       &END OUTER_SCF
       &PRINT
         &RESTART  OFF
           BACKUP_COPIES  1
           &EACH
             JUST_ENERGY  0
             QS_SCF  0
             MD  20
           &END EACH
         &END RESTART
       &END PRINT
     &END SCF
     &QS
       EPS_DEFAULT     1.0000000000000000E-14
       METHOD  GPW
     &END QS
     &MGRID
       NGRIDS  5
       CUTOFF     1.2000000000000000E+03
     &END MGRID
     &XC
       DENSITY_CUTOFF     1.0000000000000000E-10
       GRADIENT_CUTOFF     1.0000000000000000E-10
       TAU_CUTOFF     1.0000000000000000E-10
       &XC_FUNCTIONAL  NO_SHORTCUT
         &PBE  T
         &END PBE
       &END XC_FUNCTIONAL
       &VDW_POTENTIAL
         POTENTIAL_TYPE  PAIR_POTENTIAL
         &PAIR_POTENTIAL
           R_CUTOFF     1.0000000000000005E+01
           TYPE  DFTD3
           PARAMETER_FILE_NAME dftd3.dat
           REFERENCE_FUNCTIONAL PBE
           EPS_CN     9.9999999999999995E-07
           CALCULATE_C9_TERM  T
           REFERENCE_C9_TERM  T
           LONG_RANGE_CORRECTION  F
           VERBOSE_OUTPUT  F
         &END PAIR_POTENTIAL
       &END VDW_POTENTIAL
     &END XC
   &END DFT
   &SUBSYS
     &CELL
       A     1.2864472766435110E+01    0.0000000000000000E+00    0.0000000000000000E+00
       B    -6.4322363581020028E+00    1.1140960178524475E+01    0.0000000000000000E+00
       C     0.0000000000000000E+00    0.0000000000000000E+00    3.2000000000000000E+01
       MULTIPLE_UNIT_CELL  1 1 1
       &CELL_REF
         A     1.2982353780853531E+01    0.0000000000000000E+00    0.0000000000000000E+00
         B    -6.4911768904267628E+00    1.1243048175136114E+01    0.0000000000000000E+00
         C     0.0000000000000000E+00    0.0000000000000000E+00    3.2000000000000000E+01
         MULTIPLE_UNIT_CELL  1 1 1
       &END CELL_REF
     &END CELL
     &COORD
N   -3.3539074041688835E-02    2.0306182732768896E+00    2.5503307206545296E+00
Ga   -2.7460212853571669E-02    5.4479197479826769E-02    2.8807245444219234E+00
N   -3.1642411647460934E-02    4.9136403039043916E-02    5.0331311321519063E+00
Ga   -3.2613492507051985E-02    1.8761868664720438E+00    5.8172986197538696E+00
N   -3.0877196389620450E-02    1.8937967172612513E+00    7.8122134080229824E+00
Ga   -3.0708309281646619E-02    4.7791001213336098E-02    8.4559788429200982E+00
N   -3.0643745247565714E-02    4.8070585109084969E-02    1.0430013428848969E+01
Ga   -3.1513587278298991E-02    1.8896501971740338E+00    1.1077169180507035E+01
N   -3.1960015088213251E-02    1.8709758838194652E+00    1.3069621399042273E+01
Ga   -4.0867906452656089E-02    5.5302384650846387E-02    1.3868667803253318E+01
N   -4.2637395342004225E-02    5.6173259110777453E-02    1.6077124480245839E+01
Ga   -3.3566524252465459E-02    2.1143204495454881E+00    1.6508165564521910E+01
Ga   -2.7630475187087233E-02    3.7336976075313415E+00    1.5248476266360933E+00
N   -1.5143655580832489E+00    4.6149414048034991E+00    2.5151495103016486E+00
Ga   -1.7344909664584920E+00    2.7729123591836986E+00    3.3159876844412350E+00
N   -1.6430183302453309E+00    2.8325336655576145E+00    5.2752085409405032E+00
Ga   -1.6618641432318446E+00    4.7059655029633802E+00    5.8137621386242104E+00
N   -1.6483955566121105E+00    4.6973738866950505E+00    7.8101314058221556E+00
Ga   -1.6301622373824141E+00    2.8400684356295636E+00    8.4483936282081391E+00
N   -1.6285203105600985E+00    2.8404208088724148E+00    1.0440158723411878E+01
Ga   -1.6531099369904565E+00    4.6988865086059146E+00    1.1077095114602226E+01
N   -1.6701151347298744E+00    4.7080912107908075E+00    1.3069719596237233E+01
Ga   -1.6293579811838588E+00    2.8401698874689441E+00    1.3631258937446745E+01
N   -1.6567541278348177E+00    2.8243692025056557E+00    1.5588718080251436E+01
Ga   -1.4607143085942653E+00    4.5852710608288598E+00    1.6508302785371981E+01
N   -2.5725144387446192E-02    3.7662941378069874E+00    1.7652657760223743E+01
N   -3.2448842436885803E+00    7.5957515801141469E+00    2.5290307027217844E+00
Ga   -3.2371270219011961E+00    5.6185406441194488E+00    2.8523056232199209E+00
N   -3.2418056092779963E+00    5.6149488439222512E+00    5.0216218395178513E+00
Ga   -3.2454945398606210E+00    7.4459434814968519E+00    5.8021656725733690E+00
N   -3.2469219306774950E+00    7.4643251935268413E+00    7.8027760859123454E+00
Ga   -3.2474080004006827E+00    5.6197093860789202E+00    8.4542884004586529E+00
N   -3.2475254134952265E+00    5.6196965276796069E+00    1.0428811040481849E+01
Ga   -3.2474469480620649E+00    7.4581293929689574E+00    1.1077240095209159E+01
N   -3.2474813351601486E+00    7.4380571830340285E+00    1.3077159379540124E+01
Ga   -3.2478168725568666E+00    5.6076755426212275E+00    1.3869417971906380E+01
N   -3.2479293836009204E+00    5.6050629717550411E+00    1.6077103706116088E+01
Ga   -3.2475419718305885E+00    7.6045418149393536E+00    1.6441956379405870E+01
Ga   -3.2430580373023759E+00    9.3257344459251676E+00    1.4455940155183591E+00
N   -4.7503636593411995E+00    1.0203976583593267E+01    2.5246938634533578E+00
Ga   -4.9448496976001453E+00    8.3521153826234471E+00    3.2850476293981061E+00
N   -4.8550985075900748E+00    8.4035248687976480E+00    5.2552412973825700E+00
Ga   -4.8776068325092874E+00    1.0274673864092932E+01    5.8063303884360735E+00
N   -4.8640575850936258E+00    1.0266823141531829E+01    7.8052589437269901E+00
Ga   -4.8443791454545302E+00    8.4096156015387358E+00    8.4451704795135090E+00
N   -4.8437577576764994E+00    8.4110479076783662E+00    1.0441287795246165E+01
Ga   -4.8708248794401818E+00    1.0269753925560067E+01    1.1078156710447344E+01
N   -4.8886141413075004E+00    1.0280692894350004E+01    1.3077525619156571E+01
Ga   -4.8444242357462457E+00    8.4112307703077462E+00    1.3622837900154821E+01
N   -4.8611470061617013E+00    8.4027178468712371E+00    1.5601025019844474E+01
Ga   -4.7423681896984426E+00    1.0197219936592186E+01    1.6442154126351681E+01
N   -3.2486025142509134E+00    9.3300930393749848E+00    1.7568454701098148E+01
N    3.1702574999076623E+00    1.9105677922123092E+00    2.6062989032798058E+00
Ga    3.1831802173567376E+00    1.5487485267703929E-01    3.2858166573808330E+00
N    3.1854393058880217E+00    5.4025483886199988E-02    5.2543948664249704E+00
Ga    3.1877112350816916E+00    1.9028981925778525E+00    5.8956829292961288E+00
N    3.1868355858560080E+00    1.9046596469164454E+00    7.8661374562404198E+00
Ga    3.1853769536877627E+00    3.5981546632781615E-02    8.4497596360980456E+00
N    3.1849077702884032E+00    3.5531682666199320E-02    1.0444136301596595E+01
Ga    3.1848797437942054E+00    1.9062685404935820E+00    1.1036803826915014E+01
N    3.1846884365780244E+00    1.9031083098552650E+00    1.3010120929041680E+01
Ga    3.1847361847179756E+00    3.6526811442928166E-02    1.3622623677112490E+01
N    3.1845897100387948E+00    5.5722869810913983E-02    1.5600113872093102E+01
Ga    3.1844392626382314E+00    1.9087036146252903E+00    1.5870111779728640E+01
N    1.4727982707893548E+00    4.6265848558660405E+00    2.5345364449853931E+00
Ga    1.6693852976047474E+00    2.7840501427236042E+00    3.3299639262928347E+00
N    1.5821199812907938E+00    2.8320225168019388E+00    5.2818525384011172E+00
Ga    1.5998177665100515E+00    4.7075423875755771E+00    5.8169982290935476E+00
N    1.5874774171973820E+00    4.6977337508438595E+00    7.8115854721999680E+00
Ga    1.5676767278254058E+00    2.8402198649008019E+00    8.4503841770799255E+00
N    1.5667937575133946E+00    2.8412454241577003E+00    1.0443161534398845E+01
Ga    1.5928039926796285E+00    4.7004026572133766E+00    1.1082691200168242E+01
N    1.6088447815644422E+00    4.7097782090356697E+00    1.3075892047114797E+01
Ga    1.5641468010920765E+00    2.8410238533810155E+00    1.3632695556527342E+01
N    1.5929053180795167E+00    2.8179691290386435E+00    1.5590829529268341E+01
Ga    1.4075563567422409E+00    4.5932095479304458E+00    1.6507669718649488E+01
N   -3.2141522415200484E-02    7.4735121661830908E+00    2.6225978099292910E+00
Ga   -2.1983185304106985E-02    5.7281034524715224E+00    3.3000032152840379E+00
N   -3.0512367937207126E-02    5.6220265195010422E+00    5.2656241865350628E+00
Ga   -3.2787403752127221E-02    7.4757909692899940E+00    5.8877736512005550E+00
N   -3.0914247701666439E-02    7.4768124833731093E+00    7.8617225309114724E+00
Ga   -3.1010170140682310E-02    5.6091468883227344E+00    8.4503628757986000E+00
N   -3.0106325807657552E-02    5.6074068971184818E+00    1.0443018471864685E+01
Ga   -3.1149653005222433E-02    7.4764717489950572E+00    1.1035719514893254E+01
N   -3.3771419289602367E-02    7.4780549913151688E+00    1.3009544397308387E+01
Ga   -3.2000098640085579E-02    5.6056260393594437E+00    1.3632722474454116E+01
N   -3.7530402315391988E-02    5.6421690963500373E+00    1.5591026215657637E+01
Ga   -3.0767666670113655E-02    7.4750322140167720E+00    1.5871582297398540E+01
N   -1.7458632888898040E+00    1.0202690452814805E+01    2.5297668786897654E+00
Ga   -1.5468623335775067E+00    8.3509049482097826E+00    3.2891734393077616E+00
N   -1.6366897499160402E+00    8.4042901220377288E+00    5.2581325927437588E+00
Ga   -1.6151206782341805E+00    1.0275543384591192E+01    5.8057255298886776E+00
N   -1.6305587211948147E+00    1.0266750616958136E+01    7.8054286282573653E+00
Ga   -1.6493333235955814E+00    8.4099754508795534E+00    8.4460673726969961E+00
N   -1.6509528446652721E+00    8.4112947574137262E+00    1.0441980198631807E+01
Ga   -1.6233970580828203E+00    1.0270315666833556E+01    1.1077295229150700E+01
N   -1.6063751834568354E+00    1.0280819505748282E+01    1.3076892902308195E+01
Ga   -1.6503765977258307E+00    8.4112320535384342E+00    1.3622814647912330E+01
N   -1.6340936989798025E+00    8.4027510846268942E+00    1.5600711861575277E+01
Ga   -1.7538514310939242E+00    1.0196650965919073E+01    1.6441868577147524E+01
N    6.3978106446237186E+00    2.0265366049302451E+00    2.5325154207521137E+00
Ga    6.3955524749216748E+00    4.5546666500214980E-02    2.8664205685007906E+00
N    6.4024613511017252E+00    4.8753326942191352E-02    5.0311447340421767E+00
Ga    6.3996403577009282E+00    1.8761782347620124E+00    5.8081160541047323E+00
N    6.4000302332930969E+00    1.8953976574560290E+00    7.8058234470313881E+00
Ga    6.4003219240229257E+00    4.9032712849967741E-02    8.4535054308705657E+00
N    6.4009441776804064E+00    4.8880986143762691E-02    1.0428342707448781E+01
Ga    6.4014014083590984E+00    1.8895925447630169E+00    1.1077309330509751E+01
N    6.4014329913247598E+00    1.8711872436141481E+00    1.3069433310891448E+01
Ga    6.4099096488701663E+00    5.5338462102117951E-02    1.3868234703075995E+01
N    6.4116234198999225E+00    5.6470656802932208E-02    1.6077290501893284E+01
Ga    6.4021574528081961E+00    2.1127422047891660E+00    1.6506784081329940E+01
Ga    6.4063496646986211E+00    3.7630086075039606E+00    1.4902310313709806E+00
N    4.8948264521694584E+00    4.6287621890425230E+00    2.5313592254816877E+00
Ga    4.6913371425797115E+00    2.7752423960575325E+00    3.2907320843712808E+00
N    4.7885752245517335E+00    2.8312030367785841E+00    5.2553884095131371E+00
Ga    4.7709477330967731E+00    4.7031229257204874E+00    5.8091540976705591E+00
N    4.7837542030439328E+00    4.6958396440606824E+00    7.8054352273446472E+00
Ga    4.8039688181783653E+00    2.8404491609835669E+00    8.4510566074605364E+00
N    4.8036670071213008E+00    2.8414916788892675E+00    1.0443229096681035E+01
Ga    4.7780560575134379E+00    4.7005188092232677E+00    1.1083164187970393E+01
N    4.7609151498934672E+00    4.7098130847807012E+00    1.3075982657828160E+01
Ga    4.8051492232968194E+00    2.8410915593263519E+00    1.3632373048873951E+01
N    4.7763748557445753E+00    2.8180806714079640E+00    1.5591099241119620E+01
Ga    4.9594551075863809E+00    4.5947464759411192E+00    1.6506251088114126E+01
N    6.3934223638748522E+00    3.7666762394458968E+00    1.7649397479054791E+01
N    3.1845449202479004E+00    7.5981540499634015E+00    2.5424779016825609E+00
Ga    3.1760476734466283E+00    5.6164404099113039E+00    2.8941093198174479E+00
N    3.1861287587015190E+00    5.6196272407302716E+00    5.0347817826106125E+00
Ga    3.1861926280852400E+00    7.4493367601060640E+00    5.8127912024316881E+00
N    3.1856397541163499E+00    7.4649872692294297E+00    7.8081787173991284E+00
Ga    3.1862083181112166E+00    5.6196754747091777E+00    8.4575652375423438E+00
N    3.1858999275975011E+00    5.6194788312012429E+00    1.0430549609347194E+01
Ga    3.1851761425333045E+00    7.4579624394986563E+00    1.1082854290750438E+01
N    3.1847517857521761E+00    7.4389549382812197E+00    1.3076717311722438E+01
Ga    3.1843963628364946E+00    5.6184690982949865E+00    1.3891328927517163E+01
N    3.1848966622679225E+00    5.6180702886138993E+00    1.6080762803345497E+01
Ga    3.1849846689380388E+00    7.6628459855000726E+00    1.6499665062697691E+01
Ga    3.1837669652473317E+00    9.3323276527850627E+00    1.5112652867166401E+00
N    1.6828702272932432E+00    1.0200207504343537E+01    2.5380834912189636E+00
Ga    1.4740694107288659E+00    8.3474029517558161E+00    3.3024574352841474E+00
N    1.5760882392913780E+00    8.4035709100175389E+00    5.2650540165335933E+00
Ga    1.5510492493433508E+00    1.0275678509167804E+01    5.8123337199388940E+00
N    1.5672833225976204E+00    1.0266422690593576E+01    7.8088069895529610E+00
Ga    1.5868410186261170E+00    8.4099823321899674E+00    8.4493473320496975E+00
N    1.5884505661305039E+00    8.4099763183801493E+00    1.0442471245172882E+01
Ga    1.5630889215676140E+00    1.0269542532703181E+01    1.1076903756886930E+01
N    1.5464663275720734E+00    1.0279898086977743E+01    1.3070001690873175E+01
Ga    1.5882923332951342E+00    8.4123583942621902E+00    1.3631532689612712E+01
N    1.5533944437531311E+00    8.3995375376195796E+00    1.5591792023890413E+01
Ga    1.7527497427738576E+00    1.0162619431805513E+01    1.6500601869899505E+01
N    3.1843593970916948E+00    9.3227741641351276E+00    1.7637542413232982E+01
N    9.6198043643345024E+00    1.9072548734224102E+00    2.6246546106318913E+00
Ga    9.6162554794593671E+00    1.6425637980913671E-01    3.3028282138079166E+00
N    9.6171446448732674E+00    4.9817531663881802E-02    5.2655601843021085E+00
Ga    9.6152668230563503E+00    1.9055172145033246E+00    5.8921405437476126E+00
N    9.6160248305910692E+00    1.9048969639989644E+00    7.8631487936591453E+00
Ga    9.6167527238354609E+00    3.6942702179889104E-02    8.4488055558664339E+00
N    9.6174209209236583E+00    3.5953698015765541E-02    1.0440359831348824E+01
Ga    9.6167528863060170E+00    1.9060782451319271E+00    1.1034118975567743E+01
N    9.6169513916413578E+00    1.9057641121424729E+00    1.3004092530422287E+01
Ga    9.6168523173226177E+00    3.7897029846771006E-02    1.3630072504275228E+01
N    9.6167993958744482E+00    6.9358121256075614E-02    1.5588809221323318E+01
Ga    9.6166532865236167E+00    1.9075290657450914E+00    1.5867143978571852E+01
N    7.9060357073667138E+00    4.6286188659104335E+00    2.5327686275715631E+00
Ga    8.1059633802512181E+00    2.7765063214281946E+00    3.2973173596996159E+00
N    8.0092741883391234E+00    2.8320354856421495E+00    5.2614644430322395E+00
Ga    8.0369817246839705E+00    4.7048753175286917E+00    5.8053215485620919E+00
N    8.0194698948628389E+00    4.6967181754933609E+00    7.8036969281099324E+00
Ga    7.9986031303161820E+00    2.8401066760262821E+00    8.4466606962228905E+00
N    7.9975987185812567E+00    2.8409318957150109E+00    1.0438795912367361E+01
Ga    8.0229429172640501E+00    4.6991915300698004E+00    1.1076994009416653E+01
N    8.0391066926987040E+00    4.7079808697236309E+00    1.3069312581409898E+01
Ga    7.9989781743164059E+00    2.8400708299342106E+00    1.3631140248886402E+01
N    8.0251246599488741E+00    2.8248584132121985E+00    1.5588977582976213E+01
Ga    7.8308869654126232E+00    4.5862632834863275E+00    1.6506903867331779E+01
N    6.4036314182589420E+00    7.4768727711314282E+00    2.6179412996029097E+00
Ga    6.4032759915316975E+00    5.7329576891512479E+00    3.2932537264192869E+00
N    6.4023443261996711E+00    5.6198262302293092E+00    5.2584272561810730E+00
Ga    6.4045216158699807E+00    7.4762023181670392E+00    5.8838782336324700E+00
N    6.4018418373364900E+00    7.4759574498215153E+00    7.8584285096805759E+00
Ga    6.4017174003243653E+00    5.6078387933889999E+00    8.4462474999202612E+00
N    6.4004427325632065E+00    5.6071354580107755E+00    1.0440163363950354E+01
Ga    6.4012172898695150E+00    7.4760626352745865E+00    1.1035203691000410E+01
N    6.4034160285691293E+00    7.4779747839750250E+00    1.3009020324733942E+01
Ga    6.4013462267016328E+00    5.6058615011722592E+00    1.3632569591709039E+01
N    6.4070169886925878E+00    5.6422849834473521E+00    1.5591179980003123E+01
Ga    6.4001056908207312E+00    7.4752831122154291E+00    1.5872758331586263E+01
N    4.6868046994233419E+00    1.0201036001462480E+01    2.5388448032737765E+00
Ga    4.8961216751971426E+00    8.3470358539893574E+00    3.2997788740620240E+00
N    4.7957922603977563E+00    8.4033807455477945E+00    5.2629788559595898E+00
Ga    4.8180718785221828E+00    1.0274908395620750E+01    5.8123264705246518E+00
N    4.8027725965507013E+00    1.0266250246142983E+01    7.8084043159020622E+00
Ga    4.7840458472844434E+00    8.4093807160245611E+00    8.4486328401743442E+00
N    4.7821139068222998E+00    8.4099469263251301E+00    1.0441997634619032E+01
Ga    4.8069928956096373E+00    1.0269454978943459E+01    1.1077646919612695E+01
N    4.8228292416574403E+00    1.0279700505877653E+01    1.3070402929767182E+01
Ga    4.7812784999416555E+00    8.4120675448659181E+00    1.3631396965561882E+01
N    4.8162628523875863E+00    8.3996815118291117E+00    1.5591439418956270E+01
Ga    4.6161011298333845E+00    1.0162602042145966E+01    1.6500369380841523E+01
O    1.0598887936301624E+00    3.4561565714331635E+00   -2.5994824582573622E-01
H    1.8243146800287702E+00    3.9968525283399519E+00    3.7384926077607274E-02
C    1.5537068517439627E+00    2.0697773526308461E+00   -4.4822850761703126E-01
H    2.2213218382692550E+00    1.7970106300436748E+00    3.8758125294744894E-01
H    6.6948671077429500E-01    1.4256308742110528E+00   -4.5219053410557269E-01
H    2.0650656264437584E+00    2.0296533610244265E+00   -1.4178945712367386E+00
     &END COORD
     &KIND C
       BASIS_SET DZVP-MOLOPT-SR-GTH-q4
       POTENTIAL GTH-PBE-q4
       &POTENTIAL
2 2
0.3384712400000000E+00 2 -0.8803673979999999E+01  0.1339210850000000E+01
2
0.3025757500000000E+00 1  0.9622486650000001E+01
0.2915069400000000E+00 0
       &END POTENTIAL
     &END KIND
     &KIND O
       BASIS_SET DZVP-MOLOPT-SR-GTH-q6
       POTENTIAL GTH-PBE-q6
       &POTENTIAL
2 4
0.2445543000000000E+00 2 -0.1666721480000000E+02  0.2487311320000000E+01
2
0.2209559200000000E+00 1  0.1833745811000000E+02
0.2113324700000000E+00 0
       &END POTENTIAL
     &END KIND
     &KIND H
       BASIS_SET DZVP-MOLOPT-SR-GTH-q1
       POTENTIAL GTH-PBE-q1
       &POTENTIAL
1
0.2000000000000000E+00 2 -0.4178900440000000E+01  0.7244633100000000E+00
0
       &END POTENTIAL
     &END KIND
     &KIND N
       BASIS_SET DZVP-MOLOPT-SR-GTH
       POTENTIAL GTH-PBE-q5
       &POTENTIAL
2 3
0.2837905100000000E+00 2 -0.1241522559000000E+02  0.1868095920000000E+01
2
0.2554050000000000E+00 1  0.1363026257000000E+02
0.2454945300000000E+00 0
       &END POTENTIAL
     &END KIND
     &KIND Ga
       BASIS_SET DZVP-MOLOPT-SR-GTH
       POTENTIAL GTH-PBE-q13
       &POTENTIAL
2 1 10
0.4900000000000000E+00 0
3
0.4167772300000000E+00 3  0.1047568975000000E+02 -0.4921768140000000E+01  0.8707055900000000E+00
0.7770178090000000E+01 -0.2248152160000000E+01
0.1784415450000000E+01
0.5696265200000000E+00 2  0.1777985340000000E+01  0.1958597600000000E+00
-0.2317443900000000E+00
0.2381265000000000E+00 1 -0.1624868022000000E+02
       &END POTENTIAL
     &END KIND
     &TOPOLOGY
       NUMBER_OF_ATOMS  206
       MULTIPLE_UNIT_CELL  1 1 1
     &END TOPOLOGY
   &END SUBSYS
 &END FORCE_EVAL
