 # Version information for this restart file 
 # current date 2019-06-24 17:47:46.718
 # current working dir /scratch/rzk/rzk/GaN-carbene/443-adatoms-both-2x2/02-Methanol/01-O-GaTop
 # Program compiled at                              Sun Apr  7 00:48:11 EDT 2019
 # Program compiled on                          beluga2.int.ets1.calculquebec.ca
 # Program compiled for                        Beluga-Linux-x86-64-intel-openmpi
 # Source code revision number                                         svn:18619
 &GLOBAL
   PRINT_LEVEL  MEDIUM
   PROJECT_NAME TEST
   RUN_TYPE  GEO_OPT
 &END GLOBAL
 &MOTION
   &GEO_OPT
     MAX_ITER  500
     STEP_START_VAL  84
   &END GEO_OPT
 &END MOTION
 &FORCE_EVAL
   METHOD  QS
   STRESS_TENSOR  ANALYTICAL
   &DFT
     BASIS_SET_FILE_NAME BASIS_MOLOPT
     POTENTIAL_FILE_NAME GTH_POTENTIALS
     UKS  T
     SURFACE_DIPOLE_CORRECTION  T
     SURF_DIP_DIR  Z
     &SCF
       MAX_SCF  80
       EPS_SCF     5.0000000000000004E-06
       &OT  T
         PRECONDITIONER  FULL_ALL
       &END OT
       &OUTER_SCF  T
         OPTIMIZER  NONE
         EPS_SCF     5.0000000000000004E-06
         MAX_SCF  4
       &END OUTER_SCF
       &PRINT
         &RESTART  OFF
           BACKUP_COPIES  1
           &EACH
             JUST_ENERGY  0
             QS_SCF  0
             MD  20
           &END EACH
         &END RESTART
       &END PRINT
     &END SCF
     &QS
       EPS_DEFAULT     1.0000000000000000E-14
       METHOD  GPW
     &END QS
     &MGRID
       NGRIDS  5
       CUTOFF     1.2000000000000000E+03
     &END MGRID
     &XC
       DENSITY_CUTOFF     1.0000000000000000E-10
       GRADIENT_CUTOFF     1.0000000000000000E-10
       TAU_CUTOFF     1.0000000000000000E-10
       &XC_FUNCTIONAL  NO_SHORTCUT
         &PBE  T
         &END PBE
       &END XC_FUNCTIONAL
       &VDW_POTENTIAL
         POTENTIAL_TYPE  PAIR_POTENTIAL
         &PAIR_POTENTIAL
           R_CUTOFF     1.0000000000000005E+01
           TYPE  DFTD3
           PARAMETER_FILE_NAME dftd3.dat
           REFERENCE_FUNCTIONAL PBE
           EPS_CN     9.9999999999999995E-07
           CALCULATE_C9_TERM  T
           REFERENCE_C9_TERM  T
           LONG_RANGE_CORRECTION  F
           VERBOSE_OUTPUT  F
         &END PAIR_POTENTIAL
       &END VDW_POTENTIAL
     &END XC
   &END DFT
   &SUBSYS
     &CELL
       A     1.2864472766435110E+01    0.0000000000000000E+00    0.0000000000000000E+00
       B    -6.4322363581020028E+00    1.1140960178524475E+01    0.0000000000000000E+00
       C     0.0000000000000000E+00    0.0000000000000000E+00    3.2000000000000000E+01
       MULTIPLE_UNIT_CELL  1 1 1
       &CELL_REF
         A     1.2982353780853531E+01    0.0000000000000000E+00    0.0000000000000000E+00
         B    -6.4911768904267628E+00    1.1243048175136114E+01    0.0000000000000000E+00
         C     0.0000000000000000E+00    0.0000000000000000E+00    3.2000000000000000E+01
         MULTIPLE_UNIT_CELL  1 1 1
       &END CELL_REF
     &END CELL
     &COORD
N   -2.8740666630876158E-02    2.0374757968054227E+00    2.5536841960060088E+00
Ga   -2.7677742671839461E-02    6.3098095154266259E-02    2.8842292461929344E+00
N   -2.7188332439818486E-02    5.6057948878376826E-02    5.0334466430458367E+00
Ga   -2.9357160735913906E-02    1.8839878511152619E+00    5.8174140976933053E+00
N   -2.6702230612194365E-02    1.9012941140400004E+00    7.8128224902093599E+00
Ga   -2.6428831063846879E-02    5.5388245720872600E-02    8.4564556740797361E+00
N   -2.5613534288547866E-02    5.5332563465855328E-02    1.0430244074951723E+01
Ga   -2.6553172935361052E-02    1.8965880865939921E+00    1.1077821686826681E+01
N   -2.6106683545075345E-02    1.8769927757448965E+00    1.3071253244938561E+01
Ga   -3.4785208568207410E-02    5.8844113770464515E-02    1.3868988849545985E+01
N   -3.5651614804371332E-02    5.9315146565479940E-02    1.6078507092860470E+01
Ga   -2.8262931547219275E-02    2.1078965524585676E+00    1.6495382781552266E+01
Ga   -1.7731101096310094E-02    3.7391062127545522E+00    1.5229560831112712E+00
N   -1.5090186103402241E+00    4.6223729752509470E+00    2.5125681076271800E+00
Ga   -1.7304095355770286E+00    2.7809022704073363E+00    3.3136267580771417E+00
N   -1.6392041760655027E+00    2.8402897078423859E+00    5.2743549325868022E+00
Ga   -1.6578394585917477E+00    4.7131912334056105E+00    5.8140678818176692E+00
N   -1.6440614842655643E+00    4.7051159422994155E+00    7.8111081215744846E+00
Ga   -1.6260820835889913E+00    2.8475405330767738E+00    8.4486326865525267E+00
N   -1.6234533819658030E+00    2.8480792015623315E+00    1.0441215528569003E+01
Ga   -1.6489501337109889E+00    4.7064538910873646E+00    1.1078143868898398E+01
N   -1.6653505511754632E+00    4.7155177994553599E+00    1.3071667372957601E+01
Ga   -1.6241225423407897E+00    2.8466076521745687E+00    1.3629222547864188E+01
N   -1.6498704322534914E+00    2.8310472021787794E+00    1.5589219908294170E+01
Ga   -1.4657405269674075E+00    4.5976259048881083E+00    1.6495971573764059E+01
N   -1.6226387711435839E-02    3.7744764496458756E+00    1.7630407038990661E+01
N   -3.2406477169970693E+00    7.6028564898370217E+00    2.5326667123794571E+00
Ga   -3.2336776467221555E+00    5.6209060706003990E+00    2.8522315338668411E+00
N   -3.2375050163841550E+00    5.6230105912189616E+00    5.0208618196214960E+00
Ga   -3.2416545013939668E+00    7.4525295630009696E+00    5.8045017544579789E+00
N   -3.2425613684274648E+00    7.4716905093823476E+00    7.8043534478945666E+00
Ga   -3.2432674781044839E+00    5.6268421437502854E+00    8.4552367678930036E+00
N   -3.2431745817449449E+00    5.6271538667805467E+00    1.0429834731199065E+01
Ga   -3.2427163545309141E+00    7.4658558414598151E+00    1.1078809695351957E+01
N   -3.2424133297482118E+00    7.4454726261589999E+00    1.3078058900259677E+01
Ga   -3.2441808888239185E+00    5.6169843460182651E+00    1.3870510947524590E+01
N   -3.2431695802496003E+00    5.6144691182777873E+00    1.6079455871378304E+01
Ga   -3.2426951359667244E+00    7.6209208056000026E+00    1.6449007195145668E+01
Ga   -3.2389660477380153E+00    9.3331747490190935E+00    1.4732248580250655E+00
N   -4.7460579375931697E+00    1.0211506236937053E+01    2.5277794408849412E+00
Ga   -4.9458652239991165E+00    8.3564979611573573E+00    3.2900086161615874E+00
N   -4.8510679196571465E+00    8.4110420075429069E+00    5.2573800962720405E+00
Ga   -4.8743334856830716E+00    1.0282158304952572E+01    5.8090293367667920E+00
N   -4.8596433522492326E+00    1.0274303459136894E+01    7.8067701521927777E+00
Ga   -4.8404880996364756E+00    8.4167134952045899E+00    8.4457539600850193E+00
N   -4.8387467845590217E+00    8.4184195253996528E+00    1.0441421108590250E+01
Ga   -4.8657785861028255E+00    1.0276749118705215E+01    1.1079417584697307E+01
N   -4.8827940419776299E+00    1.0287032276059332E+01    1.3078308038673562E+01
Ga   -4.8398362843761964E+00    8.4175169822786327E+00    1.3625570379144932E+01
N   -4.8585561111715050E+00    8.4061989161039161E+00    1.5600557573827528E+01
Ga   -4.7294220646425629E+00    1.0197457361693328E+01    1.6448727491701479E+01
N   -3.2383357697996753E+00    9.3408035466598776E+00    1.7569556513880777E+01
N    3.1735456566211155E+00    1.9185662643819945E+00    2.6066679170594989E+00
Ga    3.1875101018257945E+00    1.6733875781296700E-01    3.2921394541135096E+00
N    3.1890372222438419E+00    6.1151676153851725E-02    5.2575995148324361E+00
Ga    3.1921611823993787E+00    1.9115089838935631E+00    5.8971209936419609E+00
N    3.1910097104217527E+00    1.9121568322851057E+00    7.8674781638930709E+00
Ga    3.1897000687151991E+00    4.3717642711526283E-02    8.4514621565858068E+00
N    3.1898405964638594E+00    4.2707190235773060E-02    1.0445441819778660E+01
Ga    3.1901428028378054E+00    1.9135845376045679E+00    1.1037409872115457E+01
N    3.1901744604735569E+00    1.9100636397449011E+00    1.3010478942499415E+01
Ga    3.1899965824837624E+00    4.3399388692323806E-02    1.3625805737397892E+01
N    3.1886761279170655E+00    6.4746245551990142E-02    1.5601267444954376E+01
Ga    3.1910582077326186E+00    1.9144320279184495E+00    1.5873398678871657E+01
N    1.4759550140675097E+00    4.6329403925241373E+00    2.5322442458969738E+00
Ga    1.6735098096898964E+00    2.7922687548374086E+00    3.3323400161972097E+00
N    1.5859368534083156E+00    2.8396748245957819E+00    5.2837655364393434E+00
Ga    1.6040492155500938E+00    4.7157863890604412E+00    5.8176651067108178E+00
N    1.5913239999181050E+00    4.7053346280627251E+00    7.8128780389501795E+00
Ga    1.5718515846210981E+00    2.8478103954028429E+00    8.4510188028471500E+00
N    1.5714566659273403E+00    2.8484901927728754E+00    1.0444200522529581E+01
Ga    1.5978430716538985E+00    4.7075543513697804E+00    1.1082881596393696E+01
N    1.6150827784786361E+00    4.7167100289745454E+00    1.3077107429588029E+01
Ga    1.5707214448250260E+00    2.8471422283685164E+00    1.3631446701288057E+01
N    1.5967680563446371E+00    2.8242747767315795E+00    1.5592877420626047E+01
Ga    1.4257790799337640E+00    4.6074809102663661E+00    1.6494664172751566E+01
N   -2.6780193774527034E-02    7.4806949065255264E+00    2.6224091358581538E+00
Ga   -1.7857150195227808E-02    5.7345969626423079E+00    3.2990001257460912E+00
N   -2.6809801416565582E-02    5.6294526922792034E+00    5.2654075565658225E+00
Ga   -2.7663131279697040E-02    7.4828951768854495E+00    5.8886120512718110E+00
N   -2.6821574020154133E-02    7.4843297395706676E+00    7.8627410034915810E+00
Ga   -2.6747152460314071E-02    5.6167819911056247E+00    8.4516143174793346E+00
N   -2.5590387889050797E-02    5.6146449769790694E+00    1.0444644436101719E+01
Ga   -2.6048287475901270E-02    7.4840436790007132E+00    1.1036843645211965E+01
N   -2.8390754477427612E-02    7.4847154388002544E+00    1.3010164731544251E+01
Ga   -2.6287282208890102E-02    5.6129274877186432E+00    1.3630802640991069E+01
N   -3.2597064661123838E-02    5.6465673591276992E+00    1.5592400146865259E+01
Ga   -2.3030733487157850E-02    7.4822474100465275E+00    1.5870966676076565E+01
N   -1.7419415630894544E+00    1.0210174961925444E+01    2.5332093913484668E+00
Ga   -1.5379027480837111E+00    8.3559918521138403E+00    3.2947260410177517E+00
N   -1.6331138797412572E+00    8.4118629768877611E+00    5.2608461443690908E+00
Ga   -1.6106996767524391E+00    1.0283258508738454E+01    5.8086536366194750E+00
N   -1.6264929072808707E+00    1.0274261373295730E+01    7.8074646233190972E+00
Ga   -1.6450131308439260E+00    8.4175110389150181E+00    8.4477692670993605E+00
N   -1.6460886632338849E+00    8.4187240539874413E+00    1.0443344518701743E+01
Ga   -1.6185987160275859E+00    1.0277571579076747E+01    1.1080112178861413E+01
N   -1.6009998753743753E+00    1.0287688448786268E+01    1.3079274653197544E+01
Ga   -1.6453095879963024E+00    8.4179568922020369E+00    1.3625715933779889E+01
N   -1.6264196838419307E+00    8.4049040200800160E+00    1.5601413558068263E+01
Ga   -1.7510358883110648E+00    1.0200124666987570E+01    1.6448603739445062E+01
N    6.4015395648621265E+00    2.0342255459735936E+00    2.5307700745520227E+00
Ga    6.4038446186694475E+00    5.6098430411681034E-02    2.8662772695924552E+00
N    6.4052660524616210E+00    5.5381385419001998E-02    5.0310181638963654E+00
Ga    6.4032041521497138E+00    1.8836686243965814E+00    5.8072838508546676E+00
N    6.4040962292445167E+00    1.9027196081688951E+00    7.8057454545690268E+00
Ga    6.4047733116514758E+00    5.6830270293802630E-02    8.4545610331192087E+00
N    6.4052387236572965E+00    5.6307461364148548E-02    1.0429127690862734E+01
Ga    6.4063556735207259E+00    1.8968277986098876E+00    1.1079177409252447E+01
N    6.4065291706494891E+00    1.8774219197984143E+00    1.3071424206927817E+01
Ga    6.4153211300561335E+00    6.1090048528210962E-02    1.3873042091429312E+01
N    6.4171631603174806E+00    6.0709088576582741E-02    1.6079141404184501E+01
Ga    6.4084947263506287E+00    2.1189974479263318E+00    1.6510489269643074E+01
Ga    6.4115813341820145E+00    3.7700323756066578E+00    1.4761143659986702E+00
N    4.8994244692047939E+00    4.6357901583701366E+00    2.5278253826185955E+00
Ga    4.6970997360588571E+00    2.7848825732661129E+00    3.2874706908254323E+00
N    4.7920208914805036E+00    2.8383048536091384E+00    5.2540474638557999E+00
Ga    4.7739230445870691E+00    4.7104033895678512E+00    5.8077647189484773E+00
N    4.7879829646560372E+00    4.7029903355551212E+00    7.8050940382117702E+00
Ga    4.8085125129921460E+00    2.8479656773779483E+00    8.4515028642619985E+00
N    4.8088099535802185E+00    2.8485988791607726E+00    1.0443682224623965E+01
Ga    4.7836221961006187E+00    4.7074610929425820E+00    1.1083077466946261E+01
N    4.7666716657631669E+00    4.7163914228246657E+00    1.3076099778274699E+01
Ga    4.8102426210712821E+00    2.8475864635789723E+00    1.3634626504960924E+01
N    4.7816374103981216E+00    2.8246321086145820E+00    1.5592746824966182E+01
Ga    4.9684452247762563E+00    4.5992285952530372E+00    1.6509914592807391E+01
N    6.3997569931247931E+00    3.7718422102375850E+00    1.7657343315789504E+01
N    3.1884110544090052E+00    7.6052507794328843E+00    2.5384165218791037E+00
Ga    3.1817806670785096E+00    5.6235549807079623E+00    2.8865051369812278E+00
N    3.1890546126172277E+00    5.6266458411536879E+00    5.0330003628088020E+00
Ga    3.1898320672274005E+00    7.4559042951119254E+00    5.8115760574362199E+00
N    3.1897407957231083E+00    7.4722867229429024E+00    7.8080434577541569E+00
Ga    3.1908153083488227E+00    5.6268811904788585E+00    8.4574882983832680E+00
N    3.1908667186901294E+00    5.6264791955685514E+00    1.0430746389971555E+01
Ga    3.1904345993623000E+00    7.4658617985320168E+00    1.1081549958456561E+01
N    3.1906489376334224E+00    7.4461012271616172E+00    1.3074365259142718E+01
Ga    3.1923906602847931E+00    5.6273572314667870E+00    1.3888442853967376E+01
N    3.1919147498269722E+00    5.6263478982692527E+00    1.6080399679165168E+01
Ga    3.1906484926540948E+00    7.6747814679532098E+00    1.6503845528935329E+01
Ga    3.1883227964062635E+00    9.3408531560762409E+00    1.4973715755031956E+00
N    1.6866689318273536E+00    1.0207649247593862E+01    2.5361148984532891E+00
Ga    1.4815327895710901E+00    8.3556747693175915E+00    3.2992213626105831E+00
N    1.5799668439071899E+00    8.4110139249273015E+00    5.2638536410804964E+00
Ga    1.5550623676477768E+00    1.0282939327128497E+01    5.8116713103669904E+00
N    1.5713777061403942E+00    1.0274013907848156E+01    7.8089308488074956E+00
Ga    1.5912637221090018E+00    8.4175238843843907E+00    8.4495190853722946E+00
N    1.5930709008228732E+00    8.4176354719870226E+00    1.0442318600626642E+01
Ga    1.5676690264567545E+00    1.0277132945586596E+01    1.1077792390923257E+01
N    1.5514632749089541E+00    1.0286616778385310E+01    1.3069966874906186E+01
Ga    1.5944407193760477E+00    8.4189164218895982E+00    1.3631902940386185E+01
N    1.5610727644601952E+00    8.4044989951826317E+00    1.5590450750647475E+01
Ga    1.7604349942045425E+00    1.0167314567565626E+01    1.6504897510194173E+01
N    3.1900982234994837E+00    9.3312781593421494E+00    1.7648236181186629E+01
N    9.6236634579874369E+00    1.9145701510370041E+00    2.6246264069005512E+00
Ga    9.6198788553247656E+00    1.7014768295901184E-01    3.2995751203660579E+00
N    9.6209490775478130E+00    5.7164756892458236E-02    5.2641454708775743E+00
Ga    9.6189033453134982E+00    1.9130124441837340E+00    5.8905910343687893E+00
N    9.6203040889488403E+00    1.9125813967119323E+00    7.8628670927411175E+00
Ga    9.6210975139787998E+00    4.4760179339870219E-02    8.4483947071474983E+00
N    9.6220792507426314E+00    4.3351232727768176E-02    1.0440182501920322E+01
Ga    9.6216278733243605E+00    1.9133684746425144E+00    1.1034237027041248E+01
N    9.6223532373681042E+00    1.9129560194449347E+00    1.3004678341161046E+01
Ga    9.6223768844445949E+00    4.3781160079257558E-02    1.3630047407077605E+01
N    9.6233355217725229E+00    7.4659590606365345E-02    1.5587518338568561E+01
Ga    9.6215281605362080E+00    1.9112467922319025E+00    1.5866425875376263E+01
N    7.9099635507843873E+00    4.6359491458030950E+00    2.5314587305025023E+00
Ga    8.1084444893214105E+00    2.7842047209341625E+00    3.2944144636515662E+00
N    8.0128919594951533E+00    2.8391961245721031E+00    5.2601716289196512E+00
Ga    8.0404401603250779E+00    4.7118780119126855E+00    5.8041293226383557E+00
N    8.0239890108671652E+00    4.7042440818918472E+00    7.8032924351297632E+00
Ga    8.0027666646202089E+00    2.8475493737073792E+00    8.4463484448136192E+00
N    8.0023272108211287E+00    2.8481349165290437E+00    1.0439246504415003E+01
Ga    8.0272785459810549E+00    4.7061153048477786E+00    1.1077980087513026E+01
N    8.0442311796491595E+00    4.7150066292488182E+00    1.3070681346163409E+01
Ga    8.0037769694525096E+00    2.8468946637835746E+00    1.3632699103019130E+01
N    8.0320138993661985E+00    2.8308153624092425E+00    1.5590045002461041E+01
Ga    7.8344139481111927E+00    4.5910694855715439E+00    1.6511372296138102E+01
N    6.4061495709587835E+00    7.4834384483389842E+00    2.6182440042316277E+00
Ga    6.4058371597662660E+00    5.7373651419560030E+00    3.2901985315639481E+00
N    6.4058800953520558E+00    5.6267732910998554E+00    5.2570001777468098E+00
Ga    6.4069678657444236E+00    7.4824250584018372E+00    5.8829576553727314E+00
N    6.4061926321923632E+00    7.4832212446612472E+00    7.8577538741910438E+00
Ga    6.4060239152063021E+00    5.6151108656438069E+00    8.4454790964756778E+00
N    6.4054778069920113E+00    5.6141542086261929E+00    1.0439624217027740E+01
Ga    6.4062658352123751E+00    7.4830477206743709E+00    1.1035319248956281E+01
N    6.4090042546533166E+00    7.4842999331193090E+00    1.3008389469424284E+01
Ga    6.4065128730370411E+00    5.6130257725168677E+00    1.3634373030531883E+01
N    6.4121888317682858E+00    5.6477384012740481E+00    1.5592645457023920E+01
Ga    6.4033605120080006E+00    7.4809127244281521E+00    1.5871407055992700E+01
N    4.6912548723332135E+00    1.0208606248071984E+01    2.5378306751587871E+00
Ga    4.8966146555679479E+00    8.3545612595560339E+00    3.2963409312478902E+00
N    4.7992329415012058E+00    8.4106036305175280E+00    5.2613398015316504E+00
Ga    4.8211810709995913E+00    1.0281717251281137E+01    5.8115268962947635E+00
N    4.8072166091919462E+00    1.0273865370607652E+01    7.8080538382746409E+00
Ga    4.7885772280711443E+00    8.4166232521606883E+00    8.4476793107189803E+00
N    4.7873669911533794E+00    8.4172955475117579E+00    1.0440727414597573E+01
Ga    4.8116812774929407E+00    1.0276395392619314E+01    1.1077335480418254E+01
N    4.8284401678238007E+00    1.0285899306520543E+01    1.3069327167797077E+01
Ga    4.7871769483127338E+00    8.4182450805687097E+00    1.3631794970073999E+01
N    4.8200000936079812E+00    8.4052420327329820E+00    1.5590313437534707E+01
Ga    4.6189342702606879E+00    1.0166393468169616E+01    1.6504943374109772E+01
O    1.0225744965860499E+00    3.3834473194330434E+00   -2.8348370152946317E-01
H    1.8068561173101958E+00    3.9304472196001639E+00   -6.4746491878005172E-02
C    1.4907634754759715E+00    1.9828519410880212E+00   -4.2409441934808717E-01
H    2.1397030556131065E+00    1.7212599900623946E+00    4.2857247673917459E-01
H    5.9075803863919008E-01    1.3615290572412977E+00   -4.2446117073743717E-01
H    2.0138121357810568E+00    1.9020425207256868E+00   -1.3825181877954262E+00
     &END COORD
     &KIND C
       BASIS_SET DZVP-MOLOPT-SR-GTH-q4
       POTENTIAL GTH-PBE-q4
       &POTENTIAL
2 2
0.3384712400000000E+00 2 -0.8803673979999999E+01  0.1339210850000000E+01
2
0.3025757500000000E+00 1  0.9622486650000001E+01
0.2915069400000000E+00 0
       &END POTENTIAL
     &END KIND
     &KIND O
       BASIS_SET DZVP-MOLOPT-SR-GTH-q6
       POTENTIAL GTH-PBE-q6
       &POTENTIAL
2 4
0.2445543000000000E+00 2 -0.1666721480000000E+02  0.2487311320000000E+01
2
0.2209559200000000E+00 1  0.1833745811000000E+02
0.2113324700000000E+00 0
       &END POTENTIAL
     &END KIND
     &KIND H
       BASIS_SET DZVP-MOLOPT-SR-GTH-q1
       POTENTIAL GTH-PBE-q1
       &POTENTIAL
1
0.2000000000000000E+00 2 -0.4178900440000000E+01  0.7244633100000000E+00
0
       &END POTENTIAL
     &END KIND
     &KIND N
       BASIS_SET DZVP-MOLOPT-SR-GTH
       POTENTIAL GTH-PBE-q5
       &POTENTIAL
2 3
0.2837905100000000E+00 2 -0.1241522559000000E+02  0.1868095920000000E+01
2
0.2554050000000000E+00 1  0.1363026257000000E+02
0.2454945300000000E+00 0
       &END POTENTIAL
     &END KIND
     &KIND Ga
       BASIS_SET DZVP-MOLOPT-SR-GTH
       POTENTIAL GTH-PBE-q13
       &POTENTIAL
2 1 10
0.4900000000000000E+00 0
3
0.4167772300000000E+00 3  0.1047568975000000E+02 -0.4921768140000000E+01  0.8707055900000000E+00
0.7770178090000000E+01 -0.2248152160000000E+01
0.1784415450000000E+01
0.5696265200000000E+00 2  0.1777985340000000E+01  0.1958597600000000E+00
-0.2317443900000000E+00
0.2381265000000000E+00 1 -0.1624868022000000E+02
       &END POTENTIAL
     &END KIND
     &TOPOLOGY
       NUMBER_OF_ATOMS  206
       MULTIPLE_UNIT_CELL  1 1 1
     &END TOPOLOGY
   &END SUBSYS
 &END FORCE_EVAL
