 # Version information for this restart file 
 # current date 2019-06-24 21:16:01.029
 # current working dir /scratch/rzk/rzk/GaN-carbene/443-adatoms-both-2x2/02-Methanol/01-O-GaTop
 # Program compiled at                              Sun Apr  7 00:48:11 EDT 2019
 # Program compiled on                          beluga2.int.ets1.calculquebec.ca
 # Program compiled for                        Beluga-Linux-x86-64-intel-openmpi
 # Source code revision number                                         svn:18619
 &GLOBAL
   PRINT_LEVEL  MEDIUM
   PROJECT_NAME TEST
   RUN_TYPE  GEO_OPT
 &END GLOBAL
 &MOTION
   &GEO_OPT
     MAX_ITER  500
     STEP_START_VAL  147
   &END GEO_OPT
 &END MOTION
 &FORCE_EVAL
   METHOD  QS
   STRESS_TENSOR  ANALYTICAL
   &DFT
     BASIS_SET_FILE_NAME BASIS_MOLOPT
     POTENTIAL_FILE_NAME GTH_POTENTIALS
     UKS  T
     SURFACE_DIPOLE_CORRECTION  T
     SURF_DIP_DIR  Z
     &SCF
       MAX_SCF  80
       EPS_SCF     5.0000000000000004E-06
       &OT  T
         PRECONDITIONER  FULL_ALL
       &END OT
       &OUTER_SCF  T
         OPTIMIZER  NONE
         EPS_SCF     5.0000000000000004E-06
         MAX_SCF  4
       &END OUTER_SCF
       &PRINT
         &RESTART  OFF
           BACKUP_COPIES  1
           &EACH
             JUST_ENERGY  0
             QS_SCF  0
             MD  20
           &END EACH
         &END RESTART
       &END PRINT
     &END SCF
     &QS
       EPS_DEFAULT     1.0000000000000000E-14
       METHOD  GPW
     &END QS
     &MGRID
       NGRIDS  5
       CUTOFF     1.2000000000000000E+03
     &END MGRID
     &XC
       DENSITY_CUTOFF     1.0000000000000000E-10
       GRADIENT_CUTOFF     1.0000000000000000E-10
       TAU_CUTOFF     1.0000000000000000E-10
       &XC_FUNCTIONAL  NO_SHORTCUT
         &PBE  T
         &END PBE
       &END XC_FUNCTIONAL
       &VDW_POTENTIAL
         POTENTIAL_TYPE  PAIR_POTENTIAL
         &PAIR_POTENTIAL
           R_CUTOFF     1.0000000000000005E+01
           TYPE  DFTD3
           PARAMETER_FILE_NAME dftd3.dat
           REFERENCE_FUNCTIONAL PBE
           EPS_CN     9.9999999999999995E-07
           CALCULATE_C9_TERM  T
           REFERENCE_C9_TERM  T
           LONG_RANGE_CORRECTION  F
           VERBOSE_OUTPUT  F
         &END PAIR_POTENTIAL
       &END VDW_POTENTIAL
     &END XC
   &END DFT
   &SUBSYS
     &CELL
       A     1.2864472766435110E+01    0.0000000000000000E+00    0.0000000000000000E+00
       B    -6.4322363581020028E+00    1.1140960178524475E+01    0.0000000000000000E+00
       C     0.0000000000000000E+00    0.0000000000000000E+00    3.2000000000000000E+01
       MULTIPLE_UNIT_CELL  1 1 1
       &CELL_REF
         A     1.2982353780853531E+01    0.0000000000000000E+00    0.0000000000000000E+00
         B    -6.4911768904267628E+00    1.1243048175136114E+01    0.0000000000000000E+00
         C     0.0000000000000000E+00    0.0000000000000000E+00    3.2000000000000000E+01
         MULTIPLE_UNIT_CELL  1 1 1
       &END CELL_REF
     &END CELL
     &COORD
N   -3.3053799711083812E-02    2.0303748030934612E+00    2.5501642327228895E+00
Ga   -2.7213217760290613E-02    5.4304558070506159E-02    2.8798224422238716E+00
N   -3.1558014935153977E-02    4.9223641350490739E-02    5.0332499904191597E+00
Ga   -3.2848455029311940E-02    1.8761603200563401E+00    5.8179381696258075E+00
N   -3.0904402618113832E-02    1.8939281296925263E+00    7.8133449110618454E+00
Ga   -3.0492517068264603E-02    4.7742961514654153E-02    8.4555026988627073E+00
N   -3.0862104764750140E-02    4.8331677987055233E-02    1.0429260875261683E+01
Ga   -3.1725003521350062E-02    1.8899228826201810E+00    1.1077159414433577E+01
N   -3.2206497038246407E-02    1.8709984319240969E+00    1.3069120364369997E+01
Ga   -4.0805092603553271E-02    5.5133916420853774E-02    1.3868085416729107E+01
N   -4.3962038399950255E-02    5.6537166255442625E-02    1.6077726573848917E+01
Ga   -3.4244785365481124E-02    2.1141141675729034E+00    1.6508577180517001E+01
Ga   -2.8520014714748531E-02    3.7332066566465589E+00    1.5252259430591197E+00
N   -1.5144235071343533E+00    4.6151400371240019E+00    2.5153687778400111E+00
Ga   -1.7339227453797965E+00    2.7730361363214664E+00    3.3157311160619773E+00
N   -1.6428274511636871E+00    2.8324212132733253E+00    5.2752528349327337E+00
Ga   -1.6620220035504030E+00    4.7055257875565220E+00    5.8144001406251586E+00
N   -1.6484894846715854E+00    4.6974314745489858E+00    7.8114056276614479E+00
Ga   -1.6302251973735884E+00    2.8401876613339017E+00    8.4485367519099821E+00
N   -1.6286115329388358E+00    2.8407178730700853E+00    1.0439948407875018E+01
Ga   -1.6533599659033891E+00    4.6990736140493237E+00    1.1077214133338307E+01
N   -1.6700767512675141E+00    4.7082094575529938E+00    1.3069205434234124E+01
Ga   -1.6296320182972175E+00    2.8402634477370339E+00    1.3630532217207147E+01
N   -1.6566848313705842E+00    2.8238649797914515E+00    1.5587811499951583E+01
Ga   -1.4602158250599022E+00    4.5845309445711528E+00    1.6508300053594660E+01
N   -2.3664108926636330E-02    3.7666581084258826E+00    1.7655798671452416E+01
N   -3.2448151310951494E+00    7.5945093032100210E+00    2.5285496977601616E+00
Ga   -3.2372758194292017E+00    5.6181890323284964E+00    2.8517357241126544E+00
N   -3.2416817051647402E+00    5.6150617623902308E+00    5.0220295930334515E+00
Ga   -3.2456221605605191E+00    7.4462168234324606E+00    5.8024538694268886E+00
N   -3.2471062770046624E+00    7.4643989644353539E+00    7.8033178253499571E+00
Ga   -3.2476500669969526E+00    5.6199437929961693E+00    8.4539059215095929E+00
N   -3.2477428521376011E+00    5.6196103151966073E+00    1.0428153745333979E+01
Ga   -3.2476438659800824E+00    7.4582678225572367E+00    1.1076443083885255E+01
N   -3.2476878039211496E+00    7.4379428184175556E+00    1.3076308630163100E+01
Ga   -3.2470854521039056E+00    5.6082756849563973E+00    1.3868930529703826E+01
N   -3.2467098503682008E+00    5.6052959643186355E+00    1.6077320528454958E+01
Ga   -3.2472142146657221E+00    7.6040610258627632E+00    1.6440567653588275E+01
Ga   -3.2435065340714275E+00    9.3251174301861539E+00    1.4432679183116219E+00
N   -4.7508838932500739E+00    1.0204246207119873E+01    2.5242799703560066E+00
Ga   -4.9439593324293840E+00    8.3523431355341575E+00    3.2838000605579420E+00
N   -4.8546722821609167E+00    8.4036931259444927E+00    5.2545967587725357E+00
Ga   -4.8775028967455443E+00    1.0274423775132519E+01    5.8062300762213104E+00
N   -4.8641905789564639E+00    1.0266849281353338E+01    7.8053376870039397E+00
Ga   -4.8447032027165120E+00    8.4096587308067772E+00    8.4438767083566670E+00
N   -4.8438780881794354E+00    8.4110397324506909E+00    1.0439827805810658E+01
Ga   -4.8708349788348615E+00    1.0269611090545474E+01    1.1076893215681737E+01
N   -4.8888091633952104E+00    1.0280305986769148E+01    1.3076495832151847E+01
Ga   -4.8446462304370623E+00    8.4108065762095183E+00    1.3623228866201904E+01
N   -4.8607076786119325E+00    8.4014292039571803E+00    1.5601427484458224E+01
Ga   -4.7439940877311964E+00    1.0196963720877005E+01    1.6440340375539332E+01
N   -3.2481927057208373E+00    9.3321740262139929E+00    1.7562970564979203E+01
N    3.1702394579280360E+00    1.9100278652719658E+00    2.6064800408667308E+00
Ga    3.1832717267230008E+00    1.5371949840378801E-01    3.2846531923867865E+00
N    3.1851789284936851E+00    5.3395390895843151E-02    5.2538574305271224E+00
Ga    3.1874735409693749E+00    1.9019786464473090E+00    5.8954827381127881E+00
N    3.1865725804536291E+00    1.9045451191634100E+00    7.8665173902108130E+00
Ga    3.1850148283025854E+00    3.5914029986500756E-02    8.4487531364110406E+00
N    3.1847374594466742E+00    3.5667175484747037E-02    1.0443041681908422E+01
Ga    3.1848642709557273E+00    1.9065056859942473E+00    1.1035467366840555E+01
N    3.1849090468085621E+00    1.9030363958338505E+00    1.3008815586695462E+01
Ga    3.1845554929415889E+00    3.6408593546046870E-02    1.3622874666592548E+01
N    3.1851128360822636E+00    5.5227244150333858E-02    1.5601175952668589E+01
Ga    3.1840947954790955E+00    1.9076804204893123E+00    1.5871779512846301E+01
N    1.4730134031740609E+00    4.6260683783478900E+00    2.5340223077912580E+00
Ga    1.6697704479986304E+00    2.7835062640352866E+00    3.3306035233122522E+00
N    1.5817699925764326E+00    2.8316268021788651E+00    5.2824748016358036E+00
Ga    1.5993775691980974E+00    4.7070767366687765E+00    5.8175195303907712E+00
N    1.5872224202195582E+00    4.6976381251891626E+00    7.8126098788110845E+00
Ga    1.5678300963891991E+00    2.8402032803037294E+00    8.4504185280089548E+00
N    1.5664025838835216E+00    2.8414935209137093E+00    1.0442970133250071E+01
Ga    1.5926052979071199E+00    4.7005547044630003E+00    1.1082958349292701E+01
N    1.6086878495105665E+00    4.7100174763015108E+00    1.3075781124963985E+01
Ga    1.5642026731302221E+00    2.8408009399528047E+00    1.3632281241376182E+01
N    1.5923914387844249E+00    2.8168648457873342E+00    1.5591125802175515E+01
Ga    1.4088311810285554E+00    4.5941383497203772E+00    1.6508598987441189E+01
N   -3.2249536894757506E-02    7.4730401948993350E+00    2.6227804755005093E+00
Ga   -2.2112941177367385E-02    5.7278722823405159E+00    3.3008112616077825E+00
N   -3.0872043018443634E-02    5.6218055099898567E+00    5.2664184614206562E+00
Ga   -3.3799858247616513E-02    7.4759409000937715E+00    5.8878318145362432E+00
N   -3.1345007250444180E-02    7.4768468974848776E+00    7.8623301904024387E+00
Ga   -3.1107892849581327E-02    5.6092555917376066E+00    8.4506186989795253E+00
N   -3.0386276473718297E-02    5.6074931033244466E+00    1.0443211284333431E+01
Ga   -3.1244425449778644E-02    7.4766760381661701E+00    1.1035734562349944E+01
N   -3.3912320796736804E-02    7.4781796618713665E+00    1.3009020933001151E+01
Ga   -3.2261098355743721E-02    5.6057790663160949E+00    1.3632551662225113E+01
N   -3.8137724393479178E-02    5.6423716342976036E+00    1.5591459876554758E+01
Ga   -3.0043914839820763E-02    7.4753234929495935E+00    1.5872146480731216E+01
N   -1.7452536367049398E+00    1.0202666660489866E+01    2.5288814604748313E+00
Ga   -1.5474954404588337E+00    8.3508987963863976E+00    3.2879682976363416E+00
N   -1.6372209836818470E+00    8.4042790143762858E+00    5.2575926690870789E+00
Ga   -1.6158146345780646E+00    1.0275125452145732E+01    5.8058785797580281E+00
N   -1.6309643405582628E+00    1.0266797971079015E+01    7.8058745038811823E+00
Ga   -1.6498032279413593E+00    8.4101663383193017E+00    8.4452497897828795E+00
N   -1.6510245051706325E+00    8.4112509654678753E+00    1.0441239746300166E+01
Ga   -1.6236603959736982E+00    1.0270325635043967E+01    1.1076827345793683E+01
N   -1.6063450719077699E+00    1.0280539824758774E+01    1.3076488025461003E+01
Ga   -1.6506129499019144E+00    8.4108448190672433E+00    1.3622684969097616E+01
N   -1.6339235233317506E+00    8.4017016246676040E+00    1.5600758769156847E+01
Ga   -1.7514689305951723E+00    1.0196434794366258E+01    1.6440304170272082E+01
N    6.3979603057651406E+00    2.0274230105916566E+00    2.5326192131337963E+00
Ga    6.3955857243327277E+00    4.5850254447538367E-02    2.8658440770857121E+00
N    6.4021548252758693E+00    4.8451570259434126E-02    5.0312607259397755E+00
Ga    6.3996712932124113E+00    1.8760767294187466E+00    5.8086220990973230E+00
N    6.3997600829859831E+00    1.8954363486544310E+00    7.8064516771475425E+00
Ga    6.3997076646610447E+00    4.9051743590134839E-02    8.4530088350736214E+00
N    6.4007840391610635E+00    4.9214395082713712E-02    1.0427800765035439E+01
Ga    6.4012365858457727E+00    1.8901343384145715E+00    1.1076583082737002E+01
N    6.4013723394266631E+00    1.8708361307202948E+00    1.3069029740391073E+01
Ga    6.4100006347741187E+00    5.4511994667516689E-02    1.3868504908059091E+01
N    6.4125582796014742E+00    5.5210596454899834E-02    1.6077525050428399E+01
Ga    6.4034297433618717E+00    2.1127923351622764E+00    1.6505877644052060E+01
Ga    6.4064987365353332E+00    3.7634195662135563E+00    1.4902895648496923E+00
N    4.8957858463551318E+00    4.6281105510387981E+00    2.5318469063923033E+00
Ga    4.6909315943500944E+00    2.7748579668336961E+00    3.2914121721586063E+00
N    4.7884561162110293E+00    2.8309687455355399E+00    5.2559340815544200E+00
Ga    4.7711625603919225E+00    4.7029377416049005E+00    5.8095468032055440E+00
N    4.7835314603377466E+00    4.6960065944603366E+00    7.8057952354350695E+00
Ga    4.8035745974835802E+00    2.8406864905495008E+00    8.4502345006239885E+00
N    4.8036012232935121E+00    2.8417839212602867E+00    1.0442174542127304E+01
Ga    4.7783152059920608E+00    4.7005660192679040E+00    1.1082265179710502E+01
N    4.7602981402921616E+00    4.7103111365782304E+00    1.3075775528779227E+01
Ga    4.8048567518470975E+00    2.8409075891818767E+00    1.3632490662606770E+01
N    4.7763665004893916E+00    2.8164107717666780E+00    1.5591989133508134E+01
Ga    4.9586059320096894E+00    4.5952838906387043E+00    1.6505931524780475E+01
N    6.3922518147140615E+00    3.7673819492222309E+00    1.7649956163452622E+01
N    3.1846935306298181E+00    7.5982696225996307E+00    2.5430457661469337E+00
Ga    3.1766259298582118E+00    5.6160649401175791E+00    2.8943152438624913E+00
N    3.1861125273136217E+00    5.6196380739961924E+00    5.0351155195992918E+00
Ga    3.1861468998307352E+00    7.4497340449833933E+00    5.8129741427555075E+00
N    3.1854976601411717E+00    7.4648786440333623E+00    7.8085687170903295E+00
Ga    3.1860154690154032E+00    5.6195186818665315E+00    8.4573676523902108E+00
N    3.1857943111917653E+00    5.6195186317844721E+00    1.0430299534953217E+01
Ga    3.1851435130420063E+00    7.4584652154170161E+00    1.1081927728291683E+01
N    3.1846434075697094E+00    7.4391548145008253E+00    1.3075610076058375E+01
Ga    3.1835789382080524E+00    5.6193161126002247E+00    1.3891511398351831E+01
N    3.1833066909651202E+00    5.6194687105225514E+00    1.6080385002084110E+01
Ga    3.1846682634060595E+00    7.6648979754043740E+00    1.6503265946481889E+01
Ga    3.1845039812979286E+00    9.3319417850860447E+00    1.5111598778997435E+00
N    1.6832516140955018E+00    1.0199725265786913E+01    2.5380684423299571E+00
Ga    1.4738482591637023E+00    8.3467945188942672E+00    3.3027325151979339E+00
N    1.5756372176821107E+00    8.4033940088487711E+00    5.2653345015241211E+00
Ga    1.5511868642491606E+00    1.0275609625589658E+01    5.8124595708365208E+00
N    1.5669355584797713E+00    1.0266541180345696E+01    7.8093468670065311E+00
Ga    1.5866110144347485E+00    8.4098561847286657E+00    8.4487364885396534E+00
N    1.5881910081386892E+00    8.4101015564397059E+00    1.0441726156381794E+01
Ga    1.5631287244749241E+00    1.0269609121304898E+01    1.1076107254937630E+01
N    1.5464915137525057E+00    1.0279434207972013E+01    1.3068909411409685E+01
Ga    1.5881405867163949E+00    8.4120980309537252E+00    1.3632142807436484E+01
N    1.5534644333574623E+00    8.3993227034780897E+00    1.5591807131422106E+01
Ga    1.7550043298361755E+00    1.0160900534870933E+01    1.6502932770393009E+01
N    3.1849595520287592E+00    9.3229582622881608E+00    1.7645272011678060E+01
N    9.6202496877534358E+00    1.9070198901752915E+00    2.6251158481107910E+00
Ga    9.6164045322643634E+00    1.6416227238461700E-01    3.3031089034477099E+00
N    9.6172541957269537E+00    4.9971904698038819E-02    5.2657377504872311E+00
Ga    9.6154409560320708E+00    1.9057628554077699E+00    5.8925938714261692E+00
N    9.6159162034373580E+00    1.9050607378605040E+00    7.8639167240445973E+00
Ga    9.6167213961867315E+00    3.6890169806830020E-02    8.4481575514359140E+00
N    9.6172851237174157E+00    3.6226978068015267E-02    1.0439324962621965E+01
Ga    9.6165710168236007E+00    1.9062441020545693E+00    1.1033087282130062E+01
N    9.6165955866010311E+00    1.9058601327305327E+00    1.3002529102956805E+01
Ga    9.6165717059485871E+00    3.7857983609477112E-02    1.3629765544054395E+01
N    9.6164782091845229E+00    6.8665634756018362E-02    1.5588003001405188E+01
Ga    9.6171385681736314E+00    1.9059589169963114E+00    1.5867893088530387E+01
N    7.9057784201032382E+00    4.6281289316500835E+00    2.5332511852425488E+00
Ga    8.1065577620868705E+00    2.7761589276321796E+00    3.2978995705289447E+00
N    8.0093530422072359E+00    2.8319724701479196E+00    5.2618374028233923E+00
Ga    8.0370921782169393E+00    4.7048636180951871E+00    5.8056208409230843E+00
N    8.0192909298702055E+00    4.6969233477042405E+00    7.8041514086471651E+00
Ga    7.9982221648734484E+00    2.8404363816536944E+00    8.4460289107044346E+00
N    7.9975484653389000E+00    2.8411957009204194E+00    1.0437892705008007E+01
Ga    8.0225325357697184E+00    4.6992979814379661E+00    1.1076140974798086E+01
N    8.0393032517061283E+00    4.7083233624458414E+00    1.3068950083368192E+01
Ga    7.9989948094744188E+00    2.8400218193377178E+00    1.3629967457507119E+01
N    8.0259831759928488E+00    2.8235675404974510E+00    1.5587590342241333E+01
Ga    7.8310797472209739E+00    4.5850333821618401E+00    1.6506437434243004E+01
N    6.4037935435351541E+00    7.4766687373560634E+00    2.6191635455953883E+00
Ga    6.4035168272128784E+00    5.7330227227072958E+00    3.2938773139943063E+00
N    6.4024582032868995E+00    5.6196719758295730E+00    5.2587072228480514E+00
Ga    6.4052814535487368E+00    7.4762980573438380E+00    5.8830066368941454E+00
N    6.4018763005432078E+00    7.4759956587305103E+00    7.8577800122206991E+00
Ga    6.4014623045510479E+00    5.6081817124126649E+00    8.4452051795495393E+00
N    6.4003973275541703E+00    5.6071264888725887E+00    1.0438792339223731E+01
Ga    6.4010141088183152E+00    7.4760123698253267E+00    1.1033546725807511E+01
N    6.4035173209648155E+00    7.4777442989605669E+00    1.3007650894546325E+01
Ga    6.4012856653068848E+00    5.6061862163042155E+00    1.3632479501486237E+01
N    6.4076880662937565E+00    5.6427609581273188E+00    1.5591953089553028E+01
Ga    6.3994921893399095E+00    7.4760035760737980E+00    1.5872091636732110E+01
N    4.6867941005918698E+00    1.0200941531500492E+01    2.5393638667351968E+00
Ga    4.8963617028343300E+00    8.3468598305613249E+00    3.3001415889959405E+00
N    4.7959746514970378E+00    8.4033412068899995E+00    5.2630527940080505E+00
Ga    4.8181152561203078E+00    1.0274847544754325E+01    5.8123224160498035E+00
N    4.8028262003022801E+00    1.0266272668048250E+01    7.8086699439066400E+00
Ga    4.7843442345577820E+00    8.4091116823432692E+00    8.4475562871864529E+00
N    4.7820173983458973E+00    8.4101522413568954E+00    1.0440575663740223E+01
Ga    4.8065778203481582E+00    1.0269392679064126E+01    1.1076565700644464E+01
N    4.8225357470077448E+00    1.0279343938653769E+01    1.3069263713384469E+01
Ga    4.7815084519764843E+00    8.4116415700911773E+00    1.3631625740705333E+01
N    4.8156037837947112E+00    8.3993254291157342E+00    1.5591239436232392E+01
Ga    4.6142140409086618E+00    1.0161301538209871E+01    1.6503623332572246E+01
O    1.0583797843928580E+00    3.4562897805451867E+00   -2.6042595985806849E-01
H    1.8222660729141080E+00    3.9979197630473888E+00    3.8115902623544272E-02
C    1.5536595888861173E+00    2.0701549164971831E+00   -4.4902360514519629E-01
H    2.2222103359747751E+00    1.8005813662242953E+00    3.8416480235096978E-01
H    6.6839639926056460E-01    1.4263050749826804E+00   -4.5360368571677123E-01
H    2.0607596713288396E+00    2.0316306767116412E+00   -1.4180783497895861E+00
     &END COORD
     &KIND C
       BASIS_SET DZVP-MOLOPT-SR-GTH-q4
       POTENTIAL GTH-PBE-q4
       &POTENTIAL
2 2
0.3384712400000000E+00 2 -0.8803673979999999E+01  0.1339210850000000E+01
2
0.3025757500000000E+00 1  0.9622486650000001E+01
0.2915069400000000E+00 0
       &END POTENTIAL
     &END KIND
     &KIND O
       BASIS_SET DZVP-MOLOPT-SR-GTH-q6
       POTENTIAL GTH-PBE-q6
       &POTENTIAL
2 4
0.2445543000000000E+00 2 -0.1666721480000000E+02  0.2487311320000000E+01
2
0.2209559200000000E+00 1  0.1833745811000000E+02
0.2113324700000000E+00 0
       &END POTENTIAL
     &END KIND
     &KIND H
       BASIS_SET DZVP-MOLOPT-SR-GTH-q1
       POTENTIAL GTH-PBE-q1
       &POTENTIAL
1
0.2000000000000000E+00 2 -0.4178900440000000E+01  0.7244633100000000E+00
0
       &END POTENTIAL
     &END KIND
     &KIND N
       BASIS_SET DZVP-MOLOPT-SR-GTH
       POTENTIAL GTH-PBE-q5
       &POTENTIAL
2 3
0.2837905100000000E+00 2 -0.1241522559000000E+02  0.1868095920000000E+01
2
0.2554050000000000E+00 1  0.1363026257000000E+02
0.2454945300000000E+00 0
       &END POTENTIAL
     &END KIND
     &KIND Ga
       BASIS_SET DZVP-MOLOPT-SR-GTH
       POTENTIAL GTH-PBE-q13
       &POTENTIAL
2 1 10
0.4900000000000000E+00 0
3
0.4167772300000000E+00 3  0.1047568975000000E+02 -0.4921768140000000E+01  0.8707055900000000E+00
0.7770178090000000E+01 -0.2248152160000000E+01
0.1784415450000000E+01
0.5696265200000000E+00 2  0.1777985340000000E+01  0.1958597600000000E+00
-0.2317443900000000E+00
0.2381265000000000E+00 1 -0.1624868022000000E+02
       &END POTENTIAL
     &END KIND
     &TOPOLOGY
       NUMBER_OF_ATOMS  206
       MULTIPLE_UNIT_CELL  1 1 1
     &END TOPOLOGY
   &END SUBSYS
 &END FORCE_EVAL
