 # Version information for this restart file 
 # current date 2019-06-24 21:49:10.976
 # current working dir /scratch/rzk/rzk/GaN-carbene/443-adatoms-both-2x2/02-Methanol/01-O-GaTop
 # Program compiled at                              Sun Apr  7 00:48:11 EDT 2019
 # Program compiled on                          beluga2.int.ets1.calculquebec.ca
 # Program compiled for                        Beluga-Linux-x86-64-intel-openmpi
 # Source code revision number                                         svn:18619
 &GLOBAL
   PRINT_LEVEL  MEDIUM
   PROJECT_NAME TEST
   RUN_TYPE  GEO_OPT
 &END GLOBAL
 &MOTION
   &GEO_OPT
     MAX_ITER  500
     STEP_START_VAL  151
   &END GEO_OPT
 &END MOTION
 &FORCE_EVAL
   METHOD  QS
   STRESS_TENSOR  ANALYTICAL
   &DFT
     BASIS_SET_FILE_NAME BASIS_MOLOPT
     POTENTIAL_FILE_NAME GTH_POTENTIALS
     UKS  T
     SURFACE_DIPOLE_CORRECTION  T
     SURF_DIP_DIR  Z
     &SCF
       MAX_SCF  80
       EPS_SCF     5.0000000000000004E-06
       &OT  T
         PRECONDITIONER  FULL_ALL
       &END OT
       &OUTER_SCF  T
         OPTIMIZER  NONE
         EPS_SCF     5.0000000000000004E-06
         MAX_SCF  4
       &END OUTER_SCF
       &PRINT
         &RESTART  OFF
           BACKUP_COPIES  1
           &EACH
             JUST_ENERGY  0
             QS_SCF  0
             MD  20
           &END EACH
         &END RESTART
       &END PRINT
     &END SCF
     &QS
       EPS_DEFAULT     1.0000000000000000E-14
       METHOD  GPW
     &END QS
     &MGRID
       NGRIDS  5
       CUTOFF     1.2000000000000000E+03
     &END MGRID
     &XC
       DENSITY_CUTOFF     1.0000000000000000E-10
       GRADIENT_CUTOFF     1.0000000000000000E-10
       TAU_CUTOFF     1.0000000000000000E-10
       &XC_FUNCTIONAL  NO_SHORTCUT
         &PBE  T
         &END PBE
       &END XC_FUNCTIONAL
       &VDW_POTENTIAL
         POTENTIAL_TYPE  PAIR_POTENTIAL
         &PAIR_POTENTIAL
           R_CUTOFF     1.0000000000000005E+01
           TYPE  DFTD3
           PARAMETER_FILE_NAME dftd3.dat
           REFERENCE_FUNCTIONAL PBE
           EPS_CN     9.9999999999999995E-07
           CALCULATE_C9_TERM  T
           REFERENCE_C9_TERM  T
           LONG_RANGE_CORRECTION  F
           VERBOSE_OUTPUT  F
         &END PAIR_POTENTIAL
       &END VDW_POTENTIAL
     &END XC
   &END DFT
   &SUBSYS
     &CELL
       A     1.2864472766435110E+01    0.0000000000000000E+00    0.0000000000000000E+00
       B    -6.4322363581020028E+00    1.1140960178524475E+01    0.0000000000000000E+00
       C     0.0000000000000000E+00    0.0000000000000000E+00    3.2000000000000000E+01
       MULTIPLE_UNIT_CELL  1 1 1
       &CELL_REF
         A     1.2982353780853531E+01    0.0000000000000000E+00    0.0000000000000000E+00
         B    -6.4911768904267628E+00    1.1243048175136114E+01    0.0000000000000000E+00
         C     0.0000000000000000E+00    0.0000000000000000E+00    3.2000000000000000E+01
         MULTIPLE_UNIT_CELL  1 1 1
       &END CELL_REF
     &END CELL
     &COORD
N   -3.3533950922035934E-02    2.0302414286849975E+00    2.5499470495793779E+00
Ga   -2.7348331678886804E-02    5.3967808570780172E-02    2.8803501176469650E+00
N   -3.1740662102344497E-02    4.8876525596152076E-02    5.0332868255748693E+00
Ga   -3.2951804745163585E-02    1.8758181751428400E+00    5.8175079407530879E+00
N   -3.1144608631360399E-02    1.8935744696477204E+00    7.8127274261377426E+00
Ga   -3.0778928895506111E-02    4.7434543357085586E-02    8.4554669186149845E+00
N   -3.1152469185308496E-02    4.7969674888955816E-02    1.0429550976791388E+01
Ga   -3.1933971374496051E-02    1.8894639687286872E+00    1.1077113629869121E+01
N   -3.2445011349884208E-02    1.8708422964912372E+00    1.3069591059342850E+01
Ga   -4.1095082249978931E-02    5.4782519283756513E-02    1.3868132639192174E+01
N   -4.3587401693562206E-02    5.5733332551210817E-02    1.6077289915673092E+01
Ga   -3.4139870937709205E-02    2.1135100618986336E+00    1.6507562374400067E+01
Ga   -2.8600441490370634E-02    3.7331886852586762E+00    1.5248523843415906E+00
N   -1.5147139450236859E+00    4.6149123796195717E+00    2.5151859702290773E+00
Ga   -1.7344312876004915E+00    2.7726843057476276E+00    3.3156447178059452E+00
N   -1.6431398980362739E+00    2.8322149122897211E+00    5.2750088035299880E+00
Ga   -1.6623137255934537E+00    4.7055412557137215E+00    5.8140210808944683E+00
N   -1.6487526027027990E+00    4.6971531007573608E+00    7.8107914461947576E+00
Ga   -1.6304974317391401E+00    2.8398078472697503E+00    8.4482277434570605E+00
N   -1.6288952747886851E+00    2.8402374379621262E+00    1.0440120328033919E+01
Ga   -1.6536045158534241E+00    4.6986192143667616E+00    1.1077281816998385E+01
N   -1.6703315303604664E+00    4.7077256259923050E+00    1.3069736047848313E+01
Ga   -1.6300048353983989E+00    2.8398755806686555E+00    1.3630974582921064E+01
N   -1.6571819973553856E+00    2.8238044513386305E+00    1.5588479308164890E+01
Ga   -1.4609321267358413E+00    4.5847563604150263E+00    1.6507347266562210E+01
N   -2.5069149558668874E-02    3.7660013737384945E+00    1.7651814056355111E+01
N   -3.2450906069137120E+00    7.5947913767085780E+00    2.5286513624071594E+00
Ga   -3.2374250538099534E+00    5.6184295856371191E+00    2.8523050020798295E+00
N   -3.2420178165383469E+00    5.6148899675038946E+00    5.0219349630048162E+00
Ga   -3.2459166755234912E+00    7.4460232676048888E+00    5.8022846473177223E+00
N   -3.2473482084261081E+00    7.4641249544924335E+00    7.8031307654572686E+00
Ga   -3.2478914757000026E+00    5.6195819991581146E+00    8.4540140511016784E+00
N   -3.2479447001710278E+00    5.6192681801710034E+00    1.0428603501451608E+01
Ga   -3.2478630270715434E+00    7.4578921823062094E+00    1.1076735145784433E+01
N   -3.2479372686444470E+00    7.4375400011216675E+00    1.3076674559890391E+01
Ga   -3.2479663561124674E+00    5.6074869431169194E+00    1.3869110216557704E+01
N   -3.2477451939757227E+00    5.6048848981761514E+00    1.6077159584953232E+01
Ga   -3.2476477068983871E+00    7.6040685948742013E+00    1.6441691824537898E+01
Ga   -3.2435695989350055E+00    9.3251575211287161E+00    1.4422144879256511E+00
N   -4.7510064394730147E+00    1.0203929799236164E+01    2.5243381792561825E+00
Ga   -4.9442806737442302E+00    8.3523070632015131E+00    3.2842667149958289E+00
N   -4.8551846188835404E+00    8.4033636867649051E+00    5.2548991886528880E+00
Ga   -4.8776701318013824E+00    1.0274178666155816E+01    5.8062236572005208E+00
N   -4.8643313287209251E+00    1.0266492527973872E+01    7.8053031785265539E+00
Ga   -4.8448595304013571E+00    8.4093798456393607E+00    8.4443798027890917E+00
N   -4.8442035239087637E+00    8.4106596289755267E+00    1.0440588604804237E+01
Ga   -4.8711480100674605E+00    1.0269401082926160E+01    1.1077198539589594E+01
N   -4.8890687227050451E+00    1.0280182714377093E+01    1.3076735318634320E+01
Ga   -4.8450250951798468E+00    8.4105969140621930E+00    1.3622818278021667E+01
N   -4.8612985431437590E+00    8.4017309406688216E+00    1.5600965615340998E+01
Ga   -4.7430036052873303E+00    1.0196541124315941E+01    1.6441854612704883E+01
N   -3.2482669703745790E+00    9.3304335931893618E+00    1.7567564063710641E+01
N    3.1698358135577616E+00    1.9097502518430225E+00    2.6062020128787595E+00
Ga    3.1827717393640889E+00    1.5360919191893285E-01    3.2851880545499519E+00
N    3.1849808534436139E+00    5.3471472694062730E-02    5.2541465961638272E+00
Ga    3.1872018579404426E+00    1.9019864880725013E+00    5.8954410997708608E+00
N    3.1863619722936987E+00    1.9042321541901397E+00    7.8661445311245854E+00
Ga    3.1848497364954449E+00    3.5691569929331771E-02    8.4490428029993705E+00
N    3.1845037206578812E+00    3.5387088963011168E-02    1.0443544133240621E+01
Ga    3.1843962101683809E+00    1.9060891417616308E+00    1.1036256593439520E+01
N    3.1843163545729309E+00    1.9029427776682761E+00    1.3009725408657236E+01
Ga    3.1842934224177526E+00    3.6300396442004376E-02    1.3622620513874674E+01
N    3.1844609630039549E+00    5.5100736919252706E-02    1.5600455259876698E+01
Ga    3.1840480077504787E+00    1.9078802089496765E+00    1.5871213652084379E+01
N    1.4726823498377533E+00    4.6261657377679519E+00    2.5340639866216668E+00
Ga    1.6692641858053161E+00    2.7834576733909233E+00    3.3300814743066995E+00
N    1.5816717324466183E+00    2.8315292250868236E+00    5.2819363788689939E+00
Ga    1.5992720145447235E+00    4.7069598079698505E+00    5.8171378668622342E+00
N    1.5870000050913242E+00    4.6973399122020654E+00    7.8120260082452653E+00
Ga    1.5675415980537801E+00    2.8398630803530405E+00    8.4501475127866410E+00
N    1.5661758781269917E+00    2.8410929315312425E+00    1.0443059398320710E+01
Ga    1.5923879346208951E+00    4.7000878968016879E+00    1.1083052479906675E+01
N    1.6083715116221746E+00    4.7095192741395939E+00    1.3076182957721041E+01
Ga    1.5638877609323729E+00    2.8406569816491225E+00    1.3632696000857832E+01
N    1.5924098030786840E+00    2.8172723262894319E+00    1.5591358768512844E+01
Ga    1.4079994561262101E+00    4.5934623173804763E+00    1.6507339601771239E+01
N   -3.2765050264758025E-02    7.4731557585042392E+00    2.6227181945789795E+00
Ga   -2.2329354514200216E-02    5.7278814900079249E+00    3.3004102895366128E+00
N   -3.0964095727335394E-02    5.6216567813994187E+00    5.2660008961236349E+00
Ga   -3.3807979329557418E-02    7.4756315592442775E+00    5.8877962287813022E+00
N   -3.1502366403504047E-02    7.4765318996217784E+00    7.8620954309393616E+00
Ga   -3.1338214346853382E-02    5.6088764400343072E+00    8.4503362862412246E+00
N   -3.0576939543421368E-02    5.6070260737702151E+00    1.0443260128412506E+01
Ga   -3.1606638704267338E-02    7.4761181250765194E+00    1.1035912948551932E+01
N   -3.4072190558428916E-02    7.4774572393184764E+00    1.3009598441963323E+01
Ga   -3.2453367592566569E-02    5.6052324970275391E+00    1.3632849963640238E+01
N   -3.8068867441259424E-02    5.6419240886300051E+00    1.5591509015032257E+01
Ga   -3.0873622496880696E-02    7.4747666985044692E+00    1.5871979984792485E+01
N   -1.7458026685535497E+00    1.0202535558175407E+01    2.5292531490681176E+00
Ga   -1.5478633007406699E+00    8.3509529459723257E+00    3.2885944553205873E+00
N   -1.6372880703287276E+00    8.4040667916929852E+00    5.2579888803315020E+00
Ga   -1.6160428484400233E+00    1.0274988816151575E+01    5.8058197753176888E+00
N   -1.6311845313320414E+00    1.0266451841231095E+01    7.8057321107163009E+00
Ga   -1.6499557622099177E+00    8.4098273132783987E+00    8.4455086546790135E+00
N   -1.6512305659198554E+00    8.4108832909918938E+00    1.0441656405498039E+01
Ga   -1.6239350143038656E+00    1.0269981896695816E+01    1.1076953090377323E+01
N   -1.6066345241855831E+00    1.0280379481313091E+01    1.3076640240636562E+01
Ga   -1.6507188609598762E+00    8.4106061836119999E+00    1.3622766377564774E+01
N   -1.6343157906782559E+00    8.4018225449704591E+00    1.5600732860063502E+01
Ga   -1.7531089952685015E+00    1.0196151661255058E+01    1.6441591302838695E+01
N    6.3974363699450922E+00    2.0268376788920976E+00    2.5322817366742294E+00
Ga    6.3950133258553938E+00    4.5194470490128445E-02    2.8663857805593653E+00
N    6.4018657997943764E+00    4.8255932663096107E-02    5.0313859558467939E+00
Ga    6.3992451103970955E+00    1.8757871214132131E+00    5.8083857830825911E+00
N    6.3994417389155904E+00    1.8950895313495815E+00    7.8061868710773545E+00
Ga    6.3995191835872722E+00    4.8707236045355311E-02    8.4532239712606323E+00
N    6.4004865202913512E+00    4.8700605452948714E-02    1.0428136590258708E+01
Ga    6.4009513610554762E+00    1.8895203474419202E+00    1.1077063758824433E+01
N    6.4010225037629525E+00    1.8708171913687619E+00    1.3069464957550716E+01
Ga    6.4097020777884639E+00    5.4784820894374205E-02    1.3868223737572222E+01
N    6.4118946634997629E+00    5.5387051375655118E-02    1.6077177166996069E+01
Ga    6.4023609258551630E+00    2.1126069165395589E+00    1.6507091792655920E+01
Ga    6.4062126738134877E+00    3.7629076435804145E+00    1.4910178701302279E+00
N    4.8950700928695223E+00    4.6279910154580852E+00    2.5311519925649018E+00
Ga    4.6904216423311400E+00    2.7745605188274078E+00    3.2911729275351380E+00
N    4.7881087995534353E+00    2.8307367918667752E+00    5.2556065704281725E+00
Ga    4.7707808934485678E+00    4.7027036623148151E+00    5.8092249414581927E+00
N    4.7833000252465796E+00    4.6955014586581774E+00    7.8055290099726093E+00
Ga    4.8032655454500492E+00    2.8401887737640559E+00    8.4506186549785927E+00
N    4.8031816672046714E+00    2.8412247380140503E+00    1.0442853825263915E+01
Ga    4.7777489046461028E+00    4.7001593447858037E+00    1.1082880579021548E+01
N    4.7602574964507367E+00    4.7096546345228081E+00    1.3075986391964022E+01
Ga    4.8046184652881312E+00    2.8407713054499260E+00    1.3632593230777074E+01
N    4.7759552999207457E+00    2.8171881656478739E+00    1.5591536241193596E+01
Ga    4.9592790493783907E+00    4.5943256759468607E+00    1.6506864846321800E+01
N    6.3929320931241937E+00    3.7663794842845721E+00    1.7651663061612322E+01
N    3.1842806010025053E+00    7.5979343743929704E+00    2.5424990507265299E+00
Ga    3.1760051674092957E+00    5.6159994725054876E+00    2.8942683430096610E+00
N    3.1858054033677301E+00    5.6193071336978484E+00    5.0347742740000720E+00
Ga    3.1859850253593667E+00    7.4492300798334758E+00    5.8127914493213311E+00
N    3.1852198542157728E+00    7.4645795030239270E+00    7.8084175982904505E+00
Ga    3.1857755488830146E+00    5.6191579544553738E+00    8.4574106507376108E+00
N    3.1853688980769950E+00    5.6191065933757711E+00    1.0430543751724903E+01
Ga    3.1848032402324025E+00    7.4577087945269023E+00    1.1082655535025120E+01
N    3.1843115388655243E+00    7.4386143664195314E+00    1.3076428735321631E+01
Ga    3.1839442835664680E+00    5.6184127679512921E+00    1.3891450206940105E+01
N    3.1840101780952352E+00    5.6184903519249580E+00    1.6080751990517211E+01
Ga    3.1844588339925592E+00    7.6634122921211096E+00    1.6501760484447924E+01
Ga    3.1838516920942976E+00    9.3319128549344139E+00    1.5113342191881751E+00
N    1.6827761227098317E+00    1.0199609835646088E+01    2.5379683104073956E+00
Ga    1.4734783386123753E+00    8.3467148861553575E+00    3.3026876780291961E+00
N    1.5755649112668197E+00    8.4031498137331155E+00    5.2652868670461919E+00
Ga    1.5507513670768795E+00    1.0275388412200058E+01    5.8124420822300040E+00
N    1.5667063863426560E+00    1.0266106973145172E+01    7.8092253365388888E+00
Ga    1.5863578766902413E+00    8.4095232292363011E+00    8.4490981130528322E+00
N    1.5879274529628460E+00    8.4096376832209678E+00    1.0442424042203273E+01
Ga    1.5626697359410524E+00    1.0269297194044105E+01    1.1076672918754589E+01
N    1.5461819121850437E+00    1.0279256855553166E+01    1.3069679905721845E+01
Ga    1.5878545554321242E+00    8.4117963246068648E+00    1.3631855593525376E+01
N    1.5531322855558869E+00    8.3989143705363603E+00    1.5591869672195125E+01
Ga    1.7534904082936189E+00    1.0161367535977410E+01    1.6502064337622770E+01
N    3.1843688539641173E+00    9.3224529845633679E+00    1.7641270132180772E+01
N    9.6198113975365160E+00    1.9068882609805777E+00    2.6246723610505454E+00
Ga    9.6161381996523918E+00    1.6403939140233439E-01    3.3028322157485848E+00
N    9.6169774438104767E+00    4.9578804012209939E-02    5.2655803569198554E+00
Ga    9.6151175137294089E+00    1.9054192449275262E+00    5.8923355867991267E+00
N    9.6156118494911542E+00    1.9046423398242656E+00    7.8635290218697174E+00
Ga    9.6163945261370962E+00    3.6582787894249229E-02    8.4484866293218985E+00
N    9.6169701166354518E+00    3.5810260070809161E-02    1.0440087968648696E+01
Ga    9.6163533075824557E+00    1.9058585224385918E+00    1.1033959515798777E+01
N    9.6165362477806529E+00    1.9055346301463327E+00    1.3003740829450724E+01
Ga    9.6162792382107014E+00    3.7701080182539835E-02    1.3629912461007763E+01
N    9.6162842152364973E+00    6.8660939852425232E-02    1.5588563826585242E+01
Ga    9.6163121998548853E+00    1.9064912687248137E+00    1.5868114261163313E+01
N    7.9054260216149244E+00    4.6280371905538136E+00    2.5327799257025139E+00
Ga    8.1061556225480018E+00    2.7758363110329247E+00    3.2975725120426720E+00
N    8.0089523515576122E+00    2.8317218759460911E+00    5.2615406884935334E+00
Ga    8.0368086007674346E+00    4.7047190149254758E+00    5.8054355813532572E+00
N    8.0190060560458196E+00    4.6965116041429189E+00    7.8039396320169185E+00
Ga    7.9980041872101095E+00    2.8399268614692579E+00    8.4463492154957009E+00
N    7.9973014861965215E+00    2.8406099198755475E+00    1.0438543028394102E+01
Ga    8.0223489648226849E+00    4.6988221563041979E+00    1.1076747259079095E+01
N    8.0387508601888324E+00    4.7077435450002207E+00    1.3069371787609198E+01
Ga    7.9986882801179950E+00    2.8396678538343361E+00    1.3630792767723044E+01
N    8.0252337102051943E+00    2.8239230830148534E+00    1.5588517301124456E+01
Ga    7.8302438794625147E+00    4.5852021282646094E+00    1.6507275915833883E+01
N    6.4037229371367985E+00    7.4766553562222420E+00    2.6183683310971335E+00
Ga    6.4029936348806444E+00    5.7330529087140478E+00    3.2935313401192512E+00
N    6.4020807275750524E+00    5.6195136165603818E+00    5.2584239207991823E+00
Ga    6.4048203780063755E+00    7.4760278409081824E+00    5.8834374445154616E+00
N    6.4015754468937160E+00    7.4756482525330554E+00    7.8581394139832179E+00
Ga    6.4011619428976152E+00    5.6076610240520353E+00    8.4457324047798341E+00
N    6.4000202629331326E+00    5.6067306893814211E+00    1.0439658510231652E+01
Ga    6.4007086437423339E+00    7.4756419905345721E+00    1.1034416045666978E+01
N    6.4029652585700081E+00    7.4773239317322275E+00    1.3008412917275541E+01
Ga    6.4008226532671619E+00    5.6054685548123651E+00    1.3632736103124000E+01
N    6.4067573299241998E+00    5.6420430435089797E+00    1.5591635751931820E+01
Ga    6.3994412122446551E+00    7.4750097776873208E+00    1.5872599876106992E+01
N    4.6865120087298875E+00    1.0200625929168520E+01    2.5388972944733936E+00
Ga    4.8961475264901555E+00    8.3465740706582263E+00    3.2998324876327811E+00
N    4.7957090519416976E+00    8.4030372723526998E+00    5.2629228208198917E+00
Ga    4.8180141075325764E+00    1.0274590692075490E+01    5.8123174685833847E+00
N    4.8024959026676770E+00    1.0265888312593093E+01    7.8086357495157763E+00
Ga    4.7839051777060000E+00    8.4088340833108681E+00    8.4481172300373757E+00
N    4.7816066026354429E+00    8.4096886274468936E+00    1.0441504268672666E+01
Ga    4.8064724383898572E+00    1.0269119335105572E+01    1.1077166522351517E+01
N    4.8222549196009918E+00    1.0279132446754334E+01    1.3070014992310060E+01
Ga    4.7809855591721560E+00    8.4113626998824031E+00    1.3631554157500343E+01
N    4.8154362707678793E+00    8.3989804927286134E+00    1.5591582804764638E+01
Ga    4.6147812041170981E+00    1.0161488582808747E+01    1.6502273166462182E+01
O    1.0594408778456377E+00    3.4582283076300029E+00   -2.6070944178814381E-01
H    1.8231883550042460E+00    4.0003987967172003E+00    3.7756222422966841E-02
C    1.5554953488313026E+00    2.0725507522931244E+00   -4.4991031396935754E-01
H    2.2231050880900232E+00    1.8008824392322331E+00    3.8472181302676622E-01
H    6.7150769912078734E-01    1.4275198102531781E+00   -4.5550024269924499E-01
H    2.0655057741869935E+00    2.0347188224601687E+00   -1.4188298722252142E+00
     &END COORD
     &KIND C
       BASIS_SET DZVP-MOLOPT-SR-GTH-q4
       POTENTIAL GTH-PBE-q4
       &POTENTIAL
2 2
0.3384712400000000E+00 2 -0.8803673979999999E+01  0.1339210850000000E+01
2
0.3025757500000000E+00 1  0.9622486650000001E+01
0.2915069400000000E+00 0
       &END POTENTIAL
     &END KIND
     &KIND O
       BASIS_SET DZVP-MOLOPT-SR-GTH-q6
       POTENTIAL GTH-PBE-q6
       &POTENTIAL
2 4
0.2445543000000000E+00 2 -0.1666721480000000E+02  0.2487311320000000E+01
2
0.2209559200000000E+00 1  0.1833745811000000E+02
0.2113324700000000E+00 0
       &END POTENTIAL
     &END KIND
     &KIND H
       BASIS_SET DZVP-MOLOPT-SR-GTH-q1
       POTENTIAL GTH-PBE-q1
       &POTENTIAL
1
0.2000000000000000E+00 2 -0.4178900440000000E+01  0.7244633100000000E+00
0
       &END POTENTIAL
     &END KIND
     &KIND N
       BASIS_SET DZVP-MOLOPT-SR-GTH
       POTENTIAL GTH-PBE-q5
       &POTENTIAL
2 3
0.2837905100000000E+00 2 -0.1241522559000000E+02  0.1868095920000000E+01
2
0.2554050000000000E+00 1  0.1363026257000000E+02
0.2454945300000000E+00 0
       &END POTENTIAL
     &END KIND
     &KIND Ga
       BASIS_SET DZVP-MOLOPT-SR-GTH
       POTENTIAL GTH-PBE-q13
       &POTENTIAL
2 1 10
0.4900000000000000E+00 0
3
0.4167772300000000E+00 3  0.1047568975000000E+02 -0.4921768140000000E+01  0.8707055900000000E+00
0.7770178090000000E+01 -0.2248152160000000E+01
0.1784415450000000E+01
0.5696265200000000E+00 2  0.1777985340000000E+01  0.1958597600000000E+00
-0.2317443900000000E+00
0.2381265000000000E+00 1 -0.1624868022000000E+02
       &END POTENTIAL
     &END KIND
     &TOPOLOGY
       NUMBER_OF_ATOMS  206
       MULTIPLE_UNIT_CELL  1 1 1
     &END TOPOLOGY
   &END SUBSYS
 &END FORCE_EVAL
