 # Version information for this restart file 
 # current date 2019-06-24 11:10:02.637
 # current working dir /scratch/rzk/rzk/GaN-carbene/443-adatoms-both-2x2/02-Methanol/01-O-GaTop
 # Program compiled at                              Sun Apr  7 00:48:11 EDT 2019
 # Program compiled on                          beluga2.int.ets1.calculquebec.ca
 # Program compiled for                        Beluga-Linux-x86-64-intel-openmpi
 # Source code revision number                                         svn:18619
 &GLOBAL
   PRINT_LEVEL  MEDIUM
   PROJECT_NAME TEST
   RUN_TYPE  GEO_OPT
 &END GLOBAL
 &MOTION
   &GEO_OPT
     MAX_ITER  500
     STEP_START_VAL  27
   &END GEO_OPT
 &END MOTION
 &FORCE_EVAL
   METHOD  QS
   STRESS_TENSOR  ANALYTICAL
   &DFT
     BASIS_SET_FILE_NAME BASIS_MOLOPT
     POTENTIAL_FILE_NAME GTH_POTENTIALS
     UKS  T
     SURFACE_DIPOLE_CORRECTION  T
     SURF_DIP_DIR  Z
     &SCF
       MAX_SCF  80
       EPS_SCF     5.0000000000000004E-06
       &OT  T
         PRECONDITIONER  FULL_ALL
       &END OT
       &OUTER_SCF  T
         OPTIMIZER  NONE
         EPS_SCF     5.0000000000000004E-06
         MAX_SCF  4
       &END OUTER_SCF
       &PRINT
         &RESTART  OFF
           BACKUP_COPIES  1
           &EACH
             JUST_ENERGY  0
             QS_SCF  0
             MD  20
           &END EACH
         &END RESTART
       &END PRINT
     &END SCF
     &QS
       EPS_DEFAULT     1.0000000000000000E-14
       METHOD  GPW
     &END QS
     &MGRID
       NGRIDS  5
       CUTOFF     1.2000000000000000E+03
     &END MGRID
     &XC
       DENSITY_CUTOFF     1.0000000000000000E-10
       GRADIENT_CUTOFF     1.0000000000000000E-10
       TAU_CUTOFF     1.0000000000000000E-10
       &XC_FUNCTIONAL  NO_SHORTCUT
         &PBE  T
         &END PBE
       &END XC_FUNCTIONAL
       &VDW_POTENTIAL
         POTENTIAL_TYPE  PAIR_POTENTIAL
         &PAIR_POTENTIAL
           R_CUTOFF     1.0000000000000004E+01
           TYPE  DFTD3
           PARAMETER_FILE_NAME dftd3.dat
           REFERENCE_FUNCTIONAL PBE
           EPS_CN     9.9999999999999995E-07
           CALCULATE_C9_TERM  T
           REFERENCE_C9_TERM  T
           LONG_RANGE_CORRECTION  F
           VERBOSE_OUTPUT  F
         &END PAIR_POTENTIAL
       &END VDW_POTENTIAL
     &END XC
   &END DFT
   &SUBSYS
     &CELL
       A     1.2864472766435110E+01    0.0000000000000000E+00    0.0000000000000000E+00
       B    -6.4322363581020028E+00    1.1140960178524473E+01    0.0000000000000000E+00
       C     0.0000000000000000E+00    0.0000000000000000E+00    3.2000000000000000E+01
       MULTIPLE_UNIT_CELL  1 1 1
       &CELL_REF
         A     1.2982353780853531E+01    0.0000000000000000E+00    0.0000000000000000E+00
         B    -6.4911768904267628E+00    1.1243048175136114E+01    0.0000000000000000E+00
         C     0.0000000000000000E+00    0.0000000000000000E+00    3.2000000000000000E+01
         MULTIPLE_UNIT_CELL  1 1 1
       &END CELL_REF
     &END CELL
     &COORD
N    5.5275890876964274E-04    2.0428753668345205E+00    2.4615223912154187E+00
Ga    4.1089273784318120E-03    6.1052140187664271E-02    2.8221381119921807E+00
N    7.3840187038967118E-03    4.9050077002971849E-02    4.9662804815360264E+00
Ga    8.9522924935059780E-03    1.8783462705982135E+00    5.7625213938855211E+00
N    9.3446929861670594E-03    1.8931556501280369E+00    7.7542960540275354E+00
Ga    9.0821903462320573E-03    4.8827230397904653E-02    8.4104990038107683E+00
N    9.7743111805874902E-03    5.1669478540672761E-02    1.0381919245750939E+01
Ga    1.0230749922199958E-02    1.8920566474366165E+00    1.1039411931056366E+01
N    1.1059042921806773E-02    1.8730050070794877E+00    1.3032550401889729E+01
Ga    1.1228596752266898E-02    5.4656825273570568E-02    1.3852221883728522E+01
N    1.5058469945005530E-02    5.6499501623667764E-02    1.6046864645920607E+01
Ga    1.1094387990627263E-02    2.1035007191326414E+00    1.6466873377908620E+01
Ga   -2.1418495725042459E-02    3.7862256892694970E+00    1.5128705820913562E+00
N   -1.4930155707261183E+00    4.6327456935644626E+00    2.5090742325570021E+00
Ga   -1.7045979046379889E+00    2.7752735715566068E+00    3.2691067588421383E+00
N   -1.6056172091639123E+00    2.8299651348916259E+00    5.2233314606946522E+00
Ga   -1.6250051861858359E+00    4.7044666625600122E+00    5.7659965834904758E+00
N   -1.6097880702980334E+00    4.6979417986100067E+00    7.7576439188905466E+00
Ga   -1.5886809294210664E+00    2.8401948564041786E+00    8.4026246703437355E+00
N   -1.5862430036294133E+00    2.8434984994717558E+00    1.0393437948396945E+01
Ga   -1.6132442109148792E+00    4.7022079707636939E+00    1.1041681446991065E+01
N   -1.6308629366712173E+00    4.7153051411951186E+00    1.3032785461757909E+01
Ga   -1.5857040276417067E+00    2.8467454608951370E+00    1.3594263793937650E+01
N   -1.6114486908525563E+00    2.8331266171406067E+00    1.5554880065624081E+01
Ga   -1.4298999286622136E+00    4.6015298751524156E+00    1.6466587660433586E+01
N    1.4869055397348624E-02    3.7679208636543695E+00    1.7612561926174649E+01
N   -3.2078681025920477E+00    7.5971326994318282E+00    2.4839115407752592E+00
Ga   -3.2019579236439357E+00    5.6125769650601134E+00    2.8305410078235953E+00
N   -3.2095654174859134E+00    5.6187001438762545E+00    4.9745918317007538E+00
Ga   -3.2091476919791826E+00    7.4474688832860192E+00    5.7610618297124736E+00
N   -3.2068506339143248E+00    7.4646698729223138E+00    7.7535964506089385E+00
Ga   -3.2075715319588065E+00    5.6198234571741370E+00    8.4129734753544252E+00
N   -3.2062442072349961E+00    5.6216273180066842E+00    1.0383892613831625E+01
Ga   -3.2070785541461109E+00    7.4607620843721554E+00    1.1044694477525024E+01
N   -3.2066975065250540E+00    7.4430370881878005E+00    1.3034624378225732E+01
Ga   -3.2057838174485611E+00    5.6236212802654881E+00    1.3856445291861577E+01
N   -3.2043076356006375E+00    5.6244004976774935E+00    1.6044383736678682E+01
Ga   -3.2039116724580481E+00    7.6705881665798108E+00    1.6463748479955626E+01
Ga   -3.2065740319990228E+00    9.3271063720011362E+00    1.4636795749355489E+00
N   -4.7138767907042078E+00    1.0200945645266547E+01    2.4740753732982976E+00
Ga   -4.9193782780010418E+00    8.3444337897337242E+00    3.2460529201091273E+00
N   -4.8191623249714466E+00    8.4027045604798651E+00    5.2049436937436635E+00
Ga   -4.8404808481142201E+00    1.0274526032007673E+01    5.7571241991380235E+00
N   -4.8254581436677313E+00    1.0266939956192745E+01    7.7500442569928945E+00
Ga   -4.8048862999786497E+00    8.4104104475891059E+00    8.4036180962482963E+00
N   -4.8029468682379211E+00    8.4134075837577207E+00    1.0392637943946697E+01
Ga   -4.8289680412963589E+00    1.0272670631771931E+01    1.1040703396391217E+01
N   -4.8463058871406455E+00    1.0285749526957607E+01    1.3032425185481683E+01
Ga   -4.8039972274123039E+00    8.4163417537312881E+00    1.3595795964245010E+01
N   -4.8327825915766223E+00    8.4008609221443695E+00    1.5555748728696830E+01
Ga   -4.6407362097721645E+00    1.0168051980926599E+01    1.6467534978237882E+01
N   -3.1976395992896611E+00    9.3323357513097509E+00    1.7592453282220472E+01
N    3.2161467173250262E+00    1.9086706322942140E+00    2.5560240449958833E+00
Ga    3.2207485032732799E+00    1.6635918257182833E-01    3.2436693174631031E+00
N    3.2240787873131107E+00    5.0360068148210146E-02    5.2026430710750509E+00
Ga    3.2229453268979076E+00    1.9048015971818812E+00    5.8410564960605775E+00
N    3.2258486242734161E+00    1.9042941498364410E+00    7.8079687708475669E+00
Ga    3.2246076783944488E+00    3.7237518167731673E-02    8.4041854185308420E+00
N    3.2256388719909563E+00    3.8279855200705017E-02    1.0392919321785380E+01
Ga    3.2255150507766759E+00    1.9083380236799898E+00    1.0994917988307700E+01
N    3.2262041242384814E+00    1.9112275297606467E+00    1.2962040083297572E+01
Ga    3.2257242947535674E+00    4.2932749113710006E-02    1.3595489611896564E+01
N    3.2262508673051706E+00    7.6688031714792923E-02    1.5555978788255166E+01
Ga    3.2268192887216696E+00    1.9137461189975142E+00    1.5842898022726411E+01
N    1.4927739830774860E+00    4.6302029893023287E+00    2.4760186385413272E+00
Ga    1.7081124606918650E+00    2.7790076750056665E+00    3.2497564369743377E+00
N    1.6195682906460314E+00    2.8313608910402617E+00    5.2101822632641976E+00
Ga    1.6404423654996612E+00    4.7026987070338615E+00    5.7642846203242373E+00
N    1.6275508501618428E+00    4.6972941818264555E+00    7.7559255061262435E+00
Ga    1.6076648394612894E+00    2.8395637384229877E+00    8.4021502265864250E+00
N    1.6064274584668401E+00    2.8431761901678962E+00    1.0392005006856815E+01
Ga    1.6323175777957668E+00    4.7013426387824726E+00    1.1040311424049786E+01
N    1.6511985276439636E+00    4.7142965343651726E+00    1.3033147878774997E+01
Ga    1.6079679468856347E+00    2.8453034437070950E+00    1.3595479473910908E+01
N    1.6338814343900978E+00    2.8326436829807529E+00    1.5557474729270519E+01
Ga    1.4546414760064326E+00    4.6033115845240573E+00    1.6466272544033007E+01
N    6.7962718044947542E-03    7.4721821798190708E+00    2.5646923522431626E+00
Ga    5.8152618914332948E-03    5.7394696977593966E+00    3.2783275415095319E+00
N    8.4808680207525654E-03    5.6259370224265108E+00    5.2300769656440593E+00
Ga    9.1268656094672766E-03    7.4788493494407557E+00    5.8517067542956998E+00
N    9.5730274994132655E-03    7.4790763858291411E+00    7.8169360297408383E+00
Ga    9.0677660660247114E-03    5.6079418109591250E+00    8.4046384500122713E+00
N    9.8713937861707995E-03    5.6084564206953251E+00    1.0395103023761688E+01
Ga    1.0110454798695604E-02    7.4785015244376414E+00    1.0996987709466254E+01
N    1.1559634510883333E-02    7.4816669654036048E+00    1.2965786763817702E+01
Ga    9.8519704047740058E-03    5.6111971093673292E+00    1.3594698496306318E+01
N    1.0619300497677292E-02    5.6431142141750783E+00    1.5554915086268771E+01
Ga    1.4700299670321909E-02    7.4822069363387858E+00    1.5835329579230988E+01
N   -1.7080032296469865E+00    1.0199593452131841E+01    2.4802721909363128E+00
Ga   -1.4989428314419695E+00    8.3459188353293712E+00    3.2525926589687151E+00
N   -1.5973305201109853E+00    8.4025202926234090E+00    5.2103002572543611E+00
Ga   -1.5766218620013841E+00    1.0274479278067830E+01    5.7612186654115742E+00
N   -1.5893400967922684E+00    1.0267065670599111E+01    7.7533922719626345E+00
Ga   -1.6102358221996309E+00    8.4113600086845182E+00    8.4087168195100421E+00
N   -1.6100539224891737E+00    8.4137073170760974E+00    1.0397179181275089E+01
Ga   -1.5843048976144378E+00    1.0273273865998137E+01    1.1042808662963823E+01
N   -1.5655101448009834E+00    1.0286409228207438E+01    1.3033771974888653E+01
Ga   -1.6092359356578489E+00    8.4162397987171307E+00    1.3594638978710000E+01
N   -1.5764699584537998E+00    8.3989757783770589E+00    1.5554629721834365E+01
Ga   -1.7620022445932706E+00    1.0170935216341261E+01    1.6462512558533426E+01
N    6.4378493952183673E+00    2.0254063744810895E+00    2.4789843935946032E+00
Ga    6.4400479560478239E+00    4.7032055904284067E-02    2.8225964529892473E+00
N    6.4409990514934670E+00    4.6515632284866409E-02    4.9718855737232071E+00
Ga    6.4392556095907700E+00    1.8760041209972855E+00    5.7611207202899646E+00
N    6.4408841026138326E+00    1.8930706192628004E+00    7.7529467982248867E+00
Ga    6.4413843165994997E+00    4.8086587817095031E-02    8.4117856224673417E+00
N    6.4421603820678195E+00    5.0770382885872864E-02    1.0383054491016576E+01
Ga    6.4412393013082632E+00    1.8913297873619814E+00    1.1041227449685508E+01
N    6.4417189208007750E+00    1.8725784845741347E+00    1.3031895347060573E+01
Ga    6.4427108457154301E+00    5.5039112141268366E-02    1.3853164860617092E+01
N    6.4429583090886338E+00    5.7184954672625431E-02    1.6042736031397901E+01
Ga    6.4451343684458884E+00    2.1075218388392614E+00    1.6464796090281975E+01
Ga    6.4422495438585630E+00    3.7614131113516605E+00    1.4563704368804180E+00
N    4.9340539197451516E+00    4.6279128274655346E+00    2.4766067974421171E+00
Ga    4.7288944570507780E+00    2.7747973495038978E+00    3.2435160900673057E+00
N    4.8295690609178665E+00    2.8301832738751078E+00    5.2030764602288295E+00
Ga    4.8068565910938741E+00    4.7024897437911353E+00    5.7581574341696058E+00
N    4.8224528347832987E+00    4.6959098477577097E+00    7.7509276885410667E+00
Ga    4.8427331591351948E+00    2.8393037507482668E+00    8.4032940134866667E+00
N    4.8450945666997107E+00    2.8424653293219189E+00    1.0391393952712953E+01
Ga    4.8193199381753731E+00    4.7012790186143487E+00    1.1040107665525902E+01
N    4.8016629566070952E+00    4.7144380177275220E+00    1.3031123090664401E+01
Ga    4.8448528768383063E+00    2.8457911040971267E+00    1.3595021940700169E+01
N    4.8174623669376411E+00    2.8313645687494740E+00    1.5554689577579595E+01
Ga    5.0102678994187428E+00    4.5972552464699401E+00    1.6468381770090723E+01
N    6.4530601446925564E+00    3.7673746106052581E+00    1.7594547261058139E+01
N    3.2211076665306395E+00    7.5954206295697624E+00    2.4761348161890777E+00
Ga    3.2106835846510529E+00    5.6127410244422311E+00    2.8193586193275193E+00
N    3.2225430997607343E+00    5.6175679002644783E+00    4.9677182844330403E+00
Ga    3.2252879728249519E+00    7.4465272336551394E+00    5.7591722518464294E+00
N    3.2255722273599767E+00    7.4644358925765362E+00    7.7526446410284864E+00
Ga    3.2252207664848482E+00    5.6194537163333376E+00    8.4116076146398608E+00
N    3.2256571959427229E+00    5.6215560851809556E+00    1.0382661916530774E+01
Ga    3.2266629386521206E+00    7.4608004881468970E+00    1.1044366803735656E+01
N    3.2272064539346217E+00    7.4429919749819096E+00    1.3034454798690714E+01
Ga    3.2272093841982143E+00    5.6233634222501054E+00    1.3853779468499443E+01
N    3.2296515473601963E+00    5.6221055561669537E+00    1.6044671704025969E+01
Ga    3.2284048108091121E+00    7.6602466322288310E+00    1.6461240070180306E+01
Ga    3.2188802706112245E+00    9.3314499115957421E+00    1.4516886605895707E+00
N    1.7203484099205226E+00    1.0199044690728442E+01    2.4797634074717432E+00
Ga    1.5156833206660187E+00    8.3453835158410214E+00    3.2483162594209789E+00
N    1.6146917799549012E+00    8.4018860857139810E+00    5.2076018187193460E+00
Ga    1.5934597119806928E+00    1.0272884402142253E+01    5.7622247795317358E+00
N    1.6076548635537786E+00    1.0266511514329347E+01    7.7546263966857314E+00
Ga    1.6291427713411073E+00    8.4111018597406950E+00    8.4089054896921986E+00
N    1.6301149296187023E+00    8.4135740745009926E+00    1.0397666076595968E+01
Ga    1.6031636597772956E+00    1.0272859052895091E+01    1.1044220980733837E+01
N    1.5853214721316675E+00    1.0286141872999172E+01    1.3033698497256992E+01
Ga    1.6302668435339183E+00    8.4169126878405898E+00    1.3596132916166701E+01
N    1.6086888708022176E+00    8.4053618095021907E+00    1.5559559644689834E+01
Ga    1.7780956148420870E+00    1.0177278715828331E+01    1.6460279946102549E+01
N    3.2334581250799341E+00    9.3368068994946967E+00    1.7598988511008947E+01
N    9.6571415948197785E+00    1.9062423549397420E+00    2.5667135696582837E+00
Ga    9.6561120472965438E+00    1.6200901132649603E-01    3.2460572462361230E+00
N    9.6568127983794945E+00    4.8445618639929799E-02    5.2059953559392111E+00
Ga    9.6545203955448127E+00    1.9020030296104908E+00    5.8469478172668090E+00
N    9.6560030868426772E+00    1.9034525491907588E+00    7.8136696067517990E+00
Ga    9.6580806982953220E+00    3.5691951492097251E-02    8.4066207455079578E+00
N    9.6587178265672922E+00    3.7567533963061998E-02    1.0396268313145990E+01
Ga    9.6590464679683841E+00    1.9084648293847108E+00    1.0995151770559337E+01
N    9.6592652279234024E+00    1.9102849876019237E+00    1.2964356258491856E+01
Ga    9.6589303278854253E+00    4.1120692408777845E-02    1.3595650982723994E+01
N    9.6598171480567441E+00    6.8295059750058826E-02    1.5559237762905232E+01
Ga    9.6610949101217400E+00    1.9109502708791071E+00    1.5832771833018088E+01
N    7.9415815027085364E+00    4.6267092333006090E+00    2.4839302271463759E+00
Ga    8.1455653086107080E+00    2.7731299372125950E+00    3.2501918324385639E+00
N    8.0494525101943548E+00    2.8302072755919596E+00    5.2091001346161496E+00
Ga    8.0716953862468479E+00    4.7031549631849696E+00    5.7612443063601431E+00
N    8.0595904422853586E+00    4.6958839560980863E+00    7.7533426707791397E+00
Ga    8.0385587368296072E+00    2.8395101526012447E+00    8.4056527583910796E+00
N    8.0383943901707955E+00    2.8428069890097061E+00    1.0394348765416380E+01
Ga    8.0651618029484524E+00    4.7025013285298680E+00    1.1042800669214287E+01
N    8.0832424223075598E+00    4.7156376890137865E+00    1.3032525422349373E+01
Ga    8.0387430470274452E+00    2.8462690350720199E+00    1.3593833127072342E+01
N    8.0711690982564122E+00    2.8298063220674794E+00    1.5553233513611206E+01
Ga    7.8870377797099014E+00    4.6019087549137092E+00    1.6465458302729814E+01
N    6.4390115866282587E+00    7.4728315218287547E+00    2.5612640187389419E+00
Ga    6.4380041697928929E+00    5.7319659173665478E+00    3.2464536879238790E+00
N    6.4390774496185204E+00    5.6190879794600379E+00    5.2058142240105436E+00
Ga    6.4395019053336071E+00    7.4740797519108515E+00    5.8388881622001207E+00
N    6.4413335985954570E+00    7.4755066755542767E+00    7.8072455628222537E+00
Ga    6.4410868871828804E+00    5.6067206554844322E+00    8.4028347180616443E+00
N    6.4420386613595744E+00    5.6084667710485023E+00    1.0391551245692760E+01
Ga    6.4423294368455135E+00    7.4785794483295529E+00    1.0994565317120989E+01
N    6.4417989044834645E+00    7.4817783308954260E+00    1.2962890655606520E+01
Ga    6.4419467544875637E+00    5.6123549106203345E+00    1.3594987778846642E+01
N    6.4422571711996444E+00    5.6471026496572234E+00    1.5553744260978242E+01
Ga    6.4405784961982295E+00    7.4830411861969246E+00    1.5841683878303938E+01
N    4.7262234587498710E+00    1.0200495658512633E+01    2.4736843200642986E+00
Ga    4.9302035064530072E+00    8.3447337586232848E+00    3.2411886695596599E+00
N    4.8343370234327985E+00    8.4018122879257007E+00    5.2022918809315319E+00
Ga    4.8567421213495354E+00    1.0272864564896690E+01    5.7582804509619443E+00
N    4.8436838761035421E+00    1.0266128064131337E+01    7.7514352283090648E+00
Ga    4.8236355225801768E+00    8.4098376036463414E+00    8.4043685515008271E+00
N    4.8227381213108949E+00    8.4133925818176589E+00    1.0393842908977470E+01
Ga    4.8497141570856490E+00    1.0272583904121340E+01    1.1043023500718583E+01
N    4.8679644120484236E+00    1.0285425855800700E+01    1.3033532526945763E+01
Ga    4.8242923394351305E+00    8.4161574534424766E+00    1.3596753199915247E+01
N    4.8471601642855928E+00    8.4047997132917640E+00    1.5560447642471235E+01
Ga    4.6828106942852257E+00    1.0179638284712992E+01    1.6461931921284595E+01
O   -2.2166858041464901E-01    3.7369649008443524E+00   -5.5553451495767114E-01
H    7.9526735939673632E-02    4.5437702062047300E+00   -1.0075089439382783E+00
C    2.5364863342997634E-01    2.5300274531063764E+00   -1.2358654885769360E+00
H    1.3133341338276114E+00    2.6299757234163419E+00   -1.4652452675101726E+00
H    1.0524291055972436E-01    1.7117418886663318E+00   -5.3037859734567017E-01
H   -3.4743572302323994E-01    2.3793369036688907E+00   -2.1314595557692657E+00
     &END COORD
     &KIND C
       BASIS_SET DZVP-MOLOPT-SR-GTH-q4
       POTENTIAL GTH-PBE-q4
       &POTENTIAL
 2 2
  0.3384712400000000E+00 2 -0.8803673979999999E+01  0.1339210850000000E+01
 2
  0.3025757500000000E+00 1  0.9622486650000001E+01
  0.2915069400000000E+00 0
         # Potential name:  GTH-PBE-Q4  for symbol:  C
         # Potential read from the potential filename: GTH_POTENTIALS
       &END POTENTIAL
     &END KIND
     &KIND O
       BASIS_SET DZVP-MOLOPT-SR-GTH-q6
       POTENTIAL GTH-PBE-q6
       &POTENTIAL
 2 4
  0.2445543000000000E+00 2 -0.1666721480000000E+02  0.2487311320000000E+01
 2
  0.2209559200000000E+00 1  0.1833745811000000E+02
  0.2113324700000000E+00 0
         # Potential name:  GTH-PBE-Q6  for symbol:  O
         # Potential read from the potential filename: GTH_POTENTIALS
       &END POTENTIAL
     &END KIND
     &KIND H
       BASIS_SET DZVP-MOLOPT-SR-GTH-q1
       POTENTIAL GTH-PBE-q1
       &POTENTIAL
 1
  0.2000000000000000E+00 2 -0.4178900440000000E+01  0.7244633100000000E+00
 0
         # Potential name:  GTH-PBE-Q1  for symbol:  H
         # Potential read from the potential filename: GTH_POTENTIALS
       &END POTENTIAL
     &END KIND
     &KIND N
       BASIS_SET DZVP-MOLOPT-SR-GTH
       POTENTIAL GTH-PBE-q5
       &POTENTIAL
 2 3
  0.2837905100000000E+00 2 -0.1241522559000000E+02  0.1868095920000000E+01
 2
  0.2554050000000000E+00 1  0.1363026257000000E+02
  0.2454945300000000E+00 0
         # Potential name:  GTH-PBE-Q5  for symbol:  N
         # Potential read from the potential filename: GTH_POTENTIALS
       &END POTENTIAL
     &END KIND
     &KIND Ga
       BASIS_SET DZVP-MOLOPT-SR-GTH
       POTENTIAL GTH-PBE-q13
       &POTENTIAL
 2 1 10
  0.4900000000000000E+00 0
 3
  0.4167772300000000E+00 3  0.1047568975000000E+02 -0.4921768140000000E+01  0.8707055900000000E+00
  0.7770178090000000E+01 -0.2248152160000000E+01
  0.1784415450000000E+01
  0.5696265200000000E+00 2  0.1777985340000000E+01  0.1958597600000000E+00
 -0.2317443900000000E+00
  0.2381265000000000E+00 1 -0.1624868022000000E+02
         # Potential name:  GTH-PBE-Q13  for symbol:  GA
         # Potential read from the potential filename: GTH_POTENTIALS
       &END POTENTIAL
     &END KIND
     &TOPOLOGY
       NUMBER_OF_ATOMS  206
       MULTIPLE_UNIT_CELL  1 1 1
     &END TOPOLOGY
   &END SUBSYS
 &END FORCE_EVAL
