 # Version information for this restart file 
 # current date 2019-06-24 14:56:38.577
 # current working dir /scratch/rzk/rzk/GaN-carbene/443-adatoms-both-2x2/02-Methanol/01-O-GaTop
 # Program compiled at                              Sun Apr  7 00:48:11 EDT 2019
 # Program compiled on                          beluga2.int.ets1.calculquebec.ca
 # Program compiled for                        Beluga-Linux-x86-64-intel-openmpi
 # Source code revision number                                         svn:18619
 &GLOBAL
   PRINT_LEVEL  MEDIUM
   PROJECT_NAME TEST
   RUN_TYPE  GEO_OPT
 &END GLOBAL
 &MOTION
   &GEO_OPT
     MAX_ITER  500
     STEP_START_VAL  53
   &END GEO_OPT
 &END MOTION
 &FORCE_EVAL
   METHOD  QS
   STRESS_TENSOR  ANALYTICAL
   &DFT
     BASIS_SET_FILE_NAME BASIS_MOLOPT
     POTENTIAL_FILE_NAME GTH_POTENTIALS
     UKS  T
     SURFACE_DIPOLE_CORRECTION  T
     SURF_DIP_DIR  Z
     &SCF
       MAX_SCF  80
       EPS_SCF     5.0000000000000004E-06
       &OT  T
         PRECONDITIONER  FULL_ALL
       &END OT
       &OUTER_SCF  T
         OPTIMIZER  NONE
         EPS_SCF     5.0000000000000004E-06
         MAX_SCF  4
       &END OUTER_SCF
       &PRINT
         &RESTART  OFF
           BACKUP_COPIES  1
           &EACH
             JUST_ENERGY  0
             QS_SCF  0
             MD  20
           &END EACH
         &END RESTART
       &END PRINT
     &END SCF
     &QS
       EPS_DEFAULT     1.0000000000000000E-14
       METHOD  GPW
     &END QS
     &MGRID
       NGRIDS  5
       CUTOFF     1.2000000000000000E+03
     &END MGRID
     &XC
       DENSITY_CUTOFF     1.0000000000000000E-10
       GRADIENT_CUTOFF     1.0000000000000000E-10
       TAU_CUTOFF     1.0000000000000000E-10
       &XC_FUNCTIONAL  NO_SHORTCUT
         &PBE  T
         &END PBE
       &END XC_FUNCTIONAL
       &VDW_POTENTIAL
         POTENTIAL_TYPE  PAIR_POTENTIAL
         &PAIR_POTENTIAL
           R_CUTOFF     1.0000000000000005E+01
           TYPE  DFTD3
           PARAMETER_FILE_NAME dftd3.dat
           REFERENCE_FUNCTIONAL PBE
           EPS_CN     9.9999999999999995E-07
           CALCULATE_C9_TERM  T
           REFERENCE_C9_TERM  T
           LONG_RANGE_CORRECTION  F
           VERBOSE_OUTPUT  F
         &END PAIR_POTENTIAL
       &END VDW_POTENTIAL
     &END XC
   &END DFT
   &SUBSYS
     &CELL
       A     1.2864472766435110E+01    0.0000000000000000E+00    0.0000000000000000E+00
       B    -6.4322363581020028E+00    1.1140960178524475E+01    0.0000000000000000E+00
       C     0.0000000000000000E+00    0.0000000000000000E+00    3.2000000000000000E+01
       MULTIPLE_UNIT_CELL  1 1 1
       &CELL_REF
         A     1.2982353780853531E+01    0.0000000000000000E+00    0.0000000000000000E+00
         B    -6.4911768904267628E+00    1.1243048175136114E+01    0.0000000000000000E+00
         C     0.0000000000000000E+00    0.0000000000000000E+00    3.2000000000000000E+01
         MULTIPLE_UNIT_CELL  1 1 1
       &END CELL_REF
     &END CELL
     &COORD
N   -2.2617260927078234E-02    2.0459693673490387E+00    2.5102783799014277E+00
Ga   -2.0437343503693063E-02    7.1335862935642952E-02    2.8717058128597346E+00
N   -1.6047504024992876E-02    6.0115554628677882E-02    5.0090933762148699E+00
Ga   -1.5213462827176250E-02    1.8892493761835254E+00    5.7997148356898007E+00
N   -1.3456593614266295E-02    1.9026240451952947E+00    7.7901800922367919E+00
Ga   -1.3042088934832510E-02    5.7346539765797531E-02    8.4415969370550883E+00
N   -1.1823436510237813E-02    5.5864204060059423E-02    1.0410197171914772E+01
Ga   -1.1660978183186552E-02    1.8961225661363617E+00    1.1065887512896234E+01
N   -1.0575095484771242E-02    1.8754010561797854E+00    1.3053976821515310E+01
Ga   -1.0478940838146484E-02    5.6524965685036926E-02    1.3867969276784796E+01
N   -9.8612883714503888E-03    5.6914839137759389E-02    1.6058922197195049E+01
Ga   -1.0104927488235162E-02    2.1117726739363709E+00    1.6478087298015982E+01
Ga   -3.4244963143079010E-02    3.7714338180039437E+00    1.5155373353252062E+00
N   -1.5113382764887047E+00    4.6342020490516065E+00    2.5118234420244838E+00
Ga   -1.7233450542988711E+00    2.7846514749038827E+00    3.2981523306733544E+00
N   -1.6278181463525754E+00    2.8417993210485655E+00    5.2545487654124914E+00
Ga   -1.6472759776587889E+00    4.7146535607062203E+00    5.7991630901971565E+00
N   -1.6322125507154261E+00    4.7065065811394691E+00    7.7902628125325482E+00
Ga   -1.6122700268142407E+00    2.8488882113735898E+00    8.4343836283244826E+00
N   -1.6086692049184186E+00    2.8489905275713210E+00    1.0422099127750473E+01
Ga   -1.6353805378808557E+00    4.7080643246246945E+00    1.1067361436384102E+01
N   -1.6515906525166224E+00    4.7167230516336502E+00    1.3055247853571426E+01
Ga   -1.6090540362435826E+00    2.8463907067749510E+00    1.3614253110673818E+01
N   -1.6381393573053062E+00    2.8277688870641247E+00    1.5569468548771368E+01
Ga   -1.4516785930930411E+00    4.6015635564611816E+00    1.6476349452007344E+01
N   -9.8114126512021515E-03    3.7763660578462770E+00    1.7604648664236596E+01
N   -3.2327815402466755E+00    7.6077483177735310E+00    2.5164517158908075E+00
Ga   -3.2253943316238090E+00    5.6234769465493413E+00    2.8505978721265404E+00
N   -3.2295294975909723E+00    5.6274832335696496E+00    5.0037162211795376E+00
Ga   -3.2312641877987263E+00    7.4560491276509611E+00    5.7916423960721586E+00
N   -3.2299856334611725E+00    7.4734530251584896E+00    7.7842907465470654E+00
Ga   -3.2299967938196592E+00    5.6286772168463619E+00    8.4415615609645513E+00
N   -3.2288731188889148E+00    5.6277922927624155E+00    1.0410151454448313E+01
Ga   -3.2282358984087809E+00    7.4666858110949361E+00    1.1066921104395851E+01
N   -3.2267808835699308E+00    7.4458677148121195E+00    1.3054814056808301E+01
Ga   -3.2268887839246791E+00    5.6265302390021148E+00    1.3871974652684914E+01
N   -3.2251585675705940E+00    5.6277346415466614E+00    1.6058600628799578E+01
Ga   -3.2260320989259728E+00    7.6700464906015036E+00    1.6476998635838136E+01
Ga   -3.2312039448473402E+00    9.3409880445033746E+00    1.4836364406747369E+00
N   -4.7383940173680168E+00    1.0214380318052184E+01    2.5122199985044351E+00
Ga   -4.9422592007729200E+00    8.3578823232762147E+00    3.2780320728765324E+00
N   -4.8408506921739880E+00    8.4139076095460101E+00    5.2387847165633685E+00
Ga   -4.8629041766736787E+00    1.0285432779884133E+01    5.7934547180768456E+00
N   -4.8472752095504186E+00    1.0276194545316914E+01    7.7848847885641597E+00
Ga   -4.8277736019237336E+00    8.4188081381673268E+00    8.4311668589221505E+00
N   -4.8248064299052862E+00    8.4191523444342380E+00    1.0419973898096618E+01
Ga   -4.8508054384834614E+00    1.0277491767107447E+01    1.1066752869216179E+01
N   -4.8667727566282668E+00    1.0287036495680713E+01    1.3055303864612949E+01
Ga   -4.8232922147023594E+00    8.4174823184775640E+00    1.3616210166924924E+01
N   -4.8481776467796562E+00    8.4017366424424651E+00    1.5574174382833053E+01
Ga   -4.6754385794209279E+00    1.0175955753689346E+01    1.6477173263587861E+01
N   -3.2256585245475549E+00    9.3463219191971660E+00    1.7621287124940949E+01
N    3.1887198828023338E+00    1.9204192970685166E+00    2.5821699373524583E+00
Ga    3.1965084275195319E+00    1.7833063998987730E-01    3.2767057332507545E+00
N    3.2004721593379801E+00    6.2370735202736442E-02    5.2374309449667997E+00
Ga    3.1997241959691918E+00    1.9160047292024165E+00    5.8747915735654290E+00
N    3.2029600330466583E+00    1.9143240885746386E+00    7.8418887142688076E+00
Ga    3.2028284980684716E+00    4.6373539428807974E-02    8.4338857060999715E+00
N    3.2039637945459405E+00    4.3348145559734999E-02    1.0421366725109319E+01
Ga    3.2046263474943739E+00    1.9137180989905369E+00    1.1021003284190485E+01
N    3.2060731977700505E+00    1.9112237779638837E+00    1.2986008659024517E+01
Ga    3.2057443334787918E+00    4.3232450958632519E-02    1.3616926498316316E+01
N    3.2066431473417261E+00    7.1354629598771716E-02    1.5576296769669417E+01
Ga    3.2075960913080217E+00    1.9106119259344041E+00    1.5857538357102660E+01
N    1.4715285937396938E+00    4.6359554327455497E+00    2.5007073173567376E+00
Ga    1.6818388374474331E+00    2.7903515118979105E+00    3.2892088214260156E+00
N    1.5956745415862095E+00    2.8420087090428714E+00    5.2477214666653316E+00
Ga    1.6158131981422663E+00    4.7138846260567204E+00    5.7982904943851006E+00
N    1.6046357604686525E+00    4.7060496423156364E+00    7.7891591722405353E+00
Ga    1.5849070738652418E+00    2.8490209350905653E+00    8.4347161012437279E+00
N    1.5849809945818583E+00    2.8489443750231618E+00    1.0422101748500209E+01
Ga    1.6116551068370224E+00    4.7078255351964389E+00    1.1067853578880630E+01
N    1.6302894265108485E+00    4.7166703645666672E+00    1.3055641636797253E+01
Ga    1.5878803254581231E+00    2.8464485251373373E+00    1.3615093095560090E+01
N    1.6181270656513465E+00    2.8277768438324520E+00    1.5570374056827118E+01
Ga    1.4314685714069191E+00    4.6018771267786249E+00    1.6476128633106196E+01
N   -1.7540831016544356E-02    7.4818193953787739E+00    2.5976139138964811E+00
Ga   -1.5341280304175729E-02    5.7410779074102409E+00    3.2933618755408900E+00
N   -1.5712839057290932E-02    5.6328792368298801E+00    5.2511196045804276E+00
Ga   -1.5898913214314307E-02    7.4856603054536777E+00    5.8759360626702462E+00
N   -1.4175635571761063E-02    7.4863292081362589E+00    7.8434872898070198E+00
Ga   -1.3514076512006300E-02    5.6172446555278741E+00    8.4345878546100757E+00
N   -1.1875127460082279E-02    5.6147737421374293E+00    1.0422865937427574E+01
Ga   -1.2167895849109324E-02    7.4849531060103880E+00    1.1020910964163983E+01
N   -1.1299505351696533E-02    7.4845582283146443E+00    1.2987083146125283E+01
Ga   -1.0577750279584557E-02    5.6143987623836233E+00    1.3615252111900755E+01
N   -1.0226834235159006E-02    5.6510134779311798E+00    1.5571069110261570E+01
Ga   -1.0010999664749028E-02    7.4855487342023466E+00    1.5852569976958222E+01
N   -1.7318953356369760E+00    1.0212161334975082E+01    2.5170943492462574E+00
Ga   -1.5244236412183014E+00    8.3564326913666509E+00    3.2819247106567300E+00
N   -1.6219347728794877E+00    8.4139676360027558E+00    5.2419510568663981E+00
Ga   -1.5997565290691025E+00    1.0285957412222160E+01    5.7937559521477597E+00
N   -1.6126795259292204E+00    1.0276281604786307E+01    7.7857597559361409E+00
Ga   -1.6324542320136999E+00    8.4197138704896375E+00    8.4330991890754525E+00
N   -1.6323009810630651E+00    8.4196061907336155E+00    1.0421369931977495E+01
Ga   -1.6052413580900262E+00    1.0277872320294206E+01    1.1067349989325468E+01
N   -1.5863440677849892E+00    1.0287337967384495E+01    1.3055917439451202E+01
Ga   -1.6301470102349924E+00    8.4177867181276760E+00    1.3616348768221229E+01
N   -1.6047310560390124E+00    8.4026097760281946E+00    1.5574042282218468E+01
Ga   -1.7764782669922685E+00    1.0175984019338454E+01    1.6477389164427862E+01
N    6.4125616654326576E+00    2.0376966922211133E+00    2.5169228629085176E+00
Ga    6.4150936436211889E+00    5.9548384343495901E-02    2.8598982163230029E+00
N    6.4166205043952882E+00    5.8569266381263002E-02    5.0096229786665853E+00
Ga    6.4149314462989437E+00    1.8874132965800636E+00    5.7941365247699119E+00
N    6.4175396988311935E+00    1.9036200186382091E+00    7.7858347195619020E+00
Ga    6.4180147773894660E+00    5.7929850230359840E-02    8.4404587968984526E+00
N    6.4196648243932355E+00    5.6701020051809256E-02    1.0409521339095463E+01
Ga    6.4203285440111522E+00    1.8965400256150855E+00    1.1066575000698528E+01
N    6.4217530624492225E+00    1.8753726314231458E+00    1.3054765738024258E+01
Ga    6.4220567951033756E+00    5.7087496212558736E-02    1.3869297277978180E+01
N    6.4217228822897443E+00    5.5715164695571751E-02    1.6060274371116982E+01
Ga    6.4223509541674035E+00    2.1107532586983053E+00    1.6483473143108661E+01
Ga    6.4180586170074774E+00    3.7717191475288971E+00    1.4823547002427195E+00
N    4.9089606922945181E+00    4.6398513932186942E+00    2.5120137770041815E+00
Ga    4.7018272924446229E+00    2.7863998138119528E+00    3.2751183745308872E+00
N    4.8048101999998627E+00    2.8416026847077074E+00    5.2363915558350520E+00
Ga    4.7829726158727564E+00    4.7136942247741418E+00    5.7911477149030839E+00
N    4.8002877733065477E+00    4.7054731214730152E+00    7.7832969772375735E+00
Ga    4.8204246732090867E+00    2.8491668636228260E+00    8.4336096839907704E+00
N    4.8236990245997342E+00    2.8494005419890800E+00    1.0420774988771733E+01
Ga    4.7975977262819596E+00    4.7079948722660037E+00    1.1067880420894650E+01
N    4.7812620374529011E+00    4.7165295865270389E+00    1.3055908158531308E+01
Ga    4.8243983349282296E+00    2.8466565803723620E+00    1.3617470233953339E+01
N    4.7970520976672315E+00    2.8282036347708450E+00    1.5573069039704794E+01
Ga    4.9810361812016053E+00    4.6007385961132146E+00    1.6481254294992848E+01
N    6.4228743894060747E+00    3.7754877805669476E+00    1.7609748709730884E+01
N    3.1965802773529455E+00    7.6076012072195622E+00    2.5157974425754728E+00
Ga    3.1857092285344319E+00    5.6233475493013225E+00    2.8561392534682133E+00
N    3.1977286111009269E+00    5.6274863561308903E+00    5.0041450837345334E+00
Ga    3.2000659280695145E+00    7.4560621165611565E+00    5.7932807359840686E+00
N    3.2021660523360582E+00    7.4731819467833418E+00    7.7851209385102420E+00
Ga    3.2029057863290675E+00    5.6279830842314800E+00    8.4410645978096195E+00
N    3.2046400550001448E+00    5.6273132890496811E+00    1.0409701003532591E+01
Ga    3.2046631166162709E+00    7.4663251575617986E+00    1.1066763052553604E+01
N    3.2055653463012002E+00    7.4458318955651048E+00    1.3054474394371526E+01
Ga    3.2063663154571822E+00    5.6266602817031561E+00    1.3872813612523252E+01
N    3.2051206186314878E+00    5.6271058696529987E+00    1.6058147985398946E+01
Ga    3.2049876906176435E+00    7.6709558150287736E+00    1.6476879838559423E+01
Ga    3.1959010257076317E+00    9.3457311701240329E+00    1.4872825990142562E+00
N    1.6954275455922911E+00    1.0210676629149818E+01    2.5199708390374793E+00
Ga    1.4893642319967340E+00    8.3560413338160071E+00    3.2830994508055040E+00
N    1.5902932812517803E+00    8.4131948727320474E+00    5.2429124206683646E+00
Ga    1.5676874499873517E+00    1.0284653534012158E+01    5.7967724769959039E+00
N    1.5841769019684464E+00    1.0275776994400488E+01    7.7879437624641543E+00
Ga    1.6044866844060997E+00    8.4190149178195153E+00    8.4340381115151928E+00
N    1.6079772414324993E+00    8.4192701270847756E+00    1.0421771156600849E+01
Ga    1.5809543340655499E+00    1.0278060848658908E+01    1.1066803298592793E+01
N    1.5649668063817379E+00    1.0287457410261643E+01    1.3055246178691629E+01
Ga    1.6085269985612713E+00    8.4175613447137270E+00    1.3615568392106713E+01
N    1.5840506450412537E+00    8.4024489795319379E+00    1.5572596925392959E+01
Ga    1.7565362268252100E+00    1.0175082708829988E+01    1.6477510083425301E+01
N    3.2054623532020683E+00    9.3461188453460124E+00    1.7621143744866597E+01
N    9.6331914182248575E+00    1.9173336257877671E+00    2.6019952308503482E+00
Ga    9.6298213176865790E+00    1.7517850935449805E-01    3.2850268170956953E+00
N    9.6321367472993931E+00    6.0028008910484661E-02    5.2448872124323334E+00
Ga    9.6314802910389865E+00    1.9153853001691119E+00    5.8774592396317216E+00
N    9.6330524966636517E+00    1.9142925317507171E+00    7.8442626836490286E+00
Ga    9.6344925641351633E+00    4.6151279856118020E-02    8.4345358162493707E+00
N    9.6362723287298930E+00    4.3181456995521589E-02    1.0421585084909012E+01
Ga    9.6359313128625548E+00    1.9138743657881239E+00    1.1020476894212955E+01
N    9.6366973795848399E+00    1.9115937927545619E+00    1.2985446728155891E+01
Ga    9.6377194048821622E+00    4.3270517712818007E-02    1.3616271456457198E+01
N    9.6370924649247787E+00    7.1122264724015269E-02    1.5575477398503100E+01
Ga    9.6369014952684307E+00    1.9101390147329205E+00    1.5856607299009713E+01
N    7.9174384152905342E+00    4.6395847395078738E+00    2.5170432065622848E+00
Ga    8.1220724058636069E+00    2.7861842930540925E+00    3.2828226843514479E+00
N    8.0248325777648493E+00    2.8426208158867041E+00    5.2431712101151318E+00
Ga    8.0502747827427612E+00    4.7152324482472761E+00    5.7923318540089825E+00
N    8.0367198583276860E+00    4.7064223660655795E+00    7.7843722944527309E+00
Ga    8.0156825049041291E+00    2.8496257105079503E+00    8.4333804074555374E+00
N    8.0161721954565675E+00    2.8494053353309976E+00    1.0420634749360326E+01
Ga    8.0428346776975257E+00    4.7078493186288268E+00    1.1067688264843200E+01
N    8.0623797696378769E+00    4.7165871767911494E+00    1.3055710087996406E+01
Ga    8.0189251862048305E+00    2.8470999365860434E+00    1.3617475315754534E+01
N    8.0474966290169405E+00    2.8283509352610530E+00    1.5573467537198296E+01
Ga    7.8638495483392923E+00    4.6009838561317862E+00    1.6481374976124354E+01
N    6.4140878497500440E+00    7.4866628612202453E+00    2.5945191939663750E+00
Ga    6.4132645187601671E+00    5.7445659810646443E+00    3.2779593789949044E+00
N    6.4160382236168578E+00    5.6299818751621604E+00    5.2389114465991202E+00
Ga    6.4166716772262822E+00    7.4855791392025974E+00    5.8685912181752746E+00
N    6.4185295991020181E+00    7.4852665191706551E+00    7.8374513506041783E+00
Ga    6.4185846428125153E+00    5.6169135663989396E+00    8.4307841631304488E+00
N    6.4199671206810578E+00    5.6148183953033381E+00    1.0419535408349317E+01
Ga    6.4203638820047519E+00    7.4843090606089877E+00    1.1020960545771368E+01
N    6.4216490516076856E+00    7.4834933906681353E+00    1.2988003684474284E+01
Ga    6.4220334382475537E+00    5.6129397188723900E+00    1.3618420931596377E+01
N    6.4222855268662551E+00    5.6487239393457349E+00    1.5575367831617315E+01
Ga    6.4216545204929991E+00    7.4838520666479429E+00    1.5854350589650208E+01
N    4.7004443748206350E+00    1.0212413761390275E+01    2.5183124373119079E+00
Ga    4.9057761093587882E+00    8.3564855033683774E+00    3.2795167595372838E+00
N    4.8092254138021859E+00    8.4132465620820174E+00    5.2402873217012980E+00
Ga    4.8325903706832314E+00    1.0284565646793618E+01    5.7957994591472142E+00
N    4.8205606862350194E+00    1.0276118212553673E+01    7.7865334131776756E+00
Ga    4.8007168503540347E+00    8.4187109083843463E+00    8.4316703630324987E+00
N    4.8007912671065283E+00    8.4188159334320698E+00    1.0419934673848733E+01
Ga    4.8270237697545690E+00    1.0277234102117793E+01    1.1066511650937535E+01
N    4.8457209936340879E+00    1.0287181581933515E+01    1.3054918442624917E+01
Ga    4.8021417803120992E+00    8.4177308816097600E+00    1.3616333594437259E+01
N    4.8275020638870734E+00    8.4015527624081745E+00    1.5574200768357601E+01
Ga    4.6534131497207651E+00    1.0175307736309883E+01    1.6477134336903074E+01
O    2.1477871629122117E-01    3.4551102362061559E+00   -5.4531622300653748E-01
H    7.9443792305207661E-01    4.1525425319188995E+00   -9.0617362143510261E-01
C    7.9101446951132903E-01    2.1323766495024752E+00   -8.6588881242995164E-01
H    1.8452050793765757E+00    2.0918501820790989E+00   -5.7029892948181204E-01
H    2.2145796578472557E-01    1.4098070502326085E+00   -2.7209795732923259E-01
H    6.5164383276734061E-01    1.9539747219420434E+00   -1.9373212542892875E+00
     &END COORD
     &KIND C
       BASIS_SET DZVP-MOLOPT-SR-GTH-q4
       POTENTIAL GTH-PBE-q4
       &POTENTIAL
2 2
0.3384712400000000E+00 2 -0.8803673979999999E+01  0.1339210850000000E+01
2
0.3025757500000000E+00 1  0.9622486650000001E+01
0.2915069400000000E+00 0
       &END POTENTIAL
     &END KIND
     &KIND O
       BASIS_SET DZVP-MOLOPT-SR-GTH-q6
       POTENTIAL GTH-PBE-q6
       &POTENTIAL
2 4
0.2445543000000000E+00 2 -0.1666721480000000E+02  0.2487311320000000E+01
2
0.2209559200000000E+00 1  0.1833745811000000E+02
0.2113324700000000E+00 0
       &END POTENTIAL
     &END KIND
     &KIND H
       BASIS_SET DZVP-MOLOPT-SR-GTH-q1
       POTENTIAL GTH-PBE-q1
       &POTENTIAL
1
0.2000000000000000E+00 2 -0.4178900440000000E+01  0.7244633100000000E+00
0
       &END POTENTIAL
     &END KIND
     &KIND N
       BASIS_SET DZVP-MOLOPT-SR-GTH
       POTENTIAL GTH-PBE-q5
       &POTENTIAL
2 3
0.2837905100000000E+00 2 -0.1241522559000000E+02  0.1868095920000000E+01
2
0.2554050000000000E+00 1  0.1363026257000000E+02
0.2454945300000000E+00 0
       &END POTENTIAL
     &END KIND
     &KIND Ga
       BASIS_SET DZVP-MOLOPT-SR-GTH
       POTENTIAL GTH-PBE-q13
       &POTENTIAL
2 1 10
0.4900000000000000E+00 0
3
0.4167772300000000E+00 3  0.1047568975000000E+02 -0.4921768140000000E+01  0.8707055900000000E+00
0.7770178090000000E+01 -0.2248152160000000E+01
0.1784415450000000E+01
0.5696265200000000E+00 2  0.1777985340000000E+01  0.1958597600000000E+00
-0.2317443900000000E+00
0.2381265000000000E+00 1 -0.1624868022000000E+02
       &END POTENTIAL
     &END KIND
     &TOPOLOGY
       NUMBER_OF_ATOMS  206
       MULTIPLE_UNIT_CELL  1 1 1
     &END TOPOLOGY
   &END SUBSYS
 &END FORCE_EVAL
