 # Version information for this restart file 
 # current date 2019-06-24 12:53:30.580
 # current working dir /scratch/rzk/rzk/GaN-carbene/443-adatoms-both-2x2/02-Methanol/01-O-GaTop
 # Program compiled at                              Sun Apr  7 00:48:11 EDT 2019
 # Program compiled on                          beluga2.int.ets1.calculquebec.ca
 # Program compiled for                        Beluga-Linux-x86-64-intel-openmpi
 # Source code revision number                                         svn:18619
 &GLOBAL
   PRINT_LEVEL  MEDIUM
   PROJECT_NAME TEST
   RUN_TYPE  GEO_OPT
 &END GLOBAL
 &MOTION
   &GEO_OPT
     MAX_ITER  500
     STEP_START_VAL  39
   &END GEO_OPT
 &END MOTION
 &FORCE_EVAL
   METHOD  QS
   STRESS_TENSOR  ANALYTICAL
   &DFT
     BASIS_SET_FILE_NAME BASIS_MOLOPT
     POTENTIAL_FILE_NAME GTH_POTENTIALS
     UKS  T
     SURFACE_DIPOLE_CORRECTION  T
     SURF_DIP_DIR  Z
     &SCF
       MAX_SCF  80
       EPS_SCF     5.0000000000000004E-06
       &OT  T
         PRECONDITIONER  FULL_ALL
       &END OT
       &OUTER_SCF  T
         OPTIMIZER  NONE
         EPS_SCF     5.0000000000000004E-06
         MAX_SCF  4
       &END OUTER_SCF
       &PRINT
         &RESTART  OFF
           BACKUP_COPIES  1
           &EACH
             JUST_ENERGY  0
             QS_SCF  0
             MD  20
           &END EACH
         &END RESTART
       &END PRINT
     &END SCF
     &QS
       EPS_DEFAULT     1.0000000000000000E-14
       METHOD  GPW
     &END QS
     &MGRID
       NGRIDS  5
       CUTOFF     1.2000000000000000E+03
     &END MGRID
     &XC
       DENSITY_CUTOFF     1.0000000000000000E-10
       GRADIENT_CUTOFF     1.0000000000000000E-10
       TAU_CUTOFF     1.0000000000000000E-10
       &XC_FUNCTIONAL  NO_SHORTCUT
         &PBE  T
         &END PBE
       &END XC_FUNCTIONAL
       &VDW_POTENTIAL
         POTENTIAL_TYPE  PAIR_POTENTIAL
         &PAIR_POTENTIAL
           R_CUTOFF     1.0000000000000004E+01
           TYPE  DFTD3
           PARAMETER_FILE_NAME dftd3.dat
           REFERENCE_FUNCTIONAL PBE
           EPS_CN     9.9999999999999995E-07
           CALCULATE_C9_TERM  T
           REFERENCE_C9_TERM  T
           LONG_RANGE_CORRECTION  F
           VERBOSE_OUTPUT  F
         &END PAIR_POTENTIAL
       &END VDW_POTENTIAL
     &END XC
   &END DFT
   &SUBSYS
     &CELL
       A     1.2864472766435110E+01    0.0000000000000000E+00    0.0000000000000000E+00
       B    -6.4322363581020028E+00    1.1140960178524473E+01    0.0000000000000000E+00
       C     0.0000000000000000E+00    0.0000000000000000E+00    3.2000000000000000E+01
       MULTIPLE_UNIT_CELL  1 1 1
       &CELL_REF
         A     1.2982353780853531E+01    0.0000000000000000E+00    0.0000000000000000E+00
         B    -6.4911768904267628E+00    1.1243048175136114E+01    0.0000000000000000E+00
         C     0.0000000000000000E+00    0.0000000000000000E+00    3.2000000000000000E+01
         MULTIPLE_UNIT_CELL  1 1 1
       &END CELL_REF
     &END CELL
     &COORD
N   -1.2375580228156722E-02    2.0460180796188672E+00    2.4918056582038259E+00
Ga   -8.0194619964730016E-03    6.6288547940252712E-02    2.8471400356273624E+00
N   -4.5338913472927136E-03    5.6235433984988994E-02    4.9975410863043912E+00
Ga   -3.0222511522166842E-03    1.8823643263217980E+00    5.7873330392698561E+00
N   -8.0973450190349662E-04    1.8953903911955332E+00    7.7823915722061283E+00
Ga   -3.2192044075250655E-04    4.8476339747892193E-02    8.4239402617512269E+00
N    7.3433152806653295E-04    4.9263894587689219E-02    1.0400228545724188E+01
Ga    4.3308899298146505E-04    1.8906698523107890E+00    1.1048834198687581E+01
N    1.8648498675547073E-03    1.8749275179760290E+00    1.3044907856882714E+01
Ga   -1.2494247860227255E-03    5.6594882867323469E-02    1.3841541473644714E+01
N   -4.5515016121994628E-04    5.9545081776923692E-02    1.6055906853471811E+01
Ga    3.0901011738595869E-03    2.1063454840818876E+00    1.6472815809343050E+01
Ga   -3.1057909688972367E-02    3.7807508831965975E+00    1.5147151060199091E+00
N   -1.5047346496778877E+00    4.6361853130803237E+00    2.5163937332376487E+00
Ga   -1.7147052580250950E+00    2.7818635669557348E+00    3.2897148870503714E+00
N   -1.6166390056909554E+00    2.8356582749854145E+00    5.2472851920450001E+00
Ga   -1.6379017562725819E+00    4.7102911010774555E+00    5.7871645091654882E+00
N   -1.6202749519090538E+00    4.6995627683145154E+00    7.7832067288027460E+00
Ga   -1.6010684297256232E+00    2.8410490596028737E+00    8.4183762887983296E+00
N   -1.5978290380387816E+00    2.8421171695006548E+00    1.0413782174250276E+01
Ga   -1.6223914679123179E+00    4.7022449319293331E+00    1.1050300372103219E+01
N   -1.6365870821056279E+00    4.7132802636739468E+00    1.3047032514163242E+01
Ga   -1.5943523249640601E+00    2.8453618042363216E+00    1.3604220404546243E+01
N   -1.6198752578958484E+00    2.8339397152867809E+00    1.5567874141003607E+01
Ga   -1.4419266489298812E+00    4.6068181614502457E+00    1.6472613920471147E+01
N    3.5144426740168124E-03    3.7748905469244431E+00    1.7616484138564530E+01
N   -3.2226405723003975E+00    7.6047909893244201E+00    2.4997551918077496E+00
Ga   -3.2169821190493622E+00    5.6246160785865769E+00    2.8365440779944722E+00
N   -3.2200739675945242E+00    5.6237884213258473E+00    4.9994070432739344E+00
Ga   -3.2204397972670207E+00    7.4531182919388437E+00    5.7766643702228953E+00
N   -3.2179976523880289E+00    7.4681279342349294E+00    7.7757425797185258E+00
Ga   -3.2191509219721612E+00    5.6229604472563759E+00    8.4254647730751167E+00
N   -3.2167912195019444E+00    5.6228989275541768E+00    1.0401276105176763E+01
Ga   -3.2161976839656230E+00    7.4615632787332391E+00    1.1053444925670465E+01
N   -3.2145931990557290E+00    7.4444500499473900E+00    1.3052848539296448E+01
Ga   -3.2147747674825977E+00    5.6196028418176454E+00    1.3847850017338471E+01
N   -3.2135518687690694E+00    5.6239900524467874E+00    1.6056273230212028E+01
Ga   -3.2116626750986890E+00    7.6503777200010754E+00    1.6449851092047133E+01
Ga   -3.2218015357471521E+00    9.3368984300206552E+00    1.4395491156119222E+00
N   -4.7279236812008918E+00    1.0211639649104283E+01    2.4938343843010515E+00
Ga   -4.9281857002251108E+00    8.3581897159638672E+00    3.2567321847548203E+00
N   -4.8299826788549440E+00    8.4090617584078107E+00    5.2240680497179932E+00
Ga   -4.8514267166088016E+00    1.0279773530612305E+01    5.7753242724950535E+00
N   -4.8343390238973249E+00    1.0268583711847443E+01    7.7743282567012759E+00
Ga   -4.8159665108165548E+00    8.4122075024923664E+00    8.4160090825527583E+00
N   -4.8130035487307037E+00    8.4130673225852899E+00    1.0413389840636778E+01
Ga   -4.8385009099799081E+00    1.0271875164217645E+01    1.1051890071943031E+01
N   -4.8540356021347231E+00    1.0284414985172823E+01    1.3050579645383543E+01
Ga   -4.8127391011338387E+00    8.4154164275926995E+00    1.3603772212149510E+01
N   -4.8368778518071389E+00    8.4043683934017110E+00    1.5573222030004732E+01
Ga   -4.6779840022607209E+00    1.0189696946996062E+01    1.6450269308121076E+01
N   -3.2171944188729902E+00    9.3417472118578093E+00    1.7572686288251379E+01
N    3.2008191706909708E+00    1.9164281410184560E+00    2.5764650485467269E+00
Ga    3.2086707921197157E+00    1.6844881232027739E-01    3.2554165449019776E+00
N    3.2119902172414574E+00    5.6374846005008521E-02    5.2229804819660632E+00
Ga    3.2125616782456974E+00    1.9088425451483981E+00    5.8561101755854876E+00
N    3.2159057168579048E+00    1.9067152544349832E+00    7.8302291018228312E+00
Ga    3.2150950352641114E+00    3.9387865951801472E-02    8.4179468845814505E+00
N    3.2166222223951295E+00    3.8140711610348814E-02    1.0414986903903655E+01
Ga    3.2171536976247088E+00    1.9082887264764474E+00    1.1010194588968023E+01
N    3.2184554298898802E+00    1.9102018168599126E+00    1.2984746675344075E+01
Ga    3.2179052673444053E+00    4.2072967060266427E-02    1.3602545279216963E+01
N    3.2203111824780475E+00    7.4897996509252981E-02    1.5570011453742659E+01
Ga    3.2182651024026434E+00    1.9164946457303251E+00    1.5848666638044548E+01
N    1.4803177036020796E+00    4.6352960327536143E+00    2.4932352293477904E+00
Ga    1.6931285482866132E+00    2.7861073345783653E+00    3.2753977498214208E+00
N    1.6072235378688549E+00    2.8365516233762604E+00    5.2371461724550645E+00
Ga    1.6292352883732300E+00    4.7085310953581576E+00    5.7858566590340157E+00
N    1.6176507796550783E+00    4.6988596363482902E+00    7.7818103149371423E+00
Ga    1.5991257007086694E+00    2.8410954850043941E+00    8.4194857820807005E+00
N    1.5985298816260909E+00    2.8426423326988401E+00    1.0414391228725457E+01
Ga    1.6244570806658283E+00    4.7028863714777280E+00    1.1051477887949433E+01
N    1.6409048938190025E+00    4.7135471309065613E+00    1.3047437878441661E+01
Ga    1.5982477768141279E+00    2.8454361012709390E+00    1.3604258544113438E+01
N    1.6253329835253634E+00    2.8328930086283188E+00    1.5566829792805997E+01
Ga    1.4493680742544210E+00    4.6073685531577482E+00    1.6472975386652557E+01
N   -7.8446440447544480E-03    7.4791312092944748E+00    2.5861903191727467E+00
Ga   -6.5503865477933732E-03    5.7429416702505662E+00    3.2911326670784997E+00
N   -3.6880477208457458E-03    5.6301350934292858E+00    5.2482427765185991E+00
Ga   -4.6860375406349913E-03    7.4851164253945219E+00    5.8622598922115454E+00
N   -1.9505950635914538E-03    7.4813535753338885E+00    7.8350806468104377E+00
Ga   -8.3754340976622892E-04    5.6117649869530002E+00    8.4193137283051271E+00
N    8.4543803896182021E-04    5.6100975454245114E+00    1.0414826954888349E+01
Ga    1.0136211403647840E-03    7.4792783617581318E+00    1.1010503944339995E+01
N    2.6648213223981099E-03    7.4824751090734249E+00    1.2985376791128592E+01
Ga    2.0973772429131493E-03    5.6119485899519628E+00    1.3604892483324587E+01
N    2.1474523212465400E-03    5.6461838636843122E+00    1.5566709949857994E+01
Ga    3.8076761427771242E-03    7.4825106421956491E+00    1.5851287267307322E+01
N   -1.7206762955808803E+00    1.0208779979149719E+01    2.4961243572984575E+00
Ga   -1.5185228278533440E+00    8.3574481698567773E+00    3.2615305563306611E+00
N   -1.6107202945510120E+00    8.4096717755915513E+00    5.2281583237192528E+00
Ga   -1.5882333391845953E+00    1.0281162336492848E+01    5.7769992427575865E+00
N   -1.6010915531496686E+00    1.0269001694638570E+01    7.7764710261421968E+00
Ga   -1.6205573941791698E+00    8.4135366476098206E+00    8.4195431309321549E+00
N   -1.6193592191022723E+00    8.4135890300499483E+00    1.0416282843582572E+01
Ga   -1.5917708567063951E+00    1.0272912789054994E+01    1.1052941936218732E+01
N   -1.5746473419468547E+00    1.0284793278561452E+01    1.3051545629264115E+01
Ga   -1.6159282196063107E+00    8.4155842824273179E+00    1.3603668301427534E+01
N   -1.5891001655581118E+00    8.4057181904568292E+00    1.5571309335119818E+01
Ga   -1.7499734970562013E+00    1.0187173880190812E+01    1.6451117870511386E+01
N    6.4239043642169804E+00    2.0352713170655785E+00    2.4959861963523196E+00
Ga    6.4239962127513142E+00    5.5341609585757151E-02    2.8329664679123607E+00
N    6.4277516670370964E+00    5.3621634565649723E-02    5.0000678227096262E+00
Ga    6.4265094380412737E+00    1.8808682084593922E+00    5.7772976784933237E+00
N    6.4300020883542084E+00    1.8970860759362835E+00    7.7759927090739183E+00
Ga    6.4303661048518048E+00    5.0677783362966584E-02    8.4230120532821307E+00
N    6.4328590781400701E+00    5.0504226558015987E-02    1.0399990361623448E+01
Ga    6.4326591607944614E+00    1.8905661454046339E+00    1.1051142840187397E+01
N    6.4338205875693566E+00    1.8747479610324778E+00    1.3047051980299365E+01
Ga    6.4366543128633653E+00    5.6710338846809295E-02    1.3846584482701385E+01
N    6.4365320753863600E+00    5.8468980615977877E-02    1.6056720001886021E+01
Ga    6.4357229612590885E+00    2.1069404724829011E+00    1.6475600802208220E+01
Ga    6.4284482972340165E+00    3.7715644746116506E+00    1.4508416837113065E+00
N    4.9191703059133589E+00    4.6375983581684608E+00    2.4939586805342180E+00
Ga    4.7164544607136820E+00    2.7843711214175846E+00    3.2568789538827692E+00
N    4.8170418721924149E+00    2.8366989715161663E+00    5.2233163353640544E+00
Ga    4.7948201120451790E+00    4.7087460324557382E+00    5.7742604976989060E+00
N    4.8132040777343326E+00    4.6983874431944690E+00    7.7732967063992673E+00
Ga    4.8325706988701862E+00    2.8418387412310371E+00    8.4175701313104820E+00
N    4.8356184814040128E+00    2.8430518171495609E+00    1.0413178003555666E+01
Ga    4.8101008651073842E+00    4.7022195855785176E+00    1.1052740899206961E+01
N    4.7951691167491006E+00    4.7134944993056429E+00    1.3048576189370962E+01
Ga    4.8381934462920313E+00    2.8457405985261484E+00    1.3607183477382183E+01
N    4.8127043204318269E+00    2.8312290862908855E+00    1.5570901883041101E+01
Ga    4.9873773017717191E+00    4.6073521526743191E+00    1.6475417202855933E+01
N    6.4263880402445208E+00    3.7739899294933887E+00    1.7617925413855232E+01
N    3.2066220749169498E+00    7.6042035893066222E+00    2.4956580523909642E+00
Ga    3.1976691308039342E+00    5.6223710425108226E+00    2.8333092762755387E+00
N    3.2089763898285653E+00    5.6224851640599862E+00    4.9942867596463971E+00
Ga    3.2113970011261181E+00    7.4518559137170488E+00    5.7754481589361841E+00
N    3.2147741056755783E+00    7.4671986271891013E+00    7.7743784379876573E+00
Ga    3.2167975590655318E+00    5.6219462277899579E+00    8.4250449383637367E+00
N    3.2179408405198067E+00    5.6227525872944568E+00    1.0400720206044838E+01
Ga    3.2173962699077259E+00    7.4613999837969622E+00    1.1052631399352594E+01
N    3.2184078946853223E+00    7.4452559315430618E+00    1.3049839174420306E+01
Ga    3.2179114447761967E+00    5.6229757912582219E+00    1.3850041311521743E+01
N    3.2174311267514408E+00    5.6268169475144587E+00    1.6057126146256834E+01
Ga    3.2185188316982596E+00    7.6656522280261488E+00    1.6468733096830817E+01
Ga    3.2065827428831528E+00    9.3416433791578175E+00    1.4446444481389007E+00
N    1.7047721958104305E+00    1.0208473381915942E+01    2.4973467670823446E+00
Ga    1.5024449184062025E+00    8.3564752241724118E+00    3.2614932545385513E+00
N    1.6014580980230637E+00    8.4090213691623017E+00    5.2275060584257265E+00
Ga    1.5786517944443559E+00    1.0280100266252340E+01    5.7791015102521754E+00
N    1.5976103749146928E+00    1.0268469293097164E+01    7.7776346213622229E+00
Ga    1.6175543453431025E+00    8.4123290357802762E+00    8.4190457639373530E+00
N    1.6205523952034120E+00    8.4131546481322435E+00    1.0414859725562057E+01
Ga    1.5938998259183308E+00    1.0272304058602375E+01    1.1051202940960408E+01
N    1.5796262206304643E+00    1.0284013654785499E+01    1.3048291068404271E+01
Ga    1.6218531290516893E+00    8.4165242241724716E+00    1.3606023263864197E+01
N    1.5943274451041403E+00    8.4062045678937594E+00    1.5572438426946583E+01
Ga    1.7705564464339725E+00    1.0180593512075498E+01    1.6468539986294036E+01
N    3.2148706825441895E+00    9.3373955760698095E+00    1.7611482778376942E+01
N    9.6444842740168717E+00    1.9148172813547857E+00    2.5892059001037913E+00
Ga    9.6394560517664445E+00    1.6743415454386004E-01    3.2618960945930011E+00
N    9.6432683636711047E+00    5.4727991084822986E-02    5.2280771659602312E+00
Ga    9.6410172123893076E+00    1.9081862362435009E+00    5.8601191662360552E+00
N    9.6445991501402073E+00    1.9067579297931383E+00    7.8328168828058580E+00
Ga    9.6470485061007647E+00    3.9050751879022363E-02    8.4176578120675511E+00
N    9.6488846247121245E+00    3.8199473603088029E-02    1.0413529614405364E+01
Ga    9.6480987644018033E+00    1.9078186070399412E+00    1.1009871875402188E+01
N    9.6496806875225456E+00    1.9096829192728502E+00    1.2984943922205629E+01
Ga    9.6509151221296534E+00    4.0624806563389855E-02    1.3603212220417202E+01
N    9.6521682593908391E+00    7.5010317729962125E-02    1.5567648150208745E+01
Ga    9.6512219759559823E+00    1.9158753058158462E+00    1.5843606616168595E+01
N    7.9281168326188833E+00    4.6377373393786474E+00    2.5001258526068968E+00
Ga    8.1298159809029578E+00    2.7846399446993093E+00    3.2633184516203810E+00
N    8.0359827290250880E+00    2.8374939819204203E+00    5.2290571573216909E+00
Ga    8.0602220908184918E+00    4.7100294857961380E+00    5.7771490740504401E+00
N    8.0478307004243543E+00    4.6990730384525303E+00    7.7754817835928591E+00
Ga    8.0277758673377981E+00    2.8420483933742093E+00    8.4177759703513164E+00
N    8.0293792167600841E+00    2.8427726690182862E+00    1.0413087184319886E+01
Ga    8.0546332662473112E+00    4.7020176993544354E+00    1.1050982531716214E+01
N    8.0721108373169468E+00    4.7132487974897463E+00    1.3046875738838018E+01
Ga    8.0303148012711105E+00    2.8457968671321638E+00    1.3605669200149352E+01
N    8.0575670630571050E+00    2.8343411435315629E+00    1.5567913200749768E+01
Ga    7.8752361718333974E+00    4.6020114863337751E+00    1.6475352409876614E+01
N    6.4252540690659439E+00    7.4842207261982470E+00    2.5789520900652190E+00
Ga    6.4234894601349630E+00    5.7406429642643699E+00    3.2595852345583909E+00
N    6.4269992029922900E+00    5.6256604789747549E+00    5.2250557000847904E+00
Ga    6.4280372837467805E+00    7.4814842755541715E+00    5.8503300991115816E+00
N    6.4309615712486687E+00    7.4785665612917622E+00    7.8257007791084190E+00
Ga    6.4303084363624663E+00    5.6104522115870479E+00    8.4154749995057472E+00
N    6.4321770407522720E+00    5.6092511919208725E+00    1.0411506439537602E+01
Ga    6.4320051730806229E+00    7.4784654339228505E+00    1.1008290190167370E+01
N    6.4334317670001138E+00    7.4817344431766948E+00    1.2983523293304893E+01
Ga    6.4343663256826940E+00    5.6117273172499820E+00    1.3606252088918570E+01
N    6.4378055221286026E+00    5.6458042059744828E+00    1.5568578598892801E+01
Ga    6.4337803590200808E+00    7.4826082423396265E+00    1.5852800500039137E+01
N    4.7115893914998628E+00    1.0210667010748766E+01    2.4965237293673823E+00
Ga    4.9139167377140431E+00    8.3560512977618693E+00    3.2564517216513522E+00
N    4.8203717261117411E+00    8.4084741236954628E+00    5.2237933680876862E+00
Ga    4.8441391041711892E+00    1.0279355324356365E+01    5.7769307800100611E+00
N    4.8323252947382862E+00    1.0268496775311306E+01    7.7751009332784635E+00
Ga    4.8135922999850962E+00    8.4113585987690360E+00    8.4152945922911364E+00
N    4.8134353618276275E+00    8.4128233813150377E+00    1.0411465540040734E+01
Ga    4.8391843584286880E+00    1.0271410543441677E+01    1.1049271575492636E+01
N    4.8564512568611056E+00    1.0283583496733431E+01    1.3045818560992242E+01
Ga    4.8153229018369759E+00    8.4166098131025215E+00    1.3604929945032456E+01
N    4.8435811041724559E+00    8.4073689725737211E+00    1.5570710457855855E+01
Ga    4.6632807398461127E+00    1.0178772708070163E+01    1.6468766948917207E+01
O   -4.8539793070591773E-02    3.6020189558168774E+00   -5.5770121300571740E-01
H    3.8788049973241018E-01    4.3586362342816516E+00   -9.9121189288285183E-01
C    5.0155078468164671E-01    2.3369358391655366E+00   -1.0746281058662275E+00
H    1.6014421379916184E+00    2.3574365963374335E+00   -1.0504510005961099E+00
H    1.3895229705617881E-01    1.5576917260468204E+00   -3.9394511060074022E-01
H    1.1507646889885362E-01    2.1833896404775688E+00   -2.0921235505933535E+00
     &END COORD
     &KIND C
       BASIS_SET DZVP-MOLOPT-SR-GTH-q4
       POTENTIAL GTH-PBE-q4
       &POTENTIAL
 2 2
  0.3384712400000000E+00 2 -0.8803673979999999E+01  0.1339210850000000E+01
 2
  0.3025757500000000E+00 1  0.9622486650000001E+01
  0.2915069400000000E+00 0
         # Potential name:  GTH-PBE-Q4  for symbol:  C
         # Potential read from the potential filename: GTH_POTENTIALS
       &END POTENTIAL
     &END KIND
     &KIND O
       BASIS_SET DZVP-MOLOPT-SR-GTH-q6
       POTENTIAL GTH-PBE-q6
       &POTENTIAL
 2 4
  0.2445543000000000E+00 2 -0.1666721480000000E+02  0.2487311320000000E+01
 2
  0.2209559200000000E+00 1  0.1833745811000000E+02
  0.2113324700000000E+00 0
         # Potential name:  GTH-PBE-Q6  for symbol:  O
         # Potential read from the potential filename: GTH_POTENTIALS
       &END POTENTIAL
     &END KIND
     &KIND H
       BASIS_SET DZVP-MOLOPT-SR-GTH-q1
       POTENTIAL GTH-PBE-q1
       &POTENTIAL
 1
  0.2000000000000000E+00 2 -0.4178900440000000E+01  0.7244633100000000E+00
 0
         # Potential name:  GTH-PBE-Q1  for symbol:  H
         # Potential read from the potential filename: GTH_POTENTIALS
       &END POTENTIAL
     &END KIND
     &KIND N
       BASIS_SET DZVP-MOLOPT-SR-GTH
       POTENTIAL GTH-PBE-q5
       &POTENTIAL
 2 3
  0.2837905100000000E+00 2 -0.1241522559000000E+02  0.1868095920000000E+01
 2
  0.2554050000000000E+00 1  0.1363026257000000E+02
  0.2454945300000000E+00 0
         # Potential name:  GTH-PBE-Q5  for symbol:  N
         # Potential read from the potential filename: GTH_POTENTIALS
       &END POTENTIAL
     &END KIND
     &KIND Ga
       BASIS_SET DZVP-MOLOPT-SR-GTH
       POTENTIAL GTH-PBE-q13
       &POTENTIAL
 2 1 10
  0.4900000000000000E+00 0
 3
  0.4167772300000000E+00 3  0.1047568975000000E+02 -0.4921768140000000E+01  0.8707055900000000E+00
  0.7770178090000000E+01 -0.2248152160000000E+01
  0.1784415450000000E+01
  0.5696265200000000E+00 2  0.1777985340000000E+01  0.1958597600000000E+00
 -0.2317443900000000E+00
  0.2381265000000000E+00 1 -0.1624868022000000E+02
         # Potential name:  GTH-PBE-Q13  for symbol:  GA
         # Potential read from the potential filename: GTH_POTENTIALS
       &END POTENTIAL
     &END KIND
     &TOPOLOGY
       NUMBER_OF_ATOMS  206
       MULTIPLE_UNIT_CELL  1 1 1
     &END TOPOLOGY
   &END SUBSYS
 &END FORCE_EVAL
