 # Version information for this restart file 
 # current date 2019-06-24 15:45:49.561
 # current working dir /scratch/rzk/rzk/GaN-carbene/443-adatoms-both-2x2/02-Methanol/01-O-GaTop
 # Program compiled at                              Sun Apr  7 00:48:11 EDT 2019
 # Program compiled on                          beluga2.int.ets1.calculquebec.ca
 # Program compiled for                        Beluga-Linux-x86-64-intel-openmpi
 # Source code revision number                                         svn:18619
 &GLOBAL
   PRINT_LEVEL  MEDIUM
   PROJECT_NAME TEST
   RUN_TYPE  GEO_OPT
 &END GLOBAL
 &MOTION
   &GEO_OPT
     MAX_ITER  500
     STEP_START_VAL  69
   &END GEO_OPT
 &END MOTION
 &FORCE_EVAL
   METHOD  QS
   STRESS_TENSOR  ANALYTICAL
   &DFT
     BASIS_SET_FILE_NAME BASIS_MOLOPT
     POTENTIAL_FILE_NAME GTH_POTENTIALS
     UKS  T
     SURFACE_DIPOLE_CORRECTION  T
     SURF_DIP_DIR  Z
     &SCF
       MAX_SCF  80
       EPS_SCF     5.0000000000000004E-06
       &OT  T
         PRECONDITIONER  FULL_ALL
       &END OT
       &OUTER_SCF  T
         OPTIMIZER  NONE
         EPS_SCF     5.0000000000000004E-06
         MAX_SCF  4
       &END OUTER_SCF
       &PRINT
         &RESTART  OFF
           BACKUP_COPIES  1
           &EACH
             JUST_ENERGY  0
             QS_SCF  0
             MD  20
           &END EACH
         &END RESTART
       &END PRINT
     &END SCF
     &QS
       EPS_DEFAULT     1.0000000000000000E-14
       METHOD  GPW
     &END QS
     &MGRID
       NGRIDS  5
       CUTOFF     1.2000000000000000E+03
     &END MGRID
     &XC
       DENSITY_CUTOFF     1.0000000000000000E-10
       GRADIENT_CUTOFF     1.0000000000000000E-10
       TAU_CUTOFF     1.0000000000000000E-10
       &XC_FUNCTIONAL  NO_SHORTCUT
         &PBE  T
         &END PBE
       &END XC_FUNCTIONAL
       &VDW_POTENTIAL
         POTENTIAL_TYPE  PAIR_POTENTIAL
         &PAIR_POTENTIAL
           R_CUTOFF     1.0000000000000005E+01
           TYPE  DFTD3
           PARAMETER_FILE_NAME dftd3.dat
           REFERENCE_FUNCTIONAL PBE
           EPS_CN     9.9999999999999995E-07
           CALCULATE_C9_TERM  T
           REFERENCE_C9_TERM  T
           LONG_RANGE_CORRECTION  F
           VERBOSE_OUTPUT  F
         &END PAIR_POTENTIAL
       &END VDW_POTENTIAL
     &END XC
   &END DFT
   &SUBSYS
     &CELL
       A     1.2864472766435110E+01    0.0000000000000000E+00    0.0000000000000000E+00
       B    -6.4322363581020028E+00    1.1140960178524475E+01    0.0000000000000000E+00
       C     0.0000000000000000E+00    0.0000000000000000E+00    3.2000000000000000E+01
       MULTIPLE_UNIT_CELL  1 1 1
       &CELL_REF
         A     1.2982353780853531E+01    0.0000000000000000E+00    0.0000000000000000E+00
         B    -6.4911768904267628E+00    1.1243048175136114E+01    0.0000000000000000E+00
         C     0.0000000000000000E+00    0.0000000000000000E+00    3.2000000000000000E+01
         MULTIPLE_UNIT_CELL  1 1 1
       &END CELL_REF
     &END CELL
     &COORD
N   -3.2624990585813446E-02    2.0446066395577782E+00    2.5418588872704322E+00
Ga   -2.8331348946267008E-02    7.1604319505233258E-02    2.8791354539385972E+00
N   -2.2490821509096402E-02    5.5313738951448838E-02    5.0206029790655746E+00
Ga   -2.1037689176943826E-02    1.8834862426742738E+00    5.8169395010621017E+00
N   -1.7621282728712450E-02    1.8955164994139944E+00    7.8085747986520762E+00
Ga   -1.5404335725964859E-02    4.8737181534664234E-02    8.4563367779463565E+00
N   -1.7238850260765978E-02    4.7825007122754344E-02    1.0424879343902196E+01
Ga   -1.7809355050557526E-02    1.8875568004274548E+00    1.1084505449967093E+01
N   -2.2547099779502641E-02    1.8724809228921147E+00    1.3070799220493194E+01
Ga   -2.1900679516639893E-02    5.4644794384796191E-02    1.3884641470108793E+01
N   -2.6303551078469385E-02    6.3480283402123416E-02    1.6075362918262009E+01
Ga   -2.8433369614357898E-02    2.1187249333399030E+00    1.6494569530257348E+01
Ga   -3.7110560230688774E-02    3.7534382964144561E+00    1.5275109263328741E+00
N   -1.5150046088694644E+00    4.6279326248122779E+00    2.5183206589858695E+00
Ga   -1.7300542598259785E+00    2.7834177383130325E+00    3.3225670480946286E+00
N   -1.6337781733029619E+00    2.8387826672679588E+00    5.2768748637780307E+00
Ga   -1.6503715232867178E+00    4.7119408118018073E+00    5.8176087631030793E+00
N   -1.6352642950528324E+00    4.6997782588573731E+00    7.8097333795233821E+00
Ga   -1.6157683964168694E+00    2.8419129181294953E+00    8.4565255919075586E+00
N   -1.6147738405989218E+00    2.8416317602184686E+00    1.0442072493907204E+01
Ga   -1.6428812502837853E+00    4.7025132471011366E+00    1.1086351038494024E+01
N   -1.6631958514563918E+00    4.7156856494883579E+00    1.3071218419837695E+01
Ga   -1.6214651210598514E+00    2.8455162617631160E+00    1.3631747589565741E+01
N   -1.6567268033390961E+00    2.8343611884810538E+00    1.5585836586369854E+01
Ga   -1.4702288010230857E+00    4.6107175217111633E+00    1.6493226379879498E+01
N   -2.9206953942548988E-02    3.7833034026512027E+00    1.7615182571292912E+01
N   -3.2405406125419933E+00    7.6080972807678373E+00    2.5138961174411558E+00
Ga   -3.2306979827048456E+00    5.6253890221124028E+00    2.8575795113594684E+00
N   -3.2329076842837616E+00    5.6233444215923161E+00    5.0134404227432929E+00
Ga   -3.2353444972129402E+00    7.4540635182006927E+00    5.7969561232995597E+00
N   -3.2336146429059656E+00    7.4667656022708639E+00    7.7913100965168853E+00
Ga   -3.2335052106281599E+00    5.6239436791678061E+00    8.4570313350545572E+00
N   -3.2356283902822982E+00    5.6215963608408792E+00    1.0424956143809618E+01
Ga   -3.2359029188306501E+00    7.4613153253880684E+00    1.1081033978403880E+01
N   -3.2385182709565505E+00    7.4453933009784787E+00    1.3070391622063973E+01
Ga   -3.2384713753738117E+00    5.6276594187081512E+00    1.3889014275425659E+01
N   -3.2439798077188655E+00    5.6334670940942200E+00    1.6074617627699610E+01
Ga   -3.2426210668259232E+00    7.6752250359493122E+00    1.6494671865745243E+01
Ga   -3.2374728217251798E+00    9.3382850652880762E+00    1.4708982274289757E+00
N   -4.7455492672347370E+00    1.0216400683346595E+01    2.5050160573214146E+00
Ga   -4.9461438985899671E+00    8.3615539699910268E+00    3.2770689490136693E+00
N   -4.8448826196786614E+00    8.4113335910312852E+00    5.2399537389551609E+00
Ga   -4.8667213226152999E+00    1.0281231892525438E+01    5.7990848443564431E+00
N   -4.8504535757811533E+00    1.0269281377857213E+01    7.7918535311862192E+00
Ga   -4.8307865001381449E+00    8.4122250322482373E+00    8.4400422687631682E+00
N   -4.8308574364963963E+00    8.4122104301869349E+00    1.0429841676460294E+01
Ga   -4.8563061172710835E+00    1.0268913840455514E+01    1.1079754678068788E+01
N   -4.8770293966062113E+00    1.0284716331855730E+01    1.3069739392195821E+01
Ga   -4.8357863762997013E+00    8.4160362889697193E+00    1.3634323274936506E+01
N   -4.8646398199579108E+00    8.4083067502448419E+00    1.5592191105500662E+01
Ga   -4.6918761211621556E+00    1.0183936406303671E+01    1.6495007945358122E+01
N   -3.2441491723677500E+00    9.3531797201047340E+00    1.7637192817017045E+01
N    3.1742521908832311E+00    1.9250118043552464E+00    2.5831888457989862E+00
Ga    3.1870234249960063E+00    1.7536143334453705E-01    3.2744262876118011E+00
N    3.1943175745488528E+00    6.0974870782019103E-02    5.2369554461276033E+00
Ga    3.1940085658741362E+00    1.9086815921695630E+00    5.8930885902081016E+00
N    3.1986955089433162E+00    1.9061332182507529E+00    7.8582799684020799E+00
Ga    3.1987400096801997E+00    3.6600323055546120E-02    8.4459648819365096E+00
N    3.1971973764559944E+00    3.5966523928945254E-02    1.0433645664995554E+01
Ga    3.1984827484528684E+00    1.9059505811292630E+00    1.1034796029494494E+01
N    3.1947181725137743E+00    1.9103478617202032E+00    1.3000391552689472E+01
Ga    3.1943361556559875E+00    4.2461805473183178E-02    1.3633708503006872E+01
N    3.1908538756031661E+00    7.7493070530981104E-02    1.5592107479879383E+01
Ga    3.1899499532430928E+00    1.9164493355748020E+00    1.5873700191079537E+01
N    1.4698686335539528E+00    4.6364603656717112E+00    2.5209441527049603E+00
Ga    1.6730174267858748E+00    2.7954168857254471E+00    3.3164172347489584E+00
N    1.5909815887640155E+00    2.8382252581173577E+00    5.2695601768779783E+00
Ga    1.6077021909390488E+00    4.7115554745845394E+00    5.8162244431607721E+00
N    1.5991934136905883E+00    4.6994410537656606E+00    7.8074934974326808E+00
Ga    1.5804074609515593E+00    2.8414954977977400E+00    8.4541920115340634E+00
N    1.5786643252122667E+00    2.8416409239925429E+00    1.0440371697618124E+01
Ga    1.6061585103410165E+00    4.7020929752961900E+00    1.1086880154830240E+01
N    1.6182267446623926E+00    4.7155187828413565E+00    1.3071563735763368E+01
Ga    1.5753310265868035E+00    2.8456250063721265E+00    1.3631094669316274E+01
N    1.6005597433626773E+00    2.8335485331343730E+00    1.5586341157055847E+01
Ga    1.4125918444964594E+00    4.6092340189618151E+00    1.6492823180501489E+01
N   -2.4727626087597578E-02    7.4803465601619301E+00    2.6040781926964982E+00
Ga   -1.7805233566318145E-02    5.7395796439590221E+00    3.3014048598909627E+00
N   -2.1814597671566072E-02    5.6300862330086634E+00    5.2619188016690366E+00
Ga   -2.4103567970831446E-02    7.4826167713029310E+00    5.8889436041147141E+00
N   -1.9445550649163906E-02    7.4798687771930110E+00    7.8573511675271268E+00
Ga   -1.8178168421434156E-02    5.6114240240309341E+00    8.4560400851140756E+00
N   -1.8122490436289409E-02    5.6092394558894059E+00    1.0442733099675603E+01
Ga   -2.0261823617882532E-02    7.4807427256819059E+00    1.1038043002243274E+01
N   -2.2736314703893000E-02    7.4846262936126475E+00    1.3003538706959732E+01
Ga   -2.2676119926445019E-02    5.6141965022096034E+00    1.3630777247081969E+01
N   -2.7623767012600324E-02    5.6576960056503758E+00    1.5585427973207791E+01
Ga   -2.7327514744537935E-02    7.4920640446761038E+00    1.5867868143483712E+01
N   -1.7415842489833868E+00    1.0213146540569241E+01    2.5133259878938015E+00
Ga   -1.5342700576223105E+00    8.3565834702900190E+00    3.2804118957416097E+00
N   -1.6270030878234378E+00    8.4104553442901420E+00    5.2432146826919466E+00
Ga   -1.6078549165628944E+00    1.0280624674965210E+01    5.7971503954059136E+00
N   -1.6176970456885766E+00    1.0269176356491728E+01    7.7912929349352247E+00
Ga   -1.6384997638238785E+00    8.4137401001016379E+00    8.4450166180684505E+00
N   -1.6397688127002512E+00    8.4129702092924443E+00    1.0433683862008296E+01
Ga   -1.6129488447924036E+00    1.0271055105485928E+01    1.1080604617058176E+01
N   -1.5982714710641086E+00    1.0285720532708034E+01    1.3069025753218002E+01
Ga   -1.6429631547953272E+00    8.4179931002209329E+00    1.3634520686363494E+01
N   -1.6215065462423517E+00    8.4098530040456208E+00    1.5592442058766029E+01
Ga   -1.7928749157406174E+00    1.0183786282275086E+01    1.6498681350259918E+01
N    6.4032832630938339E+00    2.0417572542613929E+00    2.5311333462528567E+00
Ga    6.4053568229139950E+00    5.9634974716038701E-02    2.8671138990807448E+00
N    6.4107406816299335E+00    5.5637359645683816E-02    5.0153859902464220E+00
Ga    6.4079545621382152E+00    1.8832861086737445E+00    5.8081446949049997E+00
N    6.4122155311504931E+00    1.8968214061594100E+00    7.7986430078490505E+00
Ga    6.4113093280441857E+00    5.0161160933778967E-02    8.4529838160645632E+00
N    6.4122310006944438E+00    5.0339521693315216E-02    1.0422312379125257E+01
Ga    6.4122207367057964E+00    1.8899514111147426E+00    1.1078759582411029E+01
N    6.4088662117348445E+00    1.8725712536739305E+00    1.3068280873625953E+01
Ga    6.4086369019823675E+00    5.4198872626114648E-02    1.3883749229470190E+01
N    6.4040411672457660E+00    6.3208972950037412E-02    1.6079478489463469E+01
Ga    6.4034727650325109E+00    2.1195137599236649E+00    1.6500295187390901E+01
Ga    6.4118029843451527E+00    3.7758420827236678E+00    1.5106083348969501E+00
N    4.9013478070417547E+00    4.6408224119878163E+00    2.5280553106847488E+00
Ga    4.6894800534152381E+00    2.7860078799321233E+00    3.2910175506097867E+00
N    4.7958503224405149E+00    2.8373617181976063E+00    5.2493050451433696E+00
Ga    4.7777637675937603E+00    4.7100125472592378E+00    5.8080487639382685E+00
N    4.7957529445864653E+00    4.6986364762740971E+00    7.7975484721084092E+00
Ga    4.8160035231833351E+00    2.8422022793610582E+00    8.4490666488319359E+00
N    4.8167254019008032E+00    2.8432796630218982E+00    1.0435189669073257E+01
Ga    4.7915903741145103E+00    4.7024633167940273E+00    1.1079824793758943E+01
N    4.7695989946284882E+00    4.7156459741854047E+00    1.3069693704153519E+01
Ga    4.8123701134444596E+00    2.8460149941416604E+00    1.3629498491124391E+01
N    4.7797633664953691E+00    2.8350326472517668E+00    1.5587071372214519E+01
Ga    4.9641947922334593E+00    4.6090206499166042E+00    1.6494755735749393E+01
N    6.4014535657274472E+00    3.7836028349768380E+00    1.7629015614934371E+01
N    3.1882631060401652E+00    7.6109118310286998E+00    2.5285928089136300E+00
Ga    3.1758829182853301E+00    5.6261692555457232E+00    2.8835002140035271E+00
N    3.1927921050655916E+00    5.6265349377666229E+00    5.0218143111667244E+00
Ga    3.1928941604044030E+00    7.4555357496243984E+00    5.8088241463898784E+00
N    3.1965178366476916E+00    7.4676153225424695E+00    7.7995678665202091E+00
Ga    3.1979722261109700E+00    5.6221404998176219E+00    8.4573349654713503E+00
N    3.1985065523799125E+00    5.6209643515427219E+00    1.0424775564078939E+01
Ga    3.1982830980172063E+00    7.4602639884997517E+00    1.1081265555664055E+01
N    3.1936838489910850E+00    7.4452974533669911E+00    1.3069658908210856E+01
Ga    3.1926081816214018E+00    5.6271359483979184E+00    1.3891590611469759E+01
N    3.1881828618190942E+00    5.6320255912126171E+00    1.6070593197574571E+01
Ga    3.1888725102073501E+00    7.6761358865541478E+00    1.6488691032744903E+01
Ga    3.1866859328199801E+00    9.3481964322792130E+00    1.5061151583287491E+00
N    1.6879413261407683E+00    1.0212401679791373E+01    2.5291470516009098E+00
Ga    1.4787123234322181E+00    8.3555113529045144E+00    3.2944381501295821E+00
N    1.5828171573188536E+00    8.4098772117827441E+00    5.2541276469174303E+00
Ga    1.5615552278831148E+00    1.0280349457061241E+01    5.8093735867029688E+00
N    1.5786834908265113E+00    1.0269340301150789E+01    7.8010057400400781E+00
Ga    1.5986828997882001E+00    8.4130135595111621E+00    8.4502415725064388E+00
N    1.6011321001406098E+00    8.4125645583555126E+00    1.0437363475241915E+01
Ga    1.5730858319614778E+00    1.0271761703204412E+01    1.1080541063782153E+01
N    1.5530506359361498E+00    1.0286014638215564E+01    1.3068366404305268E+01
Ga    1.5971845354133001E+00    8.4176546504144500E+00    1.3631198678355908E+01
N    1.5676614972284386E+00    8.4097766413888753E+00    1.5589392342561966E+01
Ga    1.7384171311942103E+00    1.0184396944719889E+01    1.6493180103861292E+01
N    3.1882634333525717E+00    9.3529159019413797E+00    1.7631984674930212E+01
N    9.6257680808677524E+00    1.9204220786312201E+00    2.6206118331942330E+00
Ga    9.6220185715716759E+00    1.7741025887837258E-01    3.3007126465792904E+00
N    9.6260845880099044E+00    5.7430165593643424E-02    5.2598146797081329E+00
Ga    9.6258165420084190E+00    1.9113977038817229E+00    5.9002630596419685E+00
N    9.6283992501020244E+00    1.9074203292870262E+00    7.8654977455103037E+00
Ga    9.6293999690503593E+00    3.7925153186233282E-02    8.4526407352965833E+00
N    9.6300243819902480E+00    3.6606523612717719E-02    1.0438637688919471E+01
Ga    9.6277500672509717E+00    1.9079077493437728E+00    1.1036335825379279E+01
N    9.6232957527290246E+00    1.9112789892057627E+00    1.3001107321125144E+01
Ga    9.6244470668218742E+00    4.2998172808232135E-02    1.3630637997801285E+01
N    9.6190626613008643E+00    7.8456666320346605E-02    1.5589974242925978E+01
Ga    9.6176013544010104E+00    1.9180800120137103E+00    1.5871887453545257E+01
N    7.9094741116282137E+00    4.6410924605545238E+00    2.5335308767173963E+00
Ga    8.1159111591524713E+00    2.7867505206073848E+00    3.3041398591135094E+00
N    8.0190541473531756E+00    2.8391265574530018E+00    5.2619311156574859E+00
Ga    8.0465246583689396E+00    4.7126201045434639E+00    5.8078864436668320E+00
N    8.0332024404060078E+00    4.7004254943965478E+00    7.7985464242849920E+00
Ga    8.0098150169577007E+00    2.8436720361999139E+00    8.4503701725555072E+00
N    8.0085871820965551E+00    2.8436753637261756E+00    1.0436386125157080E+01
Ga    8.0347491600087224E+00    4.7032825063058450E+00    1.1079912668180866E+01
N    8.0491832796785179E+00    4.7162386747448917E+00    1.3070139702281370E+01
Ga    8.0040270177704649E+00    2.8469320231428301E+00    1.3629304449398056E+01
N    8.0275849987467573E+00    2.8354447318141074E+00    1.5588166721500812E+01
Ga    7.8412456303408318E+00    4.6084664962506743E+00    1.6497500725877959E+01
N    6.4044843713352284E+00    7.4882591774049265E+00    2.6074466486123775E+00
Ga    6.4057393388150041E+00    5.7494994972551989E+00    3.2971896464012702E+00
N    6.4108293101003913E+00    5.6275688251547811E+00    5.2544049283911738E+00
Ga    6.4131468409710815E+00    7.4856817981518713E+00    5.8785660402324975E+00
N    6.4144194975305613E+00    7.4801549301360186E+00    7.8471656549582187E+00
Ga    6.4146791833834991E+00    5.6120238718899458E+00    8.4428414551159179E+00
N    6.4132312440722927E+00    5.6096696957386722E+00    1.0432082222188747E+01
Ga    6.4144949524856321E+00    7.4791970144459388E+00    1.1031793286590862E+01
N    6.4098102563431931E+00    7.4831578209069285E+00    1.3000029073924283E+01
Ga    6.4088116189671682E+00    5.6143030678145038E+00    1.3628875845720238E+01
N    6.4037561373638932E+00    5.6558844028649267E+00    1.5587332000022949E+01
Ga    6.4057978616720161E+00    7.4906771377864434E+00    1.5871603871097161E+01
N    4.6906260174244432E+00    1.0214593204136367E+01    2.5275174801903488E+00
Ga    4.8972833267399878E+00    8.3590142630662125E+00    3.2935378907461597E+00
N    4.8024522296349081E+00    8.4114189841909628E+00    5.2530221818057257E+00
Ga    4.8268233687826774E+00    1.0281740500658124E+01    5.8104929643699608E+00
N    4.8157236731707549E+00    1.0270139813700094E+01    7.8010314979036517E+00
Ga    4.7967139637603413E+00    8.4124491344938104E+00    8.4450235369113607E+00
N    4.7946892565405674E+00    8.4120736281598880E+00    1.0433592678905560E+01
Ga    4.8208353133954240E+00    1.0269912935035940E+01    1.1080512802408784E+01
N    4.8330183514816527E+00    1.0285465128462613E+01    1.3069872993980951E+01
Ga    4.7902929931254894E+00    8.4163524935627105E+00    1.3630555951274911E+01
N    4.8110347378505738E+00    8.4079400613431368E+00    1.5589931830951160E+01
Ga    4.6360464764488585E+00    1.0183123166810880E+01    1.6491360618640432E+01
O    8.3208862074398127E-01    3.4133922561647960E+00   -3.5552404345575173E-01
H    1.6205819938500625E+00    3.9934325069605432E+00   -2.7042554166229921E-01
C    1.3068612688683354E+00    2.0159789203188656E+00   -5.1293939849474901E-01
H    2.0409946460336714E+00    1.7859539979679850E+00    2.6664174015711950E-01
H    4.2339190395745219E-01    1.3856837651841547E+00   -4.0119522459588730E-01
H    1.7187982185068422E+00    1.9228781452192809E+00   -1.5211531895709076E+00
     &END COORD
     &KIND C
       BASIS_SET DZVP-MOLOPT-SR-GTH-q4
       POTENTIAL GTH-PBE-q4
       &POTENTIAL
2 2
0.3384712400000000E+00 2 -0.8803673979999999E+01  0.1339210850000000E+01
2
0.3025757500000000E+00 1  0.9622486650000001E+01
0.2915069400000000E+00 0
       &END POTENTIAL
     &END KIND
     &KIND O
       BASIS_SET DZVP-MOLOPT-SR-GTH-q6
       POTENTIAL GTH-PBE-q6
       &POTENTIAL
2 4
0.2445543000000000E+00 2 -0.1666721480000000E+02  0.2487311320000000E+01
2
0.2209559200000000E+00 1  0.1833745811000000E+02
0.2113324700000000E+00 0
       &END POTENTIAL
     &END KIND
     &KIND H
       BASIS_SET DZVP-MOLOPT-SR-GTH-q1
       POTENTIAL GTH-PBE-q1
       &POTENTIAL
1
0.2000000000000000E+00 2 -0.4178900440000000E+01  0.7244633100000000E+00
0
       &END POTENTIAL
     &END KIND
     &KIND N
       BASIS_SET DZVP-MOLOPT-SR-GTH
       POTENTIAL GTH-PBE-q5
       &POTENTIAL
2 3
0.2837905100000000E+00 2 -0.1241522559000000E+02  0.1868095920000000E+01
2
0.2554050000000000E+00 1  0.1363026257000000E+02
0.2454945300000000E+00 0
       &END POTENTIAL
     &END KIND
     &KIND Ga
       BASIS_SET DZVP-MOLOPT-SR-GTH
       POTENTIAL GTH-PBE-q13
       &POTENTIAL
2 1 10
0.4900000000000000E+00 0
3
0.4167772300000000E+00 3  0.1047568975000000E+02 -0.4921768140000000E+01  0.8707055900000000E+00
0.7770178090000000E+01 -0.2248152160000000E+01
0.1784415450000000E+01
0.5696265200000000E+00 2  0.1777985340000000E+01  0.1958597600000000E+00
-0.2317443900000000E+00
0.2381265000000000E+00 1 -0.1624868022000000E+02
       &END POTENTIAL
     &END KIND
     &TOPOLOGY
       NUMBER_OF_ATOMS  206
       MULTIPLE_UNIT_CELL  1 1 1
     &END TOPOLOGY
   &END SUBSYS
 &END FORCE_EVAL
