 # Version information for this restart file 
 # current date 2019-06-24 14:52:11.680
 # current working dir /scratch/rzk/rzk/GaN-carbene/443-adatoms-both-2x2/02-Methanol/01-O-GaTop
 # Program compiled at                              Sun Apr  7 00:48:11 EDT 2019
 # Program compiled on                          beluga2.int.ets1.calculquebec.ca
 # Program compiled for                        Beluga-Linux-x86-64-intel-openmpi
 # Source code revision number                                         svn:18619
 &GLOBAL
   PRINT_LEVEL  MEDIUM
   PROJECT_NAME TEST
   RUN_TYPE  GEO_OPT
 &END GLOBAL
 &MOTION
   &GEO_OPT
     MAX_ITER  500
     STEP_START_VAL  52
   &END GEO_OPT
 &END MOTION
 &FORCE_EVAL
   METHOD  QS
   STRESS_TENSOR  ANALYTICAL
   &DFT
     BASIS_SET_FILE_NAME BASIS_MOLOPT
     POTENTIAL_FILE_NAME GTH_POTENTIALS
     UKS  T
     SURFACE_DIPOLE_CORRECTION  T
     SURF_DIP_DIR  Z
     &SCF
       MAX_SCF  80
       EPS_SCF     5.0000000000000004E-06
       &OT  T
         PRECONDITIONER  FULL_ALL
       &END OT
       &OUTER_SCF  T
         OPTIMIZER  NONE
         EPS_SCF     5.0000000000000004E-06
         MAX_SCF  4
       &END OUTER_SCF
       &PRINT
         &RESTART  OFF
           BACKUP_COPIES  1
           &EACH
             JUST_ENERGY  0
             QS_SCF  0
             MD  20
           &END EACH
         &END RESTART
       &END PRINT
     &END SCF
     &QS
       EPS_DEFAULT     1.0000000000000000E-14
       METHOD  GPW
     &END QS
     &MGRID
       NGRIDS  5
       CUTOFF     1.2000000000000000E+03
     &END MGRID
     &XC
       DENSITY_CUTOFF     1.0000000000000000E-10
       GRADIENT_CUTOFF     1.0000000000000000E-10
       TAU_CUTOFF     1.0000000000000000E-10
       &XC_FUNCTIONAL  NO_SHORTCUT
         &PBE  T
         &END PBE
       &END XC_FUNCTIONAL
       &VDW_POTENTIAL
         POTENTIAL_TYPE  PAIR_POTENTIAL
         &PAIR_POTENTIAL
           R_CUTOFF     1.0000000000000005E+01
           TYPE  DFTD3
           PARAMETER_FILE_NAME dftd3.dat
           REFERENCE_FUNCTIONAL PBE
           EPS_CN     9.9999999999999995E-07
           CALCULATE_C9_TERM  T
           REFERENCE_C9_TERM  T
           LONG_RANGE_CORRECTION  F
           VERBOSE_OUTPUT  F
         &END PAIR_POTENTIAL
       &END VDW_POTENTIAL
     &END XC
   &END DFT
   &SUBSYS
     &CELL
       A     1.2864472766435110E+01    0.0000000000000000E+00    0.0000000000000000E+00
       B    -6.4322363581020028E+00    1.1140960178524475E+01    0.0000000000000000E+00
       C     0.0000000000000000E+00    0.0000000000000000E+00    3.2000000000000000E+01
       MULTIPLE_UNIT_CELL  1 1 1
       &CELL_REF
         A     1.2982353780853531E+01    0.0000000000000000E+00    0.0000000000000000E+00
         B    -6.4911768904267628E+00    1.1243048175136114E+01    0.0000000000000000E+00
         C     0.0000000000000000E+00    0.0000000000000000E+00    3.2000000000000000E+01
         MULTIPLE_UNIT_CELL  1 1 1
       &END CELL_REF
     &END CELL
     &COORD
N   -2.3024938989527389E-02    2.0462408643746781E+00    2.5105812329566879E+00
Ga   -2.1186685941975172E-02    7.0661995890509255E-02    2.8700207024159563E+00
N   -1.5397468753851583E-02    5.9725381121928864E-02    5.0090203494412346E+00
Ga   -1.5060389847851635E-02    1.8878805247616666E+00    5.7997114352236609E+00
N   -1.3483942082512492E-02    1.9022599002400433E+00    7.7897433352468823E+00
Ga   -1.3398236930183124E-02    5.7315747310769431E-02    8.4418131443876057E+00
N   -1.2324615965830669E-02    5.5230000026591480E-02    1.0409536347694232E+01
Ga   -1.1752872679439233E-02    1.8965379418941020E+00    1.1063987072022664E+01
N   -1.0728076633184622E-02    1.8777424860302332E+00    1.3051400721153778E+01
Ga   -1.0318932805599854E-02    5.9585748013368710E-02    1.3866454103334215E+01
N   -7.7721199318664261E-03    5.5950595504094876E-02    1.6054595960007291E+01
Ga   -1.0481451251567393E-02    2.1191661711601819E+00    1.6481271153216149E+01
Ga   -3.2957173525059592E-02    3.7726220454587605E+00    1.5171631493904689E+00
N   -1.5109087789913229E+00    4.6351310277202424E+00    2.5124562683775764E+00
Ga   -1.7241605735424910E+00    2.7846513036338436E+00    3.2979182740520012E+00
N   -1.6269003412265504E+00    2.8428097538388641E+00    5.2544085822375424E+00
Ga   -1.6481417736293169E+00    4.7155467244299505E+00    5.8002919060262705E+00
N   -1.6324859965987508E+00    4.7067739557889059E+00    7.7905582682359054E+00
Ga   -1.6129177936418353E+00    2.8484583554963585E+00    8.4325467375149543E+00
N   -1.6086816947227278E+00    2.8492057838360352E+00    1.0419637604817090E+01
Ga   -1.6353539737863687E+00    4.7081020101205304E+00    1.1066207630669787E+01
N   -1.6516640641035052E+00    4.7176590929343316E+00    1.3052410171777590E+01
Ga   -1.6112881743783396E+00    2.8472895726556420E+00    1.3613734847703363E+01
N   -1.6423514024842547E+00    2.8277066204209280E+00    1.5565166718155663E+01
Ga   -1.4443352627308481E+00    4.5965684691263275E+00    1.6479123200108834E+01
N   -9.0121957611753647E-03    3.7773321304281984E+00    1.7620489220644984E+01
N   -3.2320504517335089E+00    7.6063216888867586E+00    2.5181330154515669E+00
Ga   -3.2252088386850457E+00    5.6228313497715741E+00    2.8510212675681923E+00
N   -3.2295973733578789E+00    5.6274557905139000E+00    5.0052289060650015E+00
Ga   -3.2314447079145050E+00    7.4547332415357870E+00    5.7954081537593405E+00
N   -3.2299519866011801E+00    7.4732249585856225E+00    7.7878723497689801E+00
Ga   -3.2301787350571987E+00    5.6276816877800533E+00    8.4425240060991733E+00
N   -3.2301717964282517E+00    5.6272889021484440E+00    1.0409411940706837E+01
Ga   -3.2287067727676693E+00    7.4661947816298495E+00    1.1066316912010985E+01
N   -3.2258680171567855E+00    7.4441215957948916E+00    1.3050543502685777E+01
Ga   -3.2247613295351130E+00    5.6276484423150341E+00    1.3869609442100353E+01
N   -3.2207036320876372E+00    5.6332868651133552E+00    1.6057466863771531E+01
Ga   -3.2253572294103576E+00    7.6704721538366289E+00    1.6478080998356145E+01
Ga   -3.2298884625122470E+00    9.3398948894239595E+00    1.4764610637937485E+00
N   -4.7393618854902799E+00    1.0214335489145077E+01    2.5125114156805743E+00
Ga   -4.9417082840340747E+00    8.3580759643090161E+00    3.2775808428471787E+00
N   -4.8390190217946945E+00    8.4140966860096231E+00    5.2399796085006995E+00
Ga   -4.8633763883518872E+00    1.0285496269604133E+01    5.7954528563317158E+00
N   -4.8469438663534881E+00    1.0275987618057513E+01    7.7869471631400344E+00
Ga   -4.8288092888577472E+00    8.4184434689957399E+00    8.4325483317883183E+00
N   -4.8256605428945738E+00    8.4193597519749890E+00    1.0420495150366767E+01
Ga   -4.8511808268233123E+00    1.0277986733542727E+01    1.1067476977426374E+01
N   -4.8677208998775452E+00    1.0289614102197477E+01    1.3053422165512742E+01
Ga   -4.8216817464827901E+00    8.4181895835679317E+00    1.3613417926583390E+01
N   -4.8468331206251456E+00    8.3989586605896349E+00    1.5568364920111504E+01
Ga   -4.6769722223943910E+00    1.0176821458845600E+01    1.6477355075671809E+01
N   -3.2266934147538140E+00    9.3500108068939820E+00    1.7624374713684336E+01
N    3.1882430968846420E+00    1.9200439104818683E+00    2.5831632184076048E+00
Ga    3.1964474934414735E+00    1.7713906034294241E-01    3.2747287639430098E+00
N    3.2012251875542406E+00    5.9981516201360149E-02    5.2374731849282288E+00
Ga    3.2001587552017399E+00    1.9154554419593053E+00    5.8710580383314754E+00
N    3.2030137071567260E+00    1.9138742753429907E+00    7.8389092824478439E+00
Ga    3.2024608156555554E+00    4.7015560812238101E-02    8.4350707425769702E+00
N    3.2033792262399183E+00    4.3620885577556737E-02    1.0421171987228970E+01
Ga    3.2040074040586495E+00    1.9147234951810168E+00    1.1021074443045165E+01
N    3.2067642517328898E+00    1.9110417560781514E+00    1.2985079942586344E+01
Ga    3.2062007009277567E+00    4.3691848029434176E-02    1.3617262723586490E+01
N    3.2091814408747892E+00    7.1480640674600873E-02    1.5574710683058756E+01
Ga    3.2078226271469013E+00    1.9100996803090926E+00    1.5857489730012794E+01
N    1.4715992553321020E+00    4.6373666463158525E+00    2.5028865144906089E+00
Ga    1.6820391435257160E+00    2.7907213909347552E+00    3.2889449410508256E+00
N    1.5949162791470106E+00    2.8427634507536750E+00    5.2471437138797725E+00
Ga    1.6173476863993397E+00    4.7149899662358141E+00    5.7985404491691535E+00
N    1.6047774639347003E+00    4.7062520718313072E+00    7.7886733794957665E+00
Ga    1.5850885474619461E+00    2.8491391763096696E+00    8.4325989133789481E+00
N    1.5845651033558736E+00    2.8494722038608935E+00    1.0419564792903120E+01
Ga    1.6111073549470556E+00    4.7076527851345240E+00    1.1068692216486912E+01
N    1.6301089496401762E+00    4.7176996777975564E+00    1.3054779062728352E+01
Ga    1.5894178208759695E+00    2.8474652749305105E+00    1.3616668879099642E+01
N    1.6214214073088695E+00    2.8280295691722763E+00    1.5568841083265012E+01
Ga    1.4242305972866864E+00    4.5975558184876180E+00    1.6480060108842167E+01
N   -1.7654446804832871E-02    7.4838090050630335E+00    2.6010936722976137E+00
Ga   -1.5076862566927068E-02    5.7429838945913394E+00    3.2946436680087494E+00
N   -1.5844300130998967E-02    5.6325654521721731E+00    5.2527134979804337E+00
Ga   -1.5166711143459622E-02    7.4862391615188493E+00    5.8758020749867663E+00
N   -1.4244582908832609E-02    7.4862240084371479E+00    7.8438009263881820E+00
Ga   -1.3233876736330799E-02    5.6166808387775022E+00    8.4334849961930658E+00
N   -1.1814399062316199E-02    5.6141262467072375E+00    1.0420637618317203E+01
Ga   -1.2157576985698625E-02    7.4842462227468456E+00    1.1020591438006289E+01
N   -1.2311700402816695E-02    7.4842308617411177E+00    1.2984730316849081E+01
Ga   -1.0901827730517916E-02    5.6151893951690459E+00    1.3617558292702105E+01
N   -1.0385780798098805E-02    5.6531828745986159E+00    1.5570587782072753E+01
Ga   -1.0125388775422867E-02    7.4865375124730908E+00    1.5844824468056053E+01
N   -1.7305043355674252E+00    1.0213099255521170E+01    2.5182058780331955E+00
Ga   -1.5248528974361331E+00    8.3585987385499720E+00    3.2837087208743703E+00
N   -1.6232133486099225E+00    8.4146825156292859E+00    5.2447756564896144E+00
Ga   -1.5985825411248897E+00    1.0286499533445809E+01    5.7983210810409487E+00
N   -1.6130544246944662E+00    1.0275889303300493E+01    7.7897505661060960E+00
Ga   -1.6321759951102923E+00    8.4193419619764498E+00    8.4353149359678543E+00
N   -1.6329658120331749E+00    8.4200426467357854E+00    1.0421867147298057E+01
Ga   -1.6063136448053066E+00    1.0278043493642297E+01    1.1068738907181476E+01
N   -1.5852862958760687E+00    1.0288916651329957E+01    1.3054520712409824E+01
Ga   -1.6303083783588275E+00    8.4181230065776553E+00    1.3614223840136374E+01
N   -1.6064965037125374E+00    8.4025633402713922E+00    1.5568283522663346E+01
Ga   -1.7771641687507653E+00    1.0174392877275336E+01    1.6477545943456708E+01
N    6.4121030190729913E+00    2.0351815422964981E+00    2.5174835388992030E+00
Ga    6.4161535033776662E+00    5.8572864605518152E-02    2.8599706876884685E+00
N    6.4166958240562826E+00    5.7728134950573384E-02    5.0125165631779405E+00
Ga    6.4147176621930724E+00    1.8854001782517149E+00    5.7965197092730820E+00
N    6.4174049391454853E+00    1.9030790989008599E+00    7.7877036806153477E+00
Ga    6.4181037556190850E+00    5.7393465170479323E-02    8.4431131447922372E+00
N    6.4189937932260017E+00    5.6455088153752019E-02    1.0409823764020995E+01
Ga    6.4200595244056160E+00    1.8970411563872005E+00    1.1066974122248647E+01
N    6.4224054640627273E+00    1.8762132179266890E+00    1.3055583923499057E+01
Ga    6.4225852666508922E+00    5.7657549768944202E-02    1.3865829928310296E+01
N    6.4193477903809235E+00    4.9692005480688244E-02    1.6058045896358834E+01
Ga    6.4207784744237921E+00    2.1000591292463691E+00    1.6482018797751724E+01
Ga    6.4188694742530981E+00    3.7708383739486298E+00    1.4765108547683350E+00
N    4.9077272834046708E+00    4.6400107543729288E+00    2.5117440830366515E+00
Ga    4.7028529458810606E+00    2.7859971604282099E+00    3.2723040462480606E+00
N    4.8066758711802002E+00    2.8414948751079074E+00    5.2354246005895124E+00
Ga    4.7819098743768835E+00    4.7133483894917063E+00    5.7920839721101443E+00
N    4.7999889691958613E+00    4.7046798674714498E+00    7.7838464798627598E+00
Ga    4.8195808937569291E+00    2.8486912736286127E+00    8.4337240663415720E+00
N    4.8236000912163730E+00    2.8496408228165926E+00    1.0419817408352609E+01
Ga    4.7975411625964188E+00    4.7077549222932653E+00    1.1070101999647562E+01
N    4.7801671327325153E+00    4.7176305641000198E+00    1.3058042443423203E+01
Ga    4.8241097045214296E+00    2.8473487083266762E+00    1.3619857169372983E+01
N    4.7993263173165239E+00    2.8289515534728320E+00    1.5577523263782508E+01
Ga    4.9697908340506673E+00    4.6046312113942891E+00    1.6480049169987112E+01
N    6.4241477146507400E+00    3.7784838917661476E+00    1.7592497856905851E+01
N    3.1967603569583685E+00    7.6058535537169121E+00    2.5159981170204508E+00
Ga    3.1860228094363197E+00    5.6238455574710784E+00    2.8543741786055734E+00
N    3.1983151205810758E+00    5.6268943220623644E+00    5.0039342189112794E+00
Ga    3.2011976145479477E+00    7.4543171267826382E+00    5.7948896862465515E+00
N    3.2024545538835190E+00    7.4725014821083651E+00    7.7870464849957113E+00
Ga    3.2024682421205379E+00    5.6270357652474905E+00    8.4419074121482165E+00
N    3.2048102623326296E+00    5.6265282407934700E+00    1.0409756004704528E+01
Ga    3.2045955759506595E+00    7.4656153743002234E+00    1.1067736272568963E+01
N    3.2050721880901287E+00    7.4446228012340177E+00    1.3052921163468703E+01
Ga    3.2047187826671930E+00    5.6279845391019023E+00    1.3874485380425995E+01
N    3.2002028583411128E+00    5.6296511232427617E+00    1.6059481124574486E+01
Ga    3.2021013584557148E+00    7.6723805678412180E+00    1.6481058457394965E+01
Ga    3.1953377521394182E+00    9.3448830224012518E+00    1.4775715590198628E+00
N    1.6945131899715897E+00    1.0210988486583549E+01    2.5207893550373259E+00
Ga    1.4917676623632410E+00    8.3578161533839843E+00    3.2825124440359397E+00
N    1.5922284615696578E+00    8.4133629610891436E+00    5.2439581866403548E+00
Ga    1.5676415211851353E+00    1.0284442250545951E+01    5.7997699298251693E+00
N    1.5844278375276462E+00    1.0275338645466789E+01    7.7908271822029249E+00
Ga    1.6046773013333229E+00    8.4183710227663351E+00    8.4361115041880730E+00
N    1.6084145253924857E+00    8.4194072341120503E+00    1.0422117717040271E+01
Ga    1.5813733642969425E+00    1.0278228454285436E+01    1.1067808176657582E+01
N    1.5645141937566462E+00    1.0289330989780231E+01    1.3054527114499921E+01
Ga    1.6075849837982343E+00    8.4176849503368043E+00    1.3615041621196536E+01
N    1.5851602184109792E+00    8.4021576473885968E+00    1.5567323424267110E+01
Ga    1.7569040656058454E+00    1.0171409715524844E+01    1.6480190856883933E+01
N    3.2084694599200159E+00    9.3496401542871475E+00    1.7627727722380843E+01
N    9.6323345870560892E+00    1.9166659079718991E+00    2.6050107248263576E+00
Ga    9.6299078512600005E+00    1.7225655998675124E-01    3.2823085372934462E+00
N    9.6324902480922781E+00    5.7378156796166667E-02    5.2444731092111230E+00
Ga    9.6313615391465355E+00    1.9142302516829610E+00    5.8736397650872618E+00
N    9.6327305050400778E+00    1.9137905670205775E+00    7.8409284078270938E+00
Ga    9.6350890355298393E+00    4.6556510794845248E-02    8.4354587864537027E+00
N    9.6362835133146056E+00    4.3160969431406647E-02    1.0420732701350182E+01
Ga    9.6357359945344125E+00    1.9143889790101924E+00    1.1020763481227439E+01
N    9.6345695953872088E+00    1.9117205850790504E+00    1.2984297996279407E+01
Ga    9.6373502364388663E+00    4.4098946010466093E-02    1.3619339074118926E+01
N    9.6326151446901509E+00    7.0583734513235449E-02    1.5577116243632124E+01
Ga    9.6352840914335491E+00    1.9090721232932344E+00    1.5856901629232421E+01
N    7.9185809488374668E+00    4.6395535412381772E+00    2.5183836928751084E+00
Ga    8.1198584026898839E+00    2.7850264291936111E+00    3.2816053973210790E+00
N    8.0229103569388229E+00    2.8427537177850009E+00    5.2433739499494889E+00
Ga    8.0510920634689462E+00    4.7151046863840120E+00    5.7942456829427185E+00
N    8.0366038931952293E+00    4.7057610319357197E+00    7.7853318647731324E+00
Ga    8.0163789245808434E+00    2.8490187810621617E+00    8.4333268328269675E+00
N    8.0154933234564556E+00    2.8493923356896449E+00    1.0419085408955185E+01
Ga    8.0416135578249612E+00    4.7072693932433740E+00    1.1069173226736877E+01
N    8.0643282750693857E+00    4.7173378495871754E+00    1.3057110005710319E+01
Ga    8.0189912396671907E+00    2.8486622883559836E+00    1.3620806613138514E+01
N    8.0434894526382426E+00    2.8285054453561349E+00    1.5580405082600617E+01
Ga    7.8738390009456083E+00    4.6058655272160420E+00    1.6479024373559284E+01
N    6.4145357776805145E+00    7.4861914698477969E+00    2.5974573178648397E+00
Ga    6.4128679170538367E+00    5.7431411234674963E+00    3.2767163243079582E+00
N    6.4162195961803752E+00    5.6275253580108018E+00    5.2393831034106348E+00
Ga    6.4166393791052121E+00    7.4849925947570828E+00    5.8664887232103613E+00
N    6.4185308083382839E+00    7.4842703497654188E+00    7.8369655682143096E+00
Ga    6.4182050659050400E+00    5.6161079416497586E+00    8.4305770207278172E+00
N    6.4192576623660775E+00    5.6143269166021810E+00    1.0418304316165370E+01
Ga    6.4194211078144230E+00    7.4835360999669227E+00    1.1023335002694937E+01
N    6.4211416142340161E+00    7.4813691621192877E+00    1.2990551412343017E+01
Ga    6.4226894896981461E+00    5.6100984330642092E+00    1.3624038061273525E+01
N    6.4209883004719046E+00    5.6463212568549723E+00    1.5585653460011068E+01
Ga    6.4208629473011127E+00    7.4839327862600067E+00    1.5855458832446745E+01
N    4.7015659197855673E+00    1.0211967484823832E+01    2.5183656639679999E+00
Ga    4.9045400161103903E+00    8.3567696522350499E+00    3.2767511848786683E+00
N    4.8086320260417681E+00    8.4131085801481724E+00    5.2398521007400189E+00
Ga    4.8338859281894155E+00    1.0283881637852581E+01    5.7967761495256811E+00
N    4.8206117131518571E+00    1.0275580091965507E+01    7.7874579527491283E+00
Ga    4.8012274520538520E+00    8.4183057177125153E+00    8.4326392272236408E+00
N    4.8003779790555621E+00    8.4189064082524396E+00    1.0419866890302032E+01
Ga    4.8262172358593958E+00    1.0277272846517148E+01    1.1068361401052572E+01
N    4.8464532801446936E+00    1.0289968068326894E+01    1.3055409890750003E+01
Ga    4.8005389144839583E+00    8.4189967298608650E+00    1.3618322196275569E+01
N    4.8246111495308508E+00    8.3978755429319065E+00    1.5574270335433578E+01
Ga    4.6530480189126306E+00    1.0175487968403049E+01    1.6478901364556815E+01
O    2.1819697004669900E-01    3.4580128432282491E+00   -5.3984194315979395E-01
H    8.0557981033412651E-01    4.1512901062539438E+00   -8.9888247764088347E-01
C    8.0056022488743817E-01    2.1376750678105174E+00   -8.5661608294391456E-01
H    1.8464416275411324E+00    2.0796477905922726E+00   -5.5754438700006692E-01
H    2.2127879900797609E-01    1.4129533066650817E+00   -2.7642660146426506E-01
H    6.6670423298280324E-01    1.9558008777788689E+00   -1.9268582727296359E+00
     &END COORD
     &KIND C
       BASIS_SET DZVP-MOLOPT-SR-GTH-q4
       POTENTIAL GTH-PBE-q4
       &POTENTIAL
2 2
0.3384712400000000E+00 2 -0.8803673979999999E+01  0.1339210850000000E+01
2
0.3025757500000000E+00 1  0.9622486650000001E+01
0.2915069400000000E+00 0
       &END POTENTIAL
     &END KIND
     &KIND O
       BASIS_SET DZVP-MOLOPT-SR-GTH-q6
       POTENTIAL GTH-PBE-q6
       &POTENTIAL
2 4
0.2445543000000000E+00 2 -0.1666721480000000E+02  0.2487311320000000E+01
2
0.2209559200000000E+00 1  0.1833745811000000E+02
0.2113324700000000E+00 0
       &END POTENTIAL
     &END KIND
     &KIND H
       BASIS_SET DZVP-MOLOPT-SR-GTH-q1
       POTENTIAL GTH-PBE-q1
       &POTENTIAL
1
0.2000000000000000E+00 2 -0.4178900440000000E+01  0.7244633100000000E+00
0
       &END POTENTIAL
     &END KIND
     &KIND N
       BASIS_SET DZVP-MOLOPT-SR-GTH
       POTENTIAL GTH-PBE-q5
       &POTENTIAL
2 3
0.2837905100000000E+00 2 -0.1241522559000000E+02  0.1868095920000000E+01
2
0.2554050000000000E+00 1  0.1363026257000000E+02
0.2454945300000000E+00 0
       &END POTENTIAL
     &END KIND
     &KIND Ga
       BASIS_SET DZVP-MOLOPT-SR-GTH
       POTENTIAL GTH-PBE-q13
       &POTENTIAL
2 1 10
0.4900000000000000E+00 0
3
0.4167772300000000E+00 3  0.1047568975000000E+02 -0.4921768140000000E+01  0.8707055900000000E+00
0.7770178090000000E+01 -0.2248152160000000E+01
0.1784415450000000E+01
0.5696265200000000E+00 2  0.1777985340000000E+01  0.1958597600000000E+00
-0.2317443900000000E+00
0.2381265000000000E+00 1 -0.1624868022000000E+02
       &END POTENTIAL
     &END KIND
     &TOPOLOGY
       NUMBER_OF_ATOMS  206
       MULTIPLE_UNIT_CELL  1 1 1
     &END TOPOLOGY
   &END SUBSYS
 &END FORCE_EVAL
