 # Version information for this restart file 
 # current date 2019-06-24 10:06:51.019
 # current working dir /scratch/rzk/rzk/GaN-carbene/443-adatoms-both-2x2/02-Methanol/01-O-GaTop
 # Program compiled at                              Sun Apr  7 00:48:11 EDT 2019
 # Program compiled on                          beluga2.int.ets1.calculquebec.ca
 # Program compiled for                        Beluga-Linux-x86-64-intel-openmpi
 # Source code revision number                                         svn:18619
 &GLOBAL
   PRINT_LEVEL  MEDIUM
   PROJECT_NAME TEST
   RUN_TYPE  GEO_OPT
 &END GLOBAL
 &MOTION
   &GEO_OPT
     MAX_ITER  500
     STEP_START_VAL  4
   &END GEO_OPT
 &END MOTION
 &FORCE_EVAL
   METHOD  QS
   STRESS_TENSOR  ANALYTICAL
   &DFT
     BASIS_SET_FILE_NAME BASIS_MOLOPT
     POTENTIAL_FILE_NAME GTH_POTENTIALS
     UKS  T
     SURFACE_DIPOLE_CORRECTION  T
     SURF_DIP_DIR  Z
     &SCF
       MAX_SCF  80
       EPS_SCF     5.0000000000000004E-06
       &OT  T
         PRECONDITIONER  FULL_ALL
       &END OT
       &OUTER_SCF  T
         OPTIMIZER  NONE
         EPS_SCF     5.0000000000000004E-06
         MAX_SCF  4
       &END OUTER_SCF
       &PRINT
         &RESTART  OFF
           BACKUP_COPIES  1
           &EACH
             JUST_ENERGY  0
             QS_SCF  0
             MD  20
           &END EACH
         &END RESTART
       &END PRINT
     &END SCF
     &QS
       EPS_DEFAULT     1.0000000000000000E-14
       METHOD  GPW
     &END QS
     &MGRID
       NGRIDS  5
       CUTOFF     1.2000000000000000E+03
     &END MGRID
     &XC
       DENSITY_CUTOFF     1.0000000000000000E-10
       GRADIENT_CUTOFF     1.0000000000000000E-10
       TAU_CUTOFF     1.0000000000000000E-10
       &XC_FUNCTIONAL  NO_SHORTCUT
         &PBE  T
         &END PBE
       &END XC_FUNCTIONAL
       &VDW_POTENTIAL
         POTENTIAL_TYPE  PAIR_POTENTIAL
         &PAIR_POTENTIAL
           R_CUTOFF     1.0000000000000004E+01
           TYPE  DFTD3
           PARAMETER_FILE_NAME dftd3.dat
           REFERENCE_FUNCTIONAL PBE
           EPS_CN     9.9999999999999995E-07
           CALCULATE_C9_TERM  T
           REFERENCE_C9_TERM  T
           LONG_RANGE_CORRECTION  F
           VERBOSE_OUTPUT  F
         &END PAIR_POTENTIAL
       &END VDW_POTENTIAL
     &END XC
   &END DFT
   &SUBSYS
     &CELL
       A     1.2864472766435110E+01    0.0000000000000000E+00    0.0000000000000000E+00
       B    -6.4322363581020028E+00    1.1140960178524473E+01    0.0000000000000000E+00
       C     0.0000000000000000E+00    0.0000000000000000E+00    3.2000000000000000E+01
       MULTIPLE_UNIT_CELL  1 1 1
       &CELL_REF
         A     1.2982353780853531E+01    0.0000000000000000E+00    0.0000000000000000E+00
         B    -6.4911768904267628E+00    1.1243048175136114E+01    0.0000000000000000E+00
         C     0.0000000000000000E+00    0.0000000000000000E+00    3.2000000000000000E+01
         MULTIPLE_UNIT_CELL  1 1 1
       &END CELL_REF
     &END CELL
     &COORD
N    1.5546463071657440E-02    2.0563498065249619E+00    2.4006740235302795E+00
Ga    1.9084593551113208E-02    7.0427486677636181E-02    2.8008608376704713E+00
N    1.9996571647137602E-02    5.6608822854833783E-02    4.9508346881568714E+00
Ga    2.1424666203676251E-02    1.8811507350665382E+00    5.7537539315991717E+00
N    2.0291736108382988E-02    1.8928948901604203E+00    7.7436160590041361E+00
Ga    1.9770507293034624E-02    4.7346448477024204E-02    8.4007966560042799E+00
N    1.9517371446003400E-02    4.6367856664559878E-02    1.0367712429028215E+01
Ga    1.9447324729491792E-02    1.8867730964322429E+00    1.1025889114077605E+01
N    1.9604560772129430E-02    1.8674053400055133E+00    1.3010324818373427E+01
Ga    2.1355817109151645E-02    5.0440838384275689E-02    1.3830884729085598E+01
N    2.1829216064924592E-02    4.8642877595203582E-02    1.6018101781625798E+01
Ga    2.0060596494131031E-02    2.0977232978414402E+00    1.6443750630259576E+01
Ga   -4.7963137394274550E-03    3.8145320802861358E+00    1.4323185468652726E+00
N   -1.4741166261477516E+00    4.6391477852560890E+00    2.4636378545787525E+00
Ga   -1.6747067166012972E+00    2.7842470235135361E+00    3.2297816270599560E+00
N   -1.5875218081012386E+00    2.8313064138220629E+00    5.1924103582007612E+00
Ga   -1.6114770457940855E+00    4.7004395896668623E+00    5.7560565528290990E+00
N   -1.5990806851704089E+00    4.6947144633170694E+00    7.7456446434328008E+00
Ga   -1.5787870265849429E+00    2.8379522594382443E+00    8.3938999757839863E+00
N   -1.5775416336478782E+00    2.8392060949683779E+00    1.0378961863001079E+01
Ga   -1.6038762882823263E+00    4.6988213309819162E+00    1.1026022348890269E+01
N   -1.6211634375052670E+00    4.7089298279363554E+00    1.3010390203560133E+01
Ga   -1.5763347473070488E+00    2.8405955074020168E+00    1.3575595401862968E+01
N   -1.6016361328425757E+00    2.8252890367254144E+00    1.5529401166886618E+01
Ga   -1.4193326664411681E+00    4.5927580689520626E+00    1.6442148662133292E+01
N    2.4304029477244755E-02    3.7589770027447456E+00    1.7592212712755071E+01
N   -3.1959181318981065E+00    7.5994226607331976E+00    2.4736613263499660E+00
Ga   -3.1871046043693529E+00    5.6160058239212081E+00    2.8156937646584987E+00
N   -3.1935455080124631E+00    5.6163237061971794E+00    4.9631671064274849E+00
Ga   -3.1955807705186015E+00    7.4461591668543239E+00    5.7517018211301369E+00
N   -3.1960411496226491E+00    7.4633738210851925E+00    7.7419786690500318E+00
Ga   -3.1969829276424901E+00    5.6182803561182819E+00    8.4006376728878962E+00
N   -3.1971874283805382E+00    5.6184411247401673E+00    1.0367041146549589E+01
Ga   -3.1968584522682431E+00    7.4567812251689229E+00    1.1028997047226756E+01
N   -3.1971475841469874E+00    7.4379391952968748E+00    1.3014833139470523E+01
Ga   -3.1948898896153461E+00    5.6179272732029863E+00    1.3835879437661024E+01
N   -3.1955323601101511E+00    5.6185320842200364E+00    1.6014780867409250E+01
Ga   -3.1960293073323052E+00    7.6707986272189430E+00    1.6437870268865545E+01
Ga   -3.1953164857037972E+00    9.3357551177546014E+00    1.4440718593462758E+00
N   -4.7012066275151776E+00    1.0204911915952879E+01    2.4720147464697555E+00
Ga   -4.9061060612009006E+00    8.3485119600626803E+00    3.2370335037540570E+00
N   -4.8059037575906745E+00    8.4029959521859787E+00    5.1967250354117489E+00
Ga   -4.8294321746023536E+00    1.0276599219311283E+01    5.7482497942174193E+00
N   -4.8152405172557247E+00    1.0266035111764763E+01    7.7396718644790354E+00
Ga   -4.7942199834476540E+00    8.4092575557054037E+00    8.3924724906283590E+00
N   -4.7927803150054764E+00    8.4096054197241621E+00    1.0378114416895725E+01
Ga   -4.8192978538039863E+00    1.0268229096519116E+01    1.1027792305160435E+01
N   -4.8370006874221323E+00    1.0279100749590793E+01    1.3013506527289282E+01
Ga   -4.7955946495382742E+00    8.4096661814038303E+00    1.3576492530784737E+01
N   -4.8281216431801033E+00    8.3936962642640918E+00    1.5528608444057447E+01
Ga   -4.6286171310827893E+00    1.0159397025718446E+01    1.6441211075259844E+01
N   -3.1924255526474599E+00    9.3281004873531490E+00    1.7564048188957099E+01
N    3.2286040275419325E+00    1.9096038157498632E+00    2.5494587556683865E+00
Ga    3.2328043484372908E+00    1.6903838048564693E-01    3.2390707730050710E+00
N    3.2369318730026393E+00    4.9522363749777282E-02    5.1979056176794352E+00
Ga    3.2298943588681319E+00    1.9073570575086145E+00    5.8257803068725629E+00
N    3.2356920913060918E+00    1.9045379829800886E+00    7.7944885427643822E+00
Ga    3.2354644908750840E+00    3.6193235784023940E-02    8.3922144639247982E+00
N    3.2358118987355460E+00    3.3744541709978031E-02    1.0377674789107015E+01
Ga    3.2365057267145092E+00    1.9044483024689050E+00    1.0979673344274524E+01
N    3.2350895365608019E+00    1.9053591435255139E+00    1.2941439088681665E+01
Ga    3.2353482912502387E+00    3.7031160442596890E-02    1.3575501454123447E+01
N    3.2347106003022557E+00    7.2883754823316368E-02    1.5528070737922823E+01
Ga    3.2312800276644316E+00    1.9076408525015167E+00    1.5813959954854267E+01
N    1.5027804359545132E+00    4.6363285509302266E+00    2.4380338609088477E+00
Ga    1.7077967928332856E+00    2.7870235183741974E+00    3.2139766386851334E+00
N    1.6268346811307524E+00    2.8326368373028381E+00    5.1819639495768195E+00
Ga    1.6518497853154390E+00    4.6987333689916388E+00    5.7556716483203090E+00
N    1.6391353162067994E+00    4.6943457086383464E+00    7.7452861950652272E+00
Ga    1.6187096515574013E+00    2.8378075043444042E+00    8.3948211879846646E+00
N    1.6163409422797914E+00    2.8394553975229679E+00    1.0378662720693629E+01
Ga    1.6427751532923776E+00    4.6988449566704960E+00    1.1025654687350276E+01
N    1.6599301273852660E+00    4.7087626201950492E+00    1.3010008657514613E+01
Ga    1.6162598808146345E+00    2.8398745094724061E+00    1.3575054145101946E+01
N    1.6401681948782636E+00    2.8265931417429235E+00    1.5529491854470185E+01
Ga    1.4609129514498393E+00    4.5935637143965744E+00    1.6444100189250317E+01
N    1.9540754224555396E-02    7.4701417032826791E+00    2.5482293435926251E+00
Ga    1.9594785806983799E-02    5.7329293358269497E+00    3.2596310712558059E+00
N    2.1116120296168436E-02    5.6221621008434521E+00    5.2114322505795130E+00
Ga    2.0289775193435413E-02    7.4753787764956572E+00    5.8380358350806150E+00
N    2.0115318774381843E-02    7.4765660093808464E+00    7.8029389455651916E+00
Ga    1.9868608339400878E-02    5.6062529915631654E+00    8.3925750664854473E+00
N    1.9609506274270948E-02    5.6054196572924440E+00    1.0378077173893239E+01
Ga    2.0609205397010905E-02    7.4751596405469263E+00    1.0980792243673793E+01
N    2.1164315611051528E-02    7.4750339744381167E+00    1.2945152400176857E+01
Ga    1.9249270472871498E-02    5.6043475482055900E+00    1.3575620270872664E+01
N    2.0357358760654871E-02    5.6340737173040685E+00    1.5529393443849314E+01
Ga    2.0482332699595061E-02    7.4714862592689473E+00    1.5811360433278765E+01
N   -1.6937372174306102E+00    1.0201721477150024E+01    2.4777553126422802E+00
Ga   -1.4865254205510838E+00    8.3454773106147169E+00    3.2393366403794617E+00
N   -1.5849030528857426E+00    8.4016484338955166E+00    5.1984823937654481E+00
Ga   -1.5644156733669508E+00    1.0273727569691355E+01    5.7546096483953733E+00
N   -1.5784224617236347E+00    1.0265149624360507E+01    7.7447406453161349E+00
Ga   -1.5990748750313468E+00    8.4092796215890893E+00    8.3954807985487268E+00
N   -1.5999754818406571E+00    8.4095887323228293E+00    1.0380861455860854E+01
Ga   -1.5732081738753723E+00    1.0268961706203731E+01    1.1028174252127998E+01
N   -1.5562576521911387E+00    1.0279863097737977E+01    1.3013464444768108E+01
Ga   -1.5991772321748687E+00    8.4104306996094849E+00    1.3575108176479565E+01
N   -1.5645790924999523E+00    8.3926158725502056E+00    1.5528089153913085E+01
Ga   -1.7593182964301197E+00    1.0161924825477943E+01    1.6439587941941806E+01
N    6.4516981098570847E+00    2.0265948040446382E+00    2.4778320651576995E+00
Ga    6.4520339396722584E+00    4.8229692398778147E-02    2.8210160013130201E+00
N    6.4525006855463136E+00    4.7183580812812730E-02    4.9686220620510158E+00
Ga    6.4521080763370593E+00    1.8765511809748820E+00    5.7551220009417543E+00
N    6.4524814917244955E+00    1.8932820039333489E+00    7.7450921095026226E+00
Ga    6.4521561064449928E+00    4.7532723703811432E-02    8.4011316371869675E+00
N    6.4523520576486444E+00    4.7393227948740166E-02    1.0368652729415153E+01
Ga    6.4520904622253230E+00    1.8869025196805957E+00    1.1028340758630099E+01
N    6.4511776147036075E+00    1.8670488099404765E+00    1.3014302938090358E+01
Ga    6.4497804843000912E+00    4.8672414309779671E-02    1.3833449892439873E+01
N    6.4507849156664330E+00    4.8166813991452902E-02    1.6018729816655689E+01
Ga    6.4518913288885731E+00    2.1004424348467388E+00    1.6439432724283673E+01
Ga    6.4525457182183787E+00    3.7605823833017649E+00    1.4492350852101692E+00
N    4.9470978552030997E+00    4.6287581404520548E+00    2.4743174095997906E+00
Ga    4.7384497911575334E+00    2.7745109650399593E+00    3.2397211617654973E+00
N    4.8423499709240563E+00    2.8305963462160091E+00    5.1985368837257191E+00
Ga    4.8182794508183315E+00    4.7026914874229089E+00    5.7501418698719906E+00
N    4.8337322797088609E+00    4.6958133772967798E+00    7.7410606704430132E+00
Ga    4.8536606452766664E+00    2.8387417103598547E+00    8.3925366773515275E+00
N    4.8562703855576954E+00    2.8400849878014971E+00    1.0378023300311170E+01
Ga    4.8295005912052220E+00    4.6986583580439500E+00    1.1028047479402145E+01
N    4.8112670357397720E+00    4.7087801871270702E+00    1.3014237690326153E+01
Ga    4.8531106077825212E+00    2.8389518935757865E+00    1.3575899493968196E+01
N    4.8225907595300681E+00    2.8224516700451976E+00    1.5529603448664023E+01
Ga    5.0179095108014673E+00    4.5890594237947049E+00    1.6441362500423047E+01
N    6.4577048017250753E+00    3.7600567204950961E+00    1.7563581741042121E+01
N    3.2360579473731068E+00    7.5986911602097758E+00    2.4731243046112716E+00
Ga    3.2230978334245948E+00    5.6143792728072492E+00    2.8073587387008785E+00
N    3.2314686901678749E+00    5.6150671969337216E+00    4.9571480159132371E+00
Ga    3.2353758223361115E+00    7.4452063340035473E+00    5.7500819807766792E+00
N    3.2360361373264572E+00    7.4629274867587325E+00    7.7409247353127553E+00
Ga    3.2365520069618099E+00    5.6183459196603218E+00    8.4011124998084377E+00
N    3.2368377803537238E+00    5.6188461290327547E+00    1.0368054886773749E+01
Ga    3.2364832591169899E+00    7.4574315934495106E+00    1.1028701456915277E+01
N    3.2358443406511976E+00    7.4382251687817709E+00    1.3016811616636693E+01
Ga    3.2340264242391421E+00    5.6157143250478345E+00    1.3830692111392317E+01
N    3.2360534800636671E+00    5.6162267987414163E+00    1.6018913631027647E+01
Ga    3.2355914084949422E+00    7.6518081361769790E+00    1.6431762441242260E+01
Ga    3.2357659381186923E+00    9.3354426925777716E+00    1.4474220988891109E+00
N    1.7339130335461728E+00    1.0201216289847110E+01    2.4772901308153989E+00
Ga    1.5261512368339925E+00    8.3443561043206014E+00    3.2390191922357672E+00
N    1.6252399262602495E+00    8.4018641144190855E+00    5.1979441648994325E+00
Ga    1.6045159282536068E+00    1.0273594182490925E+01    5.7547096087956158E+00
N    1.6186149541241226E+00    1.0265344645957594E+01    7.7447301909989292E+00
Ga    1.6392255387910009E+00    8.4093187222444108E+00    8.3948351876320633E+00
N    1.6406681850938192E+00    8.4102980436907604E+00    1.0380549318150115E+01
Ga    1.6127405687328591E+00    1.0269047475238157E+01    1.1028372756682725E+01
N    1.5947274604405020E+00    1.0279336079382848E+01    1.3015900352149345E+01
Ga    1.6381460350434298E+00    8.4105378430149447E+00    1.3575931498714418E+01
N    1.6141989812018507E+00    8.3969677397370468E+00    1.5535765218542391E+01
Ga    1.7851171443224347E+00    1.0169454755778876E+01    1.6431296219633165E+01
N    3.2422418840418672E+00    9.3282451269904900E+00    1.7574952089179032E+01
N    9.6743366949545386E+00    1.9095675472756919E+00    2.5517492561264130E+00
Ga    9.6712752662003023E+00    1.6858296668125156E-01    3.2397770162489201E+00
N    9.6677695220101576E+00    4.9534694094220989E-02    5.1981960718931433E+00
Ga    9.6727045106550982E+00    1.9061051475632780E+00    5.8292084480850734E+00
N    9.6680454474126538E+00    1.9040647170827096E+00    7.7969907971490047E+00
Ga    9.6687970393327998E+00    3.5978182679999346E-02    8.3929769574207285E+00
N    9.6684555877563625E+00    3.3615069605908293E-02    1.0379543020929535E+01
Ga    9.6681391952919160E+00    1.9038482925395959E+00    1.0981576366504969E+01
N    9.6685753178667913E+00    1.9033357841704064E+00    1.2946259651087056E+01
Ga    9.6670314854861790E+00    3.4915509338332214E-02    1.3576318082382263E+01
N    9.6666212177529172E+00    6.3368041171594044E-02    1.5536102464634901E+01
Ga    9.6721571948824128E+00    1.9061999598073758E+00    1.5812062724462647E+01
N    7.9556265724876596E+00    4.6286333038907390E+00    2.4754740864162232E+00
Ga    8.1640163276471789E+00    2.7743218299679109E+00    3.2408580798522406E+00
N    8.0624064254394572E+00    2.8307044024239851E+00    5.1994357569144700E+00
Ga    8.0852244020156760E+00    4.7028097912438431E+00    5.7520530450003662E+00
N    8.0700595367725700E+00    4.6952158103454318E+00    7.7422558707601068E+00
Ga    8.0505272399781056E+00    2.8386290626685842E+00    8.3939923956415718E+00
N    8.0489339147760166E+00    2.8397020843821723E+00    1.0380211586490617E+01
Ga    8.0754122967833748E+00    4.6989657089964680E+00    1.1029176608413259E+01
N    8.0918210698971045E+00    4.7090992165066368E+00    1.3015696162785963E+01
Ga    8.0484807074059876E+00    2.8390688907976140E+00    1.3575955692397406E+01
N    8.0812487870365377E+00    2.8186319420837553E+00    1.5530005598157093E+01
Ga    7.8927072438899657E+00    4.5931216974309672E+00    1.6437691921471316E+01
N    6.4528346633069908E+00    7.4748785113782441E+00    2.5493643111776718E+00
Ga    6.4514509859604745E+00    5.7352292495303505E+00    3.2393381862099950E+00
N    6.4519859039284899E+00    5.6201413164437568E+00    5.1981792066387822E+00
Ga    6.4522968233122349E+00    7.4753483717512568E+00    5.8311059575560265E+00
N    6.4521292055566128E+00    7.4747349015470759E+00    7.7974027895375801E+00
Ga    6.4520140391688168E+00    5.6061625191747995E+00    8.3928468892146650E+00
N    6.4523836005522046E+00    5.6048281993258202E+00    1.0378493047250647E+01
Ga    6.4517611213841564E+00    7.4750504720756572E+00    1.0980397120273459E+01
N    6.4503071236117497E+00    7.4757372234674699E+00    1.2943319305606446E+01
Ga    6.4510065186092076E+00    5.6074306319340419E+00    1.3577123989823722E+01
N    6.4484606457401465E+00    5.6431781598711401E+00    1.5530332801506729E+01
Ga    6.4504649747857172E+00    7.4762167205770886E+00    1.5821290437305052E+01
N    4.7406610987446793E+00    1.0203499645911780E+01    2.4723916501417658E+00
Ga    4.9469905663629854E+00    8.3471493857583994E+00    3.2373730214648124E+00
N    4.8458892350926366E+00    8.4027823217863435E+00    5.1966566380343044E+00
Ga    4.8697370190456883E+00    1.0276464798077452E+01    5.7485254713435472E+00
N    4.8547839520661968E+00    1.0266052779427675E+01    7.7398471497920056E+00
Ga    4.8340139278403447E+00    8.4091654573810217E+00    8.3921507475202599E+00
N    4.8319480738948100E+00    8.4102616281283087E+00    1.0378444167906791E+01
Ga    4.8591009472084075E+00    1.0268467131121771E+01    1.1028596336190867E+01
N    4.8757265976397397E+00    1.0278649116984994E+01    1.3016958020765143E+01
Ga    4.8337486591009062E+00    8.4092065066316035E+00    1.3576971285096432E+01
N    4.8560734534214616E+00    8.3961951954417966E+00    1.5536965297541181E+01
Ga    4.6910008113055515E+00    1.0172404224468531E+01    1.6431375372692919E+01
O   -2.4822673720085231E-01    3.8579102804883676E+00   -6.9349452772825204E-01
H   -2.0088101927949778E-01    4.7116311063124314E+00   -1.1615488073654279E+00
C    1.0238926897304724E-02    2.7139212150794956E+00   -1.5751347049571791E+00
H    8.8733610591025802E-01    2.8970642917762048E+00   -2.2077688024672386E+00
H    2.0358503264207889E-01    1.8712601649843346E+00   -9.0100909932286843E-01
H   -8.7860431271475925E-01    2.5114227693987061E+00   -2.1896707398445918E+00
     &END COORD
     &KIND C
       BASIS_SET DZVP-MOLOPT-SR-GTH-q4
       POTENTIAL GTH-PBE-q4
       &POTENTIAL
 2 2
  0.3384712400000000E+00 2 -0.8803673979999999E+01  0.1339210850000000E+01
 2
  0.3025757500000000E+00 1  0.9622486650000001E+01
  0.2915069400000000E+00 0
         # Potential name:  GTH-PBE-Q4  for symbol:  C
         # Potential read from the potential filename: GTH_POTENTIALS
       &END POTENTIAL
     &END KIND
     &KIND O
       BASIS_SET DZVP-MOLOPT-SR-GTH-q6
       POTENTIAL GTH-PBE-q6
       &POTENTIAL
 2 4
  0.2445543000000000E+00 2 -0.1666721480000000E+02  0.2487311320000000E+01
 2
  0.2209559200000000E+00 1  0.1833745811000000E+02
  0.2113324700000000E+00 0
         # Potential name:  GTH-PBE-Q6  for symbol:  O
         # Potential read from the potential filename: GTH_POTENTIALS
       &END POTENTIAL
     &END KIND
     &KIND H
       BASIS_SET DZVP-MOLOPT-SR-GTH-q1
       POTENTIAL GTH-PBE-q1
       &POTENTIAL
 1
  0.2000000000000000E+00 2 -0.4178900440000000E+01  0.7244633100000000E+00
 0
         # Potential name:  GTH-PBE-Q1  for symbol:  H
         # Potential read from the potential filename: GTH_POTENTIALS
       &END POTENTIAL
     &END KIND
     &KIND N
       BASIS_SET DZVP-MOLOPT-SR-GTH
       POTENTIAL GTH-PBE-q5
       &POTENTIAL
 2 3
  0.2837905100000000E+00 2 -0.1241522559000000E+02  0.1868095920000000E+01
 2
  0.2554050000000000E+00 1  0.1363026257000000E+02
  0.2454945300000000E+00 0
         # Potential name:  GTH-PBE-Q5  for symbol:  N
         # Potential read from the potential filename: GTH_POTENTIALS
       &END POTENTIAL
     &END KIND
     &KIND Ga
       BASIS_SET DZVP-MOLOPT-SR-GTH
       POTENTIAL GTH-PBE-q13
       &POTENTIAL
 2 1 10
  0.4900000000000000E+00 0
 3
  0.4167772300000000E+00 3  0.1047568975000000E+02 -0.4921768140000000E+01  0.8707055900000000E+00
  0.7770178090000000E+01 -0.2248152160000000E+01
  0.1784415450000000E+01
  0.5696265200000000E+00 2  0.1777985340000000E+01  0.1958597600000000E+00
 -0.2317443900000000E+00
  0.2381265000000000E+00 1 -0.1624868022000000E+02
         # Potential name:  GTH-PBE-Q13  for symbol:  GA
         # Potential read from the potential filename: GTH_POTENTIALS
       &END POTENTIAL
     &END KIND
     &TOPOLOGY
       NUMBER_OF_ATOMS  206
       MULTIPLE_UNIT_CELL  1 1 1
     &END TOPOLOGY
   &END SUBSYS
 &END FORCE_EVAL
