 # Version information for this restart file 
 # current date 2019-06-24 14:42:02.146
 # current working dir /scratch/rzk/rzk/GaN-carbene/443-adatoms-both-2x2/02-Methanol/01-O-GaTop
 # Program compiled at                              Sun Apr  7 00:48:11 EDT 2019
 # Program compiled on                          beluga2.int.ets1.calculquebec.ca
 # Program compiled for                        Beluga-Linux-x86-64-intel-openmpi
 # Source code revision number                                         svn:18619
 &GLOBAL
   PRINT_LEVEL  MEDIUM
   PROJECT_NAME TEST
   RUN_TYPE  GEO_OPT
 &END GLOBAL
 &MOTION
   &GEO_OPT
     MAX_ITER  500
     STEP_START_VAL  48
   &END GEO_OPT
 &END MOTION
 &FORCE_EVAL
   METHOD  QS
   STRESS_TENSOR  ANALYTICAL
   &DFT
     BASIS_SET_FILE_NAME BASIS_MOLOPT
     POTENTIAL_FILE_NAME GTH_POTENTIALS
     UKS  T
     SURFACE_DIPOLE_CORRECTION  T
     SURF_DIP_DIR  Z
     &SCF
       MAX_SCF  80
       EPS_SCF     5.0000000000000004E-06
       &OT  T
         PRECONDITIONER  FULL_ALL
       &END OT
       &OUTER_SCF  T
         OPTIMIZER  NONE
         EPS_SCF     5.0000000000000004E-06
         MAX_SCF  4
       &END OUTER_SCF
       &PRINT
         &RESTART  OFF
           BACKUP_COPIES  1
           &EACH
             JUST_ENERGY  0
             QS_SCF  0
             MD  20
           &END EACH
         &END RESTART
       &END PRINT
     &END SCF
     &QS
       EPS_DEFAULT     1.0000000000000000E-14
       METHOD  GPW
     &END QS
     &MGRID
       NGRIDS  5
       CUTOFF     1.2000000000000000E+03
     &END MGRID
     &XC
       DENSITY_CUTOFF     1.0000000000000000E-10
       GRADIENT_CUTOFF     1.0000000000000000E-10
       TAU_CUTOFF     1.0000000000000000E-10
       &XC_FUNCTIONAL  NO_SHORTCUT
         &PBE  T
         &END PBE
       &END XC_FUNCTIONAL
       &VDW_POTENTIAL
         POTENTIAL_TYPE  PAIR_POTENTIAL
         &PAIR_POTENTIAL
           R_CUTOFF     1.0000000000000005E+01
           TYPE  DFTD3
           PARAMETER_FILE_NAME dftd3.dat
           REFERENCE_FUNCTIONAL PBE
           EPS_CN     9.9999999999999995E-07
           CALCULATE_C9_TERM  T
           REFERENCE_C9_TERM  T
           LONG_RANGE_CORRECTION  F
           VERBOSE_OUTPUT  F
         &END PAIR_POTENTIAL
       &END VDW_POTENTIAL
     &END XC
   &END DFT
   &SUBSYS
     &CELL
       A     1.2864472766435110E+01    0.0000000000000000E+00    0.0000000000000000E+00
       B    -6.4322363581020028E+00    1.1140960178524475E+01    0.0000000000000000E+00
       C     0.0000000000000000E+00    0.0000000000000000E+00    3.2000000000000000E+01
       MULTIPLE_UNIT_CELL  1 1 1
       &CELL_REF
         A     1.2982353780853531E+01    0.0000000000000000E+00    0.0000000000000000E+00
         B    -6.4911768904267628E+00    1.1243048175136114E+01    0.0000000000000000E+00
         C     0.0000000000000000E+00    0.0000000000000000E+00    3.2000000000000000E+01
         MULTIPLE_UNIT_CELL  1 1 1
       &END CELL_REF
     &END CELL
     &COORD
N   -2.2619240905798813E-02    2.0462294412749991E+00    2.5090546765634061E+00
Ga   -2.0694796570797567E-02    7.3659736322045657E-02    2.8710469186162526E+00
N   -1.6876373702041762E-02    6.1301354284304367E-02    5.0067658849233538E+00
Ga   -1.5618019990503464E-02    1.8900248527253489E+00    5.8005580977454834E+00
N   -1.3269720479559237E-02    1.9029470828022153E+00    7.7901585149074100E+00
Ga   -1.2774381247588356E-02    5.7426008171235131E-02    8.4415855726354234E+00
N   -1.1040089815510657E-02    5.6203418744445600E-02    1.0409655811953550E+01
Ga   -1.0872924938053126E-02    1.8951506558264002E+00    1.1070295860337477E+01
N   -9.9291963825003764E-03    1.8745049781489649E+00    1.3057547503856233E+01
Ga   -9.2914199258406320E-03    5.3989417300775069E-02    1.3872063661683168E+01
N   -1.0240612499189297E-02    5.5731192890864048E-02    1.6060723846721405E+01
Ga   -8.5951133479995855E-03    2.1064298459702853E+00    1.6479355276038728E+01
Ga   -3.4609980958732460E-02    3.7710714338204117E+00    1.5134231605045847E+00
N   -1.5116239713161497E+00    4.6343931267706795E+00    2.5110598404362841E+00
Ga   -1.7227911293276537E+00    2.7857393863455826E+00    3.2978414126210214E+00
N   -1.6284148290794651E+00    2.8418885150161413E+00    5.2536522809262829E+00
Ga   -1.6471710183335497E+00    4.7146619353961459E+00    5.7998977531921980E+00
N   -1.6315895304866015E+00    4.7058606965000278E+00    7.7901356051505486E+00
Ga   -1.6114087683606431E+00    2.8488183713648967E+00    8.4376324580571129E+00
N   -1.6074143125417018E+00    2.8486519011837124E+00    1.0424088042073747E+01
Ga   -1.6348804850979319E+00    4.7075919012887857E+00    1.1070648057873134E+01
N   -1.6503275311386010E+00    4.7155224469632646E+00    1.3058664130308120E+01
Ga   -1.6084120561279762E+00    2.8450328222151335E+00    1.3619151171069200E+01
N   -1.6347923728244720E+00    2.8264710961320767E+00    1.5575202975194077E+01
Ga   -1.4545078635933653E+00    4.6035284566211887E+00    1.6477194061319601E+01
N   -8.9794821923032848E-03    3.7748326978262887E+00    1.7604663175383880E+01
N   -3.2338043358157078E+00    7.6098166005385561E+00    2.5127955372045845E+00
Ga   -3.2248636569026048E+00    5.6249124811220108E+00    2.8509220952794334E+00
N   -3.2295444055564739E+00    5.6279527751759746E+00    5.0012706344083835E+00
Ga   -3.2316500324312036E+00    7.4575151323124276E+00    5.7891214525549115E+00
N   -3.2296200094362786E+00    7.4732373850750946E+00    7.7807738206486636E+00
Ga   -3.2297099443743322E+00    5.6283308953787552E+00    8.4411133556463191E+00
N   -3.2276231372705566E+00    5.6270294698042180E+00    1.0409414596033203E+01
Ga   -3.2272135226615384E+00    7.4665353785239814E+00    1.1066721857564753E+01
N   -3.2261445339050430E+00    7.4457266119160419E+00    1.3054125811684795E+01
Ga   -3.2269871935997876E+00    5.6264850855348554E+00    1.3875279895792650E+01
N   -3.2271687840857313E+00    5.6245743535132791E+00    1.6058344021456879E+01
Ga   -3.2260112228925264E+00    7.6754582981296595E+00    1.6480634142822762E+01
Ga   -3.2325714800447960E+00    9.3426268191238506E+00    1.4851183030578388E+00
N   -4.7384179292481745E+00    1.0215482073759834E+01    2.5081949220904241E+00
Ga   -4.9437768162653333E+00    8.3591610147448847E+00    3.2749609855803294E+00
N   -4.8421271368144998E+00    8.4145651735880236E+00    5.2348041017297380E+00
Ga   -4.8633851403406165E+00    1.0286165873538607E+01    5.7913129231004428E+00
N   -4.8472458205286051E+00    1.0276568344054271E+01    7.7818214206660494E+00
Ga   -4.8270436102266423E+00    8.4190992424477891E+00    8.4297472970189595E+00
N   -4.8235901723475667E+00    8.4189136900112853E+00    1.0416738769924327E+01
Ga   -4.8500252937141912E+00    1.0277128660140727E+01    1.1067077910678726E+01
N   -4.8659395769502023E+00    1.0286057517717870E+01    1.3054160601751908E+01
Ga   -4.8224642556164383E+00    8.4173590113469068E+00    1.3617712968867364E+01
N   -4.8479871467358553E+00    8.4033488312560589E+00    1.5575246622063574E+01
Ga   -4.6701527564890055E+00    1.0174403931306626E+01    1.6481597252477542E+01
N   -3.2254136022800157E+00    9.3461269044778224E+00    1.7625154858961096E+01
N    3.1878801131138887E+00    1.9218388011777534E+00    2.5768674134623510E+00
Ga    3.1954805152466448E+00    1.8041667725176364E-01    3.2746397372690144E+00
N    3.1994936657385473E+00    6.4156822306247127E-02    5.2341946709314984E+00
Ga    3.1988172335417997E+00    1.9166435843735434E+00    5.8765392710043516E+00
N    3.2030632757392223E+00    1.9148382767292813E+00    7.8422364217290612E+00
Ga    3.2033522524011637E+00    4.6141342355484428E-02    8.4329354269479424E+00
N    3.2049314893955736E+00    4.2997579541396186E-02    1.0419262723723721E+01
Ga    3.2053168344577041E+00    1.9132117134478461E+00    1.1021688011186558E+01
N    3.2055275153922200E+00    1.9110314171264362E+00    1.2985386030562497E+01
Ga    3.2062688619012372E+00    4.2323118770068335E-02    1.3617230346710036E+01
N    3.2049456473526132E+00    7.0962524930284571E-02    1.5573912017411216E+01
Ga    3.2064819091331018E+00    1.9084973306408179E+00    1.5858228121304977E+01
N    1.4710651379735795E+00    4.6359627064847988E+00    2.4992257588510505E+00
Ga    1.6810786691052375E+00    2.7904680974805141E+00    3.2888401584065186E+00
N    1.5954458995631229E+00    2.8422023933064131E+00    5.2466138371365805E+00
Ga    1.6149293247205565E+00    4.7138659434988641E+00    5.7989662686432926E+00
N    1.6047287164538691E+00    4.7055929202936753E+00    7.7891319296624637E+00
Ga    1.5848631813934941E+00    2.8488463301672979E+00    8.4371880447358301E+00
N    1.5852819910982443E+00    2.8485597355200780E+00    1.0423716387172204E+01
Ga    1.6128701538059109E+00    4.7074928395794142E+00    1.1070056273069406E+01
N    1.6305991014073857E+00    4.7156107928172988E+00    1.3057707212163717E+01
Ga    1.5883564787076838E+00    2.8455332306026713E+00    1.3617961643076768E+01
N    1.6160423601362306E+00    2.8265180217327837E+00    1.5573410999927699E+01
Ga    1.4361942224304007E+00    4.6028880047997376E+00    1.6477892306411473E+01
N   -1.8557235301960049E-02    7.4808815764023739E+00    2.5918967589851767E+00
Ga   -1.6431452138630082E-02    5.7407741843995908E+00    3.2925689407945011E+00
N   -1.5976362597837405E-02    5.6333344214360261E+00    5.2495050213914611E+00
Ga   -1.6652162421979685E-02    7.4859723756138230E+00    5.8754856678794498E+00
N   -1.3670104438889375E-02    7.4858643004076075E+00    7.8416243973294844E+00
Ga   -1.3208370457265311E-02    5.6172169076500742E+00    8.4364657403083978E+00
N   -1.1182630302336962E-02    5.6143767712809884E+00    1.0424277081866665E+01
Ga   -1.1225539769561027E-02    7.4848174979711555E+00    1.1022350533617043E+01
N   -1.0037066594402677E-02    7.4837901919741432E+00    1.2988552443045657E+01
Ga   -9.5944841134117335E-03    5.6132380546146257E+00    1.3617577050786277E+01
N   -9.3379229798937636E-03    5.6488935036374857E+00    1.5574392712897026E+01
Ga   -1.0252942684594125E-02    7.4849973676450769E+00    1.5855186753698769E+01
N   -1.7332873820326415E+00    1.0212803927280421E+01    2.5133464033624922E+00
Ga   -1.5245806023498361E+00    8.3562503339595278E+00    3.2786778224173485E+00
N   -1.6218971945689955E+00    8.4144347305649312E+00    5.2378511905938057E+00
Ga   -1.6009253494090854E+00    1.0286528925206250E+01    5.7903552881699429E+00
N   -1.6122609427969790E+00    1.0276586753524217E+01    7.7814982025429957E+00
Ga   -1.6318020684657002E+00    8.4198865430023613E+00    8.4313270141662109E+00
N   -1.6308994472794942E+00    8.4190591911717547E+00    1.0418605937087582E+01
Ga   -1.6036791404980193E+00    1.0277769317307246E+01    1.1067124864523009E+01
N   -1.5861193000339457E+00    1.0286404246752616E+01    1.3054533267372458E+01
Ga   -1.6300751150589534E+00    8.4179266390096998E+00    1.3618099462606242E+01
N   -1.6040067940636371E+00    8.4020759760541797E+00    1.5575405980061113E+01
Ga   -1.7811981471978222E+00    1.0174958467340680E+01    1.6481764024853639E+01
N    6.4123503394814820E+00    2.0409972351161207E+00    2.5162594943095438E+00
Ga    6.4133940345888316E+00    6.1329811890485961E-02    2.8584737982174264E+00
N    6.4159390029168311E+00    6.0177352377402432E-02    5.0054396158829819E+00
Ga    6.4146589943244141E+00    1.8890466095652283E+00    5.7927482039338898E+00
N    6.4179188155247298E+00    1.9042916428292525E+00    7.7839119821559182E+00
Ga    6.4183378447729043E+00    5.8371686766192032E-02    8.4386018842280777E+00
N    6.4208736180329522E+00    5.6920378798604482E-02    1.0407199336749001E+01
Ga    6.4209772868365764E+00    1.8954692940591369E+00    1.1068737145570745E+01
N    6.4220940625295411E+00    1.8747239151721229E+00    1.3055203351724783E+01
Ga    6.4215549416208235E+00    5.5253354370234049E-02    1.3874216456174793E+01
N    6.4220788078660442E+00    5.7109237785343651E-02    1.6059548726777145E+01
Ga    6.4231970434970158E+00    2.1142337643563711E+00    1.6480102892562837E+01
Ga    6.4169380195179730E+00    3.7742549446772715E+00    1.4940451135804012E+00
N    4.9093849690249254E+00    4.6410245620419364E+00    2.5122278038960166E+00
Ga    4.6982721549087882E+00    2.7867247430947666E+00    3.2770249905326994E+00
N    4.8033234100889857E+00    2.8425830531861860E+00    5.2357908447440362E+00
Ga    4.7827888767613373E+00    4.7149060199164046E+00    5.7909556435121923E+00
N    4.8008053997603426E+00    4.7055319415365631E+00    7.7824369171116476E+00
Ga    4.8212397112991976E+00    2.8491604758218045E+00    8.4344837253147009E+00
N    4.8246783954495474E+00    2.8489935345379687E+00    1.0421014513545412E+01
Ga    4.7980758538975357E+00    4.7075317967821473E+00    1.1068521242109831E+01
N    4.7817771017996797E+00    4.7157654764695334E+00    1.3055053907445185E+01
Ga    4.8235897501614602E+00    2.8454047338354216E+00    1.3617082991036334E+01
N    4.7942942901025978E+00    2.8263627786665793E+00    1.5569593589508951E+01
Ga    4.9849489613454185E+00    4.5995312806376356E+00    1.6478953355502068E+01
N    6.4228977464000394E+00    3.7746666723216564E+00    1.7608122375109836E+01
N    3.1955436265145831E+00    7.6102524423788331E+00    2.5142834622515169E+00
Ga    3.1839220323063717E+00    5.6243574845280850E+00    2.8570213679291823E+00
N    3.1967949896937351E+00    5.6284035055916215E+00    5.0024859268712687E+00
Ga    3.1993175883285083E+00    7.4575501526155996E+00    5.7920614752701214E+00
N    3.2023496903337518E+00    7.4732379008432135E+00    7.7829151081448895E+00
Ga    3.2033386596833298E+00    5.6278354753188831E+00    8.4408773503932881E+00
N    3.2052465232029963E+00    5.6269650669895075E+00    1.0409124771426203E+01
Ga    3.2053963438955093E+00    7.4661705476758087E+00    1.1066629327272206E+01
N    3.2061612114592979E+00    7.4453854450629366E+00    1.3053999187958738E+01
Ga    3.2069955805562831E+00    5.6257462257894177E+00    1.3873229820845053E+01
N    3.2072169293591499E+00    5.6246693529774126E+00    1.6058561952514275E+01
Ga    3.2075115183938707E+00    7.6726208532396143E+00    1.6477363248397236E+01
Ga    3.1952957635308841E+00    9.3480047283897090E+00    1.4959285881991535E+00
N    1.6949276872281958E+00    1.0212152891119519E+01    2.5183879067407386E+00
Ga    1.4858889212622859E+00    8.3557791696965822E+00    3.2820619768717836E+00
N    1.5890466524770355E+00    8.4139662756250857E+00    5.2403175069537715E+00
Ga    1.5672345077919554E+00    1.0285601553696155E+01    5.7946245246036954E+00
N    1.5845128577008047E+00    1.0276011816660223E+01    7.7849320638601158E+00
Ga    1.6045623038760297E+00    8.4193226045114056E+00    8.4330395407646197E+00
N    1.6085929234796310E+00    8.4189664989247444E+00    1.0419944465297018E+01
Ga    1.5810357797937258E+00    1.0277873611521484E+01    1.1067507668796731E+01
N    1.5658482531938818E+00    1.0286460273947307E+01    1.3055176266452216E+01
Ga    1.6099062046040638E+00    8.4174482848424095E+00    1.3617452819048001E+01
N    1.5848576279620215E+00    8.4023168974058908E+00    1.5575855879853188E+01
Ga    1.7591392126020891E+00    1.0177057046266475E+01    1.6477547960051751E+01
N    3.2063198224677198E+00    9.3463734898657638E+00    1.7620226728217439E+01
N    9.6340972891546972E+00    1.9193588047849770E+00    2.5957584546329393E+00
Ga    9.6293289747938662E+00    1.7946497508443007E-01    3.2856225075327572E+00
N    9.6315731906661384E+00    6.2174995593324567E-02    5.2433542737213035E+00
Ga    9.6315384069423366E+00    1.9165705106223487E+00    5.8806005176885421E+00
N    9.6335791217957158E+00    1.9146544114882671E+00    7.8458550971910164E+00
Ga    9.6346018417952468E+00    4.5740541819936829E-02    8.4350619640389297E+00
N    9.6371004105132041E+00    4.2622266927302137E-02    1.0421218485048255E+01
Ga    9.6371627879024562E+00    1.9134768322605935E+00    1.1021859262198600E+01
N    9.6389170983495145E+00    1.9111101281278473E+00    1.2985475814158987E+01
Ga    9.6386308949450878E+00    4.2693320656976334E-02    1.3616202261328096E+01
N    9.6396347523302648E+00    7.1115152773501292E-02    1.5573448472622813E+01
Ga    9.6387627417992796E+00    1.9090140308121681E+00    1.5859273900689466E+01
N    7.9160116302283612E+00    4.6407679917261486E+00    2.5164574368427441E+00
Ga    8.1252551342857640E+00    2.7869315839128252E+00    3.2838659254736844E+00
N    8.0256011347815477E+00    2.8432819017913760E+00    5.2420882171007257E+00
Ga    8.0496672207260023E+00    4.7160345070412202E+00    5.7916288667831335E+00
N    8.0367928723333364E+00    4.7061845161797136E+00    7.7830891973968654E+00
Ga    8.0155146519912357E+00    2.8497206689004009E+00    8.4350444978283612E+00
N    8.0169524955824230E+00    2.8489780083990550E+00    1.0421693941507119E+01
Ga    8.0443114050640663E+00    4.7076128553886827E+00    1.1069048131526152E+01
N    8.0625861887791572E+00    4.7157482573033915E+00    1.3055740537070495E+01
Ga    8.0207545733600760E+00    2.8454793166623213E+00    1.3616811761921497E+01
N    8.0513336651191025E+00    2.8258139207609170E+00    1.5568852395002340E+01
Ga    7.8609100005260064E+00    4.5994395351237438E+00    1.6478928965326773E+01
N    6.4131277469333980E+00    7.4885655858717834E+00    2.5860971061436895E+00
Ga    6.4130190885813088E+00    5.7496001125069700E+00    3.2791393587221660E+00
N    6.4156151414624798E+00    5.6321802484258221E+00    5.2374282812678814E+00
Ga    6.4164613387825771E+00    7.4870354125513261E+00    5.8694129364488399E+00
N    6.4187687005754563E+00    7.4854177674175473E+00    7.8361523638791555E+00
Ga    6.4191835610939192E+00    5.6168740470229528E+00    8.4315210266823435E+00
N    6.4209748717435797E+00    5.6142411025070817E+00    1.0419571659934917E+01
Ga    6.4216645325256092E+00    7.4845366959630146E+00    1.1020388239369636E+01
N    6.4222979356199819E+00    7.4843398430355217E+00    1.2985543851702218E+01
Ga    6.4223309195358418E+00    5.6136530579568156E+00    1.3614972387762972E+01
N    6.4221353545911937E+00    5.6512892334019034E+00    1.5568129102206633E+01
Ga    6.4226121423882336E+00    7.4850448496945132E+00    1.5853009754017052E+01
N    4.6986980549084141E+00    1.0214027847041477E+01    2.5166051795678470E+00
Ga    4.9068501132451035E+00    8.3574874106981856E+00    3.2789780223264122E+00
N    4.8092178982865175E+00    8.4140678175089274E+00    5.2380469129143306E+00
Ga    4.8319679102073030E+00    1.0285639231527744E+01    5.7947027930796633E+00
N    4.8207370854623317E+00    1.0276483078544270E+01    7.7845194317196142E+00
Ga    4.8009334557330234E+00    8.4190599521474372E+00    8.4311611531464017E+00
N    4.8015108388220042E+00    8.4186846763494927E+00    1.0418140972120661E+01
Ga    4.8285888745528815E+00    1.0277103311939596E+01    1.1067422563086961E+01
N    4.8463161399979038E+00    1.0286213729890877E+01    1.3054611021696164E+01
Ga    4.8025681089841568E+00    8.4174936898657169E+00    1.3615678465600659E+01
N    4.8281681401709822E+00    8.4031619994366000E+00    1.5573348934086345E+01
Ga    4.6536230019863911E+00    1.0175693895095250E+01    1.6478402185318501E+01
O    1.9531907744499682E-01    3.4495502323613825E+00   -5.5158578607551467E-01
H    7.6620309600716374E-01    4.1493957396121806E+00   -9.2086657233829683E-01
C    7.7824168394709758E-01    2.1315552225158325E+00   -8.8241643999217068E-01
H    1.8408515483987102E+00    2.1037412110287197E+00   -6.0942265519755889E-01
H    2.3052347295456388E-01    1.4042983162827745E+00   -2.7350610985850282E-01
H    6.1769662801364189E-01    1.9480382472943514E+00   -1.9503973606456502E+00
     &END COORD
     &KIND C
       BASIS_SET DZVP-MOLOPT-SR-GTH-q4
       POTENTIAL GTH-PBE-q4
       &POTENTIAL
2 2
0.3384712400000000E+00 2 -0.8803673979999999E+01  0.1339210850000000E+01
2
0.3025757500000000E+00 1  0.9622486650000001E+01
0.2915069400000000E+00 0
       &END POTENTIAL
     &END KIND
     &KIND O
       BASIS_SET DZVP-MOLOPT-SR-GTH-q6
       POTENTIAL GTH-PBE-q6
       &POTENTIAL
2 4
0.2445543000000000E+00 2 -0.1666721480000000E+02  0.2487311320000000E+01
2
0.2209559200000000E+00 1  0.1833745811000000E+02
0.2113324700000000E+00 0
       &END POTENTIAL
     &END KIND
     &KIND H
       BASIS_SET DZVP-MOLOPT-SR-GTH-q1
       POTENTIAL GTH-PBE-q1
       &POTENTIAL
1
0.2000000000000000E+00 2 -0.4178900440000000E+01  0.7244633100000000E+00
0
       &END POTENTIAL
     &END KIND
     &KIND N
       BASIS_SET DZVP-MOLOPT-SR-GTH
       POTENTIAL GTH-PBE-q5
       &POTENTIAL
2 3
0.2837905100000000E+00 2 -0.1241522559000000E+02  0.1868095920000000E+01
2
0.2554050000000000E+00 1  0.1363026257000000E+02
0.2454945300000000E+00 0
       &END POTENTIAL
     &END KIND
     &KIND Ga
       BASIS_SET DZVP-MOLOPT-SR-GTH
       POTENTIAL GTH-PBE-q13
       &POTENTIAL
2 1 10
0.4900000000000000E+00 0
3
0.4167772300000000E+00 3  0.1047568975000000E+02 -0.4921768140000000E+01  0.8707055900000000E+00
0.7770178090000000E+01 -0.2248152160000000E+01
0.1784415450000000E+01
0.5696265200000000E+00 2  0.1777985340000000E+01  0.1958597600000000E+00
-0.2317443900000000E+00
0.2381265000000000E+00 1 -0.1624868022000000E+02
       &END POTENTIAL
     &END KIND
     &TOPOLOGY
       NUMBER_OF_ATOMS  206
       MULTIPLE_UNIT_CELL  1 1 1
     &END TOPOLOGY
   &END SUBSYS
 &END FORCE_EVAL
