 # Version information for this restart file 
 # current date 2019-06-24 21:27:02.479
 # current working dir /scratch/rzk/rzk/GaN-carbene/443-adatoms-both-2x2/02-Methanol/01-O-GaTop
 # Program compiled at                              Sun Apr  7 00:48:11 EDT 2019
 # Program compiled on                          beluga2.int.ets1.calculquebec.ca
 # Program compiled for                        Beluga-Linux-x86-64-intel-openmpi
 # Source code revision number                                         svn:18619
 &GLOBAL
   PRINT_LEVEL  MEDIUM
   PROJECT_NAME TEST
   RUN_TYPE  GEO_OPT
 &END GLOBAL
 &MOTION
   &GEO_OPT
     MAX_ITER  500
     STEP_START_VAL  148
   &END GEO_OPT
 &END MOTION
 &FORCE_EVAL
   METHOD  QS
   STRESS_TENSOR  ANALYTICAL
   &DFT
     BASIS_SET_FILE_NAME BASIS_MOLOPT
     POTENTIAL_FILE_NAME GTH_POTENTIALS
     UKS  T
     SURFACE_DIPOLE_CORRECTION  T
     SURF_DIP_DIR  Z
     &SCF
       MAX_SCF  80
       EPS_SCF     5.0000000000000004E-06
       &OT  T
         PRECONDITIONER  FULL_ALL
       &END OT
       &OUTER_SCF  T
         OPTIMIZER  NONE
         EPS_SCF     5.0000000000000004E-06
         MAX_SCF  4
       &END OUTER_SCF
       &PRINT
         &RESTART  OFF
           BACKUP_COPIES  1
           &EACH
             JUST_ENERGY  0
             QS_SCF  0
             MD  20
           &END EACH
         &END RESTART
       &END PRINT
     &END SCF
     &QS
       EPS_DEFAULT     1.0000000000000000E-14
       METHOD  GPW
     &END QS
     &MGRID
       NGRIDS  5
       CUTOFF     1.2000000000000000E+03
     &END MGRID
     &XC
       DENSITY_CUTOFF     1.0000000000000000E-10
       GRADIENT_CUTOFF     1.0000000000000000E-10
       TAU_CUTOFF     1.0000000000000000E-10
       &XC_FUNCTIONAL  NO_SHORTCUT
         &PBE  T
         &END PBE
       &END XC_FUNCTIONAL
       &VDW_POTENTIAL
         POTENTIAL_TYPE  PAIR_POTENTIAL
         &PAIR_POTENTIAL
           R_CUTOFF     1.0000000000000005E+01
           TYPE  DFTD3
           PARAMETER_FILE_NAME dftd3.dat
           REFERENCE_FUNCTIONAL PBE
           EPS_CN     9.9999999999999995E-07
           CALCULATE_C9_TERM  T
           REFERENCE_C9_TERM  T
           LONG_RANGE_CORRECTION  F
           VERBOSE_OUTPUT  F
         &END PAIR_POTENTIAL
       &END VDW_POTENTIAL
     &END XC
   &END DFT
   &SUBSYS
     &CELL
       A     1.2864472766435110E+01    0.0000000000000000E+00    0.0000000000000000E+00
       B    -6.4322363581020028E+00    1.1140960178524475E+01    0.0000000000000000E+00
       C     0.0000000000000000E+00    0.0000000000000000E+00    3.2000000000000000E+01
       MULTIPLE_UNIT_CELL  1 1 1
       &CELL_REF
         A     1.2982353780853531E+01    0.0000000000000000E+00    0.0000000000000000E+00
         B    -6.4911768904267628E+00    1.1243048175136114E+01    0.0000000000000000E+00
         C     0.0000000000000000E+00    0.0000000000000000E+00    3.2000000000000000E+01
         MULTIPLE_UNIT_CELL  1 1 1
       &END CELL_REF
     &END CELL
     &COORD
N   -3.2967475007377539E-02    2.0308602554137858E+00    2.5508412491454595E+00
Ga   -2.7323775720956265E-02    5.4982794345847526E-02    2.8808820976525027E+00
N   -3.1109440386576623E-02    4.9465251008721144E-02    5.0333309987795367E+00
Ga   -3.2209156951442636E-02    1.8765585191067771E+00    5.8179047662433350E+00
N   -3.0444851815950053E-02    1.8941945773947424E+00    7.8126652439212902E+00
Ga   -3.0163201881210883E-02    4.8168569531176625E-02    8.4561037873997869E+00
N   -3.0172048814644008E-02    4.8580600783734905E-02    1.0429611704620520E+01
Ga   -3.1137649164582122E-02    1.8902286976380105E+00    1.1077137418865174E+01
N   -3.1548932608532886E-02    1.8714405404630650E+00    1.3068775494534037E+01
Ga   -4.0447457796639448E-02    5.6049339915488820E-02    1.3868755375399850E+01
N   -4.2757551964412825E-02    5.6838024660247594E-02    1.6077009882855123E+01
Ga   -3.3395529346340970E-02    2.1156229894152205E+00    1.6509859589929750E+01
Ga   -2.7224629079081238E-02    3.7339758717578753E+00    1.5252923893154196E+00
N   -1.5139340898969154E+00    4.6151880353603962E+00    2.5157500214456485E+00
Ga   -1.7339274279210299E+00    2.7732022829115341E+00    3.3163960048951235E+00
N   -1.6424727955644696E+00    2.8327987865436781E+00    5.2755900141310939E+00
Ga   -1.6613564771890585E+00    4.7060556757423067E+00    5.8142774819898051E+00
N   -1.6480403239951460E+00    4.6978023725673319E+00    7.8105537050325848E+00
Ga   -1.6296961167624631E+00    2.8405451063084701E+00    8.4487036863354952E+00
N   -1.6281182036236295E+00    2.8410437025869228E+00    1.0439860096877235E+01
Ga   -1.6527320181498875E+00    4.6994920193670531E+00    1.1077012899171907E+01
N   -1.6696540619318458E+00    4.7086755373477871E+00    1.3068921302452418E+01
Ga   -1.6288556067910289E+00    2.8406444981262844E+00    1.3630976885113768E+01
N   -1.6559225004215568E+00    2.8249213391762971E+00    1.5588081739208773E+01
Ga   -1.4595905797504494E+00    4.5854098676972548E+00    1.6510072609256532E+01
N   -2.5269877744753075E-02    3.7668448148840539E+00    1.7658576477351204E+01
N   -3.2445120910309866E+00    7.5956126257655905E+00    2.5293381118847984E+00
Ga   -3.2367826362273471E+00    5.6181191782337692E+00    2.8525462840099105E+00
N   -3.2413188921814338E+00    5.6153379419766818E+00    5.0219204886990498E+00
Ga   -3.2450127707957854E+00    7.4463072974574001E+00    5.8026231548313314E+00
N   -3.2465353658960163E+00    7.4647437512739145E+00    7.8029037814625868E+00
Ga   -3.2470344873648735E+00    5.6202510802341372E+00    8.4542787027873612E+00
N   -3.2471822825896290E+00    5.6201957970626006E+00    1.0428309453604065E+01
Ga   -3.2470495098910286E+00    7.4586461580017325E+00    1.1076935322974235E+01
N   -3.2470311782661074E+00    7.4386580161006588E+00    1.3076521173424627E+01
Ga   -3.2465952153998767E+00    5.6086277627612233E+00    1.3869434894325330E+01
N   -3.2471527952729331E+00    5.6058165364837880E+00    1.6076876852963970E+01
Ga   -3.2466877112371364E+00    7.6052209003605080E+00    1.6441461602947378E+01
Ga   -3.2427795737539524E+00    9.3258000004726789E+00    1.4488425502710860E+00
N   -4.7500260235067175E+00    1.0204215748938051E+01    2.5249969432020873E+00
Ga   -4.9448148717866323E+00    8.3520333913202620E+00    3.2855305216838486E+00
N   -4.8544043217040800E+00    8.4039619164863559E+00    5.2553166145759329E+00
Ga   -4.8771770878629814E+00    1.0275006331369644E+01    5.8066745034550600E+00
N   -4.8636652636400663E+00    1.0267257974862932E+01    7.8052749569978879E+00
Ga   -4.8439710397113291E+00    8.4100763373705174E+00    8.4449498969901260E+00
N   -4.8432958096594243E+00    8.4115804372482383E+00    1.0440577790351456E+01
Ga   -4.8703560697028534E+00    1.0270191466826994E+01    1.1077861699467753E+01
N   -4.8881840025772201E+00    1.0281109175612059E+01    1.3077031559091123E+01
Ga   -4.8438666538044837E+00    8.4117226946404422E+00    1.3623155433955397E+01
N   -4.8604275326652404E+00    8.4025811174854130E+00    1.5601310839630147E+01
Ga   -4.7428717716465627E+00    1.0198001669928610E+01    1.6441166611763546E+01
N   -3.2495849922892064E+00    9.3315525595956572E+00    1.7565768125440474E+01
N    3.1707921623904878E+00    1.9108638357849168E+00    2.6067925916273307E+00
Ga    3.1837888321240553E+00    1.5532378157178706E-01    3.2861608279939336E+00
N    3.1858204473718859E+00    5.4023234285019713E-02    5.2543897945553075E+00
Ga    3.1881561589188512E+00    1.9029510553639026E+00    5.8960351068725521E+00
N    3.1872731600526931E+00    1.9050215966777251E+00    7.8664603803003565E+00
Ga    3.1857433152568992E+00    3.6293569423598300E-02    8.4496613169017643E+00
N    3.1852946744949309E+00    3.5970469972424451E-02    1.0443507447376417E+01
Ga    3.1854405739707334E+00    1.9068335684949478E+00    1.1035986349699083E+01
N    3.1855365748278701E+00    1.9034934454210890E+00    1.3008888763288612E+01
Ga    3.1852307441572525E+00    3.6978658498868090E-02    1.3622721418809151E+01
N    3.1856960818019524E+00    5.6281912602244126E-02    1.5600239273745922E+01
Ga    3.1841970736275780E+00    1.9089448905922937E+00    1.5870150885420138E+01
N    1.4731487773781695E+00    4.6265478363734696E+00    2.5350579236600144E+00
Ga    1.6699277409220812E+00    2.7841555930426907E+00    3.3307180382163382E+00
N    1.5825211777170365E+00    2.8321162425587896E+00    5.2824494497970313E+00
Ga    1.6001118941733832E+00    4.7076506504476576E+00    5.8176163526101092E+00
N    1.5878820589065981E+00    4.6981126228468320E+00    7.8120930737033527E+00
Ga    1.5681520877675277E+00    2.8405828862215294E+00    8.4506732702882523E+00
N    1.5671905857200028E+00    2.8417721146781192E+00    1.0442816109062310E+01
Ga    1.5931393869192125E+00    4.7009816871267445E+00    1.1082360345027386E+01
N    1.6092877342543410E+00    4.7103620214136068E+00    1.3074903039292145E+01
Ga    1.5647493946331372E+00    2.8413603269865946E+00    1.3632345469047095E+01
N    1.5929499978590282E+00    2.8184020342554463E+00    1.5590199588988712E+01
Ga    1.4073392900882262E+00    4.5935180723462983E+00    1.6509563719788868E+01
N   -3.1382921126707729E-02    7.4734699704306289E+00    2.6228168512932317E+00
Ga   -2.1622606878137669E-02    5.7281863895736347E+00    3.3006605174494692E+00
N   -3.0204852730358073E-02    5.6222503939733377E+00    5.2660998562009329E+00
Ga   -3.2593716305531498E-02    7.4761263708204400E+00    5.8879545528866055E+00
N   -3.0647336178145943E-02    7.4772838449486683E+00    7.8618199474274721E+00
Ga   -3.0643999450450238E-02    5.6096687395769447E+00    8.4505721255558157E+00
N   -2.9788744739133861E-02    5.6080014092106172E+00    1.0442645789369877E+01
Ga   -3.0712411668556303E-02    7.4771215718090582E+00    1.1035362424181603E+01
N   -3.3400137403323163E-02    7.4790221316605647E+00    1.3008641572723594E+01
Ga   -3.1509540969354502E-02    5.6063581315175179E+00    1.3632377723773214E+01
N   -3.7045524540799492E-02    5.6425086343316604E+00    1.5590468072930086E+01
Ga   -2.9655250507670993E-02    7.4754017487604658E+00    1.5870602984013788E+01
N   -1.7452241324266402E+00    1.0202797497210629E+01    2.5298731302641677E+00
Ga   -1.5459765372634555E+00    8.3506775163011842E+00    3.2893704419188876E+00
N   -1.6364869934243738E+00    8.4046241185628539E+00    5.2580311854535511E+00
Ga   -1.6148002638293475E+00    1.0275766678586814E+01    5.8061003355770096E+00
N   -1.6302033657348038E+00    1.0267192559970418E+01    7.8055032965845861E+00
Ga   -1.6490592720664996E+00    8.4104707822954161E+00    8.4458912810018756E+00
N   -1.6506376916322882E+00    8.4118452096602372E+00    1.0441357785542074E+01
Ga   -1.6229757046302677E+00    1.0270850567956725E+01    1.1076969974601639E+01
N   -1.6059647138998800E+00    1.0281230671280467E+01    1.3076174964136406E+01
Ga   -1.6500406461215869E+00    8.4118019423849386E+00    1.3622576976754033E+01
N   -1.6332219246392989E+00    8.4030173716726839E+00    1.5600267839032824E+01
Ga   -1.7533569973216916E+00    1.0196476385848460E+01    1.6441210062434624E+01
N    6.3984994261890709E+00    2.0270463161852694E+00    2.5330942176963647E+00
Ga    6.3964431873077814E+00    4.6262624082724940E-02    2.8664562095282236E+00
N    6.4027114416312330E+00    4.8911827349754883E-02    5.0312027421937859E+00
Ga    6.4000758729546963E+00    1.8764691028435279E+00    5.8084945233286192E+00
N    6.4004800071472658E+00    1.8958450191582534E+00    7.8060157052010366E+00
Ga    6.4005930728675819E+00    4.9497210161743369E-02    8.4534188152447811E+00
N    6.4013775823503289E+00    4.9565753479012049E-02    1.0427926058551250E+01
Ga    6.4018464950330571E+00    1.8902435557583139E+00    1.1076980729712629E+01
N    6.4019584179868980E+00    1.8714491327719780E+00    1.3068982975494404E+01
Ga    6.4102290146247922E+00    5.5160154523176685E-02    1.3868196888826404E+01
N    6.4121039346325857E+00    5.6511004948487986E-02    1.6077169292713556E+01
Ga    6.4033617188758329E+00    2.1128462551418381E+00    1.6504571121205124E+01
Ga    6.4067157011639875E+00    3.7634543188376308E+00    1.4894990763291591E+00
N    4.8957103245711444E+00    4.6289569250607334E+00    2.5323529445018713E+00
Ga    4.6920501640534109E+00    2.7756211384489631E+00    3.2912297661278975E+00
N    4.7889611286667995E+00    2.8314122690034260E+00    5.2558117233210480E+00
Ga    4.7714495686340728E+00    4.7033315101804600E+00    5.8096815232790444E+00
N    4.7842361304808607E+00    4.6963523976018688E+00    7.8057405299528657E+00
Ga    4.8044451256019398E+00    2.8409424278102646E+00    8.4509926678088156E+00
N    4.8042792393984461E+00    2.8421956586649082E+00    1.0442703021006087E+01
Ga    4.7787321137161918E+00    4.7010785879451893E+00    1.1082713589678566E+01
N    4.7611877237731610E+00    4.7105782461211305E+00    1.3075774027309897E+01
Ga    4.8055396366405114E+00    2.8414047050200328E+00    1.3631927152800056E+01
N    4.7767314697001613E+00    2.8174686647537333E+00    1.5591112299510279E+01
Ga    4.9585398079556331E+00    4.5962390178300252E+00    1.6504156559428438E+01
N    6.3925751277243226E+00    3.7679024557251592E+00    1.7644626966252957E+01
N    3.1851380529720239E+00    7.5983028530224743E+00    2.5432080799119574E+00
Ga    3.1768577237324052E+00    5.6165342381621457E+00    2.8946822839704560E+00
N    3.1865500111116454E+00    5.6199353634183469E+00    5.0353946146298263E+00
Ga    3.1864907252473311E+00    7.4498470146711862E+00    5.8131363427104050E+00
N    3.1860802418911156E+00    7.4654273020364217E+00    7.8083314933709600E+00
Ga    3.1866791033508783E+00    5.6201208952289603E+00    8.4576504856626222E+00
N    3.1865116316863817E+00    5.6200132674790897E+00    1.0430285091216696E+01
Ga    3.1856577158537771E+00    7.4588006209901137E+00    1.1082101778724036E+01
N    3.1852690586118455E+00    7.4396975448883271E+00    1.3075644060568640E+01
Ga    3.1839673324388515E+00    5.6194355613823728E+00    1.3890894973085333E+01
N    3.1846723962745198E+00    5.6191557088149242E+00    1.6079670920760293E+01
Ga    3.1853620095454174E+00    7.6643438086489502E+00    1.6500025218040399E+01
Ga    3.1844892042609740E+00    9.3323236181491005E+00    1.5100157487154517E+00
N    1.6833044361220737E+00    1.0200478547595351E+01    2.5383268069789815E+00
Ga    1.4748985906015455E+00    8.3476832029078576E+00    3.3025471406841271E+00
N    1.5762838562355326E+00    8.4038608913623811E+00    5.2651609978517495E+00
Ga    1.5515275260726893E+00    1.0275947344178576E+01    5.8124576563432768E+00
N    1.5676038313769343E+00    1.0266984887441250E+01    7.8088203700817864E+00
Ga    1.5871862906763494E+00    8.4104767225835246E+00    8.4491080536540437E+00
N    1.5888539965111543E+00    8.4106250594592424E+00    1.0441736543753398E+01
Ga    1.5635994458947842E+00    1.0270112586052781E+01    1.1076368612854644E+01
N    1.5469712819412020E+00    1.0280359542885959E+01    1.3069031158886757E+01
Ga    1.5888218844681106E+00    8.4129073331811330E+00    1.3631151902783824E+01
N    1.5539613920618618E+00    8.4001437322258106E+00    1.5591105005058690E+01
Ga    1.7541091062001308E+00    1.0162620135257677E+01    1.6500559965609806E+01
N    3.1846996770303053E+00    9.3234397156359563E+00    1.7639515834277226E+01
N    9.6204129936628373E+00    1.9073550056996325E+00    2.6251917363418760E+00
Ga    9.6166975924235363E+00    1.6416838844267131E-01    3.3030970622900337E+00
N    9.6175502709988816E+00    5.0171381053242189E-02    5.2657807653734885E+00
Ga    9.6157636760033469E+00    1.9058873015990860E+00    5.8925312018154541E+00
N    9.6164487708783231E+00    1.9054304169321739E+00    7.8634644728391585E+00
Ga    9.6172093432690762E+00    3.7345635633375396E-02    8.4486349875983322E+00
N    9.6178643917590989E+00    3.6528691759018926E-02    1.0439647345249046E+01
Ga    9.6170898898965245E+00    1.9066547918557093E+00    1.1033340016795975E+01
N    9.6170810783466010E+00    1.9063244953911109E+00    1.3002723012687111E+01
Ga    9.6173596600065583E+00    3.8380533404373307E-02    1.3629457038263491E+01
N    9.6171268744319676E+00    6.9707970586027679E-02    1.5587684460036973E+01
Ga    9.6181390031762550E+00    1.9073366722376990E+00    1.5866884547373122E+01
N    7.9065049571229640E+00    4.6287711137972565E+00    2.5334451986595368E+00
Ga    8.1065764682752768E+00    2.7767728325213401E+00    3.2978761768914904E+00
N    8.0097435255836587E+00    2.8323293173737194E+00    5.2619097080720492E+00
Ga    8.0373700871248186E+00    4.7051027403949242E+00    5.8056745665643090E+00
N    8.0199123098180376E+00    4.6972432451801556E+00    7.8038661736123496E+00
Ga    7.9989364750304564E+00    2.8407050842963559E+00    8.4465806026002248E+00
N    7.9979228391724426E+00    2.8416955071260208E+00    1.0438290148057055E+01
Ga    8.0233753582038876E+00    4.6998315314472228E+00    1.1076604116359833E+01
N    8.0398359870150955E+00    4.7086938433707690E+00    1.3068985494793136E+01
Ga    7.9994874884064444E+00    2.8405670374516245E+00    1.3630110901766033E+01
N    8.0263447443819000E+00    2.8246672048898112E+00    1.5587805874016951E+01
Ga    7.8321227361461734E+00    4.5865147640446668E+00    1.6504997886780856E+01
N    6.4038128732307831E+00    7.4769719959509731E+00    2.6187220543090826E+00
Ga    6.4038483297892412E+00    5.7330383680641779E+00    3.2939270938095202E+00
N    6.4028310182665678E+00    5.6201080165656103E+00    5.2589170764902997E+00
Ga    6.4051013859644623E+00    7.4765673438355549E+00    5.8838672243260026E+00
N    6.4023758017688026E+00    7.4764197791391931E+00    7.8582564889665809E+00
Ga    6.4022067236252873E+00    5.6084503023536909E+00    8.4460960075246803E+00
N    6.4009868498283859E+00    5.6076311548078621E+00    1.0439525917601012E+01
Ga    6.4016613364979387E+00    7.4765644531944417E+00    1.1034459155512442E+01
N    6.4040704439293350E+00    7.4785281913931181E+00    1.3008101699474787E+01
Ga    6.4019657189558785E+00    5.6067446416451201E+00    1.3632060834312943E+01
N    6.4081944881427955E+00    5.6435070067157636E+00    1.5591016872404746E+01
Ga    6.4003050140070057E+00    7.4766535410487140E+00    1.5872490174374727E+01
N    4.6874344433219211E+00    1.0201430266366843E+01    2.5393600272657153E+00
Ga    4.8962640675531475E+00    8.3474693993356048E+00    3.3001486267247242E+00
N    4.7962378528714824E+00    8.4037135619009149E+00    5.2632250569467258E+00
Ga    4.8184046362020734E+00    1.0275219461893931E+01    5.8124678475511393E+00
N    4.8033020962699178E+00    1.0266762137842248E+01    7.8083672345105866E+00
Ga    4.7846592702661468E+00    8.4098284057261985E+00    8.4483195909145081E+00
N    4.7826833933653701E+00    8.4105738723330354E+00    1.0441156449045382E+01
Ga    4.8073298814277079E+00    1.0269985979525163E+01    1.1077079933620464E+01
N    4.8232478164836978E+00    1.0280163530571937E+01    1.3069465644236635E+01
Ga    4.7819544726494634E+00    8.4125918741620822E+00    1.3631011115889834E+01
N    4.8165786346863131E+00    8.4002396264030761E+00    1.5590533439943542E+01
Ga    4.6157007418091860E+00    1.0162768502526292E+01    1.6500542967902128E+01
O    1.0586434861470053E+00    3.4542730909584853E+00   -2.6016711610636867E-01
H    1.8237608423635099E+00    3.9940923221997378E+00    3.6853088980151383E-02
C    1.5504507551695961E+00    2.0667308772742174E+00   -4.4641079461360283E-01
H    2.2190114631237519E+00    1.7962150038415268E+00    3.8825242563053597E-01
H    6.6439927372134477E-01    1.4245607879044717E+00   -4.4840709620543473E-01
H    2.0587516819271188E+00    2.0242267713954925E+00   -1.4163969558602845E+00
     &END COORD
     &KIND C
       BASIS_SET DZVP-MOLOPT-SR-GTH-q4
       POTENTIAL GTH-PBE-q4
       &POTENTIAL
2 2
0.3384712400000000E+00 2 -0.8803673979999999E+01  0.1339210850000000E+01
2
0.3025757500000000E+00 1  0.9622486650000001E+01
0.2915069400000000E+00 0
       &END POTENTIAL
     &END KIND
     &KIND O
       BASIS_SET DZVP-MOLOPT-SR-GTH-q6
       POTENTIAL GTH-PBE-q6
       &POTENTIAL
2 4
0.2445543000000000E+00 2 -0.1666721480000000E+02  0.2487311320000000E+01
2
0.2209559200000000E+00 1  0.1833745811000000E+02
0.2113324700000000E+00 0
       &END POTENTIAL
     &END KIND
     &KIND H
       BASIS_SET DZVP-MOLOPT-SR-GTH-q1
       POTENTIAL GTH-PBE-q1
       &POTENTIAL
1
0.2000000000000000E+00 2 -0.4178900440000000E+01  0.7244633100000000E+00
0
       &END POTENTIAL
     &END KIND
     &KIND N
       BASIS_SET DZVP-MOLOPT-SR-GTH
       POTENTIAL GTH-PBE-q5
       &POTENTIAL
2 3
0.2837905100000000E+00 2 -0.1241522559000000E+02  0.1868095920000000E+01
2
0.2554050000000000E+00 1  0.1363026257000000E+02
0.2454945300000000E+00 0
       &END POTENTIAL
     &END KIND
     &KIND Ga
       BASIS_SET DZVP-MOLOPT-SR-GTH
       POTENTIAL GTH-PBE-q13
       &POTENTIAL
2 1 10
0.4900000000000000E+00 0
3
0.4167772300000000E+00 3  0.1047568975000000E+02 -0.4921768140000000E+01  0.8707055900000000E+00
0.7770178090000000E+01 -0.2248152160000000E+01
0.1784415450000000E+01
0.5696265200000000E+00 2  0.1777985340000000E+01  0.1958597600000000E+00
-0.2317443900000000E+00
0.2381265000000000E+00 1 -0.1624868022000000E+02
       &END POTENTIAL
     &END KIND
     &TOPOLOGY
       NUMBER_OF_ATOMS  206
       MULTIPLE_UNIT_CELL  1 1 1
     &END TOPOLOGY
   &END SUBSYS
 &END FORCE_EVAL
