 # Version information for this restart file 
 # current date 2019-06-24 13:00:56.605
 # current working dir /scratch/rzk/rzk/GaN-carbene/443-adatoms-both-2x2/02-Methanol/01-O-GaTop
 # Program compiled at                              Sun Apr  7 00:48:11 EDT 2019
 # Program compiled on                          beluga2.int.ets1.calculquebec.ca
 # Program compiled for                        Beluga-Linux-x86-64-intel-openmpi
 # Source code revision number                                         svn:18619
 &GLOBAL
   PRINT_LEVEL  MEDIUM
   PROJECT_NAME TEST
   RUN_TYPE  GEO_OPT
 &END GLOBAL
 &MOTION
   &GEO_OPT
     MAX_ITER  500
     STEP_START_VAL  40
   &END GEO_OPT
 &END MOTION
 &FORCE_EVAL
   METHOD  QS
   STRESS_TENSOR  ANALYTICAL
   &DFT
     BASIS_SET_FILE_NAME BASIS_MOLOPT
     POTENTIAL_FILE_NAME GTH_POTENTIALS
     UKS  T
     SURFACE_DIPOLE_CORRECTION  T
     SURF_DIP_DIR  Z
     &SCF
       MAX_SCF  80
       EPS_SCF     5.0000000000000004E-06
       &OT  T
         PRECONDITIONER  FULL_ALL
       &END OT
       &OUTER_SCF  T
         OPTIMIZER  NONE
         EPS_SCF     5.0000000000000004E-06
         MAX_SCF  4
       &END OUTER_SCF
       &PRINT
         &RESTART  OFF
           BACKUP_COPIES  1
           &EACH
             JUST_ENERGY  0
             QS_SCF  0
             MD  20
           &END EACH
         &END RESTART
       &END PRINT
     &END SCF
     &QS
       EPS_DEFAULT     1.0000000000000000E-14
       METHOD  GPW
     &END QS
     &MGRID
       NGRIDS  5
       CUTOFF     1.2000000000000000E+03
     &END MGRID
     &XC
       DENSITY_CUTOFF     1.0000000000000000E-10
       GRADIENT_CUTOFF     1.0000000000000000E-10
       TAU_CUTOFF     1.0000000000000000E-10
       &XC_FUNCTIONAL  NO_SHORTCUT
         &PBE  T
         &END PBE
       &END XC_FUNCTIONAL
       &VDW_POTENTIAL
         POTENTIAL_TYPE  PAIR_POTENTIAL
         &PAIR_POTENTIAL
           R_CUTOFF     1.0000000000000004E+01
           TYPE  DFTD3
           PARAMETER_FILE_NAME dftd3.dat
           REFERENCE_FUNCTIONAL PBE
           EPS_CN     9.9999999999999995E-07
           CALCULATE_C9_TERM  T
           REFERENCE_C9_TERM  T
           LONG_RANGE_CORRECTION  F
           VERBOSE_OUTPUT  F
         &END PAIR_POTENTIAL
       &END VDW_POTENTIAL
     &END XC
   &END DFT
   &SUBSYS
     &CELL
       A     1.2864472766435110E+01    0.0000000000000000E+00    0.0000000000000000E+00
       B    -6.4322363581020028E+00    1.1140960178524473E+01    0.0000000000000000E+00
       C     0.0000000000000000E+00    0.0000000000000000E+00    3.2000000000000000E+01
       MULTIPLE_UNIT_CELL  1 1 1
       &CELL_REF
         A     1.2982353780853531E+01    0.0000000000000000E+00    0.0000000000000000E+00
         B    -6.4911768904267628E+00    1.1243048175136114E+01    0.0000000000000000E+00
         C     0.0000000000000000E+00    0.0000000000000000E+00    3.2000000000000000E+01
         MULTIPLE_UNIT_CELL  1 1 1
       &END CELL_REF
     &END CELL
     &COORD
N   -1.4192066089633824E-02    2.0471017069583457E+00    2.4925986400371309E+00
Ga   -9.5868644947779361E-03    6.7101176251110048E-02    2.8483029242804103E+00
N   -5.9665632953706570E-03    5.7211669362268784E-02    4.9995798104557627E+00
Ga   -4.4033745605108095E-03    1.8831095355073850E+00    5.7888213813147447E+00
N   -2.1149965345363783E-03    1.8959508351445598E+00    7.7842481102504832E+00
Ga   -1.5653148567337028E-03    4.8978603401114498E-02    8.4254925930037956E+00
N   -4.2395452841664051E-04    4.9591609946328365E-02    1.0402062205262119E+01
Ga   -7.3553292624834983E-04    1.8910015649112644E+00    1.1050304888702335E+01
N    8.7363285220420732E-04    1.8751164892453100E+00    1.3046726487284968E+01
Ga   -2.6565330668813772E-03    5.6520640999245648E-02    1.3841930892740477E+01
N   -1.7633323540645926E-03    5.9861739422617036E-02    1.6057362480272346E+01
Ga    1.0690204897382874E-03    2.1072768630955188E+00    1.6473640996612726E+01
Ga   -3.2816270929922800E-02    3.7820460178742787E+00    1.5133131579435011E+00
N   -1.5063561670580952E+00    4.6372891677250383E+00    2.5162679443812763E+00
Ga   -1.7155978480192480E+00    2.7829747855167697E+00    3.2903634007511116E+00
N   -1.6178067252125654E+00    2.8366380324452871E+00    5.2486238802913432E+00
Ga   -1.6393127122376538E+00    4.7109968443353472E+00    5.7890507771084092E+00
N   -1.6214738765096990E+00    4.6999103646499929E+00    7.7853331672719497E+00
Ga   -1.6023738706730679E+00    2.8413806588319592E+00    8.4199530040499813E+00
N   -1.5990380902224492E+00    2.8423067854958255E+00    1.0415712572223423E+01
Ga   -1.6234346006354849E+00    4.7023152958754224E+00    1.1051870600774915E+01
N   -1.6375104325119416E+00    4.7133679056677336E+00    1.3048824270466158E+01
Ga   -1.5954241422471895E+00    2.8454259759602061E+00    1.3605490102150677E+01
N   -1.6215506472031749E+00    2.8336839941555936E+00    1.5568746023309975E+01
Ga   -1.4434858499136913E+00    4.6057605674298028E+00    1.6473515226913044E+01
N    2.8456163154972030E-03    3.7761682989092500E+00    1.7615695606188954E+01
N   -3.2241928427711057E+00    7.6056936720353301E+00    2.5019681143231463E+00
Ga   -3.2188068015211631E+00    5.6261260777520858E+00    2.8374572526673636E+00
N   -3.2212720942720834E+00    5.6242965567502106E+00    5.0013979439370422E+00
Ga   -3.2218513418371879E+00    7.4534943034484629E+00    5.7787215778745100E+00
N   -3.2193329213510289E+00    7.4684272348174741E+00    7.7782193666705854E+00
Ga   -3.2203106613200454E+00    5.6232339520982686E+00    8.4273556260311118E+00
N   -3.2179659898170914E+00    5.6229723708575676E+00    1.0403482869259546E+01
Ga   -3.2173251074286724E+00    7.4617354746963063E+00    1.1054970924391297E+01
N   -3.2155755026428419E+00    7.4444525718348524E+00    1.3054391115660648E+01
Ga   -3.2157714678670697E+00    5.6195957827462042E+00    1.3847954111639456E+01
N   -3.2146760827329861E+00    5.6243806382861292E+00    1.6058040967464937E+01
Ga   -3.2137630844839324E+00    7.6493556512926340E+00    1.6448907485926249E+01
Ga   -3.2230650478234231E+00    9.3377106947086634E+00    1.4373772256376669E+00
N   -4.7298449746178610E+00    1.0212835182498420E+01    2.4955156598512236E+00
Ga   -4.9291921740105984E+00    8.3596495889463043E+00    3.2581054802272882E+00
N   -4.8312690361934569E+00    8.4098245413811910E+00    5.2263005965210825E+00
Ga   -4.8529488656041107E+00    1.0280570976012694E+01    5.7771674728407163E+00
N   -4.8355522235746626E+00    1.0268894173105599E+01    7.7766576579418141E+00
Ga   -4.8172996113166189E+00    8.4124703519839539E+00    8.4178453501235975E+00
N   -4.8142454704193032E+00    8.4131752812100640E+00    1.0415631670003160E+01
Ga   -4.8396894289451060E+00    1.0272073284013596E+01    1.1053310816425885E+01
N   -4.8550161813473673E+00    1.0284493763364948E+01    1.3052212186795332E+01
Ga   -4.8136683425737248E+00    8.4153883883579059E+00    1.3604264165419297E+01
N   -4.8376191107025237E+00    8.4037862429332328E+00    1.5573548041424830E+01
Ga   -4.6817871676521632E+00    1.0189828556173730E+01    1.6448788051222685E+01
N   -3.2185316073734604E+00    9.3432142661130104E+00    1.7570495669391732E+01
N    3.1989680677177610E+00    1.9174226780885451E+00    2.5778790590205340E+00
Ga    3.2068679641057924E+00    1.6888664247192106E-01    3.2565330711481795E+00
N    3.2106064748114687E+00    5.6974705384702486E-02    5.2249450585584629E+00
Ga    3.2108208513021848E+00    1.9095401890749661E+00    5.8572659011820676E+00
N    3.2145017131584916E+00    1.9071296707580534E+00    7.8320638242736242E+00
Ga    3.2138075038256044E+00    3.9891131529722464E-02    8.4197399480461286E+00
N    3.2154241731559350E+00    3.8556537733878606E-02    1.0417203764813728E+01
Ga    3.2160402699002293E+00    1.9086246543876746E+00    1.1012117516331875E+01
N    3.2173436256785113E+00    1.9103111378364459E+00    1.2986970585374939E+01
Ga    3.2169503496389553E+00    4.2018606446657759E-02    1.3603685043908932E+01
N    3.2187466741853026E+00    7.4583311567680707E-02    1.5571922924159686E+01
Ga    3.2173350490032702E+00    1.9163836623539021E+00    1.5849164666692323E+01
N    1.4787237766115071E+00    4.6367327692257758E+00    2.4937189815041605E+00
Ga    1.6907567920535649E+00    2.7874846908268833E+00    3.2757124243310032E+00
N    1.6055482966445935E+00    2.8375097212999627E+00    5.2382858866419308E+00
Ga    1.6279026618678694E+00    4.7092590360195778E+00    5.7875338014718354E+00
N    1.6163425222674916E+00    4.6992674434467494E+00    7.7838160645119130E+00
Ga    1.5978332944101148E+00    2.8414949806867593E+00    8.4210084607376299E+00
N    1.5974367821604107E+00    2.8428000675538461E+00    1.0416268981152674E+01
Ga    1.6231949367655416E+00    4.7029605394647174E+00    1.1053162348505390E+01
N    1.6398830509731637E+00    4.7136260557627363E+00    1.3049420961794048E+01
Ga    1.5971662617849307E+00    2.8455734476599002E+00    1.3606021936091009E+01
N    1.6241601821062406E+00    2.8320853984366403E+00    1.5568884780655022E+01
Ga    1.4485597476588283E+00    4.6072308194175502E+00    1.6473668168937735E+01
N   -9.4661228965135583E-03    7.4806292926174480E+00    2.5891967226846737E+00
Ga   -8.0118241325572177E-03    5.7437081890935975E+00    3.2919734469354887E+00
N   -5.1423652658074970E-03    5.6305080776791749E+00    5.2496659337600020E+00
Ga   -6.0892213138326974E-03    7.4855488966335759E+00    5.8637577627850126E+00
N   -3.2097467287872032E-03    7.4816502098228739E+00    7.8371251277013965E+00
Ga   -2.0738004645901053E-03    5.6121189002681211E+00    8.4209071061776459E+00
N   -3.2065078969222493E-04    5.6102528356164791E+00    1.0416775787208984E+01
Ga   -1.1719499295639132E-04    7.4794528269233931E+00    1.1012162329629906E+01
N    1.2704690324356438E-03    7.4822947886020437E+00    1.2987135130263738E+01
Ga    1.1074918742737269E-03    5.6119358402291724E+00    1.3606855923178344E+01
N    2.6148642525572290E-04    5.6464018669970093E+00    1.5569289969156646E+01
Ga    2.7673187665705362E-03    7.4828805046324023E+00    1.5851507235043858E+01
N   -1.7220823512775609E+00    1.0210008558842226E+01    2.4984386205139022E+00
Ga   -1.5207359953576884E+00    8.3590236023309412E+00    3.2634320326005541E+00
N   -1.6122599483514957E+00    8.4104268402371218E+00    5.2308209114017785E+00
Ga   -1.5895155767705098E+00    1.0281931065879915E+01    5.7793255966586434E+00
N   -1.6024171408565582E+00    1.0269412516303644E+01    7.7791506856324917E+00
Ga   -1.6218058324979816E+00    8.4138069109956692E+00    8.4213106700667932E+00
N   -1.6205415184680010E+00    8.4137167544084779E+00    1.0418356735856563E+01
Ga   -1.5930163835715963E+00    1.0273010492476624E+01    1.1054269076939873E+01
N   -1.5757502311719993E+00    1.0284758537415636E+01    1.3053018153190500E+01
Ga   -1.6170641905762297E+00    8.4156126680614847E+00    1.3604666284606921E+01
N   -1.5911861982542308E+00    8.4049150875435057E+00    1.5572783459707493E+01
Ga   -1.7495829249186712E+00    1.0187733811385399E+01    1.6449475765311597E+01
N    6.4222857178429340E+00    2.0360078993108099E+00    2.4985940483012286E+00
Ga    6.4224349848506499E+00    5.5928475551905915E-02    2.8347455025931736E+00
N    6.4265238376581957E+00    5.4199271198683133E-02    5.0029501500630777E+00
Ga    6.4250911524028291E+00    1.8811717543904534E+00    5.7797525092346103E+00
N    6.4286971593253508E+00    1.8974779210520234E+00    7.7786196860202663E+00
Ga    6.4291983121603504E+00    5.1006617613380087E-02    8.4250576168392826E+00
N    6.4316596900412542E+00    5.0799706011308517E-02    1.0402242651341851E+01
Ga    6.4314961838337341E+00    1.8909371486169266E+00    1.1052564092883101E+01
N    6.4327326219068466E+00    1.8750286412805279E+00    1.3048692101860912E+01
Ga    6.4359763252607349E+00    5.6612916127818984E-02    1.3845940544996955E+01
N    6.4358676610446119E+00    5.9042309531043717E-02    1.6057844587099993E+01
Ga    6.4341116253632764E+00    2.1069736278328430E+00    1.6475444772790365E+01
Ga    6.4270154629120952E+00    3.7722368162384177E+00    1.4517623719347641E+00
N    4.9174327105340421E+00    4.6385712533165071E+00    2.4962119170236612E+00
Ga    4.7147221166202193E+00    2.7852116830542508E+00    3.2586860822719732E+00
N    4.8157066544989444E+00    2.8372797872901692E+00    5.2255278761948221E+00
Ga    4.7932127873398027E+00    4.7093877790817817E+00    5.7763634979776546E+00
N    4.8119825185538341E+00    4.6986622521001902E+00    7.7757280651376943E+00
Ga    4.8311869196649093E+00    2.8420904749640732E+00    8.4193619756085596E+00
N    4.8343846534712585E+00    2.8432129391383705E+00    1.0415305121275230E+01
Ga    4.8089683870849775E+00    4.7022844635595540E+00    1.1054471331215810E+01
N    4.7941673250909416E+00    4.7134813789873187E+00    1.3050540501311811E+01
Ga    4.8372405215190541E+00    2.8457891734246270E+00    1.3608146756376209E+01
N    4.8116521117227080E+00    2.8308769180106652E+00    1.5571930676350993E+01
Ga    4.9842611312424356E+00    4.6078352351880962E+00    1.6475083898416557E+01
N    6.4246910086107727E+00    3.7755625657488014E+00    1.7618511221829070E+01
N    3.2050960741361867E+00    7.6051799141157312E+00    2.4981284660346406E+00
Ga    3.1961494124242442E+00    5.6237563110124844E+00    2.8344540860035363E+00
N    3.2074885658110937E+00    5.6231041366880454E+00    4.9963047574111563E+00
Ga    3.2101297537989257E+00    7.4522652808081196E+00    5.7776160735273425E+00
N    3.2135514993794310E+00    7.4675129320825908E+00    7.7768444025563195E+00
Ga    3.2155357281729140E+00    5.6222452901360276E+00    8.4268889944841057E+00
N    3.2167724587560693E+00    5.6228007348485534E+00    1.0402860991750071E+01
Ga    3.2162086666205343E+00    7.4616302129988634E+00    1.1054284413947990E+01
N    3.2173056606167041E+00    7.4453139029401507E+00    1.3051317871284642E+01
Ga    3.2168867873488720E+00    5.6233926824190501E+00    1.3850841703767312E+01
N    3.2166952633142483E+00    5.6276761599935554E+00    1.6058881323458774E+01
Ga    3.2169894920376474E+00    7.6673918522187066E+00    1.6470388259801769E+01
Ga    3.2049491645298898E+00    9.3426494484241669E+00    1.4446298195328768E+00
N    1.7032176544695317E+00    1.0209554763453042E+01    2.4999649204281305E+00
Ga    1.5012152371140086E+00    8.3579071089190560E+00    3.2637486547984733E+00
N    1.6002700187408039E+00    8.4097130890392648E+00    5.2302932971449883E+00
Ga    1.5773233982849761E+00    1.0280749243424578E+01    5.7817534019209411E+00
N    1.5964702603462726E+00    1.0268797607836632E+01    7.7804250244261093E+00
Ga    1.6163075867373298E+00    8.4125609764171045E+00    8.4209214792653722E+00
N    1.6193374606159996E+00    8.4132442573766131E+00    1.0416915681312997E+01
Ga    1.5928758379557666E+00    1.0272367542590509E+01    1.1052543589363113E+01
N    1.5787494867060781E+00    1.0283846262443534E+01    1.3049535392088304E+01
Ga    1.6207133008781842E+00    8.4163750123277925E+00    1.3607031241841980E+01
N    1.5928725270464117E+00    8.4056970296260438E+00    1.5572582857945827E+01
Ga    1.7700462272434390E+00    1.0179229229454483E+01    1.6469890881771434E+01
N    3.2137558616881927E+00    9.3383525450555034E+00    1.7614628151186256E+01
N    9.6427954613892091E+00    1.9156955074087274E+00    2.5917899690366974E+00
Ga    9.6379670147716805E+00    1.6796926916903232E-01    3.2639407945196615E+00
N    9.6419542291700218E+00    5.5251554553761149E-02    5.2306259692812844E+00
Ga    9.6399809253370901E+00    1.9089064040686954E+00    5.8615036813673980E+00
N    9.6434251913657558E+00    1.9071583876287936E+00    7.8347293395644702E+00
Ga    9.6458670162757816E+00    3.9551890434135289E-02    8.4195034929977339E+00
N    9.6476830496507997E+00    3.8615905166217081E-02    1.0415661481253512E+01
Ga    9.6468828777123239E+00    1.9081137733985281E+00    1.1011593331689955E+01
N    9.6484979668724709E+00    1.9100825982893401E+00    1.2986857954883579E+01
Ga    9.6497599191057617E+00    4.0775429228918934E-02    1.3604673054122602E+01
N    9.6507796894680684E+00    7.5212538208472152E-02    1.5568948331519641E+01
Ga    9.6499830001356610E+00    1.9156980100741563E+00    1.5844252798786098E+01
N    7.9266314852879480E+00    4.6385966539224475E+00    2.5025168387688730E+00
Ga    8.1281004598620026E+00    2.7855746307771456E+00    3.2657184104680725E+00
N    8.0344703066246037E+00    2.8381334372998985E+00    5.2317485325845929E+00
Ga    8.0591462463491954E+00    4.7107520028453198E+00    5.7793949048680391E+00
N    8.0465805828011732E+00    4.6994235636906714E+00    7.7779944746414031E+00
Ga    8.0266275425640359E+00    2.8423280585528197E+00    8.4195205141691520E+00
N    8.0281805365146557E+00    2.8429243041747401E+00    1.0415160210746111E+01
Ga    8.0533701297399869E+00    4.7020371681666004E+00    1.1052496720287616E+01
N    8.0708542389856586E+00    4.7132258812608194E+00    1.3048654788646070E+01
Ga    8.0291203550022558E+00    2.8458435139951197E+00    1.3606943373302824E+01
N    8.0561810415523620E+00    2.8343970194135855E+00    1.5569566675519543E+01
Ga    7.8750189999469180E+00    4.6024456028831242E+00    1.6475040204241452E+01
N    6.4237563181808754E+00    7.4851851601745834E+00    2.5815916730429311E+00
Ga    6.4219859506481427E+00    5.7414041135445704E+00    3.2616092574024109E+00
N    6.4256270301035929E+00    5.6260893197061579E+00    5.2275177469621417E+00
Ga    6.4267337473548602E+00    7.4821464570994340E+00    5.8521137429686494E+00
N    6.4296907213789689E+00    7.4788509312820626E+00    7.8280034777954839E+00
Ga    6.4290624815197406E+00    5.6107689992253302E+00    8.4173768777718969E+00
N    6.4309527308272560E+00    5.6094471378146364E+00    1.0413797171766694E+01
Ga    6.4308002594922913E+00    7.4786105431153000E+00    1.1010114148750150E+01
N    6.4325181955064590E+00    7.4815733788293715E+00    1.2985491378812538E+01
Ga    6.4332617132560754E+00    5.6116935501138494E+00    1.3607742414764138E+01
N    6.4369409483442857E+00    5.6458038176926264E+00    1.5570734948810420E+01
Ga    6.4326288009858068E+00    7.4829360109779852E+00    1.5852775204269491E+01
N    4.7101773831962817E+00    1.0211751335593519E+01    2.4987276780820444E+00
Ga    4.9121879146256582E+00    8.3573247197494940E+00    3.2582901550395924E+00
N    4.8189553303880794E+00    8.4092170555921708E+00    5.2262270438234850E+00
Ga    4.8430078819617171E+00    1.0280113422218665E+01    5.7790045269574968E+00
N    4.8310572200264961E+00    1.0268845645745454E+01    7.7774911895400249E+00
Ga    4.8123587839007227E+00    8.4116681681843399E+00    8.4171042419535933E+00
N    4.8123479423675750E+00    8.4128643359560460E+00    1.0413566926898506E+01
Ga    4.8379083157700213E+00    1.0271533665541609E+01    1.1050597755464114E+01
N    4.8551528105400612E+00    1.0283462715790982E+01    1.3047220846430774E+01
Ga    4.8141996024081211E+00    8.4164609267590489E+00    1.3606302324091182E+01
N    4.8425387368198161E+00    8.4067776594331622E+00    1.5571488571591967E+01
Ga    4.6614043187730871E+00    1.0177840234877324E+01    1.6469940190171982E+01
O   -2.7539374243681723E-02    3.5860243178913782E+00   -5.6214953708275228E-01
H    4.2758817776064567E-01    4.3363834405966033E+00   -9.9365555045955478E-01
C    5.3396651112262916E-01    2.3141521088089609E+00   -1.0584400089030404E+00
H    1.6331181329319107E+00    2.3262694859042670E+00   -1.0077620657471407E+00
H    1.4368500350999261E-01    1.5397009645002135E+00   -3.8015411234890339E-01
H    1.6921453767637337E-01    2.1581834844165604E+00   -2.0811348442789916E+00
     &END COORD
     &KIND C
       BASIS_SET DZVP-MOLOPT-SR-GTH-q4
       POTENTIAL GTH-PBE-q4
       &POTENTIAL
 2 2
  0.3384712400000000E+00 2 -0.8803673979999999E+01  0.1339210850000000E+01
 2
  0.3025757500000000E+00 1  0.9622486650000001E+01
  0.2915069400000000E+00 0
         # Potential name:  GTH-PBE-Q4  for symbol:  C
         # Potential read from the potential filename: GTH_POTENTIALS
       &END POTENTIAL
     &END KIND
     &KIND O
       BASIS_SET DZVP-MOLOPT-SR-GTH-q6
       POTENTIAL GTH-PBE-q6
       &POTENTIAL
 2 4
  0.2445543000000000E+00 2 -0.1666721480000000E+02  0.2487311320000000E+01
 2
  0.2209559200000000E+00 1  0.1833745811000000E+02
  0.2113324700000000E+00 0
         # Potential name:  GTH-PBE-Q6  for symbol:  O
         # Potential read from the potential filename: GTH_POTENTIALS
       &END POTENTIAL
     &END KIND
     &KIND H
       BASIS_SET DZVP-MOLOPT-SR-GTH-q1
       POTENTIAL GTH-PBE-q1
       &POTENTIAL
 1
  0.2000000000000000E+00 2 -0.4178900440000000E+01  0.7244633100000000E+00
 0
         # Potential name:  GTH-PBE-Q1  for symbol:  H
         # Potential read from the potential filename: GTH_POTENTIALS
       &END POTENTIAL
     &END KIND
     &KIND N
       BASIS_SET DZVP-MOLOPT-SR-GTH
       POTENTIAL GTH-PBE-q5
       &POTENTIAL
 2 3
  0.2837905100000000E+00 2 -0.1241522559000000E+02  0.1868095920000000E+01
 2
  0.2554050000000000E+00 1  0.1363026257000000E+02
  0.2454945300000000E+00 0
         # Potential name:  GTH-PBE-Q5  for symbol:  N
         # Potential read from the potential filename: GTH_POTENTIALS
       &END POTENTIAL
     &END KIND
     &KIND Ga
       BASIS_SET DZVP-MOLOPT-SR-GTH
       POTENTIAL GTH-PBE-q13
       &POTENTIAL
 2 1 10
  0.4900000000000000E+00 0
 3
  0.4167772300000000E+00 3  0.1047568975000000E+02 -0.4921768140000000E+01  0.8707055900000000E+00
  0.7770178090000000E+01 -0.2248152160000000E+01
  0.1784415450000000E+01
  0.5696265200000000E+00 2  0.1777985340000000E+01  0.1958597600000000E+00
 -0.2317443900000000E+00
  0.2381265000000000E+00 1 -0.1624868022000000E+02
         # Potential name:  GTH-PBE-Q13  for symbol:  GA
         # Potential read from the potential filename: GTH_POTENTIALS
       &END POTENTIAL
     &END KIND
     &TOPOLOGY
       NUMBER_OF_ATOMS  206
       MULTIPLE_UNIT_CELL  1 1 1
     &END TOPOLOGY
   &END SUBSYS
 &END FORCE_EVAL
