 # Version information for this restart file 
 # current date 2019-06-24 10:22:01.280
 # current working dir /scratch/rzk/rzk/GaN-carbene/443-adatoms-both-2x2/02-Methanol/01-O-GaTop
 # Program compiled at                              Sun Apr  7 00:48:11 EDT 2019
 # Program compiled on                          beluga2.int.ets1.calculquebec.ca
 # Program compiled for                        Beluga-Linux-x86-64-intel-openmpi
 # Source code revision number                                         svn:18619
 &GLOBAL
   PRINT_LEVEL  MEDIUM
   PROJECT_NAME TEST
   RUN_TYPE  GEO_OPT
 &END GLOBAL
 &MOTION
   &GEO_OPT
     MAX_ITER  500
     STEP_START_VAL  10
   &END GEO_OPT
 &END MOTION
 &FORCE_EVAL
   METHOD  QS
   STRESS_TENSOR  ANALYTICAL
   &DFT
     BASIS_SET_FILE_NAME BASIS_MOLOPT
     POTENTIAL_FILE_NAME GTH_POTENTIALS
     UKS  T
     SURFACE_DIPOLE_CORRECTION  T
     SURF_DIP_DIR  Z
     &SCF
       MAX_SCF  80
       EPS_SCF     5.0000000000000004E-06
       &OT  T
         PRECONDITIONER  FULL_ALL
       &END OT
       &OUTER_SCF  T
         OPTIMIZER  NONE
         EPS_SCF     5.0000000000000004E-06
         MAX_SCF  4
       &END OUTER_SCF
       &PRINT
         &RESTART  OFF
           BACKUP_COPIES  1
           &EACH
             JUST_ENERGY  0
             QS_SCF  0
             MD  20
           &END EACH
         &END RESTART
       &END PRINT
     &END SCF
     &QS
       EPS_DEFAULT     1.0000000000000000E-14
       METHOD  GPW
     &END QS
     &MGRID
       NGRIDS  5
       CUTOFF     1.2000000000000000E+03
     &END MGRID
     &XC
       DENSITY_CUTOFF     1.0000000000000000E-10
       GRADIENT_CUTOFF     1.0000000000000000E-10
       TAU_CUTOFF     1.0000000000000000E-10
       &XC_FUNCTIONAL  NO_SHORTCUT
         &PBE  T
         &END PBE
       &END XC_FUNCTIONAL
       &VDW_POTENTIAL
         POTENTIAL_TYPE  PAIR_POTENTIAL
         &PAIR_POTENTIAL
           R_CUTOFF     1.0000000000000004E+01
           TYPE  DFTD3
           PARAMETER_FILE_NAME dftd3.dat
           REFERENCE_FUNCTIONAL PBE
           EPS_CN     9.9999999999999995E-07
           CALCULATE_C9_TERM  T
           REFERENCE_C9_TERM  T
           LONG_RANGE_CORRECTION  F
           VERBOSE_OUTPUT  F
         &END PAIR_POTENTIAL
       &END VDW_POTENTIAL
     &END XC
   &END DFT
   &SUBSYS
     &CELL
       A     1.2864472766435110E+01    0.0000000000000000E+00    0.0000000000000000E+00
       B    -6.4322363581020028E+00    1.1140960178524473E+01    0.0000000000000000E+00
       C     0.0000000000000000E+00    0.0000000000000000E+00    3.2000000000000000E+01
       MULTIPLE_UNIT_CELL  1 1 1
       &CELL_REF
         A     1.2982353780853531E+01    0.0000000000000000E+00    0.0000000000000000E+00
         B    -6.4911768904267628E+00    1.1243048175136114E+01    0.0000000000000000E+00
         C     0.0000000000000000E+00    0.0000000000000000E+00    3.2000000000000000E+01
         MULTIPLE_UNIT_CELL  1 1 1
       &END CELL_REF
     &END CELL
     &COORD
N    1.6912059076522865E-02    2.0427921505667896E+00    2.4460712623914280E+00
Ga    1.7738745090813454E-02    6.3657469134178232E-02    2.8099521723187437E+00
N    1.8624879193305081E-02    5.3772895168900436E-02    4.9586418362682396E+00
Ga    1.9310953633559048E-02    1.8802694591509193E+00    5.7530827016103521E+00
N    1.9495107393066022E-02    1.8939189139022508E+00    7.7446998725497185E+00
Ga    1.9481071996124911E-02    4.9080762491603293E-02    8.3968904485918952E+00
N    1.9679794425223277E-02    4.7961744952825854E-02    1.0366361463059414E+01
Ga    1.9571500903257589E-02    1.8874023179121340E+00    1.1022985035074182E+01
N    1.9431488261028133E-02    1.8680916867922110E+00    1.3012610089991600E+01
Ga    1.9275417263978224E-02    4.7561622315323744E-02    1.3824635466776245E+01
N    2.0918926314860555E-02    4.7448491582377197E-02    1.6017655540165990E+01
Ga    1.9298813330506034E-02    2.0879034648840222E+00    1.6433694427639253E+01
Ga    5.2799369265922177E-03    3.7726989888398004E+00    1.4723564239331179E+00
N   -1.4747079791321045E+00    4.6326769734241209E+00    2.4753914115483360E+00
Ga   -1.6872950062738525E+00    2.7829920968584325E+00    3.2484754232741384E+00
N   -1.5923598921055653E+00    2.8329280010772377E+00    5.2059884455156560E+00
Ga   -1.6127886361412995E+00    4.7057015022542226E+00    5.7548489768178719E+00
N   -1.5993643609139157E+00    4.6968656044942430E+00    7.7465988197827871E+00
Ga   -1.5786085696994900E+00    2.8397525122468141E+00    8.3900444962060146E+00
N   -1.5768815677968406E+00    2.8398380889821411E+00    1.0378865933954110E+01
Ga   -1.6035023567077475E+00    4.6985673365161720E+00    1.1023425520451893E+01
N   -1.6207107897940987E+00    4.7084489214352176E+00    1.3012392789286034E+01
Ga   -1.5779701133080295E+00    2.8398353646733132E+00    1.3572934392406887E+01
N   -1.6032884510862302E+00    2.8253206335235794E+00    1.5531814274274636E+01
Ga   -1.4260597184618096E+00    4.5960419740249279E+00    1.6433174054116687E+01
N    2.5168593059597788E-02    3.7581761813731518E+00    1.7578040595031887E+01
N   -3.1960274022229687E+00    7.6003399264382940E+00    2.4733902927031091E+00
Ga   -3.1867436622080336E+00    5.6163637821861094E+00    2.8151670671439892E+00
N   -3.1962785643570188E+00    5.6198977043160152E+00    4.9650521424954324E+00
Ga   -3.1974315761357368E+00    7.4485784630544494E+00    5.7512541283115253E+00
N   -3.1969194090325437E+00    7.4646308789829030E+00    7.7431554055329999E+00
Ga   -3.1970875810944737E+00    5.6192296178805625E+00    8.3987741458514886E+00
N   -3.1968132802760185E+00    5.6184418799429032E+00    1.0367820945936542E+01
Ga   -3.1971500245964801E+00    7.4576641082553827E+00    1.1024507552764444E+01
N   -3.1973104279231492E+00    7.4382186495103566E+00    1.3013121044894644E+01
Ga   -3.1969201773538032E+00    5.6184313593547497E+00    1.3826735803281009E+01
N   -3.1964601691934185E+00    5.6178926659938941E+00    1.6016423661797482E+01
Ga   -3.1966665514360391E+00    7.6667457225912985E+00    1.6435466168269919E+01
Ga   -3.1945699117470014E+00    9.3358891637657209E+00    1.4378680409694813E+00
N   -4.7008678787652745E+00    1.0205690539439630E+01    2.4691196276260916E+00
Ga   -4.9050782871646934E+00    8.3499817734961947E+00    3.2345187019012087E+00
N   -4.8067641867149282E+00    8.4054717809177060E+00    5.1957903310098130E+00
Ga   -4.8305007373592543E+00    1.0277585075297459E+01    5.7480658849580024E+00
N   -4.8152055874718833E+00    1.0267280260495106E+01    7.7405543567442470E+00
Ga   -4.7950331687834522E+00    8.4103934483637115E+00    8.3890316024936595E+00
N   -4.7931322876207467E+00    8.4104349564577614E+00    1.0377042937396459E+01
Ga   -4.8196988109207437E+00    1.0269123262903355E+01    1.1023178301046187E+01
N   -4.8370449054723927E+00    1.0278990852053036E+01    1.3012075025142526E+01
Ga   -4.7951625579400066E+00    8.4098981392802603E+00    1.3572920602702277E+01
N   -4.8252329646594037E+00    8.3942099447217373E+00    1.5529338073609658E+01
Ga   -4.6337413184488145E+00    1.0161676875459611E+01    1.6437357844456425E+01
N   -3.1910612094159858E+00    9.3291295746815344E+00    1.7563011159404979E+01
N    3.2298209345632678E+00    1.9112144844631316E+00    2.5475064840536850E+00
Ga    3.2336236943477101E+00    1.6897786068024115E-01    3.2361503348571352E+00
N    3.2349866142980597E+00    5.2776809355800709E-02    5.1964790539702239E+00
Ga    3.2332457140571007E+00    1.9075062960366247E+00    5.8305821096683283E+00
N    3.2357252485554251E+00    1.9050719594014769E+00    7.7984293908260360E+00
Ga    3.2348491341888526E+00    3.6963234243942288E-02    8.3903110308791149E+00
N    3.2354709464587503E+00    3.4593419718608936E-02    1.0378296289245528E+01
Ga    3.2353566241686686E+00    1.9047887145121709E+00    1.0976983655470148E+01
N    3.2345140192613728E+00    1.9049602146378986E+00    1.2942900247358063E+01
Ga    3.2347722966781487E+00    3.6484965524812243E-02    1.3573608294056211E+01
N    3.2335693432687931E+00    7.0524118820697507E-02    1.5529827488187630E+01
Ga    3.2339893263365060E+00    1.9057095350423643E+00    1.5816034239257421E+01
N    1.5065015150683618E+00    4.6299135846267223E+00    2.4590529092733973E+00
Ga    1.7205810685633560E+00    2.7827064570551934E+00    3.2405740938298360E+00
N    1.6294705537742284E+00    2.8334514480500266E+00    5.2002155654900504E+00
Ga    1.6501898404180557E+00    4.7047592060623131E+00    5.7537358944368346E+00
N    1.6375796633079445E+00    4.6963248105292665E+00    7.7454867435592289E+00
Ga    1.6175115369439548E+00    2.8394437093656593E+00    8.3900510945510778E+00
N    1.6159778172314829E+00    2.8398125429007779E+00    1.0378689152634889E+01
Ga    1.6424490099924378E+00    4.6984066996627769E+00    1.1023207692488059E+01
N    1.6591672364925709E+00    4.7081745146444449E+00    1.3012767799285195E+01
Ga    1.6169719123211259E+00    2.8390987669878971E+00    1.3573543774056525E+01
N    1.6414379044287155E+00    2.8249308851542647E+00    1.5533166712951115E+01
Ga    1.4688665349367851E+00    4.5985070110606587E+00    1.6433564732570225E+01
N    1.7778018072273253E-02    7.4742185343998573E+00    2.5506121753871063E+00
Ga    1.7229988068133108E-02    5.7353085653314482E+00    3.2549324433983138E+00
N    1.9270873261838271E-02    5.6262216598433037E+00    5.2110943355743959E+00
Ga    1.8670472255367398E-02    7.4781815445073727E+00    5.8364330511586120E+00
N    1.9057775679660119E-02    7.4775138762098674E+00    7.8028704960722246E+00
Ga    1.9244208886829758E-02    5.6073923425347587E+00    8.3904458442125822E+00
N    1.9576645733053778E-02    5.6052060550052420E+00    1.0379269257002719E+01
Ga    1.9846820235343638E-02    7.4750033206462225E+00    1.0977904327697752E+01
N    1.9956359858716244E-02    7.4745759009265225E+00    1.2945013878400406E+01
Ga    1.8895572368682549E-02    5.6055143548001762E+00    1.3573235837269621E+01
N    1.8788471007640604E-02    5.6353244154420894E+00    1.5532197906259638E+01
Ga    2.1793278785391761E-02    7.4752103704588899E+00    1.5810725282772491E+01
N   -1.6948272540656968E+00    1.0203746788293554E+01    2.4753141630537661E+00
Ga   -1.4890898670232364E+00    8.3492323863486853E+00    3.2397713655369036E+00
N   -1.5869992684740100E+00    8.4049602790527640E+00    5.1998792249914239E+00
Ga   -1.5656041645623768E+00    1.0276671626828314E+01    5.7527741476451260E+00
N   -1.5796535736697910E+00    1.0266739388847562E+01    7.7442125801674768E+00
Ga   -1.5997065277937350E+00    8.4105144576828810E+00    8.3927008407898924E+00
N   -1.6002303471217649E+00    8.4103148204138947E+00    1.0380393789736113E+01
Ga   -1.5737312569797823E+00    1.0269549552717509E+01    1.1024870146710875E+01
N   -1.5569536952003820E+00    1.0279322538026596E+01    1.3013526568912605E+01
Ga   -1.5997368000965253E+00    8.4098586830528372E+00    1.3573234449869688E+01
N   -1.5680227296488813E+00    8.3919147981068161E+00    1.5530396759003612E+01
Ga   -1.7538234907414634E+00    1.0165098301228934E+01    1.6435024920408509E+01
N    6.4504588411165393E+00    2.0311179584474499E+00    2.4750183168444675E+00
Ga    6.4502223502196587E+00    5.2333272804887303E-02    2.8175468153796128E+00
N    6.4509683945714675E+00    5.0123535995678224E-02    4.9682050636897674E+00
Ga    6.4505724708769892E+00    1.8785611200475434E+00    5.7528656805502383E+00
N    6.4513292849077191E+00    1.8944362834276935E+00    7.7441749908876796E+00
Ga    6.4510645265202200E+00    4.8707371530011055E-02    8.3978742498105934E+00
N    6.4514581392412964E+00    4.7815532221641512E-02    1.0366985992233653E+01
Ga    6.4513020410615542E+00    1.8869495323721244E+00    1.1024523251509692E+01
N    6.4511257215309517E+00    1.8677005130668856E+00    1.3013017430233329E+01
Ga    6.4519283551106099E+00    4.7815376218664704E-02    1.3827823659346395E+01
N    6.4519801965636594E+00    4.8342234262913307E-02    1.6015579732425376E+01
Ga    6.4518637545502857E+00    2.0961761977274005E+00    1.6433945763996771E+01
Ga    6.4519407513911800E+00    3.7653105103399409E+00    1.4436283722139172E+00
N    4.9465894756883149E+00    4.6326165759344518E+00    2.4724358830024968E+00
Ga    4.7401005211878120E+00    2.7786571885773732E+00    3.2374853804816430E+00
N    4.8406254950227563E+00    2.8335101489397854E+00    5.1974350339454158E+00
Ga    4.8171658198398477E+00    4.7059263045564892E+00    5.7491214260862291E+00
N    4.8330132517666868E+00    4.6963001731338814E+00    7.7414177151615524E+00
Ga    4.8532257634288474E+00    2.8396769093619532E+00    8.3903865888443949E+00
N    4.8551721831110317E+00    2.8396875358694089E+00    1.0378282444168480E+01
Ga    4.8286583739022682E+00    4.6984151413321129E+00    1.1023060781969377E+01
N    4.8113586069994385E+00    4.7085212386074291E+00    1.3011704792984981E+01
Ga    4.8528901720549067E+00    2.8391925005747551E+00    1.3572794401936587E+01
N    4.8228152713318551E+00    2.8231723016265611E+00    1.5528533469862904E+01
Ga    5.0150442517945484E+00    4.5910269587914323E+00    1.6435964224339916E+01
N    6.4570916084315382E+00    3.7582758300850001E+00    1.7562301614824531E+01
N    3.2324057983720009E+00    7.6006265540455491E+00    2.4718343611501172E+00
Ga    3.2225941487277607E+00    5.6162683814114773E+00    2.8087541132341709E+00
N    3.2320786952876412E+00    5.6190113591554818E+00    4.9602245667683791E+00
Ga    3.2345558453661032E+00    7.4478281380648372E+00    5.7491775093275876E+00
N    3.2354814388913051E+00    7.4640526884517717E+00    7.7413521231849591E+00
Ga    3.2351818071785026E+00    5.6187274182164089E+00    8.3975213217906077E+00
N    3.2356263186257572E+00    5.6181302504392425E+00    1.0366773339670527E+01
Ga    3.2360596873912866E+00    7.4576079027962159E+00    1.1022750723745240E+01
N    3.2357733543492899E+00    7.4384627685398206E+00    1.3011456810108253E+01
Ga    3.2358664741402521E+00    5.6186644546947795E+00    1.3824384886174041E+01
N    3.2371446016562402E+00    5.6172335104568294E+00    1.6016935336475623E+01
Ga    3.2356119844798585E+00    7.6610463691760264E+00    1.6433668449788144E+01
Ga    3.2312415564766059E+00    9.3373718498013858E+00    1.4409681987427110E+00
N    1.7314852614404883E+00    1.0203808115668295E+01    2.4759072771557227E+00
Ga    1.5246321847936111E+00    8.3487025572841542E+00    3.2393482473650397E+00
N    1.6242459553668573E+00    8.4049212179549304E+00    5.1992320824360361E+00
Ga    1.6028736302482094E+00    1.0276405034396261E+01    5.7532213142425288E+00
N    1.6178016844479406E+00    1.0266797642393987E+01    7.7444208935369483E+00
Ga    1.6381252748946766E+00    8.4101680485098527E+00    8.3914252390861215E+00
N    1.6394868767807271E+00    8.4102349411464186E+00    1.0378795602980075E+01
Ga    1.6124763644610498E+00    1.0269282509078279E+01    1.1023458499752978E+01
N    1.5953206276595497E+00    1.0279062434833778E+01    1.3011537543299108E+01
Ga    1.6385956293590920E+00    8.4104496883214868E+00    1.3572425555907738E+01
N    1.6129677674647929E+00    8.3963091348453887E+00    1.5530408399061251E+01
Ga    1.7916417367888207E+00    1.0166148560655309E+01    1.6432822933204427E+01
N    3.2408761627373508E+00    9.3293492169994625E+00    1.7576374706486597E+01
N    9.6701772168349542E+00    1.9114681419697184E+00    2.5522739546046163E+00
Ga    9.6670174392714827E+00    1.6924006610766371E-01    3.2387277183370378E+00
N    9.6668525672100465E+00    5.2615564801534419E-02    5.1985977519339794E+00
Ga    9.6676413990038998E+00    1.9071668398587966E+00    5.8336488773796233E+00
N    9.6667908536287932E+00    1.9051181639481221E+00    7.8007422787112999E+00
Ga    9.6680806355371978E+00    3.6697198997926325E-02    8.3904590627565252E+00
N    9.6681338160023316E+00    3.4485448255733631E-02    1.0378169982421523E+01
Ga    9.6684895113263352E+00    1.9046808239794966E+00    1.0977322553142420E+01
N    9.6686979697478765E+00    1.9043778500770372E+00    1.2944300063119664E+01
Ga    9.6674513956391941E+00    3.4978266774496253E-02    1.3572367338082829E+01
N    9.6672311420484398E+00    6.4672743786699502E-02    1.5530241387428138E+01
Ga    9.6691841277590083E+00    1.9032557033567963E+00    1.5810395170261462E+01
N    7.9541024907878928E+00    4.6326132117362553E+00    2.4751392127374090E+00
Ga    8.1596571002074594E+00    2.7789222131760920E+00    3.2403943417522481E+00
N    8.0607754993307541E+00    2.8337614064390895E+00    5.2001371599341013E+00
Ga    8.0838914576044978E+00    4.7062151555930374E+00    5.7516453187292882E+00
N    8.0694567764622711E+00    4.6962741429994619E+00    7.7434128452307265E+00
Ga    8.0490513155497112E+00    2.8397223950338164E+00    8.3918256033300747E+00
N    8.0482005049542309E+00    2.8396061866889815E+00    1.0379766447054653E+01
Ga    8.0746601685541251E+00    4.6988247979035984E+00    1.1024117837568525E+01
N    8.0914445061368543E+00    4.7088688155704803E+00    1.3012616984050894E+01
Ga    8.0489102174177560E+00    2.8393623062411661E+00    1.3572313423234831E+01
N    8.0806181209446031E+00    2.8211694153468048E+00    1.5528946715200401E+01
Ga    7.8937085127761950E+00    4.5941382825277763E+00    1.6434308193066528E+01
N    6.4508324031469764E+00    7.4789409030493044E+00    2.5494121816968343E+00
Ga    6.4505237981191499E+00    5.7382579858499652E+00    3.2375472285033458E+00
N    6.4506430644234216E+00    5.6222083542308363E+00    5.1976890513637581E+00
Ga    6.4511459660007198E+00    7.4777582473120603E+00    5.8271772336668537E+00
N    6.4517808401781096E+00    7.4757962417005510E+00    7.7953823893575027E+00
Ga    6.4511696821262410E+00    5.6072656690168490E+00    8.3891663080526815E+00
N    6.4516351494996220E+00    5.6050947187148861E+00    1.0377130497111640E+01
Ga    6.4517764862051115E+00    7.4753987249363076E+00    1.0976106344738723E+01
N    6.4510983551166072E+00    7.4756734208756672E+00    1.2941844043893816E+01
Ga    6.4510219993499076E+00    5.6069670520523740E+00    1.3572209983849177E+01
N    6.4497864963328366E+00    5.6415683656734901E+00    1.5528155875551647E+01
Ga    6.4492239588159253E+00    7.4768599054373341E+00    1.5814203104092250E+01
N    4.7366298842616885E+00    1.0205330465424572E+01    2.4702490151730010E+00
Ga    4.9424720985955259E+00    8.3494297708865535E+00    3.2346412713647155E+00
N    4.8442220948247865E+00    8.4051203608590797E+00    5.1955508474467020E+00
Ga    4.8681954393455680E+00    1.0277382183362100E+01    5.7485343170811207E+00
N    4.8539307243166769E+00    1.0267140570778500E+01    7.7407577362420046E+00
Ga    4.8339019606194285E+00    8.4098500672453547E+00    8.3879933769686339E+00
N    4.8322377134941812E+00    8.4102690979573858E+00    1.0376018013538506E+01
Ga    4.8589718037632164E+00    1.0268923649439394E+01    1.1022491150348870E+01
N    4.8755044432145933E+00    1.0278675552081520E+01    1.3011337623389259E+01
Ga    4.8328057302814864E+00    8.4099145581585528E+00    1.3572413586487681E+01
N    4.8574939148432197E+00    8.3961109885703618E+00    1.5531235521352741E+01
Ga    4.6830058168864017E+00    1.0168209037986770E+01    1.6433825077725547E+01
O   -2.3458905164416713E-01    3.7974687660170869E+00   -6.0203216114756453E-01
H   -1.7967044401359289E-01    4.6677414304541109E+00   -1.0355894011563180E+00
C    2.4647763987840798E-02    2.6952935265188720E+00   -1.5285596412139548E+00
H    9.1223489844882288E-01    2.9087237358986564E+00   -2.1354852195817227E+00
H    1.9959395613300232E-01    1.8110804502552404E+00   -9.0423652584749314E-01
H   -8.6153276937746737E-01    2.5435367586820625E+00   -2.1581360169420098E+00
     &END COORD
     &KIND C
       BASIS_SET DZVP-MOLOPT-SR-GTH-q4
       POTENTIAL GTH-PBE-q4
       &POTENTIAL
 2 2
  0.3384712400000000E+00 2 -0.8803673979999999E+01  0.1339210850000000E+01
 2
  0.3025757500000000E+00 1  0.9622486650000001E+01
  0.2915069400000000E+00 0
         # Potential name:  GTH-PBE-Q4  for symbol:  C
         # Potential read from the potential filename: GTH_POTENTIALS
       &END POTENTIAL
     &END KIND
     &KIND O
       BASIS_SET DZVP-MOLOPT-SR-GTH-q6
       POTENTIAL GTH-PBE-q6
       &POTENTIAL
 2 4
  0.2445543000000000E+00 2 -0.1666721480000000E+02  0.2487311320000000E+01
 2
  0.2209559200000000E+00 1  0.1833745811000000E+02
  0.2113324700000000E+00 0
         # Potential name:  GTH-PBE-Q6  for symbol:  O
         # Potential read from the potential filename: GTH_POTENTIALS
       &END POTENTIAL
     &END KIND
     &KIND H
       BASIS_SET DZVP-MOLOPT-SR-GTH-q1
       POTENTIAL GTH-PBE-q1
       &POTENTIAL
 1
  0.2000000000000000E+00 2 -0.4178900440000000E+01  0.7244633100000000E+00
 0
         # Potential name:  GTH-PBE-Q1  for symbol:  H
         # Potential read from the potential filename: GTH_POTENTIALS
       &END POTENTIAL
     &END KIND
     &KIND N
       BASIS_SET DZVP-MOLOPT-SR-GTH
       POTENTIAL GTH-PBE-q5
       &POTENTIAL
 2 3
  0.2837905100000000E+00 2 -0.1241522559000000E+02  0.1868095920000000E+01
 2
  0.2554050000000000E+00 1  0.1363026257000000E+02
  0.2454945300000000E+00 0
         # Potential name:  GTH-PBE-Q5  for symbol:  N
         # Potential read from the potential filename: GTH_POTENTIALS
       &END POTENTIAL
     &END KIND
     &KIND Ga
       BASIS_SET DZVP-MOLOPT-SR-GTH
       POTENTIAL GTH-PBE-q13
       &POTENTIAL
 2 1 10
  0.4900000000000000E+00 0
 3
  0.4167772300000000E+00 3  0.1047568975000000E+02 -0.4921768140000000E+01  0.8707055900000000E+00
  0.7770178090000000E+01 -0.2248152160000000E+01
  0.1784415450000000E+01
  0.5696265200000000E+00 2  0.1777985340000000E+01  0.1958597600000000E+00
 -0.2317443900000000E+00
  0.2381265000000000E+00 1 -0.1624868022000000E+02
         # Potential name:  GTH-PBE-Q13  for symbol:  GA
         # Potential read from the potential filename: GTH_POTENTIALS
       &END POTENTIAL
     &END KIND
     &TOPOLOGY
       NUMBER_OF_ATOMS  206
       MULTIPLE_UNIT_CELL  1 1 1
     &END TOPOLOGY
   &END SUBSYS
 &END FORCE_EVAL
