 # Version information for this restart file 
 # current date 2019-06-24 12:39:23.375
 # current working dir /scratch/rzk/rzk/GaN-carbene/443-adatoms-both-2x2/02-Methanol/01-O-GaTop
 # Program compiled at                              Sun Apr  7 00:48:11 EDT 2019
 # Program compiled on                          beluga2.int.ets1.calculquebec.ca
 # Program compiled for                        Beluga-Linux-x86-64-intel-openmpi
 # Source code revision number                                         svn:18619
 &GLOBAL
   PRINT_LEVEL  MEDIUM
   PROJECT_NAME TEST
   RUN_TYPE  GEO_OPT
 &END GLOBAL
 &MOTION
   &GEO_OPT
     MAX_ITER  500
     STEP_START_VAL  37
   &END GEO_OPT
 &END MOTION
 &FORCE_EVAL
   METHOD  QS
   STRESS_TENSOR  ANALYTICAL
   &DFT
     BASIS_SET_FILE_NAME BASIS_MOLOPT
     POTENTIAL_FILE_NAME GTH_POTENTIALS
     UKS  T
     SURFACE_DIPOLE_CORRECTION  T
     SURF_DIP_DIR  Z
     &SCF
       MAX_SCF  80
       EPS_SCF     5.0000000000000004E-06
       &OT  T
         PRECONDITIONER  FULL_ALL
       &END OT
       &OUTER_SCF  T
         OPTIMIZER  NONE
         EPS_SCF     5.0000000000000004E-06
         MAX_SCF  4
       &END OUTER_SCF
       &PRINT
         &RESTART  OFF
           BACKUP_COPIES  1
           &EACH
             JUST_ENERGY  0
             QS_SCF  0
             MD  20
           &END EACH
         &END RESTART
       &END PRINT
     &END SCF
     &QS
       EPS_DEFAULT     1.0000000000000000E-14
       METHOD  GPW
     &END QS
     &MGRID
       NGRIDS  5
       CUTOFF     1.2000000000000000E+03
     &END MGRID
     &XC
       DENSITY_CUTOFF     1.0000000000000000E-10
       GRADIENT_CUTOFF     1.0000000000000000E-10
       TAU_CUTOFF     1.0000000000000000E-10
       &XC_FUNCTIONAL  NO_SHORTCUT
         &PBE  T
         &END PBE
       &END XC_FUNCTIONAL
       &VDW_POTENTIAL
         POTENTIAL_TYPE  PAIR_POTENTIAL
         &PAIR_POTENTIAL
           R_CUTOFF     1.0000000000000004E+01
           TYPE  DFTD3
           PARAMETER_FILE_NAME dftd3.dat
           REFERENCE_FUNCTIONAL PBE
           EPS_CN     9.9999999999999995E-07
           CALCULATE_C9_TERM  T
           REFERENCE_C9_TERM  T
           LONG_RANGE_CORRECTION  F
           VERBOSE_OUTPUT  F
         &END PAIR_POTENTIAL
       &END VDW_POTENTIAL
     &END XC
   &END DFT
   &SUBSYS
     &CELL
       A     1.2864472766435110E+01    0.0000000000000000E+00    0.0000000000000000E+00
       B    -6.4322363581020028E+00    1.1140960178524473E+01    0.0000000000000000E+00
       C     0.0000000000000000E+00    0.0000000000000000E+00    3.2000000000000000E+01
       MULTIPLE_UNIT_CELL  1 1 1
       &CELL_REF
         A     1.2982353780853531E+01    0.0000000000000000E+00    0.0000000000000000E+00
         B    -6.4911768904267628E+00    1.1243048175136114E+01    0.0000000000000000E+00
         C     0.0000000000000000E+00    0.0000000000000000E+00    3.2000000000000000E+01
         MULTIPLE_UNIT_CELL  1 1 1
       &END CELL_REF
     &END CELL
     &COORD
N   -1.2141295767046182E-02    2.0446372105439350E+00    2.5023175683323480E+00
Ga   -9.5536832297144041E-03    6.7999452285563672E-02    2.8551603362686562E+00
N   -6.3536091059276083E-03    5.8839970850691113E-02    5.0086502471665932E+00
Ga   -4.7847623031443375E-03    1.8826006547465517E+00    5.7975668563547460E+00
N   -2.1182005525684847E-03    1.8972710179254195E+00    7.7931611959170652E+00
Ga   -1.8337682558682842E-03    4.9426009900785869E-02    8.4278587054466154E+00
N    4.0440702372796688E-04    4.8454770969525864E-02    1.0404540164042968E+01
Ga   -9.1673709975051800E-04    1.8893819281551425E+00    1.1052709254192822E+01
N    8.9121654198942959E-04    1.8743946655308348E+00    1.3047920581051708E+01
Ga   -4.1044518826970173E-03    5.2620529922147365E-02    1.3835585067059831E+01
N   -3.6513265171224576E-03    5.8786784588326979E-02    1.6051938531731217E+01
Ga   -1.2029861609295480E-03    2.0953359536854421E+00    1.6459157320007805E+01
Ga   -3.0066920438551345E-02    3.7767033896385276E+00    1.5148816878442308E+00
N   -1.5038064927111265E+00    4.6333273757267754E+00    2.5201162725821424E+00
Ga   -1.7139200411393705E+00    2.7825037592782933E+00    3.2973411107171535E+00
N   -1.6174513839768647E+00    2.8361703253035606E+00    5.2550230574363441E+00
Ga   -1.6399200163655938E+00    4.7109084943010986E+00    5.7936134950634131E+00
N   -1.6217121188983370E+00    4.6994199140670796E+00    7.7908828069241993E+00
Ga   -1.6031318060778275E+00    2.8415640294662632E+00    8.4252712573942166E+00
N   -1.5991659567659722E+00    2.8418290318579258E+00    1.0419859276769179E+01
Ga   -1.6237686749227327E+00    4.7020307566443389E+00    1.1052094807896646E+01
N   -1.6372159784204592E+00    4.7127035965162118E+00    1.3048970090333333E+01
Ga   -1.5966898383060550E+00    2.8440021680151397E+00    1.3602589489063828E+01
N   -1.6192592575678699E+00    2.8323911641951556E+00    1.5566402711994021E+01
Ga   -1.4569860129670880E+00    4.6082106240486027E+00    1.6457869369228710E+01
N    1.0015118167537343E-02    3.7823092862525431E+00    1.7591466558747463E+01
N   -3.2250609074432850E+00    7.6052085094733481E+00    2.5016893186329225E+00
Ga   -3.2164507389138057E+00    5.6249680683741223E+00    2.8355395666280212E+00
N   -3.2199573312725525E+00    5.6237720821858854E+00    5.0041853667209555E+00
Ga   -3.2210282539741573E+00    7.4536288133364854E+00    5.7781093078283297E+00
N   -3.2191834073479244E+00    7.4690591493328675E+00    7.7793438459459843E+00
Ga   -3.2207121165288264E+00    5.6233146567250589E+00    8.4272058447947291E+00
N   -3.2186316842621348E+00    5.6227090323079478E+00    1.0404397094312174E+01
Ga   -3.2170522678578135E+00    7.4618855864697675E+00    1.1052225983645160E+01
N   -3.2148281203663447E+00    7.4446619370734366E+00    1.3052310025677240E+01
Ga   -3.2177396614899179E+00    5.6204332540270565E+00    1.3839692156892374E+01
N   -3.2169720843116973E+00    5.6253467351053636E+00    1.6053999466920818E+01
Ga   -3.2167989059151054E+00    7.6515288980255232E+00    1.6443879207898956E+01
Ga   -3.2268197338004727E+00    9.3416752480136243E+00    1.4329784338947016E+00
N   -4.7295010185799091E+00    1.0213820810269244E+01    2.5035121246313676E+00
Ga   -4.9291594170016850E+00    8.3598488533642836E+00    3.2587826068084560E+00
N   -4.8314172339552268E+00    8.4100597391574805E+00    5.2279494293552897E+00
Ga   -4.8530718533435362E+00    1.0281118199194459E+01    5.7805797997887138E+00
N   -4.8351309299159837E+00    1.0269349583301906E+01    7.7810003877184313E+00
Ga   -4.8172241243941789E+00    8.4125532050819114E+00    8.4186912840311621E+00
N   -4.8139262738935455E+00    8.4126583442032725E+00    1.0416306736516757E+01
Ga   -4.8390255699993654E+00    1.0270808636962618E+01    1.1053528483100511E+01
N   -4.8534064166392792E+00    1.0282624417884662E+01    1.3052655962354432E+01
Ga   -4.8124692145919763E+00    8.4137015029280455E+00    1.3602334127522354E+01
N   -4.8347824237781580E+00    8.4026071971022454E+00    1.5570567012294413E+01
Ga   -4.6887883987530579E+00    1.0189114368753485E+01    1.6440813930971530E+01
N   -3.2152334550336108E+00    9.3558868169827942E+00    1.7559907822792791E+01
N    3.1996238557835728E+00    1.9162770703619840E+00    2.5801916236712970E+00
Ga    3.2090459786071488E+00    1.6864250368700942E-01    3.2614294426864001E+00
N    3.2110063495313850E+00    5.7920193291757037E-02    5.2300613154669779E+00
Ga    3.2125490144213216E+00    1.9101286664202997E+00    5.8634550104503678E+00
N    3.2153352541063960E+00    1.9082142795224488E+00    7.8385640959589260E+00
Ga    3.2150272087782965E+00    3.9651172448408233E-02    8.4218805103389620E+00
N    3.2161915267727745E+00    3.8066841299016434E-02    1.0419780555060226E+01
Ga    3.2174471952144215E+00    1.9082725330346475E+00    1.1013072801555261E+01
N    3.2168261433468932E+00    1.9082278351681403E+00    1.2988769495738842E+01
Ga    3.2178359839044766E+00    4.0498185859364592E-02    1.3605170433682723E+01
N    3.2156596795987586E+00    7.2398769806884769E-02    1.5575572891805777E+01
Ga    3.2171620170069883E+00    1.9152993374096088E+00    1.5849294368130080E+01
N    1.4797125541538441E+00    4.6323747652643359E+00    2.5012453806674446E+00
Ga    1.6923734126482723E+00    2.7850100676279603E+00    3.2853735151100976E+00
N    1.6055139963655141E+00    2.8365968122610363E+00    5.2468224458326764E+00
Ga    1.6277245364331725E+00    4.7092945553297456E+00    5.7932370079349225E+00
N    1.6159912379325529E+00    4.6985237879863462E+00    7.7904337887911863E+00
Ga    1.5980081775343238E+00    2.8417613626282576E+00    8.4277200163301842E+00
N    1.5981190646186740E+00    2.8421888915511624E+00    1.0422536317750623E+01
Ga    1.6242453049692649E+00    4.7033914549903546E+00    1.1054315821117971E+01
N    1.6402635743150631E+00    4.7133807870679796E+00    1.3050436152697811E+01
Ga    1.5981158061888676E+00    2.8440692882175309E+00    1.3604481795240547E+01
N    1.6201090977916188E+00    2.8281980178054447E+00    1.5569862710000374E+01
Ga    1.4676068058945604E+00    4.6153019856030051E+00    1.6458152653367311E+01
N   -9.6056751175865630E-03    7.4747393119826278E+00    2.5849757756231724E+00
Ga   -8.1078200889539050E-03    5.7390771238051386E+00    3.2954785066767887E+00
N   -5.3997359396433563E-03    5.6288243170167043E+00    5.2531438645343353E+00
Ga   -7.0043402660693709E-03    7.4848401655132646E+00    5.8624879840905813E+00
N   -3.9707660458582657E-03    7.4809154833577525E+00    7.8369037374992727E+00
Ga   -2.4043782980071237E-03    5.6126263730504551E+00    8.4237799965093334E+00
N   -2.2110084920110137E-04    5.6104716773647105E+00    1.0419648072733182E+01
Ga   -1.3975918850597186E-04    7.4800742113359746E+00    1.1011375963213831E+01
N   -7.4248006829188084E-04    7.4805144837271458E+00    1.2986701250495909E+01
Ga    8.4395564642967278E-04    5.6112946443231335E+00    1.3605998617079155E+01
N   -2.7214882740218965E-03    5.6436839537153727E+00    1.5573760526318422E+01
Ga    3.8731064662844029E-03    7.4841019634705193E+00    1.5850233421244651E+01
N   -1.7214375334007497E+00    1.0209544203658650E+01    2.4993935583480438E+00
Ga   -1.5208600841758215E+00    8.3573627909545944E+00    3.2581532635556134E+00
N   -1.6119435558450732E+00    8.4102069353260447E+00    5.2280698753365771E+00
Ga   -1.5885311404053057E+00    1.0281975347721387E+01    5.7779564441328928E+00
N   -1.6025344553003322E+00    1.0269484085057762E+01    7.7799463259622001E+00
Ga   -1.6212620239806741E+00    8.4141561948186041E+00    8.4200859722058592E+00
N   -1.6203450152226306E+00    8.4136677593946008E+00    1.0417911897348691E+01
Ga   -1.5917201067949800E+00    1.0272716613116877E+01    1.1053721109042744E+01
N   -1.5752617842419652E+00    1.0283324112736395E+01    1.3053304770213522E+01
Ga   -1.6179912370247387E+00    8.4148448665934961E+00    1.3604214257132643E+01
N   -1.5953123508142741E+00    8.4013156885953926E+00    1.5574018324161027E+01
Ga   -1.7399672704106781E+00    1.0191919594745018E+01    1.6443974963449726E+01
N    6.4227840448278117E+00    2.0369958195385771E+00    2.4990525271016568E+00
Ga    6.4215881855161427E+00    5.7318395178157719E-02    2.8312318282801305E+00
N    6.4251997800091400E+00    5.6617132663655284E-02    5.0043135789356610E+00
Ga    6.4253721706001246E+00    1.8830375093767324E+00    5.7782922645951436E+00
N    6.4288573128074935E+00    1.9000703166657527E+00    7.7797157716187177E+00
Ga    6.4289809323569402E+00    5.3006205095740243E-02    8.4228660244692861E+00
N    6.4312079390266437E+00    5.1841729613882524E-02    1.0401201126926139E+01
Ga    6.4320617431818423E+00    1.8906600366492359E+00    1.1054134883217289E+01
N    6.4334960398765766E+00    1.8747062142736171E+00    1.3049190178599943E+01
Ga    6.4381877846380204E+00    5.5581178221445586E-02    1.3843978529412150E+01
N    6.4398749145511687E+00    6.1855421449509812E-02    1.6055707716394746E+01
Ga    6.4328918633510002E+00    2.1141394185023610E+00    1.6477823405010579E+01
Ga    6.4253916852023201E+00    3.7734960517352718E+00    1.4488504197752670E+00
N    4.9168644628581584E+00    4.6394548990791540E+00    2.4993682367536070E+00
Ga    4.7148023753868733E+00    2.7854953898411838E+00    3.2603209741974180E+00
N    4.8153106367466538E+00    2.8388926620681096E+00    5.2280613049074063E+00
Ga    4.7932770930721800E+00    4.7111712253439411E+00    5.7773546702376297E+00
N    4.8130183264386517E+00    4.6996532870466918E+00    7.7784319422571651E+00
Ga    4.8328645632673739E+00    2.8435814945057358E+00    8.4219414671880788E+00
N    4.8352615636658429E+00    2.8436407162672190E+00    1.0418781243901744E+01
Ga    4.8101943426298464E+00    4.7024357336516864E+00    1.1055489250690337E+01
N    4.7956942635383397E+00    4.7126188126812041E+00    1.3051126996690687E+01
Ga    4.8369805513476676E+00    2.8438298307695331E+00    1.3607420769053840E+01
N    4.8087210661383795E+00    2.8263553773211405E+00    1.5566072971566898E+01
Ga    4.9865168223395058E+00    4.6028157640819654E+00    1.6474440415432795E+01
N    6.4225971151610324E+00    3.7797052680015084E+00    1.7629763453586726E+01
N    3.2050389561299952E+00    7.6058323235705645E+00    2.5016329729813247E+00
Ga    3.1951471402444098E+00    5.6230246899625698E+00    2.8373965261705059E+00
N    3.2057841299143073E+00    5.6227700613990983E+00    5.0017319337226311E+00
Ga    3.2078623668085511E+00    7.4533306336172283E+00    5.7772825767346880E+00
N    3.2127786403503391E+00    7.4681541666013338E+00    7.7776679003808216E+00
Ga    3.2157536690185919E+00    5.6225448719383708E+00    8.4268970881249832E+00
N    3.2180260978366499E+00    5.6219919377102432E+00    1.0403635732991157E+01
Ga    3.2162552588993609E+00    7.4620652006826225E+00    1.1049865426837457E+01
N    3.2173695699606824E+00    7.4459740305410733E+00    1.3045763668306328E+01
Ga    3.2196588181692731E+00    5.6263285136103889E+00    1.3843779400765914E+01
N    3.2212187531639049E+00    5.6323146560695418E+00    1.6053038590975099E+01
Ga    3.2171786849411559E+00    7.6830569730707499E+00    1.6473876127473133E+01
Ga    3.2081960201768243E+00    9.3443743547618148E+00    1.4445023941524429E+00
N    1.7023871942713142E+00    1.0209627357034371E+01    2.5001424426308487E+00
Ga    1.4992069123109315E+00    8.3575161259157635E+00    3.2602566997754612E+00
N    1.5977774018898323E+00    8.4102419829274684E+00    5.2286952958014998E+00
Ga    1.5750652421502123E+00    1.0281897140260892E+01    5.7791029107623295E+00
N    1.5956733947043034E+00    1.0269515702137117E+01    7.7798559103874094E+00
Ga    1.6148444451638269E+00    8.4133311876833723E+00    8.4184241056438456E+00
N    1.6186987994729622E+00    8.4130248014910531E+00    1.0414087996097020E+01
Ga    1.5925212619252591E+00    1.0272159067013824E+01    1.1049304982715194E+01
N    1.5794544301371130E+00    1.0282613452217820E+01    1.3045303981487802E+01
Ga    1.6210684442943375E+00    8.4156502671697293E+00    1.3602753996932643E+01
N    1.5913226266910077E+00    8.4025027140264594E+00    1.5561834476025998E+01
Ga    1.7781726164091687E+00    1.0171590993280736E+01    1.6473759751021021E+01
N    3.2152797201258818E+00    9.3451977027300828E+00    1.7632805649886297E+01
N    9.6456767156406293E+00    1.9165594821207903E+00    2.5894462507218945E+00
Ga    9.6355832779672657E+00    1.6963020764903700E-01    3.2654466080994791E+00
N    9.6399587386304848E+00    5.7413927108935787E-02    5.2327878496798181E+00
Ga    9.6383317207681340E+00    1.9103450597916070E+00    5.8646305838524189E+00
N    9.6425809689386242E+00    1.9089348700166833E+00    7.8378990408868470E+00
Ga    9.6441261175427684E+00    4.0349506514331356E-02    8.4193950134958531E+00
N    9.6471966054090412E+00    3.8731126234036746E-02    1.0414400997866126E+01
Ga    9.6461447802499354E+00    1.9079471286863483E+00    1.1011743427832618E+01
N    9.6495933446715796E+00    1.9105264073327852E+00    1.2985163066366944E+01
Ga    9.6491901103972513E+00    4.0730443407330175E-02    1.3603118647863322E+01
N    9.6510629660618097E+00    7.6594278245815814E-02    1.5563088533079332E+01
Ga    9.6502036494831440E+00    1.9132341781478233E+00    1.5845822177569161E+01
N    7.9273023762651871E+00    4.6403345798801334E+00    2.5016820902926864E+00
Ga    8.1298747613197921E+00    2.7867186290747821E+00    3.2624126423484188E+00
N    8.0348300318718611E+00    2.8397951882592976E+00    5.2302578397660948E+00
Ga    8.0589627551802767E+00    4.7119625925161861E+00    5.7786005775610807E+00
N    8.0457239544657959E+00    4.7002676321484129E+00    7.7795022212124350E+00
Ga    8.0257363426716086E+00    2.8436997835636446E+00    8.4210381738773012E+00
N    8.0277930243863498E+00    2.8433450747762095E+00    1.0417163767220551E+01
Ga    8.0526973453381281E+00    4.7017098515162763E+00    1.1052473118288560E+01
N    8.0700323173470760E+00    4.7117354412472672E+00    1.3048483008177493E+01
Ga    8.0305574205087709E+00    2.8438887608133698E+00    1.3606815020770735E+01
N    8.0584312931000799E+00    2.8306760742135517E+00    1.5566107914891607E+01
Ga    7.8689110896077219E+00    4.5965367749790182E+00    1.6475151911622937E+01
N    6.4232271330922908E+00    7.4876349153089574E+00    2.5765715006868919E+00
Ga    6.4221020954542558E+00    5.7438049258991564E+00    3.2593387800847031E+00
N    6.4256520343515859E+00    5.6281021273262040E+00    5.2267156639536907E+00
Ga    6.4265403174378619E+00    7.4829771966486218E+00    5.8543972690337434E+00
N    6.4300190040048903E+00    7.4793531005077076E+00    7.8300074447554096E+00
Ga    6.4293122065690866E+00    5.6119515826566451E+00    8.4190849221828845E+00
N    6.4312727685189408E+00    5.6098180222100940E+00    1.0415926873485379E+01
Ga    6.4314377409113712E+00    7.4785945203214075E+00    1.1011055994727561E+01
N    6.4350842795163468E+00    7.4808084456176971E+00    1.2984575101126490E+01
Ga    6.4339264049464813E+00    5.6119203458194749E+00    1.3608620440282282E+01
N    6.4376625430001866E+00    5.6476414711277192E+00    1.5570283868844491E+01
Ga    6.4321222420399273E+00    7.4837914237247594E+00    1.5849100141223468E+01
N    4.7091002757472475E+00    1.0212269966100875E+01    2.5063376819822336E+00
Ga    4.9121092872533954E+00    8.3576913350495250E+00    3.2607329345216458E+00
N    4.8185314046889314E+00    8.4097737455822639E+00    5.2289644223858192E+00
Ga    4.8411843670891486E+00    1.0281559430530141E+01    5.7809751558496441E+00
N    4.8303448783022240E+00    1.0269955475024247E+01    7.7804254926929852E+00
Ga    4.8122702018497074E+00    8.4119690396249922E+00    8.4165854364213377E+00
N    4.8132969433091697E+00    8.4119185698167467E+00    1.0412228912619357E+01
Ga    4.8372142021725972E+00    1.0270453864542320E+01    1.1048151218432809E+01
N    4.8534998868063122E+00    1.0281521376112467E+01    1.3043492135599079E+01
Ga    4.8146231008106621E+00    8.4145123023955914E+00    1.3602823235575547E+01
N    4.8439043382673104E+00    8.4038997519096625E+00    1.5562083914682651E+01
Ga    4.6527297230247893E+00    1.0169605113727096E+01    1.6471463741630924E+01
O   -3.3935125234367695E-02    3.5882270669894876E+00   -5.6472072595639500E-01
H    4.2583946048096355E-01    4.3410245572832711E+00   -9.9284342938521297E-01
C    5.3095470137420075E-01    2.3141511553005825E+00   -1.0606314622724811E+00
H    1.6347717951766796E+00    2.3250861556940241E+00   -1.0136480583285359E+00
H    1.3812860964779014E-01    1.5356783763889643E+00   -3.8473974124389093E-01
H    1.6869737827986350E-01    2.1638213810443800E+00   -2.0996124665691318E+00
     &END COORD
     &KIND C
       BASIS_SET DZVP-MOLOPT-SR-GTH-q4
       POTENTIAL GTH-PBE-q4
       &POTENTIAL
 2 2
  0.3384712400000000E+00 2 -0.8803673979999999E+01  0.1339210850000000E+01
 2
  0.3025757500000000E+00 1  0.9622486650000001E+01
  0.2915069400000000E+00 0
         # Potential name:  GTH-PBE-Q4  for symbol:  C
         # Potential read from the potential filename: GTH_POTENTIALS
       &END POTENTIAL
     &END KIND
     &KIND O
       BASIS_SET DZVP-MOLOPT-SR-GTH-q6
       POTENTIAL GTH-PBE-q6
       &POTENTIAL
 2 4
  0.2445543000000000E+00 2 -0.1666721480000000E+02  0.2487311320000000E+01
 2
  0.2209559200000000E+00 1  0.1833745811000000E+02
  0.2113324700000000E+00 0
         # Potential name:  GTH-PBE-Q6  for symbol:  O
         # Potential read from the potential filename: GTH_POTENTIALS
       &END POTENTIAL
     &END KIND
     &KIND H
       BASIS_SET DZVP-MOLOPT-SR-GTH-q1
       POTENTIAL GTH-PBE-q1
       &POTENTIAL
 1
  0.2000000000000000E+00 2 -0.4178900440000000E+01  0.7244633100000000E+00
 0
         # Potential name:  GTH-PBE-Q1  for symbol:  H
         # Potential read from the potential filename: GTH_POTENTIALS
       &END POTENTIAL
     &END KIND
     &KIND N
       BASIS_SET DZVP-MOLOPT-SR-GTH
       POTENTIAL GTH-PBE-q5
       &POTENTIAL
 2 3
  0.2837905100000000E+00 2 -0.1241522559000000E+02  0.1868095920000000E+01
 2
  0.2554050000000000E+00 1  0.1363026257000000E+02
  0.2454945300000000E+00 0
         # Potential name:  GTH-PBE-Q5  for symbol:  N
         # Potential read from the potential filename: GTH_POTENTIALS
       &END POTENTIAL
     &END KIND
     &KIND Ga
       BASIS_SET DZVP-MOLOPT-SR-GTH
       POTENTIAL GTH-PBE-q13
       &POTENTIAL
 2 1 10
  0.4900000000000000E+00 0
 3
  0.4167772300000000E+00 3  0.1047568975000000E+02 -0.4921768140000000E+01  0.8707055900000000E+00
  0.7770178090000000E+01 -0.2248152160000000E+01
  0.1784415450000000E+01
  0.5696265200000000E+00 2  0.1777985340000000E+01  0.1958597600000000E+00
 -0.2317443900000000E+00
  0.2381265000000000E+00 1 -0.1624868022000000E+02
         # Potential name:  GTH-PBE-Q13  for symbol:  GA
         # Potential read from the potential filename: GTH_POTENTIALS
       &END POTENTIAL
     &END KIND
     &TOPOLOGY
       NUMBER_OF_ATOMS  206
       MULTIPLE_UNIT_CELL  1 1 1
     &END TOPOLOGY
   &END SUBSYS
 &END FORCE_EVAL
