 # Version information for this restart file 
 # current date 2019-06-24 15:53:57.522
 # current working dir /scratch/rzk/rzk/GaN-carbene/443-adatoms-both-2x2/02-Methanol/01-O-GaTop
 # Program compiled at                              Sun Apr  7 00:48:11 EDT 2019
 # Program compiled on                          beluga2.int.ets1.calculquebec.ca
 # Program compiled for                        Beluga-Linux-x86-64-intel-openmpi
 # Source code revision number                                         svn:18619
 &GLOBAL
   PRINT_LEVEL  MEDIUM
   PROJECT_NAME TEST
   RUN_TYPE  GEO_OPT
 &END GLOBAL
 &MOTION
   &GEO_OPT
     MAX_ITER  500
     STEP_START_VAL  70
   &END GEO_OPT
 &END MOTION
 &FORCE_EVAL
   METHOD  QS
   STRESS_TENSOR  ANALYTICAL
   &DFT
     BASIS_SET_FILE_NAME BASIS_MOLOPT
     POTENTIAL_FILE_NAME GTH_POTENTIALS
     UKS  T
     SURFACE_DIPOLE_CORRECTION  T
     SURF_DIP_DIR  Z
     &SCF
       MAX_SCF  80
       EPS_SCF     5.0000000000000004E-06
       &OT  T
         PRECONDITIONER  FULL_ALL
       &END OT
       &OUTER_SCF  T
         OPTIMIZER  NONE
         EPS_SCF     5.0000000000000004E-06
         MAX_SCF  4
       &END OUTER_SCF
       &PRINT
         &RESTART  OFF
           BACKUP_COPIES  1
           &EACH
             JUST_ENERGY  0
             QS_SCF  0
             MD  20
           &END EACH
         &END RESTART
       &END PRINT
     &END SCF
     &QS
       EPS_DEFAULT     1.0000000000000000E-14
       METHOD  GPW
     &END QS
     &MGRID
       NGRIDS  5
       CUTOFF     1.2000000000000000E+03
     &END MGRID
     &XC
       DENSITY_CUTOFF     1.0000000000000000E-10
       GRADIENT_CUTOFF     1.0000000000000000E-10
       TAU_CUTOFF     1.0000000000000000E-10
       &XC_FUNCTIONAL  NO_SHORTCUT
         &PBE  T
         &END PBE
       &END XC_FUNCTIONAL
       &VDW_POTENTIAL
         POTENTIAL_TYPE  PAIR_POTENTIAL
         &PAIR_POTENTIAL
           R_CUTOFF     1.0000000000000005E+01
           TYPE  DFTD3
           PARAMETER_FILE_NAME dftd3.dat
           REFERENCE_FUNCTIONAL PBE
           EPS_CN     9.9999999999999995E-07
           CALCULATE_C9_TERM  T
           REFERENCE_C9_TERM  T
           LONG_RANGE_CORRECTION  F
           VERBOSE_OUTPUT  F
         &END PAIR_POTENTIAL
       &END VDW_POTENTIAL
     &END XC
   &END DFT
   &SUBSYS
     &CELL
       A     1.2864472766435110E+01    0.0000000000000000E+00    0.0000000000000000E+00
       B    -6.4322363581020028E+00    1.1140960178524475E+01    0.0000000000000000E+00
       C     0.0000000000000000E+00    0.0000000000000000E+00    3.2000000000000000E+01
       MULTIPLE_UNIT_CELL  1 1 1
       &CELL_REF
         A     1.2982353780853531E+01    0.0000000000000000E+00    0.0000000000000000E+00
         B    -6.4911768904267628E+00    1.1243048175136114E+01    0.0000000000000000E+00
         C     0.0000000000000000E+00    0.0000000000000000E+00    3.2000000000000000E+01
         MULTIPLE_UNIT_CELL  1 1 1
       &END CELL_REF
     &END CELL
     &COORD
N   -3.4695218428679203E-02    2.0440488680761009E+00    2.5479197759922689E+00
Ga   -3.0918898700433420E-02    7.2020240398342122E-02    2.8836251280565826E+00
N   -2.4297749881426561E-02    5.5599866703480882E-02    5.0253308144038735E+00
Ga   -2.3081027085184506E-02    1.8837962676836468E+00    5.8194218380892568E+00
N   -1.9020133543447133E-02    1.8949343091627702E+00    7.8102803929757840E+00
Ga   -1.6768886600759321E-02    4.8160463670026597E-02    8.4586265449752869E+00
N   -1.8288472698231542E-02    4.6478883827753115E-02    1.0426830343439709E+01
Ga   -1.9183087313061554E-02    1.8863020630491310E+00    1.1086214953580900E+01
N   -2.3973688352665466E-02    1.8718444188423835E+00    1.3072751061186036E+01
Ga   -2.3599751688641007E-02    5.3237583505169730E-02    1.3886972330792551E+01
N   -2.9021868082822332E-02    6.4435511835572432E-02    1.6076803822358073E+01
Ga   -3.0798382099068669E-02    2.1194082180917238E+00    1.6493680376845550E+01
Ga   -3.4662842913462062E-02    3.7465121347845032E+00    1.5226336526247350E+00
N   -1.5156438555519272E+00    4.6269919566092099E+00    2.5142155767387484E+00
Ga   -1.7317374673164270E+00    2.7846366361798425E+00    3.3244272863013875E+00
N   -1.6357414062979039E+00    2.8397650284730660E+00    5.2784415750801781E+00
Ga   -1.6522148175564342E+00    4.7132582029018950E+00    5.8184045498437769E+00
N   -1.6371245986098062E+00    4.7001722236660388E+00    7.8102247782403076E+00
Ga   -1.6174836496894329E+00    2.8417912172761737E+00    8.4566215250744374E+00
N   -1.6165118511594219E+00    2.8405568515156476E+00    1.0441946634340614E+01
Ga   -1.6448798292945592E+00    4.7013306922897780E+00    1.1086851556152491E+01
N   -1.6646536281407460E+00    4.7144568489502108E+00    1.3072751873050064E+01
Ga   -1.6235909461165015E+00    2.8439414100390352E+00    1.3631314375147396E+01
N   -1.6578793925999489E+00    2.8339418678446004E+00    1.5585454527437625E+01
Ga   -1.4721246811689452E+00    4.6102141100763179E+00    1.6492053811679341E+01
N   -3.1537631500545060E-02    3.7838440003646254E+00    1.7611567036173795E+01
N   -3.2434307798472868E+00    7.6097025490127370E+00    2.5150596794426012E+00
Ga   -3.2322465673717438E+00    5.6266628926502449E+00    2.8564986583406426E+00
N   -3.2347143058954408E+00    5.6242529968785009E+00    5.0147560862757716E+00
Ga   -3.2372991915769593E+00    7.4547326179202216E+00    5.7991698383193615E+00
N   -3.2354816142068494E+00    7.4670841125951650E+00    7.7933493251940451E+00
Ga   -3.2356833846382718E+00    5.6239775467581419E+00    8.4581283853512428E+00
N   -3.2375504107522555E+00    5.6207595746117542E+00    1.0426336396476099E+01
Ga   -3.2375682229223717E+00    7.4597846931235985E+00    1.1084275312508066E+01
N   -3.2398829640761195E+00    7.4447094321361682E+00    1.3074136713987951E+01
Ga   -3.2416899071179994E+00    5.6255786586605323E+00    1.3891926270735228E+01
N   -3.2454617850762379E+00    5.6312669705779186E+00    1.6078070675070801E+01
Ga   -3.2446103670946664E+00    7.6736928893091667E+00    1.6497339734339374E+01
Ga   -3.2407390100550577E+00    9.3410674700931686E+00    1.4722595310872286E+00
N   -4.7477832103764577E+00    1.0218220122094275E+01    2.5088996344992829E+00
Ga   -4.9487243470082962E+00    8.3633029053717145E+00    3.2797433493463730E+00
N   -4.8468495227019943E+00    8.4123339941939523E+00    5.2428164264845920E+00
Ga   -4.8686764575839234E+00    1.0281828306057175E+01    5.8034227653109562E+00
N   -4.8515440648524777E+00    1.0268823739102276E+01    7.7956166102522326E+00
Ga   -4.8320551010118900E+00    8.4120532063774753E+00    8.4440856203684866E+00
N   -4.8320124371034048E+00    8.4111290034710695E+00    1.0432964629920566E+01
Ga   -4.8574588360845610E+00    1.0268033092600433E+01    1.1083678932965876E+01
N   -4.8774975505795952E+00    1.0283562563866649E+01    1.3073548724969465E+01
Ga   -4.8375195316560911E+00    8.4151625947921413E+00    1.3637121442757799E+01
N   -4.8657875493987683E+00    8.4090800309921807E+00    1.5596265233543546E+01
Ga   -4.6944344749802687E+00    1.0183794413957539E+01    1.6497721562150776E+01
N   -3.2452582876827418E+00    9.3520750832832018E+00    1.7641611409800880E+01
N    3.1710960099963192E+00    1.9264795592750994E+00    2.5865208450523292E+00
Ga    3.1846954216286361E+00    1.7675776847021632E-01    3.2792003658326463E+00
N    3.1923007978569795E+00    6.1867633412224073E-02    5.2410325776618771E+00
Ga    3.1927691317717160E+00    1.9098021102498657E+00    5.8969293197900461E+00
N    3.1980039939164997E+00    1.9060798140978858E+00    7.8614091570000388E+00
Ga    3.1975077810455801E+00    3.6432200178944413E-02    8.4496286898515596E+00
N    3.1963038481498094E+00    3.5338440144106108E-02    1.0436278041169253E+01
Ga    3.1980532656558962E+00    1.9052630118329894E+00    1.1038658431465985E+01
N    3.1941178622136821E+00    1.9092651168374757E+00    1.3003686683427579E+01
Ga    3.1932345289791777E+00    4.2128950924879512E-02    1.3636732350846660E+01
N    3.1881831589924219E+00    7.6455427940499809E-02    1.5595856431870804E+01
Ga    3.1878757296469806E+00    1.9166276709970353E+00    1.5877092232248879E+01
N    1.4694958588834897E+00    4.6369684576136878E+00    2.5222988672250883E+00
Ga    1.6703170226206028E+00    2.7972171277277167E+00    3.3220121673315117E+00
N    1.5891876625342416E+00    2.8390753331486733E+00    5.2735868193144864E+00
Ga    1.6057265400358154E+00    4.7129209951175852E+00    5.8177830224166502E+00
N    1.5979462695198425E+00    4.6996527397262859E+00    7.8087042752691405E+00
Ga    1.5792439113494805E+00    2.8412108784655943E+00    8.4556462703764836E+00
N    1.5780213502975124E+00    2.8403766529725569E+00    1.0441013865050449E+01
Ga    1.6054691496316711E+00    4.7009632267225063E+00    1.1087349643079273E+01
N    1.6168494203019450E+00    4.7142187459625813E+00    1.3073126563818928E+01
Ga    1.5746417343295553E+00    2.8437673515613033E+00    1.3630700916996597E+01
N    1.5978860346054256E+00    2.8327879786406851E+00    1.5585958632966580E+01
Ga    1.4101632503567898E+00    4.6086981850253581E+00    1.6491226779784785E+01
N   -2.7349368901798871E-02    7.4816729533929269E+00    2.6046690431300519E+00
Ga   -1.9365084012546222E-02    5.7388142779003530E+00    3.2979524031545067E+00
N   -2.3670519165532186E-02    5.6300946628016524E+00    5.2602011599612153E+00
Ga   -2.6099007190978307E-02    7.4828484108721183E+00    5.8885121720165561E+00
N   -2.1120994427249417E-02    7.4800807036752435E+00    7.8569977136081741E+00
Ga   -1.9731841939881249E-02    5.6119571631760108E+00    8.4563734119519047E+00
N   -1.9521465133515555E-02    5.6085821671713374E+00    1.0442640863230386E+01
Ga   -2.1701189249397720E-02    7.4798669614448920E+00    1.1039931524343322E+01
N   -2.4168342764011225E-02    7.4842119932035294E+00    1.3005528039570223E+01
Ga   -2.4242888613149875E-02    5.6134248642309030E+00    1.3629371131062321E+01
N   -2.9823091243031230E-02    5.6574924241810018E+00    1.5583791589623006E+01
Ga   -2.8594049816108229E-02    7.4917336765350768E+00    1.5868904453358674E+01
N   -1.7444621545436354E+00    1.0215139107946641E+01    2.5165278704992873E+00
Ga   -1.5371038421092900E+00    8.3578925376867854E+00    3.2815878219734960E+00
N   -1.6295766179558155E+00    8.4118570229180438E+00    5.2446433742302796E+00
Ga   -1.6095430770296071E+00    1.0281648784449549E+01    5.8004950048116859E+00
N   -1.6192457803784823E+00    1.0269187892190752E+01    7.7942146739019753E+00
Ga   -1.6398084115057523E+00    8.4134063105064971E+00    8.4470376705546748E+00
N   -1.6411518390901232E+00    8.4121589076062158E+00    1.0435358502185405E+01
Ga   -1.6140329999096226E+00    1.0270578545758841E+01    1.1082934296778998E+01
N   -1.5996830383102003E+00    1.0284871315412181E+01    1.3072422838650663E+01
Ga   -1.6445863254101099E+00    8.4174210798385225E+00    1.3636035849449442E+01
N   -1.6236962504478458E+00    8.4095576970171546E+00    1.5595746102270107E+01
Ga   -1.7937283869180807E+00    1.0183998871619510E+01    1.6501372197543649E+01
N    6.4000624254043661E+00    2.0432846178199817E+00    2.5323143659777512E+00
Ga    6.4024107459466686E+00    6.0586313028359241E-02    2.8698393671024962E+00
N    6.4084115896305587E+00    5.7105964688017298E-02    5.0188236588133996E+00
Ga    6.4058836793722715E+00    1.8849690552865508E+00    5.8105241574516642E+00
N    6.4107708411005948E+00    1.8974544637333355E+00    7.8012570683248850E+00
Ga    6.4098065613488542E+00    5.0695472447531455E-02    8.4548401473387074E+00
N    6.4109477193912801E+00    4.9983109388443019E-02    1.0424126605656696E+01
Ga    6.4112642960127149E+00    1.8893497567637663E+00    1.1083331543662934E+01
N    6.4077677077374453E+00    1.8721660664805482E+00    1.3072357369888538E+01
Ga    6.4074536960319044E+00    5.4627709637404855E-02    1.3886935433479197E+01
N    6.4035772466914445E+00    6.3873283760969096E-02    1.6085237675251761E+01
Ga    6.4018065895198548E+00    2.1206725753394839E+00    1.6508028498302810E+01
Ga    6.4077618992184489E+00    3.7772458526902666E+00    1.5127779625480964E+00
N    4.8981104200597620E+00    4.6427775869549475E+00    2.5283826032588839E+00
Ga    4.6865820351286365E+00    2.7878859655121211E+00    3.2935773623306308E+00
N    4.7936861305871812E+00    2.8389090317534382E+00    5.2511852221435671E+00
Ga    4.7766594907923468E+00    4.7113620854506149E+00    5.8106593112620004E+00
N    4.7952591088030685E+00    4.6987358140707771E+00    7.8006451636806249E+00
Ga    4.8150889373018844E+00    2.8424298132240291E+00    8.4530903267919566E+00
N    4.8162604495738455E+00    2.8426022233111587E+00    1.0438640059331453E+01
Ga    4.7907846051074845E+00    4.7016836465987506E+00    1.1084653723708215E+01
N    4.7696609405851085E+00    4.7137366253903483E+00    1.3073742349090834E+01
Ga    4.8115651148118355E+00    2.8447178912251325E+00    1.3634524515612361E+01
N    4.7772416860765468E+00    2.8338346231699743E+00    1.5591304536454119E+01
Ga    4.9639795641780493E+00    4.6069655940518448E+00    1.6501814779179497E+01
N    6.3998448525804799E+00    3.7827408319627893E+00    1.7640344869220904E+01
N    3.1855411250039847E+00    7.6124910834892132E+00    2.5308450654160852E+00
Ga    3.1729595706582563E+00    5.6280766835353786E+00    2.8878558519244049E+00
N    3.1911452602887471E+00    5.6276576619764711E+00    5.0255792063463689E+00
Ga    3.1909119169807165E+00    7.4569545555839110E+00    5.8113609702713491E+00
N    3.1953855267477547E+00    7.4680116589334951E+00    7.8020434901252074E+00
Ga    3.1973222212666266E+00    5.6221150114520597E+00    8.4585367841160615E+00
N    3.1980596616972168E+00    5.6199264759950198E+00    1.0426098311616277E+01
Ga    3.1974781030675183E+00    7.4587390847264965E+00    1.1084060528812444E+01
N    3.1924162884175962E+00    7.4445440133408525E+00    1.3072571374311385E+01
Ga    3.1929547083463632E+00    5.6250093819334763E+00    1.3893170550859145E+01
N    3.1866762785458436E+00    5.6309533820527484E+00    1.6072606498492537E+01
Ga    3.1870102554373947E+00    7.6744725583523854E+00    1.6488738897789926E+01
Ga    3.1842527851505174E+00    9.3494725177570448E+00    1.5085013025829777E+00
N    1.6851210013690776E+00    1.0213599271031896E+01    2.5310862374115057E+00
Ga    1.4757037873871213E+00    8.3568661354394163E+00    3.2967456718808692E+00
N    1.5809445977282874E+00    8.4110777222779642E+00    5.2560199415907300E+00
Ga    1.5594440791731961E+00    1.0281259386434350E+01    5.8116250282827586E+00
N    1.5770979348428977E+00    1.0269570556073438E+01    7.8032427386016323E+00
Ga    1.5968570147722265E+00    8.4129332289663985E+00    8.4517520840712752E+00
N    1.5997680134198144E+00    8.4117760861337434E+00    1.0438689993762182E+01
Ga    1.5717857807417206E+00    1.0271466053208483E+01    1.1082490726343734E+01
N    1.5517120450576658E+00    1.0285114343184951E+01    1.3070848777869902E+01
Ga    1.5960254848061135E+00    8.4171109440572280E+00    1.3631665368315565E+01
N    1.5661842316412236E+00    8.4096032426327305E+00    1.5590714077568379E+01
Ga    1.7356574664592550E+00    1.0184222065832612E+01    1.6494093168415876E+01
N    3.1853927358916478E+00    9.3512859010936751E+00    1.7635702735005300E+01
N    9.6231991783575968E+00    1.9219085410189838E+00    2.6221307781987635E+00
Ga    9.6187871383194139E+00    1.7887423955047702E-01    3.3037523146662520E+00
N    9.6238330074167795E+00    5.8643269886437192E-02    5.2623209684500845E+00
Ga    9.6231444458546527E+00    1.9126689285837015E+00    5.9014855347818349E+00
N    9.6263003883580982E+00    1.9077078077134837E+00    7.8666542212450628E+00
Ga    9.6276919416823610E+00    3.8232523731840808E-02    8.4545046134882824E+00
N    9.6285615826845650E+00    3.6196023428216068E-02    1.0440168697303537E+01
Ga    9.6259912651732318E+00    1.9075621612329248E+00    1.1039295376046883E+01
N    9.6215637043455935E+00    1.9102334960402816E+00    1.3003752063639743E+01
Ga    9.6229430298106884E+00    4.2605202338335570E-02    1.3632879825175007E+01
N    9.6183721900149663E+00    7.7358243688411349E-02    1.5592105313292132E+01
Ga    9.6166882274585710E+00    1.9174551338512844E+00    1.5874568269084456E+01
N    7.9064608997500043E+00    4.6432463509882327E+00    2.5322458157091434E+00
Ga    8.1130698051009649E+00    2.7889147697607615E+00    3.3052229997052063E+00
N    8.0167757711255927E+00    2.8406970022656188E+00    5.2628202698391284E+00
Ga    8.0441377602196784E+00    4.7140602701325571E+00    5.8091004670612199E+00
N    8.0310588151142639E+00    4.7007290215696811E+00    7.8005837706837475E+00
Ga    8.0081912369450858E+00    2.8440199309025673E+00    8.4529738466409245E+00
N    8.0069197375821375E+00    2.8432297612495945E+00    1.0438869786091775E+01
Ga    8.0334760372205967E+00    4.7024352143016666E+00    1.1084549438891941E+01
N    8.0470562258626295E+00    4.7144566065648483E+00    1.3074143357140334E+01
Ga    8.0026584465912443E+00    2.8456748701587475E+00    1.3634703912477010E+01
N    8.0272512262157960E+00    2.8345235907359450E+00    1.5592542098817155E+01
Ga    7.8385833037425252E+00    4.6067242851169983E+00    1.6504932890474031E+01
N    6.4016126536906484E+00    7.4908752462734691E+00    2.6080892836763616E+00
Ga    6.4030744431471227E+00    5.7518925050862242E+00    3.2980414207958550E+00
N    6.4087882819821047E+00    5.6292086127911212E+00    5.2553607848741573E+00
Ga    6.4110951469358506E+00    7.4865192036409649E+00    5.8819696039020508E+00
N    6.4131735803646004E+00    7.4802321193852386E+00    7.8507119554850382E+00
Ga    6.4134678437546482E+00    5.6121864755234832E+00    8.4472389498362723E+00
N    6.4122648167023630E+00    5.6086146485340533E+00    1.0435665331672258E+01
Ga    6.4137445657405063E+00    7.4778500799328516E+00    1.1036844903536963E+01
N    6.4088646714585655E+00    7.4822306729177219E+00    1.3004276622641548E+01
Ga    6.4078052044558467E+00    5.6136643358135547E+00    1.3634743690923258E+01
N    6.4027774344306447E+00    5.6565682267272299E+00    1.5591916297262879E+01
Ga    6.4040503153901023E+00    7.4908709722131874E+00    1.5875840803404943E+01
N    4.6871878358938996E+00    1.0215637605248208E+01    2.5307116544477535E+00
Ga    4.8945335270651844E+00    8.3607934123531660E+00    3.2970812477215792E+00
N    4.8005082346053172E+00    8.4123205701085482E+00    5.2563497561817254E+00
Ga    4.8243887556351499E+00    1.0282430515642611E+01    5.8135257509407250E+00
N    4.8141196608610430E+00    1.0269883851323113E+01    7.8039916587521079E+00
Ga    4.7953503041783812E+00    8.4123483008637194E+00    8.4488232024316030E+00
N    4.7937840389207036E+00    8.4109647373308452E+00    1.0436485545547493E+01
Ga    4.8197387661552034E+00    1.0269233779025829E+01    1.1083741205559727E+01
N    4.8308979901083031E+00    1.0284364350424875E+01    1.3072776655357744E+01
Ga    4.7897208590892788E+00    8.4153769896277861E+00    1.3632513723480049E+01
N    4.8094905637409413E+00    8.4088218120632980E+00    1.5592072453180947E+01
Ga    4.6350587127482079E+00    1.0182956952141552E+01    1.6492187945738863E+01
O    9.3577013583848700E-01    3.3950174961797126E+00   -3.2458892354310415E-01
H    1.7377087098975992E+00    3.9563538210026099E+00   -1.7006243036794835E-01
C    1.4034441435596379E+00    1.9936217646694305E+00   -4.6472035061382166E-01
H    2.0869914611018854E+00    1.7353336474762870E+00    3.7202643755067855E-01
H    4.9352120764630264E-01    1.3700529359547875E+00   -4.2697029587202917E-01
H    1.8804693091495137E+00    1.9045884403098985E+00   -1.4487649182584543E+00
     &END COORD
     &KIND C
       BASIS_SET DZVP-MOLOPT-SR-GTH-q4
       POTENTIAL GTH-PBE-q4
       &POTENTIAL
2 2
0.3384712400000000E+00 2 -0.8803673979999999E+01  0.1339210850000000E+01
2
0.3025757500000000E+00 1  0.9622486650000001E+01
0.2915069400000000E+00 0
       &END POTENTIAL
     &END KIND
     &KIND O
       BASIS_SET DZVP-MOLOPT-SR-GTH-q6
       POTENTIAL GTH-PBE-q6
       &POTENTIAL
2 4
0.2445543000000000E+00 2 -0.1666721480000000E+02  0.2487311320000000E+01
2
0.2209559200000000E+00 1  0.1833745811000000E+02
0.2113324700000000E+00 0
       &END POTENTIAL
     &END KIND
     &KIND H
       BASIS_SET DZVP-MOLOPT-SR-GTH-q1
       POTENTIAL GTH-PBE-q1
       &POTENTIAL
1
0.2000000000000000E+00 2 -0.4178900440000000E+01  0.7244633100000000E+00
0
       &END POTENTIAL
     &END KIND
     &KIND N
       BASIS_SET DZVP-MOLOPT-SR-GTH
       POTENTIAL GTH-PBE-q5
       &POTENTIAL
2 3
0.2837905100000000E+00 2 -0.1241522559000000E+02  0.1868095920000000E+01
2
0.2554050000000000E+00 1  0.1363026257000000E+02
0.2454945300000000E+00 0
       &END POTENTIAL
     &END KIND
     &KIND Ga
       BASIS_SET DZVP-MOLOPT-SR-GTH
       POTENTIAL GTH-PBE-q13
       &POTENTIAL
2 1 10
0.4900000000000000E+00 0
3
0.4167772300000000E+00 3  0.1047568975000000E+02 -0.4921768140000000E+01  0.8707055900000000E+00
0.7770178090000000E+01 -0.2248152160000000E+01
0.1784415450000000E+01
0.5696265200000000E+00 2  0.1777985340000000E+01  0.1958597600000000E+00
-0.2317443900000000E+00
0.2381265000000000E+00 1 -0.1624868022000000E+02
       &END POTENTIAL
     &END KIND
     &TOPOLOGY
       NUMBER_OF_ATOMS  206
       MULTIPLE_UNIT_CELL  1 1 1
     &END TOPOLOGY
   &END SUBSYS
 &END FORCE_EVAL
