 # Version information for this restart file 
 # current date 2019-06-24 11:04:23.251
 # current working dir /scratch/rzk/rzk/GaN-carbene/443-adatoms-both-2x2/02-Methanol/01-O-GaTop
 # Program compiled at                              Sun Apr  7 00:48:11 EDT 2019
 # Program compiled on                          beluga2.int.ets1.calculquebec.ca
 # Program compiled for                        Beluga-Linux-x86-64-intel-openmpi
 # Source code revision number                                         svn:18619
 &GLOBAL
   PRINT_LEVEL  MEDIUM
   PROJECT_NAME TEST
   RUN_TYPE  GEO_OPT
 &END GLOBAL
 &MOTION
   &GEO_OPT
     MAX_ITER  500
     STEP_START_VAL  25
   &END GEO_OPT
 &END MOTION
 &FORCE_EVAL
   METHOD  QS
   STRESS_TENSOR  ANALYTICAL
   &DFT
     BASIS_SET_FILE_NAME BASIS_MOLOPT
     POTENTIAL_FILE_NAME GTH_POTENTIALS
     UKS  T
     SURFACE_DIPOLE_CORRECTION  T
     SURF_DIP_DIR  Z
     &SCF
       MAX_SCF  80
       EPS_SCF     5.0000000000000004E-06
       &OT  T
         PRECONDITIONER  FULL_ALL
       &END OT
       &OUTER_SCF  T
         OPTIMIZER  NONE
         EPS_SCF     5.0000000000000004E-06
         MAX_SCF  4
       &END OUTER_SCF
       &PRINT
         &RESTART  OFF
           BACKUP_COPIES  1
           &EACH
             JUST_ENERGY  0
             QS_SCF  0
             MD  20
           &END EACH
         &END RESTART
       &END PRINT
     &END SCF
     &QS
       EPS_DEFAULT     1.0000000000000000E-14
       METHOD  GPW
     &END QS
     &MGRID
       NGRIDS  5
       CUTOFF     1.2000000000000000E+03
     &END MGRID
     &XC
       DENSITY_CUTOFF     1.0000000000000000E-10
       GRADIENT_CUTOFF     1.0000000000000000E-10
       TAU_CUTOFF     1.0000000000000000E-10
       &XC_FUNCTIONAL  NO_SHORTCUT
         &PBE  T
         &END PBE
       &END XC_FUNCTIONAL
       &VDW_POTENTIAL
         POTENTIAL_TYPE  PAIR_POTENTIAL
         &PAIR_POTENTIAL
           R_CUTOFF     1.0000000000000004E+01
           TYPE  DFTD3
           PARAMETER_FILE_NAME dftd3.dat
           REFERENCE_FUNCTIONAL PBE
           EPS_CN     9.9999999999999995E-07
           CALCULATE_C9_TERM  T
           REFERENCE_C9_TERM  T
           LONG_RANGE_CORRECTION  F
           VERBOSE_OUTPUT  F
         &END PAIR_POTENTIAL
       &END VDW_POTENTIAL
     &END XC
   &END DFT
   &SUBSYS
     &CELL
       A     1.2864472766435110E+01    0.0000000000000000E+00    0.0000000000000000E+00
       B    -6.4322363581020028E+00    1.1140960178524473E+01    0.0000000000000000E+00
       C     0.0000000000000000E+00    0.0000000000000000E+00    3.2000000000000000E+01
       MULTIPLE_UNIT_CELL  1 1 1
       &CELL_REF
         A     1.2982353780853531E+01    0.0000000000000000E+00    0.0000000000000000E+00
         B    -6.4911768904267628E+00    1.1243048175136114E+01    0.0000000000000000E+00
         C     0.0000000000000000E+00    0.0000000000000000E+00    3.2000000000000000E+01
         MULTIPLE_UNIT_CELL  1 1 1
       &END CELL_REF
     &END CELL
     &COORD
N    5.2011790149345755E-03    2.0438745271662873E+00    2.4554214713347000E+00
Ga    7.6839629641507609E-03    6.1267237232007901E-02    2.8209011874652741E+00
N    1.0516622304148274E-02    4.9750776129465775E-02    4.9666994293994469E+00
Ga    1.2206047334805020E-02    1.8786027901094524E+00    5.7603257694918293E+00
N    1.1982267195345722E-02    1.8955427208421698E+00    7.7535455117847158E+00
Ga    1.0855635650825942E-02    5.1280105520302162E-02    8.4083845685467775E+00
N    1.2004368536430290E-02    5.3663228140463211E-02    1.0378638348366144E+01
Ga    1.2067564623442868E-02    1.8933416943165711E+00    1.1035038756147824E+01
N    1.3174239365031513E-02    1.8722611741848663E+00    1.3025366353420258E+01
Ga    1.3437108225578948E-02    5.4028305051269508E-02    1.3846238245924209E+01
N    1.5518281893553398E-02    5.3431811131014306E-02    1.6037613697123888E+01
Ga    1.3670141963141954E-02    2.0962370057165036E+00    1.6452804222985716E+01
Ga   -1.9381338221421889E-02    3.7898770416873426E+00    1.5067351085247953E+00
N   -1.4877453351127288E+00    4.6325099567773211E+00    2.5089585047872105E+00
Ga   -1.6982620772112520E+00    2.7742754671177825E+00    3.2645821377537616E+00
N   -1.6011680533171200E+00    2.8297670207419992E+00    5.2207885788013373E+00
Ga   -1.6218524480070957E+00    4.7024905548924787E+00    5.7650476746741095E+00
N   -1.6071088621436509E+00    4.6977102297409079E+00    7.7570824861154959E+00
Ga   -1.5863310370256445E+00    2.8410960205384774E+00    8.4010959574866142E+00
N   -1.5840156782287447E+00    2.8444953217608009E+00    1.0390250437382054E+01
Ga   -1.6107331719301035E+00    4.7028317644197530E+00    1.1035372331554358E+01
N   -1.6293104688658901E+00    4.7153642827949058E+00    1.3024109337737833E+01
Ga   -1.5831557685301065E+00    2.8466983560455081E+00    1.3587886239527007E+01
N   -1.6071205282381522E+00    2.8306203611665008E+00    1.5547319997789771E+01
Ga   -1.4298157048596940E+00    4.5999765475588177E+00    1.6452447081299606E+01
N    1.7809989602644242E-02    3.7644878921446976E+00    1.7598205378750404E+01
N   -3.2045544794470406E+00    7.5954890197820362E+00    2.4874504762729259E+00
Ga   -3.1981955725462754E+00    5.6104279448381735E+00    2.8311681288468047E+00
N   -3.2057944239175606E+00    5.6171555137483962E+00    4.9760321313340548E+00
Ga   -3.2057808575161135E+00    7.4459457072780717E+00    5.7603896395706613E+00
N   -3.2041899772221125E+00    7.4655861108942574E+00    7.7532322337994577E+00
Ga   -3.2049461252720106E+00    5.6201509659068014E+00    8.4101366942801903E+00
N   -3.2037307170806586E+00    5.6224951938662002E+00    1.0380094527001996E+01
Ga   -3.2046470714598674E+00    7.4619995303855973E+00    1.1036731158364573E+01
N   -3.2038205476691770E+00    7.4420594189567941E+00    1.3024817871434447E+01
Ga   -3.2028218813456828E+00    5.6233850517613488E+00    1.3846796591163514E+01
N   -3.2017296235652180E+00    5.6215492780686596E+00    1.6035643840987898E+01
Ga   -3.2014807524918250E+00    7.6698466373459420E+00    1.6448986597751389E+01
Ga   -3.2043858598678119E+00    9.3281396365023372E+00    1.4642908572470059E+00
N   -4.7105052545117543E+00    1.0199598960916308E+01    2.4804035053810454E+00
Ga   -4.9159904791177560E+00    8.3421969276234815E+00    3.2480718488129261E+00
N   -4.8162968605107110E+00    8.4019352251129735E+00    5.2077387536879556E+00
Ga   -4.8381660996002287E+00    1.0275112599045599E+01    5.7563295336028162E+00
N   -4.8234894664976045E+00    1.0269283522133469E+01    7.7497759678199305E+00
Ga   -4.8025339741257547E+00    8.4121825066863565E+00    8.4005354692932315E+00
N   -4.8003750160325644E+00    8.4151630423673343E+00    1.0388472073632924E+01
Ga   -4.8269211763760387E+00    1.0274079658105336E+01    1.1034658348090415E+01
N   -4.8439793348071030E+00    1.0285021805884350E+01    1.3024175088027997E+01
Ga   -4.8006090334656886E+00    8.4156255795261128E+00    1.3587390530014993E+01
N   -4.8314018260480269E+00    8.3987741974768291E+00    1.5545911044805182E+01
Ga   -4.6383406564925593E+00    1.0165514253703996E+01    1.6451998008865452E+01
N   -3.1953084860766143E+00    9.3305036585866326E+00    1.7573996730859694E+01
N    3.2206961151022466E+00    1.9057486493060751E+00    2.5567767168457642E+00
Ga    3.2238682996757939E+00    1.6577865077656317E-01    3.2468126563664601E+00
N    3.2270636962239947E+00    4.9785224792384578E-02    5.2061800889430057E+00
Ga    3.2240375803625061E+00    1.9054971049441791E+00    5.8399762854918382E+00
N    3.2274463983464212E+00    1.9063500233280648E+00    7.8078331533338607E+00
Ga    3.2267659310913444E+00    3.8742417519288044E-02    8.4012287403659371E+00
N    3.2277694918192505E+00    3.9766931687528609E-02    1.0389072543560998E+01
Ga    3.2275173619344266E+00    1.9095779220271880E+00    1.0989086503094237E+01
N    3.2283794580134475E+00    1.9098868733045660E+00    1.2954594925050268E+01
Ga    3.2288590305386142E+00    4.1603287110180562E-02    1.3587955452315649E+01
N    3.2286966295460959E+00    7.6081252007633979E-02    1.5546968594311192E+01
Ga    3.2280140300192861E+00    1.9124811266014270E+00    1.5832425702526647E+01
N    1.4953591631116523E+00    4.6289505846085319E+00    2.4738949946557929E+00
Ga    1.7106767160888159E+00    2.7774524235404217E+00    3.2438092206001365E+00
N    1.6214063201008810E+00    2.8311336991789005E+00    5.2075369298026555E+00
Ga    1.6437684347138790E+00    4.7007057737863542E+00    5.7629859633239517E+00
N    1.6297577544061266E+00    4.6968479822074585E+00    7.7553208084318612E+00
Ga    1.6092742352043583E+00    2.8407678605134392E+00    8.4014840281702412E+00
N    1.6083940244067567E+00    2.8441320850198482E+00    1.0389900937927372E+01
Ga    1.6339950234740501E+00    4.7022576712895567E+00    1.1034808142120042E+01
N    1.6537487017605368E+00    4.7141721109964712E+00    1.3025093283415780E+01
Ga    1.6105106007148542E+00    2.8449547842360938E+00    1.3588910939744101E+01
N    1.6348181769137271E+00    2.8308441877714814E+00    1.5549158502228945E+01
Ga    1.4609622970822380E+00    4.6023666536026715E+00    1.6452417342212215E+01
N    1.1023135010538920E-02    7.4687307302316777E+00    2.5664976646878461E+00
Ga    9.8400166241747293E-03    5.7366182602151543E+00    3.2807651884290365E+00
N    1.1624087401143153E-02    5.6236403107285753E+00    5.2316653011904082E+00
Ga    1.2123449001327700E-02    7.4768369274461017E+00    5.8504543824721482E+00
N    1.1979851658909550E-02    7.4790643849971632E+00    7.8157884477948700E+00
Ga    1.1273571943722135E-02    5.6079545238352937E+00    8.4014214266775760E+00
N    1.1951009422919250E-02    5.6090865612951832E+00    1.0390527385523532E+01
Ga    1.2033687154917323E-02    7.4788539724031358E+00    1.0988768913192226E+01
N    1.2359236363671739E-02    7.4799349285469994E+00    1.2956622681221567E+01
Ga    1.2221390712075710E-02    5.6097467780052774E+00    1.3587748174087745E+01
N    1.3909634003837946E-02    5.6387334127532673E+00    1.5547456637241035E+01
Ga    1.8732829663533367E-02    7.4785587365319586E+00    1.5824951954087744E+01
N   -1.7044891118522254E+00    1.0197214928545080E+01    2.4860077553170501E+00
Ga   -1.4948177358521091E+00    8.3426713391258822E+00    3.2517173070322301E+00
N   -1.5942496750052519E+00    8.4006724063323581E+00    5.2111868326658177E+00
Ga   -1.5732315581733904E+00    1.0273470169218307E+01    5.7606905302471150E+00
N   -1.5870368125423733E+00    1.0268252681859314E+01    7.7532781832548352E+00
Ga   -1.6074902333948247E+00    8.4122976401129623E+00    8.4050428534957753E+00
N   -1.6076519097152386E+00    8.4147602101122683E+00    1.0392405865231277E+01
Ga   -1.5820338688128699E+00    1.0274294152135546E+01    1.1035862504976308E+01
N   -1.5624688775312539E+00    1.0285563161040763E+01    1.3024872516507951E+01
Ga   -1.6069044072814369E+00    8.4158260218689591E+00    1.3586625963177260E+01
N   -1.5717394945087886E+00    8.3963873116669152E+00    1.5546060018642860E+01
Ga   -1.7591768841150757E+00    1.0168691887771171E+01    1.6448095192704212E+01
N    6.4419345891996675E+00    2.0228480978275027E+00    2.4865068135044277E+00
Ga    6.4447685101756838E+00    4.4297526929156096E-02    2.8261652606929673E+00
N    6.4441020938792288E+00    4.5523942419776781E-02    4.9745288788603510E+00
Ga    6.4428516297493221E+00    1.8755596595755095E+00    5.7608057372770070E+00
N    6.4431456187695177E+00    1.8949501996354152E+00    7.7534714711789130E+00
Ga    6.4437341499423662E+00    4.9891938027011876E-02    8.4088130914819690E+00
N    6.4438929580364146E+00    5.2567572856208701E-02    1.0378985903481123E+01
Ga    6.4434774847802885E+00    1.8928110783405692E+00    1.1035487383204153E+01
N    6.4445470994371252E+00    1.8717387943752475E+00    1.3024533154357639E+01
Ga    6.4450332322351800E+00    5.4048916994974910E-02    1.3847981081812584E+01
N    6.4476631862619200E+00    5.4507321673911417E-02    1.6034591125690675E+01
Ga    6.4482449085736278E+00    2.1032863397321120E+00    1.6449472071035558E+01
Ga    6.4446221000397035E+00    3.7558769122852458E+00    1.4601714902503120E+00
N    4.9383453375455453E+00    4.6241729187793226E+00    2.4835239187113287E+00
Ga    4.7306365066557801E+00    2.7714633546321790E+00    3.2471618136427827E+00
N    4.8324678946258102E+00    2.8293858883504757E+00    5.2067056863676342E+00
Ga    4.8095899885077413E+00    4.7017597740318520E+00    5.7575037488586833E+00
N    4.8243234122589271E+00    4.6968878175247655E+00    7.7508937701746978E+00
Ga    4.8450848072302177E+00    2.8409952453857330E+00    8.4008783818449029E+00
N    4.8466569244949236E+00    2.8437313210859765E+00    1.0388636671137780E+01
Ga    4.8213278476529204E+00    4.7025341980195483E+00    1.1034570783161875E+01
N    4.8040062160152166E+00    4.7144548285618129E+00    1.3023952521830248E+01
Ga    4.8469218439793620E+00    2.8447142318842360E+00    1.3587677264538620E+01
N    4.8184252645074475E+00    2.8280700066359215E+00    1.5544853335745792E+01
Ga    5.0121931821288683E+00    4.5954501369048293E+00    1.6452549444589881E+01
N    6.4556270860051992E+00    3.7643589787184815E+00    1.7576851802569990E+01
N    3.2265188289600979E+00    7.5943308081763279E+00    2.4833059571358076E+00
Ga    3.2151863050753953E+00    5.6112123463194630E+00    2.8213034022152566E+00
N    3.2254354845378965E+00    5.6162569804777593E+00    4.9692273806229617E+00
Ga    3.2278317619963670E+00    7.4452363670189019E+00    5.7578130649790031E+00
N    3.2270820986971454E+00    7.4649971043208740E+00    7.7510689916500821E+00
Ga    3.2268398424926890E+00    5.6202630616890286E+00    8.4088219234256059E+00
N    3.2273022638437450E+00    5.6222355087283900E+00    1.0379079771756375E+01
Ga    3.2283262099221974E+00    7.4622555147487866E+00    1.1036378030356373E+01
N    3.2293804254932947E+00    7.4418030004402320E+00    1.3025491368523602E+01
Ga    3.2290973914988621E+00    5.6229514253492798E+00    1.3846125227305269E+01
N    3.2325183010461505E+00    5.6214209521630965E+00    1.6035701771373681E+01
Ga    3.2310931012059538E+00    7.6636650379778359E+00    1.6450445908552791E+01
Ga    3.2260520641945702E+00    9.3299109251233023E+00    1.4555489349308062E+00
N    1.7262836666124586E+00    1.0196018341931687E+01    2.4864817705586506E+00
Ga    1.5191215894069086E+00    8.3421340857811010E+00    3.2493173275376241E+00
N    1.6174576623003840E+00    8.4007009062604379E+00    5.2094074705171476E+00
Ga    1.5961771225725436E+00    1.0272590139833273E+01    5.7608449484674820E+00
N    1.6096041384873252E+00    1.0267888175220621E+01    7.7532769521896867E+00
Ga    1.6310681217320626E+00    8.4125547260048492E+00    8.4043534085262355E+00
N    1.6314828128651933E+00    8.4145733443185442E+00    1.0391950582154269E+01
Ga    1.6051042067740937E+00    1.0273969621032311E+01    1.1036595737845404E+01
N    1.5862593208158144E+00    1.0285977673158470E+01    1.3025031386576362E+01
Ga    1.6318762882064477E+00    8.4159019950370944E+00    1.3587651371924617E+01
N    1.6096923350925545E+00    8.4019734941653184E+00    1.5548012469864739E+01
Ga    1.7860485486225703E+00    1.0171714234761909E+01    1.6449314635345189E+01
N    3.2364810310634220E+00    9.3340203375037234E+00    1.7585915956686446E+01
N    9.6622530642586781E+00    1.9041157291286674E+00    2.5674033472616076E+00
Ga    9.6613218066610553E+00    1.6188824631100315E-01    3.2482303356116002E+00
N    9.6598895977409107E+00    4.8681697447390065E-02    5.2081594007172640E+00
Ga    9.6594657545370755E+00    1.9027943344661518E+00    5.8453950462595827E+00
N    9.6588502780629284E+00    1.9052407459997092E+00    7.8124547281273555E+00
Ga    9.6600114283803986E+00    3.7427063786289787E-02    8.4027370481482464E+00
N    9.6605989983059466E+00    3.9248135315713313E-02    1.0391038473328694E+01
Ga    9.6613476894671546E+00    1.9097830585773010E+00    1.0988495084877190E+01
N    9.6623001986522059E+00    1.9107752325353533E+00    1.2956344526654116E+01
Ga    9.6606038229559932E+00    4.0582137824065757E-02    1.3587937135136762E+01
N    9.6625671008366893E+00    6.8015737868601669E-02    1.5548119826005101E+01
Ga    9.6654360429160011E+00    1.9078450030165754E+00    1.5823750243031398E+01
N    7.9451954658027883E+00    4.6232148633229277E+00    2.4886409120917334E+00
Ga    8.1520323797011720E+00    2.7702551653596537E+00    3.2510227198807709E+00
N    8.0536292268471819E+00    2.8294820752629750E+00    5.2104719825328099E+00
Ga    8.0752986325074971E+00    4.7020766897708750E+00    5.7604774620767154E+00
N    8.0616741148742186E+00    4.6965265375438880E+00    7.7532920172019173E+00
Ga    8.0412634358272523E+00    2.8406879811114458E+00    8.4031781208293808E+00
N    8.0409979503564113E+00    2.8439987025792024E+00    1.0391155049038074E+01
Ga    8.0674031754892876E+00    4.7035120505310291E+00    1.1036337518955534E+01
N    8.0867455397031360E+00    4.7156209076645723E+00    1.3024505139069174E+01
Ga    8.0417522361360767E+00    2.8453817457189041E+00    1.3586532823421825E+01
N    8.0760449498945430E+00    2.8255493795065756E+00    1.5543874657241586E+01
Ga    7.8896059103668508E+00    4.5989804748329011E+00    1.6450072546721966E+01
N    6.4430333697456179E+00    7.4703702914797585E+00    2.5662730412704740E+00
Ga    6.4424368896540622E+00    5.7296512798530896E+00    3.2479573517849842E+00
N    6.4425231396972649E+00    5.6183404588990369E+00    5.2084112204300723E+00
Ga    6.4427714596557948E+00    7.4729462570680605E+00    5.8404187098579250E+00
N    6.4433015156531557E+00    7.4766469522445371E+00    7.8083533041255970E+00
Ga    6.4432284873098489E+00    5.6077065485250071E+00    8.4005521131598506E+00
N    6.4441262251419467E+00    5.6095558032188508E+00    1.0388383908042220E+01
Ga    6.4445321834549452E+00    7.4799148606504664E+00    1.0986422826334941E+01
N    6.4459594880709679E+00    7.4811044030436378E+00    1.2953126436735651E+01
Ga    6.4447361223652164E+00    5.6120076068171452E+00    1.3587049346178679E+01
N    6.4445880657115122E+00    5.6462886231978349E+00    1.5543802149964531E+01
Ga    6.4422057239271755E+00    7.4814053693734017E+00    1.5829859855781908E+01
N    4.7309012505628951E+00    1.0198073309997515E+01    2.4813716930525942E+00
Ga    4.9360382886093275E+00    8.3422896210442321E+00    3.2458744656046012E+00
N    4.8381459155660700E+00    8.4011545318286949E+00    5.2061738500879358E+00
Ga    4.8601066641680326E+00    1.0273892028743488E+01    5.7566609313331059E+00
N    4.8459321270167326E+00    1.0268614005109795E+01    7.7499487742467350E+00
Ga    4.8248980684692944E+00    8.4119994479482258E+00    8.4001913019033658E+00
N    4.8245348755397321E+00    8.4149345132984195E+00    1.0388735551707883E+01
Ga    4.8514874519014848E+00    1.0273956022343514E+01    1.1036058034598025E+01
N    4.8709604670983078E+00    1.0285182104819778E+01    1.3025407936786049E+01
Ga    4.8269877298159383E+00    8.4148236403672776E+00    1.3588233551442245E+01
N    4.8507691089725835E+00    8.4020681146202207E+00    1.5548603834309082E+01
Ga    4.6802951146897165E+00    1.0174154635335567E+01    1.6450849606577520E+01
O   -2.6485961838269850E-01    3.7651069919308626E+00   -5.5292772920721600E-01
H    4.7627685468866528E-03    4.5891346845693732E+00   -9.9800550218348616E-01
C    1.9125841049069370E-01    2.5743938288248711E+00   -1.2905414043542442E+00
H    1.2382225882830231E+00    2.6992331942611636E+00   -1.6002547163916565E+00
H    1.0605797969645261E-01    1.7387272248921197E+00   -5.8340357029848222E-01
H   -4.7388434521206491E-01    2.4285223563604048E+00   -2.1511313538862673E+00
     &END COORD
     &KIND C
       BASIS_SET DZVP-MOLOPT-SR-GTH-q4
       POTENTIAL GTH-PBE-q4
       &POTENTIAL
 2 2
  0.3384712400000000E+00 2 -0.8803673979999999E+01  0.1339210850000000E+01
 2
  0.3025757500000000E+00 1  0.9622486650000001E+01
  0.2915069400000000E+00 0
         # Potential name:  GTH-PBE-Q4  for symbol:  C
         # Potential read from the potential filename: GTH_POTENTIALS
       &END POTENTIAL
     &END KIND
     &KIND O
       BASIS_SET DZVP-MOLOPT-SR-GTH-q6
       POTENTIAL GTH-PBE-q6
       &POTENTIAL
 2 4
  0.2445543000000000E+00 2 -0.1666721480000000E+02  0.2487311320000000E+01
 2
  0.2209559200000000E+00 1  0.1833745811000000E+02
  0.2113324700000000E+00 0
         # Potential name:  GTH-PBE-Q6  for symbol:  O
         # Potential read from the potential filename: GTH_POTENTIALS
       &END POTENTIAL
     &END KIND
     &KIND H
       BASIS_SET DZVP-MOLOPT-SR-GTH-q1
       POTENTIAL GTH-PBE-q1
       &POTENTIAL
 1
  0.2000000000000000E+00 2 -0.4178900440000000E+01  0.7244633100000000E+00
 0
         # Potential name:  GTH-PBE-Q1  for symbol:  H
         # Potential read from the potential filename: GTH_POTENTIALS
       &END POTENTIAL
     &END KIND
     &KIND N
       BASIS_SET DZVP-MOLOPT-SR-GTH
       POTENTIAL GTH-PBE-q5
       &POTENTIAL
 2 3
  0.2837905100000000E+00 2 -0.1241522559000000E+02  0.1868095920000000E+01
 2
  0.2554050000000000E+00 1  0.1363026257000000E+02
  0.2454945300000000E+00 0
         # Potential name:  GTH-PBE-Q5  for symbol:  N
         # Potential read from the potential filename: GTH_POTENTIALS
       &END POTENTIAL
     &END KIND
     &KIND Ga
       BASIS_SET DZVP-MOLOPT-SR-GTH
       POTENTIAL GTH-PBE-q13
       &POTENTIAL
 2 1 10
  0.4900000000000000E+00 0
 3
  0.4167772300000000E+00 3  0.1047568975000000E+02 -0.4921768140000000E+01  0.8707055900000000E+00
  0.7770178090000000E+01 -0.2248152160000000E+01
  0.1784415450000000E+01
  0.5696265200000000E+00 2  0.1777985340000000E+01  0.1958597600000000E+00
 -0.2317443900000000E+00
  0.2381265000000000E+00 1 -0.1624868022000000E+02
         # Potential name:  GTH-PBE-Q13  for symbol:  GA
         # Potential read from the potential filename: GTH_POTENTIALS
       &END POTENTIAL
     &END KIND
     &TOPOLOGY
       NUMBER_OF_ATOMS  206
       MULTIPLE_UNIT_CELL  1 1 1
     &END TOPOLOGY
   &END SUBSYS
 &END FORCE_EVAL
