 # Version information for this restart file 
 # current date 2019-06-24 21:53:16.538
 # current working dir /scratch/rzk/rzk/GaN-carbene/443-adatoms-both-2x2/02-Methanol/01-O-GaTop
 # Program compiled at                              Sun Apr  7 00:48:11 EDT 2019
 # Program compiled on                          beluga2.int.ets1.calculquebec.ca
 # Program compiled for                        Beluga-Linux-x86-64-intel-openmpi
 # Source code revision number                                         svn:18619
 &GLOBAL
   PRINT_LEVEL  MEDIUM
   PROJECT_NAME TEST
   RUN_TYPE  GEO_OPT
 &END GLOBAL
 &MOTION
   &GEO_OPT
     MAX_ITER  500
     STEP_START_VAL  152
   &END GEO_OPT
 &END MOTION
 &FORCE_EVAL
   METHOD  QS
   STRESS_TENSOR  ANALYTICAL
   &DFT
     BASIS_SET_FILE_NAME BASIS_MOLOPT
     POTENTIAL_FILE_NAME GTH_POTENTIALS
     UKS  T
     SURFACE_DIPOLE_CORRECTION  T
     SURF_DIP_DIR  Z
     &SCF
       MAX_SCF  80
       EPS_SCF     5.0000000000000004E-06
       &OT  T
         PRECONDITIONER  FULL_ALL
       &END OT
       &OUTER_SCF  T
         OPTIMIZER  NONE
         EPS_SCF     5.0000000000000004E-06
         MAX_SCF  4
       &END OUTER_SCF
       &PRINT
         &RESTART  OFF
           BACKUP_COPIES  1
           &EACH
             JUST_ENERGY  0
             QS_SCF  0
             MD  20
           &END EACH
         &END RESTART
       &END PRINT
     &END SCF
     &QS
       EPS_DEFAULT     1.0000000000000000E-14
       METHOD  GPW
     &END QS
     &MGRID
       NGRIDS  5
       CUTOFF     1.2000000000000000E+03
     &END MGRID
     &XC
       DENSITY_CUTOFF     1.0000000000000000E-10
       GRADIENT_CUTOFF     1.0000000000000000E-10
       TAU_CUTOFF     1.0000000000000000E-10
       &XC_FUNCTIONAL  NO_SHORTCUT
         &PBE  T
         &END PBE
       &END XC_FUNCTIONAL
       &VDW_POTENTIAL
         POTENTIAL_TYPE  PAIR_POTENTIAL
         &PAIR_POTENTIAL
           R_CUTOFF     1.0000000000000005E+01
           TYPE  DFTD3
           PARAMETER_FILE_NAME dftd3.dat
           REFERENCE_FUNCTIONAL PBE
           EPS_CN     9.9999999999999995E-07
           CALCULATE_C9_TERM  T
           REFERENCE_C9_TERM  T
           LONG_RANGE_CORRECTION  F
           VERBOSE_OUTPUT  F
         &END PAIR_POTENTIAL
       &END VDW_POTENTIAL
     &END XC
   &END DFT
   &SUBSYS
     &CELL
       A     1.2864472766435110E+01    0.0000000000000000E+00    0.0000000000000000E+00
       B    -6.4322363581020028E+00    1.1140960178524475E+01    0.0000000000000000E+00
       C     0.0000000000000000E+00    0.0000000000000000E+00    3.2000000000000000E+01
       MULTIPLE_UNIT_CELL  1 1 1
       &CELL_REF
         A     1.2982353780853531E+01    0.0000000000000000E+00    0.0000000000000000E+00
         B    -6.4911768904267628E+00    1.1243048175136114E+01    0.0000000000000000E+00
         C     0.0000000000000000E+00    0.0000000000000000E+00    3.2000000000000000E+01
         MULTIPLE_UNIT_CELL  1 1 1
       &END CELL_REF
     &END CELL
     &COORD
N   -3.3680273253258154E-02    2.0302388303836341E+00    2.5503466631806684E+00
Ga   -2.7181357017524079E-02    5.3998551899439924E-02    2.8803211927046157E+00
N   -3.1793804487035671E-02    4.8839406511450585E-02    5.0330179419466683E+00
Ga   -3.2750826928326537E-02    1.8757848192394131E+00    5.8174210501027543E+00
N   -3.1023994703691032E-02    1.8934578095988763E+00    7.8124735345756360E+00
Ga   -3.0643652990322390E-02    4.7467525458528795E-02    8.4557310141920752E+00
N   -3.0955875856164428E-02    4.8135201932116532E-02    1.0429536383320801E+01
Ga   -3.1868686630261274E-02    1.8896916892111142E+00    1.1077232714682575E+01
N   -3.2217865146908289E-02    1.8706854816882297E+00    1.3069270466313130E+01
Ga   -4.1142706702611595E-02    5.5340426242476905E-02    1.3868599216575291E+01
N   -4.3471987321262354E-02    5.6076408932908627E-02    1.6077153254282535E+01
Ga   -3.3758426212785783E-02    2.1143048652418290E+00    1.6509341231167980E+01
Ga   -2.8057806749023220E-02    3.7335508877276227E+00    1.5256496396544330E+00
N   -1.5145340480602620E+00    4.6145912502045414E+00    2.5156191728429653E+00
Ga   -1.7346105997800314E+00    2.7725144710089444E+00    3.3159272461391112E+00
N   -1.6430161443784581E+00    2.8320776940904659E+00    5.2753096730110070E+00
Ga   -1.6620479603532246E+00    4.7053860162461998E+00    5.8138506516936070E+00
N   -1.6486341815759462E+00    4.6970820499440933E+00    7.8104413715762462E+00
Ga   -1.6301952436369478E+00    2.8398694763344765E+00    8.4484066326522118E+00
N   -1.6287028128461558E+00    2.8403622941142026E+00    1.0439880436145158E+01
Ga   -1.6533417080765962E+00    4.6986413617962706E+00    1.1077155925158660E+01
N   -1.6702964730409136E+00    4.7079978156750855E+00    1.3069418352298380E+01
Ga   -1.6293336234124056E+00    2.8400546487662881E+00    1.3631055539438366E+01
N   -1.6564061882091448E+00    2.8240732380894813E+00    1.5588740065623414E+01
Ga   -1.4604166343034195E+00    4.5850572892783301E+00    1.6509252216173497E+01
N   -2.6409424036121336E-02    3.7656691015661328E+00    1.7657511340430691E+01
N   -3.2450343758005529E+00    7.5950695879070791E+00    2.5293379101551046E+00
Ga   -3.2373277583624969E+00    5.6180754814836957E+00    2.8523336158234311E+00
N   -3.2418625755958801E+00    5.6145965358353322E+00    5.0217052573154293E+00
Ga   -3.2456378221029065E+00    7.4457014342163603E+00    5.8021413446303090E+00
N   -3.2472070236932802E+00    7.4640945540932586E+00    7.8028179621274818E+00
Ga   -3.2475974157699103E+00    5.6196528007356168E+00    8.4540889501176153E+00
N   -3.2476980487288998E+00    5.6193857013750961E+00    1.0428447871018735E+01
Ga   -3.2477251352950911E+00    7.4578359776196441E+00    1.1076839479293545E+01
N   -3.2477963604675102E+00    7.4377024162765402E+00    1.3076712297676815E+01
Ga   -3.2473824496418473E+00    5.6076218264362385E+00    1.3869537790976022E+01
N   -3.2478112121846880E+00    5.6048078184851038E+00    1.6077135417372382E+01
Ga   -3.2473646467569610E+00    7.6043006837004112E+00    1.6441180836225719E+01
Ga   -3.2431000207406080E+00    9.3251363712914372E+00    1.4451833558879139E+00
N   -4.7505263314448403E+00    1.0203359369990784E+01    2.5249162376424277E+00
Ga   -4.9449397059313984E+00    8.3515770447147446E+00    3.2849438782911524E+00
N   -4.8550101809180015E+00    8.4032678285682287E+00    5.2552398443564341E+00
Ga   -4.8777041588794026E+00    1.0274315633698823E+01    5.8061211396287264E+00
N   -4.8642944262445500E+00    1.0266561244767340E+01    7.8051147827043987E+00
Ga   -4.8445025124147332E+00    8.4094948791506443E+00    8.4446724022972290E+00
N   -4.8440006196590666E+00    8.4108597733463206E+00    1.0440613406772542E+01
Ga   -4.8711844362203287E+00    1.0269591202257166E+01    1.1077503819885562E+01
N   -4.8891131317477852E+00    1.0280378725477650E+01    1.3076951609431889E+01
Ga   -4.8447846086874256E+00    8.4108758309325129E+00    1.3622851716191178E+01
N   -4.8610276150492764E+00    8.4020600746690786E+00    1.5601132163916830E+01
Ga   -4.7430986319605832E+00    1.0197021457187589E+01    1.6441119748877348E+01
N   -3.2500270044621171E+00    9.3301735524437053E+00    1.7568050158939140E+01
N    3.1702801732969754E+00    1.9099657798909278E+00    2.6067304952680934E+00
Ga    3.1831093282121961E+00    1.5407876615231181E-01    3.2854928649375550E+00
N    3.1852171126102440E+00    5.3352651787593866E-02    5.2542149925698229E+00
Ga    3.1874532137915152E+00    1.9020759258056341E+00    5.8955918352742289E+00
N    3.1864638332193711E+00    1.9042354162820185E+00    7.8663135408923974E+00
Ga    3.1850216280909400E+00    3.5550857930880093E-02    8.4492378143108109E+00
N    3.1845322265591083E+00    3.5399014402521883E-02    1.0443493592683044E+01
Ga    3.1844196147254493E+00    1.9062295897854835E+00    1.1036082517297682E+01
N    3.1845501322781264E+00    1.9029280459502749E+00    1.3009489014817621E+01
Ga    3.1843877493374064E+00    3.6295581341035041E-02    1.3622395404171488E+01
N    3.1850923711101244E+00    5.5168650975013084E-02    1.5600023333868929E+01
Ga    3.1836023699047580E+00    1.9080806160628332E+00    1.5869973920808354E+01
N    1.4727910184740700E+00    4.6262661096576023E+00    2.5350309627157670E+00
Ga    1.6693991682942453E+00    2.7833641378290821E+00    3.3300151805758613E+00
N    1.5819010277703305E+00    2.8313736186304030E+00    5.2819716520783935E+00
Ga    1.5995646035981257E+00    4.7068833748949102E+00    5.8170095550412269E+00
N    1.5872042705168317E+00    4.6973207930814498E+00    7.8118704882598164E+00
Ga    1.5674928020025867E+00    2.8398646445747957E+00    8.4503812565846417E+00
N    1.5663049757297924E+00    2.8411312570802463E+00    1.0442845751703864E+01
Ga    1.5923244876932807E+00    4.7001385002556306E+00    1.1082660796386129E+01
N    1.6086638490946747E+00    4.7097164547698469E+00    1.3075538765660616E+01
Ga    1.5638028174737204E+00    2.8408765987669868E+00    1.3632551529536316E+01
N    1.5924146456352279E+00    2.8180173562788902E+00    1.5590678000035114E+01
Ga    1.4067381557691057E+00    4.5928245724317156E+00    1.6508993888509099E+01
N   -3.2060123828029523E-02    7.4730803080490755E+00    2.6230053728553604E+00
Ga   -2.2293665277067620E-02    5.7278399701276737E+00    3.3004883608798061E+00
N   -3.0797975913221344E-02    5.6215822526668360E+00    5.2660261951544802E+00
Ga   -3.3317846250048508E-02    7.4755212029347140E+00    5.8877302856908305E+00
N   -3.1336443190167526E-02    7.4765219045578455E+00    7.8619064100142317E+00
Ga   -3.1258460680149092E-02    5.6088777938392766E+00    8.4504109246068495E+00
N   -3.0478081096684238E-02    5.6071317112300703E+00    1.0442931609513261E+01
Ga   -3.1492672953212772E-02    7.4761319883094766E+00    1.1035642702470243E+01
N   -3.3969885570220661E-02    7.4779934338485798E+00    1.3009433162493762E+01
Ga   -3.2120942119405797E-02    5.6053512353949415E+00    1.3632578818476613E+01
N   -3.7225359463431869E-02    5.6419255624015641E+00    1.5590826052408520E+01
Ga   -3.0451236957140120E-02    7.4747740265366884E+00    1.5870928788019043E+01
N   -1.7456929103229402E+00    1.0202126980243008E+01    2.5299589375629448E+00
Ga   -1.5470333388793149E+00    8.3503250756022869E+00    3.2890510355717222E+00
N   -1.6370534559367214E+00    8.4039728210905373E+00    5.2581485636129983E+00
Ga   -1.6154526630602715E+00    1.0275133636738479E+01    5.8055659466522176E+00
N   -1.6309871604311288E+00    1.0266456348686518E+01    7.8053819112119802E+00
Ga   -1.6498040426086160E+00    8.4098047472174020E+00    8.4455472982626727E+00
N   -1.6512431769926439E+00    8.4110013341643111E+00    1.0441462588678874E+01
Ga   -1.6237315032657429E+00    1.0270103873813694E+01    1.1076746405594101E+01
N   -1.6065554533876820E+00    1.0280511378994490E+01    1.3076335457435512E+01
Ga   -1.6506580515924123E+00    8.4108715307994295E+00    1.3622511384362637E+01
N   -1.6339322183033027E+00    8.4025632993938419E+00    1.5600398830003515E+01
Ga   -1.7540292449431953E+00    1.0195789876088231E+01    1.6441289407483694E+01
N    6.3980121840686035E+00    2.0262961069723655E+00    2.5326438910080609E+00
Ga    6.3953100857120235E+00    4.5254491666683605E-02    2.8661366235342918E+00
N    6.4023331629467632E+00    4.8175007948782503E-02    5.0309675635510462E+00
Ga    6.3995235708944316E+00    1.8756610369302227E+00    5.8080421398112598E+00
N    6.3997138015273070E+00    1.8950779817807717E+00    7.8059556298643846E+00
Ga    6.3997752467282041E+00    4.8663480225326843E-02    8.4531666282367137E+00
N    6.4007190440298869E+00    4.8826548208067422E-02    1.0428040468588655E+01
Ga    6.4011711991338709E+00    1.8896286050729170E+00    1.1076943293292732E+01
N    6.4012196186083425E+00    1.8707974688548945E+00    1.3069204488691010E+01
Ga    6.4096355033003238E+00    5.4616544102888825E-02    1.3868150452889086E+01
N    6.4117532009999545E+00    5.5859778914507947E-02    1.6077302799524524E+01
Ga    6.4025464018313079E+00    2.1126401891642201E+00    1.6505598788603084E+01
Ga    6.4062382178895119E+00    3.7625076770126937E+00    1.4914752668303459E+00
N    4.8952580997535309E+00    4.6282079505522766E+00    2.5317957528802935E+00
Ga    4.6912862272810552E+00    2.7746298159182770E+00    3.2909451524386073E+00
N    4.7883082643266830E+00    2.8305770899809035E+00    5.2555330887413829E+00
Ga    4.7709533898231840E+00    4.7025994832064359E+00    5.8090845320308881E+00
N    4.7835085569881084E+00    4.6955626848909615E+00    7.8055814127137362E+00
Ga    4.8035824461497088E+00    2.8401393836250803E+00    8.4508952278632599E+00
N    4.8033711851244725E+00    2.8414015659624883E+00    1.0442971997612728E+01
Ga    4.7779008569861743E+00    4.7003591224770975E+00    1.1082782613062152E+01
N    4.7603855835350304E+00    4.7099916441300191E+00    1.3075921642235166E+01
Ga    4.8046748604230647E+00    2.8408755610766216E+00    1.3631894169557651E+01
N    4.7758350213825151E+00    2.8171019327269833E+00    1.5591133654454953E+01
Ga    4.9586812677031533E+00    4.5951727370967639E+00    1.6505128263699596E+01
N    6.3923516278685453E+00    3.7666951498287586E+00    1.7646926532323029E+01
N    3.1846554376898264E+00    7.5974786816645459E+00    2.5428588235301217E+00
Ga    3.1763287292477824E+00    5.6157228353087545E+00    2.8943384230898666E+00
N    3.1860308865683535E+00    5.6193165490369372E+00    5.0347295387690778E+00
Ga    3.1861035816631569E+00    7.4491961774992532E+00    5.8126300573127612E+00
N    3.1854738273373666E+00    7.4646493186639935E+00    7.8082262013884876E+00
Ga    3.1859406552338538E+00    5.6192936429580982E+00    8.4575953610290622E+00
N    3.1855724918666053E+00    5.6192403377441504E+00    1.0430529624613294E+01
Ga    3.1849726936900873E+00    7.4579187460795291E+00    1.1082565884434251E+01
N    3.1846087147747517E+00    7.4387726745446443E+00    1.3076369658039392E+01
Ga    3.1833809630860643E+00    5.6184994631754366E+00    1.3891332471028575E+01
N    3.1840745907595243E+00    5.6184430478496301E+00    1.6080616630937200E+01
Ga    3.1847860892449638E+00    7.6631221518184889E+00    1.6500145262897565E+01
Ga    3.1838394299789403E+00    9.3316920126901692E+00    1.5123665115419915E+00
N    1.6827021550405827E+00    1.0199836121511899E+01    2.5380894571625148E+00
Ga    1.4741206527908424E+00    8.3469511522286624E+00    3.3025663641276339E+00
N    1.5757548517182933E+00    8.4031660488949544E+00    5.2651358360203790E+00
Ga    1.5509953002277490E+00    1.0275342112498441E+01    5.8121175067474189E+00
N    1.5669782460781736E+00    1.0266167268346951E+01    7.8088286090207255E+00
Ga    1.5865331069056590E+00    8.4096211913242520E+00    8.4491375088062473E+00
N    1.5880960466208141E+00    8.4097256374841027E+00    1.0442269825535710E+01
Ga    1.5629758348762466E+00    1.0269383689147807E+01    1.1076518746840462E+01
N    1.5463235929638046E+00    1.0279484967642896E+01    1.3069565480125554E+01
Ga    1.5882009037756131E+00    8.4119610868857464E+00    1.3631401634133876E+01
N    1.5535229243901623E+00    8.3992160186435338E+00    1.5591738720713803E+01
Ga    1.7529721555160489E+00    1.0161924619556324E+01    1.6500808653838334E+01
N    3.1839090184459153E+00    9.3226260107068217E+00    1.7639325473338364E+01
N    9.6198102471804088E+00    1.9065140723217135E+00    2.6250137760530108E+00
Ga    9.6162783983592934E+00    1.6359084227959134E-01    3.3028675502178615E+00
N    9.6171267678685819E+00    4.9496932975796992E-02    5.2655613814604090E+00
Ga    9.6152606966617498E+00    1.9051800814358524E+00    5.8922997034471214E+00
N    9.6159239839037536E+00    1.9046734099532672E+00    7.8634832723703507E+00
Ga    9.6166369459681889E+00    3.6532252176195434E-02    8.4485460942565869E+00
N    9.6172348535486183E+00    3.5887156351793861E-02    1.0439916131652215E+01
Ga    9.6166050343086287E+00    1.9060271663480119E+00    1.1033554020350856E+01
N    9.6166268092245293E+00    1.9055529327308316E+00    1.3003275772073536E+01
Ga    9.6167907560267309E+00    3.7579152510168093E-02    1.3629626489374452E+01
N    9.6166117093401144E+00    6.8465017643435100E-02    1.5588479926238829E+01
Ga    9.6173002202067952E+00    1.9064868581490184E+00    1.5866940538545657E+01
N    7.9057969022135799E+00    4.6279156206710628E+00    2.5329661374458383E+00
Ga    8.1062135825225567E+00    2.7759119753419093E+00    3.2976527652461156E+00
N    8.0093000162200703E+00    2.8315494379685875E+00    5.2617083385526122E+00
Ga    8.0369088526449541E+00    4.7044238920047912E+00    5.8052677584091912E+00
N    8.0193099713292675E+00    4.6965662299542217E+00    7.8038326868106056E+00
Ga    7.9982396320130400E+00    2.8399533724607195E+00    8.4464539541882679E+00
N    7.9973921842050411E+00    2.8408794446100583E+00    1.0438474595426777E+01
Ga    8.0227318260941427E+00    4.6990553790559897E+00    1.1076592877047661E+01
N    8.0390839003907200E+00    4.7080776104071624E+00    1.3069075001172314E+01
Ga    7.9989555482398833E+00    2.8398958104278624E+00    1.3630212620954442E+01
N    8.0257233328631266E+00    2.8239056152884165E+00    1.5588133834633442E+01
Ga    7.8306953404942448E+00    4.5856907143113448E+00    1.6505597322095873E+01
N    6.4034709672153012E+00    7.4762807213637945E+00    2.6182997258279102E+00
Ga    6.4034142319141694E+00    5.7326694490570551E+00    3.2936692556187439E+00
N    6.4023441485100054E+00    5.6195391085512751E+00    5.2586712233675517E+00
Ga    6.4047471052794922E+00    7.4759366537475769E+00    5.8837638167407453E+00
N    6.4018008575905476E+00    7.4757514383464176E+00    7.8584139095505829E+00
Ga    6.4014822954646498E+00    5.6076743318803990E+00    8.4460864127275279E+00
N    6.4002406935876612E+00    5.6068625610742098E+00    1.0439780266465352E+01
Ga    6.4008968408489668E+00    7.4758239262187001E+00    1.1034510963335702E+01
N    6.4031614185226431E+00    7.4777769793388513E+00    1.3008355660605949E+01
Ga    6.4011403490970400E+00    5.6061039191488877E+00    1.3632153203174839E+01
N    6.4070616045964659E+00    5.6428781787677398E+00    1.5590941314894563E+01
Ga    6.3995926532236851E+00    7.4758331812951822E+00    1.5872025608591711E+01
N    4.6869356620607032E+00    1.0200673474262194E+01    2.5388759021284497E+00
Ga    4.8962081644479198E+00    8.3466472322802598E+00    3.2998623465354764E+00
N    4.7958822697394563E+00    8.4030285778842462E+00    5.2629613520165739E+00
Ga    4.8179999223945016E+00    1.0274560148874555E+01    5.8121133188576355E+00
N    4.8028005960702709E+00    1.0266003655702795E+01    7.8083261097779024E+00
Ga    4.7840140199758796E+00    8.4090617297188661E+00    8.4483406342397895E+00
N    4.7818630705544773E+00    8.4098621136206404E+00    1.0441441273209911E+01
Ga    4.8067129260321098E+00    1.0269334337459069E+01    1.1077217087773649E+01
N    4.8226703251106890E+00    1.0279315796807397E+01    1.3069892377999352E+01
Ga    4.7812292524971074E+00    8.4117380159805126E+00    1.3631324650819174E+01
N    4.8156005092806700E+00    8.3994623813885472E+00    1.5591191775658219E+01
Ga    4.6155018774802148E+00    1.0161913483368162E+01    1.6500654752064818E+01
O    1.0598125558870661E+00    3.4601603171504327E+00   -2.6001017708668372E-01
H    1.8232055834141867E+00    4.0006025427837058E+00    3.8474013639818512E-02
C    1.5543459345659063E+00    2.0740967336366345E+00   -4.4929710227768466E-01
H    2.2234103964439629E+00    1.8027491157657904E+00    3.8501137374690175E-01
H    6.7002543570580664E-01    1.4296660035171371E+00   -4.5285970135627840E-01
H    2.0627583904545390E+00    2.0349418834058777E+00   -1.4191204202447041E+00
     &END COORD
     &KIND C
       BASIS_SET DZVP-MOLOPT-SR-GTH-q4
       POTENTIAL GTH-PBE-q4
       &POTENTIAL
2 2
0.3384712400000000E+00 2 -0.8803673979999999E+01  0.1339210850000000E+01
2
0.3025757500000000E+00 1  0.9622486650000001E+01
0.2915069400000000E+00 0
       &END POTENTIAL
     &END KIND
     &KIND O
       BASIS_SET DZVP-MOLOPT-SR-GTH-q6
       POTENTIAL GTH-PBE-q6
       &POTENTIAL
2 4
0.2445543000000000E+00 2 -0.1666721480000000E+02  0.2487311320000000E+01
2
0.2209559200000000E+00 1  0.1833745811000000E+02
0.2113324700000000E+00 0
       &END POTENTIAL
     &END KIND
     &KIND H
       BASIS_SET DZVP-MOLOPT-SR-GTH-q1
       POTENTIAL GTH-PBE-q1
       &POTENTIAL
1
0.2000000000000000E+00 2 -0.4178900440000000E+01  0.7244633100000000E+00
0
       &END POTENTIAL
     &END KIND
     &KIND N
       BASIS_SET DZVP-MOLOPT-SR-GTH
       POTENTIAL GTH-PBE-q5
       &POTENTIAL
2 3
0.2837905100000000E+00 2 -0.1241522559000000E+02  0.1868095920000000E+01
2
0.2554050000000000E+00 1  0.1363026257000000E+02
0.2454945300000000E+00 0
       &END POTENTIAL
     &END KIND
     &KIND Ga
       BASIS_SET DZVP-MOLOPT-SR-GTH
       POTENTIAL GTH-PBE-q13
       &POTENTIAL
2 1 10
0.4900000000000000E+00 0
3
0.4167772300000000E+00 3  0.1047568975000000E+02 -0.4921768140000000E+01  0.8707055900000000E+00
0.7770178090000000E+01 -0.2248152160000000E+01
0.1784415450000000E+01
0.5696265200000000E+00 2  0.1777985340000000E+01  0.1958597600000000E+00
-0.2317443900000000E+00
0.2381265000000000E+00 1 -0.1624868022000000E+02
       &END POTENTIAL
     &END KIND
     &TOPOLOGY
       NUMBER_OF_ATOMS  206
       MULTIPLE_UNIT_CELL  1 1 1
     &END TOPOLOGY
   &END SUBSYS
 &END FORCE_EVAL
