 # Version information for this restart file 
 # current date 2019-06-24 14:46:50.355
 # current working dir /scratch/rzk/rzk/GaN-carbene/443-adatoms-both-2x2/02-Methanol/01-O-GaTop
 # Program compiled at                              Sun Apr  7 00:48:11 EDT 2019
 # Program compiled on                          beluga2.int.ets1.calculquebec.ca
 # Program compiled for                        Beluga-Linux-x86-64-intel-openmpi
 # Source code revision number                                         svn:18619
 &GLOBAL
   PRINT_LEVEL  MEDIUM
   PROJECT_NAME TEST
   RUN_TYPE  GEO_OPT
 &END GLOBAL
 &MOTION
   &GEO_OPT
     MAX_ITER  500
     STEP_START_VAL  50
   &END GEO_OPT
 &END MOTION
 &FORCE_EVAL
   METHOD  QS
   STRESS_TENSOR  ANALYTICAL
   &DFT
     BASIS_SET_FILE_NAME BASIS_MOLOPT
     POTENTIAL_FILE_NAME GTH_POTENTIALS
     UKS  T
     SURFACE_DIPOLE_CORRECTION  T
     SURF_DIP_DIR  Z
     &SCF
       MAX_SCF  80
       EPS_SCF     5.0000000000000004E-06
       &OT  T
         PRECONDITIONER  FULL_ALL
       &END OT
       &OUTER_SCF  T
         OPTIMIZER  NONE
         EPS_SCF     5.0000000000000004E-06
         MAX_SCF  4
       &END OUTER_SCF
       &PRINT
         &RESTART  OFF
           BACKUP_COPIES  1
           &EACH
             JUST_ENERGY  0
             QS_SCF  0
             MD  20
           &END EACH
         &END RESTART
       &END PRINT
     &END SCF
     &QS
       EPS_DEFAULT     1.0000000000000000E-14
       METHOD  GPW
     &END QS
     &MGRID
       NGRIDS  5
       CUTOFF     1.2000000000000000E+03
     &END MGRID
     &XC
       DENSITY_CUTOFF     1.0000000000000000E-10
       GRADIENT_CUTOFF     1.0000000000000000E-10
       TAU_CUTOFF     1.0000000000000000E-10
       &XC_FUNCTIONAL  NO_SHORTCUT
         &PBE  T
         &END PBE
       &END XC_FUNCTIONAL
       &VDW_POTENTIAL
         POTENTIAL_TYPE  PAIR_POTENTIAL
         &PAIR_POTENTIAL
           R_CUTOFF     1.0000000000000005E+01
           TYPE  DFTD3
           PARAMETER_FILE_NAME dftd3.dat
           REFERENCE_FUNCTIONAL PBE
           EPS_CN     9.9999999999999995E-07
           CALCULATE_C9_TERM  T
           REFERENCE_C9_TERM  T
           LONG_RANGE_CORRECTION  F
           VERBOSE_OUTPUT  F
         &END PAIR_POTENTIAL
       &END VDW_POTENTIAL
     &END XC
   &END DFT
   &SUBSYS
     &CELL
       A     1.2864472766435110E+01    0.0000000000000000E+00    0.0000000000000000E+00
       B    -6.4322363581020028E+00    1.1140960178524475E+01    0.0000000000000000E+00
       C     0.0000000000000000E+00    0.0000000000000000E+00    3.2000000000000000E+01
       MULTIPLE_UNIT_CELL  1 1 1
       &CELL_REF
         A     1.2982353780853531E+01    0.0000000000000000E+00    0.0000000000000000E+00
         B    -6.4911768904267628E+00    1.1243048175136114E+01    0.0000000000000000E+00
         C     0.0000000000000000E+00    0.0000000000000000E+00    3.2000000000000000E+01
         MULTIPLE_UNIT_CELL  1 1 1
       &END CELL_REF
     &END CELL
     &COORD
N   -2.2947764318143188E-02    2.0464438223151351E+00    2.5101010779072066E+00
Ga   -2.0523856857837971E-02    7.2252822556439694E-02    2.8716821607333216E+00
N   -1.6520876252870326E-02    6.0595210879561982E-02    5.0086256350701985E+00
Ga   -1.5476466482039510E-02    1.8900324137941937E+00    5.7992575835680231E+00
N   -1.3325875108779243E-02    1.9026886276962796E+00    7.7901027655046624E+00
Ga   -1.2627716598426132E-02    5.7237374145371021E-02    8.4408719135510601E+00
N   -1.1235478591404576E-02    5.5868067167848819E-02    1.0410292878352886E+01
Ga   -1.1271767424611103E-02    1.8956938895054563E+00    1.1066744181213275E+01
N   -1.0076319229442032E-02    1.8742844678561366E+00    1.3055601516768277E+01
Ga   -1.0290173027852347E-02    5.5148202595645339E-02    1.3867919203947601E+01
N   -1.0336732785032209E-02    5.7658572701617949E-02    1.6061445610524423E+01
Ga   -9.9983546058294535E-03    2.1091830296544773E+00    1.6478667504776919E+01
Ga   -3.5164535904363053E-02    3.7711351574366740E+00    1.5147738052420476E+00
N   -1.5119318563040165E+00    4.6346293850605376E+00    2.5113720825364956E+00
Ga   -1.7234260992816191E+00    2.7855430911726371E+00    3.2983031932302338E+00
N   -1.6283825758400710E+00    2.8418410297146632E+00    5.2547160445120804E+00
Ga   -1.6470047292949999E+00    4.7147610856266251E+00    5.7986775784117137E+00
N   -1.6317946459017056E+00    4.7063163055537176E+00    7.7902276445249896E+00
Ga   -1.6116775615211860E+00    2.8489941467095981E+00    8.4350300283156923E+00
N   -1.6081644812400544E+00    2.8487292453616644E+00    1.0423242771483229E+01
Ga   -1.6349249552562548E+00    4.7077415486908984E+00    1.1068006344965468E+01
N   -1.6508732762392273E+00    4.7161351092574426E+00    1.3057093904697728E+01
Ga   -1.6073836182698471E+00    2.8459215524488037E+00    1.3615155964794338E+01
N   -1.6359798906745846E+00    2.8274234637675395E+00    1.5572266726043953E+01
Ga   -1.4543361119090867E+00    4.6024492354672208E+00    1.6476948151161722E+01
N   -9.8613531399971734E-03    3.7758036981047729E+00    1.7600926519577335E+01
N   -3.2333951377598584E+00    7.6087796770913663E+00    2.5152332402308319E+00
Ga   -3.2256325267331403E+00    5.6245134729335060E+00    2.8507617649124959E+00
N   -3.2297004252095523E+00    5.6279479399969992E+00    5.0033017763180005E+00
Ga   -3.2315104676590276E+00    7.4570233162611235E+00    5.7896774384782432E+00
N   -3.2298815550216027E+00    7.4735134401328853E+00    7.7825109401368069E+00
Ga   -3.2295654036928840E+00    5.6290751536838899E+00    8.4408890113100377E+00
N   -3.2277805225190561E+00    5.6278569975904809E+00    1.0410531998183908E+01
Ga   -3.2276267171741746E+00    7.4667239893352590E+00    1.1066955549750697E+01
N   -3.2266003878939111E+00    7.4463472824326384E+00    1.3056769859914851E+01
Ga   -3.2275821595918681E+00    5.6252281497733545E+00    1.3872108727218572E+01
N   -3.2270496505207604E+00    5.6248156565511280E+00    1.6059048868052091E+01
Ga   -3.2265888496221518E+00    7.6691137640610449E+00    1.6475648515706723E+01
Ga   -3.2316174734834400E+00    9.3415722018645528E+00    1.4824473714981306E+00
N   -4.7387131646914806E+00    1.0215270488897765E+01    2.5103978236711844E+00
Ga   -4.9423992794494778E+00    8.3591242089375370E+00    3.2764612587982365E+00
N   -4.8417290829198159E+00    8.4143392382379290E+00    5.2371712033193658E+00
Ga   -4.8628605856412044E+00    1.0285768452984488E+01    5.7916757288565757E+00
N   -4.8472244884015074E+00    1.0276143089620033E+01    7.7834365608231124E+00
Ga   -4.8271509688179624E+00    8.4188695167330856E+00    8.4299712904566491E+00
N   -4.8239474980236290E+00    8.4188776320354979E+00    1.0419460227636934E+01
Ga   -4.8503175401284846E+00    1.0277006120073160E+01    1.1065957051821986E+01
N   -4.8660065069010932E+00    1.0285812293522657E+01    1.3055883263374422E+01
Ga   -4.8236478131384528E+00    8.4170445112044270E+00    1.3616222021658867E+01
N   -4.8486536786672243E+00    8.4029848499029853E+00    1.5575807050540149E+01
Ga   -4.6752545374118419E+00    1.0175102998790415E+01    1.6476154106156805E+01
N   -3.2250534274685765E+00    9.3442564184052550E+00    1.7618696744780820E+01
N    3.1884276008662775E+00    1.9216410846717833E+00    2.5816970008697107E+00
Ga    3.1958881204683021E+00    1.7899088359230622E-01    3.2754429660854556E+00
N    3.1998834767229711E+00    6.3640414525267544E-02    5.2361381962310718E+00
Ga    3.1992056060882894E+00    1.9163362792362260E+00    5.8756124337405726E+00
N    3.2028894241554173E+00    1.9142886666730861E+00    7.8426566610573314E+00
Ga    3.2030004363594662E+00    4.6006806221200430E-02    8.4328523904292787E+00
N    3.2045594126979742E+00    4.2969825403980581E-02    1.0421259697304288E+01
Ga    3.2049069140993760E+00    1.9130874190765279E+00    1.1020702123171835E+01
N    3.2058099609997948E+00    1.9111412258441873E+00    1.2986238505644861E+01
Ga    3.2058783214432247E+00    4.2944558937127404E-02    1.3616005262678117E+01
N    3.2054899625904603E+00    7.0869749681803582E-02    1.5576722624609003E+01
Ga    3.2080861292702720E+00    1.9108659946120254E+00    1.5857399505744185E+01
N    1.4709529606236205E+00    4.6363441575259587E+00    2.4994177573995722E+00
Ga    1.6812200705725100E+00    2.7910346717137826E+00    3.2890435285887767E+00
N    1.5956675856574685E+00    2.8422764293254978E+00    5.2477570767067157E+00
Ga    1.6150371140922697E+00    4.7140031176160813E+00    5.7979719936128866E+00
N    1.6046582826919518E+00    4.7059673543925102E+00    7.7893144706463833E+00
Ga    1.5849482708659552E+00    2.8488882475282233E+00    8.4351034696395200E+00
N    1.5853402183319798E+00    2.8485369710393758E+00    1.0422925445725763E+01
Ga    1.6121142571984521E+00    4.7075684151308606E+00    1.1067475192617122E+01
N    1.6305331908625278E+00    4.7160191900768993E+00    1.3056603906117680E+01
Ga    1.5873975640190308E+00    2.8458942583130900E+00    1.3615146135320954E+01
N    1.6168948503851994E+00    2.8273975294336617E+00    1.5572260374473139E+01
Ga    1.4345728888444964E+00    4.6028204952849210E+00    1.6476363052621043E+01
N   -1.7963255293253169E-02    7.4821120007290460E+00    2.5969106538743123E+00
Ga   -1.6005556439297765E-02    5.7410790794131445E+00    3.2924964553264768E+00
N   -1.5822256853616920E-02    5.6334384570642744E+00    5.2502336344155678E+00
Ga   -1.6431047136303171E-02    7.4859074009571032E+00    5.8755724124605022E+00
N   -1.3991153908759935E-02    7.4863419762946597E+00    7.8431513251507754E+00
Ga   -1.3411490600884490E-02    5.6175154916362917E+00    8.4349083637774402E+00
N   -1.1558891505359789E-02    5.6148333394233800E+00    1.0423891954888209E+01
Ga   -1.1679556277468216E-02    7.4848771565593690E+00    1.1021239782070056E+01
N   -1.0343601375743248E-02    7.4843346785685450E+00    1.2988624624090155E+01
Ga   -1.0004089257623685E-02    5.6137939451166847E+00    1.3615519675356170E+01
N   -9.7720183804550081E-03    5.6497853780468770E+00    1.5573172953880400E+01
Ga   -9.6709882581317384E-03    7.4850297742897531E+00    1.5857209480680053E+01
N   -1.7326498841545455E+00    1.0212747474157707E+01    2.5157356059696210E+00
Ga   -1.5252634753750891E+00    8.3568881860528137E+00    3.2805504375422965E+00
N   -1.6217994363448394E+00    8.4142610303992527E+00    5.2404821225656164E+00
Ga   -1.6005278697073271E+00    1.0286281778745122E+01    5.7913696025328845E+00
N   -1.6125221881220513E+00    1.0276395660289875E+01    7.7838626135358036E+00
Ga   -1.6323620727064729E+00    8.4197028345827754E+00    8.4317802044566310E+00
N   -1.6315161848094843E+00    8.4190853000210453E+00    1.0421171020165112E+01
Ga   -1.6044651380608446E+00    1.0277420388751858E+01    1.1066166551160213E+01
N   -1.5865514566413592E+00    1.0286274070869521E+01    1.3056236925644441E+01
Ga   -1.6294821848044201E+00    8.4173753563533396E+00    1.3616744027865948E+01
N   -1.6037318654753703E+00    8.4023866098725541E+00    1.5576469915542102E+01
Ga   -1.7754841565014958E+00    1.0176646822468472E+01    1.6475844857567978E+01
N    6.4123117930533793E+00    2.0398335847005629E+00    2.5169118759421152E+00
Ga    6.4141710459928465E+00    6.0756139129709424E-02    2.8596041332611684E+00
N    6.4164512080258387E+00    5.9270057027235160E-02    5.0085080821615993E+00
Ga    6.4148298414006986E+00    1.8883939445955051E+00    5.7931707263077081E+00
N    6.4177473642648870E+00    1.9037406767308271E+00    7.7851956856190609E+00
Ga    6.4181925772744099E+00    5.7879473030860981E-02    8.4388721533297417E+00
N    6.4203832691930538E+00    5.6263426949688472E-02    1.0409285089164202E+01
Ga    6.4207872357830142E+00    1.8959549499827344E+00    1.1065819108217726E+01
N    6.4218598462906726E+00    1.8749929864516583E+00    1.3053693092420103E+01
Ga    6.4222014533419891E+00    5.6918530392714106E-02    1.3869318346016804E+01
N    6.4231893598791823E+00    5.9161761699362644E-02    1.6060081287895603E+01
Ga    6.4229764424865126E+00    2.1158901337516109E+00    1.6483590898443570E+01
Ga    6.4174718278134888E+00    3.7732858073777518E+00    1.4863808442780537E+00
N    4.9090850374749850E+00    4.6407198435507730E+00    2.5123821686670742E+00
Ga    4.7008092837670317E+00    2.7872638058123314E+00    3.2764809156692487E+00
N    4.8038551581564359E+00    2.8420331060670132E+00    5.2368546041662549E+00
Ga    4.7831066976554801E+00    4.7142255001547149E+00    5.7906712673433374E+00
N    4.8005335472952870E+00    4.7056845094234925E+00    7.7831406072127836E+00
Ga    4.8207019408422589E+00    2.8491077665479008E+00    8.4331571901034401E+00
N    4.8239261324725211E+00    2.8488313510395953E+00    1.0421001511772841E+01
Ga    4.7979425418642423E+00    4.7077466068118055E+00    1.1066312125706023E+01
N    4.7821279337587459E+00    4.7158181667109327E+00    1.3054285734716956E+01
Ga    4.8247802170184961E+00    2.8461924310949316E+00    1.3615423945156440E+01
N    4.7960705023188206E+00    2.8280072162881149E+00    1.5569986120361419E+01
Ga    4.9858343194845087E+00    4.5987523615185530E+00    1.6481584453379345E+01
N    6.4224507729561218E+00    3.7744999513049695E+00    1.7617362652496237E+01
N    3.1958750127209963E+00    7.6090183057110199E+00    2.5152927757576746E+00
Ga    3.1849471647173444E+00    5.6239292170574737E+00    2.8564839288867474E+00
N    3.1973098534326190E+00    5.6282194543336690E+00    5.0040460796439579E+00
Ga    3.1996411418782933E+00    7.4571702415148975E+00    5.7922869854050942E+00
N    3.2023121840815167E+00    7.4734353858659839E+00    7.7841546309981906E+00
Ga    3.2032194650730226E+00    5.6283490200808011E+00    8.4404455289887004E+00
N    3.2048009238307564E+00    5.6275399170892042E+00    1.0409796718584843E+01
Ga    3.2050508137427389E+00    7.4665340542556278E+00    1.1066573740866842E+01
N    3.2060728607941358E+00    7.4461976538867667E+00    1.3055902353571611E+01
Ga    3.2074698637867143E+00    5.6254033451855365E+00    1.3871408141834223E+01
N    3.2079988345580883E+00    5.6257240727887083E+00    1.6058150268671170E+01
Ga    3.2065575739486576E+00    7.6698917718399224E+00    1.6475325415264496E+01
Ga    3.1949987847632961E+00    9.3468198539080056E+00    1.4904534793807171E+00
N    1.6952754157139671E+00    1.0211481656686267E+01    2.5194579434156008E+00
Ga    1.4880487189729708E+00    8.3563478296237861E+00    3.2834648370907598E+00
N    1.5894788518856946E+00    8.4136549201301918E+00    5.2425316637793333E+00
Ga    1.5676596244666050E+00    1.0285204026404244E+01    5.7955152752506605E+00
N    1.5845097620049713E+00    1.0275833612208602E+01    7.7868926845496214E+00
Ga    1.6046316328625330E+00    8.4190084279026873E+00    8.4330119550009162E+00
N    1.6080960361420369E+00    8.4188952077436330E+00    1.0421863488714598E+01
Ga    1.5812921147332641E+00    1.0277585310268647E+01    1.1066372893549540E+01
N    1.5658025890691585E+00    1.0286236231604759E+01    1.3055947923137058E+01
Ga    1.6091976573335707E+00    8.4172610289732290E+00    1.3616025536209971E+01
N    1.5837290762215623E+00    8.4023501609403421E+00    1.5575562895343850E+01
Ga    1.7562596206911318E+00    1.0176579375451528E+01    1.6476043698158499E+01
N    3.2046417246295698E+00    9.3444352478355430E+00    1.7618718850897224E+01
N    9.6330239333085217E+00    1.9184769825319505E+00    2.6012755419951614E+00
Ga    9.6295387542219988E+00    1.7698514482788733E-01    3.2858924649758863E+00
N    9.6319859707867561E+00    6.1530209449787036E-02    5.2448969375199317E+00
Ga    9.6315530114871422E+00    1.9160885372396019E+00    5.8792873936122323E+00
N    9.6334984447128242E+00    1.9142762434414451E+00    7.8459793250557421E+00
Ga    9.6346387650599770E+00    4.5803042740224509E-02    8.4342216891979156E+00
N    9.6367179309519848E+00    4.2945737330566440E-02    1.0422349673102136E+01
Ga    9.6367906973835620E+00    1.9134083697955737E+00    1.1020494192715432E+01
N    9.6383720560176052E+00    1.9113536692735811E+00    1.2986306737145830E+01
Ga    9.6384320416861833E+00    4.2908951261083579E-02    1.3615163659082176E+01
N    9.6398222080884413E+00    7.1174189647553315E-02    1.5575459029592192E+01
Ga    9.6377041697591554E+00    1.9109167610891997E+00    1.5856497099453339E+01
N    7.9164926738861006E+00    4.6404584904456589E+00    2.5171259017903358E+00
Ga    8.1226088425249632E+00    2.7874116973376832E+00    3.2841453970893855E+00
N    8.0255432706404441E+00    2.8429374368744544E+00    5.2436923459170073E+00
Ga    8.0499328767797458E+00    4.7157301191279251E+00    5.7918406486596643E+00
N    8.0369833875797276E+00    4.7065569838260499E+00    7.7843447909331953E+00
Ga    8.0156829218565839E+00    2.8496234955700137E+00    8.4334009053495755E+00
N    8.0170392434722011E+00    2.8489650920046996E+00    1.0421485577287703E+01
Ga    8.0438479521482513E+00    4.7078166531622641E+00    1.1066422421315735E+01
N    8.0618402323218312E+00    4.7160088786878402E+00    1.3054256589593132E+01
Ga    8.0194107433717825E+00    2.8462697566502215E+00    1.3615353659448001E+01
N    8.0495345895490455E+00    2.8285761320874236E+00    1.5569631081040367E+01
Ga    7.8598306084091094E+00    4.5987512011866043E+00    1.6481946160767528E+01
N    6.4134331583705499E+00    7.4875241637028349E+00    2.5932556082823517E+00
Ga    6.4130502591927776E+00    5.7461824391008767E+00    3.2791210082791222E+00
N    6.4158075456414929E+00    5.6313471522526513E+00    5.2390141552416258E+00
Ga    6.4166114404242753E+00    7.4864770239704059E+00    5.8688413040556267E+00
N    6.4186956099345238E+00    7.4856887635203941E+00    7.8372865761210404E+00
Ga    6.4189027082487957E+00    5.6172423931863911E+00    8.4304529989175396E+00
N    6.4206643898839753E+00    5.6148621041608830E+00    1.0419839681480099E+01
Ga    6.4211766914309676E+00    7.4846084777151587E+00    1.1019239164548067E+01
N    6.4222036204329944E+00    7.4844438964868143E+00    1.2986268323353327E+01
Ga    6.4221406198721427E+00    5.6141691768797655E+00    1.3615155677436709E+01
N    6.4231541608442289E+00    5.6495105868343725E+00    1.5569988600987045E+01
Ga    6.4224673534887344E+00    7.4835084473463738E+00    1.5853869962271249E+01
N    4.6994637679053346E+00    1.0213473856192142E+01    2.5172449450140983E+00
Ga    4.9057167410774305E+00    8.3574723573857224E+00    3.2796748110635034E+00
N    4.8092731632294150E+00    8.4138116141449846E+00    5.2397065167618662E+00
Ga    4.8320589598601851E+00    1.0285156245598019E+01    5.7949818987274613E+00
N    4.8207070048483072E+00    1.0276193769825431E+01    7.7859997680581801E+00
Ga    4.8007225101452171E+00    8.4187341038022634E+00    8.4309349327765517E+00
N    4.8012741965274977E+00    8.4186132911464302E+00    1.0419930857564175E+01
Ga    4.8278613140711286E+00    1.0276972343219148E+01    1.1065630132048730E+01
N    4.8457191733930616E+00    1.0285786934750705E+01    1.3054921464229654E+01
Ga    4.8034068419212286E+00    8.4170814130993428E+00    1.3615338757853488E+01
N    4.8293519802255664E+00    8.4034398741572982E+00    1.5574557074650254E+01
Ga    4.6546354471866209E+00    1.0175280842418376E+01    1.6476223714925901E+01
O    2.0449835896589125E-01    3.4511696847623270E+00   -5.4749756846246023E-01
H    7.7385640557239055E-01    4.1512864489524075E+00   -9.1821898076297725E-01
C    7.8188918948296005E-01    2.1313363296315719E+00   -8.7714443836692302E-01
H    1.8432676413603071E+00    2.1003309092306166E+00   -5.9710255981358218E-01
H    2.2676918802323226E-01    1.4054882100921597E+00   -2.7221608493968658E-01
H    6.2761746157722842E-01    1.9507747626942271E+00   -1.9469379712113026E+00
     &END COORD
     &KIND C
       BASIS_SET DZVP-MOLOPT-SR-GTH-q4
       POTENTIAL GTH-PBE-q4
       &POTENTIAL
2 2
0.3384712400000000E+00 2 -0.8803673979999999E+01  0.1339210850000000E+01
2
0.3025757500000000E+00 1  0.9622486650000001E+01
0.2915069400000000E+00 0
       &END POTENTIAL
     &END KIND
     &KIND O
       BASIS_SET DZVP-MOLOPT-SR-GTH-q6
       POTENTIAL GTH-PBE-q6
       &POTENTIAL
2 4
0.2445543000000000E+00 2 -0.1666721480000000E+02  0.2487311320000000E+01
2
0.2209559200000000E+00 1  0.1833745811000000E+02
0.2113324700000000E+00 0
       &END POTENTIAL
     &END KIND
     &KIND H
       BASIS_SET DZVP-MOLOPT-SR-GTH-q1
       POTENTIAL GTH-PBE-q1
       &POTENTIAL
1
0.2000000000000000E+00 2 -0.4178900440000000E+01  0.7244633100000000E+00
0
       &END POTENTIAL
     &END KIND
     &KIND N
       BASIS_SET DZVP-MOLOPT-SR-GTH
       POTENTIAL GTH-PBE-q5
       &POTENTIAL
2 3
0.2837905100000000E+00 2 -0.1241522559000000E+02  0.1868095920000000E+01
2
0.2554050000000000E+00 1  0.1363026257000000E+02
0.2454945300000000E+00 0
       &END POTENTIAL
     &END KIND
     &KIND Ga
       BASIS_SET DZVP-MOLOPT-SR-GTH
       POTENTIAL GTH-PBE-q13
       &POTENTIAL
2 1 10
0.4900000000000000E+00 0
3
0.4167772300000000E+00 3  0.1047568975000000E+02 -0.4921768140000000E+01  0.8707055900000000E+00
0.7770178090000000E+01 -0.2248152160000000E+01
0.1784415450000000E+01
0.5696265200000000E+00 2  0.1777985340000000E+01  0.1958597600000000E+00
-0.2317443900000000E+00
0.2381265000000000E+00 1 -0.1624868022000000E+02
       &END POTENTIAL
     &END KIND
     &TOPOLOGY
       NUMBER_OF_ATOMS  206
       MULTIPLE_UNIT_CELL  1 1 1
     &END TOPOLOGY
   &END SUBSYS
 &END FORCE_EVAL
