 # Version information for this restart file 
 # current date 2019-06-24 09:58:32.963
 # current working dir /scratch/rzk/rzk/GaN-carbene/443-adatoms-both-2x2/02-Methanol/01-O-GaTop
 # Program compiled at                              Sun Apr  7 00:48:11 EDT 2019
 # Program compiled on                          beluga2.int.ets1.calculquebec.ca
 # Program compiled for                        Beluga-Linux-x86-64-intel-openmpi
 # Source code revision number                                         svn:18619
 &GLOBAL
   PRINT_LEVEL  MEDIUM
   PROJECT_NAME TEST
   RUN_TYPE  GEO_OPT
 &END GLOBAL
 &MOTION
   &GEO_OPT
     MAX_ITER  500
     STEP_START_VAL  1
   &END GEO_OPT
 &END MOTION
 &FORCE_EVAL
   METHOD  QS
   STRESS_TENSOR  ANALYTICAL
   &DFT
     BASIS_SET_FILE_NAME BASIS_MOLOPT
     POTENTIAL_FILE_NAME GTH_POTENTIALS
     UKS  T
     SURFACE_DIPOLE_CORRECTION  T
     SURF_DIP_DIR  Z
     &SCF
       MAX_SCF  80
       EPS_SCF     5.0000000000000004E-06
       &OT  T
         PRECONDITIONER  FULL_ALL
       &END OT
       &OUTER_SCF  T
         OPTIMIZER  NONE
         EPS_SCF     5.0000000000000004E-06
         MAX_SCF  4
       &END OUTER_SCF
       &PRINT
         &RESTART  OFF
           BACKUP_COPIES  1
           &EACH
             JUST_ENERGY  0
             QS_SCF  0
             MD  20
           &END EACH
         &END RESTART
       &END PRINT
     &END SCF
     &QS
       EPS_DEFAULT     1.0000000000000000E-14
       METHOD  GPW
     &END QS
     &MGRID
       NGRIDS  5
       CUTOFF     1.2000000000000000E+03
     &END MGRID
     &XC
       DENSITY_CUTOFF     1.0000000000000000E-10
       GRADIENT_CUTOFF     1.0000000000000000E-10
       TAU_CUTOFF     1.0000000000000000E-10
       &XC_FUNCTIONAL  NO_SHORTCUT
         &PBE  T
         &END PBE
       &END XC_FUNCTIONAL
       &VDW_POTENTIAL
         POTENTIAL_TYPE  PAIR_POTENTIAL
         &PAIR_POTENTIAL
           R_CUTOFF     1.0000000000000004E+01
           TYPE  DFTD3
           PARAMETER_FILE_NAME dftd3.dat
           REFERENCE_FUNCTIONAL PBE
           EPS_CN     9.9999999999999995E-07
           CALCULATE_C9_TERM  T
           REFERENCE_C9_TERM  T
           LONG_RANGE_CORRECTION  F
           VERBOSE_OUTPUT  F
         &END PAIR_POTENTIAL
       &END VDW_POTENTIAL
     &END XC
   &END DFT
   &SUBSYS
     &CELL
       A     1.2864472766435110E+01    0.0000000000000000E+00    0.0000000000000000E+00
       B    -6.4322363581020028E+00    1.1140960178524473E+01    0.0000000000000000E+00
       C     0.0000000000000000E+00    0.0000000000000000E+00    3.2000000000000000E+01
       MULTIPLE_UNIT_CELL  1 1 1
       &CELL_REF
         A     1.2982353780853531E+01    0.0000000000000000E+00    0.0000000000000000E+00
         B    -6.4911768904267628E+00    1.1243048175136114E+01    0.0000000000000000E+00
         C     0.0000000000000000E+00    0.0000000000000000E+00    3.2000000000000000E+01
         MULTIPLE_UNIT_CELL  1 1 1
       &END CELL_REF
     &END CELL
     &COORD
N    2.0838097057019039E-02    2.0399692365007649E+00    2.4516312641467244E+00
Ga    2.0377413221332068E-02    5.5422559361015429E-02    2.8092197433102135E+00
N    2.0204500278172718E-02    4.8522120164749750E-02    4.9694618815971765E+00
Ga    2.0212742966440295E-02    1.8762849878095706E+00    5.7541415721138680E+00
N    2.0320020065983959E-02    1.8926606451964243E+00    7.7488804368201771E+00
Ga    1.9663630729310919E-02    4.7767922203615747E-02    8.3985490344769644E+00
N    1.9690291263214293E-02    4.7565989858800430E-02    1.0370829641247870E+01
Ga    1.9791182698622962E-02    1.8871153559959866E+00    1.1022153832730675E+01
N    1.9181561944649105E-02    1.8676883794632984E+00    1.3016026467090658E+01
Ga    1.7137495023940776E-02    4.4433413569084951E-02    1.3818436346442933E+01
N    2.2329401533856385E-02    4.7200234419926240E-02    1.6020703729812837E+01
Ga    1.9536884776091730E-02    2.0761763819688608E+00    1.6418740670465542E+01
Ga    1.2105268834896139E-02    3.7817813751117466E+00    1.4332529749367728E+00
N   -1.4768211985360380E+00    4.6272558472424556E+00    2.4720573248622406E+00
Ga   -1.6840547176728107E+00    2.7801194243771796E+00    3.2431407074589722E+00
N   -1.5895911017883586E+00    2.8304158327353788E+00    5.2057052404125157E+00
Ga   -1.6117877989218621E+00    4.7031602250573439E+00    5.7515728665976473E+00
N   -1.5981083800827629E+00    4.6953501219244975E+00    7.7474215129441681E+00
Ga   -1.5781181300863050E+00    2.8384536797962370E+00    8.3890252556968754E+00
N   -1.5767468196964154E+00    2.8391677284339942E+00    1.0381635075859730E+01
Ga   -1.6026804102425234E+00    4.6981067324329997E+00    1.1020877838917450E+01
N   -1.6205237765045857E+00    4.7083808684503170E+00    1.3014194697760267E+01
Ga   -1.5790976286344129E+00    2.8393190634628751E+00    1.3569259866373100E+01
N   -1.6048060375157376E+00    2.8256024924001819E+00    1.5533068816990346E+01
Ga   -1.4342161192607921E+00    4.6014003930141119E+00    1.6418584881950821E+01
N    2.8278201076631423E-02    3.7586731946658585E+00    1.7556175620400211E+01
N   -3.1956239984280135E+00    7.5961117280756385E+00    2.4751830623371047E+00
Ga   -3.1894259109331635E+00    5.6143974409004915E+00    2.8068578910256696E+00
N   -3.1957499340126962E+00    5.6175898084643086E+00    4.9684241082856051E+00
Ga   -3.1956587870857831E+00    7.4449256155352899E+00    5.7526221303320879E+00
N   -3.1961789105349956E+00    7.4636855283324897E+00    7.7475702485194020E+00
Ga   -3.1960550811265716E+00    5.6180512032829570E+00    8.3977221755930529E+00
N   -3.1961906212448437E+00    5.6181742341701257E+00    1.0370262222262209E+01
Ga   -3.1964260623765606E+00    7.4584733011768662E+00    1.1021192395408248E+01
N   -3.1968918767675780E+00    7.4383898496100471E+00    1.3013562819899422E+01
Ga   -3.1988976776057427E+00    5.6186169657385534E+00    1.3815135875841852E+01
N   -3.1965794124181137E+00    5.6182443811699354E+00    1.6018777418529130E+01
Ga   -3.1964528870839510E+00    7.6622041108977550E+00    1.6432514890702734E+01
Ga   -3.1951502699575944E+00    9.3310760904569978E+00    1.4389361742887146E+00
N   -4.6981161496189063E+00    1.0200036959643015E+01    2.4741524268984958E+00
Ga   -4.9019599365616218E+00    8.3462619158186460E+00    3.2406861608417881E+00
N   -4.8047577364603677E+00    8.4026940575168556E+00    5.2033185725562170E+00
Ga   -4.8293280220352388E+00    1.0274808885420761E+01    5.7527998229449784E+00
N   -4.8143538884816497E+00    1.0266139669568286E+01    7.7476406975495831E+00
Ga   -4.7946653176454310E+00    8.4091709490785167E+00    8.3891938502039309E+00
N   -4.7932532313456440E+00    8.4100358055154487E+00    1.0380888163883569E+01
Ga   -4.8188869907593999E+00    1.0268708873994683E+01    1.1021743269984464E+01
N   -4.8368881617557014E+00    1.0278758477019911E+01    1.3014073339151519E+01
Ga   -4.7942392490122909E+00    8.4098531762206701E+00    1.3572029440186023E+01
N   -4.8219903330217138E+00    8.3950794767376955E+00    1.5532956703718227E+01
Ga   -4.6399440093328685E+00    1.0166528671278291E+01    1.6433181018736949E+01
N   -3.1876771733588463E+00    9.3329698073643463E+00    1.7564600386923161E+01
N    3.2342078912634897E+00    1.9054306235267924E+00    2.5615917422444610E+00
Ga    3.2370857300502669E+00    1.6200291275750858E-01    3.2417297147828967E+00
N    3.2367053445464249E+00    4.8674168696239417E-02    5.2040051321906651E+00
Ga    3.2362730396162038E+00    1.9043744393237800E+00    5.8305747334892848E+00
N    3.2362057909945152E+00    1.9042383922595592E+00    7.8019941642467820E+00
Ga    3.2360887673848451E+00    3.6181342066735109E-02    8.3900972494236292E+00
N    3.2362945190990948E+00    3.4860221593554647E-02    1.0381928655299596E+01
Ga    3.2363109723619772E+00    1.9045236092816071E+00    1.0977452713002700E+01
N    3.2353937846146317E+00    1.9047304916964458E+00    1.2947430476251492E+01
Ga    3.2350807528586580E+00    3.5797032680772951E-02    1.3572169056332832E+01
N    3.2326557416491544E+00    6.8788008812683141E-02    1.5532345250730845E+01
Ga    3.2364919803465386E+00    1.9053618853065142E+00    1.5817615545679224E+01
N    1.5155660956321946E+00    4.6252129708825400E+00    2.4644512788995123E+00
Ga    1.7243547030993447E+00    2.7787873953800317E+00    3.2431158132060105E+00
N    1.6304218067596128E+00    2.8308292964825830E+00    5.2057726417718397E+00
Ga    1.6521436847164839E+00    4.7031460259804856E+00    5.7530252108340711E+00
N    1.6382388121928209E+00    4.6951228162362142E+00    7.7482439947448700E+00
Ga    1.6182988468867014E+00    2.8385048558648256E+00    8.3900468087705864E+00
N    1.6167957575948257E+00    2.8393981170952705E+00    1.0382665248660775E+01
Ga    1.6429302451575440E+00    4.6984834231612460E+00    1.1022553524968325E+01
N    1.6596715724451163E+00    4.7089351880508064E+00    1.3016521387297058E+01
Ga    1.6173866443242830E+00    2.8390468016225459E+00    1.3568945922574574E+01
N    1.6426550235813071E+00    2.8242913597835555E+00    1.5533505930951721E+01
Ga    1.4808531587613980E+00    4.6061203406046722E+00    1.6418148542462074E+01
N    2.0542605020161340E-02    7.4721999448639203E+00    2.5620841014423998E+00
Ga    1.9130013007728121E-02    5.7291526058459965E+00    3.2457356500127617E+00
N    2.0714476153522260E-02    5.6209931095333294E+00    5.2069729775862257E+00
Ga    2.0050705190512261E-02    7.4747825133406698E+00    5.8300239551395210E+00
N    1.9882710676156094E-02    7.4751878982876629E+00    7.8014340174258718E+00
Ga    2.0036011430502831E-02    5.6067065987515132E+00    8.3889720755088319E+00
N    2.0190257845205114E-02    5.6054852551710450E+00    1.0381810691122299E+01
Ga    2.0350785084676089E-02    7.4754044878982926E+00    1.0978044885589723E+01
N    1.9842518727894793E-02    7.4753894965128431E+00    1.2948744739721525E+01
Ga    1.8798258650225410E-02    5.6070898223799874E+00    1.3569021772715958E+01
N    1.7438675886508236E-02    5.6372514132613389E+00    1.5532728329627856E+01
Ga    2.1734589949578567E-02    7.4783019896403902E+00    1.5816075161831288E+01
N   -1.6939980811078268E+00    1.0198743672118100E+01    2.4750593161769969E+00
Ga   -1.4889275585961319E+00    8.3455988020619571E+00    3.2407605805119406E+00
N   -1.5866816299467124E+00    8.4026075537965159E+00    5.2031913380786499E+00
Ga   -1.5623286923273423E+00    1.0274295552651306E+01    5.7534395685208768E+00
N   -1.5784398992841182E+00    1.0265733645539346E+01    7.7480268903818743E+00
Ga   -1.5978017071014168E+00    8.4091363276087048E+00    8.3899983376545855E+00
N   -1.5990180049535025E+00    8.4101487651513995E+00    1.0382065698997506E+01
Ga   -1.5731479398432009E+00    1.0269058527704713E+01    1.1023783201618205E+01
N   -1.5561758564603214E+00    1.0279126592011329E+01    1.3016693969252925E+01
Ga   -1.5997940595873021E+00    8.4096329214743335E+00    1.3572648938441233E+01
N   -1.5716607167345362E+00    8.3924837100267009E+00    1.5534223204300796E+01
Ga   -1.7445091138435620E+00    1.0172118566105297E+01    1.6432124185617777E+01
N    6.4529184332970768E+00    2.0272150576146091E+00    2.4745523744788276E+00
Ga    6.4525162363027615E+00    4.7586857837092371E-02    2.8102365084300232E+00
N    6.4526122107359969E+00    4.7094747329952835E-02    4.9700523266855896E+00
Ga    6.4527187089710472E+00    1.8744699751402878E+00    5.7535087330855603E+00
N    6.4523403109235513E+00    1.8929604117630763E+00    7.7480733435302049E+00
Ga    6.4522974655066649E+00    4.7426618270114698E-02    8.3982677249762219E+00
N    6.4522968820652764E+00    4.7370272080643927E-02    1.0370617827507994E+01
Ga    6.4522987943957837E+00    1.8870031388117641E+00    1.1023642512621654E+01
N    6.4521604238784809E+00    1.8678769948261171E+00    1.3015854689682504E+01
Ga    6.4548541866705031E+00    4.7429129670946042E-02    1.3824745590531442E+01
N    6.4513017167185307E+00    4.8533877800919320E-02    1.6020955911014564E+01
Ga    6.4513214621396946E+00    2.0904681274819175E+00    1.6438131568753420E+01
Ga    6.4536585216868252E+00    3.7626570685209595E+00    1.4408144512202414E+00
N    4.9498993110540201E+00    4.6287229231382483E+00    2.4750833355432666E+00
Ga    4.7457591039193767E+00    2.7755058907273713E+00    3.2408400823325301E+00
N    4.8436120874687152E+00    2.8313634361601934E+00    5.2034425660592740E+00
Ga    4.8187887177341970E+00    4.7035805399220152E+00    5.7528158517047707E+00
N    4.8340278823353096E+00    4.6951953185167916E+00    7.7476663120911606E+00
Ga    4.8541058644077610E+00    2.8382669558822280E+00    8.3901078857707194E+00
N    4.8554916888325605E+00    2.8390225932767317E+00    1.0381808798099872E+01
Ga    4.8296945839536027E+00    4.6981015157727199E+00    1.1022037537151791E+01
N    4.8121732672268092E+00    4.7086122251718709E+00    1.3013750578037158E+01
Ga    4.8542729025532312E+00    2.8397200560968643E+00    1.3573157749805512E+01
N    4.8247936130867988E+00    2.8248960490750572E+00    1.5531766002567167E+01
Ga    5.0123511730282457E+00    4.5919245363018897E+00    1.6438993881713358E+01
N    6.4551250753855998E+00    3.7543610013696891E+00    1.7574022587303858E+01
N    3.2362336135295005E+00    7.5964601966024556E+00    2.4745952110458611E+00
Ga    3.2307237034404488E+00    5.6145474707945535E+00    2.8075549159588009E+00
N    3.2356874360842958E+00    5.6171552229733841E+00    4.9685408270437987E+00
Ga    3.2358833675679164E+00    7.4449515750431949E+00    5.7527985754981952E+00
N    3.2360774694622587E+00    7.4633387574122585E+00    7.7474752382096970E+00
Ga    3.2358183770741800E+00    5.6181281706836295E+00    8.3984736741136352E+00
N    3.2359717359411828E+00    5.6182097652325540E+00    1.0370842318491707E+01
Ga    3.2360266643393589E+00    7.4585356552502411E+00    1.1023119295761532E+01
N    3.2358250186506048E+00    7.4398695530799532E+00    1.3014787683308633E+01
Ga    3.2386104186706826E+00    5.6217549767163870E+00    1.3820264667106828E+01
N    3.2379578095256036E+00    5.6165355767106258E+00    1.6019798226530213E+01
Ga    3.2352950920561026E+00    7.6686386565115763E+00    1.6449724050999098E+01
Ga    3.2358746014082875E+00    9.3319987024188471E+00    1.4386531433768113E+00
N    1.7346477245348260E+00    1.0198787439716646E+01    2.4750202955608853E+00
Ga    1.5296405279108056E+00    8.3457625491292493E+00    3.2408548749817037E+00
N    1.6270124632272769E+00    8.4024648787280949E+00    5.2032486121323993E+00
Ga    1.6029071865963223E+00    1.0274214893030489E+01    5.7533934706540268E+00
N    1.6183375354470046E+00    1.0265595958127353E+01    7.7478265092068872E+00
Ga    1.6377619214917563E+00    8.4089805633980887E+00    8.3898784508572906E+00
N    1.6391271902771933E+00    8.4099686298033678E+00    1.0381445607974793E+01
Ga    1.6136872570320013E+00    1.0268615782947776E+01    1.1023976693100600E+01
N    1.5969774022880587E+00    1.0278433041362030E+01    1.3015567964449538E+01
Ga    1.6388658212612564E+00    8.4104419484458592E+00    1.3578173843891243E+01
N    1.6124065108319707E+00    8.3956351889208882E+00    1.5536856310230048E+01
Ga    1.7970355858880833E+00    1.0162590498196019E+01    1.6450571865145914E+01
N    3.2382631144361711E+00    9.3289960681655444E+00    1.7592068967482675E+01
N    9.6716121211370485E+00    1.9049257901310022E+00    2.5623664363459695E+00
Ga    9.6690399485320633E+00    1.6171390348978537E-01    3.2416616063803971E+00
N    9.6683715599480919E+00    4.8341557699040985E-02    5.2038293334900301E+00
Ga    9.6688307061274212E+00    1.9042126869726854E+00    5.8298528633240903E+00
N    9.6684529667633772E+00    1.9040701909979740E+00    7.8012487426587080E+00
Ga    9.6683379514585894E+00    3.6039925887545288E-02    8.3895931864507123E+00
N    9.6682301631961689E+00    3.4733145598038834E-02    1.0381134202654337E+01
Ga    9.6685531958944910E+00    1.9039714847023146E+00    1.0978013548689667E+01
N    9.6684753127100080E+00    1.9040906086381799E+00    1.2948445627332946E+01
Ga    9.6679035824191182E+00    3.4871326426013198E-02    1.3578490195071669E+01
N    9.6680721104162988E+00    6.5010577632397454E-02    1.5537384521942801E+01
Ga    9.6666524185059259E+00    1.9018055875444093E+00    1.5815929071501195E+01
N    7.9560434649935203E+00    4.6292745757204194E+00    2.4756710851810309E+00
Ga    8.1603893674382881E+00    2.7757794563178604E+00    3.2404686215265111E+00
N    8.0615638300975885E+00    2.8314077231080161E+00    5.2030757321500634E+00
Ga    8.0863635832187111E+00    4.7035606921979252E+00    5.7526563352565283E+00
N    8.0702026086938048E+00    4.6950204709717562E+00    7.7475968901297607E+00
Ga    8.0507245874937148E+00    2.8380006279087056E+00    8.3897953525841480E+00
N    8.0493129679376718E+00    2.8386782018052750E+00    1.0381671588046769E+01
Ga    8.0743607985892716E+00    4.6977596739161624E+00    1.1021155452732376E+01
N    8.0914748870902038E+00    4.7081769131900195E+00    1.3012833319046765E+01
Ga    8.0494570960091636E+00    2.8396518520499341E+00    1.3573820016492935E+01
N    8.0788519843885371E+00    2.8239268225303644E+00    1.5533803547937278E+01
Ga    7.8934003957437717E+00    4.5934088769113615E+00    1.6438567167559100E+01
N    6.4527364630314894E+00    7.4747700509096680E+00    2.5620919361704879E+00
Ga    6.4529559897618212E+00    5.7316623839534042E+00    3.2411217890451862E+00
N    6.4525036165267684E+00    5.6186052044202670E+00    5.2034825537005949E+00
Ga    6.4523231267821846E+00    7.4747554740482993E+00    5.8285750760552340E+00
N    6.4521774862361241E+00    7.4749316787348956E+00    7.8000804994833839E+00
Ga    6.4521281732444784E+00    5.6067444437558231E+00    8.3891168931905380E+00
N    6.4521389653704819E+00    5.6054374666339308E+00    1.0380739620788040E+01
Ga    6.4519906681142229E+00    7.4751491412620270E+00    1.0977651374473654E+01
N    6.4517015313813362E+00    7.4754293691566245E+00    1.2947941564702868E+01
Ga    6.4518571330970795E+00    5.6059494480702980E+00    1.3573036620336989E+01
N    6.4515286748671299E+00    5.6381674156733901E+00    1.5532343265415323E+01
Ga    6.4495728176012479E+00    7.4759962231415358E+00    1.5816728949383908E+01
N    4.7391441062242547E+00    1.0199739005522357E+01    2.4740742854703464E+00
Ga    4.9428168041877303E+00    8.3462139285883552E+00    3.2404968847921123E+00
N    4.8450264281854603E+00    8.4024860775093675E+00    5.2031670345635250E+00
Ga    4.8696213360273184E+00    1.0274573629943264E+01    5.7529583306201326E+00
N    4.8542765696193690E+00    1.0265691613873779E+01    7.7475153750456087E+00
Ga    4.8343235278042211E+00    8.4088328516226980E+00    8.3895865335014275E+00
N    4.8329317974031731E+00    8.4097556283881776E+00    1.0381013304608485E+01
Ga    4.8580438347612818E+00    1.0268296087992347E+01    1.1022828756252519E+01
N    4.8743166865271386E+00    1.0277898113564188E+01    1.3014384226375734E+01
Ga    4.8325653064157246E+00    8.4100718492589266E+00    1.3578127731847996E+01
N    4.8587945408788169E+00    8.3954350114583516E+00    1.5538229678091824E+01
Ga    4.6745387512131762E+00    1.0162969225688849E+01    1.6450670809414561E+01
O   -2.8442706438753557E-01    3.9353620353918899E+00   -8.1613580078412584E-01
H   -2.0664789751571608E-01    4.7343559289618184E+00   -1.3756067161912517E+00
C   -4.8048311963201302E-03    2.7416792405962718E+00   -1.5992022043101579E+00
H    8.7866412999215127E-01    2.8990630534107553E+00   -2.2315702127385153E+00
H    2.0112985925218546E-01    1.9491933399428698E+00   -8.7045840792114293E-01
H   -8.8330069778218734E-01    2.4808506340249146E+00   -2.2022070523399848E+00
     &END COORD
     &KIND C
       BASIS_SET DZVP-MOLOPT-SR-GTH-q4
       POTENTIAL GTH-PBE-q4
       &POTENTIAL
 2 2
  0.3384712400000000E+00 2 -0.8803673979999999E+01  0.1339210850000000E+01
 2
  0.3025757500000000E+00 1  0.9622486650000001E+01
  0.2915069400000000E+00 0
         # Potential name:  GTH-PBE-Q4  for symbol:  C
         # Potential read from the potential filename: GTH_POTENTIALS
       &END POTENTIAL
     &END KIND
     &KIND O
       BASIS_SET DZVP-MOLOPT-SR-GTH-q6
       POTENTIAL GTH-PBE-q6
       &POTENTIAL
 2 4
  0.2445543000000000E+00 2 -0.1666721480000000E+02  0.2487311320000000E+01
 2
  0.2209559200000000E+00 1  0.1833745811000000E+02
  0.2113324700000000E+00 0
         # Potential name:  GTH-PBE-Q6  for symbol:  O
         # Potential read from the potential filename: GTH_POTENTIALS
       &END POTENTIAL
     &END KIND
     &KIND H
       BASIS_SET DZVP-MOLOPT-SR-GTH-q1
       POTENTIAL GTH-PBE-q1
       &POTENTIAL
 1
  0.2000000000000000E+00 2 -0.4178900440000000E+01  0.7244633100000000E+00
 0
         # Potential name:  GTH-PBE-Q1  for symbol:  H
         # Potential read from the potential filename: GTH_POTENTIALS
       &END POTENTIAL
     &END KIND
     &KIND N
       BASIS_SET DZVP-MOLOPT-SR-GTH
       POTENTIAL GTH-PBE-q5
       &POTENTIAL
 2 3
  0.2837905100000000E+00 2 -0.1241522559000000E+02  0.1868095920000000E+01
 2
  0.2554050000000000E+00 1  0.1363026257000000E+02
  0.2454945300000000E+00 0
         # Potential name:  GTH-PBE-Q5  for symbol:  N
         # Potential read from the potential filename: GTH_POTENTIALS
       &END POTENTIAL
     &END KIND
     &KIND Ga
       BASIS_SET DZVP-MOLOPT-SR-GTH
       POTENTIAL GTH-PBE-q13
       &POTENTIAL
 2 1 10
  0.4900000000000000E+00 0
 3
  0.4167772300000000E+00 3  0.1047568975000000E+02 -0.4921768140000000E+01  0.8707055900000000E+00
  0.7770178090000000E+01 -0.2248152160000000E+01
  0.1784415450000000E+01
  0.5696265200000000E+00 2  0.1777985340000000E+01  0.1958597600000000E+00
 -0.2317443900000000E+00
  0.2381265000000000E+00 1 -0.1624868022000000E+02
         # Potential name:  GTH-PBE-Q13  for symbol:  GA
         # Potential read from the potential filename: GTH_POTENTIALS
       &END POTENTIAL
     &END KIND
     &TOPOLOGY
       NUMBER_OF_ATOMS  206
       MULTIPLE_UNIT_CELL  1 1 1
     &END TOPOLOGY
   &END SUBSYS
 &END FORCE_EVAL
