 # Version information for this restart file 
 # current date 2019-06-24 10:04:17.625
 # current working dir /scratch/rzk/rzk/GaN-carbene/443-adatoms-both-2x2/02-Methanol/01-O-GaTop
 # Program compiled at                              Sun Apr  7 00:48:11 EDT 2019
 # Program compiled on                          beluga2.int.ets1.calculquebec.ca
 # Program compiled for                        Beluga-Linux-x86-64-intel-openmpi
 # Source code revision number                                         svn:18619
 &GLOBAL
   PRINT_LEVEL  MEDIUM
   PROJECT_NAME TEST
   RUN_TYPE  GEO_OPT
 &END GLOBAL
 &MOTION
   &GEO_OPT
     MAX_ITER  500
     STEP_START_VAL  3
   &END GEO_OPT
 &END MOTION
 &FORCE_EVAL
   METHOD  QS
   STRESS_TENSOR  ANALYTICAL
   &DFT
     BASIS_SET_FILE_NAME BASIS_MOLOPT
     POTENTIAL_FILE_NAME GTH_POTENTIALS
     UKS  T
     SURFACE_DIPOLE_CORRECTION  T
     SURF_DIP_DIR  Z
     &SCF
       MAX_SCF  80
       EPS_SCF     5.0000000000000004E-06
       &OT  T
         PRECONDITIONER  FULL_ALL
       &END OT
       &OUTER_SCF  T
         OPTIMIZER  NONE
         EPS_SCF     5.0000000000000004E-06
         MAX_SCF  4
       &END OUTER_SCF
       &PRINT
         &RESTART  OFF
           BACKUP_COPIES  1
           &EACH
             JUST_ENERGY  0
             QS_SCF  0
             MD  20
           &END EACH
         &END RESTART
       &END PRINT
     &END SCF
     &QS
       EPS_DEFAULT     1.0000000000000000E-14
       METHOD  GPW
     &END QS
     &MGRID
       NGRIDS  5
       CUTOFF     1.2000000000000000E+03
     &END MGRID
     &XC
       DENSITY_CUTOFF     1.0000000000000000E-10
       GRADIENT_CUTOFF     1.0000000000000000E-10
       TAU_CUTOFF     1.0000000000000000E-10
       &XC_FUNCTIONAL  NO_SHORTCUT
         &PBE  T
         &END PBE
       &END XC_FUNCTIONAL
       &VDW_POTENTIAL
         POTENTIAL_TYPE  PAIR_POTENTIAL
         &PAIR_POTENTIAL
           R_CUTOFF     1.0000000000000004E+01
           TYPE  DFTD3
           PARAMETER_FILE_NAME dftd3.dat
           REFERENCE_FUNCTIONAL PBE
           EPS_CN     9.9999999999999995E-07
           CALCULATE_C9_TERM  T
           REFERENCE_C9_TERM  T
           LONG_RANGE_CORRECTION  F
           VERBOSE_OUTPUT  F
         &END PAIR_POTENTIAL
       &END VDW_POTENTIAL
     &END XC
   &END DFT
   &SUBSYS
     &CELL
       A     1.2864472766435110E+01    0.0000000000000000E+00    0.0000000000000000E+00
       B    -6.4322363581020028E+00    1.1140960178524473E+01    0.0000000000000000E+00
       C     0.0000000000000000E+00    0.0000000000000000E+00    3.2000000000000000E+01
       MULTIPLE_UNIT_CELL  1 1 1
       &CELL_REF
         A     1.2982353780853531E+01    0.0000000000000000E+00    0.0000000000000000E+00
         B    -6.4911768904267628E+00    1.1243048175136114E+01    0.0000000000000000E+00
         C     0.0000000000000000E+00    0.0000000000000000E+00    3.2000000000000000E+01
         MULTIPLE_UNIT_CELL  1 1 1
       &END CELL_REF
     &END CELL
     &COORD
N    1.7803882401740936E-02    2.0554623273844830E+00    2.4058266216746800E+00
Ga    1.9859979421231404E-02    6.8190409759953871E-02    2.8064265946973408E+00
N    2.0204165137836339E-02    5.4509237959719348E-02    4.9582534285028004E+00
Ga    2.0933697876636806E-02    1.8799300832578181E+00    5.7573722164182151E+00
N    2.0158264188560135E-02    1.8926765307524651E+00    7.7475713094258900E+00
Ga    1.9785382519850216E-02    4.7512764779089618E-02    8.4018757818631595E+00
N    1.9404415808656539E-02    4.6682846872632092E-02    1.0369512154993998E+01
Ga    1.9536018228608759E-02    1.8872491176381865E+00    1.1024100209791126E+01
N    1.9263028008647515E-02    1.8676924628754628E+00    1.3010562146956712E+01
Ga    2.0211852821874109E-02    4.9160178291723027E-02    1.3826810498372012E+01
N    2.2097349211639999E-02    4.8876649316645204E-02    1.6018592669124203E+01
Ga    2.0811680434916248E-02    2.0921127847151588E+00    1.6437503957190607E+01
Ga   -2.2131078946357619E-03    3.8134701200152783E+00    1.4289514339216411E+00
N   -1.4724629791545270E+00    4.6342856056173973E+00    2.4641560583906568E+00
Ga   -1.6764291183873923E+00    2.7847516669400250E+00    3.2357141216917769E+00
N   -1.5886103360579480E+00    2.8301238201927683E+00    5.1977469238163847E+00
Ga   -1.6113190709126777E+00    4.7011571237833794E+00    5.7558877058149474E+00
N   -1.5984456352391625E+00    4.6952064367085988E+00    7.7467064658377041E+00
Ga   -1.5789727653999022E+00    2.8385083969714446E+00    8.3924765233689538E+00
N   -1.5774199436546177E+00    2.8391984713183160E+00    1.0379319583758175E+01
Ga   -1.6032000502837367E+00    4.6985300180388627E+00    1.1023610616209417E+01
N   -1.6209023192537131E+00    4.7085925677333709E+00    1.3009934413878906E+01
Ga   -1.5780319417269328E+00    2.8397960533057689E+00    1.3573037213303859E+01
N   -1.6020549691389725E+00    2.8254133134427799E+00    1.5528941539425677E+01
Ga   -1.4230041114906067E+00    4.5951142806801144E+00    1.6436349396738134E+01
N    2.5691342998968449E-02    3.7588849623976786E+00    1.7585301754274109E+01
N   -3.1949379508688422E+00    7.5965014501831964E+00    2.4738787977158330E+00
Ga   -3.1854426480284364E+00    5.6133079562318180E+00    2.8129910727768190E+00
N   -3.1935248691149112E+00    5.6161137520097926E+00    4.9650245888237494E+00
Ga   -3.1955053741430728E+00    7.4452673798061371E+00    5.7524655544909065E+00
N   -3.1958619282435432E+00    7.4633381763869782E+00    7.7436650745501003E+00
Ga   -3.1962497969015251E+00    5.6180571876445464E+00    8.4001000519249835E+00
N   -3.1967621949459279E+00    5.6182902789800711E+00    1.0367551831587040E+01
Ga   -3.1964831036166674E+00    7.4573321524827971E+00    1.1026364650484846E+01
N   -3.1972331852236193E+00    7.4379139564045067E+00    1.3013964118412430E+01
Ga   -3.1956777085843648E+00    5.6178506808401103E+00    1.3828832702682480E+01
N   -3.1953488478763443E+00    5.6183137602386761E+00    1.6014577864081016E+01
Ga   -3.1953649006477809E+00    7.6678004403914164E+00    1.6436653119784321E+01
Ga   -3.1951927080511040E+00    9.3328934204776228E+00    1.4394885429710760E+00
N   -4.7006850546135688E+00    1.0202950624634253E+01    2.4733604025649969E+00
Ga   -4.9038553812292012E+00    8.3465515719510304E+00    3.2383596080951289E+00
N   -4.8053750015642933E+00    8.4027105339208070E+00    5.1987904332673889E+00
Ga   -4.8288091616243296E+00    1.0275504951059563E+01    5.7511507361816951E+00
N   -4.8148928346775302E+00    1.0266113369466639E+01    7.7429668634239901E+00
Ga   -4.7941537283546722E+00    8.4089239746044058E+00    8.3921209279994855E+00
N   -4.7929001297679372E+00    8.4097115234901825E+00    1.0378912591071742E+01
Ga   -4.8191102291787518E+00    1.0268350020438634E+01    1.1026103031464064E+01
N   -4.8371343022325046E+00    1.0278709701583434E+01    1.3013411717127338E+01
Ga   -4.7953666906112984E+00    8.4094781722807941E+00    1.3575709429674747E+01
N   -4.8264154698159087E+00    8.3944546884866575E+00    1.5530709181072778E+01
Ga   -4.6316151890368635E+00    1.0162929812832532E+01    1.6439226584053529E+01
N   -3.1912967086315089E+00    9.3292931205416547E+00    1.7562054910505811E+01
N    3.2291536414587170E+00    1.9084542506998978E+00    2.5546732469858777E+00
Ga    3.2354612391980009E+00    1.6538401148816362E-01    3.2394414264579035E+00
N    3.2371101406381877E+00    4.9564723010976967E-02    5.1993918379885615E+00
Ga    3.2329498334698199E+00    1.9059466171707657E+00    5.8305219814982276E+00
N    3.2365999832465837E+00    1.9040988823274387E+00    7.7989115383903256E+00
Ga    3.2361348065153295E+00    3.5732593137362968E-02    8.3929777973471644E+00
N    3.2361178787190772E+00    3.3698586132188187E-02    1.0379441310458885E+01
Ga    3.2366382253832815E+00    1.9044274540455219E+00    1.0978189479776933E+01
N    3.2356948529982477E+00    1.9049739761520643E+00    1.2941272790717674E+01
Ga    3.2351598606325798E+00    3.7055692731190366E-02    1.3574616742195994E+01
N    3.2348204657093103E+00    7.2427530223718090E-02    1.5528910214081183E+01
Ga    3.2326914661426001E+00    1.9073401632756870E+00    1.5815468526106084E+01
N    1.5046009695689935E+00    4.6309367869645346E+00    2.4415117658202150E+00
Ga    1.7117921527623512E+00    2.7856092426950472E+00    3.2263334389021661E+00
N    1.6290684854657889E+00    2.8310492476399203E+00    5.1912656383010054E+00
Ga    1.6516243227322127E+00    4.7000902777851863E+00    5.7570462377692131E+00
N    1.6386073308451199E+00    4.6950966166779473E+00    7.7474700775147651E+00
Ga    1.6188125622425804E+00    2.8383166674364322E+00    8.3937123436599439E+00
N    1.6165191261691982E+00    2.8395564628638592E+00    1.0379778690288200E+01
Ga    1.6426530296399124E+00    4.6987663424213792E+00    1.1024148313558754E+01
N    1.6594548007626755E+00    4.7087162686092210E+00    1.3010598161964797E+01
Ga    1.6174077368289794E+00    2.8390137793824448E+00    1.3572320255305733E+01
N    1.6410343015875333E+00    2.8259262483954464E+00    1.5528264525226650E+01
Ga    1.4664951821972751E+00    4.5964134005442565E+00    1.6437606059051454E+01
N    1.9980036534093328E-02    7.4689428206896729E+00    2.5514793659587078E+00
Ga    1.9110139043291792E-02    5.7301992974818310E+00    3.2571961558087854E+00
N    2.1208251763032541E-02    5.6217156175961334E+00    5.2115640140948329E+00
Ga    2.0153925802509621E-02    7.4749636511384994E+00    5.8356979373113660E+00
N    2.0015031047435097E-02    7.4762666288745727E+00    7.8020746713719920E+00
Ga    1.9740622222240795E-02    5.6068464360111090E+00    8.3917556755253511E+00
N    1.9837034815154721E-02    5.6056259110055606E+00    1.0378809367969060E+01
Ga    2.0710596898562021E-02    7.4755147652091365E+00    1.0979524626989653E+01
N    2.1174968629109857E-02    7.4759760208224932E+00    1.2945072872407332E+01
Ga    1.8897294298558711E-02    5.6061888482738782E+00    1.3572908296385309E+01
N    1.9671633420226899E-02    5.6346699473626680E+00    1.5528637549009327E+01
Ga    2.0515443139167758E-02    7.4731360620609140E+00    1.5812388736413451E+01
N   -1.6926708411989730E+00    1.0199756565873701E+01    2.4758626993133608E+00
Ga   -1.4869192427551410E+00    8.3447826705218553E+00    3.2398068147031003E+00
N   -1.5853855100365786E+00    8.4018186627209701E+00    5.1995648511957091E+00
Ga   -1.5636962193627726E+00    1.0273478825358811E+01    5.7549921213735589E+00
N   -1.5781297069902580E+00    1.0265271034028924E+01    7.7457674941590318E+00
Ga   -1.5984758959079552E+00    8.4091619385209491E+00    8.3940485696284224E+00
N   -1.5996538424172067E+00    8.4099263330081566E+00    1.0380799669205524E+01
Ga   -1.5728864565672900E+00    1.0268929642762199E+01    1.1027082021291099E+01
N   -1.5562631706810732E+00    1.0279528523176221E+01    1.3014193068745330E+01
Ga   -1.5992182201005720E+00    8.4099465753029108E+00    1.3574688465072603E+01
N   -1.5659561113912936E+00    8.3935163786200597E+00    1.5530073871250856E+01
Ga   -1.7549191422481889E+00    1.0165749180030005E+01    1.6437955261498313E+01
N    6.4525056075119736E+00    2.0263516711829128E+00    2.4752578897015551E+00
Ga    6.4522929903847928E+00    4.8033196816025789E-02    2.8194852368369911E+00
N    6.4524342632855758E+00    4.7207148343112945E-02    4.9704346981955387E+00
Ga    6.4524675770057494E+00    1.8761399394138616E+00    5.7550270243296016E+00
N    6.4524894235442867E+00    1.8929617072430935E+00    7.7457354126639366E+00
Ga    6.4521839168866233E+00    4.7526263476512072E-02    8.4012990595600954E+00
N    6.4525352153255415E+00    4.7329613931021045E-02    1.0369491923049168E+01
Ga    6.4522245356053105E+00    1.8867440402532294E+00    1.1027334812377626E+01
N    6.4516823481530396E+00    1.8673061193264882E+00    1.3014639211044706E+01
Ga    6.4513416076264782E+00    4.8322639659883419E-02    1.3830858510557000E+01
N    6.4506841630815472E+00    4.8435371903385517E-02    1.6020419028746023E+01
Ga    6.4508551057341998E+00    2.0976130470402183E+00    1.6439990853520392E+01
Ga    6.4534390054616049E+00    3.7618067289307304E+00    1.4432618273998825E+00
N    4.9480586323663331E+00    4.6288761152264941E+00    2.4748705982715240E+00
Ga    4.7419628330580403E+00    2.7742232973077243E+00    3.2397158530645696E+00
N    4.8425501855392641E+00    2.8306246137252020E+00    5.1996585278257523E+00
Ga    4.8186145035282291E+00    4.7029001877823395E+00    5.7518916425221933E+00
N    4.8336062419306938E+00    4.6956592420236110E+00    7.7433672048917082E+00
Ga    4.8544303325130835E+00    2.8387099203117732E+00    8.3930465863536909E+00
N    4.8564748803086903E+00    2.8398705990429165E+00    1.0379440616353314E+01
Ga    4.8294869173264727E+00    4.6984868973143756E+00    1.1026396738516683E+01
N    4.8118165985331771E+00    4.7089899963304926E+00    1.3013890700514857E+01
Ga    4.8532487573439917E+00    2.8390438996330496E+00    1.3575513761042211E+01
N    4.8231786696640242E+00    2.8223042237270128E+00    1.5529957485113220E+01
Ga    5.0157065241267462E+00    4.5886354495115764E+00    1.6441417519971452E+01
N    6.4570734338688718E+00    3.7586927172305682E+00    1.7565556788940608E+01
N    3.2356204676670184E+00    7.5962445263355329E+00    2.4737300500921879E+00
Ga    3.2238143500686389E+00    5.6122993229911708E+00    2.8087590195574745E+00
N    3.2323538020663078E+00    5.6150799610719222E+00    4.9614822832434005E+00
Ga    3.2354864781563135E+00    7.4450121899105293E+00    5.7517449812258725E+00
N    3.2358821155532986E+00    7.4629136706020107E+00    7.7431962534319929E+00
Ga    3.2360479558359745E+00    5.6181694480365874E+00    8.4015406569995701E+00
N    3.2365404177720625E+00    5.6188121205295074E+00    1.0369260566872555E+01
Ga    3.2361053279254341E+00    7.4580083232391443E+00    1.1027465736066620E+01
N    3.2360600345110480E+00    7.4385373113896218E+00    1.3016647663019336E+01
Ga    3.2350752267005438E+00    5.6171115856271374E+00    1.3827258866206840E+01
N    3.2360926289174561E+00    5.6158017465080121E+00    1.6018989903181733E+01
Ga    3.2346253058154590E+00    7.6567963167116462E+00    1.6437399085834251E+01
Ga    3.2359522902587581E+00    9.3333975386287857E+00    1.4417658767675077E+00
N    1.7333530182589609E+00    1.0199724477295774E+01    2.4757019615014988E+00
Ga    1.5270183026227075E+00    8.3442873785565137E+00    3.2394851728688279E+00
N    1.6257083609618119E+00    8.4019968473706985E+00    5.1991531256054149E+00
Ga    1.6038725529607887E+00    1.0273531087860670E+01    5.7550406715367615E+00
N    1.6182684884995382E+00    1.0265403245738353E+01    7.7456516566364542E+00
Ga    1.6384143968115485E+00    8.4091693371314697E+00    8.3936833709273859E+00
N    1.6403860959945380E+00    8.4104072190724626E+00    1.0380332183389553E+01
Ga    1.6130747793091853E+00    1.0268725841800295E+01    1.1027602895974908E+01
N    1.5953418727808959E+00    1.0279264241642110E+01    1.3016074168224467E+01
Ga    1.6385551420258981E+00    8.4107410975886516E+00    1.3577731073290030E+01
N    1.6128429300671232E+00    8.3972809526223831E+00    1.5537113330738221E+01
Ga    1.7889849483977185E+00    1.0167045573323405E+01    1.6437647048113924E+01
N    3.2416569526250960E+00    9.3279105689283810E+00    1.7580829889751520E+01
N    9.6749566022560920E+00    1.9081890755198021E+00    2.5556583784894551E+00
Ga    9.6696410651915592E+00    1.6551403959184818E-01    3.2399945710814344E+00
N    9.6677891619506049E+00    4.9221147213401768E-02    5.1995990737288471E+00
Ga    9.6709382179412664E+00    1.9053695527550358E+00    5.8311255964958351E+00
N    9.6676435459121599E+00    1.9038351407889942E+00    7.7991521444591454E+00
Ga    9.6682132033387020E+00    3.5876142326850602E-02    8.3929125849117643E+00
N    9.6682624342792884E+00    3.3586926963786859E-02    1.0379989516669324E+01
Ga    9.6681596923072632E+00    1.9036653997174355E+00    1.0980133496857048E+01
N    9.6680254732462156E+00    1.9028313386826743E+00    1.2945956692358076E+01
Ga    9.6673513305897973E+00    3.4627356800715332E-02    1.3578162940776075E+01
N    9.6660012566469735E+00    6.4154126166709569E-02    1.5537620486477044E+01
Ga    9.6705687932757129E+00    1.9054452842342828E+00    1.5812209829926850E+01
N    7.9565576799534501E+00    4.6287602661203184E+00    2.4754721065424010E+00
Ga    8.1626567722750636E+00    2.7742531374167299E+00    3.2404681914199913E+00
N    8.0622992503458519E+00    2.8309337532115584E+00    5.2001736698976622E+00
Ga    8.0859177183792692E+00    4.7032375997972986E+00    5.7527049532509373E+00
N    8.0703386486707700E+00    4.6951924229785007E+00    7.7438134317485803E+00
Ga    8.0502475028677036E+00    2.8385391406954361E+00    8.3933504639437899E+00
N    8.0488094628210085E+00    2.8393558406069097E+00    1.0380442639640515E+01
Ga    8.0751308121116683E+00    4.6985269087135588E+00    1.1026578685035730E+01
N    8.0918964736980445E+00    4.7089647028457451E+00    1.3014399896314336E+01
Ga    8.0489923636108784E+00    2.8392724561899696E+00    1.3576004149719898E+01
N    8.0798891822656103E+00    2.8191658959226680E+00    1.5531663649926445E+01
Ga    7.8931953679660483E+00    4.5926740083685749E+00    1.6438734505446135E+01
N    6.4528236105757646E+00    7.4748584219906400E+00    2.5532888999453243E+00
Ga    6.4525869190373744E+00    5.7340790963932049E+00    3.2403148665354666E+00
N    6.4521933607689919E+00    5.6193450659029569E+00    5.2000067226916116E+00
Ga    6.4524916312770140E+00    7.4748432842243053E+00    5.8306838438798057E+00
N    6.4521602935969469E+00    7.4747402001594825E+00    7.7981405371973551E+00
Ga    6.4521437635012608E+00    5.6062250567453944E+00    8.3921869221725043E+00
N    6.4522662827845956E+00    5.6050127140115222E+00    1.0378936857249803E+01
Ga    6.4517425349713529E+00    7.4751361307288189E+00    1.0980133823088039E+01
N    6.4503336821867761E+00    7.4757614280717002E+00    1.2944783965322806E+01
Ga    6.4515256374045444E+00    5.6071156054094775E+00    1.3576815987188162E+01
N    6.4489716727261790E+00    5.6414890659586643E+00    1.5531891409024249E+01
Ga    6.4504705934744404E+00    7.4757838073173009E+00    1.5820479577131181E+01
N    4.7410137068121436E+00    1.0202364526373778E+01    2.4735778363202385E+00
Ga    4.9451136037455150E+00    8.3461532110046424E+00    3.2383857703286343E+00
N    4.8456424975746275E+00    8.4024310229935271E+00    5.1986109276471550E+00
Ga    4.8693049665518737E+00    1.0275372931979488E+01    5.7512801154584174E+00
N    4.8545900518092546E+00    1.0265970106960298E+01    7.7429759154504554E+00
Ga    4.8340935291955214E+00    8.4087610052700050E+00    8.3922245526124293E+00
N    4.8320965980857569E+00    8.4100848007082831E+00    1.0379200470220358E+01
Ga    4.8584400902697569E+00    1.0268266433462541E+01    1.1027372597732530E+01
N    4.8756788785139884E+00    1.0278555728772655E+01    1.3016603603385226E+01
Ga    4.8332624246938574E+00    8.4097152733216483E+00    1.3578763259455030E+01
N    4.8569075614944968E+00    8.3958872659445127E+00    1.5539162199279001E+01
Ga    4.6855906936385008E+00    1.0170081580202222E+01    1.6437463798602344E+01
O   -2.6040884356905603E-01    3.8893797513317785E+00   -7.4885119545621470E-01
H   -2.0569943715937908E-01    4.7313805352399658E+00   -1.2381995059223494E+00
C    5.7073742269221281E-03    2.7233194902639024E+00   -1.5897098750797689E+00
H    8.8246539218372289E-01    2.8926912706773535E+00   -2.2239467518387315E+00
H    1.9940138304017849E-01    1.9048289363392590E+00   -8.8663671359090035E-01
H   -8.7872737208607588E-01    2.4915130519347648E+00   -2.1993048683607412E+00
     &END COORD
     &KIND C
       BASIS_SET DZVP-MOLOPT-SR-GTH-q4
       POTENTIAL GTH-PBE-q4
       &POTENTIAL
 2 2
  0.3384712400000000E+00 2 -0.8803673979999999E+01  0.1339210850000000E+01
 2
  0.3025757500000000E+00 1  0.9622486650000001E+01
  0.2915069400000000E+00 0
         # Potential name:  GTH-PBE-Q4  for symbol:  C
         # Potential read from the potential filename: GTH_POTENTIALS
       &END POTENTIAL
     &END KIND
     &KIND O
       BASIS_SET DZVP-MOLOPT-SR-GTH-q6
       POTENTIAL GTH-PBE-q6
       &POTENTIAL
 2 4
  0.2445543000000000E+00 2 -0.1666721480000000E+02  0.2487311320000000E+01
 2
  0.2209559200000000E+00 1  0.1833745811000000E+02
  0.2113324700000000E+00 0
         # Potential name:  GTH-PBE-Q6  for symbol:  O
         # Potential read from the potential filename: GTH_POTENTIALS
       &END POTENTIAL
     &END KIND
     &KIND H
       BASIS_SET DZVP-MOLOPT-SR-GTH-q1
       POTENTIAL GTH-PBE-q1
       &POTENTIAL
 1
  0.2000000000000000E+00 2 -0.4178900440000000E+01  0.7244633100000000E+00
 0
         # Potential name:  GTH-PBE-Q1  for symbol:  H
         # Potential read from the potential filename: GTH_POTENTIALS
       &END POTENTIAL
     &END KIND
     &KIND N
       BASIS_SET DZVP-MOLOPT-SR-GTH
       POTENTIAL GTH-PBE-q5
       &POTENTIAL
 2 3
  0.2837905100000000E+00 2 -0.1241522559000000E+02  0.1868095920000000E+01
 2
  0.2554050000000000E+00 1  0.1363026257000000E+02
  0.2454945300000000E+00 0
         # Potential name:  GTH-PBE-Q5  for symbol:  N
         # Potential read from the potential filename: GTH_POTENTIALS
       &END POTENTIAL
     &END KIND
     &KIND Ga
       BASIS_SET DZVP-MOLOPT-SR-GTH
       POTENTIAL GTH-PBE-q13
       &POTENTIAL
 2 1 10
  0.4900000000000000E+00 0
 3
  0.4167772300000000E+00 3  0.1047568975000000E+02 -0.4921768140000000E+01  0.8707055900000000E+00
  0.7770178090000000E+01 -0.2248152160000000E+01
  0.1784415450000000E+01
  0.5696265200000000E+00 2  0.1777985340000000E+01  0.1958597600000000E+00
 -0.2317443900000000E+00
  0.2381265000000000E+00 1 -0.1624868022000000E+02
         # Potential name:  GTH-PBE-Q13  for symbol:  GA
         # Potential read from the potential filename: GTH_POTENTIALS
       &END POTENTIAL
     &END KIND
     &TOPOLOGY
       NUMBER_OF_ATOMS  206
       MULTIPLE_UNIT_CELL  1 1 1
     &END TOPOLOGY
   &END SUBSYS
 &END FORCE_EVAL
