 # Version information for this restart file 
 # current date 2019-06-24 14:49:37.084
 # current working dir /scratch/rzk/rzk/GaN-carbene/443-adatoms-both-2x2/02-Methanol/01-O-GaTop
 # Program compiled at                              Sun Apr  7 00:48:11 EDT 2019
 # Program compiled on                          beluga2.int.ets1.calculquebec.ca
 # Program compiled for                        Beluga-Linux-x86-64-intel-openmpi
 # Source code revision number                                         svn:18619
 &GLOBAL
   PRINT_LEVEL  MEDIUM
   PROJECT_NAME TEST
   RUN_TYPE  GEO_OPT
 &END GLOBAL
 &MOTION
   &GEO_OPT
     MAX_ITER  500
     STEP_START_VAL  51
   &END GEO_OPT
 &END MOTION
 &FORCE_EVAL
   METHOD  QS
   STRESS_TENSOR  ANALYTICAL
   &DFT
     BASIS_SET_FILE_NAME BASIS_MOLOPT
     POTENTIAL_FILE_NAME GTH_POTENTIALS
     UKS  T
     SURFACE_DIPOLE_CORRECTION  T
     SURF_DIP_DIR  Z
     &SCF
       MAX_SCF  80
       EPS_SCF     5.0000000000000004E-06
       &OT  T
         PRECONDITIONER  FULL_ALL
       &END OT
       &OUTER_SCF  T
         OPTIMIZER  NONE
         EPS_SCF     5.0000000000000004E-06
         MAX_SCF  4
       &END OUTER_SCF
       &PRINT
         &RESTART  OFF
           BACKUP_COPIES  1
           &EACH
             JUST_ENERGY  0
             QS_SCF  0
             MD  20
           &END EACH
         &END RESTART
       &END PRINT
     &END SCF
     &QS
       EPS_DEFAULT     1.0000000000000000E-14
       METHOD  GPW
     &END QS
     &MGRID
       NGRIDS  5
       CUTOFF     1.2000000000000000E+03
     &END MGRID
     &XC
       DENSITY_CUTOFF     1.0000000000000000E-10
       GRADIENT_CUTOFF     1.0000000000000000E-10
       TAU_CUTOFF     1.0000000000000000E-10
       &XC_FUNCTIONAL  NO_SHORTCUT
         &PBE  T
         &END PBE
       &END XC_FUNCTIONAL
       &VDW_POTENTIAL
         POTENTIAL_TYPE  PAIR_POTENTIAL
         &PAIR_POTENTIAL
           R_CUTOFF     1.0000000000000005E+01
           TYPE  DFTD3
           PARAMETER_FILE_NAME dftd3.dat
           REFERENCE_FUNCTIONAL PBE
           EPS_CN     9.9999999999999995E-07
           CALCULATE_C9_TERM  T
           REFERENCE_C9_TERM  T
           LONG_RANGE_CORRECTION  F
           VERBOSE_OUTPUT  F
         &END PAIR_POTENTIAL
       &END VDW_POTENTIAL
     &END XC
   &END DFT
   &SUBSYS
     &CELL
       A     1.2864472766435110E+01    0.0000000000000000E+00    0.0000000000000000E+00
       B    -6.4322363581020028E+00    1.1140960178524475E+01    0.0000000000000000E+00
       C     0.0000000000000000E+00    0.0000000000000000E+00    3.2000000000000000E+01
       MULTIPLE_UNIT_CELL  1 1 1
       &CELL_REF
         A     1.2982353780853531E+01    0.0000000000000000E+00    0.0000000000000000E+00
         B    -6.4911768904267628E+00    1.1243048175136114E+01    0.0000000000000000E+00
         C     0.0000000000000000E+00    0.0000000000000000E+00    3.2000000000000000E+01
         MULTIPLE_UNIT_CELL  1 1 1
       &END CELL_REF
     &END CELL
     &COORD
N   -2.2935636171104456E-02    2.0463476321014102E+00    2.5101330871174423E+00
Ga   -2.0591708426088297E-02    7.2144465134206678E-02    2.8716281173187057E+00
N   -1.6435068100796740E-02    6.0535888685507376E-02    5.0085572467310531E+00
Ga   -1.5432437977746672E-02    1.8898468574113663E+00    5.7992990127541324E+00
N   -1.3347270799260295E-02    1.9026857377954851E+00    7.7900546443163767E+00
Ga   -1.2700565710656088E-02    5.7284752379170571E-02    8.4409787160127614E+00
N   -1.1316611220896965E-02    5.5800157250892837E-02    1.0410237896558403E+01
Ga   -1.1316390204595668E-02    1.8957464026184037E+00    1.1066583576740825E+01
N   -1.0147714422506558E-02    1.8745037378315728E+00    1.3055236160573905E+01
Ga   -1.0270908514168231E-02    5.5489725878670057E-02    1.3867835917894277E+01
N   -1.0101619592069261E-02    5.7471955981644368E-02    1.6060794479591870E+01
Ga   -1.0040942498122447E-02    2.1098335321082851E+00    1.6478676492002851E+01
Ga   -3.4931847203816604E-02    3.7711811883776978E+00    1.5151266623607564E+00
N   -1.5118337515793945E+00    4.6346176370040810E+00    2.5113771514521410E+00
Ga   -1.7234579421471807E+00    2.7854331272391795E+00    3.2982130648460553E+00
N   -1.6282299997799738E+00    2.8419217018762915E+00    5.2546236867582445E+00
Ga   -1.6471165018679401E+00    4.7148202563232484E+00    5.7987615858973092E+00
N   -1.6318484972740490E+00    4.7063590014530012E+00    7.7901863457187428E+00
Ga   -1.6117838989816047E+00    2.8489802870134566E+00    8.4348797003340259E+00
N   -1.6081661182853486E+00    2.8488032708223785E+00    1.0422957392250234E+01
Ga   -1.6349742337314941E+00    4.7077954347329714E+00    1.1067939776993390E+01
N   -1.6510348023275840E+00    4.7163129419428733E+00    1.3056712531875084E+01
Ga   -1.6076812998098149E+00    2.8460523928060342E+00    1.3614988435876992E+01
N   -1.6365315233626132E+00    2.8273827860548817E+00    1.5571681179547705E+01
Ga   -1.4538009513239452E+00    4.6021152296003214E+00    1.6476879010390427E+01
N   -9.7531184787820451E-03    3.7761120436436331E+00    1.7601884084925690E+01
N   -3.2332914848735217E+00    7.6084766895448146E+00    2.5153995056565077E+00
Ga   -3.2255701086818394E+00    5.6242633107816884E+00    2.8507913391572060E+00
N   -3.2296754761336510E+00    5.6278734038336591E+00    5.0032951963783248E+00
Ga   -3.2314815432650406E+00    7.4567543178112832E+00    5.7900555540924667E+00
N   -3.2298719090180259E+00    7.4734959296941446E+00    7.7828601447147143E+00
Ga   -3.2296067548938243E+00    5.6289699953716381E+00    8.4409914727649937E+00
N   -3.2279682893710784E+00    5.6278516698394885E+00    1.0410399038067252E+01
Ga   -3.2277045568107665E+00    7.4667131216754195E+00    1.1066981691553330E+01
N   -3.2265390400317391E+00    7.4460702172494608E+00    1.3056310587966319E+01
Ga   -3.2274375174569045E+00    5.6254395079738408E+00    1.3872159855179989E+01
N   -3.2264705642382236E+00    5.6256430478727664E+00    1.6058837237532043E+01
Ga   -3.2265334698035701E+00    7.6693449990521430E+00    1.6476046306353371E+01
Ga   -3.2315072901489756E+00    9.3415157798545057E+00    1.4826541236157509E+00
N   -4.7388031083358486E+00    1.0215201206440256E+01    2.5106545268331200E+00
Ga   -4.9423868771970545E+00    8.3589490117108216E+00    3.2766128170863849E+00
N   -4.8414756739357436E+00    8.4143190687771483E+00    5.2373853490715785E+00
Ga   -4.8629441470564725E+00    1.0285765926293029E+01    5.7919684979713342E+00
N   -4.8472092942425871E+00    1.0276159667812003E+01    7.7836885044256636E+00
Ga   -4.8272577615149590E+00    8.4188509004903658E+00    8.4301661454998786E+00
N   -4.8240569933245370E+00    8.4189475977688861E+00    1.0419488544806129E+01
Ga   -4.8503701143458295E+00    1.0277095684827582E+01    1.1066166384169980E+01
N   -4.8662035554531951E+00    1.0286142168504885E+01    1.3055707373999178E+01
Ga   -4.8234245619865650E+00    8.4171567363171640E+00    1.3616070412391302E+01
N   -4.8485845382139630E+00    8.4026566712796456E+00    1.5575204630634106E+01
Ga   -4.6752456150621411E+00    1.0175123739362991E+01    1.6476512466717576E+01
N   -3.2249790087593970E+00    9.3447761419667597E+00    1.7619512053375143E+01
N    3.1884792484066842E+00    1.9214795041986188E+00    2.5819051897105436E+00
Ga    3.1959767965276065E+00    1.7886980947635048E-01    3.2754820727097922E+00
N    3.2000087843902052E+00    6.3316004052626093E-02    5.2362555562216118E+00
Ga    3.1992934907426083E+00    1.9162946578862361E+00    5.8752654259380126E+00
N    3.2028904038418937E+00    1.9142799576693574E+00    7.8423396393603841E+00
Ga    3.2029730573103614E+00    4.6101692482738502E-02    8.4330404564801409E+00
N    3.2044630273174759E+00    4.3010699453189499E-02    1.0421230806871092E+01
Ga    3.2047999338050874E+00    1.9132197169387284E+00    1.1020760001908158E+01
N    3.2058437403371287E+00    1.9110729824971366E+00    1.2986120019942089E+01
Ga    3.2058794708125671E+00    4.2947593652549923E-02    1.3616197292059809E+01
N    3.2057264195403912E+00    7.0894016371608082E-02    1.5576633837525225E+01
Ga    3.2082104676089602E+00    1.9107859272015690E+00    1.5857494071272859E+01
N    1.4710731501480230E+00    4.6363876144354945E+00    2.4996506857290979E+00
Ga    1.6813014603207994E+00    2.7909899611664928E+00    3.2889639433828002E+00
N    1.5955869787265178E+00    2.8423184246828592E+00    5.2476406709128289E+00
Ga    1.6152466930462208E+00    4.7140749063845195E+00    5.7979928940355441E+00
N    1.6046412708959870E+00    4.7059889325813264E+00    7.7892117318551835E+00
Ga    1.5849408500241677E+00    2.8489288021101893E+00    8.4349670565731163E+00
N    1.5852311338343670E+00    2.8486366713842073E+00    1.0422673823896616E+01
Ga    1.6120115209503387E+00    4.7075898441496742E+00    1.1067658570144532E+01
N    1.6305381098213012E+00    4.7161987057232215E+00    1.3056460916755009E+01
Ga    1.5875282976300173E+00    2.8460180893857099E+00    1.3615202860534820E+01
N    1.6172672222836779E+00    2.8273930514600552E+00    1.5571977811757337E+01
Ga    1.4339943144608909E+00    4.6025392768961506E+00    1.6476389134485316E+01
N   -1.7898105620521954E-02    7.4821409210699379E+00    2.5971869908407874E+00
Ga   -1.5893310464390402E-02    5.7411251399851126E+00    3.2926112223371793E+00
N   -1.5822863580974220E-02    5.6332931315550949E+00    5.2503609227139032E+00
Ga   -1.6328642553117258E-02    7.4858841856008276E+00    5.8755324005873222E+00
N   -1.4032040372780391E-02    7.4863131653706887E+00    7.8431230950084592E+00
Ga   -1.3418242069907020E-02    5.6174421667378454E+00    8.4348089029070934E+00
N   -1.1593599126293376E-02    5.6147583151840994E+00    1.0423614867050770E+01
Ga   -1.1748508373174175E-02    7.4848174793012783E+00    1.1021193274812461E+01
N   -1.0546512959937592E-02    7.4843211949353510E+00    1.2988272859589026E+01
Ga   -1.0105854838134008E-02    5.6138896484140597E+00    1.3615651960649267E+01
N   -9.8448261069904296E-03    5.6500915985887472E+00    1.5573010263194059E+01
Ga   -9.7021088233428358E-03    7.4852496200191272E+00    1.5856308371100669E+01
N   -1.7323898916692517E+00    1.0212770679619979E+01    2.5159356796744210E+00
Ga   -1.5251580947789625E+00    8.3569169872735021E+00    3.2807288948801472E+00
N   -1.6219199327367997E+00    8.4142786970239687E+00    5.2407190905987209E+00
Ga   -1.6002942921691172E+00    1.0286296994751865E+01    5.7918362958299099E+00
N   -1.6125722751859066E+00    1.0276349772829501E+01    7.7842442190790750E+00
Ga   -1.6323474294450167E+00    8.4196800956162843E+00    8.4320474299383648E+00
N   -1.6316458782388150E+00    8.4191869959867525E+00    1.0421186687070129E+01
Ga   -1.6046415328587096E+00    1.0277474012388026E+01    1.1066511250836676E+01
N   -1.5863692716178008E+00    1.0286514898791602E+01    1.3056199816257978E+01
Ga   -1.6296111350854556E+00    8.4174307033280300E+00    1.3616675720839023E+01
N   -1.6039772888513286E+00    8.4023749843376390E+00    1.5575892227297704E+01
Ga   -1.7755698625076519E+00    1.0176500522946084E+01    1.6476228388048458E+01
N    6.4123202856838128E+00    2.0393325614632367E+00    2.5169575838692158E+00
Ga    6.4143766891807621E+00    6.0602291231735335E-02    2.8597125962999765E+00
N    6.4164707656117246E+00    5.9169488636842800E-02    5.0086287345530964E+00
Ga    6.4148400856073291E+00    1.8881380063855757E+00    5.7933322760810073E+00
N    6.4177273009867379E+00    1.9037234260124636E+00    7.7852842717171278E+00
Ga    6.4181767178144762E+00    5.7874111114274589E-02    8.4391343220982442E+00
N    6.4202342350821642E+00    5.6261794455503757E-02    1.0409255680534010E+01
Ga    6.4207271777022905E+00    1.8960399648977464E+00    1.1065961691733184E+01
N    6.4218879440244816E+00    1.8750229500745819E+00    1.3053802580124547E+01
Ga    6.4222129681084663E+00    5.7057171409677879E-02    1.3869382518928379E+01
N    6.4228727532145262E+00    5.8303290880194258E-02    1.6059842031053748E+01
Ga    6.4227838876314145E+00    2.1147122041820170E+00    1.6483744986592825E+01
Ga    6.4175475103540398E+00    3.7730118167931814E+00    1.4859227890733475E+00
N    4.9089049566669898E+00    4.6406893280393033E+00    2.5123350716474540E+00
Ga    4.7010419202133074E+00    2.7871744448057609E+00    3.2761238496349030E+00
N    4.8041240284014393E+00    2.8420171073573846E+00    5.2366968981981383E+00
Ga    4.7829788913952074E+00    4.7141906342974416E+00    5.7907290179712732E+00
N    4.8004818623559391E+00    4.7056323274214771E+00    7.7831178119905617E+00
Ga    4.8206265762279825E+00    2.8491029289846845E+00    8.4331827277946054E+00
N    4.8238833878275802E+00    2.8489057119493375E+00    1.0420832598760562E+01
Ga    4.7979145985778118E+00    4.7077681926527202E+00    1.1066639733762274E+01
N    4.7818963963137335E+00    4.7159955371132618E+00    1.3054505251634225E+01
Ga    4.8247100386726585E+00    2.8462763921696359E+00    1.3615903767117041E+01
N    4.7963881545600362E+00    2.8281159795116215E+00    1.5570563798141272E+01
Ga    4.9847375315035425E+00    4.5990938438735185E+00    1.6481690788786661E+01
N    6.4226581802471356E+00    3.7748108962373581E+00    1.7615799678696359E+01
N    3.1959835856808501E+00    7.6086420285843186E+00    2.5153574075719769E+00
Ga    3.1850354873128319E+00    5.6238437724428518E+00    2.8564143891925489E+00
N    3.1973817398812621E+00    5.6280838826656563E+00    5.0039159904385135E+00
Ga    3.1997344786945163E+00    7.4568765874189129E+00    5.7924146057909205E+00
N    3.2022850106473313E+00    7.4733809023905957E+00    7.7842969818360261E+00
Ga    3.2031328956831571E+00    5.6282560681603879E+00    8.4405250290664426E+00
N    3.2047640125680483E+00    5.6274761458200793E+00    1.0409731110502980E+01
Ga    3.2049928019588130E+00    7.4664943392921597E+00    1.1066668517816220E+01
N    3.2059521049336568E+00    7.4459760565160726E+00    1.3055618391117855E+01
Ga    3.2073328050257803E+00    5.6256008249853915E+00    1.3871839410641616E+01
N    3.2073210947691297E+00    5.6261355213309567E+00    1.6058112887687550E+01
Ga    3.2062134326950558E+00    7.6700928651788320E+00    1.6475797244324855E+01
Ga    3.1950877239501536E+00    9.3466547031103726E+00    1.4900166390796703E+00
N    1.6951593862666037E+00    1.0211446536342500E+01    2.5195506917995254E+00
Ga    1.4883580880048364E+00    8.3563985565854004E+00    3.2833076729745505E+00
N    1.5896993453207053E+00    8.4136243871717014E+00    5.2425425764329283E+00
Ga    1.5675954940866970E+00    1.0285157102463261E+01    5.7957285248601789E+00
N    1.5844856840589425E+00    1.0275809649673661E+01    7.7870768282778586E+00
Ga    1.6045938721179869E+00    8.4189783936879667E+00    8.4332159321072364E+00
N    1.6080944684783993E+00    8.4189611981934220E+00    1.0421812134990530E+01
Ga    1.5812833236436292E+00    1.0277655242728544E+01    1.1066549516238940E+01
N    1.5655822302663585E+00    1.0286530624030604E+01    1.3055841143525543E+01
Ga    1.6090690424828258E+00    8.4172943208285602E+00    1.3615985426612584E+01
N    1.5838799205429459E+00    8.4023133849280374E+00    1.5574865759646830E+01
Ga    1.7561717341205110E+00    1.0176222220458094E+01    1.6476442346660942E+01
N    3.2048352443396531E+00    9.3449111555934117E+00    1.7619423419539089E+01
N    9.6329870044915040E+00    1.9183019277455862E+00    2.6015997688083110E+00
Ga    9.6295682244431866E+00    1.7660592729331887E-01    3.2855933294941053E+00
N    9.6320051253824310E+00    6.1184134934807871E-02    5.2448095930114036E+00
Ga    9.6315322589050076E+00    1.9159647146204430E+00    5.8787984562317019E+00
N    9.6334353623416789E+00    1.9142798439998228E+00    7.8455030076983965E+00
Ga    9.6346357084315457E+00    4.5901226378294531E-02    8.4342885241892080E+00
N    9.6366640558980894E+00    4.2962622214825670E-02    1.0422151000092805E+01
Ga    9.6367160242690506E+00    1.9135037528691163E+00    1.1020504964620459E+01
N    9.6380790358350108E+00    1.9113566252021563E+00    1.2986079818270822E+01
Ga    9.6383166327067507E+00    4.2953999413541152E-02    1.3615494528522111E+01
N    9.6392749022504862E+00    7.1049660134855974E-02    1.5575603784791358E+01
Ga    9.6373300254050793E+00    1.9107256211466199E+00    1.5856580185387552E+01
N    7.9167466003395610E+00    4.6404056136384799E+00    2.5171628628778069E+00
Ga    8.1224033554067496E+00    2.7872249400554709E+00    3.2838312576216988E+00
N    8.0253138324129871E+00    2.8429511955129194E+00    5.2435545594509838E+00
Ga    8.0500676512926983E+00    4.7157000221690195E+00    5.7919481453934978E+00
N    8.0369627742698224E+00    4.7065178926294324E+00    7.7843273833845599E+00
Ga    8.0157334127267994E+00    2.8496090231327691E+00    8.4333642680025580E+00
N    8.0169060129716740E+00    2.8490166898186162E+00    1.0421214185350934E+01
Ga    8.0436616143506221E+00    4.7077903270501977E+00    1.1066697560677669E+01
N    8.0621071204217998E+00    4.7161506643927362E+00    1.3054413170671351E+01
Ga    8.0193492480141817E+00    2.8464651939026364E+00    1.3615914093081614E+01
N    8.0489646947233577E+00    2.8285955509782790E+00    1.5570521264311303E+01
Ga    7.8608194923739063E+00    4.5992338833532873E+00    1.6481989949422278E+01
N    6.4135095896687027E+00    7.4873877997301301E+00    2.5936086346964204E+00
Ga    6.4130518899072202E+00    5.7458757314012336E+00    3.2788549121427160E+00
N    6.4158508535298315E+00    5.6309964576933007E+00    5.2389669240082606E+00
Ga    6.4166053014656192E+00    7.4863250880720438E+00    5.8686467042586496E+00
N    6.4186842831340494E+00    7.4855943953433570E+00    7.8372264486961729E+00
Ga    6.4188507685570313E+00    5.6171495600285217E+00    8.4304123786986196E+00
N    6.4205550297830261E+00    5.6148429153375288E+00    1.0419607290777863E+01
Ga    6.4210294027712616E+00    7.4845504417960642E+00    1.1019577778246243E+01
N    6.4221339622040947E+00    7.4842342098937200E+00    1.2986599714894586E+01
Ga    6.4221770434496674E+00    5.6138067254549089E+00    1.3615950844185040E+01
N    6.4229617539426096E+00    5.6491785177852369E+00    1.5571274199355567E+01
Ga    6.4223079185244512E+00    7.4834400233260503E+00    1.5854054679986294E+01
N    4.6997190848730623E+00    1.0213355490695752E+01    2.5174109413892571E+00
Ga    4.9056405467126440E+00    8.3573569012441400E+00    3.2795009050872981E+00
N    4.8091904366971754E+00    8.4137636051357525E+00    5.2397105429792905E+00
Ga    4.8322161436850806E+00    1.0285083039449695E+01    5.7950836290081149E+00
N    4.8206798640199970E+00    1.0276186129265946E+01    7.7860635666543452E+00
Ga    4.8007332580047413E+00    8.4187228729730084E+00    8.4310227308279657E+00
N    4.8011783408788169E+00    8.4186678443409448E+00    1.0419833708024942E+01
Ga    4.8276966929585265E+00    1.0277011491301971E+01    1.1065891481451654E+01
N    4.8458312168777242E+00    1.0286165277606575E+01    1.3054905267763194E+01
Ga    4.8031074655649890E+00    8.4172416189905874E+00    1.3615538324660804E+01
N    4.8289533961843718E+00    8.4029870255259986E+00    1.5574470906507033E+01
Ga    4.6544765592018447E+00    1.0175244182920657E+01    1.6476553809180572E+01
O    2.0524109767735652E-01    3.4521169620747307E+00   -5.4693560515476836E-01
H    7.7690049524447402E-01    4.1510779224740979E+00   -9.1648680565177454E-01
C    7.8359212038176729E-01    2.1323677151104414E+00   -8.7513201730349288E-01
H    1.8434426598304712E+00    2.0982158304054033E+00   -5.9363687703431378E-01
H    2.2635903304567123E-01    1.4063851031160481E+00   -2.7282885664516865E-01
H    6.3122229207740654E-01    1.9509878229212039E+00   -1.9447989714411300E+00
     &END COORD
     &KIND C
       BASIS_SET DZVP-MOLOPT-SR-GTH-q4
       POTENTIAL GTH-PBE-q4
       &POTENTIAL
2 2
0.3384712400000000E+00 2 -0.8803673979999999E+01  0.1339210850000000E+01
2
0.3025757500000000E+00 1  0.9622486650000001E+01
0.2915069400000000E+00 0
       &END POTENTIAL
     &END KIND
     &KIND O
       BASIS_SET DZVP-MOLOPT-SR-GTH-q6
       POTENTIAL GTH-PBE-q6
       &POTENTIAL
2 4
0.2445543000000000E+00 2 -0.1666721480000000E+02  0.2487311320000000E+01
2
0.2209559200000000E+00 1  0.1833745811000000E+02
0.2113324700000000E+00 0
       &END POTENTIAL
     &END KIND
     &KIND H
       BASIS_SET DZVP-MOLOPT-SR-GTH-q1
       POTENTIAL GTH-PBE-q1
       &POTENTIAL
1
0.2000000000000000E+00 2 -0.4178900440000000E+01  0.7244633100000000E+00
0
       &END POTENTIAL
     &END KIND
     &KIND N
       BASIS_SET DZVP-MOLOPT-SR-GTH
       POTENTIAL GTH-PBE-q5
       &POTENTIAL
2 3
0.2837905100000000E+00 2 -0.1241522559000000E+02  0.1868095920000000E+01
2
0.2554050000000000E+00 1  0.1363026257000000E+02
0.2454945300000000E+00 0
       &END POTENTIAL
     &END KIND
     &KIND Ga
       BASIS_SET DZVP-MOLOPT-SR-GTH
       POTENTIAL GTH-PBE-q13
       &POTENTIAL
2 1 10
0.4900000000000000E+00 0
3
0.4167772300000000E+00 3  0.1047568975000000E+02 -0.4921768140000000E+01  0.8707055900000000E+00
0.7770178090000000E+01 -0.2248152160000000E+01
0.1784415450000000E+01
0.5696265200000000E+00 2  0.1777985340000000E+01  0.1958597600000000E+00
-0.2317443900000000E+00
0.2381265000000000E+00 1 -0.1624868022000000E+02
       &END POTENTIAL
     &END KIND
     &TOPOLOGY
       NUMBER_OF_ATOMS  206
       MULTIPLE_UNIT_CELL  1 1 1
     &END TOPOLOGY
   &END SUBSYS
 &END FORCE_EVAL
