 # Version information for this restart file 
 # current date 2019-06-24 14:39:54.325
 # current working dir /scratch/rzk/rzk/GaN-carbene/443-adatoms-both-2x2/02-Methanol/01-O-GaTop
 # Program compiled at                              Sun Apr  7 00:48:11 EDT 2019
 # Program compiled on                          beluga2.int.ets1.calculquebec.ca
 # Program compiled for                        Beluga-Linux-x86-64-intel-openmpi
 # Source code revision number                                         svn:18619
 &GLOBAL
   PRINT_LEVEL  MEDIUM
   PROJECT_NAME TEST
   RUN_TYPE  GEO_OPT
 &END GLOBAL
 &MOTION
   &GEO_OPT
     MAX_ITER  500
     STEP_START_VAL  47
   &END GEO_OPT
 &END MOTION
 &FORCE_EVAL
   METHOD  QS
   STRESS_TENSOR  ANALYTICAL
   &DFT
     BASIS_SET_FILE_NAME BASIS_MOLOPT
     POTENTIAL_FILE_NAME GTH_POTENTIALS
     UKS  T
     SURFACE_DIPOLE_CORRECTION  T
     SURF_DIP_DIR  Z
     &SCF
       MAX_SCF  80
       EPS_SCF     5.0000000000000004E-06
       &OT  T
         PRECONDITIONER  FULL_ALL
       &END OT
       &OUTER_SCF  T
         OPTIMIZER  NONE
         EPS_SCF     5.0000000000000004E-06
         MAX_SCF  4
       &END OUTER_SCF
       &PRINT
         &RESTART  OFF
           BACKUP_COPIES  1
           &EACH
             JUST_ENERGY  0
             QS_SCF  0
             MD  20
           &END EACH
         &END RESTART
       &END PRINT
     &END SCF
     &QS
       EPS_DEFAULT     1.0000000000000000E-14
       METHOD  GPW
     &END QS
     &MGRID
       NGRIDS  5
       CUTOFF     1.2000000000000000E+03
     &END MGRID
     &XC
       DENSITY_CUTOFF     1.0000000000000000E-10
       GRADIENT_CUTOFF     1.0000000000000000E-10
       TAU_CUTOFF     1.0000000000000000E-10
       &XC_FUNCTIONAL  NO_SHORTCUT
         &PBE  T
         &END PBE
       &END XC_FUNCTIONAL
       &VDW_POTENTIAL
         POTENTIAL_TYPE  PAIR_POTENTIAL
         &PAIR_POTENTIAL
           R_CUTOFF     1.0000000000000005E+01
           TYPE  DFTD3
           PARAMETER_FILE_NAME dftd3.dat
           REFERENCE_FUNCTIONAL PBE
           EPS_CN     9.9999999999999995E-07
           CALCULATE_C9_TERM  T
           REFERENCE_C9_TERM  T
           LONG_RANGE_CORRECTION  F
           VERBOSE_OUTPUT  F
         &END PAIR_POTENTIAL
       &END VDW_POTENTIAL
     &END XC
   &END DFT
   &SUBSYS
     &CELL
       A     1.2864472766435110E+01    0.0000000000000000E+00    0.0000000000000000E+00
       B    -6.4322363581020028E+00    1.1140960178524475E+01    0.0000000000000000E+00
       C     0.0000000000000000E+00    0.0000000000000000E+00    3.2000000000000000E+01
       MULTIPLE_UNIT_CELL  1 1 1
       &CELL_REF
         A     1.2982353780853531E+01    0.0000000000000000E+00    0.0000000000000000E+00
         B    -6.4911768904267628E+00    1.1243048175136114E+01    0.0000000000000000E+00
         C     0.0000000000000000E+00    0.0000000000000000E+00    3.2000000000000000E+01
         MULTIPLE_UNIT_CELL  1 1 1
       &END CELL_REF
     &END CELL
     &COORD
N   -2.3555672354263812E-02    2.0473114098174441E+00    2.5088604550822788E+00
Ga   -2.1011076113445742E-02    7.4037984927548581E-02    2.8693378893496551E+00
N   -1.6876295219892447E-02    6.1310019862869797E-02    5.0068386860979466E+00
Ga   -1.5821805230634409E-02    1.8900091700123203E+00    5.7994778257224828E+00
N   -1.3125754765762217E-02    1.9024567153312049E+00    7.7893025117490939E+00
Ga   -1.2608533654846007E-02    5.7094093548440139E-02    8.4413736921555227E+00
N   -1.1038628060706934E-02    5.6028409739499005E-02    1.0409712625996661E+01
Ga   -1.0503880523488383E-02    1.8955826152387527E+00    1.1069059757342565E+01
N   -9.4630782713242788E-03    1.8753153085372543E+00    1.3056930609663180E+01
Ga   -8.5632662607529036E-03    5.5275184396859182E-02    1.3870542533796403E+01
N   -9.2820099098061305E-03    5.5825156466405880E-02    1.6060197063715549E+01
Ga   -8.3807308544670053E-03    2.1101065104263110E+00    1.6485170253359602E+01
Ga   -3.4866494321682220E-02    3.7721360717484358E+00    1.5139241105072574E+00
N   -1.5121185300647628E+00    4.6361231259443763E+00    2.5114186402377316E+00
Ga   -1.7235173445177718E+00    2.7870416580626158E+00    3.2979327636475846E+00
N   -1.6286877572725826E+00    2.8425958617442864E+00    5.2536291035717468E+00
Ga   -1.6472527144107105E+00    4.7153665990545761E+00    5.8001984673704623E+00
N   -1.6314283195970851E+00    4.7058094644913080E+00    7.7903572145793927E+00
Ga   -1.6113465232649296E+00    2.8483072236412168E+00    8.4364382352249816E+00
N   -1.6071616484350102E+00    2.8483114978892448E+00    1.0423209486819214E+01
Ga   -1.6339006349990000E+00    4.7069728459555229E+00    1.1069662975256453E+01
N   -1.6496614881231402E+00    4.7156747056577286E+00    1.3057815024067491E+01
Ga   -1.6079572893754677E+00    2.8455918840096230E+00    1.3619731167850828E+01
N   -1.6354122015733719E+00    2.8268271987731164E+00    1.5575077980264421E+01
Ga   -1.4494445582039690E+00    4.6003488175953740E+00    1.6483093950389929E+01
N   -8.8504459372588662E-03    3.7734621663888235E+00    1.7617370587001808E+01
N   -3.2337861924471079E+00    7.6097715190937425E+00    2.5128616781038033E+00
Ga   -3.2249032423837050E+00    5.6263220642928040E+00    2.8521362623651023E+00
N   -3.2300505520258853E+00    5.6284847773859514E+00    5.0034281294079745E+00
Ga   -3.2321907248450423E+00    7.4582272836559387E+00    5.7903950471753607E+00
N   -3.2296604209916557E+00    7.4728841436125597E+00    7.7823080137557543E+00
Ga   -3.2295116427971555E+00    5.6277158813086006E+00    8.4419124062326940E+00
N   -3.2275611469673744E+00    5.6261719357988609E+00    1.0409897899078132E+01
Ga   -3.2270148158866303E+00    7.4660055730303263E+00    1.1065182943632287E+01
N   -3.2257129397799620E+00    7.4454353298130940E+00    1.3051614713067075E+01
Ga   -3.2250962912948151E+00    5.6271632123835946E+00    1.3872172413917106E+01
N   -3.2260328560405851E+00    5.6254351573627996E+00    1.6058490147915499E+01
Ga   -3.2258359008377240E+00    7.6734764268821944E+00    1.6478221509126787E+01
Ga   -3.2314680213343414E+00    9.3417817451489054E+00    1.4746226801031064E+00
N   -4.7397509595965559E+00    1.0216460167619331E+01    2.5053538243378184E+00
Ga   -4.9426371239408233E+00    8.3613340108680010E+00    3.2724426638309785E+00
N   -4.8419294089327778E+00    8.4149389793492535E+00    5.2339205935811615E+00
Ga   -4.8631175059310969E+00    1.0286209453849692E+01    5.7906356439767723E+00
N   -4.8470555517521232E+00    1.0276131705339409E+01    7.7818714500751760E+00
Ga   -4.8274916294841397E+00    8.4187078095844630E+00    8.4301230284724280E+00
N   -4.8239092341598306E+00    8.4185131390335037E+00    1.0417322174914776E+01
Ga   -4.8499324952985337E+00    1.0277179778126166E+01    1.1065945055710777E+01
N   -4.8657167207902940E+00    1.0286467907626214E+01    1.3052692283561514E+01
Ga   -4.8218999409009804E+00    8.4172076851692719E+00    1.3615497038449805E+01
N   -4.8471311094467753E+00    8.4023816106005107E+00    1.5572212953459067E+01
Ga   -4.6725281343407126E+00    1.0175382765293280E+01    1.6479238192302152E+01
N   -3.2269529437600704E+00    9.3466149977121535E+00    1.7622818917445329E+01
N    3.1868812939927511E+00    1.9227500720028592E+00    2.5773906473828889E+00
Ga    3.1945586990196642E+00    1.7911412129776449E-01    3.2707339416990204E+00
N    3.1994614714705665E+00    6.3887639348004052E-02    5.2323546049382141E+00
Ga    3.1987129609395715E+00    1.9162460157924552E+00    5.8740972926615589E+00
N    3.2031269678197605E+00    1.9142465539361291E+00    7.8405837854298488E+00
Ga    3.2030154356461882E+00    4.6144342520993260E-02    8.4329910754097401E+00
N    3.2049131732143743E+00    4.3310387268203472E-02    1.0419305567013669E+01
Ga    3.2048084077652343E+00    1.9135931038884479E+00    1.1021319088665054E+01
N    3.2060303215198003E+00    1.9113650368761841E+00    1.2985293211519746E+01
Ga    3.2066671353278005E+00    4.2649572241233391E-02    1.3615537037065444E+01
N    3.2061312593502254E+00    7.0637174411315992E-02    1.5572262780178573E+01
Ga    3.2058519033468142E+00    1.9078951290851427E+00    1.5858780341159063E+01
N    1.4702193057697228E+00    4.6379789886166849E+00    2.4995680258325303E+00
Ga    1.6802060118890063E+00    2.7917060770349100E+00    3.2886608897273852E+00
N    1.5951727022975482E+00    2.8429326326542466E+00    5.2461068013583274E+00
Ga    1.6150848670274651E+00    4.7148214126000410E+00    5.7984203902686380E+00
N    1.6051280503275269E+00    4.7056712589621021E+00    7.7886959297464671E+00
Ga    1.5851180075679456E+00    2.8486329985237093E+00    8.4354027786944865E+00
N    1.5854485074887084E+00    2.8484722383487999E+00    1.0422385336133164E+01
Ga    1.6125644997472861E+00    4.7067955343734189E+00    1.1069872312179591E+01
N    1.6309343095748960E+00    4.7157993966573937E+00    1.3057867313684147E+01
Ga    1.5887187203727704E+00    2.8460364358175410E+00    1.3619339302089406E+01
N    1.6170304965877524E+00    2.8271339316329049E+00    1.5574471341941639E+01
Ga    1.4316370312428675E+00    4.5997747332661678E+00    1.6484954371646026E+01
N   -1.9366553203118447E-02    7.4838747767064202E+00    2.5953944137059017E+00
Ga   -1.7160617093341525E-02    5.7429714412528208E+00    3.2931735798599653E+00
N   -1.6209449938519388E-02    5.6343795497510110E+00    5.2502255257523016E+00
Ga   -1.6521911487751409E-02    7.4870944271156512E+00    5.8755666011084484E+00
N   -1.3324328883035327E-02    7.4859194317364501E+00    7.8421825701113699E+00
Ga   -1.2759601473366121E-02    5.6169891656001916E+00    8.4358325232553408E+00
N   -1.0718071771268798E-02    5.6138721873594655E+00    1.0423638579884562E+01
Ga   -1.0575779197511093E-02    7.4836532299740801E+00    1.1022423709721531E+01
N   -9.5208816057424737E-03    7.4834670196913260E+00    1.2988668691786506E+01
Ga   -9.2368292979661364E-03    5.6128388287208963E+00    1.3619310718922062E+01
N   -8.8534461972927074E-03    5.6487326954477011E+00    1.5575942229086303E+01
Ga   -1.0348054753229599E-02    7.4846237395922222E+00    1.5853435534084129E+01
N   -1.7328523665155775E+00    1.0214466698342074E+01    2.5123336911915626E+00
Ga   -1.5267979020579201E+00    8.3596386004081573E+00    3.2792608131141194E+00
N   -1.6224917372020755E+00    8.4153804922010753E+00    5.2392856832248027E+00
Ga   -1.6013723079734847E+00    1.0287264356284755E+01    5.7918372115544399E+00
N   -1.6123165765270266E+00    1.0276409206550086E+01    7.7832201196635573E+00
Ga   -1.6315655808745029E+00    8.4194623550938630E+00    8.4321956114521761E+00
N   -1.6303118561489731E+00    8.4185193691651889E+00    1.0419265739283594E+01
Ga   -1.6039903151461472E+00    1.0277422303503011E+01    1.1065795789494061E+01
N   -1.5855911688365272E+00    1.0286693947192294E+01    1.3052667924932992E+01
Ga   -1.6298482537330272E+00    8.4177223625560984E+00    1.3615627703496848E+01
N   -1.6043348027798405E+00    8.4020874142402953E+00    1.5572374723355439E+01
Ga   -1.7809098834283041E+00    1.0174504113440046E+01    1.6479223745625319E+01
N    6.4116371159687251E+00    2.0408674411872880E+00    2.5160586771041640E+00
Ga    6.4127832694948168E+00    6.1386881300060619E-02    2.8585667113497415E+00
N    6.4160726333839477E+00    6.0054807520056208E-02    5.0081774201358034E+00
Ga    6.4141915525713280E+00    1.8886101697337314E+00    5.7940003367234487E+00
N    6.4179404643111919E+00    1.9036286146167811E+00    7.7851892555766424E+00
Ga    6.4187201430528438E+00    5.7663164901577212E-02    8.4402240480197932E+00
N    6.4213594299772350E+00    5.6413086918144270E-02    1.0408247141619075E+01
Ga    6.4212929781971617E+00    1.8954994363609967E+00    1.1067742403785886E+01
N    6.4226280195679637E+00    1.8750571012868158E+00    1.3055079595038064E+01
Ga    6.4221505549663798E+00    5.4999018987685444E-02    1.3869880543258901E+01
N    6.4215667834350247E+00    5.6245111962896818E-02    1.6058394526254979E+01
Ga    6.4225774294193254E+00    2.1090341234106669E+00    1.6476395196346914E+01
Ga    6.4173671680128228E+00    3.7753591532474502E+00    1.4934099961002987E+00
N    4.9083340282723302E+00    4.6422521601834026E+00    2.5115865851779922E+00
Ga    4.6982333534660210E+00    2.7873048417555477E+00    3.2756979010116662E+00
N    4.8035590225732943E+00    2.8425076118524735E+00    5.2350745349375893E+00
Ga    4.7825999490314146E+00    4.7145496219498551E+00    5.7911211212904430E+00
N    4.8008024375016252E+00    4.7048659572519238E+00    7.7828179576698995E+00
Ga    4.8207803082117247E+00    2.8485334360955825E+00    8.4343617688398904E+00
N    4.8246433750734798E+00    2.8485018977344265E+00    1.0421157834555183E+01
Ga    4.7984065277130039E+00    4.7070045740894946E+00    1.1068601631140154E+01
N    4.7820524366315951E+00    4.7160977983529939E+00    1.3056039736622278E+01
Ga    4.8238636774851962E+00    2.8456378149075352E+00    1.3616261881566414E+01
N    4.7944533465831940E+00    2.8267025023846020E+00    1.5570684255223245E+01
Ga    4.9791776327879420E+00    4.6025375996095788E+00    1.6476271487598456E+01
N    6.4229860196801445E+00    3.7757340735326803E+00    1.7599652526459952E+01
N    3.1948023186373820E+00    7.6103186628401209E+00    2.5130694507013001E+00
Ga    3.1831518181668224E+00    5.6256795182866348E+00    2.8558612096302332E+00
N    3.1971848859876340E+00    5.6288493884023092E+00    5.0030759567939036E+00
Ga    3.2000920009027083E+00    7.4578715744962789E+00    5.7925565640375529E+00
N    3.2030475934285167E+00    7.4726190365240841E+00    7.7839410119114136E+00
Ga    3.2034993275652273E+00    5.6272083439844023E+00    8.4417634190974731E+00
N    3.2055554448509995E+00    5.6262958897335063E+00    1.0410239677448004E+01
Ga    3.2059143182218715E+00    7.4656592279906873E+00    1.1067006445815895E+01
N    3.2067588947708150E+00    7.4452765749196876E+00    1.3054165811687021E+01
Ga    3.2064009703815470E+00    5.6264165382107993E+00    1.3872662188937037E+01
N    3.2064169502793844E+00    5.6247715152603641E+00    1.6060970426164701E+01
Ga    3.2071101329206799E+00    7.6717916512485038E+00    1.6478916959110119E+01
Ga    3.1933761995940309E+00    9.3485141018717322E+00    1.4886839628037594E+00
N    1.6936645043108400E+00    1.0213627783173791E+01    2.5179335537060425E+00
Ga    1.4869907958546409E+00    8.3583881349216433E+00    3.2822602175720648E+00
N    1.5897966913552024E+00    8.4145310427171509E+00    5.2411750967868693E+00
Ga    1.5678344126411732E+00    1.0285728411968572E+01    5.7963554783031110E+00
N    1.5851949583733393E+00    1.0275533194042893E+01    7.7868476084937921E+00
Ga    1.6052451888880945E+00    8.4185661185127643E+00    8.4343090643626866E+00
N    1.6091018085049311E+00    8.4183749926923870E+00    1.0421078646233788E+01
Ga    1.5822131646721398E+00    1.0277402566542460E+01    1.1067251798795207E+01
N    1.5665108489987247E+00    1.0286743793873081E+01    1.3054919632043733E+01
Ga    1.6104727639167755E+00    8.4173723626021673E+00    1.3617405858867496E+01
N    1.5853257522418436E+00    8.4020894733199256E+00    1.5575156226702569E+01
Ga    1.7593093394220753E+00    1.0175907715963648E+01    1.6478157193364801E+01
N    3.2082740143279911E+00    9.3472353510365185E+00    1.7622889746451577E+01
N    9.6329053444652768E+00    1.9199862529057565E+00    2.5982734706143287E+00
Ga    9.6291007229465304E+00    1.7814872907295881E-01    3.2839174227242509E+00
N    9.6318143700131618E+00    6.1639289150314767E-02    5.2428589085133561E+00
Ga    9.6315164459257510E+00    1.9160356602734070E+00    5.8792984179782977E+00
N    9.6337247884317012E+00    1.9138724186488776E+00    7.8450525254668051E+00
Ga    9.6355551519808706E+00    4.5428502574587165E-02    8.4358805777847312E+00
N    9.6377616726914752E+00    4.2659223217391316E-02    1.0421907316178716E+01
Ga    9.6380252381054650E+00    1.9134015146347203E+00    1.1022276057685160E+01
N    9.6389243736701680E+00    1.9112624925639046E+00    1.2986194518949590E+01
Ga    9.6389985856922777E+00    4.3027041255046444E-02    1.3617294766774409E+01
N    9.6385813754577505E+00    7.0882088414077740E-02    1.5575007828583438E+01
Ga    9.6393580542716677E+00    1.9088248440635041E+00    1.5860898910116772E+01
N    7.9161996018560536E+00    4.6417676718432430E+00    2.5175152190904746E+00
Ga    8.1233235834033231E+00    2.7872709425767468E+00    3.2846963651319712E+00
N    8.0248705366218456E+00    2.8432253324141357E+00    5.2430328776543211E+00
Ga    8.0493607770805067E+00    4.7159456492940128E+00    5.7928494474344472E+00
N    8.0368693743256205E+00    4.7055659731031589E+00    7.7841026175447023E+00
Ga    8.0160810965054967E+00    2.8489177043750562E+00    8.4352718202375510E+00
N    8.0175207130354718E+00    2.8482924586597500E+00    1.0421980032206084E+01
Ga    8.0442095163123142E+00    4.7069104686812073E+00    1.1068618747743997E+01
N    8.0632606301309924E+00    4.7160300372713646E+00    1.3056279371408957E+01
Ga    8.0212119071745462E+00    2.8458353215939218E+00    1.3616329829266441E+01
N    8.0507807936749405E+00    2.8260848443679585E+00    1.5570853630989767E+01
Ga    7.8658566348184866E+00    4.6025744653105658E+00    1.6475658836116402E+01
N    6.4130310519124025E+00    7.4891641939170412E+00    2.5878443352641001E+00
Ga    6.4124792890983402E+00    5.7498875469111708E+00    3.2794524527002706E+00
N    6.4154659262827733E+00    5.6318497520844941E+00    5.2379171150144739E+00
Ga    6.4164398660070781E+00    7.4874724079700163E+00    5.8679395428161056E+00
N    6.4188909505967109E+00    7.4847527315973315E+00    7.8358288150550583E+00
Ga    6.4190728656651856E+00    5.6163879422249829E+00    8.4315955449108255E+00
N    6.4210245928863268E+00    5.6136886393958703E+00    1.0419917782970147E+01
Ga    6.4214849322886538E+00    7.4837828959006503E+00    1.1020631707243673E+01
N    6.4223610558526731E+00    7.4836509979382804E+00    1.2985970560358053E+01
Ga    6.4227700602859112E+00    5.6134691099763998E+00    1.3615769450587479E+01
N    6.4219281888875006E+00    5.6509814340648852E+00    1.5571313069215254E+01
Ga    6.4229168966728567E+00    7.4856529740230116E+00    1.5853034805084704E+01
N    4.6987502638491652E+00    1.0215081408215077E+01    2.5142268917764334E+00
Ga    4.9053310399018839E+00    8.3592860658660353E+00    3.2760410874872550E+00
N    4.8092130183307038E+00    8.4142649806962009E+00    5.2366741741511245E+00
Ga    4.8321552464277238E+00    1.0285220489597100E+01    5.7944455160198727E+00
N    4.8211139922726769E+00    1.0275720879357575E+01    7.7847637157762604E+00
Ga    4.8015795233794920E+00    8.4184675137244174E+00    8.4319249650411905E+00
N    4.8018787296740353E+00    8.4183492985600257E+00    1.0419094933568960E+01
Ga    4.8287490948498561E+00    1.0276880335586192E+01    1.1067758121379258E+01
N    4.8468728749494234E+00    1.0286586641355939E+01    1.3055440359903946E+01
Ga    4.8028566780800031E+00    8.4173982458459911E+00    1.3617056359686552E+01
N    4.8275735199097065E+00    8.4020696772333476E+00    1.5574656180882965E+01
Ga    4.6552620676847258E+00    1.0176211458777026E+01    1.6479176715867535E+01
O    1.9347870750302162E-01    3.4458462003814208E+00   -5.4913429379972656E-01
H    7.5435372476019646E-01    4.1497508249418615E+00   -9.2571288296160437E-01
C    7.7540009143543953E-01    2.1297566757729749E+00   -8.8687633392393561E-01
H    1.8393718550133262E+00    2.1049917222534567E+00   -6.2358091921131009E-01
H    2.3437091606112867E-01    1.3997697297840692E+00   -2.7517902219227436E-01
H    6.0719322132614484E-01    1.9485042185960872E+00   -1.9540597810399116E+00
     &END COORD
     &KIND C
       BASIS_SET DZVP-MOLOPT-SR-GTH-q4
       POTENTIAL GTH-PBE-q4
       &POTENTIAL
2 2
0.3384712400000000E+00 2 -0.8803673979999999E+01  0.1339210850000000E+01
2
0.3025757500000000E+00 1  0.9622486650000001E+01
0.2915069400000000E+00 0
       &END POTENTIAL
     &END KIND
     &KIND O
       BASIS_SET DZVP-MOLOPT-SR-GTH-q6
       POTENTIAL GTH-PBE-q6
       &POTENTIAL
2 4
0.2445543000000000E+00 2 -0.1666721480000000E+02  0.2487311320000000E+01
2
0.2209559200000000E+00 1  0.1833745811000000E+02
0.2113324700000000E+00 0
       &END POTENTIAL
     &END KIND
     &KIND H
       BASIS_SET DZVP-MOLOPT-SR-GTH-q1
       POTENTIAL GTH-PBE-q1
       &POTENTIAL
1
0.2000000000000000E+00 2 -0.4178900440000000E+01  0.7244633100000000E+00
0
       &END POTENTIAL
     &END KIND
     &KIND N
       BASIS_SET DZVP-MOLOPT-SR-GTH
       POTENTIAL GTH-PBE-q5
       &POTENTIAL
2 3
0.2837905100000000E+00 2 -0.1241522559000000E+02  0.1868095920000000E+01
2
0.2554050000000000E+00 1  0.1363026257000000E+02
0.2454945300000000E+00 0
       &END POTENTIAL
     &END KIND
     &KIND Ga
       BASIS_SET DZVP-MOLOPT-SR-GTH
       POTENTIAL GTH-PBE-q13
       &POTENTIAL
2 1 10
0.4900000000000000E+00 0
3
0.4167772300000000E+00 3  0.1047568975000000E+02 -0.4921768140000000E+01  0.8707055900000000E+00
0.7770178090000000E+01 -0.2248152160000000E+01
0.1784415450000000E+01
0.5696265200000000E+00 2  0.1777985340000000E+01  0.1958597600000000E+00
-0.2317443900000000E+00
0.2381265000000000E+00 1 -0.1624868022000000E+02
       &END POTENTIAL
     &END KIND
     &TOPOLOGY
       NUMBER_OF_ATOMS  206
       MULTIPLE_UNIT_CELL  1 1 1
     &END TOPOLOGY
   &END SUBSYS
 &END FORCE_EVAL
