 # Version information for this restart file 
 # current date 2019-06-24 10:01:36.156
 # current working dir /scratch/rzk/rzk/GaN-carbene/443-adatoms-both-2x2/02-Methanol/01-O-GaTop
 # Program compiled at                              Sun Apr  7 00:48:11 EDT 2019
 # Program compiled on                          beluga2.int.ets1.calculquebec.ca
 # Program compiled for                        Beluga-Linux-x86-64-intel-openmpi
 # Source code revision number                                         svn:18619
 &GLOBAL
   PRINT_LEVEL  MEDIUM
   PROJECT_NAME TEST
   RUN_TYPE  GEO_OPT
 &END GLOBAL
 &MOTION
   &GEO_OPT
     MAX_ITER  500
     STEP_START_VAL  2
   &END GEO_OPT
 &END MOTION
 &FORCE_EVAL
   METHOD  QS
   STRESS_TENSOR  ANALYTICAL
   &DFT
     BASIS_SET_FILE_NAME BASIS_MOLOPT
     POTENTIAL_FILE_NAME GTH_POTENTIALS
     UKS  T
     SURFACE_DIPOLE_CORRECTION  T
     SURF_DIP_DIR  Z
     &SCF
       MAX_SCF  80
       EPS_SCF     5.0000000000000004E-06
       &OT  T
         PRECONDITIONER  FULL_ALL
       &END OT
       &OUTER_SCF  T
         OPTIMIZER  NONE
         EPS_SCF     5.0000000000000004E-06
         MAX_SCF  4
       &END OUTER_SCF
       &PRINT
         &RESTART  OFF
           BACKUP_COPIES  1
           &EACH
             JUST_ENERGY  0
             QS_SCF  0
             MD  20
           &END EACH
         &END RESTART
       &END PRINT
     &END SCF
     &QS
       EPS_DEFAULT     1.0000000000000000E-14
       METHOD  GPW
     &END QS
     &MGRID
       NGRIDS  5
       CUTOFF     1.2000000000000000E+03
     &END MGRID
     &XC
       DENSITY_CUTOFF     1.0000000000000000E-10
       GRADIENT_CUTOFF     1.0000000000000000E-10
       TAU_CUTOFF     1.0000000000000000E-10
       &XC_FUNCTIONAL  NO_SHORTCUT
         &PBE  T
         &END PBE
       &END XC_FUNCTIONAL
       &VDW_POTENTIAL
         POTENTIAL_TYPE  PAIR_POTENTIAL
         &PAIR_POTENTIAL
           R_CUTOFF     1.0000000000000004E+01
           TYPE  DFTD3
           PARAMETER_FILE_NAME dftd3.dat
           REFERENCE_FUNCTIONAL PBE
           EPS_CN     9.9999999999999995E-07
           CALCULATE_C9_TERM  T
           REFERENCE_C9_TERM  T
           LONG_RANGE_CORRECTION  F
           VERBOSE_OUTPUT  F
         &END PAIR_POTENTIAL
       &END VDW_POTENTIAL
     &END XC
   &END DFT
   &SUBSYS
     &CELL
       A     1.2864472766435110E+01    0.0000000000000000E+00    0.0000000000000000E+00
       B    -6.4322363581020028E+00    1.1140960178524473E+01    0.0000000000000000E+00
       C     0.0000000000000000E+00    0.0000000000000000E+00    3.2000000000000000E+01
       MULTIPLE_UNIT_CELL  1 1 1
       &CELL_REF
         A     1.2982353780853531E+01    0.0000000000000000E+00    0.0000000000000000E+00
         B    -6.4911768904267628E+00    1.1243048175136114E+01    0.0000000000000000E+00
         C     0.0000000000000000E+00    0.0000000000000000E+00    3.2000000000000000E+01
         MULTIPLE_UNIT_CELL  1 1 1
       &END CELL_REF
     &END CELL
     &COORD
N    1.9528409409074330E-02    2.0526428166286399E+00    2.4177875709316230E+00
Ga    2.0212994527671370E-02    6.5545648677089258E-02    2.8096195158087460E+00
N    2.0208280858843870E-02    5.1917205790399337E-02    4.9640738699267732E+00
Ga    2.0402358550665797E-02    1.8787815667473011E+00    5.7576731652578896E+00
N    2.0212380986294839E-02    1.8924802256528328E+00    7.7492170931106594E+00
Ga    1.9774537238972996E-02    4.7798588683224355E-02    8.4014031268841194E+00
N    1.9456043434588705E-02    4.7063809971514770E-02    1.0370387019205017E+01
Ga    1.9793563140271843E-02    1.8873112949658792E+00    1.1022761544918888E+01
N    1.9186185428178560E-02    1.8677983051825275E+00    1.3011965785835264E+01
Ga    1.8899303928630602E-02    4.7332119026722574E-02    1.3823641706550569E+01
N    2.3384337737134768E-02    4.9729688085787691E-02    1.6019701097442752E+01
Ga    2.0913434672814462E-02    2.0884178967044558E+00    1.6430494343585160E+01
Ga    1.8193740094388431E-03    3.8058289316636045E+00    1.4286874424520741E+00
N   -1.4725759805958156E+00    4.6300320990267867E+00    2.4655791845156485E+00
Ga   -1.6795180717946747E+00    2.7842068205481088E+00    3.2404573784972843E+00
N   -1.5898029274284486E+00    2.8295439433733436E+00    5.2023382497472204E+00
Ga   -1.6110972180533287E+00    4.7020143414799600E+00    5.7542443123833840E+00
N   -1.5982089599219518E+00    4.6954042314126392E+00    7.7470064195646247E+00
Ga   -1.5786020611007467E+00    2.8387383664302765E+00    8.3909102962455311E+00
N   -1.5770162127120251E+00    2.8390889094485794E+00    1.0379927358707885E+01
Ga   -1.6027544707751620E+00    4.6982454181101323E+00    1.1021754077147898E+01
N   -1.6208271920224187E+00    4.7084234152537610E+00    1.3010725877332328E+01
Ga   -1.5791361747343502E+00    2.8392067753073609E+00    1.3571292490127107E+01
N   -1.6040074458008475E+00    2.8247876420478741E+00    1.5529283664516615E+01
Ga   -1.4252999465265859E+00    4.5965697513737602E+00    1.6429720092695039E+01
N    2.6681820175137941E-02    3.7588232715795753E+00    1.7579223507626264E+01
N   -3.1947901647069346E+00    7.5947705647133121E+00    2.4740579933091720E+00
Ga   -3.1844287381582168E+00    5.6118624641866468E+00    2.8101739674253423E+00
N   -3.1944287172131753E+00    5.6165791269582890E+00    4.9661819988223508E+00
Ga   -3.1953739439752238E+00    7.4446885694504719E+00    5.7532238849356014E+00
N   -3.1958974778362528E+00    7.4634594301141091E+00    7.7456694655640321E+00
Ga   -3.1958184694783238E+00    5.6178987761459105E+00    8.3993961001554478E+00
N   -3.1964680411449788E+00    5.6182225899443168E+00    1.0368587289927630E+01
Ga   -3.1963846094994350E+00    7.4579322999379256E+00    1.1023696364164469E+01
N   -3.1972162497548320E+00    7.4377916451788799E+00    1.3013075888785632E+01
Ga   -3.1968865613533923E+00    5.6180520472981312E+00    1.3823599649774946E+01
N   -3.1947971992500008E+00    5.6180391135005765E+00    1.6016046554920862E+01
Ga   -3.1952055756056250E+00    7.6661174987631915E+00    1.6435182717264542E+01
Ga   -3.1949744150583719E+00    9.3309721637507845E+00    1.4374980379609230E+00
N   -4.7002082169278738E+00    1.0201922360004795E+01    2.4730563692819540E+00
Ga   -4.9024372392362370E+00    8.3458164745895047E+00    3.2391298149430101E+00
N   -4.8049524600085087E+00    8.4026892408528777E+00    5.2005581807498071E+00
Ga   -4.8287939507974000E+00    1.0275072926535227E+01    5.7531677548013143E+00
N   -4.8146838785692472E+00    1.0266237738163444E+01    7.7457290139602293E+00
Ga   -4.7942309017256779E+00    8.4090112548797347E+00    8.3913296461120446E+00
N   -4.7930874734459215E+00    8.4099743598610335E+00    1.0379701301759475E+01
Ga   -4.8189552854389186E+00    1.0268657167014689E+01    1.1023960637219611E+01
N   -4.8372073600910932E+00    1.0278710464226272E+01    1.3013068684750895E+01
Ga   -4.7949263864832083E+00    8.4095936789915609E+00    1.3574782526881563E+01
N   -4.8251730885406587E+00    8.3946685139591395E+00    1.5532054069805334E+01
Ga   -4.6335604983271219E+00    1.0164828708041133E+01    1.6436989466352287E+01
N   -3.1900142019339603E+00    9.3303875613427003E+00    1.7563753179978828E+01
N    3.2304858369461908E+00    1.9072770772390470E+00    2.5570385194029019E+00
Ga    3.2368779518151198E+00    1.6337382707505280E-01    3.2400451886745398E+00
N    3.2371330334073596E+00    4.9361472219741374E-02    5.2010475039183559E+00
Ga    3.2350753620964419E+00    1.9050146453149550E+00    5.8328422111906510E+00
N    3.2366687112533996E+00    1.9040177407031773E+00    7.8017295851995030E+00
Ga    3.2363149363910346E+00    3.5791810298186233E-02    8.3924790449367528E+00
N    3.2362170057509787E+00    3.4133141552436463E-02    1.0380558930344048E+01
Ga    3.2364940948581808E+00    1.9044827892935408E+00    1.0977170719272671E+01
N    3.2360234135454675E+00    1.9046865069250074E+00    1.2942157928027534E+01
Ga    3.2349470029767216E+00    3.6984892885822233E-02    1.3573984337441514E+01
N    3.2344504852534124E+00    7.1845945114806950E-02    1.5529649531024198E+01
Ga    3.2345872036702330E+00    1.9066260396165293E+00    1.5816808336181253E+01
N    1.5073852945406880E+00    4.6264837798407790E+00    2.4472698205456096E+00
Ga    1.7170123512490341E+00    2.7833993109228667E+00    3.2361274275929466E+00
N    1.6306186258754964E+00    2.8302503124583454E+00    5.1993426868241981E+00
Ga    1.6512748608145695E+00    4.7015900018359824E+00    5.7561913018978537E+00
N    1.6384334917415773E+00    4.6953125554148025E+00    7.7482710193934610E+00
Ga    1.6185553549378091E+00    2.8385920422262951E+00    8.3922813104138161E+00
N    1.6166415503997380E+00    2.8394993376154516E+00    1.0380772650429954E+01
Ga    1.6428044143564344E+00    4.6985069571921851E+00    1.1023009595158394E+01
N    1.6593807137978338E+00    4.7086482367067628E+00    1.3012336485339503E+01
Ga    1.6182520082895069E+00    2.8384013882482413E+00    1.3570574023198210E+01
N    1.6428332375972596E+00    2.8247282770535342E+00    1.5528361918905626E+01
Ga    1.4700726038978131E+00    4.5986119363444775E+00    1.6430397958330573E+01
N    2.0360233055014120E-02    7.4692642120827504E+00    2.5552858173893740E+00
Ga    1.8619247705539011E-02    5.7284916410625542E+00    3.2530011117918396E+00
N    2.1078757755366322E-02    5.6220685217512525E+00    5.2101260856760545E+00
Ga    2.0083074188259647E-02    7.4748041173135258E+00    5.8338541425067270E+00
N    1.9962486705192028E-02    7.4758288716227943E+00    7.8019734552422211E+00
Ga    1.9792282479166770E-02    5.6067834390207887E+00    8.3905991879277586E+00
N    2.0149838229578308E-02    5.6055444350244690E+00    1.0379784972676269E+01
Ga    2.0659045367232173E-02    7.4755298071397798E+00    1.0978274572926383E+01
N    2.0949791733979102E-02    7.4764194519288019E+00    1.2945513491415463E+01
Ga    1.8732144457837715E-02    5.6073298759990751E+00    1.3571003886645117E+01
N    1.8997206712583294E-02    5.6368547505929136E+00    1.5528731221749210E+01
Ga    2.1300918190821645E-02    7.4756739504551799E+00    1.5813852965465701E+01
N   -1.6926456217629102E+00    1.0198921759075294E+01    2.4744486487865287E+00
Ga   -1.4875971111311648E+00    8.3447294635269227E+00    3.2400585359894554E+00
N   -1.5858874826535680E+00    8.4022571269245958E+00    5.2008154090247496E+00
Ga   -1.5627794519411267E+00    1.0273765393935617E+01    5.7550853565916782E+00
N   -1.5781901864614543E+00    1.0265509597219250E+01    7.7469137891845463E+00
Ga   -1.5980172065158726E+00    8.4091877251232603E+00    8.3925516230686519E+00
N   -1.5993582627279685E+00    8.4101891775705209E+00    1.0381113911063705E+01
Ga   -1.5729409860005097E+00    1.0269125032376110E+01    1.1025547499544505E+01
N   -1.5563208083495770E+00    1.0279354019841046E+01    1.3014899583308834E+01
Ga   -1.5994328368869017E+00    8.4095966510016975E+00    1.3574420164349165E+01
N   -1.5673546813292660E+00    8.3934972151376996E+00    1.5531704515987427E+01
Ga   -1.7519648189359582E+00    1.0168215852543527E+01    1.6435898639112551E+01
N    6.4528899420449601E+00    2.0264346576694834E+00    2.4737276063311309E+00
Ga    6.4523880846211288E+00    4.7837402624682869E-02    2.8169141399136799E+00
N    6.4525072188309647E+00    4.7207099370875194E-02    4.9707469756119647E+00
Ga    6.4527157551657792E+00    1.8752605494180623E+00    5.7550366160814068E+00
N    6.4523795023509027E+00    1.8928623067382255E+00    7.7468271726699260E+00
Ga    6.4522566135369992E+00    4.7471332782826337E-02    8.4004754977134350E+00
N    6.4525079240478389E+00    4.7313152799349709E-02    1.0369867427570806E+01
Ga    6.4521133464268390E+00    1.8867402044503918E+00    1.1025673960719990E+01
N    6.4519128000374808E+00    1.8676886645582731E+00    1.3014820837931271E+01
Ga    6.4529216037270967E+00    4.7963100405399001E-02    1.3828765378125469E+01
N    6.4497200673868296E+00    4.8884522855187525E-02    1.6021475101945008E+01
Ga    6.4503410431812638E+00    2.0954266453058943E+00    1.6439585893176815E+01
Ga    6.4540031187585516E+00    3.7627594497630734E+00    1.4406695359790871E+00
N    4.9482520576233071E+00    4.6292568841905801E+00    2.4745243148712106E+00
Ga    4.7439757814599908E+00    2.7745292930956862E+00    3.2397394938654993E+00
N    4.8430131980595501E+00    2.8307871540557716E+00    5.2008347361257075E+00
Ga    4.8186660085813831E+00    4.7031801234587558E+00    5.7532934779005505E+00
N    4.8336328209881332E+00    4.6954557108547741E+00    7.7457090255782459E+00
Ga    4.8544917357283364E+00    2.8385063643137727E+00    8.3924555632280882E+00
N    4.8561189067456612E+00    2.8395092703469773E+00    1.0380429645187348E+01
Ga    4.8294210183357391E+00    4.6981868626675931E+00    1.1024290801761893E+01
N    4.8120387946959138E+00    4.7089050697777122E+00    1.3013311608535245E+01
Ga    4.8532714188729376E+00    2.8391832653937263E+00    1.3575209668702369E+01
N    4.8237072694994403E+00    2.8227665868877256E+00    1.5530336581153259E+01
Ga    5.0143740855647492E+00    4.5887244476719928E+00    1.6440712692993980E+01
N    6.4565493323100425E+00    3.7572277967072938E+00    1.7568911334270904E+01
N    3.2355160982363702E+00    7.5949553133943999E+00    2.4736956982665093E+00
Ga    3.2243722158619406E+00    5.6114289623691205E+00    2.8088783455345205E+00
N    3.2338039676727517E+00    5.6158070950026246E+00    4.9647175192765802E+00
Ga    3.2354441931118996E+00    7.4449131410059612E+00    5.7530436373567984E+00
N    3.2358872687061586E+00    7.4630048707161531E+00    7.7455005610098082E+00
Ga    3.2356909969931071E+00    5.6179800098451631E+00    8.4009590020738631E+00
N    3.2362682905462599E+00    5.6186350692683451E+00    1.0370072769247930E+01
Ga    3.2359840900338024E+00    7.4583331084571673E+00    1.1025405779838978E+01
N    3.2361043651769257E+00    7.4389978032712749E+00    1.3015519354713984E+01
Ga    3.2365058323670310E+00    5.6189681131297231E+00    1.3824643754005619E+01
N    3.2358320390740198E+00    5.6143812502636568E+00    1.6019550115662344E+01
Ga    3.2342400869600598E+00    7.6601235694099348E+00    1.6442275536873968E+01
Ga    3.2358517979611365E+00    9.3321190107948908E+00    1.4386090541853449E+00
N    1.7334506832417045E+00    1.0199070032639170E+01    2.4744006365301736E+00
Ga    1.5279547518494585E+00    8.3447645660552698E+00    3.2399958657186514E+00
N    1.6261532562152154E+00    8.4023697671732265E+00    5.2006448590381131E+00
Ga    1.6032090542946351E+00    1.0273861639211864E+01    5.7550800014819634E+00
N    1.6182330575190282E+00    1.0265490254190590E+01    7.7467040955747724E+00
Ga    1.6379068504188792E+00    8.4091432286518550E+00    8.3923077840418721E+00
N    1.6399716424128858E+00    8.4102940841968721E+00    1.0380464548953590E+01
Ga    1.6133593222441855E+00    1.0268612131676564E+01    1.1025926375688282E+01
N    1.5961455026346141E+00    1.0278974088788353E+01    1.3015596064542502E+01
Ga    1.6388790822637807E+00    8.4106868896864899E+00    1.3579192123597565E+01
N    1.6129412894290682E+00    8.3975126556361115E+00    1.5538164614225428E+01
Ga    1.7911285270710340E+00    1.0165726785545310E+01    1.6442967683099187E+01
N    3.2406080472249483E+00    9.3280713218202802E+00    1.7583064845730210E+01
N    9.6744695822648250E+00    1.9067516877534811E+00    2.5580121253531152E+00
Ga    9.6687721275469745E+00    1.6352482230481519E-01    3.2405409320792278E+00
N    9.6678465987402014E+00    4.8932751441291805E-02    5.2011947731403252E+00
Ga    9.6695795402657971E+00    1.9047839991745792E+00    5.8320512875484800E+00
N    9.6678415226791703E+00    1.9038239656072140E+00    7.8009052292364078E+00
Ga    9.6680223752639218E+00    3.5931912040740699E-02    8.3919462101161990E+00
N    9.6682370366796810E+00    3.3894509303142535E-02    1.0380261434829123E+01
Ga    9.6683660006834291E+00    1.9036870178302432E+00    1.0978548197044983E+01
N    9.6677552798253821E+00    1.9027641732056968E+00    1.2945893847096363E+01
Ga    9.6677240995966542E+00    3.4557937517272014E-02    1.3579653797506538E+01
N    9.6661323429431647E+00    6.3781708917120927E-02    1.5538823301984264E+01
Ga    9.6685709381396094E+00    1.9035990653469999E+00    1.5813133671795748E+01
N    7.9573132744897910E+00    4.6294039904793163E+00    2.4752405490845710E+00
Ga    8.1618168345595272E+00    2.7748049833329147E+00    3.2400847064244056E+00
N    8.0619435725369613E+00    2.8311137637159889E+00    5.2009948674544884E+00
Ga    8.0864459903762729E+00    4.7034698290171395E+00    5.7534303206971051E+00
N    8.0703804713483418E+00    4.6951072584829641E+00    7.7457755845012466E+00
Ga    8.0503139878731300E+00    2.8382324959232053E+00    8.3921529611100834E+00
N    8.0488661406029731E+00    2.8389753272293112E+00    1.0380775149553543E+01
Ga    8.0747326652938618E+00    4.6981401548884154E+00    1.1023809455847282E+01
N    8.0919331508128405E+00    4.7087859502759022E+00    1.3013045938937129E+01
Ga    8.0493721782344512E+00    2.8394827449850375E+00    1.3575992606768756E+01
N    8.0791672203816898E+00    2.8203157471236655E+00    1.5532960798357047E+01
Ga    7.8933494306541423E+00    4.5925362967264380E+00    1.6438995355670961E+01
N    6.4527227308421029E+00    7.4749418325380326E+00    2.5564227847725021E+00
Ga    6.4530993381852761E+00    5.7329905951901461E+00    3.2405324969345708E+00
N    6.4523565662821083E+00    5.6187145715179803E+00    5.2012990150590497E+00
Ga    6.4525143787214372E+00    7.4745548743385690E+00    5.8304537601259456E+00
N    6.4521545208902884E+00    7.4748450898544085E+00    7.7994064244071781E+00
Ga    6.4521391682051492E+00    5.6063191906706775E+00    8.3912306908179577E+00
N    6.4520540321385953E+00    5.6051952953707174E+00    1.0379564133246424E+01
Ga    6.4517967799782525E+00    7.4752039727966881E+00    1.0978887127670962E+01
N    6.4505796792298211E+00    7.4757439929317941E+00    1.2945642971487453E+01
Ga    6.4517642629732048E+00    5.6066454714876883E+00    1.3576103949746789E+01
N    6.4496930636925676E+00    5.6402222629168124E+00    1.5532748727469720E+01
Ga    6.4498003521372427E+00    7.4757949638550869E+00    1.5819019485296780E+01
N    4.7409239929915756E+00    1.0201678203255094E+01    2.4732412732149189E+00
Ga    4.9436784504270337E+00    8.3459034583285874E+00    3.2390706112227114E+00
N    4.8453394378196837E+00    8.4024125068144926E+00    5.2003913264748611E+00
Ga    4.8691331364564014E+00    1.0274941421618683E+01    5.7532144938899661E+00
N    4.8544963775864725E+00    1.0265946425016217E+01    7.7456474737657039E+00
Ga    4.8341179153382203E+00    8.4087575844630340E+00    8.3916248950018311E+00
N    4.8323802234216391E+00    8.4099482274796600E+00    1.0379854270704577E+01
Ga    4.8581466323269167E+00    1.0268233013668704E+01    1.1025175866383387E+01
N    4.8753084597661696E+00    1.0278355129329437E+01    1.3015215574429808E+01
Ga    4.8327916499893506E+00    8.4100802676541537E+00    1.3579888770499098E+01
N    4.8569741135222326E+00    8.3960226726350378E+00    1.5540529987906050E+01
Ga    4.6820597750197628E+00    1.0168327430263714E+01    1.6442723058146285E+01
O   -2.7049927388230488E-01    3.9146328505113184E+00   -7.7403164824006587E-01
H   -2.0643143041142784E-01    4.7305394877922886E+00   -1.2990319705580737E+00
C    3.6532976679907157E-04    2.7413244331518185E+00   -1.5978169390901953E+00
H    8.8066901964458144E-01    2.8876093032852483E+00   -2.2311492853076440E+00
H    1.9564191217523252E-01    1.9319660210618899E+00   -8.8327935643121158E-01
H   -8.7673531281561345E-01    2.4760670453631142E+00   -2.2016980656433169E+00
     &END COORD
     &KIND C
       BASIS_SET DZVP-MOLOPT-SR-GTH-q4
       POTENTIAL GTH-PBE-q4
       &POTENTIAL
 2 2
  0.3384712400000000E+00 2 -0.8803673979999999E+01  0.1339210850000000E+01
 2
  0.3025757500000000E+00 1  0.9622486650000001E+01
  0.2915069400000000E+00 0
         # Potential name:  GTH-PBE-Q4  for symbol:  C
         # Potential read from the potential filename: GTH_POTENTIALS
       &END POTENTIAL
     &END KIND
     &KIND O
       BASIS_SET DZVP-MOLOPT-SR-GTH-q6
       POTENTIAL GTH-PBE-q6
       &POTENTIAL
 2 4
  0.2445543000000000E+00 2 -0.1666721480000000E+02  0.2487311320000000E+01
 2
  0.2209559200000000E+00 1  0.1833745811000000E+02
  0.2113324700000000E+00 0
         # Potential name:  GTH-PBE-Q6  for symbol:  O
         # Potential read from the potential filename: GTH_POTENTIALS
       &END POTENTIAL
     &END KIND
     &KIND H
       BASIS_SET DZVP-MOLOPT-SR-GTH-q1
       POTENTIAL GTH-PBE-q1
       &POTENTIAL
 1
  0.2000000000000000E+00 2 -0.4178900440000000E+01  0.7244633100000000E+00
 0
         # Potential name:  GTH-PBE-Q1  for symbol:  H
         # Potential read from the potential filename: GTH_POTENTIALS
       &END POTENTIAL
     &END KIND
     &KIND N
       BASIS_SET DZVP-MOLOPT-SR-GTH
       POTENTIAL GTH-PBE-q5
       &POTENTIAL
 2 3
  0.2837905100000000E+00 2 -0.1241522559000000E+02  0.1868095920000000E+01
 2
  0.2554050000000000E+00 1  0.1363026257000000E+02
  0.2454945300000000E+00 0
         # Potential name:  GTH-PBE-Q5  for symbol:  N
         # Potential read from the potential filename: GTH_POTENTIALS
       &END POTENTIAL
     &END KIND
     &KIND Ga
       BASIS_SET DZVP-MOLOPT-SR-GTH
       POTENTIAL GTH-PBE-q13
       &POTENTIAL
 2 1 10
  0.4900000000000000E+00 0
 3
  0.4167772300000000E+00 3  0.1047568975000000E+02 -0.4921768140000000E+01  0.8707055900000000E+00
  0.7770178090000000E+01 -0.2248152160000000E+01
  0.1784415450000000E+01
  0.5696265200000000E+00 2  0.1777985340000000E+01  0.1958597600000000E+00
 -0.2317443900000000E+00
  0.2381265000000000E+00 1 -0.1624868022000000E+02
         # Potential name:  GTH-PBE-Q13  for symbol:  GA
         # Potential read from the potential filename: GTH_POTENTIALS
       &END POTENTIAL
     &END KIND
     &TOPOLOGY
       NUMBER_OF_ATOMS  206
       MULTIPLE_UNIT_CELL  1 1 1
     &END TOPOLOGY
   &END SUBSYS
 &END FORCE_EVAL
