 # Version information for this restart file 
 # current date 2019-06-24 12:46:10.426
 # current working dir /scratch/rzk/rzk/GaN-carbene/443-adatoms-both-2x2/02-Methanol/01-O-GaTop
 # Program compiled at                              Sun Apr  7 00:48:11 EDT 2019
 # Program compiled on                          beluga2.int.ets1.calculquebec.ca
 # Program compiled for                        Beluga-Linux-x86-64-intel-openmpi
 # Source code revision number                                         svn:18619
 &GLOBAL
   PRINT_LEVEL  MEDIUM
   PROJECT_NAME TEST
   RUN_TYPE  GEO_OPT
 &END GLOBAL
 &MOTION
   &GEO_OPT
     MAX_ITER  500
     STEP_START_VAL  38
   &END GEO_OPT
 &END MOTION
 &FORCE_EVAL
   METHOD  QS
   STRESS_TENSOR  ANALYTICAL
   &DFT
     BASIS_SET_FILE_NAME BASIS_MOLOPT
     POTENTIAL_FILE_NAME GTH_POTENTIALS
     UKS  T
     SURFACE_DIPOLE_CORRECTION  T
     SURF_DIP_DIR  Z
     &SCF
       MAX_SCF  80
       EPS_SCF     5.0000000000000004E-06
       &OT  T
         PRECONDITIONER  FULL_ALL
       &END OT
       &OUTER_SCF  T
         OPTIMIZER  NONE
         EPS_SCF     5.0000000000000004E-06
         MAX_SCF  4
       &END OUTER_SCF
       &PRINT
         &RESTART  OFF
           BACKUP_COPIES  1
           &EACH
             JUST_ENERGY  0
             QS_SCF  0
             MD  20
           &END EACH
         &END RESTART
       &END PRINT
     &END SCF
     &QS
       EPS_DEFAULT     1.0000000000000000E-14
       METHOD  GPW
     &END QS
     &MGRID
       NGRIDS  5
       CUTOFF     1.2000000000000000E+03
     &END MGRID
     &XC
       DENSITY_CUTOFF     1.0000000000000000E-10
       GRADIENT_CUTOFF     1.0000000000000000E-10
       TAU_CUTOFF     1.0000000000000000E-10
       &XC_FUNCTIONAL  NO_SHORTCUT
         &PBE  T
         &END PBE
       &END XC_FUNCTIONAL
       &VDW_POTENTIAL
         POTENTIAL_TYPE  PAIR_POTENTIAL
         &PAIR_POTENTIAL
           R_CUTOFF     1.0000000000000004E+01
           TYPE  DFTD3
           PARAMETER_FILE_NAME dftd3.dat
           REFERENCE_FUNCTIONAL PBE
           EPS_CN     9.9999999999999995E-07
           CALCULATE_C9_TERM  T
           REFERENCE_C9_TERM  T
           LONG_RANGE_CORRECTION  F
           VERBOSE_OUTPUT  F
         &END PAIR_POTENTIAL
       &END VDW_POTENTIAL
     &END XC
   &END DFT
   &SUBSYS
     &CELL
       A     1.2864472766435110E+01    0.0000000000000000E+00    0.0000000000000000E+00
       B    -6.4322363581020028E+00    1.1140960178524473E+01    0.0000000000000000E+00
       C     0.0000000000000000E+00    0.0000000000000000E+00    3.2000000000000000E+01
       MULTIPLE_UNIT_CELL  1 1 1
       &CELL_REF
         A     1.2982353780853531E+01    0.0000000000000000E+00    0.0000000000000000E+00
         B    -6.4911768904267628E+00    1.1243048175136114E+01    0.0000000000000000E+00
         C     0.0000000000000000E+00    0.0000000000000000E+00    3.2000000000000000E+01
         MULTIPLE_UNIT_CELL  1 1 1
       &END CELL_REF
     &END CELL
     &COORD
N   -1.0995931701251863E-02    2.0452273513831161E+00    2.4925745261933550E+00
Ga   -7.4793335768452958E-03    6.6450820176470068E-02    2.8481605767474840E+00
N   -4.0926148389846427E-03    5.6942167079886495E-02    4.9997026285044432E+00
Ga   -2.5093357641986199E-03    1.8820608422312701E+00    5.7895340033250537E+00
N   -3.2146597387109092E-04    1.8960528822446505E+00    7.7848336967604457E+00
Ga    2.5038494912123714E-05    4.8832710379576795E-02    8.4240533583333068E+00
N    1.5430293752385080E-03    4.9073266608699727E-02    1.0400370262309728E+01
Ga    7.8736707765111197E-04    1.8901038763072719E+00    1.1049531866167650E+01
N    2.2694873492234533E-03    1.8744529351461339E+00    1.3044940057538334E+01
Ga   -1.4360128777631466E-03    5.4948945692398610E-02    1.3838988027241433E+01
N   -5.3877257457543158E-04    5.8811437576014994E-02    1.6052944135502820E+01
Ga    2.0082808210013293E-03    2.1011048561568413E+00    1.6465377575464629E+01
Ga   -2.9719026874374183E-02    3.7802190795301360E+00    1.5133781685180225E+00
N   -1.5033877663522079E+00    4.6350955406949907E+00    2.5166741878889001E+00
Ga   -1.7129087849317428E+00    2.7817514484206405E+00    3.2902856220208019E+00
N   -1.6156901227969171E+00    2.8354708410199581E+00    5.2481561915514474E+00
Ga   -1.6376909920259410E+00    4.7100056048880967E+00    5.7881109689212797E+00
N   -1.6198356761507036E+00    4.6992738295366481E+00    7.7845184579792441E+00
Ga   -1.6007751499166556E+00    2.8411483052739319E+00    8.4197964900311781E+00
N   -1.5972286671544242E+00    2.8421059342868409E+00    1.0414651142998061E+01
Ga   -1.6221048667172095E+00    4.7021640882772582E+00    1.1050136549527737E+01
N   -1.6361500801398596E+00    4.7130134618345592E+00    1.3046589971777498E+01
Ga   -1.5943075009258758E+00    2.8448408983663782E+00    1.3602262443334315E+01
N   -1.6187565028230670E+00    2.8328819287835367E+00    1.5565830273226394E+01
Ga   -1.4475782282567160E+00    4.6070165092389672E+00    1.6464606472784066E+01
N    7.6053958170499069E-03    3.7779845706278330E+00    1.7604415712691832E+01
N   -3.2223563572823481E+00    7.6045516971826688E+00    2.4993845669779864E+00
Ga   -3.2157923471687817E+00    5.6241171963520822E+00    2.8354619730728312E+00
N   -3.2189492552612315E+00    5.6233366134318192E+00    4.9996338116490211E+00
Ga   -3.2195406041745822E+00    7.4527528481630192E+00    5.7759477376036541E+00
N   -3.2173936449864420E+00    7.4682313339334492E+00    7.7755942177333912E+00
Ga   -3.2187542188128573E+00    5.6228636720765373E+00    8.4248029024521749E+00
N   -3.2164893676008495E+00    5.6227034072808664E+00    1.0400948665384464E+01
Ga   -3.2155776541254801E+00    7.4615644733870523E+00    1.1051823921279617E+01
N   -3.2138588033569722E+00    7.4442734801722823E+00    1.3051149843948199E+01
Ga   -3.2149559673454782E+00    5.6200056184569069E+00    1.3844328560448231E+01
N   -3.2137484182949465E+00    5.6246912926492811E+00    1.6054196121372907E+01
Ga   -3.2129582352494976E+00    7.6522220462275143E+00    1.6447041886824291E+01
Ga   -3.2226554388546775E+00    9.3384554620200966E+00    1.4383402369297924E+00
N   -4.7272086827902644E+00    1.0211806162542718E+01    2.4966356074899645E+00
Ga   -4.9276561517250945E+00    8.3579007967609762E+00    3.2568971941609610E+00
N   -4.8295135234835103E+00    8.4089469057574640E+00    5.2245817093452773E+00
Ga   -4.8512378748673690E+00    1.0279977415675811E+01    5.7759426725799150E+00
N   -4.8337287499218755E+00    1.0268812685804658E+01    7.7752574113090311E+00
Ga   -4.8153271104494975E+00    8.4122789400996467E+00    8.4157474218864703E+00
N   -4.8122480195121291E+00    8.4129763328123257E+00    1.0412803070041246E+01
Ga   -4.8377567599830149E+00    1.0271481393018645E+01    1.1051410654365919E+01
N   -4.8531090291429528E+00    1.0283639883452686E+01    1.3050049695567349E+01
Ga   -4.8116859278731434E+00    8.4145990678078597E+00    1.3601846348096499E+01
N   -4.8354341044797629E+00    8.4030113210597701E+00    1.5570312046146954E+01
Ga   -4.6801965102853540E+00    1.0187817558502987E+01    1.6446262799213361E+01
N   -3.2145119934536508E+00    9.3477242027380800E+00    1.7567142999469059E+01
N    3.2018450747800529E+00    1.9156608561514230E+00    2.5766809074905273E+00
Ga    3.2099837795122910E+00    1.6829826074576687E-01    3.2572448766836355E+00
N    3.2127032650413527E+00    5.6515013889666663E-02    5.2247650601848470E+00
Ga    3.2133486665509658E+00    1.9091230491948084E+00    5.8577029314106399E+00
N    3.2166105756831644E+00    1.9071645991039654E+00    7.8319948344270829E+00
Ga    3.2160174440941822E+00    3.9311629526812442E-02    8.4180575184975801E+00
N    3.2173551950761614E+00    3.8078770223902499E-02    1.0415133581023710E+01
Ga    3.2181564416500605E+00    1.9082099773239656E+00    1.1010026739468476E+01
N    3.2184427279134820E+00    1.9093179545606840E+00    1.2984828012525497E+01
Ga    3.2186003608576366E+00    4.1252118341345748E-02    1.3602584593170565E+01
N    3.2189689806021526E+00    7.3712363728828209E-02    1.5571227639747848E+01
Ga    3.2186365200078888E+00    1.9157179657096557E+00    1.5848034851388318E+01
N    1.4814536876373938E+00    4.6340292442096294E+00    2.4945462652833430E+00
Ga    1.6938757999778224E+00    2.7852830884401372E+00    3.2763173720170591E+00
N    1.6075879033081681E+00    2.8361770727723568E+00    5.2384539550234459E+00
Ga    1.6299057411597271E+00    4.7082109426724967E+00    5.7871493478021225E+00
N    1.6178868615575424E+00    4.6984338969898465E+00    7.7835042783823924E+00
Ga    1.5995735825033892E+00    2.8411770407786121E+00    8.4214457857263554E+00
N    1.5991454996112497E+00    2.8424462416491778E+00    1.0416130663138787E+01
Ga    1.6251651860593679E+00    4.7030075415084127E+00    1.1051633181769621E+01
N    1.6414983374728747E+00    4.7134257228552068E+00    1.3047532889616191E+01
Ga    1.5988219432477055E+00    2.8447654292175408E+00    1.3603158683982588E+01
N    1.6238562591507988E+00    2.8304542957780900E+00    1.5566923636912980E+01
Ga    1.4583394601365913E+00    4.6106656380518354E+00    1.6464898767861417E+01
N   -7.1716201198072857E-03    7.4766335835190842E+00    2.5841347582707357E+00
Ga   -5.9320409888298066E-03    5.7408877852655689E+00    3.2918362144338906E+00
N   -3.2023627607903125E-03    5.6290353907165454E+00    5.2489675258676307E+00
Ga   -4.4158901469814570E-03    7.4844329187459415E+00    5.8614606727420808E+00
N   -1.7633580398216790E-03    7.4808935300513948E+00    7.8345399125640780E+00
Ga   -5.2562056616451422E-04    5.6117480118381815E+00    8.4197280587266228E+00
N    1.2694236045207956E-03    5.6100274154336738E+00    1.0415163753071180E+01
Ga    1.3357131563741800E-03    7.4794913321644003E+00    1.1009456508147029E+01
N    2.0129645545826770E-03    7.4812419791422524E+00    1.2984267999791355E+01
Ga    2.2628239309370156E-03    5.6113546605903748E+00    1.3604171257441758E+01
N    8.0661499565025841E-04    5.6447804244929900E+00    1.5568530171867646E+01
Ga    4.9956028867261630E-03    7.4828657348735028E+00    1.5849080054898200E+01
N   -1.7198283099307572E+00    1.0208287772085427E+01    2.4965580548804240E+00
Ga   -1.5178125613024134E+00    8.3563603892205247E+00    3.2592896345266280E+00
N   -1.6099947488293271E+00    8.4092431274601616E+00    5.2269380845930646E+00
Ga   -1.5871307839752349E+00    1.0280931157752240E+01    5.7761148437337004E+00
N   -1.6006130288640312E+00    1.0268995416494505E+01    7.7762455586350425E+00
Ga   -1.6199049577246689E+00    8.4136173852380871E+00    8.4185306920872840E+00
N   -1.6188873752164845E+00    8.4136027707161052E+00    1.0415274276912713E+01
Ga   -1.5909054139659367E+00    1.0272807917618644E+01    1.1052149457288376E+01
N   -1.5740198800487590E+00    1.0284082299768764E+01    1.3051045728366526E+01
Ga   -1.6159668385388670E+00    8.4149810615389509E+00    1.3602640124111593E+01
N   -1.5906240855723623E+00    8.4029667554937859E+00    1.5570881575521224E+01
Ga   -1.7455790165728202E+00    1.0187953716239560E+01    1.6447808504445309E+01
N    6.4248340027802433E+00    2.0352643444961309E+00    2.4963712499313897E+00
Ga    6.4245261895839931E+00    5.5445422831220580E-02    2.8316042690762973E+00
N    6.4278860979973906E+00    5.4266395799978696E-02    5.0000436841383689E+00
Ga    6.4273000380647964E+00    1.8812145182140532E+00    5.7763715319939566E+00
N    6.4305777203285555E+00    1.8980306825617292E+00    7.7758902833884029E+00
Ga    6.4307811361952298E+00    5.1454065583254070E-02    8.4215568938863008E+00
N    6.4330043942010278E+00    5.0995211332547800E-02    1.0398803543946350E+01
Ga    6.4333051491243705E+00    1.8905281277533377E+00    1.1051140033405197E+01
N    6.4345370127839958E+00    1.8744185517168841E+00    1.3046478683004622E+01
Ga    6.4380921208255071E+00    5.6097786085324751E-02    1.3845513550605197E+01
N    6.4386861295146112E+00    5.9183981620668999E-02    1.6054755650289540E+01
Ga    6.4355184303102266E+00    2.1094154443772126E+00    1.6475261353627619E+01
Ga    6.4283055363541006E+00    3.7712999321777136E+00    1.4502880680719563E+00
N    4.9196910702573868E+00    4.6374540245677371E+00    2.4951756655877961E+00
Ga    4.7169092666818138E+00    2.7841107643115333E+00    3.2575289777914800E+00
N    4.8174846137360916E+00    2.8370752867961819E+00    5.2241720177644035E+00
Ga    4.7952540335952323E+00    4.7093418493799666E+00    5.7741401728002000E+00
N    4.8140770377005664E+00    4.6986929035894018E+00    7.7737565940119797E+00
Ga    4.8337036044217099E+00    2.8423817038171157E+00    8.4178497995000736E+00
N    4.8363505816879906E+00    2.8432125531796530E+00    1.0413669892574358E+01
Ga    4.8110105637781322E+00    4.7022279324583742E+00    1.1052554295636549E+01
N    4.7959856969431218E+00    4.7131927294689371E+00    1.3048126053356619E+01
Ga    4.8384529150840487E+00    2.8448258968102769E+00    1.3605930532903690E+01
N    4.8119633848765178E+00    2.8289382965261201E+00    1.5567412115411784E+01
Ga    4.9881670136903971E+00    4.6049310981997680E+00    1.6473788296199626E+01
N    6.4268424059305698E+00    3.7762986724036414E+00    1.7619773078992953E+01
N    3.2074878113170024E+00    7.6043624436038106E+00    2.4970195849042964E+00
Ga    3.1982417709719844E+00    5.6221596021223439E+00    2.8337985283585292E+00
N    3.2088809410597228E+00    5.6221162633144779E+00    4.9954134134260162E+00
Ga    3.2111627893470001E+00    7.4518822202925374E+00    5.7747564776017235E+00
N    3.2149142276576002E+00    7.4673488766057146E+00    7.7740219615241370E+00
Ga    3.2172624746343201E+00    5.6219591835464753E+00    8.4242694882465194E+00
N    3.2186863255245637E+00    5.6222515972217337E+00    1.0400215928823643E+01
Ga    3.2177726560774160E+00    7.4615783969872798E+00    1.1050146232277912E+01
N    3.2187960081480869E+00    7.4452170345092563E+00    1.3046512441502816E+01
Ga    3.2193972575656833E+00    5.6243076343952687E+00    1.3847094548922346E+01
N    3.2197787114794418E+00    5.6288891336075837E+00    1.6053863155973040E+01
Ga    3.2187882580897322E+00    7.6730930202961920E+00    1.6469870489448905E+01
Ga    3.2087634834253969E+00    9.3420115837985165E+00    1.4449667225786651E+00
N    1.7054229008970143E+00    1.0208146621897544E+01    2.4974850664003228E+00
Ga    1.5024019559023751E+00    8.3559387669455756E+00    3.2599611646015978E+00
N    1.6011094611806738E+00    8.4088851982474431E+00    5.2267374466875607E+00
Ga    1.5783945020457639E+00    1.0280312443306352E+01    5.7776222491811238E+00
N    1.5977397578057895E+00    1.0268751342731102E+01    7.7767870835805910E+00
Ga    1.6174933875047635E+00    8.4126381919922473E+00    8.4174392589428830E+00
N    1.6206089848516609E+00    8.4130679528852177E+00    1.0412865059907306E+01
Ga    1.5941465455020503E+00    1.0272289532903102E+01    1.1049242313201990E+01
N    1.5801802099044040E+00    1.0283426633700060E+01    1.3045600085260210E+01
Ga    1.6221835967530223E+00    8.4159085579226254E+00    1.3603146273051582E+01
N    1.5943777033087418E+00    8.4042379637070379E+00    1.5566234020066343E+01
Ga    1.7748153231238570E+00    1.0176045804937891E+01    1.6469777774116089E+01
N    3.2166565105369176E+00    9.3409129222398519E+00    1.7619503357459113E+01
N    9.6463298870552077E+00    1.9148683251255469E+00    2.5875828229068869E+00
Ga    9.6394889715320584E+00    1.6797466562140567E-01    3.2622881377596507E+00
N    9.6431879177030346E+00    5.5431130157122276E-02    5.2286470083112011E+00
Ga    9.6413701438359354E+00    1.9087273956121635E+00    5.8606783579264690E+00
N    9.6448841935989389E+00    1.9074975052053622E+00    7.8333925190683358E+00
Ga    9.6468572609397487E+00    3.9368341054440176E-02    8.4168861453258668E+00
N    9.6491188956474012E+00    3.8414841372249951E-02    1.0412167155915752E+01
Ga    9.6483009632513923E+00    1.9079561089482271E+00    1.1009168059836242E+01
N    9.6507319162204599E+00    1.9100879066383847E+00    1.2983335293303290E+01
Ga    9.6510128881831267E+00    4.0608859551842333E-02    1.3601820459758372E+01
N    9.6524882766978770E+00    7.4970912034740517E-02    1.5564482851107396E+01
Ga    9.6517104987441655E+00    1.9141640548863827E+00    1.5843083824291117E+01
N    7.9289403253484068E+00    4.6378253763860320E+00    2.4995700909858871E+00
Ga    8.1315243505131658E+00    2.7847136093968987E+00    3.2619089662388943E+00
N    8.0368400910005597E+00    2.8378757659937111E+00    5.2282673483617144E+00
Ga    8.0609263573948038E+00    4.7103170717130203E+00    5.7763530707730411E+00
N    8.0480530132395085E+00    4.6993069758479216E+00    7.7755107385201763E+00
Ga    8.0279373047732658E+00    2.8425613087036159E+00    8.4177495249763616E+00
N    8.0296352764908558E+00    2.8430245689030960E+00    1.0413069079757211E+01
Ga    8.0549177643254293E+00    4.7018878596482399E+00    1.1050576424558374E+01
N    8.0724390078244177E+00    4.7127381620402016E+00    1.3046250543929945E+01
Ga    8.0313236304732527E+00    2.8448930874500964E+00    1.3604777875509404E+01
N    8.0588049716382510E+00    2.8322404095722526E+00    1.5565789064460896E+01
Ga    7.8742174947386179E+00    4.5996917302561053E+00    1.6473872726077623E+01
N    6.4257345775045653E+00    7.4847286885075484E+00    2.5769179137146270E+00
Ga    6.4243125895816995E+00    5.7411880173156495E+00    3.2585688199014387E+00
N    6.4276328539859788E+00    5.6261634654853028E+00    5.2246343814066964E+00
Ga    6.4285764921178963E+00    7.4815048807683926E+00    5.8512177684187536E+00
N    6.4316263284762121E+00    7.4786515896500330E+00    7.8262816693027810E+00
Ga    6.4309277672916929E+00    5.6107172667956569E+00    8.4156569473992633E+00
N    6.4328030474161979E+00    5.6093519325199672E+00    1.0411645173787120E+01
Ga    6.4328460252381037E+00    7.4785415219182463E+00    1.1007833550161566E+01
N    6.4350952757400286E+00    7.4812057316161980E+00    1.2982136007157541E+01
Ga    6.4350213589927066E+00    5.6116293538175448E+00    1.3605904631505268E+01
N    6.4383441030010049E+00    5.6461912698583907E+00    1.5567977157611141E+01
Ga    6.4336350449761719E+00    7.4828160065974743E+00    1.5849659742692941E+01
N    4.7119433084835887E+00    1.0210549586863703E+01    2.4992134159076169E+00
Ga    4.9147982947459701E+00    8.3558890203436835E+00    3.2574443509715514E+00
N    4.8209733948758506E+00    8.4084595978874077E+00    5.2247884470076329E+00
Ga    4.8443040753959945E+00    1.0279909074507943E+01    5.7769182752759685E+00
N    4.8325737066573717E+00    1.0268999954061977E+01    7.7754220446255227E+00
Ga    4.8139564709481899E+00    8.4115370227511566E+00    8.4143868342216575E+00
N    4.8142700956819047E+00    8.4125076012527451E+00    1.0410070680818688E+01
Ga    4.8393332130514013E+00    1.0271114259502721E+01    1.1047731554410969E+01
N    4.8563896993497808E+00    1.0282806656605990E+01    1.3043513406732080E+01
Ga    4.8158975175118437E+00    8.4155504491396638E+00    1.3602510890514910E+01
N    4.8440887230650977E+00    8.4054127876286557E+00    1.5565420197805707E+01
Ga    4.6601475831752195E+00    1.0174554514055878E+01    1.6469008427524656E+01
O   -6.0064032800404510E-02    3.6082463509176135E+00   -5.6235047678280203E-01
H    3.7486809348874267E-01    4.3684067554825434E+00   -9.9513751711089571E-01
C    4.9155798410604723E-01    2.3468676301769720E+00   -1.0896970881667103E+00
H    1.5891568943417775E+00    2.3700867935553989E+00   -1.0813195690609760E+00
H    1.3453965757278388E-01    1.5641572826291832E+00   -4.0652904661237793E-01
H    9.0200374883022641E-02    2.1936897309433552E+00   -2.0973198058174938E+00
     &END COORD
     &KIND C
       BASIS_SET DZVP-MOLOPT-SR-GTH-q4
       POTENTIAL GTH-PBE-q4
       &POTENTIAL
 2 2
  0.3384712400000000E+00 2 -0.8803673979999999E+01  0.1339210850000000E+01
 2
  0.3025757500000000E+00 1  0.9622486650000001E+01
  0.2915069400000000E+00 0
         # Potential name:  GTH-PBE-Q4  for symbol:  C
         # Potential read from the potential filename: GTH_POTENTIALS
       &END POTENTIAL
     &END KIND
     &KIND O
       BASIS_SET DZVP-MOLOPT-SR-GTH-q6
       POTENTIAL GTH-PBE-q6
       &POTENTIAL
 2 4
  0.2445543000000000E+00 2 -0.1666721480000000E+02  0.2487311320000000E+01
 2
  0.2209559200000000E+00 1  0.1833745811000000E+02
  0.2113324700000000E+00 0
         # Potential name:  GTH-PBE-Q6  for symbol:  O
         # Potential read from the potential filename: GTH_POTENTIALS
       &END POTENTIAL
     &END KIND
     &KIND H
       BASIS_SET DZVP-MOLOPT-SR-GTH-q1
       POTENTIAL GTH-PBE-q1
       &POTENTIAL
 1
  0.2000000000000000E+00 2 -0.4178900440000000E+01  0.7244633100000000E+00
 0
         # Potential name:  GTH-PBE-Q1  for symbol:  H
         # Potential read from the potential filename: GTH_POTENTIALS
       &END POTENTIAL
     &END KIND
     &KIND N
       BASIS_SET DZVP-MOLOPT-SR-GTH
       POTENTIAL GTH-PBE-q5
       &POTENTIAL
 2 3
  0.2837905100000000E+00 2 -0.1241522559000000E+02  0.1868095920000000E+01
 2
  0.2554050000000000E+00 1  0.1363026257000000E+02
  0.2454945300000000E+00 0
         # Potential name:  GTH-PBE-Q5  for symbol:  N
         # Potential read from the potential filename: GTH_POTENTIALS
       &END POTENTIAL
     &END KIND
     &KIND Ga
       BASIS_SET DZVP-MOLOPT-SR-GTH
       POTENTIAL GTH-PBE-q13
       &POTENTIAL
 2 1 10
  0.4900000000000000E+00 0
 3
  0.4167772300000000E+00 3  0.1047568975000000E+02 -0.4921768140000000E+01  0.8707055900000000E+00
  0.7770178090000000E+01 -0.2248152160000000E+01
  0.1784415450000000E+01
  0.5696265200000000E+00 2  0.1777985340000000E+01  0.1958597600000000E+00
 -0.2317443900000000E+00
  0.2381265000000000E+00 1 -0.1624868022000000E+02
         # Potential name:  GTH-PBE-Q13  for symbol:  GA
         # Potential read from the potential filename: GTH_POTENTIALS
       &END POTENTIAL
     &END KIND
     &TOPOLOGY
       NUMBER_OF_ATOMS  206
       MULTIPLE_UNIT_CELL  1 1 1
     &END TOPOLOGY
   &END SUBSYS
 &END FORCE_EVAL
