 # Version information for this restart file 
 # current date 2019-06-24 11:02:05.419
 # current working dir /scratch/rzk/rzk/GaN-carbene/443-adatoms-both-2x2/02-Methanol/01-O-GaTop
 # Program compiled at                              Sun Apr  7 00:48:11 EDT 2019
 # Program compiled on                          beluga2.int.ets1.calculquebec.ca
 # Program compiled for                        Beluga-Linux-x86-64-intel-openmpi
 # Source code revision number                                         svn:18619
 &GLOBAL
   PRINT_LEVEL  MEDIUM
   PROJECT_NAME TEST
   RUN_TYPE  GEO_OPT
 &END GLOBAL
 &MOTION
   &GEO_OPT
     MAX_ITER  500
     STEP_START_VAL  24
   &END GEO_OPT
 &END MOTION
 &FORCE_EVAL
   METHOD  QS
   STRESS_TENSOR  ANALYTICAL
   &DFT
     BASIS_SET_FILE_NAME BASIS_MOLOPT
     POTENTIAL_FILE_NAME GTH_POTENTIALS
     UKS  T
     SURFACE_DIPOLE_CORRECTION  T
     SURF_DIP_DIR  Z
     &SCF
       MAX_SCF  80
       EPS_SCF     5.0000000000000004E-06
       &OT  T
         PRECONDITIONER  FULL_ALL
       &END OT
       &OUTER_SCF  T
         OPTIMIZER  NONE
         EPS_SCF     5.0000000000000004E-06
         MAX_SCF  4
       &END OUTER_SCF
       &PRINT
         &RESTART  OFF
           BACKUP_COPIES  1
           &EACH
             JUST_ENERGY  0
             QS_SCF  0
             MD  20
           &END EACH
         &END RESTART
       &END PRINT
     &END SCF
     &QS
       EPS_DEFAULT     1.0000000000000000E-14
       METHOD  GPW
     &END QS
     &MGRID
       NGRIDS  5
       CUTOFF     1.2000000000000000E+03
     &END MGRID
     &XC
       DENSITY_CUTOFF     1.0000000000000000E-10
       GRADIENT_CUTOFF     1.0000000000000000E-10
       TAU_CUTOFF     1.0000000000000000E-10
       &XC_FUNCTIONAL  NO_SHORTCUT
         &PBE  T
         &END PBE
       &END XC_FUNCTIONAL
       &VDW_POTENTIAL
         POTENTIAL_TYPE  PAIR_POTENTIAL
         &PAIR_POTENTIAL
           R_CUTOFF     1.0000000000000004E+01
           TYPE  DFTD3
           PARAMETER_FILE_NAME dftd3.dat
           REFERENCE_FUNCTIONAL PBE
           EPS_CN     9.9999999999999995E-07
           CALCULATE_C9_TERM  T
           REFERENCE_C9_TERM  T
           LONG_RANGE_CORRECTION  F
           VERBOSE_OUTPUT  F
         &END PAIR_POTENTIAL
       &END VDW_POTENTIAL
     &END XC
   &END DFT
   &SUBSYS
     &CELL
       A     1.2864472766435110E+01    0.0000000000000000E+00    0.0000000000000000E+00
       B    -6.4322363581020028E+00    1.1140960178524473E+01    0.0000000000000000E+00
       C     0.0000000000000000E+00    0.0000000000000000E+00    3.2000000000000000E+01
       MULTIPLE_UNIT_CELL  1 1 1
       &CELL_REF
         A     1.2982353780853531E+01    0.0000000000000000E+00    0.0000000000000000E+00
         B    -6.4911768904267628E+00    1.1243048175136114E+01    0.0000000000000000E+00
         C     0.0000000000000000E+00    0.0000000000000000E+00    3.2000000000000000E+01
         MULTIPLE_UNIT_CELL  1 1 1
       &END CELL_REF
     &END CELL
     &COORD
N    8.3915102734929085E-03    2.0427808989138452E+00    2.4566909558396475E+00
Ga    1.0197042396508352E-02    6.1253595602335974E-02    2.8210349067449991E+00
N    1.2479862768194327E-02    5.0665593511297145E-02    4.9671444856422227E+00
Ga    1.3976756133583828E-02    1.8788777059087771E+00    5.7602008585310305E+00
N    1.3691051433212057E-02    1.8959067816362352E+00    7.7532213744861780E+00
Ga    1.2534194720642926E-02    5.1407980592869738E-02    8.4066288777765905E+00
N    1.3667294113740024E-02    5.2965404299700057E-02    1.0376135580919119E+01
Ga    1.3591647881110237E-02    1.8924946156870783E+00    1.1032185274160220E+01
N    1.4582976952449801E-02    1.8712062309632493E+00    1.3021337385401894E+01
Ga    1.4676351826448948E-02    5.2517111617356706E-02    1.3840767791971881E+01
N    1.6645950025952105E-02    5.1518449288532810E-02    1.6030990540093278E+01
Ga    1.5233081188221469E-02    2.0928846888081156E+00    1.6445381065846671E+01
Ga   -1.4004467152660210E-02    3.7859013346990493E+00    1.5021053958143600E+00
N   -1.4844438431022549E+00    4.6315976693531251E+00    2.5055168662394762E+00
Ga   -1.6951594553402722E+00    2.7747675348904561E+00    3.2629374868043426E+00
N   -1.5988451054457187E+00    2.8299156842813775E+00    5.2195581106659601E+00
Ga   -1.6197452838221056E+00    4.7025410264905201E+00    5.7637463328869574E+00
N   -1.6055123089037824E+00    4.6977070419406823E+00    7.7558934456389323E+00
Ga   -1.5848131648146853E+00    2.8412462084692067E+00    8.3996555296372506E+00
N   -1.5825823343277803E+00    2.8440096796449068E+00    1.0388008019252586E+01
Ga   -1.6092750692620887E+00    4.7025491884298471E+00    1.1031914420375566E+01
N   -1.6275753274492322E+00    4.7141949353841319E+00    1.3019932668051148E+01
Ga   -1.5818282416956284E+00    2.8454023307440712E+00    1.3583235736055855E+01
N   -1.6055791784138036E+00    2.8292536747818890E+00    1.5542385048958419E+01
Ga   -1.4293292485678277E+00    4.5992141333199505E+00    1.6444955653499015E+01
N    1.9798196260034942E-02    3.7625616900471077E+00    1.7589779526995418E+01
N   -3.2025939286274330E+00    7.5956646027755719E+00    2.4860254078596493E+00
Ga   -3.1952639864163688E+00    5.6107159577188943E+00    2.8287712295074141E+00
N   -3.2034007790606194E+00    5.6172809731057987E+00    4.9749591064835936E+00
Ga   -3.2036521152904847E+00    7.4461729262232215E+00    5.7586230422722675E+00
N   -3.2025487866991043E+00    7.4660299631271521E+00    7.7515171508255563E+00
Ga   -3.2033841984499087E+00    5.6205035206375271E+00    8.4076250052959374E+00
N   -3.2023578567988822E+00    5.6223462818338410E+00    1.0377119551616572E+01
Ga   -3.2030034530747358E+00    7.4617873146607669E+00    1.1032640231989998E+01
N   -3.2020778780088373E+00    7.4413460406920899E+00    1.3020213463766545E+01
Ga   -3.2012730906922320E+00    5.6226475754684948E+00    1.3840690806113139E+01
N   -3.2001111923204899E+00    5.6206040454844448E+00    1.6029263928956194E+01
Ga   -3.2001724205837889E+00    7.6694956191590000E+00    1.6443068671325072E+01
Ga   -3.2028866626651999E+00    9.3299145109039987E+00    1.4603156154302697E+00
N   -4.7081930642792704E+00    1.0200227948166280E+01    2.4813197080064096E+00
Ga   -4.9133731568353811E+00    8.3429345754115420E+00    3.2465732590029184E+00
N   -4.8140770751203963E+00    8.4024583303843912E+00    5.2066831684938473E+00
Ga   -4.8362908463555971E+00    1.0275649739400562E+01    5.7555503088480249E+00
N   -4.8218088914244204E+00    1.0269648677461950E+01    7.7488481022365239E+00
Ga   -4.8009098114921231E+00    8.4125475073697480E+00    8.3979840445969973E+00
N   -4.7987832748702255E+00    8.4148271760119506E+00    1.0385642831076606E+01
Ga   -4.8253076993289925E+00    1.0273518775432926E+01    1.1031308734195232E+01
N   -4.8424195218885266E+00    1.0283855998717948E+01    1.3019878283637125E+01
Ga   -4.7990872363352866E+00    8.4144839724180223E+00    1.3582361485357957E+01
N   -4.8299562397618825E+00    8.3973842225020494E+00    1.5539844237996551E+01
Ga   -4.6368824845521912E+00    1.0164099926777435E+01    1.6445557252307541E+01
N   -3.1941882794381207E+00    9.3301055876293137E+00    1.7567907418233176E+01
N    3.2231978880528254E+00    1.9055928986522810E+00    2.5568938916235151E+00
Ga    3.2264181130349852E+00    1.6570394559962293E-01    3.2466157361541703E+00
N    3.2289966674311912E+00    5.0203377117331006E-02    5.2062396795071662E+00
Ga    3.2261702901707703E+00    1.9059028233468962E+00    5.8393907628781268E+00
N    3.2291872924577696E+00    1.9068287754939777E+00    7.8073673443839970E+00
Ga    3.2285644893169727E+00    3.8851237854914775E-02    8.3991099394733215E+00
N    3.2294999020450628E+00    3.9290622702661121E-02    1.0386591323164986E+01
Ga    3.2293750019114760E+00    1.9091986304989659E+00    1.0985618717500083E+01
N    3.2300498746441533E+00    1.9089036978630303E+00    1.2950772414372812E+01
Ga    3.2305599879987392E+00    4.0347221565685522E-02    1.3583005428249525E+01
N    3.2300336115865549E+00    7.4896641687466473E-02    1.5540874499638322E+01
Ga    3.2293002211133954E+00    1.9108833105859364E+00    1.5826746754043819E+01
N    1.4983669222694502E+00    4.6280390592541414E+00    2.4738553806344297E+00
Ga    1.7132896158018671E+00    2.7772115050526049E+00    3.2449372089833344E+00
N    1.6231295347033607E+00    2.8312312485570872E+00    5.2082254094338198E+00
Ga    1.6454757517797842E+00    4.7009306162957767E+00    5.7622044267275854E+00
N    1.6315732061241137E+00    4.6968500790637275E+00    7.7545027775304431E+00
Ga    1.6110099172004955E+00    2.8410006838794546E+00    8.4003513951832147E+00
N    1.6100388753259987E+00    2.8437622909069122E+00    1.0388020511839928E+01
Ga    1.6359099848994365E+00    4.7021756333759051E+00    1.1031649780771831E+01
N    1.6553792481267084E+00    4.7133256440691360E+00    1.3020896779781872E+01
Ga    1.6119960408601930E+00    2.8439586222782056E+00    1.3583940222896077E+01
N    1.6362357500010574E+00    2.8295350168032205E+00    1.5543790256449695E+01
Ga    1.4638467874265950E+00    4.6016855821599538E+00    1.6445160541673076E+01
N    1.3129556408854970E-02    7.4680323889851890E+00    2.5643159163241416E+00
Ga    1.2052424802192522E-02    5.7351296205416222E+00    3.2779049046377180E+00
N    1.3605665126575010E-02    5.6236422610912093E+00    5.2293951906402611E+00
Ga    1.3693250445967543E-02    7.4769502542257191E+00    5.8477523553263380E+00
N    1.3471663332716972E-02    7.4791045868874617E+00    7.8134807792044132E+00
Ga    1.2948976358029149E-02    5.6082673952456554E+00    8.3993200299082424E+00
N    1.3582710277110024E-02    5.6088520349533271E+00    1.0387805902721942E+01
Ga    1.3692462458409141E-02    7.4785711895017819E+00    1.0985028429312475E+01
N    1.4008388199430745E-02    7.4788022889068531E+00    1.2952300162895837E+01
Ga    1.3883267042840796E-02    5.6088373543514010E+00    1.3582873200801538E+01
N    1.5470421669978139E-02    5.6372048446571581E+00    1.5542370396866826E+01
Ga    1.9934994713519529E-02    7.4772086812250125E+00    1.5819782496993360E+01
N   -1.7019761568477565E+00    1.0197616250888393E+01    2.4856458534988408E+00
Ga   -1.4930300965785894E+00    8.3427322729325581E+00    3.2488816056080982E+00
N   -1.5924792533639356E+00    8.4010440057206495E+00    5.2091170597132725E+00
Ga   -1.5712312657687268E+00    1.0273834047299339E+01    5.7590315390429110E+00
N   -1.5854642868393689E+00    1.0268482563952533E+01    7.7517787481669105E+00
Ga   -1.6056883856310782E+00    8.4125711188523322E+00    8.4020286966630682E+00
N   -1.6059939572724558E+00    8.4144438885504602E+00    1.0389234974525301E+01
Ga   -1.5801013670185775E+00    1.0273865929945110E+01    1.1032269501223592E+01
N   -1.5607150711351361E+00    1.0284364706251521E+01    1.3020510616534041E+01
Ga   -1.6050517921407876E+00    8.4147537671823791E+00    1.3581803399945152E+01
N   -1.5702479437446430E+00    8.3949663118052449E+00    1.5540357308912453E+01
Ga   -1.7578580519789799E+00    1.0167405782538658E+01    1.6442482337112970E+01
N    6.4442220885786217E+00    2.0235040572942151E+00    2.4863815954406059E+00
Ga    6.4465560310388934E+00    4.4957185144961422E-02    2.8249499536791829E+00
N    6.4456768001820537E+00    4.6378351547394135E-02    4.9740238511566650E+00
Ga    6.4448236561880083E+00    1.8762947551252522E+00    5.7593227385713295E+00
N    6.4448778117244681E+00    1.8957405095566686E+00    7.7522072015286527E+00
Ga    6.4452697869743485E+00    5.0440969685012084E-02    8.4062548910196355E+00
N    6.4454608702508009E+00    5.2404739077665637E-02    1.0376003433956026E+01
Ga    6.4452476039842255E+00    1.8922679451207272E+00    1.1032395607579103E+01
N    6.4463400907540578E+00    1.8707866342961010E+00    1.3020845912935062E+01
Ga    6.4468662058594637E+00    5.2582720382073227E-02    1.3843067429299969E+01
N    6.4493157315972205E+00    5.2419893672977655E-02    1.6028818618305216E+01
Ga    6.4494669246710741E+00    2.1004554675246641E+00    1.6443212241947872E+01
Ga    6.4461456902311358E+00    3.7563396759199121E+00    1.4586832743608356E+00
N    4.9405470718500109E+00    4.6247235115224852E+00    2.4837600139823346E+00
Ga    4.7326886318354502E+00    2.7717945068027525E+00    3.2467723038012721E+00
N    4.8343547927502026E+00    2.8301475799957352E+00    5.2065057070321199E+00
Ga    4.8114637790715173E+00    4.7024874815690314E+00    5.7562592716115422E+00
N    4.8261617794705591E+00    4.6974419855928815E+00    7.7496371865014453E+00
Ga    4.8469905085307730E+00    2.8415894025352872E+00    8.3989884119746367E+00
N    4.8485273610970481E+00    2.8437041976330204E+00    1.0386610729751322E+01
Ga    4.8230392204226922E+00    4.7024702240028482E+00    1.1031472553818457E+01
N    4.8056813127991802E+00    4.7135971192944748E+00    1.3020211069162038E+01
Ga    4.8486043374467211E+00    2.8436674891900955E+00    1.3583090899320437E+01
N    4.8194636004217308E+00    2.8267230855519809E+00    1.5539546287468374E+01
Ga    5.0126515099442308E+00    4.5946024365194225E+00    1.6445853172952763E+01
N    6.4561951436147664E+00    3.7625332949365178E+00    1.7569344399555870E+01
N    3.2286900899968689E+00    7.5949952556063494E+00    2.4834062643299770E+00
Ga    3.2174137537839580E+00    5.6115078873716220E+00    2.8207127892703991E+00
N    3.2269633043367936E+00    5.6163756440874852E+00    4.9690197299923078E+00
Ga    3.2291721205247073E+00    7.4455741394684551E+00    5.7561524454719670E+00
N    3.2286085639812763E+00    7.4653286821152900E+00    7.7493133843638589E+00
Ga    3.2286433522041036E+00    5.6206223849172945E+00    8.4066214872972651E+00
N    3.2292336857354726E+00    5.6220723108330048E+00    1.0376340740783762E+01
Ga    3.2299228497971240E+00    7.4620727093391128E+00    1.1032169956640940E+01
N    3.2308517150009060E+00    7.4412445189684266E+00    1.3020790451754916E+01
Ga    3.2306775344571217E+00    5.6225218807313784E+00    1.3840246645431820E+01
N    3.2337462927359910E+00    5.6207134271352519E+00    1.6029866742654573E+01
Ga    3.2324293299125451E+00    7.6638784883762510E+00    1.6444774284348465E+01
Ga    3.2288912975421153E+00    9.3308382662671541E+00    1.4545894181475540E+00
N    1.7282393677737453E+00    1.0196465616212706E+01    2.4861408938497576E+00
Ga    1.5206451243664065E+00    8.3422904323014553E+00    3.2475540584261418E+00
N    1.6189714663252281E+00    8.4012759604264122E+00    5.2079616960604316E+00
Ga    1.5974886471182257E+00    1.0273339603208582E+01    5.7588815731794751E+00
N    1.6111725970707036E+00    1.0268299526257461E+01    7.7514664230771082E+00
Ga    1.6323984998811576E+00    8.4128506678920800E+00    8.4010310896132783E+00
N    1.6330704045565665E+00    8.4143599551255441E+00    1.0388321648392289E+01
Ga    1.6065580644640638E+00    1.0273617148404076E+01    1.1032575555856111E+01
N    1.5881024484483781E+00    1.0284714342051920E+01    1.3020531141961358E+01
Ga    1.6334318146870737E+00    8.4148936778554528E+00    1.3582812370986026E+01
N    1.6104004156424896E+00    8.4000077756224822E+00    1.5541767267352267E+01
Ga    1.7885867324368265E+00    1.0169408388310526E+01    1.6443767315315924E+01
N    3.2379227176063621E+00    9.3325598834716690E+00    1.7581514558504345E+01
N    9.6649091271327396E+00    1.9044805601723116E+00    2.5656483887087163E+00
Ga    9.6630804927476674E+00    1.6276376020672903E-01    3.2476770046495451E+00
N    9.6614429533065600E+00    4.9457578902104483E-02    5.2076221087868051E+00
Ga    9.6613574936451894E+00    1.9036759243111709E+00    5.8437382707790251E+00
N    9.6604940789220670E+00    1.9059092160375559E+00    7.8109328096941715E+00
Ga    9.6614273063691716E+00    3.7851091582328307E-02    8.4000192151666511E+00
N    9.6620785470526585E+00    3.8916346952040055E-02    1.0387780444302388E+01
Ga    9.6627653109199922E+00    1.9093245201836713E+00    1.0985331425974405E+01
N    9.6638269723120729E+00    1.9096403039052587E+00    1.2952552778153319E+01
Ga    9.6620403755241515E+00    3.9356400608464293E-02    1.3583336185026786E+01
N    9.6639557584112001E+00    6.7416598337289024E-02    1.5542084315483677E+01
Ga    9.6670034062247669E+00    1.9063808787761565E+00    1.5819360051844573E+01
N    7.9475019152705988E+00    4.6240939206509486E+00    2.4875312917985637E+00
Ga    8.1547489091230876E+00    2.7709770792435533E+00    3.2492481572423935E+00
N    8.0556081809140121E+00    2.8303032158933159E+00    5.2090757310410343E+00
Ga    8.0773306594954128E+00    4.7027424412792822E+00    5.7588061018724819E+00
N    8.0631486308253155E+00    4.6970165260908123E+00    7.7517464554903972E+00
Ga    8.0428667953315980E+00    2.8411795306161474E+00    8.4009594483585364E+00
N    8.0426189654302362E+00    2.8438436107193654E+00    1.0388779308584494E+01
Ga    8.0689524336217868E+00    4.7032485700043898E+00    1.1032843006048754E+01
N    8.0881612195891321E+00    4.7143828852095426E+00    1.3020650093417157E+01
Ga    8.0435669581415130E+00    2.8441092585140697E+00    1.3582264547271789E+01
N    8.0777488483381390E+00    2.8240656337060122E+00    1.5539084784211619E+01
Ga    7.8912382867971491E+00    4.5978250571179720E+00    1.6443617791149112E+01
N    6.4451441463684525E+00    7.4713937203302159E+00    2.5644457838388988E+00
Ga    6.4446950149940205E+00    5.7306756865933846E+00    3.2465044440896214E+00
N    6.4445200893336487E+00    5.6190636924975248E+00    5.2071947427535488E+00
Ga    6.4447597333616962E+00    7.4737189079952202E+00    5.8385431004372927E+00
N    6.4450086070479520E+00    7.4771566784100232E+00    7.8065229819832442E+00
Ga    6.4448575288401262E+00    5.6083457430140369E+00    8.3981906166642908E+00
N    6.4457818649802929E+00    5.6093028452134215E+00    1.0385899094563944E+01
Ga    6.4461115763616279E+00    7.4795832110920140E+00    1.0982965424942867E+01
N    6.4474873406370063E+00    7.4799655097117688E+00    1.2949019456430024E+01
Ga    6.4463593322782877E+00    5.6110654437621443E+00    1.3582487290642453E+01
N    6.4459985981903341E+00    5.6450857720775680E+00    1.5538704046250791E+01
Ga    6.4439712183053679E+00    7.4802141579266674E+00    1.5824337560923059E+01
N    4.7327491933998651E+00    1.0198580708645311E+01    2.4824072893524214E+00
Ga    4.9382781551590105E+00    8.3428455545929285E+00    3.2455686201865528E+00
N    4.8396988105091889E+00    8.4018095759695122E+00    5.2057618342848366E+00
Ga    4.8618055319173745E+00    1.0274782637268983E+01    5.7555700198970028E+00
N    4.8475343435869229E+00    1.0269178025044960E+01    7.7487094168125665E+00
Ga    4.8264792343902370E+00    8.4123839326104051E+00    8.3973010028227542E+00
N    4.8261320989452390E+00    8.4146365524899096E+00    1.0385466972355411E+01
Ga    4.8529638612345369E+00    1.0273436865509323E+01    1.1032210213428888E+01
N    4.8720762370916111E+00    1.0283944430204421E+01    1.3020939422504741E+01
Ga    4.8283860938676701E+00    8.4137901211725907E+00    1.3583356488207553E+01
N    4.8528286699524017E+00    8.4001309676887121E+00    1.5542450603578290E+01
Ga    4.6803467223061395E+00    1.0171810948267872E+01    1.6444952669527872E+01
O   -2.7247972283224353E-01    3.7744267832463283E+00   -5.5670272150314348E-01
H   -3.9311101425968629E-02    4.6107114566632221E+00   -9.9782679327471269E-01
C    1.5208282510816185E-01    2.6038133779501860E+00   -1.3392564007803560E+00
H    1.1720274024267414E+00    2.7474119549153722E+00   -1.7139406292431465E+00
H    1.1978944025920528E-01    1.7550338390710334E+00   -6.4489814642914034E-01
H   -5.6300923669624792E-01    2.4592051178414058E+00   -2.1558238952760012E+00
     &END COORD
     &KIND C
       BASIS_SET DZVP-MOLOPT-SR-GTH-q4
       POTENTIAL GTH-PBE-q4
       &POTENTIAL
 2 2
  0.3384712400000000E+00 2 -0.8803673979999999E+01  0.1339210850000000E+01
 2
  0.3025757500000000E+00 1  0.9622486650000001E+01
  0.2915069400000000E+00 0
         # Potential name:  GTH-PBE-Q4  for symbol:  C
         # Potential read from the potential filename: GTH_POTENTIALS
       &END POTENTIAL
     &END KIND
     &KIND O
       BASIS_SET DZVP-MOLOPT-SR-GTH-q6
       POTENTIAL GTH-PBE-q6
       &POTENTIAL
 2 4
  0.2445543000000000E+00 2 -0.1666721480000000E+02  0.2487311320000000E+01
 2
  0.2209559200000000E+00 1  0.1833745811000000E+02
  0.2113324700000000E+00 0
         # Potential name:  GTH-PBE-Q6  for symbol:  O
         # Potential read from the potential filename: GTH_POTENTIALS
       &END POTENTIAL
     &END KIND
     &KIND H
       BASIS_SET DZVP-MOLOPT-SR-GTH-q1
       POTENTIAL GTH-PBE-q1
       &POTENTIAL
 1
  0.2000000000000000E+00 2 -0.4178900440000000E+01  0.7244633100000000E+00
 0
         # Potential name:  GTH-PBE-Q1  for symbol:  H
         # Potential read from the potential filename: GTH_POTENTIALS
       &END POTENTIAL
     &END KIND
     &KIND N
       BASIS_SET DZVP-MOLOPT-SR-GTH
       POTENTIAL GTH-PBE-q5
       &POTENTIAL
 2 3
  0.2837905100000000E+00 2 -0.1241522559000000E+02  0.1868095920000000E+01
 2
  0.2554050000000000E+00 1  0.1363026257000000E+02
  0.2454945300000000E+00 0
         # Potential name:  GTH-PBE-Q5  for symbol:  N
         # Potential read from the potential filename: GTH_POTENTIALS
       &END POTENTIAL
     &END KIND
     &KIND Ga
       BASIS_SET DZVP-MOLOPT-SR-GTH
       POTENTIAL GTH-PBE-q13
       &POTENTIAL
 2 1 10
  0.4900000000000000E+00 0
 3
  0.4167772300000000E+00 3  0.1047568975000000E+02 -0.4921768140000000E+01  0.8707055900000000E+00
  0.7770178090000000E+01 -0.2248152160000000E+01
  0.1784415450000000E+01
  0.5696265200000000E+00 2  0.1777985340000000E+01  0.1958597600000000E+00
 -0.2317443900000000E+00
  0.2381265000000000E+00 1 -0.1624868022000000E+02
         # Potential name:  GTH-PBE-Q13  for symbol:  GA
         # Potential read from the potential filename: GTH_POTENTIALS
       &END POTENTIAL
     &END KIND
     &TOPOLOGY
       NUMBER_OF_ATOMS  206
       MULTIPLE_UNIT_CELL  1 1 1
     &END TOPOLOGY
   &END SUBSYS
 &END FORCE_EVAL
