 # Version information for this restart file 
 # current date 2019-06-24 10:24:16.565
 # current working dir /scratch/rzk/rzk/GaN-carbene/443-adatoms-both-2x2/02-Methanol/01-O-GaTop
 # Program compiled at                              Sun Apr  7 00:48:11 EDT 2019
 # Program compiled on                          beluga2.int.ets1.calculquebec.ca
 # Program compiled for                        Beluga-Linux-x86-64-intel-openmpi
 # Source code revision number                                         svn:18619
 &GLOBAL
   PRINT_LEVEL  MEDIUM
   PROJECT_NAME TEST
   RUN_TYPE  GEO_OPT
 &END GLOBAL
 &MOTION
   &GEO_OPT
     MAX_ITER  500
     STEP_START_VAL  11
   &END GEO_OPT
 &END MOTION
 &FORCE_EVAL
   METHOD  QS
   STRESS_TENSOR  ANALYTICAL
   &DFT
     BASIS_SET_FILE_NAME BASIS_MOLOPT
     POTENTIAL_FILE_NAME GTH_POTENTIALS
     UKS  T
     SURFACE_DIPOLE_CORRECTION  T
     SURF_DIP_DIR  Z
     &SCF
       MAX_SCF  80
       EPS_SCF     5.0000000000000004E-06
       &OT  T
         PRECONDITIONER  FULL_ALL
       &END OT
       &OUTER_SCF  T
         OPTIMIZER  NONE
         EPS_SCF     5.0000000000000004E-06
         MAX_SCF  4
       &END OUTER_SCF
       &PRINT
         &RESTART  OFF
           BACKUP_COPIES  1
           &EACH
             JUST_ENERGY  0
             QS_SCF  0
             MD  20
           &END EACH
         &END RESTART
       &END PRINT
     &END SCF
     &QS
       EPS_DEFAULT     1.0000000000000000E-14
       METHOD  GPW
     &END QS
     &MGRID
       NGRIDS  5
       CUTOFF     1.2000000000000000E+03
     &END MGRID
     &XC
       DENSITY_CUTOFF     1.0000000000000000E-10
       GRADIENT_CUTOFF     1.0000000000000000E-10
       TAU_CUTOFF     1.0000000000000000E-10
       &XC_FUNCTIONAL  NO_SHORTCUT
         &PBE  T
         &END PBE
       &END XC_FUNCTIONAL
       &VDW_POTENTIAL
         POTENTIAL_TYPE  PAIR_POTENTIAL
         &PAIR_POTENTIAL
           R_CUTOFF     1.0000000000000004E+01
           TYPE  DFTD3
           PARAMETER_FILE_NAME dftd3.dat
           REFERENCE_FUNCTIONAL PBE
           EPS_CN     9.9999999999999995E-07
           CALCULATE_C9_TERM  T
           REFERENCE_C9_TERM  T
           LONG_RANGE_CORRECTION  F
           VERBOSE_OUTPUT  F
         &END PAIR_POTENTIAL
       &END VDW_POTENTIAL
     &END XC
   &END DFT
   &SUBSYS
     &CELL
       A     1.2864472766435110E+01    0.0000000000000000E+00    0.0000000000000000E+00
       B    -6.4322363581020028E+00    1.1140960178524473E+01    0.0000000000000000E+00
       C     0.0000000000000000E+00    0.0000000000000000E+00    3.2000000000000000E+01
       MULTIPLE_UNIT_CELL  1 1 1
       &CELL_REF
         A     1.2982353780853531E+01    0.0000000000000000E+00    0.0000000000000000E+00
         B    -6.4911768904267628E+00    1.1243048175136114E+01    0.0000000000000000E+00
         C     0.0000000000000000E+00    0.0000000000000000E+00    3.2000000000000000E+01
         MULTIPLE_UNIT_CELL  1 1 1
       &END CELL_REF
     &END CELL
     &COORD
N    1.6795667203314178E-02    2.0409302832745557E+00    2.4512030267899831E+00
Ga    1.7620579698189816E-02    6.3140862569460415E-02    2.8133970043581411E+00
N    1.8454175389440653E-02    5.4103832546625714E-02    4.9600850124524980E+00
Ga    1.9036165909749849E-02    1.8798897675064918E+00    5.7562736994120174E+00
N    1.9302387710304798E-02    1.8937896465266153E+00    7.7465673927375978E+00
Ga    1.9153245581519356E-02    4.8377290570081735E-02    8.3982038060121340E+00
N    1.9378822720774198E-02    4.7155615784022893E-02    1.0366913242626055E+01
Ga    1.9318585115589561E-02    1.8872682970358126E+00    1.1022974222862723E+01
N    1.9211935889514236E-02    1.8678610043815986E+00    1.3010919244942013E+01
Ga    1.9345423405806628E-02    4.8734980266828334E-02    1.3824254824146044E+01
N    2.1067704602460307E-02    4.8286188318806801E-02    1.6016461766718020E+01
Ga    1.9629128601676225E-02    2.0903432752305835E+00    1.6435118352878511E+01
Ga    6.1373425065045194E-03    3.7703272137843138E+00    1.4782978651875320E+00
N   -1.4747730746394319E+00    4.6321628300208246E+00    2.4783980994109358E+00
Ga   -1.6869030480696485E+00    2.7816712553036345E+00    3.2508954390330964E+00
N   -1.5918633394798367E+00    2.8327908875343253E+00    5.2079736769113483E+00
Ga   -1.6130002284560543E+00    4.7055922559619709E+00    5.7564347268675258E+00
N   -1.5998552256089644E+00    4.6971241730332496E+00    7.7475269279918031E+00
Ga   -1.5793870289560599E+00    2.8398208204260653E+00    8.3910738120039845E+00
N   -1.5775258364420461E+00    2.8399008312275953E+00    1.0378916001558137E+01
Ga   -1.6040879528850529E+00    4.6991420894523053E+00    1.1023045196342713E+01
N   -1.6210493286985777E+00    4.7087640704358149E+00    1.3010612813372973E+01
Ga   -1.5776904875284861E+00    2.8401306614484025E+00    1.3572439625088643E+01
N   -1.6025292062365142E+00    2.8250066085604661E+00    1.5529517300180080E+01
Ga   -1.4240589745143437E+00    4.5948051971849395E+00    1.6434227893117221E+01
N    2.5515064335621979E-02    3.7584123344430300E+00    1.7580038032803113E+01
N   -3.1962709248679375E+00    7.5992761094610559E+00    2.4726739649598097E+00
Ga   -3.1864295475737272E+00    5.6156694389873358E+00    2.8161671367502232E+00
N   -3.1957213081922977E+00    5.6195266111731952E+00    4.9657546805712052E+00
Ga   -3.1973040412487097E+00    7.4486837253156333E+00    5.7506279831444527E+00
N   -3.1970805514941323E+00    7.4652492745937842E+00    7.7423703497917185E+00
Ga   -3.1978991973003783E+00    5.6200132961546254E+00    8.3986710336361590E+00
N   -3.1976108485444081E+00    5.6191296123267467E+00    1.0367050239212452E+01
Ga   -3.1974367391679666E+00    7.4578876776795946E+00    1.1024805501936283E+01
N   -3.1973298540448778E+00    7.4382532152100280E+00    1.3013040753064400E+01
Ga   -3.1965847546971591E+00    5.6178003588343310E+00    1.3826524519115194E+01
N   -3.1961452039577178E+00    5.6176082391872617E+00    1.6014206388394697E+01
Ga   -3.1964935458909141E+00    7.6665988548799726E+00    1.6434076431944870E+01
Ga   -3.1955247715835724E+00    9.3359172604974088E+00    1.4390654640665210E+00
N   -4.7010280234317898E+00    1.0205444373546543E+01    2.4709232408449422E+00
Ga   -4.9055244539790133E+00    8.3497771550059827E+00    3.2343291264083329E+00
N   -4.8066362827960001E+00    8.4054752579763772E+00    5.1957641892859128E+00
Ga   -4.8300381865752513E+00    1.0277702685847085E+01    5.7486528958492693E+00
N   -4.8153816052616794E+00    1.0267511927119063E+01    7.7408524604016415E+00
Ga   -4.7953747195937426E+00    8.4106127281570817E+00    8.3888766054226025E+00
N   -4.7934407288943195E+00    8.4103162141114218E+00    1.0376758602659045E+01
Ga   -4.8197839043583048E+00    1.0268750269408079E+01    1.1024030928554227E+01
N   -4.8372843193205757E+00    1.0278877468638781E+01    1.3012240759167508E+01
Ga   -4.7956336318127448E+00    8.4096118593271409E+00    1.3572967212580776E+01
N   -4.8262102487313889E+00    8.3943893273683212E+00    1.5528497921914367E+01
Ga   -4.6335100382366585E+00    1.0162082641773516E+01    1.6436082467218895E+01
N   -3.1913412757256019E+00    9.3291116823452320E+00    1.7561364366045513E+01
N    3.2292414854760771E+00    1.9112783429153182E+00    2.5508154145300326E+00
Ga    3.2336020378469064E+00    1.6891066038772526E-01    3.2369156120743550E+00
N    3.2352013012402994E+00    5.2472218720136923E-02    5.1977145884569644E+00
Ga    3.2337246460465154E+00    1.9074651838517021E+00    5.8309124690300473E+00
N    3.2358998971138448E+00    1.9052805035704348E+00    7.7987557371055711E+00
Ga    3.2348210081914823E+00    3.6865370427163646E-02    8.3908932931346580E+00
N    3.2353573771494264E+00    3.4291161234680505E-02    1.0378308302456244E+01
Ga    3.2355723711993143E+00    1.9048403241284564E+00    1.0977324185806687E+01
N    3.2346095928088561E+00    1.9049502215136138E+00    1.2941867554902345E+01
Ga    3.2348960901571449E+00    3.6789646966778888E-02    1.3572856389258520E+01
N    3.2336871323940608E+00    7.1310803289666463E-02    1.5528293160019240E+01
Ga    3.2329748907586011E+00    1.9069041422678725E+00    1.5814492218233886E+01
N    1.5067793846259214E+00    4.6296896173832156E+00    2.4625320059662497E+00
Ga    1.7198858655667075E+00    2.7818521103395799E+00    3.2441103295234743E+00
N    1.6285266596471601E+00    2.8335614025071219E+00    5.2028336454826407E+00
Ga    1.6502697982342427E+00    4.7048512277539229E+00    5.7561864903646267E+00
N    1.6377896369441736E+00    4.6966343270280584E+00    7.7470038523256566E+00
Ga    1.6177285335764857E+00    2.8395626995596461E+00    8.3915128259899898E+00
N    1.6159946404253844E+00    2.8400039639863262E+00    1.0378855837665945E+01
Ga    1.6426276415612411E+00    4.6990454843458833E+00    1.1023155864985267E+01
N    1.6593146271968187E+00    4.7086597221451205E+00    1.3011080892443784E+01
Ga    1.6165396841865018E+00    2.8394304845539033E+00    1.3572628172956563E+01
N    1.6406654467293968E+00    2.8252260075580882E+00    1.5530275537654592E+01
Ga    1.4673584032737410E+00    4.5971921961335518E+00    1.6434893953859397E+01
N    1.7750804649087678E-02    7.4724431093341472E+00    2.5505223978796270E+00
Ga    1.7561568408588933E-02    5.7346192015593536E+00    3.2574495489841517E+00
N    1.9300558794682277E-02    5.6259878338783631E+00    5.2130430737517921E+00
Ga    1.8389294828381308E-02    7.4786699803718069E+00    5.8358440614446101E+00
N    1.8831463495813973E-02    7.4782831389930795E+00    7.8024412857590590E+00
Ga    1.9005455166137077E-02    5.6082803407992978E+00    8.3909441347991827E+00
N    1.9366300354593739E-02    5.6059903339637245E+00    1.0379032719714143E+01
Ga    1.9897989551289248E-02    7.4756349510693711E+00    1.0978274400083077E+01
N    2.0386797017501998E-02    7.4751372316835765E+00    1.2944648023640953E+01
Ga    1.8828546472578065E-02    5.6053348246287991E+00    1.3572838841671283E+01
N    1.9288022739784520E-02    5.6348260050101366E+00    1.5529966025432481E+01
Ga    2.1603685152932182E-02    7.4736550953654790E+00    1.5810879000859314E+01
N   -1.6945992507897019E+00    1.0203903016543322E+01    2.4748909207773404E+00
Ga   -1.4888568974707987E+00    8.3485419012275699E+00    3.2383087873102525E+00
N   -1.5870996904119219E+00    8.4050663321305539E+00    5.1986284478873301E+00
Ga   -1.5657128616355425E+00    1.0276760275586543E+01    5.7524568576430841E+00
N   -1.5797384756437816E+00    1.0266970710003205E+01    7.7440715762851404E+00
Ga   -1.5999093416274532E+00    8.4110084447651179E+00    8.3925554805891558E+00
N   -1.6004506991578116E+00    8.4104377038904516E+00    1.0380293488967055E+01
Ga   -1.5736391258631062E+00    1.0269575681318033E+01    1.1025364615677953E+01
N   -1.5566506436612313E+00    1.0279363860445352E+01    1.3013267337159080E+01
Ga   -1.5994438779207367E+00    8.4099197485884929E+00    1.3572738007326320E+01
N   -1.5669730912687103E+00    8.3923419637182750E+00    1.5529031762311909E+01
Ga   -1.7540232610615691E+00    1.0165458333730948E+01    1.6434158147782142E+01
N    6.4502761917322102E+00    2.0305239743897818E+00    2.4746513345413184E+00
Ga    6.4502323640741954E+00    5.2105013540579295E-02    2.8168903499782969E+00
N    6.4505477295027376E+00    5.0685917636836074E-02    4.9678701533407974E+00
Ga    6.4503203545219172E+00    1.8791829537287446E+00    5.7531428211503943E+00
N    6.4511286778986445E+00    1.8949348714367342E+00    7.7445941008495867E+00
Ga    6.4508454084636258E+00    4.9032507301426220E-02    8.3981112792447092E+00
N    6.4515084688582878E+00    4.7850998731212811E-02    1.0367257794435048E+01
Ga    6.4513046928738884E+00    1.8870738030785650E+00    1.1024950121391754E+01
N    6.4511786165971206E+00    1.8675504807201719E+00    1.3012377262843073E+01
Ga    6.4515273360766754E+00    4.8476526833614003E-02    1.3827752508180692E+01
N    6.4514737769305794E+00    4.8628011190347653E-02    1.6015115548606378E+01
Ga    6.4515572870173639E+00    2.0982613335826490E+00    1.6435099452686714E+01
Ga    6.4517050685348201E+00    3.7660451776023622E+00    1.4437073950722237E+00
N    4.9460847841221014E+00    4.6326981416929502E+00    2.4727928653053461E+00
Ga    4.7402001159151057E+00    2.7784292506300838E+00    3.2375129037130308E+00
N    4.8409612272457601E+00    2.8338810959572771E+00    5.1980569499397626E+00
Ga    4.8169908153627876E+00    4.7059152108487057E+00    5.7491720698174298E+00
N    4.8328860926624779E+00    4.6968787875898670E+00    7.7413462253345413E+00
Ga    4.8533003395359335E+00    2.8403304806148864E+00    8.3909721505911588E+00
N    4.8553727409146710E+00    2.8402520721232976E+00    1.0378300388117077E+01
Ga    4.8289512827098555E+00    4.6989932255467899E+00    1.1023707968572529E+01
N    4.8113826812569629E+00    4.7088080967286361E+00    1.3011434979864356E+01
Ga    4.8528434062082439E+00    2.8391317179508406E+00    1.3572404881478704E+01
N    4.8225965257091792E+00    2.8228333192510466E+00    1.5526870462968750E+01
Ga    5.0162233159431402E+00    4.5897791245206188E+00    1.6436821527280582E+01
N    6.4567537313311636E+00    3.7587117593304464E+00    1.7564103865190997E+01
N    3.2323934322498808E+00    7.5997022595125365E+00    2.4717708945195880E+00
Ga    3.2223962744573349E+00    5.6156658336671699E+00    2.8102775579137140E+00
N    3.2312507129505850E+00    5.6186474079023050E+00    4.9610240054630852E+00
Ga    3.2338822466559329E+00    7.4480225487074412E+00    5.7487595505094804E+00
N    3.2350475291310872E+00    7.4645801388565136E+00    7.7408381612145618E+00
Ga    3.2355856331540602E+00    5.6196576921353723E+00    8.3982279551635237E+00
N    3.2361752692074215E+00    5.6190457601666903E+00    1.0366928335129664E+01
Ga    3.2360428810904360E+00    7.4579774496388467E+00    1.1023952645261707E+01
N    3.2356081359790121E+00    7.4386988625455865E+00    1.3012656278939822E+01
Ga    3.2352811818517115E+00    5.6178016908134172E+00    1.3824393805176799E+01
N    3.2365829116655247E+00    5.6166367515293576E+00    1.6015542378554787E+01
Ga    3.2355968696132504E+00    7.6583915486319141E+00    1.6432166325441269E+01
Ga    3.2316487375153096E+00    9.3373006627865340E+00    1.4418384370400743E+00
N    1.7308584795969018E+00    1.0203963158049781E+01    2.4755132319317497E+00
Ga    1.5244019456543385E+00    8.3479754659877621E+00    3.2380976312573528E+00
N    1.6236914670234499E+00    8.4051133128015376E+00    5.1982461004749148E+00
Ga    1.6022450677762328E+00    1.0276633573928191E+01    5.7525757640369362E+00
N    1.6173376667478014E+00    1.0267101279028823E+01    7.7440013004806660E+00
Ga    1.6379229079612763E+00    8.4107562918635228E+00    8.3914260497266895E+00
N    1.6397088037067771E+00    8.4106075553736357E+00    1.0379042611443204E+01
Ga    1.6122225357285402E+00    1.0269387652210916E+01    1.1024412364856945E+01
N    1.5950459974103246E+00    1.0279084409797164E+01    1.3012392539071104E+01
Ga    1.6383758058577689E+00    8.4106477558498174E+00    1.3572863069970646E+01
N    1.6132427220521079E+00    8.3967630958783328E+00    1.5531417525763501E+01
Ga    1.7898765149431031E+00    1.0167180375115613E+01    1.6431661134417364E+01
N    3.2411165441975736E+00    9.3288322553031549E+00    1.7573831275926281E+01
N    9.6705332693931165E+00    1.9114928123079964E+00    2.5542404310286408E+00
Ga    9.6669850861354298E+00    1.6908290314746210E-01    3.2388926133618745E+00
N    9.6661288201078666E+00    5.2556528177881756E-02    5.1991105972991569E+00
Ga    9.6668339402732784E+00    1.9072224892809686E+00    5.8332513007975395E+00
N    9.6661719545012961E+00    1.9053107880914089E+00    7.8004805648565307E+00
Ga    9.6675429596510334E+00    3.6729172554819035E-02    8.3907817091757995E+00
N    9.6679427487794793E+00    3.4196689076858446E-02    1.0378503237931117E+01
Ga    9.6680235243090316E+00    1.9045414954256485E+00    1.0977965313430140E+01
N    9.6684974631978644E+00    1.9037645700307375E+00    1.2944132397617972E+01
Ga    9.6671128455534578E+00    3.4933650288766056E-02    1.3572665138562742E+01
N    9.6670181927292802E+00    6.4163690939838147E-02    1.5531175177430494E+01
Ga    9.6699913287354544E+00    1.9044242127943967E+00    1.5809915644222324E+01
N    7.9547256111802378E+00    4.6328681321554193E+00    2.4747462452411515E+00
Ga    8.1594371648613446E+00    2.7786738766917631E+00    3.2397122791811825E+00
N    8.0601366328554427E+00    2.8341398681100016E+00    5.1998619143184328E+00
Ga    8.0836788461141964E+00    4.7062732165835426E+00    5.7512734453600931E+00
N    8.0689591023866107E+00    4.6967521965510377E+00    7.7428987828204541E+00
Ga    8.0486966300906211E+00    2.8402185239331446E+00    8.3920058294836224E+00
N    8.0480963692910663E+00    2.8400141604051932E+00    1.0379737828855992E+01
Ga    8.0742872521151092E+00    4.6993313101550802E+00    1.1024307957060968E+01
N    8.0912430523044439E+00    4.7089487826366661E+00    1.3012121459507657E+01
Ga    8.0488032190458991E+00    2.8392659555503674E+00    1.3572113991042515E+01
N    8.0805260898716718E+00    2.8202468697607084E+00    1.5527454675067768E+01
Ga    7.8922321262597812E+00    4.5929540433076061E+00    1.6434992454558255E+01
N    6.4506831099884510E+00    7.4787971425964725E+00    2.5495583276510718E+00
Ga    6.4502877916342047E+00    5.7382950792377478E+00    3.2369150380441276E+00
N    6.4504985254697917E+00    5.6225761916572417E+00    5.1972824321963369E+00
Ga    6.4507582104097505E+00    7.4781943341384691E+00    5.8264778195288116E+00
N    6.4513647791048969E+00    7.4764849551934631E+00    7.7949491686795218E+00
Ga    6.4508821092171793E+00    5.6081388745109306E+00    8.3887892423114128E+00
N    6.4515711895822117E+00    5.6057051704229357E+00    1.0376622251937981E+01
Ga    6.4515079888511142E+00    7.4755658236952884E+00    1.0976494531603398E+01
N    6.4505874788849322E+00    7.4759395604259433E+00    1.2941499749905239E+01
Ga    6.4509564320233865E+00    5.6073228081147795E+00    1.3572691924807318E+01
N    6.4492125746874258E+00    5.6418041526488816E+00    1.5527247772371092E+01
Ga    6.4492551727077503E+00    7.4761692834963691E+00    1.5815947998670229E+01
N    4.7367040212186238E+00    1.0205154113495714E+01    2.4718629068006801E+00
Ga    4.9424145487386486E+00    8.3492957024459340E+00    3.2344459979846598E+00
N    4.8435107615925590E+00    8.4052899723446348E+00    5.1956070680819355E+00
Ga    4.8672538214365968E+00    1.0277529735381830E+01    5.7489291939946696E+00
N    4.8534911744977576E+00    1.0267426673489581E+01    7.7409057347824577E+00
Ga    4.8334752137282280E+00    8.4101688911376318E+00    8.3881411420901166E+00
N    4.8319704051027159E+00    8.4104071179299957E+00    1.0376262400852204E+01
Ga    4.8587116812805240E+00    1.0268712163492935E+01    1.1023766579653048E+01
N    4.8752624089039349E+00    1.0278559368439351E+01    1.3012538884606297E+01
Ga    4.8329303239949377E+00    8.4097352293807237E+00    1.3573092391891961E+01
N    4.8570114833081472E+00    8.3964369747464520E+00    1.5532228484962745E+01
Ga    4.6848969988092524E+00    1.0169309893894260E+01    1.6432269264307038E+01
O   -2.3611520296763810E-01    3.7955059829115103E+00   -5.9595959576787549E-01
H   -1.7632695944294385E-01    4.6646569694320554E+00   -1.0269219177721878E+00
C    2.7773273962464876E-02    2.6932613235835179E+00   -1.5222135827096450E+00
H    9.1992946511519735E-01    2.9032310785447017E+00   -2.1238747640425668E+00
H    1.9723109175783127E-01    1.8088243425958810E+00   -8.9750621632366434E-01
H   -8.5414073821541692E-01    2.5431152362832239E+00   -2.1574061366131829E+00
     &END COORD
     &KIND C
       BASIS_SET DZVP-MOLOPT-SR-GTH-q4
       POTENTIAL GTH-PBE-q4
       &POTENTIAL
 2 2
  0.3384712400000000E+00 2 -0.8803673979999999E+01  0.1339210850000000E+01
 2
  0.3025757500000000E+00 1  0.9622486650000001E+01
  0.2915069400000000E+00 0
         # Potential name:  GTH-PBE-Q4  for symbol:  C
         # Potential read from the potential filename: GTH_POTENTIALS
       &END POTENTIAL
     &END KIND
     &KIND O
       BASIS_SET DZVP-MOLOPT-SR-GTH-q6
       POTENTIAL GTH-PBE-q6
       &POTENTIAL
 2 4
  0.2445543000000000E+00 2 -0.1666721480000000E+02  0.2487311320000000E+01
 2
  0.2209559200000000E+00 1  0.1833745811000000E+02
  0.2113324700000000E+00 0
         # Potential name:  GTH-PBE-Q6  for symbol:  O
         # Potential read from the potential filename: GTH_POTENTIALS
       &END POTENTIAL
     &END KIND
     &KIND H
       BASIS_SET DZVP-MOLOPT-SR-GTH-q1
       POTENTIAL GTH-PBE-q1
       &POTENTIAL
 1
  0.2000000000000000E+00 2 -0.4178900440000000E+01  0.7244633100000000E+00
 0
         # Potential name:  GTH-PBE-Q1  for symbol:  H
         # Potential read from the potential filename: GTH_POTENTIALS
       &END POTENTIAL
     &END KIND
     &KIND N
       BASIS_SET DZVP-MOLOPT-SR-GTH
       POTENTIAL GTH-PBE-q5
       &POTENTIAL
 2 3
  0.2837905100000000E+00 2 -0.1241522559000000E+02  0.1868095920000000E+01
 2
  0.2554050000000000E+00 1  0.1363026257000000E+02
  0.2454945300000000E+00 0
         # Potential name:  GTH-PBE-Q5  for symbol:  N
         # Potential read from the potential filename: GTH_POTENTIALS
       &END POTENTIAL
     &END KIND
     &KIND Ga
       BASIS_SET DZVP-MOLOPT-SR-GTH
       POTENTIAL GTH-PBE-q13
       &POTENTIAL
 2 1 10
  0.4900000000000000E+00 0
 3
  0.4167772300000000E+00 3  0.1047568975000000E+02 -0.4921768140000000E+01  0.8707055900000000E+00
  0.7770178090000000E+01 -0.2248152160000000E+01
  0.1784415450000000E+01
  0.5696265200000000E+00 2  0.1777985340000000E+01  0.1958597600000000E+00
 -0.2317443900000000E+00
  0.2381265000000000E+00 1 -0.1624868022000000E+02
         # Potential name:  GTH-PBE-Q13  for symbol:  GA
         # Potential read from the potential filename: GTH_POTENTIALS
       &END POTENTIAL
     &END KIND
     &TOPOLOGY
       NUMBER_OF_ATOMS  206
       MULTIPLE_UNIT_CELL  1 1 1
     &END TOPOLOGY
   &END SUBSYS
 &END FORCE_EVAL
