 # Version information for this restart file 
 # current date 2019-06-24 14:37:49.579
 # current working dir /scratch/rzk/rzk/GaN-carbene/443-adatoms-both-2x2/02-Methanol/01-O-GaTop
 # Program compiled at                              Sun Apr  7 00:48:11 EDT 2019
 # Program compiled on                          beluga2.int.ets1.calculquebec.ca
 # Program compiled for                        Beluga-Linux-x86-64-intel-openmpi
 # Source code revision number                                         svn:18619
 &GLOBAL
   PRINT_LEVEL  MEDIUM
   PROJECT_NAME TEST
   RUN_TYPE  GEO_OPT
 &END GLOBAL
 &MOTION
   &GEO_OPT
     MAX_ITER  500
     STEP_START_VAL  46
   &END GEO_OPT
 &END MOTION
 &FORCE_EVAL
   METHOD  QS
   STRESS_TENSOR  ANALYTICAL
   &DFT
     BASIS_SET_FILE_NAME BASIS_MOLOPT
     POTENTIAL_FILE_NAME GTH_POTENTIALS
     UKS  T
     SURFACE_DIPOLE_CORRECTION  T
     SURF_DIP_DIR  Z
     &SCF
       MAX_SCF  80
       EPS_SCF     5.0000000000000004E-06
       &OT  T
         PRECONDITIONER  FULL_ALL
       &END OT
       &OUTER_SCF  T
         OPTIMIZER  NONE
         EPS_SCF     5.0000000000000004E-06
         MAX_SCF  4
       &END OUTER_SCF
       &PRINT
         &RESTART  OFF
           BACKUP_COPIES  1
           &EACH
             JUST_ENERGY  0
             QS_SCF  0
             MD  20
           &END EACH
         &END RESTART
       &END PRINT
     &END SCF
     &QS
       EPS_DEFAULT     1.0000000000000000E-14
       METHOD  GPW
     &END QS
     &MGRID
       NGRIDS  5
       CUTOFF     1.2000000000000000E+03
     &END MGRID
     &XC
       DENSITY_CUTOFF     1.0000000000000000E-10
       GRADIENT_CUTOFF     1.0000000000000000E-10
       TAU_CUTOFF     1.0000000000000000E-10
       &XC_FUNCTIONAL  NO_SHORTCUT
         &PBE  T
         &END PBE
       &END XC_FUNCTIONAL
       &VDW_POTENTIAL
         POTENTIAL_TYPE  PAIR_POTENTIAL
         &PAIR_POTENTIAL
           R_CUTOFF     1.0000000000000005E+01
           TYPE  DFTD3
           PARAMETER_FILE_NAME dftd3.dat
           REFERENCE_FUNCTIONAL PBE
           EPS_CN     9.9999999999999995E-07
           CALCULATE_C9_TERM  T
           REFERENCE_C9_TERM  T
           LONG_RANGE_CORRECTION  F
           VERBOSE_OUTPUT  F
         &END PAIR_POTENTIAL
       &END VDW_POTENTIAL
     &END XC
   &END DFT
   &SUBSYS
     &CELL
       A     1.2864472766435110E+01    0.0000000000000000E+00    0.0000000000000000E+00
       B    -6.4322363581020028E+00    1.1140960178524475E+01    0.0000000000000000E+00
       C     0.0000000000000000E+00    0.0000000000000000E+00    3.2000000000000000E+01
       MULTIPLE_UNIT_CELL  1 1 1
       &CELL_REF
         A     1.2982353780853531E+01    0.0000000000000000E+00    0.0000000000000000E+00
         B    -6.4911768904267628E+00    1.1243048175136114E+01    0.0000000000000000E+00
         C     0.0000000000000000E+00    0.0000000000000000E+00    3.2000000000000000E+01
         MULTIPLE_UNIT_CELL  1 1 1
       &END CELL_REF
     &END CELL
     &COORD
N   -2.4422185081692038E-02    2.0482932128052731E+00    2.5088319360926628E+00
Ga   -2.1273375348000827E-02    7.3896282533710778E-02    2.8679054206597558E+00
N   -1.6873328196839191E-02    6.1209005144901511E-02    5.0070832589621226E+00
Ga   -1.5968929035860883E-02    1.8899350371155361E+00    5.7981366160950136E+00
N   -1.3053738010080852E-02    1.9019572903163111E+00    7.7885603025840133E+00
Ga   -1.2329489376254972E-02    5.6742472730718425E-02    8.4406508855230609E+00
N   -1.1134814269899280E-02    5.5863429581939870E-02    1.0409772085353268E+01
Ga   -1.0220596104856604E-02    1.8959769159948636E+00    1.1067293384791528E+01
N   -9.2575931312494121E-03    1.8756139244808205E+00    1.3056199861517070E+01
Ga   -8.2719653883554234E-03    5.6557078755505037E-02    1.3868629245130178E+01
N   -8.5504512683296074E-03    5.6353523590085400E-02    1.6060259575043183E+01
Ga   -8.7625483152621655E-03    2.1127995780687074E+00    1.6488965283198276E+01
Ga   -3.5237442736869164E-02    3.7731184865697283E+00    1.5147392305007428E+00
N   -1.5126889712742759E+00    4.6375385704543826E+00    2.5117532198822903E+00
Ga   -1.7244596904472098E+00    2.7879408279522480E+00    3.2981251534898979E+00
N   -1.6289712712180853E+00    2.8431217146286136E+00    5.2539407569527175E+00
Ga   -1.6473513049021873E+00    4.7159895027682195E+00    5.8000529102237985E+00
N   -1.6314378450508435E+00    4.7058842110178603E+00    7.7906213805257387E+00
Ga   -1.6113072364573624E+00    2.8479393255226384E+00    8.4345610706045626E+00
N   -1.6071227766311365E+00    2.8480529350633459E+00    1.0422359687681974E+01
Ga   -1.6330528112320346E+00    4.7065510449949111E+00    1.1068394272425380E+01
N   -1.6495815379828960E+00    4.7159265012447138E+00    1.3057173860871448E+01
Ga   -1.6066691823156041E+00    2.8465356149192185E+00    1.3619877173970330E+01
N   -1.6360376103230436E+00    2.8273599909750988E+00    1.5575060400598069E+01
Ga   -1.4464511493077405E+00    4.5978542760530807E+00    1.6487043841707393E+01
N   -8.9131195444872701E-03    3.7727685866602041E+00    1.7624709592158784E+01
N   -3.2336532384158825E+00    7.6097252124448458E+00    2.5134696860172205E+00
Ga   -3.2253133244994787E+00    5.6275026571984945E+00    2.8528414652586989E+00
N   -3.2304347013431514E+00    5.6288405631143004E+00    5.0053667223118810E+00
Ga   -3.2325754971674701E+00    7.4585050865603888E+00    5.7913719546819253E+00
N   -3.2298062691898353E+00    7.4727055683222359E+00    7.7837791451949911E+00
Ga   -3.2293512964258069E+00    5.6275969639322652E+00    8.4421766807949563E+00
N   -3.2273667825671173E+00    5.6255711188956816E+00    1.0410504344473896E+01
Ga   -3.2270366607762719E+00    7.4655501732607661E+00    1.1064053231114013E+01
N   -3.2252680559485398E+00    7.4454750541517258E+00    1.3050655761601943E+01
Ga   -3.2238335769667312E+00    5.6273289887923097E+00    1.3869382105637872E+01
N   -3.2250504276158729E+00    5.6261399827231777E+00    1.6058921477470911E+01
Ga   -3.2264869860327607E+00    7.6705498754825570E+00    1.6475637523832205E+01
Ga   -3.2303676676513517E+00    9.3408252306087096E+00    1.4656320830526848E+00
N   -4.7407155710020694E+00    1.0217122145347805E+01    2.5035411953568110E+00
Ga   -4.9416524854448616E+00    8.3629082048237642E+00    3.2707799866982268E+00
N   -4.8416933686207777E+00    8.4152391584339910E+00    5.2339027365134720E+00
Ga   -4.8629320454061356E+00    1.0286305892892408E+01    5.7900342384008203E+00
N   -4.8469247984678452E+00    1.0275543161882114E+01    7.7822408869447823E+00
Ga   -4.8277783352342940E+00    8.4182840872975238E+00    8.4303182315419516E+00
N   -4.8242520836619809E+00    8.4182546785709764E+00    1.0418613035602952E+01
Ga   -4.8500461126603058E+00    1.0277199830746680E+01    1.1064834977566566E+01
N   -4.8654352446838107E+00    1.0286664891034324E+01    1.3052367405775447E+01
Ga   -4.8218896394720181E+00    8.4168551202295063E+00    1.3613103471577320E+01
N   -4.8466648571460622E+00    8.4015308528714776E+00    1.5569531902626297E+01
Ga   -4.6759588111874244E+00    1.0175463986199407E+01    1.6476550673745791E+01
N   -3.2275221629345889E+00    9.3468547535135986E+00    1.7618775419878897E+01
N    3.1861537803268529E+00    1.9235634625119744E+00    2.5782614718664898E+00
Ga    3.1939097687225648E+00    1.7813336126570667E-01    3.2678112008456144E+00
N    3.1995619418130472E+00    6.3541859440116796E-02    5.2314539440193730E+00
Ga    3.1986909345762342E+00    1.9158183057613631E+00    5.8718730101757259E+00
N    3.2031865382873304E+00    1.9136738596423384E+00    7.8394725619920189E+00
Ga    3.2026159763949136E+00    4.6059806557915667E-02    8.4325996574497708E+00
N    3.2047616417171017E+00    4.3396061203615922E-02    1.0419694723270922E+01
Ga    3.2043563012563263E+00    1.9136660267672114E+00    1.1020613669135329E+01
N    3.2060545734450039E+00    1.9123160890509752E+00    1.2985619374076137E+01
Ga    3.2070262605289193E+00    4.3459705588206263E-02    1.3613778409482247E+01
N    3.2068777993166391E+00    6.9998519030635892E-02    1.5571979386620503E+01
Ga    3.2059306876264104E+00    1.9081524978888527E+00    1.5858418412541146E+01
N    1.4695439437956617E+00    4.6396821855711270E+00    2.4999084753302032E+00
Ga    1.6797141995683458E+00    2.7927078332073711E+00    3.2885336038937161E+00
N    1.5950321214994412E+00    2.8435626526981301E+00    5.2460297005910252E+00
Ga    1.6152479898064789E+00    4.7156774891569437E+00    5.7976924616390280E+00
N    1.6055121281222624E+00    4.7058360968132025E+00    7.7885588506448640E+00
Ga    1.5853323004172279E+00    2.8483579055349653E+00    8.4331599270868356E+00
N    1.5856515042735770E+00    2.8484605124876161E+00    1.0421097856435047E+01
Ga    1.6121374930698131E+00    4.7062422889297721E+00    1.1069272483709883E+01
N    1.6314255725486080E+00    4.7161038876371393E+00    1.3058264406278933E+01
Ga    1.5881355559031292E+00    2.8466438823826272E+00    1.3620231309789437E+01
N    1.6178231470180817E+00    2.8279499300470272E+00    1.5575809433383792E+01
Ga    1.4286814548156181E+00    4.5978202474972569E+00    1.6489521003105235E+01
N   -1.9841727599920832E-02    7.4865101316741667E+00    2.5987392463507177E+00
Ga   -1.7693941896997103E-02    5.7450243189245169E+00    3.2935017634951085E+00
N   -1.6370655048741755E-02    5.6353127264079435E+00    5.2509326935075036E+00
Ga   -1.6406691286700310E-02    7.4880557347282721E+00    5.8755328241622875E+00
N   -1.3083724603772251E-02    7.4861815592944456E+00    7.8430405964272811E+00
Ga   -1.2501623503188886E-02    5.6169689134914238E+00    8.4345734074490508E+00
N   -1.0347757457901726E-02    5.6135616215467667E+00    1.0422919631648002E+01
Ga   -1.0226698805713899E-02    7.4828195721643533E+00    1.1022173744922309E+01
N   -8.9450215112894735E-03    7.4827465405013776E+00    1.2989048209061679E+01
Ga   -9.1453483797077750E-03    5.6121502351110966E+00    1.3620703040076510E+01
N   -8.5187614463064724E-03    5.6486750976824132E+00    1.5577716574130022E+01
Ga   -1.0132234678443186E-02    7.4845739425295079E+00    1.5852037310950610E+01
N   -1.7325487209764858E+00    1.0215718934637657E+01    2.5120678045460494E+00
Ga   -1.5284593097102057E+00    8.3623639022795704E+00    3.2801597973946106E+00
N   -1.6229804357787103E+00    8.4161394750172356E+00    5.2411413849466708E+00
Ga   -1.6014310438732322E+00    1.0287887267016814E+01    5.7932004475348009E+00
N   -1.6123877973595855E+00    1.0276183131433806E+01    7.7852391701275616E+00
Ga   -1.6316159265523347E+00    8.4190078836162492E+00    8.4326750111235746E+00
N   -1.6300515323106715E+00    8.4181245915670306E+00    1.0420414975631246E+01
Ga   -1.6044746841168152E+00    1.0277039281404605E+01    1.1064579139359305E+01
N   -1.5851873215862591E+00    1.0286789194950380E+01    1.3052036647879273E+01
Ga   -1.6290217711112605E+00    8.4172945004998923E+00    1.3613430736339819E+01
N   -1.6048536737447243E+00    8.4019485229208737E+00    1.5570566292419295E+01
Ga   -1.7788873985803300E+00    1.0174436531162735E+01    1.6475990877944909E+01
N    6.4110453784654178E+00    2.0408317431817768E+00    2.5160504529817720E+00
Ga    6.4125080512057391E+00    6.1324760262933604E-02    2.8586440534011657E+00
N    6.4163397597920779E+00    5.9781404288706048E-02    5.0107635995104172E+00
Ga    6.4139034474555281E+00    1.8879532862072688E+00    5.7950353418958453E+00
N    6.4178960407130647E+00    1.9029502951941193E+00    7.7864910183111711E+00
Ga    6.4190043895298841E+00    5.7024302339706019E-02    8.4411808922969591E+00
N    6.4216404333965009E+00    5.5701264037052611E-02    1.0409531756579158E+01
Ga    6.4214885400485890E+00    1.8955954807924882E+00    1.1066085843768075E+01
N    6.4229942443286445E+00    1.8752729784897482E+00    1.3054557830128903E+01
Ga    6.4229065927157656E+00    5.5255689195544050E-02    1.3865579536037107E+01
N    6.4215152985626212E+00    5.6166972568978853E-02    1.6057422246465528E+01
Ga    6.4218642427405417E+00    2.1053576542217205E+00    1.6474647843867029E+01
Ga    6.4178612897337999E+00    3.7760840531117115E+00    1.4909210746969193E+00
N    4.9076501014833580E+00    4.6430196719349386E+00    2.5111355999068987E+00
Ga    4.6984835394560802E+00    2.7877292977703343E+00    3.2746354889630269E+00
N    4.8038476473132388E+00    2.8423003562299076E+00    5.2349241835064060E+00
Ga    4.7824167904672059E+00    4.7141700657995420E+00    5.7910791449941703E+00
N    4.8007471602042733E+00    4.7043479247626419E+00    7.7832917324264690E+00
Ga    4.8203765177706526E+00    2.8480022871342534E+00    8.4337142353701768E+00
N    4.8243798850494830E+00    2.8481857773393826E+00    1.0421390365508667E+01
Ga    4.7985845057174874E+00    4.7068176134675985E+00    1.1068029089153029E+01
N    4.7823043403484595E+00    4.7160066566424916E+00    1.3056801151171468E+01
Ga    4.8244751947371300E+00    2.8457197442241049E+00    1.3615272718671884E+01
N    4.7950588845099231E+00    2.8277608971797514E+00    1.5571745281795103E+01
Ga    4.9749358660888072E+00    4.6047498671149301E+00    1.6475315019468418E+01
N    6.4231374529298249E+00    3.7763400238532019E+00    1.7594946214355716E+01
N    3.1942077478655864E+00    7.6104792720899104E+00    2.5123010902572842E+00
Ga    3.1829255239252765E+00    5.6268101670183048E+00    2.8545288484715599E+00
N    3.1975382816986899E+00    5.6291589466672169E+00    5.0036583371503154E+00
Ga    3.2007597071896456E+00    7.4579468637336168E+00    5.7928816833556001E+00
N    3.2035883265668370E+00    7.4722150144296897E+00    7.7849378475104221E+00
Ga    3.2037604556862371E+00    5.6269911111020168E+00    8.4420272420413127E+00
N    3.2054987957460179E+00    5.6258057612080243E+00    1.0411207647090045E+01
Ga    3.2064186284370177E+00    7.4652545683483078E+00    1.1067331002762014E+01
N    3.2068886877117113E+00    7.4456029962549586E+00    1.3055163174237011E+01
Ga    3.2061704784175906E+00    5.6269059912561143E+00    1.3872075608822120E+01
N    3.2060488485628129E+00    5.6251773343725535E+00    1.6063032350716284E+01
Ga    3.2068303441672836E+00    7.6706529765244813E+00    1.6480155247097414E+01
Ga    3.1917164449150288E+00    9.3486698613806372E+00    1.4815325710922811E+00
N    1.6930182703254799E+00    1.0214517810690218E+01    2.5177490843937202E+00
Ga    1.4880022261461416E+00    8.3605049150857553E+00    3.2828800660170514E+00
N    1.5905001777430472E+00    8.4149699155003876E+00    5.2425531401122978E+00
Ga    1.5682663226403177E+00    1.0285858439399183E+01    5.7979148671753924E+00
N    1.5856886397597534E+00    1.0275039653888500E+01    7.7889032464169023E+00
Ga    1.6059101291230240E+00    8.4178762479722398E+00    8.4350752941150091E+00
N    1.6094418722843862E+00    8.4178115004093339E+00    1.0422578367755445E+01
Ga    1.5833031095033414E+00    1.0276931002080122E+01    1.1066834079344972E+01
N    1.5669815694622289E+00    1.0286721699876230E+01    1.3055233992428112E+01
Ga    1.6103940826681635E+00    8.4172896038897225E+00    1.3617338671209946E+01
N    1.5857700949846087E+00    8.4016904963197501E+00    1.5574933380290055E+01
Ga    1.7583666183520075E+00    1.0174637378896838E+01    1.6478458220919055E+01
N    3.2090926575965026E+00    9.3478126954206981E+00    1.7623849577267066E+01
N    9.6317546871793169E+00    1.9203458297596432E+00    2.6009586542986276E+00
Ga    9.6289085770705221E+00    1.7693204220895578E-01    3.2827325899822415E+00
N    9.6320820274823760E+00    6.1103823515367119E-02    5.2429582400654136E+00
Ga    9.6314620644826459E+00    1.9154942550144123E+00    5.8779753787562994E+00
N    9.6338470456451866E+00    1.9131649758425093E+00    7.8446565236764858E+00
Ga    9.6362906885853850E+00    4.5096766355851074E-02    8.4358814027954008E+00
N    9.6383806276344917E+00    4.2634407949506396E-02    1.0422613538458521E+01
Ga    9.6385599806919853E+00    1.9131906981376794E+00    1.1022162281048908E+01
N    9.6394962021969803E+00    1.9119834454577165E+00    1.2987341919262624E+01
Ga    9.6390429475697772E+00    4.3634672384646057E-02    1.3618053258157440E+01
N    9.6382209655141473E+00    7.0430431331026264E-02    1.5577238776821753E+01
Ga    9.6396106838368514E+00    1.9092836740983081E+00    1.5860772578663592E+01
N    7.9162145981899013E+00    4.6423686260480341E+00    2.5185444546603009E+00
Ga    8.1214393108452079E+00    2.7875226414739167E+00    3.2855041793184347E+00
N    8.0243092422473730E+00    2.8430953754706141E+00    5.2442699008543636E+00
Ga    8.0493387342888969E+00    4.7158523197164799E+00    5.7938407354524077E+00
N    8.0370035581675552E+00    4.7051999252637691E+00    7.7853329190165015E+00
Ga    8.0164719096044941E+00    2.8482274078538787E+00    8.4347188053641915E+00
N    8.0180371680587896E+00    2.8479078190126725E+00    1.0422169409121446E+01
Ga    8.0440935987696225E+00    4.7066039584001329E+00    1.1067570081721179E+01
N    8.0637632278951816E+00    4.7159757164138014E+00    1.3056542609487316E+01
Ga    8.0212401031938274E+00    2.8459818560817505E+00    1.3615764695482925E+01
N    8.0498369186510708E+00    2.8273908558228236E+00    1.5572914241910979E+01
Ga    7.8695125804560417E+00    4.6052352165728507E+00    1.6474185572587302E+01
N    6.4129723449301821E+00    7.4894426568080910E+00    2.5901494158962453E+00
Ga    6.4120591298001415E+00    5.7496995384545793E+00    3.2797595663207337E+00
N    6.4154014213789852E+00    5.6313907135882406E+00    5.2388013094188510E+00
Ga    6.4164738118284150E+00    7.4877043204203275E+00    5.8665444353930116E+00
N    6.4190076129221723E+00    7.4843602827813376E+00    7.8358947103789243E+00
Ga    6.4188974345316892E+00    5.6161385092554621E+00    8.4311424248695612E+00
N    6.4210223591162352E+00    5.6133862805503609E+00    1.0420276221851477E+01
Ga    6.4212740436198068E+00    7.4832315811309016E+00    1.1020301357651244E+01
N    6.4223910162271380E+00    7.4831627837653700E+00    1.2986320666911366E+01
Ga    6.4231263933577925E+00    5.6135023846443035E+00    1.3616188676753016E+01
N    6.4219782508563972E+00    5.6502220502619913E+00    1.5574052139033220E+01
Ga    6.4232380593593916E+00    7.4859006912012811E+00    1.5853648192893669E+01
N    4.6986204867690944E+00    1.0215675809731016E+01    2.5123843527480338E+00
Ga    4.9041292135523191E+00    8.3605684140042893E+00    3.2739516800366451E+00
N    4.8092062892512724E+00    8.4144102026304761E+00    5.2361192963874448E+00
Ga    4.8324008440443462E+00    1.0284908907208797E+01    5.7942590115620387E+00
N    4.8214983655118528E+00    1.0274982526326989E+01    7.7854147395688091E+00
Ga    4.8019840199656940E+00    8.4178185873776741E+00    8.4322314970249028E+00
N    4.8021845719296516E+00    8.4181371363810733E+00    1.0420334982198534E+01
Ga    4.8288920638977038E+00    1.0276605168470311E+01    1.1067727426789919E+01
N    4.8469820646769879E+00    1.0286858255129857E+01    1.3056681789463585E+01
Ga    4.8034403640829781E+00    8.4171465352129928E+00    1.3617868237089972E+01
N    4.8274294708619694E+00    8.4012718278362843E+00    1.5575771434031846E+01
Ga    4.6572468266378175E+00    1.0175950959172638E+01    1.6479597362639709E+01
O    1.9202805521648833E-01    3.4435724926719065E+00   -5.4649060972285479E-01
H    7.4649902720633965E-01    4.1493414805853206E+00   -9.2887415068592760E-01
C    7.7430107144115357E-01    2.1295895453177160E+00   -8.8959677377405322E-01
H    1.8387483078726039E+00    2.1044008401882190E+00   -6.3266066210528071E-01
H    2.3730606558776746E-01    1.3971240518699377E+00   -2.7717012554621689E-01
H    6.0029266376652268E-01    1.9489186961420368E+00   -1.9557718962124293E+00
     &END COORD
     &KIND C
       BASIS_SET DZVP-MOLOPT-SR-GTH-q4
       POTENTIAL GTH-PBE-q4
       &POTENTIAL
2 2
0.3384712400000000E+00 2 -0.8803673979999999E+01  0.1339210850000000E+01
2
0.3025757500000000E+00 1  0.9622486650000001E+01
0.2915069400000000E+00 0
       &END POTENTIAL
     &END KIND
     &KIND O
       BASIS_SET DZVP-MOLOPT-SR-GTH-q6
       POTENTIAL GTH-PBE-q6
       &POTENTIAL
2 4
0.2445543000000000E+00 2 -0.1666721480000000E+02  0.2487311320000000E+01
2
0.2209559200000000E+00 1  0.1833745811000000E+02
0.2113324700000000E+00 0
       &END POTENTIAL
     &END KIND
     &KIND H
       BASIS_SET DZVP-MOLOPT-SR-GTH-q1
       POTENTIAL GTH-PBE-q1
       &POTENTIAL
1
0.2000000000000000E+00 2 -0.4178900440000000E+01  0.7244633100000000E+00
0
       &END POTENTIAL
     &END KIND
     &KIND N
       BASIS_SET DZVP-MOLOPT-SR-GTH
       POTENTIAL GTH-PBE-q5
       &POTENTIAL
2 3
0.2837905100000000E+00 2 -0.1241522559000000E+02  0.1868095920000000E+01
2
0.2554050000000000E+00 1  0.1363026257000000E+02
0.2454945300000000E+00 0
       &END POTENTIAL
     &END KIND
     &KIND Ga
       BASIS_SET DZVP-MOLOPT-SR-GTH
       POTENTIAL GTH-PBE-q13
       &POTENTIAL
2 1 10
0.4900000000000000E+00 0
3
0.4167772300000000E+00 3  0.1047568975000000E+02 -0.4921768140000000E+01  0.8707055900000000E+00
0.7770178090000000E+01 -0.2248152160000000E+01
0.1784415450000000E+01
0.5696265200000000E+00 2  0.1777985340000000E+01  0.1958597600000000E+00
-0.2317443900000000E+00
0.2381265000000000E+00 1 -0.1624868022000000E+02
       &END POTENTIAL
     &END KIND
     &TOPOLOGY
       NUMBER_OF_ATOMS  206
       MULTIPLE_UNIT_CELL  1 1 1
     &END TOPOLOGY
   &END SUBSYS
 &END FORCE_EVAL
