 # Version information for this restart file 
 # current date 2019-06-24 10:16:54.810
 # current working dir /scratch/rzk/rzk/GaN-carbene/443-adatoms-both-2x2/02-Methanol/01-O-GaTop
 # Program compiled at                              Sun Apr  7 00:48:11 EDT 2019
 # Program compiled on                          beluga2.int.ets1.calculquebec.ca
 # Program compiled for                        Beluga-Linux-x86-64-intel-openmpi
 # Source code revision number                                         svn:18619
 &GLOBAL
   PRINT_LEVEL  MEDIUM
   PROJECT_NAME TEST
   RUN_TYPE  GEO_OPT
 &END GLOBAL
 &MOTION
   &GEO_OPT
     MAX_ITER  500
     STEP_START_VAL  8
   &END GEO_OPT
 &END MOTION
 &FORCE_EVAL
   METHOD  QS
   STRESS_TENSOR  ANALYTICAL
   &DFT
     BASIS_SET_FILE_NAME BASIS_MOLOPT
     POTENTIAL_FILE_NAME GTH_POTENTIALS
     UKS  T
     SURFACE_DIPOLE_CORRECTION  T
     SURF_DIP_DIR  Z
     &SCF
       MAX_SCF  80
       EPS_SCF     5.0000000000000004E-06
       &OT  T
         PRECONDITIONER  FULL_ALL
       &END OT
       &OUTER_SCF  T
         OPTIMIZER  NONE
         EPS_SCF     5.0000000000000004E-06
         MAX_SCF  4
       &END OUTER_SCF
       &PRINT
         &RESTART  OFF
           BACKUP_COPIES  1
           &EACH
             JUST_ENERGY  0
             QS_SCF  0
             MD  20
           &END EACH
         &END RESTART
       &END PRINT
     &END SCF
     &QS
       EPS_DEFAULT     1.0000000000000000E-14
       METHOD  GPW
     &END QS
     &MGRID
       NGRIDS  5
       CUTOFF     1.2000000000000000E+03
     &END MGRID
     &XC
       DENSITY_CUTOFF     1.0000000000000000E-10
       GRADIENT_CUTOFF     1.0000000000000000E-10
       TAU_CUTOFF     1.0000000000000000E-10
       &XC_FUNCTIONAL  NO_SHORTCUT
         &PBE  T
         &END PBE
       &END XC_FUNCTIONAL
       &VDW_POTENTIAL
         POTENTIAL_TYPE  PAIR_POTENTIAL
         &PAIR_POTENTIAL
           R_CUTOFF     1.0000000000000004E+01
           TYPE  DFTD3
           PARAMETER_FILE_NAME dftd3.dat
           REFERENCE_FUNCTIONAL PBE
           EPS_CN     9.9999999999999995E-07
           CALCULATE_C9_TERM  T
           REFERENCE_C9_TERM  T
           LONG_RANGE_CORRECTION  F
           VERBOSE_OUTPUT  F
         &END PAIR_POTENTIAL
       &END VDW_POTENTIAL
     &END XC
   &END DFT
   &SUBSYS
     &CELL
       A     1.2864472766435110E+01    0.0000000000000000E+00    0.0000000000000000E+00
       B    -6.4322363581020028E+00    1.1140960178524473E+01    0.0000000000000000E+00
       C     0.0000000000000000E+00    0.0000000000000000E+00    3.2000000000000000E+01
       MULTIPLE_UNIT_CELL  1 1 1
       &CELL_REF
         A     1.2982353780853531E+01    0.0000000000000000E+00    0.0000000000000000E+00
         B    -6.4911768904267628E+00    1.1243048175136114E+01    0.0000000000000000E+00
         C     0.0000000000000000E+00    0.0000000000000000E+00    3.2000000000000000E+01
         MULTIPLE_UNIT_CELL  1 1 1
       &END CELL_REF
     &END CELL
     &COORD
N    1.7104827916545964E-02    2.0436802209631733E+00    2.4450073073665473E+00
Ga    1.7932602760077850E-02    6.3122937115247649E-02    2.8074790920397663E+00
N    1.8777053245466680E-02    5.2592008609467653E-02    4.9583800787231498E+00
Ga    1.9623699399157035E-02    1.8806510967931327E+00    5.7487957401032990E+00
N    1.9694466335705544E-02    1.8940309894122112E+00    7.7423409550290154E+00
Ga    1.9773260410829441E-02    4.9821615795166203E-02    8.3950543300727531E+00
N    1.9817472170477832E-02    4.8785285552122672E-02    1.0365854284541165E+01
Ga    1.9734673158285313E-02    1.8874248226545649E+00    1.1023266933875792E+01
N    1.9532504268268840E-02    1.8682719476189826E+00    1.3015120340593041E+01
Ga    1.9004590682390229E-02    4.6094914186607917E-02    1.3824885245519710E+01
N    2.0556982318060777E-02    4.5704621183905995E-02    1.6018647441760844E+01
Ga    1.8862838098550452E-02    2.0846209042066270E+00    1.6431205077084787E+01
Ga    5.3589544925000841E-03    3.7737062297522748E+00    1.4660429718349899E+00
N   -1.4756907117689027E+00    4.6327455159050199E+00    2.4733414501890967E+00
Ga   -1.6886748006733030E+00    2.7835231690319526E+00    3.2463799462889251E+00
N   -1.5930387937928401E+00    2.8328394995344719E+00    5.2045969751832279E+00
Ga   -1.6124247953759996E+00    4.7055153980162965E+00    5.7521599039646745E+00
N   -1.5988508885869590E+00    4.6964768994365320E+00    7.7450742178262990E+00
Ga   -1.5777553228400523E+00    2.8396639497593235E+00    8.3886813086193790E+00
N   -1.5762270767666564E+00    2.8397597134012083E+00    1.0378841065304586E+01
Ga   -1.6030535612883785E+00    4.6981139211949445E+00    1.1024128494334912E+01
N   -1.6203124565493339E+00    4.7080692539149869E+00    1.3015212675731879E+01
Ga   -1.5784271889863692E+00    2.8394457478044819E+00    1.3573697850062814E+01
N   -1.6037445684328064E+00    2.8260078289559147E+00    1.5535059420508180E+01
Ga   -1.4291578205164757E+00    4.5980285765558779E+00    1.6431257032331491E+01
N    2.4447639405669127E-02    3.7582718466602234E+00    1.7572878564938396E+01
N   -3.1959905738374430E+00    7.6018266736353466E+00    2.4738637412350197E+00
Ga   -3.1874868196320199E+00    5.6172127766492688E+00    2.8145197161963069E+00
N   -3.1973691198164640E+00    5.6204557700126800E+00    4.9647195834234461E+00
Ga   -3.1975027488170884E+00    7.4484018715409652E+00    5.7518392637536753E+00
N   -3.1966713322841849E+00    7.4639966011426946E+00    7.7442097438600461E+00
Ga   -3.1962153059080798E+00    5.6183880361687697E+00    8.3984644504026633E+00
N   -3.1960217518306990E+00    5.6178136961235019E+00    1.0368801727283403E+01
Ga   -3.1969950823401962E+00    7.4573993394093820E+00    1.1024175644018884E+01
N   -3.1972904185822189E+00    7.4383348156846152E+00    1.3013472519102580E+01
Ga   -3.1976149030418410E+00    5.6191398530636585E+00    1.3827049821291869E+01
N   -3.1972298867120577E+00    5.6185706833665048E+00    1.6018380053610482E+01
Ga   -3.1969197236738598E+00    7.6665640508123003E+00    1.6436772064759793E+01
Ga   -3.1936955592134106E+00    9.3360520714729098E+00    1.4385121755777446E+00
N   -4.7006294537700635E+00    1.0205697487869530E+01    2.4667074023016884E+00
Ga   -4.9049152792411981E+00    8.3500888369155586E+00    3.2354024190071780E+00
N   -4.8070735112169531E+00    8.4053276833497925E+00    5.1964048892219488E+00
Ga   -4.8309847490065794E+00    1.0277397641782528E+01    5.7476775129537856E+00
N   -4.8151433606022342E+00    1.0267123825965539E+01    7.7406356310623572E+00
Ga   -4.7945553993259402E+00    8.4103860726072259E+00    8.3887277864548384E+00
N   -4.7928705647763943E+00    8.4105793828644710E+00    1.0377518883619599E+01
Ga   -4.8196619403616818E+00    1.0269504162773540E+01    1.1021880730472006E+01
N   -4.8369480732560550E+00    1.0279165522013244E+01    1.3011765550619387E+01
Ga   -4.7949795374805708E+00    8.4100709860607115E+00    1.3572718729230466E+01
N   -4.8237591271277607E+00    8.3940693908665160E+00    1.5530093034742565E+01
Ga   -4.6341288089286579E+00    1.0161118729801052E+01    1.6438426119097631E+01
N   -3.1906226851129258E+00    9.3290081760851553E+00    1.7566390784364284E+01
N    3.2310521792961628E+00    1.9102942798361944E+00    2.5447736897727609E+00
Ga    3.2336270070280264E+00    1.6885870305434431E-01    3.2363235857728574E+00
N    3.2346036540456642E+00    5.3202404673531128E-02    5.1960364389636817E+00
Ga    3.2325011339807603E+00    1.9076175105785060E+00    5.8300334652189409E+00
N    3.2352245362910157E+00    1.9050482091855492E+00    7.7981821119021744E+00
Ga    3.2347913967209694E+00    3.7370662710604720E-02    8.3888428192827309E+00
N    3.2354852340029230E+00    3.5227180090969756E-02    1.0378083573580845E+01
Ga    3.2350340880606816E+00    1.9048590640964929E+00    1.0976663551689393E+01
N    3.2344891930731396E+00    1.9050829727991836E+00    1.2944475931144018E+01
Ga    3.2345827962609586E+00    3.5995558313915425E-02    1.3574122533511296E+01
N    3.2330887812819022E+00    6.9402581221278015E-02    1.5531352337370778E+01
Ga    3.2350800156036237E+00    1.9046020573931612E+00    1.5817053840133736E+01
N    1.5074715265785519E+00    4.6298867522430580E+00    2.4579141525487405E+00
Ga    1.7227228436187909E+00    2.7827048644207908E+00    3.2374832713029114E+00
N    1.6305421184066282E+00    2.8332030232577026E+00    5.1985416385292504E+00
Ga    1.6500391994854342E+00    4.7044032872059107E+00    5.7502880291414318E+00
N    1.6373692575175285E+00    4.6958881817105151E+00    7.7434758073661545E+00
Ga    1.6172698146065421E+00    2.8392708972098428E+00    8.3882123861803084E+00
N    1.6158647916956197E+00    2.8395936057342710E+00    1.0378441918282167E+01
Ga    1.6422802965738352E+00    4.6979273101054764E+00    1.1023342111138369E+01
N    1.6590318417026937E+00    4.7078125144301319E+00    1.3015234948642876E+01
Ga    1.6171455073273828E+00    2.8389237511765550E+00    1.3574476023236041E+01
N    1.6419327897887548E+00    2.8248788796558415E+00    1.5536876560231599E+01
Ga    1.4711438607055827E+00    4.6005114971148515E+00    1.6431134646575249E+01
N    1.8058754714008581E-02    7.4763597549834664E+00    2.5515764382314452E+00
Ga    1.6921004780395103E-02    5.7362514497056516E+00    3.2518246452622028E+00
N    1.9260877642571814E-02    5.6265389902058800E+00    5.2087806130385523E+00
Ga    1.9013512973414158E-02    7.4775657532206816E+00    5.8366134835406864E+00
N    1.9295587396765620E-02    7.4765288165956090E+00    7.8033019127514036E+00
Ga    1.9478758646725707E-02    5.6063019705198460E+00    8.3896182169069657E+00
N    1.9726364522307215E-02    5.6043826640999557E+00    1.0379544170023898E+01
Ga    1.9814938916241510E-02    7.4741934537379162E+00    1.0977571144939233E+01
N    1.9757729854714488E-02    7.4741130886822935E+00    1.2945769175628246E+01
Ga    1.8952585541411073E-02    5.6059211517463092E+00    1.3573809894037829E+01
N    1.8171856597319267E-02    5.6354550755938178E+00    1.5535241286909804E+01
Ga    2.1760755315409080E-02    7.4765732184437841E+00    1.5810568018217714E+01
N   -1.6952711073338385E+00    1.0203244217557428E+01    2.4753663956267591E+00
Ga   -1.4889366465089608E+00    8.3495016404895139E+00    3.2416777419406837E+00
N   -1.5869309899178452E+00    8.4046000929300568E+00    5.2017117491669813E+00
Ga   -1.5655158495994810E+00    1.0276477263699698E+01    5.7526578494391467E+00
N   -1.5795615736230695E+00    1.0266492768704147E+01    7.7444319245986808E+00
Ga   -1.5993747284435667E+00    8.4100221447923431E+00    8.3926084740096591E+00
N   -1.5999258585481944E+00    8.4100678391801207E+00    1.0380893226500941E+01
Ga   -1.5739295462813736E+00    1.0269580837515120E+01    1.1023783395345918E+01
N   -1.5572234711680926E+00    1.0279291395146034E+01    1.3013719059216958E+01
Ga   -1.5998000330701423E+00    8.4096479815909451E+00    1.3573678404602568E+01
N   -1.5696945088526570E+00    8.3912154718120124E+00    1.5531776929783444E+01
Ga   -1.7534219961594317E+00    1.0164740218487566E+01    1.6435661821516700E+01
N    6.4506928597459510E+00    2.0316357261856814E+00    2.4753787565429755E+00
Ga    6.4502260748961433E+00    5.2383487521611122E-02    2.8180316682102866E+00
N    6.4515039220827139E+00    4.9255273065328301E-02    4.9685705710903614E+00
Ga    6.4508423923673490E+00    1.8777623075359355E+00    5.7522404666017541E+00
N    6.4515359166095250E+00    1.8939174198346285E+00    7.7438994346353240E+00
Ga    6.4512860656830497E+00    4.8345474824284744E-02    8.3973209149406607E+00
N    6.4515299972679481E+00    4.7725538779340708E-02    1.0366923731403128E+01
Ga    6.4513051471635539E+00    1.8869975919979944E+00    1.1023423906462131E+01
N    6.4511635084578662E+00    1.8679492515922995E+00    1.3013457551298654E+01
Ga    6.4524530875218300E+00    4.7289803654575968E-02    1.3827487428686061E+01
N    6.4528965562362322E+00    4.7627502565305353E-02    1.6015514054478899E+01
Ga    6.4522056703976798E+00    2.0941205353434760E+00    1.6433108912768095E+01
Ga    6.4520541082043845E+00    3.7639908452469961E+00    1.4451633374247470E+00
N    4.9472497054442268E+00    4.6323319632186530E+00    2.4715686927734257E+00
Ga    4.7397295366246519E+00    2.7787736886497933E+00    3.2380434907974762E+00
N    4.8400733557617910E+00    2.8329808758830493E+00    5.1974531722290873E+00
Ga    4.8173566565514205E+00    4.7057422189012126E+00    5.7492411010926476E+00
N    4.8331306270904930E+00    4.6957880731817889E+00    7.7418976307763421E+00
Ga    4.8528406370585246E+00    2.8389199366297806E+00    8.3890983779486756E+00
N    4.8546515307735234E+00    2.8391349403583468E+00    1.0378190956849442E+01
Ga    4.8283948209411429E+00    4.6979726768342331E+00    1.1022080945227097E+01
N    4.8113134235256663E+00    4.7083424893959540E+00    1.3011913833091858E+01
Ga    4.8532779503995309E+00    2.8395388227699683E+00    1.3573271408270282E+01
N    4.8232782264525857E+00    2.8241251369762321E+00    1.5530500592418052E+01
Ga    5.0140923348617950E+00    4.5924082761860108E+00    1.6435427795489296E+01
N    6.4575925069985365E+00    3.7578341521904974E+00    1.7562701416963044E+01
N    3.2326731894469569E+00    7.6017716824009103E+00    2.4714003332616907E+00
Ga    3.2234161419426068E+00    5.6170894530125084E+00    2.8079697899688676E+00
N    3.2335359076298760E+00    5.6196222813137320E+00    4.9602457794883872E+00
Ga    3.2352376692817142E+00    7.4475384460143754E+00    5.7497546599862295E+00
N    3.2357355566487551E+00    7.4635329233257011E+00    7.7423560066667978E+00
Ga    3.2347195263846484E+00    5.6177588643381240E+00    8.3963917541350970E+00
N    3.2350278571764015E+00    5.6174196660752340E+00    1.0366763214731719E+01
Ga    3.2361165370975891E+00    7.4573175772277409E+00    1.1021567142733931E+01
N    3.2358805025280661E+00    7.4384738549021989E+00    1.3010459950049267E+01
Ga    3.2367311548844637E+00    5.6198012224621143E+00    1.3824457137141300E+01
N    3.2382615558269281E+00    5.6185964892925782E+00    1.6018453933888473E+01
Ga    3.2355618276958844E+00    7.6644226003619629E+00    1.6435267117021727E+01
Ga    3.2310597397443193E+00    9.3373905845099880E+00    1.4416850624824813E+00
N    1.7323455684131042E+00    1.0203270370546612E+01    2.4756456070324733E+00
Ga    1.5248096662826651E+00    8.3491208782203330E+00    3.2411160805326045E+00
N    1.6250031194128411E+00    8.4045033201116741E+00    5.2008409722969153E+00
Ga    1.6035759444194460E+00    1.0276083303233410E+01    5.7534843017373856E+00
N    1.6182830846380489E+00    1.0266469305302961E+01    7.7450255576904086E+00
Ga    1.6381738363885341E+00    8.4096028333847510E+00    8.3912270265244473E+00
N    1.6391463336329217E+00    8.4098691502555099E+00    1.0379034954114493E+01
Ga    1.6128105175955865E+00    1.0269228173800135E+01    1.1022380074201482E+01
N    1.5958334934438048E+00    1.0278970750270888E+01    1.3010931988563470E+01
Ga    1.6388061100988718E+00    8.4102343253103609E+00    1.3572291838154618E+01
N    1.6125249698633031E+00    8.3952151430209465E+00    1.5529630177542742E+01
Ga    1.7939430271073622E+00    1.0164682228664377E+01    1.6434174563470791E+01
N    3.2404382612380127E+00    9.3298814238602716E+00    1.7580381714242186E+01
N    9.6695463017247203E+00    1.9104568688841941E+00    2.5506604552802332E+00
Ga    9.6671089182165861E+00    1.6905266290560861E-01    3.2392336985988233E+00
N    9.6678333340589226E+00    5.2637342775456647E-02    5.1986851103934306E+00
Ga    9.6686369594715078E+00    1.9070639419232205E+00    5.8337364263033447E+00
N    9.6676630694848207E+00    1.9050264953286309E+00    7.8011414440933278E+00
Ga    9.6686046288693923E+00    3.6860075743838032E-02    8.3895437860895345E+00
N    9.6683250794409243E+00    3.5025365394698478E-02    1.0378009211129406E+01
Ga    9.6690568134282326E+00    1.9048946806322022E+00    1.0976905065869248E+01
N    9.6688108466221667E+00    1.9047909024580130E+00    1.2944997373656797E+01
Ga    9.6678214927537596E+00    3.5005435129541837E-02    1.3572467156532671E+01
N    9.6678850705763857E+00    6.5579982639491247E-02    1.5529691681808528E+01
Ga    9.6683553277773022E+00    1.9024323752282739E+00    1.5810898521388664E+01
N    7.9531944920322148E+00    4.6321268056899783E+00    2.4751519131139683E+00
Ga    8.1603959244483146E+00    2.7789284162161949E+00    3.2413896186787357E+00
N    8.0616266183988614E+00    2.8332469315212951E+00    5.2008592564818406E+00
Ga    8.0841243427808465E+00    4.7059667654097703E+00    5.7520207474241749E+00
N    8.0699337875946053E+00    4.6957895471220699E+00    7.7442250553764520E+00
Ga    8.0496035917959308E+00    2.8391128707171358E+00    8.3911788088085082E+00
N    8.0486417017230867E+00    2.8392362385040228E+00    1.0379990430174642E+01
Ga    8.0750359762658785E+00    4.6984641139484600E+00    1.1023892726441954E+01
N    8.0915069857509074E+00    4.7086798534160179E+00    1.3013301425191633E+01
Ga    8.0490953430360115E+00    2.8394865713292385E+00    1.3572879823962895E+01
N    8.0804713352714916E+00    2.8228588984152503E+00    1.5530892969683453E+01
Ga    7.8952436576101208E+00    4.5955260110659877E+00    1.6434095653774634E+01
N    6.4509419846905285E+00    7.4790389188226554E+00    2.5496286151200045E+00
Ga    6.4506834740549799E+00    5.7381601057628933E+00    3.2385428726359669E+00
N    6.4507667012833636E+00    5.6217056439635398E+00    5.1984660732678005E+00
Ga    6.4515339421166455E+00    7.4770859480800045E+00    5.8281862374033846E+00
N    6.4521136325128374E+00    7.4752008952590829E+00    7.7965102952768746E+00
Ga    6.4514206322579524E+00    5.6062951920963302E+00    8.3891908221305762E+00
N    6.4517308743945279E+00    5.6046332330564868E+00    1.0377916824179866E+01
Ga    6.4519680415096046E+00    7.4753273542630581E+00    1.0975498508229240E+01
N    6.4513536134531266E+00    7.4754422186935319E+00    1.2942331851919391E+01
Ga    6.4510899102485171E+00    5.6067471225305932E+00    1.3571921538831496E+01
N    6.4505713538805622E+00    5.6406899557128112E+00    1.5529296939580794E+01
Ga    6.4494805926254850E+00    7.4772342294749192E+00    1.5811833861822061E+01
N    4.7366066363662362E+00    1.0205239460415937E+01    2.4679115903586557E+00
Ga    4.9427311585680629E+00    8.3494003934638812E+00    3.2354986250517128E+00
N    4.8451004546280192E+00    8.4047769185404011E+00    5.1960738297126747E+00
Ga    4.8692005976618020E+00    1.0277124479576571E+01    5.7483713608507703E+00
N    4.8543216099222102E+00    1.0266970460935539E+01    7.7410896725503129E+00
Ga    4.8340453850025025E+00    8.4097607087059973E+00    8.3874613769796689E+00
N    4.8324280522733591E+00    8.4102504734437638E+00    1.0376078249924236E+01
Ga    4.8591688930763954E+00    1.0269151476473819E+01    1.1021128934910136E+01
N    4.8754912465213911E+00    1.0278776132156914E+01    1.3010173231110675E+01
Ga    4.8327031750383185E+00    8.4101129740239902E+00    1.3571955118891864E+01
N    4.8583008756890989E+00    8.3955286128453412E+00    1.5530452346729296E+01
Ga    4.6803939077541603E+00    1.0166634597956618E+01    1.6435556638745204E+01
O   -2.3633350694966732E-01    3.8051493167532704E+00   -6.1504511940632167E-01
H   -1.8263658961570678E-01    4.6699483201208531E+00   -1.0612154641564053E+00
C    2.0842639515434039E-02    2.6997857264800471E+00   -1.5349434505444426E+00
H    9.0462755515770443E-01    2.9139476109438860E+00   -2.1457149298531202E+00
H    2.0187039684734234E-01    1.8178718351652046E+00   -9.0999326735128350E-01
H   -8.6711845202626081E-01    2.5428481945542107E+00   -2.1578245331931623E+00
     &END COORD
     &KIND C
       BASIS_SET DZVP-MOLOPT-SR-GTH-q4
       POTENTIAL GTH-PBE-q4
       &POTENTIAL
 2 2
  0.3384712400000000E+00 2 -0.8803673979999999E+01  0.1339210850000000E+01
 2
  0.3025757500000000E+00 1  0.9622486650000001E+01
  0.2915069400000000E+00 0
         # Potential name:  GTH-PBE-Q4  for symbol:  C
         # Potential read from the potential filename: GTH_POTENTIALS
       &END POTENTIAL
     &END KIND
     &KIND O
       BASIS_SET DZVP-MOLOPT-SR-GTH-q6
       POTENTIAL GTH-PBE-q6
       &POTENTIAL
 2 4
  0.2445543000000000E+00 2 -0.1666721480000000E+02  0.2487311320000000E+01
 2
  0.2209559200000000E+00 1  0.1833745811000000E+02
  0.2113324700000000E+00 0
         # Potential name:  GTH-PBE-Q6  for symbol:  O
         # Potential read from the potential filename: GTH_POTENTIALS
       &END POTENTIAL
     &END KIND
     &KIND H
       BASIS_SET DZVP-MOLOPT-SR-GTH-q1
       POTENTIAL GTH-PBE-q1
       &POTENTIAL
 1
  0.2000000000000000E+00 2 -0.4178900440000000E+01  0.7244633100000000E+00
 0
         # Potential name:  GTH-PBE-Q1  for symbol:  H
         # Potential read from the potential filename: GTH_POTENTIALS
       &END POTENTIAL
     &END KIND
     &KIND N
       BASIS_SET DZVP-MOLOPT-SR-GTH
       POTENTIAL GTH-PBE-q5
       &POTENTIAL
 2 3
  0.2837905100000000E+00 2 -0.1241522559000000E+02  0.1868095920000000E+01
 2
  0.2554050000000000E+00 1  0.1363026257000000E+02
  0.2454945300000000E+00 0
         # Potential name:  GTH-PBE-Q5  for symbol:  N
         # Potential read from the potential filename: GTH_POTENTIALS
       &END POTENTIAL
     &END KIND
     &KIND Ga
       BASIS_SET DZVP-MOLOPT-SR-GTH
       POTENTIAL GTH-PBE-q13
       &POTENTIAL
 2 1 10
  0.4900000000000000E+00 0
 3
  0.4167772300000000E+00 3  0.1047568975000000E+02 -0.4921768140000000E+01  0.8707055900000000E+00
  0.7770178090000000E+01 -0.2248152160000000E+01
  0.1784415450000000E+01
  0.5696265200000000E+00 2  0.1777985340000000E+01  0.1958597600000000E+00
 -0.2317443900000000E+00
  0.2381265000000000E+00 1 -0.1624868022000000E+02
         # Potential name:  GTH-PBE-Q13  for symbol:  GA
         # Potential read from the potential filename: GTH_POTENTIALS
       &END POTENTIAL
     &END KIND
     &TOPOLOGY
       NUMBER_OF_ATOMS  206
       MULTIPLE_UNIT_CELL  1 1 1
     &END TOPOLOGY
   &END SUBSYS
 &END FORCE_EVAL
