 # Version information for this restart file 
 # current date 2019-06-24 11:06:31.848
 # current working dir /scratch/rzk/rzk/GaN-carbene/443-adatoms-both-2x2/02-Methanol/01-O-GaTop
 # Program compiled at                              Sun Apr  7 00:48:11 EDT 2019
 # Program compiled on                          beluga2.int.ets1.calculquebec.ca
 # Program compiled for                        Beluga-Linux-x86-64-intel-openmpi
 # Source code revision number                                         svn:18619
 &GLOBAL
   PRINT_LEVEL  MEDIUM
   PROJECT_NAME TEST
   RUN_TYPE  GEO_OPT
 &END GLOBAL
 &MOTION
   &GEO_OPT
     MAX_ITER  500
     STEP_START_VAL  26
   &END GEO_OPT
 &END MOTION
 &FORCE_EVAL
   METHOD  QS
   STRESS_TENSOR  ANALYTICAL
   &DFT
     BASIS_SET_FILE_NAME BASIS_MOLOPT
     POTENTIAL_FILE_NAME GTH_POTENTIALS
     UKS  T
     SURFACE_DIPOLE_CORRECTION  T
     SURF_DIP_DIR  Z
     &SCF
       MAX_SCF  80
       EPS_SCF     5.0000000000000004E-06
       &OT  T
         PRECONDITIONER  FULL_ALL
       &END OT
       &OUTER_SCF  T
         OPTIMIZER  NONE
         EPS_SCF     5.0000000000000004E-06
         MAX_SCF  4
       &END OUTER_SCF
       &PRINT
         &RESTART  OFF
           BACKUP_COPIES  1
           &EACH
             JUST_ENERGY  0
             QS_SCF  0
             MD  20
           &END EACH
         &END RESTART
       &END PRINT
     &END SCF
     &QS
       EPS_DEFAULT     1.0000000000000000E-14
       METHOD  GPW
     &END QS
     &MGRID
       NGRIDS  5
       CUTOFF     1.2000000000000000E+03
     &END MGRID
     &XC
       DENSITY_CUTOFF     1.0000000000000000E-10
       GRADIENT_CUTOFF     1.0000000000000000E-10
       TAU_CUTOFF     1.0000000000000000E-10
       &XC_FUNCTIONAL  NO_SHORTCUT
         &PBE  T
         &END PBE
       &END XC_FUNCTIONAL
       &VDW_POTENTIAL
         POTENTIAL_TYPE  PAIR_POTENTIAL
         &PAIR_POTENTIAL
           R_CUTOFF     1.0000000000000004E+01
           TYPE  DFTD3
           PARAMETER_FILE_NAME dftd3.dat
           REFERENCE_FUNCTIONAL PBE
           EPS_CN     9.9999999999999995E-07
           CALCULATE_C9_TERM  T
           REFERENCE_C9_TERM  T
           LONG_RANGE_CORRECTION  F
           VERBOSE_OUTPUT  F
         &END PAIR_POTENTIAL
       &END VDW_POTENTIAL
     &END XC
   &END DFT
   &SUBSYS
     &CELL
       A     1.2864472766435110E+01    0.0000000000000000E+00    0.0000000000000000E+00
       B    -6.4322363581020028E+00    1.1140960178524473E+01    0.0000000000000000E+00
       C     0.0000000000000000E+00    0.0000000000000000E+00    3.2000000000000000E+01
       MULTIPLE_UNIT_CELL  1 1 1
       &CELL_REF
         A     1.2982353780853531E+01    0.0000000000000000E+00    0.0000000000000000E+00
         B    -6.4911768904267628E+00    1.1243048175136114E+01    0.0000000000000000E+00
         C     0.0000000000000000E+00    0.0000000000000000E+00    3.2000000000000000E+01
         MULTIPLE_UNIT_CELL  1 1 1
       &END CELL_REF
     &END CELL
     &COORD
N   -2.0173247432425279E-03    2.0449968406673387E+00    2.4574759793725804E+00
Ga    1.8994214278661536E-03    6.1172333314204963E-02    2.8218057181279681E+00
N    5.8510235747004863E-03    4.8257391245863625E-02    4.9662409857728393E+00
Ga    7.7430719328979748E-03    1.8781392533879329E+00    5.7618959646831902E+00
N    8.0367065614276312E-03    1.8938808438280690E+00    7.7547333168862345E+00
Ga    7.3483821343455083E-03    4.9934897775191521E-02    8.4126109273952849E+00
N    8.3490248269034242E-03    5.3738066646881778E-02    1.0384385659619060E+01
Ga    8.7347195656862272E-03    1.8940438939987405E+00    1.1041867028439457E+01
N    9.8235047326147538E-03    1.8741037309788580E+00    1.3034959988976793E+01
Ga    1.0265021175344349E-02    5.6718656600177150E-02    1.3857991991796508E+01
N    1.3561398402730249E-02    5.8159391919175726E-02    1.6052766065598270E+01
Ga    9.9731217980955113E-03    2.1052611108872843E+00    1.6471587641059799E+01
Ga   -2.8899093816563654E-02    3.7940777194295259E+00    1.5174130684681868E+00
N   -1.4954656534616559E+00    4.6339196687213855E+00    2.5153561432253047E+00
Ga   -1.7061813989794652E+00    2.7738009281799925E+00    3.2699646093138131E+00
N   -1.6069915271251178E+00    2.8295312232542806E+00    5.2244581426555508E+00
Ga   -1.6266846511993278E+00    4.7032975059288846E+00    5.7677321799485100E+00
N   -1.6110209727274634E+00    4.6978208978644433E+00    7.7595657083656091E+00
Ga   -1.5898824053826046E+00    2.8404356325594429E+00    8.4045375761312116E+00
N   -1.5874708884096735E+00    2.8447882106931264E+00    1.0395502049120056E+01
Ga   -1.6143508935551842E+00    4.7030560597242612E+00    1.1043985483586214E+01
N   -1.6328913970390859E+00    4.7171969832773719E+00    1.3034646989888472E+01
Ga   -1.5865134204552567E+00    2.8487017329093547E+00    1.3598184251411482E+01
N   -1.6116507943674099E+00    2.8338685257256011E+00    1.5558504672025265E+01
Ga   -1.4302563929929559E+00    4.6017364187846521E+00    1.6471320702722377E+01
N    1.3354026972198627E-02    3.7690950722435508E+00    1.7618853164947339E+01
N   -3.2094133324728533E+00    7.5959919494377734E+00    2.4883941990339218E+00
Ga   -3.2045744601799786E+00    5.6110232101401598E+00    2.8346435887196195E+00
N   -3.2113448706939742E+00    5.6176522902855304E+00    4.9772421858611455E+00
Ga   -3.2108505834976406E+00    7.4463489605232844E+00    5.7634200696504516E+00
N   -3.2081507876851738E+00    7.4646138905607105E+00    7.7562228212310806E+00
Ga   -3.2087859093279638E+00    5.6195493972133681E+00    8.4157296900314496E+00
N   -3.2072330556265722E+00    5.6224798367144357E+00    1.0386743381807939E+01
Ga   -3.2084844899287068E+00    7.4618373919990422E+00    1.1047066013367663E+01
N   -3.2079435330624921E+00    7.4436679318022936E+00    1.3036653582985041E+01
Ga   -3.2066603676743490E+00    5.6246286841480853E+00    1.3860992925408732E+01
N   -3.2051144372826172E+00    5.6245223767245029E+00    1.6049868941404263E+01
Ga   -3.2047529676605895E+00    7.6709569247745559E+00    1.6465306110726484E+01
Ga   -3.2079997828993432E+00    9.3249855482036885E+00    1.4699620044983661E+00
N   -4.7158196814736657E+00    1.0199350095698408E+01    2.4765155589074439E+00
Ga   -4.9219187936533793E+00    8.3422632641456467E+00    3.2494117357603991E+00
N   -4.8212063321009557E+00    8.4015600405158430E+00    5.2080950617213908E+00
Ga   -4.8422213362887776E+00    1.0274105716025234E+01    5.7579835572458844E+00
N   -4.8271545801555549E+00    1.0267686967001993E+01    7.7515291783194762E+00
Ga   -4.8063174974617571E+00    8.4109213672562610E+00    8.4063070938093230E+00
N   -4.8041932868576582E+00    8.4148502941374552E+00    1.0395073111015481E+01
Ga   -4.8304276356321703E+00    1.0274234043397806E+01    1.1042980052838002E+01
N   -4.8477058563537607E+00    1.0287234639552207E+01    1.3034792855039788E+01
Ga   -4.8047082580769089E+00    8.4177935356368359E+00    1.3599135701296330E+01
N   -4.8345385951064852E+00    8.4019943068475431E+00    1.5559964374767169E+01
Ga   -4.6418514360073830E+00    1.0169011699908614E+01    1.6469459955533384E+01
N   -3.1983393259483699E+00    9.3322185716220005E+00    1.7592383050618015E+01
N    3.2144125712142904E+00    1.9074254237165347E+00    2.5561299234340149E+00
Ga    3.2182209675631972E+00    1.6635094911919607E-01    3.2457161149701781E+00
N    3.2225202390503815E+00    4.9456327291921828E-02    5.2045668824336779E+00
Ga    3.2201883807973957E+00    1.9045775539598739E+00    5.8415783744224141E+00
N    3.2238244539186653E+00    1.9046795798365987E+00    7.8088770860725587E+00
Ga    3.2227808308945174E+00    3.7878446701752881E-02    8.4063624485164574E+00
N    3.2239644373160794E+00    3.9772225357724920E-02    1.0394996832415089E+01
Ga    3.2235661924413366E+00    1.9095676445532048E+00    1.0997406375241320E+01
N    3.2247385894356753E+00    1.9121026044561320E+00    1.2964038685630573E+01
Ga    3.2246758468994949E+00    4.4179906187787471E-02    1.3599149681221817E+01
N    3.2253741667518447E+00    7.8381376856669210E-02    1.5560608810027471E+01
Ga    3.2252852568857198E+00    1.9157188467538973E+00    1.5846323352788934E+01
N    1.4892976342321442E+00    4.6307776045978315E+00    2.4758987429913630E+00
Ga    1.7053302346719050E+00    2.7784124042865064E+00    3.2457939537584366E+00
N    1.6176077669842330E+00    2.8310545927280297E+00    5.2084764508914132E+00
Ga    1.6393416165713499E+00    4.7012867370473082E+00    5.7650287000040334E+00
N    1.6258400280357239E+00    4.6969792039464409E+00    7.7571686135037758E+00
Ga    1.6057411118462963E+00    2.8398634242825698E+00    8.4041087489649424E+00
N    1.6048161024181720E+00    2.8442734958156786E+00    1.0394088449390473E+01
Ga    1.6301157135995048E+00    4.7019946750133359E+00    1.1042611866694713E+01
N    1.6500622156272684E+00    4.7157188825991048E+00    1.3035376107314820E+01
Ga    1.6067905888212317E+00    2.8467335893577830E+00    1.3599748117357688E+01
N    1.6321232842876818E+00    2.8337795073244294E+00    1.5561329628281861E+01
Ga    1.4530767927485277E+00    4.6037163457607075E+00    1.6470835670173390E+01
N    5.6299303388241389E-03    7.4712708857036576E+00    2.5689070766808633E+00
Ga    4.4452970251554176E-03    5.7401665961012371E+00    3.2844155741603864E+00
N    6.9416150886931743E-03    5.6248293504510851E+00    5.2347358965020829E+00
Ga    8.1394994131026212E-03    7.4777551024814173E+00    5.8552704777562408E+00
N    8.3547487263002686E-03    7.4790682382150875E+00    7.8200956798671521E+00
Ga    7.5631911116215917E-03    5.6075213201404628E+00    8.4066679814451355E+00
N    8.2980852986705746E-03    5.6092884766792297E+00    1.0397197482179720E+01
Ga    8.3933434904331413E-03    7.4791855692455895E+00    1.0998830244749417E+01
N    9.4394793589870560E-03    7.4826616041090270E+00    1.2967768295052840E+01
Ga    8.4553665791723982E-03    5.6119030587671066E+00    1.3598589922608292E+01
N    9.9776285147088837E-03    5.6432958329894518E+00    1.5558767665785092E+01
Ga    1.4922318660278528E-02    7.4823231181295569E+00    1.5837607386074573E+01
N   -1.7101835235306708E+00    1.0197851012832391E+01    2.4842240683455104E+00
Ga   -1.4997085035025521E+00    8.3441388497140441E+00    3.2563312128211139E+00
N   -1.5986395391380661E+00    8.4009942174017187E+00    5.2138949689969118E+00
Ga   -1.5781276723420821E+00    1.0273475176729022E+01    5.7634265805605214E+00
N   -1.5908124982103424E+00    1.0267407418893347E+01    7.7557937446023715E+00
Ga   -1.6116977965672283E+00    8.4115595217459980E+00    8.4117615124208189E+00
N   -1.6114926962695602E+00    8.4147501979128112E+00    1.0399809543096463E+01
Ga   -1.5862893293303966E+00    1.0274446240909867E+01    1.1044947380328596E+01
N   -1.5665710745850048E+00    1.0287887148254054E+01    1.3035833569520385E+01
Ga   -1.6108751568050890E+00    8.4177619745263499E+00    1.3597802623011686E+01
N   -1.5762238303038414E+00    8.3999441668617916E+00    1.5558864801705912E+01
Ga   -1.7628254923061544E+00    1.0171763760732860E+01    1.6463679533440327E+01
N    6.4362103872874883E+00    2.0231150869004582E+00    2.4834942434651111E+00
Ga    6.4396070232837683E+00    4.4632822785404057E-02    2.8261580927599241E+00
N    6.4399770422078930E+00    4.4827847874818166E-02    4.9740963740194299E+00
Ga    6.4379279354852681E+00    1.8748578750220493E+00    5.7631774002691101E+00
N    6.4391912487914622E+00    1.8929848576930970E+00    7.7553421956043369E+00
Ga    6.4400361580007708E+00    4.8259159309504980E-02    8.4145297032170419E+00
N    6.4404494921795195E+00    5.1977286196983961E-02    1.0385858101549298E+01
Ga    6.4395483142013985E+00    1.8929754486066070E+00    1.1043273136662085E+01
N    6.4404004744722716E+00    1.8735097903920295E+00    1.3033829498004433E+01
Ga    6.4411054414197100E+00    5.6747743538402159E-02    1.3858467847007162E+01
N    6.4426535156465077E+00    5.8791331638116576E-02    1.6048021125420021E+01
Ga    6.4447239859870580E+00    2.1092606880685860E+00    1.6466479605536762E+01
Ga    6.4409646433435315E+00    3.7578698932214043E+00    1.4605673364526097E+00
N    4.9327154547522536E+00    4.6251238752777093E+00    2.4802432046747400E+00
Ga    4.7263124474402760E+00    2.7725195708823955E+00    3.2460433544571865E+00
N    4.8280383408113137E+00    2.8287020384860444E+00    5.2053720918759856E+00
Ga    4.8052496826316968E+00    4.7009952381138236E+00    5.7596933683739948E+00
N    4.8204614567849458E+00    4.6956173432104098E+00    7.7529415797419476E+00
Ga    4.8408350126987294E+00    2.8393715672842097E+00    8.4053421448440471E+00
N    4.8429156852308566E+00    2.8432502132088961E+00    1.0393397784447492E+01
Ga    4.8176544040251770E+00    4.7020956133257847E+00    1.1042292002757321E+01
N    4.8001289550458850E+00    4.7159012723210525E+00    1.3033325031720166E+01
Ga    4.8433358262795743E+00    2.8468695171403970E+00    1.3598407288930437E+01
N    4.8163179715275959E+00    2.8318173361768020E+00    1.5557965268267527E+01
Ga    5.0099661835395644E+00    4.5979454408845815E+00    1.6470543322388174E+01
N    6.4532788236741787E+00    3.7686615282449867E+00    1.7596235841256082E+01
N    3.2204367897300257E+00    7.5940052536213969E+00    2.4801246157563148E+00
Ga    3.2093438974224093E+00    5.6115250103733896E+00    2.8215164095943837E+00
N    3.2214050897978526E+00    5.6166059423920531E+00    4.9691242517368810E+00
Ga    3.2243661017860830E+00    7.4453578395942595E+00    5.7608517330537863E+00
N    3.2238747368124741E+00    7.4642307749002690E+00    7.7545482728818280E+00
Ga    3.2231792796176846E+00    5.6193384143833942E+00    8.4139093406535004E+00
N    3.2234869378878792E+00    5.6222260037920959E+00    1.0385291946121061E+01
Ga    3.2249524738915269E+00    7.4618732329110387E+00    1.1046974597364175E+01
N    3.2259412603834101E+00    7.4433168306136555E+00    1.3037236271586572E+01
Ga    3.2255861608934508E+00    5.6239315776837095E+00    1.3859313688958691E+01
N    3.2287258711847495E+00    5.6228801702013325E+00    1.6049598029935744E+01
Ga    3.2276934358725873E+00    7.6612516835879356E+00    1.6463645409124414E+01
Ga    3.2181106368349015E+00    9.3292887738971704E+00    1.4550958223306625E+00
N    1.7203289402867266E+00    1.0196753216244366E+01    2.4841627688740031E+00
Ga    1.5149523252445458E+00    8.3434171762605924E+00    3.2515182144512180E+00
N    1.6136466288990419E+00    8.4004472007796505E+00    5.2107826684452467E+00
Ga    1.5926881270698745E+00    1.0271680312990357E+01    5.7643198497407919E+00
N    1.6060984009038599E+00    1.0266673269722419E+01    7.7567700242972561E+00
Ga    1.6279573102221978E+00    8.4114704047975426E+00    8.4118377359488310E+00
N    1.6282614221092016E+00    8.4144808188641314E+00    1.0400386930878623E+01
Ga    1.6017499367549799E+00    1.0274029783446878E+01    1.1046723183106444E+01
N    1.5828876252442639E+00    1.0288046588313257E+01    1.3036248987287804E+01
Ga    1.6286653842775995E+00    8.4180864212881268E+00    1.3599316059003080E+01
N    1.6080518620918576E+00    8.4067604528384017E+00    1.5563312779263082E+01
Ga    1.7777901199946002E+00    1.0178254902320342E+01    1.6462404771248000E+01
N    3.2327758662226436E+00    9.3376916419230387E+00    1.7598138484232642E+01
N    9.6556565489377615E+00    1.9045800257670586E+00    2.5697575730956821E+00
Ga    9.6559651266650679E+00    1.6067247198779194E-01    3.2481598867895767E+00
N    9.6558235088221416E+00    4.7435293059968804E-02    5.2080819187263314E+00
Ga    9.6539043209453830E+00    1.9010588784213462E+00    5.8488157790423694E+00
N    9.6548214534753480E+00    1.9034280303109505E+00    7.8156258180200942E+00
Ga    9.6567838742457024E+00    3.5916402609575952E-02    8.4090747990785122E+00
N    9.6572822613715505E+00    3.8948359883491490E-02    1.0398716476118269E+01
Ga    9.6579438735286196E+00    1.9099092474666495E+00    1.0997000258228651E+01
N    9.6583170774291052E+00    1.9122108580762784E+00    1.2966233468052868E+01
Ga    9.6574427891277761E+00    4.2683867885696031E-02    1.3598928670213027E+01
N    9.6589367891767157E+00    6.9109955061511047E-02    1.5562920049533824E+01
Ga    9.6609288957119457E+00    1.9117037414957230E+00    1.5834551108861854E+01
N    7.9397071080069326E+00    4.6236407003865718E+00    2.4885253536252128E+00
Ga    8.1446075111721985E+00    2.7704802737852936E+00    3.2532669897380448E+00
N    8.0484354784285479E+00    2.8286928419783894E+00    5.2119556121011508E+00
Ga    8.0702380935124811E+00    4.7016072314214696E+00    5.7634120791528245E+00
N    8.0581898082741290E+00    4.6955492776263474E+00    7.7558701530680993E+00
Ga    8.0373053852324006E+00    2.8394301582548076E+00    8.4081338870674962E+00
N    8.0371565814963137E+00    2.8437645154587989E+00    1.0396669251761621E+01
Ga    8.0638517246875665E+00    4.7035606991877783E+00    1.1045085662718042E+01
N    8.0827742452058491E+00    4.7175299389567567E+00    1.3034440444520222E+01
Ga    8.0374139059305687E+00    2.8477155755999535E+00    1.3596748848412455E+01
N    8.0708584516974575E+00    2.8298367887026274E+00    1.5555968856273795E+01
Ga    7.8861871190702102E+00    4.6024716154749665E+00    1.6467488404808158E+01
N    6.4376666565254164E+00    7.4700268550824918E+00    2.5664920094414585E+00
Ga    6.4365553086550058E+00    5.7293104144985643E+00    3.2494072474417179E+00
N    6.4376467342280677E+00    5.6176556522750873E+00    5.2090183757636526E+00
Ga    6.4379515208089639E+00    7.4723636037157997E+00    5.8424910392430602E+00
N    6.4396162179342005E+00    7.4754315678663188E+00    7.8106905760438172E+00
Ga    6.4394733563625923E+00    5.6063822256311804E+00    8.4055965668277857E+00
N    6.4404753610590735E+00    5.6095217080851398E+00    1.0394016489463239E+01
Ga    6.4409906988992702E+00    7.4798297636938456E+00    1.0996036953468641E+01
N    6.4414258951824239E+00    7.4832145825716117E+00    1.2964369495916447E+01
Ga    6.4407810234547878E+00    5.6136571270069648E+00    1.3598055571152056E+01
N    6.4410884942878752E+00    5.6484987406180052E+00    1.5556700791847705E+01
Ga    6.4385831606390136E+00    7.4840134128959654E+00    1.5844031299082657E+01
N    4.7254673344758311E+00    1.0198377165464136E+01    2.4766371502284397E+00
Ga    4.9296788061791181E+00    8.3426529514364720E+00    3.2442007528285872E+00
N    4.8337030222393054E+00    8.4005448252282626E+00    5.2050791774004121E+00
Ga    4.8556111807344475E+00    1.0272118799725968E+01    5.7590579970190827E+00
N    4.8423383076234110E+00    1.0266659744191527E+01    7.7526850576840731E+00
Ga    4.8216985996510413E+00    8.4104603282950094E+00    8.4069020026695611E+00
N    4.8211194843157728E+00    8.4146833208744685E+00    1.0396388002674710E+01
Ga    4.8483163774267632E+00    1.0274144683416234E+01    1.1045638132059338E+01
N    4.8676276082170284E+00    1.0287256058737499E+01    1.3036387886837929E+01
Ga    4.8233492181419697E+00    8.4171724482756627E+00    1.3600012385872988E+01
N    4.8457920688795086E+00    8.4063865499935737E+00    1.5563923988088295E+01
Ga    4.6818966417644337E+00    1.0180746547574342E+01    1.6464493373240707E+01
O   -2.3239590921783726E-01    3.7341015132437394E+00   -5.4555317304408146E-01
H    1.1251865790789199E-01    4.5318787179569195E+00   -9.9729328636599257E-01
C    2.8731618469468273E-01    2.5063503351757017E+00   -1.1861114557514578E+00
H    1.3815061793956867E+00    2.5886347966734977E+00   -1.3543937581462546E+00
H    7.9687343402916083E-02    1.6968236589040055E+00   -4.6004041770856602E-01
H   -2.6825871516107219E-01    2.3561200420218995E+00   -2.1302037791039812E+00
     &END COORD
     &KIND C
       BASIS_SET DZVP-MOLOPT-SR-GTH-q4
       POTENTIAL GTH-PBE-q4
       &POTENTIAL
 2 2
  0.3384712400000000E+00 2 -0.8803673979999999E+01  0.1339210850000000E+01
 2
  0.3025757500000000E+00 1  0.9622486650000001E+01
  0.2915069400000000E+00 0
         # Potential name:  GTH-PBE-Q4  for symbol:  C
         # Potential read from the potential filename: GTH_POTENTIALS
       &END POTENTIAL
     &END KIND
     &KIND O
       BASIS_SET DZVP-MOLOPT-SR-GTH-q6
       POTENTIAL GTH-PBE-q6
       &POTENTIAL
 2 4
  0.2445543000000000E+00 2 -0.1666721480000000E+02  0.2487311320000000E+01
 2
  0.2209559200000000E+00 1  0.1833745811000000E+02
  0.2113324700000000E+00 0
         # Potential name:  GTH-PBE-Q6  for symbol:  O
         # Potential read from the potential filename: GTH_POTENTIALS
       &END POTENTIAL
     &END KIND
     &KIND H
       BASIS_SET DZVP-MOLOPT-SR-GTH-q1
       POTENTIAL GTH-PBE-q1
       &POTENTIAL
 1
  0.2000000000000000E+00 2 -0.4178900440000000E+01  0.7244633100000000E+00
 0
         # Potential name:  GTH-PBE-Q1  for symbol:  H
         # Potential read from the potential filename: GTH_POTENTIALS
       &END POTENTIAL
     &END KIND
     &KIND N
       BASIS_SET DZVP-MOLOPT-SR-GTH
       POTENTIAL GTH-PBE-q5
       &POTENTIAL
 2 3
  0.2837905100000000E+00 2 -0.1241522559000000E+02  0.1868095920000000E+01
 2
  0.2554050000000000E+00 1  0.1363026257000000E+02
  0.2454945300000000E+00 0
         # Potential name:  GTH-PBE-Q5  for symbol:  N
         # Potential read from the potential filename: GTH_POTENTIALS
       &END POTENTIAL
     &END KIND
     &KIND Ga
       BASIS_SET DZVP-MOLOPT-SR-GTH
       POTENTIAL GTH-PBE-q13
       &POTENTIAL
 2 1 10
  0.4900000000000000E+00 0
 3
  0.4167772300000000E+00 3  0.1047568975000000E+02 -0.4921768140000000E+01  0.8707055900000000E+00
  0.7770178090000000E+01 -0.2248152160000000E+01
  0.1784415450000000E+01
  0.5696265200000000E+00 2  0.1777985340000000E+01  0.1958597600000000E+00
 -0.2317443900000000E+00
  0.2381265000000000E+00 1 -0.1624868022000000E+02
         # Potential name:  GTH-PBE-Q13  for symbol:  GA
         # Potential read from the potential filename: GTH_POTENTIALS
       &END POTENTIAL
     &END KIND
     &TOPOLOGY
       NUMBER_OF_ATOMS  206
       MULTIPLE_UNIT_CELL  1 1 1
     &END TOPOLOGY
   &END SUBSYS
 &END FORCE_EVAL
