 # Version information for this restart file 
 # current date 2019-06-24 21:42:19.872
 # current working dir /scratch/rzk/rzk/GaN-carbene/443-adatoms-both-2x2/02-Methanol/01-O-GaTop
 # Program compiled at                              Sun Apr  7 00:48:11 EDT 2019
 # Program compiled on                          beluga2.int.ets1.calculquebec.ca
 # Program compiled for                        Beluga-Linux-x86-64-intel-openmpi
 # Source code revision number                                         svn:18619
 &GLOBAL
   PRINT_LEVEL  MEDIUM
   PROJECT_NAME TEST
   RUN_TYPE  GEO_OPT
 &END GLOBAL
 &MOTION
   &GEO_OPT
     MAX_ITER  500
     STEP_START_VAL  150
   &END GEO_OPT
 &END MOTION
 &FORCE_EVAL
   METHOD  QS
   STRESS_TENSOR  ANALYTICAL
   &DFT
     BASIS_SET_FILE_NAME BASIS_MOLOPT
     POTENTIAL_FILE_NAME GTH_POTENTIALS
     UKS  T
     SURFACE_DIPOLE_CORRECTION  T
     SURF_DIP_DIR  Z
     &SCF
       MAX_SCF  80
       EPS_SCF     5.0000000000000004E-06
       &OT  T
         PRECONDITIONER  FULL_ALL
       &END OT
       &OUTER_SCF  T
         OPTIMIZER  NONE
         EPS_SCF     5.0000000000000004E-06
         MAX_SCF  4
       &END OUTER_SCF
       &PRINT
         &RESTART  OFF
           BACKUP_COPIES  1
           &EACH
             JUST_ENERGY  0
             QS_SCF  0
             MD  20
           &END EACH
         &END RESTART
       &END PRINT
     &END SCF
     &QS
       EPS_DEFAULT     1.0000000000000000E-14
       METHOD  GPW
     &END QS
     &MGRID
       NGRIDS  5
       CUTOFF     1.2000000000000000E+03
     &END MGRID
     &XC
       DENSITY_CUTOFF     1.0000000000000000E-10
       GRADIENT_CUTOFF     1.0000000000000000E-10
       TAU_CUTOFF     1.0000000000000000E-10
       &XC_FUNCTIONAL  NO_SHORTCUT
         &PBE  T
         &END PBE
       &END XC_FUNCTIONAL
       &VDW_POTENTIAL
         POTENTIAL_TYPE  PAIR_POTENTIAL
         &PAIR_POTENTIAL
           R_CUTOFF     1.0000000000000005E+01
           TYPE  DFTD3
           PARAMETER_FILE_NAME dftd3.dat
           REFERENCE_FUNCTIONAL PBE
           EPS_CN     9.9999999999999995E-07
           CALCULATE_C9_TERM  T
           REFERENCE_C9_TERM  T
           LONG_RANGE_CORRECTION  F
           VERBOSE_OUTPUT  F
         &END PAIR_POTENTIAL
       &END VDW_POTENTIAL
     &END XC
   &END DFT
   &SUBSYS
     &CELL
       A     1.2864472766435110E+01    0.0000000000000000E+00    0.0000000000000000E+00
       B    -6.4322363581020028E+00    1.1140960178524475E+01    0.0000000000000000E+00
       C     0.0000000000000000E+00    0.0000000000000000E+00    3.2000000000000000E+01
       MULTIPLE_UNIT_CELL  1 1 1
       &CELL_REF
         A     1.2982353780853531E+01    0.0000000000000000E+00    0.0000000000000000E+00
         B    -6.4911768904267628E+00    1.1243048175136114E+01    0.0000000000000000E+00
         C     0.0000000000000000E+00    0.0000000000000000E+00    3.2000000000000000E+01
         MULTIPLE_UNIT_CELL  1 1 1
       &END CELL_REF
     &END CELL
     &COORD
N   -3.4168254009764906E-02    2.0297264572748381E+00    2.5493987055676071E+00
Ga   -2.6905538570342735E-02    5.3151670278994950E-02    2.8796464762673293E+00
N   -3.2400204717522196E-02    4.8428718427739985E-02    5.0329924441068785E+00
Ga   -3.3423817552944879E-02    1.8752992641247297E+00    5.8168620611000454E+00
N   -3.1693576451154420E-02    1.8930723166577073E+00    7.8124435934648089E+00
Ga   -3.1306714119371484E-02    4.6936030670112726E-02    8.4551536092676081E+00
N   -3.1715430190272648E-02    4.7375880504680973E-02    1.0429708845575144E+01
Ga   -3.2429058327605981E-02    1.8888680918876470E+00    1.1077037282025563E+01
N   -3.3037332174009525E-02    1.8701916258571403E+00    1.3070127422507131E+01
Ga   -4.1732266420498695E-02    5.3977664488138559E-02    1.3868297191037852E+01
N   -4.3713268234020164E-02    5.4838664646632576E-02    1.6077995839031058E+01
Ga   -3.4636753198350551E-02    2.1119566521319464E+00    1.6506468482220573E+01
Ga   -2.9459810589470132E-02    3.7328121170161843E+00    1.5248026568207496E+00
N   -1.5153710052556382E+00    4.6146525394887012E+00    2.5149366216597242E+00
Ga   -1.7349827253916656E+00    2.7722986325138561E+00    3.3152442675601130E+00
N   -1.6436711848718590E+00    2.8318048970564274E+00    5.2747142354602765E+00
Ga   -1.6628652789388152E+00    4.7052570524884896E+00    5.8135950563774497E+00
N   -1.6491945591180814E+00    4.6965386772597641E+00    7.8106971321391576E+00
Ga   -1.6309943801874385E+00    2.8392234848804541E+00    8.4480891403054699E+00
N   -1.6294071749861758E+00    2.8395822873001286E+00    1.0440421642089222E+01
Ga   -1.6541285382160402E+00    4.6979608696674546E+00    1.1077316015477612E+01
N   -1.6709119495921496E+00    4.7069953621926519E+00    1.3070296056941018E+01
Ga   -1.6306890711827107E+00    2.8391941773617329E+00    1.3631407837508284E+01
N   -1.6580638272203976E+00    2.8229297968050746E+00    1.5589204164807265E+01
Ga   -1.4620975490801398E+00    4.5842255264684750E+00    1.6506175083747831E+01
N   -2.4944454369413442E-02    3.7653644647389553E+00    1.7647162144853525E+01
N   -3.2454660803417759E+00    7.5947703959322785E+00    2.5281326590052942E+00
Ga   -3.2377851878248882E+00    5.6192881004536277E+00    2.8519209976005118E+00
N   -3.2425533885356246E+00    5.6143757396800291E+00    5.0218375430117828E+00
Ga   -3.2465091839829281E+00    7.4457829454305768E+00    5.8016462995550739E+00
N   -3.2478282149427735E+00    7.4634669206009443E+00    7.8029772877192336E+00
Ga   -3.2483529933029778E+00    5.6189331418878643E+00    8.4538679572595079E+00
N   -3.2484565439097266E+00    5.6186044327570972E+00    1.0428851228440921E+01
Ga   -3.2484067764004538E+00    7.4572581400821907E+00    1.1076778413027370E+01
N   -3.2485884346631644E+00    7.4366884077275408E+00    1.3077107044451907E+01
Ga   -3.2490419095563232E+00    5.6064373978838011E+00    1.3869299746104918E+01
N   -3.2483314781259192E+00    5.6043235227560038E+00    1.6077708765684761E+01
Ga   -3.2485829382180551E+00    7.6033820814207562E+00    1.6441856343420056E+01
Ga   -3.2439520051211068E+00    9.3246956019268055E+00    1.4375661077813271E+00
N   -4.7513409180233186E+00    1.0203484191588128E+01    2.5237000518549322E+00
Ga   -4.9438024726176364E+00    8.3524932113478272E+00    3.2830986432852987E+00
N   -4.8558878325658110E+00    8.4027855622673311E+00    5.2544041992303425E+00
Ga   -4.8780433245231096E+00    1.0273533286469679E+01    5.8054560727444819E+00
N   -4.8649043324578667E+00    1.0265957765106055E+01    7.8050348627827706E+00
Ga   -4.8453591358534354E+00    8.4087966365057145E+00    8.4438708834966913E+00
N   -4.8447986794898048E+00    8.4099440205340308E+00    1.0440639625312762E+01
Ga   -4.8716566106710033E+00    1.0268733826063187E+01    1.1077119476206640E+01
N   -4.8897738821436514E+00    1.0279581631680578E+01    1.3077009436865579E+01
Ga   -4.8458335362549452E+00    8.4098389926353683E+00    1.3622586410393200E+01
N   -4.8619878467291935E+00    8.4012636837639576E+00    1.5600658981865044E+01
Ga   -4.7429746453550914E+00    1.0195411650358375E+01    1.6442229520912832E+01
N   -3.2474016408588007E+00    9.3297505306367299E+00    1.7567729008158238E+01
N    3.1691606757342110E+00    1.9090285206810027E+00    2.6057890471565428E+00
Ga    3.1821267574638279E+00    1.5239034008676763E-01    3.2840841846945144E+00
N    3.1844480140554268E+00    5.3216331916806872E-02    5.2537117784092091E+00
Ga    3.1865822477789467E+00    1.9014429149204088E+00    5.8947945372234827E+00
N    3.1857345354695199E+00    1.9037088615023248E+00    7.8657979136453369E+00
Ga    3.1842995618232854E+00    3.5166787881492648E-02    8.4485445668470565E+00
N    3.1839918175894901E+00    3.4865238352229801E-02    1.0443654474536032E+01
Ga    3.1836951781317326E+00    1.9054724245190593E+00    1.1036609716666788E+01
N    3.1835325154882792E+00    1.9025021345470237E+00    1.3010427901712532E+01
Ga    3.1835668825339574E+00    3.5813065561069987E-02    1.3622603690891554E+01
N    3.1835307971958948E+00    5.4161754825784017E-02    1.5600597791222524E+01
Ga    3.1841784054444524E+00    1.9069797901188976E+00    1.5871668804003203E+01
N    1.4723314578210593E+00    4.6260679812480108E+00    2.5336483745488656E+00
Ga    1.6687690454373061E+00    2.7830069908596951E+00    3.3293235148768021E+00
N    1.5811233462296366E+00    2.8312368476226162E+00    5.2813694926474843E+00
Ga    1.5987924433421425E+00    4.7066066842976166E+00    5.8164706259228156E+00
N    1.5864220245602669E+00    4.6967695549803201E+00    7.8116939492798805E+00
Ga    1.5669889571651321E+00    2.8393323181008401E+00    8.4498650320619380E+00
N    1.5656049712761217E+00    2.8405206822260647E+00    1.0443319675414092E+01
Ga    1.5918862803070835E+00    4.6994019385438266E+00    1.1083440305998440E+01
N    1.6078501752355119E+00    4.7088729628466783E+00    1.3077100044161364E+01
Ga    1.5631842839125458E+00    2.8400449850558989E+00    1.3633257394052405E+01
N    1.5921458063391862E+00    2.8162964509172350E+00    1.5592488849006305E+01
Ga    1.4084664638092383E+00    4.5932330732424695E+00    1.6506409725268490E+01
N   -3.3788703176566931E-02    7.4730648185090747E+00    2.6228546309446772E+00
Ga   -2.2865877461014025E-02    5.7277783517274345E+00    3.3000121731479002E+00
N   -3.1386435875219630E-02    5.6213105775276011E+00    5.2657572417693173E+00
Ga   -3.4387559383794571E-02    7.4752880288587740E+00    5.8874674579254700E+00
N   -3.1957028155431326E-02    7.4758505799808832E+00    7.8620525814067657E+00
Ga   -3.1824884874670369E-02    5.6082011933647928E+00    8.4502476249116238E+00
N   -3.1044425709753281E-02    5.6062828833042202E+00    1.0443698361993059E+01
Ga   -3.2202513584621312E-02    7.4753566388556454E+00    1.1036227218846905E+01
N   -3.4457280683411341E-02    7.4764248079685478E+00    1.3010357168546557E+01
Ga   -3.3119594583793217E-02    5.6043856997721901E+00    1.3633513476683380E+01
N   -3.8851985466889220E-02    5.6415328436993235E+00    1.5592659529065269E+01
Ga   -3.1898160212179782E-02    7.4745229703494624E+00    1.5873142097957407E+01
N   -1.7465570327347946E+00    1.0202143262985725E+01    2.5287464052772552E+00
Ga   -1.5492790306863589E+00    8.3512570339420300E+00    3.2878341279532743E+00
N   -1.6376124327763231E+00    8.4035239950224021E+00    5.2577975409489026E+00
Ga   -1.6167602720412544E+00    1.0274405547637688E+01    5.8051299642952090E+00
N   -1.6316736009125936E+00    1.0265884205423539E+01    7.8055412818840448E+00
Ga   -1.6504493968766438E+00    8.4092261865261460E+00    8.4451621240048418E+00
N   -1.6517048207861296E+00    8.4101962504754457E+00    1.0441867608531181E+01
Ga   -1.6245612573328063E+00    1.0269275812496481E+01    1.1077152759675261E+01
N   -1.6070929891882058E+00    1.0279838310865879E+01    1.3077333221765233E+01
Ga   -1.6511699640287856E+00    8.4097299945655788E+00    1.3622975902191262E+01
N   -1.6353087418203744E+00    8.4012162473710852E+00    1.5601179032969975E+01
Ga   -1.7530569029794960E+00    1.0196126279334566E+01    1.6441955826914171E+01
N    6.3967845707236837E+00    2.0263280112658375E+00    2.5318944355757864E+00
Ga    6.3935029949431543E+00    4.4067054749962198E-02    2.8659787823280198E+00
N    6.4015709550090980E+00    4.7860419363420517E-02    5.0312399333272904E+00
Ga    6.3986881019117599E+00    1.8752968069506737E+00    5.8079956389331651E+00
N    6.3988878166922856E+00    1.8944798642071037E+00    7.8060569629888175E+00
Ga    6.3989812950414731E+00    4.8062708890676972E-02    8.4530695403205662E+00
N    6.3998901495978515E+00    4.7983427300501091E-02    1.0428344056767754E+01
Ga    6.4003382414448389E+00    1.8889105196503484E+00    1.1077143263035836E+01
N    6.4003734240666805E+00    1.8703705214800455E+00    1.3069779468487544E+01
Ga    6.4094119975473580E+00    5.4656350151255237E-02    1.3868726579599965E+01
N    6.4113866118755594E+00    5.4762515566072943E-02    1.6077473921733162E+01
Ga    6.4014767050335264E+00    2.1123445272443679E+00    1.6508766936518050E+01
Ga    6.4058393420702862E+00    3.7625486956189569E+00    1.4920726818643391E+00
N    4.8943748302111727E+00    4.6275391118176374E+00    2.5305170424562302E+00
Ga    4.6893188075928727E+00    2.7738006857591264E+00    3.2908022255063458E+00
N    4.7876152826834018E+00    2.8303580047563019E+00    5.2552290731270856E+00
Ga    4.7702495952901058E+00    4.7023384523016611E+00    5.8086134855795262E+00
N    4.7826553512118579E+00    4.6948738892231958E+00    7.8051754054949543E+00
Ga    4.8025919380581223E+00    2.8395662768865098E+00    8.4503385415080015E+00
N    4.8024456182831203E+00    2.8404677185835387E+00    1.0442972445312703E+01
Ga    4.7770634185557865E+00    4.6994687696464554E+00    1.1083068659415103E+01
N    4.7596785879212566E+00    4.7089313883210915E+00    1.3076164222977596E+01
Ga    4.8040219811265006E+00    2.8403005963734942E+00    1.3633294117754280E+01
N    4.7754795604759748E+00    2.8169957691651701E+00    1.5591980909226002E+01
Ga    4.9597242668981201E+00    4.5929491809822958E+00    1.6508617313357487E+01
N    6.3930935182581070E+00    3.7653526448807950E+00    1.7655559481910629E+01
N    3.1836228005282723E+00    7.5977259133489694E+00    2.5420621410338788E+00
Ga    3.1752054387499373E+00    5.6157031313752768E+00    2.8937224748505108E+00
N    3.1853343316915423E+00    5.6189442873530293E+00    5.0340662227257722E+00
Ga    3.1856377357142849E+00    7.4487171920956152E+00    5.8122859565544722E+00
N    3.1846626207969391E+00    7.4639016115850865E+00    7.8082009645722001E+00
Ga    3.1851259889760470E+00    5.6184606469536469E+00    8.4572467533446343E+00
N    3.1846663445821388E+00    5.6183928967444885E+00    1.0430696208075497E+01
Ga    3.1842370703660530E+00    7.4568426493352771E+00    1.1083110982355091E+01
N    3.1836990593000385E+00    7.4377254322351556E+00    1.3077161904065312E+01
Ga    3.1839531942757873E+00    5.6175600841974376E+00    1.3892361856228499E+01
N    3.1836446691286304E+00    5.6177048555566769E+00    1.6082230148548103E+01
Ga    3.1839150323873495E+00    7.6624999379038625E+00    1.6502608736792794E+01
Ga    3.1831906982019373E+00    9.3316332957195893E+00    1.5135053236071798E+00
N    1.6823216354993562E+00    1.0199169967748578E+01    2.5378533249340527E+00
Ga    1.4722794093246008E+00    8.3460696352885488E+00    3.3026748863698407E+00
N    1.5752388684101069E+00    8.4026456159528227E+00    5.2651400293114623E+00
Ga    1.5502549581689136E+00    1.0274856919975448E+01    5.8122052297526272E+00
N    1.5662463339669115E+00    1.0265444136874228E+01    7.8092456419400627E+00
Ga    1.5858391646956489E+00    8.4088079350940053E+00    8.4490956217020567E+00
N    1.5873801233755012E+00    8.4088587480040431E+00    1.0442892538949133E+01
Ga    1.5620789291540862E+00    1.0268561886657634E+01    1.1076942818394569E+01
N    1.5456056687902098E+00    1.0278601234290138E+01    1.3070314133479959E+01
Ga    1.5872851031387820E+00    8.4110859375865736E+00    1.3632705211612942E+01
N    1.5525874283717767E+00    8.3982598811544626E+00    1.5592852478758545E+01
Ga    1.7525759936455187E+00    1.0160906086598702E+01    1.6502892434746350E+01
N    3.1841212194842416E+00    9.3218543784746846E+00    1.7642331859640652E+01
N    9.6193274343792705E+00    1.9065963563781376E+00    2.6241696129655216E+00
Ga    9.6156848141353723E+00    1.6417868582812248E-01    3.3026441665869379E+00
N    9.6165643882074807E+00    4.9006290867376109E-02    5.2653384877614995E+00
Ga    9.6146490220655316E+00    1.9049164899815889E+00    5.8919602336111589E+00
N    9.6151216685451502E+00    1.9040158762901938E+00    7.8633735045322251E+00
Ga    9.6158900960106291E+00    3.6004545781506102E-02    8.4484982060272298E+00
N    9.6164037300534808E+00    3.5191642617632905E-02    1.0440517303515355E+01
Ga    9.6159027457241777E+00    1.9052483242239375E+00    1.1034393251533514E+01
N    9.6161087228806466E+00    1.9048269263565085E+00    1.3004595747947581E+01
Ga    9.6157169174824340E+00    3.7050419876042594E-02    1.3630677774303841E+01
N    9.6157577743498432E+00    6.7768277133312446E-02    1.5589575566052403E+01
Ga    9.6148456150265673E+00    1.9059420475058970E+00    1.5868327151680436E+01
N    7.9049391363868269E+00    4.6276754353227618E+00    2.5324763625288096E+00
Ga    8.1058581089175785E+00    2.7752635583417362E+00    3.2972494624034319E+00
N    8.0084184386401880E+00    2.8312889765919032E+00    5.2612535282228361E+00
Ga    8.0363599982457359E+00    4.7044272747635327E+00    5.8051008641748334E+00
N    8.0185036981528679E+00    4.6958405336045468E+00    7.8038389850360534E+00
Ga    7.9974917219208956E+00    2.8392572123654412E+00    8.4462642164401220E+00
N    7.9968480961335597E+00    2.8397952596043061E+00    1.0438755323786266E+01
Ga    8.0217265368537358E+00    4.6981090449648635E+00    1.1076816896320192E+01
N    8.0379562325685274E+00    4.7069948471814458E+00    1.3069524095007996E+01
Ga    7.9981253801544145E+00    2.8390550991018890E+00    1.3631606892574725E+01
N    8.0241986617193533E+00    2.8235371113535424E+00    1.5589291164708351E+01
Ga    7.8290268118260835E+00    4.5844687491819318E+00    1.6508742703032510E+01
N    6.4037013469502249E+00    7.4765010783758816E+00    2.6180023291848364E+00
Ga    6.4024599098667867E+00    5.7331302709827945E+00    3.2930670091056657E+00
N    6.4015382007722552E+00    5.6190579327217147E+00    5.2579651099911375E+00
Ga    6.4044524400166676E+00    7.4756439761701294E+00    5.8829211847709040E+00
N    6.4009849866257360E+00    7.4749880800227073E+00    7.8579342392978058E+00
Ga    6.4005645811536338E+00    5.6069308105379569E+00    8.4454365987317246E+00
N    6.3993712113613919E+00    5.6061089375574680E+00    1.0439775767593343E+01
Ga    6.4001558951660931E+00    7.4749768315444189E+00    1.1034711320831709E+01
N    6.4021188119806540E+00    7.4764786705072162E+00    1.3008951978826753E+01
Ga    6.4001053963071213E+00    5.6044811097130065E+00    1.3633346975246983E+01
N    6.4057700993091444E+00    5.6410091920822953E+00    1.5592127458739689E+01
Ga    6.3990562493092566E+00    7.4738292509713116E+00    1.5872465638501335E+01
N    4.6859009643667502E+00    1.0200185275433006E+01    2.5385319017461749E+00
Ga    4.8962133467287892E+00    8.3458722939622056E+00    3.2994587950084773E+00
N    4.7952046259098742E+00    8.4025525313780633E+00    5.2625015510367597E+00
Ga    4.8176998399272595E+00    1.0274030194164855E+01    5.8119761074978555E+00
N    4.8019298845727905E+00    1.0265276680921769E+01    7.8085782251436786E+00
Ga    4.7833237983178449E+00    8.4081645181485118E+00    8.4479748916256643E+00
N    4.7809805667835708E+00    8.4089189684420127E+00    1.0441830546559789E+01
Ga    4.8059653987733100E+00    1.0268392724853483E+01    1.1077354604973046E+01
N    4.8217284194541996E+00    1.0278497015168746E+01    1.3070508516822148E+01
Ga    4.7802149889537517E+00    8.4107239345365645E+00    1.3632177521510071E+01
N    4.8148058127701487E+00    8.3982427374471964E+00    1.5592602028804748E+01
Ga    4.6146246907121240E+00    1.0160905433719021E+01    1.6503018373785959E+01
O    1.0599844378340917E+00    3.4614487570466443E+00   -2.6040342698243973E-01
H    1.8226068442787027E+00    4.0047421355467598E+00    3.9518718328949140E-02
C    1.5592482254197078E+00    2.0774245017610182E+00   -4.5276106197188970E-01
H    2.2266984440401552E+00    1.8042636722188414E+00    3.8180333562451002E-01
H    6.7723021619740276E-01    1.4299609772484694E+00   -4.6047966005077279E-01
H    2.0705741043551957E+00    2.0433583791415724E+00   -1.4215248874077788E+00
     &END COORD
     &KIND C
       BASIS_SET DZVP-MOLOPT-SR-GTH-q4
       POTENTIAL GTH-PBE-q4
       &POTENTIAL
2 2
0.3384712400000000E+00 2 -0.8803673979999999E+01  0.1339210850000000E+01
2
0.3025757500000000E+00 1  0.9622486650000001E+01
0.2915069400000000E+00 0
       &END POTENTIAL
     &END KIND
     &KIND O
       BASIS_SET DZVP-MOLOPT-SR-GTH-q6
       POTENTIAL GTH-PBE-q6
       &POTENTIAL
2 4
0.2445543000000000E+00 2 -0.1666721480000000E+02  0.2487311320000000E+01
2
0.2209559200000000E+00 1  0.1833745811000000E+02
0.2113324700000000E+00 0
       &END POTENTIAL
     &END KIND
     &KIND H
       BASIS_SET DZVP-MOLOPT-SR-GTH-q1
       POTENTIAL GTH-PBE-q1
       &POTENTIAL
1
0.2000000000000000E+00 2 -0.4178900440000000E+01  0.7244633100000000E+00
0
       &END POTENTIAL
     &END KIND
     &KIND N
       BASIS_SET DZVP-MOLOPT-SR-GTH
       POTENTIAL GTH-PBE-q5
       &POTENTIAL
2 3
0.2837905100000000E+00 2 -0.1241522559000000E+02  0.1868095920000000E+01
2
0.2554050000000000E+00 1  0.1363026257000000E+02
0.2454945300000000E+00 0
       &END POTENTIAL
     &END KIND
     &KIND Ga
       BASIS_SET DZVP-MOLOPT-SR-GTH
       POTENTIAL GTH-PBE-q13
       &POTENTIAL
2 1 10
0.4900000000000000E+00 0
3
0.4167772300000000E+00 3  0.1047568975000000E+02 -0.4921768140000000E+01  0.8707055900000000E+00
0.7770178090000000E+01 -0.2248152160000000E+01
0.1784415450000000E+01
0.5696265200000000E+00 2  0.1777985340000000E+01  0.1958597600000000E+00
-0.2317443900000000E+00
0.2381265000000000E+00 1 -0.1624868022000000E+02
       &END POTENTIAL
     &END KIND
     &TOPOLOGY
       NUMBER_OF_ATOMS  206
       MULTIPLE_UNIT_CELL  1 1 1
     &END TOPOLOGY
   &END SUBSYS
 &END FORCE_EVAL
