 # Version information for this restart file 
 # current date 2019-06-24 14:35:16.964
 # current working dir /scratch/rzk/rzk/GaN-carbene/443-adatoms-both-2x2/02-Methanol/01-O-GaTop
 # Program compiled at                              Sun Apr  7 00:48:11 EDT 2019
 # Program compiled on                          beluga2.int.ets1.calculquebec.ca
 # Program compiled for                        Beluga-Linux-x86-64-intel-openmpi
 # Source code revision number                                         svn:18619
 &GLOBAL
   PRINT_LEVEL  MEDIUM
   PROJECT_NAME TEST
   RUN_TYPE  GEO_OPT
 &END GLOBAL
 &MOTION
   &GEO_OPT
     MAX_ITER  500
     STEP_START_VAL  45
   &END GEO_OPT
 &END MOTION
 &FORCE_EVAL
   METHOD  QS
   STRESS_TENSOR  ANALYTICAL
   &DFT
     BASIS_SET_FILE_NAME BASIS_MOLOPT
     POTENTIAL_FILE_NAME GTH_POTENTIALS
     UKS  T
     SURFACE_DIPOLE_CORRECTION  T
     SURF_DIP_DIR  Z
     &SCF
       MAX_SCF  80
       EPS_SCF     5.0000000000000004E-06
       &OT  T
         PRECONDITIONER  FULL_ALL
       &END OT
       &OUTER_SCF  T
         OPTIMIZER  NONE
         EPS_SCF     5.0000000000000004E-06
         MAX_SCF  4
       &END OUTER_SCF
       &PRINT
         &RESTART  OFF
           BACKUP_COPIES  1
           &EACH
             JUST_ENERGY  0
             QS_SCF  0
             MD  20
           &END EACH
         &END RESTART
       &END PRINT
     &END SCF
     &QS
       EPS_DEFAULT     1.0000000000000000E-14
       METHOD  GPW
     &END QS
     &MGRID
       NGRIDS  5
       CUTOFF     1.2000000000000000E+03
     &END MGRID
     &XC
       DENSITY_CUTOFF     1.0000000000000000E-10
       GRADIENT_CUTOFF     1.0000000000000000E-10
       TAU_CUTOFF     1.0000000000000000E-10
       &XC_FUNCTIONAL  NO_SHORTCUT
         &PBE  T
         &END PBE
       &END XC_FUNCTIONAL
       &VDW_POTENTIAL
         POTENTIAL_TYPE  PAIR_POTENTIAL
         &PAIR_POTENTIAL
           R_CUTOFF     1.0000000000000005E+01
           TYPE  DFTD3
           PARAMETER_FILE_NAME dftd3.dat
           REFERENCE_FUNCTIONAL PBE
           EPS_CN     9.9999999999999995E-07
           CALCULATE_C9_TERM  T
           REFERENCE_C9_TERM  T
           LONG_RANGE_CORRECTION  F
           VERBOSE_OUTPUT  F
         &END PAIR_POTENTIAL
       &END VDW_POTENTIAL
     &END XC
   &END DFT
   &SUBSYS
     &CELL
       A     1.2864472766435110E+01    0.0000000000000000E+00    0.0000000000000000E+00
       B    -6.4322363581020028E+00    1.1140960178524475E+01    0.0000000000000000E+00
       C     0.0000000000000000E+00    0.0000000000000000E+00    3.2000000000000000E+01
       MULTIPLE_UNIT_CELL  1 1 1
       &CELL_REF
         A     1.2982353780853531E+01    0.0000000000000000E+00    0.0000000000000000E+00
         B    -6.4911768904267628E+00    1.1243048175136114E+01    0.0000000000000000E+00
         C     0.0000000000000000E+00    0.0000000000000000E+00    3.2000000000000000E+01
         MULTIPLE_UNIT_CELL  1 1 1
       &END CELL_REF
     &END CELL
     &COORD
N   -2.5481179804350062E-02    2.0499330602399892E+00    2.5097987685183578E+00
Ga   -2.1436203620215189E-02    7.3153092511853909E-02    2.8655012352489320E+00
N   -1.6813555501204218E-02    6.1011697263925753E-02    5.0071432267605607E+00
Ga   -1.6087446639299115E-02    1.8895294546918331E+00    5.7961666534116620E+00
N   -1.3007471704588686E-02    1.9015204933465673E+00    7.7878836335617967E+00
Ga   -1.1998326329777816E-02    5.6289263639626719E-02    8.4387317135943327E+00
N   -1.1054949945506348E-02    5.5693816803848835E-02    1.0409349552841173E+01
Ga   -1.0103727658138878E-02    1.8963126363297276E+00    1.1064630592434970E+01
N   -8.8088698912807736E-03    1.8765630182770860E+00    1.3055219702554036E+01
Ga   -8.8399361370547439E-03    5.8717315691286159E-02    1.3866150584618385E+01
N   -7.2312157293009573E-03    5.6180056860860361E-02    1.6062745989438653E+01
Ga   -9.8056596355624824E-03    2.1150668671811754E+00    1.6493008024864224E+01
Ga   -3.5955541842255925E-02    3.7739766107749126E+00    1.5155623629917110E+00
N   -1.5131529950978564E+00    4.6388772004765801E+00    2.5127648110805354E+00
Ga   -1.7260750035838568E+00    2.7886007898803449E+00    3.2984303016556358E+00
N   -1.6289601745038529E+00    2.8437995663060063E+00    5.2549697997940115E+00
Ga   -1.6476679376128429E+00    4.7168647230309766E+00    5.7992958341815912E+00
N   -1.6312881098373870E+00    4.7058872226018389E+00    7.7910465147805628E+00
Ga   -1.6112934281973688E+00    2.8475436384520005E+00    8.4313745116342513E+00
N   -1.6073036401260090E+00    2.8476335668806003E+00    1.0421236754820701E+01
Ga   -1.6325409399311048E+00    4.7060882007105134E+00    1.1066217960182676E+01
N   -1.6483845958437042E+00    4.7159160185614688E+00    1.3056120885162793E+01
Ga   -1.6051868737567239E+00    2.8474494720821215E+00    1.3620153845481697E+01
N   -1.6350628803822118E+00    2.8286308643319682E+00    1.5575249252250959E+01
Ga   -1.4449385458249269E+00    4.5952750456951970E+00    1.6491216878982961E+01
N   -9.2882731138918036E-03    3.7724194382281464E+00    1.7627584286746355E+01
N   -3.2334662746192109E+00    7.6100810058753243E+00    2.5151551756668140E+00
Ga   -3.2262138718933882E+00    5.6290147588179948E+00    2.8525702488895130E+00
N   -3.2308864012592156E+00    5.6292314546615509E+00    5.0073243191578278E+00
Ga   -3.2329670327659410E+00    7.4584037492938142E+00    5.7922756271384612E+00
N   -3.2300538430108188E+00    7.4727065030451509E+00    7.7859149290141518E+00
Ga   -3.2291068917874584E+00    5.6276795315998775E+00    8.4414421106310495E+00
N   -3.2271153103997707E+00    5.6256015506781880E+00    1.0410908465104354E+01
Ga   -3.2273938917785814E+00    7.4651449112002846E+00    1.1064106311873271E+01
N   -3.2249828841186723E+00    7.4456467939384652E+00    1.3052451839225636E+01
Ga   -3.2221514548572499E+00    5.6256955830688469E+00    1.3866156877111674E+01
N   -3.2253499299920061E+00    5.6287553574350921E+00    1.6061275384452394E+01
Ga   -3.2274209430839647E+00    7.6678875179633481E+00    1.6469708793623056E+01
Ga   -3.2289541578491026E+00    9.3394204975034025E+00    1.4549358727385400E+00
N   -4.7412991324567102E+00    1.0217629268016701E+01    2.5022521774911359E+00
Ga   -4.9403688828648162E+00    8.3646500605887741E+00    3.2691677837255155E+00
N   -4.8411763822343694E+00    8.4156624471725010E+00    5.2347341267255860E+00
Ga   -4.8629059776923027E+00    1.0286465297701088E+01    5.7892044564144687E+00
N   -4.8467218246929242E+00    1.0274756918533800E+01    7.7831687578224917E+00
Ga   -4.8281652075047834E+00    8.4177512278594300E+00    8.4296618813170738E+00
N   -4.8245764270239313E+00    8.4178253853170819E+00    1.0420185910222436E+01
Ga   -4.8505345584850748E+00    1.0276894293963514E+01    1.1063831661850879E+01
N   -4.8651939292320581E+00    1.0286957431861474E+01    1.3053579295931037E+01
Ga   -4.8226445983118911E+00    8.4165689576472378E+00    1.3610247280733118E+01
N   -4.8477156148446339E+00    8.3998472058322982E+00    1.5566471253762209E+01
Ga   -4.6790923728977889E+00    1.0174306783338789E+01    1.6469934625194043E+01
N   -3.2282930904484206E+00    9.3457738333199405E+00    1.7614248692225782E+01
N    3.1854531470799108E+00    1.9243983978178794E+00    2.5803716907208227E+00
Ga    3.1932652008082090E+00    1.7696405415116348E-01    3.2647167142738738E+00
N    3.1996027078790825E+00    6.2926992057427078E-02    5.2312504445268919E+00
Ga    3.1986461973233307E+00    1.9153010563895478E+00    5.8688313389700788E+00
N    3.2031562072435844E+00    1.9130003200422592E+00    7.8385969710514587E+00
Ga    3.2021258915916397E+00    4.5942314431799927E-02    8.4314773826050402E+00
N    3.2042713453190732E+00    4.3244726445852415E-02    1.0420574730650459E+01
Ga    3.2041028654729686E+00    1.9135377725708429E+00    1.1019803810282422E+01
N    3.2062040302097454E+00    1.9134207401931886E+00    1.2986488503114510E+01
Ga    3.2073128847370858E+00    4.4626807031437045E-02    1.3611941935624630E+01
N    3.2074417839909799E+00    7.1628189874702999E-02    1.5572473188412877E+01
Ga    3.2055741289322763E+00    1.9107242520209240E+00    1.5856834077482739E+01
N    1.4683269289570593E+00    4.6414000854608384E+00    2.5006995011007498E+00
Ga    1.6795957192040343E+00    2.7937722828537894E+00    3.2884148425416826E+00
N    1.5945750955190068E+00    2.8444441874399446E+00    5.2466834944097984E+00
Ga    1.6157006022501670E+00    4.7167561184033699E+00    5.7964244236940798E+00
N    1.6057764855712597E+00    4.7059888953311546E+00    7.7886076407514029E+00
Ga    1.5855637630679535E+00    2.8480197565203489E+00    8.4297800900955142E+00
N    1.5859520907020725E+00    2.8481625424345651E+00    1.0419638288537115E+01
Ga    1.6120206495670446E+00    4.7057961998929878E+00    1.1067343273499143E+01
N    1.6309254812773029E+00    4.7159075277507734E+00    1.3057791552722030E+01
Ga    1.5876352400835665E+00    2.8473622221167689E+00    1.3621716676151532E+01
N    1.6170465207345253E+00    2.8289823342403833E+00    1.5578013297500673E+01
Ga    1.4266941070739261E+00    4.5962880284988765E+00    1.6493319033624353E+01
N   -2.0271626405521062E-02    7.4898786781613760E+00    2.6037137272454887E+00
Ga   -1.8206010065015699E-02    5.7478459018215942E+00    3.2935326246863044E+00
N   -1.6439957220765616E-02    5.6360072222416653E+00    5.2520305666429286E+00
Ga   -1.6268495799296807E-02    7.4890552830708010E+00    5.8750133546027765E+00
N   -1.2777643252913643E-02    7.4866039068661765E+00    7.8444694538819402E+00
Ga   -1.2284163853133854E-02    5.6170892337129805E+00    8.4325465367332200E+00
N   -1.0121083626361330E-02    5.6135472798575039E+00    1.0422510703977988E+01
Ga   -9.8760877103157303E-03    7.4824572550352615E+00    1.1021813063437506E+01
N   -8.2162811687288596E-03    7.4821591190101016E+00    1.2989733878088687E+01
Ga   -8.7702380044904875E-03    5.6120452007682369E+00    1.3623169118814900E+01
N   -8.6919055806083684E-03    5.6473324696123717E+00    1.5580623594521365E+01
Ga   -9.3074931236714793E-03    7.4829419672212216E+00    1.5851727488864682E+01
N   -1.7326701856790452E+00    1.0216834466016397E+01    2.5126432741022806E+00
Ga   -1.5303170411745814E+00    8.3654098339961980E+00    3.2815168035323410E+00
N   -1.6236847081682066E+00    8.4170379933965194E+00    5.2441490839324034E+00
Ga   -1.6012418897526770E+00    1.0288673420617187E+01    5.7944724308967466E+00
N   -1.6125585412576171E+00    1.0275925498053869E+01    7.7879627293002267E+00
Ga   -1.6317573739545101E+00    8.4185172526037864E+00    8.4325144591557848E+00
N   -1.6302760154641871E+00    8.4174067507267516E+00    1.0422075626466182E+01
Ga   -1.6049679015603804E+00    1.0276459928706601E+01    1.1062826893317631E+01
N   -1.5851525885583944E+00    1.0286837375722836E+01    1.3052025040793144E+01
Ga   -1.6275839600619491E+00    8.4168746302850792E+00    1.3611072180601303E+01
N   -1.6035075432631878E+00    8.4005938412304371E+00    1.5568993029328658E+01
Ga   -1.7772001499999803E+00    1.0173551354330936E+01    1.6468084756246636E+01
N    6.4103590969332886E+00    2.0413980632415627E+00    2.5164771641093293E+00
Ga    6.4123396740738734E+00    6.1068493420908546E-02    2.8579845957247771E+00
N    6.4168630778829332E+00    5.9267024865071107E-02    5.0137294284790448E+00
Ga    6.4136415540270910E+00    1.8867200718818509E+00    5.7962404134950498E+00
N    6.4178021564456129E+00    1.9021398649260892E+00    7.7884919786110096E+00
Ga    6.4193104051136238E+00    5.6145297498179002E-02    8.4414814670763860E+00
N    6.4219993787198009E+00    5.5000897408832558E-02    1.0411291839240974E+01
Ga    6.4215220293910065E+00    1.8958577391381990E+00    1.1063892329820549E+01
N    6.4233324086591290E+00    1.8755715714800791E+00    1.3054266828963305E+01
Ga    6.4238451287340057E+00    5.5525722019807176E-02    1.3860069075278588E+01
N    6.4220776589631070E+00    5.7380690489715828E-02    1.6058995314572421E+01
Ga    6.4209616343405411E+00    2.1039965542701098E+00    1.6472463995773317E+01
Ga    6.4185959000608372E+00    3.7767339435344494E+00    1.4857874390616734E+00
N    4.9075347006348693E+00    4.6433667389333237E+00    2.5109563148153202E+00
Ga    4.6989359632942875E+00    2.7881181162571580E+00    3.2734922529201453E+00
N    4.8044939744711472E+00    2.8421230571549665E+00    5.2355606762022981E+00
Ga    4.7819834735286353E+00    4.7138212667026655E+00    5.7908725145131319E+00
N    4.8007560790164305E+00    4.7037274241989335E+00    7.7842278935039992E+00
Ga    4.8198074621552474E+00    2.8473445589779809E+00    8.4320362054725670E+00
N    4.8240041736423107E+00    2.8479107778997133E+00    1.0421348635611992E+01
Ga    4.7985013489964841E+00    4.7066590555001069E+00    1.1067066648372794E+01
N    4.7828554672389592E+00    4.7161205512321356E+00    1.3057960298967581E+01
Ga    4.8253537692832005E+00    2.8461874831162031E+00    1.3613609973433750E+01
N    4.7960444095917936E+00    2.8286323073785811E+00    1.5572198254494531E+01
Ga    4.9717957035355074E+00    4.6055765311196870E+00    1.6473415171213464E+01
N    6.4229254220134147E+00    3.7772094109694834E+00    1.7595698138732047E+01
N    3.1935625264114078E+00    7.6111618851334253E+00    2.5121749805089144E+00
Ga    3.1830969681277423E+00    5.6281070251013263E+00    2.8520366272203437E+00
N    3.1980006521388522E+00    5.6295100528341830E+00    5.0041136217833877E+00
Ga    3.2015692603134496E+00    7.4576067301650779E+00    5.7932238153080249E+00
N    3.2041519573250112E+00    7.4719941566174430E+00    7.7865789825805871E+00
Ga    3.2040628195213445E+00    5.6269360371308403E+00    8.4412715929831688E+00
N    3.2056369207380002E+00    5.6258724238962516E+00    1.0411721514024975E+01
Ga    3.2069122665691490E+00    7.4647904709151334E+00    1.1068708300999873E+01
N    3.2073222491000424E+00    7.4462553345286882E+00    1.3058458804969803E+01
Ga    3.2049508868204248E+00    5.6261601608184808E+00    1.3871345892748394E+01
N    3.2082084533038486E+00    5.6276597103790866E+00    1.6066322400964705E+01
Ga    3.2060373529319035E+00    7.6700943080774433E+00    1.6479767898585379E+01
Ga    3.1897794284520455E+00    9.3485817792118322E+00    1.4723270829586028E+00
N    1.6930790411679031E+00    1.0215009972567046E+01    2.5182607723734360E+00
Ga    1.4891519464523768E+00    8.3627417400715096E+00    3.2841218440454210E+00
N    1.5916789893808747E+00    8.4155197795694257E+00    5.2451681615593584E+00
Ga    1.5685985534529716E+00    1.0286109741500681E+01    5.7997100221172859E+00
N    1.5863592689737895E+00    1.0274450111113318E+01    7.7917663113343547E+00
Ga    1.6066679269822126E+00    8.4171261573554919E+00    8.4351878512761491E+00
N    1.6101028933030446E+00    8.4170284247868778E+00    1.0424502618814621E+01
Ga    1.5843054199603013E+00    1.0276147282463294E+01    1.1066210180017078E+01
N    1.5680086968237243E+00    1.0286511116268789E+01    1.3056239459898016E+01
Ga    1.6100749858565253E+00    8.4171254613404010E+00    1.3617160522190364E+01
N    1.5848142298325605E+00    8.4008061483011929E+00    1.5574833934193899E+01
Ga    1.7579644671644674E+00    1.0172255370063397E+01    1.6476807672156454E+01
N    3.2094074510206747E+00    9.3470732199913229E+00    1.7624607990235749E+01
N    9.6301592183476767E+00    1.9205441132231593E+00    2.6051705726938956E+00
Ga    9.6287808169135403E+00    1.7549778023839313E-01    3.2816952736159459E+00
N    9.6325663757354718E+00    6.0154504263381710E-02    5.2439430696217313E+00
Ga    9.6315024916061009E+00    1.9148118476709104E+00    5.8758893197257169E+00
N    9.6340460778150039E+00    1.9122669742774352E+00    7.8445868000553016E+00
Ga    9.6371011065583705E+00    4.4704569933762713E-02    8.4351834122787874E+00
N    9.6389894718751368E+00    4.2407759908002267E-02    1.0423946636797393E+01
Ga    9.6389311377114950E+00    1.9127965782275071E+00    1.1021627417514688E+01
N    9.6399253456479972E+00    1.9126343518395845E+00    1.2988961723008973E+01
Ga    9.6394364545326141E+00    4.4382843021493645E-02    1.3619120146613918E+01
N    9.6378221192323732E+00    7.1732495875145491E-02    1.5580445086202465E+01
Ga    9.6410623239273132E+00    1.9117643361766166E+00    1.5858419373998307E+01
N    7.9156528112361215E+00    4.6426003917557530E+00    2.5201595624119562E+00
Ga    8.1190870841709568E+00    2.7878267215932859E+00    3.2867038586882344E+00
N    8.0235094117385959E+00    2.8429864040810258E+00    5.2466090751911860E+00
Ga    8.0497128149144626E+00    4.7159059200260538E+00    5.7947951634609201E+00
N    8.0370719808619100E+00    4.7047822059495497E+00    7.7871780548921246E+00
Ga    8.0169522263178177E+00    2.8473691358078517E+00    8.4331539501828523E+00
N    8.0184982184640710E+00    2.8474653032029704E+00    1.0422339622083781E+01
Ga    8.0441349729436702E+00    4.7065042283964029E+00    1.1065551686138221E+01
N    8.0635832923022850E+00    4.7160462692703895E+00    1.3056393199542038E+01
Ga    8.0211352500494097E+00    2.8464923738928123E+00    1.3614847678467237E+01
N    8.0487745298489060E+00    2.8285234028317543E+00    1.5574694815548968E+01
Ga    7.8719376023689680E+00    4.6066827271662110E+00    1.6471469431330540E+01
N    6.4130432708347227E+00    7.4895194843715736E+00    2.5946848293509945E+00
Ga    6.4116264192064421E+00    5.7490677203067682E+00    3.2801985704266361E+00
N    6.4153389615002219E+00    5.6304562421483375E+00    5.2406148953931249E+00
Ga    6.4165380713775839E+00    7.4879072159906856E+00    5.8643516644529949E+00
N    6.4189981205174353E+00    7.4840446413424697E+00    7.8362481422406329E+00
Ga    6.4186575927608382E+00    5.6160494585874305E+00    8.4299324318077282E+00
N    6.4208147065604466E+00    5.6133774162413888E+00    1.0420914823090250E+01
Ga    6.4210753413282511E+00    7.4829257739892716E+00    1.1020149437221653E+01
N    6.4222461276807463E+00    7.4826831874172397E+00    1.2987560092423331E+01
Ga    6.4234550063899487E+00    5.6140022888725234E+00    1.3616749127089641E+01
N    6.4221552981297689E+00    5.6494597277480718E+00    1.5576759544109084E+01
Ga    6.4235812255230522E+00    7.4855672557724402E+00    1.5855163162980086E+01
N    4.6980387347917913E+00    1.0215999169817252E+01    2.5108110593167896E+00
Ga    4.9029072853039004E+00    8.3618381733373646E+00    3.2719283513782149E+00
N    4.8088847166324458E+00    8.4147176148151068E+00    5.2363571025516356E+00
Ga    4.8330489597646871E+00    1.0284680525548008E+01    5.7939664687822257E+00
N    4.8217643778316521E+00    1.0274073038228885E+01    7.7866693757282057E+00
Ga    4.8023449373359197E+00    8.4170868360120572E+00    8.4318909040718744E+00
N    4.8023228403421676E+00    8.4176114133348605E+00    1.0422103405017099E+01
Ga    4.8293629103561342E+00    1.0276190659866144E+01    1.1067049765440066E+01
N    4.8467126265733533E+00    1.0286696350232477E+01    1.3058117751767590E+01
Ga    4.8047161751311265E+00    8.4169879662532239E+00    1.3618922814679445E+01
N    4.8285348352877238E+00    8.3999471890508239E+00    1.5577252303913712E+01
Ga    4.6583144170359212E+00    1.0174866488185662E+01    1.6477525952611369E+01
O    1.9168362212605169E-01    3.4410171998545223E+00   -5.4380137777514559E-01
H    7.3896101565048111E-01    4.1489640474044371E+00   -9.3262942775635915E-01
C    7.7402778408423278E-01    2.1288688531129210E+00   -8.9129780147597892E-01
H    1.8404179394196267E+00    2.1031626896817581E+00   -6.4038694133728913E-01
H    2.3902395951331196E-01    1.3943317390960706E+00   -2.7876725458656321E-01
H    5.9302098894122435E-01    1.9512701353553810E+00   -1.9572090973437901E+00
     &END COORD
     &KIND C
       BASIS_SET DZVP-MOLOPT-SR-GTH-q4
       POTENTIAL GTH-PBE-q4
       &POTENTIAL
2 2
0.3384712400000000E+00 2 -0.8803673979999999E+01  0.1339210850000000E+01
2
0.3025757500000000E+00 1  0.9622486650000001E+01
0.2915069400000000E+00 0
       &END POTENTIAL
     &END KIND
     &KIND O
       BASIS_SET DZVP-MOLOPT-SR-GTH-q6
       POTENTIAL GTH-PBE-q6
       &POTENTIAL
2 4
0.2445543000000000E+00 2 -0.1666721480000000E+02  0.2487311320000000E+01
2
0.2209559200000000E+00 1  0.1833745811000000E+02
0.2113324700000000E+00 0
       &END POTENTIAL
     &END KIND
     &KIND H
       BASIS_SET DZVP-MOLOPT-SR-GTH-q1
       POTENTIAL GTH-PBE-q1
       &POTENTIAL
1
0.2000000000000000E+00 2 -0.4178900440000000E+01  0.7244633100000000E+00
0
       &END POTENTIAL
     &END KIND
     &KIND N
       BASIS_SET DZVP-MOLOPT-SR-GTH
       POTENTIAL GTH-PBE-q5
       &POTENTIAL
2 3
0.2837905100000000E+00 2 -0.1241522559000000E+02  0.1868095920000000E+01
2
0.2554050000000000E+00 1  0.1363026257000000E+02
0.2454945300000000E+00 0
       &END POTENTIAL
     &END KIND
     &KIND Ga
       BASIS_SET DZVP-MOLOPT-SR-GTH
       POTENTIAL GTH-PBE-q13
       &POTENTIAL
2 1 10
0.4900000000000000E+00 0
3
0.4167772300000000E+00 3  0.1047568975000000E+02 -0.4921768140000000E+01  0.8707055900000000E+00
0.7770178090000000E+01 -0.2248152160000000E+01
0.1784415450000000E+01
0.5696265200000000E+00 2  0.1777985340000000E+01  0.1958597600000000E+00
-0.2317443900000000E+00
0.2381265000000000E+00 1 -0.1624868022000000E+02
       &END POTENTIAL
     &END KIND
     &TOPOLOGY
       NUMBER_OF_ATOMS  206
       MULTIPLE_UNIT_CELL  1 1 1
     &END TOPOLOGY
   &END SUBSYS
 &END FORCE_EVAL
