 # Version information for this restart file 
 # current date 2019-06-24 16:05:35.141
 # current working dir /scratch/rzk/rzk/GaN-carbene/443-adatoms-both-2x2/02-Methanol/01-O-GaTop
 # Program compiled at                              Sun Apr  7 00:48:11 EDT 2019
 # Program compiled on                          beluga2.int.ets1.calculquebec.ca
 # Program compiled for                        Beluga-Linux-x86-64-intel-openmpi
 # Source code revision number                                         svn:18619
 &GLOBAL
   PRINT_LEVEL  MEDIUM
   PROJECT_NAME TEST
   RUN_TYPE  GEO_OPT
 &END GLOBAL
 &MOTION
   &GEO_OPT
     MAX_ITER  500
     STEP_START_VAL  71
   &END GEO_OPT
 &END MOTION
 &FORCE_EVAL
   METHOD  QS
   STRESS_TENSOR  ANALYTICAL
   &DFT
     BASIS_SET_FILE_NAME BASIS_MOLOPT
     POTENTIAL_FILE_NAME GTH_POTENTIALS
     UKS  T
     SURFACE_DIPOLE_CORRECTION  T
     SURF_DIP_DIR  Z
     &SCF
       MAX_SCF  80
       EPS_SCF     5.0000000000000004E-06
       &OT  T
         PRECONDITIONER  FULL_ALL
       &END OT
       &OUTER_SCF  T
         OPTIMIZER  NONE
         EPS_SCF     5.0000000000000004E-06
         MAX_SCF  4
       &END OUTER_SCF
       &PRINT
         &RESTART  OFF
           BACKUP_COPIES  1
           &EACH
             JUST_ENERGY  0
             QS_SCF  0
             MD  20
           &END EACH
         &END RESTART
       &END PRINT
     &END SCF
     &QS
       EPS_DEFAULT     1.0000000000000000E-14
       METHOD  GPW
     &END QS
     &MGRID
       NGRIDS  5
       CUTOFF     1.2000000000000000E+03
     &END MGRID
     &XC
       DENSITY_CUTOFF     1.0000000000000000E-10
       GRADIENT_CUTOFF     1.0000000000000000E-10
       TAU_CUTOFF     1.0000000000000000E-10
       &XC_FUNCTIONAL  NO_SHORTCUT
         &PBE  T
         &END PBE
       &END XC_FUNCTIONAL
       &VDW_POTENTIAL
         POTENTIAL_TYPE  PAIR_POTENTIAL
         &PAIR_POTENTIAL
           R_CUTOFF     1.0000000000000005E+01
           TYPE  DFTD3
           PARAMETER_FILE_NAME dftd3.dat
           REFERENCE_FUNCTIONAL PBE
           EPS_CN     9.9999999999999995E-07
           CALCULATE_C9_TERM  T
           REFERENCE_C9_TERM  T
           LONG_RANGE_CORRECTION  F
           VERBOSE_OUTPUT  F
         &END PAIR_POTENTIAL
       &END VDW_POTENTIAL
     &END XC
   &END DFT
   &SUBSYS
     &CELL
       A     1.2864472766435110E+01    0.0000000000000000E+00    0.0000000000000000E+00
       B    -6.4322363581020028E+00    1.1140960178524475E+01    0.0000000000000000E+00
       C     0.0000000000000000E+00    0.0000000000000000E+00    3.2000000000000000E+01
       MULTIPLE_UNIT_CELL  1 1 1
       &CELL_REF
         A     1.2982353780853531E+01    0.0000000000000000E+00    0.0000000000000000E+00
         B    -6.4911768904267628E+00    1.1243048175136114E+01    0.0000000000000000E+00
         C     0.0000000000000000E+00    0.0000000000000000E+00    3.2000000000000000E+01
         MULTIPLE_UNIT_CELL  1 1 1
       &END CELL_REF
     &END CELL
     &COORD
N   -3.3256560211772146E-02    2.0421771384707363E+00    2.5502194225446089E+00
Ga   -3.0820458000070227E-02    6.9498731743141473E-02    2.8872142415247017E+00
N   -2.3972466528380781E-02    5.5650618280408862E-02    5.0294645971595386E+00
Ga   -2.3877216352525241E-02    1.8837261399244045E+00    5.8179608013353130E+00
N   -2.0405295072796956E-02    1.8960011040837368E+00    7.8080124993694398E+00
Ga   -1.9215647583692742E-02    5.0195084032255990E-02    8.4577671407624297E+00
N   -2.0027842432981283E-02    4.8170597513562299E-02    1.0426509163098972E+01
Ga   -2.1306292466233116E-02    1.8887138942783914E+00    1.1081678748376541E+01
N   -2.4211996073852608E-02    1.8734142329083849E+00    1.3069807911552100E+01
Ga   -2.4953037215490539E-02    5.5022550472462808E-02    1.3883895770704624E+01
N   -2.9687371960580855E-02    6.4950850623305675E-02    1.6075733333050696E+01
Ga   -3.0802991846326840E-02    2.1218620231885947E+00    1.6490154626700910E+01
Ga   -2.9361850493757287E-02    3.7451622890521072E+00    1.5207017036691584E+00
N   -1.5143573891784430E+00    4.6264666004997794E+00    2.5121598522689013E+00
Ga   -1.7315916107355520E+00    2.7836609069172140E+00    3.3203683216649282E+00
N   -1.6362852612500405E+00    2.8399754910790174E+00    5.2753134793897134E+00
Ga   -1.6541250628398114E+00    4.7139367173721993E+00    5.8146436022725734E+00
N   -1.6392805924929685E+00    4.7020457878012571E+00    7.8062096113886454E+00
Ga   -1.6197198170325411E+00    2.8432816329378241E+00    8.4495504019877163E+00
N   -1.6186443301232154E+00    2.8423901735777997E+00    1.0436384693921717E+01
Ga   -1.6462859310922071E+00    4.7019729137824555E+00    1.1080589238080451E+01
N   -1.6654291930799956E+00    4.7147012362013143E+00    1.3069597076429007E+01
Ga   -1.6235449317348394E+00    2.8442198198709736E+00    1.3625337141040079E+01
N   -1.6561045724586434E+00    2.8320224991034184E+00    1.5580340427423975E+01
Ga   -1.4688862881748219E+00    4.6051529539169591E+00    1.6487820011425317E+01
N   -3.0505802486966424E-02    3.7830279629456434E+00    1.7610836125589817E+01
N   -3.2429063644432410E+00    7.6079103746850842E+00    2.5232948082379179E+00
Ga   -3.2327277649961168E+00    5.6244097300540448E+00    2.8547086143401068E+00
N   -3.2358759257778202E+00    5.6242300228802513E+00    5.0160740890029203E+00
Ga   -3.2384941938141782E+00    7.4533104992514660E+00    5.8029381319425495E+00
N   -3.2376355258897842E+00    7.4688145988604910E+00    7.7972038852116814E+00
Ga   -3.2381187789831443E+00    5.6244146873387209E+00    8.4556984359287206E+00
N   -3.2394049886233161E+00    5.6225883650701718E+00    1.0425678641999847E+01
Ga   -3.2388243544081354E+00    7.4602961721021677E+00    1.1085036003046440E+01
N   -3.2407524601058419E+00    7.4445054800429125E+00    1.3076267415671646E+01
Ga   -3.2439539195515086E+00    5.6221615243226921E+00    1.3889496759004683E+01
N   -3.2440860332198023E+00    5.6271956634970044E+00    1.6078534578706979E+01
Ga   -3.2447994974827470E+00    7.6678674612006468E+00    1.6491320442032652E+01
Ga   -3.2408994135920062E+00    9.3408489877916505E+00    1.4817766725106967E+00
N   -4.7475123826925500E+00    1.0217168549663187E+01    2.5203279448605698E+00
Ga   -4.9494463519735605E+00    8.3611686839621964E+00    3.2870560424950073E+00
N   -4.8478482713454758E+00    8.4120544727966333E+00    5.2505120279439934E+00
Ga   -4.8700885496565114E+00    1.0282019047463928E+01    5.8089211683369681E+00
N   -4.8530811463114469E+00    1.0269787920875476E+01    7.8012054977920009E+00
Ga   -4.8339542125928840E+00    8.4131622721433317E+00    8.4483727342802943E+00
N   -4.8332929970907914E+00    8.4129673194853822E+00    1.0437174855011415E+01
Ga   -4.8597150523775694E+00    1.0271132423553567E+01    1.1085579812465559E+01
N   -4.8779551688382892E+00    1.0284329828653123E+01    1.3075702035910068E+01
Ga   -4.8378742343877681E+00    8.4164180676760623E+00    1.3634493928363876E+01
N   -4.8653175671216244E+00    8.4094139654447240E+00    1.5596829439082391E+01
Ga   -4.6973070249208630E+00    1.0183313697557724E+01    1.6491614976561582E+01
N   -3.2436919147895167E+00    9.3478197079916487E+00    1.7636069941331652E+01
N    3.1719123471039334E+00    1.9237308635947730E+00    2.5932755284673159E+00
Ga    3.1860139615564700E+00    1.7602330542352754E-01    3.2889184588535709E+00
N    3.1921490159422961E+00    6.1473189765735972E-02    5.2501214123226703E+00
Ga    3.1941222755355656E+00    1.9118183921824503E+00    5.8970943767313511E+00
N    3.1973867328118954E+00    1.9081161267832141E+00    7.8621094931435493E+00
Ga    3.1959957947481730E+00    3.9311044691796422E-02    8.4521913940724520E+00
N    3.1954189559657462E+00    3.7423847899754899E-02    1.0438619142564034E+01
Ga    3.1964141796845000E+00    1.9078863847001242E+00    1.1039437709335607E+01
N    3.1941211661850755E+00    1.9092053050623627E+00    1.3004420505747495E+01
Ga    3.1924093455736013E+00    4.3268392557332044E-02    1.3634889312669939E+01
N    3.1876885606430356E+00    7.4403583524630251E-02    1.5597047853399024E+01
Ga    3.1890395939145937E+00    1.9171453836214194E+00    1.5875221162200610E+01
N    1.4719539238495027E+00    4.6367171377855936E+00    2.5232774179339952E+00
Ga    1.6709592618854947E+00    2.7963012044514328E+00    3.3230682339667403E+00
N    1.5890115175226152E+00    2.8393311997895720E+00    5.2747157794491750E+00
Ga    1.6069786352465425E+00    4.7139035049345761E+00    5.8155187365696825E+00
N    1.5973341206185638E+00    4.7013611648083176E+00    7.8063415705526076E+00
Ga    1.5779887759077278E+00    2.8429136535715611E+00    8.4515880262621987E+00
N    1.5768548531938285E+00    2.8420056697345859E+00    1.0437117228113701E+01
Ga    1.6034519235423652E+00    4.7019440185543031E+00    1.1081070597061364E+01
N    1.6168828401550630E+00    4.7143087412751479E+00    1.3070119441401985E+01
Ga    1.5744754654507760E+00    2.8436178230445068E+00    1.3625833425812280E+01
N    1.5981140593407090E+00    2.8308082549538449E+00    1.5581769427730549E+01
Ga    1.4086906564344808E+00    4.6050223092962028E+00    1.6486174045224992E+01
N   -2.6808339866256987E-02    7.4825515919539010E+00    2.6095076503188257E+00
Ga   -1.8407354996852834E-02    5.7375131187890149E+00    3.2953507024999342E+00
N   -2.3714968090359265E-02    5.6289332274721451E+00    5.2587540776934549E+00
Ga   -2.5008613484208016E-02    7.4824231221448878E+00    5.8864239755007892E+00
N   -2.1997429010167782E-02    7.4815887297382373E+00    7.8551350596000651E+00
Ga   -2.1120278836141183E-02    5.6137482390342681E+00    8.4504560268898476E+00
N   -2.1313753757098063E-02    5.6101833477563021E+00    1.0437283393697092E+01
Ga   -2.2555014108540227E-02    7.4803029596280872E+00    1.1036851608036374E+01
N   -2.5031774808705044E-02    7.4848911378547678E+00    1.3004100087992665E+01
Ga   -2.4692966610622501E-02    5.6129786199431875E+00    1.3623652837672555E+01
N   -2.9565401111615097E-02    5.6565044937552589E+00    1.5578854195049674E+01
Ga   -2.6751967458960576E-02    7.4901772911370026E+00    1.5866372846482255E+01
N   -1.7430809445742117E+00    1.0214838173303937E+01    2.5263676632967842E+00
Ga   -1.5363784757774299E+00    8.3574593733784290E+00    3.2886122367117445E+00
N   -1.6308644729009794E+00    8.4125657575026036E+00    5.2515155548676251E+00
Ga   -1.6081000831749359E+00    1.0283115497114213E+01    5.8062520531977322E+00
N   -1.6207236045323812E+00    1.0270667251228437E+01    7.7998299906614736E+00
Ga   -1.6400022451511549E+00    8.4138123716572437E+00    8.4476756639624639E+00
N   -1.6422737110277201E+00    8.4139756995380210E+00    1.0436458598499517E+01
Ga   -1.6149770222125956E+00    1.0272679796745752E+01    1.1082598982389698E+01
N   -1.6003254628812669E+00    1.0285817546976686E+01    1.3074778831522922E+01
Ga   -1.6451664617658464E+00    8.4177330670510511E+00    1.3631952670214641E+01
N   -1.6230850906660081E+00    8.4090530598730204E+00    1.5595881673214079E+01
Ga   -1.7902324862789318E+00    1.0184372002346496E+01    1.6493826263397768E+01
N    6.3999173149425266E+00    2.0396604077850573E+00    2.5304171710070764E+00
Ga    6.4041789355698695E+00    5.8614543531769966E-02    2.8714550260495075E+00
N    6.4080636334539705E+00    5.7087969371550758E-02    5.0245766249908259E+00
Ga    6.4056793377228853E+00    1.8854364065334184E+00    5.8095304607269957E+00
N    6.4096914067798663E+00    1.8996919201754372E+00    7.8023524148955374E+00
Ga    6.4096864840608916E+00    5.3215956919650274E-02    8.4541034403460813E+00
N    6.4099191429549256E+00    5.1543019762052229E-02    1.0424705772418253E+01
Ga    6.4109163574834822E+00    1.8911533132202989E+00    1.1085399734260184E+01
N    6.4080413683734907E+00    1.8747089497315621E+00    1.3074048385676704E+01
Ga    6.4080884858136518E+00    5.8356262459921725E-02    1.3884154305621095E+01
N    6.4067919180199011E+00    6.4729195033419840E-02    1.6086108266328559E+01
Ga    6.4034258924200982E+00    2.1205223943021245E+00    1.6511567833887554E+01
Ga    6.4072152529111683E+00    3.7741745886136924E+00    1.5004221252713523E+00
N    4.8971877414529237E+00    4.6413452670041782E+00    2.5246957529782330E+00
Ga    4.6896715460731864E+00    2.7876745224902373E+00    3.2900506735799513E+00
N    4.7944724215214904E+00    2.8397063301453263E+00    5.2500201673703195E+00
Ga    4.7773193729888597E+00    4.7115735205013225E+00    5.8094431565511258E+00
N    4.7950339394386035E+00    4.6999768289399331E+00    7.8021683949379677E+00
Ga    4.8142477444078171E+00    2.8441424459513764E+00    8.4542224021558834E+00
N    4.8157444639673272E+00    2.8439031512164292E+00    1.0440570800409377E+01
Ga    4.7891783646968511E+00    4.7030918956726326E+00    1.1087248838559670E+01
N    4.7710950950571531E+00    4.7131916840441050E+00    1.3075061217833465E+01
Ga    4.8113906533883251E+00    2.8450150079313357E+00    1.3637025663066261E+01
N    4.7778086851488313E+00    2.8312341598674609E+00    1.5592259456310885E+01
Ga    4.9654774990563100E+00    4.6029627379934608E+00    1.6505311715145240E+01
N    6.4019711630662295E+00    3.7807101588976066E+00    1.7648506590916870E+01
N    3.1866266620596782E+00    7.6096965342001637E+00    2.5330432073787081E+00
Ga    3.1749004175320934E+00    5.6267571661037712E+00    2.8858347835488618E+00
N    3.1917046023591813E+00    5.6269256568135644E+00    5.0274730958477543E+00
Ga    3.1919429866650639E+00    7.4561853254847144E+00    5.8116116081074241E+00
N    3.1952323386519255E+00    7.4694929742787908E+00    7.8034306308582462E+00
Ga    3.1970866278643331E+00    5.6232583450555786E+00    8.4559836644595379E+00
N    3.1971160417087581E+00    5.6215769142105056E+00    1.0425193451116998E+01
Ga    3.1961122079973134E+00    7.4597662649524237E+00    1.1084168533360575E+01
N    3.1926905648688848E+00    7.4442330111266122E+00    1.3073906979913934E+01
Ga    3.1947925434020745E+00    5.6220877810528114E+00    1.3888698161839793E+01
N    3.1886583376201303E+00    5.6291270437948588E+00    1.6072887868845680E+01
Ga    3.1874245223921838E+00    7.6696968893809521E+00    1.6484851816517619E+01
Ga    3.1862228326009072E+00    9.3461196152771784E+00    1.5050222267487960E+00
N    1.6857563682685270E+00    1.0211181712858968E+01    2.5333077284248513E+00
Ga    1.4783576515300341E+00    8.3568689659611231E+00    3.2985192620048229E+00
N    1.5822592094693382E+00    8.4114016864772285E+00    5.2584515562554630E+00
Ga    1.5589452154063710E+00    1.0282006381682926E+01    5.8122081458949628E+00
N    1.5766644893533586E+00    1.0270804076070496E+01    7.8046100210842697E+00
Ga    1.5957780243781503E+00    8.4137930914864825E+00    8.4500795232905439E+00
N    1.5983204105333921E+00    8.4136584035958908E+00    1.0437858052194754E+01
Ga    1.5713094019371974E+00    1.0273503913078700E+01    1.1081463513793246E+01
N    1.5516494346772316E+00    1.0285848621420820E+01    1.3072025535010219E+01
Ga    1.5958944889028137E+00    8.4174106512260636E+00    1.3627639131232813E+01
N    1.5665491887785223E+00    8.4093661941281415E+00    1.5589091528255285E+01
Ga    1.7351091885552561E+00    1.0183004456624756E+01    1.6489922812557808E+01
N    3.1850154509157522E+00    9.3463449848492690E+00    1.7634357991040030E+01
N    9.6230647127886364E+00    1.9192086588469159E+00    2.6217288839869433E+00
Ga    9.6184902803809909E+00    1.7576935055313261E-01    3.3032452482022148E+00
N    9.6236201247366910E+00    5.8368039422202617E-02    5.2627827199630968E+00
Ga    9.6213570153379333E+00    1.9131725925071912E+00    5.8957168493622394E+00
N    9.6244846509682240E+00    1.9092613580319102E+00    7.8623679296168465E+00
Ga    9.6265144523015582E+00    4.0917740765305778E-02    8.4518961439814273E+00
N    9.6267227044270438E+00    3.8226761979111103E-02    1.0438700853206575E+01
Ga    9.6252837019965440E+00    1.9094824200416074E+00    1.1037700991247307E+01
N    9.6218968341475453E+00    1.9103289449656642E+00    1.3003094728553574E+01
Ga    9.6235767814393594E+00    4.3597097626431561E-02    1.3631422122007253E+01
N    9.6211760415741985E+00    7.4756409014722733E-02    1.5591800331364219E+01
Ga    9.6192395914813869E+00    1.9160221581430874E+00    1.5871959298883000E+01
N    7.9068867217937209E+00    4.6416352098064442E+00    2.5279309680588438E+00
Ga    8.1106898968423948E+00    2.7881196944625146E+00    3.2995216628567001E+00
N    8.0156427994065105E+00    2.8412799792146402E+00    5.2593590725252373E+00
Ga    8.0426525025695721E+00    4.7141100714862807E+00    5.8067626553880496E+00
N    8.0286369460648022E+00    4.7019152287988755E+00    7.8009404949270618E+00
Ga    8.0074572579686016E+00    2.8451642840935243E+00    8.4511493234964146E+00
N    8.0056627671595564E+00    2.8446453766855155E+00    1.0438775160105724E+01
Ga    8.0329560419454751E+00    4.7031463706166052E+00    1.1086565561769655E+01
N    8.0461843037362542E+00    4.7139688905247272E+00    1.3074852865960795E+01
Ga    8.0040990191132266E+00    2.8456895622095182E+00    1.3637769043713538E+01
N    8.0304540604082408E+00    2.8326894061288272E+00    1.5593331110303431E+01
Ga    7.8412178476564849E+00    4.6030772013734271E+00    1.6507936035995751E+01
N    6.4029680960107163E+00    7.4895722168218199E+00    2.6093613290891109E+00
Ga    6.4032155564245796E+00    5.7474443455675992E+00    3.2927223473476430E+00
N    6.4082705439415699E+00    5.6288056217781088E+00    5.2534557822548145E+00
Ga    6.4098604325724367E+00    7.4842583629290429E+00    5.8846958739775141E+00
N    6.4118841217503109E+00    7.4808017810887506E+00    7.8550116727028199E+00
Ga    6.4120935429632171E+00    5.6127043562345227E+00    8.4501291941716126E+00
N    6.4112984708829641E+00    5.6095625048937796E+00    1.0438652727971601E+01
Ga    6.4122428148825446E+00    7.4789165451639494E+00    1.1040322245160013E+01
N    6.4094171786722622E+00    7.4828417376500145E+00    1.3007410817825898E+01
Ga    6.4083568516451175E+00    5.6138800535979332E+00    1.3639334825528341E+01
N    6.4057693067352997E+00    5.6558578237256949E+00    1.5594403019018262E+01
Ga    6.4044317961880184E+00    7.4893163771483433E+00    1.5875985781171657E+01
N    4.6880082206273670E+00    1.0212922257341718E+01    2.5347087048374926E+00
Ga    4.8952276117409079E+00    8.3589489403930735E+00    3.2981611273663183E+00
N    4.8011139296471690E+00    8.4115392494385794E+00    5.2588559599571569E+00
Ga    4.8239752085143275E+00    1.0281930104831828E+01    5.8137385779144850E+00
N    4.8128309749036102E+00    1.0270435114099092E+01    7.8054110783173902E+00
Ga    4.7938610997893143E+00    8.4134826563428842E+00    8.4509583514328899E+00
N    4.7922759778620811E+00    8.4127707496479704E+00    1.0438491707118827E+01
Ga    4.8181782844188499E+00    1.0272028376263391E+01    1.1084186703956048E+01
N    4.8306054085687204E+00    1.0284840223493550E+01    1.3073274966314699E+01
Ga    4.7903914043415137E+00    8.4162500427062312E+00    1.3631147040351827E+01
N    4.8114991027180789E+00    8.4100074176463053E+00    1.5591877823287030E+01
Ga    4.6380521829589840E+00    1.0182407538044698E+01    1.6488125951533295E+01
O    9.4588056491102757E-01    3.3985380812098960E+00   -3.1850320842057339E-01
H    1.7313543360861412E+00    3.9528668779510681E+00   -1.8009920494537179E-01
C    1.4096699802013886E+00    1.9989128758090697E+00   -4.6161006553935002E-01
H    2.0950595768248785E+00    1.7299824756680120E+00    3.7559351941651231E-01
H    5.0401846494976132E-01    1.3724088550120699E+00   -4.2208520040391828E-01
H    1.8892446688846294E+00    1.9012239916739875E+00   -1.4427020255997616E+00
     &END COORD
     &KIND C
       BASIS_SET DZVP-MOLOPT-SR-GTH-q4
       POTENTIAL GTH-PBE-q4
       &POTENTIAL
2 2
0.3384712400000000E+00 2 -0.8803673979999999E+01  0.1339210850000000E+01
2
0.3025757500000000E+00 1  0.9622486650000001E+01
0.2915069400000000E+00 0
       &END POTENTIAL
     &END KIND
     &KIND O
       BASIS_SET DZVP-MOLOPT-SR-GTH-q6
       POTENTIAL GTH-PBE-q6
       &POTENTIAL
2 4
0.2445543000000000E+00 2 -0.1666721480000000E+02  0.2487311320000000E+01
2
0.2209559200000000E+00 1  0.1833745811000000E+02
0.2113324700000000E+00 0
       &END POTENTIAL
     &END KIND
     &KIND H
       BASIS_SET DZVP-MOLOPT-SR-GTH-q1
       POTENTIAL GTH-PBE-q1
       &POTENTIAL
1
0.2000000000000000E+00 2 -0.4178900440000000E+01  0.7244633100000000E+00
0
       &END POTENTIAL
     &END KIND
     &KIND N
       BASIS_SET DZVP-MOLOPT-SR-GTH
       POTENTIAL GTH-PBE-q5
       &POTENTIAL
2 3
0.2837905100000000E+00 2 -0.1241522559000000E+02  0.1868095920000000E+01
2
0.2554050000000000E+00 1  0.1363026257000000E+02
0.2454945300000000E+00 0
       &END POTENTIAL
     &END KIND
     &KIND Ga
       BASIS_SET DZVP-MOLOPT-SR-GTH
       POTENTIAL GTH-PBE-q13
       &POTENTIAL
2 1 10
0.4900000000000000E+00 0
3
0.4167772300000000E+00 3  0.1047568975000000E+02 -0.4921768140000000E+01  0.8707055900000000E+00
0.7770178090000000E+01 -0.2248152160000000E+01
0.1784415450000000E+01
0.5696265200000000E+00 2  0.1777985340000000E+01  0.1958597600000000E+00
-0.2317443900000000E+00
0.2381265000000000E+00 1 -0.1624868022000000E+02
       &END POTENTIAL
     &END KIND
     &TOPOLOGY
       NUMBER_OF_ATOMS  206
       MULTIPLE_UNIT_CELL  1 1 1
     &END TOPOLOGY
   &END SUBSYS
 &END FORCE_EVAL
