 # Version information for this restart file 
 # current date 2019-06-24 17:56:00.539
 # current working dir /scratch/rzk/rzk/GaN-carbene/443-adatoms-both-2x2/02-Methanol/01-O-GaTop
 # Program compiled at                              Sun Apr  7 00:48:11 EDT 2019
 # Program compiled on                          beluga2.int.ets1.calculquebec.ca
 # Program compiled for                        Beluga-Linux-x86-64-intel-openmpi
 # Source code revision number                                         svn:18619
 &GLOBAL
   PRINT_LEVEL  MEDIUM
   PROJECT_NAME TEST
   RUN_TYPE  GEO_OPT
 &END GLOBAL
 &MOTION
   &GEO_OPT
     MAX_ITER  500
     STEP_START_VAL  86
   &END GEO_OPT
 &END MOTION
 &FORCE_EVAL
   METHOD  QS
   STRESS_TENSOR  ANALYTICAL
   &DFT
     BASIS_SET_FILE_NAME BASIS_MOLOPT
     POTENTIAL_FILE_NAME GTH_POTENTIALS
     UKS  T
     SURFACE_DIPOLE_CORRECTION  T
     SURF_DIP_DIR  Z
     &SCF
       MAX_SCF  80
       EPS_SCF     5.0000000000000004E-06
       &OT  T
         PRECONDITIONER  FULL_ALL
       &END OT
       &OUTER_SCF  T
         OPTIMIZER  NONE
         EPS_SCF     5.0000000000000004E-06
         MAX_SCF  4
       &END OUTER_SCF
       &PRINT
         &RESTART  OFF
           BACKUP_COPIES  1
           &EACH
             JUST_ENERGY  0
             QS_SCF  0
             MD  20
           &END EACH
         &END RESTART
       &END PRINT
     &END SCF
     &QS
       EPS_DEFAULT     1.0000000000000000E-14
       METHOD  GPW
     &END QS
     &MGRID
       NGRIDS  5
       CUTOFF     1.2000000000000000E+03
     &END MGRID
     &XC
       DENSITY_CUTOFF     1.0000000000000000E-10
       GRADIENT_CUTOFF     1.0000000000000000E-10
       TAU_CUTOFF     1.0000000000000000E-10
       &XC_FUNCTIONAL  NO_SHORTCUT
         &PBE  T
         &END PBE
       &END XC_FUNCTIONAL
       &VDW_POTENTIAL
         POTENTIAL_TYPE  PAIR_POTENTIAL
         &PAIR_POTENTIAL
           R_CUTOFF     1.0000000000000005E+01
           TYPE  DFTD3
           PARAMETER_FILE_NAME dftd3.dat
           REFERENCE_FUNCTIONAL PBE
           EPS_CN     9.9999999999999995E-07
           CALCULATE_C9_TERM  T
           REFERENCE_C9_TERM  T
           LONG_RANGE_CORRECTION  F
           VERBOSE_OUTPUT  F
         &END PAIR_POTENTIAL
       &END VDW_POTENTIAL
     &END XC
   &END DFT
   &SUBSYS
     &CELL
       A     1.2864472766435110E+01    0.0000000000000000E+00    0.0000000000000000E+00
       B    -6.4322363581020028E+00    1.1140960178524475E+01    0.0000000000000000E+00
       C     0.0000000000000000E+00    0.0000000000000000E+00    3.2000000000000000E+01
       MULTIPLE_UNIT_CELL  1 1 1
       &CELL_REF
         A     1.2982353780853531E+01    0.0000000000000000E+00    0.0000000000000000E+00
         B    -6.4911768904267628E+00    1.1243048175136114E+01    0.0000000000000000E+00
         C     0.0000000000000000E+00    0.0000000000000000E+00    3.2000000000000000E+01
         MULTIPLE_UNIT_CELL  1 1 1
       &END CELL_REF
     &END CELL
     &COORD
N   -2.9125936626115997E-02    2.0368483813258762E+00    2.5540214228831690E+00
Ga   -2.7934886155674878E-02    6.2841558989391519E-02    2.8849092438893824E+00
N   -2.7398213093789151E-02    5.6129374513256038E-02    5.0341834500811560E+00
Ga   -2.9541649689677641E-02    1.8842178400040652E+00    5.8173336776001356E+00
N   -2.6831785244781983E-02    1.9011499264096794E+00    7.8131630661111249E+00
Ga   -2.6463898051179553E-02    5.5078342955986244E-02    8.4562716708782499E+00
N   -2.6000374074432321E-02    5.5233709096123629E-02    1.0430623670496045E+01
Ga   -2.6758993102911004E-02    1.8963519173040608E+00    1.1077795452373120E+01
N   -2.6576189965643406E-02    1.8766506625063604E+00    1.3071807196422355E+01
Ga   -3.5311945085045045E-02    5.8464809020917059E-02    1.3868800617331820E+01
N   -3.5491220777371192E-02    5.9218611289046610E-02    1.6078863134954258E+01
Ga   -2.8155554910033628E-02    2.1048190440302945E+00    1.6494094858560647E+01
Ga   -1.8023580521027514E-02    3.7376530723667671E+00    1.5236637394221557E+00
N   -1.5095578536790797E+00    4.6221676799949929E+00    2.5116578923206934E+00
Ga   -1.7307291620236969E+00    2.7810818082782891E+00    3.3136754563564805E+00
N   -1.6394569806386077E+00    2.8403086043765469E+00    5.2744008648682810E+00
Ga   -1.6581147361739010E+00    4.7132674653981219E+00    5.8132835166282657E+00
N   -1.6442513707969120E+00    4.7050762574815304E+00    7.8108416610924323E+00
Ga   -1.6262282569665145E+00    2.8475313952465093E+00    8.4483632613194022E+00
N   -1.6236691524605689E+00    2.8476478046094078E+00    1.0441316589936058E+01
Ga   -1.6489324216139238E+00    4.7061194200258045E+00    1.1077452765903184E+01
N   -1.6654048722738846E+00    4.7149521850180616E+00    1.3071710734901179E+01
Ga   -1.6240845012368570E+00    2.8464246055404083E+00    1.3628723526893259E+01
N   -1.6492084108323211E+00    2.8313915665833473E+00    1.5590560049398917E+01
Ga   -1.4673847334540564E+00    4.5985233547587230E+00    1.6495010026104435E+01
N   -1.5460111838375645E-02    3.7730662220139655E+00    1.7627944631546331E+01
N   -3.2411802198203041E+00    7.6030793797580225E+00    2.5317010326604890E+00
Ga   -3.2346519609611653E+00    5.6209665463567964E+00    2.8512864462047820E+00
N   -3.2377966910069040E+00    5.6232048423854808E+00    5.0208371705890409E+00
Ga   -3.2419843989971162E+00    7.4528349374232690E+00    5.8035162182210467E+00
N   -3.2427774891584145E+00    7.4719548673491927E+00    7.8039299320919993E+00
Ga   -3.2435055771685275E+00    5.6271658327580001E+00    8.4544268548179957E+00
N   -3.2429215118615531E+00    5.6270020977162325E+00    1.0429602944525145E+01
Ga   -3.2426516168568744E+00    7.4655311036330083E+00    1.1078372734905805E+01
N   -3.2426548267640909E+00    7.4451296248769090E+00    1.3078511641727827E+01
Ga   -3.2449282352244935E+00    5.6156906109602343E+00    1.3869739939284973E+01
N   -3.2440799893537937E+00    5.6136466101062439E+00    1.6078353656936791E+01
Ga   -3.2435945053182071E+00    7.6191764659903303E+00    1.6449713643171069E+01
Ga   -3.2394444336485515E+00    9.3336531183401128E+00    1.4751523927030290E+00
N   -4.7463833965108755E+00    1.0211710620264631E+01    2.5275945932721133E+00
Ga   -4.9461038729312579E+00    8.3565946524762786E+00    3.2900058889134858E+00
N   -4.8515623686024076E+00    8.4111075465265888E+00    5.2573219215404574E+00
Ga   -4.8742769303619999E+00    1.0282061009291450E+01    5.8087217013814438E+00
N   -4.8596942019405569E+00    1.0274205734241425E+01    7.8069691547536246E+00
Ga   -4.8403757620068522E+00    8.4167974923363875E+00    8.4458644866286807E+00
N   -4.8388575615073268E+00    8.4182007102223153E+00    1.0442031426357952E+01
Ga   -4.8660613455862300E+00    1.0276588795761526E+01    1.1079025388322369E+01
N   -4.8832755969608144E+00    1.0286572588266967E+01    1.3078297983120271E+01
Ga   -4.8403787301840149E+00    8.4173075985047010E+00    1.3624453041370410E+01
N   -4.8588855994614200E+00    8.4080629865362049E+00    1.5600961404469958E+01
Ga   -4.7294261212105306E+00    1.0197963020011196E+01    1.6449146577752028E+01
N   -3.2368989062581277E+00    9.3385016076389817E+00    1.7569693270168749E+01
N    3.1736257761901991E+00    1.9188398069745287E+00    2.6083922652450564E+00
Ga    3.1871901366860307E+00    1.6755109547795952E-01    3.2925818524527992E+00
N    3.1887506306206101E+00    6.1418648560091570E-02    5.2578804903859711E+00
Ga    3.1919637393282945E+00    1.9116407589841762E+00    5.8973019859203051E+00
N    3.1908741414392843E+00    1.9119796144640768E+00    7.8680585789029918E+00
Ga    3.1896876027817194E+00    4.3528954814124089E-02    8.4513310658011651E+00
N    3.1898256408467938E+00    4.2488839856416556E-02    1.0445941138676901E+01
Ga    3.1901775451767342E+00    1.9132328374037790E+00    1.1037519974531946E+01
N    3.1896088537939518E+00    1.9099433504499006E+00    1.3011309729536633E+01
Ga    3.1896158907745242E+00    4.2842330932210598E-02    1.3624362172659255E+01
N    3.1877656781558206E+00    6.4113997098965939E-02    1.5600727744059240E+01
Ga    3.1908737109997634E+00    1.9144963511953876E+00    1.5874283154344392E+01
N    1.4757904114007716E+00    4.6328041314417758E+00    2.5317694335746799E+00
Ga    1.6732268990839614E+00    2.7922925821598006E+00    3.3324985792431141E+00
N    1.5857388663146301E+00    2.8396281403339350E+00    5.2840145661552285E+00
Ga    1.6036846451217450E+00    4.7157398878037045E+00    5.8172205442979008E+00
N    1.5911886378153106E+00    4.7052828279607644E+00    7.8129185673362809E+00
Ga    1.5718897115767216E+00    2.8476959958276309E+00    8.4510002432036124E+00
N    1.5714146948560546E+00    2.8481701842535525E+00    1.0444567801165290E+01
Ga    1.5977835319406986E+00    4.7073974494066873E+00    1.1082593402851510E+01
N    1.6148028347204224E+00    4.7164586705793150E+00    1.3077675242076833E+01
Ga    1.5697697356131177E+00    2.8469947503732072E+00    1.3630966775795601E+01
N    1.5961408108696364E+00    2.8246107450696529E+00    1.5593935297125306E+01
Ga    1.4281878827456771E+00    4.6088165757371398E+00    1.6492771622845559E+01
N   -2.7242803796642307E-02    7.4806485219321814E+00    2.6225061767675899E+00
Ga   -1.8265985417678612E-02    5.7340750614258216E+00    3.2980645798972490E+00
N   -2.7115980794960155E-02    5.6294920064789906E+00    5.2647807557796860E+00
Ga   -2.8245379716468531E-02    7.4828225116925795E+00    5.8879202141589468E+00
N   -2.7125962808130611E-02    7.4843772772116033E+00    7.8625223119972709E+00
Ga   -2.6900643094296191E-02    5.6168993528549249E+00    8.4510729711952575E+00
N   -2.5605401130195739E-02    5.6145286293597305E+00    1.0444581139960917E+01
Ga   -2.5906460050843759E-02    7.4838645790915308E+00    1.1036675857444287E+01
N   -2.8008107875593494E-02    7.4843961506967087E+00    1.3011103190302951E+01
Ga   -2.6688972356564446E-02    5.6124645818847965E+00    1.3630155338615333E+01
N   -3.2696984122669727E-02    5.6463039592463282E+00    1.5592737808349341E+01
Ga   -2.3748242781230874E-02    7.4823749249727012E+00    1.5875025179280739E+01
N   -1.7423311152474874E+00    1.0210420580784747E+01    2.5327260897097958E+00
Ga   -1.5386439545893622E+00    8.3558422972600042E+00    3.2942581111743450E+00
N   -1.6333662666661999E+00    8.4118947576429139E+00    5.2603317416470299E+00
Ga   -1.6111182004032838E+00    1.0283267091899445E+01    5.8079661599258010E+00
N   -1.6266874105071982E+00    1.0274173179431999E+01    7.8073013325329850E+00
Ga   -1.6452129298531484E+00    8.4175062487402972E+00    8.4471841052657890E+00
N   -1.6459149086922318E+00    8.4184065006945730E+00    1.0443590063874549E+01
Ga   -1.6183521208940759E+00    1.0277290630466505E+01    1.1079548202082588E+01
N   -1.6008740880689134E+00    1.0287379738327909E+01    1.3079574225187352E+01
Ga   -1.6453546646446249E+00    8.4176728812850179E+00    1.3624841437869765E+01
N   -1.6269887151036861E+00    8.4063052311592905E+00    1.5602647557195162E+01
Ga   -1.7500159312566055E+00    1.0202294348453842E+01    1.6448899574571264E+01
N    6.4012431866204054E+00    2.0346349583416252E+00    2.5308937487230767E+00
Ga    6.4032682839251400E+00    5.6810743781914350E-02    2.8663771245879874E+00
N    6.4048698619305275E+00    5.5698388601076787E-02    5.0313822032244166E+00
Ga    6.4029958153381754E+00    1.8842920853900200E+00    5.8069554447106544E+00
N    6.4039705719139839E+00    1.9027659995144721E+00    7.8060431492496578E+00
Ga    6.4044968736342058E+00    5.6806602760885186E-02    8.4539129499379140E+00
N    6.4054227518767712E+00    5.5969420823132963E-02    1.0429410025773294E+01
Ga    6.4063889080219880E+00    1.8964410217836736E+00    1.1078839566549977E+01
N    6.4065423122253060E+00    1.8771615219260886E+00    1.3071071787262488E+01
Ga    6.4155941168198467E+00    6.1490419249084292E-02    1.3873195380928721E+01
N    6.4172366170733541E+00    6.1773094335033127E-02    1.6078453229832871E+01
Ga    6.4074300342059347E+00    2.1203994862421749E+00    1.6514009330682129E+01
Ga    6.4108997148520688E+00    3.7703077569368078E+00    1.4766571809459914E+00
N    4.8990975475251757E+00    4.6360972220102337E+00    2.5280054392871469E+00
Ga    4.6971430580986127E+00    2.7855373696254633E+00    3.2879364198999839E+00
N    4.7915328163572877E+00    2.8385000891991119E+00    5.2545683822637015E+00
Ga    4.7740578077494069E+00    4.7106788057425089E+00    5.8074227358103698E+00
N    4.7879320206741083E+00    4.7031711941439758E+00    7.8053575260620400E+00
Ga    4.8084092160988527E+00    2.8480148751399783E+00    8.4513653849587982E+00
N    4.8086925349408336E+00    2.8483374450186791E+00    1.0444075032101276E+01
Ga    4.7832131536943860E+00    4.7074511476294880E+00    1.1082675668485203E+01
N    4.7666200624287640E+00    4.7160911409804980E+00    1.3075413559220159E+01
Ga    4.8104159527575669E+00    2.8475284196358022E+00    1.3633720366643862E+01
N    4.7808074125507760E+00    2.8253896194459647E+00    1.5591766134878178E+01
Ga    4.9708220613478380E+00    4.5975711595535733E+00    1.6513136404877848E+01
N    6.4005445122076603E+00    3.7699170796546340E+00    1.7663747054786281E+01
N    3.1879989982183559E+00    7.6056364128709610E+00    2.5387402063568358E+00
Ga    3.1817803335633954E+00    5.6234779285217593E+00    2.8867920971280316E+00
N    3.1887320978229021E+00    5.6267676852871871E+00    5.0336171260117908E+00
Ga    3.1895315709416026E+00    7.4562146996309950E+00    5.8110570258622856E+00
N    3.1895898025673639E+00    7.4724820704506465E+00    7.8079236681064339E+00
Ga    3.1908354638922161E+00    5.6270845492915793E+00    8.4571482693347608E+00
N    3.1904912005268176E+00    5.6266508294529904E+00    1.0430901202345181E+01
Ga    3.1901790928505176E+00    7.4655833941742937E+00    1.1082382041886428E+01
N    3.1903930834721779E+00    7.4461750402055156E+00    1.3076171684460643E+01
Ga    3.1928116295534315E+00    5.6264865606976757E+00    1.3888711081988923E+01
N    3.1930249115229175E+00    5.6256379953546984E+00    1.6080212964560687E+01
Ga    3.1903914299601075E+00    7.6725773210941330E+00    1.6503968740586117E+01
Ga    3.1878928831204831E+00    9.3410252447136308E+00    1.5011743065978520E+00
N    1.6863165781934983E+00    1.0207880967998268E+01    2.5362681457049687E+00
Ga    1.4807171648962210E+00    8.3555514800239035E+00    3.2997879146461542E+00
N    1.5792277100732848E+00    8.4110504781535607E+00    5.2639949746040529E+00
Ga    1.5547024139894281E+00    1.0283176624155788E+01    5.8111976646203640E+00
N    1.5711093749856169E+00    1.0274053269712585E+01    7.8089002548486199E+00
Ga    1.5910463855391797E+00    8.4175231259357055E+00    8.4490568811379188E+00
N    1.5930858198500433E+00    8.4174456002166345E+00    1.0442801603109350E+01
Ga    1.5675460453047905E+00    1.0276813449795521E+01    1.1078046348597772E+01
N    1.5516094133557627E+00    1.0286096749418688E+01    1.3071119964087456E+01
Ga    1.5943790968908091E+00    8.4189768074839400E+00    1.3632296792891857E+01
N    1.5602966876149074E+00    8.4051818193440813E+00    1.5592613499476030E+01
Ga    1.7592874811097414E+00    1.0168091274853158E+01    1.6505442285024348E+01
N    3.1905324639440003E+00    9.3291344558480311E+00    1.7646017001412634E+01
N    9.6230370901915148E+00    1.9149559680226755E+00    2.6253907362687285E+00
Ga    9.6194318061583761E+00    1.7085416801818754E-01    3.3004995686465639E+00
N    9.6205862925337389E+00    5.7806182188224114E-02    5.2646817618499044E+00
Ga    9.6185501047341262E+00    1.9134652826970009E+00    5.8909363261957539E+00
N    9.6201642164670371E+00    1.9126003535189209E+00    7.8634468065074428E+00
Ga    9.6207794911680686E+00    4.4649714317155274E-02    8.4483188149201656E+00
N    9.6219026333020619E+00    4.3024723936918120E-02    1.0440786571593586E+01
Ga    9.6215743974058334E+00    1.9128317868334990E+00    1.1034396983833300E+01
N    9.6226374328093129E+00    1.9120657244096326E+00    1.3005647909734609E+01
Ga    9.6222007554206908E+00    4.3135707055748929E-02    1.3630331918789691E+01
N    9.6234525707202714E+00    7.4076795184943797E-02    1.5589113271009708E+01
Ga    9.6214338217326780E+00    1.9114577834456492E+00    1.5868168136056818E+01
N    7.9093593521326397E+00    4.6362958967160113E+00    2.5310527217226513E+00
Ga    8.1077972729618146E+00    2.7852505146661435E+00    3.2945660598786777E+00
N    8.0129123606016588E+00    2.8394587831740741E+00    5.2604197133797301E+00
Ga    8.0398976591810172E+00    4.7121553876948408E+00    5.8035422193492590E+00
N    8.0237886550180271E+00    4.7044403308221963E+00    7.8034040934638256E+00
Ga    8.0025346228369578E+00    2.8476693442115799E+00    8.4461826478138615E+00
N    8.0025002271558030E+00    2.8476793453411613E+00    1.0439525041232679E+01
Ga    8.0273844822489426E+00    4.7059008422681563E+00    1.1077088083405625E+01
N    8.0437579955870646E+00    4.7144729309829980E+00    1.3069598028702110E+01
Ga    8.0037002094373140E+00    2.8465380333198103E+00    1.3632179810715567E+01
N    8.0317276128559669E+00    2.8310510605267738E+00    1.5590046572278043E+01
Ga    7.8317568929438268E+00    4.5905866632560084E+00    1.6514544092107361E+01
N    6.4057931532406043E+00    7.4835689420261575E+00    2.6183618893368159E+00
Ga    6.4056163001851925E+00    5.7373022344429572E+00    3.2902715870605470E+00
N    6.4056465989433180E+00    5.6277346416498020E+00    5.2571762971587486E+00
Ga    6.4069686181877286E+00    7.4827074090628889E+00    5.8837011957024403E+00
N    6.4061339695789892E+00    7.4836014365849737E+00    7.8585640655131632E+00
Ga    6.4058939830148320E+00    5.6153263001876210E+00    8.4456581519171952E+00
N    6.4053167691335311E+00    5.6141677011607278E+00    1.0440072201794933E+01
Ga    6.4060553797071238E+00    7.4829971134512698E+00    1.1035089820910768E+01
N    6.4081576550937740E+00    7.4845173512310375E+00    1.3008780261754922E+01
Ga    6.4062674947933358E+00    5.6129724068126041E+00    1.3633306729455780E+01
N    6.4111232860943703E+00    5.6478624148207031E+00    1.5590846129326451E+01
Ga    6.4034092876032114E+00    7.4809519064957612E+00    1.5873587514512858E+01
N    4.6906465562887876E+00    1.0208703402279513E+01    2.5382543699333469E+00
Ga    4.8966512580407837E+00    8.3545153613914920E+00    3.2972865165572394E+00
N    4.7993672189583894E+00    8.4106109912845728E+00    5.2619055685527947E+00
Ga    4.8206298101576825E+00    1.0281831061633364E+01    5.8113670214981390E+00
N    4.8070259123583394E+00    1.0273885012361271E+01    7.8083631832722338E+00
Ga    4.7882603445301930E+00    8.4166519456406039E+00    8.4479969359308296E+00
N    4.7869675544499914E+00    8.4171623416170505E+00    1.0441614405748332E+01
Ga    4.8114721717378739E+00    1.0276164461796450E+01    1.1077664738649826E+01
N    4.8278133294195937E+00    1.0285286136250363E+01    1.3070287609195496E+01
Ga    4.7867630711686289E+00    8.4182538985063644E+00    1.3632362666989941E+01
N    4.8200421317934907E+00    8.4062555304883553E+00    1.5592629538509664E+01
Ga    4.6201129832320351E+00    1.0167315707591930E+01    1.6504844281728420E+01
O    1.0302697450963221E+00    3.3817695579354252E+00   -2.7980411175719605E-01
H    1.8156724120697374E+00    3.9262455807786605E+00   -5.3227676414559062E-02
C    1.4991190329877102E+00    1.9809164083887663E+00   -4.2088916690920208E-01
H    2.1467449772533391E+00    1.7194902133678778E+00    4.3072229542976198E-01
H    6.0075552044678260E-01    1.3579181721479792E+00   -4.2530962546147583E-01
H    2.0280974148732929E+00    1.9027123618213764E+00   -1.3780540250126785E+00
     &END COORD
     &KIND C
       BASIS_SET DZVP-MOLOPT-SR-GTH-q4
       POTENTIAL GTH-PBE-q4
       &POTENTIAL
2 2
0.3384712400000000E+00 2 -0.8803673979999999E+01  0.1339210850000000E+01
2
0.3025757500000000E+00 1  0.9622486650000001E+01
0.2915069400000000E+00 0
       &END POTENTIAL
     &END KIND
     &KIND O
       BASIS_SET DZVP-MOLOPT-SR-GTH-q6
       POTENTIAL GTH-PBE-q6
       &POTENTIAL
2 4
0.2445543000000000E+00 2 -0.1666721480000000E+02  0.2487311320000000E+01
2
0.2209559200000000E+00 1  0.1833745811000000E+02
0.2113324700000000E+00 0
       &END POTENTIAL
     &END KIND
     &KIND H
       BASIS_SET DZVP-MOLOPT-SR-GTH-q1
       POTENTIAL GTH-PBE-q1
       &POTENTIAL
1
0.2000000000000000E+00 2 -0.4178900440000000E+01  0.7244633100000000E+00
0
       &END POTENTIAL
     &END KIND
     &KIND N
       BASIS_SET DZVP-MOLOPT-SR-GTH
       POTENTIAL GTH-PBE-q5
       &POTENTIAL
2 3
0.2837905100000000E+00 2 -0.1241522559000000E+02  0.1868095920000000E+01
2
0.2554050000000000E+00 1  0.1363026257000000E+02
0.2454945300000000E+00 0
       &END POTENTIAL
     &END KIND
     &KIND Ga
       BASIS_SET DZVP-MOLOPT-SR-GTH
       POTENTIAL GTH-PBE-q13
       &POTENTIAL
2 1 10
0.4900000000000000E+00 0
3
0.4167772300000000E+00 3  0.1047568975000000E+02 -0.4921768140000000E+01  0.8707055900000000E+00
0.7770178090000000E+01 -0.2248152160000000E+01
0.1784415450000000E+01
0.5696265200000000E+00 2  0.1777985340000000E+01  0.1958597600000000E+00
-0.2317443900000000E+00
0.2381265000000000E+00 1 -0.1624868022000000E+02
       &END POTENTIAL
     &END KIND
     &TOPOLOGY
       NUMBER_OF_ATOMS  206
       MULTIPLE_UNIT_CELL  1 1 1
     &END TOPOLOGY
   &END SUBSYS
 &END FORCE_EVAL
