 # Version information for this restart file 
 # current date 2019-06-24 10:19:42.322
 # current working dir /scratch/rzk/rzk/GaN-carbene/443-adatoms-both-2x2/02-Methanol/01-O-GaTop
 # Program compiled at                              Sun Apr  7 00:48:11 EDT 2019
 # Program compiled on                          beluga2.int.ets1.calculquebec.ca
 # Program compiled for                        Beluga-Linux-x86-64-intel-openmpi
 # Source code revision number                                         svn:18619
 &GLOBAL
   PRINT_LEVEL  MEDIUM
   PROJECT_NAME TEST
   RUN_TYPE  GEO_OPT
 &END GLOBAL
 &MOTION
   &GEO_OPT
     MAX_ITER  500
     STEP_START_VAL  9
   &END GEO_OPT
 &END MOTION
 &FORCE_EVAL
   METHOD  QS
   STRESS_TENSOR  ANALYTICAL
   &DFT
     BASIS_SET_FILE_NAME BASIS_MOLOPT
     POTENTIAL_FILE_NAME GTH_POTENTIALS
     UKS  T
     SURFACE_DIPOLE_CORRECTION  T
     SURF_DIP_DIR  Z
     &SCF
       MAX_SCF  80
       EPS_SCF     5.0000000000000004E-06
       &OT  T
         PRECONDITIONER  FULL_ALL
       &END OT
       &OUTER_SCF  T
         OPTIMIZER  NONE
         EPS_SCF     5.0000000000000004E-06
         MAX_SCF  4
       &END OUTER_SCF
       &PRINT
         &RESTART  OFF
           BACKUP_COPIES  1
           &EACH
             JUST_ENERGY  0
             QS_SCF  0
             MD  20
           &END EACH
         &END RESTART
       &END PRINT
     &END SCF
     &QS
       EPS_DEFAULT     1.0000000000000000E-14
       METHOD  GPW
     &END QS
     &MGRID
       NGRIDS  5
       CUTOFF     1.2000000000000000E+03
     &END MGRID
     &XC
       DENSITY_CUTOFF     1.0000000000000000E-10
       GRADIENT_CUTOFF     1.0000000000000000E-10
       TAU_CUTOFF     1.0000000000000000E-10
       &XC_FUNCTIONAL  NO_SHORTCUT
         &PBE  T
         &END PBE
       &END XC_FUNCTIONAL
       &VDW_POTENTIAL
         POTENTIAL_TYPE  PAIR_POTENTIAL
         &PAIR_POTENTIAL
           R_CUTOFF     1.0000000000000004E+01
           TYPE  DFTD3
           PARAMETER_FILE_NAME dftd3.dat
           REFERENCE_FUNCTIONAL PBE
           EPS_CN     9.9999999999999995E-07
           CALCULATE_C9_TERM  T
           REFERENCE_C9_TERM  T
           LONG_RANGE_CORRECTION  F
           VERBOSE_OUTPUT  F
         &END PAIR_POTENTIAL
       &END VDW_POTENTIAL
     &END XC
   &END DFT
   &SUBSYS
     &CELL
       A     1.2864472766435110E+01    0.0000000000000000E+00    0.0000000000000000E+00
       B    -6.4322363581020028E+00    1.1140960178524473E+01    0.0000000000000000E+00
       C     0.0000000000000000E+00    0.0000000000000000E+00    3.2000000000000000E+01
       MULTIPLE_UNIT_CELL  1 1 1
       &CELL_REF
         A     1.2982353780853531E+01    0.0000000000000000E+00    0.0000000000000000E+00
         B    -6.4911768904267628E+00    1.1243048175136114E+01    0.0000000000000000E+00
         C     0.0000000000000000E+00    0.0000000000000000E+00    3.2000000000000000E+01
         MULTIPLE_UNIT_CELL  1 1 1
       &END CELL_REF
     &END CELL
     &COORD
N    1.6953138179930573E-02    2.0438737341883373E+00    2.4433955940016507E+00
Ga    1.7870875311921452E-02    6.3914836395269861E-02    2.8082806030813221E+00
N    1.8694629908331567E-02    5.3167275564392200E-02    4.9580647931998190E+00
Ga    1.9517219428777016E-02    1.8805984728592389E+00    5.7504907707804769E+00
N    1.9593931779300723E-02    1.8939601809770763E+00    7.7431688678441200E+00
Ga    1.9667388573375848E-02    4.9469830875231109E-02    8.3959708309826482E+00
N    1.9815373389137154E-02    4.8500288177983894E-02    1.0366054739742580E+01
Ga    1.9679123490678234E-02    1.8874898035839605E+00    1.1023140284919345E+01
N    1.9540495466521379E-02    1.8680826511011435E+00    1.3013857254845744E+01
Ga    1.9293093817455396E-02    4.6801156773366118E-02    1.3825085048712253E+01
N    2.0942393873391470E-02    4.6591860882130499E-02    1.6017823361538920E+01
Ga    1.9148658796707834E-02    2.0862036669447748E+00    1.6433174999008816E+01
Ga    4.8292069460503812E-03    3.7742502311253912E+00    1.4686526951775860E+00
N   -1.4751421190946057E+00    4.6329936875119184E+00    2.4736590294196548E+00
Ga   -1.6877286695338134E+00    2.7835452093952897E+00    3.2468807901761552E+00
N   -1.5928673732868421E+00    2.8328714194740607E+00    5.2047349988470559E+00
Ga   -1.6126180000525383E+00    4.7055866770484984E+00    5.7533855681323898E+00
N   -1.5990814115082219E+00    4.6966836212717853E+00    7.7456616482133320E+00
Ga   -1.5781533437998860E+00    2.8397037845318138E+00    8.3893963779354213E+00
N   -1.5764788478570526E+00    2.8398126538054655E+00    1.0378817514729750E+01
Ga   -1.6031660623058761E+00    4.6982552349954805E+00    1.1023841916012882E+01
N   -1.6206275712760745E+00    4.7083207740025603E+00    1.3013804743079643E+01
Ga   -1.5780828025045206E+00    2.8396933174122951E+00    1.3573248496270393E+01
N   -1.6035058775457562E+00    2.8257057925338427E+00    1.5533473402097641E+01
Ga   -1.4277256068682231E+00    4.5971353926128060E+00    1.6433002241823896E+01
N    2.4704796893311579E-02    3.7582015888099241E+00    1.7576142887648814E+01
N   -3.1959558203019069E+00    7.6010795196643723E+00    2.4736547137027309E+00
Ga   -3.1870595149026189E+00    5.6168741453693798E+00    2.8150146811861205E+00
N   -3.1969109423758599E+00    5.6202268420008350E+00    4.9647455336311683E+00
Ga   -3.1975375988108401E+00    7.4486229590871007E+00    5.7515432003160472E+00
N   -3.1967741662267399E+00    7.4642077675298717E+00    7.7435662061723294E+00
Ga   -3.1966076243914570E+00    5.6187319103861384E+00    8.3988002881032298E+00
N   -3.1962897797881809E+00    5.6180341788822856E+00    1.0368407308492127E+01
Ga   -3.1970335829870029E+00    7.4575090612120905E+00    1.1024367466212992E+01
N   -3.1973159382699499E+00    7.4381051775531377E+00    1.3013156811088320E+01
Ga   -3.1972340758189435E+00    5.6188835768069918E+00    1.3827323305040723E+01
N   -3.1968043066017682E+00    5.6183709578855714E+00    1.6017110616777416E+01
Ga   -3.1967752352906480E+00    7.6669118784841537E+00    1.6436882519583015E+01
Ga   -3.1940515462074743E+00    9.3360349019598399E+00    1.4385217386972757E+00
N   -4.7009706454546905E+00    1.0205878127131651E+01    2.4676694097753815E+00
Ga   -4.9048537786473698E+00    8.3501351987903973E+00    3.2349028797937751E+00
N   -4.8070482955669966E+00    8.4053675213372490E+00    5.1958634561845116E+00
Ga   -4.8306951443900639E+00    1.0277408964569307E+01    5.7476575563826966E+00
N   -4.8151643479516286E+00    1.0267162743313298E+01    7.7402988141641806E+00
Ga   -4.7947520618396382E+00    8.4103385361040477E+00    8.3889909445653235E+00
N   -4.7929367230623319E+00    8.4105206040195277E+00    1.0377212108356726E+01
Ga   -4.8196402427874334E+00    1.0269338304401792E+01    1.1022480513416841E+01
N   -4.8370536715354424E+00    1.0279155166242026E+01    1.3011749879268590E+01
Ga   -4.7949386299690184E+00    8.4100679901522266E+00    1.3572726778659064E+01
N   -4.8245050895637185E+00    8.3940891510120572E+00    1.5529590340093394E+01
Ga   -4.6336480597233809E+00    1.0161250395737241E+01    1.6438655991560044E+01
N   -3.1908844122025344E+00    9.3290168881992059E+00    1.7565325422327501E+01
N    3.2303922925102415E+00    1.9108405006824636E+00    2.5457806251853774E+00
Ga    3.2335633097221268E+00    1.6887252849847964E-01    3.2360292098819374E+00
N    3.2347828119790756E+00    5.3089589685649620E-02    5.1958324864525727E+00
Ga    3.2328137788975151E+00    1.9075582792695513E+00    5.8302759021109587E+00
N    3.2355296839927057E+00    1.9050047550428602E+00    7.7981227221406906E+00
Ga    3.2348294264788828E+00    3.7121051569957535E-02    8.3896036393948421E+00
N    3.2354893509824896E+00    3.4925976861455731E-02    1.0378089083975688E+01
Ga    3.2351636547858784E+00    1.9048088958994145E+00    1.0976762863068325E+01
N    3.2344902780235456E+00    1.9050462840523370E+00    1.2943588394945362E+01
Ga    3.2346469548870203E+00    3.6203833128038168E-02    1.3573897480014745E+01
N    3.2334051525937029E+00    6.9973838981901751E-02    1.5530527179836433E+01
Ga    3.2346322569600510E+00    1.9050594183604095E+00    1.5817042828902443E+01
N    1.5067014684088498E+00    4.6300652231973727E+00    2.4572226248284816E+00
Ga    1.7213048913013242E+00    2.7830102618466031E+00    3.2380944160563430E+00
N    1.6302119863196867E+00    2.8332793953381308E+00    5.1985432106931455E+00
Ga    1.6501287411169372E+00    4.7045065391956253E+00    5.7517096340825065E+00
N    1.6374609172028751E+00    4.6961270203161565E+00    7.7441914502027238E+00
Ga    1.6174055479231713E+00    2.8393347106091227E+00    8.3891143282703684E+00
N    1.6159101973312382E+00    2.8396879604177063E+00    1.0378508665775016E+01
Ga    1.6422651955109040E+00    4.6980576936606386E+00    1.1023293181306546E+01
N    1.6591931347122710E+00    4.7079685592163072E+00    1.3013994673949187E+01
Ga    1.6170828546047786E+00    2.8389801416496114E+00    1.3574032594865253E+01
N    1.6417369845389798E+00    2.8249543394720114E+00    1.5535079067628541E+01
Ga    1.4699784068720119E+00    4.5994446675889220E+00    1.6433109950934533E+01
N    1.7879049176807254E-02    7.4754992156820448E+00    2.5510279893822840E+00
Ga    1.7063513992408331E-02    5.7358361795001640E+00    3.2532979033991429E+00
N    1.9251293820578365E-02    5.6265094826498565E+00    5.2097717100185701E+00
Ga    1.8887638509051397E-02    7.4779174016592478E+00    5.8367856171257566E+00
N    1.9203335796982475E-02    7.4769785724468383E+00    7.8031138181069064E+00
Ga    1.9369824089659014E-02    5.6067773407698249E+00    8.3901288250587562E+00
N    1.9660553112782534E-02    5.6046956469545730E+00    1.0379378466603503E+01
Ga    1.9810616681443328E-02    7.4745125074244001E+00    1.0977670810323405E+01
N    1.9791661815881795E-02    7.4742390398166281E+00    1.2945276227129060E+01
Ga    1.8927098601819754E-02    5.6056034390519072E+00    1.3573456496115051E+01
N    1.8522009784712003E-02    5.6353248103675231E+00    1.5533737526261872E+01
Ga    2.1840469283462550E-02    7.4760245599754391E+00    1.5810894878543490E+01
N   -1.6948984358333612E+00    1.0203610046169477E+01    2.4753863100630702E+00
Ga   -1.4891496993384399E+00    8.3495254761996485E+00    3.2408841816184317E+00
N   -1.5868989811988419E+00    8.4047556910244801E+00    5.2007754605029444E+00
Ga   -1.5656479079865631E+00    1.0276533979802789E+01    5.7527191741813564E+00
N   -1.5795563286337373E+00    1.0266596227115997E+01    7.7441412911867840E+00
Ga   -1.5995716810582916E+00    8.4102243303078783E+00    8.3927986175086602E+00
N   -1.6000673841943789E+00    8.4101611967245589E+00    1.0380563765414433E+01
Ga   -1.5738807179865277E+00    1.0269524967414613E+01    1.1024309090606096E+01
N   -1.5570502265982222E+00    1.0279383191386145E+01    1.3013488063810568E+01
Ga   -1.5998944153785553E+00    8.4097895806043645E+00    1.3573392027769435E+01
N   -1.5688290822671174E+00    8.3915632121212749E+00    1.5530965093098864E+01
Ga   -1.7539514328447958E+00    1.0164701583656065E+01    1.6436056644920864E+01
N    6.4505790807455687E+00    2.0312678710223913E+00    2.4752216615386242E+00
Ga    6.4501781256637081E+00    5.2410459441285154E-02    2.8183835162987285E+00
N    6.4512997320720400E+00    4.9644693152974574E-02    4.9685366602298275E+00
Ga    6.4507267579450387E+00    1.8781907054099052E+00    5.7524853938263343E+00
N    6.4514646171722676E+00    1.8940848118686615E+00    7.7437635803051466E+00
Ga    6.4512004950242314E+00    4.8502856856410148E-02    8.3976830967162783E+00
N    6.4514510319128950E+00    4.7775538143794052E-02    1.0366883606091118E+01
Ga    6.4512993111206169E+00    1.8869852501493158E+00    1.1023961592396072E+01
N    6.4510934363948316E+00    1.8677228932785541E+00    1.3013217657822977E+01
Ga    6.4520723884522093E+00    4.7500231700855572E-02    1.3827957453954360E+01
N    6.4522410719200645E+00    4.7959682224763066E-02    1.6015257281078874E+01
Ga    6.4520140729887840E+00    2.0947336866907054E+00    1.6433728254376518E+01
Ga    6.4520049758982996E+00    3.7645687061434394E+00    1.4449961049707261E+00
N    4.9467979210651114E+00    4.6325712631839080E+00    2.4719447220351061E+00
Ga    4.7399107553039732E+00    2.7787941031472538E+00    3.2377181561756569E+00
N    4.8402718485627032E+00    2.8331768906870374E+00    5.1971437874775042E+00
Ga    4.8173871060578879E+00    4.7058032993583554E+00    5.7490709809512124E+00
N    4.8330810681744936E+00    4.6959863149402574E+00    7.7414196897389509E+00
Ga    4.8530924179545982E+00    2.8392510847039514E+00    8.3897631304377533E+00
N    4.8548988838524663E+00    2.8393497664029690E+00    1.0378130147257629E+01
Ga    4.8285061682040311E+00    4.6981070265704812E+00    1.1022538543470001E+01
N    4.8112288162230765E+00    4.7084408620004474E+00    1.3011758503841293E+01
Ga    4.8530635904595751E+00    2.8393707372089509E+00    1.3573071802642300E+01
N    4.8231649909027876E+00    2.8237007360549455E+00    1.5529671956864123E+01
Ga    5.0142042252156642E+00    4.5919070846186258E+00    1.6435951606798085E+01
N    6.4573879790648379E+00    3.7580834378013659E+00    1.7561823701260973E+01
N    3.2325212650153095E+00    7.6011212482638602E+00    2.4715797337974985E+00
Ga    3.2227790702756112E+00    5.6166410996211988E+00    2.8083162665374877E+00
N    3.2329136962951486E+00    5.6193927802126122E+00    4.9599702810222546E+00
Ga    3.2350184594488680E+00    7.4478019266282001E+00    5.7494267521502040E+00
N    3.2356637594294768E+00    7.4637110404162916E+00    7.7416787460831680E+00
Ga    3.2349565851660684E+00    5.6181520143209198E+00    8.3970142018374876E+00
N    3.2352297460967510E+00    5.6176241280016042E+00    1.0366747534438291E+01
Ga    3.2360879348023377E+00    7.4574144927199439E+00    1.1022028151615602E+01
N    3.2358615049345127E+00    7.4382647201616754E+00    1.3010750630464610E+01
Ga    3.2362915349475481E+00    5.6191690137654042E+00    1.3824692806180297E+01
N    3.2376632642777179E+00    5.6178031691235901E+00    1.6017479425307567E+01
Ga    3.2355790884738420E+00    7.6622775943874499E+00    1.6434607356506397E+01
Ga    3.2311199783957236E+00    9.3374390085712538E+00    1.4418777039770745E+00
N    1.7317868991245198E+00    1.0203660170036326E+01    2.4758133412967882E+00
Ga    1.5247912483841188E+00    8.3490397573008917E+00    3.2403449575653194E+00
N    1.6246546500002268E+00    8.4046902462984043E+00    5.1999536303260490E+00
Ga    1.6033997489513452E+00    1.0276177667551996E+01    5.7534249020183523E+00
N    1.6180656439337207E+00    1.0266615790743865E+01    7.7445795874065126E+00
Ga    1.6382176410016438E+00    8.4098383985369178E+00    8.3914118322906912E+00
N    1.6392866151273806E+00    8.4099920819942593E+00    1.0378776479699736E+01
Ga    1.6126628201457036E+00    1.0269235132315096E+01    1.1022797921718782E+01
N    1.5954410649625110E+00    1.0279100040912679E+01    1.3011040846077780E+01
Ga    1.6387159350844025E+00    8.4103071572963550E+00    1.3572190176561129E+01
N    1.6129832354674969E+00    8.3958753396187511E+00    1.5529962443503972E+01
Ga    1.7923302953285158E+00    1.0165655965147405E+01    1.6433569368989268E+01
N    3.2406708924220178E+00    9.3296696651138245E+00    1.7577958030413125E+01
N    9.6698557429587417E+00    1.9110695171600294E+00    2.5512770646052960E+00
Ga    9.6670872898315281E+00    1.6914322157619477E-01    3.2388838138532372E+00
N    9.6674057443257109E+00    5.2686346672025985E-02    5.1983344883446625E+00
Ga    9.6682080237434462E+00    1.9070819770770002E+00    5.8338240457672637E+00
N    9.6672245515198956E+00    1.9050282872870998E+00    7.8008669458043878E+00
Ga    9.6684016684961822E+00    3.6739834613221820E-02    8.3900366795123222E+00
N    9.6682553316688367E+00    3.4785373191904834E-02    1.0377952550933633E+01
Ga    9.6688285250688644E+00    1.9048153849125649E+00    1.0977025919114501E+01
N    9.6687767108648295E+00    1.9047030272880998E+00    1.2944575630407394E+01
Ga    9.6676846915581294E+00    3.4973247470301179E-02    1.3572258122148048E+01
N    9.6675134612781690E+00    6.4904174745962329E-02    1.5529929913695305E+01
Ga    9.6687047616888808E+00    1.9027165793775942E+00    1.5811032000813590E+01
N    7.9537052838600930E+00    4.6324021090834453E+00    2.4751677843048108E+00
Ga    8.1599726656272349E+00    2.7790053629262212E+00    3.2409890857850865E+00
N    8.0613088124990089E+00    2.8334318285331026E+00    5.2003645866679316E+00
Ga    8.0838993118630196E+00    4.7060575110106155E+00    5.7518151770529036E+00
N    8.0697711370192717E+00    4.6959821448648063E+00    7.7436647308084279E+00
Ga    8.0493089977460279E+00    2.8393979285727982E+00    8.3915881356941977E+00
N    8.0484169090154474E+00    2.8393938996229044E+00    1.0379796226560021E+01
Ga    8.0749063545466093E+00    4.6985899503449513E+00    1.1024038212511210E+01
N    8.0916390122943458E+00    4.7088792079495310E+00    1.3012934436522237E+01
Ga    8.0489109316905125E+00    2.8395062177430908E+00    1.3572537659947283E+01
N    8.0804464550921864E+00    2.8220469551385894E+00    1.5530024261546727E+01
Ga    7.8949310413670046E+00    4.5951190896831440E+00    1.6434449320487342E+01
N    6.4509012595029258E+00    7.4790382992136957E+00    2.5495361527479785E+00
Ga    6.4506339200907501E+00    5.7381713339132743E+00    3.2381024834177965E+00
N    6.4507052263528344E+00    5.6220106313183589E+00    5.1979344109985925E+00
Ga    6.4513848197580792E+00    7.4773751550282892E+00    5.8278209783849837E+00
N    6.4520045402787476E+00    7.4753889961865951E+00    7.7958411090313620E+00
Ga    6.4513410762193129E+00    5.6066569823074843E+00    8.3893137022545261E+00
N    6.4516985128667903E+00    5.6047635745987314E+00    1.0377483035860475E+01
Ga    6.4519188918052786E+00    7.4753432202405437E+00    1.0975730761724119E+01
N    6.4512981424706535E+00    7.4754963686870957E+00    1.2941972856485940E+01
Ga    6.4510616128516922E+00    5.6067479430404044E+00    1.3571968810684966E+01
N    6.4501452429420842E+00    5.6410420528731917E+00    1.5528810980449277E+01
Ga    6.4492970238908196E+00    7.4771337965074700E+00    1.5813236062811660E+01
N    4.7368396193922973E+00    1.0205474537021120E+01    2.4688555436080675E+00
Ga    4.9425482192753627E+00    8.3495001362687606E+00    3.2350273476451941E+00
N    4.8448353894705951E+00    8.4048986455076324E+00    5.1955643945941326E+00
Ga    4.8686965334060606E+00    1.0277166831302573E+01    5.7482883168750227E+00
N    4.8541841205183074E+00    1.0267021720597826E+01    7.7406478786140376E+00
Ga    4.8340476090081870E+00    8.4097505361232603E+00    8.3877570786471090E+00
N    4.8323594608548133E+00    8.4102445092413376E+00    1.0375892443145812E+01
Ga    4.8591163116310421E+00    1.0269068480376077E+01    1.1021669887222593E+01
N    4.8756971955214174E+00    1.0278814526908182E+01    1.3010545688157926E+01
Ga    4.8327598429947285E+00    8.4100308393858416E+00    1.3572002134113076E+01
N    4.8576590225310712E+00    8.3958889655308013E+00    1.5530795266620542E+01
Ga    4.6821979943841177E+00    1.0167695868894516E+01    1.6434815160830063E+01
O   -2.3439276961951530E-01    3.8001858886449025E+00   -6.0638923819312818E-01
H   -1.8148569058147895E-01    4.6688707481842808E+00   -1.0449120331344002E+00
C    2.2571796536355184E-02    2.6975219173935137E+00   -1.5319504962813824E+00
H    9.0717814400074936E-01    2.9116753224774334E+00   -2.1416813959825864E+00
H    2.0102085647072829E-01    1.8132921286699590E+00   -9.0871584517761261E-01
H   -8.6466115012192879E-01    2.5434978752543249E+00   -2.1580918153776194E+00
     &END COORD
     &KIND C
       BASIS_SET DZVP-MOLOPT-SR-GTH-q4
       POTENTIAL GTH-PBE-q4
       &POTENTIAL
 2 2
  0.3384712400000000E+00 2 -0.8803673979999999E+01  0.1339210850000000E+01
 2
  0.3025757500000000E+00 1  0.9622486650000001E+01
  0.2915069400000000E+00 0
         # Potential name:  GTH-PBE-Q4  for symbol:  C
         # Potential read from the potential filename: GTH_POTENTIALS
       &END POTENTIAL
     &END KIND
     &KIND O
       BASIS_SET DZVP-MOLOPT-SR-GTH-q6
       POTENTIAL GTH-PBE-q6
       &POTENTIAL
 2 4
  0.2445543000000000E+00 2 -0.1666721480000000E+02  0.2487311320000000E+01
 2
  0.2209559200000000E+00 1  0.1833745811000000E+02
  0.2113324700000000E+00 0
         # Potential name:  GTH-PBE-Q6  for symbol:  O
         # Potential read from the potential filename: GTH_POTENTIALS
       &END POTENTIAL
     &END KIND
     &KIND H
       BASIS_SET DZVP-MOLOPT-SR-GTH-q1
       POTENTIAL GTH-PBE-q1
       &POTENTIAL
 1
  0.2000000000000000E+00 2 -0.4178900440000000E+01  0.7244633100000000E+00
 0
         # Potential name:  GTH-PBE-Q1  for symbol:  H
         # Potential read from the potential filename: GTH_POTENTIALS
       &END POTENTIAL
     &END KIND
     &KIND N
       BASIS_SET DZVP-MOLOPT-SR-GTH
       POTENTIAL GTH-PBE-q5
       &POTENTIAL
 2 3
  0.2837905100000000E+00 2 -0.1241522559000000E+02  0.1868095920000000E+01
 2
  0.2554050000000000E+00 1  0.1363026257000000E+02
  0.2454945300000000E+00 0
         # Potential name:  GTH-PBE-Q5  for symbol:  N
         # Potential read from the potential filename: GTH_POTENTIALS
       &END POTENTIAL
     &END KIND
     &KIND Ga
       BASIS_SET DZVP-MOLOPT-SR-GTH
       POTENTIAL GTH-PBE-q13
       &POTENTIAL
 2 1 10
  0.4900000000000000E+00 0
 3
  0.4167772300000000E+00 3  0.1047568975000000E+02 -0.4921768140000000E+01  0.8707055900000000E+00
  0.7770178090000000E+01 -0.2248152160000000E+01
  0.1784415450000000E+01
  0.5696265200000000E+00 2  0.1777985340000000E+01  0.1958597600000000E+00
 -0.2317443900000000E+00
  0.2381265000000000E+00 1 -0.1624868022000000E+02
         # Potential name:  GTH-PBE-Q13  for symbol:  GA
         # Potential read from the potential filename: GTH_POTENTIALS
       &END POTENTIAL
     &END KIND
     &TOPOLOGY
       NUMBER_OF_ATOMS  206
       MULTIPLE_UNIT_CELL  1 1 1
     &END TOPOLOGY
   &END SUBSYS
 &END FORCE_EVAL
