 # Version information for this restart file 
 # current date 2019-06-24 17:52:16.432
 # current working dir /scratch/rzk/rzk/GaN-carbene/443-adatoms-both-2x2/02-Methanol/01-O-GaTop
 # Program compiled at                              Sun Apr  7 00:48:11 EDT 2019
 # Program compiled on                          beluga2.int.ets1.calculquebec.ca
 # Program compiled for                        Beluga-Linux-x86-64-intel-openmpi
 # Source code revision number                                         svn:18619
 &GLOBAL
   PRINT_LEVEL  MEDIUM
   PROJECT_NAME TEST
   RUN_TYPE  GEO_OPT
 &END GLOBAL
 &MOTION
   &GEO_OPT
     MAX_ITER  500
     STEP_START_VAL  85
   &END GEO_OPT
 &END MOTION
 &FORCE_EVAL
   METHOD  QS
   STRESS_TENSOR  ANALYTICAL
   &DFT
     BASIS_SET_FILE_NAME BASIS_MOLOPT
     POTENTIAL_FILE_NAME GTH_POTENTIALS
     UKS  T
     SURFACE_DIPOLE_CORRECTION  T
     SURF_DIP_DIR  Z
     &SCF
       MAX_SCF  80
       EPS_SCF     5.0000000000000004E-06
       &OT  T
         PRECONDITIONER  FULL_ALL
       &END OT
       &OUTER_SCF  T
         OPTIMIZER  NONE
         EPS_SCF     5.0000000000000004E-06
         MAX_SCF  4
       &END OUTER_SCF
       &PRINT
         &RESTART  OFF
           BACKUP_COPIES  1
           &EACH
             JUST_ENERGY  0
             QS_SCF  0
             MD  20
           &END EACH
         &END RESTART
       &END PRINT
     &END SCF
     &QS
       EPS_DEFAULT     1.0000000000000000E-14
       METHOD  GPW
     &END QS
     &MGRID
       NGRIDS  5
       CUTOFF     1.2000000000000000E+03
     &END MGRID
     &XC
       DENSITY_CUTOFF     1.0000000000000000E-10
       GRADIENT_CUTOFF     1.0000000000000000E-10
       TAU_CUTOFF     1.0000000000000000E-10
       &XC_FUNCTIONAL  NO_SHORTCUT
         &PBE  T
         &END PBE
       &END XC_FUNCTIONAL
       &VDW_POTENTIAL
         POTENTIAL_TYPE  PAIR_POTENTIAL
         &PAIR_POTENTIAL
           R_CUTOFF     1.0000000000000005E+01
           TYPE  DFTD3
           PARAMETER_FILE_NAME dftd3.dat
           REFERENCE_FUNCTIONAL PBE
           EPS_CN     9.9999999999999995E-07
           CALCULATE_C9_TERM  T
           REFERENCE_C9_TERM  T
           LONG_RANGE_CORRECTION  F
           VERBOSE_OUTPUT  F
         &END PAIR_POTENTIAL
       &END VDW_POTENTIAL
     &END XC
   &END DFT
   &SUBSYS
     &CELL
       A     1.2864472766435110E+01    0.0000000000000000E+00    0.0000000000000000E+00
       B    -6.4322363581020028E+00    1.1140960178524475E+01    0.0000000000000000E+00
       C     0.0000000000000000E+00    0.0000000000000000E+00    3.2000000000000000E+01
       MULTIPLE_UNIT_CELL  1 1 1
       &CELL_REF
         A     1.2982353780853531E+01    0.0000000000000000E+00    0.0000000000000000E+00
         B    -6.4911768904267628E+00    1.1243048175136114E+01    0.0000000000000000E+00
         C     0.0000000000000000E+00    0.0000000000000000E+00    3.2000000000000000E+01
         MULTIPLE_UNIT_CELL  1 1 1
       &END CELL_REF
     &END CELL
     &COORD
N   -2.9045624345766494E-02    2.0369137911042348E+00    2.5526866829361277E+00
Ga   -2.8062578281206955E-02    6.3416669926804656E-02    2.8848580272932449E+00
N   -2.7016659534351343E-02    5.6070352008380189E-02    5.0334109707404355E+00
Ga   -2.9029288254635310E-02    1.8841404203871266E+00    5.8171348123910382E+00
N   -2.6398164388145590E-02    1.9008831908402399E+00    7.8126221033696011E+00
Ga   -2.5991071457228912E-02    5.4901700523631261E-02    8.4566068737440947E+00
N   -2.5406000543278989E-02    5.4684696669223133E-02    1.0430526606895990E+01
Ga   -2.6313344099067895E-02    1.8956730983405503E+00    1.1077995030266855E+01
N   -2.6104062703138552E-02    1.8761220723637373E+00    1.3071496499055854E+01
Ga   -3.4869579661601702E-02    5.8021606520553777E-02    1.3869980359261378E+01
N   -3.3725978612101845E-02    5.9129932561306844E-02    1.6077775872401570E+01
Ga   -2.7586478588724119E-02    2.1052506542399430E+00    1.6494565181782367E+01
Ga   -1.9324812360054677E-02    3.7384662215721711E+00    1.5233334941933163E+00
N   -1.5102311816064524E+00    4.6227184724714805E+00    2.5114979873604577E+00
Ga   -1.7303956316922766E+00    2.7812532707240085E+00    3.3134340573082985E+00
N   -1.6392333812598754E+00    2.8400955108711496E+00    5.2739218580052114E+00
Ga   -1.6578685167881007E+00    4.7132255740437117E+00    5.8128755581388027E+00
N   -1.6439103989051815E+00    4.7049295145257650E+00    7.8100448650861249E+00
Ga   -1.6257610623761318E+00    2.8474045648625834E+00    8.4485175379427950E+00
N   -1.6231608693985351E+00    2.8474226974988897E+00    1.0441128182983936E+01
Ga   -1.6486052530238182E+00    4.7060844095100576E+00    1.1077189570898737E+01
N   -1.6653282190088483E+00    4.7149370380054467E+00    1.3071189802815397E+01
Ga   -1.6234866136156976E+00    2.8462753003764032E+00    1.3627785738598773E+01
N   -1.6488149535963197E+00    2.8317017051578142E+00    1.5589979349745731E+01
Ga   -1.4671274637554845E+00    4.5996313257160422E+00    1.6495471487932388E+01
N   -1.6418648735727279E-02    3.7729971700131117E+00    1.7625322281455183E+01
N   -3.2411288587148595E+00    7.6030198206665149E+00    2.5308294149501078E+00
Ga   -3.2346850493607668E+00    5.6208116181993368E+00    2.8509771635040253E+00
N   -3.2375951244466776E+00    5.6232694659954552E+00    5.0198584098799754E+00
Ga   -3.2417697360409163E+00    7.4527529522265423E+00    5.8032611798574401E+00
N   -3.2423743963926013E+00    7.4717508475528485E+00    7.8033630763222996E+00
Ga   -3.2430757967584296E+00    5.6269766271401043E+00    8.4545950066338484E+00
N   -3.2425468867393303E+00    5.6271683054483468E+00    1.0429540422434357E+01
Ga   -3.2421456423585058E+00    7.4653663825962804E+00    1.1079415329316525E+01
N   -3.2426845620431877E+00    7.4454551326202472E+00    1.3078984261484436E+01
Ga   -3.2445914678443843E+00    5.6161180882561421E+00    1.3870600640765234E+01
N   -3.2443205810212996E+00    5.6146786989834689E+00    1.6076773274589076E+01
Ga   -3.2433892363347674E+00    7.6230972265568120E+00    1.6451447366018979E+01
Ga   -3.2395069677586537E+00    9.3339929691689019E+00    1.4763948318228426E+00
N   -4.7464861181880007E+00    1.0212079636736556E+01    2.5269229055341125E+00
Ga   -4.9462111046112822E+00    8.3566653839101583E+00    3.2896810009829447E+00
N   -4.8514688588849628E+00    8.4111241680800308E+00    5.2568197024769709E+00
Ga   -4.8739534464003968E+00    1.0282089421177783E+01    5.8087420004689818E+00
N   -4.8592576353953350E+00    1.0274026869492696E+01    7.8067112054770540E+00
Ga   -4.8397893822220022E+00    8.4166393791828025E+00    8.4465455303886277E+00
N   -4.8382634285709258E+00    8.4181777180889679E+00    1.0442437571746204E+01
Ga   -4.8657293709610414E+00    1.0276557051411922E+01    1.1080427004353700E+01
N   -4.8828900401713957E+00    1.0286311523256874E+01    1.3078865032656790E+01
Ga   -4.8402516761547369E+00    8.4174664817900755E+00    1.3624617010933314E+01
N   -4.8596238479758824E+00    8.4086366074189378E+00    1.5600302550998032E+01
Ga   -4.7260537954161590E+00    1.0197191882962960E+01    1.6450797696749895E+01
N   -3.2375719414860136E+00    9.3383854471465337E+00    1.7574638960623293E+01
N    3.1737223733677142E+00    1.9190341860672522E+00    2.6067218633927629E+00
Ga    3.1872091787284114E+00    1.6836905416303619E-01    3.2924798313188615E+00
N    3.1891055254827134E+00    6.1609065324880377E-02    5.2575421521377752E+00
Ga    3.1922126497754655E+00    1.9118329411431825E+00    5.8975142501196451E+00
N    3.1914196936297055E+00    1.9118225952790286E+00    7.8679600447731559E+00
Ga    3.1902007923398270E+00    4.3341951759056647E-02    8.4518707538523259E+00
N    3.1903122762298111E+00    4.1955437130058920E-02    1.0446066158925376E+01
Ga    3.1905144542681256E+00    1.9127530605174863E+00    1.1037823855182952E+01
N    3.1900401041753548E+00    1.9095357763700842E+00    1.3010783347092532E+01
Ga    3.1897557317040079E+00    4.2575666836645876E-02    1.3624082457928559E+01
N    3.1879094520515276E+00    6.4972850207228039E-02    1.5598937563330075E+01
Ga    3.1906596107486282E+00    1.9146403987451790E+00    1.5873246776982919E+01
N    1.4757178997528493E+00    4.6328915103207038E+00    2.5303462407539445E+00
Ga    1.6732173208933325E+00    2.7922526638553871E+00    3.3312933454549722E+00
N    1.5861935797672420E+00    2.8395110209744296E+00    5.2831414275484807E+00
Ga    1.6041332268461699E+00    4.7155443252389411E+00    5.8169117040600860E+00
N    1.5916764087359887E+00    4.7051075066905810E+00    7.8123163774810696E+00
Ga    1.5723132906371207E+00    2.8474951839995928E+00    8.4512567194395523E+00
N    1.5718521751180383E+00    2.8479132519987398E+00    1.0444281455022244E+01
Ga    1.5981847360735058E+00    4.7072651885731762E+00    1.1082285759623506E+01
N    1.6154291056862178E+00    4.7163166607647238E+00    1.3076851548599114E+01
Ga    1.5701470334091074E+00    2.8468255348489349E+00    1.3629931761717367E+01
N    1.5963135339939096E+00    2.8254108727207798E+00    1.5592556855722870E+01
Ga    1.4269899532710062E+00    4.6086849237702650E+00    1.6492783224537710E+01
N   -2.7116029475176082E-02    7.4804764317131287E+00    2.6206938411263634E+00
Ga   -1.8279222315346840E-02    5.7340320878975088E+00    3.2975199530925234E+00
N   -2.6721525550193123E-02    5.6294663760210595E+00    5.2641507995799905E+00
Ga   -2.7941210592724877E-02    7.4826484602962484E+00    5.8878193154300549E+00
N   -2.6704363911244304E-02    7.4842471816447773E+00    7.8620411907595003E+00
Ga   -2.6514258149551807E-02    5.6167088116602661E+00    8.4509638967345833E+00
N   -2.5163292444270208E-02    5.6144955403054819E+00    1.0443906387117266E+01
Ga   -2.5545074741430019E-02    7.4838202471975261E+00    1.1036512675949959E+01
N   -2.7515441772184030E-02    7.4849971248393343E+00    1.3010431488831609E+01
Ga   -2.6222912276765417E-02    5.6125643806792507E+00    1.3628585174217298E+01
N   -3.1955675909604769E-02    5.6465986674357422E+00    1.5590635921012812E+01
Ga   -2.3520824721568325E-02    7.4826011479497589E+00    1.5873552764077935E+01
N   -1.7420581407489111E+00    1.0210707754470921E+01    2.5321129213809939E+00
Ga   -1.5382451974283733E+00    8.3555848311251246E+00    3.2936657347754017E+00
N   -1.6329948253000668E+00    8.4118102646371025E+00    5.2596189168716556E+00
Ga   -1.6107548967983616E+00    1.0283248131359393E+01    5.8077699743011877E+00
N   -1.6261268710198644E+00    1.0274076669807615E+01    7.8068156707124343E+00
Ga   -1.6447805760922833E+00    8.4173045074629176E+00    8.4474190960434932E+00
N   -1.6456253026231729E+00    8.4183850653404360E+00    1.0443409466803104E+01
Ga   -1.6179127565405911E+00    1.0277061885589985E+01    1.1080399660792027E+01
N   -1.6008379792005694E+00    1.0287361397112047E+01    1.3079870744644042E+01
Ga   -1.6453317906087268E+00    8.4178291420479034E+00    1.3624361857026120E+01
N   -1.6260584636187441E+00    8.4070861706563811E+00    1.5601426790973818E+01
Ga   -1.7537745167273469E+00    1.0201137316801590E+01    1.6451045103156133E+01
N    6.4013280376071133E+00    2.0351508730134134E+00    2.5302658486861689E+00
Ga    6.4036453130501085E+00    5.7185870055971734E-02    2.8662369211481225E+00
N    6.4051690044871599E+00    5.5786185727338934E-02    5.0304605412716370E+00
Ga    6.4033664786502289E+00    1.8844986896541487E+00    5.8066064052942590E+00
N    6.4044701485705327E+00    1.9026028860646511E+00    7.8055031534127881E+00
Ga    6.4050025264225940E+00    5.6750634356142297E-02    8.4540543117853275E+00
N    6.4056889786086684E+00    5.5510356443107034E-02    1.0429385357627581E+01
Ga    6.4067337256867001E+00    1.8957964426333818E+00    1.1079566087526516E+01
N    6.4065505526333340E+00    1.8767838730964015E+00    1.3071523417043815E+01
Ga    6.4154268644988868E+00    6.0906277282509289E-02    1.3873688255065113E+01
N    6.4154911725396486E+00    6.1858162471921385E-02    1.6077785361778655E+01
Ga    6.4070364143182470E+00    2.1199006998071117E+00    1.6514370090753399E+01
Ga    6.4109355929440470E+00    3.7704760365493999E+00    1.4779151179154979E+00
N    4.8993420737515452E+00    4.6360889766090239E+00    2.5271730413501916E+00
Ga    4.6966302767758048E+00    2.7854165152148633E+00    3.2877765775310799E+00
N    4.7917372342816025E+00    2.8385561016068115E+00    5.2541404370003706E+00
Ga    4.7744000525572412E+00    4.7108119701341717E+00    5.8071651963804021E+00
N    4.7884483676781828E+00    4.7031182409574157E+00    7.8049622663881983E+00
Ga    4.8090088328231397E+00    2.8479253289395992E+00    8.4517981664740223E+00
N    4.8091555282742711E+00    2.8480993181933725E+00    1.0444295645834357E+01
Ga    4.7833953422942290E+00    4.7073675636704388E+00    1.1083417980202388E+01
N    4.7668381161960385E+00    4.7160461951997652E+00    1.3075652826306808E+01
Ga    4.8103268660643552E+00    2.8474015688212537E+00    1.3633449962091417E+01
N    4.7806332015512032E+00    2.8259138584379051E+00    1.5591322882599524E+01
Ga    4.9708004429615871E+00    4.5982429982776667E+00    1.6512502029687511E+01
N    6.4008200746064068E+00    3.7700902075877902E+00    1.7661672351632802E+01
N    3.1880898723520463E+00    7.6058423604425300E+00    2.5380773797464751E+00
Ga    3.1816081063395525E+00    5.6233408517447305E+00    2.8859852040926013E+00
N    3.1890041156638564E+00    5.6266712419889693E+00    5.0326183193332259E+00
Ga    3.1899493549121822E+00    7.4559701696783911E+00    5.8109188834912873E+00
N    3.1900258336840142E+00    7.4723530750137668E+00    7.8074887975141340E+00
Ga    3.1913508955686054E+00    5.6268827707354063E+00    8.4571320859837353E+00
N    3.1909513660449527E+00    5.6265878142106303E+00    1.0430620905040367E+01
Ga    3.1904429462969803E+00    7.4653131655627956E+00    1.1082932695763281E+01
N    3.1908811935217964E+00    7.4461643696366409E+00    1.3076284001800897E+01
Ga    3.1928338364238229E+00    5.6264743889215545E+00    1.3888840294347094E+01
N    3.1931593800519016E+00    5.6245169987902504E+00    1.6078699150224836E+01
Ga    3.1905277362097713E+00    7.6707964609862644E+00    1.6502167310833528E+01
Ga    3.1880573709745548E+00    9.3412022113754745E+00    1.5016780235332539E+00
N    1.6865902537972082E+00    1.0207975797417335E+01    2.5357899027251563E+00
Ga    1.4804306765072359E+00    8.3553571067220460E+00    3.2993941795947106E+00
N    1.5794890224468761E+00    8.4109755713423624E+00    5.2634674217721900E+00
Ga    1.5550091643072206E+00    1.0283242253635786E+01    5.8110230555597715E+00
N    1.5715707483211117E+00    1.0273970802750130E+01    7.8083976231376573E+00
Ga    1.5914264016714759E+00    8.4173750772002336E+00    8.4491431987051850E+00
N    1.5935553900622295E+00    8.4174015092023762E+00    1.0442449781651746E+01
Ga    1.5677135375701106E+00    1.0276632280141911E+01    1.1078622229570161E+01
N    1.5517860963360153E+00    1.0285945780522411E+01    1.3071469674403485E+01
Ga    1.5950717117204927E+00    8.4189575335075819E+00    1.3631852359977460E+01
N    1.5611977957872774E+00    8.4059886801747012E+00    1.5593137535764198E+01
Ga    1.7570251599863198E+00    1.0169952814087265E+01    1.6504338518583612E+01
N    3.1904226970586254E+00    9.3295378064697960E+00    1.7641532745472663E+01
N    9.6233908879382852E+00    1.9153095261929007E+00    2.6241922108100164E+00
Ga    9.6196080136891613E+00    1.7155301259166145E-01    3.3003687374284980E+00
N    9.6209344127262852E+00    5.8042983151390087E-02    5.2643537862590986E+00
Ga    9.6188160894163062E+00    1.9136322199651219E+00    5.8913359690079883E+00
N    9.6205191570752362E+00    1.9124600641192875E+00    7.8634305136292033E+00
Ga    9.6211781970545154E+00    4.4573045138954229E-02    8.4487582061349755E+00
N    9.6222360289618578E+00    4.2389729753499049E-02    1.0440892677757873E+01
Ga    9.6220508920652534E+00    1.9123992995510983E+00    1.1034212813087583E+01
N    9.6228017883517776E+00    1.9114101598730215E+00    1.3005306873881821E+01
Ga    9.6226098707503418E+00    4.2376626621841815E-02    1.3629980414354925E+01
N    9.6236992075612413E+00    7.3386505373484720E-02    1.5589327260291054E+01
Ga    9.6219257554724305E+00    1.9114304791349659E+00    1.5867582376041000E+01
N    7.9091584825240906E+00    4.6364178784844965E+00    2.5302452468581675E+00
Ga    8.1083630345312514E+00    2.7853862176311708E+00    3.2942749178858963E+00
N    8.0133815073265815E+00    2.8395749330312556E+00    5.2598814716976747E+00
Ga    8.0402155588626218E+00    4.7123244312504822E+00    5.8032995166642838E+00
N    8.0242444366732180E+00    4.7043810596011060E+00    7.8029904069645122E+00
Ga    8.0029111835370959E+00    2.8476246635369402E+00    8.4466907173512880E+00
N    8.0027268311685873E+00    2.8475260022502340E+00    1.0439923853507343E+01
Ga    8.0280950355903506E+00    4.7059482009288232E+00    1.1077843136866615E+01
N    8.0438601396829768E+00    4.7146159120735511E+00    1.3070027155058332E+01
Ga    8.0038865872058906E+00    2.8463877014686743E+00    1.3631861098964192E+01
N    8.0317787266432674E+00    2.8313431939123586E+00    1.5589944670084153E+01
Ga    7.8324240529599969E+00    4.5920965032285652E+00    1.6514418804536717E+01
N    6.4059306884451592E+00    7.4838707347777325E+00    2.6165472029965300E+00
Ga    6.4057134275055247E+00    5.7379274451505031E+00    3.2898474819835504E+00
N    6.4059363693824753E+00    5.6280143016553161E+00    5.2565965276403208E+00
Ga    6.4073220953904721E+00    7.4826801859169016E+00    5.8841645759801553E+00
N    6.4065810734024025E+00    7.4835103457113803E+00    7.8586707461983973E+00
Ga    6.4064083491003778E+00    5.6151180279246207E+00    8.4463305825064623E+00
N    6.4057094138422990E+00    5.6141710723764859E+00    1.0440587584740531E+01
Ga    6.4064942314056852E+00    7.4831798990438889E+00    1.1035787474041131E+01
N    6.4082296110256136E+00    7.4849748670148575E+00    1.3008777690629559E+01
Ga    6.4063119141220328E+00    5.6136263886568596E+00    1.3632933811215826E+01
N    6.4108583312604202E+00    5.6485552405362816E+00    1.5589707144560977E+01
Ga    6.4033977566271751E+00    7.4815771886078402E+00    1.5872971441123552E+01
N    4.6905916729288233E+00    1.0208776165224119E+01    2.5377503115296012E+00
Ga    4.8970942183566422E+00    8.3545055331282843E+00    3.2970920367347638E+00
N    4.7998307738917338E+00    8.4106151169776187E+00    5.2615553112252762E+00
Ga    4.8210987881130789E+00    1.0281946190319710E+01    5.8114039145488974E+00
N    4.8074273899223101E+00    1.0273818647739825E+01    7.8081048053806210E+00
Ga    4.7886111479666784E+00    8.4165699804088838E+00    8.4485269722608844E+00
N    4.7871903687699717E+00    8.4171190741198121E+00    1.0441805884329938E+01
Ga    4.8121835493298883E+00    1.0276196862730963E+01    1.1078577228094842E+01
N    4.8281690693826738E+00    1.0284891236484349E+01    1.3070636151394670E+01
Ga    4.7869496458080141E+00    8.4182354699934390E+00    1.3632301202393508E+01
N    4.8194712844819518E+00    8.4070746255408650E+00    1.5593113456767114E+01
Ga    4.6226033533331714E+00    1.0169120600026865E+01    1.6503229511453004E+01
O    1.0169993575003897E+00    3.3827454928080707E+00   -2.8459281797758190E-01
H    1.7998688023231768E+00    3.9298168954985275E+00   -6.9654241872452574E-02
C    1.4869472493256777E+00    1.9832035882140748E+00   -4.2874453228397935E-01
H    2.1410534453637711E+00    1.7255460967785796E+00    4.1815287480389429E-01
H    5.8911336389578861E-01    1.3609473715766509E+00   -4.2293277420441960E-01
H    2.0050376454004559E+00    1.9034157003021488E+00   -1.3883569813649317E+00
     &END COORD
     &KIND C
       BASIS_SET DZVP-MOLOPT-SR-GTH-q4
       POTENTIAL GTH-PBE-q4
       &POTENTIAL
2 2
0.3384712400000000E+00 2 -0.8803673979999999E+01  0.1339210850000000E+01
2
0.3025757500000000E+00 1  0.9622486650000001E+01
0.2915069400000000E+00 0
       &END POTENTIAL
     &END KIND
     &KIND O
       BASIS_SET DZVP-MOLOPT-SR-GTH-q6
       POTENTIAL GTH-PBE-q6
       &POTENTIAL
2 4
0.2445543000000000E+00 2 -0.1666721480000000E+02  0.2487311320000000E+01
2
0.2209559200000000E+00 1  0.1833745811000000E+02
0.2113324700000000E+00 0
       &END POTENTIAL
     &END KIND
     &KIND H
       BASIS_SET DZVP-MOLOPT-SR-GTH-q1
       POTENTIAL GTH-PBE-q1
       &POTENTIAL
1
0.2000000000000000E+00 2 -0.4178900440000000E+01  0.7244633100000000E+00
0
       &END POTENTIAL
     &END KIND
     &KIND N
       BASIS_SET DZVP-MOLOPT-SR-GTH
       POTENTIAL GTH-PBE-q5
       &POTENTIAL
2 3
0.2837905100000000E+00 2 -0.1241522559000000E+02  0.1868095920000000E+01
2
0.2554050000000000E+00 1  0.1363026257000000E+02
0.2454945300000000E+00 0
       &END POTENTIAL
     &END KIND
     &KIND Ga
       BASIS_SET DZVP-MOLOPT-SR-GTH
       POTENTIAL GTH-PBE-q13
       &POTENTIAL
2 1 10
0.4900000000000000E+00 0
3
0.4167772300000000E+00 3  0.1047568975000000E+02 -0.4921768140000000E+01  0.8707055900000000E+00
0.7770178090000000E+01 -0.2248152160000000E+01
0.1784415450000000E+01
0.5696265200000000E+00 2  0.1777985340000000E+01  0.1958597600000000E+00
-0.2317443900000000E+00
0.2381265000000000E+00 1 -0.1624868022000000E+02
       &END POTENTIAL
     &END KIND
     &TOPOLOGY
       NUMBER_OF_ATOMS  206
       MULTIPLE_UNIT_CELL  1 1 1
     &END TOPOLOGY
   &END SUBSYS
 &END FORCE_EVAL
