 # Version information for this restart file 
 # current date 2019-07-19 21:00:29.923
 # current working dir /lustre04/scratch/rzk/rzk/GaN-carbene/443-adatoms-both-2x2/02-Methanol/04-H-NSur-Attempt2/02-RKS
 # Program compiled at                              Sun Apr  7 00:48:11 EDT 2019
 # Program compiled on                          beluga2.int.ets1.calculquebec.ca
 # Program compiled for                        Beluga-Linux-x86-64-intel-openmpi
 # Source code revision number                                         svn:18619
 &GLOBAL
   PRINT_LEVEL  MEDIUM
   PROJECT_NAME TEST
   RUN_TYPE  GEO_OPT
 &END GLOBAL
 &MOTION
   &GEO_OPT
     MAX_ITER  500
     STEP_START_VAL  173
   &END GEO_OPT
 &END MOTION
 &FORCE_EVAL
   METHOD  QS
   STRESS_TENSOR  ANALYTICAL
   &DFT
     BASIS_SET_FILE_NAME BASIS_MOLOPT
     POTENTIAL_FILE_NAME GTH_POTENTIALS
     UKS  F
     SURFACE_DIPOLE_CORRECTION  T
     SURF_DIP_DIR  Z
     &SCF
       MAX_SCF  80
       EPS_SCF     5.0000000000000004E-06
       &OT  T
         PRECONDITIONER  FULL_ALL
       &END OT
       &OUTER_SCF  T
         OPTIMIZER  NONE
         EPS_SCF     5.0000000000000004E-06
         MAX_SCF  4
       &END OUTER_SCF
       &PRINT
         &RESTART  OFF
           BACKUP_COPIES  1
           &EACH
             JUST_ENERGY  0
             QS_SCF  0
             MD  20
           &END EACH
         &END RESTART
       &END PRINT
     &END SCF
     &QS
       EPS_DEFAULT     1.0000000000000000E-14
       METHOD  GPW
     &END QS
     &MGRID
       NGRIDS  5
       CUTOFF     1.2000000000000000E+03
     &END MGRID
     &XC
       DENSITY_CUTOFF     1.0000000000000000E-10
       GRADIENT_CUTOFF     1.0000000000000000E-10
       TAU_CUTOFF     1.0000000000000000E-10
       &XC_FUNCTIONAL  NO_SHORTCUT
         &PBE  T
         &END PBE
       &END XC_FUNCTIONAL
       &VDW_POTENTIAL
         POTENTIAL_TYPE  PAIR_POTENTIAL
         &PAIR_POTENTIAL
           R_CUTOFF     1.0000000000000004E+01
           TYPE  DFTD3
           PARAMETER_FILE_NAME dftd3.dat
           REFERENCE_FUNCTIONAL PBE
           EPS_CN     9.9999999999999995E-07
           CALCULATE_C9_TERM  T
           REFERENCE_C9_TERM  T
           LONG_RANGE_CORRECTION  F
           VERBOSE_OUTPUT  F
         &END PAIR_POTENTIAL
       &END VDW_POTENTIAL
     &END XC
   &END DFT
   &SUBSYS
     &CELL
       A     1.2864472766435110E+01    0.0000000000000000E+00    0.0000000000000000E+00
       B    -6.4322363581020028E+00    1.1140960178524473E+01    0.0000000000000000E+00
       C     0.0000000000000000E+00    0.0000000000000000E+00    3.2000000000000000E+01
       MULTIPLE_UNIT_CELL  1 1 1
       &CELL_REF
         A     1.2982353780853531E+01    0.0000000000000000E+00    0.0000000000000000E+00
         B    -6.4911768904267628E+00    1.1243048175136114E+01    0.0000000000000000E+00
         C     0.0000000000000000E+00    0.0000000000000000E+00    3.2000000000000000E+01
         MULTIPLE_UNIT_CELL  1 1 1
       &END CELL_REF
     &END CELL
     &COORD
N    1.8364404171060766E-01    1.8426759320902499E+00    2.4668595995259679E+00
Ga    2.2425413679397532E-01   -1.5587562310697980E-01    2.7843209449743229E+00
N    1.8410007419633695E-01   -1.3267147130355619E-01    4.9617626865841604E+00
Ga    1.8356955354045321E-01    1.6911274272257761E+00    5.7472491307425129E+00
N    1.8223066477041680E-01    1.7128651310937515E+00    7.7403107624269252E+00
Ga    1.8454062081956282E-01   -1.3382268539342010E-01    8.3953234914427490E+00
N    1.8209676991607424E-01   -1.3442758040735678E-01    1.0365280863813719E+01
Ga    1.8240752364001817E-01    1.7042931632204152E+00    1.1023197707065780E+01
N    1.8192725176047192E-01    1.6844246577573978E+00    1.3010395491480178E+01
Ga    1.7992010937127045E-01   -1.3441187059666573E-01    1.3827655011549918E+01
N    1.8022007054822364E-01   -1.3596995109085883E-01    1.6016206082918536E+01
Ga    1.8055751551111032E-01    1.9137701801792759E+00    1.6440348927216338E+01
Ga    1.8598391624174937E-01    3.5466274909744691E+00    1.4063256174991363E+00
N   -1.3161299496551579E+00    4.4565813606954192E+00    2.4568893775798322E+00
Ga   -1.5228230153806033E+00    2.5937926865733281E+00    3.2297678425222811E+00
N   -1.4238428001943544E+00    2.6561164225063996E+00    5.1919460451450181E+00
Ga   -1.4610861776135324E+00    4.5235388324191730E+00    5.7558790290058850E+00
N   -1.4338458795613223E+00    4.5156333652559075E+00    7.7429040853552493E+00
Ga   -1.4147947268328984E+00    2.6559466429930230E+00    8.3895024977171460E+00
N   -1.4147788842011884E+00    2.6572198179696715E+00    1.0376922300572296E+01
Ga   -1.4419202969785840E+00    4.5148529494619325E+00    1.1026508025757213E+01
N   -1.4581872623248238E+00    4.5246415731637573E+00    1.3012506841708808E+01
Ga   -1.4145301666630612E+00    2.6556403991239592E+00    1.3574537182917844E+01
N   -1.4422388481103023E+00    2.6392113419098067E+00    1.5529482620217403E+01
Ga   -1.2589910006416651E+00    4.4069911093455545E+00    1.6440849354543573E+01
N    1.8574395559972798E-01    3.5785648412585376E+00    1.7588242876900345E+01
N   -3.0281542432223745E+00    7.4370679692004034E+00    2.4397946134391675E+00
Ga   -3.0432500798180340E+00    5.4749124414353920E+00    2.7909194553711378E+00
N   -3.0319793480275075E+00    5.4406724886701046E+00    4.9622294152946083E+00
Ga   -3.0410178632818896E+00    7.2659207991801003E+00    5.7557553344172705E+00
N   -3.0317203178301408E+00    7.2828129797729693E+00    7.7465847468802593E+00
Ga   -3.0340952979576850E+00    5.4383084052345572E+00    8.4005548699399135E+00
N   -3.0332497334018815E+00    5.4357617481237117E+00    1.0367987493225483E+01
Ga   -3.0354617887878437E+00    7.2748525669436814E+00    1.1026544260045958E+01
N   -3.0344643042567698E+00    7.2538579360873259E+00    1.3015070220526365E+01
Ga   -3.0345376098402275E+00    5.4322201311908875E+00    1.3829391253930906E+01
N   -3.0347824419088445E+00    5.4322044777708491E+00    1.6016852904717258E+01
Ga   -3.0351152115468549E+00    7.4741561876673899E+00    1.6426949802610810E+01
Ga   -3.0671366670235014E+00    9.1388772492314754E+00    1.2654916568367518E+00
N   -4.5172153298428830E+00    1.0007376968083463E+01    2.4491363884072195E+00
Ga   -4.7142689433751901E+00    8.1893656607159446E+00    3.2173527105229920E+00
N   -4.6409520391630963E+00    8.2212957220264560E+00    5.1969331723541679E+00
Ga   -4.6606732908895054E+00    1.0093368235041510E+01    5.7435749676132009E+00
N   -4.6513086239512056E+00    1.0085430166314998E+01    7.7423470800141603E+00
Ga   -4.6330628608068656E+00    8.2301648096388789E+00    8.3885278197319764E+00
N   -4.6307153849838496E+00    8.2274746490354005E+00    1.0378259889168378E+01
Ga   -4.6572801964375428E+00    1.0086724926255272E+01    1.1023544808375730E+01
N   -4.6749516376302624E+00    1.0095655692229133E+01    1.3013232072602076E+01
Ga   -4.6329818362925410E+00    8.2258731816858059E+00    1.3572746584596805E+01
N   -4.6633372467672789E+00    8.2072887829376882E+00    1.5531032833112576E+01
Ga   -4.4842125473324801E+00    9.9840913251147452E+00    1.6426521956024494E+01
N   -3.0353650091458189E+00    9.1473799744410051E+00    1.7543915248257811E+01
N    3.3989479545269510E+00    1.7138071004392492E+00    2.5617754921597893E+00
Ga    3.3991361018067137E+00   -5.6287951739662313E-02    3.2069837377242694E+00
N    3.4010472948856534E+00   -1.3084247749640388E-01    5.1924451221434378E+00
Ga    3.3978811579866299E+00    1.7157162447588492E+00    5.8207585934953849E+00
N    3.3980737545802424E+00    1.7243967420191777E+00    7.7937460900990647E+00
Ga    3.3969088812378874E+00   -1.4409297988201503E-01    8.3881400793885987E+00
N    3.3985387757600005E+00   -1.4749876348757898E-01    1.0378047873088022E+01
Ga    3.3982521022537804E+00    1.7222094203161469E+00    1.0977464692622354E+01
N    3.3976875084996783E+00    1.7213722141846812E+00    1.2943061346183214E+01
Ga    3.3975579934055049E+00   -1.4698963062482404E-01    1.3572794470193140E+01
N    3.3972825446788089E+00   -1.1321095610829711E-01    1.5531183533498846E+01
Ga    3.3974841886806826E+00    1.7241140456506845E+00    1.5813395229519559E+01
N    1.6807336332787077E+00    4.4574127518214324E+00    2.4635566660070656E+00
Ga    1.8926351311676781E+00    2.5852509748092571E+00    3.2328678920956078E+00
N    1.7896547482286307E+00    2.6564811407898161E+00    5.1946032567451637E+00
Ga    1.8220580151114965E+00    4.5203354548569852E+00    5.7588850265265439E+00
N    1.7988160574805145E+00    4.5162196638610137E+00    7.7443043222248695E+00
Ga    1.7812100937213413E+00    2.6552099061524697E+00    8.3890939494369814E+00
N    1.7786949042008511E+00    2.6576132319944121E+00    1.0376477794990482E+01
Ga    1.8061991477895389E+00    4.5145231165022475E+00    1.1026825864157519E+01
N    1.8221520983598607E+00    4.5245999413343529E+00    1.3013283234625783E+01
Ga    1.7788978647084037E+00    2.6550912633766566E+00    1.3574722991619002E+01
N    1.8034156503822834E+00    2.6379352156883153E+00    1.5530645989707512E+01
Ga    1.6246447281980101E+00    4.4095124808977273E+00    1.6441182144979855E+01
N    1.7103223361588127E-01    7.3030041394405352E+00    2.6419797099678459E+00
Ga    1.7699855531005010E-01    5.4649325795713155E+00    3.2767773048967861E+00
N    1.8290980047434785E-01    5.4536762362795628E+00    5.2018785431301726E+00
Ga    1.7541239206237966E-01    7.2993592361885966E+00    5.8592893670275146E+00
N    1.8299408017698027E-01    7.2941341860017532E+00    7.8114912619248491E+00
Ga    1.8227403846496040E-01    5.4228099920430992E+00    8.4003105426348892E+00
N    1.8225659636924926E-01    5.4220007000244079E+00    1.0382238596386239E+01
Ga    1.8217841824327988E-01    7.2924414814577085E+00    1.0982242750772979E+01
N    1.8211090912614439E-01    7.2911257123817146E+00    1.2946085383752340E+01
Ga    1.8178744219592288E-01    5.4214124174414327E+00    1.3575915387900938E+01
N    1.7963038351443428E-01    5.4508949756396534E+00    1.5531759901711476E+01
Ga    1.8499699994956392E-01    7.2883614367965466E+00    1.5814215709724269E+01
N   -1.5362022238250355E+00    1.0010299969499719E+01    2.4510658062468891E+00
Ga   -1.4405180580336803E+00    8.2404254429737147E+00    3.2681504411435167E+00
N   -1.4128731584517542E+00    8.2161668821459770E+00    5.2052649899126129E+00
Ga   -1.4039400625331289E+00    1.0103442639733567E+01    5.7538965991675690E+00
N   -1.4144608507249137E+00    1.0084033356394727E+01    7.7458238044383485E+00
Ga   -1.4394924285374571E+00    8.2312216790680672E+00    8.3996521961763850E+00
N   -1.4372777820398221E+00    8.2278420922482081E+00    1.0383886036110050E+01
Ga   -1.4112100815071391E+00    1.0088145566344412E+01    1.1026671493336558E+01
N   -1.3935371580719256E+00    1.0095919595834294E+01    1.3015220304016715E+01
Ga   -1.4364804438777228E+00    8.2259465269792589E+00    1.3573969541121768E+01
N   -1.4062001628198604E+00    8.2070920795081879E+00    1.5532102820215803E+01
Ga   -1.5861600224429349E+00    9.9840149260634234E+00    1.6426983248877697E+01
N    6.6157648282557968E+00    1.8491790175983773E+00    2.4749412035252920E+00
Ga    6.5777833631869402E+00   -1.4204296784461601E-01    2.8018343184927859E+00
N    6.6175798172208236E+00   -1.3199438168406544E-01    4.9693808683878551E+00
Ga    6.6158892238581508E+00    1.6963125782603996E+00    5.7532047744593369E+00
N    6.6157548826023618E+00    1.7122419629549925E+00    7.7448530685659822E+00
Ga    6.6138723847882392E+00   -1.3262354430710491E-01    8.4002478710650248E+00
N    6.6148434305705965E+00   -1.3505617731886066E-01    1.0367916985649682E+01
Ga    6.6145198722207610E+00    1.7051918570923406E+00    1.1023653660798180E+01
N    6.6140613468679375E+00    1.6842468678651821E+00    1.3010849562607909E+01
Ga    6.6161052379384451E+00   -1.3406330575875783E-01    1.3829397418740619E+01
N    6.6147260276791044E+00   -1.3600916258768037E-01    1.6016934864803929E+01
Ga    6.6142531598054868E+00    1.9139643993731499E+00    1.6440080739894945E+01
Ga    6.6129167732414000E+00    3.5843453548524242E+00    1.4635432165257567E+00
N    5.1150244052696232E+00    4.4477459600909324E+00    2.4821232766799683E+00
Ga    4.9027093838670250E+00    2.5853163717310692E+00    3.2431689612742840E+00
N    5.0061093452095999E+00    2.6517492615426814E+00    5.2021810799658947E+00
Ga    4.9865446630104975E+00    4.5208956771420015E+00    5.7547155876422069E+00
N    4.9961374287739435E+00    4.5150429478932486E+00    7.7452204997119019E+00
Ga    5.0152360576734285E+00    2.6566737169453747E+00    8.3895818398881961E+00
N    5.0176951313275184E+00    2.6570991453512915E+00    1.0377264648574968E+01
Ga    4.9921068682920167E+00    4.5153824798721205E+00    1.1024240465634307E+01
N    4.9740706244109987E+00    4.5247002166550470E+00    1.3011856936675036E+01
Ga    5.0168634811878423E+00    2.6552997630518220E+00    1.3573965021351533E+01
N    4.9915029191800278E+00    2.6380757698211510E+00    1.5530200695904375E+01
Ga    5.1700416979352983E+00    4.4099988938418386E+00    1.6440395481403982E+01
N    6.6090032658019764E+00    3.5791835332368378E+00    1.7587129717624016E+01
N    3.3895954137909805E+00    7.4178750247509306E+00    2.4649822898865077E+00
N    3.3984890820751441E+00    5.4390055430560587E+00    4.9679571329972418E+00
Ga    3.4048588222152820E+00    7.2627043946191767E+00    5.7606523245633730E+00
N    3.3964909309481177E+00    7.2835152600055872E+00    7.7456514831159007E+00
Ga    3.3995564808389860E+00    5.4366928686104883E+00    8.4012861566223247E+00
N    3.3978686188844165E+00    5.4359418087520490E+00    1.0367924245653226E+01
Ga    3.3999330081337966E+00    7.2748394317517997E+00    1.1027045603683593E+01
N    3.3982309733048699E+00    7.2544901706159433E+00    1.3013506290661585E+01
Ga    3.3984769617916415E+00    5.4343240902790546E+00    1.3829653888293482E+01
N    3.3976503062829848E+00    5.4334206404291407E+00    1.6016694632202306E+01
Ga    3.3977997354901439E+00    7.4805349950007640E+00    1.6441145649064516E+01
Ga    3.4322511970571234E+00    9.1685532211830800E+00    1.4121452002731421E+00
N    1.8941554148092323E+00    1.0014157124037228E+01    2.4596606979228017E+00
Ga    1.7654724184434285E+00    8.2167750286886321E+00    3.2788018847999068E+00
N    1.7777930093804273E+00    8.2167353092245907E+00    5.2036100885764691E+00
Ga    1.7627833567063562E+00    1.0105437311042154E+01    5.7593312602832922E+00
N    1.7817075419026240E+00    1.0083417693575592E+01    7.7454352508300612E+00
Ga    1.8030376629324056E+00    8.2299601225692403E+00    8.4014454380952124E+00
N    1.8022164737236115E+00    8.2278362316427920E+00    1.0383121945189725E+01
Ga    1.7756028357538403E+00    1.0087995130308629E+01    1.1026606855722990E+01
N    1.7580222752036510E+00    1.0095291690580112E+01    1.3012708174174390E+01
Ga    1.8009992612680039E+00    8.2264476968122455E+00    1.3575873910621384E+01
N    1.7736536390989819E+00    8.2117790739207948E+00    1.5531721888595717E+01
Ga    1.9580096277703731E+00    9.9794345382744378E+00    1.6440839971474617E+01
N    3.3979138403696769E+00    9.1422040959039581E+00    1.7587526515081365E+01
N    9.8310262822240357E+00    1.7255759137047311E+00    2.5524715968637572E+00
Ga    9.8347665431873530E+00   -1.5878128379254907E-02    3.2324400863168927E+00
N    9.8303948915890000E+00   -1.3393897866373070E-01    5.1938926689550620E+00
Ga    9.8329646849194106E+00    1.7244236234303418E+00    5.8240640051560337E+00
N    9.8319458958801693E+00    1.7234593015439299E+00    7.7930652069387527E+00
Ga    9.8335505771543676E+00   -1.4378168066115832E-01    8.3906991223179528E+00
N    9.8305948559931302E+00   -1.4725922848282846E-01    1.0377774411658777E+01
Ga    9.8307376880911583E+00    1.7221771662208825E+00    1.0978915990086396E+01
N    9.8304098244043043E+00    1.7209653599320265E+00    1.2945540559357610E+01
Ga    9.8307229602270088E+00   -1.4916555356727695E-01    1.3574582562832958E+01
N    9.8299207624429386E+00   -1.1880823643926954E-01    1.5529854331318555E+01
Ga    9.8296389125976269E+00    1.7201101691150418E+00    1.5806875868509957E+01
N    8.1163390356448524E+00    4.4493940294595262E+00    2.4756403508800484E+00
Ga    8.3245622009832818E+00    2.5953940059907250E+00    3.2410024274266713E+00
N    8.2259239450296242E+00    2.6526528065041104E+00    5.1998933566625336E+00
Ga    8.2494143037213075E+00    4.5251761041406544E+00    5.7515111492529547E+00
N    8.2343049785949116E+00    4.5149026682240443E+00    7.7437432888602009E+00
Ga    8.2139615830487642E+00    2.6578977836389952E+00    8.3898540726679354E+00
N    8.2122077849147637E+00    2.6567815593578175E+00    1.0377573524434061E+01
Ga    8.2371646569268897E+00    4.5156851663574908E+00    1.1023868568207650E+01
N    8.2543157010852237E+00    4.5248950432407371E+00    1.3011052720612872E+01
Ga    8.2105399004208977E+00    2.6561637235987905E+00    1.3573797471777509E+01
N    8.2371501559521256E+00    2.6394173358691249E+00    1.5529144405976149E+01
Ga    8.0539704863338208E+00    4.4073824025673138E+00    1.6440223937410174E+01
N    6.6233221674854885E+00    7.3005015801720550E+00    2.5696342812353650E+00
Ga    6.6206078732750662E+00    5.5616614857858213E+00    3.2458399682095629E+00
N    6.6153069627988215E+00    5.4394764229570765E+00    5.2042670160246347E+00
Ga    6.6210907781173525E+00    7.2998573014346970E+00    5.8232614666249978E+00
N    6.6138587018372625E+00    7.2946053640822281E+00    7.7953124799560785E+00
Ga    6.6153416091863839E+00    5.4273721043473291E+00    8.3894010712279368E+00
N    6.6145208001535147E+00    5.4225390873784844E+00    1.0377137154943798E+01
Ga    6.6142976473957820E+00    7.2923536485059142E+00    1.0977400290234748E+01
N    6.6137006838568810E+00    7.2913273906035361E+00    1.2943113013190731E+01
Ga    6.6144278568026831E+00    5.4219903257389870E+00    1.3574106682123663E+01
N    6.6154986979074542E+00    5.4509668106690921E+00    1.5530509166241982E+01
Ga    6.6101402523951984E+00    7.2884282261742488E+00    1.5813717506207070E+01
N    4.9056961081722417E+00    1.0021610540021443E+01    2.4701617084856644E+00
Ga    5.1152587913370882E+00    8.1700537417455639E+00    3.2371152652762998E+00
N    5.0028439463261432E+00    8.2235900012696987E+00    5.1980571136930633E+00
Ga    5.0371618488875027E+00    1.0097441439749721E+01    5.7491291059510230E+00
N    5.0164104084222467E+00    1.0085580913130428E+01    7.7417553610009175E+00
Ga    4.9991787355857138E+00    8.2294590809402326E+00    8.3902110071420992E+00
N    4.9944697959178299E+00    8.2276367941805439E+00    1.0377286016128325E+01
Ga    5.0220570669813132E+00    1.0086592849424003E+01    1.1023508068205864E+01
N    5.0381525583378117E+00    1.0095184127083460E+01    1.3010791722397554E+01
Ga    4.9957387003294746E+00    8.2266491366441965E+00    1.3574827649031841E+01
N    5.0216257808998312E+00    8.2119991962045091E+00    1.5530926628576150E+01
Ga    4.8374803977453089E+00    9.9794779666849891E+00    1.6440481836003311E+01
Ga    3.4082044171186356E+00    5.4333781562152623E+00    2.8195864977427934E+00
O   -2.9314595198820461E+00    9.1592885532914963E+00   -5.4455327534023157E-01
H    1.6447187819486606E-01    7.3087790350886612E+00    1.6155055621326695E+00
C   -2.7494747971676987E+00    1.0458063326866785E+01   -1.1316103018358115E+00
H   -3.6172664058432966E+00    1.1117352736198347E+01   -9.6484131675632878E-01
H   -1.8527776554135520E+00    1.0971453094303348E+01   -7.4499627818563008E-01
H   -2.6267095814329120E+00    1.0313732633405344E+01   -2.2145994911303766E+00
     &END COORD
     &KIND C
       BASIS_SET DZVP-MOLOPT-SR-GTH-q4
       POTENTIAL GTH-PBE-q4
       &POTENTIAL
 2 2
  0.3384712400000000E+00 2 -0.8803673979999999E+01  0.1339210850000000E+01
 2
  0.3025757500000000E+00 1  0.9622486650000001E+01
  0.2915069400000000E+00 0
         # Potential name:  GTH-PBE-Q4  for symbol:  C
         # Potential read from the potential filename: GTH_POTENTIALS
       &END POTENTIAL
     &END KIND
     &KIND O
       BASIS_SET DZVP-MOLOPT-SR-GTH-q6
       POTENTIAL GTH-PBE-q6
       &POTENTIAL
 2 4
  0.2445543000000000E+00 2 -0.1666721480000000E+02  0.2487311320000000E+01
 2
  0.2209559200000000E+00 1  0.1833745811000000E+02
  0.2113324700000000E+00 0
         # Potential name:  GTH-PBE-Q6  for symbol:  O
         # Potential read from the potential filename: GTH_POTENTIALS
       &END POTENTIAL
     &END KIND
     &KIND H
       BASIS_SET DZVP-MOLOPT-SR-GTH-q1
       POTENTIAL GTH-PBE-q1
       &POTENTIAL
 1
  0.2000000000000000E+00 2 -0.4178900440000000E+01  0.7244633100000000E+00
 0
         # Potential name:  GTH-PBE-Q1  for symbol:  H
         # Potential read from the potential filename: GTH_POTENTIALS
       &END POTENTIAL
     &END KIND
     &KIND N
       BASIS_SET DZVP-MOLOPT-SR-GTH
       POTENTIAL GTH-PBE-q5
       &POTENTIAL
 2 3
  0.2837905100000000E+00 2 -0.1241522559000000E+02  0.1868095920000000E+01
 2
  0.2554050000000000E+00 1  0.1363026257000000E+02
  0.2454945300000000E+00 0
         # Potential name:  GTH-PBE-Q5  for symbol:  N
         # Potential read from the potential filename: GTH_POTENTIALS
       &END POTENTIAL
     &END KIND
     &KIND Ga
       BASIS_SET DZVP-MOLOPT-SR-GTH
       POTENTIAL GTH-PBE-q13
       &POTENTIAL
 2 1 10
  0.4900000000000000E+00 0
 3
  0.4167772300000000E+00 3  0.1047568975000000E+02 -0.4921768140000000E+01  0.8707055900000000E+00
  0.7770178090000000E+01 -0.2248152160000000E+01
  0.1784415450000000E+01
  0.5696265200000000E+00 2  0.1777985340000000E+01  0.1958597600000000E+00
 -0.2317443900000000E+00
  0.2381265000000000E+00 1 -0.1624868022000000E+02
         # Potential name:  GTH-PBE-Q13  for symbol:  GA
         # Potential read from the potential filename: GTH_POTENTIALS
       &END POTENTIAL
     &END KIND
     &TOPOLOGY
       NUMBER_OF_ATOMS  206
       MULTIPLE_UNIT_CELL  1 1 1
     &END TOPOLOGY
   &END SUBSYS
 &END FORCE_EVAL
