 # Version information for this restart file 
 # current date 2019-07-21 12:07:57.556
 # current working dir /lustre04/scratch/rzk/rzk/GaN-carbene/443-adatoms-both-2x2/13-H2OCH2/01-Start090202
 # Program compiled at                              Sun Apr  7 00:48:11 EDT 2019
 # Program compiled on                          beluga2.int.ets1.calculquebec.ca
 # Program compiled for                        Beluga-Linux-x86-64-intel-openmpi
 # Source code revision number                                         svn:18619
 &GLOBAL
   PRINT_LEVEL  MEDIUM
   PROJECT_NAME TEST
   RUN_TYPE  GEO_OPT
 &END GLOBAL
 &MOTION
   &GEO_OPT
     MAX_ITER  500
     STEP_START_VAL  62
   &END GEO_OPT
 &END MOTION
 &FORCE_EVAL
   METHOD  QS
   STRESS_TENSOR  ANALYTICAL
   &DFT
     BASIS_SET_FILE_NAME BASIS_MOLOPT
     POTENTIAL_FILE_NAME GTH_POTENTIALS
     UKS  T
     SURFACE_DIPOLE_CORRECTION  T
     SURF_DIP_DIR  Z
     &SCF
       MAX_SCF  80
       EPS_SCF     5.0000000000000004E-06
       &OT  T
         PRECONDITIONER  FULL_ALL
       &END OT
       &OUTER_SCF  T
         OPTIMIZER  NONE
         EPS_SCF     5.0000000000000004E-06
         MAX_SCF  4
       &END OUTER_SCF
       &PRINT
         &RESTART  OFF
           BACKUP_COPIES  1
           &EACH
             JUST_ENERGY  0
             QS_SCF  0
             MD  20
           &END EACH
         &END RESTART
       &END PRINT
     &END SCF
     &QS
       EPS_DEFAULT     1.0000000000000000E-14
       METHOD  GPW
     &END QS
     &MGRID
       NGRIDS  5
       CUTOFF     1.2000000000000000E+03
     &END MGRID
     &XC
       DENSITY_CUTOFF     1.0000000000000000E-10
       GRADIENT_CUTOFF     1.0000000000000000E-10
       TAU_CUTOFF     1.0000000000000000E-10
       &XC_FUNCTIONAL  NO_SHORTCUT
         &PBE  T
         &END PBE
       &END XC_FUNCTIONAL
       &VDW_POTENTIAL
         POTENTIAL_TYPE  PAIR_POTENTIAL
         &PAIR_POTENTIAL
           R_CUTOFF     1.0000000000000004E+01
           TYPE  DFTD3
           PARAMETER_FILE_NAME dftd3.dat
           REFERENCE_FUNCTIONAL PBE
           EPS_CN     9.9999999999999995E-07
           CALCULATE_C9_TERM  T
           REFERENCE_C9_TERM  T
           LONG_RANGE_CORRECTION  F
           VERBOSE_OUTPUT  F
         &END PAIR_POTENTIAL
       &END VDW_POTENTIAL
     &END XC
   &END DFT
   &SUBSYS
     &CELL
       A     1.2864472766435110E+01    0.0000000000000000E+00    0.0000000000000000E+00
       B    -6.4322363581020028E+00    1.1140960178524473E+01    0.0000000000000000E+00
       C     0.0000000000000000E+00    0.0000000000000000E+00    3.2000000000000000E+01
       MULTIPLE_UNIT_CELL  1 1 1
       &CELL_REF
         A     1.2982353780853531E+01    0.0000000000000000E+00    0.0000000000000000E+00
         B    -6.4911768904267628E+00    1.1243048175136114E+01    0.0000000000000000E+00
         C     0.0000000000000000E+00    0.0000000000000000E+00    3.2000000000000000E+01
         MULTIPLE_UNIT_CELL  1 1 1
       &END CELL_REF
     &END CELL
     &COORD
N    9.0281523473959888E-02    2.1111589363137031E+00    2.5518997124670997E+00
Ga    5.9254434929608066E-02    1.0390507712601776E-01    2.9153942255517364E+00
N    7.3836908824121167E-02    1.2546155691784031E-01    5.0802114865087651E+00
Ga    6.7850433811879482E-02    1.9398900396759213E+00    5.8588562599995839E+00
N    7.5721612939096780E-02    1.9671976969959664E+00    7.8512887783529184E+00
Ga    7.1887349155437388E-02    1.1603299403494803E-01    8.4885915722873388E+00
N    7.4428196577128000E-02    1.1865894323645251E-01    1.0466353807924055E+01
Ga    7.2129765898590367E-02    1.9574126474872728E+00    1.1118906860027854E+01
N    7.4663333653492758E-02    1.9399583693700393E+00    1.3113620283201115E+01
Ga    7.6350744068534704E-02    1.2021472509386762E-01    1.3907604735762874E+01
N    7.5396312245694277E-02    1.2219542889224760E-01    1.6119661689628771E+01
Ga    7.4957445044065804E-02    2.1705208430657978E+00    1.6534159898892572E+01
Ga    7.2699766490447890E-02    3.8461917283129883E+00    1.5317914060088109E+00
N   -1.4082091713659752E+00    4.7089747586879716E+00    2.5469196946954766E+00
Ga   -1.6266125796700703E+00    2.8430237914708676E+00    3.3337750629138707E+00
N   -1.5279781259825294E+00    2.9090609749088658E+00    5.3012419257824011E+00
Ga   -1.5752648049837570E+00    4.7729158048484619E+00    5.8661217807727946E+00
N   -1.5452686271177969E+00    4.7671196694784310E+00    7.8564115260260543E+00
Ga   -1.5287129956827408E+00    2.9076991686341032E+00    8.4872938674400675E+00
N   -1.5237712423166163E+00    2.9105969618977530E+00    1.0482487927753830E+01
Ga   -1.5528195284355053E+00    4.7697747456046748E+00    1.1120300931008741E+01
N   -1.5666844489495182E+00    4.7800880311264997E+00    1.3115794138425214E+01
Ga   -1.5235323558035914E+00    2.9104589573609787E+00    1.3669758908898096E+01
N   -1.5498931422616542E+00    2.8918649891412254E+00    1.5631751207259443E+01
Ga   -1.3742557405241169E+00    4.6692867831271254E+00    1.6533947236893518E+01
N    6.4751147008336701E-02    3.8325350012322059E+00    1.7667832249555101E+01
N   -3.1378765360220870E+00    7.6572858917031938E+00    2.5595255125666601E+00
Ga   -3.1653977183538031E+00    5.6924562407843231E+00    2.9041315860353878E+00
N   -3.1383156662976690E+00    5.6852911747645285E+00    5.0709557138929533E+00
Ga   -3.1514522586806177E+00    7.5133682575692413E+00    5.8397756188764474E+00
N   -3.1420258182579039E+00    7.5361833792060278E+00    7.8402169836967071E+00
Ga   -3.1503569049533251E+00    5.6898698210495571E+00    8.4890929589120923E+00
N   -3.1445410430510448E+00    5.6904674497818553E+00    1.0466275393687621E+01
Ga   -3.1467547166857894E+00    7.5285655253269601E+00    1.1119538162058758E+01
N   -3.1429975393090488E+00    7.5099297453130820E+00    1.3116416197934404E+01
Ga   -3.1447607979352092E+00    5.6879621755665744E+00    1.3921355090282423E+01
N   -3.1446294971483697E+00    5.6874245904966418E+00    1.6121813875713848E+01
Ga   -3.1414109725314416E+00    7.7171486138516654E+00    1.6524328630127510E+01
Ga   -3.1905475251209237E+00    9.3587508876129295E+00    1.2789664837154167E+00
N   -4.6509925600692741E+00    1.0287025260808763E+01    2.5563608074212496E+00
Ga   -4.8394675622625938E+00    8.4256807812763697E+00    3.2874532191810002E+00
N   -4.7490431197224456E+00    8.4758041586053263E+00    5.2770599395532365E+00
Ga   -4.7847831922368815E+00    1.0340043111577863E+01    5.8419595893049623E+00
N   -4.7580747327746247E+00    1.0337718240319674E+01    7.8408770224636797E+00
Ga   -4.7472308439549558E+00    8.4761100785124821E+00    8.4718029999456412E+00
N   -4.7410350574056981E+00    8.4800971180263325E+00    1.0473026309482202E+01
Ga   -4.7670187929221663E+00    1.0336903181697268E+01    1.1116803408022816E+01
N   -4.7804881200888794E+00    1.0348841528645707E+01    1.3113155214782198E+01
Ga   -4.7390702272674057E+00    8.4814901383759445E+00    1.3671148131907135E+01
N   -4.7675484806426507E+00    8.4700977404807762E+00    1.5636295642422001E+01
Ga   -4.5920259795231768E+00    1.0242157241260111E+01    1.6524799633413700E+01
N   -3.1471925105416045E+00    9.3928053928964896E+00    1.7654871904201176E+01
N    3.3025533334824568E+00    1.9793911843581389E+00    2.6411905736424228E+00
Ga    3.2944362562494010E+00    1.0549003548575510E-01    3.3475390856716878E+00
N    3.2904287995852037E+00    1.3496997233939778E-01    5.2883268915747665E+00
Ga    3.2990181671167083E+00    1.9718170849789018E+00    5.9509417409310155E+00
N    3.2906726415863430E+00    1.9750836333896482E+00    7.9103812642562028E+00
Ga    3.2863054291473164E+00    1.0357679365326594E-01    8.4948874026723598E+00
N    3.2886211759592117E+00    1.0553167451637900E-01    1.0485001260178741E+01
Ga    3.2894488157055006E+00    1.9746501683372157E+00    1.1079701181863408E+01
N    3.2900074098442191E+00    1.9738694141670177E+00    1.3049910802670158E+01
Ga    3.2900906497007196E+00    1.0618143621876375E-01    1.3671119459236897E+01
N    3.2909451892926658E+00    1.3674366427928697E-01    1.5634113491883005E+01
Ga    3.2921817171324137E+00    1.9773057441635651E+00    1.5910069135593279E+01
N    1.5589822254463535E+00    4.7111462589012429E+00    2.6088800547149824E+00
Ga    1.7120056007837803E+00    2.8836749909456714E+00    3.3826500002786037E+00
N    1.7013794014712473E+00    2.8947013846383514E+00    5.3082667967580699E+00
Ga    1.7115530626526725E+00    4.7802298831680883E+00    5.8718984405820125E+00
N    1.6865765574046829E+00    4.7640853736312181E+00    7.8572259772537398E+00
Ga    1.6695936387459385E+00    2.9085223964585372E+00    8.4986278077462512E+00
N    1.6709142478448542E+00    2.9102508360142032E+00    1.0487161770900446E+01
Ga    1.6968369833159207E+00    4.7703315663411754E+00    1.1121815911934529E+01
N    1.7140387698309287E+00    4.7791160728510613E+00    1.3115023313837852E+01
Ga    1.6723822176671908E+00    2.9104668880188864E+00    1.3670997217533946E+01
N    1.7003996447646261E+00    2.8943394960048261E+00    1.5631113379913943E+01
Ga    1.5136479826811855E+00    4.6627769821788840E+00    1.6534398989223572E+01
N    7.2317698063756417E-02    7.5600927014011043E+00    2.7494148936903797E+00
Ga    6.6949193280791353E-02    5.7306319661839851E+00    3.4068606868232032E+00
N    6.7425130864838104E-02    5.7075584862715534E+00    5.3299297087063175E+00
Ga    7.0403848381038844E-02    7.5613198590994273E+00    5.9551619043999287E+00
N    7.1498592329923033E-02    7.5501622652681588E+00    7.9160836372582164E+00
Ga    6.9198948653505510E-02    5.6782781313420925E+00    8.4979014154718016E+00
N    7.2578230137252842E-02    5.6777770828954113E+00    1.0488173127111565E+01
Ga    7.1955468407764692E-02    7.5474358444760341E+00    1.1080336109214043E+01
N    7.3809951549011960E-02    7.5484881661309773E+00    1.3054012567044238E+01
Ga    7.4339002741028476E-02    5.6764200006785650E+00    1.3671354830713401E+01
N    7.7846959373699051E-02    5.7125095599517701E+00    1.5632414629675413E+01
Ga    7.6728609998976516E-02    7.5480023485209777E+00    1.5909695187485655E+01
N   -1.6281245143610872E+00    1.0284170882845055E+01    2.5539842183111330E+00
Ga   -1.5428163034273676E+00    8.4894003418049131E+00    3.3430531590461006E+00
N   -1.5269884711801514E+00    8.4729340440070846E+00    5.2919662565304701E+00
Ga   -1.5021365633882868E+00    1.0350699754113700E+01    5.8588266280156622E+00
N   -1.5299149890594290E+00    1.0336013450478159E+01    7.8508975576224165E+00
Ga   -1.5518380517185821E+00    8.4807280178359239E+00    8.4955633769091659E+00
N   -1.5479766428879973E+00    8.4811243783895858E+00    1.0486898076426410E+01
Ga   -1.5200762249168926E+00    1.0340564245452349E+01    1.1121551164467460E+01
N   -1.5032519362082821E+00    1.0350291440814505E+01    1.3115829192974818E+01
Ga   -1.5468930481105552E+00    8.4826597534048105E+00    1.3671839001914901E+01
N   -1.5143501361426959E+00    8.4701934581278433E+00    1.5636034595983507E+01
Ga   -1.6944194712570257E+00    1.0240530049981125E+01    1.6525241485343930E+01
N    6.5099955871844291E+00    2.0845770865393378E+00    2.5597396334702602E+00
Ga    6.5212621862112083E+00    1.1779194854376741E-01    2.9283611307034416E+00
N    6.5036317301193298E+00    1.1889625658874120E-01    5.1002373664711484E+00
Ga    6.5112319978415707E+00    1.9449836071988391E+00    5.8520403028776311E+00
N    6.5015345673823761E+00    1.9679278373325277E+00    7.8487281973719458E+00
Ga    6.5060284960639860E+00    1.2048077863174426E-01    8.4929411831104726E+00
N    6.5040576525872247E+00    1.1927895074650616E-01    1.0469035516124721E+01
Ga    6.5075710469628731E+00    1.9598942318331778E+00    1.1117405990797625E+01
N    6.5064294481058376E+00    1.9408116608315478E+00    1.3111798516423617E+01
Ga    6.5034745103122118E+00    1.2340489927135902E-01    1.3912561006466040E+01
N    6.5038422147836181E+00    1.2531181136975370E-01    1.6119678447368500E+01
Ga    6.5079049121327337E+00    2.1817111603393315E+00    1.6545134784306555E+01
Ga    6.6355864862734188E+00    3.8006199710423276E+00    1.2929673391441239E+00
N    4.9419541718286233E+00    4.6775186061996825E+00    2.4961985490138909E+00
Ga    4.9223807715067416E+00    2.9077175090244523E+00    3.3452432908358181E+00
N    4.8831128062955074E+00    2.8958011771910792E+00    5.2855242343272701E+00
Ga    4.8757548624813563E+00    4.7805872136049770E+00    5.8473588114541064E+00
N    4.8869966531526670E+00    4.7628833186457671E+00    7.8440314205090189E+00
Ga    4.9103958524455313E+00    2.9124284306984674E+00    8.4961660475510890E+00
N    4.9075886837620128E+00    2.9108642723923905E+00    1.0486137764395071E+01
Ga    4.8843977103062750E+00    4.7716955910440166E+00    1.1117872829179689E+01
N    4.8676670342691342E+00    4.7794535306278130E+00    1.3111778906186293E+01
Ga    4.9092725503455430E+00    2.9110009516896405E+00    1.3670526631961172E+01
N    4.8801010139471472E+00    2.8934307447289456E+00    1.5629544438350196E+01
Ga    5.0754836832387866E+00    4.6603221733580966E+00    1.6544789087528855E+01
N    6.5029071648569898E+00    3.8317022240892196E+00    1.7688929880979821E+01
N    3.2747444257092369E+00    7.6595684959661110E+00    2.5707218364891493E+00
N    3.2811638091366437E+00    5.6895727854844669E+00    5.1012211185246450E+00
Ga    3.2941080412060662E+00    7.5258934420750752E+00    5.8516040432105463E+00
N    3.2860535949840637E+00    7.5376308256510400E+00    7.8497328582167984E+00
Ga    3.2914500844433641E+00    5.6911932259577087E+00    8.4931667296179860E+00
N    3.2893590178666225E+00    5.6890606814097051E+00    1.0468153203456826E+01
Ga    3.2922810304666350E+00    7.5290862496053013E+00    1.1117025365052186E+01
N    3.2914604335301743E+00    7.5089670039552967E+00    1.3114726305940771E+01
Ga    3.2921868490017121E+00    5.6850572581605494E+00    1.3914748829622242E+01
N    3.2923132714100984E+00    5.6847260503461312E+00    1.6118202031772700E+01
Ga    3.2935734702926607E+00    7.6997274862891647E+00    1.6504104801224720E+01
Ga    3.3215919244856718E+00    9.4292803299132348E+00    1.2968043192519807E+00
N    1.7745032923635811E+00    1.0279222364064491E+01    2.5658234253317618E+00
Ga    1.6916533311739717E+00    8.4958851198332841E+00    3.3526225690764258E+00
N    1.6653938126271168E+00    8.4704623095308644E+00    5.3009178299421045E+00
Ga    1.6613497369008117E+00    1.0354642449720574E+01    5.8529613639523133E+00
N    1.6725746347173731E+00    1.0335866021560511E+01    7.8524186429066658E+00
Ga    1.6940298003502887E+00    8.4840213177662864E+00    8.4974201830144729E+00
N    1.6921208546300432E+00    8.4811299897109969E+00    1.0489308163105440E+01
Ga    1.6668332494545519E+00    1.0342484056095893E+01    1.1117745032672802E+01
N    1.6498320184488353E+00    1.0351414281118247E+01    1.3115110418296144E+01
Ga    1.6953285281795694E+00    8.4825917523920698E+00    1.3665397178662261E+01
N    1.6722902690251009E+00    8.4712721250827485E+00    1.5636447348264827E+01
Ga    1.8203885327405029E+00    1.0256809298433859E+01    1.6504780744705222E+01
N    3.2827317251123218E+00    9.3954869314130747E+00    1.7631648760807511E+01
N    9.7254786628912822E+00    1.9788909673050012E+00    2.6675902695918059E+00
Ga    9.7206366992124185E+00    2.0563372946119712E-01    3.2943341977152847E+00
N    9.7195109177268080E+00    1.2087516640882967E-01    5.2874718028481942E+00
Ga    9.7203187951555634E+00    1.9719279251600581E+00    5.9083206376902346E+00
N    9.7218677879776667E+00    1.9761187880547262E+00    7.8923477462371121E+00
Ga    9.7242634029466117E+00    1.0937803100074989E-01    8.4819815602219499E+00
N    9.7218513197858947E+00    1.0644431142033958E-01    1.0480234600496130E+01
Ga    9.7206892387766590E+00    1.9759381242672815E+00    1.1072141086540427E+01
N    9.7222067847761515E+00    1.9743979722006784E+00    1.3046367899075767E+01
Ga    9.7238210353681307E+00    1.0673381156246561E-01    1.3663308302033512E+01
N    9.7269074896484753E+00    1.3276824832194459E-01    1.5631387149079082E+01
Ga    9.7229374739719745E+00    1.9770283419590535E+00    1.5908806055812434E+01
N    8.0129234335477086E+00    4.6930100179892307E+00    2.5660568463436082E+00
Ga    8.1965840551611375E+00    2.8516871170259059E+00    3.3157433769370597E+00
N    8.1118799278304934E+00    2.9006944693613876E+00    5.2938563509481611E+00
Ga    8.1251481959453091E+00    4.7762470715317829E+00    5.8223299351548139E+00
N    8.1195468263910691E+00    4.7687570022276393E+00    7.8321033783341711E+00
Ga    8.1055778043839002E+00    2.9137547198136713E+00    8.4764144957886263E+00
N    8.1027246876415120E+00    2.9114858131424066E+00    1.0476057331692518E+01
Ga    8.1267199583543821E+00    4.7700838254650364E+00    1.1115264964339289E+01
N    8.1456178100873711E+00    4.7798944527597174E+00    1.3110549939889356E+01
Ga    8.1039429433122443E+00    2.9119335672263773E+00    1.3669684633824843E+01
N    8.1354727869241863E+00    2.8938482760377191E+00    1.5627449521644625E+01
Ga    7.9385245046603163E+00    4.6590336656026246E+00    1.6545932026011659E+01
N    6.4958583098986855E+00    7.5457583064473415E+00    2.6596873507646914E+00
Ga    6.4753241413060989E+00    5.7678813574412313E+00    3.2482627689683574E+00
N    6.4927118113232529E+00    5.6808893611408608E+00    5.2524618291152967E+00
Ga    6.4997503014819538E+00    7.5392846063168779E+00    5.8777414541933899E+00
N    6.5036930554560479E+00    7.5439434931059015E+00    7.8727295595910967E+00
Ga    6.5064435983818463E+00    5.6818515015571380E+00    8.4744296139046664E+00
N    6.5048747427506548E+00    5.6781719470294361E+00    1.0474309868045427E+01
Ga    6.5058941666958683E+00    7.5464875949813628E+00    1.1070849216017315E+01
N    6.5065412820674942E+00    7.5481091504812960E+00    1.3046536881040582E+01
Ga    6.5072798669388252E+00    5.6773985693640041E+00    1.3669784723236223E+01
N    6.5083176424965412E+00    5.7138013972874688E+00    1.5627698101712998E+01
Ga    6.5069839958291729E+00    7.5461860922313937E+00    1.5909186525930140E+01
N    4.7966079046093855E+00    1.0281037923635418E+01    2.5652729200882991E+00
Ga    4.9673639157731850E+00    8.4360634252468412E+00    3.2857941608912644E+00
N    4.8921507465388592E+00    8.4752231931628756E+00    5.2807896385630535E+00
Ga    4.9151856095859134E+00    1.0342368966045479E+01    5.8341981723234291E+00
N    4.9066623579203563E+00    1.0336902647802834E+01    7.8418330805449346E+00
Ga    4.8925878660874060E+00    8.4797668073066461E+00    8.4749552206630767E+00
N    4.8876787976459228E+00    8.4800644901938735E+00    1.0475772552804674E+01
Ga    4.9126491050884367E+00    1.0338939358598974E+01    1.1112411184255771E+01
N    4.9306230157818494E+00    1.0349761539589833E+01    1.3110750802203764E+01
Ga    4.8884485160618185E+00    8.4819832937970610E+00    1.3663864727212726E+01
N    4.9131543736199674E+00    8.4735908920725116E+00    1.5632780084557320E+01
Ga    4.7553319131251417E+00    1.0250170028203039E+01    1.6505257213403883E+01
O    8.8842727531010712E-01    3.7138322028315076E+00   -2.9119238328138292E-01
H    1.8853324283348820E+00    3.5453181117943844E+00   -9.6507285025942257E-03
C    4.4120411737333126E-01    2.6466901960419866E+00   -1.1865018088698644E+00
H    3.2996258647672078E-01    1.6990870614368738E+00   -6.4188061048537759E-01
H   -5.2442412318103504E-01    2.9556053779630354E+00   -1.6022933692586829E+00
H    1.1750118391676878E+00    2.5447086449237415E+00   -1.9942170577043652E+00
Ga    3.2869541436188965E+00    5.7205602529080819E+00    2.9673405638721220E+00
O    3.2616638189380596E+00    3.1723201215457597E+00    4.9373227436164480E-01
H    7.9244965508935825E-02    7.5420579442203541E+00    1.7229590815503799E+00
C    3.3488110592965530E+00    1.8846761525763669E+00    1.1832383383958853E+00
H    4.2859423636131169E+00    1.4017225100987583E+00    8.6697058604806421E-01
H    2.4994736289753479E+00    1.3004856545486467E+00    7.9627989285385947E-01
H    3.8210986700037650E+00    3.8324291245364428E+00    9.9116272737675537E-01
     &END COORD
     &KIND C
       BASIS_SET DZVP-MOLOPT-SR-GTH-q4
       POTENTIAL GTH-PBE-q4
       &POTENTIAL
 2 2
  0.3384712400000000E+00 2 -0.8803673979999999E+01  0.1339210850000000E+01
 2
  0.3025757500000000E+00 1  0.9622486650000001E+01
  0.2915069400000000E+00 0
         # Potential name:  GTH-PBE-Q4  for symbol:  C
         # Potential read from the potential filename: GTH_POTENTIALS
       &END POTENTIAL
     &END KIND
     &KIND O
       BASIS_SET DZVP-MOLOPT-SR-GTH-q6
       POTENTIAL GTH-PBE-q6
       &POTENTIAL
 2 4
  0.2445543000000000E+00 2 -0.1666721480000000E+02  0.2487311320000000E+01
 2
  0.2209559200000000E+00 1  0.1833745811000000E+02
  0.2113324700000000E+00 0
         # Potential name:  GTH-PBE-Q6  for symbol:  O
         # Potential read from the potential filename: GTH_POTENTIALS
       &END POTENTIAL
     &END KIND
     &KIND H
       BASIS_SET DZVP-MOLOPT-SR-GTH-q1
       POTENTIAL GTH-PBE-q1
       &POTENTIAL
 1
  0.2000000000000000E+00 2 -0.4178900440000000E+01  0.7244633100000000E+00
 0
         # Potential name:  GTH-PBE-Q1  for symbol:  H
         # Potential read from the potential filename: GTH_POTENTIALS
       &END POTENTIAL
     &END KIND
     &KIND N
       BASIS_SET DZVP-MOLOPT-SR-GTH
       POTENTIAL GTH-PBE-q5
       &POTENTIAL
 2 3
  0.2837905100000000E+00 2 -0.1241522559000000E+02  0.1868095920000000E+01
 2
  0.2554050000000000E+00 1  0.1363026257000000E+02
  0.2454945300000000E+00 0
         # Potential name:  GTH-PBE-Q5  for symbol:  N
         # Potential read from the potential filename: GTH_POTENTIALS
       &END POTENTIAL
     &END KIND
     &KIND Ga
       BASIS_SET DZVP-MOLOPT-SR-GTH
       POTENTIAL GTH-PBE-q13
       &POTENTIAL
 2 1 10
  0.4900000000000000E+00 0
 3
  0.4167772300000000E+00 3  0.1047568975000000E+02 -0.4921768140000000E+01  0.8707055900000000E+00
  0.7770178090000000E+01 -0.2248152160000000E+01
  0.1784415450000000E+01
  0.5696265200000000E+00 2  0.1777985340000000E+01  0.1958597600000000E+00
 -0.2317443900000000E+00
  0.2381265000000000E+00 1 -0.1624868022000000E+02
         # Potential name:  GTH-PBE-Q13  for symbol:  GA
         # Potential read from the potential filename: GTH_POTENTIALS
       &END POTENTIAL
     &END KIND
     &TOPOLOGY
       NUMBER_OF_ATOMS  212
       MULTIPLE_UNIT_CELL  1 1 1
     &END TOPOLOGY
   &END SUBSYS
 &END FORCE_EVAL
