 # Version information for this restart file 
 # current date 2019-07-21 16:36:50.674
 # current working dir /lustre04/scratch/rzk/rzk/GaN-carbene/443-adatoms-both-2x2/13-H2OCH2/01-Start090202
 # Program compiled at                              Sun Apr  7 00:48:11 EDT 2019
 # Program compiled on                          beluga2.int.ets1.calculquebec.ca
 # Program compiled for                        Beluga-Linux-x86-64-intel-openmpi
 # Source code revision number                                         svn:18619
 &GLOBAL
   PRINT_LEVEL  MEDIUM
   PROJECT_NAME TEST
   RUN_TYPE  GEO_OPT
 &END GLOBAL
 &MOTION
   &GEO_OPT
     MAX_ITER  500
     STEP_START_VAL  76
   &END GEO_OPT
 &END MOTION
 &FORCE_EVAL
   METHOD  QS
   STRESS_TENSOR  ANALYTICAL
   &DFT
     BASIS_SET_FILE_NAME BASIS_MOLOPT
     POTENTIAL_FILE_NAME GTH_POTENTIALS
     UKS  T
     SURFACE_DIPOLE_CORRECTION  T
     SURF_DIP_DIR  Z
     &SCF
       MAX_SCF  80
       EPS_SCF     5.0000000000000004E-06
       &OT  T
         PRECONDITIONER  FULL_ALL
       &END OT
       &OUTER_SCF  T
         OPTIMIZER  NONE
         EPS_SCF     5.0000000000000004E-06
         MAX_SCF  4
       &END OUTER_SCF
       &PRINT
         &RESTART  OFF
           BACKUP_COPIES  1
           &EACH
             JUST_ENERGY  0
             QS_SCF  0
             MD  20
           &END EACH
         &END RESTART
       &END PRINT
     &END SCF
     &QS
       EPS_DEFAULT     1.0000000000000000E-14
       METHOD  GPW
     &END QS
     &MGRID
       NGRIDS  5
       CUTOFF     1.2000000000000000E+03
     &END MGRID
     &XC
       DENSITY_CUTOFF     1.0000000000000000E-10
       GRADIENT_CUTOFF     1.0000000000000000E-10
       TAU_CUTOFF     1.0000000000000000E-10
       &XC_FUNCTIONAL  NO_SHORTCUT
         &PBE  T
         &END PBE
       &END XC_FUNCTIONAL
       &VDW_POTENTIAL
         POTENTIAL_TYPE  PAIR_POTENTIAL
         &PAIR_POTENTIAL
           R_CUTOFF     1.0000000000000005E+01
           TYPE  DFTD3
           PARAMETER_FILE_NAME dftd3.dat
           REFERENCE_FUNCTIONAL PBE
           EPS_CN     9.9999999999999995E-07
           CALCULATE_C9_TERM  T
           REFERENCE_C9_TERM  T
           LONG_RANGE_CORRECTION  F
           VERBOSE_OUTPUT  F
         &END PAIR_POTENTIAL
       &END VDW_POTENTIAL
     &END XC
   &END DFT
   &SUBSYS
     &CELL
       A     1.2864472766435110E+01    0.0000000000000000E+00    0.0000000000000000E+00
       B    -6.4322363581020028E+00    1.1140960178524475E+01    0.0000000000000000E+00
       C     0.0000000000000000E+00    0.0000000000000000E+00    3.2000000000000000E+01
       MULTIPLE_UNIT_CELL  1 1 1
       &CELL_REF
         A     1.2982353780853531E+01    0.0000000000000000E+00    0.0000000000000000E+00
         B    -6.4911768904267628E+00    1.1243048175136114E+01    0.0000000000000000E+00
         C     0.0000000000000000E+00    0.0000000000000000E+00    3.2000000000000000E+01
         MULTIPLE_UNIT_CELL  1 1 1
       &END CELL_REF
     &END CELL
     &COORD
N    8.7687326940320318E-02    2.1127382170368159E+00    2.5446321589398617E+00
Ga    8.7869237523019700E-02    1.1799765422158931E-01    2.9245174115705135E+00
N    6.6585299666658576E-02    1.2783498344132993E-01    5.0703975433182844E+00
Ga    6.8148533651220838E-02    1.9428894225729045E+00    5.8599924486179003E+00
N    7.5592613121146235E-02    1.9680244106791374E+00    7.8446129050878355E+00
Ga    7.6457795419269670E-02    1.1697665498364630E-01    8.4911443360358430E+00
N    7.4579754430838960E-02    1.1939991202750060E-01    1.0460777100871811E+01
Ga    7.2979237045958989E-02    1.9571821332822490E+00    1.1123669417585234E+01
N    7.3996841375109021E-02    1.9388892937211983E+00    1.3111004086028021E+01
Ga    7.3733455755801314E-02    1.1862686911620260E-01    1.3925419163667106E+01
N    7.3175514639035183E-02    1.1899465529105255E-01    1.6114041813328750E+01
Ga    7.3813063206756027E-02    2.1640544050871089E+00    1.6533681138038769E+01
Ga    7.2630899348538433E-02    3.8455888155945304E+00    1.5234781466006941E+00
N   -1.4092165623002273E+00    4.7056371019423482E+00    2.5353445452807093E+00
Ga   -1.6256638953337743E+00    2.8513524604594531E+00    3.3329401423398726E+00
N   -1.5297483471914310E+00    2.9093964088488415E+00    5.2951940592767839E+00
Ga   -1.5775007387893287E+00    4.7737482419543813E+00    5.8714632724285023E+00
N   -1.5448947227119338E+00    4.7667071837939927E+00    7.8534411981255898E+00
Ga   -1.5270167222770341E+00    2.9086509783748662E+00    8.4944553696155296E+00
N   -1.5230877028547036E+00    2.9106216812121573E+00    1.0479264641747877E+01
Ga   -1.5532177521439703E+00    4.7706354829351953E+00    1.1122367230475366E+01
N   -1.5672846800362423E+00    4.7804812585792531E+00    1.3110176722625631E+01
Ga   -1.5236953449974013E+00    2.9111338135792173E+00    1.3671493595253700E+01
N   -1.5508064649943476E+00    2.8952819427795942E+00    1.5628988798249328E+01
Ga   -1.3713674223114991E+00    4.6676656832638344E+00    1.6533651911409603E+01
N    6.8574728491885173E-02    3.8298931470843147E+00    1.7670066545168421E+01
N   -3.1406428414328698E+00    7.6457105043024916E+00    2.5336066395651446E+00
Ga   -3.1654223347448078E+00    5.6989161396629369E+00    2.9090104522380988E+00
N   -3.1372900761593905E+00    5.6834531279894147E+00    5.0684233425307736E+00
Ga   -3.1527717473018653E+00    7.5167302726551313E+00    5.8320252047466150E+00
N   -3.1426522090692197E+00    7.5378388769645301E+00    7.8292688055488782E+00
Ga   -3.1508240407748107E+00    5.6926807586528092E+00    8.4891524643604388E+00
N   -3.1448754992503498E+00    5.6908586594331307E+00    1.0460161334645493E+01
Ga   -3.1470693021022504E+00    7.5293777050507797E+00    1.1119958199379044E+01
N   -3.1433537635464219E+00    7.5099816847593237E+00    1.3108330422097938E+01
Ga   -3.1435809308301050E+00    5.6901823520891979E+00    1.3924096284510306E+01
N   -3.1432535369731922E+00    5.6896957275200810E+00    1.6113704824493453E+01
Ga   -3.1425146025888862E+00    7.7343426453237116E+00    1.6533021283948763E+01
Ga   -3.1993479498029478E+00    9.3375565374077674E+00    1.1613424002039157E+00
N   -4.6643921396007899E+00    1.0290550989066526E+01    2.5321021043106908E+00
Ga   -4.8241580014674081E+00    8.4305288770141562E+00    3.2565069740323538E+00
N   -4.7511305235556618E+00    8.4760689347008302E+00    5.2544011745819814E+00
Ga   -4.7803384221440188E+00    1.0338863244730156E+01    5.8296834924475460E+00
N   -4.7583362786525063E+00    1.0337952454682904E+01    7.8260983489575535E+00
Ga   -4.7448290926903232E+00    8.4787143101051061E+00    8.4733251165388683E+00
N   -4.7411162792809902E+00    8.4818460605378050E+00    1.0465837207086841E+01
Ga   -4.7669291085870986E+00    1.0338237243185040E+01    1.1119979671850761E+01
N   -4.7824627664869190E+00    1.0350044195124708E+01    1.3108370644994640E+01
Ga   -4.7402879570245133E+00    8.4811586379395614E+00    1.3670817451883657E+01
N   -4.7667849936983071E+00    8.4659403906879813E+00    1.5628141626668874E+01
Ga   -4.5884153745678322E+00    1.0238374905444102E+01    1.6533218022992443E+01
N   -3.1478845081509585E+00    9.4006660942187192E+00    1.7670439528308144E+01
N    3.3045008567955758E+00    1.9795928040629966E+00    2.6269558779684985E+00
Ga    3.2954085730994804E+00    8.8736960117896363E-02    3.3156970305747664E+00
N    3.2904904042126026E+00    1.3492975860674153E-01    5.2637674615104446E+00
Ga    3.2995142126350978E+00    1.9669847686573676E+00    5.9426262688732416E+00
N    3.2912566814467219E+00    1.9749740753614320E+00    7.8986279322203332E+00
Ga    3.2861979561117405E+00    1.0327270126162398E-01    8.4920940611461528E+00
N    3.2883612636286057E+00    1.0638955917307284E-01    1.0476508517266881E+01
Ga    3.2898926105194986E+00    1.9754832505239339E+00    1.1079571785631579E+01
N    3.2899656280410241E+00    1.9761556341686652E+00    1.3043242470210688E+01
Ga    3.2896867247130346E+00    1.0663459477770193E-01    1.3671986642006287E+01
N    3.2907453949880923E+00    1.3845205823621168E-01    1.5628457125559967E+01
Ga    3.2904296257413659E+00    1.9760863797312189E+00    1.5911294159136585E+01
N    1.5568488862947272E+00    4.7145620253337555E+00    2.6008799879822497E+00
Ga    1.7153657931797930E+00    2.8811733370672572E+00    3.3752313321923011E+00
N    1.7018526411509740E+00    2.8957438268713553E+00    5.2976696039786040E+00
Ga    1.7086597135024471E+00    4.7791496238992837E+00    5.8712200923546716E+00
N    1.6875716491676414E+00    4.7650287860917198E+00    7.8488759028402102E+00
Ga    1.6715561248751098E+00    2.9079874932620386E+00    8.4990375490454575E+00
N    1.6707344400618978E+00    2.9111457370935629E+00    1.0480622961567668E+01
Ga    1.6974653865217815E+00    4.7705378823409283E+00    1.1126143760915630E+01
N    1.7146166327613925E+00    4.7804738219380161E+00    1.3112128738421493E+01
Ga    1.6712136765562302E+00    2.9111219520671563E+00    1.3672859739910018E+01
N    1.6996188651536071E+00    2.8959939365260556E+00    1.5629396515393916E+01
Ga    1.5148244331219627E+00    4.6653131974011259E+00    1.6534808917093784E+01
N    6.0842133599088875E-02    7.5542934793706689E+00    2.7418253930546159E+00
Ga    5.6327260234033796E-02    5.7231011921902510E+00    3.4051366148168247E+00
N    6.6115310742715053E-02    5.7076156481870139E+00    5.3236705300114551E+00
Ga    5.4939963834681547E-02    7.5585815831106444E+00    5.9592702597417579E+00
N    6.9993471925360692E-02    7.5499767473678094E+00    7.9118262209815109E+00
Ga    6.9359472560604485E-02    5.6777721503020091E+00    8.5020071631549428E+00
N    7.3353889530766617E-02    5.6769339231229328E+00    1.0483157663555225E+01
Ga    7.1176409276313052E-02    7.5473841995236493E+00    1.1081528554757540E+01
N    7.2732633574819655E-02    7.5467903694266356E+00    1.3044771559234542E+01
Ga    7.3466565940718459E-02    5.6771146939689725E+00    1.3672491536138542E+01
N    7.4923935184424473E-02    5.7095633155628764E+00    1.5629044753904807E+01
Ga    7.3942677428411568E-02    7.5475475284703784E+00    1.5910467004044717E+01
N   -1.6094159522716738E+00    1.0289994347259523E+01    2.5373665004835027E+00
Ga   -1.5665707780866971E+00    8.4972279193680471E+00    3.3178758170788036E+00
N   -1.5285575657476653E+00    8.4740216665150978E+00    5.2722724575459585E+00
Ga   -1.5058811915741745E+00    1.0350105382012444E+01    5.8495522582791519E+00
N   -1.5299767783756195E+00    1.0336381609070736E+01    7.8383662392639017E+00
Ga   -1.5546427530866358E+00    8.4829422408364188E+00    8.4967067805560283E+00
N   -1.5482728156271603E+00    8.4823583811296164E+00    1.0479996530457068E+01
Ga   -1.5204337100112482E+00    1.0341718319925736E+01    1.1124067793243025E+01
N   -1.5021078352315946E+00    1.0351129989561095E+01    1.3110747330382161E+01
Ga   -1.5463440842566762E+00    8.4819128152013405E+00    1.3671846947668607E+01
N   -1.5176524219146352E+00    8.4667645911545417E+00    1.5628316056639234E+01
Ga   -1.7009101497742170E+00    1.0235888562210251E+01    1.6533798777013825E+01
N    6.5150202029097422E+00    2.0813218997444478E+00    2.5494171522014923E+00
Ga    6.4959245091721769E+00    1.2902497339724400E-01    2.9425134719628336E+00
N    6.5121945946370818E+00    1.1928900542172995E-01    5.0936455131415714E+00
Ga    6.5118828092845042E+00    1.9476296276709817E+00    5.8520719200012143E+00
N    6.5022158278232061E+00    1.9693113042407564E+00    7.8414706405398249E+00
Ga    6.5018473429054682E+00    1.2185613923574884E-01    8.4956293786103636E+00
N    6.5038652256863330E+00    1.2013801965164915E-01    1.0464016936208360E+01
Ga    6.5069868887935085E+00    1.9600752755966198E+00    1.1121464246895748E+01
N    6.5064467619715289E+00    1.9395110807213778E+00    1.3109600522082191E+01
Ga    6.5060927470533469E+00    1.2002000169026186E-01    1.3926878698607958E+01
N    6.5054385853226764E+00    1.1941773651137154E-01    1.6114200376230315E+01
Ga    6.5064101453981378E+00    2.1649624579642541E+00    1.6532739993972477E+01
Ga    6.6478407396736179E+00    3.7996897855703748E+00    1.2577491977545363E+00
N    4.9358201148510101E+00    4.6851446140087587E+00    2.4906193415337565E+00
Ga    4.9248517439173884E+00    2.9076748671473522E+00    3.3333314270867112E+00
N    4.8836251749548563E+00    2.8966079011813681E+00    5.2721102104534197E+00
Ga    4.8785980037127041E+00    4.7798993725123839E+00    5.8428542137186517E+00
N    4.8862889986339084E+00    4.7643788335449146E+00    7.8327500154888536E+00
Ga    4.9094996272967837E+00    2.9126080722829197E+00    8.4957311673915026E+00
N    4.9080211011877299E+00    2.9122378232809267E+00    1.0478969137300147E+01
Ga    4.8840968172100556E+00    4.7721016234756188E+00    1.1122285014907249E+01
N    4.8662157748214492E+00    4.7808431815918677E+00    1.3109851317628699E+01
Ga    4.9094694786571047E+00    2.9114665834160074E+00    1.3671186888017845E+01
N    4.8807382108124893E+00    2.8950168415695989E+00    1.5628384529178806E+01
Ga    5.0614830105587210E+00    4.6679031371144299E+00    1.6532683454710764E+01
N    6.5013771569443497E+00    3.8306735842068740E+00    1.7667577670233186E+01
N    3.2702677250055197E+00    7.6754394711613383E+00    2.5776822792693066E+00
N    3.2789068705750721E+00    5.6970705710194567E+00    5.0874137588444395E+00
Ga    3.2929786610996792E+00    7.5229733415981830E+00    5.8670322063979423E+00
N    3.2860617638975191E+00    7.5379540930549700E+00    7.8482919049450715E+00
Ga    3.2918391466487011E+00    5.6891827362573162E+00    8.4973181416690160E+00
N    3.2894712730709075E+00    5.6894102183377067E+00    1.0463959400595892E+01
Ga    3.2924833365140960E+00    7.5293377634279608E+00    1.1123288287053391E+01
N    3.2908907230911155E+00    7.5096744910279893E+00    1.3110522057980203E+01
Ga    3.2906787884949993E+00    5.6904750807516873E+00    1.3927642465985011E+01
N    3.2895433473754037E+00    5.6897484484517866E+00    1.6114623017920806E+01
Ga    3.2904411162875897E+00    7.7365765024687541E+00    1.6534279875635086E+01
Ga    3.3160420375490904E+00    9.4228326584885771E+00    1.5298524913040299E+00
N    1.7856520276216685E+00    1.0269551242189170E+01    2.5670055712104540E+00
Ga    1.6484823521698597E+00    8.4768529284141323E+00    3.3890259503352564E+00
N    1.6632994030389407E+00    8.4719176901365500E+00    5.3112581545809627E+00
Ga    1.6551109855212669E+00    1.0358744478869255E+01    5.8735975020226956E+00
N    1.6735574171481231E+00    1.0336108333133380E+01    7.8553964691199001E+00
Ga    1.6916803807734975E+00    8.4830998521343339E+00    8.5054206471658951E+00
N    1.6924261662829791E+00    8.4814754844073850E+00    1.0485649765625729E+01
Ga    1.6659378788656865E+00    1.0343242350302482E+01    1.1124081929808705E+01
N    1.6495251537212778E+00    1.0351523681107793E+01    1.3111294298819123E+01
Ga    1.6931994271337980E+00    8.4818464112222713E+00    1.3671903959774856E+01
N    1.6647178826260576E+00    8.4651646233012681E+00    1.5628638629084678E+01
Ga    1.8464778704106182E+00    1.0237533125371430E+01    1.6534119366632016E+01
N    3.2857867437346275E+00    9.4011676223508776E+00    1.7668666283207759E+01
N    9.7261179995089382E+00    1.9846657785470350E+00    2.6538974745387440E+00
Ga    9.7212305276951234E+00    2.4460202304422329E-01    3.3384706809403428E+00
N    9.7188736072779687E+00    1.1981154840340835E-01    5.2977040885602378E+00
Ga    9.7194275239254235E+00    1.9827671436926966E+00    5.9198059173642408E+00
N    9.7217533922164421E+00    1.9771386889346305E+00    7.8914652424687466E+00
Ga    9.7245834618842100E+00    1.1096631827581308E-01    8.4940322066272831E+00
N    9.7222966828395112E+00    1.0738987426445690E-01    1.0478988679069454E+01
Ga    9.7204954307023659E+00    1.9775016303900241E+00    1.1077182388749545E+01
N    9.7216241411281015E+00    1.9770377126072032E+00    1.3041806128054308E+01
Ga    9.7232769527085736E+00    1.0757176329016443E-01    1.3671189820934206E+01
N    9.7240450075187326E+00    1.3959214812972146E-01    1.5627456894673971E+01
Ga    9.7227985734131543E+00    1.9764280459854673E+00    1.5911096375429684E+01
N    8.0182406360542515E+00    4.6940928108040625E+00    2.5503312622266137E+00
Ga    8.1932851727949974E+00    2.8606198786058963E+00    3.3078224593931651E+00
N    8.1129228309055694E+00    2.9017585155851586E+00    5.2835127407104769E+00
Ga    8.1269183529127229E+00    4.7774519486724518E+00    5.8240346250937245E+00
N    8.1188463360532825E+00    4.7686226771774063E+00    7.8263631736469872E+00
Ga    8.1036778545012336E+00    2.9153528594751119E+00    8.4832090144761683E+00
N    8.1024137341840650E+00    2.9121431500639829E+00    1.0472471407305289E+01
Ga    8.1267912721210340E+00    4.7710326155690996E+00    1.1118066841353274E+01
N    8.1457135253064994E+00    4.7804701934745086E+00    1.3106902647241604E+01
Ga    8.1034803549871928E+00    2.9121520587773095E+00    1.3670862163382290E+01
N    8.1322353043784279E+00    2.8964560699667325E+00    1.5627497434066649E+01
Ga    7.9468575189174073E+00    4.6653960524681901E+00    1.6533167059475652E+01
N    6.5015074776523401E+00    7.5409206054261011E+00    2.6369020847137823E+00
Ga    6.4825222293617317E+00    5.7621618952410572E+00    3.2386622764466435E+00
N    6.4937542110790449E+00    5.6821639915921214E+00    5.2403104403765743E+00
Ga    6.5137612885665943E+00    7.5360575384539326E+00    5.8852293803036044E+00
N    6.5049442655220817E+00    7.5438082831646742E+00    7.8684096382401068E+00
Ga    6.5063583594854961E+00    5.6809133977327271E+00    8.4783237609902873E+00
N    6.5043000227649825E+00    5.6775384936948923E+00    1.0468670442743925E+01
Ga    6.5065411940310485E+00    7.5464081831560454E+00    1.1072204309871468E+01
N    6.5065763891409327E+00    7.5466540130482445E+00    1.3037886994932808E+01
Ga    6.5069469514234779E+00    5.6784581968228922E+00    1.3670260640294728E+01
N    6.5076348824855659E+00    5.7103337016394873E+00    1.5626875288293185E+01
Ga    6.5067010365876028E+00    7.5475677645988526E+00    1.5911559484940600E+01
N    4.7936220770674023E+00    1.0278296915062876E+01    2.5760089325199673E+00
Ga    5.0085761259739021E+00    8.4155849501582161E+00    3.3305124249856415E+00
N    4.8923534832847198E+00    8.4762701670824079E+00    5.2896524504670195E+00
Ga    4.9214170437323075E+00    1.0347127408944653E+01    5.8520463118782899E+00
N    4.9066585284302215E+00    1.0337583412980170E+01    7.8419107654665545E+00
Ga    4.8947628142235313E+00    8.4793131290383847E+00    8.4833814124439151E+00
N    4.8875416609894575E+00    8.4809748961853231E+00    1.0471742667637063E+01
Ga    4.9138753523756389E+00    1.0339824734698830E+01    1.1119772745871673E+01
N    4.9308208551035033E+00    1.0350546793044257E+01    1.3108049703244367E+01
Ga    4.8889099695239517E+00    8.4816891156199592E+00    1.3670932366920582E+01
N    4.9164756447042501E+00    8.4664315859261379E+00    1.5627136157611250E+01
Ga    4.7301700819398462E+00    1.0234977855281929E+01    1.6534827485011171E+01
O    8.9783512318370406E-01    3.7061949596130486E+00   -2.9689870375092930E-01
H    1.8993454145605986E+00    3.5446180258061770E+00   -1.4091492809917215E-02
C    4.5564592465484727E-01    2.6313971825950460E+00   -1.1844284651272690E+00
H    3.5048660738888943E-01    1.6872497323211109E+00   -6.3129404098709774E-01
H   -5.1327124150474446E-01    2.9284049517886928E+00   -1.6012600072426382E+00
H    1.1910250820533030E+00    2.5234704855946632E+00   -1.9902705736125932E+00
Ga    3.2837362396243877E+00    5.6970340615840813E+00    2.9751072283100339E+00
O    3.2651380309763125E+00    3.1749643270352834E+00    4.8013790989797556E-01
H    7.9986767431926467E-02    7.5363209254243060E+00    1.7157370425357221E+00
C    3.3479852569506807E+00    1.8859152686610892E+00    1.1700205966770996E+00
H    4.2849610006199326E+00    1.4026627908495894E+00    8.5209598416265919E-01
H    2.4989639657167113E+00    1.3035146559968056E+00    7.8043937157905197E-01
H    3.8265034596671477E+00    3.8338924473790499E+00    9.7662264177932812E-01
     &END COORD
     &KIND C
       BASIS_SET DZVP-MOLOPT-SR-GTH-q4
       POTENTIAL GTH-PBE-q4
       &POTENTIAL
2 2
0.3384712400000000E+00 2 -0.8803673979999999E+01  0.1339210850000000E+01
2
0.3025757500000000E+00 1  0.9622486650000001E+01
0.2915069400000000E+00 0
       &END POTENTIAL
     &END KIND
     &KIND O
       BASIS_SET DZVP-MOLOPT-SR-GTH-q6
       POTENTIAL GTH-PBE-q6
       &POTENTIAL
2 4
0.2445543000000000E+00 2 -0.1666721480000000E+02  0.2487311320000000E+01
2
0.2209559200000000E+00 1  0.1833745811000000E+02
0.2113324700000000E+00 0
       &END POTENTIAL
     &END KIND
     &KIND H
       BASIS_SET DZVP-MOLOPT-SR-GTH-q1
       POTENTIAL GTH-PBE-q1
       &POTENTIAL
1
0.2000000000000000E+00 2 -0.4178900440000000E+01  0.7244633100000000E+00
0
       &END POTENTIAL
     &END KIND
     &KIND N
       BASIS_SET DZVP-MOLOPT-SR-GTH
       POTENTIAL GTH-PBE-q5
       &POTENTIAL
2 3
0.2837905100000000E+00 2 -0.1241522559000000E+02  0.1868095920000000E+01
2
0.2554050000000000E+00 1  0.1363026257000000E+02
0.2454945300000000E+00 0
       &END POTENTIAL
     &END KIND
     &KIND Ga
       BASIS_SET DZVP-MOLOPT-SR-GTH
       POTENTIAL GTH-PBE-q13
       &POTENTIAL
2 1 10
0.4900000000000000E+00 0
3
0.4167772300000000E+00 3  0.1047568975000000E+02 -0.4921768140000000E+01  0.8707055900000000E+00
0.7770178090000000E+01 -0.2248152160000000E+01
0.1784415450000000E+01
0.5696265200000000E+00 2  0.1777985340000000E+01  0.1958597600000000E+00
-0.2317443900000000E+00
0.2381265000000000E+00 1 -0.1624868022000000E+02
       &END POTENTIAL
     &END KIND
     &TOPOLOGY
       NUMBER_OF_ATOMS  212
       MULTIPLE_UNIT_CELL  1 1 1
     &END TOPOLOGY
   &END SUBSYS
 &END FORCE_EVAL
