 # Version information for this restart file 
 # current date 2019-07-21 11:49:50.330
 # current working dir /lustre04/scratch/rzk/rzk/GaN-carbene/443-adatoms-both-2x2/13-H2OCH2/01-Start090202
 # Program compiled at                              Sun Apr  7 00:48:11 EDT 2019
 # Program compiled on                          beluga2.int.ets1.calculquebec.ca
 # Program compiled for                        Beluga-Linux-x86-64-intel-openmpi
 # Source code revision number                                         svn:18619
 &GLOBAL
   PRINT_LEVEL  MEDIUM
   PROJECT_NAME TEST
   RUN_TYPE  GEO_OPT
 &END GLOBAL
 &MOTION
   &GEO_OPT
     MAX_ITER  500
     STEP_START_VAL  59
   &END GEO_OPT
 &END MOTION
 &FORCE_EVAL
   METHOD  QS
   STRESS_TENSOR  ANALYTICAL
   &DFT
     BASIS_SET_FILE_NAME BASIS_MOLOPT
     POTENTIAL_FILE_NAME GTH_POTENTIALS
     UKS  T
     SURFACE_DIPOLE_CORRECTION  T
     SURF_DIP_DIR  Z
     &SCF
       MAX_SCF  80
       EPS_SCF     5.0000000000000004E-06
       &OT  T
         PRECONDITIONER  FULL_ALL
       &END OT
       &OUTER_SCF  T
         OPTIMIZER  NONE
         EPS_SCF     5.0000000000000004E-06
         MAX_SCF  4
       &END OUTER_SCF
       &PRINT
         &RESTART  OFF
           BACKUP_COPIES  1
           &EACH
             JUST_ENERGY  0
             QS_SCF  0
             MD  20
           &END EACH
         &END RESTART
       &END PRINT
     &END SCF
     &QS
       EPS_DEFAULT     1.0000000000000000E-14
       METHOD  GPW
     &END QS
     &MGRID
       NGRIDS  5
       CUTOFF     1.2000000000000000E+03
     &END MGRID
     &XC
       DENSITY_CUTOFF     1.0000000000000000E-10
       GRADIENT_CUTOFF     1.0000000000000000E-10
       TAU_CUTOFF     1.0000000000000000E-10
       &XC_FUNCTIONAL  NO_SHORTCUT
         &PBE  T
         &END PBE
       &END XC_FUNCTIONAL
       &VDW_POTENTIAL
         POTENTIAL_TYPE  PAIR_POTENTIAL
         &PAIR_POTENTIAL
           R_CUTOFF     1.0000000000000004E+01
           TYPE  DFTD3
           PARAMETER_FILE_NAME dftd3.dat
           REFERENCE_FUNCTIONAL PBE
           EPS_CN     9.9999999999999995E-07
           CALCULATE_C9_TERM  T
           REFERENCE_C9_TERM  T
           LONG_RANGE_CORRECTION  F
           VERBOSE_OUTPUT  F
         &END PAIR_POTENTIAL
       &END VDW_POTENTIAL
     &END XC
   &END DFT
   &SUBSYS
     &CELL
       A     1.2864472766435110E+01    0.0000000000000000E+00    0.0000000000000000E+00
       B    -6.4322363581020028E+00    1.1140960178524473E+01    0.0000000000000000E+00
       C     0.0000000000000000E+00    0.0000000000000000E+00    3.2000000000000000E+01
       MULTIPLE_UNIT_CELL  1 1 1
       &CELL_REF
         A     1.2982353780853531E+01    0.0000000000000000E+00    0.0000000000000000E+00
         B    -6.4911768904267628E+00    1.1243048175136114E+01    0.0000000000000000E+00
         C     0.0000000000000000E+00    0.0000000000000000E+00    3.2000000000000000E+01
         MULTIPLE_UNIT_CELL  1 1 1
       &END CELL_REF
     &END CELL
     &COORD
N    8.9279598497473411E-02    2.1102495188681214E+00    2.5508432908821774E+00
Ga    5.8155907140150932E-02    1.0347210934258644E-01    2.9150281716391548E+00
N    7.3065298211177201E-02    1.2522726770289788E-01    5.0767732494574096E+00
Ga    6.8035027080610239E-02    1.9395014317178589E+00    5.8576403030610464E+00
N    7.5723369350483863E-02    1.9668173800174631E+00    7.8486313802576779E+00
Ga    7.2137857458475160E-02    1.1568875911110250E-01    8.4886487676184750E+00
N    7.3612438862902294E-02    1.1885070461840616E-01    1.0464280656570569E+01
Ga    7.1761675257550131E-02    1.9577881442650624E+00    1.1118404908743234E+01
N    7.4114456451243121E-02    1.9402058381582170E+00    1.3111222908382612E+01
Ga    7.8843040857093538E-02    1.2174560051981866E-01    1.3909245247638928E+01
N    8.1586598733345644E-02    1.2139939997679805E-01    1.6119178389817495E+01
Ga    7.6546390430991526E-02    2.1698132334161229E+00    1.6537152771119906E+01
Ga    7.1959741103222133E-02    3.8459999025926281E+00    1.5332466674821104E+00
N   -1.4089869503846721E+00    4.7085907074798365E+00    2.5455853708480927E+00
Ga   -1.6272342162347517E+00    2.8425601510093901E+00    3.3347568233194385E+00
N   -1.5286663692989420E+00    2.9088555105834741E+00    5.3015141615628529E+00
Ga   -1.5743618143076588E+00    4.7731129513854862E+00    5.8653926079719323E+00
N   -1.5453635006005693E+00    4.7671468183926402E+00    7.8542084773252316E+00
Ga   -1.5288058478079487E+00    2.9075559365149433E+00    8.4864527854050724E+00
N   -1.5240370044952114E+00    2.9102596397641873E+00    1.0479941950997254E+01
Ga   -1.5528700827706765E+00    4.7692021183927107E+00    1.1119874985258120E+01
N   -1.5659181888949723E+00    4.7793584410799319E+00    1.3113740887967641E+01
Ga   -1.5222214655638888E+00    2.9110330748994606E+00    1.3670683343008321E+01
N   -1.5482252820962452E+00    2.8910358569883412E+00    1.5633567028564098E+01
Ga   -1.3739704786198590E+00    4.6705811642496400E+00    1.6535710739350311E+01
N    6.5697736031796211E-02    3.8358204216877474E+00    1.7672287922246618E+01
N   -3.1381136106468643E+00    7.6588175501796965E+00    2.5572425563701757E+00
Ga   -3.1640466220972736E+00    5.6943449777937989E+00    2.9047060052126432E+00
N   -3.1382384609362801E+00    5.6852728937585395E+00    5.0695201626224602E+00
Ga   -3.1516246092584397E+00    7.5145249424921294E+00    5.8393488464290710E+00
N   -3.1420356517943526E+00    7.5360518707733943E+00    7.8384323003063043E+00
Ga   -3.1498121596980746E+00    5.6905905077071761E+00    8.4895651324406991E+00
N   -3.1442309378008773E+00    5.6898388848327626E+00    1.0465080615908489E+01
Ga   -3.1469374523920530E+00    7.5280818353873773E+00    1.1118814300921260E+01
N   -3.1426415419981799E+00    7.5100530166162960E+00    1.3112764686571950E+01
Ga   -3.1443042064852254E+00    5.6883527278323029E+00    1.3919265370615287E+01
N   -3.1420191936008424E+00    5.6904106071407252E+00    1.6118312396048701E+01
Ga   -3.1413801204847713E+00    7.7324553474472317E+00    1.6535038270774670E+01
Ga   -3.1897236503716933E+00    9.3576018616638006E+00    1.2809378766932706E+00
N   -4.6508899040728995E+00    1.0287595155399282E+01    2.5554371664002904E+00
Ga   -4.8404325669423045E+00    8.4256753334119665E+00    3.2877505990303288E+00
N   -4.7494947241253564E+00    8.4752073893794631E+00    5.2767972662975682E+00
Ga   -4.7847400116279877E+00    1.0339524062578064E+01    5.8404957980791767E+00
N   -4.7586067071777611E+00    1.0337571982633767E+01    7.8383648083911988E+00
Ga   -4.7466448580245553E+00    8.4763748996740684E+00    8.4721803414169692E+00
N   -4.7413010754093818E+00    8.4802800353087946E+00    1.0471609928443605E+01
Ga   -4.7672878013681004E+00    1.0337136312063388E+01    1.1115798189037713E+01
N   -4.7810687745569043E+00    1.0349357327932609E+01    1.3109196565023526E+01
Ga   -4.7401907097218432E+00    8.4809912996622163E+00    1.3668756456972730E+01
N   -4.7700525902962720E+00    8.4675522955966702E+00    1.5630144984107678E+01
Ga   -4.5796135316428606E+00    1.0235170881290369E+01    1.6536521455683030E+01
N   -3.1447415344818723E+00    9.3951910518709294E+00    1.7671940530059604E+01
N    3.3030856353862674E+00    1.9795346428322631E+00    2.6400874448930365E+00
Ga    3.2944933851993414E+00    1.0665755857888928E-01    3.3486167402342257E+00
N    3.2898646936687035E+00    1.3615225786032317E-01    5.2887796479625564E+00
Ga    3.2973347605855783E+00    1.9713611151640871E+00    5.9519759475052876E+00
N    3.2908231606026690E+00    1.9747096679745741E+00    7.9096792453696381E+00
Ga    3.2857451549560417E+00    1.0272025434186627E-01    8.4948773480757325E+00
N    3.2883377088671204E+00    1.0610013743955694E-01    1.0483370833430030E+01
Ga    3.2900169443392899E+00    1.9757825402163109E+00    1.1079248624276374E+01
N    3.2897828391301984E+00    1.9768744410843984E+00    1.3048302472980696E+01
Ga    3.2899215917759488E+00    1.0707425203345636E-01    1.3670434952196372E+01
N    3.2911818493456577E+00    1.4000066054784036E-01    1.5629843515334908E+01
Ga    3.2934814706168614E+00    1.9779616301323479E+00    1.5909460788310557E+01
N    1.5584320090349391E+00    4.7116321575581077E+00    2.6067299922148233E+00
Ga    1.7120269288411847E+00    2.8846671408253726E+00    3.3810415049042697E+00
N    1.7013830568848176E+00    2.8945874808514991E+00    5.3068616201885073E+00
Ga    1.7107967381321463E+00    4.7799846702161295E+00    5.8710834297013248E+00
N    1.6864058655815106E+00    4.7637633792369343E+00    7.8550221983641082E+00
Ga    1.6695126379800558E+00    2.9079759705308144E+00    8.4984317301322250E+00
N    1.6704244207811474E+00    2.9101618304071279E+00    1.0484981970465869E+01
Ga    1.6965998421334434E+00    4.7699080823844699E+00    1.1121523710471962E+01
N    1.7132340492712563E+00    4.7788198666587549E+00    1.3113135921710626E+01
Ga    1.6709865857531361E+00    2.9107139494667109E+00    1.3672319289435858E+01
N    1.6998958101751047E+00    2.8959985544683979E+00    1.5632760934146356E+01
Ga    1.5142928987211945E+00    4.6628260762639311E+00    1.6537019321934270E+01
N    7.2196578309295059E-02    7.5607681681693304E+00    2.7495671515615498E+00
Ga    6.6674348252437093E-02    5.7311335833255610E+00    3.4062478155177209E+00
N    6.7432094957150607E-02    5.7079131495294746E+00    5.3291848364139565E+00
Ga    7.0170972370645929E-02    7.5615663480414428E+00    5.9549189166018239E+00
N    7.1053021650574866E-02    7.5495285502418827E+00    7.9154368065936067E+00
Ga    6.8841173176407755E-02    5.6779950633977485E+00    8.4980181068783160E+00
N    7.2504935495060152E-02    5.6765275088266058E+00    1.0486330634475056E+01
Ga    7.2491521975688714E-02    7.5463279300722741E+00    1.1079082084706400E+01
N    7.5479820902722414E-02    7.5462446849571991E+00    1.3049877051366725E+01
Ga    7.4120641219314096E-02    5.6759492859135152E+00    1.3672713467956394E+01
N    8.0539036006210082E-02    5.7103950970817356E+00    1.5633830322357932E+01
Ga    7.4439915749401148E-02    7.5462986642744427E+00    1.5914360793682036E+01
N   -1.6282796248176117E+00    1.0285249433758185E+01    2.5554759986194862E+00
Ga   -1.5430001070017771E+00    8.4899923558704131E+00    3.3449450803211560E+00
N   -1.5273310737217232E+00    8.4723338273716262E+00    5.2925219399316008E+00
Ga   -1.5031771565183913E+00    1.0350071475771083E+01    5.8586606949024782E+00
N   -1.5306616471221062E+00    1.0335176228193154E+01    7.8495113080852175E+00
Ga   -1.5523407960904130E+00    8.4801978794295163E+00    8.4963530107952074E+00
N   -1.5476429223785253E+00    8.4806686100423985E+00    1.0485908956553644E+01
Ga   -1.5201393312900697E+00    1.0340554784148585E+01    1.1120574944819348E+01
N   -1.5028892325190120E+00    1.0350213612579807E+01    1.3112192213018929E+01
Ga   -1.5449236257774059E+00    8.4813037624162266E+00    1.3671092375890620E+01
N   -1.5119767674503710E+00    8.4681355818869264E+00    1.5631185834388367E+01
Ga   -1.7056046631452670E+00    1.0234164681953414E+01    1.6536794802995406E+01
N    6.5096967747866676E+00    2.0815276241592198E+00    2.5599614006566447E+00
Ga    6.5231797097679012E+00    1.1480516094870594E-01    2.9281017412038213E+00
N    6.5037881248432470E+00    1.1787664279201379E-01    5.0986086123320424E+00
Ga    6.5112905468606526E+00    1.9441284405517643E+00    5.8515293018052335E+00
N    6.5017728119591967E+00    1.9674402281097507E+00    7.8465728038664473E+00
Ga    6.5052147723527138E+00    1.1951159118208697E-01    8.4934127972125140E+00
N    6.5044434626506149E+00    1.1870856657938551E-01    1.0467514749580705E+01
Ga    6.5081764919463412E+00    1.9606031567039390E+00    1.1115830875121466E+01
N    6.5069414658214395E+00    1.9407601249354720E+00    1.3108265950831184E+01
Ga    6.5017548434108976E+00    1.2467149385940506E-01    1.3912424444373695E+01
N    6.4991786354044692E+00    1.2170471633809986E-01    1.6119012070367102E+01
Ga    6.5060962552839383E+00    2.1773884021591341E+00    1.6545029320608670E+01
Ga    6.6334524766342158E+00    3.8028097277653532E+00    1.2936469184993620E+00
N    4.9411636831856152E+00    4.6791093636457548E+00    2.4979895430392243E+00
Ga    4.9224898889074247E+00    2.9074615298801234E+00    3.3465484731750452E+00
N    4.8820750576459204E+00    2.8957136617001766E+00    5.2854601394019030E+00
Ga    4.8750619848028149E+00    4.7814276367433424E+00    5.8466427303140902E+00
N    4.8865063157495490E+00    4.7634851768721500E+00    7.8414677613806854E+00
Ga    4.9105762980630274E+00    2.9123740921630827E+00    8.4958691798228809E+00
N    4.9077102841461278E+00    2.9108816963630240E+00    1.0482773415609060E+01
Ga    4.8848478626080496E+00    4.7714196440592804E+00    1.1116971371298094E+01
N    4.8679394783030761E+00    4.7790870591315286E+00    1.3109090872233750E+01
Ga    4.9109554424925381E+00    2.9114426296609421E+00    1.3672343927864574E+01
N    4.8840427861404976E+00    2.8960862661565363E+00    1.5631115701525884E+01
Ga    5.0722440903222070E+00    4.6609869057458146E+00    1.6544152212374549E+01
N    6.5068000831037667E+00    3.8344183640896308E+00    1.7685894040461243E+01
N    3.2747921954015187E+00    7.6628021508930049E+00    2.5704421884496371E+00
N    3.2804822846322783E+00    5.6895190932638711E+00    5.0989056646268747E+00
Ga    3.2931267720061004E+00    7.5254047391909058E+00    5.8531697483789298E+00
N    3.2851497534098475E+00    7.5369748875105893E+00    7.8490586081361799E+00
Ga    3.2907660094680997E+00    5.6912228205579369E+00    8.4941873494747870E+00
N    3.2886356405105595E+00    5.6893453457303798E+00    1.0467674764284968E+01
Ga    3.2926933883649840E+00    7.5294916587012741E+00    1.1117259027384277E+01
N    3.2910708639784292E+00    7.5091712992343984E+00    1.3115082997001867E+01
Ga    3.2922661373350239E+00    5.6829659809405699E+00    1.3913489748112575E+01
N    3.2903711859469773E+00    5.6813690186634060E+00    1.6119118242789739E+01
Ga    3.2927236638031361E+00    7.6982808572211132E+00    1.6499372724997553E+01
Ga    3.3191798708581617E+00    9.4326263098787688E+00    1.3058554495034564E+00
N    1.7787471366063456E+00    1.0277766556130947E+01    2.5603264035473376E+00
Ga    1.6937725597746256E+00    8.4956639205993518E+00    3.3533592275505368E+00
N    1.6657598130765787E+00    8.4709128307459309E+00    5.3023839792954330E+00
Ga    1.6604568474221082E+00    1.0353768701834372E+01    5.8547579841286783E+00
N    1.6720229130034425E+00    1.0335502727121572E+01    7.8523194393959326E+00
Ga    1.6935109348715802E+00    8.4837426215818788E+00    8.4980035992477543E+00
N    1.6922689371156623E+00    8.4812490024085037E+00    1.0488540195021676E+01
Ga    1.6671821748355862E+00    1.0342652458434950E+01    1.1117918207628771E+01
N    1.6500402882334302E+00    1.0351237757093838E+01    1.3115497998646427E+01
Ga    1.6935554061944527E+00    8.4813617923459024E+00    1.3665742566276757E+01
N    1.6730284175150736E+00    8.4680053750174160E+00    1.5638153781915998E+01
Ga    1.8145955427199094E+00    1.0257080580997911E+01    1.6499807710343056E+01
N    3.2849573023050405E+00    9.4007717924284862E+00    1.7625443746386509E+01
N    9.7254033212963176E+00    1.9780895644011602E+00    2.6692227439242817E+00
Ga    9.7208326896060626E+00    2.0486102363629552E-01    3.2956023576716875E+00
N    9.7183236975835037E+00    1.1974853824646899E-01    5.2890558992175061E+00
Ga    9.7200306237959087E+00    1.9713815955990268E+00    5.9073127574026412E+00
N    9.7217968994380524E+00    1.9765625590789786E+00    7.8900611345491702E+00
Ga    9.7241117830169834E+00    1.0945511596198126E-01    8.4808625672850582E+00
N    9.7220371972172490E+00    1.0708316136672671E-01    1.0478214840476880E+01
Ga    9.7202851515082411E+00    1.9765315188204857E+00    1.1072768197484317E+01
N    9.7226623151952456E+00    1.9756036329318818E+00    1.3046734897462052E+01
Ga    9.7236519471716232E+00    1.0744825376789813E-01    1.3663773201574259E+01
N    9.7258762086585033E+00    1.3307253382435960E-01    1.5636196353250284E+01
Ga    9.7221361282166114E+00    1.9799323523331283E+00    1.5910150862459325E+01
N    8.0150735280434606E+00    4.6937597086766418E+00    2.5627418256174623E+00
Ga    8.1967180727487943E+00    2.8506721531214883E+00    3.3146798116760996E+00
N    8.1114217699390672E+00    2.9010071478840227E+00    5.2931468018601597E+00
Ga    8.1262822781011916E+00    4.7759523927460013E+00    5.8222129213411948E+00
N    8.1203331041930937E+00    4.7689012688646564E+00    7.8302807864407242E+00
Ga    8.1057173760046659E+00    2.9136426078570437E+00    8.4760825202458854E+00
N    8.1036796033085530E+00    2.9114341812450433E+00    1.0472564908141171E+01
Ga    8.1264773064123599E+00    4.7692817415744182E+00    1.1114930595031357E+01
N    8.1453391707480254E+00    4.7790665869028235E+00    1.3108691513249131E+01
Ga    8.1024396327195856E+00    2.9120389699598088E+00    1.3671906634095720E+01
N    8.1308134542395081E+00    2.8937758846139960E+00    1.5631244584188419E+01
Ga    7.9446331122732587E+00    4.6644309377602839E+00    1.6544408903482822E+01
N    6.4948928142685283E+00    7.5461972147043417E+00    2.6602651124508663E+00
Ga    6.4769827306388814E+00    5.7695739838255280E+00    3.2500652256454101E+00
N    6.4934414528089350E+00    5.6807499669592545E+00    5.2529721505493914E+00
Ga    6.5010813968887176E+00    7.5399481601755172E+00    5.8796231410945055E+00
N    6.5045983683843174E+00    7.5433851314259490E+00    7.8723489948243568E+00
Ga    6.5067685979922798E+00    5.6814376004419440E+00    8.4747439467007322E+00
N    6.5052370977933283E+00    5.6771654556092175E+00    1.0471359131164716E+01
Ga    6.5051203267068125E+00    7.5452771466716042E+00    1.1069252085823591E+01
N    6.5049908078173333E+00    7.5466800438666519E+00    1.3042908743296273E+01
Ga    6.5069818434604851E+00    5.6762975845065373E+00    1.3671044041655513E+01
N    6.5048096418827734E+00    5.7091932426450835E+00    1.5629869753328688E+01
Ga    6.5095169786906766E+00    7.5437723699188624E+00    1.5911582139307589E+01
N    4.7947831172902857E+00    1.0281028689638889E+01    2.5684493214303217E+00
Ga    4.9655739182587322E+00    8.4348625342227361E+00    3.2910629502016873E+00
N    4.8921822968328437E+00    8.4739251699048790E+00    5.2838872796844658E+00
Ga    4.9152565920765570E+00    1.0342606089322253E+01    5.8332642406567192E+00
N    4.9070406599863050E+00    1.0337800295910442E+01    7.8394005202237755E+00
Ga    4.8924041482978513E+00    8.4799941916221204E+00    8.4728670786909550E+00
N    4.8873333112977981E+00    8.4808118391670266E+00    1.0472967516193179E+01
Ga    4.9121710511606400E+00    1.0338886268069206E+01    1.1112558763179312E+01
N    4.9308245960478994E+00    1.0350353177717565E+01    1.3111405940704364E+01
Ga    4.8893751083115742E+00    8.4812192070071450E+00    1.3663469895684093E+01
N    4.9118486458289787E+00    8.4689577836039369E+00    1.5635097760487662E+01
Ga    4.7638447783439641E+00    1.0252764882764742E+01    1.6500388318050849E+01
O    8.9150352318669324E-01    3.7106943225990485E+00   -2.8804414393230482E-01
H    1.8930640814405737E+00    3.5494151252948725E+00   -1.2033664687189286E-02
C    4.3443048741110973E-01    2.6542438755365869E+00   -1.1894675943695072E+00
H    3.2027573457984648E-01    1.7043243778843540E+00   -6.4461257460911370E-01
H   -5.3313301509585265E-01    2.9673425818888117E+00   -1.5979402564293117E+00
H    1.1713963459342296E+00    2.5502965409245641E+00   -1.9953046025774017E+00
Ga    3.2855196309820531E+00    5.7237678260006417E+00    2.9663947527914343E+00
O    3.2593765306502034E+00    3.1648988064915335E+00    4.9040867797188403E-01
H    7.7343889007105773E-02    7.5400349485124121E+00    1.7225327737556382E+00
C    3.3457865820835497E+00    1.8809175835518324E+00    1.1822894104784223E+00
H    4.2863106258067969E+00    1.3990645217814863E+00    8.6648052774996542E-01
H    2.4976833188551320E+00    1.2946163157944142E+00    7.9339963953773074E-01
H    3.8204292480925477E+00    3.8275773271353097E+00    9.8274594121708425E-01
     &END COORD
     &KIND C
       BASIS_SET DZVP-MOLOPT-SR-GTH-q4
       POTENTIAL GTH-PBE-q4
       &POTENTIAL
 2 2
  0.3384712400000000E+00 2 -0.8803673979999999E+01  0.1339210850000000E+01
 2
  0.3025757500000000E+00 1  0.9622486650000001E+01
  0.2915069400000000E+00 0
         # Potential name:  GTH-PBE-Q4  for symbol:  C
         # Potential read from the potential filename: GTH_POTENTIALS
       &END POTENTIAL
     &END KIND
     &KIND O
       BASIS_SET DZVP-MOLOPT-SR-GTH-q6
       POTENTIAL GTH-PBE-q6
       &POTENTIAL
 2 4
  0.2445543000000000E+00 2 -0.1666721480000000E+02  0.2487311320000000E+01
 2
  0.2209559200000000E+00 1  0.1833745811000000E+02
  0.2113324700000000E+00 0
         # Potential name:  GTH-PBE-Q6  for symbol:  O
         # Potential read from the potential filename: GTH_POTENTIALS
       &END POTENTIAL
     &END KIND
     &KIND H
       BASIS_SET DZVP-MOLOPT-SR-GTH-q1
       POTENTIAL GTH-PBE-q1
       &POTENTIAL
 1
  0.2000000000000000E+00 2 -0.4178900440000000E+01  0.7244633100000000E+00
 0
         # Potential name:  GTH-PBE-Q1  for symbol:  H
         # Potential read from the potential filename: GTH_POTENTIALS
       &END POTENTIAL
     &END KIND
     &KIND N
       BASIS_SET DZVP-MOLOPT-SR-GTH
       POTENTIAL GTH-PBE-q5
       &POTENTIAL
 2 3
  0.2837905100000000E+00 2 -0.1241522559000000E+02  0.1868095920000000E+01
 2
  0.2554050000000000E+00 1  0.1363026257000000E+02
  0.2454945300000000E+00 0
         # Potential name:  GTH-PBE-Q5  for symbol:  N
         # Potential read from the potential filename: GTH_POTENTIALS
       &END POTENTIAL
     &END KIND
     &KIND Ga
       BASIS_SET DZVP-MOLOPT-SR-GTH
       POTENTIAL GTH-PBE-q13
       &POTENTIAL
 2 1 10
  0.4900000000000000E+00 0
 3
  0.4167772300000000E+00 3  0.1047568975000000E+02 -0.4921768140000000E+01  0.8707055900000000E+00
  0.7770178090000000E+01 -0.2248152160000000E+01
  0.1784415450000000E+01
  0.5696265200000000E+00 2  0.1777985340000000E+01  0.1958597600000000E+00
 -0.2317443900000000E+00
  0.2381265000000000E+00 1 -0.1624868022000000E+02
         # Potential name:  GTH-PBE-Q13  for symbol:  GA
         # Potential read from the potential filename: GTH_POTENTIALS
       &END POTENTIAL
     &END KIND
     &TOPOLOGY
       NUMBER_OF_ATOMS  212
       MULTIPLE_UNIT_CELL  1 1 1
     &END TOPOLOGY
   &END SUBSYS
 &END FORCE_EVAL
