 # Version information for this restart file 
 # current date 2019-07-21 10:48:30.702
 # current working dir /lustre04/scratch/rzk/rzk/GaN-carbene/443-adatoms-both-2x2/13-H2OCH2/01-Start090202
 # Program compiled at                              Sun Apr  7 00:48:11 EDT 2019
 # Program compiled on                          beluga2.int.ets1.calculquebec.ca
 # Program compiled for                        Beluga-Linux-x86-64-intel-openmpi
 # Source code revision number                                         svn:18619
 &GLOBAL
   PRINT_LEVEL  MEDIUM
   PROJECT_NAME TEST
   RUN_TYPE  GEO_OPT
 &END GLOBAL
 &MOTION
   &GEO_OPT
     MAX_ITER  500
     STEP_START_VAL  54
   &END GEO_OPT
 &END MOTION
 &FORCE_EVAL
   METHOD  QS
   STRESS_TENSOR  ANALYTICAL
   &DFT
     BASIS_SET_FILE_NAME BASIS_MOLOPT
     POTENTIAL_FILE_NAME GTH_POTENTIALS
     UKS  T
     SURFACE_DIPOLE_CORRECTION  T
     SURF_DIP_DIR  Z
     &SCF
       MAX_SCF  80
       EPS_SCF     5.0000000000000004E-06
       &OT  T
         PRECONDITIONER  FULL_ALL
       &END OT
       &OUTER_SCF  T
         OPTIMIZER  NONE
         EPS_SCF     5.0000000000000004E-06
         MAX_SCF  4
       &END OUTER_SCF
       &PRINT
         &RESTART  OFF
           BACKUP_COPIES  1
           &EACH
             JUST_ENERGY  0
             QS_SCF  0
             MD  20
           &END EACH
         &END RESTART
       &END PRINT
     &END SCF
     &QS
       EPS_DEFAULT     1.0000000000000000E-14
       METHOD  GPW
     &END QS
     &MGRID
       NGRIDS  5
       CUTOFF     1.2000000000000000E+03
     &END MGRID
     &XC
       DENSITY_CUTOFF     1.0000000000000000E-10
       GRADIENT_CUTOFF     1.0000000000000000E-10
       TAU_CUTOFF     1.0000000000000000E-10
       &XC_FUNCTIONAL  NO_SHORTCUT
         &PBE  T
         &END PBE
       &END XC_FUNCTIONAL
       &VDW_POTENTIAL
         POTENTIAL_TYPE  PAIR_POTENTIAL
         &PAIR_POTENTIAL
           R_CUTOFF     1.0000000000000004E+01
           TYPE  DFTD3
           PARAMETER_FILE_NAME dftd3.dat
           REFERENCE_FUNCTIONAL PBE
           EPS_CN     9.9999999999999995E-07
           CALCULATE_C9_TERM  T
           REFERENCE_C9_TERM  T
           LONG_RANGE_CORRECTION  F
           VERBOSE_OUTPUT  F
         &END PAIR_POTENTIAL
       &END VDW_POTENTIAL
     &END XC
   &END DFT
   &SUBSYS
     &CELL
       A     1.2864472766435110E+01    0.0000000000000000E+00    0.0000000000000000E+00
       B    -6.4322363581020028E+00    1.1140960178524473E+01    0.0000000000000000E+00
       C     0.0000000000000000E+00    0.0000000000000000E+00    3.2000000000000000E+01
       MULTIPLE_UNIT_CELL  1 1 1
       &CELL_REF
         A     1.2982353780853531E+01    0.0000000000000000E+00    0.0000000000000000E+00
         B    -6.4911768904267628E+00    1.1243048175136114E+01    0.0000000000000000E+00
         C     0.0000000000000000E+00    0.0000000000000000E+00    3.2000000000000000E+01
         MULTIPLE_UNIT_CELL  1 1 1
       &END CELL_REF
     &END CELL
     &COORD
N    8.8343073181890608E-02    2.1112054731497549E+00    2.5562931297514804E+00
Ga    5.1604218234980605E-02    1.0103370064163070E-01    2.9213224874529322E+00
N    8.1270053126481140E-02    1.2552827066836267E-01    5.0909333753345285E+00
Ga    6.9523515692171675E-02    1.9411819776889354E+00    5.8588566551576680E+00
N    7.5704895432273461E-02    1.9680974958871298E+00    7.8550002429750325E+00
Ga    7.5925178765999732E-02    1.1615790627221677E-01    8.4820901765179197E+00
N    7.8868956212757663E-02    1.1868379054591557E-01    1.0467445057157978E+01
Ga    7.4251274915002594E-02    1.9571563476909837E+00    1.1117657957595044E+01
N    7.5210724332170145E-02    1.9364968063484549E+00    1.3115398635711976E+01
Ga    7.8606724192418820E-02    1.2227777311164378E-01    1.3912596715160094E+01
N    7.3551594582103780E-02    1.2439019310300702E-01    1.6117747949102153E+01
Ga    6.9260343739818236E-02    2.1778853823590802E+00    1.6532346188000012E+01
Ga    7.6177156932401013E-02    3.8397125910291172E+00    1.5310074678228036E+00
N   -1.4087547767118036E+00    4.7085349591729750E+00    2.5478886889688237E+00
Ga   -1.6294232845578143E+00    2.8415989635576833E+00    3.3335770910790243E+00
N   -1.5255236335637801E+00    2.9099872542653960E+00    5.3026531400972710E+00
Ga   -1.5766833173697961E+00    4.7729036542451455E+00    5.8667316163756817E+00
N   -1.5461496144905504E+00    4.7688445131419996E+00    7.8605119447792831E+00
Ga   -1.5279096193862143E+00    2.9087696945968378E+00    8.4842645203559481E+00
N   -1.5214393012964060E+00    2.9135187570750998E+00    1.0483936287341900E+01
Ga   -1.5533884538151461E+00    4.7725657026280048E+00    1.1123289773990528E+01
N   -1.5698440314799929E+00    4.7795085071857262E+00    1.3122255584070228E+01
Ga   -1.5256888534028490E+00    2.9071761670578411E+00    1.3667517342687713E+01
N   -1.5518799462496760E+00    2.8857124253489954E+00    1.5625500795362251E+01
Ga   -1.3766650227953001E+00    4.6615542429162371E+00    1.6535577267912650E+01
N    6.2291362129032510E-02    3.8320349686290376E+00    1.7683540729777398E+01
N   -3.1416589112942690E+00    7.6561198413337710E+00    2.5625867757880871E+00
Ga   -3.1670058229850104E+00    5.6892873481853208E+00    2.9058291348701824E+00
N   -3.1392226227284912E+00    5.6865445221438122E+00    5.0740561070269194E+00
Ga   -3.1509687252237693E+00    7.5139285060884875E+00    5.8383924558277895E+00
N   -3.1401924570792401E+00    7.5364541394405471E+00    7.8394490688152745E+00
Ga   -3.1516170716942873E+00    5.6915606155532714E+00    8.4877357343384130E+00
N   -3.1457483236669495E+00    5.6897221756942020E+00    1.0468444371605290E+01
Ga   -3.1464376389500033E+00    7.5279402546853706E+00    1.1118387500342378E+01
N   -3.1436180334756321E+00    7.5080344141659943E+00    1.3125306993343866E+01
Ga   -3.1475941406850643E+00    5.6860377492935212E+00    1.3934188311664386E+01
N   -3.1466285179433511E+00    5.6758358573632108E+00    1.6126914030114790E+01
Ga   -3.1496699622070148E+00    7.7089975901170940E+00    1.6542222566931283E+01
Ga   -3.1927057874145675E+00    9.3636889113772774E+00    1.3113423139305600E+00
N   -4.6507267990668835E+00    1.0284817094502770E+01    2.5596741621827808E+00
Ga   -4.8448453235003495E+00    8.4249686427423764E+00    3.2919208377261757E+00
N   -4.7469934837777839E+00    8.4774505074111541E+00    5.2766456299761719E+00
Ga   -4.7819502350243059E+00    1.0339936780330008E+01    5.8456648711530610E+00
N   -4.7549086638814373E+00    1.0337200907040268E+01    7.8438467856783705E+00
Ga   -4.7454279534357511E+00    8.4761166501223268E+00    8.4650725359917871E+00
N   -4.7383789849763289E+00    8.4808627712355449E+00    1.0470985083147871E+01
Ga   -4.7627822477732886E+00    1.0336460677155461E+01    1.1115759773903607E+01
N   -4.7814591289354285E+00    1.0347038063873175E+01    1.3123490811994944E+01
Ga   -4.7352914951312286E+00    8.4803275144836938E+00    1.3681498544396856E+01
N   -4.7681004515998335E+00    8.4808640773856556E+00    1.5658086963612153E+01
Ga   -4.5908056915492299E+00    1.0246043045946776E+01    1.6542704566276207E+01
N   -3.1423648737873817E+00    9.3878025801241929E+00    1.7689588305248165E+01
N    3.2924873642019046E+00    1.9723245658178667E+00    2.6514606900830144E+00
Ga    3.2927040908219420E+00    1.0617506727064949E-01    3.3487187928728650E+00
N    3.2927357820282905E+00    1.3308558615923366E-01    5.2860781585519803E+00
Ga    3.3000568464907434E+00    1.9737230800959602E+00    5.9463690329999910E+00
N    3.2915372442555375E+00    1.9749752465614707E+00    7.9082765551823551E+00
Ga    3.2882615049202002E+00    1.0446771524900630E-01    8.4861148639783845E+00
N    3.2893142585167356E+00    1.0532862162679466E-01    1.0480520854492910E+01
Ga    3.2889930309313100E+00    1.9699309377891807E+00    1.1076662158648487E+01
N    3.2887886356334604E+00    1.9668889047701210E+00    1.3052415479848017E+01
Ga    3.2896026122497708E+00    1.0222928348358934E-01    1.3675361039587081E+01
N    3.2835472989477026E+00    1.3019117878669886E-01    1.5647902961511871E+01
Ga    3.2879923690466084E+00    1.9765646265360943E+00    1.5914832038887180E+01
N    1.5568779271856339E+00    4.7094972893953209E+00    2.6165476206635265E+00
Ga    1.7077099501787842E+00    2.8812448533569768E+00    3.3840545759234066E+00
N    1.7012697681989202E+00    2.8957040142640040E+00    5.3084056880877153E+00
Ga    1.7087823867325604E+00    4.7790227483160308E+00    5.8716971196266634E+00
N    1.6852892259818704E+00    4.7654578658127464E+00    7.8608471832194198E+00
Ga    1.6717066326565382E+00    2.9077269285506802E+00    8.4914677948882140E+00
N    1.6734474375628345E+00    2.9101253043967628E+00    1.0485619745066096E+01
Ga    1.6946252535426045E+00    4.7698248489427888E+00    1.1117251451458998E+01
N    1.7147493112602989E+00    4.7775994562504858E+00    1.3115188858092642E+01
Ga    1.6718719530258848E+00    2.9068150328546767E+00    1.3668836283367174E+01
N    1.6967431652423330E+00    2.8877817639182699E+00    1.5627721475411033E+01
Ga    1.5064754635016533E+00    4.6585148272802801E+00    1.6534992735560305E+01
N    7.0392942219608401E-02    7.5570387639938286E+00    2.7499575337104134E+00
Ga    6.6913818008444190E-02    5.7292209424475589E+00    3.4066440978084285E+00
N    6.5818708473382545E-02    5.7088877397211837E+00    5.3311916860804107E+00
Ga    7.1199911713117320E-02    7.5620488979942566E+00    5.9524999923640394E+00
N    7.0501044473216992E-02    7.5529562069371483E+00    7.9132385938454570E+00
Ga    6.8757667644214857E-02    5.6822643825944921E+00    8.4917260377200776E+00
N    7.1645246170284768E-02    5.6785265142539156E+00    1.0486672606835180E+01
Ga    6.7376205753650539E-02    7.5482789328107369E+00    1.1075357972178255E+01
N    6.8678566330659330E-02    7.5527001221519017E+00    1.3061858188028333E+01
Ga    7.1773980709355353E-02    5.6741408596509366E+00    1.3669151703194146E+01
N    7.2487925718455193E-02    5.7139382269326875E+00    1.5629943814564692E+01
Ga    7.7366026583295569E-02    7.5442386190943100E+00    1.5908792118881319E+01
N   -1.6317301559255473E+00    1.0280585100964267E+01    2.5513641682872423E+00
Ga   -1.5396375084407690E+00    8.4852963596644031E+00    3.3401621981194567E+00
N   -1.5258079743828450E+00    8.4753156602609732E+00    5.2878348974298177E+00
Ga   -1.5021611185998618E+00    1.0351078719720233E+01    5.8581826478568617E+00
N   -1.5276128925429573E+00    1.0337309884743254E+01    7.8492898883433533E+00
Ga   -1.5516314713969028E+00    8.4827085057572233E+00    8.4871002614449811E+00
N   -1.5500395333768473E+00    8.4823520754515283E+00    1.0484098998548802E+01
Ga   -1.5237118057607251E+00    1.0340131776698142E+01    1.1117213231420980E+01
N   -1.5035174887488651E+00    1.0348846670552293E+01    1.3122840136815690E+01
Ga   -1.5549023555684178E+00    8.4838853549231406E+00    1.3681862840187753E+01
N   -1.5212655076669717E+00    8.4767214735722582E+00    1.5663254573647116E+01
Ga   -1.6960383297279269E+00    1.0253490572819986E+01    1.6539873429316291E+01
N    6.5078583410354112E+00    2.0952514441331673E+00    2.5628260100144291E+00
Ga    6.5243009650688357E+00    1.1747361419491008E-01    2.9301130036403835E+00
N    6.5005716419248953E+00    1.2137646758753368E-01    5.1056941582703148E+00
Ga    6.5088662997482212E+00    1.9473973514858023E+00    5.8538146756387528E+00
N    6.5004821008728877E+00    1.9677169430593306E+00    7.8524811120468030E+00
Ga    6.5042175194198579E+00    1.2189880746002313E-01    8.4877342738273054E+00
N    6.4998847853928821E+00    1.2167586395627465E-01    1.0469335488688618E+01
Ga    6.5048183678856200E+00    1.9599956695441072E+00    1.1114136275006281E+01
N    6.5028954806403503E+00    1.9374406259011714E+00    1.3110263552195864E+01
Ga    6.4987003175751319E+00    1.2762370285052801E-01    1.3915899912172851E+01
N    6.5065379191390891E+00    1.2980873499472470E-01    1.6116100283846745E+01
Ga    6.5072546526111079E+00    2.1981092362062871E+00    1.6544172761000890E+01
Ga    6.6353806044743999E+00    3.7960749148056396E+00    1.3178465809961026E+00
N    4.9416237029370018E+00    4.6710867869007675E+00    2.5053891339473857E+00
Ga    4.9111129955307833E+00    2.9005133554930911E+00    3.3435418405646042E+00
N    4.8842074388957517E+00    2.8962322696702696E+00    5.2852329724356615E+00
Ga    4.8786936591590235E+00    4.7769011862793374E+00    5.8558128277214339E+00
N    4.8895882434932076E+00    4.7619090854354740E+00    7.8533903268714873E+00
Ga    4.9090994965247488E+00    2.9113432132134638E+00    8.4908055549543100E+00
N    4.9057627096763099E+00    2.9103122854297427E+00    1.0487031465363655E+01
Ga    4.8870727334573951E+00    4.7701129050179762E+00    1.1112763282199722E+01
N    4.8651261411651401E+00    4.7762670093847923E+00    1.3109972695571845E+01
Ga    4.9069723016496338E+00    2.9062983408142928E+00    1.3664747652931172E+01
N    4.8696238033206818E+00    2.8878818382408444E+00    1.5620831671432752E+01
Ga    5.0953312371674091E+00    4.6509985628476702E+00    1.6547752948386876E+01
N    6.5197603078627218E+00    3.8337084438056772E+00    1.7713336329840381E+01
N    3.2778550479876443E+00    7.6535091176591186E+00    2.5820757232620193E+00
N    3.2843239412470613E+00    5.6856735743966285E+00    5.1163673852643816E+00
Ga    3.2951060669366194E+00    7.5322567103419571E+00    5.8441150022369026E+00
N    3.2881408118449293E+00    7.5387815118277830E+00    7.8491180674791732E+00
Ga    3.2930528040796125E+00    5.6904002089640571E+00    8.4860042013431212E+00
N    3.2912200680788657E+00    5.6833587072276837E+00    1.0464941356013025E+01
Ga    3.2919251620392846E+00    7.5254609357124798E+00    1.1103220922011614E+01
N    3.2891986882210698E+00    7.5056481718434176E+00    1.3108358298994958E+01
Ga    3.2933751458256926E+00    5.6808888947865572E+00    1.3908827839887556E+01
N    3.2957614395752057E+00    5.6801143229375048E+00    1.6108384027252406E+01
Ga    3.2957645182083062E+00    7.6748411502543394E+00    1.6481896417767931E+01
Ga    3.3389365524639452E+00    9.4223781784061789E+00    1.2428800741385446E+00
N    1.7709956126677453E+00    1.0280053342723631E+01    2.5890972908730863E+00
Ga    1.6887591792611778E+00    8.4978113074256658E+00    3.3461820332869325E+00
N    1.6606254233350259E+00    8.4680624949883345E+00    5.2978796722584756E+00
Ga    1.6662323890822326E+00    1.0353766743874267E+01    5.8458727975100917E+00
N    1.6704624489284177E+00    1.0337812660034212E+01    7.8521764152808498E+00
Ga    1.6929229577839930E+00    8.4845026613637220E+00    8.4877549873243421E+00
N    1.6905521603741593E+00    8.4811405514204097E+00    1.0486971100524666E+01
Ga    1.6633922854604817E+00    1.0344632382994513E+01    1.1108308770353293E+01
N    1.6433174673678443E+00    1.0351520733131164E+01    1.3113270344891351E+01
Ga    1.6951567146447040E+00    8.4830325632932233E+00    1.3656058655469915E+01
N    1.6746341316083866E+00    8.4825904083501023E+00    1.5641536827057966E+01
Ga    1.8016274872696865E+00    1.0279409608016289E+01    1.6482165198131113E+01
N    3.2927114476133950E+00    9.4016611248258251E+00    1.7593681212460979E+01
N    9.7244750114550360E+00    1.9786434909091581E+00    2.6647868289015411E+00
Ga    9.7226241831806988E+00    2.0302659437011725E-01    3.2925824171547919E+00
N    9.7227965042859292E+00    1.2523752804134916E-01    5.2909443969746768E+00
Ga    9.7207324411993277E+00    1.9726445538390089E+00    5.9088775072528401E+00
N    9.7206597795136158E+00    1.9757311663922148E+00    7.8980600462899169E+00
Ga    9.7242844461005884E+00    1.0779854617059559E-01    8.4775814617230463E+00
N    9.7219731102400377E+00    1.0547950810462269E-01    1.0481464778871439E+01
Ga    9.7225001742937813E+00    1.9766070484973282E+00    1.1066804032100720E+01
N    9.7219784542421337E+00    1.9712694087670286E+00    1.3041733301928250E+01
Ga    9.7206861824604367E+00    1.0722101894117213E-01    1.3650075347700678E+01
N    9.7266213375336150E+00    1.2273155853960220E-01    1.5626608031662691E+01
Ga    9.7240529119203671E+00    1.9714185406701232E+00    1.5903684977761156E+01
N    8.0041013371334362E+00    4.6944396192528828E+00    2.5766287014988984E+00
Ga    8.2015187103646952E+00    2.8515254273025383E+00    3.3212275744531490E+00
N    8.1096780057038860E+00    2.9003627873042417E+00    5.2968456212363444E+00
Ga    8.1224125989563944E+00    4.7767384228200509E+00    5.8257104862082434E+00
N    8.1190207846875300E+00    4.7686379330070157E+00    7.8385361743570732E+00
Ga    8.1035404406513880E+00    2.9142174210681415E+00    8.4763133533058141E+00
N    8.1005454399263659E+00    2.9134627810079889E+00    1.0482191279320586E+01
Ga    8.1270197090044469E+00    4.7731711830326589E+00    1.1118200945595854E+01
N    8.1453515719204965E+00    4.7784180448054459E+00    1.3116418894014833E+01
Ga    8.1033952721208156E+00    2.9066634787794343E+00    1.3663241997026390E+01
N    8.1418264955809772E+00    2.8835455168697521E+00    1.5620074152877999E+01
Ga    7.9338505316259909E+00    4.6555869562556511E+00    1.6547574534081939E+01
N    6.4945568848689916E+00    7.5495008914730208E+00    2.6606781841207670E+00
Ga    6.4687521033482582E+00    5.7737108772878463E+00    3.2496722217768932E+00
N    6.4906996736950271E+00    5.6820523811362644E+00    5.2555477579023746E+00
Ga    6.4970119396874839E+00    7.5419454734764759E+00    5.8746043016757570E+00
N    6.5038138983867251E+00    7.5454717591366256E+00    7.8732556836710055E+00
Ga    6.5072985383387394E+00    5.6844560245200935E+00    8.4720404534911413E+00
N    6.5055151600427701E+00    5.6792758669868526E+00    1.0477364057341408E+01
Ga    6.5122684398717512E+00    7.5478185775169120E+00    1.1068466334700402E+01
N    6.5094002098730721E+00    7.5518736681319227E+00    1.3051874786465689E+01
Ga    6.5059239679350078E+00    5.6769347703184510E+00    1.3664447396518236E+01
N    6.5054071723285789E+00    5.7242968191230243E+00    1.5620384230735569E+01
Ga    6.5022581807560487E+00    7.5451822398572101E+00    1.5915474360664680E+01
N    4.8007948372832692E+00    1.0280190210950428E+01    2.5725057425267264E+00
Ga    4.9673918850616205E+00    8.4451908800510100E+00    3.2779261315023742E+00
N    4.8935439513342969E+00    8.4773283011562448E+00    5.2812680268578553E+00
Ga    4.9149319634041717E+00    1.0340235708504839E+01    5.8338715020353815E+00
N    4.9081750227837713E+00    1.0335993796840306E+01    7.8479842027772317E+00
Ga    4.8953596433851185E+00    8.4794048310205650E+00    8.4715125135539591E+00
N    4.8907987859032644E+00    8.4789092167793036E+00    1.0478461304916872E+01
Ga    4.9160253973794097E+00    1.0340967215482092E+01    1.1106349397239804E+01
N    4.9326579012620080E+00    1.0349221810618788E+01    1.3112852907940512E+01
Ga    4.8861236531255114E+00    8.4793480184515229E+00    1.3655304370671407E+01
N    4.9088766858695845E+00    8.4867240761001046E+00    1.5636930814541270E+01
Ga    4.7783739399858574E+00    1.0273638169257575E+01    1.6484543008955310E+01
O    8.9039302472474124E-01    3.7318897869766037E+00   -2.9460280423367619E-01
H    1.8548724327231700E+00    3.5268030495498404E+00   -2.0214294757145708E-02
C    4.6455597001791260E-01    2.6294411190439142E+00   -1.1620840384479787E+00
H    3.4291584107576450E-01    1.6709017307202791E+00   -6.5607688228769923E-01
H   -4.8577950322126595E-01    2.9337982625001966E+00   -1.6124048649827634E+00
H    1.1653755787274682E+00    2.5345290869675736E+00   -1.9913057582284093E+00
Ga    3.2848441224044667E+00    5.7205226976487946E+00    2.9775095286712649E+00
O    3.2675564128610892E+00    3.2016181962290520E+00    5.0543833377239000E-01
H    8.5161303525784021E-02    7.5442078133288852E+00    1.7250253448068675E+00
C    3.3710828475067456E+00    1.9060060133662518E+00    1.1913947598783412E+00
H    4.2770009393014341E+00    1.4046966761083419E+00    8.6879362252922965E-01
H    2.5181345043971248E+00    1.3285998776789059E+00    8.0840370664007155E-01
H    3.8366839954675056E+00    3.8453759013592554E+00    1.0051146290766189E+00
     &END COORD
     &KIND C
       BASIS_SET DZVP-MOLOPT-SR-GTH-q4
       POTENTIAL GTH-PBE-q4
       &POTENTIAL
 2 2
  0.3384712400000000E+00 2 -0.8803673979999999E+01  0.1339210850000000E+01
 2
  0.3025757500000000E+00 1  0.9622486650000001E+01
  0.2915069400000000E+00 0
         # Potential name:  GTH-PBE-Q4  for symbol:  C
         # Potential read from the potential filename: GTH_POTENTIALS
       &END POTENTIAL
     &END KIND
     &KIND O
       BASIS_SET DZVP-MOLOPT-SR-GTH-q6
       POTENTIAL GTH-PBE-q6
       &POTENTIAL
 2 4
  0.2445543000000000E+00 2 -0.1666721480000000E+02  0.2487311320000000E+01
 2
  0.2209559200000000E+00 1  0.1833745811000000E+02
  0.2113324700000000E+00 0
         # Potential name:  GTH-PBE-Q6  for symbol:  O
         # Potential read from the potential filename: GTH_POTENTIALS
       &END POTENTIAL
     &END KIND
     &KIND H
       BASIS_SET DZVP-MOLOPT-SR-GTH-q1
       POTENTIAL GTH-PBE-q1
       &POTENTIAL
 1
  0.2000000000000000E+00 2 -0.4178900440000000E+01  0.7244633100000000E+00
 0
         # Potential name:  GTH-PBE-Q1  for symbol:  H
         # Potential read from the potential filename: GTH_POTENTIALS
       &END POTENTIAL
     &END KIND
     &KIND N
       BASIS_SET DZVP-MOLOPT-SR-GTH
       POTENTIAL GTH-PBE-q5
       &POTENTIAL
 2 3
  0.2837905100000000E+00 2 -0.1241522559000000E+02  0.1868095920000000E+01
 2
  0.2554050000000000E+00 1  0.1363026257000000E+02
  0.2454945300000000E+00 0
         # Potential name:  GTH-PBE-Q5  for symbol:  N
         # Potential read from the potential filename: GTH_POTENTIALS
       &END POTENTIAL
     &END KIND
     &KIND Ga
       BASIS_SET DZVP-MOLOPT-SR-GTH
       POTENTIAL GTH-PBE-q13
       &POTENTIAL
 2 1 10
  0.4900000000000000E+00 0
 3
  0.4167772300000000E+00 3  0.1047568975000000E+02 -0.4921768140000000E+01  0.8707055900000000E+00
  0.7770178090000000E+01 -0.2248152160000000E+01
  0.1784415450000000E+01
  0.5696265200000000E+00 2  0.1777985340000000E+01  0.1958597600000000E+00
 -0.2317443900000000E+00
  0.2381265000000000E+00 1 -0.1624868022000000E+02
         # Potential name:  GTH-PBE-Q13  for symbol:  GA
         # Potential read from the potential filename: GTH_POTENTIALS
       &END POTENTIAL
     &END KIND
     &TOPOLOGY
       NUMBER_OF_ATOMS  212
       MULTIPLE_UNIT_CELL  1 1 1
     &END TOPOLOGY
   &END SUBSYS
 &END FORCE_EVAL
