 # Version information for this restart file 
 # current date 2019-07-21 11:36:32.423
 # current working dir /lustre04/scratch/rzk/rzk/GaN-carbene/443-adatoms-both-2x2/13-H2OCH2/01-Start090202
 # Program compiled at                              Sun Apr  7 00:48:11 EDT 2019
 # Program compiled on                          beluga2.int.ets1.calculquebec.ca
 # Program compiled for                        Beluga-Linux-x86-64-intel-openmpi
 # Source code revision number                                         svn:18619
 &GLOBAL
   PRINT_LEVEL  MEDIUM
   PROJECT_NAME TEST
   RUN_TYPE  GEO_OPT
 &END GLOBAL
 &MOTION
   &GEO_OPT
     MAX_ITER  500
     STEP_START_VAL  57
   &END GEO_OPT
 &END MOTION
 &FORCE_EVAL
   METHOD  QS
   STRESS_TENSOR  ANALYTICAL
   &DFT
     BASIS_SET_FILE_NAME BASIS_MOLOPT
     POTENTIAL_FILE_NAME GTH_POTENTIALS
     UKS  T
     SURFACE_DIPOLE_CORRECTION  T
     SURF_DIP_DIR  Z
     &SCF
       MAX_SCF  80
       EPS_SCF     5.0000000000000004E-06
       &OT  T
         PRECONDITIONER  FULL_ALL
       &END OT
       &OUTER_SCF  T
         OPTIMIZER  NONE
         EPS_SCF     5.0000000000000004E-06
         MAX_SCF  4
       &END OUTER_SCF
       &PRINT
         &RESTART  OFF
           BACKUP_COPIES  1
           &EACH
             JUST_ENERGY  0
             QS_SCF  0
             MD  20
           &END EACH
         &END RESTART
       &END PRINT
     &END SCF
     &QS
       EPS_DEFAULT     1.0000000000000000E-14
       METHOD  GPW
     &END QS
     &MGRID
       NGRIDS  5
       CUTOFF     1.2000000000000000E+03
     &END MGRID
     &XC
       DENSITY_CUTOFF     1.0000000000000000E-10
       GRADIENT_CUTOFF     1.0000000000000000E-10
       TAU_CUTOFF     1.0000000000000000E-10
       &XC_FUNCTIONAL  NO_SHORTCUT
         &PBE  T
         &END PBE
       &END XC_FUNCTIONAL
       &VDW_POTENTIAL
         POTENTIAL_TYPE  PAIR_POTENTIAL
         &PAIR_POTENTIAL
           R_CUTOFF     1.0000000000000004E+01
           TYPE  DFTD3
           PARAMETER_FILE_NAME dftd3.dat
           REFERENCE_FUNCTIONAL PBE
           EPS_CN     9.9999999999999995E-07
           CALCULATE_C9_TERM  T
           REFERENCE_C9_TERM  T
           LONG_RANGE_CORRECTION  F
           VERBOSE_OUTPUT  F
         &END PAIR_POTENTIAL
       &END VDW_POTENTIAL
     &END XC
   &END DFT
   &SUBSYS
     &CELL
       A     1.2864472766435110E+01    0.0000000000000000E+00    0.0000000000000000E+00
       B    -6.4322363581020028E+00    1.1140960178524473E+01    0.0000000000000000E+00
       C     0.0000000000000000E+00    0.0000000000000000E+00    3.2000000000000000E+01
       MULTIPLE_UNIT_CELL  1 1 1
       &CELL_REF
         A     1.2982353780853531E+01    0.0000000000000000E+00    0.0000000000000000E+00
         B    -6.4911768904267628E+00    1.1243048175136114E+01    0.0000000000000000E+00
         C     0.0000000000000000E+00    0.0000000000000000E+00    3.2000000000000000E+01
         MULTIPLE_UNIT_CELL  1 1 1
       &END CELL_REF
     &END CELL
     &COORD
N    9.0766935958033035E-02    2.1099807519059004E+00    2.5515722208473606E+00
Ga    5.9247985292956537E-02    1.0336728285179943E-01    2.9162805971769470E+00
N    7.3515643500904601E-02    1.2516447462704974E-01    5.0781576314406829E+00
Ga    6.7405209690491366E-02    1.9393230048309971E+00    5.8582802041261202E+00
N    7.5324230860452673E-02    1.9664430326511488E+00    7.8495174026757173E+00
Ga    7.2153710112419653E-02    1.1533726956009929E-01    8.4877541284368068E+00
N    7.5032643416103884E-02    1.1828492476813797E-01    1.0464866903574034E+01
Ga    7.2500535751148537E-02    1.9571715372784622E+00    1.1118080814278846E+01
N    7.4845495002776138E-02    1.9393249555075696E+00    1.3111497202633538E+01
Ga    7.8786542534195800E-02    1.2117408540308772E-01    1.3909836478327566E+01
N    7.8451322910820881E-02    1.2387338950701021E-01    1.6118815939695057E+01
Ga    7.5216691152457604E-02    2.1713086291281916E+00    1.6535693347490991E+01
Ga    7.4264708300208246E-02    3.8458856935253136E+00    1.5355952656920939E+00
N   -1.4077103993440658E+00    4.7078816662796159E+00    2.5467442055955991E+00
Ga   -1.6272477218971644E+00    2.8420688480568850E+00    3.3326675447877481E+00
N   -1.5277951552889195E+00    2.9084475627479591E+00    5.2993433818115667E+00
Ga   -1.5750649265892822E+00    4.7718405183676760E+00    5.8660101711166064E+00
N   -1.5453479539452981E+00    4.7666021519033261E+00    7.8550787761540919E+00
Ga   -1.5285590180344879E+00    2.9075111392850288E+00    8.4872480858854527E+00
N   -1.5230976526254461E+00    2.9109437784152292E+00    1.0480625614314034E+01
Ga   -1.5532493299865582E+00    4.7698842721890937E+00    1.1120891174791298E+01
N   -1.5672763288700291E+00    4.7800556733967969E+00    1.3115489383151830E+01
Ga   -1.5232647153648924E+00    2.9098505952417590E+00    1.3669374068652880E+01
N   -1.5471332108959723E+00    2.8904049993180205E+00    1.5631357067509766E+01
Ga   -1.3781717061605343E+00    4.6701397062188885E+00    1.6534186010921673E+01
N    6.3927883680358205E-02    3.8357995017733493E+00    1.7673164237382039E+01
N   -3.1381781188410147E+00    7.6566540007499713E+00    2.5608936338587984E+00
Ga   -3.1658908097603606E+00    5.6921237745539210E+00    2.9068397275535340E+00
N   -3.1382333540117884E+00    5.6848936786444932E+00    5.0713576693143381E+00
Ga   -3.1520080085802711E+00    7.5133206359518496E+00    5.8400344721533237E+00
N   -3.1421509863465111E+00    7.5357872428953137E+00    7.8386746538101084E+00
Ga   -3.1504875395035232E+00    5.6896903507100411E+00    8.4888108857670463E+00
N   -3.1441034957178093E+00    5.6906159111101369E+00    1.0464871986926424E+01
Ga   -3.1468695224427523E+00    7.5282308279444674E+00    1.1120869291505965E+01
N   -3.1432666894551495E+00    7.5092270361121951E+00    1.3117863258914181E+01
Ga   -3.1463262015635585E+00    5.6869349779433804E+00    1.3926556401900747E+01
N   -3.1462135455837683E+00    5.6866249713449086E+00    1.6118872967648237E+01
Ga   -3.1419439707835362E+00    7.7212126303769573E+00    1.6536985829903365E+01
Ga   -3.1906428162354987E+00    9.3615032222249273E+00    1.2897249570675240E+00
N   -4.6516679526403895E+00    1.0286960169417807E+01    2.5586413437258320E+00
Ga   -4.8401099309935667E+00    8.4239123514429419E+00    3.2892168667644217E+00
N   -4.7494398402496110E+00    8.4753702573647516E+00    5.2764061173514349E+00
Ga   -4.7849006835549828E+00    1.0339495802277806E+01    5.8408884287136038E+00
N   -4.7582363471182694E+00    1.0337275022204327E+01    7.8382695107006093E+00
Ga   -4.7468524533224912E+00    8.4757894173247035E+00    8.4712977883642520E+00
N   -4.7400941513599477E+00    8.4801370614728686E+00    1.0471132976858481E+01
Ga   -4.7663426887283364E+00    1.0336344444379030E+01    1.1117053284175759E+01
N   -4.7804062219576897E+00    1.0348182544095295E+01    1.3113100004155879E+01
Ga   -4.7388079347066556E+00    8.4813700269270704E+00    1.3675534275822747E+01
N   -4.7669932600855995E+00    8.4723690072950255E+00    1.5640369680111135E+01
Ga   -4.5863947111743322E+00    1.0239663434786060E+01    1.6537763297848546E+01
N   -3.1445548079284160E+00    9.3937337330788804E+00    1.7673681104107715E+01
N    3.3015213515188120E+00    1.9813474268908127E+00    2.6415187674860507E+00
Ga    3.2933897076862708E+00    1.0696468642164364E-01    3.3496196471137929E+00
N    3.2901168649006847E+00    1.3500748299526449E-01    5.2879130815335271E+00
Ga    3.2993487390741922E+00    1.9714067795881742E+00    5.9509391910630907E+00
N    3.2908160929361374E+00    1.9744862860550363E+00    7.9089796139588859E+00
Ga    3.2863514792961892E+00    1.0279697995430212E-01    8.4938223423307218E+00
N    3.2887451248482540E+00    1.0495758458132072E-01    1.0482770757130856E+01
Ga    3.2893924743189284E+00    1.9741114860254763E+00    1.1078267952147113E+01
N    3.2886778256630809E+00    1.9726955758940095E+00    1.3047582892254248E+01
Ga    3.2895007479450165E+00    1.0557315736757220E-01    1.3674562922232935E+01
N    3.2894190243921044E+00    1.3557375023925378E-01    1.5637492485698544E+01
Ga    3.2923054421557771E+00    1.9771596222288672E+00    1.5911291042236138E+01
N    1.5593415386894711E+00    4.7109443241461442E+00    2.6103305020969731E+00
Ga    1.7106426511343986E+00    2.8833520641593924E+00    3.3843692619138763E+00
N    1.7015314190625077E+00    2.8937350817841234E+00    5.3081026064496637E+00
Ga    1.7114348911516488E+00    4.7796469199992568E+00    5.8713647242605012E+00
N    1.6862529469933081E+00    4.7639744476823571E+00    7.8554374967644405E+00
Ga    1.6696206136308713E+00    2.9080294545724459E+00    8.4973743224858662E+00
N    1.6707776195770179E+00    2.9102821793892248E+00    1.0484691913659866E+01
Ga    1.6970842076112900E+00    4.7702076222921397E+00    1.1120156945988617E+01
N    1.7139895837329071E+00    4.7789069137019240E+00    1.3112859602889646E+01
Ga    1.6720050740443568E+00    2.9099221723033466E+00    1.3670649712921838E+01
N    1.6978355347412570E+00    2.8939408312254731E+00    1.5630883751371968E+01
Ga    1.5150989794875556E+00    4.6628665856139984E+00    1.6535013981763342E+01
N    7.1141923169894955E-02    7.5596697278836213E+00    2.7497842215375430E+00
Ga    6.6352147389609206E-02    5.7296972937155042E+00    3.4077231891101856E+00
N    6.7405931208855865E-02    5.7070909850677873E+00    5.3291397528311046E+00
Ga    6.9827252050608649E-02    7.5605537780989547E+00    5.9552125953498320E+00
N    7.1096967859821600E-02    7.5498160714720965E+00    7.9148120128095059E+00
Ga    6.8820101366683609E-02    5.6781074003033440E+00    8.4981904897808569E+00
N    7.2332138681341793E-02    5.6779996105178645E+00    1.0487499852125266E+01
Ga    7.1692522348393017E-02    7.5477605497145621E+00    1.1080571892951797E+01
N    7.3327527597015538E-02    7.5482277753102647E+00    1.3054486137874116E+01
Ga    7.3976298894220346E-02    5.6754037347063964E+00    1.3671878177591251E+01
N    7.8024813902743212E-02    5.7110394522388894E+00    1.5633376514146361E+01
Ga    7.4781257244641602E-02    7.5473852340947607E+00    1.5914199457754373E+01
N   -1.6300469617477906E+00    1.0283897107606595E+01    2.5556650486961621E+00
Ga   -1.5440086966928084E+00    8.4886523039599631E+00    3.3454928679925944E+00
N   -1.5272545425742936E+00    8.4724442689077790E+00    5.2920721776220292E+00
Ga   -1.5026944328465948E+00    1.0350308065827797E+01    5.8581953246525220E+00
N   -1.5299334850846626E+00    1.0335432290907180E+01    7.8488840718971318E+00
Ga   -1.5524006654457396E+00    8.4804993195144913E+00    8.4957295258328589E+00
N   -1.5481364071397876E+00    8.4808821538382109E+00    1.0486180468679670E+01
Ga   -1.5202701054826260E+00    1.0340441228532944E+01    1.1121610167132122E+01
N   -1.5037717767906149E+00    1.0349727662473665E+01    1.3116071874017621E+01
Ga   -1.5480843109009164E+00    8.4824062483685463E+00    1.3675940683076776E+01
N   -1.5154610966232513E+00    8.4705403030207744E+00    1.5640110899860375E+01
Ga   -1.6976441218600820E+00    1.0239588795771603E+01    1.6537176818550900E+01
N    6.5092669412470388E+00    2.0834008668989754E+00    2.5607853929046689E+00
Ga    6.5206045653549447E+00    1.1731306475508409E-01    2.9309826400653329E+00
N    6.5034019917204340E+00    1.1858736573339140E-01    5.0994632835070179E+00
Ga    6.5115566720546445E+00    1.9449129335551274E+00    5.8515427846573544E+00
N    6.5021268442715190E+00    1.9674453362754343E+00    7.8472497366036968E+00
Ga    6.5060776846200010E+00    1.1989028750903480E-01    8.4913655869252214E+00
N    6.5041413112341591E+00    1.1847499524009937E-01    1.0466747619927384E+01
Ga    6.5076923957548889E+00    1.9596643887500185E+00    1.1115329750701063E+01
N    6.5058712408446295E+00    1.9403013150232107E+00    1.3106885811340062E+01
Ga    6.5010683396817317E+00    1.2600080590566476E-01    1.3914466181119986E+01
N    6.5017678476282583E+00    1.2848612467602721E-01    1.6115916950987994E+01
Ga    6.5084617784176704E+00    2.1895198981219139E+00    1.6548674693399835E+01
Ga    6.6344990014289920E+00    3.8001000801612088E+00    1.2946151772966346E+00
N    4.9418735089811978E+00    4.6784948923520204E+00    2.4985062596355267E+00
Ga    4.9226144279208608E+00    2.9084854154500221E+00    3.3459142823590087E+00
N    4.8831142055998518E+00    2.8953032519116220E+00    5.2849199761303964E+00
Ga    4.8763290140804179E+00    4.7801019364537725E+00    5.8466253240251129E+00
N    4.8873950386627447E+00    4.7627164465609919E+00    7.8422375893490770E+00
Ga    4.9108110242197860E+00    2.9119415218864524E+00    8.4949955724492430E+00
N    4.9075468306872017E+00    2.9105730656757953E+00    1.0483327467124109E+01
Ga    4.8847933264174896E+00    4.7716147946737424E+00    1.1115306433403914E+01
N    4.8675656027747944E+00    4.7791835432681928E+00    1.3106662815008383E+01
Ga    4.9086084886725478E+00    2.9104422438343289E+00    1.3668744477330462E+01
N    4.8795715879434738E+00    2.8927582993199517E+00    1.5624375168417203E+01
Ga    5.0839269417156299E+00    4.6559238415028830E+00    1.6548326991262758E+01
N    6.5093216688040236E+00    3.8346447821981462E+00    1.7698593048878354E+01
N    3.2746103272827640E+00    7.6604541030603697E+00    2.5724412943024695E+00
N    3.2812780974041793E+00    5.6891208566594162E+00    5.1000961648703322E+00
Ga    3.2945405742755769E+00    7.5259219146742531E+00    5.8498991050550089E+00
N    3.2861926469576783E+00    7.5375167685303017E+00    7.8470180685671060E+00
Ga    3.2915955875554159E+00    5.6912747201881011E+00    8.4910553659897960E+00
N    3.2892886884706751E+00    5.6893121923669083E+00    1.0465113183464727E+01
Ga    3.2926022098723573E+00    7.5288044672697145E+00    1.1115291955184954E+01
N    3.2912457017957872E+00    7.5079527188973811E+00    1.3113708978460393E+01
Ga    3.2936644071600143E+00    5.6819215467820596E+00    1.3913703369693090E+01
N    3.2943303410359186E+00    5.6821765547633749E+00    1.6112825608755021E+01
Ga    3.2945113855424997E+00    7.6921136692986822E+00    1.6494032464558590E+01
Ga    3.3208132132551418E+00    9.4275619060074956E+00    1.3070889388983533E+00
N    1.7739761426684828E+00    1.0278176593316365E+01    2.5672790578073985E+00
Ga    1.6898397585615146E+00    8.4951695706676666E+00    3.3540636968345696E+00
N    1.6649486229057371E+00    8.4700490793977288E+00    5.3005530482430903E+00
Ga    1.6612372386552898E+00    1.0354462146346608E+01    5.8519872506434698E+00
N    1.6728946008771397E+00    1.0335648552674400E+01    7.8499478279743657E+00
Ga    1.6942158943176369E+00    8.4838548983490565E+00    8.4956719659650606E+00
N    1.6921138595797636E+00    8.4809054738365415E+00    1.0487326495027672E+01
Ga    1.6667128245724789E+00    1.0342461933367622E+01    1.1116544406741539E+01
N    1.6485579772844412E+00    1.0351278636487962E+01    1.3114445553454976E+01
Ga    1.6946346297045229E+00    8.4819979604301210E+00    1.3664162158381485E+01
N    1.6727324699119868E+00    8.4713442935369514E+00    1.5636995257483333E+01
Ga    1.8115126629629659E+00    1.0263036801708385E+01    1.6494087095563938E+01
N    3.2856572262435959E+00    9.4003118928497891E+00    1.7616920786792313E+01
N    9.7252940146231790E+00    1.9775066594194266E+00    2.6667807947765771E+00
Ga    9.7201736173561972E+00    2.0583935591723526E-01    3.2954595505773354E+00
N    9.7196560316465721E+00    1.2044468529861976E-01    5.2858259255380160E+00
Ga    9.7205694380888072E+00    1.9720433326414268E+00    5.9076661769500252E+00
N    9.7221644684454720E+00    1.9760154249796986E+00    7.8905324174344216E+00
Ga    9.7244155062901125E+00    1.0894389486974743E-01    8.4804414077981285E+00
N    9.7221855074306820E+00    1.0595291890184562E-01    1.0477866802728057E+01
Ga    9.7213250361001577E+00    1.9760062857683725E+00    1.1070270549034008E+01
N    9.7235271890068393E+00    1.9736333582581984E+00    1.3042505259768474E+01
Ga    9.7238515187077343E+00    1.0689891431385538E-01    1.3660068018276693E+01
N    9.7275691221310066E+00    1.3122128319533546E-01    1.5629889987401784E+01
Ga    9.7224871512842093E+00    1.9776540611606255E+00    1.5908633741279354E+01
N    8.0139129759920777E+00    4.6923203711859411E+00    2.5672720601601275E+00
Ga    8.1966002436302361E+00    2.8509656510717831E+00    3.3150934556272595E+00
N    8.1120303962403675E+00    2.9002933414463299E+00    5.2926077026233349E+00
Ga    8.1246817684635015E+00    4.7756605905579708E+00    5.8218469742325780E+00
N    8.1196138607532617E+00    4.7684998237967724E+00    7.8305417336486460E+00
Ga    8.1056140114502657E+00    2.9137409426046106E+00    8.4759216021070234E+00
N    8.1032557615739425E+00    2.9115693764510988E+00    1.0473747267021805E+01
Ga    8.1272777845327226E+00    4.7701972895317040E+00    1.1114935401682947E+01
N    8.1458075323014345E+00    4.7798272190272071E+00    1.3107506249199085E+01
Ga    8.1039669638860818E+00    2.9110061777548304E+00    1.3667030334491299E+01
N    8.1356437045683396E+00    2.8912233199063313E+00    1.5621288336862497E+01
Ga    7.9377384105686932E+00    4.6577769547560779E+00    1.6548982670381900E+01
N    6.4962139583117473E+00    7.5449022546882976E+00    2.6578135480724017E+00
Ga    6.4756862708906562E+00    5.7673413860975122E+00    3.2483796813496943E+00
N    6.4925686002200313E+00    5.6808973899770452E+00    5.2515813661153636E+00
Ga    6.4999417517123410E+00    7.5387253102585436E+00    5.8776508477858993E+00
N    6.5039936914433572E+00    7.5436108223095006E+00    7.8713213201830641E+00
Ga    6.5069397480795130E+00    5.6817163143193943E+00    8.4740716350928071E+00
N    6.5055802840989410E+00    5.6784419394368522E+00    1.0472417127368745E+01
Ga    6.5070677579612406E+00    7.5469070355246179E+00    1.1069913971657078E+01
N    6.5072095346930849E+00    7.5492674533864408E+00    1.3044237678457172E+01
Ga    6.5070633478777742E+00    5.6774585248209544E+00    1.3668193020787891E+01
N    6.5069736987275801E+00    5.7152400599206450E+00    1.5622718598892790E+01
Ga    6.5081198497575619E+00    7.5455951473171670E+00    1.5911634013221175E+01
N    4.7959285799682139E+00    1.0279201852295117E+01    2.5641789244500712E+00
Ga    4.9697663098657419E+00    8.4349055457247299E+00    3.2869375383078312E+00
N    4.8927732871211109E+00    8.4750592387596662E+00    5.2793824106834597E+00
Ga    4.9153335908346794E+00    1.0342030754739090E+01    5.8327883707678714E+00
N    4.9070383149664316E+00    1.0336885290587235E+01    7.8391834920838059E+00
Ga    4.8927677699821084E+00    8.4794580974663507E+00    8.4734337325563462E+00
N    4.8880004740642242E+00    8.4799544995412433E+00    1.0473541912777620E+01
Ga    4.9133983543951594E+00    1.0338828914617514E+01    1.1111539726907099E+01
N    4.9319465400127047E+00    1.0349890780480862E+01    1.3109955864065608E+01
Ga    4.8892105303772642E+00    8.4813725363643169E+00    1.3661562161041012E+01
N    4.9124618083625124E+00    8.4746829192074955E+00    1.5631954001436949E+01
Ga    4.7663406124027041E+00    1.0256683047507849E+01    1.6495507618974134E+01
O    8.8653727216860756E-01    3.7176675095379554E+00   -2.9067375174530696E-01
H    1.8821600752659156E+00    3.5455427942337652E+00   -1.1552420154580044E-02
C    4.3535392735353945E-01    2.6530791181777853E+00   -1.1897447579568841E+00
H    3.2167720452627740E-01    1.7068101853391278E+00   -6.4716488325098842E-01
H   -5.2893579004130331E-01    2.9649064589165617E+00   -1.6043058978670317E+00
H    1.1684688971953794E+00    2.5503900511827600E+00   -1.9965678630867660E+00
Ga    3.2869187752163542E+00    5.7197439322031887E+00    2.9693198787272497E+00
O    3.2590031773967341E+00    3.1716085172366548E+00    4.9225373126178179E-01
H    7.6222368150909992E-02    7.5415940565235324E+00    1.7243388416617917E+00
C    3.3476427419105614E+00    1.8849085476156986E+00    1.1834990588021923E+00
H    4.2862540840088919E+00    1.4052851255258536E+00    8.6919618523114184E-01
H    2.5007017356314734E+00    1.2997122552137301E+00    7.9698960382230810E-01
H    3.8139448686583313E+00    3.8325924244143335E+00    9.8987376360822188E-01
     &END COORD
     &KIND C
       BASIS_SET DZVP-MOLOPT-SR-GTH-q4
       POTENTIAL GTH-PBE-q4
       &POTENTIAL
 2 2
  0.3384712400000000E+00 2 -0.8803673979999999E+01  0.1339210850000000E+01
 2
  0.3025757500000000E+00 1  0.9622486650000001E+01
  0.2915069400000000E+00 0
         # Potential name:  GTH-PBE-Q4  for symbol:  C
         # Potential read from the potential filename: GTH_POTENTIALS
       &END POTENTIAL
     &END KIND
     &KIND O
       BASIS_SET DZVP-MOLOPT-SR-GTH-q6
       POTENTIAL GTH-PBE-q6
       &POTENTIAL
 2 4
  0.2445543000000000E+00 2 -0.1666721480000000E+02  0.2487311320000000E+01
 2
  0.2209559200000000E+00 1  0.1833745811000000E+02
  0.2113324700000000E+00 0
         # Potential name:  GTH-PBE-Q6  for symbol:  O
         # Potential read from the potential filename: GTH_POTENTIALS
       &END POTENTIAL
     &END KIND
     &KIND H
       BASIS_SET DZVP-MOLOPT-SR-GTH-q1
       POTENTIAL GTH-PBE-q1
       &POTENTIAL
 1
  0.2000000000000000E+00 2 -0.4178900440000000E+01  0.7244633100000000E+00
 0
         # Potential name:  GTH-PBE-Q1  for symbol:  H
         # Potential read from the potential filename: GTH_POTENTIALS
       &END POTENTIAL
     &END KIND
     &KIND N
       BASIS_SET DZVP-MOLOPT-SR-GTH
       POTENTIAL GTH-PBE-q5
       &POTENTIAL
 2 3
  0.2837905100000000E+00 2 -0.1241522559000000E+02  0.1868095920000000E+01
 2
  0.2554050000000000E+00 1  0.1363026257000000E+02
  0.2454945300000000E+00 0
         # Potential name:  GTH-PBE-Q5  for symbol:  N
         # Potential read from the potential filename: GTH_POTENTIALS
       &END POTENTIAL
     &END KIND
     &KIND Ga
       BASIS_SET DZVP-MOLOPT-SR-GTH
       POTENTIAL GTH-PBE-q13
       &POTENTIAL
 2 1 10
  0.4900000000000000E+00 0
 3
  0.4167772300000000E+00 3  0.1047568975000000E+02 -0.4921768140000000E+01  0.8707055900000000E+00
  0.7770178090000000E+01 -0.2248152160000000E+01
  0.1784415450000000E+01
  0.5696265200000000E+00 2  0.1777985340000000E+01  0.1958597600000000E+00
 -0.2317443900000000E+00
  0.2381265000000000E+00 1 -0.1624868022000000E+02
         # Potential name:  GTH-PBE-Q13  for symbol:  GA
         # Potential read from the potential filename: GTH_POTENTIALS
       &END POTENTIAL
     &END KIND
     &TOPOLOGY
       NUMBER_OF_ATOMS  212
       MULTIPLE_UNIT_CELL  1 1 1
     &END TOPOLOGY
   &END SUBSYS
 &END FORCE_EVAL
