 # Version information for this restart file 
 # current date 2019-07-21 11:00:37.594
 # current working dir /lustre04/scratch/rzk/rzk/GaN-carbene/443-adatoms-both-2x2/13-H2OCH2/01-Start090202
 # Program compiled at                              Sun Apr  7 00:48:11 EDT 2019
 # Program compiled on                          beluga2.int.ets1.calculquebec.ca
 # Program compiled for                        Beluga-Linux-x86-64-intel-openmpi
 # Source code revision number                                         svn:18619
 &GLOBAL
   PRINT_LEVEL  MEDIUM
   PROJECT_NAME TEST
   RUN_TYPE  GEO_OPT
 &END GLOBAL
 &MOTION
   &GEO_OPT
     MAX_ITER  500
     STEP_START_VAL  55
   &END GEO_OPT
 &END MOTION
 &FORCE_EVAL
   METHOD  QS
   STRESS_TENSOR  ANALYTICAL
   &DFT
     BASIS_SET_FILE_NAME BASIS_MOLOPT
     POTENTIAL_FILE_NAME GTH_POTENTIALS
     UKS  T
     SURFACE_DIPOLE_CORRECTION  T
     SURF_DIP_DIR  Z
     &SCF
       MAX_SCF  80
       EPS_SCF     5.0000000000000004E-06
       &OT  T
         PRECONDITIONER  FULL_ALL
       &END OT
       &OUTER_SCF  T
         OPTIMIZER  NONE
         EPS_SCF     5.0000000000000004E-06
         MAX_SCF  4
       &END OUTER_SCF
       &PRINT
         &RESTART  OFF
           BACKUP_COPIES  1
           &EACH
             JUST_ENERGY  0
             QS_SCF  0
             MD  20
           &END EACH
         &END RESTART
       &END PRINT
     &END SCF
     &QS
       EPS_DEFAULT     1.0000000000000000E-14
       METHOD  GPW
     &END QS
     &MGRID
       NGRIDS  5
       CUTOFF     1.2000000000000000E+03
     &END MGRID
     &XC
       DENSITY_CUTOFF     1.0000000000000000E-10
       GRADIENT_CUTOFF     1.0000000000000000E-10
       TAU_CUTOFF     1.0000000000000000E-10
       &XC_FUNCTIONAL  NO_SHORTCUT
         &PBE  T
         &END PBE
       &END XC_FUNCTIONAL
       &VDW_POTENTIAL
         POTENTIAL_TYPE  PAIR_POTENTIAL
         &PAIR_POTENTIAL
           R_CUTOFF     1.0000000000000004E+01
           TYPE  DFTD3
           PARAMETER_FILE_NAME dftd3.dat
           REFERENCE_FUNCTIONAL PBE
           EPS_CN     9.9999999999999995E-07
           CALCULATE_C9_TERM  T
           REFERENCE_C9_TERM  T
           LONG_RANGE_CORRECTION  F
           VERBOSE_OUTPUT  F
         &END PAIR_POTENTIAL
       &END VDW_POTENTIAL
     &END XC
   &END DFT
   &SUBSYS
     &CELL
       A     1.2864472766435110E+01    0.0000000000000000E+00    0.0000000000000000E+00
       B    -6.4322363581020028E+00    1.1140960178524473E+01    0.0000000000000000E+00
       C     0.0000000000000000E+00    0.0000000000000000E+00    3.2000000000000000E+01
       MULTIPLE_UNIT_CELL  1 1 1
       &CELL_REF
         A     1.2982353780853531E+01    0.0000000000000000E+00    0.0000000000000000E+00
         B    -6.4911768904267628E+00    1.1243048175136114E+01    0.0000000000000000E+00
         C     0.0000000000000000E+00    0.0000000000000000E+00    3.2000000000000000E+01
         MULTIPLE_UNIT_CELL  1 1 1
       &END CELL_REF
     &END CELL
     &COORD
N    8.9729482347115391E-02    2.1106909966511873E+00    2.5504819772208065E+00
Ga    5.8885875687621735E-02    1.0402003927586138E-01    2.9156707932166936E+00
N    7.3510057982368635E-02    1.2514283202420054E-01    5.0778914250656344E+00
Ga    6.7661552809917952E-02    1.9394669467214269E+00    5.8576706556531786E+00
N    7.5357400762565863E-02    1.9665121656589741E+00    7.8490874627558780E+00
Ga    7.2016122578619557E-02    1.1538877319138849E-01    8.4879414785516101E+00
N    7.4047620078073528E-02    1.1846626919394339E-01    1.0464636459387904E+01
Ga    7.2369237658249957E-02    1.9570469959562258E+00    1.1118955850106151E+01
N    7.4573439890025545E-02    1.9391440632991410E+00    1.3111521110457696E+01
Ga    8.2382408742896179E-02    1.2153657877812454E-01    1.3914816516855792E+01
N    8.3157522824762908E-02    1.2363342956096340E-01    1.6117836298064869E+01
Ga    7.5751886557350295E-02    2.1766650314392564E+00    1.6541276499271579E+01
Ga    7.3388566675253675E-02    3.8462688343762874E+00    1.5326959065129859E+00
N   -1.4085605105921049E+00    4.7086088326465543E+00    2.5459287953054339E+00
Ga   -1.6275466250513284E+00    2.8424721129738497E+00    3.3331490453375205E+00
N   -1.5284089087667059E+00    2.9083528337392477E+00    5.2998785789913754E+00
Ga   -1.5751733975196311E+00    4.7721783409509779E+00    5.8656764826136900E+00
N   -1.5455745144062683E+00    4.7666129261381442E+00    7.8548159411393232E+00
Ga   -1.5287094191164743E+00    2.9072328010708901E+00    8.4868903841925984E+00
N   -1.5234387881920999E+00    2.9105654720476188E+00    1.0480819462036244E+01
Ga   -1.5528509894884728E+00    4.7697463649012732E+00    1.1120464382199366E+01
N   -1.5666099251981775E+00    4.7794314219515224E+00    1.3114187656305880E+01
Ga   -1.5226754324189633E+00    2.9099765442098033E+00    1.3670826135031444E+01
N   -1.5497513857667700E+00    2.8889637773820271E+00    1.5629941885433855E+01
Ga   -1.3702208789757790E+00    4.6659945692911027E+00    1.6539416904804963E+01
N    6.6089934066422690E-02    3.8369535757300732E+00    1.7683631631769494E+01
N   -3.1385302439655098E+00    7.6575350703758751E+00    2.5586849322305167E+00
Ga   -3.1658166756580268E+00    5.6923058669772164E+00    2.9048896419932495E+00
N   -3.1384805976678569E+00    5.6850405811230100E+00    5.0702402456674296E+00
Ga   -3.1522058081353133E+00    7.5137777444596141E+00    5.8396440702675019E+00
N   -3.1422343676975655E+00    7.5356035948787801E+00    7.8382882823532318E+00
Ga   -3.1505012467236151E+00    5.6897392393055330E+00    8.4889040279168135E+00
N   -3.1445067225578467E+00    5.6896603038159315E+00    1.0464748347222443E+01
Ga   -3.1466510251218329E+00    7.5284204333999707E+00    1.1118559601875450E+01
N   -3.1428633149549561E+00    7.5095547874241575E+00    1.3112019962674466E+01
Ga   -3.1416514466193499E+00    5.6914736727133439E+00    1.3924635529993164E+01
N   -3.1408130449767291E+00    5.6904515245129721E+00    1.6117370853856158E+01
Ga   -3.1421425713117368E+00    7.7464074482022838E+00    1.6550123162589404E+01
Ga   -3.1900922535907701E+00    9.3591119349041296E+00    1.2852764440594713E+00
N   -4.6517729693915788E+00    1.0287096537623503E+01    2.5558249535789122E+00
Ga   -4.8409680603518694E+00    8.4253701640210732E+00    3.2878213366372302E+00
N   -4.7496689079426853E+00    8.4754809415761301E+00    5.2758923471641355E+00
Ga   -4.7848998739413737E+00    1.0339466620878593E+01    5.8409898158107758E+00
N   -4.7584793519057165E+00    1.0337355427247646E+01    7.8383471744148947E+00
Ga   -4.7470535458008287E+00    8.4760016428439169E+00    8.4710480906579093E+00
N   -4.7408093009165952E+00    8.4802156199191980E+00    1.0470053239396540E+01
Ga   -4.7665449619512241E+00    1.0336897917924938E+01    1.1116303824650585E+01
N   -4.7807554286556897E+00    1.0348463362744649E+01    1.3109479437175827E+01
Ga   -4.7387191580624464E+00    8.4809522141688607E+00    1.3672933133069929E+01
N   -4.7707394891406505E+00    8.4671552726440087E+00    1.5630519817435085E+01
Ga   -4.5689037936639778E+00    1.0228949743714072E+01    1.6551501613169229E+01
N   -3.1428929725169921E+00    9.3975974639713460E+00    1.7699164885570362E+01
N    3.3019345588846267E+00    1.9786538099632831E+00    2.6410675107699717E+00
Ga    3.2936244691198229E+00    1.0613958345830414E-01    3.3482136071347415E+00
N    3.2898949338549657E+00    1.3495067011075229E-01    5.2875088692328545E+00
Ga    3.2984401409692401E+00    1.9714659118081967E+00    5.9504354118422382E+00
N    3.2907863754331106E+00    1.9747268649951744E+00    7.9085569614966609E+00
Ga    3.2859365165915739E+00    1.0307655684265717E-01    8.4934249573031959E+00
N    3.2885903984895579E+00    1.0599933314425021E-01    1.0481737823484895E+01
Ga    3.2900275385793258E+00    1.9748766969593545E+00    1.1078100936526177E+01
N    3.2904037980129259E+00    1.9752378145601197E+00    1.3047044251676407E+01
Ga    3.2896737159464604E+00    1.0526578417728641E-01    1.3673115155921305E+01
N    3.2909163895962990E+00    1.3929098804440412E-01    1.5629792741459642E+01
Ga    3.2905330794218712E+00    1.9744949561690965E+00    1.5907475154350259E+01
N    1.5587513919323750E+00    4.7113531056590396E+00    2.6087502599355932E+00
Ga    1.7116672903099341E+00    2.8833838127285758E+00    3.3816168201374319E+00
N    1.7011643762645610E+00    2.8940954337143041E+00    5.3065539432882334E+00
Ga    1.7109512439233641E+00    4.7793943467375426E+00    5.8708409423791359E+00
N    1.6864372104648750E+00    4.7637061341533879E+00    7.8552880688065718E+00
Ga    1.6695749850184214E+00    2.9076095748192463E+00    8.4971932584389940E+00
N    1.6708282016608580E+00    2.9099552728995581E+00    1.0484389851279740E+01
Ga    1.6962047070172155E+00    4.7696656361256728E+00    1.1119948400173390E+01
N    1.7132709528991976E+00    4.7783297930672299E+00    1.3111679377644474E+01
Ga    1.6714925334577211E+00    2.9095165171641373E+00    1.3671550241291749E+01
N    1.7001700922066254E+00    2.8947726579287103E+00    1.5629684293639649E+01
Ga    1.5076819740326550E+00    4.6584691938685658E+00    1.6542252675553794E+01
N    7.0827240395038293E-02    7.5596249942980807E+00    2.7489117046040170E+00
Ga    6.6377179906341024E-02    5.7302084033982030E+00    3.4067996311843296E+00
N    6.7151927243628701E-02    5.7073526657941045E+00    5.3290392035339442E+00
Ga    6.9684800721002471E-02    7.5608509281284677E+00    5.9550013820365733E+00
N    7.1284558445610269E-02    7.5497985829239660E+00    7.9147287467311118E+00
Ga    6.8815906748768377E-02    5.6779930781438495E+00    8.4970531691488009E+00
N    7.2426330914214881E-02    5.6772998509116102E+00    1.0485819381854702E+01
Ga    7.2157234664246256E-02    7.5472943685696343E+00    1.1078766327798784E+01
N    7.5321078283261067E-02    7.5475274439138857E+00    1.3050585791330468E+01
Ga    7.3751917797259967E-02    5.6757885864557487E+00    1.3672109964536281E+01
N    7.9726206136544422E-02    5.7106968310333128E+00    1.5631484759664131E+01
Ga    7.2521293459932398E-02    7.5456930742692068E+00    1.5910249896748043E+01
N   -1.6287486905258692E+00    1.0283945098013550E+01    2.5543169422818601E+00
Ga   -1.5435032225476322E+00    8.4891848615997478E+00    3.3445506649434522E+00
N   -1.5274722460973544E+00    8.4726249362740162E+00    5.2916569162639195E+00
Ga   -1.5030528664575828E+00    1.0350393036926471E+01    5.8584483694015717E+00
N   -1.5300504161512301E+00    1.0335634059283938E+01    7.8489066094289432E+00
Ga   -1.5523596670092537E+00    8.4804023748055339E+00    8.4947456186075598E+00
N   -1.5476754687869099E+00    8.4807697394694834E+00    1.0483983102883004E+01
Ga   -1.5207833016081482E+00    1.0340165769204106E+01    1.1120054090332534E+01
N   -1.5035177407398805E+00    1.0349338939149392E+01    1.3111506197711787E+01
Ga   -1.5471682829596614E+00    8.4814371091071621E+00    1.3674042773124061E+01
N   -1.5126943855561203E+00    8.4674475438477437E+00    1.5631774180601239E+01
Ga   -1.7163415415618966E+00    1.0228104813745457E+01    1.6551675020922691E+01
N    6.5091411251580071E+00    2.0836842581724815E+00    2.5594959971791664E+00
Ga    6.5205677958037773E+00    1.1760957667403456E-01    2.9288709851620864E+00
N    6.5033873927632477E+00    1.1823219509078139E-01    5.0988760247783995E+00
Ga    6.5110773681907599E+00    1.9448458562874567E+00    5.8512904692939953E+00
N    6.5018863105373645E+00    1.9672907416238590E+00    7.8470861425109328E+00
Ga    6.5054946202695243E+00    1.1990627968063415E-01    8.4924025118981241E+00
N    6.5044841179616180E+00    1.1905193875697977E-01    1.0467575773846436E+01
Ga    6.5079323918314076E+00    1.9596991209191976E+00    1.1116012863180947E+01
N    6.5062899040679838E+00    1.9394702249183586E+00    1.3109936986915493E+01
Ga    6.4984893074841485E+00    1.2148782104592924E-01    1.3913383545089859E+01
N    6.4991268674618725E+00    1.2277572840763665E-01    1.6117732281343987E+01
Ga    6.5055720811580002E+00    2.1684832390032014E+00    1.6529753887001458E+01
Ga    6.6333620416159720E+00    3.8022870946341394E+00    1.2917726519813728E+00
N    4.9411826505870566E+00    4.6777637227346407E+00    2.4976447869276588E+00
Ga    4.9215344906924878E+00    2.9070584205368504E+00    3.3449296009732548E+00
N    4.8824931108794054E+00    2.8952653497661598E+00    5.2845041998689819E+00
Ga    4.8760210184530539E+00    4.7800065281821356E+00    5.8468568038251734E+00
N    4.8871072911819242E+00    4.7628310154803302E+00    7.8424747932011032E+00
Ga    4.9105559330954653E+00    2.9119039908655653E+00    8.4945883243507829E+00
N    4.9084104808394917E+00    2.9109501162418190E+00    1.0483363551593980E+01
Ga    4.8852174038215388E+00    4.7713768507890864E+00    1.1115613643816124E+01
N    4.8673393902414697E+00    4.7787713921694337E+00    1.3109456206748629E+01
Ga    4.9090242059207174E+00    2.9097304464479952E+00    1.3667224626348702E+01
N    4.8829268510397759E+00    2.8951571272099685E+00    1.5627765154907806E+01
Ga    5.0652629886190468E+00    4.6635866272123119E+00    1.6529926727610267E+01
N    6.5166871763899055E+00    3.8393957273949035E+00    1.7666764820886499E+01
N    3.2744470561697270E+00    7.6612449432041094E+00    2.5710414527379317E+00
N    3.2809881860991150E+00    5.6892385436845139E+00    5.1001518052500279E+00
Ga    3.2937729934073583E+00    7.5257919195042939E+00    5.8513712200395975E+00
N    3.2859555599212178E+00    7.5371473679278278E+00    7.8483401726560249E+00
Ga    3.2913862134755489E+00    5.6907564499005856E+00    8.4922124629229003E+00
N    3.2894660267556262E+00    5.6888242305826431E+00    1.0466695070234017E+01
Ga    3.2927353982679817E+00    7.5291515853213591E+00    1.1115396051447462E+01
N    3.2908990537128555E+00    7.5082660772927907E+00    1.3114369396041699E+01
Ga    3.2899726775216984E+00    5.6824581090636075E+00    1.3909906324411168E+01
N    3.2903795286178368E+00    5.6820703707895772E+00    1.6117479002799406E+01
Ga    3.2916626418515165E+00    7.6957390534485839E+00    1.6494931553813512E+01
Ga    3.3207654917440430E+00    9.4293470028336994E+00    1.3069019191885891E+00
N    1.7758577378373861E+00    1.0277662485296373E+01    2.5653421126720133E+00
Ga    1.6898575081712408E+00    8.4947168203821786E+00    3.3534865856498346E+00
N    1.6647765898063578E+00    8.4700107110926623E+00    5.3006386766883757E+00
Ga    1.6609464385653792E+00    1.0354020944551717E+01    5.8531444050202941E+00
N    1.6723371210333782E+00    1.0335707103543644E+01    7.8514929767016142E+00
Ga    1.6938771296206525E+00    8.4838101020480732E+00    8.4965652893248578E+00
N    1.6928032285460735E+00    8.4815493082088000E+00    1.0487774578563847E+01
Ga    1.6668250235819642E+00    1.0342764999905423E+01    1.1117709158107612E+01
N    1.6489235036375978E+00    1.0350901927044699E+01    1.3116479949006610E+01
Ga    1.6934905980103863E+00    8.4809251155744523E+00    1.3664363345712276E+01
N    1.6741137687631182E+00    8.4691593959221940E+00    1.5637918159624041E+01
Ga    1.8088255653693670E+00    1.0259952676180450E+01    1.6494175438626314E+01
N    3.2942174407416287E+00    9.4089965910759616E+00    1.7614258757923501E+01
N    9.7250534825335126E+00    1.9783244757444833E+00    2.6659906471480679E+00
Ga    9.7204269701130457E+00    2.0660254042630063E-01    3.2958771071346278E+00
N    9.7190924607034770E+00    1.2038422237327767E-01    5.2872814125961849E+00
Ga    9.7197398026316453E+00    1.9718440027861253E+00    5.9079637218891685E+00
N    9.7215684271491707E+00    1.9757640636281268E+00    7.8913373675587390E+00
Ga    9.7242709415070276E+00    1.0889259909547874E-01    8.4818581720886126E+00
N    9.7223675569355557E+00    1.0659059401614593E-01    1.0480317618011529E+01
Ga    9.7213910520787650E+00    1.9765046314912347E+00    1.1072563231318618E+01
N    9.7219562286856593E+00    1.9737751175912501E+00    1.3046592722023862E+01
Ga    9.7231297373905647E+00    1.0632951855040924E-01    1.3663467346008433E+01
N    9.7228973473538964E+00    1.3014539226004299E-01    1.5637182252006104E+01
Ga    9.7237883384605546E+00    1.9769640693497761E+00    1.5910839513823548E+01
N    8.0126871829978139E+00    4.6931004490692336E+00    2.5650597052674380E+00
Ga    8.1960670332520404E+00    2.8512258887194011E+00    3.3136554233685285E+00
N    8.1115631104233810E+00    2.9002237909573294E+00    5.2918902915610486E+00
Ga    8.1247562087545191E+00    4.7753478836709604E+00    5.8220620059263686E+00
N    8.1196759200728028E+00    4.7681510112038437E+00    7.8308334761129705E+00
Ga    8.1054068274431543E+00    2.9134750851340856E+00    8.4766459334494968E+00
N    8.1033483850438746E+00    2.9116749098070662E+00    1.0475417236219178E+01
Ga    8.1274558074459264E+00    4.7702248982808584E+00    1.1116239014711761E+01
N    8.1461930767930575E+00    4.7794680721507925E+00    1.3112110701424628E+01
Ga    8.1031146380333468E+00    2.9104146332499754E+00    1.3667969709202318E+01
N    8.1302813249633221E+00    2.8889110329916323E+00    1.5629681594075770E+01
Ga    7.9611152331948603E+00    4.6720465229987402E+00    1.6527971179333100E+01
N    6.4954175333589275E+00    7.5456097987505348E+00    2.6579569744114457E+00
Ga    6.4753317539028830E+00    5.7683102125112926E+00    3.2485510821564083E+00
N    6.4926734948104929E+00    5.6808763461383389E+00    5.2518160654402406E+00
Ga    6.5000985023701130E+00    7.5390307885603498E+00    5.8782523373619693E+00
N    6.5037465367454050E+00    7.5434323258894684E+00    7.8716845959092190E+00
Ga    6.5068522448354535E+00    5.6815383098347603E+00    8.4741438843116637E+00
N    6.5057214733761741E+00    5.6777652419364095E+00    1.0472967205273699E+01
Ga    6.5068053158997872E+00    7.5465727098491628E+00    1.1069628512537660E+01
N    6.5049008124029388E+00    7.5469529980727090E+00    1.3044280399830189E+01
Ga    6.5065656779864467E+00    5.6769405090863616E+00    1.3667427130145239E+01
N    6.5014901520441875E+00    5.7100025459294441E+00    1.5629487410267469E+01
Ga    6.5094014926525672E+00    7.5460221735135100E+00    1.5911280007182725E+01
N    4.7956494276036929E+00    1.0280218276097630E+01    2.5662525617667793E+00
Ga    4.9684229473489676E+00    8.4349981497270559E+00    3.2881460639161664E+00
N    4.8921496038757324E+00    8.4746798192525006E+00    5.2808855625214592E+00
Ga    4.9150996160452403E+00    1.0342036001937261E+01    5.8333041776951982E+00
N    4.9066092278483451E+00    1.0336881583374012E+01    7.8400756839806931E+00
Ga    4.8927514935197367E+00    8.4797145817533028E+00    8.4738593154960746E+00
N    4.8879484855894217E+00    8.4806435829443512E+00    1.0474653160559512E+01
Ga    4.9134913245159328E+00    1.0339303181338073E+01    1.1114137199586635E+01
N    4.9318171797032422E+00    1.0350030988511453E+01    1.3114581671675614E+01
Ga    4.8885178473708821E+00    8.4805305550005379E+00    1.3663368523761546E+01
N    4.9084214997248106E+00    8.4683915752594636E+00    1.5637034931992945E+01
Ga    4.7766138858806197E+00    1.0261190707044278E+01    1.6493967253765945E+01
O    8.8778367521942536E-01    3.7192933106454729E+00   -2.9199942293771264E-01
H    1.8826911839872575E+00    3.5453087481550067E+00   -1.3818970130759113E-02
C    4.3223499966006140E-01    2.6579555374818433E+00   -1.1901960088051649E+00
H    3.1640380484931746E-01    1.7090070175717582E+00   -6.4966231036481026E-01
H   -5.3178499011492786E-01    2.9739454887678165E+00   -1.6032305605725694E+00
H    1.1643366439468625E+00    2.5544897434196536E+00   -1.9989534300230942E+00
Ga    3.2865522663673725E+00    5.7202886176019758E+00    2.9680228167776193E+00
O    3.2585556496515773E+00    3.1678631056751536E+00    4.9183346099954578E-01
H    7.6034672655626787E-02    7.5408443893306547E+00    1.7229579647035185E+00
C    3.3487271753175869E+00    1.8825045932171696E+00    1.1825306965904576E+00
H    4.2868357947749702E+00    1.4017313482156204E+00    8.6744556568031050E-01
H    2.5015527115445448E+00    1.2956907410213019E+00    7.9605373351971564E-01
H    3.8166732038078575E+00    3.8297634577702144E+00    9.8650715328541105E-01
     &END COORD
     &KIND C
       BASIS_SET DZVP-MOLOPT-SR-GTH-q4
       POTENTIAL GTH-PBE-q4
       &POTENTIAL
 2 2
  0.3384712400000000E+00 2 -0.8803673979999999E+01  0.1339210850000000E+01
 2
  0.3025757500000000E+00 1  0.9622486650000001E+01
  0.2915069400000000E+00 0
         # Potential name:  GTH-PBE-Q4  for symbol:  C
         # Potential read from the potential filename: GTH_POTENTIALS
       &END POTENTIAL
     &END KIND
     &KIND O
       BASIS_SET DZVP-MOLOPT-SR-GTH-q6
       POTENTIAL GTH-PBE-q6
       &POTENTIAL
 2 4
  0.2445543000000000E+00 2 -0.1666721480000000E+02  0.2487311320000000E+01
 2
  0.2209559200000000E+00 1  0.1833745811000000E+02
  0.2113324700000000E+00 0
         # Potential name:  GTH-PBE-Q6  for symbol:  O
         # Potential read from the potential filename: GTH_POTENTIALS
       &END POTENTIAL
     &END KIND
     &KIND H
       BASIS_SET DZVP-MOLOPT-SR-GTH-q1
       POTENTIAL GTH-PBE-q1
       &POTENTIAL
 1
  0.2000000000000000E+00 2 -0.4178900440000000E+01  0.7244633100000000E+00
 0
         # Potential name:  GTH-PBE-Q1  for symbol:  H
         # Potential read from the potential filename: GTH_POTENTIALS
       &END POTENTIAL
     &END KIND
     &KIND N
       BASIS_SET DZVP-MOLOPT-SR-GTH
       POTENTIAL GTH-PBE-q5
       &POTENTIAL
 2 3
  0.2837905100000000E+00 2 -0.1241522559000000E+02  0.1868095920000000E+01
 2
  0.2554050000000000E+00 1  0.1363026257000000E+02
  0.2454945300000000E+00 0
         # Potential name:  GTH-PBE-Q5  for symbol:  N
         # Potential read from the potential filename: GTH_POTENTIALS
       &END POTENTIAL
     &END KIND
     &KIND Ga
       BASIS_SET DZVP-MOLOPT-SR-GTH
       POTENTIAL GTH-PBE-q13
       &POTENTIAL
 2 1 10
  0.4900000000000000E+00 0
 3
  0.4167772300000000E+00 3  0.1047568975000000E+02 -0.4921768140000000E+01  0.8707055900000000E+00
  0.7770178090000000E+01 -0.2248152160000000E+01
  0.1784415450000000E+01
  0.5696265200000000E+00 2  0.1777985340000000E+01  0.1958597600000000E+00
 -0.2317443900000000E+00
  0.2381265000000000E+00 1 -0.1624868022000000E+02
         # Potential name:  GTH-PBE-Q13  for symbol:  GA
         # Potential read from the potential filename: GTH_POTENTIALS
       &END POTENTIAL
     &END KIND
     &TOPOLOGY
       NUMBER_OF_ATOMS  212
       MULTIPLE_UNIT_CELL  1 1 1
     &END TOPOLOGY
   &END SUBSYS
 &END FORCE_EVAL
