 # Version information for this restart file 
 # current date 2019-07-21 12:01:54.653
 # current working dir /lustre04/scratch/rzk/rzk/GaN-carbene/443-adatoms-both-2x2/13-H2OCH2/01-Start090202
 # Program compiled at                              Sun Apr  7 00:48:11 EDT 2019
 # Program compiled on                          beluga2.int.ets1.calculquebec.ca
 # Program compiled for                        Beluga-Linux-x86-64-intel-openmpi
 # Source code revision number                                         svn:18619
 &GLOBAL
   PRINT_LEVEL  MEDIUM
   PROJECT_NAME TEST
   RUN_TYPE  GEO_OPT
 &END GLOBAL
 &MOTION
   &GEO_OPT
     MAX_ITER  500
     STEP_START_VAL  61
   &END GEO_OPT
 &END MOTION
 &FORCE_EVAL
   METHOD  QS
   STRESS_TENSOR  ANALYTICAL
   &DFT
     BASIS_SET_FILE_NAME BASIS_MOLOPT
     POTENTIAL_FILE_NAME GTH_POTENTIALS
     UKS  T
     SURFACE_DIPOLE_CORRECTION  T
     SURF_DIP_DIR  Z
     &SCF
       MAX_SCF  80
       EPS_SCF     5.0000000000000004E-06
       &OT  T
         PRECONDITIONER  FULL_ALL
       &END OT
       &OUTER_SCF  T
         OPTIMIZER  NONE
         EPS_SCF     5.0000000000000004E-06
         MAX_SCF  4
       &END OUTER_SCF
       &PRINT
         &RESTART  OFF
           BACKUP_COPIES  1
           &EACH
             JUST_ENERGY  0
             QS_SCF  0
             MD  20
           &END EACH
         &END RESTART
       &END PRINT
     &END SCF
     &QS
       EPS_DEFAULT     1.0000000000000000E-14
       METHOD  GPW
     &END QS
     &MGRID
       NGRIDS  5
       CUTOFF     1.2000000000000000E+03
     &END MGRID
     &XC
       DENSITY_CUTOFF     1.0000000000000000E-10
       GRADIENT_CUTOFF     1.0000000000000000E-10
       TAU_CUTOFF     1.0000000000000000E-10
       &XC_FUNCTIONAL  NO_SHORTCUT
         &PBE  T
         &END PBE
       &END XC_FUNCTIONAL
       &VDW_POTENTIAL
         POTENTIAL_TYPE  PAIR_POTENTIAL
         &PAIR_POTENTIAL
           R_CUTOFF     1.0000000000000004E+01
           TYPE  DFTD3
           PARAMETER_FILE_NAME dftd3.dat
           REFERENCE_FUNCTIONAL PBE
           EPS_CN     9.9999999999999995E-07
           CALCULATE_C9_TERM  T
           REFERENCE_C9_TERM  T
           LONG_RANGE_CORRECTION  F
           VERBOSE_OUTPUT  F
         &END PAIR_POTENTIAL
       &END VDW_POTENTIAL
     &END XC
   &END DFT
   &SUBSYS
     &CELL
       A     1.2864472766435110E+01    0.0000000000000000E+00    0.0000000000000000E+00
       B    -6.4322363581020028E+00    1.1140960178524473E+01    0.0000000000000000E+00
       C     0.0000000000000000E+00    0.0000000000000000E+00    3.2000000000000000E+01
       MULTIPLE_UNIT_CELL  1 1 1
       &CELL_REF
         A     1.2982353780853531E+01    0.0000000000000000E+00    0.0000000000000000E+00
         B    -6.4911768904267628E+00    1.1243048175136114E+01    0.0000000000000000E+00
         C     0.0000000000000000E+00    0.0000000000000000E+00    3.2000000000000000E+01
         MULTIPLE_UNIT_CELL  1 1 1
       &END CELL_REF
     &END CELL
     &COORD
N    9.0068003860770157E-02    2.1109537988406228E+00    2.5515716788701575E+00
Ga    5.9123899280049179E-02    1.0391809539202303E-01    2.9149059080680684E+00
N    7.3191173959146996E-02    1.2527165305384907E-01    5.0782727724870229E+00
Ga    6.7867989846906687E-02    1.9397155305299814E+00    5.8582890534934826E+00
N    7.5647200367701034E-02    1.9670376083678105E+00    7.8499311258369913E+00
Ga    7.1881011101099498E-02    1.1592194173477002E-01    8.4887972745099827E+00
N    7.3921048170302317E-02    1.1866775585695798E-01    1.0465364438053715E+01
Ga    7.1997077673945822E-02    1.9574867585816791E+00    1.1119039371589986E+01
N    7.4508430296972336E-02    1.9398489901218370E+00    1.3112768521094090E+01
Ga    7.7905870500263638E-02    1.2068254096954997E-01    1.3909438666421238E+01
N    7.8113107083405978E-02    1.2148257430990235E-01    1.6119822982855577E+01
Ga    7.5906337766488668E-02    2.1700929429748013E+00    1.6535678084612751E+01
Ga    7.2742881323541023E-02    3.8464801102609005E+00    1.5321967411016348E+00
N   -1.4083675971457419E+00    4.7088696756628812E+00    2.5466039874214386E+00
Ga   -1.6268429026468663E+00    2.8428070737869651E+00    3.3338280894413357E+00
N   -1.5283535726634447E+00    2.9089055910721520E+00    5.3008849097616650E+00
Ga   -1.5749979325809922E+00    4.7729559937607515E+00    5.8657732088825130E+00
N   -1.5453341376131076E+00    4.7671319154224427E+00    7.8552530463221686E+00
Ga   -1.5288166159590468E+00    2.9076778863596369E+00    8.4870752519096317E+00
N   -1.5238766660819894E+00    2.9103882934764096E+00    1.0481398022655281E+01
Ga   -1.5527621973409045E+00    4.7695056090664645E+00    1.1120449495565515E+01
N   -1.5663336545601461E+00    4.7797328496101796E+00    1.3114989696104528E+01
Ga   -1.5227043257608799E+00    2.9107540077515686E+00    1.3670657671334693E+01
N   -1.5494990580989181E+00    2.8914677361290950E+00    1.5632954448589151E+01
Ga   -1.3736367621016383E+00    4.6699730201302181E+00    1.6534973783653498E+01
N    6.5149500664616194E-02    3.8336961539911041E+00    1.7669201422984614E+01
N   -3.1379972086180672E+00    7.6578629304669450E+00    2.5588583340562234E+00
Ga   -3.1649390842780249E+00    5.6932039786852453E+00    2.9040900032189225E+00
N   -3.1382827177719168E+00    5.6852256933335461E+00    5.0698012038418474E+00
Ga   -3.1516181979306959E+00    7.5136683489169362E+00    5.8397485433016234E+00
N   -3.1420701480943269E+00    7.5361181923359668E+00    7.8393990665248987E+00
Ga   -3.1502150957858177E+00    5.6900388106738857E+00    8.4893592114976446E+00
N   -3.1444049040067568E+00    5.6902113245283790E+00    1.0465726750159652E+01
Ga   -3.1468107618366750E+00    7.5284968291719716E+00    1.1119442503773834E+01
N   -3.1428924724161966E+00    7.5099033731684495E+00    1.3114390995524694E+01
Ga   -3.1439777051758315E+00    5.6887076917910200E+00    1.3921225569560349E+01
N   -3.1433778886348316E+00    5.6890229133887749E+00    1.6120791480889721E+01
Ga   -3.1411793749921708E+00    7.7266678388868240E+00    1.6530408201851575E+01
Ga   -3.1903350389821643E+00    9.3579737958793103E+00    1.2787307317095347E+00
N   -4.6509836593247424E+00    1.0287210616178980E+01    2.5558446434337170E+00
Ga   -4.8398207450758042E+00    8.4257101607003175E+00    3.2875191768425669E+00
N   -4.7494173308001795E+00    8.4755396594841592E+00    5.2767664087526258E+00
Ga   -4.7849220704172568E+00    1.0339877781447155E+01    5.8414360730344148E+00
N   -4.7583901057370106E+00    1.0337621940964819E+01    7.8397011417580789E+00
Ga   -4.7471360813664312E+00    8.4761281906744710E+00    8.4720933471080446E+00
N   -4.7412941102884734E+00    8.4801438739859272E+00    1.0472251928144246E+01
Ga   -4.7671993172495757E+00    1.0337023365610555E+01    1.1116614593289897E+01
N   -4.7808337039767794E+00    1.0349069016619252E+01    1.3111094743439157E+01
Ga   -4.7393435281976073E+00    8.4813695339866673E+00    1.3670449328218718E+01
N   -4.7691209071259832E+00    8.4684858305168742E+00    1.5633047371771069E+01
Ga   -4.5846369165221406E+00    1.0238279778294466E+01    1.6531349348067408E+01
N   -3.1462117524655708E+00    9.3940632306101808E+00    1.7663615905486253E+01
N    3.3030874070506573E+00    1.9794050928039635E+00    2.6398762842602093E+00
Ga    3.2946588994245634E+00    1.0577515172218441E-01    3.3476238262886637E+00
N    3.2901637550562941E+00    1.3527817965570624E-01    5.2881793562175208E+00
Ga    3.2985120775173051E+00    1.9716180772322103E+00    5.9512234293157702E+00
N    3.2906725778047323E+00    1.9749646718353919E+00    7.9097582227791507E+00
Ga    3.2860628125832809E+00    1.0328299397413153E-01    8.4949804969139571E+00
N    3.2884836918075551E+00    1.0583036265041458E-01    1.0484180308223596E+01
Ga    3.2897125775865743E+00    1.9752873842721865E+00    1.1079699901106906E+01
N    3.2899167059755010E+00    1.9751880473277190E+00    1.3049336004898697E+01
Ga    3.2899365518617474E+00    1.0627449830521521E-01    1.3671025070189476E+01
N    3.2913705422306938E+00    1.3867718759788386E-01    1.5631410378474161E+01
Ga    3.2925374304064299E+00    1.9771596124312922E+00    1.5909107180912141E+01
N    1.5590599156547345E+00    4.7113542980189544E+00    2.6080852290570999E+00
Ga    1.7124785293519753E+00    2.8838490155343472E+00    3.3819410084341368E+00
N    1.7013411185708969E+00    2.8946579047038430E+00    5.3075240387052416E+00
Ga    1.7113932084725234E+00    4.7801630575350371E+00    5.8714800473683102E+00
N    1.6865459100769968E+00    4.7639756089149508E+00    7.8560883045441736E+00
Ga    1.6694864057196357E+00    2.9082997785834586E+00    8.4985458760373067E+00
N    1.6706548146109912E+00    2.9102400012633094E+00    1.0486072052127941E+01
Ga    1.6966950699769254E+00    4.7701194945459156E+00    1.1122011501461824E+01
N    1.7136140134110036E+00    4.7788340287445887E+00    1.3114175634224315E+01
Ga    1.6716553176558315E+00    2.9106423609370449E+00    1.3671964384878212E+01
N    1.7005854353522460E+00    2.8953686133042882E+00    1.5632062447754940E+01
Ga    1.5133653571076133E+00    4.6626531262753481E+00    1.6535994927161134E+01
N    7.2311055189973300E-02    7.5604079457743198E+00    2.7493826136945430E+00
Ga    6.6973848783169407E-02    5.7308886360504330E+00    3.4066166844964374E+00
N    6.7465620404092194E-02    5.7077307764813590E+00    5.3295080225355704E+00
Ga    7.0171125630486053E-02    7.5613586127527705E+00    5.9555671520606275E+00
N    7.1456192695043427E-02    7.5499192006486640E+00    7.9161686916058107E+00
Ga    6.8990880870577032E-02    5.6779455400900902E+00    8.4980267313024793E+00
N    7.2605929435496083E-02    5.6772551597318754E+00    1.0487179498104679E+01
Ga    7.2278029946148320E-02    7.5469286653604399E+00    1.1080243966952381E+01
N    7.4591375500454249E-02    7.5475057885468981E+00    1.3052187851516008E+01
Ga    7.4326213921926246E-02    5.6762393438870582E+00    1.3672142003588386E+01
N    7.9259305723864748E-02    5.7116795870995762E+00    1.5632914705517862E+01
Ga    7.5548099341160177E-02    7.5472211392356652E+00    1.5910768962045235E+01
N   -1.6279948110496698E+00    1.0284496483000122E+01    2.5541633859686943E+00
Ga   -1.5430300381388251E+00    8.4897743407386432E+00    3.3436727265156603E+00
N   -1.5271352267723777E+00    8.4727372294602805E+00    5.2920599826755588E+00
Ga   -1.5024499646819192E+00    1.0350556317629135E+01    5.8588915909548138E+00
N   -1.5301609022740816E+00    1.0335639113126119E+01    7.8502461530861547E+00
Ga   -1.5521321671198274E+00    8.4805234933680751E+00    8.4961306995462600E+00
N   -1.5477125386485944E+00    8.4808975117247805E+00    1.0486275610070356E+01
Ga   -1.5200906361314690E+00    1.0340526928788533E+01    1.1121456236375492E+01
N   -1.5032407300352930E+00    1.0350201165952797E+01    1.3113925902748978E+01
Ga   -1.5461143723540771E+00    8.4820172429184311E+00    1.3671712616386442E+01
N   -1.5127499620565747E+00    8.4690161867662592E+00    1.5633163416295274E+01
Ga   -1.7014051548570228E+00    1.0236493764078128E+01    1.6531956977783583E+01
N    6.5102361426914062E+00    2.0833185377158823E+00    2.5593602092267607E+00
Ga    6.5214727165800443E+00    1.1694380841610295E-01    2.9276653571611253E+00
N    6.5039284206572754E+00    1.1834850901005073E-01    5.0987820607792376E+00
Ga    6.5112037070808064E+00    1.9446569056123468E+00    5.8515583109849887E+00
N    6.5017082641931214E+00    1.9676867962017841E+00    7.8473476066829191E+00
Ga    6.5056248521157540E+00    1.2021877983204786E-01    8.4934421412245591E+00
N    6.5043269011556522E+00    1.1898599537073010E-01    1.0468402253456054E+01
Ga    6.5078169636623571E+00    1.9601032717044204E+00    1.1117123733089025E+01
N    6.5066291371300959E+00    1.9405494652042536E+00    1.3110900231312018E+01
Ga    6.5023020864245167E+00    1.2307956330446565E-01    1.3912873024487078E+01
N    6.5016186425188893E+00    1.2326120750090877E-01    1.6119590107996284E+01
Ga    6.5073189835070462E+00    2.1779916312979677E+00    1.6543808281140937E+01
Ga    6.6353303332820728E+00    3.8016924709297899E+00    1.2916524398554488E+00
N    4.9417379762611091E+00    4.6780600970894461E+00    2.4959181170180913E+00
Ga    4.9225905783875374E+00    2.9075111715703472E+00    3.3449077942858225E+00
N    4.8827747726031872E+00    2.8957555847071061E+00    5.2847761660315635E+00
Ga    4.8755116539405376E+00    4.7808084677382832E+00    5.8467218092316644E+00
N    4.8867166626852914E+00    4.7631437579838947E+00    7.8424869800546775E+00
Ga    4.9105025207136377E+00    2.9123788233118670E+00    8.4959588018796897E+00
N    4.9077615614504344E+00    2.9109516233156350E+00    1.0484469242621781E+01
Ga    4.8845180873154774E+00    4.7715600345944473E+00    1.1117848015015285E+01
N    4.8676494357175955E+00    4.7793813914146028E+00    1.3111065474277140E+01
Ga    4.9099071284480287E+00    2.9112175909879126E+00    1.3671160284543936E+01
N    4.8821570206427634E+00    2.8949603954547904E+00    1.5630754136908031E+01
Ga    5.0729428778300916E+00    4.6615954722341115E+00    1.6543174647209341E+01
N    6.5048631445425835E+00    3.8328227269588528E+00    1.7684975756753133E+01
N    3.2745412921310280E+00    7.6612157599542305E+00    2.5694970772841428E+00
N    3.2809135691747495E+00    5.6897915102147785E+00    5.0994902758930438E+00
Ga    3.2937909136127752E+00    7.5254720964177046E+00    5.8526765292057972E+00
N    3.2857141510121464E+00    7.5373708913275044E+00    7.8496133126741698E+00
Ga    3.2911715879094490E+00    5.6910600955967681E+00    8.4938049556657464E+00
N    3.2890414249947666E+00    5.6893110294331670E+00    1.0467999105809191E+01
Ga    3.2923877396331442E+00    7.5292825253842848E+00    1.1117798686808944E+01
N    3.2914037154260161E+00    7.5089946755114427E+00    1.3115177123038338E+01
Ga    3.2916244013855036E+00    5.6841549654754759E+00    1.3914328895209104E+01
N    3.2912141913739976E+00    5.6834467886286975E+00    1.6119272884278622E+01
Ga    3.2933148678486814E+00    7.6992816066648091E+00    1.6501027186812678E+01
Ga    3.3191544668282269E+00    9.4306637604551913E+00    1.3052485676825625E+00
N    1.7763290697519682E+00    1.0278461858011315E+01    2.5631275669226556E+00
Ga    1.6919798459564810E+00    8.4954953443332357E+00    3.3535670816993459E+00
N    1.6656647352600660E+00    8.4706543967981762E+00    5.3014583462314366E+00
Ga    1.6608913633146889E+00    1.0354416046324737E+01    5.8543069376522405E+00
N    1.6723535458848855E+00    1.0335709192050418E+01    7.8526094613836417E+00
Ga    1.6939226942904442E+00    8.4839473193008175E+00    8.4983449966525875E+00
N    1.6923249836957444E+00    8.4812064011647035E+00    1.0489196932128683E+01
Ga    1.6669535254399213E+00    1.0342504697677395E+01    1.1118461968525192E+01
N    1.6500300220806412E+00    1.0351274745881755E+01    1.3115659103153350E+01
Ga    1.6945150180697968E+00    8.4818565615929238E+00    1.3665595405317587E+01
N    1.6727891096380756E+00    8.4697922101016268E+00    1.5637208362348730E+01
Ga    1.8176487612533843E+00    1.0257300095458159E+01    1.6501706921475133E+01
N    3.2841865558330117E+00    9.3981857806252069E+00    1.7628358112351247E+01
N    9.7254948415377527E+00    1.9786175860215838E+00    2.6676496512761223E+00
Ga    9.7207541631447114E+00    2.0601334898768306E-01    3.2951504582717255E+00
N    9.7189658785805673E+00    1.2043954604393284E-01    5.2877740975403809E+00
Ga    9.7201261552830438E+00    1.9719216550739296E+00    5.9080896220600074E+00
N    9.7218288034791307E+00    1.9761708383346617E+00    7.8912553867183606E+00
Ga    9.7242296934562855E+00    1.0946991740115954E-01    8.4821190639529362E+00
N    9.7219574401341529E+00    1.0662831432201460E-01    1.0479780594725698E+01
Ga    9.7205177446291255E+00    1.9762290387046026E+00    1.1072825588956183E+01
N    9.7223559424738308E+00    1.9747840516204154E+00    1.3047079445331518E+01
Ga    9.7239053783532921E+00    1.0667685520071500E-01    1.3663545214748606E+01
N    9.7262904340052803E+00    1.3295252656100162E-01    1.5633203522759622E+01
Ga    9.7227754696350921E+00    1.9780160928241470E+00    1.5909400649022640E+01
N    8.0136646415615260E+00    4.6931691002987588E+00    2.5645475666629935E+00
Ga    8.1966531160782239E+00    2.8513253534165774E+00    3.3148936445208554E+00
N    8.1117632053640403E+00    2.9007538078645809E+00    5.2929743375842557E+00
Ga    8.1255840258755487E+00    4.7761318759827303E+00    5.8220680476550966E+00
N    8.1198574977671534E+00    4.7687730266817194E+00    7.8308611654676161E+00
Ga    8.1056493956028799E+00    2.9137293365977390E+00    8.4762831919827732E+00
N    8.1030817212980057E+00    2.9113861569200723E+00    1.0474507029260222E+01
Ga    8.1265945844181662E+00    4.7696954837804242E+00    1.1115447379432604E+01
N    8.1457302820833988E+00    4.7797235547281236E+00    1.3110262636946574E+01
Ga    8.1032206498377892E+00    2.9121043242778004E+00    1.3670528191376553E+01
N    8.1333215924188966E+00    2.8938366580870358E+00    1.5629463953015415E+01
Ga    7.9428174296569454E+00    4.6624211309274788E+00    1.6543751564062788E+01
N    6.4956185729186728E+00    7.5458282674643682E+00    2.6593873532914496E+00
Ga    6.4759217665248068E+00    5.7684190664402220E+00    3.2483942489033888E+00
N    6.4930111465102245E+00    5.6807531399348532E+00    5.2519503483750825E+00
Ga    6.5002298154662110E+00    7.5392496373135458E+00    5.8784929320807473E+00
N    6.5037445225777262E+00    7.5437817221344154E+00    7.8723162971678242E+00
Ga    6.5066028963300635E+00    5.6815957184859869E+00    8.4745023587983592E+00
N    6.5049153653400005E+00    5.6777489865406059E+00    1.0472895546463548E+01
Ga    6.5055000722761944E+00    7.5459717539980842E+00    1.1070554379445950E+01
N    6.5057592180877997E+00    7.5474542269097462E+00    1.3045195539301714E+01
Ga    6.5071401607526500E+00    5.6768911969681355E+00    1.3670085635340749E+01
N    6.5066282119465315E+00    5.7114045808692424E+00    1.5628746198993852E+01
Ga    6.5081888308812834E+00    7.5453411183535062E+00    1.5909323054023426E+01
N    4.7957170170440184E+00    1.0281090768379716E+01    2.5659541373458454E+00
Ga    4.9672005268354704E+00    8.4353346279045009E+00    3.2876854685089745E+00
N    4.8920439363296211E+00    8.4746906886985620E+00    5.2813408320379684E+00
Ga    4.9151760887405489E+00    1.0342430297646715E+01    5.8340571872204894E+00
N    4.9066482943592131E+00    1.0337126672502885E+01    7.8407685603130677E+00
Ga    4.8924497232225441E+00    8.4799088283508457E+00    8.4747784571224081E+00
N    4.8873717190157686E+00    8.4804371651443553E+00    1.0474957839756678E+01
Ga    4.9125034075747429E+00    1.0338947614470893E+01    1.1113198507738959E+01
N    4.9309658898493112E+00    1.0349996737218426E+01    1.3111492060804343E+01
Ga    4.8887529983402978E+00    8.4816791494644725E+00    1.3663827105907856E+01
N    4.9124443401389586E+00    8.4712952314445893E+00    1.5633740759989029E+01
Ga    4.7599158085738722E+00    1.0251915042743745E+01    1.6501985557551002E+01
O    8.8880205047337324E-01    3.7139733267347608E+00   -2.9052288799974696E-01
H    1.8883644809401474E+00    3.5461072813780743E+00   -1.0366702446672279E-02
C    4.3729147028600163E-01    2.6511815178015365E+00   -1.1877684688414674E+00
H    3.2500452319008943E-01    1.7021377467918934E+00   -6.4336184105897254E-01
H   -5.2903710158376005E-01    2.9624302280598225E+00   -1.6005542369506904E+00
H    1.1730925413298421E+00    2.5484857213755849E+00   -1.9944668803461514E+00
Ga    3.2865312739237900E+00    5.7215700715226694E+00    2.9662116811468162E+00
O    3.2602776572590360E+00    3.1679305899039778E+00    4.9197508313705496E-01
H    7.8848991173200045E-02    7.5416329062286387E+00    1.7226158442056703E+00
C    3.3471089750170600E+00    1.8815665354324300E+00    1.1820039537887315E+00
H    4.2867643617369389E+00    1.4004826904262939E+00    8.6627099021424891E-01
H    2.4979012777594001E+00    1.2965474937377059E+00    7.9530460395572189E-01
H    3.8189508627869841E+00    3.8307272841363038E+00    9.8732244034522321E-01
     &END COORD
     &KIND C
       BASIS_SET DZVP-MOLOPT-SR-GTH-q4
       POTENTIAL GTH-PBE-q4
       &POTENTIAL
 2 2
  0.3384712400000000E+00 2 -0.8803673979999999E+01  0.1339210850000000E+01
 2
  0.3025757500000000E+00 1  0.9622486650000001E+01
  0.2915069400000000E+00 0
         # Potential name:  GTH-PBE-Q4  for symbol:  C
         # Potential read from the potential filename: GTH_POTENTIALS
       &END POTENTIAL
     &END KIND
     &KIND O
       BASIS_SET DZVP-MOLOPT-SR-GTH-q6
       POTENTIAL GTH-PBE-q6
       &POTENTIAL
 2 4
  0.2445543000000000E+00 2 -0.1666721480000000E+02  0.2487311320000000E+01
 2
  0.2209559200000000E+00 1  0.1833745811000000E+02
  0.2113324700000000E+00 0
         # Potential name:  GTH-PBE-Q6  for symbol:  O
         # Potential read from the potential filename: GTH_POTENTIALS
       &END POTENTIAL
     &END KIND
     &KIND H
       BASIS_SET DZVP-MOLOPT-SR-GTH-q1
       POTENTIAL GTH-PBE-q1
       &POTENTIAL
 1
  0.2000000000000000E+00 2 -0.4178900440000000E+01  0.7244633100000000E+00
 0
         # Potential name:  GTH-PBE-Q1  for symbol:  H
         # Potential read from the potential filename: GTH_POTENTIALS
       &END POTENTIAL
     &END KIND
     &KIND N
       BASIS_SET DZVP-MOLOPT-SR-GTH
       POTENTIAL GTH-PBE-q5
       &POTENTIAL
 2 3
  0.2837905100000000E+00 2 -0.1241522559000000E+02  0.1868095920000000E+01
 2
  0.2554050000000000E+00 1  0.1363026257000000E+02
  0.2454945300000000E+00 0
         # Potential name:  GTH-PBE-Q5  for symbol:  N
         # Potential read from the potential filename: GTH_POTENTIALS
       &END POTENTIAL
     &END KIND
     &KIND Ga
       BASIS_SET DZVP-MOLOPT-SR-GTH
       POTENTIAL GTH-PBE-q13
       &POTENTIAL
 2 1 10
  0.4900000000000000E+00 0
 3
  0.4167772300000000E+00 3  0.1047568975000000E+02 -0.4921768140000000E+01  0.8707055900000000E+00
  0.7770178090000000E+01 -0.2248152160000000E+01
  0.1784415450000000E+01
  0.5696265200000000E+00 2  0.1777985340000000E+01  0.1958597600000000E+00
 -0.2317443900000000E+00
  0.2381265000000000E+00 1 -0.1624868022000000E+02
         # Potential name:  GTH-PBE-Q13  for symbol:  GA
         # Potential read from the potential filename: GTH_POTENTIALS
       &END POTENTIAL
     &END KIND
     &TOPOLOGY
       NUMBER_OF_ATOMS  212
       MULTIPLE_UNIT_CELL  1 1 1
     &END TOPOLOGY
   &END SUBSYS
 &END FORCE_EVAL
