 # Version information for this restart file 
 # current date 2019-07-21 16:39:27.237
 # current working dir /lustre04/scratch/rzk/rzk/GaN-carbene/443-adatoms-both-2x2/13-H2OCH2/01-Start090202
 # Program compiled at                              Sun Apr  7 00:48:11 EDT 2019
 # Program compiled on                          beluga2.int.ets1.calculquebec.ca
 # Program compiled for                        Beluga-Linux-x86-64-intel-openmpi
 # Source code revision number                                         svn:18619
 &GLOBAL
   PRINT_LEVEL  MEDIUM
   PROJECT_NAME TEST
   RUN_TYPE  GEO_OPT
 &END GLOBAL
 &MOTION
   &GEO_OPT
     MAX_ITER  500
     STEP_START_VAL  77
   &END GEO_OPT
 &END MOTION
 &FORCE_EVAL
   METHOD  QS
   STRESS_TENSOR  ANALYTICAL
   &DFT
     BASIS_SET_FILE_NAME BASIS_MOLOPT
     POTENTIAL_FILE_NAME GTH_POTENTIALS
     UKS  T
     SURFACE_DIPOLE_CORRECTION  T
     SURF_DIP_DIR  Z
     &SCF
       MAX_SCF  80
       EPS_SCF     5.0000000000000004E-06
       &OT  T
         PRECONDITIONER  FULL_ALL
       &END OT
       &OUTER_SCF  T
         OPTIMIZER  NONE
         EPS_SCF     5.0000000000000004E-06
         MAX_SCF  4
       &END OUTER_SCF
       &PRINT
         &RESTART  OFF
           BACKUP_COPIES  1
           &EACH
             JUST_ENERGY  0
             QS_SCF  0
             MD  20
           &END EACH
         &END RESTART
       &END PRINT
     &END SCF
     &QS
       EPS_DEFAULT     1.0000000000000000E-14
       METHOD  GPW
     &END QS
     &MGRID
       NGRIDS  5
       CUTOFF     1.2000000000000000E+03
     &END MGRID
     &XC
       DENSITY_CUTOFF     1.0000000000000000E-10
       GRADIENT_CUTOFF     1.0000000000000000E-10
       TAU_CUTOFF     1.0000000000000000E-10
       &XC_FUNCTIONAL  NO_SHORTCUT
         &PBE  T
         &END PBE
       &END XC_FUNCTIONAL
       &VDW_POTENTIAL
         POTENTIAL_TYPE  PAIR_POTENTIAL
         &PAIR_POTENTIAL
           R_CUTOFF     1.0000000000000005E+01
           TYPE  DFTD3
           PARAMETER_FILE_NAME dftd3.dat
           REFERENCE_FUNCTIONAL PBE
           EPS_CN     9.9999999999999995E-07
           CALCULATE_C9_TERM  T
           REFERENCE_C9_TERM  T
           LONG_RANGE_CORRECTION  F
           VERBOSE_OUTPUT  F
         &END PAIR_POTENTIAL
       &END VDW_POTENTIAL
     &END XC
   &END DFT
   &SUBSYS
     &CELL
       A     1.2864472766435110E+01    0.0000000000000000E+00    0.0000000000000000E+00
       B    -6.4322363581020028E+00    1.1140960178524475E+01    0.0000000000000000E+00
       C     0.0000000000000000E+00    0.0000000000000000E+00    3.2000000000000000E+01
       MULTIPLE_UNIT_CELL  1 1 1
       &CELL_REF
         A     1.2982353780853531E+01    0.0000000000000000E+00    0.0000000000000000E+00
         B    -6.4911768904267628E+00    1.1243048175136114E+01    0.0000000000000000E+00
         C     0.0000000000000000E+00    0.0000000000000000E+00    3.2000000000000000E+01
         MULTIPLE_UNIT_CELL  1 1 1
       &END CELL_REF
     &END CELL
     &COORD
N    8.7669948533801251E-02    2.1126700661602360E+00    2.5447590345730653E+00
Ga    8.7323195001366122E-02    1.1801063310813455E-01    2.9243709917967213E+00
N    6.6590901124637100E-02    1.2777093745031762E-01    5.0698110913973800E+00
Ga    6.8180495823079432E-02    1.9430325440024327E+00    5.8596675585253912E+00
N    7.5597660321053112E-02    1.9679202496897672E+00    7.8441661001887377E+00
Ga    7.6375525970337116E-02    1.1704663906070054E-01    8.4910371398613069E+00
N    7.4421736213099138E-02    1.1932260346662295E-01    1.0460501187131040E+01
Ga    7.2985121932040486E-02    1.9570030979415320E+00    1.1124039692485953E+01
N    7.3994826459007040E-02    1.9389123789011338E+00    1.3111078433439626E+01
Ga    7.3812419006328026E-02    1.1880785674402769E-01    1.3925803303226843E+01
N    7.3342226161797405E-02    1.1914812651740102E-01    1.6114001649878464E+01
Ga    7.3914591334004118E-02    2.1642701006733178E+00    1.6533825332648597E+01
Ga    7.2897406795722181E-02    3.8453503210380537E+00    1.5232847454830987E+00
N   -1.4087029909883715E+00    4.7054013185540322E+00    2.5353045439615975E+00
Ga   -1.6258232252492293E+00    2.8512807793061046E+00    3.3330438382405845E+00
N   -1.5296372131665514E+00    2.9094181723332024E+00    5.2951787195713784E+00
Ga   -1.5773325061775232E+00    4.7737190757092325E+00    5.8713439455595386E+00
N   -1.5448479135191278E+00    4.7666786855160863E+00    7.8531262788912395E+00
Ga   -1.5269256783325180E+00    2.9086416203584928E+00    8.4943021570748591E+00
N   -1.5229734915920978E+00    2.9105929906637140E+00    1.0478991947353862E+01
Ga   -1.5532231160117764E+00    4.7706580803299223E+00    1.1122496352629231E+01
N   -1.5672844280617642E+00    4.7804590853578333E+00    1.3110203042329330E+01
Ga   -1.5237865141271998E+00    2.9110266252392742E+00    1.3671593177957110E+01
N   -1.5507016218576550E+00    2.8950856459250174E+00    1.5628942838080622E+01
Ga   -1.3714916434002615E+00    4.6675351934525979E+00    1.6533711422794383E+01
N    6.8555430948313512E-02    3.8301092325675965E+00    1.7670013563679735E+01
N   -3.1405800703256990E+00    7.6460272460223448E+00    2.5338744759422758E+00
Ga   -3.1649709568271822E+00    5.6986621616717699E+00    2.9093228853201056E+00
N   -3.1371656337858589E+00    5.6832871354011676E+00    5.0684576396923902E+00
Ga   -3.1526725681700865E+00    7.5164962568028377E+00    5.8319445783695496E+00
N   -3.1426677846361746E+00    7.5378553765034644E+00    7.8289658419793788E+00
Ga   -3.1507711276700294E+00    5.6926367847237254E+00    8.4888717040338246E+00
N   -3.1448115515997741E+00    5.6909194983363935E+00    1.0459730674079267E+01
Ga   -3.1470298307718059E+00    7.5293939154500773E+00    1.1120040889748637E+01
N   -3.1433709978570072E+00    7.5098273554062152E+00    1.3108366530689027E+01
Ga   -3.1435835357236286E+00    5.6900459732134703E+00    1.3924617824652032E+01
N   -3.1435504478176552E+00    5.6894596720139399E+00    1.6113551830508246E+01
Ga   -3.1425589592831882E+00    7.7341439893448376E+00    1.6533230260712600E+01
Ga   -3.1995829047650886E+00    9.3376765899536309E+00    1.1620933119235586E+00
N   -4.6642041919350410E+00    1.0290583740352176E+01    2.5326324404212226E+00
Ga   -4.8245100815331448E+00    8.4302400888947631E+00    3.2571384596385702E+00
N   -4.7511135858054381E+00    8.4759854079088726E+00    5.2547325413855583E+00
Ga   -4.7804478152938374E+00    1.0338928544395277E+01    5.8295780475571943E+00
N   -4.7584547617925637E+00    1.0338108676290375E+01    7.8257903420934571E+00
Ga   -4.7448369146142131E+00    8.4788017117807275E+00    8.4730793401005648E+00
N   -4.7410824050964386E+00    8.4819626719770209E+00    1.0465475488835191E+01
Ga   -4.7670643162535571E+00    1.0338362204045415E+01    1.1120242931519256E+01
N   -4.7826084518494332E+00    1.0350160679989338E+01    1.3108398224343981E+01
Ga   -4.7402202136227247E+00    8.4812991364962684E+00    1.3670838859783345E+01
N   -4.7668480862323301E+00    8.4661900629944409E+00    1.5628343508157977E+01
Ga   -4.5882555251924577E+00    1.0238581365937319E+01    1.6533500678849400E+01
N   -3.1478378793030801E+00    9.4004836801882377E+00    1.7670376293087287E+01
N    3.3040033013729273E+00    1.9793708450052738E+00    2.6268987137744340E+00
Ga    3.2954449735326947E+00    8.9091257234339763E-02    3.3162346649806307E+00
N    3.2904565045977141E+00    1.3506670237725968E-01    5.2641872252445800E+00
Ga    3.2993624333047649E+00    1.9672776556041005E+00    5.9426077401003576E+00
N    3.2911549103458788E+00    1.9750487057621418E+00    7.8984842737658196E+00
Ga    3.2861982132916965E+00    1.0330833356920099E-01    8.4919361448418798E+00
N    3.2883498718098418E+00    1.0622671933908971E-01    1.0476191068697085E+01
Ga    3.2898682237235128E+00    1.9754484455087939E+00    1.1079601709741770E+01
N    3.2898711481188281E+00    1.9760362541262655E+00    1.3043066979005406E+01
Ga    3.2896459935975835E+00    1.0656396929426577E-01    1.3671900300551641E+01
N    3.2907050480057296E+00    1.3847329044807402E-01    1.5628395744637293E+01
Ga    3.2904997980934887E+00    1.9762756441925844E+00    1.5911179420222147E+01
N    1.5567100752400509E+00    4.7145598992940076E+00    2.6009058599581305E+00
Ga    1.7152552608771336E+00    2.8813882790490144E+00    3.3752593339875188E+00
N    1.7017351485901564E+00    2.8958150951816499E+00    5.2976320963721699E+00
Ga    1.7086219557490410E+00    4.7791321370437210E+00    5.8710970680679502E+00
N    1.6875163848455810E+00    4.7650220561816887E+00    7.8485882091572581E+00
Ga    1.6714197037918797E+00    2.9080459488086459E+00    8.4989123234632959E+00
N    1.6705746011378193E+00    2.9111859865905352E+00    1.0480360163206900E+01
Ga    1.6975583313681679E+00    4.7706033614260441E+00    1.1126356327472962E+01
N    1.7146646789888222E+00    4.7804762329636334E+00    1.3112172315957000E+01
Ga    1.6712452362780146E+00    2.9110793315485268E+00    1.3672879136246509E+01
N    1.6995595412005511E+00    2.8958703631413449E+00    1.5629225868058823E+01
Ga    1.5149326233068598E+00    4.6650944929257108E+00    1.6534897076148550E+01
N    6.1107030202080276E-02    7.5542297883485308E+00    2.7417252904771106E+00
Ga    5.6462099345568492E-02    5.7232542779873956E+00    3.4052792397228817E+00
N    6.6185990450046917E-02    5.7074857545095732E+00    5.3237442875999532E+00
Ga    5.5083647231799697E-02    7.5584298100703222E+00    5.9590067193475864E+00
N    7.0023548410521566E-02    7.5500073946474409E+00    7.9114098954004222E+00
Ga    6.9385606635770189E-02    5.6777620244148705E+00    8.5017830921741844E+00
N    7.3397452719790007E-02    5.6769805975998215E+00    1.0482825521184912E+01
Ga    7.1268363465683535E-02    7.5474905006021595E+00    1.1081643208486575E+01
N    7.2847297177323883E-02    7.5469337785295201E+00    1.3044927263275731E+01
Ga    7.3495849872461216E-02    5.6771399923798356E+00    1.3672647191381673E+01
N    7.4970902417055965E-02    5.7094560722200312E+00    1.5629167240105646E+01
Ga    7.3697383966682864E-02    7.5472642321102459E+00    1.5910887812220532E+01
N   -1.6097633257308654E+00    1.0290013770405841E+01    2.5374557617104578E+00
Ga   -1.5659624111922577E+00    8.4970037484136789E+00    3.3182573589736228E+00
N   -1.5285321523049447E+00    8.4739575402946485E+00    5.2725172504105098E+00
Ga   -1.5058248837463428E+00    1.0350092343185116E+01    5.8494677627170395E+00
N   -1.5299480073087230E+00    1.0336474985189490E+01    7.8380757062553617E+00
Ga   -1.5545946159837862E+00    8.4829935689937006E+00    8.4964251221565465E+00
N   -1.5482401035879132E+00    8.4824356680617488E+00    1.0479607185033226E+01
Ga   -1.5203206769141648E+00    1.0341789694885689E+01    1.1124253512803387E+01
N   -1.5020058895309276E+00    1.0351235853015895E+01    1.3110766232211581E+01
Ga   -1.5464247000230420E+00    8.4820056110009272E+00    1.3671878304803302E+01
N   -1.5176715908758371E+00    8.4669752316983757E+00    1.5628557705724946E+01
Ga   -1.7010170474016557E+00    1.0236142260275043E+01    1.6534107017448171E+01
N    6.5150661690290388E+00    2.0811048292883392E+00    2.5490013980689388E+00
Ga    6.4965081266924782E+00    1.2850593110165859E-01    2.9423940664286046E+00
N    6.5121598024076013E+00    1.1901366137582403E-01    5.0931897702049582E+00
Ga    6.5117374268281676E+00    1.9474606920515345E+00    5.8519734132715779E+00
N    6.5021713383247581E+00    1.9691880207965464E+00    7.8412214224015475E+00
Ga    6.5018958221713623E+00    1.2183232927511982E-01    8.4954842569328584E+00
N    6.5040103866110686E+00    1.1998055220140945E-01    1.0463706045034170E+01
Ga    6.5069844913139461E+00    1.9598670969951670E+00    1.1121680991408095E+01
N    6.5064106344345172E+00    1.9394895712939120E+00    1.3109484085493834E+01
Ga    6.5060533913527561E+00    1.2020841404943888E-01    1.3927226382535874E+01
N    6.5052352403075391E+00    1.1980924553168369E-01    1.6114075345454903E+01
Ga    6.5063580315183573E+00    2.1658079922474514E+00    1.6533360770651196E+01
Ga    6.6475799919877367E+00    3.7996184719484334E+00    1.2586418802758015E+00
N    4.9358457311147275E+00    4.6853242559967168E+00    2.4902822839654069E+00
Ga    4.9243724019211648E+00    2.9074946491710905E+00    3.3332140910202415E+00
N    4.8836266291867334E+00    2.8966288928652117E+00    5.2720261569561346E+00
Ga    4.8783437185823049E+00    4.7799385544882069E+00    5.8428493218330919E+00
N    4.8862383975791213E+00    4.7643629205038449E+00    7.8325756685155694E+00
Ga    4.9095299175765623E+00    2.9126002827579787E+00    8.4956126102737421E+00
N    4.9081143644294922E+00    2.9122518414958036E+00    1.0478688401904890E+01
Ga    4.8839194157784105E+00    4.7721751756542918E+00    1.1122432908217146E+01
N    4.8660707489816977E+00    4.7808715637846193E+00    1.3109723210864809E+01
Ga    4.9093923757331845E+00    2.9114463119704164E+00    1.3671159686552077E+01
N    4.8807319337044248E+00    2.8949069928007729E+00    1.5628003578322128E+01
Ga    5.0619437750889507E+00    4.6673854885253512E+00    1.6533256487733080E+01
N    6.5014578914655976E+00    3.8309013502253570E+00    1.7668604620403663E+01
N    3.2703614854973604E+00    7.6755192384216615E+00    2.5771399854413044E+00
N    3.2787662128315782E+00    5.6969099417592153E+00    5.0872472640172157E+00
Ga    3.2929115825605595E+00    7.5227751804324958E+00    5.8666979673099400E+00
N    3.2860339557668845E+00    7.5379878132380407E+00    7.8478771794750930E+00
Ga    3.2917640795591669E+00    5.6892139623439180E+00    8.4970342538102859E+00
N    3.2893961095841320E+00    5.6896298181659830E+00    1.0463586517796937E+01
Ga    3.2924497028825734E+00    7.5294075088482337E+00    1.1123533511883373E+01
N    3.2908510756273546E+00    7.5095443059343543E+00    1.3110737479633062E+01
Ga    3.2906965538443211E+00    5.6902884240485267E+00    1.3928135923814791E+01
N    3.2897132229604282E+00    5.6893120273488664E+00    1.6114439981407006E+01
Ga    3.2904137332663921E+00    7.7358340308804499E+00    1.6533977920367093E+01
Ga    3.3157904165327938E+00    9.4227901911727550E+00    1.5310154437239512E+00
N    1.7862553217656101E+00    1.0269548176345204E+01    2.5667830972004761E+00
Ga    1.6485491231529223E+00    8.4768446114866940E+00    3.3890095387346615E+00
N    1.6633511334260009E+00    8.4718312909543823E+00    5.3111094146395184E+00
Ga    1.6551753886458369E+00    1.0358662435144865E+01    5.8731489246627211E+00
N    1.6735235784554354E+00    1.0336186007286511E+01    7.8548988262379389E+00
Ga    1.6917261447289718E+00    8.4831958117645545E+00    8.5051043669901034E+00
N    1.6925133626902253E+00    8.4815823684645650E+00    1.0485295916184548E+01
Ga    1.6659520174989930E+00    1.0343236556314631E+01    1.1124381767202847E+01
N    1.6494697871237931E+00    1.0351552324984166E+01    1.3111496701870632E+01
Ga    1.6933134864760984E+00    8.4819230630348539E+00    1.3671926049087553E+01
N    1.6646506699093653E+00    8.4652646375909093E+00    1.5629152056664905E+01
Ga    1.8460449142827200E+00    1.0237975611579518E+01    1.6533851949268470E+01
N    3.2858684936563041E+00    9.4010650094685833E+00    1.7667988689335736E+01
N    9.7263393260689668E+00    1.9847096615284205E+00    2.6535179954087642E+00
Ga    9.7212776748517591E+00    2.4497848539904069E-01    3.3382829038820003E+00
N    9.7188947643445189E+00    1.1989304032043324E-01    5.2974095099987935E+00
Ga    9.7196149855833394E+00    1.9827657247941106E+00    5.9198734246361209E+00
N    9.7217862492363594E+00    1.9771448160300420E+00    7.8913494800955712E+00
Ga    9.7245494850775547E+00    1.1089437365537082E-01    8.4938269705493514E+00
N    9.7223084980980214E+00    1.0718074282365982E-01    1.0478708843388079E+01
Ga    9.7205232727304782E+00    1.9773688878200941E+00    1.1077263953969801E+01
N    9.7216983961133252E+00    1.9767752308616999E+00    1.3041725930438632E+01
Ga    9.7232701498923664E+00    1.0749404819186979E-01    1.3671117724521565E+01
N    9.7240946130499530E+00    1.3962764139520276E-01    1.5627738600833339E+01
Ga    9.7226970898380181E+00    1.9768423073858998E+00    1.5911250043149908E+01
N    8.0181858061512727E+00    4.6940078821904425E+00    2.5501429777054789E+00
Ga    8.1938786131711918E+00    2.8603196192592022E+00    3.3081757085865577E+00
N    8.1128499540872205E+00    2.9016970395865016E+00    5.2837019303642405E+00
Ga    8.1269830471102988E+00    4.7775216559723894E+00    5.8240900505402218E+00
N    8.1188451340431200E+00    4.7686436901837004E+00    7.8261774742288353E+00
Ga    8.1036054248272027E+00    2.9153177274944428E+00    8.4830747117878058E+00
N    8.1023640219717592E+00    2.9120876124830439E+00    1.0472170986860808E+01
Ga    8.1268754795012601E+00    4.7710516073876530E+00    1.1118162400757205E+01
N    8.1457857015246891E+00    4.7805047558569864E+00    1.3106814325301704E+01
Ga    8.1035627691416519E+00    2.9120440161425631E+00    1.3670855880731962E+01
N    8.1321842482757436E+00    2.8962623300013570E+00    1.5627133740519504E+01
Ga    7.9463996394549987E+00    4.6649416385679947E+00    1.6533673113900715E+01
N    6.5014623763279724E+00    7.5411024086726695E+00    2.6363071241834399E+00
Ga    6.4825831769797251E+00    5.7626824982524409E+00    3.2388451925454156E+00
N    6.4936672908083928E+00    5.6820281171077198E+00    5.2403899892741217E+00
Ga    6.5135393485429125E+00    7.5360573598133884E+00    5.8852584115443012E+00
N    6.5048598534797515E+00    7.5438778304771530E+00    7.8681724432342266E+00
Ga    6.5062970468954404E+00    5.6808535469379029E+00    8.4781599966777534E+00
N    6.5042678177248812E+00    5.6775661487946962E+00    1.0468362428910078E+01
Ga    6.5064551191385922E+00    7.5465396468361661E+00    1.1072294690970580E+01
N    6.5064406031674116E+00    7.5468954450602759E+00    1.3037992911718931E+01
Ga    6.5068676705327722E+00    5.6784535747062792E+00    1.3670295389976719E+01
N    6.5075268988734605E+00    5.7102846828105873E+00    1.5626667295871780E+01
Ga    6.5068668010477042E+00    7.5472033810277726E+00    1.5911839097847182E+01
N    4.7932320553039967E+00    1.0278263045296811E+01    2.5758810243658461E+00
Ga    5.0086177457887171E+00    8.4154838686212106E+00    3.3301973757223062E+00
N    4.8922073705715210E+00    8.4761942360316755E+00    5.2893037283372601E+00
Ga    4.9213423423906422E+00    1.0347063693995580E+01    5.8515965088163489E+00
N    4.9067240040770725E+00    1.0337694228980675E+01    7.8414248336255703E+00
Ga    4.8945925766941185E+00    8.4794255353876107E+00    8.4831165619512774E+00
N    4.8873995947508666E+00    8.4811373329270534E+00    1.0471431487050431E+01
Ga    4.9138704118918861E+00    1.0339868882901447E+01    1.1120206474133784E+01
N    4.9308975094303138E+00    1.0350633667024884E+01    1.3108340348140800E+01
Ga    4.8887064801513205E+00    8.4818100679795947E+00    1.3670891036350534E+01
N    4.9164689311674916E+00    8.4666126002830726E+00    1.5627585398207938E+01
Ga    4.7306823185995386E+00    1.0235479977426589E+01    1.6534568761432745E+01
O    8.9785801754406580E-01    3.7056952849872093E+00   -2.9724353474747672E-01
H    1.8990964336485472E+00    3.5452183889853663E+00   -1.3471132590678928E-02
C    4.5538046910639701E-01    2.6306087267874210E+00   -1.1842377515613518E+00
H    3.5090079340327562E-01    1.6868184161524624E+00   -6.3075614342920516E-01
H   -5.1298384595762947E-01    2.9284434561089525E+00   -1.6012543369169872E+00
H    1.1912866892489564E+00    2.5238485198932703E+00   -1.9896278314694285E+00
Ga    3.2833283408835396E+00    5.6972739471705669E+00    2.9752691387905603E+00
O    3.2653001029535500E+00    3.1753140364431398E+00    4.7941027581771262E-01
H    7.9942742164795785E-02    7.5360537322020251E+00    1.7159076038979897E+00
C    3.3484539684902654E+00    1.8867501545106808E+00    1.1700098459048449E+00
H    4.2847911528138196E+00    1.4024432204470125E+00    8.5218007857208689E-01
H    2.4995597378279006E+00    1.3039153512741946E+00    7.8086678723458791E-01
H    3.8263755338741179E+00    3.8335412366592134E+00    9.7706485041788715E-01
     &END COORD
     &KIND C
       BASIS_SET DZVP-MOLOPT-SR-GTH-q4
       POTENTIAL GTH-PBE-q4
       &POTENTIAL
2 2
0.3384712400000000E+00 2 -0.8803673979999999E+01  0.1339210850000000E+01
2
0.3025757500000000E+00 1  0.9622486650000001E+01
0.2915069400000000E+00 0
       &END POTENTIAL
     &END KIND
     &KIND O
       BASIS_SET DZVP-MOLOPT-SR-GTH-q6
       POTENTIAL GTH-PBE-q6
       &POTENTIAL
2 4
0.2445543000000000E+00 2 -0.1666721480000000E+02  0.2487311320000000E+01
2
0.2209559200000000E+00 1  0.1833745811000000E+02
0.2113324700000000E+00 0
       &END POTENTIAL
     &END KIND
     &KIND H
       BASIS_SET DZVP-MOLOPT-SR-GTH-q1
       POTENTIAL GTH-PBE-q1
       &POTENTIAL
1
0.2000000000000000E+00 2 -0.4178900440000000E+01  0.7244633100000000E+00
0
       &END POTENTIAL
     &END KIND
     &KIND N
       BASIS_SET DZVP-MOLOPT-SR-GTH
       POTENTIAL GTH-PBE-q5
       &POTENTIAL
2 3
0.2837905100000000E+00 2 -0.1241522559000000E+02  0.1868095920000000E+01
2
0.2554050000000000E+00 1  0.1363026257000000E+02
0.2454945300000000E+00 0
       &END POTENTIAL
     &END KIND
     &KIND Ga
       BASIS_SET DZVP-MOLOPT-SR-GTH
       POTENTIAL GTH-PBE-q13
       &POTENTIAL
2 1 10
0.4900000000000000E+00 0
3
0.4167772300000000E+00 3  0.1047568975000000E+02 -0.4921768140000000E+01  0.8707055900000000E+00
0.7770178090000000E+01 -0.2248152160000000E+01
0.1784415450000000E+01
0.5696265200000000E+00 2  0.1777985340000000E+01  0.1958597600000000E+00
-0.2317443900000000E+00
0.2381265000000000E+00 1 -0.1624868022000000E+02
       &END POTENTIAL
     &END KIND
     &TOPOLOGY
       NUMBER_OF_ATOMS  212
       MULTIPLE_UNIT_CELL  1 1 1
     &END TOPOLOGY
   &END SUBSYS
 &END FORCE_EVAL
