 # Version information for this restart file 
 # current date 2019-07-21 11:15:44.324
 # current working dir /lustre04/scratch/rzk/rzk/GaN-carbene/443-adatoms-both-2x2/13-H2OCH2/01-Start090202
 # Program compiled at                              Sun Apr  7 00:48:11 EDT 2019
 # Program compiled on                          beluga2.int.ets1.calculquebec.ca
 # Program compiled for                        Beluga-Linux-x86-64-intel-openmpi
 # Source code revision number                                         svn:18619
 &GLOBAL
   PRINT_LEVEL  MEDIUM
   PROJECT_NAME TEST
   RUN_TYPE  GEO_OPT
 &END GLOBAL
 &MOTION
   &GEO_OPT
     MAX_ITER  500
     STEP_START_VAL  56
   &END GEO_OPT
 &END MOTION
 &FORCE_EVAL
   METHOD  QS
   STRESS_TENSOR  ANALYTICAL
   &DFT
     BASIS_SET_FILE_NAME BASIS_MOLOPT
     POTENTIAL_FILE_NAME GTH_POTENTIALS
     UKS  T
     SURFACE_DIPOLE_CORRECTION  T
     SURF_DIP_DIR  Z
     &SCF
       MAX_SCF  80
       EPS_SCF     5.0000000000000004E-06
       &OT  T
         PRECONDITIONER  FULL_ALL
       &END OT
       &OUTER_SCF  T
         OPTIMIZER  NONE
         EPS_SCF     5.0000000000000004E-06
         MAX_SCF  4
       &END OUTER_SCF
       &PRINT
         &RESTART  OFF
           BACKUP_COPIES  1
           &EACH
             JUST_ENERGY  0
             QS_SCF  0
             MD  20
           &END EACH
         &END RESTART
       &END PRINT
     &END SCF
     &QS
       EPS_DEFAULT     1.0000000000000000E-14
       METHOD  GPW
     &END QS
     &MGRID
       NGRIDS  5
       CUTOFF     1.2000000000000000E+03
     &END MGRID
     &XC
       DENSITY_CUTOFF     1.0000000000000000E-10
       GRADIENT_CUTOFF     1.0000000000000000E-10
       TAU_CUTOFF     1.0000000000000000E-10
       &XC_FUNCTIONAL  NO_SHORTCUT
         &PBE  T
         &END PBE
       &END XC_FUNCTIONAL
       &VDW_POTENTIAL
         POTENTIAL_TYPE  PAIR_POTENTIAL
         &PAIR_POTENTIAL
           R_CUTOFF     1.0000000000000004E+01
           TYPE  DFTD3
           PARAMETER_FILE_NAME dftd3.dat
           REFERENCE_FUNCTIONAL PBE
           EPS_CN     9.9999999999999995E-07
           CALCULATE_C9_TERM  T
           REFERENCE_C9_TERM  T
           LONG_RANGE_CORRECTION  F
           VERBOSE_OUTPUT  F
         &END PAIR_POTENTIAL
       &END VDW_POTENTIAL
     &END XC
   &END DFT
   &SUBSYS
     &CELL
       A     1.2864472766435110E+01    0.0000000000000000E+00    0.0000000000000000E+00
       B    -6.4322363581020028E+00    1.1140960178524473E+01    0.0000000000000000E+00
       C     0.0000000000000000E+00    0.0000000000000000E+00    3.2000000000000000E+01
       MULTIPLE_UNIT_CELL  1 1 1
       &CELL_REF
         A     1.2982353780853531E+01    0.0000000000000000E+00    0.0000000000000000E+00
         B    -6.4911768904267628E+00    1.1243048175136114E+01    0.0000000000000000E+00
         C     0.0000000000000000E+00    0.0000000000000000E+00    3.2000000000000000E+01
         MULTIPLE_UNIT_CELL  1 1 1
       &END CELL_REF
     &END CELL
     &COORD
N    9.1411555146093768E-02    2.1100288177812208E+00    2.5516762770540509E+00
Ga    5.9476429551906039E-02    1.0324704671042621E-01    2.9159132254806601E+00
N    7.3570222707852184E-02    1.2484864687054448E-01    5.0779955934063654E+00
Ga    6.7305011038779020E-02    1.9389481739441574E+00    5.8583222820302900E+00
N    7.5227264294436186E-02    1.9663245459122514E+00    7.8494645012696767E+00
Ga    7.2071457514407855E-02    1.1512829699901837E-01    8.4882038754782805E+00
N    7.4260686772965115E-02    1.1829066900188107E-01    1.0465109274569761E+01
Ga    7.2469110707307313E-02    1.9570243588706260E+00    1.1119074438222132E+01
N    7.4494273791856788E-02    1.9394473534713954E+00    1.3112117650544533E+01
Ga    8.0357107021791593E-02    1.2136506633813764E-01    1.3913559549103214E+01
N    7.9656879038065787E-02    1.2410278903674016E-01    1.6118917497289832E+01
Ga    7.5220805735294466E-02    2.1738657743609449E+00    1.6537322346823103E+01
Ga    7.4323028943828626E-02    3.8463898833604127E+00    1.5346285270521181E+00
N   -1.4076917859738245E+00    4.7083409541601817E+00    2.5474140870974864E+00
Ga   -1.6271861714285032E+00    2.8417877213881648E+00    3.3320256322852377E+00
N   -1.5280045792539332E+00    2.9080676153626079E+00    5.2987687613887049E+00
Ga   -1.5751136992676118E+00    4.7717106223881496E+00    5.8655566151655423E+00
N   -1.5455231886452283E+00    4.7664864146558532E+00    7.8547493299881355E+00
Ga   -1.5285052935364762E+00    2.9073567498066741E+00    8.4879640810628096E+00
N   -1.5234075575924146E+00    2.9108306484909852E+00    1.0481507057838421E+01
Ga   -1.5533140078936953E+00    4.7699259221384080E+00    1.1121628653565553E+01
N   -1.5669169355510175E+00    4.7796813410029033E+00    1.3115441441504874E+01
Ga   -1.5233941674407498E+00    2.9099061855769919E+00    1.3670993337427973E+01
N   -1.5489868612503730E+00    2.8897313107689491E+00    1.5631317886069247E+01
Ga   -1.3744096328873807E+00    4.6684913241631198E+00    1.6535293929886794E+01
N    6.4598041768778466E-02    3.8357160625257412E+00    1.7675873560454384E+01
N   -3.1380945566087077E+00    7.6565718378152230E+00    2.5611639363098422E+00
Ga   -3.1662371780339225E+00    5.6921184484602136E+00    2.9058861607214910E+00
N   -3.1385689285751845E+00    5.6847412335801870E+00    5.0708099127461317E+00
Ga   -3.1522633011736141E+00    7.5134989969936949E+00    5.8396930907410471E+00
N   -3.1422975937107362E+00    7.5355960398854469E+00    7.8380897236053881E+00
Ga   -3.1506335029725889E+00    5.6895808907830903E+00    8.4893132895356214E+00
N   -3.1444655608006671E+00    5.6898568711243254E+00    1.0465094577201903E+01
Ga   -3.1467693938512413E+00    7.5281885611922634E+00    1.1120127835668720E+01
N   -3.1429487279811803E+00    7.5088328949024135E+00    1.3115339255183494E+01
Ga   -3.1440899702345404E+00    5.6886807991782860E+00    1.3927334913381884E+01
N   -3.1445776060277995E+00    5.6873227958006218E+00    1.6118864003230371E+01
Ga   -3.1418681902409129E+00    7.7334432803645745E+00    1.6544334263108418E+01
Ga   -3.1907380546649593E+00    9.3613881325918751E+00    1.2899365685533046E+00
N   -4.6517058961759110E+00    1.0286709070420766E+01    2.5580795777611014E+00
Ga   -4.8397187891085194E+00    8.4241293997203108E+00    3.2896298535417783E+00
N   -4.7502332971325130E+00    8.4752478099031237E+00    5.2763957552334686E+00
Ga   -4.7849012309780692E+00    1.0339313326689815E+01    5.8412132170209237E+00
N   -4.7582945266680596E+00    1.0337272903264017E+01    7.8379784002129220E+00
Ga   -4.7472156246269099E+00    8.4758040732543805E+00    8.4712084139121142E+00
N   -4.7405553684330837E+00    8.4798220162064215E+00    1.0470506552755941E+01
Ga   -4.7662910885457483E+00    1.0336466105666243E+01    1.1116766609029533E+01
N   -4.7806771764487905E+00    1.0348211564735720E+01    1.3111621886151628E+01
Ga   -4.7385490530987484E+00    8.4809330422029472E+00    1.3675342149279778E+01
N   -4.7688867212411834E+00    8.4702209375114013E+00    1.5636239783211504E+01
Ga   -4.5776312314015719E+00    1.0234803767541798E+01    1.6545521797610331E+01
N   -3.1436489095135776E+00    9.3952217138242649E+00    1.7685554390876490E+01
N    3.3029956836040810E+00    1.9804168454355175E+00    2.6416561354770334E+00
Ga    3.2934346129372649E+00    1.0634768592622862E-01    3.3495496532982041E+00
N    3.2900875067104889E+00    1.3466150390568152E-01    5.2878679753248896E+00
Ga    3.2996404734544478E+00    1.9710630213059073E+00    5.9511716657973528E+00
N    3.2909438808057554E+00    1.9745796033273619E+00    7.9088005900348168E+00
Ga    3.2862685504618372E+00    1.0285965530588420E-01    8.4939880405318142E+00
N    3.2888559683680749E+00    1.0541971842203390E-01    1.0482318370185999E+01
Ga    3.2896701535396997E+00    1.9744977159311776E+00    1.1078055887332772E+01
N    3.2892900240680709E+00    1.9741062035736416E+00    1.3047082906761883E+01
Ga    3.2896643770836187E+00    1.0553863883567016E-01    1.3674370331608660E+01
N    3.2901412594428989E+00    1.3702622359155753E-01    1.5633576784113938E+01
Ga    3.2912174546978488E+00    1.9752628228806355E+00    1.5907347445163806E+01
N    1.5598125753480307E+00    4.7104870439975901E+00    2.6107959942715211E+00
Ga    1.7118938014684164E+00    2.8821523033438181E+00    3.3844703239916849E+00
N    1.7016064374551605E+00    2.8934144462261089E+00    5.3081818612504215E+00
Ga    1.7117067441295599E+00    4.7794734644875794E+00    5.8713263663968354E+00
N    1.6864657467259474E+00    4.7638954672712543E+00    7.8554300627036566E+00
Ga    1.6696468232408999E+00    2.9077869482286456E+00    8.4976613688522473E+00
N    1.6705854687749266E+00    2.9103185127710978E+00    1.0484909548195294E+01
Ga    1.6968260294870237E+00    4.7700288792677616E+00    1.1120494145288569E+01
N    1.7136067128816117E+00    4.7788957133798124E+00    1.3112772621135267E+01
Ga    1.6716014748355739E+00    2.9098408683297925E+00    1.3671650184632684E+01
N    1.6990325677159617E+00    2.8946977591273808E+00    1.5630904969538092E+01
Ga    1.5108807745759369E+00    4.6610953659121712E+00    1.6537718623538751E+01
N    7.0980378271943007E-02    7.5599117828369291E+00    2.7486386248287120E+00
Ga    6.6675168285898187E-02    5.7303096312595398E+00    3.4078981013292458E+00
N    6.7682788510525810E-02    5.7072851030915341E+00    5.3293100416462140E+00
Ga    6.9988153530077882E-02    7.5607078117722111E+00    5.9555450403491168E+00
N    7.1375022960844220E-02    7.5499334472941904E+00    7.9148781296016040E+00
Ga    6.8846551055543034E-02    5.6780023762224774E+00    8.4982147598864408E+00
N    7.2262810873456956E-02    5.6776418588986957E+00    1.0487342193094792E+01
Ga    7.1864870991580079E-02    7.5476896832300744E+00    1.1080277551261528E+01
N    7.4556653498832698E-02    7.5476493568224701E+00    1.3052998498411116E+01
Ga    7.3627480401102730E-02    5.6754038248242402E+00    1.3672593092706443E+01
N    7.8734339373236623E-02    5.7113277967729603E+00    1.5632402016807957E+01
Ga    7.3661579840973102E-02    7.5469780324053080E+00    1.5910316598178019E+01
N   -1.6300188031950522E+00    1.0283535394829544E+01    2.5542272434037461E+00
Ga   -1.5441432618832880E+00    8.4887412382829375E+00    3.3456134532833306E+00
N   -1.5269324639820743E+00    8.4723796915270899E+00    5.2921669266649198E+00
Ga   -1.5027186776384531E+00    1.0350231148003239E+01    5.8581171525687772E+00
N   -1.5297390096109167E+00    1.0335626985661802E+01    7.8484529646209920E+00
Ga   -1.5524573122377641E+00    8.4806301768969323E+00    8.4956490748313431E+00
N   -1.5479065368064324E+00    8.4808789904463495E+00    1.0485308882109841E+01
Ga   -1.5203125441680791E+00    1.0340489477032294E+01    1.1121413600454920E+01
N   -1.5032507538657702E+00    1.0349579371145216E+01    1.3114476866832943E+01
Ga   -1.5476636212069399E+00    8.4818182280233749E+00    1.3675759978700466E+01
N   -1.5141799983618804E+00    8.4693551696442668E+00    1.5636295155109746E+01
Ga   -1.7068356139900631E+00    1.0234205740008736E+01    1.6545261510139557E+01
N    6.5089302606925159E+00    2.0836348268727289E+00    2.5594428948522729E+00
Ga    6.5196898624591961E+00    1.1746490266422595E-01    2.9299269478139229E+00
N    6.5031941353525049E+00    1.1866831310571022E-01    5.0987726465879506E+00
Ga    6.5114780643158907E+00    1.9449997424166281E+00    5.8511063602936053E+00
N    6.5022285879706416E+00    1.9673255950157145E+00    7.8466879596317645E+00
Ga    6.5059807463745400E+00    1.1998884503425257E-01    8.4921681193240381E+00
N    6.5047236571469540E+00    1.1893646826361341E-01    1.0467356885907265E+01
Ga    6.5082066596754338E+00    1.9597122232187714E+00    1.1116391228209451E+01
N    6.5061580305885318E+00    1.9398364099473824E+00    1.3108627363436021E+01
Ga    6.5003129613701693E+00    1.2396243221130576E-01    1.3915470124987648E+01
N    6.5002279106582774E+00    1.2626460026604347E-01    1.6116302744591195E+01
Ga    6.5090674588153394E+00    2.1794975303114192E+00    1.6538353720174804E+01
Ga    6.6351288604424736E+00    3.7996097292248385E+00    1.2934051020636004E+00
N    4.9417920619830165E+00    4.6774299955740153E+00    2.4967915753694685E+00
Ga    4.9224221461727371E+00    2.9080563145046670E+00    3.3456742441214802E+00
N    4.8830673055829328E+00    2.8948111089283386E+00    5.2847091343622559E+00
Ga    4.8766475162282967E+00    4.7794551298673449E+00    5.8462091108846757E+00
N    4.8873941898357458E+00    4.7624841893026018E+00    7.8416754831850053E+00
Ga    4.9108879753076664E+00    2.9118750280398045E+00    8.4953478429314000E+00
N    4.9084079582533420E+00    2.9108704064733097E+00    1.0483732997208950E+01
Ga    4.8853271389935164E+00    4.7717231619948306E+00    1.1115636862713048E+01
N    4.8672538192098367E+00    4.7791215760352905E+00    1.3107795724341116E+01
Ga    4.9088456729276677E+00    2.9100836934078367E+00    1.3667748328062006E+01
N    4.8809080202108932E+00    2.8942188072623400E+00    1.5626203681729692E+01
Ga    5.0771631213537258E+00    4.6610275657589026E+00    1.6538612979109409E+01
N    6.5117683812153357E+00    3.8351353260395431E+00    1.7683659187827153E+01
N    3.2742331351480436E+00    7.6607615229005406E+00    2.5695594956598478E+00
N    3.2815367643913680E+00    5.6890716738120517E+00    5.0996956117218017E+00
Ga    3.2948530555858975E+00    7.5258242488882994E+00    5.8499198085382789E+00
N    3.2864368237046340E+00    7.5374768487003081E+00    7.8472357711734650E+00
Ga    3.2918420128414736E+00    5.6910614256215437E+00    8.4915799000594117E+00
N    3.2895519857804687E+00    5.6892758629287057E+00    1.0465857981991014E+01
Ga    3.2929645114455059E+00    7.5289290998531673E+00    1.1116082893420884E+01
N    3.2908343343630793E+00    7.5079267442433224E+00    1.3114270809463086E+01
Ga    3.2920901141676726E+00    5.6821460305112774E+00    1.3912907631542245E+01
N    3.2920654467040067E+00    5.6816956303183632E+00    1.6115441089321230E+01
Ga    3.2945657214328170E+00    7.6933530612646228E+00    1.6493310922273778E+01
Ga    3.3195956736082000E+00    9.4275612545701861E+00    1.3067112554483751E+00
N    1.7736528011174317E+00    1.0277894357202216E+01    2.5661199629580267E+00
Ga    1.6888158712300929E+00    8.4950643783739697E+00    3.3539712755202005E+00
N    1.6651939140906236E+00    8.4697540359060959E+00    5.2999114788169042E+00
Ga    1.6611338546395766E+00    1.0354543325664567E+01    5.8519947338908240E+00
N    1.6729691865458394E+00    1.0335812169967555E+01    7.8501317389747109E+00
Ga    1.6943935478753367E+00    8.4838950107310058E+00    8.4964997312566197E+00
N    1.6928181873015820E+00    8.4813724562916093E+00    1.0487985443992113E+01
Ga    1.6670234331614184E+00    1.0342950264592229E+01    1.1117955002308546E+01
N    1.6488495648185966E+00    1.0350970583452900E+01    1.3115682072453781E+01
Ga    1.6940512665061802E+00    8.4817056126701544E+00    1.3665228776579006E+01
N    1.6735691521532601E+00    8.4709089356749558E+00    1.5637983340954827E+01
Ga    1.8103561826462655E+00    1.0263850898590155E+01    1.6492703794478853E+01
N    3.2885560834003220E+00    9.4037385982166519E+00    1.7613197409294898E+01
N    9.7251110724961389E+00    1.9775991075317128E+00    2.6647576837941021E+00
Ga    9.7199065752035096E+00    2.0621591753194005E-01    3.2948445983431185E+00
N    9.7197034495314529E+00    1.2046614910317795E-01    5.2848307897615721E+00
Ga    9.7204440282166491E+00    1.9717866737958420E+00    5.9079360862010173E+00
N    9.7219757340691366E+00    1.9758540394142845E+00    7.8907564031943664E+00
Ga    9.7246386452413560E+00    1.0890153624274514E-01    8.4818249715380940E+00
N    9.7225640556323825E+00    1.0636885759321947E-01    1.0479453130051779E+01
Ga    9.7212427277968612E+00    1.9762474501640921E+00    1.1072140305734090E+01
N    9.7230824807347727E+00    1.9735866500624768E+00    1.3044485587660132E+01
Ga    9.7233723313088287E+00    1.0695434624162876E-01    1.3661688084746672E+01
N    9.7263480162781271E+00    1.3072065639703173E-01    1.5631319161378805E+01
Ga    9.7228853758242053E+00    1.9763255641973252E+00    1.5907807488509610E+01
N    8.0129306900035502E+00    4.6919018649932909E+00    2.5669327894689435E+00
Ga    8.1963407267490656E+00    2.8508615174948284E+00    3.3145012924124386E+00
N    8.1122987473300423E+00    2.8998947166715077E+00    5.2916944634520853E+00
Ga    8.1239689742144066E+00    4.7754848103336061E+00    5.8212798101577707E+00
N    8.1195458292944789E+00    4.7683934359360078E+00    7.8299200821953754E+00
Ga    8.1054424741908022E+00    2.9137588261684622E+00    8.4766015406345883E+00
N    8.1034983744703464E+00    2.9117675388591837E+00    1.0474705995368385E+01
Ga    8.1273634336219125E+00    4.7701273996803719E+00    1.1116419830195673E+01
N    8.1463277836546908E+00    4.7796493485366724E+00    1.3109856763617666E+01
Ga    8.1039851487860339E+00    2.9106310589806181E+00    1.3666502923097662E+01
N    8.1345993626079345E+00    2.8907069778606118E+00    1.5623171218631565E+01
Ga    7.9471230167219353E+00    4.6637529829580640E+00    1.6538110015587332E+01
N    6.4969422283214495E+00    7.5446309885532807E+00    2.6564118259021416E+00
Ga    6.4748118421349767E+00    5.7669912075604834E+00    3.2476248828125289E+00
N    6.4922094727483799E+00    5.6811018144490903E+00    5.2506740769406584E+00
Ga    6.4991969252351964E+00    7.5385332060003911E+00    5.8771959924173363E+00
N    6.5034816639182251E+00    7.5435427480360691E+00    7.8707857346666215E+00
Ga    6.5067829671035025E+00    5.6817084484595046E+00    8.4742038377313555E+00
N    6.5060232553818267E+00    5.6782389787588237E+00    1.0472715386074194E+01
Ga    6.5070799029553932E+00    7.5467067882209955E+00    1.1070412626334287E+01
N    6.5060418275346006E+00    7.5481362902007545E+00    1.3044525822691323E+01
Ga    6.5070963937433923E+00    5.6769274760339625E+00    1.3666654520439160E+01
N    6.5053948902713961E+00    5.7139235973206759E+00    1.5623270169232663E+01
Ga    6.5082192298449320E+00    7.5462144357118977E+00    1.5909677235906653E+01
N    4.7958128720874020E+00    1.0278950485836686E+01    2.5619343358531856E+00
Ga    4.9705621748871378E+00    8.4350011928879400E+00    3.2846885046325767E+00
N    4.8925330850454305E+00    8.4750472602786751E+00    5.2773407854006074E+00
Ga    4.9152857185324690E+00    1.0341726247553835E+01    5.8327779973816529E+00
N    4.9067535032133911E+00    1.0336542080216951E+01    7.8392709763819610E+00
Ga    4.8929398118522611E+00    8.4794559325847629E+00    8.4745087172963434E+00
N    4.8880814515267437E+00    8.4803927482196482E+00    1.0474582268726877E+01
Ga    4.9134309168987595E+00    1.0339077416321205E+01    1.1113899766820747E+01
N    4.9317495770332309E+00    1.0350024860868592E+01    1.3112738448237240E+01
Ga    4.8887264933477734E+00    8.4810587593101641E+00    1.3662518373270101E+01
N    4.9110977827257756E+00    8.4731101082218139E+00    1.5633071542198380E+01
Ga    4.7706752945636079E+00    1.0259254788902199E+01    1.6494036802454907E+01
O    8.8535561547637298E-01    3.7190002139427270E+00   -2.9193543357309959E-01
H    1.8808654408387344E+00    3.5451126175142584E+00   -1.0504778974603871E-02
C    4.3204292802518263E-01    2.6564912499675208E+00   -1.1917300385252769E+00
H    3.1831249903065073E-01    1.7097697174687847E+00   -6.4879974362169368E-01
H   -5.3304812739525997E-01    2.9697103570106340E+00   -1.6061187717864078E+00
H    1.1664058947955549E+00    2.5531732781999641E+00   -1.9979889859077193E+00
Ga    3.2871268047414626E+00    5.7191043383324081E+00    2.9686529021656964E+00
O    3.2578790821143837E+00    3.1703166287634925E+00    4.9346897216222413E-01
H    7.6646928842352358E-02    7.5419624487184356E+00    1.7231466339882155E+00
C    3.3465525452238571E+00    1.8850043500593865E+00    1.1829204696061442E+00
H    4.2862011266004947E+00    1.4069092638343625E+00    8.6860251714254899E-01
H    2.5004727750048903E+00    1.2980426447660005E+00    7.9662669394110408E-01
H    3.8112600130016743E+00    3.8313955757342950E+00    9.9011454316078107E-01
     &END COORD
     &KIND C
       BASIS_SET DZVP-MOLOPT-SR-GTH-q4
       POTENTIAL GTH-PBE-q4
       &POTENTIAL
 2 2
  0.3384712400000000E+00 2 -0.8803673979999999E+01  0.1339210850000000E+01
 2
  0.3025757500000000E+00 1  0.9622486650000001E+01
  0.2915069400000000E+00 0
         # Potential name:  GTH-PBE-Q4  for symbol:  C
         # Potential read from the potential filename: GTH_POTENTIALS
       &END POTENTIAL
     &END KIND
     &KIND O
       BASIS_SET DZVP-MOLOPT-SR-GTH-q6
       POTENTIAL GTH-PBE-q6
       &POTENTIAL
 2 4
  0.2445543000000000E+00 2 -0.1666721480000000E+02  0.2487311320000000E+01
 2
  0.2209559200000000E+00 1  0.1833745811000000E+02
  0.2113324700000000E+00 0
         # Potential name:  GTH-PBE-Q6  for symbol:  O
         # Potential read from the potential filename: GTH_POTENTIALS
       &END POTENTIAL
     &END KIND
     &KIND H
       BASIS_SET DZVP-MOLOPT-SR-GTH-q1
       POTENTIAL GTH-PBE-q1
       &POTENTIAL
 1
  0.2000000000000000E+00 2 -0.4178900440000000E+01  0.7244633100000000E+00
 0
         # Potential name:  GTH-PBE-Q1  for symbol:  H
         # Potential read from the potential filename: GTH_POTENTIALS
       &END POTENTIAL
     &END KIND
     &KIND N
       BASIS_SET DZVP-MOLOPT-SR-GTH
       POTENTIAL GTH-PBE-q5
       &POTENTIAL
 2 3
  0.2837905100000000E+00 2 -0.1241522559000000E+02  0.1868095920000000E+01
 2
  0.2554050000000000E+00 1  0.1363026257000000E+02
  0.2454945300000000E+00 0
         # Potential name:  GTH-PBE-Q5  for symbol:  N
         # Potential read from the potential filename: GTH_POTENTIALS
       &END POTENTIAL
     &END KIND
     &KIND Ga
       BASIS_SET DZVP-MOLOPT-SR-GTH
       POTENTIAL GTH-PBE-q13
       &POTENTIAL
 2 1 10
  0.4900000000000000E+00 0
 3
  0.4167772300000000E+00 3  0.1047568975000000E+02 -0.4921768140000000E+01  0.8707055900000000E+00
  0.7770178090000000E+01 -0.2248152160000000E+01
  0.1784415450000000E+01
  0.5696265200000000E+00 2  0.1777985340000000E+01  0.1958597600000000E+00
 -0.2317443900000000E+00
  0.2381265000000000E+00 1 -0.1624868022000000E+02
         # Potential name:  GTH-PBE-Q13  for symbol:  GA
         # Potential read from the potential filename: GTH_POTENTIALS
       &END POTENTIAL
     &END KIND
     &TOPOLOGY
       NUMBER_OF_ATOMS  212
       MULTIPLE_UNIT_CELL  1 1 1
     &END TOPOLOGY
   &END SUBSYS
 &END FORCE_EVAL
