 # Version information for this restart file 
 # current date 2019-07-21 11:55:52.936
 # current working dir /lustre04/scratch/rzk/rzk/GaN-carbene/443-adatoms-both-2x2/13-H2OCH2/01-Start090202
 # Program compiled at                              Sun Apr  7 00:48:11 EDT 2019
 # Program compiled on                          beluga2.int.ets1.calculquebec.ca
 # Program compiled for                        Beluga-Linux-x86-64-intel-openmpi
 # Source code revision number                                         svn:18619
 &GLOBAL
   PRINT_LEVEL  MEDIUM
   PROJECT_NAME TEST
   RUN_TYPE  GEO_OPT
 &END GLOBAL
 &MOTION
   &GEO_OPT
     MAX_ITER  500
     STEP_START_VAL  60
   &END GEO_OPT
 &END MOTION
 &FORCE_EVAL
   METHOD  QS
   STRESS_TENSOR  ANALYTICAL
   &DFT
     BASIS_SET_FILE_NAME BASIS_MOLOPT
     POTENTIAL_FILE_NAME GTH_POTENTIALS
     UKS  T
     SURFACE_DIPOLE_CORRECTION  T
     SURF_DIP_DIR  Z
     &SCF
       MAX_SCF  80
       EPS_SCF     5.0000000000000004E-06
       &OT  T
         PRECONDITIONER  FULL_ALL
       &END OT
       &OUTER_SCF  T
         OPTIMIZER  NONE
         EPS_SCF     5.0000000000000004E-06
         MAX_SCF  4
       &END OUTER_SCF
       &PRINT
         &RESTART  OFF
           BACKUP_COPIES  1
           &EACH
             JUST_ENERGY  0
             QS_SCF  0
             MD  20
           &END EACH
         &END RESTART
       &END PRINT
     &END SCF
     &QS
       EPS_DEFAULT     1.0000000000000000E-14
       METHOD  GPW
     &END QS
     &MGRID
       NGRIDS  5
       CUTOFF     1.2000000000000000E+03
     &END MGRID
     &XC
       DENSITY_CUTOFF     1.0000000000000000E-10
       GRADIENT_CUTOFF     1.0000000000000000E-10
       TAU_CUTOFF     1.0000000000000000E-10
       &XC_FUNCTIONAL  NO_SHORTCUT
         &PBE  T
         &END PBE
       &END XC_FUNCTIONAL
       &VDW_POTENTIAL
         POTENTIAL_TYPE  PAIR_POTENTIAL
         &PAIR_POTENTIAL
           R_CUTOFF     1.0000000000000004E+01
           TYPE  DFTD3
           PARAMETER_FILE_NAME dftd3.dat
           REFERENCE_FUNCTIONAL PBE
           EPS_CN     9.9999999999999995E-07
           CALCULATE_C9_TERM  T
           REFERENCE_C9_TERM  T
           LONG_RANGE_CORRECTION  F
           VERBOSE_OUTPUT  F
         &END PAIR_POTENTIAL
       &END VDW_POTENTIAL
     &END XC
   &END DFT
   &SUBSYS
     &CELL
       A     1.2864472766435110E+01    0.0000000000000000E+00    0.0000000000000000E+00
       B    -6.4322363581020028E+00    1.1140960178524473E+01    0.0000000000000000E+00
       C     0.0000000000000000E+00    0.0000000000000000E+00    3.2000000000000000E+01
       MULTIPLE_UNIT_CELL  1 1 1
       &CELL_REF
         A     1.2982353780853531E+01    0.0000000000000000E+00    0.0000000000000000E+00
         B    -6.4911768904267628E+00    1.1243048175136114E+01    0.0000000000000000E+00
         C     0.0000000000000000E+00    0.0000000000000000E+00    3.2000000000000000E+01
         MULTIPLE_UNIT_CELL  1 1 1
       &END CELL_REF
     &END CELL
     &COORD
N    8.9812217308311806E-02    2.1104992597361840E+00    2.5512209681935394E+00
Ga    5.8781891079056355E-02    1.0373412990309215E-01    2.9151867651617707E+00
N    7.3137914739852053E-02    1.2523369306578472E-01    5.0773187499398889E+00
Ga    6.7917304612522392E-02    1.9395625031405068E+00    5.8578833292369570E+00
N    7.5609279025021070E-02    1.9668382135431253E+00    7.8490587734832316E+00
Ga    7.2101202626843386E-02    1.1571769133107303E-01    8.4885543453208498E+00
N    7.3909484845821383E-02    1.1869419875979620E-01    1.0464638422677512E+01
Ga    7.1947291714843042E-02    1.9575946893252256E+00    1.1118591578617325E+01
N    7.4361948524724053E-02    1.9398896807266137E+00    1.3111703994036848E+01
Ga    7.8740664430649907E-02    1.2135843367491650E-01    1.3909741916206176E+01
N    8.0150526763946156E-02    1.2173945638911784E-01    1.6119384375806010E+01
Ga    7.6161701072190002E-02    2.1699774131530480E+00    1.6536373598571945E+01
Ga    7.2708468342745983E-02    3.8462045860462175E+00    1.5332185550228850E+00
N   -1.4085587334992558E+00    4.7086140136841799E+00    2.5461800777507211E+00
Ga   -1.6270767713301455E+00    2.8426020866475312E+00    3.3340672184407500E+00
N   -1.5284541383308261E+00    2.9087740227821737E+00    5.3008444568753248E+00
Ga   -1.5746922141482211E+00    4.7728539269781001E+00    5.8656198038071334E+00
N   -1.5453988223401827E+00    4.7670750188682200E+00    7.8546313028412449E+00
Ga   -1.5287819930041124E+00    2.9075990751877452E+00    8.4868274433095987E+00
N   -1.5238478262419515E+00    2.9104207491418146E+00    1.0480481907208715E+01
Ga   -1.5529319416883360E+00    4.7693824686487618E+00    1.1120323053132543E+01
N   -1.5663217741072037E+00    4.7795793648031060E+00    1.3114409681387288E+01
Ga   -1.5224777092845776E+00    2.9107618841586755E+00    1.3670538881575014E+01
N   -1.5484557519485849E+00    2.8909859276700964E+00    1.5633058939711505E+01
Ga   -1.3745662865772188E+00    4.6703665427613323E+00    1.6535243225309507E+01
N    6.5215541239945232E-02    3.8350503969756358E+00    1.7671477117724081E+01
N   -3.1380920965886148E+00    7.6580731110421354E+00    2.5583804743200553E+00
Ga   -3.1647001077134314E+00    5.6935857668980319E+00    2.9048280446160430E+00
N   -3.1382385234537455E+00    5.6852218678877975E+00    5.0697947020818805E+00
Ga   -3.1517504842011137E+00    7.5141021386000082E+00    5.8396375455329590E+00
N   -3.1420918515983138E+00    7.5360439001547856E+00    7.8387396581151529E+00
Ga   -3.1501050558665988E+00    5.6902799131920521E+00    8.4894818645685941E+00
N   -3.1443084206385481E+00    5.6900602488558674E+00    1.0465295121353078E+01
Ga   -3.1469395745017241E+00    7.5282413066194831E+00    1.1119411980685172E+01
N   -3.1428385714230909E+00    7.5097570265938476E+00    1.3113992189289066E+01
Ga   -3.1445159876661348E+00    5.6882507021481068E+00    1.3921380136430301E+01
N   -3.1431088685315212E+00    5.6893271481892267E+00    1.6119243079199332E+01
Ga   -3.1414318667779506E+00    7.7296151776640194E+00    1.6534327690970461E+01
Ga   -3.1901376478463295E+00    9.3582703386502200E+00    1.2814240250703310E+00
N   -4.6511635565309595E+00    1.0287462132291489E+01    2.5559521882571445E+00
Ga   -4.8401311152204691E+00    8.4255551672302307E+00    3.2878654465112858E+00
N   -4.7495460788137178E+00    8.4753692449258242E+00    5.2766317143840231E+00
Ga   -4.7848013732142229E+00    1.0339665041841467E+01    5.8408308811425824E+00
N   -4.7584727130834699E+00    1.0337510173151582E+01    7.8386553395745358E+00
Ga   -4.7468771585917953E+00    8.4762005403482288E+00    8.4720660945315558E+00
N   -4.7411414804799872E+00    8.4801948731294310E+00    1.0471663033115505E+01
Ga   -4.7671048473552453E+00    1.0336967505115043E+01    1.1116261626614138E+01
N   -4.7809521304309435E+00    1.0349092926062223E+01    1.3110288879975984E+01
Ga   -4.7396365421708948E+00    8.4811837354052528E+00    1.3670381294983185E+01
N   -4.7694391433048686E+00    8.4685692033919651E+00    1.5632492890732408E+01
Ga   -4.5816516170980961E+00    1.0236604524138407E+01    1.6535465110455370E+01
N   -3.1451475373109896E+00    9.3946200155110180E+00    1.7670000423482229E+01
N    3.3029861636405076E+00    1.9796978099492888E+00    2.6401574238487209E+00
Ga    3.2944419274943280E+00    1.0632419398588497E-01    3.3482874227183581E+00
N    3.2899812193463522E+00    1.3567398275688400E-01    5.2882778281747411E+00
Ga    3.2980789301653379E+00    1.9714501157001754E+00    5.9514611330423559E+00
N    3.2907557791763655E+00    1.9747498799692640E+00    7.9094158546610185E+00
Ga    3.2859251957604760E+00    1.0294247715579559E-01    8.4947305019340202E+00
N    3.2884265160986059E+00    1.0586352025183600E-01    1.0483438772043110E+01
Ga    3.2898507471885239E+00    1.9753953528156638E+00    1.1079252230046038E+01
N    3.2896531601500052E+00    1.9756928094512127E+00    1.3048494746472761E+01
Ga    3.2898108025792236E+00    1.0655016940255496E-01    1.3671308643869416E+01
N    3.2909555082570137E+00    1.3899236514075028E-01    1.5631325458704136E+01
Ga    3.2929434503386741E+00    1.9774905721969360E+00    1.5909471788397324E+01
N    1.5588263128236579E+00    4.7114895803088821E+00    2.6077901331072812E+00
Ga    1.7121347249222372E+00    2.8841389442846612E+00    3.3817675756443855E+00
N    1.7013913854085378E+00    2.8944750090879019E+00    5.3071480598192569E+00
Ga    1.7111208097573214E+00    4.7799593124348494E+00    5.8711920547803498E+00
N    1.6864195826754806E+00    4.7638753783493701E+00    7.8553419097317123E+00
Ga    1.6695310258998497E+00    2.9080567810300448E+00    8.4982586394496522E+00
N    1.6705515739755765E+00    2.9101958637656580E+00    1.0485189031134757E+01
Ga    1.6966892832803744E+00    4.7699722362628050E+00    1.1121501318081284E+01
N    1.7134721484885331E+00    4.7787841683906001E+00    1.3113360182372666E+01
Ga    1.6713270154348305E+00    2.9105289556166527E+00    1.3672040820309656E+01
N    1.6997934311335516E+00    2.8955167326425402E+00    1.5632295530855650E+01
Ga    1.5140815010196467E+00    4.6627634774036864E+00    1.6536426655700620E+01
N    7.2003185773949901E-02    7.5605046723247735E+00    2.7495276028763218E+00
Ga    6.6754410596498961E-02    5.7308385877648336E+00    3.4065985956586156E+00
N    6.7448738002803862E-02    5.7077675542044641E+00    5.3292524849043543E+00
Ga    7.0027816326550613E-02    7.5613436494516337E+00    5.9553458325112185E+00
N    7.1170631852462307E-02    7.5497257334713419E+00    7.9156960274883073E+00
Ga    6.8857866013419644E-02    5.6779372927998262E+00    8.4981034220589695E+00
N    7.2485738437592623E-02    5.6769448752545131E+00    1.0486752750454245E+01
Ga    7.2252729886784453E-02    7.5467016503594921E+00    1.1079739502145676E+01
N    7.4858602616787992E-02    7.5469615996824571E+00    1.3051318747624521E+01
Ga    7.4146116609950408E-02    5.6759078277517432E+00    1.3672437806089334E+01
N    7.9825010590333229E-02    5.7109005329214106E+00    1.5633418000914078E+01
Ga    7.4813384055474094E-02    7.5467595935970886E+00    1.5913153288439128E+01
N   -1.6282823060028664E+00    1.0284813199123576E+01    2.5548956414050585E+00
Ga   -1.5432703533378624E+00    8.4898560563986560E+00    3.3445612115757997E+00
N   -1.5272697274940512E+00    8.4725362428269051E+00    5.2922494588757170E+00
Ga   -1.5028998133033069E+00    1.0350351185823541E+01    5.8586546829419728E+00
N   -1.5303897203439807E+00    1.0335363092037728E+01    7.8495591159993410E+00
Ga   -1.5523702956128163E+00    8.4803991994384642E+00    8.4963074330033592E+00
N   -1.5477762615846775E+00    8.4807676175100557E+00    1.0486062556614481E+01
Ga   -1.5201941468747044E+00    1.0340553643046130E+01    1.1121080364037400E+01
N   -1.5031377734493572E+00    1.0350159719627312E+01    1.3113283210927069E+01
Ga   -1.5458893216523009E+00    8.4816992448599624E+00    1.3672103883791044E+01
N   -1.5126228177597663E+00    8.4687670844691407E+00    1.5633107351170379E+01
Ga   -1.7036199837687398E+00    1.0235539238536408E+01    1.6535792896788081E+01
N    6.5099204215407029E+00    2.0824669087199208E+00    2.5597741050765337E+00
Ga    6.5219635254060933E+00    1.1611458941477670E-01    2.9282759320808216E+00
N    6.5038216608322266E+00    1.1810856529594790E-01    5.0985616507232230E+00
Ga    6.5112470481660747E+00    1.9444694480490528E+00    5.8514139775456186E+00
N    6.5018166559227781E+00    1.9675087811704928E+00    7.8467255820736002E+00
Ga    6.5053838729346909E+00    1.1987287256415086E-01    8.4932058790722582E+00
N    6.5043391552892604E+00    1.1879319703323989E-01    1.0467690179405299E+01
Ga    6.5079664550764633E+00    1.9603375102789178E+00    1.1116287122911523E+01
N    6.5066681572196199E+00    1.9406094688714528E+00    1.3108958316951943E+01
Ga    6.5016376173740165E+00    1.2441708835347375E-01    1.3913175890266720E+01
N    6.5002411828510853E+00    1.2324840389174867E-01    1.6118716226010708E+01
Ga    6.5067512311914530E+00    2.1796110893789438E+00    1.6545564925508749E+01
Ga    6.6344217985576668E+00    3.8021289395759177E+00    1.2927554764968139E+00
N    4.9414737443901329E+00    4.6786564938482904E+00    2.4971786972874441E+00
Ga    4.9225597069761777E+00    2.9076119088261714E+00    3.3456921033375711E+00
N    4.8824549867928164E+00    2.8956515173455748E+00    5.2849548237891399E+00
Ga    4.8754507648684484E+00    4.7809493337786160E+00    5.8465293056984367E+00
N    4.8867140442212875E+00    4.7632613581985481E+00    7.8417289590521344E+00
Ga    4.9105704800666556E+00    2.9122924959110517E+00    8.4956972968721249E+00
N    4.9077197633173117E+00    2.9108755827476220E+00    1.0483277493434162E+01
Ga    4.8847748860703462E+00    4.7714446121680343E+00    1.1117085594555714E+01
N    4.8678086586132121E+00    4.7791659442144301E+00    1.3109369212466660E+01
Ga    4.9102660145048409E+00    2.9112063043596170E+00    1.3671515768455382E+01
N    4.8827165735112912E+00    2.8952242731297626E+00    1.5629996449761757E+01
Ga    5.0745408805385885E+00    4.6601618492553785E+00    1.6544822093245863E+01
N    6.5068342226954963E+00    3.8338928341543159E+00    1.7688339558422133E+01
N    3.2746019788943359E+00    7.6621376643912313E+00    2.5702355219500022E+00
N    3.2807454421128988E+00    5.6896287387657862E+00    5.0991090643013735E+00
Ga    3.2935935680584487E+00    7.5254517859129280E+00    5.8526403382504748E+00
N    3.2855121847625273E+00    7.5371951204684882E+00    7.8489569383549957E+00
Ga    3.2910533830866657E+00    5.6911065497422895E+00    8.4936223219231000E+00
N    3.2888842136816150E+00    5.6893073041877527E+00    1.0467375673781333E+01
Ga    3.2925901873206209E+00    7.5292804145336225E+00    1.1117249069035527E+01
N    3.2912386623669065E+00    7.5088010854405418E+00    1.3114993159788257E+01
Ga    3.2922794828066655E+00    5.6829508075254465E+00    1.3913957894288925E+01
N    3.2913020167041154E+00    5.6819956990965288E+00    1.6118284127240830E+01
Ga    3.2930731183335196E+00    7.6972961882555175E+00    1.6498608623384236E+01
Ga    3.3190549001358645E+00    9.4311564786487097E+00    1.3077677694378023E+00
N    1.7773154530869366E+00    1.0277950425574865E+01    2.5624348341441112E+00
Ga    1.6922572191132885E+00    8.4954015734781976E+00    3.3538614687021870E+00
N    1.6656157519293076E+00    8.4707032752746851E+00    5.3018527255566665E+00
Ga    1.6606597423062137E+00    1.0354149387922762E+01    5.8543889971827463E+00
N    1.6722146887720679E+00    1.0335622142487029E+01    7.8521342845417657E+00
Ga    1.6937655891920358E+00    8.4838412103334733E+00    8.4979503345613612E+00
N    1.6922764871657066E+00    8.4811862445803126E+00    1.0488657349514693E+01
Ga    1.6669929708235673E+00    1.0342627812394731E+01    1.1118018810495595E+01
N    1.6497509932188703E+00    1.0351317432040524E+01    1.3115516718518997E+01
Ga    1.6940337305274040E+00    8.4815894235053459E+00    1.3665343566042591E+01
N    1.6729876820437022E+00    8.4691489826012241E+00    1.5637666791307932E+01
Ga    1.8145518439120296E+00    1.0258327472492219E+01    1.6499087034244184E+01
N    3.2850989460641120E+00    9.4000982739365284E+00    1.7624108895031902E+01
N    9.7254341912035258E+00    1.9782520188799693E+00    2.6681963874093273E+00
Ga    9.7207419279508205E+00    2.0571615017946804E-01    3.2956775556831914E+00
N    9.7187461943616391E+00    1.2011648222034044E-01    5.2881074618275878E+00
Ga    9.7201160394229813E+00    1.9717672571827525E+00    5.9077667966142915E+00
N    9.7218318770767347E+00    1.9763453293489486E+00    7.8905280416486807E+00
Ga    9.7241954218336808E+00    1.0940693349843479E-01    8.4813565329217973E+00
N    9.7220279624339909E+00    1.0677251602518145E-01    1.0478741208137023E+01
Ga    9.7204828399261309E+00    1.9764284568086776E+00    1.1072470960091048E+01
N    9.7226788686192851E+00    1.9750032410950338E+00    1.3046259487958906E+01
Ga    9.7238036358035416E+00    1.0708068270512948E-01    1.3663115560656411E+01
N    9.7261942261818657E+00    1.3255807850830642E-01    1.5634419173925625E+01
Ga    9.7224591229055530E+00    1.9788967253759622E+00    1.5909731843347773E+01
N    8.0143606795006761E+00    4.6933503338565119E+00    2.5640867757106465E+00
Ga    8.1966454444374808E+00    2.8510049270283586E+00    3.3146680613366537E+00
N    8.1116735923918259E+00    2.9007757774410385E+00    5.2927971811258381E+00
Ga    8.1257351328892966E+00    4.7759710398806634E+00    5.8220468268062646E+00
N    8.1200717920650387E+00    4.7687952004223924E+00    7.8303650269495124E+00
Ga    8.1056271874435115E+00    2.9137059683328705E+00    8.4761727492299492E+00
N    8.1033766011922079E+00    2.9114608398230479E+00    1.0473334910812298E+01
Ga    8.1265903587455917E+00    4.7695310274064351E+00    1.1115248830653940E+01
N    8.1455619547360882E+00    4.7794017080461080E+00    1.3109097813638021E+01
Ga    8.1028601508800921E+00    2.9119378260604716E+00    1.3670873910117578E+01
N    8.1323490753561618E+00    2.8932219362248448E+00    1.5629319463713665E+01
Ga    7.9429012271505703E+00    4.6627463594786009E+00    1.6545157771857649E+01
N    6.4954396906600556E+00    7.5458928820135069E+00    2.6594702542369251E+00
Ga    6.4763561377441681E+00    5.7688329793108499E+00    3.2490899989916171E+00
N    6.4931512722299516E+00    5.6808527385085794E+00    5.2522124319028221E+00
Ga    6.5006549828546696E+00    7.5394784360392828E+00    5.8790035688962332E+00
N    6.5041756681523797E+00    7.5435703302292323E+00    7.8720934712006043E+00
Ga    6.5067406611209515E+00    5.6815220398304938E+00    8.4745721500056543E+00
N    6.5051715433332733E+00    5.6775205709853100E+00    1.0471937760161330E+01
Ga    6.5055847327965077E+00    7.5456893529960967E+00    1.1069833042729751E+01
N    6.5055441343384679E+00    7.5473199017934265E+00    1.3043865785069789E+01
Ga    6.5070561734783521E+00    5.6765955862514685E+00    1.3670431024978557E+01
N    6.5055475984785636E+00    5.7108481725022049E+00    1.5628507286432212E+01
Ga    6.5089143464274848E+00    7.5446365421205162E+00    1.5910825660906688E+01
N    4.7952204090124253E+00    1.0280784178308174E+01    2.5669418715018062E+00
Ga    4.9670505254498165E+00    8.4349531739551384E+00    3.2893440251334476E+00
N    4.8922140792247664E+00    8.4743803992846072E+00    5.2821854357197928E+00
Ga    4.9152986854691667E+00    1.0342473721036489E+01    5.8335371131697631E+00
N    4.9068858547887233E+00    1.0337407209660856E+01    7.8398013863958074E+00
Ga    4.8925058900708400E+00    8.4798792856954481E+00    8.4737385240870786E+00
N    4.8874449824453734E+00    8.4805472485480262E+00    1.0473771792806263E+01
Ga    4.9124868696563473E+00    1.0338921317624692E+01    1.1112717329560661E+01
N    4.9311598851078013E+00    1.0350203775353901E+01    1.3111321806325536E+01
Ga    4.8891462439662341E+00    8.4813880163093955E+00    1.3663305937027785E+01
N    4.9119500369775269E+00    8.4705994618487814E+00    1.5634390563169889E+01
Ga    4.7636526965965231E+00    1.0253559937881876E+01    1.6499600716956735E+01
O    8.8960924925995388E-01    3.7132772464242660E+00   -2.8954878047582561E-01
H    1.8895380466234331E+00    3.5476744481873022E+00   -1.1496700549562266E-02
C    4.3564999928835402E-01    2.6530234286073981E+00   -1.1888100365795504E+00
H    3.2257407074927241E-01    1.7038607171924509E+00   -6.4440592769700933E-01
H   -5.3097390532382249E-01    2.9650266290443805E+00   -1.5999395802120675E+00
H    1.1721288244205168E+00    2.5498236310165900E+00   -1.9947805562607546E+00
Ga    3.2861181727224791E+00    5.7222416443918238E+00    2.9666658242896120E+00
O    3.2596583394393348E+00    3.1666229484857578E+00    4.9119737703406124E-01
H    7.7797602539719526E-02    7.5409241606583119E+00    1.7228528382098403E+00
C    3.3465180877259746E+00    1.8814446951254584E+00    1.1821372992221282E+00
H    4.2867918930950397E+00    1.4006710878390476E+00    8.6669722823654527E-01
H    2.4982187162863134E+00    1.2956798471333184E+00    7.9451315175723969E-01
H    3.8184547642054789E+00    3.8296214293312181E+00    9.8551752336969822E-01
     &END COORD
     &KIND C
       BASIS_SET DZVP-MOLOPT-SR-GTH-q4
       POTENTIAL GTH-PBE-q4
       &POTENTIAL
 2 2
  0.3384712400000000E+00 2 -0.8803673979999999E+01  0.1339210850000000E+01
 2
  0.3025757500000000E+00 1  0.9622486650000001E+01
  0.2915069400000000E+00 0
         # Potential name:  GTH-PBE-Q4  for symbol:  C
         # Potential read from the potential filename: GTH_POTENTIALS
       &END POTENTIAL
     &END KIND
     &KIND O
       BASIS_SET DZVP-MOLOPT-SR-GTH-q6
       POTENTIAL GTH-PBE-q6
       &POTENTIAL
 2 4
  0.2445543000000000E+00 2 -0.1666721480000000E+02  0.2487311320000000E+01
 2
  0.2209559200000000E+00 1  0.1833745811000000E+02
  0.2113324700000000E+00 0
         # Potential name:  GTH-PBE-Q6  for symbol:  O
         # Potential read from the potential filename: GTH_POTENTIALS
       &END POTENTIAL
     &END KIND
     &KIND H
       BASIS_SET DZVP-MOLOPT-SR-GTH-q1
       POTENTIAL GTH-PBE-q1
       &POTENTIAL
 1
  0.2000000000000000E+00 2 -0.4178900440000000E+01  0.7244633100000000E+00
 0
         # Potential name:  GTH-PBE-Q1  for symbol:  H
         # Potential read from the potential filename: GTH_POTENTIALS
       &END POTENTIAL
     &END KIND
     &KIND N
       BASIS_SET DZVP-MOLOPT-SR-GTH
       POTENTIAL GTH-PBE-q5
       &POTENTIAL
 2 3
  0.2837905100000000E+00 2 -0.1241522559000000E+02  0.1868095920000000E+01
 2
  0.2554050000000000E+00 1  0.1363026257000000E+02
  0.2454945300000000E+00 0
         # Potential name:  GTH-PBE-Q5  for symbol:  N
         # Potential read from the potential filename: GTH_POTENTIALS
       &END POTENTIAL
     &END KIND
     &KIND Ga
       BASIS_SET DZVP-MOLOPT-SR-GTH
       POTENTIAL GTH-PBE-q13
       &POTENTIAL
 2 1 10
  0.4900000000000000E+00 0
 3
  0.4167772300000000E+00 3  0.1047568975000000E+02 -0.4921768140000000E+01  0.8707055900000000E+00
  0.7770178090000000E+01 -0.2248152160000000E+01
  0.1784415450000000E+01
  0.5696265200000000E+00 2  0.1777985340000000E+01  0.1958597600000000E+00
 -0.2317443900000000E+00
  0.2381265000000000E+00 1 -0.1624868022000000E+02
         # Potential name:  GTH-PBE-Q13  for symbol:  GA
         # Potential read from the potential filename: GTH_POTENTIALS
       &END POTENTIAL
     &END KIND
     &TOPOLOGY
       NUMBER_OF_ATOMS  212
       MULTIPLE_UNIT_CELL  1 1 1
     &END TOPOLOGY
   &END SUBSYS
 &END FORCE_EVAL
