 # Version information for this restart file 
 # current date 2019-07-21 16:34:19.793
 # current working dir /lustre04/scratch/rzk/rzk/GaN-carbene/443-adatoms-both-2x2/13-H2OCH2/01-Start090202
 # Program compiled at                              Sun Apr  7 00:48:11 EDT 2019
 # Program compiled on                          beluga2.int.ets1.calculquebec.ca
 # Program compiled for                        Beluga-Linux-x86-64-intel-openmpi
 # Source code revision number                                         svn:18619
 &GLOBAL
   PRINT_LEVEL  MEDIUM
   PROJECT_NAME TEST
   RUN_TYPE  GEO_OPT
 &END GLOBAL
 &MOTION
   &GEO_OPT
     MAX_ITER  500
     STEP_START_VAL  75
   &END GEO_OPT
 &END MOTION
 &FORCE_EVAL
   METHOD  QS
   STRESS_TENSOR  ANALYTICAL
   &DFT
     BASIS_SET_FILE_NAME BASIS_MOLOPT
     POTENTIAL_FILE_NAME GTH_POTENTIALS
     UKS  T
     SURFACE_DIPOLE_CORRECTION  T
     SURF_DIP_DIR  Z
     &SCF
       MAX_SCF  80
       EPS_SCF     5.0000000000000004E-06
       &OT  T
         PRECONDITIONER  FULL_ALL
       &END OT
       &OUTER_SCF  T
         OPTIMIZER  NONE
         EPS_SCF     5.0000000000000004E-06
         MAX_SCF  4
       &END OUTER_SCF
       &PRINT
         &RESTART  OFF
           BACKUP_COPIES  1
           &EACH
             JUST_ENERGY  0
             QS_SCF  0
             MD  20
           &END EACH
         &END RESTART
       &END PRINT
     &END SCF
     &QS
       EPS_DEFAULT     1.0000000000000000E-14
       METHOD  GPW
     &END QS
     &MGRID
       NGRIDS  5
       CUTOFF     1.2000000000000000E+03
     &END MGRID
     &XC
       DENSITY_CUTOFF     1.0000000000000000E-10
       GRADIENT_CUTOFF     1.0000000000000000E-10
       TAU_CUTOFF     1.0000000000000000E-10
       &XC_FUNCTIONAL  NO_SHORTCUT
         &PBE  T
         &END PBE
       &END XC_FUNCTIONAL
       &VDW_POTENTIAL
         POTENTIAL_TYPE  PAIR_POTENTIAL
         &PAIR_POTENTIAL
           R_CUTOFF     1.0000000000000005E+01
           TYPE  DFTD3
           PARAMETER_FILE_NAME dftd3.dat
           REFERENCE_FUNCTIONAL PBE
           EPS_CN     9.9999999999999995E-07
           CALCULATE_C9_TERM  T
           REFERENCE_C9_TERM  T
           LONG_RANGE_CORRECTION  F
           VERBOSE_OUTPUT  F
         &END PAIR_POTENTIAL
       &END VDW_POTENTIAL
     &END XC
   &END DFT
   &SUBSYS
     &CELL
       A     1.2864472766435110E+01    0.0000000000000000E+00    0.0000000000000000E+00
       B    -6.4322363581020028E+00    1.1140960178524475E+01    0.0000000000000000E+00
       C     0.0000000000000000E+00    0.0000000000000000E+00    3.2000000000000000E+01
       MULTIPLE_UNIT_CELL  1 1 1
       &CELL_REF
         A     1.2982353780853531E+01    0.0000000000000000E+00    0.0000000000000000E+00
         B    -6.4911768904267628E+00    1.1243048175136114E+01    0.0000000000000000E+00
         C     0.0000000000000000E+00    0.0000000000000000E+00    3.2000000000000000E+01
         MULTIPLE_UNIT_CELL  1 1 1
       &END CELL_REF
     &END CELL
     &COORD
N    8.7563917387726106E-02    2.1131961808554580E+00    2.5444392971754723E+00
Ga    8.8545656334516998E-02    1.1807066488231154E-01    2.9248172057865864E+00
N    6.6348780578992447E-02    1.2794726754042254E-01    5.0709503900186439E+00
Ga    6.8136691204280342E-02    1.9429866435207352E+00    5.8599765614461585E+00
N    7.5596222419550108E-02    1.9681177745462384E+00    7.8446466634419352E+00
Ga    7.6573426635618169E-02    1.1701963252669542E-01    8.4910040412912995E+00
N    7.4608808723930373E-02    1.1938021871282720E-01    1.0460632228714841E+01
Ga    7.3011304335534294E-02    1.9570828393684343E+00    1.1123592414779413E+01
N    7.4001403963576393E-02    1.9391709455946557E+00    1.3111117298811251E+01
Ga    7.3644566351701704E-02    1.1861998650879582E-01    1.3925179744849462E+01
N    7.2865027251162381E-02    1.1866748388182746E-01    1.6114703743844515E+01
Ga    7.3874355002179232E-02    2.1640036916654339E+00    1.6533598324144528E+01
Ga    7.2799327302949510E-02    3.8457118431063613E+00    1.5221762013283171E+00
N   -1.4090677306552131E+00    4.7055367175208351E+00    2.5349340004335357E+00
Ga   -1.6258253797377777E+00    2.8515913340439076E+00    3.3327382769120342E+00
N   -1.5297130469636342E+00    2.9094122209676612E+00    5.2951546485320051E+00
Ga   -1.5775666444643055E+00    4.7736832334238581E+00    5.8714515967330030E+00
N   -1.5448606665008109E+00    4.7667439454968923E+00    7.8535208675302339E+00
Ga   -1.5269877597310135E+00    2.9087228771597373E+00    8.4943306883994438E+00
N   -1.5231002592915073E+00    2.9106124990291389E+00    1.0479273093547004E+01
Ga   -1.5532823793040473E+00    4.7706812848667512E+00    1.1122551195082226E+01
N   -1.5670148185281765E+00    4.7803465469128996E+00    1.3110415017009522E+01
Ga   -1.5237894696477179E+00    2.9110689176925795E+00    1.3671682079830452E+01
N   -1.5506951713972608E+00    2.8954873431430466E+00    1.5629181508023763E+01
Ga   -1.3714284221540076E+00    4.6677930480730838E+00    1.6533503775654065E+01
N    6.8474494373155795E-02    3.8299129195150834E+00    1.7669968056802631E+01
N   -3.1405989450394358E+00    7.6454967646772065E+00    2.5329191800869908E+00
Ga   -3.1656760779289792E+00    5.6993427914991326E+00    2.9089238693378285E+00
N   -3.1372627366540051E+00    5.6833207589980139E+00    5.0688423789374291E+00
Ga   -3.1528101020600090E+00    7.5168515347250935E+00    5.8317907954042507E+00
N   -3.1426143403754407E+00    7.5378164434634307E+00    7.8292904407121204E+00
Ga   -3.1508089562194548E+00    5.6927018333852315E+00    8.4891029494166830E+00
N   -3.1448260330305144E+00    5.6909243949287855E+00    1.0460145683201867E+01
Ga   -3.1470542525092253E+00    7.5293116256913031E+00    1.1120317382847091E+01
N   -3.1433393129494398E+00    7.5102288986560977E+00    1.3108755102752804E+01
Ga   -3.1435115120234931E+00    5.6901566396041749E+00    1.3924025734755725E+01
N   -3.1432127210847920E+00    5.6899222265453764E+00    1.6114107873058543E+01
Ga   -3.1424151053478755E+00    7.7344843628619140E+00    1.6532554527001214E+01
Ga   -3.1993241163546853E+00    9.3372503284051671E+00    1.1557115870427348E+00
N   -4.6645914853974872E+00    1.0290609480470122E+01    2.5315826408677755E+00
Ga   -4.8234980984424940E+00    8.4307942939073666E+00    3.2555172772430621E+00
N   -4.7511264252798142E+00    8.4760196988980532E+00    5.2542619182934329E+00
Ga   -4.7800922749038177E+00    1.0338689666628948E+01    5.8293088592405349E+00
N   -4.7582688942711195E+00    1.0337916044297923E+01    7.8259970963764696E+00
Ga   -4.7447309357631502E+00    8.4787300651044895E+00    8.4733102875309516E+00
N   -4.7410565527449195E+00    8.4818902915110481E+00    1.0466004078630558E+01
Ga   -4.7669902536387792E+00    1.0338321442861444E+01    1.1120090115673413E+01
N   -4.7822059910888841E+00    1.0349881936192610E+01    1.3108686603666177E+01
Ga   -4.7404348807207990E+00    8.4810411582786625E+00    1.3671022693736424E+01
N   -4.7668932004753790E+00    8.4656705125660956E+00    1.5628258120124503E+01
Ga   -4.5882931144086658E+00    1.0238317148625711E+01    1.6532750921001227E+01
N   -3.1480558768602620E+00    9.4005534270348718E+00    1.7670409984274730E+01
N    3.3044204568746007E+00    1.9796577916902187E+00    2.6266508960348913E+00
Ga    3.2955296793018838E+00    8.8109139653317917E-02    3.3149795476281354E+00
N    3.2904694627986140E+00    1.3488554444642020E-01    5.2635561490764351E+00
Ga    3.2995499075096930E+00    1.9666948157860573E+00    5.9421729540273898E+00
N    3.2912910469126659E+00    1.9749789113458345E+00    7.8983266100384339E+00
Ga    3.2862402799998520E+00    1.0330099864170689E-01    8.4918343177237858E+00
N    3.2883771933260082E+00    1.0638240783919219E-01    1.0476467289301416E+01
Ga    3.2898470483715991E+00    1.9754255356374155E+00    1.1079569282896855E+01
N    3.2899133477644211E+00    1.9761152760257263E+00    1.3043309228526214E+01
Ga    3.2897453578460536E+00    1.0673185605955392E-01    1.3672113816520721E+01
N    3.2908298339903279E+00    1.3874709626141946E-01    1.5628474119302821E+01
Ga    3.2902769981041549E+00    1.9762040317949567E+00    1.5911024368148809E+01
N    1.5564365778612592E+00    4.7146369843004976E+00    2.6007659638467513E+00
Ga    1.7154920945811118E+00    2.8810855493713770E+00    3.3753127397692118E+00
N    1.7018540573786332E+00    2.8956644586856637E+00    5.2978586961321152E+00
Ga    1.7085654924626394E+00    4.7790058919627025E+00    5.8709556604220694E+00
N    1.6876287352392734E+00    4.7651145348163002E+00    7.8487051597953830E+00
Ga    1.6716458619276151E+00    2.9080441625342157E+00    8.4987193683450108E+00
N    1.6707846132478654E+00    2.9111577815891665E+00    1.0480500329989987E+01
Ga    1.6975509322152782E+00    4.7705745129592421E+00    1.1126224839018995E+01
N    1.7143730984442276E+00    4.7803696569049556E+00    1.3112314656510327E+01
Ga    1.6713280016106364E+00    2.9110941874105953E+00    1.3673014937472589E+01
N    1.6995214932649805E+00    2.8961687131550886E+00    1.5629479773517273E+01
Ga    1.5148618872911397E+00    4.6653739372063985E+00    1.6534680357091858E+01
N    6.0186928293832750E-02    7.5541515497820395E+00    2.7416560878748415E+00
Ga    5.5924985079914634E-02    5.7230745004055130E+00    3.4053597130582185E+00
N    6.6067538081305111E-02    5.7075340473500358E+00    5.3239565933806823E+00
Ga    5.4411359662844085E-02    7.5584549715229938E+00    5.9592551630828101E+00
N    6.9991337510311044E-02    7.5499219793572427E+00    7.9119135938292784E+00
Ga    6.9396453155964891E-02    5.6777240123373138E+00    8.5019284189587250E+00
N    7.3372899413225057E-02    5.6769544204383191E+00    1.0483240611314214E+01
Ga    7.1165972956529724E-02    7.5474319437150568E+00    1.1081851404879487E+01
N    7.2745548581995598E-02    7.5468248601806112E+00    1.3045044309178206E+01
Ga    7.3492003464068173E-02    5.6773164734956962E+00    1.3672643930467249E+01
N    7.4877937424097998E-02    5.7093943018638473E+00    1.5629121418662782E+01
Ga    7.4130999425346344E-02    7.5474370666784267E+00    1.5910169664852845E+01
N   -1.6088706777993240E+00    1.0289876125197825E+01    2.5372250688528322E+00
Ga   -1.5674801229510806E+00    8.4974599400268485E+00    3.3175980717273297E+00
N   -1.5285875463991305E+00    8.4739794292149355E+00    5.2723900339402290E+00
Ga   -1.5061528755227180E+00    1.0349968028344191E+01    5.8491982074756947E+00
N   -1.5299160351032717E+00    1.0336338085470722E+01    7.8382626772479735E+00
Ga   -1.5546755143825592E+00    8.4829396746775423E+00    8.4966856188849800E+00
N   -1.5483144732237064E+00    8.4823940513208527E+00    1.0480155931415920E+01
Ga   -1.5203665682349838E+00    1.0341773177879517E+01    1.1124226034437598E+01
N   -1.5023001502566307E+00    1.0350986372788263E+01    1.3111027817312934E+01
Ga   -1.5461752922583396E+00    8.4818486287344879E+00    1.3671945253874419E+01
N   -1.5174239331807831E+00    8.4664982559177506E+00    1.5628262054529728E+01
Ga   -1.7010986152869150E+00    1.0235665119938368E+01    1.6533287024330257E+01
N    6.5151254015753510E+00    2.0817624542336386E+00    2.5492040559730005E+00
Ga    6.4953221624454427E+00    1.2932892081910524E-01    2.9425201279220019E+00
N    6.5125584223847479E+00    1.1938549346054818E-01    5.0942591952290890E+00
Ga    6.5119888389863059E+00    1.9479698949329536E+00    5.8518640674674396E+00
N    6.5022732534605456E+00    1.9692749106819769E+00    7.8413776777645383E+00
Ga    6.5017659258176197E+00    1.2184038790745795E-01    8.4956319713847712E+00
N    6.5038737113243865E+00    1.2006130757958483E-01    1.0463982142399082E+01
Ga    6.5069550543891497E+00    1.9599283752565224E+00    1.1121395749908800E+01
N    6.5064403739846552E+00    1.9397410085707016E+00    1.3109749353113589E+01
Ga    6.5061687229290897E+00    1.1993074109604679E-01    1.3926759537496290E+01
N    6.5056129838756966E+00    1.1901264492869203E-01    1.6114840927715413E+01
Ga    6.5065087742136782E+00    2.1649355981755747E+00    1.6532439065370525E+01
Ga    6.6477937888556315E+00    3.8001677275200323E+00    1.2552515591646205E+00
N    4.9359912521591705E+00    4.6851570909793461E+00    2.4905906644499498E+00
Ga    4.9248424893503646E+00    2.9075957093117135E+00    3.3331500312385005E+00
N    4.8835764374916302E+00    2.8965795835180637E+00    5.2720577033995211E+00
Ga    4.8788918381518922E+00    4.7797814663995624E+00    5.8425456172596535E+00
N    4.8862162848895316E+00    4.7644616595684806E+00    7.8325496498189837E+00
Ga    4.9094613307255521E+00    2.9126320413670168E+00    8.4953819264924011E+00
N    4.9079504986061799E+00    2.9122185221837635E+00    1.0478838741717865E+01
Ga    4.8839716751455446E+00    4.7721435144804785E+00    1.1122315055697976E+01
N    4.8664635333478010E+00    4.7807119831779836E+00    1.3110097447584826E+01
Ga    4.9092944500735989E+00    2.9113394711209679E+00    1.3671279958412182E+01
N    4.8806947807371355E+00    2.8950034996720642E+00    1.5628531026818500E+01
Ga    5.0614026080487733E+00    4.6680780211184327E+00    1.6532361978092343E+01
N    6.5012467814837480E+00    3.8307356615718344E+00    1.7666535902990134E+01
N    3.2700475194015448E+00    7.6761022523115141E+00    2.5784556060706612E+00
N    3.2789553224961216E+00    5.6972994145819014E+00    5.0875168338139609E+00
Ga    3.2930046806215394E+00    7.5229595984511564E+00    5.8674768676137568E+00
N    3.2860021783973750E+00    7.5379224555721276E+00    7.8485947950644377E+00
Ga    3.2918140461031706E+00    5.6891192219163162E+00    8.4973125237991098E+00
N    3.2894533220148006E+00    5.6894789136055817E+00    1.0463897159251461E+01
Ga    3.2924704451170466E+00    7.5292969162828607E+00    1.1123654759597096E+01
N    3.2908765972562031E+00    7.5098467702521372E+00    1.3110842227709266E+01
Ga    3.2906066614064029E+00    5.6905402171606658E+00    1.3927630124089005E+01
N    3.2894178025210112E+00    5.6902205600243132E+00    1.6115154331888391E+01
Ga    3.2905907160315819E+00    7.7371127384487410E+00    1.6534395315670519E+01
Ga    3.3162503112136181E+00    9.4229488290459855E+00    1.5336804361529179E+00
N    1.7858697404841837E+00    1.0269090946018952E+01    2.5675537731702254E+00
Ga    1.6471563083300667E+00    8.4762551691794989E+00    3.3901200517906118E+00
N    1.6632299629528156E+00    8.4718052363691605E+00    5.3120148338321371E+00
Ga    1.6551239444554788E+00    1.0358696477550600E+01    5.8741419054759909E+00
N    1.6735868129986922E+00    1.0336017747960280E+01    7.8558220483675276E+00
Ga    1.6915822734990740E+00    8.4829869172689971E+00    8.5055687438631082E+00
N    1.6924544806918735E+00    8.4814634713998682E+00    1.0485829081465683E+01
Ga    1.6658863611680412E+00    1.0343247051509103E+01    1.1124330500092304E+01
N    1.6496690914378489E+00    1.0351402615275532E+01    1.3111508367217741E+01
Ga    1.6931494468448747E+00    8.4818215227588105E+00    1.3672289064290595E+01
N    1.6645717885646578E+00    8.4650046319781822E+00    1.5628682647053678E+01
Ga    1.8470251748324200E+00    1.0237320269159593E+01    1.6534202815532563E+01
N    3.2855887165608557E+00    9.4009923729257601E+00    1.7669590352267523E+01
N    9.7260448746894799E+00    1.9846886320487431E+00    2.6534379962200418E+00
Ga    9.7211609148607909E+00    2.4540388593145313E-01    3.3396861084643108E+00
N    9.7189096954334211E+00    1.1984604895266347E-01    5.2984782874247598E+00
Ga    9.7194322948263370E+00    1.9832024111479389E+00    5.9196825875053243E+00
N    9.7217513311506796E+00    1.9771896721299151E+00    7.8913919009012607E+00
Ga    9.7245923209593066E+00    1.1107018193559896E-01    8.4940799576784975E+00
N    9.7222807245155884E+00    1.0735920889863178E-01    1.0479085591358730E+01
Ga    9.7205229251343823E+00    1.9774283181438848E+00    1.1077369465135728E+01
N    9.7216532038701580E+00    1.9769433002806489E+00    1.3042007355538107E+01
Ga    9.7232533456696508E+00    1.0749287349551524E-01    1.3671476761849195E+01
N    9.7240830746036515E+00    1.3987167667361916E-01    1.5627341627856310E+01
Ga    9.7229449397770065E+00    1.9763403433120947E+00    1.5910763160022993E+01
N    8.0181535625054714E+00    4.6940901283958425E+00    2.5498428060407958E+00
Ga    8.1931517126371833E+00    2.8610111864195273E+00    3.3071484208610968E+00
N    8.1130521190682980E+00    2.9017753033153317E+00    5.2832156051485715E+00
Ga    8.1269281583584494E+00    4.7773751054207798E+00    5.8237656213432558E+00
N    8.1188859981578787E+00    4.7686334922348967E+00    7.8262250776698554E+00
Ga    8.1036660965012040E+00    2.9154391961708410E+00    8.4830635097425162E+00
N    8.1024343114881496E+00    2.9121029166474970E+00    1.0472503541373950E+01
Ga    8.1269148212549727E+00    4.7710963045563126E+00    1.1118193287789685E+01
N    8.1454561206554530E+00    4.7803225982859745E+00    1.3107192678939388E+01
Ga    8.1036220343149132E+00    2.9120203743934261E+00    1.3670876307291440E+01
N    8.1323834424494219E+00    2.8965597272893011E+00    1.5627520055343126E+01
Ga    7.9468759732418093E+00    4.6654245900823339E+00    1.6532905191634814E+01
N    6.5016615058572471E+00    7.5408520326886723E+00    2.6366393152814394E+00
Ga    6.4828507432716638E+00    5.7620772870639794E+00    3.2385412648998000E+00
N    6.4938464599277790E+00    5.6823339268070203E+00    5.2403605998645935E+00
Ga    6.5143681979126091E+00    7.5360095649590955E+00    5.8852339276064543E+00
N    6.5050333397295264E+00    7.5437746955018863E+00    7.8684965693467319E+00
Ga    6.5063856034851080E+00    5.6808587171520113E+00    8.4781934561088352E+00
N    6.5042704330895456E+00    5.6775719078534728E+00    1.0468733543470139E+01
Ga    6.5065344518071084E+00    7.5464994184971737E+00    1.1072468465106500E+01
N    6.5065470494882751E+00    7.5467307173444453E+00    1.3038083225624078E+01
Ga    6.5069407757745417E+00    5.6787385674515267E+00    1.3670333107787872E+01
N    6.5077895622612711E+00    5.7103643992437974E+00    1.5626917138102009E+01
Ga    6.5065107909527180E+00    7.5476315701431957E+00    1.5911455626626047E+01
N    4.7933733643999590E+00    1.0278155049145395E+01    2.5767038323659457E+00
Ga    5.0095911917691422E+00    8.4152252512535064E+00    3.3319183172423936E+00
N    4.8924605008549706E+00    8.4762051559308613E+00    5.2905516794610818E+00
Ga    4.9216008181394821E+00    1.0347185087274758E+01    5.8526143161352344E+00
N    4.9065965549900792E+00    1.0337526283306753E+01    7.8423039449747867E+00
Ga    4.8948522160948844E+00    8.4792018049577393E+00    8.4834630426542841E+00
N    4.8874879211356941E+00    8.4809539925366977E+00    1.0471877722798261E+01
Ga    4.9139575676283185E+00    1.0339860111062535E+01    1.1119942223723449E+01
N    4.9306370703126214E+00    1.0350420458149147E+01    1.3108263630482185E+01
Ga    4.8889280077235160E+00    8.4816555150124042E+00    1.3671243633171438E+01
N    4.9166724654234031E+00    8.4662887792466162E+00    1.5626975286691437E+01
Ga    4.7295243766531936E+00    1.0234541694682926E+01    1.6534995654830954E+01
O    8.9828561625283299E-01    3.7059038465139946E+00   -2.9851342566852346E-01
H    1.8995805121981300E+00    3.5448925198966470E+00   -1.4027238484571689E-02
C    4.5507212579787099E-01    2.6305686900045790E+00   -1.1848742896982316E+00
H    3.5065257931948118E-01    1.6869047191580517E+00   -6.3073741272204054E-01
H   -5.1358417687884228E-01    2.9290991720527035E+00   -1.6014106569793771E+00
H    1.1912418028022722E+00    2.5239156390076962E+00   -1.9903201546110838E+00
Ga    3.2837875153598559E+00    5.6966705709914356E+00    2.9749046298222073E+00
O    3.2650473789407095E+00    3.1745804569030240E+00    4.7987081158752815E-01
H    7.9619256118794821E-02    7.5365666967735185E+00    1.7155386680297986E+00
C    3.3482756284325723E+00    1.8854882808273938E+00    1.1697739936441800E+00
H    4.2852600393867499E+00    1.4023513348176533E+00    8.5171644028420157E-01
H    2.4986409294178253E+00    1.3035653611255791E+00    7.8044089987449117E-01
H    3.8265056823486572E+00    3.8336354074313581E+00    9.7629317886155542E-01
     &END COORD
     &KIND C
       BASIS_SET DZVP-MOLOPT-SR-GTH-q4
       POTENTIAL GTH-PBE-q4
       &POTENTIAL
2 2
0.3384712400000000E+00 2 -0.8803673979999999E+01  0.1339210850000000E+01
2
0.3025757500000000E+00 1  0.9622486650000001E+01
0.2915069400000000E+00 0
       &END POTENTIAL
     &END KIND
     &KIND O
       BASIS_SET DZVP-MOLOPT-SR-GTH-q6
       POTENTIAL GTH-PBE-q6
       &POTENTIAL
2 4
0.2445543000000000E+00 2 -0.1666721480000000E+02  0.2487311320000000E+01
2
0.2209559200000000E+00 1  0.1833745811000000E+02
0.2113324700000000E+00 0
       &END POTENTIAL
     &END KIND
     &KIND H
       BASIS_SET DZVP-MOLOPT-SR-GTH-q1
       POTENTIAL GTH-PBE-q1
       &POTENTIAL
1
0.2000000000000000E+00 2 -0.4178900440000000E+01  0.7244633100000000E+00
0
       &END POTENTIAL
     &END KIND
     &KIND N
       BASIS_SET DZVP-MOLOPT-SR-GTH
       POTENTIAL GTH-PBE-q5
       &POTENTIAL
2 3
0.2837905100000000E+00 2 -0.1241522559000000E+02  0.1868095920000000E+01
2
0.2554050000000000E+00 1  0.1363026257000000E+02
0.2454945300000000E+00 0
       &END POTENTIAL
     &END KIND
     &KIND Ga
       BASIS_SET DZVP-MOLOPT-SR-GTH
       POTENTIAL GTH-PBE-q13
       &POTENTIAL
2 1 10
0.4900000000000000E+00 0
3
0.4167772300000000E+00 3  0.1047568975000000E+02 -0.4921768140000000E+01  0.8707055900000000E+00
0.7770178090000000E+01 -0.2248152160000000E+01
0.1784415450000000E+01
0.5696265200000000E+00 2  0.1777985340000000E+01  0.1958597600000000E+00
-0.2317443900000000E+00
0.2381265000000000E+00 1 -0.1624868022000000E+02
       &END POTENTIAL
     &END KIND
     &TOPOLOGY
       NUMBER_OF_ATOMS  212
       MULTIPLE_UNIT_CELL  1 1 1
     &END TOPOLOGY
   &END SUBSYS
 &END FORCE_EVAL
