 # Version information for this restart file 
 # current date 2019-05-16 15:35:27.798
 # current working dir /lustre03/project/6004141/rzk/GaN-carbene/00-Surface/00-Preoptimization/334-native/Trial4
 # Program compiled at                              Sun Apr  7 00:48:11 EDT 2019
 # Program compiled on                          beluga2.int.ets1.calculquebec.ca
 # Program compiled for                        Beluga-Linux-x86-64-intel-openmpi
 # Source code revision number                                         svn:18619
 &GLOBAL
   PRINT_LEVEL  MEDIUM
   PROJECT_NAME TEST
   RUN_TYPE  GEO_OPT
 &END GLOBAL
 &MOTION
   &GEO_OPT
     MAX_ITER 500
   &END GEO_OPT
 &END MOTION
 &FORCE_EVAL
   METHOD  QS
   STRESS_TENSOR  ANALYTICAL
   &DFT
     BASIS_SET_FILE_NAME BASIS_MOLOPT
     POTENTIAL_FILE_NAME GTH_POTENTIALS
     &SCF
       MAX_SCF  100
       EPS_SCF     5.0000000000000004E-06
       &OT  T
         PRECONDITIONER  FULL_ALL
       &END OT
       &OUTER_SCF  T
         OPTIMIZER  NONE
         EPS_SCF     5.0000000000000004E-06
         MAX_SCF  4
       &END OUTER_SCF
       &PRINT
         &RESTART  OFF
           BACKUP_COPIES  1
           &EACH
             JUST_ENERGY  0
             QS_SCF  0
             MD  20
           &END EACH
         &END RESTART
       &END PRINT
     &END SCF
     &QS
       EPS_DEFAULT     1.0000000000000000E-14
       ALMO_SCF  F
       METHOD  GPW
     &END QS
     &MGRID
       NGRIDS  5
       CUTOFF     1.2000000000000000E+03
     &END MGRID
     &XC
       DENSITY_CUTOFF     1.0000000000000000E-10
       GRADIENT_CUTOFF     1.0000000000000000E-10
       TAU_CUTOFF     1.0000000000000000E-10
       &XC_FUNCTIONAL  NO_SHORTCUT
         &PBE  T
         &END PBE
       &END XC_FUNCTIONAL
       &VDW_POTENTIAL
         POTENTIAL_TYPE  PAIR_POTENTIAL
         &PAIR_POTENTIAL
           R_CUTOFF     1.0000000000000004E+01
           TYPE  DFTD3
           PARAMETER_FILE_NAME dftd3.dat
           REFERENCE_FUNCTIONAL PBE
           EPS_CN     9.9999999999999995E-07
           CALCULATE_C9_TERM  T
           REFERENCE_C9_TERM  T
           LONG_RANGE_CORRECTION  F
           VERBOSE_OUTPUT  F
         &END PAIR_POTENTIAL
       &END VDW_POTENTIAL
     &END XC
   &END DFT
   &SUBSYS
     &CELL
       A     9.7367653356401487E+00    0.0000000000000000E+00    0.0000000000000000E+00
       B    -4.8591341382960209E+00    8.4162672083210595E+00    0.0000000000000000E+00
       C     0.0000000000000000E+00    0.0000000000000000E+00    3.0744000000000000E+01
       MULTIPLE_UNIT_CELL  1 1 1
       &CELL_REF
         A     9.5580000000000034E+00    0.0000000000000000E+00    0.0000000000000000E+00
         B    -4.7790000000000017E+00    8.2774708093716640E+00    0.0000000000000000E+00
         C     0.0000000000000000E+00    0.0000000000000000E+00    3.0744000000000000E+01
         MULTIPLE_UNIT_CELL  1 1 1
       &END CELL_REF
     &END CELL
     &COORD
 Ga                 0.01870757    0.00845696   -0.55457206
 N                  0.02092726    1.88120383    0.56163415
 Ga                 0.01958337    1.85028368    2.59543206
 N                  0.01641774    0.00608298    3.22488772
 Ga                 0.01625619    0.00647959    5.21692964
 N                  0.01889904    1.88116582    5.80304533
 Ga                 0.01699849    1.87825852    7.80262493
 N                  0.01321534    0.00476152    8.40336672
 Ga                 0.01302484    0.00501355   10.40113589
 N                  0.01895527    1.87548660   11.00970255
 Ga                 0.02247730    1.87540674   13.00631490
 N                  0.01859850   -0.00171088   13.60146954
 Ga                 0.01013784    0.00082007   15.60282375
 N                  0.00010334    1.87599432   16.15809532
 Ga                -0.00661396    1.87404937   18.19856261
 N                 -0.01405711    0.01231675   18.64940107
 Ga                -1.60300760    2.81291642    0.27696775
 N                 -1.60320825    4.68241539    0.56163895
 Ga                -1.57598566    4.69735337    2.59242365
 N                 -1.60330701    2.81168320    3.18405951
 Ga                -1.60413227    2.81172492    5.19561928
 N                 -1.60369373    4.68189128    5.80240415
 Ga                -1.60425552    4.68077316    7.80142589
 N                 -1.60420944    2.81112485    8.40838262
 Ga                -1.60324191    2.81293404   10.40568724
 N                 -1.60228170    4.68587022   11.01039907
 Ga                -1.60348231    4.69014878   13.00820742
 N                 -1.60844981    2.81061577   13.57905743
 Ga                -1.61490382    2.80956899   15.56857291
 N                 -1.61570628    4.67289187   16.17487394
 Ga                -1.62301444    4.69071092   18.22045908
 N                 -1.60549379    2.82459508   18.67502925
 Ga                -3.22251178    5.61711164    0.27690291
 N                 -3.21606631    7.48910276    0.56131786
 Ga                -3.24362049    7.50278825    2.59520461
 N                 -3.22291325    5.61713959    3.18371841
 Ga                -3.22351915    5.61733656    5.19514968
 N                 -3.21798061    7.48725351    5.80344008
 Ga                -3.22109888    7.48600724    7.80330108
 N                 -3.22562053    5.61460436    8.40655321
 Ga                -3.22657895    5.61495875   10.40308600
 N                 -3.22290239    7.48745426   10.99973264
 Ga                -3.22326264    7.48489633   12.99088511
 N                 -3.22961093    5.62034320   13.60752706
 Ga                -3.23466326    5.62107060   15.61163815
 N                 -3.22268277    7.48821441   16.25518277
 Ga                -3.23827865    7.49817718   18.36345459
 N                 -3.24347825    5.61599405   18.64673879
 Ga                 3.26502013    0.00827001    0.27662174
 N                  3.26152215    1.87658946    0.56279006
 Ga                 3.28938703    1.89183728    2.59251477
 N                  3.26219833    0.00622847    3.18414526
 Ga                 3.26164409    0.00681461    5.19552271
 N                  3.26150670    1.87664910    5.80283066
 Ga                 3.26092767    1.87603079    7.80198585
 N                  3.26015709    0.00545256    8.40612183
 Ga                 3.25946438    0.00697546   10.40250871
 N                  3.25984272    1.87744367   11.01152302
 Ga                 3.25499185    1.87757239   13.01027208
 N                  3.25108479    0.00284528   13.60591396
 Ga                 3.24525009    0.00644554   15.60877857
 N                  3.25353227    1.88688766   16.16394250
 Ga                 3.25917154    1.87134098   18.20692222
 N                  3.24337742    0.01597095   18.67959441
 Ga                 1.64481412    2.81335483    0.27652259
 N                  1.64973986    4.68295505    0.56114600
 Ga                 1.62067033    4.69745145    2.59180297
 N                  1.64240091    2.81200447    3.18370849
 Ga                 1.64220673    2.81197364    5.19488855
 N                  1.64718070    4.68181224    5.80260604
 Ga                 1.64457540    4.68109535    7.80162903
 N                  1.64005451    2.81076033    8.40768195
 Ga                 1.63957845    2.81168517   10.40425631
 N                  1.63873432    4.68374483   11.01033397
 Ga                 1.63327819    4.68554428   13.00758187
 N                  1.63699607    2.82103644   13.62705530
 Ga                 1.63142969    2.83452983   15.63885127
 N                  1.63177735    4.68459005   16.30160695
 Ga                 1.62624562    4.68984399   18.58625273
 N                  1.62287705    2.77972391   18.62675849
 Ga                 0.02407645    5.61916420   -0.59044906
 N                  0.02692698    7.49291480    0.56204865
 Ga                 0.02550408    7.46058863    2.59257273
 N                  0.02261964    5.61699118    3.22446906
 Ga                 0.02210814    5.61739822    5.21509442
 N                  0.02475795    7.49185935    5.80248552
 Ga                 0.02350300    7.48917708    7.80156134
 N                  0.02026726    5.61564695    8.40187323
 Ga                 0.01858936    5.61674270   10.39851796
 N                  0.01952350    7.48514622   11.00854623
 Ga                 0.01440075    7.48174783   13.00567419
 N                  0.01833150    5.61678180   13.64151169
 Ga                 0.02653532    5.61485482   15.66035887
 N                  0.01840657    7.50581743   16.18857869
 Ga                 0.00001806    7.50106073   18.24313026
 N                 -0.02901010    5.63770868   18.69799560
 Ga                 6.50721509    0.00862123    0.27655342
 N                  6.51578580    1.87717024    0.56241348
 Ga                 6.48586110    1.89203486    2.59206974
 N                  6.50756855    0.00640500    3.18412591
 Ga                 6.50686344    0.00715499    5.19568500
 N                  6.51241332    1.87654341    5.80532122
 Ga                 6.50996498    1.87532439    7.80602368
 N                  6.50538153    0.00319218    8.40794730
 Ga                 6.50421988    0.00150791   10.40522747
 N                  6.50670595    1.87703232   10.99348742
 Ga                 6.50393742    1.87555280   12.98283083
 N                  6.49984701    0.00352620   13.58092027
 Ga                 6.49493343    0.01027938   15.57242938
 N                  6.51958631    1.87043642   16.16400316
 Ga                 6.52884972    1.87460777   18.22295430
 N                  6.48841399    0.00244397   18.65771111
 Ga                 4.88886009    2.81274141   -0.59378065
 N                  4.89221889    4.68810419    0.56243375
 Ga                 4.89082454    4.65463071    2.59212538
 N                  4.88797456    2.81144232    3.22522807
 Ga                 4.88763797    2.81154784    5.21611510
 N                  4.88989595    4.68636044    5.80267175
 Ga                 4.88783210    4.68365657    7.80194734
 N                  4.88438001    2.81099259    8.40426068
 Ga                 4.88156612    2.81258604   10.40256038
 N                  4.88633091    4.68353368   11.01158289
 Ga                 4.88185002    4.68479377   13.01062199
 N                  4.88556936    2.80779738   13.59476347
 Ga                 4.88849506    2.80416034   15.59148359
 N                  4.87607058    4.67863705   16.16568000
 Ga                 4.89209348    4.67867658   18.21062336
 N                  4.88652563    2.80165182   18.58981271
 Ga                 3.27016453    5.61644875    0.27648404
 N                  3.26927022    7.48846882    0.56088819
 Ga                 3.29473270    7.50252512    2.59506945
 N                  3.26802665    5.61701233    3.18329375
 Ga                 3.26768303    5.61697343    5.19454583
 N                  3.26770126    7.48704209    5.80270285
 Ga                 3.26665673    7.48556490    7.80220363
 N                  3.26541566    5.61517891    8.40799589
 Ga                 3.26424060    5.61527683   10.40477691
 N                  3.26964725    7.48559067   11.01068256
 Ga                 3.26806062    7.47797468   13.00842129
 N                  3.25342798    5.60708601   13.62755097
 Ga                 3.23893721    5.60561797   15.64049751
 N                  3.25694750    7.49808961   16.15268407
 Ga                 3.25109217    7.51047781   18.19504461
 N                  3.27275729    5.63177896   18.58214994
 O              1.35096713    4.59111982   21.01119844
 H              0.49620057    5.03696143   20.83385126
 C              0.99046098    3.30322038   21.51741020
 H              1.05710865    2.57978170   20.73185653
 H              1.65675197    3.03202830   22.30950310
 H             -0.01222696    3.33417856   21.88964464
     &END COORD
    
     &KIND C
       BASIS_SET DZVP-MOLOPT-SR-GTH-q4
       POTENTIAL GTH-PBE-q4
     &END KIND

     &KIND O
       BASIS_SET DZVP-MOLOPT-SR-GTH-q6
       POTENTIAL GTH-PBE-q6
     &END KIND

     &KIND H
       BASIS_SET DZVP-MOLOPT-SR-GTH-q1
       POTENTIAL GTH-PBE-q1
     &END KIND

     &KIND N
       BASIS_SET DZVP-MOLOPT-SR-GTH-q5
       POTENTIAL GTH-PBE-q5
     &END KIND

     &KIND Ga
       BASIS_SET DZVP-MOLOPT-SR-GTH-q13
       POTENTIAL GTH-PBE-q13
     &END KIND

     &TOPOLOGY
       MULTIPLE_UNIT_CELL  1 1 1
     &END TOPOLOGY
   &END SUBSYS
 &END FORCE_EVAL
