 # Version information for this restart file 
 # current date 2019-05-23 17:56:13.293
 # current working dir /lustre03/project/6004141/rzk/GaN-carbene/01-Methanol/03-both-ads
 # Program compiled at                              Sun Apr  7 00:48:11 EDT 2019
 # Program compiled on                          beluga2.int.ets1.calculquebec.ca
 # Program compiled for                        Beluga-Linux-x86-64-intel-openmpi
 # Source code revision number                                         svn:18619
 &GLOBAL
   PRINT_LEVEL  MEDIUM
   PROJECT_NAME TEST
   RUN_TYPE  GEO_OPT
 &END GLOBAL
 &MOTION
   &GEO_OPT
     MAX_ITER  500
     STEP_START_VAL  122
   &END GEO_OPT
 &END MOTION
 &FORCE_EVAL
   METHOD  QS
   STRESS_TENSOR  ANALYTICAL
   &DFT
     BASIS_SET_FILE_NAME BASIS_MOLOPT
     POTENTIAL_FILE_NAME GTH_POTENTIALS
     &SCF
       MAX_SCF  100
       EPS_SCF     5.0000000000000004E-06
       &OT  T
         PRECONDITIONER  FULL_ALL
       &END OT
       &OUTER_SCF  T
         OPTIMIZER  NONE
         EPS_SCF     5.0000000000000004E-06
         MAX_SCF  4
       &END OUTER_SCF
       &PRINT
         &RESTART  OFF
           BACKUP_COPIES  1
           &EACH
             JUST_ENERGY  0
             QS_SCF  0
             MD  20
           &END EACH
         &END RESTART
       &END PRINT
     &END SCF
     &QS
       EPS_DEFAULT     1.0000000000000000E-14
       ALMO_SCF  F
       METHOD  GPW
     &END QS
     &MGRID
       NGRIDS  5
       CUTOFF     1.2000000000000000E+03
     &END MGRID
     &XC
       DENSITY_CUTOFF     1.0000000000000000E-10
       GRADIENT_CUTOFF     1.0000000000000000E-10
       TAU_CUTOFF     1.0000000000000000E-10
       &XC_FUNCTIONAL  NO_SHORTCUT
         &PBE  T
         &END PBE
       &END XC_FUNCTIONAL
       &VDW_POTENTIAL
         POTENTIAL_TYPE  PAIR_POTENTIAL
         &PAIR_POTENTIAL
           R_CUTOFF     1.0000000000000005E+01
           TYPE  DFTD3
           PARAMETER_FILE_NAME dftd3.dat
           REFERENCE_FUNCTIONAL PBE
           EPS_CN     9.9999999999999995E-07
           CALCULATE_C9_TERM  T
           REFERENCE_C9_TERM  T
           LONG_RANGE_CORRECTION  F
           VERBOSE_OUTPUT  F
         &END PAIR_POTENTIAL
       &END VDW_POTENTIAL
     &END XC
   &END DFT
   &SUBSYS
     &CELL
       A     9.7367653356401487E+00    0.0000000000000000E+00    0.0000000000000000E+00
       B    -4.8591341382960209E+00    8.4162672083210595E+00    0.0000000000000000E+00
       C     0.0000000000000000E+00    0.0000000000000000E+00    3.0744000000000000E+01
       MULTIPLE_UNIT_CELL  1 1 1
       &CELL_REF
         A     9.5580000000000052E+00    0.0000000000000000E+00    0.0000000000000000E+00
         B    -4.7790000000000026E+00    8.2774708093716640E+00    0.0000000000000000E+00
         C     0.0000000000000000E+00    0.0000000000000000E+00    3.0744000000000000E+01
         MULTIPLE_UNIT_CELL  1 1 1
       &END CELL_REF
     &END CELL
     &COORD
Ga    3.4615796109429824E-02   -1.4360991556199225E-03   -5.2395765965978391E-01
N    3.8336567907972102E-02    1.8717851398558338E+00    6.0371465436323268E-01
Ga    3.7346611473880277E-02    1.8412412914018821E+00    2.6366720664635261E+00
N    3.4608364767949047E-02   -2.4708503868395089E-03    3.2670867728316884E+00
Ga    3.4874346639701459E-02   -1.3527500333801665E-03    5.2581438099375255E+00
N    3.8093657036585508E-02    1.8732599752816597E+00    5.8455142308111094E+00
Ga    3.7654559644042518E-02    1.8717717310696069E+00    7.8448539069363985E+00
N    3.4106359464168248E-02   -1.7299027936490297E-03    8.4447524065160824E+00
Ga    3.4334179839489901E-02   -6.4478202018529158E-04    1.0441283744426388E+01
N    3.9998776895595806E-02    1.8692349202272067E+00    1.1051244813138345E+01
Ga    4.4479657202319119E-02    1.8708333172679736E+00    1.3048110728012697E+01
N    4.0714209641895142E-02   -6.1816904266712176E-03    1.3645576115775444E+01
Ga    3.1139446242690865E-02    1.4578657064451921E-03    1.5648063108436988E+01
N    2.4128277898610544E-02    1.8780294808845390E+00    1.6188202799615169E+01
Ga    6.0740787327606778E-03    1.8864151427634146E+00    1.8217429096291610E+01
N    9.0183317188146737E-03    2.3913556737943827E-02    1.8678090339990892E+01
Ga   -1.5850464474366364E+00    2.8034596123092141E+00    3.2084892537360293E-01
N   -1.5854940901604790E+00    4.6730510273525683E+00    6.0471160392855650E-01
Ga   -1.5575999612085190E+00    4.6886051944656000E+00    2.6349498033402199E+00
N   -1.5848690825813589E+00    2.8030712516306502E+00    3.2267537747051915E+00
Ga   -1.5848808431789942E+00    2.8037189303499410E+00    5.2382950214724415E+00
N   -1.5843682176964380E+00    4.6741649906099401E+00    5.8447278637105695E+00
Ga   -1.5843476947089308E+00    4.6739620114147282E+00    7.8434824260738116E+00
N   -1.5838659959659385E+00    2.8042901820810537E+00    8.4497152861983267E+00
Ga   -1.5817797601326162E+00    2.8061315955899384E+00    1.0446391350606154E+01
N   -1.5810037510322241E+00    4.6796099391000432E+00    1.1048813328386682E+01
Ga   -1.5811588263689649E+00    4.6857209474280683E+00    1.3045005147715885E+01
N   -1.5867606185986294E+00    2.8077464797768785E+00    1.3621775353525720E+01
Ga   -1.5921335322627539E+00    2.8112626200097877E+00    1.5610900650683003E+01
N   -1.5945895983875102E+00    4.6724156657868425E+00    1.6228090425500966E+01
Ga   -1.6034249015711588E+00    4.6922090726600434E+00    1.8272301708012169E+01
N   -1.5799465336853102E+00    2.8292763731739239E+00    1.8743738152614831E+01
Ga   -3.2047435969049425E+00    5.6080833552773726E+00    3.2104905194728084E-01
N   -3.1988200118729262E+00    7.4797597218357996E+00    6.0330688725876613E-01
Ga   -3.2260340169588795E+00    7.4940822311534570E+00    2.6363968162928542E+00
N   -3.2045187374531219E+00    5.6086715467330377E+00    3.2262478263834780E+00
Ga   -3.2044241206344171E+00    5.6096173657175310E+00    5.2376881739364665E+00
N   -3.1990401667344845E+00    7.4797572260544758E+00    5.8454397531693099E+00
Ga   -3.2004919397089595E+00    7.4793384036161816E+00    7.8448818220848162E+00
N   -3.2053393119964566E+00    5.6082451384279892E+00    8.4474861579713352E+00
Ga   -3.2054008993800984E+00    5.6090563615105404E+00    1.0442956734663603E+01
N   -3.2017692402243063E+00    7.4815531368930248E+00    1.1041221205023003E+01
Ga   -3.2010245041815844E+00    7.4801205479766217E+00    1.3032428738528191E+01
N   -3.2060756100939902E+00    5.6156336427157676E+00    1.3649265485750943E+01
Ga   -3.2119348595738786E+00    5.6190693348968779E+00    1.5652383734545850E+01
N   -3.1997836533349551E+00    7.4863186901456444E+00    1.6292308143156990E+01
Ga   -3.2195430837487979E+00    7.5009026515687740E+00    1.8395776385279330E+01
N   -3.2277303743472783E+00    5.6211652801769505E+00    1.8695480247195292E+01
Ga    3.2822589615245832E+00   -1.7929800955603877E-03    3.2105985190388853E-01
N    3.2793229022728636E+00    1.8673608533947024E+00    6.0475965563919709E-01
Ga    3.3077829608594009E+00    1.8831692776865627E+00    2.6347900432512912E+00
N    3.2803645454110981E+00   -2.4366859314224011E-03    3.2264306382085799E+00
Ga    3.2808382878913829E+00   -1.1614946452882106E-03    5.2378785846186595E+00
N    3.2807794553161949E+00    1.8689845367358584E+00    5.8452378990031848E+00
Ga    3.2811936802865782E+00    1.8692067786854669E+00    7.8443627292132758E+00
N    3.2804440209977175E+00   -1.4377339453287609E-03    8.4479659060364778E+00
Ga    3.2816993201874030E+00    1.4725518868353559E-04    1.0443791128142760E+01
N    3.2837455906614554E+00    1.8711559638466211E+00    1.1050294230175147E+01
Ga    3.2806034442034040E+00    1.8720087350469186E+00    1.3047849842694898E+01
N    3.2746116410761479E+00   -2.9601638122436044E-03    1.3643988871027128E+01
Ga    3.2731419621739515E+00    2.7474185955081469E-03    1.5645012706759895E+01
N    3.2798351254239360E+00    1.8818828182364229E+00    1.6200940393581938E+01
Ga    3.2856402253186037E+00    1.8775831442760198E+00    1.8235357055928379E+01
N    3.2631129820055214E+00    2.4774249223928672E-02    1.8710136906688192E+01
Ga    1.6616572372486347E+00    2.8041146755975319E+00    3.2117788826398136E-01
N    1.6677204405125341E+00    4.6737792456433205E+00    6.0473770006370331E-01
Ga    1.6389681496846638E+00    4.6891193350812870E+00    2.6347633132317356E+00
N    1.6605898460532165E+00    2.8032665364878784E+00    3.2261264282874560E+00
Ga    1.6610529228200881E+00    2.8042532657942503E+00    5.2374571181185035E+00
N    1.6664208795206195E+00    4.6741672356942603E+00    5.8454068641438202E+00
Ga    1.6644639294232633E+00    4.6740422655543892E+00    7.8443560820152047E+00
N    1.6605573539484835E+00    2.8039133642012968E+00    8.4503145980554599E+00
Ga    1.6613760652085661E+00    2.8059128010955217E+00    1.0447099122465470E+01
N    1.6608409201885426E+00    4.6783221259837742E+00    1.1051282322745720E+01
Ga    1.6569856429768186E+00    4.6806845418330880E+00    1.3049530363520896E+01
N    1.6636427457062910E+00    2.8130916860211146E+00    1.3658000633658148E+01
Ga    1.6586018199583441E+00    2.8314297606209733E+00    1.5670150363699950E+01
N    1.6562711025832908E+00    4.6797681445076931E+00    1.6300581649764080E+01
Ga    1.6373224175927288E+00    4.6907392338629839E+00    1.8802336344357542E+01
N    1.6489644186214216E+00    2.7979925126037819E+00    1.8638403283077221E+01
Ga    4.2399977942767043E-02    5.6098590791511045E+00   -5.4864934512754260E-01
N    4.4820259371908949E-02    7.4837524144975482E+00    6.0537094979848427E-01
Ga    4.4193427190454770E-02    7.4518927069087821E+00    2.6353839810671746E+00
N    4.0919557631542397E-02    5.6084233492690378E+00    3.2671588928415125E+00
Ga    4.1467103713201961E-02    5.6096219822515758E+00    5.2571217657022657E+00
N    4.4142539875111811E-02    7.4841166728835402E+00    5.8448447617904131E+00
Ga    4.3188336900591498E-02    7.4821643469579433E+00    7.8435721776822280E+00
N    4.0282986915216756E-02    5.6089370456946330E+00    8.4435088173001578E+00
Ga    4.0900969130330880E-02    5.6107313828181837E+00    1.0439406532420456E+01
N    4.2350312051351008E-02    7.4791612156822778E+00    1.1049935699986039E+01
Ga    3.8527326479050515E-02    7.4760827429816494E+00    1.3047037104455935E+01
N    3.8759651409776968E-02    5.6101114794085500E+00    1.3678910449664816E+01
Ga    4.6947688849205395E-02    5.6096763850302391E+00    1.5700770603097927E+01
N    4.2504224760072477E-02    7.4995792126311596E+00    1.6224532948563667E+01
Ga    2.2973477133538981E-02    7.5123114793400507E+00    1.8269158573903940E+01
N   -1.2620922782360326E-02    5.6553363386588620E+00    1.8763833948429149E+01
Ga    6.5252256682318706E+00   -1.1299330723321128E-03    3.2048935104718601E-01
N    6.5332917177026770E+00    1.8678339845311580E+00    6.0498790783965195E-01
Ga    6.5045700520260299E+00    1.8829961058103624E+00    2.6348654120853974E+00
N    6.5260890590697853E+00   -2.2335256358114674E-03    3.2271483593328267E+00
Ga    6.5264298878294928E+00   -9.2574937654134662E-04    5.2385948056875069E+00
N    6.5316843518242020E+00    1.8687515988101393E+00    5.8471995455268253E+00
Ga    6.5303695241038824E+00    1.8688869888757105E+00    7.8473637625792589E+00
N    6.5255555848296787E+00   -3.2686301073971405E-03    8.4492381240062020E+00
Ga    6.5260554364749943E+00   -4.2686402921578498E-03    1.0445758876234931E+01
N    6.5287085265976232E+00    1.8707834099422216E+00    1.1035789039173464E+01
Ga    6.5268488620402110E+00    1.8715529220641618E+00    1.3025523258018145E+01
N    6.5240282555579538E+00   -2.5578074239284674E-04    1.3625788335955395E+01
Ga    6.5203630183536454E+00    8.1269303970172551E-03    1.5618166261568160E+01
N    6.5436082828054092E+00    1.8681869379322364E+00    1.6218298645260678E+01
Ga    6.5513899297077156E+00    1.8759626002718683E+00    1.8284122022424977E+01
N    6.5088844168115836E+00    5.4590073558725832E-03    1.8721986826846845E+01
Ga    4.9073009507723455E+00    2.8034929652656357E+00   -5.4916339703279893E-01
N    4.9097392978446353E+00    4.6786333818712924E+00    6.0498319939586154E-01
Ga    4.9090175770720217E+00    4.6463627324522809E+00    2.6349527220493525E+00
N    4.9064542102438402E+00    2.8028413452571117E+00    3.2672494878432787E+00
Ga    4.9069253226767424E+00    2.8037410297729517E+00    5.2575484411086464E+00
N    4.9090341257444674E+00    4.6786569241199683E+00    5.8446561966519850E+00
Ga    4.9083525676926856E+00    4.6769497637919857E+00    7.8435609762684955E+00
N    4.9052306700157553E+00    2.8043983123993024E+00    8.4448553769748873E+00
Ga    4.9047377397751992E+00    2.8062715757189611E+00    1.0441736119873582E+01
N    4.9085522423620507E+00    4.6768715488517021E+00    1.1051560924031010E+01
Ga    4.9058270818405401E+00    4.6802734789460558E+00    1.3049805776288483E+01
N    4.9101846553385746E+00    2.8042456052564755E+00    1.3639661647273206E+01
Ga    4.9155364653785751E+00    2.8057228829578076E+00    1.5637985934124840E+01
N    4.8973841657050148E+00    4.6838288838786548E+00    1.6210778930457430E+01
Ga    4.9004606747270776E+00    4.6831916316684463E+00    1.8248492309488316E+01
N    4.9096514715488047E+00    2.8088734362081116E+00    1.8639004677497599E+01
Ga    3.2876211187619777E+00    5.6078703640465042E+00    3.2087308698796324E-01
N    3.2866454390489341E+00    7.4791989960002159E+00    6.0368586816228542E-01
Ga    3.3130450548412691E+00    7.4941108428170606E+00    2.6366689895023678E+00
N    3.2863918529421179E+00    5.6086946796805552E+00    3.2263068914760700E+00
Ga    3.2866316083326135E+00    5.6096978537295490E+00    5.2375300747884950E+00
N    3.2870512550567357E+00    7.4794896436734604E+00    5.8455433602892501E+00
Ga    3.2873725602443287E+00    7.4789612689909069E+00    7.8446905350680307E+00
N    3.2860049938429525E+00    5.6084540265439324E+00    8.4496337290555452E+00
Ga    3.2857875894214583E+00    5.6094169711301971E+00    1.0446100361566346E+01
N    3.2914614459090075E+00    7.4803259305915031E+00    1.1050820989969909E+01
Ga    3.2909343263590576E+00    7.4750931651661112E+00    1.3047337995128837E+01
N    3.2793290769544980E+00    5.6049128455740931E+00    1.3664347913654158E+01
Ga    3.2626040858811542E+00    5.6049504043051126E+00    1.5678861171423039E+01
N    3.2788404204541837E+00    7.4945961909610608E+00    1.6210368100328736E+01
Ga    3.2663539424853112E+00    7.5070703020687022E+00    1.8253914042972347E+01
N    3.2812980434048824E+00    5.6299529780541251E+00    1.8670293871547287E+01
O    1.2448656497872839E+00    4.7491042924577975E+00    2.1059030864768093E+01
H    4.9431007209714090E-01    5.3440914511059274E+00    2.0828632942172757E+01
C    6.9520308954592180E-01    3.5486011659562049E+00    2.1666196584787343E+01
H   -1.9043125716180564E-01    3.1927959352948321E+00    2.1117257070076107E+01
H    1.4757097862083095E+00    2.7820560209568019E+00    2.1616469518756318E+01
H    4.3325877008566616E-01    3.7526066729407157E+00    2.2712761216483514E+01
     &END COORD
     &KIND C
       BASIS_SET DZVP-MOLOPT-SR-GTH-q4
       POTENTIAL GTH-PBE-q4
       &POTENTIAL
 2 2
  0.3384712400000000E+00 2 -0.8803673979999999E+01  0.1339210850000000E+01
 2
  0.3025757500000000E+00 1  0.9622486650000001E+01
  0.2915069400000000E+00 0
         # Potential name:  GTH-PBE-Q4  for symbol:  C
         # Potential read from the potential filename: GTH_POTENTIALS
       &END POTENTIAL
     &END KIND
     &KIND O
       BASIS_SET DZVP-MOLOPT-SR-GTH-q6
       POTENTIAL GTH-PBE-q6
       &POTENTIAL
 2 4
  0.2445543000000000E+00 2 -0.1666721480000000E+02  0.2487311320000000E+01
 2
  0.2209559200000000E+00 1  0.1833745811000000E+02
  0.2113324700000000E+00 0
         # Potential name:  GTH-PBE-Q6  for symbol:  O
         # Potential read from the potential filename: GTH_POTENTIALS
       &END POTENTIAL
     &END KIND
     &KIND H
       BASIS_SET DZVP-MOLOPT-SR-GTH-q1
       POTENTIAL GTH-PBE-q1
       &POTENTIAL
 1
  0.2000000000000000E+00 2 -0.4178900440000000E+01  0.7244633100000000E+00
 0
         # Potential name:  GTH-PBE-Q1  for symbol:  H
         # Potential read from the potential filename: GTH_POTENTIALS
       &END POTENTIAL
     &END KIND
     &KIND N
       BASIS_SET DZVP-MOLOPT-SR-GTH-q5
       POTENTIAL GTH-PBE-q5
       &POTENTIAL
 2 3
  0.2837905100000000E+00 2 -0.1241522559000000E+02  0.1868095920000000E+01
 2
  0.2554050000000000E+00 1  0.1363026257000000E+02
  0.2454945300000000E+00 0
         # Potential name:  GTH-PBE-Q5  for symbol:  N
         # Potential read from the potential filename: GTH_POTENTIALS
       &END POTENTIAL
     &END KIND
     &KIND Ga
       BASIS_SET DZVP-MOLOPT-SR-GTH-q13
       POTENTIAL GTH-PBE-q13
       &POTENTIAL
 2 1 10
  0.4900000000000000E+00 0
 3
  0.4167772300000000E+00 3  0.1047568975000000E+02 -0.4921768140000000E+01  0.8707055900000000E+00
  0.7770178090000000E+01 -0.2248152160000000E+01
  0.1784415450000000E+01
  0.5696265200000000E+00 2  0.1777985340000000E+01  0.1958597600000000E+00
 -0.2317443900000000E+00
  0.2381265000000000E+00 1 -0.1624868022000000E+02
         # Potential name:  GTH-PBE-Q13  for symbol:  GA
         # Potential read from the potential filename: GTH_POTENTIALS
       &END POTENTIAL
     &END KIND
     &TOPOLOGY
       NUMBER_OF_ATOMS  150
       MULTIPLE_UNIT_CELL  1 1 1
     &END TOPOLOGY
   &END SUBSYS
 &END FORCE_EVAL
