 # Version information for this restart file 
 # current date 2019-05-23 17:54:34.693
 # current working dir /lustre03/project/6004141/rzk/GaN-carbene/01-Methanol/03-both-ads
 # Program compiled at                              Sun Apr  7 00:48:11 EDT 2019
 # Program compiled on                          beluga2.int.ets1.calculquebec.ca
 # Program compiled for                        Beluga-Linux-x86-64-intel-openmpi
 # Source code revision number                                         svn:18619
 &GLOBAL
   PRINT_LEVEL  MEDIUM
   PROJECT_NAME TEST
   RUN_TYPE  GEO_OPT
 &END GLOBAL
 &MOTION
   &GEO_OPT
     MAX_ITER  500
     STEP_START_VAL  120
   &END GEO_OPT
 &END MOTION
 &FORCE_EVAL
   METHOD  QS
   STRESS_TENSOR  ANALYTICAL
   &DFT
     BASIS_SET_FILE_NAME BASIS_MOLOPT
     POTENTIAL_FILE_NAME GTH_POTENTIALS
     &SCF
       MAX_SCF  100
       EPS_SCF     5.0000000000000004E-06
       &OT  T
         PRECONDITIONER  FULL_ALL
       &END OT
       &OUTER_SCF  T
         OPTIMIZER  NONE
         EPS_SCF     5.0000000000000004E-06
         MAX_SCF  4
       &END OUTER_SCF
       &PRINT
         &RESTART  OFF
           BACKUP_COPIES  1
           &EACH
             JUST_ENERGY  0
             QS_SCF  0
             MD  20
           &END EACH
         &END RESTART
       &END PRINT
     &END SCF
     &QS
       EPS_DEFAULT     1.0000000000000000E-14
       ALMO_SCF  F
       METHOD  GPW
     &END QS
     &MGRID
       NGRIDS  5
       CUTOFF     1.2000000000000000E+03
     &END MGRID
     &XC
       DENSITY_CUTOFF     1.0000000000000000E-10
       GRADIENT_CUTOFF     1.0000000000000000E-10
       TAU_CUTOFF     1.0000000000000000E-10
       &XC_FUNCTIONAL  NO_SHORTCUT
         &PBE  T
         &END PBE
       &END XC_FUNCTIONAL
       &VDW_POTENTIAL
         POTENTIAL_TYPE  PAIR_POTENTIAL
         &PAIR_POTENTIAL
           R_CUTOFF     1.0000000000000005E+01
           TYPE  DFTD3
           PARAMETER_FILE_NAME dftd3.dat
           REFERENCE_FUNCTIONAL PBE
           EPS_CN     9.9999999999999995E-07
           CALCULATE_C9_TERM  T
           REFERENCE_C9_TERM  T
           LONG_RANGE_CORRECTION  F
           VERBOSE_OUTPUT  F
         &END PAIR_POTENTIAL
       &END VDW_POTENTIAL
     &END XC
   &END DFT
   &SUBSYS
     &CELL
       A     9.7367653356401487E+00    0.0000000000000000E+00    0.0000000000000000E+00
       B    -4.8591341382960209E+00    8.4162672083210595E+00    0.0000000000000000E+00
       C     0.0000000000000000E+00    0.0000000000000000E+00    3.0744000000000000E+01
       MULTIPLE_UNIT_CELL  1 1 1
       &CELL_REF
         A     9.5580000000000052E+00    0.0000000000000000E+00    0.0000000000000000E+00
         B    -4.7790000000000026E+00    8.2774708093716640E+00    0.0000000000000000E+00
         C     0.0000000000000000E+00    0.0000000000000000E+00    3.0744000000000000E+01
         MULTIPLE_UNIT_CELL  1 1 1
       &END CELL_REF
     &END CELL
     &COORD
Ga    3.4858152117528005E-02   -1.4672891686124776E-03   -5.2624451756903179E-01
N    3.8601178284994292E-02    1.8717522010091596E+00    6.0398252357248572E-01
Ga    3.7568933630025544E-02    1.8411654264952642E+00    2.6367346047597326E+00
N    3.4844273807038376E-02   -2.5254651199864918E-03    3.2673439152829369E+00
Ga    3.4971003430032815E-02   -1.4739038925433996E-03    5.2583118850128914E+00
N    3.8173535360461829E-02    1.8731119543835439E+00    5.8457836207775777E+00
Ga    3.7607949825959518E-02    1.8715702175128164E+00    7.8450567120260315E+00
N    3.4004747661402303E-02   -1.9201083056796101E-03    8.4450160405841075E+00
Ga    3.4206841756408320E-02   -7.8250294765251237E-04    1.0441357946254289E+01
N    3.9873343594919723E-02    1.8691240542135614E+00    1.1051379756567307E+01
Ga    4.4540328349605425E-02    1.8707927782309834E+00    1.3047961750368598E+01
N    4.0682340723278677E-02   -6.2256887945373674E-03    1.3645333647804931E+01
Ga    3.1023776488074969E-02    1.2586450971956444E-03    1.5647559685650380E+01
N    2.4191567616027636E-02    1.8779033766649573E+00    1.6187812298246520E+01
Ga    6.1759269162579298E-03    1.8866447674177260E+00    1.8217032905998195E+01
N    9.3619663135996543E-03    2.4285566621164791E-02    1.8678545600000682E+01
Ga   -1.5846462911057939E+00    2.8034394297657941E+00    3.2083706915229643E-01
N   -1.5853001388337700E+00    4.6729212097568338E+00    6.0492401789348538E-01
Ga   -1.5574078401896732E+00    4.6885039174486858E+00    2.6349375310073850E+00
N   -1.5846657594237181E+00    2.8029408890863601E+00    3.2270173724147106E+00
Ga   -1.5847466404049373E+00    2.8035948792565679E+00    5.2385305974155276E+00
N   -1.5842547233955619E+00    4.6740459240954557E+00    5.8449328234187155E+00
Ga   -1.5843999454004238E+00    4.6737768299390439E+00    7.8436673332684546E+00
N   -1.5839427347220054E+00    2.8040932198511559E+00    8.4498922222766755E+00
Ga   -1.5818829580975682E+00    2.8059444552302435E+00    1.0446388352897037E+01
N   -1.5811199377430907E+00    4.6794287557412124E+00    1.1048908961031756E+01
Ga   -1.5811647967827156E+00    4.6857434379702232E+00    1.3044784923858105E+01
N   -1.5866450838364645E+00    2.8078158646818534E+00    1.3621891448401877E+01
Ga   -1.5923437970801295E+00    2.8111431504361288E+00    1.5610943431876922E+01
N   -1.5946153063092978E+00    4.6724740172492893E+00    1.6228513047345480E+01
Ga   -1.6029922634962432E+00    4.6925520213533272E+00    1.8273075244587446E+01
N   -1.5797219112025376E+00    2.8294707061780908E+00    1.8743685818864989E+01
Ga   -3.2043500775601204E+00    5.6080971784570579E+00    3.2105001186235127E-01
N   -3.1985447020144377E+00    7.4796883337172861E+00    6.0353737090978177E-01
Ga   -3.2258299018499668E+00    7.4940290404164962E+00    2.6364359068895240E+00
N   -3.2043465156922273E+00    5.6086234997678233E+00    3.2265015895225586E+00
Ga   -3.2043076400730306E+00    5.6095058551714283E+00    5.2379179589131031E+00
N   -3.1989696282162794E+00    7.4796248060742876E+00    5.8456986594786642E+00
Ga   -3.2005739219313534E+00    7.4791546086695408E+00    7.8450562096710188E+00
N   -3.2054381870239794E+00    5.6080507200316028E+00    8.4476626968995596E+00
Ga   -3.2055201936987281E+00    5.6088856262544819E+00    1.0442968275945859E+01
N   -3.2018725081568511E+00    7.4813925655861686E+00    1.1041356622106777E+01
Ga   -3.2011016863218047E+00    7.4800136285382370E+00    1.3032365231901077E+01
N   -3.2060899233137690E+00    5.6154943930346750E+00    1.3649330027667988E+01
Ga   -3.2122976686641715E+00    5.6188908929449566E+00    1.5652290273494900E+01
N   -3.1999166616760788E+00    7.4862427735664223E+00    1.6291933903135682E+01
Ga   -3.2192763370222877E+00    7.5009439055715870E+00    1.8395375752144258E+01
N   -3.2276372013595096E+00    5.6212779323325481E+00    1.8695333278719819E+01
Ga    3.2825173577360509E+00   -2.0084376748792545E-03    3.2109942010888981E-01
N    3.2796959775874219E+00    1.8673585851303456E+00    6.0479405566434430E-01
Ga    3.3079803149781446E+00    1.8831013105565420E+00    2.6350095046501574E+00
N    3.2805454861569432E+00   -2.4606564621393232E-03    3.2266620112088580E+00
Ga    3.2809361738724134E+00   -1.3268306773324546E-03    5.2380804279506963E+00
N    3.2808758004431771E+00    1.8688426452717575E+00    5.8454616315250512E+00
Ga    3.2811475534743360E+00    1.8690151951765139E+00    7.8445367068204535E+00
N    3.2803872583195477E+00   -1.6563095753407166E-03    8.4481217564808873E+00
Ga    3.2816241151410135E+00   -3.1257099024575543E-05    1.0443779814270698E+01
N    3.2836852837889965E+00    1.8709389598876722E+00    1.1050381155677153E+01
Ga    3.2805678181636799E+00    1.8718686147101353E+00    1.3047703127665518E+01
N    3.2745587757363444E+00   -3.0818883946393577E-03    1.3644031614854958E+01
Ga    3.2731631288820004E+00    2.6591422769051414E-03    1.5644977123065184E+01
N    3.2799577972131302E+00    1.8818727679609457E+00    1.6201168217643360E+01
Ga    3.2860617619543362E+00    1.8776515441888801E+00    1.8235584048457106E+01
N    3.2629954925966524E+00    2.4911490311474827E-02    1.8710387911671969E+01
Ga    1.6617826621225815E+00    2.8041094004194500E+00    3.2120033104556739E-01
N    1.6681107556087649E+00    4.6736780758101846E+00    6.0497884237049893E-01
Ga    1.6392619546217853E+00    4.6890291685529961E+00    2.6347540585219607E+00
N    1.6608225691432215E+00    2.8031532315424434E+00    3.2263771588311680E+00
Ga    1.6611200528433412E+00    2.8041215125765948E+00    5.2376750426093288E+00
N    1.6665266740813036E+00    4.6740111113177374E+00    5.8456543760583584E+00
Ga    1.6644510271425399E+00    4.6738173021315372E+00    7.8445855016672450E+00
N    1.6605116609214263E+00    2.8036734539886878E+00    8.4505991503263438E+00
Ga    1.6613117432398052E+00    2.8057112460802274E+00    1.0447227964771523E+01
N    1.6607803621075825E+00    4.6781363878699986E+00    1.1051465254941933E+01
Ga    1.6569658322644383E+00    4.6806527453500104E+00    1.3049483831589656E+01
N    1.6636717042804574E+00    2.8130495540596070E+00    1.3658030766414589E+01
Ga    1.6587626245984806E+00    2.8313930586238993E+00    1.5669892736137824E+01
N    1.6563391990449969E+00    4.6795842271179247E+00    1.6300168093129511E+01
Ga    1.6376528017523722E+00    4.6910591359131129E+00    1.8802222189268061E+01
N    1.6490402641477508E+00    2.7984042896331327E+00    1.8637664417324128E+01
Ga    4.2695016961464917E-02    5.6098224837108157E+00   -5.4954486306546246E-01
N    4.5115686276921842E-02    7.4837850799571468E+00    6.0558845037743081E-01
Ga    4.4440356655731379E-02    7.4518812461740218E+00    2.6353741681763236E+00
N    4.1165732581868938E-02    5.6083588312870063E+00    3.2672440731634826E+00
Ga    4.1604159762470908E-02    5.6094822579646566E+00    5.2572363276073579E+00
N    4.4256343590284838E-02    7.4839836193425207E+00    5.8450626174023199E+00
Ga    4.3167375846580432E-02    7.4819805749972224E+00    7.8437391428931189E+00
N    4.0265545687044942E-02    5.6087308486707252E+00    8.4437726750140047E+00
Ga    4.0854145734870298E-02    5.6105467800937161E+00    1.0439465174248150E+01
N    4.2248669011853493E-02    7.4789833365462322E+00    1.1050111326318689E+01
Ga    3.8429494653799398E-02    7.4759257784518622E+00    1.3046999293067032E+01
N    3.8645526889723232E-02    5.6099606396961308E+00    1.3678987162323505E+01
Ga    4.7133342810285077E-02    5.6095662483676065E+00    1.5700671126730320E+01
N    4.2658956953512177E-02    7.4995667631907121E+00    1.6224739744816830E+01
Ga    2.2803604017335086E-02    7.5122721215413666E+00    1.8269360035378245E+01
N   -1.2317333351707658E-02    5.6554330202776812E+00    1.8763979264972388E+01
Ga    6.5255428617941229E+00   -1.3339919569057795E-03    3.2048221428353940E-01
N    6.5334630277242818E+00    1.8678198755254987E+00    6.0500194841887411E-01
Ga    6.5048239747004013E+00    1.8829405883111363E+00    2.6350956388580267E+00
N    6.5263581518473117E+00   -2.2432937515980919E-03    3.2273835364598060E+00
Ga    6.5265544636479946E+00   -1.0632035838750778E-03    5.2388056189226768E+00
N    6.5317480680799633E+00    1.8686453950985773E+00    5.8474196160262082E+00
Ga    6.5303051551831004E+00    1.8686987363226588E+00    7.8475023442729412E+00
N    6.5255115702480770E+00   -3.4302264207983391E-03    8.4495137102844655E+00
Ga    6.5259966434433458E+00   -4.4101701633395664E-03    1.0445913089988203E+01
N    6.5287090344523051E+00    1.8706332174820963E+00    1.1036021515667436E+01
Ga    6.5268402360645252E+00    1.8715513211564010E+00    1.3025612228042538E+01
N    6.5239501474915116E+00   -3.7980251879869855E-04    1.3625683330814937E+01
Ga    6.5203551733727680E+00    8.2923612649309572E-03    1.5617888834913474E+01
N    6.5433603866663184E+00    1.8684010823899806E+00    1.6217625847512334E+01
Ga    6.5518678575312821E+00    1.8760717005253227E+00    1.8283241319651399E+01
N    6.5089402809384413E+00    5.5413180565874673E-03    1.8721983981790313E+01
Ga    4.9075714266591604E+00    2.8034136538252539E+00   -5.4736633434165771E-01
N    4.9100133956432215E+00    4.6784679027153020E+00    6.0503080205011284E-01
Ga    4.9092460298196343E+00    4.6463477606394514E+00    2.6351876363999240E+00
N    4.9066655445027818E+00    2.8027857257630266E+00    3.2674145393784837E+00
Ga    4.9070078076219055E+00    2.8036213469481144E+00    5.2577181170626899E+00
N    4.9091026158250051E+00    4.6785041363664206E+00    5.8449152470952406E+00
Ga    4.9082717937856017E+00    4.6767380369602902E+00    7.8437621874144545E+00
N    4.9051780966815128E+00    2.8041909952935917E+00    8.4451407062758221E+00
Ga    4.9047053116396251E+00    2.8060622164489541E+00    1.0441870737132843E+01
N    4.9084799516240061E+00    4.6767141357682789E+00    1.1051657359792141E+01
Ga    4.9057065551119177E+00    4.6802716925944470E+00    1.3049699751279292E+01
N    4.9100797162363525E+00    2.8042240662364173E+00    1.3639454001037896E+01
Ga    4.9154344331726083E+00    2.8057298076246249E+00    1.5637493576534354E+01
N    4.8969682905411336E+00    4.6836513431799531E+00    1.6210569411367192E+01
Ga    4.9007504576427694E+00    4.6831498334755262E+00    1.8247858688471997E+01
N    4.9100404487333238E+00    2.8089618856423710E+00    1.8638863284224520E+01
Ga    3.2878048552452244E+00    5.6079176352215390E+00    3.2084934442804203E-01
N    3.2869303814831681E+00    7.4791506635084470E+00    6.0393867818175662E-01
Ga    3.3133095272238338E+00    7.4940733820274765E+00    2.6367490322759828E+00
N    3.2866746188036671E+00    5.6086602354798920E+00    3.2265632919921003E+00
Ga    3.2867063431272316E+00    5.6095929861411058E+00    5.2377609975733321E+00
N    3.2871355011951824E+00    7.4793547273488832E+00    5.8458257175259467E+00
Ga    3.2873150039364369E+00    7.4787586427784172E+00    7.8449022824463750E+00
N    3.2859500921884339E+00    5.6082618160294366E+00    8.4499359613981291E+00
Ga    3.2856996839025010E+00    5.6092537815738837E+00    1.0446253838082784E+01
N    3.2914072422761445E+00    7.4801797822168643E+00    1.1050915426530297E+01
Ga    3.2908761225603582E+00    7.4750559737635083E+00    1.3047211381617425E+01
N    3.2792589032573716E+00    5.6049439862126196E+00    1.3664314940853380E+01
Ga    3.2626280656283710E+00    5.6050239264573065E+00    1.5678590351933858E+01
N    3.2787549499150193E+00    7.4946845323895870E+00    1.6210157501701342E+01
Ga    3.2666526761987935E+00    7.5075604909921712E+00    1.8253592118234359E+01
N    3.2815314366601349E+00    5.6302909621544455E+00    1.8669661382610677E+01
O    1.2451487098407348E+00    4.7492846398537720E+00    2.1058906026562386E+01
H    4.9578334444022154E-01    5.3452482401131078E+00    2.0827294616766661E+01
C    6.9237937205093081E-01    3.5496252811768070E+00    2.1665468828519142E+01
H   -1.9324374821152529E-01    3.1952370525442459E+00    2.1115212285785418E+01
H    1.4718399501817774E+00    2.7815087909150824E+00    2.1617088435327066E+01
H    4.2923752048024466E-01    3.7544081867818568E+00    2.2711549235546258E+01
     &END COORD
     &KIND C
       BASIS_SET DZVP-MOLOPT-SR-GTH-q4
       POTENTIAL GTH-PBE-q4
       &POTENTIAL
 2 2
  0.3384712400000000E+00 2 -0.8803673979999999E+01  0.1339210850000000E+01
 2
  0.3025757500000000E+00 1  0.9622486650000001E+01
  0.2915069400000000E+00 0
         # Potential name:  GTH-PBE-Q4  for symbol:  C
         # Potential read from the potential filename: GTH_POTENTIALS
       &END POTENTIAL
     &END KIND
     &KIND O
       BASIS_SET DZVP-MOLOPT-SR-GTH-q6
       POTENTIAL GTH-PBE-q6
       &POTENTIAL
 2 4
  0.2445543000000000E+00 2 -0.1666721480000000E+02  0.2487311320000000E+01
 2
  0.2209559200000000E+00 1  0.1833745811000000E+02
  0.2113324700000000E+00 0
         # Potential name:  GTH-PBE-Q6  for symbol:  O
         # Potential read from the potential filename: GTH_POTENTIALS
       &END POTENTIAL
     &END KIND
     &KIND H
       BASIS_SET DZVP-MOLOPT-SR-GTH-q1
       POTENTIAL GTH-PBE-q1
       &POTENTIAL
 1
  0.2000000000000000E+00 2 -0.4178900440000000E+01  0.7244633100000000E+00
 0
         # Potential name:  GTH-PBE-Q1  for symbol:  H
         # Potential read from the potential filename: GTH_POTENTIALS
       &END POTENTIAL
     &END KIND
     &KIND N
       BASIS_SET DZVP-MOLOPT-SR-GTH-q5
       POTENTIAL GTH-PBE-q5
       &POTENTIAL
 2 3
  0.2837905100000000E+00 2 -0.1241522559000000E+02  0.1868095920000000E+01
 2
  0.2554050000000000E+00 1  0.1363026257000000E+02
  0.2454945300000000E+00 0
         # Potential name:  GTH-PBE-Q5  for symbol:  N
         # Potential read from the potential filename: GTH_POTENTIALS
       &END POTENTIAL
     &END KIND
     &KIND Ga
       BASIS_SET DZVP-MOLOPT-SR-GTH-q13
       POTENTIAL GTH-PBE-q13
       &POTENTIAL
 2 1 10
  0.4900000000000000E+00 0
 3
  0.4167772300000000E+00 3  0.1047568975000000E+02 -0.4921768140000000E+01  0.8707055900000000E+00
  0.7770178090000000E+01 -0.2248152160000000E+01
  0.1784415450000000E+01
  0.5696265200000000E+00 2  0.1777985340000000E+01  0.1958597600000000E+00
 -0.2317443900000000E+00
  0.2381265000000000E+00 1 -0.1624868022000000E+02
         # Potential name:  GTH-PBE-Q13  for symbol:  GA
         # Potential read from the potential filename: GTH_POTENTIALS
       &END POTENTIAL
     &END KIND
     &TOPOLOGY
       NUMBER_OF_ATOMS  150
       MULTIPLE_UNIT_CELL  1 1 1
     &END TOPOLOGY
   &END SUBSYS
 &END FORCE_EVAL
