 # Version information for this restart file 
 # current date 2019-05-23 17:55:25.554
 # current working dir /lustre03/project/6004141/rzk/GaN-carbene/01-Methanol/03-both-ads
 # Program compiled at                              Sun Apr  7 00:48:11 EDT 2019
 # Program compiled on                          beluga2.int.ets1.calculquebec.ca
 # Program compiled for                        Beluga-Linux-x86-64-intel-openmpi
 # Source code revision number                                         svn:18619
 &GLOBAL
   PRINT_LEVEL  MEDIUM
   PROJECT_NAME TEST
   RUN_TYPE  GEO_OPT
 &END GLOBAL
 &MOTION
   &GEO_OPT
     MAX_ITER  500
     STEP_START_VAL  121
   &END GEO_OPT
 &END MOTION
 &FORCE_EVAL
   METHOD  QS
   STRESS_TENSOR  ANALYTICAL
   &DFT
     BASIS_SET_FILE_NAME BASIS_MOLOPT
     POTENTIAL_FILE_NAME GTH_POTENTIALS
     &SCF
       MAX_SCF  100
       EPS_SCF     5.0000000000000004E-06
       &OT  T
         PRECONDITIONER  FULL_ALL
       &END OT
       &OUTER_SCF  T
         OPTIMIZER  NONE
         EPS_SCF     5.0000000000000004E-06
         MAX_SCF  4
       &END OUTER_SCF
       &PRINT
         &RESTART  OFF
           BACKUP_COPIES  1
           &EACH
             JUST_ENERGY  0
             QS_SCF  0
             MD  20
           &END EACH
         &END RESTART
       &END PRINT
     &END SCF
     &QS
       EPS_DEFAULT     1.0000000000000000E-14
       ALMO_SCF  F
       METHOD  GPW
     &END QS
     &MGRID
       NGRIDS  5
       CUTOFF     1.2000000000000000E+03
     &END MGRID
     &XC
       DENSITY_CUTOFF     1.0000000000000000E-10
       GRADIENT_CUTOFF     1.0000000000000000E-10
       TAU_CUTOFF     1.0000000000000000E-10
       &XC_FUNCTIONAL  NO_SHORTCUT
         &PBE  T
         &END PBE
       &END XC_FUNCTIONAL
       &VDW_POTENTIAL
         POTENTIAL_TYPE  PAIR_POTENTIAL
         &PAIR_POTENTIAL
           R_CUTOFF     1.0000000000000005E+01
           TYPE  DFTD3
           PARAMETER_FILE_NAME dftd3.dat
           REFERENCE_FUNCTIONAL PBE
           EPS_CN     9.9999999999999995E-07
           CALCULATE_C9_TERM  T
           REFERENCE_C9_TERM  T
           LONG_RANGE_CORRECTION  F
           VERBOSE_OUTPUT  F
         &END PAIR_POTENTIAL
       &END VDW_POTENTIAL
     &END XC
   &END DFT
   &SUBSYS
     &CELL
       A     9.7367653356401487E+00    0.0000000000000000E+00    0.0000000000000000E+00
       B    -4.8591341382960209E+00    8.4162672083210595E+00    0.0000000000000000E+00
       C     0.0000000000000000E+00    0.0000000000000000E+00    3.0744000000000000E+01
       MULTIPLE_UNIT_CELL  1 1 1
       &CELL_REF
         A     9.5580000000000052E+00    0.0000000000000000E+00    0.0000000000000000E+00
         B    -4.7790000000000026E+00    8.2774708093716640E+00    0.0000000000000000E+00
         C     0.0000000000000000E+00    0.0000000000000000E+00    3.0744000000000000E+01
         MULTIPLE_UNIT_CELL  1 1 1
       &END CELL_REF
     &END CELL
     &COORD
Ga    3.4955611233582463E-02   -1.8171444377632091E-03   -5.2498677812514416E-01
N    3.8615931083738661E-02    1.8715071933484455E+00    6.0357442041189568E-01
Ga    3.7532310811206206E-02    1.8410261826837291E+00    2.6364968169097089E+00
N    3.4784832216068845E-02   -2.6881738889539312E-03    3.2669811455282125E+00
Ga    3.4954596106618732E-02   -1.4253442470845605E-03    5.2580640350470880E+00
N    3.8166479089779486E-02    1.8731797764665725E+00    5.8454913276981468E+00
Ga    3.7688151353713097E-02    1.8718193725909347E+00    7.8448429373705153E+00
N    3.4123510642090307E-02   -1.6761424575157560E-03    8.4448322914131442E+00
Ga    3.4369452687071048E-02   -5.8563213321433387E-04    1.0441329934049785E+01
N    4.0023753779807242E-02    1.8693176442845476E+00    1.1051272523308805E+01
Ga    4.4467878244486475E-02    1.8708122285897855E+00    1.3048017692204763E+01
N    4.0730965816323295E-02   -6.1742862958613356E-03    1.3645655208821758E+01
Ga    3.1011138584245763E-02    1.6206746179969881E-03    1.5648046684162116E+01
N    2.3977995109700379E-02    1.8781605960679164E+00    1.6188606274296593E+01
Ga    5.6265636427808323E-03    1.8867856147899409E+00    1.8217970332617067E+01
N    8.9245715119256937E-03    2.4313075034490279E-02    1.8678494439947336E+01
Ga   -1.5846993591236278E+00    2.8031724869216612E+00    3.2072284605037432E-01
N   -1.5852815089543928E+00    4.6727133327536077E+00    6.0466217035622905E-01
Ga   -1.5573806980368912E+00    4.6883850167162446E+00    2.6348317928011218E+00
N   -1.5846879524387665E+00    2.8028364519204989E+00    3.2266540735769662E+00
Ga   -1.5847848421212916E+00    2.8036384830698218E+00    5.2382070626663104E+00
N   -1.5842986253788001E+00    4.6741191464200709E+00    5.8446799443764226E+00
Ga   -1.5843411871636413E+00    4.6740147629700832E+00    7.8434240958181602E+00
N   -1.5838397716864161E+00    2.8043799761611048E+00    8.4497189336166674E+00
Ga   -1.5817593254819093E+00    2.8061887239289454E+00    1.0446340999250303E+01
N   -1.5810291786084567E+00    4.6796599996182868E+00    1.1048816448130768E+01
Ga   -1.5812094190612291E+00    4.6857568301222150E+00    1.3044873409650179E+01
N   -1.5867141715135491E+00    2.8077815350436497E+00    1.3621905588626737E+01
Ga   -1.5923656393445620E+00    2.8115060097315112E+00    1.5611095109237224E+01
N   -1.5947192276742017E+00    4.6726303443930055E+00    1.6228290675664937E+01
Ga   -1.6036591008406704E+00    4.6927564827982202E+00    1.8272635071009219E+01
N   -1.5802996351327521E+00    2.8297716042209342E+00    1.8744115686994707E+01
Ga   -3.2044330614979071E+00    5.6078022743854454E+00    3.2096628889111112E-01
N   -3.1984634865681900E+00    7.4794063596978395E+00    6.0328872781075238E-01
Ga   -3.2258098952858139E+00    7.4938413805252511E+00    2.6362813284251359E+00
N   -3.2043403120626412E+00    5.6084481861274744E+00    3.2261823965452407E+00
Ga   -3.2043553206463424E+00    5.6095450248033778E+00    5.2376206085494106E+00
N   -3.1989852679776161E+00    7.4796929948500193E+00    5.8454430802623198E+00
Ga   -3.2004806097516667E+00    7.4794028572802347E+00    7.8448688689349666E+00
N   -3.2053304955932771E+00    5.6083144081334506E+00    8.4475049959244330E+00
Ga   -3.2053950208020034E+00    5.6091331804540658E+00    1.0442903922861078E+01
N   -3.2017118350703817E+00    7.4816033140925740E+00    1.1041340781378338E+01
Ga   -3.2010794285498072E+00    7.4801154734132691E+00    1.3032396644754758E+01
N   -3.2060490454876742E+00    5.6156367384742971E+00    1.3649439044245584E+01
Ga   -3.2120737123412462E+00    5.6191981554130823E+00    1.5652477484966278E+01
N   -3.2000670731064753E+00    7.4863366850194488E+00    1.6292165954425428E+01
Ga   -3.2196423098620515E+00    7.5012884430657527E+00    1.8395671746399088E+01
N   -3.2278752937397948E+00    5.6217653497333950E+00    1.8695785119695376E+01
Ga    3.2825269877029015E+00   -2.1537191417645859E-03    3.2100228968799810E-01
N    3.2795651140327085E+00    1.8670343819456596E+00    6.0467957055656951E-01
Ga    3.3079456784081516E+00    1.8829196575071661E+00    2.6347553973861495E+00
N    3.2805415260933408E+00   -2.6402945986750714E-03    3.2264203733649413E+00
Ga    3.2809139565664243E+00   -1.2388060772320409E-03    5.2378698990449459E+00
N    3.2808619810098065E+00    1.8689217672559015E+00    5.8452072333796901E+00
Ga    3.2812375849386726E+00    1.8692856584740785E+00    7.8443341379159639E+00
N    3.2804516835721014E+00   -1.3757607825033054E-03    8.4479739793263331E+00
Ga    3.2816973558423772E+00    2.7096105014784048E-04    1.0443748099358038E+01
N    3.2837766306865861E+00    1.8712441122228456E+00    1.1050323468650225E+01
Ga    3.2805248156298665E+00    1.8719851868881270E+00    1.3047835026443090E+01
N    3.2745563216807381E+00   -2.9626801512557155E-03    1.3644133287594538E+01
Ga    3.2728875290115780E+00    3.0675585675138152E-03    1.5645157149998051E+01
N    3.2795814657164910E+00    1.8823073757424331E+00    1.6201320612454879E+01
Ga    3.2857279331110978E+00    1.8778898169142726E+00    1.8235744549075427E+01
N    3.2628775378679418E+00    2.5185668605507448E-02    1.8710424114838176E+01
Ga    1.6618794448054397E+00    2.8038061950731725E+00    3.2108154880819106E-01
N    1.6680699138100679E+00    4.6734322837293218E+00    6.0468044008285726E-01
Ga    1.6391352439292060E+00    4.6889001192394826E+00    2.6346178103664157E+00
N    1.6607595911435051E+00    2.8030451354042678E+00    3.2260391411363001E+00
Ga    1.6611277826389255E+00    2.8041634491239806E+00    5.2373828928592738E+00
N    1.6665119294674506E+00    4.6741003573108975E+00    5.8453728970739007E+00
Ga    1.6644975610923085E+00    4.6740916634546128E+00    7.8443144044814055E+00
N    1.6605932595526094E+00    2.8039749946112562E+00    8.4502989787654386E+00
Ga    1.6614227866976663E+00    2.8059985815229016E+00    1.0447038079651685E+01
N    1.6608744942839482E+00    4.6784011350842629E+00    1.1051315148627163E+01
Ga    1.6569579706522166E+00    4.6807459588848461E+00    1.3049522100881926E+01
N    1.6635363825657417E+00    2.8131220557716392E+00    1.3658136497965570E+01
Ga    1.6584549068074104E+00    2.8316199947142535E+00    1.5670182166829978E+01
N    1.6561670738547354E+00    4.6798957881416543E+00    1.6301044461691344E+01
Ga    1.6370293081249161E+00    4.6910374076998407E+00    1.8802740775805379E+01
N    1.6488180898766314E+00    2.7981702758786220E+00    1.8638872935139407E+01
Ga    4.2723997998582876E-02    5.6096040310386517E+00   -5.4877345954259726E-01
N    4.5106089666907184E-02    7.4835526422345646E+00    6.0540469641855355E-01
Ga    4.4401241982249845E-02    7.4516842800246907E+00    2.6353229550244359E+00
N    4.1114325706017793E-02    5.6082205386629624E+00    3.2671325062060053E+00
Ga    4.1560403417534343E-02    5.6095601729054687E+00    5.2570788635275125E+00
N    4.4224772044366346E-02    7.4840792978979058E+00    5.8448430183785360E+00
Ga    4.3205576302480980E-02    7.4822328007648684E+00    7.8435714139709418E+00
N    4.0290964098958208E-02    5.6089813802513708E+00    8.4434879716627176E+00
Ga    4.0918848543907975E-02    5.6107632428365175E+00    1.0439320952905558E+01
N    4.2355480558066365E-02    7.4792273541194421E+00    1.1049885715240048E+01
Ga    3.8443163158690681E-02    7.4761397466224988E+00    1.3046795803710497E+01
N    3.8685967390928153E-02    5.6101867639571878E+00    1.3678875722319532E+01
Ga    4.6930868095093260E-02    5.6099320079266803E+00    1.5700654231946508E+01
N    4.2330956627369312E-02    7.4999110243533202E+00    1.6224643192486482E+01
Ga    2.2584670433673792E-02    7.5128611887911321E+00    1.8269246616802459E+01
N   -1.2838973959816837E-02    5.6559171611896888E+00    1.8763511638894617E+01
Ga    6.5255551613766185E+00   -1.4907345482168509E-03    3.2041609770616158E-01
N    6.5336139943013345E+00    1.8675101719477416E+00    6.0483224161608418E-01
Ga    6.5047857820771817E+00    1.8827793072697978E+00    2.6347519762568754E+00
N    6.5262887802430329E+00   -2.4045378170610776E-03    3.2271009952012606E+00
Ga    6.5265263447682766E+00   -9.6189286484688464E-04    5.2385534483945042E+00
N    6.5317610197639366E+00    1.8687248463379695E+00    5.8471679204797535E+00
Ga    6.5303992655812095E+00    1.8689577773121520E+00    7.8473354264833386E+00
N    6.5255917899909512E+00   -3.1986781968601080E-03    8.4492529278631121E+00
Ga    6.5261241334955180E+00   -4.2060386519897847E-03    1.0445721411470295E+01
N    6.5287805342533272E+00    1.8707967765410107E+00    1.1035910687001088E+01
Ga    6.5268099613232593E+00    1.8715706079004166E+00    1.3025568340590926E+01
N    6.5239722762242369E+00   -3.2110546630561036E-04    1.3625707382537277E+01
Ga    6.5202244494880714E+00    8.5417696190913262E-03    1.5618069847956884E+01
N    6.5433225687944461E+00    1.8684719066235618E+00    1.6217979225929056E+01
Ga    6.5514622805135234E+00    1.8761414694200820E+00    1.8283566564620209E+01
N    6.5086613237546116E+00    5.8351886098761234E-03    1.8722206867586589E+01
Ga    4.9075421529202252E+00    2.8031728383471144E+00   -5.4898746116070440E-01
N    4.9100182866169915E+00    4.6783527407278322E+00    6.0487217745929034E-01
Ga    4.9092170867319140E+00    4.6461698816038925E+00    2.6348899621836841E+00
N    4.9066459201582528E+00    2.8026343952464980E+00    3.2671057871046330E+00
Ga    4.9070166914164908E+00    2.8036703179033693E+00    5.2574423373565766E+00
N    4.9090931018771755E+00    4.6786015599047124E+00    5.8446320251509620E+00
Ga    4.9083710755050483E+00    4.6770057541188805E+00    7.8435271033338374E+00
N    4.9052787305201671E+00    2.8044804874284179E+00    8.4449399306111186E+00
Ga    4.9048085680052420E+00    2.8063741051949447E+00    1.0441808254167951E+01
N    4.9086153552974299E+00    4.6769770759593499E+00    1.1051638303196773E+01
Ga    4.9057863778053017E+00    4.6803496731177736E+00    1.3049843587283634E+01
N    4.9100462829784215E+00    2.8042799994862944E+00    1.3639651349381085E+01
Ga    4.9153188550352134E+00    2.8059409832443900E+00    1.5637969784332295E+01
N    4.8971690874789005E+00    4.6839939218371818E+00    1.6211205115792747E+01
Ga    4.9006324786107500E+00    4.6834646930920165E+00    1.8248945191229339E+01
N    4.9097431655467041E+00    2.8091867014149172E+00    1.8638941269402739E+01
Ga    3.2878814202836693E+00    5.6075902811364253E+00    3.2078915285528242E-01
N    3.2868898050243551E+00    7.4788480540710109E+00    6.0361549780553392E-01
Ga    3.3132129518612410E+00    7.4938770175083800E+00    2.6365252589000869E+00
N    3.2865827100355718E+00    5.6084862679454099E+00    3.2262143120299656E+00
Ga    3.2867093337540489E+00    5.6096320046630774E+00    5.2374334816372556E+00
N    3.2871276540533207E+00    7.4794314287851114E+00    5.8455302897512142E+00
Ga    3.2874120448396931E+00    7.4789960179405472E+00    7.8446734922155592E+00
N    3.2860286550104263E+00    5.6084928581387627E+00    8.4496725734923999E+00
Ga    3.2858392734819328E+00    5.6094737978819156E+00    1.0446082509232861E+01
N    3.2915007133897891E+00    7.4803632134863882E+00    1.1050874129081366E+01
Ga    3.2908853836445990E+00    7.4751275092589884E+00    1.3047284500461634E+01
N    3.2793097127460356E+00    5.6049987482857011E+00    1.3664512187219271E+01
Ga    3.2625488382064534E+00    5.6052155912609445E+00    1.5679014271916897E+01
N    3.2786716914163927E+00    7.4949462389102735E+00    1.6210447791205819E+01
Ga    3.2661950308923675E+00    7.5076548082386676E+00    1.8253950559173070E+01
N    3.2811559220808046E+00    5.6304129234431244E+00    1.8670002343671658E+01
O    1.2448947895692670E+00    4.7489780985140184E+00    2.1058802032636130E+01
H    4.9448152775481280E-01    5.3444398854046495E+00    2.0828997071453607E+01
C    6.9493312529379547E-01    3.5484545409188981E+00    2.1665804161781381E+01
H   -1.9084883222560040E-01    3.1929650098329203E+00    2.1117026161974607E+01
H    1.4752161464687954E+00    2.7816675492215688E+00    2.1615895238185939E+01
H    4.3313996894911394E-01    3.7525262858012969E+00    2.2712434825514904E+01
     &END COORD
     &KIND C
       BASIS_SET DZVP-MOLOPT-SR-GTH-q4
       POTENTIAL GTH-PBE-q4
       &POTENTIAL
 2 2
  0.3384712400000000E+00 2 -0.8803673979999999E+01  0.1339210850000000E+01
 2
  0.3025757500000000E+00 1  0.9622486650000001E+01
  0.2915069400000000E+00 0
         # Potential name:  GTH-PBE-Q4  for symbol:  C
         # Potential read from the potential filename: GTH_POTENTIALS
       &END POTENTIAL
     &END KIND
     &KIND O
       BASIS_SET DZVP-MOLOPT-SR-GTH-q6
       POTENTIAL GTH-PBE-q6
       &POTENTIAL
 2 4
  0.2445543000000000E+00 2 -0.1666721480000000E+02  0.2487311320000000E+01
 2
  0.2209559200000000E+00 1  0.1833745811000000E+02
  0.2113324700000000E+00 0
         # Potential name:  GTH-PBE-Q6  for symbol:  O
         # Potential read from the potential filename: GTH_POTENTIALS
       &END POTENTIAL
     &END KIND
     &KIND H
       BASIS_SET DZVP-MOLOPT-SR-GTH-q1
       POTENTIAL GTH-PBE-q1
       &POTENTIAL
 1
  0.2000000000000000E+00 2 -0.4178900440000000E+01  0.7244633100000000E+00
 0
         # Potential name:  GTH-PBE-Q1  for symbol:  H
         # Potential read from the potential filename: GTH_POTENTIALS
       &END POTENTIAL
     &END KIND
     &KIND N
       BASIS_SET DZVP-MOLOPT-SR-GTH-q5
       POTENTIAL GTH-PBE-q5
       &POTENTIAL
 2 3
  0.2837905100000000E+00 2 -0.1241522559000000E+02  0.1868095920000000E+01
 2
  0.2554050000000000E+00 1  0.1363026257000000E+02
  0.2454945300000000E+00 0
         # Potential name:  GTH-PBE-Q5  for symbol:  N
         # Potential read from the potential filename: GTH_POTENTIALS
       &END POTENTIAL
     &END KIND
     &KIND Ga
       BASIS_SET DZVP-MOLOPT-SR-GTH-q13
       POTENTIAL GTH-PBE-q13
       &POTENTIAL
 2 1 10
  0.4900000000000000E+00 0
 3
  0.4167772300000000E+00 3  0.1047568975000000E+02 -0.4921768140000000E+01  0.8707055900000000E+00
  0.7770178090000000E+01 -0.2248152160000000E+01
  0.1784415450000000E+01
  0.5696265200000000E+00 2  0.1777985340000000E+01  0.1958597600000000E+00
 -0.2317443900000000E+00
  0.2381265000000000E+00 1 -0.1624868022000000E+02
         # Potential name:  GTH-PBE-Q13  for symbol:  GA
         # Potential read from the potential filename: GTH_POTENTIALS
       &END POTENTIAL
     &END KIND
     &TOPOLOGY
       NUMBER_OF_ATOMS  150
       MULTIPLE_UNIT_CELL  1 1 1
     &END TOPOLOGY
   &END SUBSYS
 &END FORCE_EVAL
