 # Version information for this restart file 
 # current date 2019-05-25 04:55:27.575
 # current working dir /lustre03/project/6004141/rzk/GaN-carbene/00-Surface/00-Preoptimization/443-capped
 # Program compiled at                              Sun Apr  7 00:48:11 EDT 2019
 # Program compiled on                          beluga2.int.ets1.calculquebec.ca
 # Program compiled for                        Beluga-Linux-x86-64-intel-openmpi
 # Source code revision number                                         svn:18619
 &GLOBAL
   PRINT_LEVEL  MEDIUM
   PROJECT_NAME TEST
   RUN_TYPE  GEO_OPT
 &END GLOBAL
 &MOTION
   &GEO_OPT
     MAX_ITER 500
   &END GEO_OPT
 &END MOTION
 &FORCE_EVAL
   METHOD  QS
   STRESS_TENSOR  ANALYTICAL
   &DFT
     UKS  T
     SURFACE_DIPOLE_CORRECTION  TRUE
     SURF_DIP_DIR               Z
     BASIS_SET_FILE_NAME BASIS_MOLOPT
     POTENTIAL_FILE_NAME GTH_POTENTIALS
     &SCF
       MAX_SCF  80
       EPS_SCF     5.0000000000000004E-06
       &OT  T
         PRECONDITIONER  FULL_ALL
       &END OT
       &OUTER_SCF  T
         OPTIMIZER  NONE
         EPS_SCF     5.0000000000000004E-06
         MAX_SCF  4
       &END OUTER_SCF
       &PRINT
         &RESTART  OFF
           BACKUP_COPIES  1
           &EACH
             JUST_ENERGY  0
             QS_SCF  0
             MD  20
           &END EACH
         &END RESTART
       &END PRINT
     &END SCF
     &QS
       EPS_DEFAULT     1.0000000000000000E-14
       METHOD  GPW
     &END QS
     &MGRID
       NGRIDS  5
       CUTOFF     1.2000000000000000E+03
     &END MGRID
     &XC
       DENSITY_CUTOFF     1.0000000000000000E-10
       GRADIENT_CUTOFF     1.0000000000000000E-10
       TAU_CUTOFF     1.0000000000000000E-10
       &XC_FUNCTIONAL  NO_SHORTCUT
         &PBE  T
         &END PBE
       &END XC_FUNCTIONAL
       &VDW_POTENTIAL
         POTENTIAL_TYPE  PAIR_POTENTIAL
         &PAIR_POTENTIAL
           R_CUTOFF     1.0000000000000002E+01
           TYPE  DFTD3
           PARAMETER_FILE_NAME dftd3.dat
           REFERENCE_FUNCTIONAL PBE
           EPS_CN     9.9999999999999995E-07
           CALCULATE_C9_TERM  T
           REFERENCE_C9_TERM  T
           LONG_RANGE_CORRECTION  F
           VERBOSE_OUTPUT  F
         &END PAIR_POTENTIAL
       &END VDW_POTENTIAL
     &END XC
   &END DFT
   &SUBSYS
     &CELL
       A     1.2864472766435110E+01    0.0000000000000000E+00    0.0000000000000000E+00
       B    -6.4322363581020028E+00    1.1140960178524471E+01    0.0000000000000000E+00
       #A     1.2982353780853531E+01    0.0000000000000000E+00    0.0000000000000000E+00
       #B    -6.4911768904267628E+00    1.1243048175136114E+01    0.0000000000000000E+00
       C     0.0000000000000000E+00    0.0000000000000000E+00    3.2000000000000000E+01
       MULTIPLE_UNIT_CELL  1 1 1
       &CELL_REF
         A     1.2982353780853531E+01    0.0000000000000000E+00    0.0000000000000000E+00
         B    -6.4911768904267628E+00    1.1243048175136114E+01    0.0000000000000000E+00
         C     0.0000000000000000E+00    0.0000000000000000E+00    3.2000000000000000E+01
         MULTIPLE_UNIT_CELL  1 1 1
       &END CELL_REF
     &END CELL
     &COORD
 N                  0.07531905    1.99127437    2.50099955
 Ga                 0.05225628    0.00722175    2.82426568
 N                  0.08333721   -0.01738872    5.01246830
 Ga                 0.07747303    1.80087781    5.79981378
 N                  0.07740421    1.82236095    7.79967847
 Ga                 0.07298569   -0.02515145    8.43950232
 N                  0.07619300   -0.02466668   10.41705320
 Ga                 0.07809764    1.81341410   11.07102496
 N                  0.07768377    1.79521804   13.06590721
 Ga                 0.07708259   -0.02467416   13.86706814
 N                  0.07629881   -0.02309369   16.07095307
 Ga                 0.07644545    2.02061137   16.48100015
 Ga                 0.06594690    3.72014880    1.39536995
 N                 -1.40252199    4.55755198    2.53946433
 Ga                -1.59477086    2.73710106    3.30339375
 N                 -1.54035754    2.75733865    5.25726891
 Ga                -1.56024908    4.62764044    5.84155319
 N                 -1.53614390    4.61940868    7.82680843
 Ga                -1.52238893    2.75950987    8.44647129
 N                 -1.51921869    2.76545418   10.43921027
 Ga                -1.54819466    4.62491068   11.07408476
 N                 -1.56337558    4.63571052   13.06876996
 Ga                -1.52010476    2.76598800   13.62123973
 N                 -1.54623790    2.74999333   15.58425675
 Ga                -1.37509623    4.52689792   16.48008237
 N                  0.07636335    3.69739846   17.61352094
 N                 -3.12418687    7.52787086    2.56305235
 Ga                -3.11278455    5.51962678    2.92583596
 N                 -3.11015691    5.56285753    5.08196595
 Ga                -3.14508636    7.37149303    5.83785824
 N                 -3.13892187    7.39698312    7.82308761
 Ga                -3.14733566    5.54224441    8.44720447
 N                 -3.14090695    5.54501183   10.42317541
 Ga                -3.14469768    7.38463183   11.07180823
 N                 -3.14091955    7.36616072   13.06658218
 Ga                -3.14085639    5.54606300   13.86707790
 N                 -3.14024199    5.54741774   16.07113400
 Ga                -3.14021851    7.59140589   16.48113585
 Ga                -3.13329597    9.23979075    1.53849602
 N                 -4.64495816   10.12841538    2.51535972
 Ga                -4.86285878    8.26989801    3.29304876
 N                 -4.74466514    8.32975112    5.25338741
 Ga                -4.78032139   10.20326630    5.80165283
 N                 -4.75799700   10.19411903    7.79861045
 Ga                -4.74959239    8.33439218    8.43136315
 N                 -4.74007466    8.33784591   10.42885750
 Ga                -4.76436734   10.19598725   11.06903934
 N                 -4.77918530   10.20592289   13.06498516
 Ga                -4.73770234    8.33691548   13.62096201
 N                 -4.76299808    8.32128771   15.58395610
 Ga                -4.59166804   10.09796771   16.48033137
 N                 -3.14066839    9.26886278   17.61465934
 N                  3.28663645    1.84517496    2.59716998
 Ga                 3.26778364    0.08412005    3.29188856
 N                  3.29361937   -0.02490678    5.25496641
 Ga                 3.29828660    1.84265404    5.86311810
 N                  3.29821231    1.83364719    7.84112806
 Ga                 3.28754206   -0.03145152    8.44527631
 N                  3.29106829   -0.03471124   10.43776424
 Ga                 3.29499809    1.83484053   11.02844379
 N                  3.29387227    1.83304383   13.00090146
 Ga                 3.29221671   -0.03689726   13.62203344
 N                  3.29182466   -0.00528991   15.58605059
 Ga                 3.29332018    1.83284696   15.86291290
 N                  1.55542995    4.56384908    2.55114420
 Ga                 1.76799927    2.73231561    3.28762765
 N                  1.68813093    2.76179750    5.25902037
 Ga                 1.71117568    4.62209251    5.83422608
 N                  1.69561638    4.62246433    7.81815339
 Ga                 1.67816821    2.76102948    8.44012538
 N                  1.67540801    2.76553255   10.43402138
 Ga                 1.70533477    4.62480904   11.07157303
 N                  1.71887731    4.63551308   13.06673349
 Ga                 1.67439506    2.76651930   13.62213687
 N                  1.69984047    2.75005311   15.58484880
 Ga                 1.52805048    4.52690515   16.48055507
 N                  0.08348927    7.39615134    2.73398644
 Ga                 0.06391422    5.55558711    3.36976972
 N                  0.07875917    5.55994125    5.30199495
 Ga                 0.08595635    7.40483809    5.93407794
 N                  0.07868716    7.40512911    7.88979786
 Ga                 0.07920943    5.53131755    8.46307073
 N                  0.07872589    5.53340442   10.45013040
 Ga                 0.07909965    7.40368371   11.03877341
 N                  0.07762762    7.40316168   13.00905785
 Ga                 0.07783257    5.53134149   13.62306595
 N                  0.07689766    5.56456505   15.58700391
 Ga                 0.07698819    7.40318307   15.86123732
 N                 -1.64071914   10.10678138    2.55694021
 Ga                -1.49282629    8.30508360    3.37596530
 N                 -1.51874483    8.32371590    5.29768910
 Ga                -1.50961117   10.20497287    5.84402257
 N                 -1.52764202   10.19051449    7.82793016
 Ga                -1.54510823    8.33801022    8.46753582
 N                 -1.54232707    8.33767830   10.45296378
 Ga                -1.51649191   10.20057909   11.07506101
 N                 -1.49951915   10.20769317   13.06922560
 Ga                -1.54410306    8.33789889   13.62264164
 N                 -1.51696528    8.32082195   15.58565731
 Ga                -1.68874922   10.09801190   16.48029528
 N                  6.55643480    1.81618626    2.54029408
 Ga                 6.54656728   -0.05297764    2.92859777
 N                  6.50386727   -0.05796542    5.09455323
 Ga                 6.52128501    1.79830245    5.79620437
 N                  6.50705992    1.82143111    7.79685546
 Ga                 6.51212070   -0.02180732    8.44946819
 N                  6.51050866   -0.02386466   10.42437814
 Ga                 6.51037451    1.81846120   11.06593322
 N                  6.50922084    1.79665493   13.06227716
 Ga                 6.50957224   -0.02239139   13.86786422
 N                  6.50901459   -0.02235136   16.07134713
 Ga                 6.50888577    2.02233612   16.48185131
 N                  4.87408880    4.85210268    2.31515214
 Ga                 4.93551249    2.41769099    3.23437630
 N                  4.90855332    2.75517479    5.18746861
 Ga                 4.90129054    4.62780184    5.74962250
 N                  4.89596248    4.61964901    7.76266722
 Ga                 4.91347503    2.77013098    8.43001341
 N                  4.91202601    2.76927880   10.42712734
 Ga                 4.88961012    4.62658950   11.06761875
 N                  4.87072526    4.63558117   13.06328084
 Ga                 4.91333680    2.76700793   13.62083794
 N                  4.88599334    2.75043604   15.58315053
 Ga                 5.05843671    4.52677154   16.48069625
 N                  6.50861996    3.69850592   17.61487616
 N                  3.26618647    7.54542420    2.54505399
 N                  3.27937309    5.55140168    5.05266041
 Ga                 3.30287058    7.38628848    5.81230717
 N                  3.29363954    7.39308998    7.80282120
 Ga                 3.30547081    5.54286781    8.43856880
 N                  3.29759827    5.54528014   10.41559299
 Ga                 3.30025517    7.38494250   11.06801744
 N                  3.29530975    7.36570061   13.06353593
 Ga                 3.29519403    5.54626180   13.86698817
 N                  3.29340946    5.54769938   16.07103488
 Ga                 3.29332449    7.59243859   16.48225140
 Ga                 3.30277775    9.25419966    1.26523330
 N                  1.78427066   10.12530569    2.51906098
 Ga                 1.67505568    8.35657348    3.32481034
 N                  1.67296523    8.32632155    5.27127691
 Ga                 1.66885034   10.20687715    5.82447553
 N                  1.68429025   10.19143366    7.81604637
 Ga                 1.70353271    8.33903957    8.45933718
 N                  1.69906625    8.33779235   10.44688590
 Ga                 1.67260432   10.19968974   11.07407361
 N                  1.65393206   10.20705276   13.06840465
 Ga                 1.69898952    8.33752215   13.62241712
 N                  1.67064760    8.32073268   15.58488520
 Ga                 1.84239842   10.09755717   16.48096012
 N                  3.29343424    9.26908875   17.61548839
 N                  9.69376471    1.87663026    2.58674616
 Ga                 9.71341757    0.05560791    3.24402791
 N                  9.72100651   -0.00940533    5.21940037
 Ga                 9.71376913    1.83544439    5.87070256
 N                  9.72480083    1.83147584    7.84997294
 Ga                 9.73267078   -0.03341126    8.44222285
 N                  9.72822844   -0.03614445   10.43641399
 Ga                 9.72387301    1.83402337   11.02697904
 N                  9.72446895    1.83281516   13.00035453
 Ga                 9.72649853   -0.03694189   13.62157316
 N                  9.72581599   -0.00526119   15.58552825
 Ga                 9.72470201    1.83287701   15.86246657
 N                  8.15446559    4.56339929    2.51228382
 Ga                 8.06079466    2.78654150    3.25623790
 N                  8.12130180    2.75624486    5.24426178
 Ga                 8.13519096    4.63553606    5.76253303
 N                  8.12344080    4.62643140    7.77982153
 Ga                 8.10641138    2.77184540    8.42621427
 N                  8.10680186    2.76864451   10.42649816
 Ga                 8.12872956    4.62586432   11.06648310
 N                  8.14757330    4.63582936   13.06310722
 Ga                 8.10525625    2.76740848   13.62043233
 N                  8.13185983    2.75059501   15.58310245
 Ga                 7.95881649    4.52660917   16.48085007
 N                  6.50361836    7.40917191    2.58627471
 Ga                 6.66005893    5.60263883    3.09112738
 N                  6.50894117    5.53258869    5.13499584
 Ga                 6.49877415    7.37368494    5.82032422
 N                  6.50783167    7.39437565    7.81549310
 Ga                 6.50894635    5.53335460    8.42095575
 N                  6.50803900    5.53424838   10.42187460
 Ga                 6.50788238    7.40211083   11.02268235
 N                  6.50861321    7.40234347   12.99668705
 Ga                 6.50939110    5.53338611   13.62075404
 N                  6.50893993    5.56531412   15.58435881
 Ga                 6.50894399    7.40281161   15.86340866
 N                  4.79517635   10.14657383    2.50781318
 Ga                 4.97640607    8.28849401    3.24198028
 N                  4.89997834    8.33331716    5.22919980
 Ga                 4.92623392   10.20707794    5.77105487
 N                  4.90956986   10.19554034    7.78113221
 Ga                 4.90038857    8.33765178    8.42056844
 N                  4.89342596    8.33867369   10.42145105
 Ga                 4.91768779   10.19500426   11.06863900
 N                  4.93338250   10.20543055   13.06458593
 Ga                 4.89104343    8.33688463   13.62141243
 N                  4.91636872    8.32099181   15.58386606
 Ga                 4.74347552   10.09732350   16.48118620
 O                 -0.00582879    4.09175187   -0.40888655
 C                  1.06504463    3.60185131   -1.23362779
 H                  2.04477894    4.00003592   -0.91986738
 H                  1.11859432    2.50233155   -1.22159405
 H                  0.87203817    3.92826906   -2.26576680
 Ga                 3.13721988    5.64099922    2.99632783
 H                  0.04758806    7.34231222    1.69733990
 Ga                 9.20075625    2.46665096    0.67363326
 C                  4.92540138    4.34390811    1.13163359
 H                  5.88758600    4.04749041    0.69009495
 H                  4.01505360    4.16123457    0.54316003
     &END COORD

     &KIND C
       BASIS_SET DZVP-MOLOPT-SR-GTH-q4
       POTENTIAL GTH-PBE-q4
     &END KIND

     &KIND O
       BASIS_SET DZVP-MOLOPT-SR-GTH-q6
       POTENTIAL GTH-PBE-q6
     &END KIND

     &KIND H
       BASIS_SET DZVP-MOLOPT-SR-GTH-q1
       POTENTIAL GTH-PBE-q1
     &END KIND

     &KIND N
       BASIS_SET DZVP-MOLOPT-SR-GTH
       POTENTIAL GTH-PBE-q5
     &END KIND

     &KIND Ga
       BASIS_SET DZVP-MOLOPT-SR-GTH
       POTENTIAL GTH-PBE-q13
     &END KIND

     &TOPOLOGY
       MULTIPLE_UNIT_CELL  1 1 1
     &END TOPOLOGY
   &END SUBSYS
 &END FORCE_EVAL
