 # Version information for this restart file 
 # current date 2019-07-22 10:42:18.914
 # current working dir /lustre04/scratch/rzk/rzk/GaN-carbene/443-adatoms-both-2x2/12-CH3O-H2C-H/03-SameAs1202-Start-Final-1102
 # Program compiled at                              Sun Apr  7 00:48:11 EDT 2019
 # Program compiled on                          beluga2.int.ets1.calculquebec.ca
 # Program compiled for                        Beluga-Linux-x86-64-intel-openmpi
 # Source code revision number                                         svn:18619
 &GLOBAL
   PRINT_LEVEL  MEDIUM
   PROJECT_NAME TEST
   RUN_TYPE  GEO_OPT
 &END GLOBAL
 &MOTION
   &GEO_OPT
     MAX_ITER  500
     STEP_START_VAL  35
   &END GEO_OPT
 &END MOTION
 &FORCE_EVAL
   METHOD  QS
   STRESS_TENSOR  ANALYTICAL
   &DFT
     BASIS_SET_FILE_NAME BASIS_MOLOPT
     POTENTIAL_FILE_NAME GTH_POTENTIALS
     UKS  T
     SURFACE_DIPOLE_CORRECTION  T
     SURF_DIP_DIR  Z
     &SCF
       MAX_SCF  80
       EPS_SCF     5.0000000000000004E-06
       &OT  T
         PRECONDITIONER  FULL_ALL
       &END OT
       &OUTER_SCF  T
         OPTIMIZER  NONE
         EPS_SCF     5.0000000000000004E-06
         MAX_SCF  4
       &END OUTER_SCF
       &PRINT
         &RESTART  OFF
           BACKUP_COPIES  1
           &EACH
             JUST_ENERGY  0
             QS_SCF  0
             MD  20
           &END EACH
         &END RESTART
       &END PRINT
     &END SCF
     &QS
       EPS_DEFAULT     1.0000000000000000E-14
       METHOD  GPW
     &END QS
     &MGRID
       NGRIDS  5
       CUTOFF     1.2000000000000000E+03
     &END MGRID
     &XC
       DENSITY_CUTOFF     1.0000000000000000E-10
       GRADIENT_CUTOFF     1.0000000000000000E-10
       TAU_CUTOFF     1.0000000000000000E-10
       &XC_FUNCTIONAL  NO_SHORTCUT
         &PBE  T
         &END PBE
       &END XC_FUNCTIONAL
       &VDW_POTENTIAL
         POTENTIAL_TYPE  PAIR_POTENTIAL
         &PAIR_POTENTIAL
           R_CUTOFF     1.0000000000000004E+01
           TYPE  DFTD3
           PARAMETER_FILE_NAME dftd3.dat
           REFERENCE_FUNCTIONAL PBE
           EPS_CN     9.9999999999999995E-07
           CALCULATE_C9_TERM  T
           REFERENCE_C9_TERM  T
           LONG_RANGE_CORRECTION  F
           VERBOSE_OUTPUT  F
         &END PAIR_POTENTIAL
       &END VDW_POTENTIAL
     &END XC
   &END DFT
   &SUBSYS
     &CELL
       A     1.2864472766435110E+01    0.0000000000000000E+00    0.0000000000000000E+00
       B    -6.4322363581020028E+00    1.1140960178524473E+01    0.0000000000000000E+00
       C     0.0000000000000000E+00    0.0000000000000000E+00    3.2000000000000000E+01
       MULTIPLE_UNIT_CELL  1 1 1
       &CELL_REF
         A     1.2982353780853531E+01    0.0000000000000000E+00    0.0000000000000000E+00
         B    -6.4911768904267628E+00    1.1243048175136114E+01    0.0000000000000000E+00
         C     0.0000000000000000E+00    0.0000000000000000E+00    3.2000000000000000E+01
         MULTIPLE_UNIT_CELL  1 1 1
       &END CELL_REF
     &END CELL
     &COORD
N    7.3102289951063729E-02    1.9880644298528611E+00    2.5115639703417525E+00
Ga    4.7504839811097217E-02    1.5995774369399262E-02    2.8269786354093704E+00
N    8.1910140957123928E-02   -1.6968364349469665E-02    5.0135359738890655E+00
Ga    7.7089379281335857E-02    1.8046063592466268E+00    5.7908682135039351E+00
N    7.7514218293854367E-02    1.8243055606858571E+00    7.7926209282691552E+00
Ga    7.3140137690147974E-02   -2.2697288063320227E-02    8.4339872901404878E+00
N    7.6982808937098288E-02   -2.3111911774670924E-02    1.0412249878996999E+01
Ga    7.8751394729330876E-02    1.8148827983681650E+00    1.1066740983735059E+01
N    7.9381444036836751E-02    1.7968748581184162E+00    1.3062376577199757E+01
Ga    7.8603468271396096E-02   -2.3742403736206504E-02    1.3863838846306015E+01
N    7.7242302341523822E-02   -2.3802830901302745E-02    1.6068309319620742E+01
Ga    7.8614264549738244E-02    2.0151795877855627E+00    1.6477149188692589E+01
Ga    5.9538845442339776E-02    3.7012992701442289E+00    1.3520900920378267E+00
N   -1.4039937753756508E+00    4.5585099838119882E+00    2.5173353897111177E+00
Ga   -1.5920447969416374E+00    2.7402298506810556E+00    3.2943107993802458E+00
N   -1.5414144760544948E+00    2.7618950484191096E+00    5.2503538394457756E+00
Ga   -1.5593433822026366E+00    4.6308497169599843E+00    5.8321378665253514E+00
N   -1.5349837541692077E+00    4.6219208689866615E+00    7.8184988847473988E+00
Ga   -1.5217450083334427E+00    2.7614436595304048E+00    8.4395358424060678E+00
N   -1.5188437096080054E+00    2.7664955317764992E+00    1.0433904223274068E+01
Ga   -1.5475285913850929E+00    4.6255453189223221E+00    1.1069929717296226E+01
N   -1.5615047549942545E+00    4.6372540563047124E+00    1.3064795913117559E+01
Ga   -1.5182326678147970E+00    2.7679817992196738E+00    1.3617946319624927E+01
N   -1.5456814940595767E+00    2.7525443053137839E+00    1.5582008619351022E+01
Ga   -1.3721175976314106E+00    4.5281969376342595E+00    1.6477130076922002E+01
N    7.0753565916237313E-02    3.6854777695294563E+00    1.7609507311588509E+01
N   -3.1225161746005066E+00    7.5328215706377080E+00    2.5489611177404554E+00
Ga   -3.1144673527423081E+00    5.5176481293512376E+00    2.9195338318305009E+00
N   -3.1103256337694187E+00    5.5659028992059429E+00    5.0744285840084418E+00
Ga   -3.1454184729165475E+00    7.3726896131680109E+00    5.8332643263882291E+00
N   -3.1383844534503784E+00    7.3987397004924684E+00    7.8178702458455174E+00
Ga   -3.1464466547636660E+00    5.5433584594926559E+00    8.4411542357070495E+00
N   -3.1397252383561445E+00    5.5460846448051493E+00    1.0417744033082863E+01
Ga   -3.1437987646314824E+00    7.3853041748896970E+00    1.1068618862524067E+01
N   -3.1389656893409126E+00    7.3674987230114866E+00    1.3063673649874408E+01
Ga   -3.1391766541389945E+00    5.5469266619452666E+00    1.3863865878324468E+01
N   -3.1391865079953245E+00    5.5468837882853883E+00    1.6068724839746011E+01
Ga   -3.1380437902086484E+00    7.5877048889690295E+00    1.6478195345471214E+01
Ga   -3.1513337818214122E+00    9.2603311928928580E+00    1.5373668288457059E+00
N   -4.6509624331968684E+00    1.0134462844870699E+01    2.5203708920640713E+00
Ga   -4.8651071663751102E+00    8.2708214005723502E+00    3.2898147787412819E+00
N   -4.7441065782742697E+00    8.3312730045539372E+00    5.2487691354260324E+00
Ga   -4.7813874834493895E+00    1.0205264707508796E+01    5.7985740401861721E+00
N   -4.7577547836125378E+00    1.0195211627704010E+01    7.7948915012603308E+00
Ga   -4.7492235072722204E+00    8.3358611382919783E+00    8.4279825409239084E+00
N   -4.7395404766222144E+00    8.3384002905918528E+00    1.0425701619973927E+01
Ga   -4.7638270464140939E+00    1.0197213194153685E+01    1.1065048008417953E+01
N   -4.7775215223137879E+00    1.0207478099516868E+01    1.3061043268231639E+01
Ga   -4.7358871376532905E+00    8.3388724149556861E+00    1.3617826546444551E+01
N   -4.7628332524827215E+00    8.3235413393288429E+00    1.5581486841256599E+01
Ga   -4.5878494428947993E+00    1.0098740929105199E+01    1.6478120167473310E+01
N   -3.1463102602176329E+00    9.2572692847963900E+00    1.7610660604311761E+01
N    3.2845993370746398E+00    1.8505529404260515E+00    2.5926561779953912E+00
Ga    3.2651424069653183E+00    9.3426216120811742E-02    3.2923666756026155E+00
N    3.2931146935848847E+00   -2.1518978727258359E-02    5.2529209131280963E+00
Ga    3.2972494859324857E+00    1.8482912671492147E+00    5.8569426680823469E+00
N    3.2981337832148205E+00    1.8359390361679599E+00    7.8353928547914409E+00
Ga    3.2874351094749654E+00   -2.9305420477248441E-02    8.4399787160354531E+00
N    3.2916570983257971E+00   -3.3847243949406136E-02    1.0432661036136880E+01
Ga    3.2950377304558169E+00    1.8355336434988723E+00    1.1023956299402588E+01
N    3.2953976331068535E+00    1.8346291569873003E+00    1.2996747765815449E+01
Ga    3.2942902212780631E+00   -3.5214519731211487E-02    1.3618188757301557E+01
N    3.2957108669165844E+00   -3.5983922471753112E-03    1.5580690074546473E+01
Ga    3.2954851241515426E+00    1.8344592631871059E+00    1.5859601328815678E+01
N    1.5519870019962547E+00    4.5677499607203487E+00    2.5245794188994291E+00
Ga    1.7605819021521363E+00    2.7376384958735227E+00    3.2744378574783854E+00
N    1.6879848150261207E+00    2.7663291743715184E+00    5.2500279922538953E+00
Ga    1.7096911469865665E+00    4.6254921367211379E+00    5.8235937812363856E+00
N    1.6947901656379813E+00    4.6251523302497697E+00    7.8092368753377182E+00
Ga    1.6775955156488587E+00    2.7632546366998811E+00    8.4329067947832179E+00
N    1.6758785333519595E+00    2.7668189472859375E+00    1.0428074125005999E+01
Ga    1.7061326460777939E+00    4.6254994052918095E+00    1.1066968760756144E+01
N    1.7203379904383915E+00    4.6370813372592190E+00    1.3061891297462296E+01
Ga    1.6763359741865573E+00    2.7688212336891915E+00    1.3618480610459605E+01
N    1.7037657418204284E+00    2.7543950382827345E+00    1.5581097768321627E+01
Ga    1.5225632169073644E+00    4.5240275168531996E+00    1.6478505265357605E+01
N    8.4937269549746702E-02    7.4048071754913325E+00    2.7264285591896420E+00
Ga    6.2448937863804239E-02    5.5446372345573129E+00    3.3472031005272580E+00
N    7.8048821520626477E-02    5.5646325395911740E+00    5.2819342393882973E+00
Ga    8.5567744518822375E-02    7.4049499113828734E+00    5.9268677062151554E+00
N    7.8734136426311233E-02    7.4060373956903964E+00    7.8825322763557191E+00
Ga    7.9453025696248888E-02    5.5325059553171325E+00    8.4584394219677392E+00
N    7.9354457104107490E-02    5.5339987199667009E+00    1.0444961644931293E+01
Ga    7.9604001114257625E-02    7.4038020170881689E+00    1.1035317494770345E+01
N    7.9406643370796018E-02    7.4043176779319646E+00    1.3005425844034875E+01
Ga    7.9953885994113294E-02    5.5329739689628452E+00    1.3619297320717031E+01
N    8.0791976394157264E-02    5.5657717218072236E+00    1.5581915000083772E+01
Ga    7.9268814350762357E-02    7.4047077805567518E+00    1.5858035229582139E+01
N   -1.6427527924251442E+00    1.0112579579741466E+01    2.5504899178631337E+00
Ga   -1.5027012898298724E+00    8.3157358607830307E+00    3.3721091100691520E+00
N   -1.5183245320628760E+00    8.3262786318010438E+00    5.2907433906938639E+00
Ga   -1.5095343336810652E+00    1.0208875808569511E+01    5.8406159231710530E+00
N   -1.5270384619953679E+00    1.0192102831291905E+01    7.8234897759527682E+00
Ga   -1.5445753231388446E+00    8.3393962838765869E+00    8.4634792467755808E+00
N   -1.5413909661911711E+00    8.3384792127001592E+00    1.0448584637050294E+01
Ga   -1.5158496206524588E+00    1.0201828401393334E+01    1.1070750096108236E+01
N   -1.4978942877644525E+00    1.0208991568695446E+01    1.3064544340640081E+01
Ga   -1.5418696653740380E+00    8.3400089489688600E+00    1.3619453747190585E+01
N   -1.5125589586544388E+00    8.3247728301361938E+00    1.5581864470412246E+01
Ga   -1.6951683142906764E+00    1.0094543972595080E+01    1.6479037778873739E+01
N    6.5549354832920868E+00    1.8210875167906775E+00    2.5348536389267684E+00
Ga    6.5463614019206524E+00   -4.5301841294147223E-02    2.9267371714624311E+00
N    6.5036250384662511E+00   -5.4877013055487658E-02    5.0904260826124723E+00
Ga    6.5211282063758889E+00    1.8030766796790043E+00    5.7887190905349017E+00
N    6.5072635520021711E+00    1.8236078608216173E+00    7.7907080330537237E+00
Ga    6.5123512503799770E+00   -1.9046491562732387E-02    8.4454750603437638E+00
N    6.5114063476769513E+00   -2.2315754497730739E-02    1.0420460678095116E+01
Ga    6.5112280401752356E+00    1.8200422354904846E+00    1.1062504931679340E+01
N    6.5109220974341575E+00    1.7980954739800803E+00    1.3059382890064089E+01
Ga    6.5106567194567022E+00   -2.1903204290052766E-02    1.3864210320861945E+01
N    6.5095840117176911E+00   -2.3503601831178347E-02    1.6068844290223897E+01
Ga    6.5111221172604656E+00    2.0144164955658401E+00    1.6476691954835861E+01
N    4.8727936823404514E+00    4.8527134458080763E+00    2.3059289001812249E+00
Ga    4.9340980390276759E+00    2.4258123558169413E+00    3.2245502702224633E+00
N    4.9079683784670634E+00    2.7582794737748997E+00    5.1802376417761167E+00
Ga    4.9003300349916961E+00    4.6299691322077852E+00    5.7427883449013493E+00
N    4.8959535170692998E+00    4.6213892773184666E+00    7.7568406212370968E+00
Ga    4.9135741182504482E+00    2.7717860057083241E+00    8.4248252683906752E+00
N    4.9124685665348826E+00    2.7700634802161992E+00    1.0422804489231039E+01
Ga    4.8903278544195432E+00    4.6274625107186349E+00    1.1063313029302611E+01
N    4.8721349720655516E+00    4.6372378725201528E+00    1.3059283415558138E+01
Ga    4.9150075807759288E+00    2.7691181843248249E+00    1.3617412023899414E+01
N    4.8874576591499501E+00    2.7536711212554890E+00    1.5581681709596491E+01
Ga    5.0592460242526602E+00    4.5294328328365010E+00    1.6476565625809840E+01
N    6.5030273861420094E+00    3.6864847933678178E+00    1.7610422328290149E+01
N    3.2643756095034679E+00    7.5480537908803260E+00    2.5390196980101067E+00
N    3.2785278015068933E+00    5.5539730824392146E+00    5.0433222031582270E+00
Ga    3.3039407376847398E+00    7.3864458123594439E+00    5.8083245337443437E+00
N    3.2940533908637151E+00    7.3945548636442107E+00    7.7983514837589505E+00
Ga    3.3051035443894397E+00    5.5437017685139756E+00    8.4329206212455468E+00
N    3.2981711105154976E+00    5.5462753202824748E+00    1.0410636963708198E+01
Ga    3.3009529794512678E+00    7.3857572535340905E+00    1.1064793973840644E+01
N    3.2967633260140774E+00    7.3669763947842455E+00    1.3060764547378563E+01
Ga    3.2961253681811340E+00    5.5469527154166345E+00    1.3863135326580869E+01
N    3.2937536856682450E+00    5.5469592516263875E+00    1.6068550077747322E+01
Ga    3.2955053278474544E+00    7.5860841308252818E+00    1.6477676352588073E+01
Ga    3.3110042634244188E+00    9.2621128203930461E+00    1.2629952442938317E+00
N    1.7819126367594549E+00    1.0129715779017172E+01    2.5140358461414771E+00
Ga    1.6861388992835460E+00    8.3677711698835111E+00    3.3289985424899848E+00
N    1.6730816849632555E+00    8.3294102433506580E+00    5.2696646232801454E+00
Ga    1.6689089828099075E+00    1.0211843498214376E+01    5.8221406290801010E+00
N    1.6844367427899125E+00    1.0193345110589226E+01    7.8125717253485591E+00
Ga    1.7035121817634777E+00    8.3402687765933656E+00    8.4553189527798658E+00
N    1.6993243558093050E+00    8.3384853235788423E+00    1.0442995288118253E+01
Ga    1.6735209237208883E+00    1.0200768613334731E+01    1.1070528710169917E+01
N    1.6555147113872493E+00    1.0208379844115337E+01    1.3064931423566119E+01
Ga    1.7007532928259916E+00    8.3394298822751267E+00    1.3619522448277934E+01
N    1.6718580582932980E+00    8.3235142700960143E+00    1.5583329648595726E+01
Ga    1.8442734783037196E+00    1.0099710766042708E+01    1.6477032109716500E+01
N    3.2879493150360553E+00    9.2574544405865264E+00    1.7611383215637300E+01
N    9.6954411820759869E+00    1.8797281273282507E+00    2.5776025200015606E+00
Ga    9.7126509893153035E+00    6.1436578883173963E-02    3.2391972219573626E+00
N    9.7208049005091244E+00   -6.7528422886374527E-03    5.2149300612023559E+00
Ga    9.7137112097774629E+00    1.8396312490246765E+00    5.8636029292479535E+00
N    9.7250259210790624E+00    1.8333847775792258E+00    7.8439742858955155E+00
Ga    9.7331953220421656E+00   -3.1067018300609536E-02    8.4384970566056996E+00
N    9.7289959481132176E+00   -3.5256389590312874E-02    1.0432582237752476E+01
Ga    9.7246003102258243E+00    1.8346860053922225E+00    1.1023251538595403E+01
N    9.7260118911941849E+00    1.8340965150751234E+00    1.2997008788940711E+01
Ga    9.7286375992162633E+00   -3.5549705532734427E-02    1.3617657190563616E+01
N    9.7294394189425670E+00   -4.3897244929610247E-03    1.5580663551312002E+01
Ga    9.7267553969934255E+00    1.8342677067065434E+00    1.5858974411681338E+01
N    8.1515601092509460E+00    4.5685983584551231E+00    2.5067948090427294E+00
Ga    8.0631114310765408E+00    2.7899256367891954E+00    3.2437861236104664E+00
N    8.1212889491856703E+00    2.7589761787001934E+00    5.2350796002496471E+00
Ga    8.1345210298040449E+00    4.6371374478900496E+00    5.7553077931526353E+00
N    8.1239352520689110E+00    4.6281078292250868E+00    7.7735290098168903E+00
Ga    8.1068396392297828E+00    2.7734735211942017E+00    8.4211726059496730E+00
N    8.1077045685562545E+00    2.7695719576512001E+00    1.0422103281159854E+01
Ga    8.1299615813458832E+00    4.6268277533595485E+00    1.1061876230609876E+01
N    8.1494750357239631E+00    4.6373218814748212E+00    1.3058431066876336E+01
Ga    8.1073096634666886E+00    2.7696971535042336E+00    1.3616812664319845E+01
N    8.1350426296008571E+00    2.7550811653002127E+00    1.5580077993888175E+01
Ga    7.9562323555988117E+00    4.5253968875234758E+00    1.6477405749951576E+01
N    6.5021625589411540E+00    7.4118533953603079E+00    2.5813320040005610E+00
Ga    6.6574390166511854E+00    5.6041773265956634E+00    3.0847163856935680E+00
N    6.5079808588044807E+00    5.5354949805660478E+00    5.1295893438783740E+00
Ga    6.4985392155770878E+00    7.3753248317479283E+00    5.8165297284775166E+00
N    6.5082236985852431E+00    7.3960268793690593E+00    7.8115234558405708E+00
Ga    6.5093214416413545E+00    5.5344929359149981E+00    8.4161702394976761E+00
N    6.5088823512934910E+00    5.5347319209941226E+00    1.0417210522700033E+01
Ga    6.5083630518260849E+00    7.4021196671041922E+00    1.1019596633866817E+01
N    6.5099692019966930E+00    7.4032740202579923E+00    1.2993666541679310E+01
Ga    6.5115106332031711E+00    5.5345806794215697E+00    1.3616759256315630E+01
N    6.5125070308564270E+00    5.5655297716985483E+00    1.5579838553310093E+01
Ga    6.5108492857796705E+00    7.4042023957223702E+00    1.5860131050833287E+01
N    4.7941660572478959E+00    1.0148998574873266E+01    2.5067271544746470E+00
Ga    4.9754414540084468E+00    8.2908938010815749E+00    3.2384257136530414E+00
N    4.8995857652456589E+00    8.3353881440266058E+00    5.2251734106770495E+00
Ga    4.9255529777584037E+00    1.0209299867401034E+01    5.7685683271319670E+00
N    4.9092039414926933E+00    1.0196769009543345E+01    7.7781251151197441E+00
Ga    4.9008479680641539E+00    8.3391515903239259E+00    8.4178459397196637E+00
N    4.8941860180904797E+00    8.3394838977190489E+00    1.0418446101492410E+01
Ga    4.9188870596879992E+00    1.0196317181456998E+01    1.1064728426879871E+01
N    4.9351218338393030E+00    1.0206907328632981E+01    1.3060347954795258E+01
Ga    4.8928381816756543E+00    8.3391011723434083E+00    1.3617937597382445E+01
N    4.9196331408287213E+00    8.3251559519202996E+00    1.5580628797380783E+01
Ga    4.7399771017508670E+00    1.0095723843665752E+01    1.6477973393976939E+01
O   -3.8253690045445113E-02    3.8484845922519706E+00   -4.5608532490598003E-01
C    1.1019095840459079E+00    3.4612574565224592E+00   -1.2326377145018759E+00
H    2.0183715880250146E+00    3.9929890566724833E+00   -9.2413382694410573E-01
H    1.2980349180947699E+00    2.3783886832228989E+00   -1.1782939158916657E+00
H    8.9346529235886896E-01    3.7250334443578423E+00   -2.2799690874737455E+00
Ga    3.1355056851113270E+00    5.6405109000325719E+00    2.9836019637610542E+00
H    7.1237713361670701E-02    7.3998350061872520E+00    1.6999697470855240E+00
Ga    9.2176536329478012E+00    2.4624485304894081E+00    6.5169923235051719E-01
C    4.9244100520283531E+00    4.3568681035571766E+00    1.1165255406657324E+00
H    5.8869557490040796E+00    4.0628751339401443E+00    6.7416634538304243E-01
H    4.0147297131685660E+00    4.1824603561870273E+00    5.2503099523940311E-01
     &END COORD
     &KIND C
       BASIS_SET DZVP-MOLOPT-SR-GTH-q4
       POTENTIAL GTH-PBE-q4
       &POTENTIAL
 2 2
  0.3384712400000000E+00 2 -0.8803673979999999E+01  0.1339210850000000E+01
 2
  0.3025757500000000E+00 1  0.9622486650000001E+01
  0.2915069400000000E+00 0
         # Potential name:  GTH-PBE-Q4  for symbol:  C
         # Potential read from the potential filename: GTH_POTENTIALS
       &END POTENTIAL
     &END KIND
     &KIND O
       BASIS_SET DZVP-MOLOPT-SR-GTH-q6
       POTENTIAL GTH-PBE-q6
       &POTENTIAL
 2 4
  0.2445543000000000E+00 2 -0.1666721480000000E+02  0.2487311320000000E+01
 2
  0.2209559200000000E+00 1  0.1833745811000000E+02
  0.2113324700000000E+00 0
         # Potential name:  GTH-PBE-Q6  for symbol:  O
         # Potential read from the potential filename: GTH_POTENTIALS
       &END POTENTIAL
     &END KIND
     &KIND H
       BASIS_SET DZVP-MOLOPT-SR-GTH-q1
       POTENTIAL GTH-PBE-q1
       &POTENTIAL
 1
  0.2000000000000000E+00 2 -0.4178900440000000E+01  0.7244633100000000E+00
 0
         # Potential name:  GTH-PBE-Q1  for symbol:  H
         # Potential read from the potential filename: GTH_POTENTIALS
       &END POTENTIAL
     &END KIND
     &KIND N
       BASIS_SET DZVP-MOLOPT-SR-GTH
       POTENTIAL GTH-PBE-q5
       &POTENTIAL
 2 3
  0.2837905100000000E+00 2 -0.1241522559000000E+02  0.1868095920000000E+01
 2
  0.2554050000000000E+00 1  0.1363026257000000E+02
  0.2454945300000000E+00 0
         # Potential name:  GTH-PBE-Q5  for symbol:  N
         # Potential read from the potential filename: GTH_POTENTIALS
       &END POTENTIAL
     &END KIND
     &KIND Ga
       BASIS_SET DZVP-MOLOPT-SR-GTH
       POTENTIAL GTH-PBE-q13
       &POTENTIAL
 2 1 10
  0.4900000000000000E+00 0
 3
  0.4167772300000000E+00 3  0.1047568975000000E+02 -0.4921768140000000E+01  0.8707055900000000E+00
  0.7770178090000000E+01 -0.2248152160000000E+01
  0.1784415450000000E+01
  0.5696265200000000E+00 2  0.1777985340000000E+01  0.1958597600000000E+00
 -0.2317443900000000E+00
  0.2381265000000000E+00 1 -0.1624868022000000E+02
         # Potential name:  GTH-PBE-Q13  for symbol:  GA
         # Potential read from the potential filename: GTH_POTENTIALS
       &END POTENTIAL
     &END KIND
     &TOPOLOGY
       NUMBER_OF_ATOMS  209
       MULTIPLE_UNIT_CELL  1 1 1
     &END TOPOLOGY
   &END SUBSYS
 &END FORCE_EVAL
