 # Version information for this restart file 
 # current date 2019-07-22 10:39:14.817
 # current working dir /lustre04/scratch/rzk/rzk/GaN-carbene/443-adatoms-both-2x2/12-CH3O-H2C-H/03-SameAs1202-Start-Final-1102
 # Program compiled at                              Sun Apr  7 00:48:11 EDT 2019
 # Program compiled on                          beluga2.int.ets1.calculquebec.ca
 # Program compiled for                        Beluga-Linux-x86-64-intel-openmpi
 # Source code revision number                                         svn:18619
 &GLOBAL
   PRINT_LEVEL  MEDIUM
   PROJECT_NAME TEST
   RUN_TYPE  GEO_OPT
 &END GLOBAL
 &MOTION
   &GEO_OPT
     MAX_ITER  500
     STEP_START_VAL  34
   &END GEO_OPT
 &END MOTION
 &FORCE_EVAL
   METHOD  QS
   STRESS_TENSOR  ANALYTICAL
   &DFT
     BASIS_SET_FILE_NAME BASIS_MOLOPT
     POTENTIAL_FILE_NAME GTH_POTENTIALS
     UKS  T
     SURFACE_DIPOLE_CORRECTION  T
     SURF_DIP_DIR  Z
     &SCF
       MAX_SCF  80
       EPS_SCF     5.0000000000000004E-06
       &OT  T
         PRECONDITIONER  FULL_ALL
       &END OT
       &OUTER_SCF  T
         OPTIMIZER  NONE
         EPS_SCF     5.0000000000000004E-06
         MAX_SCF  4
       &END OUTER_SCF
       &PRINT
         &RESTART  OFF
           BACKUP_COPIES  1
           &EACH
             JUST_ENERGY  0
             QS_SCF  0
             MD  20
           &END EACH
         &END RESTART
       &END PRINT
     &END SCF
     &QS
       EPS_DEFAULT     1.0000000000000000E-14
       METHOD  GPW
     &END QS
     &MGRID
       NGRIDS  5
       CUTOFF     1.2000000000000000E+03
     &END MGRID
     &XC
       DENSITY_CUTOFF     1.0000000000000000E-10
       GRADIENT_CUTOFF     1.0000000000000000E-10
       TAU_CUTOFF     1.0000000000000000E-10
       &XC_FUNCTIONAL  NO_SHORTCUT
         &PBE  T
         &END PBE
       &END XC_FUNCTIONAL
       &VDW_POTENTIAL
         POTENTIAL_TYPE  PAIR_POTENTIAL
         &PAIR_POTENTIAL
           R_CUTOFF     1.0000000000000004E+01
           TYPE  DFTD3
           PARAMETER_FILE_NAME dftd3.dat
           REFERENCE_FUNCTIONAL PBE
           EPS_CN     9.9999999999999995E-07
           CALCULATE_C9_TERM  T
           REFERENCE_C9_TERM  T
           LONG_RANGE_CORRECTION  F
           VERBOSE_OUTPUT  F
         &END PAIR_POTENTIAL
       &END VDW_POTENTIAL
     &END XC
   &END DFT
   &SUBSYS
     &CELL
       A     1.2864472766435110E+01    0.0000000000000000E+00    0.0000000000000000E+00
       B    -6.4322363581020028E+00    1.1140960178524473E+01    0.0000000000000000E+00
       C     0.0000000000000000E+00    0.0000000000000000E+00    3.2000000000000000E+01
       MULTIPLE_UNIT_CELL  1 1 1
       &CELL_REF
         A     1.2982353780853531E+01    0.0000000000000000E+00    0.0000000000000000E+00
         B    -6.4911768904267628E+00    1.1243048175136114E+01    0.0000000000000000E+00
         C     0.0000000000000000E+00    0.0000000000000000E+00    3.2000000000000000E+01
         MULTIPLE_UNIT_CELL  1 1 1
       &END CELL_REF
     &END CELL
     &COORD
N    7.2863826160271636E-02    1.9851569894260486E+00    2.5180216381914100E+00
Ga    4.6742937584562924E-02    1.5513520684887299E-02    2.8244976133891564E+00
N    8.2540861803529805E-02   -1.5078806561510638E-02    5.0147410965720081E+00
Ga    7.6724481672733533E-02    1.8049507843970169E+00    5.7907749678474270E+00
N    7.7081012282580241E-02    1.8250912100421985E+00    7.7945110015695853E+00
Ga    7.2891124008324176E-02   -2.1898717644534268E-02    8.4331568383882640E+00
N    7.6332826995931372E-02   -2.2895108247038564E-02    1.0412932812023632E+01
Ga    7.8157014895039373E-02    1.8147793452953853E+00    1.1066076108395739E+01
N    7.9637282090065126E-02    1.7969184473360211E+00    1.3063284463850417E+01
Ga    7.8982895495385300E-02   -2.3614338569159152E-02    1.3860966544093893E+01
N    7.6166908941771236E-02   -2.4457776758520358E-02    1.6071547984891861E+01
Ga    7.9276188056251168E-02    2.0133074811166645E+00    1.6474947737460184E+01
Ga    6.1972806245029016E-02    3.6923671564137419E+00    1.3602125639596507E+00
N   -1.4040605464498537E+00    4.5565625112849064E+00    2.5199424088169122E+00
Ga   -1.5919072896835358E+00    2.7387228879601917E+00    3.2964768409067013E+00
N   -1.5407995983735832E+00    2.7621417269930797E+00    5.2523128286398224E+00
Ga   -1.5601278958269835E+00    4.6304248275375537E+00    5.8317237340129537E+00
N   -1.5354309011441392E+00    4.6225052925430354E+00    7.8195532179201859E+00
Ga   -1.5220127001341195E+00    2.7623264148799929E+00    8.4395156402223961E+00
N   -1.5191149312954979E+00    2.7666130390382020E+00    1.0435824767387382E+01
Ga   -1.5478273998258294E+00    4.6256814607175647E+00    1.1068983822343711E+01
N   -1.5605383684358436E+00    4.6372696723587543E+00    1.3065842797631227E+01
Ga   -1.5172301758705540E+00    2.7683782722763319E+00    1.3617138500536841E+01
N   -1.5442285914678326E+00    2.7523056472979066E+00    1.5582809724978489E+01
Ga   -1.3735268992875198E+00    4.5286795013009282E+00    1.6474353982694907E+01
N    7.0026536962137925E-02    3.6852301317238871E+00    1.7607108388784507E+01
N   -3.1227805974425542E+00    7.5311298083288829E+00    2.5487524220094100E+00
Ga   -3.1156912938543577E+00    5.5149205074900864E+00    2.9198351735106507E+00
N   -3.1099359578011700E+00    5.5664032421050402E+00    5.0754486068550477E+00
Ga   -3.1459892518051316E+00    7.3742026268144096E+00    5.8306752889294788E+00
N   -3.1387208634079560E+00    7.4000740378140302E+00    7.8174554151523559E+00
Ga   -3.1467162259624200E+00    5.5449125310934733E+00    8.4395659780680354E+00
N   -3.1395176879852538E+00    5.5463247576033394E+00    1.0417626161462289E+01
Ga   -3.1440361426563683E+00    7.3850486136187277E+00    1.1067533382520834E+01
N   -3.1380561846663300E+00    7.3675405604331949E+00    1.3064724067570932E+01
Ga   -3.1391874361383265E+00    5.5462524689202741E+00    1.3861156251126562E+01
N   -3.1390285468092016E+00    5.5461636018113323E+00    1.6071511743313145E+01
Ga   -3.1377760427064256E+00    7.5851728477022666E+00    1.6475955983146207E+01
Ga   -3.1515094739224567E+00    9.2605593435015248E+00    1.5408899098260023E+00
N   -4.6517946278183455E+00    1.0133412628365022E+01    2.5196782523518872E+00
Ga   -4.8645731566721206E+00    8.2701107220331700E+00    3.2876963259644669E+00
N   -4.7444149406960650E+00    8.3323978222864206E+00    5.2470455154511146E+00
Ga   -4.7814201083741743E+00    1.0205850183021729E+01    5.7958615121552324E+00
N   -4.7583626088291178E+00    1.0197296280055330E+01    7.7945631594151310E+00
Ga   -4.7494993623013952E+00    8.3378505012129818E+00    8.4250832482406679E+00
N   -4.7397538258047023E+00    8.3387665813032008E+00    1.0425925836481815E+01
Ga   -4.7646132425486396E+00    1.0197412070706619E+01    1.1064359005210648E+01
N   -4.7771546200315216E+00    1.0207244475183137E+01    1.3062201252997047E+01
Ga   -4.7345943534491548E+00    8.3389373955573713E+00    1.3617542332396274E+01
N   -4.7620844642715561E+00    8.3243791168657282E+00    1.5582906643917763E+01
Ga   -4.5882102107968228E+00    1.0099556047998652E+01    1.6476532576394327E+01
N   -3.1459544585732462E+00    9.2556252661516076E+00    1.7608627431731847E+01
N    3.2841307111601661E+00    1.8488905358890793E+00    2.5987296659802288E+00
Ga    3.2659144196813541E+00    8.9847473500591205E-02    3.2925120479360399E+00
N    3.2927972031250476E+00   -1.9416829610932832E-02    5.2531994625906719E+00
Ga    3.2984476079287925E+00    1.8483000287175344E+00    5.8588255857894946E+00
N    3.2983911201705522E+00    1.8370475826189139E+00    7.8381855958909306E+00
Ga    3.2873820379957159E+00   -2.9003168565821122E-02    8.4383079584097214E+00
N    3.2914535987121338E+00   -3.4048420313501290E-02    1.0433305547684659E+01
Ga    3.2945308464600824E+00    1.8356550272731236E+00    1.1023799188610042E+01
N    3.2950015497295633E+00    1.8339363013681720E+00    1.2999416735628948E+01
Ga    3.2949734179800911E+00   -3.6889453362715777E-02    1.3618932722326029E+01
N    3.2959993554558658E+00   -4.0067084374438974E-03    1.5582761578856903E+01
Ga    3.2965429385321370E+00    1.8348066832580514E+00    1.5858859648597562E+01
N    1.5521381027009249E+00    4.5645724975466377E+00    2.5291370854813175E+00
Ga    1.7596328272187356E+00    2.7354264725789719E+00    3.2795237908064325E+00
N    1.6893083190075544E+00    2.7647550781099905E+00    5.2543984330290261E+00
Ga    1.7097151335134571E+00    4.6249980065906451E+00    5.8219852658127760E+00
N    1.6946425144779200E+00    4.6259877528169042E+00    7.8097572835648625E+00
Ga    1.6771972083246631E+00    2.7638773709994489E+00    8.4324166128159632E+00
N    1.6751952177730285E+00    2.7670950215636840E+00    1.0429518902562540E+01
Ga    1.7057824826265691E+00    4.6259066351266815E+00    1.1065811766908389E+01
N    1.7201933742288644E+00    4.6372532868036105E+00    1.3062651393600548E+01
Ga    1.6755525024796798E+00    2.7696000839307997E+00    1.3618431707594610E+01
N    1.7037015434633960E+00    2.7542259000794753E+00    1.5582346496328650E+01
Ga    1.5236544364586675E+00    4.5235808214379416E+00    1.6475365792407317E+01
N    8.4552956667698839E-02    7.4027085976472273E+00    2.7230398005292522E+00
Ga    6.2579140090319771E-02    5.5439814302113719E+00    3.3466903884007873E+00
N    7.7691741616901677E-02    5.5642451837421483E+00    5.2824380703963696E+00
Ga    8.5770429482618732E-02    7.4062239286969591E+00    5.9222267316177266E+00
N    7.9191388339518165E-02    7.4070500489782081E+00    7.8806350359430590E+00
Ga    7.8946428741099264E-02    5.5338544753997372E+00    8.4568987180802324E+00
N    7.9033007179447889E-02    5.5340188893571360E+00    1.0445678194213178E+01
Ga    7.9725812510548957E-02    7.4032976463481033E+00    1.1035025596775556E+01
N    7.9977800378382174E-02    7.4038719502174315E+00    1.3008144862007519E+01
Ga    8.0404650181021275E-02    5.5318709606315819E+00    1.3619731748426274E+01
N    8.1526720581708470E-02    5.5653028108900351E+00    1.5583815406606385E+01
Ga    7.9863945175327050E-02    7.4045030244987027E+00    1.5858395328631548E+01
N   -1.6429388268092211E+00    1.0111872770852727E+01    2.5496386269027909E+00
Ga   -1.5018550727779492E+00    8.3145317320116447E+00    3.3675453900148344E+00
N   -1.5184030769518064E+00    8.3265599484146815E+00    5.2873828886687440E+00
Ga   -1.5104018864762687E+00    1.0208926762701875E+01    5.8372894639223878E+00
N   -1.5266009422143278E+00    1.0193343656097364E+01    7.8226542240997095E+00
Ga   -1.5443291803570234E+00    8.3403644047326200E+00    8.4607744815588166E+00
N   -1.5411529552069743E+00    8.3384348716241856E+00    1.0448868100678798E+01
Ga   -1.5155932006495103E+00    1.0201910961996106E+01    1.1069963246129019E+01
N   -1.4970974498164660E+00    1.0208244445714721E+01    1.3065815085004687E+01
Ga   -1.5418671509460466E+00    8.3399943362286955E+00    1.3620023100771245E+01
N   -1.5121301557880020E+00    8.3250997722899189E+00    1.5583888908040240E+01
Ga   -1.6944424330737493E+00    1.0095135179395392E+01    1.6476318608980858E+01
N    6.5556624634702967E+00    1.8220417605050141E+00    2.5386372829297423E+00
Ga    6.5457127119984344E+00   -4.6331679052920537E-02    2.9198376228680769E+00
N    6.5022489514935682E+00   -5.2287218191289370E-02    5.0905768124162680E+00
Ga    6.5198482266033535E+00    1.8042923581965709E+00    5.7891010134222753E+00
N    6.5071248732351989E+00    1.8250446707641252E+00    7.7925934867427387E+00
Ga    6.5126849577326071E+00   -1.8337115056956378E-02    8.4438472107467870E+00
N    6.5118544477713023E+00   -2.2227461438290595E-02    1.0420538736842197E+01
Ga    6.5119631242197720E+00    1.8205997294443628E+00    1.1060656890063600E+01
N    6.5113708267344794E+00    1.7974940020596581E+00    1.3058266285568720E+01
Ga    6.5109225983520442E+00   -2.1217084944892391E-02    1.3861994729006431E+01
N    6.5110001194094060E+00   -2.4039911214944219E-02    1.6071823250505140E+01
Ga    6.5121711977256664E+00    2.0141287477808509E+00    1.6476545516212830E+01
N    4.8737822470438807E+00    4.8462681557783993E+00    2.3086059591447299E+00
Ga    4.9345839653087600E+00    2.4253967637016149E+00    3.2263350110792497E+00
N    4.9070815797988772E+00    2.7590771777341101E+00    5.1819109251706035E+00
Ga    4.9008861077622523E+00    4.6306859355491055E+00    5.7415018749036371E+00
N    4.8961493146260455E+00    4.6229338018283093E+00    7.7574529554044167E+00
Ga    4.9136408047367190E+00    2.7733339222655204E+00    8.4245486967146253E+00
N    4.9122608674577846E+00    2.7706530104749199E+00    1.0424147009842644E+01
Ga    4.8903553359411172E+00    4.6286117538287890E+00    1.1061458990601684E+01
N    4.8718989579771899E+00    4.6374954193147246E+00    1.3058116540659464E+01
Ga    4.9164852440638827E+00    2.7697170971362821E+00    1.3616004717258040E+01
N    4.8883012666650298E+00    2.7539274710429384E+00    1.5581340367226609E+01
Ga    5.0597425879417637E+00    4.5299863138052316E+00    1.6476414184150144E+01
N    6.5020230308136115E+00    3.6854530917935708E+00    1.7604087693988443E+01
N    3.2643594731508729E+00    7.5428907805724901E+00    2.5304000836163478E+00
N    3.2790726009395197E+00    5.5538942173662473E+00    5.0435525007036706E+00
Ga    3.3034936264689336E+00    7.3885787943228740E+00    5.8013819155184123E+00
N    3.2939777647127269E+00    7.3969836194582719E+00    7.7955176827391410E+00
Ga    3.3048751338832973E+00    5.5454615489541821E+00    8.4308012406085471E+00
N    3.2976476435696704E+00    5.5471721414723154E+00    1.0410248644434841E+01
Ga    3.3009009816782688E+00    7.3862216505583183E+00    1.1063685571030383E+01
N    3.2964698225381213E+00    7.3664979562646433E+00    1.3061242372140596E+01
Ga    3.2966098367281105E+00    5.5462541200233915E+00    1.3859878792110688E+01
N    3.2936980421991184E+00    5.5477797156502833E+00    1.6071348100595660E+01
Ga    3.2968516566810275E+00    7.5839009249542944E+00    1.6474075956127447E+01
Ga    3.3106749975132432E+00    9.2626067395885467E+00    1.2402802501749566E+00
N    1.7780715319698943E+00    1.0131187823244293E+01    2.5062191074919689E+00
Ga    1.6886270388411708E+00    8.3685235101237954E+00    3.3153713531434525E+00
N    1.6724866689516047E+00    8.3298743339098618E+00    5.2610563373277435E+00
Ga    1.6682624789649001E+00    1.0212225528324284E+01    5.8142239504819431E+00
N    1.6848622682516037E+00    1.0194479294960169E+01    7.8092197504134271E+00
Ga    1.7027371480490894E+00    8.3417695063811124E+00    8.4537169006765982E+00
N    1.6991159315182389E+00    8.3389228744117947E+00    1.0443886860872267E+01
Ga    1.6739005932369277E+00    1.0201170300628878E+01    1.1069781801225117E+01
N    1.6553109184970651E+00    1.0207862350814993E+01    1.3065768887753695E+01
Ga    1.7019994017278077E+00    8.3396898469787519E+00    1.3619003226471836E+01
N    1.6721369755965119E+00    8.3234993897938736E+00    1.5584300581444033E+01
Ga    1.8436290247140215E+00    1.0101864459433470E+01    1.6473189684556402E+01
N    3.2861157632341431E+00    9.2560341003789066E+00    1.7605483047713921E+01
N    9.6963283915588629E+00    1.8785172668853094E+00    2.5821538349745055E+00
Ga    9.7120569829882744E+00    5.4895262634642457E-02    3.2306320983082650E+00
N    9.7210685907290380E+00   -6.5401489855238821E-03    5.2113219414386514E+00
Ga    9.7138373693669919E+00    1.8399905214919559E+00    5.8601298092188561E+00
N    9.7249982012530776E+00    1.8341406585677420E+00    7.8437481186932443E+00
Ga    9.7329624258607428E+00   -3.0055259882497340E-02    8.4377759867040556E+00
N    9.7290969798336420E+00   -3.5079635209347308E-02    1.0433830668679317E+01
Ga    9.7245029901382640E+00    1.8347520212785298E+00    1.1023017600153540E+01
N    9.7267429038893702E+00    1.8331643462164366E+00    1.2999237217574864E+01
Ga    9.7286825702433912E+00   -3.7283373162945256E-02    1.3617303469157829E+01
N    9.7306745854363896E+00   -3.7095147635387445E-03    1.5581192360951027E+01
Ga    9.7267316655311706E+00    1.8347011820058781E+00    1.5860106788632898E+01
N    8.1527567802591356E+00    4.5659927268911682E+00    2.5101591824141978E+00
Ga    8.0641967852769429E+00    2.7899772036045691E+00    3.2470404754632440E+00
N    8.1197651608304877E+00    2.7606205111580482E+00    5.2385124652431454E+00
Ga    8.1344738262022602E+00    4.6397956245869478E+00    5.7538789263990360E+00
N    8.1236264570573731E+00    4.6298478917422186E+00    7.7737900730978255E+00
Ga    8.1070786506520509E+00    2.7752958070148237E+00    8.4198782124796008E+00
N    8.1083427994727710E+00    2.7701904595056117E+00    1.0422990551238694E+01
Ga    8.1300703525567020E+00    4.6274042189000335E+00    1.1060250631168344E+01
N    8.1498982443152883E+00    4.6372283925165867E+00    1.3057688397389457E+01
Ga    8.1067790601163310E+00    2.7700464802005906E+00    1.3615412365841399E+01
N    8.1355972726475567E+00    2.7553848948425070E+00    1.5579297927767671E+01
Ga    7.9555750579682547E+00    4.5246400283428629E+00    1.6478172250238739E+01
N    6.5023267712749480E+00    7.4102435080305220E+00    2.5817096271330962E+00
Ga    6.6594410250521960E+00    5.6019191148075640E+00    3.0823901816969315E+00
N    6.5075567466061672E+00    5.5369990796774600E+00    5.1292086357524145E+00
Ga    6.4983158105947032E+00    7.3777398884234593E+00    5.8119085530618948E+00
N    6.5072836242942120E+00    7.3982859706781889E+00    7.8101813265733524E+00
Ga    6.5095895900388108E+00    5.5369005842245125E+00    8.4142277689277147E+00
N    6.5089466827169780E+00    5.5357405128041863E+00    1.0417406845024212E+01
Ga    6.5079066809856991E+00    7.4026465336479985E+00    1.1019158665040781E+01
N    6.5098090411384089E+00    7.4037340798991158E+00    1.2996001152575916E+01
Ga    6.5117279400820740E+00    5.5331211100016695E+00    1.3615544317339266E+01
N    6.5131841970010154E+00    5.5654671215319231E+00    1.5579343838212255E+01
Ga    6.5111611692131568E+00    7.4035838146170905E+00    1.5861689903035229E+01
N    4.7967349688758203E+00    1.0151269705882983E+01    2.4987890678029783E+00
Ga    4.9706942051767902E+00    8.2941925804209191E+00    3.2256323472588742E+00
N    4.8994949872429503E+00    8.3369150482839469E+00    5.2187643884587960E+00
Ga    4.9265497510627112E+00    1.0210539204165627E+01    5.7619061521987804E+00
N    4.9087223911352860E+00    1.0198692162091630E+01    7.7757419774257430E+00
Ga    4.9008789463149958E+00    8.3415537045869748E+00    8.4163196135338172E+00
N    4.8937262586052341E+00    8.3404205832816434E+00    1.0419292945953387E+01
Ga    4.9187406976508781E+00    1.0196836660079253E+01    1.1064485905016976E+01
N    4.9353374285316685E+00    1.0206796397960458E+01    1.3061412757206867E+01
Ga    4.8914323374398290E+00    8.3395519179027513E+00    1.3617204476546021E+01
N    4.9207020358452835E+00    8.3257284672204968E+00    1.5580994085264438E+01
Ga    4.7401455103338339E+00    1.0095937198075651E+01    1.6475709394862150E+01
O   -2.5482232799531771E-02    3.8435045199788993E+00   -4.4660992528630894E-01
C    1.1054202794507295E+00    3.4537509053826665E+00   -1.2333928962495564E+00
H    2.0206709684835227E+00    3.9883618227326201E+00   -9.2957478722208176E-01
H    1.3072289888222319E+00    2.3732108789208559E+00   -1.1725881799138920E+00
H    8.9104635855351400E-01    3.7137672516541924E+00   -2.2788524467518116E+00
Ga    3.1353109844151175E+00    5.6387671099885956E+00    2.9804861340441469E+00
H    6.6088183265670689E-02    7.3904650660373772E+00    1.6977443508251031E+00
Ga    9.2097761770287558E+00    2.4689024214682989E+00    6.6021749274841490E-01
C    4.9244381683951000E+00    4.3570740980936957E+00    1.1167255120875437E+00
H    5.8863488058711795E+00    4.0700087029463567E+00    6.7119765619727489E-01
H    4.0155691258129025E+00    4.1866727083488886E+00    5.2426776736252478E-01
     &END COORD
     &KIND C
       BASIS_SET DZVP-MOLOPT-SR-GTH-q4
       POTENTIAL GTH-PBE-q4
       &POTENTIAL
 2 2
  0.3384712400000000E+00 2 -0.8803673979999999E+01  0.1339210850000000E+01
 2
  0.3025757500000000E+00 1  0.9622486650000001E+01
  0.2915069400000000E+00 0
         # Potential name:  GTH-PBE-Q4  for symbol:  C
         # Potential read from the potential filename: GTH_POTENTIALS
       &END POTENTIAL
     &END KIND
     &KIND O
       BASIS_SET DZVP-MOLOPT-SR-GTH-q6
       POTENTIAL GTH-PBE-q6
       &POTENTIAL
 2 4
  0.2445543000000000E+00 2 -0.1666721480000000E+02  0.2487311320000000E+01
 2
  0.2209559200000000E+00 1  0.1833745811000000E+02
  0.2113324700000000E+00 0
         # Potential name:  GTH-PBE-Q6  for symbol:  O
         # Potential read from the potential filename: GTH_POTENTIALS
       &END POTENTIAL
     &END KIND
     &KIND H
       BASIS_SET DZVP-MOLOPT-SR-GTH-q1
       POTENTIAL GTH-PBE-q1
       &POTENTIAL
 1
  0.2000000000000000E+00 2 -0.4178900440000000E+01  0.7244633100000000E+00
 0
         # Potential name:  GTH-PBE-Q1  for symbol:  H
         # Potential read from the potential filename: GTH_POTENTIALS
       &END POTENTIAL
     &END KIND
     &KIND N
       BASIS_SET DZVP-MOLOPT-SR-GTH
       POTENTIAL GTH-PBE-q5
       &POTENTIAL
 2 3
  0.2837905100000000E+00 2 -0.1241522559000000E+02  0.1868095920000000E+01
 2
  0.2554050000000000E+00 1  0.1363026257000000E+02
  0.2454945300000000E+00 0
         # Potential name:  GTH-PBE-Q5  for symbol:  N
         # Potential read from the potential filename: GTH_POTENTIALS
       &END POTENTIAL
     &END KIND
     &KIND Ga
       BASIS_SET DZVP-MOLOPT-SR-GTH
       POTENTIAL GTH-PBE-q13
       &POTENTIAL
 2 1 10
  0.4900000000000000E+00 0
 3
  0.4167772300000000E+00 3  0.1047568975000000E+02 -0.4921768140000000E+01  0.8707055900000000E+00
  0.7770178090000000E+01 -0.2248152160000000E+01
  0.1784415450000000E+01
  0.5696265200000000E+00 2  0.1777985340000000E+01  0.1958597600000000E+00
 -0.2317443900000000E+00
  0.2381265000000000E+00 1 -0.1624868022000000E+02
         # Potential name:  GTH-PBE-Q13  for symbol:  GA
         # Potential read from the potential filename: GTH_POTENTIALS
       &END POTENTIAL
     &END KIND
     &TOPOLOGY
       NUMBER_OF_ATOMS  209
       MULTIPLE_UNIT_CELL  1 1 1
     &END TOPOLOGY
   &END SUBSYS
 &END FORCE_EVAL
