 # Version information for this restart file 
 # current date 2019-07-22 10:44:56.856
 # current working dir /lustre04/scratch/rzk/rzk/GaN-carbene/443-adatoms-both-2x2/12-CH3O-H2C-H/03-SameAs1202-Start-Final-1102
 # Program compiled at                              Sun Apr  7 00:48:11 EDT 2019
 # Program compiled on                          beluga2.int.ets1.calculquebec.ca
 # Program compiled for                        Beluga-Linux-x86-64-intel-openmpi
 # Source code revision number                                         svn:18619
 &GLOBAL
   PRINT_LEVEL  MEDIUM
   PROJECT_NAME TEST
   RUN_TYPE  GEO_OPT
 &END GLOBAL
 &MOTION
   &GEO_OPT
     MAX_ITER  500
     STEP_START_VAL  36
   &END GEO_OPT
 &END MOTION
 &FORCE_EVAL
   METHOD  QS
   STRESS_TENSOR  ANALYTICAL
   &DFT
     BASIS_SET_FILE_NAME BASIS_MOLOPT
     POTENTIAL_FILE_NAME GTH_POTENTIALS
     UKS  T
     SURFACE_DIPOLE_CORRECTION  T
     SURF_DIP_DIR  Z
     &SCF
       MAX_SCF  80
       EPS_SCF     5.0000000000000004E-06
       &OT  T
         PRECONDITIONER  FULL_ALL
       &END OT
       &OUTER_SCF  T
         OPTIMIZER  NONE
         EPS_SCF     5.0000000000000004E-06
         MAX_SCF  4
       &END OUTER_SCF
       &PRINT
         &RESTART  OFF
           BACKUP_COPIES  1
           &EACH
             JUST_ENERGY  0
             QS_SCF  0
             MD  20
           &END EACH
         &END RESTART
       &END PRINT
     &END SCF
     &QS
       EPS_DEFAULT     1.0000000000000000E-14
       METHOD  GPW
     &END QS
     &MGRID
       NGRIDS  5
       CUTOFF     1.2000000000000000E+03
     &END MGRID
     &XC
       DENSITY_CUTOFF     1.0000000000000000E-10
       GRADIENT_CUTOFF     1.0000000000000000E-10
       TAU_CUTOFF     1.0000000000000000E-10
       &XC_FUNCTIONAL  NO_SHORTCUT
         &PBE  T
         &END PBE
       &END XC_FUNCTIONAL
       &VDW_POTENTIAL
         POTENTIAL_TYPE  PAIR_POTENTIAL
         &PAIR_POTENTIAL
           R_CUTOFF     1.0000000000000004E+01
           TYPE  DFTD3
           PARAMETER_FILE_NAME dftd3.dat
           REFERENCE_FUNCTIONAL PBE
           EPS_CN     9.9999999999999995E-07
           CALCULATE_C9_TERM  T
           REFERENCE_C9_TERM  T
           LONG_RANGE_CORRECTION  F
           VERBOSE_OUTPUT  F
         &END PAIR_POTENTIAL
       &END VDW_POTENTIAL
     &END XC
   &END DFT
   &SUBSYS
     &CELL
       A     1.2864472766435110E+01    0.0000000000000000E+00    0.0000000000000000E+00
       B    -6.4322363581020028E+00    1.1140960178524473E+01    0.0000000000000000E+00
       C     0.0000000000000000E+00    0.0000000000000000E+00    3.2000000000000000E+01
       MULTIPLE_UNIT_CELL  1 1 1
       &CELL_REF
         A     1.2982353780853531E+01    0.0000000000000000E+00    0.0000000000000000E+00
         B    -6.4911768904267628E+00    1.1243048175136114E+01    0.0000000000000000E+00
         C     0.0000000000000000E+00    0.0000000000000000E+00    3.2000000000000000E+01
         MULTIPLE_UNIT_CELL  1 1 1
       &END CELL_REF
     &END CELL
     &COORD
N    7.3058605076756669E-02    1.9880258580161092E+00    2.5107764061657121E+00
Ga    4.7037761863379372E-02    1.5968901199351994E-02    2.8271175092786724E+00
N    8.1796146183879190E-02   -1.7132035669363038E-02    5.0134451465177339E+00
Ga    7.6976974727896622E-02    1.8046043020763254E+00    5.7906270811883740E+00
N    7.7521217616785182E-02    1.8242343187127599E+00    7.7922451156978427E+00
Ga    7.3037838490395690E-02   -2.2791676058236329E-02    8.4338537354038685E+00
N    7.7030504018113344E-02   -2.3114072239297498E-02    1.0412063315184584E+01
Ga    7.8800753219086417E-02    1.8149132873673504E+00    1.1066812322552741E+01
N    7.9351938168840133E-02    1.7968120511862666E+00    1.3062376422077300E+01
Ga    7.8587194495106524E-02   -2.3693956882773908E-02    1.3864425541540145E+01
N    7.7334056259540138E-02   -2.3780568196113364E-02    1.6067976909800429E+01
Ga    7.8584534563741190E-02    2.0148308082711264E+00    1.6477066156294221E+01
Ga    5.9317494303464037E-02    3.7023963390889398E+00    1.3514388942078324E+00
N   -1.4041532201477656E+00    4.5588197625277438E+00    2.5172855033335235E+00
Ga   -1.5917866204289339E+00    2.7403577214895645E+00    3.2938584302290588E+00
N   -1.5414942461426806E+00    2.7617751559942576E+00    5.2499000203739543E+00
Ga   -1.5593191383874370E+00    4.6306433914851954E+00    5.8320961655277479E+00
N   -1.5348866931812704E+00    4.6218576101754918E+00    7.8183247592622553E+00
Ga   -1.5218330158179412E+00    2.7613346488750943E+00    8.4392798939507863E+00
N   -1.5187933913132652E+00    2.7665767292304673E+00    1.0433579556178874E+01
Ga   -1.5475199460360478E+00    4.6256163021666499E+00    1.1070051919197724E+01
N   -1.5617359866407985E+00    4.6373448630955014E+00    1.3064766792200759E+01
Ga   -1.5183120748093983E+00    2.7680235783672100E+00    1.3618070575721356E+01
N   -1.5454983048980624E+00    2.7526813693043324E+00    1.5582006221297707E+01
Ga   -1.3726064390611852E+00    4.5284410112682831E+00    1.6476997710275118E+01
N    7.0714961296794873E-02    3.6854939849927018E+00    1.7610320419073236E+01
N   -3.1225105194699565E+00    7.5329955732339497E+00    2.5490974992314621E+00
Ga   -3.1141267226783276E+00    5.5180290681341786E+00    2.9194628972677776E+00
N   -3.1102279247885796E+00    5.5657242232271331E+00    5.0742926833685233E+00
Ga   -3.1453489748043699E+00    7.3723777676880102E+00    5.8331806476532906E+00
N   -3.1383024196190603E+00    7.3986525547679012E+00    7.8176662930278011E+00
Ga   -3.1464247519368889E+00    5.5431576091420958E+00    8.4410589797021967E+00
N   -3.1397830280391426E+00    5.5461060331713812E+00    1.0417619812972285E+01
Ga   -3.1437513927927605E+00    7.3852895795158968E+00    1.1068882989297874E+01
N   -3.1390600787834511E+00    7.3674045723537231E+00    1.3063752383887568E+01
Ga   -3.1392709503061309E+00    5.5469461523367523E+00    1.3864641260311460E+01
N   -3.1395352779835046E+00    5.5468329900055933E+00    1.6068397644690041E+01
Ga   -3.1381186135409829E+00    7.5872154717425691E+00    1.6478018495119919E+01
Ga   -3.1515576249299238E+00    9.2602154686828158E+00    1.5386786484779054E+00
N   -4.6509170057202951E+00    1.0134701547589883E+01    2.5207360046086538E+00
Ga   -4.8653266707352598E+00    8.2707070642941094E+00    3.2900269426775957E+00
N   -4.7441273377900490E+00    8.3310519593615915E+00    5.2487271357015377E+00
Ga   -4.7815805603164483E+00    1.0205169791121149E+01    5.7985629506636966E+00
N   -4.7576892814156180E+00    1.0194999516637477E+01    7.7947373391443300E+00
Ga   -4.7492558234872364E+00    8.3355772676588682E+00    8.4279941100365825E+00
N   -4.7394506127129405E+00    8.3384006366779158E+00    1.0425543865476500E+01
Ga   -4.7638142460452721E+00    1.0197259057677025E+01    1.1065209922707906E+01
N   -4.7776283589537583E+00    1.0207593893364376E+01    1.3061067403411782E+01
Ga   -4.7359785155267460E+00    8.3389098240025081E+00    1.3617919263071393E+01
N   -4.7627020651895045E+00    8.3236769384943035E+00    1.5581417763757464E+01
Ga   -4.5882077050000829E+00    1.0098868165067145E+01    1.6477883779122841E+01
N   -3.1463673335924751E+00    9.2572817341262201E+00    1.7611562596153671E+01
N    3.2844738868941374E+00    1.8509349801179531E+00    2.5925404719359939E+00
Ga    3.2651242470318071E+00    9.4011494582108154E-02    3.2924588647807433E+00
N    3.2931170860571699E+00   -2.1801872527062796E-02    5.2529127436869363E+00
Ga    3.2971084396399348E+00    1.8484932048033293E+00    5.8565237798482448E+00
N    3.2980757976794908E+00    1.8358105997680036E+00    7.8349794110828466E+00
Ga    3.2874843129710207E+00   -2.9336940404347683E-02    8.4399358808470204E+00
N    3.2917100827889154E+00   -3.3842477118045208E-02    1.0432571850646214E+01
Ga    3.2951208351531851E+00    1.8356135202103332E+00    1.1024010774608854E+01
N    3.2953493486777559E+00    1.8346504971663653E+00    1.2996686123994483E+01
Ga    3.2942674745839549E+00   -3.5065536684611751E-02    1.3618346396429084E+01
N    3.2956376389904434E+00   -3.7762625422022343E-03    1.5580647810043317E+01
Ga    3.2953269425105391E+00    1.8344206834056884E+00    1.5859760758991367E+01
N    1.5520623788408539E+00    4.5681156275834383E+00    2.5242616368869859E+00
Ga    1.7601641561015862E+00    2.7380795567808578E+00    3.2739022257802528E+00
N    1.6876761715517672E+00    2.7664898132919453E+00    5.2495458468811744E+00
Ga    1.7097527609549925E+00    4.6255737015955987E+00    5.8236129365466400E+00
N    1.6947478749921050E+00    4.6251203072485891E+00    7.8090729059097415E+00
Ga    1.6775890982044162E+00    2.7632599722364519E+00    8.4327266418456297E+00
N    1.6759368020790806E+00    2.7668963544485305E+00    1.0427876931779641E+01
Ga    1.7062669912567541E+00    4.6256202942001954E+00    1.1067151681707632E+01
N    1.7205042119982004E+00    4.6371383750355690E+00    1.3061929089326322E+01
Ga    1.6763876300344056E+00    2.7688208470868174E+00    1.3618656506379578E+01
N    1.7035578768219655E+00    2.7545112751803602E+00    1.5581082921960737E+01
Ga    1.5231432779092438E+00    4.5243499089932566E+00    1.6478228597350423E+01
N    8.5133121745457951E-02    7.4049853578788847E+00    2.7270863710958198E+00
Ga    6.2597439192770443E-02    5.5445671392295646E+00    3.3472581924348201E+00
N    7.7962574703606721E-02    5.5644919895968981E+00    5.2818795927964146E+00
Ga    8.5758020724856707E-02    7.4048262271303953E+00    5.9268897949229151E+00
N    7.8700760419205859E-02    7.4059897778227857E+00    7.8823813500416380E+00
Ga    7.9505581809964490E-02    5.5325047109303576E+00    8.4583560096891421E+00
N    7.9403936546410495E-02    5.5340755385227363E+00    1.0444809973538064E+01
Ga    7.9666490495934730E-02    7.4038996399614403E+00    1.1035324324809826E+01
N    7.9314825041026354E-02    7.4043815589630642E+00    1.3005351711055273E+01
Ga    7.9928778880846665E-02    5.5329907130852911E+00    1.3619486107284267E+01
N    8.0773097519670434E-02    5.5655306801013920E+00    1.5581910152954539E+01
Ga    7.9106038466570744E-02    7.4046440361200423E+00    1.5858298150183668E+01
N   -1.6428651014786841E+00    1.0112647601636288E+01    2.5506909508698454E+00
Ga   -1.5026430495958365E+00    8.3157608430252221E+00    3.3724214865119513E+00
N   -1.5183447582103431E+00    8.3261497526275861E+00    5.2908234053349785E+00
Ga   -1.5093196863960954E+00    1.0208763928059740E+01    5.8406276225054530E+00
N   -1.5271072872155491E+00    1.0191902233428518E+01    7.8233442649553053E+00
Ga   -1.5444758502526759E+00    8.3392452085431508E+00    8.4634681306887511E+00
N   -1.5414060052601699E+00    8.3385113396673081E+00    1.0448483683071709E+01
Ga   -1.5157109874189203E+00    1.0201900798342589E+01    1.1070939237523826E+01
N   -1.4978479075000866E+00    1.0209202418226459E+01    1.3064552456139863E+01
Ga   -1.5419497628598655E+00    8.3401336615611097E+00    1.3619614196102292E+01
N   -1.5127728486799721E+00    8.3248818947970893E+00    1.5581810582168448E+01
Ga   -1.6946414439782600E+00    1.0094867818117093E+01    1.6478673491957181E+01
N    6.5548636602542114E+00    1.8208763244127546E+00    2.5347786108794383E+00
Ga    6.5466688081351654E+00   -4.5430377053613649E-02    2.9273864697593930E+00
N    6.5038218192418729E+00   -5.5252680588157195E-02    5.0903815150042773E+00
Ga    6.5213653585921936E+00    1.8028736817670603E+00    5.7884016907631555E+00
N    6.5073076420227212E+00    1.8234468794108811E+00    7.7902969847709382E+00
Ga    6.5124438338329202E+00   -1.9147051914451395E-02    8.4452186272145298E+00
N    6.5113690353490989E+00   -2.2292646011371316E-02    1.0420156374799522E+01
Ga    6.5111697198101339E+00    1.8199392710291362E+00    1.1062817541773745E+01
N    6.5109010144393338E+00    1.7980748999717091E+00    1.3059616774736631E+01
Ga    6.5106076518563789E+00   -2.1780007866344205E-02    1.3865294942749740E+01
N    6.5094941584526893E+00   -2.3070564029733464E-02    1.6068637105501786E+01
Ga    6.5109492852207378E+00    2.0155571583508083E+00    1.6477297979030162E+01
N    4.8727346104403884E+00    4.8537479244835495E+00    2.3054605280107450E+00
Ga    4.9340466847304514E+00    2.4259524888299997E+00    3.2244154076448948E+00
N    4.9081574169005311E+00    2.7583098359804947E+00    5.1800136407002286E+00
Ga    4.9001837359618436E+00    4.6300216986816070E+00    5.7428116249072803E+00
N    4.8958892358671715E+00    4.6212681650875984E+00    7.7566584424860929E+00
Ga    4.9136612068328906E+00    2.7716757889420491E+00    8.4245134867173466E+00
N    4.9125498116938422E+00    2.7700947668620599E+00    1.0422495173186155E+01
Ga    4.8902605798590457E+00    4.6274352254367805E+00    1.1063692975994938E+01
N    4.8720916501224663E+00    4.6372986227633817E+00    1.3059566737211849E+01
Ga    4.9149231641330751E+00    2.7691041933133769E+00    1.3617811822797588E+01
N    4.8868778253197354E+00    2.7534054037965214E+00    1.5581453005907175E+01
Ga    5.0601313837986712E+00    4.5287376663132370E+00    1.6477122208805891E+01
N    6.5031974867768296E+00    3.6866136143869941E+00    1.7611153915491695E+01
N    3.2644736813460682E+00    7.5485052358509082E+00    2.5401534782899584E+00
N    3.2784682277818082E+00    5.5539788680992208E+00    5.0433917371755026E+00
Ga    3.3039415400749133E+00    7.3863685781864659E+00    5.8086035400509441E+00
N    3.2939423791051388E+00    7.3943878678288995E+00    7.7983324957007181E+00
Ga    3.3051175162018818E+00    5.5436361972172685E+00    8.4328143309476342E+00
N    3.2982666144303274E+00    5.5462623624636755E+00    1.0410442781737519E+01
Ga    3.3009422021561736E+00    7.3856732223645958E+00    1.1064993987323042E+01
N    3.2968375190830796E+00    7.3668493068480760E+00    1.3060878746784374E+01
Ga    3.2961876967113772E+00    5.5469171218600692E+00    1.3864348183578217E+01
N    3.2941406931184756E+00    5.5467831779655041E+00    1.6068354448859253E+01
Ga    3.2953917432294642E+00    7.5861865282415852E+00    1.6477999885891549E+01
Ga    3.3115151343723537E+00    9.2620944793543227E+00    1.2637303738793584E+00
N    1.7823965043038659E+00    1.0129545052806300E+01    2.5152319345574443E+00
Ga    1.6863464910870245E+00    8.3677535649857315E+00    3.3301472630231181E+00
N    1.6731522688855320E+00    8.3292989621976705E+00    5.2703314476328122E+00
Ga    1.6692100630210793E+00    1.0211613571788680E+01    5.8223073973031205E+00
N    1.6843901028863510E+00    1.0193134322438828E+01    7.8124531743235561E+00
Ga    1.7035474786426927E+00    8.3401634604396495E+00    8.4550594296775987E+00
N    1.6993955269398879E+00    8.3384922230555230E+00    1.0442698230166421E+01
Ga    1.6734215886235422E+00    1.0200811827465429E+01    1.1070585873290678E+01
N    1.6553745126093984E+00    1.0208643411894203E+01    1.3064909698703072E+01
Ga    1.7007511646068019E+00    8.3395425634539944E+00    1.3619760756428352E+01
N    1.6715375613125301E+00    8.3233438749772084E+00    1.5583235088906635E+01
Ga    1.8442908834867147E+00    1.0099486260408808E+01    1.6477321694895217E+01
N    3.2880894980947160E+00    9.2575274799656420E+00    1.7611544338877810E+01
N    9.6955104165531747E+00    1.8795453306187473E+00    2.5773562006653115E+00
Ga    9.7128668500862609E+00    6.1552875309198070E-02    3.2400077751439680E+00
N    9.7208179173533118E+00   -6.6943269462364100E-03    5.2152192251122127E+00
Ga    9.7137714775505408E+00    1.8395374407981420E+00    5.8635651703081866E+00
N    9.7250439176957606E+00    1.8332728312744087E+00    7.8436731101748185E+00
Ga    9.7331202203196998E+00   -3.1179856554484471E-02    8.4380754898429799E+00
N    9.7289587136438183E+00   -3.5303596235072815E-02    1.0432147536004495E+01
Ga    9.7245806887260215E+00    1.8346944536213041E+00    1.1023083054850073E+01
N    9.7259961355262678E+00    1.8342084627229567E+00    1.2996678855071387E+01
Ga    9.7286219557539741E+00   -3.5363690905975929E-02    1.3617897876443470E+01
N    9.7294305564333357E+00   -4.2229006475314294E-03    1.5580696912784436E+01
Ga    9.7268266773858016E+00    1.8343621232923113E+00    1.5859441597905429E+01
N    8.1516905286359709E+00    4.5690034261738202E+00    2.5069223219340055E+00
Ga    8.0632164073848838E+00    2.7898312727401620E+00    3.2433191012242220E+00
N    8.1215740950547790E+00    2.7588074056035596E+00    5.2345217554582382E+00
Ga    8.1346435811726465E+00    4.6368433840083769E+00    5.7551671918872973E+00
N    8.1239982828752737E+00    4.6279038647542308E+00    7.7732974149769349E+00
Ga    8.1068625861801635E+00    2.7732373106880455E+00    8.4209892175718934E+00
N    8.1075734958241004E+00    2.7695954114563657E+00    1.0421791212068378E+01
Ga    8.1299515867104653E+00    4.6268081288884098E+00    1.1062181831302441E+01
N    8.1495550347976362E+00    4.6374283547282253E+00    1.3058584953033279E+01
Ga    8.1073431080544562E+00    2.7697170193919374E+00    1.3617162692521367E+01
N    8.1353815177336610E+00    2.7548929114593479E+00    1.5579946704320413E+01
Ga    7.9552233873587594E+00    4.5248408206644584E+00    1.6477964527967202E+01
N    6.5018661456670532E+00    7.4119570817274685E+00    2.5820838619338065E+00
Ga    6.6572093774785435E+00    5.6042463897196395E+00    3.0848639916144336E+00
N    6.5080927579502550E+00    5.5351405310479382E+00    5.1294606678671304E+00
Ga    6.4983371097304330E+00    7.3748932121955528E+00    5.8166088828544149E+00
N    6.5082962585390387E+00    7.3958038066526655E+00    7.8113402764293598E+00
Ga    6.5092997936672647E+00    5.5342053163714722E+00    8.4160051995960075E+00
N    6.5088728299412395E+00    5.5345976870424440E+00    1.0416962630385928E+01
Ga    6.5083628753324776E+00    7.4020794927104667E+00    1.1019564731914722E+01
N    6.5100030449469548E+00    7.4032983826004672E+00    1.2993397178832538E+01
Ga    6.5115135553726695E+00    5.5347315266826564E+00    1.3617163732957509E+01
N    6.5124495706945780E+00    5.5659593635905278E+00    1.5579726705768127E+01
Ga    6.5109334508843135E+00    7.4042681155654426E+00    1.5860588097161957E+01
N    4.7938657580463211E+00    1.0148849789269725E+01    2.5079069575618802E+00
Ga    4.9754365593350132E+00    8.2910158395398348E+00    3.2394982100954368E+00
N    4.8996092078047715E+00    8.3351827371295748E+00    5.2256905419627149E+00
Ga    4.9252513961550033E+00    1.0209039855016728E+01    5.7686610358790000E+00
N    4.9092279313960043E+00    1.0196604083796361E+01    7.7779654024680251E+00
Ga    4.9007583143681543E+00    8.3389291560329006E+00    8.4175292856351174E+00
N    4.8941578817605720E+00    8.3394147101761984E+00    1.0418054937066517E+01
Ga    4.9188673142375272E+00    1.0196295198435168E+01    1.1064672402104044E+01
N    4.9352328051392451E+00    1.0207073697983393E+01    1.3060230043202166E+01
Ga    4.8929513355185419E+00    8.3391441861542273E+00    1.3618150959451023E+01
N    4.9197961301205009E+00    8.3250820902573395E+00    1.5580598694546770E+01
Ga    4.7397269397485831E+00    1.0095509678454631E+01    1.6478236228261206E+01
O   -3.9024370080528739E-02    3.8493912888604829E+00   -4.5654720172279811E-01
C    1.1016200115620447E+00    3.4613752737238523E+00   -1.2322901499239589E+00
H    2.0181415414479233E+00    3.9931642529679325E+00   -9.2412549993558291E-01
H    1.2975398717385564E+00    2.3784583651860469E+00   -1.1778196478767440E+00
H    8.9401079941297479E-01    3.7245585602537341E+00   -2.2799309058712884E+00
Ga    3.1354227660558189E+00    5.6408035272371455E+00    2.9840460448052037E+00
H    7.1661083647650017E-02    7.4005693495104730E+00    1.7006115654660043E+00
Ga    9.2185119684496470E+00    2.4614826336057756E+00    6.5106025989946603E-01
C    4.9243476948032505E+00    4.3560237407246269E+00    1.1170066026733090E+00
H    5.8869515474445375E+00    4.0627256919284642E+00    6.7428374444458450E-01
H    4.0149604869970386E+00    4.1824432960277687E+00    5.2489603868317358E-01
     &END COORD
     &KIND C
       BASIS_SET DZVP-MOLOPT-SR-GTH-q4
       POTENTIAL GTH-PBE-q4
       &POTENTIAL
 2 2
  0.3384712400000000E+00 2 -0.8803673979999999E+01  0.1339210850000000E+01
 2
  0.3025757500000000E+00 1  0.9622486650000001E+01
  0.2915069400000000E+00 0
         # Potential name:  GTH-PBE-Q4  for symbol:  C
         # Potential read from the potential filename: GTH_POTENTIALS
       &END POTENTIAL
     &END KIND
     &KIND O
       BASIS_SET DZVP-MOLOPT-SR-GTH-q6
       POTENTIAL GTH-PBE-q6
       &POTENTIAL
 2 4
  0.2445543000000000E+00 2 -0.1666721480000000E+02  0.2487311320000000E+01
 2
  0.2209559200000000E+00 1  0.1833745811000000E+02
  0.2113324700000000E+00 0
         # Potential name:  GTH-PBE-Q6  for symbol:  O
         # Potential read from the potential filename: GTH_POTENTIALS
       &END POTENTIAL
     &END KIND
     &KIND H
       BASIS_SET DZVP-MOLOPT-SR-GTH-q1
       POTENTIAL GTH-PBE-q1
       &POTENTIAL
 1
  0.2000000000000000E+00 2 -0.4178900440000000E+01  0.7244633100000000E+00
 0
         # Potential name:  GTH-PBE-Q1  for symbol:  H
         # Potential read from the potential filename: GTH_POTENTIALS
       &END POTENTIAL
     &END KIND
     &KIND N
       BASIS_SET DZVP-MOLOPT-SR-GTH
       POTENTIAL GTH-PBE-q5
       &POTENTIAL
 2 3
  0.2837905100000000E+00 2 -0.1241522559000000E+02  0.1868095920000000E+01
 2
  0.2554050000000000E+00 1  0.1363026257000000E+02
  0.2454945300000000E+00 0
         # Potential name:  GTH-PBE-Q5  for symbol:  N
         # Potential read from the potential filename: GTH_POTENTIALS
       &END POTENTIAL
     &END KIND
     &KIND Ga
       BASIS_SET DZVP-MOLOPT-SR-GTH
       POTENTIAL GTH-PBE-q13
       &POTENTIAL
 2 1 10
  0.4900000000000000E+00 0
 3
  0.4167772300000000E+00 3  0.1047568975000000E+02 -0.4921768140000000E+01  0.8707055900000000E+00
  0.7770178090000000E+01 -0.2248152160000000E+01
  0.1784415450000000E+01
  0.5696265200000000E+00 2  0.1777985340000000E+01  0.1958597600000000E+00
 -0.2317443900000000E+00
  0.2381265000000000E+00 1 -0.1624868022000000E+02
         # Potential name:  GTH-PBE-Q13  for symbol:  GA
         # Potential read from the potential filename: GTH_POTENTIALS
       &END POTENTIAL
     &END KIND
     &TOPOLOGY
       NUMBER_OF_ATOMS  209
       MULTIPLE_UNIT_CELL  1 1 1
     &END TOPOLOGY
   &END SUBSYS
 &END FORCE_EVAL
