 # Version information for this restart file 
 # current date 2019-05-27 18:57:24.009
 # current working dir /lustre03/project/6004141/rzk/GaN-carbene/334-native/08-2Methanol-Htransfer/01-Constraint/1.46
 # Program compiled at                              Sun Apr  7 00:48:11 EDT 2019
 # Program compiled on                          beluga2.int.ets1.calculquebec.ca
 # Program compiled for                        Beluga-Linux-x86-64-intel-openmpi
 # Source code revision number                                         svn:18619
 &GLOBAL
   PRINT_LEVEL  MEDIUM
   PROJECT_NAME TEST
   RUN_TYPE  GEO_OPT
 &END GLOBAL
 &MOTION
   &GEO_OPT
     MAX_ITER  500
     STEP_START_VAL  128
   &END GEO_OPT
   &CONSTRAINT
     &COLLECTIVE
       COLVAR  1
       INTERMOLECULAR  T
       TARGET     2.7590001540130387E+00
       &RESTRAINT
         K     1.0000000000000001E-01
       &END RESTRAINT
     &END COLLECTIVE
     &COLVAR_RESTART
           2.7590001540130387E+00
     &END COLVAR_RESTART
   &END CONSTRAINT
 &END MOTION
 &FORCE_EVAL
   METHOD  QS
   STRESS_TENSOR  ANALYTICAL
   &DFT
     BASIS_SET_FILE_NAME BASIS_MOLOPT
     POTENTIAL_FILE_NAME GTH_POTENTIALS
     &SCF
       MAX_SCF  100
       EPS_SCF     5.0000000000000004E-06
       &OT  T
         PRECONDITIONER  FULL_ALL
       &END OT
       &OUTER_SCF  T
         OPTIMIZER  NONE
         EPS_SCF     5.0000000000000004E-06
         MAX_SCF  4
       &END OUTER_SCF
       &PRINT
         &RESTART  OFF
           BACKUP_COPIES  1
           &EACH
             JUST_ENERGY  0
             QS_SCF  0
             MD  20
           &END EACH
         &END RESTART
       &END PRINT
     &END SCF
     &QS
       EPS_DEFAULT     1.0000000000000000E-14
       ALMO_SCF  F
       METHOD  GPW
     &END QS
     &MGRID
       NGRIDS  5
       CUTOFF     1.2000000000000000E+03
     &END MGRID
     &XC
       DENSITY_CUTOFF     1.0000000000000000E-10
       GRADIENT_CUTOFF     1.0000000000000000E-10
       TAU_CUTOFF     1.0000000000000000E-10
       &XC_FUNCTIONAL  NO_SHORTCUT
         &PBE  T
         &END PBE
       &END XC_FUNCTIONAL
       &VDW_POTENTIAL
         POTENTIAL_TYPE  PAIR_POTENTIAL
         &PAIR_POTENTIAL
           R_CUTOFF     1.0000000000000005E+01
           TYPE  DFTD3
           PARAMETER_FILE_NAME dftd3.dat
           REFERENCE_FUNCTIONAL PBE
           EPS_CN     9.9999999999999995E-07
           CALCULATE_C9_TERM  T
           REFERENCE_C9_TERM  T
           LONG_RANGE_CORRECTION  F
           VERBOSE_OUTPUT  F
         &END PAIR_POTENTIAL
       &END VDW_POTENTIAL
     &END XC
   &END DFT
   &SUBSYS
     &CELL
       A     9.7367653356401487E+00    0.0000000000000000E+00    0.0000000000000000E+00
       B    -4.8591341382960209E+00    8.4162672083210595E+00    0.0000000000000000E+00
       C     0.0000000000000000E+00    0.0000000000000000E+00    3.0744000000000000E+01
       MULTIPLE_UNIT_CELL  1 1 1
       &CELL_REF
         A     9.5580000000000052E+00    0.0000000000000000E+00    0.0000000000000000E+00
         B    -4.7790000000000026E+00    8.2774708093716640E+00    0.0000000000000000E+00
         C     0.0000000000000000E+00    0.0000000000000000E+00    3.0744000000000000E+01
         MULTIPLE_UNIT_CELL  1 1 1
       &END CELL_REF
     &END CELL
     &COORD
Ga    2.1810964888878698E-02   -9.2130033276936252E-02   -5.9359920917639031E-01
N    2.4475636836488932E-02    1.7831764926415825E+00    5.6070486914026596E-01
Ga    2.3939715356363332E-02    1.7510885286258526E+00    2.5896758332429717E+00
N    2.1153952194787395E-02   -9.2877673021886625E-02    3.2224290547198939E+00
Ga    2.1664706504332339E-02   -9.2233761377503082E-02    5.2108961633049624E+00
N    2.4511298752085159E-02    1.7825034470010768E+00    5.7994804355940994E+00
Ga    2.5165091229481695E-02    1.7797883763429061E+00    7.7953118790207165E+00
N    2.1600272343356673E-02   -9.1700029991240301E-02    8.4034880044376745E+00
Ga    2.6348106626036254E-02   -8.8837610422921973E-02    1.0399651827619218E+01
N    2.0342611110569900E-02    1.7801204961895285E+00    1.1015091733680817E+01
Ga    1.4710408556272616E-02    1.7798355680527658E+00    1.3022001855336601E+01
N    1.8063026451572126E-02   -9.8381427214365685E-02    1.3604479599502001E+01
Ga    3.8631665357846116E-02   -8.2661459616658620E-02    1.5609038149335207E+01
N    5.6828235613771150E-02    1.7611293363427178E+00    1.6218151201766940E+01
Ga    6.4276471121538351E-02    1.7555506795967373E+00    1.8388387619905323E+01
N    5.5673056973538963E-02   -1.1309736151919167E-01    1.8871310439062533E+01
Ga   -1.5978092144691649E+00    2.7129093810799838E+00    2.7515471064325198E-01
N   -1.5997335318303807E+00    4.5826350242565201E+00    5.5961934140982783E-01
Ga   -1.5713017602819610E+00    4.5986468952337045E+00    2.5886351177510174E+00
N   -1.5987973101519086E+00    2.7131767329895817E+00    3.1828469557616370E+00
Ga   -1.5987038991109324E+00    2.7142153710156181E+00    5.1918094317671137E+00
N   -1.5984282497463622E+00    4.5844739817635345E+00    5.8020354251643145E+00
Ga   -1.5981615639183462E+00    4.5849795308599681E+00    7.7990278613483230E+00
N   -1.5978041443695197E+00    2.7121410101689243E+00    8.3990209027711202E+00
Ga   -1.5944567101106175E+00    2.7101556582351360E+00    1.0388420777047212E+01
N   -1.5982824138307221E+00    4.5803454522128213E+00    1.0997335769556781E+01
Ga   -1.5850522100090596E+00    4.5529460663859522E+00    1.2981340290073041E+01
N   -1.5973993894885008E+00    2.7148492366867836E+00    1.3651592697987377E+01
Ga   -1.5753970699586310E+00    2.7053479718019151E+00    1.5712935131069637E+01
N   -1.5932426885177946E+00    4.5995628092750867E+00    1.6269753223219759E+01
Ga   -1.5548195166080181E+00    4.5607084273654133E+00    1.8423643524077580E+01
N   -1.5626839772321177E+00    2.6999579642944971E+00    1.8692100785501861E+01
Ga   -3.2182642201448917E+00    5.5189376868080657E+00    2.7541931916252838E-01
N   -3.2108552701914723E+00    7.3885237342039707E+00    5.6044490605530262E-01
Ga   -3.2392847561966844E+00    7.4040172660949750E+00    2.5891119555787645E+00
N   -3.2180594848229536E+00    5.5184557006886470E+00    3.1824242241281193E+00
Ga   -3.2176245826649423E+00    5.5196663580994230E+00    5.1908988892102492E+00
N   -3.2127722079080105E+00    7.3890782587870900E+00    5.8024860907992233E+00
Ga   -3.2137484656945614E+00    7.3894152594012361E+00    7.8000482509179783E+00
N   -3.2207410289539462E+00    5.5179579794312499E+00    8.4082827627722914E+00
Ga   -3.2192797827832291E+00    5.5237961086741727E+00    1.0401918200531657E+01
N   -3.2153636204750939E+00    7.3900994159842792E+00    1.1012309855180806E+01
Ga   -3.1895332047991904E+00    7.4297132349163943E+00    1.3017031883276244E+01
N   -3.2193674010718683E+00    5.5096148132904865E+00    1.3592504468032166E+01
Ga   -2.9601836658503031E+00    5.6509011386221895E+00    1.5502437790068162E+01
N   -3.3008563188326665E+00    7.3178736428985989E+00    1.6261845048673095E+01
Ga   -3.2421613589928264E+00    7.3552659618192990E+00    1.8384811944496022E+01
N   -3.1142342844034414E+00    5.5243765301238961E+00    1.9049594314819849E+01
Ga    3.2675764721441460E+00   -9.2938766484643706E-02    2.7518837583691003E-01
N    3.2650615612276050E+00    1.7766419707399390E+00    5.6016312387493628E-01
Ga    3.2936876001347160E+00    1.7925750151473894E+00    2.5888171009551622E+00
N    3.2667705878775193E+00   -9.2369267798561888E-02    3.1835579607311848E+00
Ga    3.2670474409275960E+00   -9.1750388599483354E-02    5.1925216628037294E+00
N    3.2677162048099477E+00    1.7784580019080778E+00    5.8032666311439041E+00
Ga    3.2681686141610626E+00    1.7776432941395808E+00    7.8012129438792677E+00
N    3.2666241075443332E+00   -9.3140208980597924E-02    8.4075980719262553E+00
Ga    3.2699461437211705E+00   -9.5126334360725900E-02    1.0406081755566190E+01
N    3.2705431655508361E+00    1.7780279621381387E+00    1.1008141980243614E+01
Ga    3.2498102022642210E+00    1.7312270975226247E+00    1.3010646442385617E+01
N    3.2594401851122767E+00   -9.0772420295008038E-02    1.3686351698004760E+01
Ga    3.2741315628772760E+00   -1.0047314650291170E-01    1.6093517582202395E+01
N    3.2873209007882851E+00    1.8794664159000762E+00    1.6251180880017628E+01
Ga    3.2791385755550588E+00    1.8143504560540149E+00    1.8378677995659700E+01
N    3.2875187192323252E+00   -1.0978709248392440E-01    1.8250308653262330E+01
Ga    1.6467266376579828E+00    2.7133686793371865E+00    2.7553328655419990E-01
N    1.6540941797514632E+00    4.5831984926603644E+00    5.6023678797710064E-01
Ga    1.6255531998787434E+00    4.5987670414666955E+00    2.5891861117817458E+00
N    1.6474103059322220E+00    2.7130783911086440E+00    3.1828498182251881E+00
Ga    1.6480186662005056E+00    2.7137989898845345E+00    5.1915952895000803E+00
N    1.6519788972311598E+00    4.5837834934547015E+00    5.8026351377835068E+00
Ga    1.6490499443682023E+00    4.5825954393229171E+00    7.7997508694956981E+00
N    1.6461310665885345E+00    2.7116571643517329E+00    8.4062523272105061E+00
Ga    1.6460112844605659E+00    2.7060355280053945E+00    1.0401128037174129E+01
N    1.6493846852275098E+00    4.5852088414432393E+00    1.0991039438830644E+01
Ga    1.6249517073264976E+00    4.5646216617724527E+00    1.2967470787683107E+01
N    1.6498857580856972E+00    2.7127066660259205E+00    1.3589610356547489E+01
Ga    1.6488405258616661E+00    2.6721364011649604E+00    1.5583035477017564E+01
N    1.6193273939598529E+00    4.5700393763465623E+00    1.6170850494107391E+01
Ga    1.3500410247449681E+00    4.3659987261104325E+00    1.8124729590276342E+01
N    1.6847318772664210E+00    2.7111236827275911E+00    1.8850361212263579E+01
Ga    2.7913460849506067E-02    5.5200218950213884E+00   -5.9389854258236274E-01
N    3.0639664921218911E-02    7.3937848383196085E+00    5.6113537957821236E-01
Ga    2.9969624531078889E-02    7.3617938033967949E+00    2.5898544826120689E+00
N    2.7281648732863217E-02    5.5181220349673668E+00    3.2230205373988894E+00
Ga    2.7247745092538991E-02    5.5192610555527013E+00    5.2117172023024843E+00
N    3.0425858186109333E-02    7.3935437067805267E+00    5.8014000962712871E+00
Ga    2.8925757735488333E-02    7.3922765423323016E+00    7.7984063945258510E+00
N    2.5961049421675968E-02    5.5197040143008227E+00    8.4039315052878774E+00
Ga    2.3606831652102912E-02    5.5290919421773985E+00    1.0400530951674579E+01
N    2.8948779822094220E-02    7.3920623779104231E+00    1.1021729904269220E+01
Ga   -5.6531594060652375E-03    7.4137545061801191E+00    1.3041592012448170E+01
N    1.9906225619289820E-02    5.5098870265668021E+00    1.3586313865718916E+01
Ga   -3.2064437039492980E-03    5.5304725394230525E+00    1.5579309088441185E+01
N    1.0573882474965120E-01    7.3408586229670112E+00    1.6203153301329941E+01
Ga    1.0749581072063080E-01    7.3572109520150759E+00    1.8308974992533649E+01
N    9.8877453792864597E-02    5.5157749983594577E+00    1.8897421608064221E+01
Ga    6.5119088454481169E+00   -9.2369556658340748E-02    2.7530487074482346E-01
N    6.5196999222307852E+00    1.7773736395894328E+00    5.6001695851419386E-01
Ga    6.4908418482747887E+00    1.7929663356825620E+00    2.5889152206449819E+00
N    6.5123409764514255E+00   -9.2321163668074704E-02    3.1829694017412509E+00
Ga    6.5121759522227753E+00   -9.1600377737026131E-02    5.1915972278445759E+00
N    6.5171294692128416E+00    1.7786457124035358E+00    5.8016246790656840E+00
Ga    6.5146466828278760E+00    1.7785159544934344E+00    7.7984274943207827E+00
N    6.5105338964171056E+00   -9.1723132911331759E-02    8.4068685066197641E+00
Ga    6.5024578738331540E+00   -9.2489695549268253E-02    1.0402290988369197E+01
N    6.5186730217801463E+00    1.7835806696677330E+00    1.1002811286159407E+01
Ga    6.5483179664031494E+00    1.7820984805757585E+00    1.2990828221982680E+01
N    6.5168067272567454E+00   -8.4018930891984991E-02    1.3605014816063511E+01
Ga    6.4973103204282543E+00   -7.2248637594279311E-02    1.5615046973940268E+01
N    6.5060293564030900E+00    1.7876424539067437E+00    1.6252585889429550E+01
Ga    6.5597931866414232E+00    1.7672602122036618E+00    1.8400253357171636E+01
N    6.5132150232566497E+00   -1.0709311211021151E-01    1.8870611585201825E+01
Ga    4.8930514621978416E+00    2.7130719302858979E+00   -5.9359690335032722E-01
N    4.8960749962995136E+00    4.5888195851743516E+00    5.6079081549815246E-01
Ga    4.8953389644089276E+00    4.5566205027327662E+00    2.5893950174723201E+00
N    4.8923519697477458E+00    2.7127380431891499E+00    3.2221697079779315E+00
Ga    4.8924117783868075E+00    2.7131764814063728E+00    5.2104691666089558E+00
N    4.8957349179078573E+00    4.5880051990055115E+00    5.8002114567526872E+00
Ga    4.8956924042669092E+00    4.5856985187092834E+00    7.7956075456671288E+00
N    4.8923439714229895E+00    2.7151379466719905E+00    8.4066306585410775E+00
Ga    4.8896795851089045E+00    2.7114281508867988E+00    1.0402201083765256E+01
N    4.8905189765941239E+00    4.5880496237681836E+00    1.1016253221956157E+01
Ga    4.8903971978387490E+00    4.5863276082987969E+00    1.2994441300625112E+01
N    4.8959580129943632E+00    2.7167061560844110E+00    1.3586182695116223E+01
Ga    4.9032645869181701E+00    2.4286369837110264E+00    1.5497075142285620E+01
N    4.7550842764524885E+00    4.6465387735199570E+00    1.6425068891923175E+01
Ga    5.2936734338174389E+00    4.3609701842550139E+00    1.9582791357375179E+01
N    4.9306060121726905E+00    2.6612465261207663E+00    1.8974185192678284E+01
Ga    3.2734919883132791E+00    5.5183053570808624E+00    2.7540646096630206E-01
N    3.2713232100989411E+00    7.3879059280599364E+00    5.6035283001871239E-01
Ga    3.2996701651969631E+00    7.4038292296515831E+00    2.5890724912812799E+00
N    3.2727498298179327E+00    5.5185387534913373E+00    3.1834031700345977E+00
Ga    3.2723719574773571E+00    5.5195984048866915E+00    5.1922064804380197E+00
N    3.2732797972053316E+00    7.3899472115269615E+00    5.8023337325244375E+00
Ga    3.2737056173101253E+00    7.3914370157444216E+00    7.7992581825494813E+00
N    3.2733091409620694E+00    5.5182898407708398E+00    8.4017511640835814E+00
Ga    3.2710641345791283E+00    5.5205800062477675E+00    1.0389332996727340E+01
N    3.2748895057961382E+00    7.3911682848466755E+00    1.0993642928421384E+01
Ga    3.2778632308104081E+00    7.4230218506497954E+00    1.2971674521049874E+01
N    3.2575336312953436E+00    5.5267777364990875E+00    1.3592282808620087E+01
Ga    2.9860664026019919E+00    5.6973811042005549E+00    1.5490129720734817E+01
N    3.2720814643278704E+00    7.4173255454681195E+00    1.6225131035051675E+01
Ga    3.2930151488890553E+00    7.7581940078877727E+00    1.8242775236755026E+01
N    4.5394162447890345E+00    4.7579718171789214E+00    1.7567348775789821E+01
O    1.4197186063720690E+00    5.1498192222883423E+00    2.1152899606864111E+01
H    7.9742943270364275E-01    5.3402018454842208E+00    2.0313099047603860E+01
C    9.1782392361105924E-01    3.9797913374540514E+00    2.1837002329573593E+01
H   -1.6825621138015226E-01    4.0739993523236580E+00    2.1972211742569709E+01
H    1.1338621094563084E+00    3.0692870779581320E+00    2.1258351323917474E+01
H    1.3976026114698563E+00    3.9315181992940049E+00    2.2822375897789524E+01
O    3.8576872224506555E+00    5.2993615405422396E+00    2.0588516952962745E+01
H    2.8130290286175010E+00    5.0684902997544734E+00    2.0776123363324505E+01
C    4.1878270015618275E+00    6.4255679548226814E+00    2.1471766822230535E+01
H    4.5080018602678678E+00    6.0435991271830369E+00    2.2448282721721217E+01
H    4.9678091364431216E+00    7.0293870226345314E+00    2.0995340124591035E+01
H    3.2810247481542363E+00    7.0341684187903191E+00    2.1572132455002624E+01
     &END COORD
     &KIND C
       BASIS_SET DZVP-MOLOPT-SR-GTH-q4
       POTENTIAL GTH-PBE-q4
       &POTENTIAL
 2 2
  0.3384712400000000E+00 2 -0.8803673979999999E+01  0.1339210850000000E+01
 2
  0.3025757500000000E+00 1  0.9622486650000001E+01
  0.2915069400000000E+00 0
         # Potential name:  GTH-PBE-Q4  for symbol:  C
         # Potential read from the potential filename: GTH_POTENTIALS
       &END POTENTIAL
     &END KIND
     &KIND O
       BASIS_SET DZVP-MOLOPT-SR-GTH-q6
       POTENTIAL GTH-PBE-q6
       &POTENTIAL
 2 4
  0.2445543000000000E+00 2 -0.1666721480000000E+02  0.2487311320000000E+01
 2
  0.2209559200000000E+00 1  0.1833745811000000E+02
  0.2113324700000000E+00 0
         # Potential name:  GTH-PBE-Q6  for symbol:  O
         # Potential read from the potential filename: GTH_POTENTIALS
       &END POTENTIAL
     &END KIND
     &KIND H
       BASIS_SET DZVP-MOLOPT-SR-GTH-q1
       POTENTIAL GTH-PBE-q1
       &POTENTIAL
 1
  0.2000000000000000E+00 2 -0.4178900440000000E+01  0.7244633100000000E+00
 0
         # Potential name:  GTH-PBE-Q1  for symbol:  H
         # Potential read from the potential filename: GTH_POTENTIALS
       &END POTENTIAL
     &END KIND
     &KIND N
       BASIS_SET DZVP-MOLOPT-SR-GTH-q5
       POTENTIAL GTH-PBE-q5
       &POTENTIAL
 2 3
  0.2837905100000000E+00 2 -0.1241522559000000E+02  0.1868095920000000E+01
 2
  0.2554050000000000E+00 1  0.1363026257000000E+02
  0.2454945300000000E+00 0
         # Potential name:  GTH-PBE-Q5  for symbol:  N
         # Potential read from the potential filename: GTH_POTENTIALS
       &END POTENTIAL
     &END KIND
     &KIND Ga
       BASIS_SET DZVP-MOLOPT-SR-GTH-q13
       POTENTIAL GTH-PBE-q13
       &POTENTIAL
 2 1 10
  0.4900000000000000E+00 0
 3
  0.4167772300000000E+00 3  0.1047568975000000E+02 -0.4921768140000000E+01  0.8707055900000000E+00
  0.7770178090000000E+01 -0.2248152160000000E+01
  0.1784415450000000E+01
  0.5696265200000000E+00 2  0.1777985340000000E+01  0.1958597600000000E+00
 -0.2317443900000000E+00
  0.2381265000000000E+00 1 -0.1624868022000000E+02
         # Potential name:  GTH-PBE-Q13  for symbol:  GA
         # Potential read from the potential filename: GTH_POTENTIALS
       &END POTENTIAL
     &END KIND
     &TOPOLOGY
       COORD_FILE_NAME ../start-first.xyz
       COORD_FILE_FORMAT  XYZ
       NUMBER_OF_ATOMS  156
       MULTIPLE_UNIT_CELL  1 1 1
     &END TOPOLOGY
     &COLVAR
       &DISTANCE
         ATOMS  145 152
       &END DISTANCE
       &PRINT
       &END PRINT
     &END COLVAR
   &END SUBSYS
 &END FORCE_EVAL
