 # Version information for this restart file 
 # current date 2019-05-27 18:58:03.892
 # current working dir /lustre03/project/6004141/rzk/GaN-carbene/334-native/08-2Methanol-Htransfer/01-Constraint/1.46
 # Program compiled at                              Sun Apr  7 00:48:11 EDT 2019
 # Program compiled on                          beluga2.int.ets1.calculquebec.ca
 # Program compiled for                        Beluga-Linux-x86-64-intel-openmpi
 # Source code revision number                                         svn:18619
 &GLOBAL
   PRINT_LEVEL  MEDIUM
   PROJECT_NAME TEST
   RUN_TYPE  GEO_OPT
 &END GLOBAL
 &MOTION
   &GEO_OPT
     MAX_ITER  500
     STEP_START_VAL  129
   &END GEO_OPT
   &CONSTRAINT
     &COLLECTIVE
       COLVAR  1
       INTERMOLECULAR  T
       TARGET     2.7590001540130387E+00
       &RESTRAINT
         K     1.0000000000000001E-01
       &END RESTRAINT
     &END COLLECTIVE
     &COLVAR_RESTART
           2.7590001540130387E+00
     &END COLVAR_RESTART
   &END CONSTRAINT
 &END MOTION
 &FORCE_EVAL
   METHOD  QS
   STRESS_TENSOR  ANALYTICAL
   &DFT
     BASIS_SET_FILE_NAME BASIS_MOLOPT
     POTENTIAL_FILE_NAME GTH_POTENTIALS
     &SCF
       MAX_SCF  100
       EPS_SCF     5.0000000000000004E-06
       &OT  T
         PRECONDITIONER  FULL_ALL
       &END OT
       &OUTER_SCF  T
         OPTIMIZER  NONE
         EPS_SCF     5.0000000000000004E-06
         MAX_SCF  4
       &END OUTER_SCF
       &PRINT
         &RESTART  OFF
           BACKUP_COPIES  1
           &EACH
             JUST_ENERGY  0
             QS_SCF  0
             MD  20
           &END EACH
         &END RESTART
       &END PRINT
     &END SCF
     &QS
       EPS_DEFAULT     1.0000000000000000E-14
       ALMO_SCF  F
       METHOD  GPW
     &END QS
     &MGRID
       NGRIDS  5
       CUTOFF     1.2000000000000000E+03
     &END MGRID
     &XC
       DENSITY_CUTOFF     1.0000000000000000E-10
       GRADIENT_CUTOFF     1.0000000000000000E-10
       TAU_CUTOFF     1.0000000000000000E-10
       &XC_FUNCTIONAL  NO_SHORTCUT
         &PBE  T
         &END PBE
       &END XC_FUNCTIONAL
       &VDW_POTENTIAL
         POTENTIAL_TYPE  PAIR_POTENTIAL
         &PAIR_POTENTIAL
           R_CUTOFF     1.0000000000000005E+01
           TYPE  DFTD3
           PARAMETER_FILE_NAME dftd3.dat
           REFERENCE_FUNCTIONAL PBE
           EPS_CN     9.9999999999999995E-07
           CALCULATE_C9_TERM  T
           REFERENCE_C9_TERM  T
           LONG_RANGE_CORRECTION  F
           VERBOSE_OUTPUT  F
         &END PAIR_POTENTIAL
       &END VDW_POTENTIAL
     &END XC
   &END DFT
   &SUBSYS
     &CELL
       A     9.7367653356401487E+00    0.0000000000000000E+00    0.0000000000000000E+00
       B    -4.8591341382960209E+00    8.4162672083210595E+00    0.0000000000000000E+00
       C     0.0000000000000000E+00    0.0000000000000000E+00    3.0744000000000000E+01
       MULTIPLE_UNIT_CELL  1 1 1
       &CELL_REF
         A     9.5580000000000052E+00    0.0000000000000000E+00    0.0000000000000000E+00
         B    -4.7790000000000026E+00    8.2774708093716640E+00    0.0000000000000000E+00
         C     0.0000000000000000E+00    0.0000000000000000E+00    3.0744000000000000E+01
         MULTIPLE_UNIT_CELL  1 1 1
       &END CELL_REF
     &END CELL
     &COORD
Ga    2.1404335631235314E-02   -9.2622364411410668E-02   -5.9368239345682650E-01
N    2.4093818254303404E-02    1.7827361630606136E+00    5.6054087607961911E-01
Ga    2.3514701596477901E-02    1.7506706691048550E+00    2.5894927868356614E+00
N    2.0695855512478635E-02   -9.3300194456530802E-02    3.2223272852357532E+00
Ga    2.1298611131983135E-02   -9.2578460472754268E-02    5.2108926470619252E+00
N    2.4161961320643830E-02    1.7821689794747997E+00    5.7995342741776623E+00
Ga    2.4886074404161095E-02    1.7796077978557108E+00    7.7954505656501771E+00
N    2.1358165414905185E-02   -9.1876668999178859E-02    8.4036060480635459E+00
Ga    2.6243513783447536E-02   -8.8957626881061819E-02    1.0399776091561924E+01
N    2.0232782972272618E-02    1.7800487791367776E+00    1.1015244788530749E+01
Ga    1.4815647086720956E-02    1.7798666982855713E+00    1.3022163283848972E+01
N    1.8166173281319486E-02   -9.8299257237150356E-02    1.3604966223131973E+01
Ga    3.8846541006020557E-02   -8.2536061280480730E-02    1.5609655692249520E+01
N    5.7015281581691578E-02    1.7613054449175376E+00    1.6218490603216587E+01
Ga    6.4671671859880639E-02    1.7559703842890397E+00    1.8388924950987114E+01
N    5.6066711662558437E-02   -1.1261701883698429E-01    1.8871396940723216E+01
Ga   -1.5981570498568536E+00    2.7124857492095584E+00    2.7511068779779002E-01
N   -1.6001794417178412E+00    4.5821556636338343E+00    5.5962125728582335E-01
Ga   -1.5717265657360531E+00    4.5982654668785647E+00    2.5885816703535687E+00
N   -1.5992165858523424E+00    2.7127763321396703E+00    3.1827968009434882E+00
Ga   -1.5990786094208189E+00    2.7138503435422794E+00    5.1918635838399947E+00
N   -1.5987777167610602E+00    4.5841454216354531E+00    5.8021141926911959E+00
Ga   -1.5983986369377745E+00    4.5847981363766905E+00    7.7991308095585890E+00
N   -1.5980921167906053E+00    2.7119834140727357E+00    8.3990637731235402E+00
Ga   -1.5946019243230585E+00    2.7100685263878677E+00    1.0388447947105233E+01
N   -1.5983974397390921E+00    4.5803332255698272E+00    1.0997411843035444E+01
Ga   -1.5850591532408356E+00    4.5530309701768745E+00    1.2981418848850126E+01
N   -1.5972713121150253E+00    2.7149431297257673E+00    1.3651760046708414E+01
Ga   -1.5751274591257713E+00    2.7054903515774273E+00    1.5713153493194413E+01
N   -1.5929911351296553E+00    4.5995848117791684E+00    1.6269938985043805E+01
Ga   -1.5545889464418623E+00    4.5608996213439310E+00    1.8424016230897127E+01
N   -1.5624226878517891E+00    2.7002538002913754E+00    1.8692750343911069E+01
Ga   -3.2186555319483001E+00    5.5184547334109491E+00    2.7531886397004862E-01
N   -3.2112180655096503E+00    7.3880515772053830E+00    5.6027088861254926E-01
Ga   -3.2397288285018764E+00    7.4036302492059471E+00    2.5888877495031415E+00
N   -3.2185003209303655E+00    5.5180785479672210E+00    3.1823519425419633E+00
Ga   -3.2179544952398564E+00    5.5193572513205877E+00    5.1909005655160962E+00
N   -3.2131071603466141E+00    7.3887792136377621E+00    5.8025038219674538E+00
Ga   -3.2140043512350314E+00    7.3892704644057305E+00    7.8001236225566872E+00
N   -3.2209202640140839E+00    5.5178218324293624E+00    8.4083859840337514E+00
Ga   -3.2194115937486116E+00    5.5237564624355224E+00    1.0402015680379217E+01
N   -3.2154249248683899E+00    7.3900586297304143E+00    1.1012619670562094E+01
Ga   -3.1895179732188121E+00    7.4297241970709367E+00    1.3017428700103823E+01
N   -3.2193856993612302E+00    5.5095777910291908E+00    1.3592912999780092E+01
Ga   -2.9603374639160056E+00    5.6508978882685259E+00    1.5503103781500220E+01
N   -3.3005816197158468E+00    7.3180188012559739E+00    1.6262164527031135E+01
Ga   -3.2418155341648749E+00    7.3558729876666948E+00    1.8384688922090081E+01
N   -3.1139328617224846E+00    5.5248596721493124E+00    1.9049467476684161E+01
Ga    3.2672161810336497E+00   -9.3394958052664193E-02    2.7509258399864789E-01
N    3.2646881350436554E+00    1.7762047153774465E+00    5.5996573703563302E-01
Ga    3.2932387562843930E+00    1.7921827062217131E+00    2.5886341552841410E+00
N    3.2663017862285075E+00   -9.2764862604014078E-02    3.1834410162476132E+00
Ga    3.2666596804320807E+00   -9.2034156404305817E-02    5.1924718777544934E+00
N    3.2673032912049997E+00    1.7781992783730203E+00    5.8032441113196143E+00
Ga    3.2678534937169070E+00    1.7775269002085266E+00    7.8012380809878428E+00
N    3.2663345740986842E+00   -9.3193960900402176E-02    8.4076387211153243E+00
Ga    3.2697366710474585E+00   -9.5043056512417984E-02    1.0406157427341210E+01
N    3.2703950132837911E+00    1.7779967046583105E+00    1.1008511423168901E+01
Ga    3.2498466479553461E+00    1.7313118666915324E+00    1.3011079456358638E+01
N    3.2595033272325868E+00   -9.0726945446418517E-02    1.3687145636821386E+01
Ga    3.2743713365070040E+00   -1.0029304930754583E-01    1.6093488477637202E+01
N    3.2874665663192499E+00    1.8797436033502377E+00    1.6251325966341419E+01
Ga    3.2793659275837608E+00    1.8145457551989910E+00    1.8378585477020053E+01
N    3.2878259544845720E+00   -1.0941491243089947E-01    1.8250665213779516E+01
Ga    1.6463454554279526E+00    2.7129152648828838E+00    2.7547008483265562E-01
N    1.6536992837289439E+00    4.5826959006946577E+00    5.6017451348515845E-01
Ga    1.6250262561033659E+00    4.5983607052835813E+00    2.5890366830269014E+00
N    1.6469443159321810E+00    2.7126971140673386E+00    3.1827423769250567E+00
Ga    1.6475991610813054E+00    2.7135097320378878E+00    5.1915496854046692E+00
N    1.6515982326998906E+00    4.5834905329356888E+00    5.8026768017200263E+00
Ga    1.6488030464635999E+00    4.5824451194608899E+00    7.7998464387803317E+00
N    1.6458754181342656E+00    2.7115274642626259E+00    8.4063533721745145E+00
Ga    1.6459175305497784E+00    2.7059981318356625E+00    1.0401257465154359E+01
N    1.6492429297927818E+00    4.5851990275748546E+00    1.0991196199870819E+01
Ga    1.6250609381010199E+00    4.5646800779132084E+00    1.2967673416958684E+01
N    1.6499190444388523E+00    2.7128299854192885E+00    1.3589946298144310E+01
Ga    1.6488516821334986E+00    2.6723728135192579E+00    1.5583474066453540E+01
N    1.6194247994544086E+00    4.5702833145107036E+00    1.6171135602196347E+01
Ga    1.3501597284163858E+00    4.3663692467741368E+00    1.8124987614006077E+01
N    1.6850610662308914E+00    2.7115664511755249E+00    1.8850338092258664E+01
Ga    2.7466189193653831E-02    5.5194558837563070E+00   -5.9408225790258318E-01
N    3.0241550873421313E-02    7.3933763103479890E+00    5.6099061327804201E-01
Ga    2.9502231285951214E-02    7.3613587234661875E+00    2.5896297829427311E+00
N    2.6830286700553124E-02    5.5177502630861612E+00    3.2230271538352824E+00
Ga    2.6858128583852964E-02    5.5189799818899239E+00    5.2117781360627653E+00
N    3.0016356292497000E-02    7.3932724756331742E+00    5.8014612701335713E+00
Ga    2.8639879094727080E-02    7.3921958682941842E+00    7.7985239058485663E+00
N    2.5723501914626478E-02    5.5196067421561876E+00    8.4040026988999390E+00
Ga    2.3466823642039100E-02    5.5291205716673373E+00    1.0400603682778481E+01
N    2.8779557535767334E-02    7.3921282374499446E+00    1.1021905582181816E+01
Ga   -5.5531413298190420E-03    7.4138802135447603E+00    1.3041707896726688E+01
N    1.9915711013469947E-02    5.5099672560899329E+00    1.3586510377069970E+01
Ga   -3.0941020760877859E-03    5.5306148605157546E+00    1.5579553272137323E+01
N    1.0599689195463430E-01    7.3409617655356660E+00    1.6203374485660326E+01
Ga    1.0770842255532735E-01    7.3576610287199848E+00    1.8309158415606397E+01
N    9.8967539956941589E-02    5.5161482846937142E+00    1.8897705065733135E+01
Ga    6.5114560297886799E+00   -9.2803306984883677E-02    2.7523211872808168E-01
N    6.5193276091873029E+00    1.7769502301425510E+00    5.5992728922419910E-01
Ga    6.4903944283745245E+00    1.7925790342297299E+00    2.5887709610780414E+00
N    6.5118869020777659E+00   -9.2759981774013511E-02    3.1828497292345350E+00
Ga    6.5117965908909703E+00   -9.1935640103529129E-02    5.1915828627159923E+00
N    6.5167691547575890E+00    1.7783013038785924E+00    5.8016741524044058E+00
Ga    6.5143814529353214E+00    1.7782879369649947E+00    7.7985180272469314E+00
N    6.5102823148882116E+00   -9.1893310351639737E-02    8.4069433043265196E+00
Ga    6.5023640675561651E+00   -9.2574661546672349E-02    1.0402314314401323E+01
N    6.5185882840905824E+00    1.7834643580752954E+00    1.1002917587157599E+01
Ga    6.5483791539356453E+00    1.7820849957670617E+00    1.2990940494009514E+01
N    6.5170267250124665E+00   -8.4040550105811809E-02    1.3605333615199196E+01
Ga    6.4976437590772758E+00   -7.2237852114447429E-02    1.5615412911351450E+01
N    6.5062896795602576E+00    1.7877732478054860E+00    1.6252883364384083E+01
Ga    6.5600295830355124E+00    1.7676823248141209E+00    1.8400764484556497E+01
N    6.5134049663985305E+00   -1.0668161946695398E-01    1.8870675482344463E+01
Ga    4.8927318474770569E+00    2.7127147277221888E+00   -5.9359147330187445E-01
N    4.8956431558072291E+00    4.5883890211705927E+00    5.6064022338598352E-01
Ga    4.8948709529632266E+00    4.5562300343287747E+00    2.5892519052719623E+00
N    4.8919012634131667E+00    2.7123371974863821E+00    3.2220844902790686E+00
Ga    4.8920581100973495E+00    2.7128870391781312E+00    5.2104669094108287E+00
N    4.8954282284533912E+00    4.5877315383078949E+00    5.8002342334841686E+00
Ga    4.8955183486240106E+00    4.5854902538437754E+00    7.7956899293751070E+00
N    4.8920652742076145E+00    2.7149155149200657E+00    8.4067062553941145E+00
Ga    4.8895503149931150E+00    2.7113163976231620E+00    1.0402312538806736E+01
N    4.8904593485040335E+00    4.5879613065790252E+00    1.1016471387969730E+01
Ga    4.8904529572361746E+00    4.5863286876807896E+00    1.2994697701987523E+01
N    4.8960647051658537E+00    2.7167318270518868E+00    1.3586568843947701E+01
Ga    4.9034433368468324E+00    2.4289100461570605E+00    1.5497550261189330E+01
N    4.7548807750158328E+00    4.6467140416276909E+00    1.6425402006648127E+01
Ga    5.2936627831161296E+00    4.3617746687700603E+00    1.9582875541618417E+01
N    4.9306662652388100E+00    2.6618728945949885E+00    1.8974325534023805E+01
Ga    3.2730191802753144E+00    5.5178254006998220E+00    2.7528978057022668E-01
N    3.2708687798176586E+00    7.3874407066828214E+00    5.6012861963693461E-01
Ga    3.2992153274918583E+00    7.4034115886285088E+00    2.5888649180626619E+00
N    3.2722571361104169E+00    5.5181369734148777E+00    3.1832884241683481E+00
Ga    3.2720192645419552E+00    5.5193010984546769E+00    5.1921986005762042E+00
N    3.2729232890881543E+00    7.3896417371689527E+00    5.8023879541145122E+00
Ga    3.2734489756252496E+00    7.3912410917125184E+00    7.7993857059371567E+00
N    3.2731111634760204E+00    5.5180703348613029E+00    8.4018548723035522E+00
Ga    3.2709938358355584E+00    5.5204394033286555E+00    1.0389440240108030E+01
N    3.2747951111940954E+00    7.3910440772460442E+00    1.0993767053744815E+01
Ga    3.2780426968447931E+00    7.4230169560481922E+00    1.2971785012751678E+01
N    3.2576020887647816E+00    5.5268216255036355E+00    1.3592565185229745E+01
Ga    2.9863004454229456E+00    5.6974474630362026E+00    1.5490418555011816E+01
N    3.2723770713055482E+00    7.4173677555153636E+00    1.6225603597268510E+01
Ga    3.2933340505976174E+00    7.7588716360019241E+00    1.8243173869333489E+01
N    4.5392925884511142E+00    4.7576170789241532E+00    1.7567761585864474E+01
O    1.4206019441842226E+00    5.1514573499947502E+00    2.1152738532426408E+01
H    7.9725715517176665E-01    5.3403787447026323E+00    2.0313247213086949E+01
C    9.2201579881191187E-01    3.9808248591329893E+00    2.1838088623841891E+01
H   -1.6413100345492398E-01    4.0723313126015519E+00    2.1973949335460812E+01
H    1.1398351977431453E+00    3.0705100277066699E+00    2.1260045771849416E+01
H    1.4024639308739619E+00    3.9340746517733765E+00    2.2823146745504911E+01
O    3.8587096630314943E+00    5.3010050704465730E+00    2.0588981193046926E+01
H    2.8138731798351881E+00    5.0709718418137708E+00    2.0776058259917054E+01
C    4.1899136964271975E+00    6.4258684130187120E+00    2.1473331453565059E+01
H    4.5094778598023435E+00    6.0425131530575555E+00    2.2449323980829526E+01
H    4.9706451331364656E+00    7.0293227338077173E+00    2.0997759366067214E+01
H    3.2839365501621556E+00    7.0354893065061797E+00    2.1574386531456682E+01
     &END COORD
     &KIND C
       BASIS_SET DZVP-MOLOPT-SR-GTH-q4
       POTENTIAL GTH-PBE-q4
       &POTENTIAL
 2 2
  0.3384712400000000E+00 2 -0.8803673979999999E+01  0.1339210850000000E+01
 2
  0.3025757500000000E+00 1  0.9622486650000001E+01
  0.2915069400000000E+00 0
         # Potential name:  GTH-PBE-Q4  for symbol:  C
         # Potential read from the potential filename: GTH_POTENTIALS
       &END POTENTIAL
     &END KIND
     &KIND O
       BASIS_SET DZVP-MOLOPT-SR-GTH-q6
       POTENTIAL GTH-PBE-q6
       &POTENTIAL
 2 4
  0.2445543000000000E+00 2 -0.1666721480000000E+02  0.2487311320000000E+01
 2
  0.2209559200000000E+00 1  0.1833745811000000E+02
  0.2113324700000000E+00 0
         # Potential name:  GTH-PBE-Q6  for symbol:  O
         # Potential read from the potential filename: GTH_POTENTIALS
       &END POTENTIAL
     &END KIND
     &KIND H
       BASIS_SET DZVP-MOLOPT-SR-GTH-q1
       POTENTIAL GTH-PBE-q1
       &POTENTIAL
 1
  0.2000000000000000E+00 2 -0.4178900440000000E+01  0.7244633100000000E+00
 0
         # Potential name:  GTH-PBE-Q1  for symbol:  H
         # Potential read from the potential filename: GTH_POTENTIALS
       &END POTENTIAL
     &END KIND
     &KIND N
       BASIS_SET DZVP-MOLOPT-SR-GTH-q5
       POTENTIAL GTH-PBE-q5
       &POTENTIAL
 2 3
  0.2837905100000000E+00 2 -0.1241522559000000E+02  0.1868095920000000E+01
 2
  0.2554050000000000E+00 1  0.1363026257000000E+02
  0.2454945300000000E+00 0
         # Potential name:  GTH-PBE-Q5  for symbol:  N
         # Potential read from the potential filename: GTH_POTENTIALS
       &END POTENTIAL
     &END KIND
     &KIND Ga
       BASIS_SET DZVP-MOLOPT-SR-GTH-q13
       POTENTIAL GTH-PBE-q13
       &POTENTIAL
 2 1 10
  0.4900000000000000E+00 0
 3
  0.4167772300000000E+00 3  0.1047568975000000E+02 -0.4921768140000000E+01  0.8707055900000000E+00
  0.7770178090000000E+01 -0.2248152160000000E+01
  0.1784415450000000E+01
  0.5696265200000000E+00 2  0.1777985340000000E+01  0.1958597600000000E+00
 -0.2317443900000000E+00
  0.2381265000000000E+00 1 -0.1624868022000000E+02
         # Potential name:  GTH-PBE-Q13  for symbol:  GA
         # Potential read from the potential filename: GTH_POTENTIALS
       &END POTENTIAL
     &END KIND
     &TOPOLOGY
       COORD_FILE_NAME ../start-first.xyz
       COORD_FILE_FORMAT  XYZ
       NUMBER_OF_ATOMS  156
       MULTIPLE_UNIT_CELL  1 1 1
     &END TOPOLOGY
     &COLVAR
       &DISTANCE
         ATOMS  145 152
       &END DISTANCE
       &PRINT
       &END PRINT
     &END COLVAR
   &END SUBSYS
 &END FORCE_EVAL
