 # Version information for this restart file 
 # current date 2019-05-27 18:58:44.802
 # current working dir /lustre03/project/6004141/rzk/GaN-carbene/334-native/08-2Methanol-Htransfer/01-Constraint/1.46
 # Program compiled at                              Sun Apr  7 00:48:11 EDT 2019
 # Program compiled on                          beluga2.int.ets1.calculquebec.ca
 # Program compiled for                        Beluga-Linux-x86-64-intel-openmpi
 # Source code revision number                                         svn:18619
 &GLOBAL
   PRINT_LEVEL  MEDIUM
   PROJECT_NAME TEST
   RUN_TYPE  GEO_OPT
 &END GLOBAL
 &MOTION
   &GEO_OPT
     MAX_ITER  500
     STEP_START_VAL  130
   &END GEO_OPT
   &CONSTRAINT
     &COLLECTIVE
       COLVAR  1
       INTERMOLECULAR  T
       TARGET     2.7590001540130387E+00
       &RESTRAINT
         K     1.0000000000000001E-01
       &END RESTRAINT
     &END COLLECTIVE
     &COLVAR_RESTART
           2.7590001540130387E+00
     &END COLVAR_RESTART
   &END CONSTRAINT
 &END MOTION
 &FORCE_EVAL
   METHOD  QS
   STRESS_TENSOR  ANALYTICAL
   &DFT
     BASIS_SET_FILE_NAME BASIS_MOLOPT
     POTENTIAL_FILE_NAME GTH_POTENTIALS
     &SCF
       MAX_SCF  100
       EPS_SCF     5.0000000000000004E-06
       &OT  T
         PRECONDITIONER  FULL_ALL
       &END OT
       &OUTER_SCF  T
         OPTIMIZER  NONE
         EPS_SCF     5.0000000000000004E-06
         MAX_SCF  4
       &END OUTER_SCF
       &PRINT
         &RESTART  OFF
           BACKUP_COPIES  1
           &EACH
             JUST_ENERGY  0
             QS_SCF  0
             MD  20
           &END EACH
         &END RESTART
       &END PRINT
     &END SCF
     &QS
       EPS_DEFAULT     1.0000000000000000E-14
       ALMO_SCF  F
       METHOD  GPW
     &END QS
     &MGRID
       NGRIDS  5
       CUTOFF     1.2000000000000000E+03
     &END MGRID
     &XC
       DENSITY_CUTOFF     1.0000000000000000E-10
       GRADIENT_CUTOFF     1.0000000000000000E-10
       TAU_CUTOFF     1.0000000000000000E-10
       &XC_FUNCTIONAL  NO_SHORTCUT
         &PBE  T
         &END PBE
       &END XC_FUNCTIONAL
       &VDW_POTENTIAL
         POTENTIAL_TYPE  PAIR_POTENTIAL
         &PAIR_POTENTIAL
           R_CUTOFF     1.0000000000000005E+01
           TYPE  DFTD3
           PARAMETER_FILE_NAME dftd3.dat
           REFERENCE_FUNCTIONAL PBE
           EPS_CN     9.9999999999999995E-07
           CALCULATE_C9_TERM  T
           REFERENCE_C9_TERM  T
           LONG_RANGE_CORRECTION  F
           VERBOSE_OUTPUT  F
         &END PAIR_POTENTIAL
       &END VDW_POTENTIAL
     &END XC
   &END DFT
   &SUBSYS
     &CELL
       A     9.7367653356401487E+00    0.0000000000000000E+00    0.0000000000000000E+00
       B    -4.8591341382960209E+00    8.4162672083210595E+00    0.0000000000000000E+00
       C     0.0000000000000000E+00    0.0000000000000000E+00    3.0744000000000000E+01
       MULTIPLE_UNIT_CELL  1 1 1
       &CELL_REF
         A     9.5580000000000052E+00    0.0000000000000000E+00    0.0000000000000000E+00
         B    -4.7790000000000026E+00    8.2774708093716640E+00    0.0000000000000000E+00
         C     0.0000000000000000E+00    0.0000000000000000E+00    3.0744000000000000E+01
         MULTIPLE_UNIT_CELL  1 1 1
       &END CELL_REF
     &END CELL
     &COORD
Ga    2.1352374759271858E-02   -9.2671941202047914E-02   -5.9380646842767681E-01
N    2.4067096614439544E-02    1.7827125805862067E+00    5.6049244721380764E-01
Ga    2.3531635557655160E-02    1.7506207513835821E+00    2.5893537929540789E+00
N    2.0720961454013066E-02   -9.3348128763494756E-02    3.2222472919604286E+00
Ga    2.1353662155215395E-02   -9.2630082090066540E-02    5.2108162111759047E+00
N    2.4221916045879512E-02    1.7821248929857234E+00    5.7995187616486792E+00
Ga    2.4895083110317510E-02    1.7796205062353594E+00    7.7954701187226947E+00
N    2.1339546756363979E-02   -9.1852502647251533E-02    8.4036318380922204E+00
Ga    2.6192797925659532E-02   -8.8873159919892294E-02    1.0399822899084683E+01
N    2.0183326518949277E-02    1.7801277996217604E+00    1.1015227841597948E+01
Ga    1.4785459374040803E-02    1.7800027567127576E+00    1.3022163944047753E+01
N    1.8164976523311595E-02   -9.8191357718389619E-02    1.3604955854306679E+01
Ga    3.8810329219391426E-02   -8.2485087331971726E-02    1.5609652247633479E+01
N    5.7036657039600112E-02    1.7613515774680808E+00    1.6218494930992513E+01
Ga    6.4789900741450732E-02    1.7560201860613132E+00    1.8388893549635146E+01
N    5.6093668073707310E-02   -1.1252633329055199E-01    1.8871376267886667E+01
Ga   -1.5981879302940398E+00    2.7124470061616339E+00    2.7521416461103382E-01
N   -1.6002698499209458E+00    4.5820965093854804E+00    5.5960642856295695E-01
Ga   -1.5717439433529470E+00    4.5982360115896954E+00    2.5884793205308663E+00
N   -1.5991926335731916E+00    2.7127323604158358E+00    3.1827184232204155E+00
Ga   -1.5990222400679337E+00    2.7137795854385383E+00    5.1917867306188663E+00
N   -1.5987423229207935E+00    4.5840962696717513E+00    5.8021109183961670E+00
Ga   -1.5984049431799578E+00    4.5848223646281481E+00    7.7991436768867652E+00
N   -1.5981052437643919E+00    2.7119992125413162E+00    8.3990662966498704E+00
Ga   -1.5946699965185080E+00    2.7101270529127048E+00    1.0388471929566471E+01
N   -1.5984427487147288E+00    4.5804409247258393E+00    1.0997376304115743E+01
Ga   -1.5850685965867439E+00    4.5531216816083742E+00    1.2981391174312108E+01
N   -1.5972612356516349E+00    2.7150645131955216E+00    1.3651700848568860E+01
Ga   -1.5750844593169120E+00    2.7055528217028786E+00    1.5713048446692826E+01
N   -1.5929077625044379E+00    4.5995469164570126E+00    1.6269957826207115E+01
Ga   -1.5545605691766333E+00    4.5609741620343005E+00    1.8424029890131308E+01
N   -1.5623869543097582E+00    2.7003133633249057E+00    1.8692793964870944E+01
Ga   -3.2187407407087605E+00    5.5183634023743418E+00    2.7530993589132463E-01
N   -3.2112438620934047E+00    7.3879713435257264E+00    5.6015446404539626E-01
Ga   -3.2397227388784118E+00    7.4035803612815592E+00    2.5887078852070147E+00
N   -3.2185130723592890E+00    5.5180339931960756E+00    3.1822589548917182E+00
Ga   -3.2179113268935473E+00    5.5193253827555058E+00    5.1907996495155029E+00
N   -3.2130501787312467E+00    7.3887395438812700E+00    5.8024785976857629E+00
Ga   -3.2140203036491388E+00    7.3892925302083690E+00    7.8001286538699777E+00
N   -3.2209133129523244E+00    5.5178498696175300E+00    8.4084192015157608E+00
Ga   -3.2194704468098125E+00    5.5238310751431356E+00    1.0402065330651256E+01
N   -3.2154884032777420E+00    7.3901396100573642E+00    1.1012640526716972E+01
Ga   -3.1895185958478605E+00    7.4298394898180069E+00    1.3017507352447861E+01
N   -3.2193700785635180E+00    5.5096777669236898E+00    1.3592888871017623E+01
Ga   -2.9602388757241913E+00    5.6509193122426797E+00    1.5503054890884854E+01
N   -3.3006562996703468E+00    7.3180386492760210E+00    1.6262235446103283E+01
Ga   -3.2418462715870877E+00    7.3558672548131039E+00    1.8384706802150621E+01
N   -3.1139224128884040E+00    5.5247427216827987E+00    1.9049332574685948E+01
Ga    3.2671876135401114E+00   -9.3497381430795320E-02    2.7499044379821952E-01
N    3.2646475649858813E+00    1.7761112837529525E+00    5.5984150584673109E-01
Ga    3.2932729882041869E+00    1.7921493533376542E+00    2.5884623433578935E+00
N    3.2662985455097755E+00   -9.2817355277526922E-02    3.1833053592619245E+00
Ga    3.2666943907894934E+00   -9.2056617442993344E-02    5.1923603838821677E+00
N    3.2673198596508897E+00    1.7781981988069255E+00    5.8031877425707616E+00
Ga    3.2677912739975827E+00    1.7776048428321582E+00    7.8012036965771605E+00
N    3.2662830053914296E+00   -9.3090145995847404E-02    8.4076314687587193E+00
Ga    3.2696123401918715E+00   -9.4863421160450712E-02    1.0406202068659193E+01
N    3.2703002678588922E+00    1.7781277907796798E+00    1.1008599145394193E+01
Ga    3.2498196507580643E+00    1.7314716774187304E+00    1.3011252797223735E+01
N    3.2594609352064854E+00   -9.0576201765115411E-02    1.3687150611208578E+01
Ga    3.2744040460751109E+00   -1.0024680417274061E-01    1.6093754991351741E+01
N    3.2874728662559360E+00    1.8798761720730839E+00    1.6251349733187180E+01
Ga    3.2794028999169731E+00    1.8146028073593923E+00    1.8378548164431532E+01
N    3.2878193972542653E+00   -1.0935203105923975E-01    1.8250509168054570E+01
Ga    1.6463186199295192E+00    2.7128463091651445E+00    2.7542255131360538E-01
N    1.6536551531568100E+00    4.5826092006918779E+00    5.6008254986742301E-01
Ga    1.6250035808317069E+00    4.5983121082874803E+00    2.5889037202569400E+00
N    1.6469473102054741E+00    2.7126490258906619E+00    3.1826281648559225E+00
Ga    1.6476320102120532E+00    2.7134955451262002E+00    5.1914374888595018E+00
N    1.6516406834907380E+00    4.5834702891191386E+00    5.8026601821207242E+00
Ga    1.6488278670289886E+00    4.5824814865098293E+00    7.7998358479314636E+00
N    1.6458462497180733E+00    2.7116064058977258E+00    8.4064072763358162E+00
Ga    1.6458568355449599E+00    2.7061192496509650E+00    1.0401339131816259E+01
N    1.6491709206393417E+00    4.5853282475036119E+00    1.0991195035004925E+01
Ga    1.6250360862908406E+00    4.5648120979848787E+00    1.2967710560965740E+01
N    1.6498666258124945E+00    2.7129678688699155E+00    1.3589979072739549E+01
Ga    1.6488342829078857E+00    2.6725084177804574E+00    1.5583505878478745E+01
N    1.6193577917965505E+00    4.5704489911366082E+00    1.6171171467284076E+01
Ga    1.3500103809252124E+00    4.3664309441723406E+00    1.8125001218456170E+01
N    1.6851025981347254E+00    2.7116611761297253E+00    1.8850263955302779E+01
Ga    2.7317154697937371E-02    5.5192815149736587E+00   -5.9425173349970684E-01
N    3.0211770014715422E-02    7.3933181535161339E+00    5.6085107880992979E-01
Ga    2.9508538715876925E-02    7.3612713420876368E+00    2.5894328311871098E+00
N    2.6813759951034681E-02    5.5176960852400736E+00    3.2229750660109353E+00
Ga    2.6896323564579518E-02    5.5189646083199682E+00    5.2117469988707468E+00
N    3.0036917485966583E-02    7.3932598733681143E+00    5.8014435023028899E+00
Ga    2.8591485352036247E-02    7.3922654545924269E+00    7.7985255998201977E+00
N    2.5739171231110532E-02    5.5196633192504931E+00    8.4040091154750147E+00
Ga    2.3409833051070503E-02    5.5292288092482655E+00    1.0400620281280700E+01
N    2.8653760170723318E-02    7.3922558203870121E+00    1.1021873728322410E+01
Ga   -5.6449671722387422E-03    7.4140434594831861E+00    1.3041640618095153E+01
N    1.9862313428679428E-02    5.5101182003994946E+00    1.3586470063083423E+01
Ga   -3.1675242339406955E-03    5.5307384896113332E+00    1.5579486111979008E+01
N    1.0600278976131951E-01    7.3410329143748587E+00    1.6203411380999437E+01
Ga    1.0780621970643507E-01    7.3575905277108742E+00    1.8308973308621610E+01
N    9.8941770562878922E-02    5.5160983200006113E+00    1.8897801889208857E+01
Ga    6.5114146163503488E+00   -9.2862722832149081E-02    2.7522628749650641E-01
N    6.5193023037152695E+00    1.7768841017301962E+00    5.5990788332807895E-01
Ga    6.4903965188730144E+00    1.7925422693844408E+00    2.5886441094112507E+00
N    6.5119054856902157E+00   -9.2832544824678287E-02    3.1827202273610968E+00
Ga    6.5118266212804290E+00   -9.2010742985203745E-02    5.1914695489552924E+00
N    6.5168015139576090E+00    1.7782422043808457E+00    5.8016274736978461E+00
Ga    6.5143647283712571E+00    1.7782848918498431E+00    7.7984993697062617E+00
N    6.5102740491505635E+00   -9.1886801099555118E-02    8.4069571562898950E+00
Ga    6.5022898130328617E+00   -9.2495812356313364E-02    1.0402341705708785E+01
N    6.5185153138512080E+00    1.7835435689649271E+00    1.1002907870927920E+01
Ga    6.5483684264554247E+00    1.7822018449767389E+00    1.2990954850299646E+01
N    6.5170146540902341E+00   -8.3968620627705187E-02    1.3605270089202435E+01
Ga    6.4976009126551073E+00   -7.2188198328636502E-02    1.5615252075356093E+01
N    6.5063879533028981E+00    1.7877851901598931E+00    1.6252805968597954E+01
Ga    6.5600542626761884E+00    1.7676060355053695E+00    1.8401019281031967E+01
N    6.5133924922071449E+00   -1.0670722864598017E-01    1.8870691521291892E+01
Ga    4.8927224483577882E+00    2.7126730062700681E+00   -5.9371230267271780E-01
N    4.8955756707954388E+00    4.5883068753425853E+00    5.6051832943593860E-01
Ga    4.8948567131002996E+00    4.5561665159793305E+00    2.5890832590234454E+00
N    4.8919236600279650E+00    2.7122946641590362E+00    3.2219995962563881E+00
Ga    4.8920843577452420E+00    2.7128562607810296E+00    5.2103634862254502E+00
N    4.8954817111733684E+00    4.5877036757864227E+00    5.8001984269482119E+00
Ga    4.8955583986450177E+00    4.5855215329521339E+00    7.7956650720089362E+00
N    4.8920268419849009E+00    2.7149392501585230E+00    8.4067119629441187E+00
Ga    4.8894645611698833E+00    2.7113813806850153E+00    1.0402361846446627E+01
N    4.8904199305064617E+00    4.5880422626710002E+00    1.1016491741500563E+01
Ga    4.8905003137065037E+00    4.5864039269205579E+00    1.2994756006775306E+01
N    4.8960736562390759E+00    2.7168314355023995E+00    1.3586624671308485E+01
Ga    4.9034567535746287E+00    2.4290212516355196E+00    1.5497552194920294E+01
N    4.7545491886956466E+00    4.6467288483330114E+00    1.6425373076346883E+01
Ga    5.2936952806998301E+00    4.3617783852742331E+00    1.9582609536228766E+01
N    4.9307060350763106E+00    2.6617822364049708E+00    1.8974529418988652E+01
Ga    3.2729544062134348E+00    5.5177344757499176E+00    2.7526129699501700E-01
N    3.2708249822762792E+00    7.3873566726196840E+00    5.6001100029069917E-01
Ga    3.2992510762556639E+00    7.4033595627398503E+00    2.5886967823865374E+00
N    3.2722745152937822E+00    5.5180891645297079E+00    3.1831689572787223E+00
Ga    3.2720654046952635E+00    5.5192715576786417E+00    5.1920923305697455E+00
N    3.2729642756251720E+00    7.3895975430523100E+00    5.8023690507437857E+00
Ga    3.2734680015895647E+00    7.3912313116834776E+00    7.7993942627647446E+00
N    3.2731200751062772E+00    5.5180638989178901E+00    8.4018811470119470E+00
Ga    3.2709533219836184E+00    5.5204638669418316E+00    1.0389472290771105E+01
N    3.2747527520826036E+00    7.3910866106557807E+00    1.0993714563647913E+01
Ga    3.2780323351271927E+00    7.4230999980223329E+00    1.2971742539299493E+01
N    3.2576043585352594E+00    5.5269183038742380E+00    1.3592516678618070E+01
Ga    2.9862702946299926E+00    5.6974661665667874E+00    1.5490366148901346E+01
N    3.2722967158204752E+00    7.4173988824618844E+00    1.6225624250552201E+01
Ga    3.2933459690514284E+00    7.7591438988737371E+00    1.8243109782389364E+01
N    4.5392757223609461E+00    4.7577278174658364E+00    1.7567781876363266E+01
O    1.4207770410971587E+00    5.1509872590102734E+00    2.1153256637228960E+01
H    7.9758259356781513E-01    5.3402351036584603E+00    2.0314029856444090E+01
C    9.2152019912125094E-01    3.9805095221530888E+00    2.1838465416245924E+01
H   -1.6454720441053691E-01    4.0724402453272317E+00    2.1974017753452255E+01
H    1.1389261133432340E+00    3.0700134560774766E+00    2.1260473891635911E+01
H    1.4019158569578032E+00    3.9335709221829629E+00    2.2823512431086357E+01
O    3.8587101533613737E+00    5.3006724498291069E+00    2.0588824456656010E+01
H    2.8140687657484924E+00    5.0703821121058139E+00    2.0776130387190353E+01
C    4.1898465779343761E+00    6.4256190347407349E+00    2.1473147110837683E+01
H    4.5094982358198292E+00    6.0421652574226847E+00    2.2449123890241314E+01
H    4.9703912390425540E+00    7.0292955739850926E+00    2.0997579077516068E+01
H    3.2837648224026190E+00    7.0350369266632695E+00    2.1574302715597440E+01
     &END COORD
     &KIND C
       BASIS_SET DZVP-MOLOPT-SR-GTH-q4
       POTENTIAL GTH-PBE-q4
       &POTENTIAL
 2 2
  0.3384712400000000E+00 2 -0.8803673979999999E+01  0.1339210850000000E+01
 2
  0.3025757500000000E+00 1  0.9622486650000001E+01
  0.2915069400000000E+00 0
         # Potential name:  GTH-PBE-Q4  for symbol:  C
         # Potential read from the potential filename: GTH_POTENTIALS
       &END POTENTIAL
     &END KIND
     &KIND O
       BASIS_SET DZVP-MOLOPT-SR-GTH-q6
       POTENTIAL GTH-PBE-q6
       &POTENTIAL
 2 4
  0.2445543000000000E+00 2 -0.1666721480000000E+02  0.2487311320000000E+01
 2
  0.2209559200000000E+00 1  0.1833745811000000E+02
  0.2113324700000000E+00 0
         # Potential name:  GTH-PBE-Q6  for symbol:  O
         # Potential read from the potential filename: GTH_POTENTIALS
       &END POTENTIAL
     &END KIND
     &KIND H
       BASIS_SET DZVP-MOLOPT-SR-GTH-q1
       POTENTIAL GTH-PBE-q1
       &POTENTIAL
 1
  0.2000000000000000E+00 2 -0.4178900440000000E+01  0.7244633100000000E+00
 0
         # Potential name:  GTH-PBE-Q1  for symbol:  H
         # Potential read from the potential filename: GTH_POTENTIALS
       &END POTENTIAL
     &END KIND
     &KIND N
       BASIS_SET DZVP-MOLOPT-SR-GTH-q5
       POTENTIAL GTH-PBE-q5
       &POTENTIAL
 2 3
  0.2837905100000000E+00 2 -0.1241522559000000E+02  0.1868095920000000E+01
 2
  0.2554050000000000E+00 1  0.1363026257000000E+02
  0.2454945300000000E+00 0
         # Potential name:  GTH-PBE-Q5  for symbol:  N
         # Potential read from the potential filename: GTH_POTENTIALS
       &END POTENTIAL
     &END KIND
     &KIND Ga
       BASIS_SET DZVP-MOLOPT-SR-GTH-q13
       POTENTIAL GTH-PBE-q13
       &POTENTIAL
 2 1 10
  0.4900000000000000E+00 0
 3
  0.4167772300000000E+00 3  0.1047568975000000E+02 -0.4921768140000000E+01  0.8707055900000000E+00
  0.7770178090000000E+01 -0.2248152160000000E+01
  0.1784415450000000E+01
  0.5696265200000000E+00 2  0.1777985340000000E+01  0.1958597600000000E+00
 -0.2317443900000000E+00
  0.2381265000000000E+00 1 -0.1624868022000000E+02
         # Potential name:  GTH-PBE-Q13  for symbol:  GA
         # Potential read from the potential filename: GTH_POTENTIALS
       &END POTENTIAL
     &END KIND
     &TOPOLOGY
       COORD_FILE_NAME ../start-first.xyz
       COORD_FILE_FORMAT  XYZ
       NUMBER_OF_ATOMS  156
       MULTIPLE_UNIT_CELL  1 1 1
     &END TOPOLOGY
     &COLVAR
       &DISTANCE
         ATOMS  145 152
       &END DISTANCE
       &PRINT
       &END PRINT
     &END COLVAR
   &END SUBSYS
 &END FORCE_EVAL
