#p

i =      221, E =     -8480.5605712532

0 1
 N                 -0.03621727    2.02899340    2.54693478
 Ga                -0.03084215    0.05312342    2.87801006
 N                 -0.03426771    0.04770969    5.02957401
 Ga                -0.03564495    1.87473827    5.81500193
 N                 -0.03400445    1.89239028    7.80965276
 Ga                -0.03293037    0.04635425    8.45348351
 N                 -0.03283463    0.04705730   10.42656984
 Ga                -0.03356781    1.88720027   11.07647553
 N                 -0.03284595    1.86834242   13.07014315
 Ga                -0.03371654    0.04797907   13.87380452
 N                 -0.03381127    0.04732482   16.07433454
 Ga                -0.03226971    2.08846777   16.48608128
 Ga                -0.03180216    3.73201300    1.52222506
 N                 -1.51744848    4.61340064    2.51280970
 Ga                -1.73778432    2.77109430    3.31311853
 N                 -1.64585844    2.83086426    5.27225600
 Ga                -1.66487287    4.70416007    5.81165893
 N                 -1.65136003    4.69553686    7.80781153
 Ga                -1.63272501    2.83869644    8.44713949
 N                 -1.63093669    2.83923059   10.43984175
 Ga                -1.65643789    4.69862274   11.07621123
 N                 -1.67262679    4.70873289   13.06980964
 Ga                -1.62987867    2.84011928   13.62640939
 N                 -1.65810232    2.82370758   15.58880935
 Ga                -1.48057530    4.59823386   16.48607212
 N                 -0.03917174    3.75746441   17.61925445
 N                 -3.24772513    7.59358349    2.52654133
 Ga                -3.24075037    5.61557270    2.85054249
 N                 -3.24441746    5.61364564    5.01874275
 Ga                -3.24832053    7.44447624    5.80008952
 N                 -3.24973371    7.46277465    7.79938573
 Ga                -3.25011927    5.61861212    8.45180060
 N                 -3.24972884    5.61855388   10.42548351
 Ga                -3.24972347    7.45823892   11.07520712
 N                 -3.24896254    7.43891201   13.06922369
 Ga                -3.24900387    5.61855008   13.87234014
 N                 -3.24927671    5.61813122   16.07398082
 Ga                -3.24804278    7.65733134   16.48417297
 Ga                -3.24602386    9.32385277    1.44825257
 N                 -4.75325661   10.20218102    2.52231698
 Ga                -4.94841467    8.34954608    3.28318392
 N                 -4.85754909    8.40218867    5.25218118
 Ga                -4.88046087   10.27312788    5.80401189
 N                 -4.86695185   10.26549657    7.80156053
 Ga                -4.84710826    8.40834596    8.44169205
 N                 -4.84655384    8.40957514   10.43581337
 Ga                -4.87208666   10.26795511   11.07626772
 N                 -4.88884169   10.27896352   13.07002613
 Ga                -4.84562455    8.41032310   13.62593651
 N                 -4.87345088    8.39342834   15.58879453
 Ga                -4.69892831   10.16987420   16.48429625
 N                 -3.25611485    9.32803587   17.61608570
 N                  3.16747205    1.90879251    2.60421952
 Ga                 3.18035611    0.15387721    3.28443574
 N                  3.18257738    0.05207047    5.25184742
 Ga                 3.18479283    1.90114297    5.89310977
 N                  3.18401531    1.90324794    7.86301449
 Ga                 3.18254079    0.03435051    8.44646386
 N                  3.18256368    0.03451974   10.43854741
 Ga                 3.18238579    1.90439870   11.03239206
 N                  3.18364964    1.90492030   13.00388154
 Ga                 3.18368590    0.03539256   13.62582755
 N                  3.18603666    0.06749035   15.58760436
 Ga                 3.18403174    1.90553195   15.86794873
 N                  1.46995585    4.62492019    2.53135153
 Ga                 1.66667150    2.78263389    3.32750939
 N                  1.57901088    2.83036842    5.27915496
 Ga                 1.59694177    4.70589476    5.81467637
 N                  1.58453070    4.69609899    7.80903638
 Ga                 1.56483336    2.83825928    8.44704461
 N                  1.56352113    2.83952454   10.43936956
 Ga                 1.58975447    4.69884150   11.07600732
 N                  1.60682498    4.70864537   13.06920210
 Ga                 1.56465040    2.84008499   13.62614489
 N                  1.59342326    2.82540208   15.58732132
 Ga                 1.41027527    4.59493739   16.48693919
 N                 -0.03486860    7.47147082    2.61963874
 Ga                -0.02472960    5.72631437    3.29796614
 N                 -0.03353375    5.62028704    5.26314995
 Ga                -0.03590853    7.47426828    5.88498830
 N                 -0.03376096    7.47533844    7.85832188
 Ga                -0.03423813    5.60775532    8.44692941
 N                 -0.03341378    5.60577807   10.43919070
 Ga                -0.03426375    7.47551695   11.03182196
 N                 -0.03295441    7.47576492   13.00325715
 Ga                -0.03261921    5.60635515   13.62606234
 N                 -0.03091894    5.63820377   15.58730467
 Ga                -0.03206758    7.47593339   15.86728076
 N                 -1.74863886   10.20083893    2.52747276
 Ga                -1.54894081    8.34839928    3.28749681
 N                 -1.63977527    8.40286498    5.25531260
 Ga                -1.61796387   10.27396926    5.80373392
 N                 -1.63314021   10.26554161    7.80211458
 Ga                -1.65238013    8.40878639    8.44261190
 N                 -1.65313049    8.40997901   10.43622223
 Ga                -1.62661704   10.26856097   11.07523593
 N                 -1.60920699   10.27892199   13.06877141
 Ga                -1.65158388    8.41041122   13.62550728
 N                 -1.62334370    8.39579070   15.58700957
 Ga                -1.80434749   10.16556231   16.48520841
 N                  6.39494356    2.02493115    2.53021641
 Ga                 6.39333763    0.04476419    2.86484396
 N                  6.39956197    0.04693838    5.02817039
 Ga                 6.39702072    1.87464007    5.80612511
 N                  6.39762410    1.89395082    7.80341269
 Ga                 6.39725788    0.04765279    8.45118723
 N                  6.39870188    0.04784282   10.42519610
 Ga                 6.39885923    1.88731707   11.07619385
 N                  6.39933966    1.86825145   13.07007836
 Ga                 6.39910408    0.04726908   13.87215939
 N                  6.39876760    0.04668969   16.07432834
 Ga                 6.40046702    2.08351195   16.48209159
 Ga                 6.40362693    3.76085125    1.48436441
 N                  4.89230554    4.62659317    2.52871627
 Ga                 4.68893622    2.77381969    3.28845050
 N                  4.78578731    2.82941127    5.25304110
 Ga                 4.76834612    4.70147994    5.80675153
 N                  4.78124293    4.69421134    7.80262469
 Ga                 4.80130586    2.83857183    8.44765773
 N                  4.80194057    2.83963481   10.43952716
 Ga                 4.77688376    4.69878802   11.07631543
 N                  4.75974065    4.70877648   13.07017167
 Ga                 4.80258606    2.84005235   13.62593879
 N                  4.77678657    2.82437775   15.58982494
 Ga                 4.94652008    4.60140710   16.48211225
 N                  6.39224799    3.75779657   17.61636500
 N                  3.18172080    7.59668953    2.53950701
 N                  3.18328981    5.61819722    5.03197581
 Ga                 3.18338832    7.44809974    5.81014818
 N                  3.18287443    7.46382092    7.80515949
 Ga                 3.18358632    5.61812407    8.45349684
 N                  3.18372477    5.61834391   10.42641293
 Ga                 3.18290833    7.45819660   11.07601695
 N                  3.18322065    7.43910356   13.06949429
 Ga                 3.18216873    5.61897223   13.87278377
 N                  3.18203212    5.61833924   16.07442446
 Ga                 3.18391052    7.65816766   16.48592271
 Ga                 3.18106356    9.33070670    1.51003710
 N                  1.68027873   10.19821671    2.53542910
 Ga                 1.47107419    8.34530563    3.30014696
 N                  1.57313971    8.40217245    5.26220081
 Ga                 1.54840055   10.27432014    5.80998270
 N                  1.56462803   10.26545331    7.80609657
 Ga                 1.58362774    8.40891095    8.44582206
 N                  1.58563188    8.40961134   10.43836384
 Ga                 1.55971800   10.26868198   11.07584297
 N                  1.54336700   10.27895411   13.06940277
 Ga                 1.58626091    8.41047718   13.62628830
 N                  1.55962363    8.39482698   15.58905135
 Ga                 1.73502911   10.16886944   16.48621371
 N                  3.17689318    9.32753242   17.62170371
 N                  9.61671946    1.90551924    2.62173331
 Ga                 9.61334565    0.16307985    3.30056030
 N                  9.61445798    0.04854962    5.26288125
 Ga                 9.61255815    1.90419793    5.89059248
 N                  9.61334323    1.90356807    7.86189728
 Ga                 9.61414182    0.03543578    8.44712726
 N                  9.61501493    0.03468045   10.43908416
 Ga                 9.61401896    1.90469563   11.03229053
 N                  9.61493433    1.90487960   13.00412499
 Ga                 9.61553675    0.03521562   13.62607642
 N                  9.61713135    0.06657392   15.58768584
 Ga                 9.61559490    1.90494625   15.86686257
 N                  7.90295422    4.62645579    2.53025681
 Ga                 8.10287781    2.77480803    3.29492095
 N                  8.00675392    2.83033334    5.25908191
 Ga                 8.03443850    4.70326652    5.80308020
 N                  8.01708243    4.69504374    7.80106154
 Ga                 7.99565645    2.83890153    8.44493308
 N                  7.99507767    2.83982790   10.43781337
 Ga                 8.02159316    4.69887694   11.07511069
 N                  8.03893171    4.70858974   13.06885635
 Ga                 7.99656733    2.84015244   13.62537120
 N                  8.02366625    2.82611224   15.58781061
 Ga                 7.84749362    4.59727143   16.48268614
 N                  6.40068497    7.47453659    2.61562162
 Ga                 6.40038021    5.73020862    3.29049018
 N                  6.39977046    5.61809904    5.25559990
 Ga                 6.40199861    7.47454205    5.88033697
 N                  6.39920119    7.47451397    7.85428556
 Ga                 6.39950140    5.60659810    8.44214007
 N                  6.39902092    5.60548207   10.43575457
 Ga                 6.39897677    7.47488937   11.03075886
 N                  6.39947532    7.47513112   13.00303675
 Ga                 6.39981203    5.60592465   13.62554544
 N                  6.40184982    5.63640920   15.58820952
 Ga                 6.39934756    7.47568177   15.86720195
 N                  4.68379511   10.19923777    2.53612849
 Ga                 4.89346766    8.34494482    3.29730949
 N                  4.79304343    8.40212073    5.25993845
 Ga                 4.81538657   10.27367021    5.80969520
 N                  4.80010897   10.26534478    7.80534748
 Ga                 4.78199334    8.40828775    8.44455691
 N                  4.77993055    8.40973307   10.43722917
 Ga                 4.80584998   10.26864404   11.07600060
 N                  4.82282119   10.27887043   13.06906599
 Ga                 4.78048693    8.41045396   13.62571808
 N                  4.80824765    8.39582930   15.58724237
 Ga                 4.62741393   10.16567749   16.48666160
 O                  1.05528668    3.46649042   -0.26483687
 H                  1.81473597    4.01387846    0.03486611
 C                  1.56115550    2.08416277   -0.45208366
 H                  2.21273652    1.80933018    0.39427429
 H                  0.67971592    1.43671473   -0.48241564
 H                  2.09271811    2.05492163   -1.40979199
 Ga                 3.23312118    5.61140927    2.56868130
 O                  3.21437588    5.57393118    0.20452531
 H                  3.00830077    6.49529536   -0.02988460
 C                  4.41682358    5.15744679   -0.48539751
 H                  5.32092359    5.55609690    0.00028469
 H                  4.46083168    4.06086915   -0.43240871
 H                  4.38616457    5.49054614   -1.53165328

