 # Version information for this restart file 
 # current date 2019-06-28 11:07:20.014
 # current working dir /scratch/rzk/rzk/GaN-carbene/443-adatoms-both-2x2/04-2Methanol/02-Combine12-Rotate60
 # Program compiled at                              Sun Apr  7 00:48:11 EDT 2019
 # Program compiled on                          beluga2.int.ets1.calculquebec.ca
 # Program compiled for                        Beluga-Linux-x86-64-intel-openmpi
 # Source code revision number                                         svn:18619
 &GLOBAL
   PRINT_LEVEL  MEDIUM
   PROJECT_NAME TEST
   RUN_TYPE  GEO_OPT
 &END GLOBAL
 &MOTION
   &GEO_OPT
     MAX_ITER  500
     STEP_START_VAL  157
   &END GEO_OPT
 &END MOTION
 &FORCE_EVAL
   METHOD  QS
   STRESS_TENSOR  ANALYTICAL
   &DFT
     BASIS_SET_FILE_NAME BASIS_MOLOPT
     POTENTIAL_FILE_NAME GTH_POTENTIALS
     UKS  T
     SURFACE_DIPOLE_CORRECTION  T
     SURF_DIP_DIR  Z
     &SCF
       MAX_SCF  80
       EPS_SCF     5.0000000000000004E-06
       &OT  T
         PRECONDITIONER  FULL_ALL
       &END OT
       &OUTER_SCF  T
         OPTIMIZER  NONE
         EPS_SCF     5.0000000000000004E-06
         MAX_SCF  4
       &END OUTER_SCF
       &PRINT
         &RESTART  OFF
           BACKUP_COPIES  1
           &EACH
             JUST_ENERGY  0
             QS_SCF  0
             MD  20
           &END EACH
         &END RESTART
       &END PRINT
     &END SCF
     &QS
       EPS_DEFAULT     1.0000000000000000E-14
       METHOD  GPW
     &END QS
     &MGRID
       NGRIDS  5
       CUTOFF     1.2000000000000000E+03
     &END MGRID
     &XC
       DENSITY_CUTOFF     1.0000000000000000E-10
       GRADIENT_CUTOFF     1.0000000000000000E-10
       TAU_CUTOFF     1.0000000000000000E-10
       &XC_FUNCTIONAL  NO_SHORTCUT
         &PBE  T
         &END PBE
       &END XC_FUNCTIONAL
       &VDW_POTENTIAL
         POTENTIAL_TYPE  PAIR_POTENTIAL
         &PAIR_POTENTIAL
           R_CUTOFF     1.0000000000000004E+01
           TYPE  DFTD3
           PARAMETER_FILE_NAME dftd3.dat
           REFERENCE_FUNCTIONAL PBE
           EPS_CN     9.9999999999999995E-07
           CALCULATE_C9_TERM  T
           REFERENCE_C9_TERM  T
           LONG_RANGE_CORRECTION  F
           VERBOSE_OUTPUT  F
         &END PAIR_POTENTIAL
       &END VDW_POTENTIAL
     &END XC
   &END DFT
   &SUBSYS
     &CELL
       A     1.2864472766435110E+01    0.0000000000000000E+00    0.0000000000000000E+00
       B    -6.4322363581020028E+00    1.1140960178524473E+01    0.0000000000000000E+00
       C     0.0000000000000000E+00    0.0000000000000000E+00    3.2000000000000000E+01
       MULTIPLE_UNIT_CELL  1 1 1
       &CELL_REF
         A     1.2982353780853531E+01    0.0000000000000000E+00    0.0000000000000000E+00
         B    -6.4911768904267628E+00    1.1243048175136114E+01    0.0000000000000000E+00
         C     0.0000000000000000E+00    0.0000000000000000E+00    3.2000000000000000E+01
         MULTIPLE_UNIT_CELL  1 1 1
       &END CELL_REF
     &END CELL
     &COORD
N    9.1966477445826172E-02    1.9463545036845482E+00    2.4850953539921692E+00
Ga    7.3624938817340377E-02   -2.5526021290213915E-02    2.8188691618019601E+00
N    9.5070220524645241E-02   -5.7603354296812029E-02    5.0124289599450913E+00
Ga    9.3028075707077745E-02    1.7671240331675151E+00    5.7958740433969194E+00
N    9.0935078553095405E-02    1.7827446369345596E+00    7.7987472269144806E+00
Ga    8.7894762710580401E-02   -6.2420352161551958E-02    8.4407244010133162E+00
N    8.8756635161625019E-02   -6.4068592231332461E-02    1.0417411329206070E+01
Ga    8.8691825474077668E-02    1.7759616299515313E+00    1.1066607567136316E+01
N    8.7798682879943774E-02    1.7568863919406295E+00    1.3062445581052978E+01
Ga    8.8035563336229611E-02   -6.3403431044677522E-02    1.3864410522699039E+01
N    8.8995977573545396E-02   -6.4527025123353524E-02    1.6068821006955321E+01
Ga    8.7350800566482950E-02    1.9740854992442034E+00    1.6479104438910898E+01
Ga    6.5253948220114683E-02    3.6568372658989987E+00    1.3644143985440900E+00
N   -1.3940975055875764E+00    4.5167114503989625E+00    2.5229861250315841E+00
Ga   -1.5878403809557735E+00    2.6724141870355673E+00    3.2755638908262861E+00
N   -1.5171360620078629E+00    2.7216790105590074E+00    5.2547887666031601E+00
Ga   -1.5460346754756424E+00    4.5862834716477909E+00    5.8061909349048495E+00
N   -1.5280630653792560E+00    4.5861229465385955E+00    7.8019925255968161E+00
Ga   -1.5088958290278651E+00    2.7250085318349582E+00    8.4329928705884587E+00
N   -1.5081521323688762E+00    2.7281047155965799E+00    1.0429763954570108E+01
Ga   -1.5342479036690193E+00    4.5856870714855358E+00    1.1069083269200314E+01
N   -1.5520588360190160E+00    4.5968934679762583E+00    1.3063344903749361E+01
Ga   -1.5096477681397342E+00    2.7280378269589129E+00    1.3618687415745717E+01
N   -1.5371044421881528E+00    2.7135722945896177E+00    1.5581489756395731E+01
Ga   -1.3575944152420891E+00    4.4838076244321989E+00    1.6479894147088697E+01
N    9.4401730123883934E-02    3.6449046556553033E+00    1.7614011777845011E+01
N   -3.1183397998729765E+00    7.4865910721249351E+00    2.5300065272626329E+00
Ga   -3.0973421468536992E+00    5.4827323173759019E+00    2.8497005964159028E+00
N   -3.1237682474968387E+00    5.5086420020467584E+00    5.0206947157074708E+00
Ga   -3.1312046569455174E+00    7.3288835025603145E+00    5.8067526275641441E+00
N   -3.1245669564777550E+00    7.3540714884124165E+00    7.7985283449874743E+00
Ga   -3.1263521987887577E+00    5.5069866794507272E+00    8.4483026412613516E+00
N   -3.1271500342334959E+00    5.5079790142916281E+00    1.0421278763047075E+01
Ga   -3.1288013315246559E+00    7.3469953202361706E+00    1.1071260011311972E+01
N   -3.1286783767848196E+00    7.3278464812558965E+00    1.3065009868714107E+01
Ga   -3.1281990211142294E+00    5.5068592446255646E+00    1.3866617809747064E+01
N   -3.1274702746790357E+00    5.5062856884175115E+00    1.6068723135250170E+01
Ga   -3.1288329547714278E+00    7.5463955824801268E+00    1.6480015270683325E+01
Ga   -3.1361236251739522E+00    9.2211469893959261E+00    1.5018958919892007E+00
N   -4.6260350993725421E+00    1.0090242162079889E+01    2.5142907205335421E+00
Ga   -4.8446077353330192E+00    8.2398801269435609E+00    3.2895099594381296E+00
N   -4.7312396050315400E+00    8.2942191320811496E+00    5.2506925932328086E+00
Ga   -4.7640698586175860E+00    1.0169353071639405E+01    5.7971761681855698E+00
N   -4.7434752668915134E+00    1.0155592535978444E+01    7.7954564583168269E+00
Ga   -4.7267419933043318E+00    8.2999471297691532E+00    8.4346676489522920E+00
N   -4.7237771788361851E+00    8.2988053365401786E+00    1.0429252181169606E+01
Ga   -4.7506181905857989E+00    1.0157768365706207E+01    1.1067383732657849E+01
N   -4.7679069916411425E+00    1.0167415375001427E+01    1.3062201915952164E+01
Ga   -4.7263153933441977E+00    8.2994293918303672E+00    1.3620181343706230E+01
N   -4.7542068278919434E+00    8.2842558682438074E+00    1.5582205021124501E+01
Ga   -4.5722832717099884E+00    1.0053999166943584E+01    1.6480977673027084E+01
N   -3.1216640562166904E+00    9.2159324670597904E+00    1.7612983279965203E+01
N    3.2980469760991666E+00    1.7995229252147875E+00    2.6158392871168172E+00
Ga    3.3000357329997372E+00    6.0094030433016213E-02    3.2875543753498184E+00
N    3.3091014320083048E+00   -6.5922064169328387E-02    5.2499627956263595E+00
Ga    3.2997400354478708E+00    1.7962295879383074E+00    5.8720257072638908E+00
N    3.3068086082256483E+00    1.7926510722282327E+00    7.8490348495333997E+00
Ga    3.3041091022140519E+00   -7.2994920578902514E-02    8.4375044446639240E+00
N    3.3055313576636181E+00   -7.6351734214370651E-02    1.0431300657278413E+01
Ga    3.3055559742111318E+00    1.7933553040806258E+00    1.1025527795199631E+01
N    3.3044073161779024E+00    1.7931167181545236E+00    1.2998144116918191E+01
Ga    3.3031135844736834E+00   -7.6019925750684378E-02    1.3620221738914415E+01
N    3.3017730964248320E+00   -4.4864773930689252E-02    1.5582281338574298E+01
Ga    3.3034316294057531E+00    1.7933888078663658E+00    1.5861619297839058E+01
N    1.5844297375024239E+00    4.5187887557934623E+00    2.5206526443401542E+00
Ga    1.7689858029132186E+00    2.6854683241708388E+00    3.2654695733956154E+00
N    1.7009880821921952E+00    2.7213883697751289E+00    5.2500820402456689E+00
Ga    1.7321383757152125E+00    4.5858360046903632E+00    5.8069533498514811E+00
N    1.7081348908065892E+00    4.5846837002026941E+00    7.8036683570252618E+00
Ga    1.6881628339604398E+00    2.7257952837179302E+00    8.4368916324829666E+00
N    1.6870416891717595E+00    2.7278170367273193E+00    1.0432343945557433E+01
Ga    1.7132201876650031E+00    4.5864689683269351E+00    1.1069123286168166E+01
N    1.7280654084231639E+00    4.5970758567962218E+00    1.3063976809308953E+01
Ga    1.6846990576255179E+00    2.7279823292757883E+00    1.3619084859252800E+01
N    1.7114628048799223E+00    2.7122743038909736E+00    1.5583080935265871E+01
Ga    1.5381105806667348E+00    4.4872401924621137E+00    1.6479628056745504E+01
N    9.5292801146329514E-02    7.3477886494915738E+00    2.6958370544913492E+00
Ga    1.0211726836865946E-01    5.5072181398922178E+00    3.3372969800699659E+00
N    9.1975835703865735E-02    5.5206256479221363E+00    5.2743052552464418E+00
Ga    1.0013524425367518E-01    7.3621596839606402E+00    5.9053801129987979E+00
N    9.1459204762018770E-02    7.3660371793846178E+00    7.8648714697455047E+00
Ga    9.0634506153168981E-02    5.4923993324932008E+00    8.4438906886930880E+00
N    8.9299548632135711E-02    5.4944128681003503E+00    1.0435368922151428E+01
Ga    9.0198720627351514E-02    7.3637391509563299E+00    1.1028071447117394E+01
N    8.8282566994257627E-02    7.3641785071555939E+00    1.2999807268280982E+01
Ga    8.7496999111565596E-02    5.4938919536438746E+00    1.3619771565873476E+01
N    8.6031443708350197E-02    5.5249587996873428E+00    1.5582400321885071E+01
Ga    8.7721496355389866E-02    7.3636650965344046E+00    1.5861833649756404E+01
N   -1.6182708292978494E+00    1.0078042570490654E+01    2.5223662406862193E+00
Ga   -1.4733201998952299E+00    8.2645363886262473E+00    3.3356611371413019E+00
N   -1.5041865074526788E+00    8.2858822065990143E+00    5.2624701417233499E+00
Ga   -1.4910105812045438E+00    1.0171754899498751E+01    5.8095622381033358E+00
N   -1.5086603497211806E+00    1.0153308474994216E+01    7.8005492385539572E+00
Ga   -1.5294494339884781E+00    8.2994403467660369E+00    8.4467042910110450E+00
N   -1.5301090625503782E+00    8.2988108538698206E+00    1.0436342775502851E+01
Ga   -1.5042854058057942E+00    1.0159035885363137E+01    1.1070894895404207E+01
N   -1.4884000404228606E+00    1.0167929104403349E+01    1.3064887352349160E+01
Ga   -1.5315694346248179E+00    8.2991359231655526E+00    1.3621064966530264E+01
N   -1.5037059844817213E+00    8.2825129891310887E+00    1.5584080133344067E+01
Ga   -1.6792206664919953E+00    1.0057659273269957E+01    1.6480427981568067E+01
N    6.5229515499297994E+00    1.9175594441587485E+00    2.5364345343811445E+00
Ga    6.5426508896648174E+00   -6.3587495907173400E-02    2.8620616109524302E+00
N    6.5195630772832338E+00   -6.2856017529567862E-02    5.0243729243121251E+00
Ga    6.5224714219399811E+00    1.7668879507706714E+00    5.8035781321073356E+00
N    6.5221703405662996E+00    1.7820581783242826E+00    7.8000145526211089E+00
Ga    6.5244333215630270E+00   -6.3213871365648086E-02    8.4453383738286281E+00
N    6.5218844010154786E+00   -6.4156257371452932E-02    1.0419283138476342E+01
Ga    6.5219916266070648E+00    1.7767947629172935E+00    1.1067763104928732E+01
N    6.5203092727846856E+00    1.7569141427868347E+00    1.3062944367405613E+01
Ga    6.5206821336496041E+00   -6.2938510979270820E-02    1.3866298808437932E+01
N    6.5207846053793723E+00   -6.4353662544362700E-02    1.6069402313226956E+01
Ga    6.5197386660203387E+00    1.9748025554175257E+00    1.6478186654211491E+01
Ga    6.5278581013010646E+00    3.6500004318424830E+00    1.5339536157213591E+00
N    5.0222090673558908E+00    4.5167021270475018E+00    2.5295749883258276E+00
Ga    4.8051860073840524E+00    2.6657670824763673E+00    3.2970038654376577E+00
N    4.9132678362647555E+00    2.7214170383186778E+00    5.2578003459115576E+00
Ga    4.8889371169540077E+00    4.5942545033748541E+00    5.8038080447300953E+00
N    4.9053226108599102E+00    4.5847702331324607E+00    7.8008289472338879E+00
Ga    4.9231532181735878E+00    2.7272491041761806E+00    8.4372515743893679E+00
N    4.9244667709504508E+00    2.7279557379461692E+00    1.0431600259760899E+01
Ga    4.8993153521207455E+00    4.5874198762404301E+00    1.1067075816075931E+01
N    4.8809410839768592E+00    4.5970437333324954E+00    1.3061982219817850E+01
Ga    4.9230545899678484E+00    2.7286776102705277E+00    1.3618821034544261E+01
N    4.8948887901811728E+00    2.7137397295188044E+00    1.5581321884420237E+01
Ga    5.0755895428525601E+00    4.4836296688057775E+00    1.6479050911833884E+01
N    6.5277870554340174E+00    3.6457199333071202E+00    1.7610847152859410E+01
N    3.3055772123642355E+00    7.4790894231243294E+00    2.5005751964034593E+00
N    3.3082322469746575E+00    5.5056074173621541E+00    5.0299972949542697E+00
Ga    3.3121462260363681E+00    7.3331460466336322E+00    5.7943762762407456E+00
N    3.3046560863248389E+00    7.3553214685475066E+00    7.7934329945657623E+00
Ga    3.3066904568731936E+00    5.5093931462268575E+00    8.4451498160538847E+00
N    3.3057284901767625E+00    5.5084427352802656E+00    1.0419852907262817E+01
Ga    3.3075471190710872E+00    7.3473381330208527E+00    1.1069634726191447E+01
N    3.3045979433510531E+00    7.3280365899196127E+00    1.3064206842058864E+01
Ga    3.3050047758078480E+00    5.5069732353767078E+00    1.3864953218515362E+01
N    3.3051453256896037E+00    5.5058804769568113E+00    1.6068928118968678E+01
Ga    3.3035979410565526E+00    7.5438002822073216E+00    1.6477998902486117E+01
Ga    3.3444407203755189E+00    9.2436555036273873E+00    1.3181866984264927E+00
N    1.7978174064840613E+00    1.0086021217603269E+01    2.5040029913812023E+00
Ga    1.6943838241169114E+00    8.2818224325530618E+00    3.2876716521481262E+00
N    1.6864233971459326E+00    8.2847155602379647E+00    5.2369164571169495E+00
Ga    1.6770603098712569E+00    1.0165696494904610E+01    5.7944763140359816E+00
N    1.6880534843294106E+00    1.0152248076962270E+01    7.7927533267429752E+00
Ga    1.7124689556353638E+00    8.3008276711861910E+00    8.4443672624510651E+00
N    1.7094142214909085E+00    8.2993189676976638E+00    1.0435052857916844E+01
Ga    1.6839788964433571E+00    1.0159096242277407E+01    1.1069397773753272E+01
N    1.6646000283569413E+00    1.0167813288361279E+01    1.3063537849624600E+01
Ga    1.7072653089406762E+00    8.2994956988709863E+00    1.3620055867182559E+01
N    1.6795803672121148E+00    8.2845519366949443E+00    1.5582845175637116E+01
Ga    1.8576359755708503E+00    1.0055481169468168E+01    1.6478603984994770E+01
N    3.3114988510222219E+00    9.2164363291702376E+00    1.7612778485371802E+01
N    9.7504737371360406E+00    1.7930358607898360E+00    2.6268132862675939E+00
Ga    9.7444453973017584E+00    2.9254580203924768E-02    3.2557138516538395E+00
N    9.7367036440590127E+00   -6.6342490618995664E-02    5.2382528903978285E+00
Ga    9.7460001932807128E+00    1.7876806669478167E+00    5.8647285285140631E+00
N    9.7381192764175886E+00    1.7921870842840140E+00    7.8452305734564876E+00
Ga    9.7405768443796923E+00   -7.4664373846516557E-02    8.4292765034832069E+00
N    9.7375470952835066E+00   -7.6753225232603570E-02    1.0426958994802487E+01
Ga    9.7381238012145612E+00    1.7925062332528205E+00    1.1022819638671097E+01
N    9.7363105195987654E+00    1.7927765974681986E+00    1.2996583717958973E+01
Ga    9.7362420451995639E+00   -7.5989064071154730E-02    1.3619388918606237E+01
N    9.7343488292843450E+00   -4.5899101174867542E-02    1.5582409448678435E+01
Ga    9.7359420411723043E+00    1.7930739511173950E+00    1.5861170529869296E+01
N    8.0270944879194257E+00    4.5177691412365979E+00    2.5371714428421051E+00
Ga    8.2443092083036120E+00    2.6578786292890930E+00    3.2990028031766485E+00
N    8.1319957996533088E+00    2.7211469134535271E+00    5.2591740492080943E+00
Ga    8.1559923430987897E+00    4.5932583500160842E+00    5.8005407837409493E+00
N    8.1410557280470552E+00    4.5857629040446266E+00    7.7979041513152039E+00
Ga    8.1230331113939496E+00    2.7267614052104072E+00    8.4339745177520076E+00
N    8.1190729661222409E+00    2.7281989275870697E+00    1.0429992983679572E+01
Ga    8.1435529494799468E+00    4.5867201069625914E+00    1.1068421413943160E+01
N    8.1597761592220355E+00    4.5970527444716636E+00    1.3063340654093539E+01
Ga    8.1173081905769564E+00    2.7281486566422894E+00    1.3618858839875625E+01
N    8.1443963954756757E+00    2.7119063864434061E+00    1.5582611065867567E+01
Ga    7.9708834129969830E+00    4.4878360392684362E+00    1.6477846931074438E+01
N    6.5191451802895806E+00    7.3668690341073662E+00    2.6094093422716704E+00
Ga    6.5186871514313527E+00    5.6303426146307753E+00    3.2952159788791100E+00
N    6.5231629565983509E+00    5.5096069948434048E+00    5.2557031491509996E+00
Ga    6.5160680041471615E+00    7.3693896268022776E+00    5.8676273050291003E+00
N    6.5221486801619628E+00    7.3653401034995873E+00    7.8444191101011436E+00
Ga    6.5228005666326458E+00    5.4979220287397705E+00    8.4353082587402763E+00
N    6.5220500493664249E+00    5.4952776177002018E+00    1.0430091978306361E+01
Ga    6.5211993768276821E+00    7.3646307333200314E+00    1.1023523939978219E+01
N    6.5201382523896916E+00    7.3643299143553129E+00    1.2996693777510391E+01
Ga    6.5197649977309462E+00    5.4948778162084775E+00    1.3618760079998337E+01
N    6.5179259169674486E+00    5.5257685736815150E+00    1.5581381549679829E+01
Ga    6.5192995079686327E+00    7.3640037785798276E+00    1.5862090552342874E+01
N    4.8173001503331836E+00    1.0093671038201681E+01    2.5087988544152950E+00
Ga    4.9924365620047446E+00    8.2499601987978775E+00    3.2525451570730333E+00
N    4.9136009371987335E+00    8.2925858678039521E+00    5.2352642294733132E+00
Ga    4.9417413840122340E+00    1.0165401599782109E+01    5.7811255170539697E+00
N    4.9247642760780979E+00    1.0155252631682359E+01    7.7877427924159219E+00
Ga    4.9048053677411669E+00    8.3013487607479828E+00    8.4305754566775430E+00
N    4.9026649389198989E+00    8.2989366125862158E+00    1.0427607891118246E+01
Ga    4.9276274986247977E+00    1.0157565113789250E+01    1.1066415961161045E+01
N    4.9434319563360702E+00    1.0167417666853902E+01    1.3062340629765675E+01
Ga    4.9014541580402629E+00    8.2993305165319828E+00    1.3619678777848820E+01
N    4.9273258393646904E+00    8.2832721381119914E+00    1.5583893509445753E+01
Ga    4.7561494720963262E+00    1.0059568556199347E+01    1.6477795716257251E+01
O    9.3806856716344422E-02    4.0805827105607904E+00   -4.2924303456709634E-01
H   -1.5079776207343040E-01    5.8645883289602780E+00   -3.3308183614060988E-01
C    1.2892729653897548E+00    3.7106876853609969E+00   -1.1446302354046809E+00
H    2.2021114396535624E+00    4.0771113774149113E+00   -6.4624837316829264E-01
H    1.3674929648030343E+00    2.6182019820500297E+00   -1.2550136822646643E+00
H    1.2322993165769940E+00    4.1578907125723150E+00   -2.1473391562250068E+00
Ga    3.2798522481632642E+00    5.5039352502358074E+00    2.8532353725419521E+00
O   -1.9853978971964703E-01    6.8491150742888776E+00   -1.8941405621854329E-01
H    4.3391941622941577E-02    7.2785180938790699E+00    1.6580718827209078E+00
C    8.7860806853029016E-01    7.4449897277818247E+00   -9.2512401244288445E-01
H    7.9458296304699205E-01    8.5335600966599472E+00   -8.0685682461690644E-01
H    1.8645579789813103E+00    7.1286651086056736E+00   -5.4316909078117415E-01
H    8.2214350671263114E-01    7.2072477007676561E+00   -1.9982257975383704E+00
     &END COORD
     &KIND C
       BASIS_SET DZVP-MOLOPT-SR-GTH-q4
       POTENTIAL GTH-PBE-q4
       &POTENTIAL
 2 2
  0.3384712400000000E+00 2 -0.8803673979999999E+01  0.1339210850000000E+01
 2
  0.3025757500000000E+00 1  0.9622486650000001E+01
  0.2915069400000000E+00 0
         # Potential name:  GTH-PBE-Q4  for symbol:  C
         # Potential read from the potential filename: GTH_POTENTIALS
       &END POTENTIAL
     &END KIND
     &KIND O
       BASIS_SET DZVP-MOLOPT-SR-GTH-q6
       POTENTIAL GTH-PBE-q6
       &POTENTIAL
 2 4
  0.2445543000000000E+00 2 -0.1666721480000000E+02  0.2487311320000000E+01
 2
  0.2209559200000000E+00 1  0.1833745811000000E+02
  0.2113324700000000E+00 0
         # Potential name:  GTH-PBE-Q6  for symbol:  O
         # Potential read from the potential filename: GTH_POTENTIALS
       &END POTENTIAL
     &END KIND
     &KIND H
       BASIS_SET DZVP-MOLOPT-SR-GTH-q1
       POTENTIAL GTH-PBE-q1
       &POTENTIAL
 1
  0.2000000000000000E+00 2 -0.4178900440000000E+01  0.7244633100000000E+00
 0
         # Potential name:  GTH-PBE-Q1  for symbol:  H
         # Potential read from the potential filename: GTH_POTENTIALS
       &END POTENTIAL
     &END KIND
     &KIND N
       BASIS_SET DZVP-MOLOPT-SR-GTH
       POTENTIAL GTH-PBE-q5
       &POTENTIAL
 2 3
  0.2837905100000000E+00 2 -0.1241522559000000E+02  0.1868095920000000E+01
 2
  0.2554050000000000E+00 1  0.1363026257000000E+02
  0.2454945300000000E+00 0
         # Potential name:  GTH-PBE-Q5  for symbol:  N
         # Potential read from the potential filename: GTH_POTENTIALS
       &END POTENTIAL
     &END KIND
     &KIND Ga
       BASIS_SET DZVP-MOLOPT-SR-GTH
       POTENTIAL GTH-PBE-q13
       &POTENTIAL
 2 1 10
  0.4900000000000000E+00 0
 3
  0.4167772300000000E+00 3  0.1047568975000000E+02 -0.4921768140000000E+01  0.8707055900000000E+00
  0.7770178090000000E+01 -0.2248152160000000E+01
  0.1784415450000000E+01
  0.5696265200000000E+00 2  0.1777985340000000E+01  0.1958597600000000E+00
 -0.2317443900000000E+00
  0.2381265000000000E+00 1 -0.1624868022000000E+02
         # Potential name:  GTH-PBE-Q13  for symbol:  GA
         # Potential read from the potential filename: GTH_POTENTIALS
       &END POTENTIAL
     &END KIND
     &TOPOLOGY
       NUMBER_OF_ATOMS  212
       MULTIPLE_UNIT_CELL  1 1 1
     &END TOPOLOGY
   &END SUBSYS
 &END FORCE_EVAL
