 # Version information for this restart file 
 # current date 2019-06-28 11:05:22.852
 # current working dir /scratch/rzk/rzk/GaN-carbene/443-adatoms-both-2x2/04-2Methanol/02-Combine12-Rotate60
 # Program compiled at                              Sun Apr  7 00:48:11 EDT 2019
 # Program compiled on                          beluga2.int.ets1.calculquebec.ca
 # Program compiled for                        Beluga-Linux-x86-64-intel-openmpi
 # Source code revision number                                         svn:18619
 &GLOBAL
   PRINT_LEVEL  MEDIUM
   PROJECT_NAME TEST
   RUN_TYPE  GEO_OPT
 &END GLOBAL
 &MOTION
   &GEO_OPT
     MAX_ITER  500
     STEP_START_VAL  156
   &END GEO_OPT
 &END MOTION
 &FORCE_EVAL
   METHOD  QS
   STRESS_TENSOR  ANALYTICAL
   &DFT
     BASIS_SET_FILE_NAME BASIS_MOLOPT
     POTENTIAL_FILE_NAME GTH_POTENTIALS
     UKS  T
     SURFACE_DIPOLE_CORRECTION  T
     SURF_DIP_DIR  Z
     &SCF
       MAX_SCF  80
       EPS_SCF     5.0000000000000004E-06
       &OT  T
         PRECONDITIONER  FULL_ALL
       &END OT
       &OUTER_SCF  T
         OPTIMIZER  NONE
         EPS_SCF     5.0000000000000004E-06
         MAX_SCF  4
       &END OUTER_SCF
       &PRINT
         &RESTART  OFF
           BACKUP_COPIES  1
           &EACH
             JUST_ENERGY  0
             QS_SCF  0
             MD  20
           &END EACH
         &END RESTART
       &END PRINT
     &END SCF
     &QS
       EPS_DEFAULT     1.0000000000000000E-14
       METHOD  GPW
     &END QS
     &MGRID
       NGRIDS  5
       CUTOFF     1.2000000000000000E+03
     &END MGRID
     &XC
       DENSITY_CUTOFF     1.0000000000000000E-10
       GRADIENT_CUTOFF     1.0000000000000000E-10
       TAU_CUTOFF     1.0000000000000000E-10
       &XC_FUNCTIONAL  NO_SHORTCUT
         &PBE  T
         &END PBE
       &END XC_FUNCTIONAL
       &VDW_POTENTIAL
         POTENTIAL_TYPE  PAIR_POTENTIAL
         &PAIR_POTENTIAL
           R_CUTOFF     1.0000000000000004E+01
           TYPE  DFTD3
           PARAMETER_FILE_NAME dftd3.dat
           REFERENCE_FUNCTIONAL PBE
           EPS_CN     9.9999999999999995E-07
           CALCULATE_C9_TERM  T
           REFERENCE_C9_TERM  T
           LONG_RANGE_CORRECTION  F
           VERBOSE_OUTPUT  F
         &END PAIR_POTENTIAL
       &END VDW_POTENTIAL
     &END XC
   &END DFT
   &SUBSYS
     &CELL
       A     1.2864472766435110E+01    0.0000000000000000E+00    0.0000000000000000E+00
       B    -6.4322363581020028E+00    1.1140960178524473E+01    0.0000000000000000E+00
       C     0.0000000000000000E+00    0.0000000000000000E+00    3.2000000000000000E+01
       MULTIPLE_UNIT_CELL  1 1 1
       &CELL_REF
         A     1.2982353780853531E+01    0.0000000000000000E+00    0.0000000000000000E+00
         B    -6.4911768904267628E+00    1.1243048175136114E+01    0.0000000000000000E+00
         C     0.0000000000000000E+00    0.0000000000000000E+00    3.2000000000000000E+01
         MULTIPLE_UNIT_CELL  1 1 1
       &END CELL_REF
     &END CELL
     &COORD
N    9.2002066460655799E-02    1.9465166767279913E+00    2.4846932027611492E+00
Ga    7.3561236931302301E-02   -2.5535025197039006E-02    2.8186877916892343E+00
N    9.5178137972361562E-02   -5.7447575206710719E-02    5.0123951623812451E+00
Ga    9.3169493589705929E-02    1.7671919584768208E+00    5.7958200232002648E+00
N    9.0961582022021203E-02    1.7828389323896618E+00    7.7987932788935002E+00
Ga    8.7858295734195194E-02   -6.2329081834337795E-02    8.4407040201323369E+00
N    8.8630419969400326E-02   -6.4070370931943357E-02    1.0417480775670720E+01
Ga    8.8647228375283868E-02    1.7760504562402211E+00    1.1066458578016668E+01
N    8.7612949012132221E-02    1.7567158476425946E+00    1.3062305128349513E+01
Ga    8.7855044986550224E-02   -6.3569544108757259E-02    1.3864298544389769E+01
N    8.8926304089435596E-02   -6.4568742266775253E-02    1.6068738903842174E+01
Ga    8.7151621560450157E-02    1.9740862621383957E+00    1.6479299289501775E+01
Ga    6.5057788348442391E-02    3.6569842562226542E+00    1.3640126074982122E+00
N   -1.3940228151636296E+00    4.5170312034323183E+00    2.5228498177528316E+00
Ga   -1.5878113380789678E+00    2.6726468808194404E+00    3.2753395153350273E+00
N   -1.5169689318519388E+00    2.7217823982438403E+00    5.2546723790822192E+00
Ga   -1.5459353015512616E+00    4.5864676270036160E+00    5.8060465544197557E+00
N   -1.5279708016084719E+00    4.5861575911679813E+00    7.8020622484296629E+00
Ga   -1.5088219734218309E+00    2.7250376490075117E+00    8.4330233498987859E+00
N   -1.5083005350032623E+00    2.7280789272367523E+00    1.0429819888560839E+01
Ga   -1.5342242340855536E+00    4.5856302508196416E+00    1.1068991668753574E+01
N   -1.5522827399875829E+00    4.5967512882028920E+00    1.3063165491410757E+01
Ga   -1.5099022688874639E+00    2.7278829046173549E+00    1.3618477745601599E+01
N   -1.5371166553479365E+00    2.7134578505350779E+00    1.5581173042324902E+01
Ga   -1.3575830084281348E+00    4.4834584312386978E+00    1.6479928507977871E+01
N    9.4188549479564260E-02    3.6447052242650235E+00    1.7614659465404195E+01
N   -3.1181446190733961E+00    7.4867332477567610E+00    2.5297875117018971E+00
Ga   -3.0974900807177352E+00    5.4829180824193839E+00    2.8493092027997284E+00
N   -3.1237523931769262E+00    5.5088031785323990E+00    5.0205736285098617E+00
Ga   -3.1310867385643855E+00    7.3290788353210026E+00    5.8066071552530856E+00
N   -3.1245352138060571E+00    7.3541214992516961E+00    7.7985506133993594E+00
Ga   -3.1262965119017783E+00    5.5069826928792720E+00    8.4483575221674165E+00
N   -3.1271910495945421E+00    5.5079072273545844E+00    1.0421418475289622E+01
Ga   -3.1288649799603117E+00    7.3469226054494845E+00    1.1071213339939570E+01
N   -3.1288306642631074E+00    7.3277167074800538E+00    1.3065044433942829E+01
Ga   -3.1283453564791879E+00    5.5066659126623225E+00    1.3866307249261705E+01
N   -3.1275450774982936E+00    5.5061374083902779E+00    1.6068465592985984E+01
Ga   -3.1289858338536609E+00    7.5459153674789050E+00    1.6480079406350601E+01
Ga   -3.1361010590222587E+00    9.2213008455131273E+00    1.5015025221839271E+00
N   -4.6260295447153235E+00    1.0090389088064406E+01    2.5140928808803769E+00
Ga   -4.8444205545406822E+00    8.2400030951025016E+00    3.2894034522483273E+00
N   -4.7311375770626638E+00    8.2943434813670667E+00    5.2506198746852917E+00
Ga   -4.7640009484859114E+00    1.0169447537350376E+01    5.7971112538769241E+00
N   -4.7435184620019024E+00    1.0155633431553472E+01    7.7954648658970918E+00
Ga   -4.7267469304084848E+00    8.3000014016691122E+00    8.4345608061613468E+00
N   -4.7238745425279749E+00    8.2987275055773946E+00    1.0429272650246892E+01
Ga   -4.7507127849756126E+00    1.0157743558955186E+01    1.1067232016801352E+01
N   -4.7680086801044013E+00    1.0167228439864360E+01    1.3062186911400323E+01
Ga   -4.7265062076229487E+00    8.2992038804470241E+00    1.3620260336310713E+01
N   -4.7542185474921679E+00    8.2841755035666598E+00    1.5582389083455082E+01
Ga   -4.5727137582449036E+00    1.0053968745064354E+01    1.6480931132869145E+01
N   -3.1218679066801749E+00    9.2156931514179288E+00    1.7613033524303756E+01
N    3.2981114225269459E+00    1.7995614010836416E+00    2.6160784039806444E+00
Ga    3.3000847765269774E+00    6.0071734443278013E-02    3.2876403120081164E+00
N    3.3091278558870378E+00   -6.5812629518265983E-02    5.2500055475047471E+00
Ga    3.2997299923853984E+00    1.7963088251954105E+00    5.8720755803469311E+00
N    3.3067762868363597E+00    1.7926918493559520E+00    7.8490940032314001E+00
Ga    3.3040806480013898E+00   -7.2931160496071443E-02    8.4374187908600184E+00
N    3.3054357702371138E+00   -7.6327315737288071E-02    1.0431293167161639E+01
Ga    3.3055593050910796E+00    1.7934362630189600E+00    1.1025438838363918E+01
N    3.3044253120141445E+00    1.7929777780923839E+00    1.2998241988073845E+01
Ga    3.3030371074341116E+00   -7.6250671655721455E-02    1.3620221629989880E+01
N    3.3016012117062457E+00   -4.5140341240965422E-02    1.5582438517954463E+01
Ga    3.3030946344442209E+00    1.7932575296631439E+00    1.5861548026500335E+01
N    1.5845157082158279E+00    4.5190200212554483E+00    2.5204450323386478E+00
Ga    1.7689646958167424E+00    2.6857021680946884E+00    3.2651503839877609E+00
N    1.7010546768681540E+00    2.7214372445692248E+00    5.2498749724746583E+00
Ga    1.7322435169788326E+00    4.5858817334451141E+00    5.8068625526774040E+00
N    1.7081687274950303E+00    4.5847056481181605E+00    7.8036786227669035E+00
Ga    1.6882042752134414E+00    2.7258599819040099E+00    8.4368819597536628E+00
N    1.6870343666090548E+00    2.7277886256215438E+00    1.0432327165367093E+01
Ga    1.7132633612762895E+00    4.5864699773459536E+00    1.1068875443604242E+01
N    1.7281077396925768E+00    4.5970637883005239E+00    1.3063855603230925E+01
Ga    1.6845352789125982E+00    2.7279096415802964E+00    1.3618853318004215E+01
N    1.7112361974466506E+00    2.7121744362087745E+00    1.5582818299743879E+01
Ga    1.5378018938557168E+00    4.4869299964724876E+00    1.6479792541060561E+01
N    9.5539653987125564E-02    7.3481453076186769E+00    2.6956709267848153E+00
Ga    1.0222649418756007E-01    5.5074497052161027E+00    3.3370058382836363E+00
N    9.2109102573445512E-02    5.5207464321769359E+00    5.2741964066751068E+00
Ga    1.0020255644150489E-01    7.3622894727406649E+00    5.9052482798622288E+00
N    9.1529168272666120E-02    7.3660144828935090E+00    7.8648628625657526E+00
Ga    9.0749050818011989E-02    5.4924258963740442E+00    8.4439299725241828E+00
N    8.9258412451546448E-02    5.4943695107568171E+00    1.0435402471856268E+01
Ga    9.0252357732780911E-02    7.3636220811162900E+00    1.1027982797581437E+01
N    8.8188771073394345E-02    7.3641178087123285E+00    1.2999823346263080E+01
Ga    8.7333477754396524E-02    5.4936800013681344E+00    1.3619451120040724E+01
N    8.5937010292748028E-02    5.5246437527168970E+00    1.5582066066377861E+01
Ga    8.7404210145705166E-02    7.3632697403133811E+00    1.5861801710333285E+01
N   -1.6181305746480596E+00    1.0078292936945713E+01    2.5221060431051283E+00
Ga   -1.4732505630893102E+00    8.2647964208269560E+00    3.3354773986538051E+00
N   -1.5041247453824889E+00    8.2860758791209452E+00    5.2623761592643952E+00
Ga   -1.4909834596107998E+00    1.0171863573264149E+01    5.8096193006217476E+00
N   -1.5086879902168400E+00    1.0153329619487906E+01    7.8006613640339255E+00
Ga   -1.5293694743603110E+00    8.2994690925562349E+00    8.4466260889459441E+00
N   -1.5301275199084123E+00    8.2986836563559230E+00    1.0436394795183737E+01
Ga   -1.5043428336092346E+00    1.0158989285639905E+01    1.1070694755340833E+01
N   -1.4883793916607062E+00    1.0167833424421342E+01    1.3064822340695558E+01
Ga   -1.5317730257083637E+00    8.2990118511227635E+00    1.3620997942916857E+01
N   -1.5040219680162317E+00    8.2824099218256855E+00    1.5584203222147854E+01
Ga   -1.6792453152301217E+00    1.0057541281969590E+01    1.6480463856821139E+01
N    6.5229456664646754E+00    1.9176689514062986E+00    2.5362817895175298E+00
Ga    6.5428518158703763E+00   -6.3334042799198367E-02    2.8619895886652373E+00
N    6.5195161010733909E+00   -6.2788644331281909E-02    5.0245159284616259E+00
Ga    6.5224342092320295E+00    1.7668760107877441E+00    5.8035439699694455E+00
N    6.5221989056293879E+00    1.7821002601322680E+00    7.8001083833675509E+00
Ga    6.5244511871576130E+00   -6.3180292466399071E-02    8.4453418333654948E+00
N    6.5219413355277842E+00   -6.4173648429054778E-02    1.0419412550142107E+01
Ga    6.5220105484249951E+00    1.7768626494756630E+00    1.1067647560307689E+01
N    6.5203329169346702E+00    1.7568028530243927E+00    1.3062919453444987E+01
Ga    6.5207403424180299E+00   -6.3022359793587723E-02    1.3866048965886968E+01
N    6.5204979294976919E+00   -6.4461221585814313E-02    1.6069489978765244E+01
Ga    6.5195914557389969E+00    1.9745473995259153E+00    1.6478080877992564E+01
Ga    6.5276696693763450E+00    3.6502486541538164E+00    1.5334709666686741E+00
N    5.0222766959200751E+00    4.5168418931588858E+00    2.5294850266134135E+00
Ga    4.8053206704825824E+00    2.6657980218604038E+00    3.2971070404263880E+00
N    4.9131919977530769E+00    2.7214330144984040E+00    5.2578325456214063E+00
Ga    4.8889075737679120E+00    4.5942587149941687E+00    5.8037490745697582E+00
N    4.9054074548810096E+00    4.5847512303940015E+00    7.8008656129770877E+00
Ga    4.9231723663081777E+00    2.7272199655708906E+00    8.4372091017796489E+00
N    4.9244995046644950E+00    2.7279769198296795E+00    1.0431636833737059E+01
Ga    4.8992688156526487E+00    4.5874418148198721E+00    1.1066922509418701E+01
N    4.8809708009187149E+00    4.5969484430169860E+00    1.3062028299911224E+01
Ga    4.9231242593359505E+00    2.7286367823774325E+00    1.3618651724650308E+01
N    4.8946048390018664E+00    2.7136529569060404E+00    1.5581319611318746E+01
Ga    5.0750960762374344E+00    4.4836549200933780E+00    1.6478874904164222E+01
N    6.5276695154243400E+00    3.6457178917035846E+00    1.7610348711171252E+01
N    3.3058145554219029E+00    7.4793775072689019E+00    2.5007294773743203E+00
N    3.3082504909075783E+00    5.5057095606839805E+00    5.0301651622326560E+00
Ga    3.3123567128957756E+00    7.3331790336788876E+00    5.7943406854562483E+00
N    3.3047663832432805E+00    7.3552871649850573E+00    7.7934649598455037E+00
Ga    3.3067625884733021E+00    5.5093272715740129E+00    8.4450242129473114E+00
N    3.3057689671774306E+00    5.5084038783324605E+00    1.0419802047775478E+01
Ga    3.3075593270548311E+00    7.3472003647065209E+00    1.1069399839245897E+01
N    3.3045315429615569E+00    7.3279723671481189E+00    1.3064177828366963E+01
Ga    3.3050107971887854E+00    5.5069074151543740E+00    1.3864830523512122E+01
N    3.3048534749644669E+00    5.5055982702290871E+00    1.6068718681048530E+01
Ga    3.3034011175325402E+00    7.5435521867887907E+00    1.6477863722877284E+01
Ga    3.3446084276559249E+00    9.2439567632350119E+00    1.3177205614683845E+00
N    1.7980229586414165E+00    1.0086246795988632E+01    2.5039364949671392E+00
Ga    1.6945388346626957E+00    8.2822426350479574E+00    3.2878433377706178E+00
N    1.6865939888862245E+00    8.2848359831964160E+00    5.2370716646955922E+00
Ga    1.6770473771259589E+00    1.0165843199623740E+01    5.7944980463896369E+00
N    1.6881219949756179E+00    1.0152301538254630E+01    7.7929075534779422E+00
Ga    1.7125496825324988E+00    8.3008123049430722E+00    8.4442267205624884E+00
N    1.7094390978233747E+00    8.2992453645883408E+00    1.0434985107607110E+01
Ga    1.6840534378297640E+00    1.0158978654233589E+01    1.1069214207197325E+01
N    1.6645778004457090E+00    1.0167696449361909E+01    1.3063402929087372E+01
Ga    1.7072400562356345E+00    8.2994176619253057E+00    1.3619835297246134E+01
N    1.6792609983415827E+00    8.2841583789449249E+00    1.5582789199397794E+01
Ga    1.8574876858914051E+00    1.0055254686219717E+01    1.6478342304880155E+01
N    3.3113766408301988E+00    9.2162762051781630E+00    1.7612120815383733E+01
N    9.7505172705979870E+00    1.7932806108975110E+00    2.6265602425028369E+00
Ga    9.7445585335958800E+00    2.9616839703455859E-02    3.2557120688905230E+00
N    9.7368225723703503E+00   -6.6331398065768876E-02    5.2382660787462543E+00
Ga    9.7460485211815424E+00    1.7877664841651697E+00    5.8645704668210064E+00
N    9.7382212380619659E+00    1.7922033149338457E+00    7.8452463914486801E+00
Ga    9.7406529734614153E+00   -7.4687554644365758E-02    8.4292479885885143E+00
N    9.7375569793037453E+00   -7.6711001660899211E-02    1.0427008527082982E+01
Ga    9.7381066579777542E+00    1.7924695961379835E+00    1.1022882131168906E+01
N    9.7361109357522437E+00    1.7925600536038064E+00    1.2996572286252242E+01
Ga    9.7361207734283539E+00   -7.6074358252254837E-02    1.3619366315338929E+01
N    9.7341756720180062E+00   -4.5907462881430425E-02    1.5582498622937639E+01
Ga    9.7358953254017528E+00    1.7930997093885361E+00    1.5860929303268286E+01
N    8.0271142990342117E+00    4.5179003580327022E+00    2.5370368808697710E+00
Ga    8.2442657370304122E+00    2.6581198971507463E+00    3.2987589063581679E+00
N    8.1319662515495370E+00    2.7211034120428144E+00    5.2590843297671395E+00
Ga    8.1560042562262183E+00    4.5932425499195562E+00    5.8003318835820723E+00
N    8.1410969893906628E+00    4.5857741038329207E+00    7.7979160750353085E+00
Ga    8.1230658267860605E+00    2.7267175858153956E+00    8.4339897511118469E+00
N    8.1191810443985570E+00    2.7282007654661604E+00    1.0430092404425970E+01
Ga    8.1435217557272459E+00    4.5866740134683237E+00    1.1068480809453916E+01
N    8.1596356092521916E+00    4.5968580606636920E+00    1.3063453993621653E+01
Ga    8.1172933738587094E+00    2.7280290685068995E+00    1.3618757767606734E+01
N    8.1441977912670804E+00    2.7117928064069776E+00    1.5582634375389166E+01
Ga    7.9710138736966103E+00    4.4878142224132826E+00    1.6477481395648862E+01
N    6.5194059708584371E+00    7.3669429293040674E+00    2.6092006102224272E+00
Ga    6.5188885039332360E+00    5.6304702379127880E+00    3.2951869165910863E+00
N    6.5231325035361172E+00    5.5097182382485537E+00    5.2557088347991963E+00
Ga    6.5161541129939540E+00    7.3695020490449465E+00    5.8674756079516532E+00
N    6.5222427486284440E+00    7.3653054080255487E+00    7.8443798163434924E+00
Ga    6.5228302401798661E+00    5.4979177872137877E+00    8.4353031595270842E+00
N    6.5221081713403866E+00    5.4952080053988910E+00    1.0430160570276882E+01
Ga    6.5211150393014927E+00    7.3644925971642090E+00    1.1023495512603427E+01
N    6.5200010434913596E+00    7.3641700259223208E+00    1.2996650556118402E+01
Ga    6.5197219925111778E+00    5.4948174239715621E+00    1.3618754756658054E+01
N    6.5176863854920155E+00    5.5256752650166820E+00    1.5581514767936852E+01
Ga    6.5192480830239106E+00    7.3638891588063444E+00    1.5862282243867147E+01
N    4.8173061107505761E+00    1.0093822294166198E+01    2.5085589036928782E+00
Ga    4.9927466308425652E+00    8.2500837118581423E+00    3.2523736981101568E+00
N    4.9137889584715353E+00    8.2926895612798415E+00    5.2351967688713668E+00
Ga    4.9419224921461558E+00    1.0165470059907674E+01    5.7809555339318548E+00
N    4.9248007271532721E+00    1.0155249003752154E+01    7.7877746099936394E+00
Ga    4.9048685868199016E+00    8.3013378107010904E+00    8.4304390142688508E+00
N    4.9026873886184692E+00    8.2989004976988312E+00    1.0427564341271600E+01
Ga    4.9275384044524611E+00    1.0157473732042506E+01    1.1066337637081535E+01
N    4.9432063501438366E+00    1.0167233024256138E+01    1.3062376305111096E+01
Ga    4.9014263386529136E+00    8.2991314909346503E+00    1.3619665514317171E+01
N    4.9272733611028317E+00    8.2828994727673155E+00    1.5583999127948211E+01
Ga    4.7560177177732017E+00    1.0059393959884524E+01    1.6477426878595960E+01
O    9.4017338463001171E-02    4.0802710856191657E+00   -4.2966576263428846E-01
H   -1.5017813499471994E-01    5.8651587608287574E+00   -3.3367184917704368E-01
C    1.2899882478597307E+00    3.7101919363109994E+00   -1.1441145856498827E+00
H    2.2025088416519991E+00    4.0771107815769208E+00   -6.4551614273935642E-01
H    1.3684502434334915E+00    2.6173589371245005E+00   -1.2537895765460032E+00
H    1.2330424909997892E+00    4.1566598810111532E+00   -2.1471104503031926E+00
Ga    3.2799544276274393E+00    5.5042513648403029E+00    2.8530519065300082E+00
O   -1.9853621070848099E-01    6.8496472065190259E+00   -1.9084973778915965E-01
H    4.3660431713909667E-02    7.2787414640571715E+00    1.6581009654547325E+00
C    8.7875975175802390E-01    7.4457380587615463E+00   -9.2630813017514613E-01
H    7.9455994104671446E-01    8.5341570913002993E+00   -8.0735911856554954E-01
H    1.8645767485183999E+00    7.1291455648222914E+00   -5.4427864643214208E-01
H    8.2220068377186950E-01    7.2086724693410265E+00   -1.9995661818602792E+00
     &END COORD
     &KIND C
       BASIS_SET DZVP-MOLOPT-SR-GTH-q4
       POTENTIAL GTH-PBE-q4
       &POTENTIAL
 2 2
  0.3384712400000000E+00 2 -0.8803673979999999E+01  0.1339210850000000E+01
 2
  0.3025757500000000E+00 1  0.9622486650000001E+01
  0.2915069400000000E+00 0
         # Potential name:  GTH-PBE-Q4  for symbol:  C
         # Potential read from the potential filename: GTH_POTENTIALS
       &END POTENTIAL
     &END KIND
     &KIND O
       BASIS_SET DZVP-MOLOPT-SR-GTH-q6
       POTENTIAL GTH-PBE-q6
       &POTENTIAL
 2 4
  0.2445543000000000E+00 2 -0.1666721480000000E+02  0.2487311320000000E+01
 2
  0.2209559200000000E+00 1  0.1833745811000000E+02
  0.2113324700000000E+00 0
         # Potential name:  GTH-PBE-Q6  for symbol:  O
         # Potential read from the potential filename: GTH_POTENTIALS
       &END POTENTIAL
     &END KIND
     &KIND H
       BASIS_SET DZVP-MOLOPT-SR-GTH-q1
       POTENTIAL GTH-PBE-q1
       &POTENTIAL
 1
  0.2000000000000000E+00 2 -0.4178900440000000E+01  0.7244633100000000E+00
 0
         # Potential name:  GTH-PBE-Q1  for symbol:  H
         # Potential read from the potential filename: GTH_POTENTIALS
       &END POTENTIAL
     &END KIND
     &KIND N
       BASIS_SET DZVP-MOLOPT-SR-GTH
       POTENTIAL GTH-PBE-q5
       &POTENTIAL
 2 3
  0.2837905100000000E+00 2 -0.1241522559000000E+02  0.1868095920000000E+01
 2
  0.2554050000000000E+00 1  0.1363026257000000E+02
  0.2454945300000000E+00 0
         # Potential name:  GTH-PBE-Q5  for symbol:  N
         # Potential read from the potential filename: GTH_POTENTIALS
       &END POTENTIAL
     &END KIND
     &KIND Ga
       BASIS_SET DZVP-MOLOPT-SR-GTH
       POTENTIAL GTH-PBE-q13
       &POTENTIAL
 2 1 10
  0.4900000000000000E+00 0
 3
  0.4167772300000000E+00 3  0.1047568975000000E+02 -0.4921768140000000E+01  0.8707055900000000E+00
  0.7770178090000000E+01 -0.2248152160000000E+01
  0.1784415450000000E+01
  0.5696265200000000E+00 2  0.1777985340000000E+01  0.1958597600000000E+00
 -0.2317443900000000E+00
  0.2381265000000000E+00 1 -0.1624868022000000E+02
         # Potential name:  GTH-PBE-Q13  for symbol:  GA
         # Potential read from the potential filename: GTH_POTENTIALS
       &END POTENTIAL
     &END KIND
     &TOPOLOGY
       NUMBER_OF_ATOMS  212
       MULTIPLE_UNIT_CELL  1 1 1
     &END TOPOLOGY
   &END SUBSYS
 &END FORCE_EVAL
