 # Version information for this restart file 
 # current date 2019-06-28 11:01:32.920
 # current working dir /scratch/rzk/rzk/GaN-carbene/443-adatoms-both-2x2/04-2Methanol/02-Combine12-Rotate60
 # Program compiled at                              Sun Apr  7 00:48:11 EDT 2019
 # Program compiled on                          beluga2.int.ets1.calculquebec.ca
 # Program compiled for                        Beluga-Linux-x86-64-intel-openmpi
 # Source code revision number                                         svn:18619
 &GLOBAL
   PRINT_LEVEL  MEDIUM
   PROJECT_NAME TEST
   RUN_TYPE  GEO_OPT
 &END GLOBAL
 &MOTION
   &GEO_OPT
     MAX_ITER  500
     STEP_START_VAL  154
   &END GEO_OPT
 &END MOTION
 &FORCE_EVAL
   METHOD  QS
   STRESS_TENSOR  ANALYTICAL
   &DFT
     BASIS_SET_FILE_NAME BASIS_MOLOPT
     POTENTIAL_FILE_NAME GTH_POTENTIALS
     UKS  T
     SURFACE_DIPOLE_CORRECTION  T
     SURF_DIP_DIR  Z
     &SCF
       MAX_SCF  80
       EPS_SCF     5.0000000000000004E-06
       &OT  T
         PRECONDITIONER  FULL_ALL
       &END OT
       &OUTER_SCF  T
         OPTIMIZER  NONE
         EPS_SCF     5.0000000000000004E-06
         MAX_SCF  4
       &END OUTER_SCF
       &PRINT
         &RESTART  OFF
           BACKUP_COPIES  1
           &EACH
             JUST_ENERGY  0
             QS_SCF  0
             MD  20
           &END EACH
         &END RESTART
       &END PRINT
     &END SCF
     &QS
       EPS_DEFAULT     1.0000000000000000E-14
       METHOD  GPW
     &END QS
     &MGRID
       NGRIDS  5
       CUTOFF     1.2000000000000000E+03
     &END MGRID
     &XC
       DENSITY_CUTOFF     1.0000000000000000E-10
       GRADIENT_CUTOFF     1.0000000000000000E-10
       TAU_CUTOFF     1.0000000000000000E-10
       &XC_FUNCTIONAL  NO_SHORTCUT
         &PBE  T
         &END PBE
       &END XC_FUNCTIONAL
       &VDW_POTENTIAL
         POTENTIAL_TYPE  PAIR_POTENTIAL
         &PAIR_POTENTIAL
           R_CUTOFF     1.0000000000000004E+01
           TYPE  DFTD3
           PARAMETER_FILE_NAME dftd3.dat
           REFERENCE_FUNCTIONAL PBE
           EPS_CN     9.9999999999999995E-07
           CALCULATE_C9_TERM  T
           REFERENCE_C9_TERM  T
           LONG_RANGE_CORRECTION  F
           VERBOSE_OUTPUT  F
         &END PAIR_POTENTIAL
       &END VDW_POTENTIAL
     &END XC
   &END DFT
   &SUBSYS
     &CELL
       A     1.2864472766435110E+01    0.0000000000000000E+00    0.0000000000000000E+00
       B    -6.4322363581020028E+00    1.1140960178524473E+01    0.0000000000000000E+00
       C     0.0000000000000000E+00    0.0000000000000000E+00    3.2000000000000000E+01
       MULTIPLE_UNIT_CELL  1 1 1
       &CELL_REF
         A     1.2982353780853531E+01    0.0000000000000000E+00    0.0000000000000000E+00
         B    -6.4911768904267628E+00    1.1243048175136114E+01    0.0000000000000000E+00
         C     0.0000000000000000E+00    0.0000000000000000E+00    3.2000000000000000E+01
         MULTIPLE_UNIT_CELL  1 1 1
       &END CELL_REF
     &END CELL
     &COORD
N    9.2033456051588705E-02    1.9468883395599639E+00    2.4838059587545778E+00
Ga    7.3636893387471647E-02   -2.5274165974485101E-02    2.8176375855898064E+00
N    9.4950672448174761E-02   -5.7465887297970586E-02    5.0116346864649550E+00
Ga    9.2955514115982907E-02    1.7670492705165606E+00    5.7952977713777178E+00
N    9.1019825761109160E-02    1.7830574014316958E+00    7.7986092148427328E+00
Ga    8.7876821698250215E-02   -6.2271145280698270E-02    8.4407621281144181E+00
N    8.8844909562073915E-02   -6.3867489413938258E-02    1.0417466675706148E+01
Ga    8.8609416893143250E-02    1.7761436294268960E+00    1.1066971539844580E+01
N    8.7651517490982017E-02    1.7571368846799584E+00    1.3062380076597186E+01
Ga    8.8365901933031551E-02   -6.3033025588477981E-02    1.3863769507211419E+01
N    8.8597912013707786E-02   -6.4647872779962978E-02    1.6068117290224777E+01
Ga    8.6760426746935668E-02    1.9745349285086060E+00    1.6478512435880074E+01
Ga    6.5181219391869008E-02    3.6573241623129786E+00    1.3629428649408488E+00
N   -1.3936237185146456E+00    4.5172782302349042E+00    2.5223193061258313E+00
Ga   -1.5877289588322425E+00    2.6727248880167545E+00    3.2745647282604269E+00
N   -1.5169319043456231E+00    2.7219479443868231E+00    5.2539292440905889E+00
Ga   -1.5457700282506341E+00    4.5865475476047592E+00    5.8056630835192689E+00
N   -1.5279324454220016E+00    4.5863613528761809E+00    7.8019645252599403E+00
Ga   -1.5088938958838121E+00    2.7253062504924839E+00    8.4327980049272195E+00
N   -1.5081483356680601E+00    2.7284166645906591E+00    1.0429743371549668E+01
Ga   -1.5342637902361203E+00    4.5858819909167643E+00    1.1069410654676487E+01
N   -1.5520256397108536E+00    4.5965926171185085E+00    1.3063318388215118E+01
Ga   -1.5094618598421332E+00    2.7280257459312347E+00    1.3618871695401825E+01
N   -1.5373123782683444E+00    2.7134015315130755E+00    1.5581146398804016E+01
Ga   -1.3573554189034704E+00    4.4831081581236951E+00    1.6479246351060048E+01
N    9.4202045763484829E-02    3.6446974362545785E+00    1.7614777416796699E+01
N   -3.1178675117413746E+00    7.4867658234405594E+00    2.5292951252710978E+00
Ga   -3.0970057395807120E+00    5.4830393683509433E+00    2.8486907848599534E+00
N   -3.1237053753785826E+00    5.5088425572413087E+00    5.0200916264021842E+00
Ga   -3.1309807680567072E+00    7.3289632558436901E+00    5.8065847236620369E+00
N   -3.1243890397699028E+00    7.3542510614207979E+00    7.7986644023577636E+00
Ga   -3.1261927880227485E+00    5.5070983337515296E+00    8.4483518202481100E+00
N   -3.1271130580773101E+00    5.5081029338731744E+00    1.0421409332590033E+01
Ga   -3.1288678439119799E+00    7.3470617594976266E+00    1.1071334744845235E+01
N   -3.1290228721643762E+00    7.3278592517626508E+00    1.3064988918277665E+01
Ga   -3.1278375165012839E+00    5.5068127072930464E+00    1.3865840725088695E+01
N   -3.1279289004806889E+00    5.5056759116873737E+00    1.6068297519259286E+01
Ga   -3.1295696296483171E+00    7.5453142981062022E+00    1.6479655250632234E+01
Ga   -3.1364702760027390E+00    9.2218846443210527E+00    1.5005804341604470E+00
N   -4.6261816284010902E+00    1.0090468641076011E+01    2.5139650655640238E+00
Ga   -4.8443582665436322E+00    8.2402077926565998E+00    3.2889600891036150E+00
N   -4.7309227116641592E+00    8.2944171361119849E+00    5.2504710590707981E+00
Ga   -4.7644377041039938E+00    1.0169518020165924E+01    5.7971974225225056E+00
N   -4.7434116452413555E+00    1.0155575104166189E+01    7.7956905227244473E+00
Ga   -4.7266131643647444E+00    8.2999564705867375E+00    8.4346508002436416E+00
N   -4.7237990498713094E+00    8.2987770877639697E+00    1.0429267427279926E+01
Ga   -4.7507673658008969E+00    1.0157705326412952E+01    1.1067466713308015E+01
N   -4.7679705104776833E+00    1.0167199518044860E+01    1.3062091194336679E+01
Ga   -4.7267532267893646E+00    8.2992792875625980E+00    1.3620090092544535E+01
N   -4.7547999744501501E+00    8.2838667308839895E+00    1.5582040111309807E+01
Ga   -4.5734690017523256E+00    1.0053740619844607E+01    1.6480189751700326E+01
N   -3.1225323179230871E+00    9.2153330731222933E+00    1.7614086920571260E+01
N    3.2981087016932857E+00    1.7994618053150706E+00    2.6160349510697989E+00
Ga    3.2998405863408329E+00    6.0165463457787366E-02    3.2872495481210890E+00
N    3.3091619714383946E+00   -6.6071428363063400E-02    5.2501255733459420E+00
Ga    3.2995121866074979E+00    1.7963654980591983E+00    5.8721863866775879E+00
N    3.3069049757757294E+00    1.7926746453174733E+00    7.8495038659463479E+00
Ga    3.3041037151775323E+00   -7.3033828460515871E-02    8.4379619087688091E+00
N    3.3053078710110584E+00   -7.6262436288279722E-02    1.0431631909647422E+01
Ga    3.3054642935049401E+00    1.7934432916373497E+00    1.1026134162889482E+01
N    3.3037402564767886E+00    1.7931599647848226E+00    1.2998687879194199E+01
Ga    3.3027673885540647E+00   -7.6203421694774759E-02    1.3620043541644092E+01
N    3.3009360471042637E+00   -4.4991728317079961E-02    1.5582146906417432E+01
Ga    3.3021655073762668E+00    1.7935918519947236E+00    1.5860318271514497E+01
N    1.5846643245135763E+00    4.5190663263615338E+00    2.5200222858151800E+00
Ga    1.7690246106829655E+00    2.6854651125895717E+00    3.2644503733601580E+00
N    1.7008518080017532E+00    2.7216798660967312E+00    5.2496335454485950E+00
Ga    1.7321801880178003E+00    4.5861856717832223E+00    5.8070614139783698E+00
N    1.7082843220620751E+00    4.5848177608794503E+00    7.8039694640340800E+00
Ga    1.6882899726576961E+00    2.7260445887126994E+00    8.4373095876024689E+00
N    1.6869814673845998E+00    2.7279920172466925E+00    1.0432645605607465E+01
Ga    1.7130859146227944E+00    4.5866763446608889E+00    1.1069816005331122E+01
N    1.7276140973464500E+00    4.5967648023185506E+00    1.3064240392430001E+01
Ga    1.6841812090905739E+00    2.7281299063552251E+00    1.3619764581351932E+01
N    1.7104781239137214E+00    2.7121805780205706E+00    1.5583029708721696E+01
Ga    1.5371033386952708E+00    4.4867405473771385E+00    1.6478324128284516E+01
N    9.5875233926474915E-02    7.3485589616059404E+00    2.6957249081719725E+00
Ga    1.0257198070583606E-01    5.5076827974726035E+00    3.3365510981586630E+00
N    9.2155199793645837E-02    5.5208403375517872E+00    5.2741179354720664E+00
Ga    1.0039385242065424E-01    7.3622590842443945E+00    5.9053278878121045E+00
N    9.1487183243424225E-02    7.3662262621315655E+00    7.8650785372931011E+00
Ga    9.0701216063543214E-02    5.4926921186773132E+00    8.4439643954154473E+00
N    8.9168915980280136E-02    5.4944110310318708E+00    1.0435407002878689E+01
Ga    8.9925021726503421E-02    7.3636528265069190E+00    1.1028414447804446E+01
N    8.7842436285327063E-02    7.3634708414187084E+00    1.3000105487917022E+01
Ga    8.7402253711931249E-02    5.4932926148103389E+00    1.3620036100033252E+01
N    8.5479350346016475E-02    5.5239430465164183E+00    1.5581888814559635E+01
Ga    8.6703167905541889E-02    7.3621730367624094E+00    1.5860746402263523E+01
N   -1.6180748872488917E+00    1.0078328201098691E+01    2.5219392720393969E+00
Ga   -1.4732291419246777E+00    8.2648729741171625E+00    3.3352083848671823E+00
N   -1.5040595000556125E+00    8.2859722006071923E+00    5.2625493924791504E+00
Ga   -1.4905490837710067E+00    1.0171743667010480E+01    5.8098888078239330E+00
N   -1.5087232080627793E+00    1.0153293163255626E+01    7.8010066665089868E+00
Ga   -1.5292975758623213E+00    8.2994592841210775E+00    8.4470102725357314E+00
N   -1.5303228128271666E+00    8.2985819405698482E+00    1.0436524991774373E+01
Ga   -1.5045532224891716E+00    1.0158716818638894E+01    1.1070741322596861E+01
N   -1.4891740431410891E+00    1.0167466705972581E+01    1.3064440001551871E+01
Ga   -1.5319697823782754E+00    8.2989135890382979E+00    1.3620745441539333E+01
N   -1.5045004398793975E+00    8.2819369484575027E+00    1.5583921951865825E+01
Ga   -1.6800339876727099E+00    1.0057106242905082E+01    1.6479738513685053E+01
N    6.5228967498608430E+00    1.9179591676274517E+00    2.5363590668517051E+00
Ga    6.5429095189782664E+00   -6.3525945058808334E-02    2.8612591275078390E+00
N    6.5197963323874548E+00   -6.2903848840942952E-02    5.0239829247540646E+00
Ga    6.5229602959311173E+00    1.7666150173354902E+00    5.8035701107450519E+00
N    6.5223026416385732E+00    1.7821267017368145E+00    7.8002719521435493E+00
Ga    6.5245343474122226E+00   -6.3254986082902809E-02    8.4457982028939487E+00
N    6.5215869684251278E+00   -6.4091874223613912E-02    1.0419709751979196E+01
Ga    6.5220487088073247E+00    1.7770035891538172E+00    1.1067621221505572E+01
N    6.5198762048547279E+00    1.7569707657305933E+00    1.3062921872520663E+01
Ga    6.5197082702509448E+00   -6.3360644782891690E-02    1.3864737659364691E+01
N    6.5198179150755262E+00   -6.4603337033297820E-02    1.6068776001458271E+01
Ga    6.5188140382206656E+00    1.9744091830365635E+00    1.6478067740749992E+01
Ga    6.5269118041739906E+00    3.6502922162897167E+00    1.5340144063617993E+00
N    5.0223030875965629E+00    4.5169855973754398E+00    2.5296066605365146E+00
Ga    4.8048904675447135E+00    2.6656187413660719E+00    3.2971230240021385E+00
N    4.9134834942182017E+00    2.7216081571348467E+00    5.2581412113956008E+00
Ga    4.8891288141333069E+00    4.5946925056259449E+00    5.8042739072624201E+00
N    4.9056673958296191E+00    4.5848643272597878E+00    7.8013297498881897E+00
Ga    4.9233787524513755E+00    2.7273288472720791E+00    8.4377661111338593E+00
N    4.9243758073284045E+00    2.7281340934770499E+00    1.0432088923702251E+01
Ga    4.8992654686197756E+00    4.5876047676683056E+00    1.1067518221664999E+01
N    4.8803394496503030E+00    4.5968551945070413E+00    1.3062634815709250E+01
Ga    4.9224632001978375E+00    2.7285691667382905E+00    1.3618905723542895E+01
N    4.8940090056402328E+00    2.7137427948155941E+00    1.5581527052504137E+01
Ga    5.0736959001808879E+00    4.4840565200329037E+00    1.6478114518429038E+01
N    6.5267543109312118E+00    3.6460379612576768E+00    1.7608973614551424E+01
N    3.3062937360126954E+00    7.4792328524793277E+00    2.5007595928528774E+00
N    3.3084316710272601E+00    5.5060386496650748E+00    5.0299378026125643E+00
Ga    3.3127159044018120E+00    7.3335019106186579E+00    5.7944688663085318E+00
N    3.3049084906807420E+00    7.3554513134426269E+00    7.7935692829333894E+00
Ga    3.3068921592474947E+00    5.5094622409321774E+00    8.4454264651386080E+00
N    3.3057053145655186E+00    5.5082801615046293E+00    1.0420067994375170E+01
Ga    3.3074130907684904E+00    7.3472498428330510E+00    1.1069365976872779E+01
N    3.3041340061027293E+00    7.3272954764430782E+00    1.3064217983629268E+01
Ga    3.3038930152815196E+00    5.5062186013327059E+00    1.3865560512356458E+01
N    3.3042181797903432E+00    5.5048501401698688E+00    1.6068681620443005E+01
Ga    3.3028307517327908E+00    7.5424321731283595E+00    1.6477509054771769E+01
Ga    3.3449233104178075E+00    9.2438260184306582E+00    1.3174041086655501E+00
N    1.7980758944309041E+00    1.0086366174031792E+01    2.5037306309113356E+00
Ga    1.6949150620105011E+00    8.2824631851374413E+00    3.2879240936396843E+00
N    1.6870277071274069E+00    8.2850650372766044E+00    5.2371109410042029E+00
Ga    1.6774944697886871E+00    1.0166111921330531E+01    5.7942166704543112E+00
N    1.6881633467582946E+00    1.0152478554224706E+01    7.7927637120369875E+00
Ga    1.7124398601552049E+00    8.3009511201899269E+00    8.4444071919166870E+00
N    1.7091156517046149E+00    8.2990601067375795E+00    1.0435010842981606E+01
Ga    1.6838940446066544E+00    1.0158895241787837E+01    1.1068674594009254E+01
N    1.6642066998318470E+00    1.0167334222287659E+01    1.3063039341191750E+01
Ga    1.7068577017252087E+00    8.2988473584284392E+00    1.3619395710784007E+01
N    1.6785419394785603E+00    8.2834820713677448E+00    1.5582590023758835E+01
Ga    1.8569852872061736E+00    1.0054544315892022E+01    1.6478666799432023E+01
N    3.3110266762685843E+00    9.2153701342229617E+00    1.7610640684909075E+01
N    9.7507296947703690E+00    1.7934932797621461E+00    2.6256420602463679E+00
Ga    9.7448824310986577E+00    2.9839591758915474E-02    3.2545550188588979E+00
N    9.7370192186578279E+00   -6.6052012455990142E-02    5.2371373120298053E+00
Ga    9.7463222290070330E+00    1.7878118336337769E+00    5.8639845491476610E+00
N    9.7383101027442134E+00    1.7923713015567579E+00    7.8448110555935298E+00
Ga    9.7407311442281248E+00   -7.4456422744437728E-02    8.4291345223049063E+00
N    9.7376073018620826E+00   -7.6495290470283500E-02    1.0426996827110576E+01
Ga    9.7382289164167144E+00    1.7927259532564961E+00    1.1022820762586065E+01
N    9.7363486845749048E+00    1.7927027043925190E+00    1.2996755735740727E+01
Ga    9.7359328879386542E+00   -7.6492771187852193E-02    1.3618642314889323E+01
N    9.7336457443393183E+00   -4.5875610214830498E-02    1.5582321459270435E+01
Ga    9.7356092069988058E+00    1.7934553709632965E+00    1.5860838712617403E+01
N    8.0268560621441356E+00    4.5179623041903545E+00    2.5366440995602302E+00
Ga    8.2446795190930757E+00    2.6581232903289234E+00    3.2980720467650886E+00
N    8.1322026591277332E+00    2.7212009468986635E+00    5.2586044704266328E+00
Ga    8.1562404596352192E+00    4.5933123276090839E+00    5.8001883303807134E+00
N    8.1412167866740131E+00    4.5858972573245422E+00    7.7978694181221178E+00
Ga    8.1233402252631208E+00    2.7268671187554760E+00    8.4340335076416828E+00
N    8.1192441721470949E+00    2.7285045858943979E+00    1.0430191748138206E+01
Ga    8.1436639374475543E+00    4.5869265134782991E+00    1.1068655562309859E+01
N    8.1595104342749476E+00    4.5969375551452387E+00    1.3063966639567747E+01
Ga    8.1168934088737075E+00    2.7279498318785151E+00    1.3618598285436638E+01
N    8.1434552580326987E+00    2.7117509238527155E+00    1.5582839680963808E+01
Ga    7.9707558051945675E+00    4.4882235650005082E+00    1.6477382537003482E+01
N    6.5195821400216927E+00    7.3672165116630675E+00    2.6090783027908437E+00
Ga    6.5189091305792433E+00    5.6310312086794676E+00    3.2949247926521501E+00
N    6.5233019569529063E+00    5.5097948174067657E+00    5.2556300353593111E+00
Ga    6.5163257551915086E+00    7.3696546485342296E+00    5.8673209909230630E+00
N    6.5225017537134633E+00    7.3654429814139126E+00    7.8443681112629386E+00
Ga    6.5231681828592594E+00    5.4982114170712881E+00    8.4353967507140961E+00
N    6.5221855158679523E+00    5.4952993167639832E+00    1.0430264578436976E+01
Ga    6.5212891997847020E+00    7.3646114955303386E+00    1.1023719283788253E+01
N    6.5197027113088808E+00    7.3640349439334729E+00    1.2996683197991949E+01
Ga    6.5190867579328398E+00    5.4946919874721152E+00    1.3618979659216544E+01
N    6.5168902829668527E+00    5.5251717928702568E+00    1.5581563093305755E+01
Ga    6.5187689720042981E+00    7.3632920188956383E+00    1.5862821255719435E+01
N    4.8176916118947819E+00    1.0094136448355478E+01    2.5079893028372755E+00
Ga    4.9929383745466236E+00    8.2504394016332299E+00    3.2517929373130370E+00
N    4.9140442573288787E+00    8.2929916643842940E+00    5.2347867034247999E+00
Ga    4.9419377761332663E+00    1.0165891055327021E+01    5.7803679881374510E+00
N    4.9247881726972729E+00    1.0155355405077813E+01    7.7874844421582363E+00
Ga    4.9051084414487089E+00    8.3014781731287908E+00    8.4304077303315612E+00
N    4.9028306513342779E+00    8.2988998220248700E+00    1.0427532474927132E+01
Ga    4.9277005178680984E+00    1.0157569414670705E+01    1.1066106611950666E+01
N    4.9434225288193101E+00    1.0167205672481451E+01    1.3062400036078262E+01
Ga    4.9009761078576703E+00    8.2987755082877346E+00    1.3619425158126344E+01
N    4.9267784142432207E+00    8.2822470615567738E+00    1.5583874225074112E+01
Ga    4.7557922138734723E+00    1.0058886433919955E+01    1.6477615079958561E+01
O    9.5936021491851001E-02    4.0801875272124928E+00   -4.3024927953450826E-01
H   -1.4898243701085850E-01    5.8663043739528247E+00   -3.3478987576482538E-01
C    1.2920703962887292E+00    3.7083531096988929E+00   -1.1431023326008072E+00
H    2.2038632547345034E+00    4.0761791722126546E+00   -6.4362231730305830E-01
H    1.3698596896966759E+00    2.6155326566232242E+00   -1.2508187053001596E+00
H    1.2360880415420912E+00    4.1532392848333464E+00   -2.1466799937559751E+00
Ga    3.2798880372783370E+00    5.5044036926355213E+00    2.8522982964316612E+00
O   -1.9856071449107635E-01    6.8502206574521463E+00   -1.9225582518855053E-01
H    4.3366451048333844E-02    7.2789701409860212E+00    1.6582723504687977E+00
C    8.8021797376449085E-01    7.4458918657252910E+00   -9.2565279897881791E-01
H    7.9709646301976322E-01    8.5345208040675118E+00   -8.0584875462862249E-01
H    1.8650269487315245E+00    7.1279883181453521E+00   -5.4248518512728006E-01
H    8.2521976315366397E-01    7.2108776148311140E+00   -1.9994810259540001E+00
     &END COORD
     &KIND C
       BASIS_SET DZVP-MOLOPT-SR-GTH-q4
       POTENTIAL GTH-PBE-q4
       &POTENTIAL
 2 2
  0.3384712400000000E+00 2 -0.8803673979999999E+01  0.1339210850000000E+01
 2
  0.3025757500000000E+00 1  0.9622486650000001E+01
  0.2915069400000000E+00 0
         # Potential name:  GTH-PBE-Q4  for symbol:  C
         # Potential read from the potential filename: GTH_POTENTIALS
       &END POTENTIAL
     &END KIND
     &KIND O
       BASIS_SET DZVP-MOLOPT-SR-GTH-q6
       POTENTIAL GTH-PBE-q6
       &POTENTIAL
 2 4
  0.2445543000000000E+00 2 -0.1666721480000000E+02  0.2487311320000000E+01
 2
  0.2209559200000000E+00 1  0.1833745811000000E+02
  0.2113324700000000E+00 0
         # Potential name:  GTH-PBE-Q6  for symbol:  O
         # Potential read from the potential filename: GTH_POTENTIALS
       &END POTENTIAL
     &END KIND
     &KIND H
       BASIS_SET DZVP-MOLOPT-SR-GTH-q1
       POTENTIAL GTH-PBE-q1
       &POTENTIAL
 1
  0.2000000000000000E+00 2 -0.4178900440000000E+01  0.7244633100000000E+00
 0
         # Potential name:  GTH-PBE-Q1  for symbol:  H
         # Potential read from the potential filename: GTH_POTENTIALS
       &END POTENTIAL
     &END KIND
     &KIND N
       BASIS_SET DZVP-MOLOPT-SR-GTH
       POTENTIAL GTH-PBE-q5
       &POTENTIAL
 2 3
  0.2837905100000000E+00 2 -0.1241522559000000E+02  0.1868095920000000E+01
 2
  0.2554050000000000E+00 1  0.1363026257000000E+02
  0.2454945300000000E+00 0
         # Potential name:  GTH-PBE-Q5  for symbol:  N
         # Potential read from the potential filename: GTH_POTENTIALS
       &END POTENTIAL
     &END KIND
     &KIND Ga
       BASIS_SET DZVP-MOLOPT-SR-GTH
       POTENTIAL GTH-PBE-q13
       &POTENTIAL
 2 1 10
  0.4900000000000000E+00 0
 3
  0.4167772300000000E+00 3  0.1047568975000000E+02 -0.4921768140000000E+01  0.8707055900000000E+00
  0.7770178090000000E+01 -0.2248152160000000E+01
  0.1784415450000000E+01
  0.5696265200000000E+00 2  0.1777985340000000E+01  0.1958597600000000E+00
 -0.2317443900000000E+00
  0.2381265000000000E+00 1 -0.1624868022000000E+02
         # Potential name:  GTH-PBE-Q13  for symbol:  GA
         # Potential read from the potential filename: GTH_POTENTIALS
       &END POTENTIAL
     &END KIND
     &TOPOLOGY
       NUMBER_OF_ATOMS  212
       MULTIPLE_UNIT_CELL  1 1 1
     &END TOPOLOGY
   &END SUBSYS
 &END FORCE_EVAL
