 # Version information for this restart file 
 # current date 2019-06-28 11:03:24.391
 # current working dir /scratch/rzk/rzk/GaN-carbene/443-adatoms-both-2x2/04-2Methanol/02-Combine12-Rotate60
 # Program compiled at                              Sun Apr  7 00:48:11 EDT 2019
 # Program compiled on                          beluga2.int.ets1.calculquebec.ca
 # Program compiled for                        Beluga-Linux-x86-64-intel-openmpi
 # Source code revision number                                         svn:18619
 &GLOBAL
   PRINT_LEVEL  MEDIUM
   PROJECT_NAME TEST
   RUN_TYPE  GEO_OPT
 &END GLOBAL
 &MOTION
   &GEO_OPT
     MAX_ITER  500
     STEP_START_VAL  155
   &END GEO_OPT
 &END MOTION
 &FORCE_EVAL
   METHOD  QS
   STRESS_TENSOR  ANALYTICAL
   &DFT
     BASIS_SET_FILE_NAME BASIS_MOLOPT
     POTENTIAL_FILE_NAME GTH_POTENTIALS
     UKS  T
     SURFACE_DIPOLE_CORRECTION  T
     SURF_DIP_DIR  Z
     &SCF
       MAX_SCF  80
       EPS_SCF     5.0000000000000004E-06
       &OT  T
         PRECONDITIONER  FULL_ALL
       &END OT
       &OUTER_SCF  T
         OPTIMIZER  NONE
         EPS_SCF     5.0000000000000004E-06
         MAX_SCF  4
       &END OUTER_SCF
       &PRINT
         &RESTART  OFF
           BACKUP_COPIES  1
           &EACH
             JUST_ENERGY  0
             QS_SCF  0
             MD  20
           &END EACH
         &END RESTART
       &END PRINT
     &END SCF
     &QS
       EPS_DEFAULT     1.0000000000000000E-14
       METHOD  GPW
     &END QS
     &MGRID
       NGRIDS  5
       CUTOFF     1.2000000000000000E+03
     &END MGRID
     &XC
       DENSITY_CUTOFF     1.0000000000000000E-10
       GRADIENT_CUTOFF     1.0000000000000000E-10
       TAU_CUTOFF     1.0000000000000000E-10
       &XC_FUNCTIONAL  NO_SHORTCUT
         &PBE  T
         &END PBE
       &END XC_FUNCTIONAL
       &VDW_POTENTIAL
         POTENTIAL_TYPE  PAIR_POTENTIAL
         &PAIR_POTENTIAL
           R_CUTOFF     1.0000000000000004E+01
           TYPE  DFTD3
           PARAMETER_FILE_NAME dftd3.dat
           REFERENCE_FUNCTIONAL PBE
           EPS_CN     9.9999999999999995E-07
           CALCULATE_C9_TERM  T
           REFERENCE_C9_TERM  T
           LONG_RANGE_CORRECTION  F
           VERBOSE_OUTPUT  F
         &END PAIR_POTENTIAL
       &END VDW_POTENTIAL
     &END XC
   &END DFT
   &SUBSYS
     &CELL
       A     1.2864472766435110E+01    0.0000000000000000E+00    0.0000000000000000E+00
       B    -6.4322363581020028E+00    1.1140960178524473E+01    0.0000000000000000E+00
       C     0.0000000000000000E+00    0.0000000000000000E+00    3.2000000000000000E+01
       MULTIPLE_UNIT_CELL  1 1 1
       &CELL_REF
         A     1.2982353780853531E+01    0.0000000000000000E+00    0.0000000000000000E+00
         B    -6.4911768904267628E+00    1.1243048175136114E+01    0.0000000000000000E+00
         C     0.0000000000000000E+00    0.0000000000000000E+00    3.2000000000000000E+01
         MULTIPLE_UNIT_CELL  1 1 1
       &END CELL_REF
     &END CELL
     &COORD
N    9.2166509303730895E-02    1.9467630239715239E+00    2.4843445566274713E+00
Ga    7.3612153791271798E-02   -2.5404658188195848E-02    2.8181876718350281E+00
N    9.5073734381990183E-02   -5.7475620742631461E-02    5.0120059209796564E+00
Ga    9.3154149322153268E-02    1.7670288292465037E+00    5.7954813437865935E+00
N    9.1079779891564849E-02    1.7828493401514653E+00    7.7986647877696189E+00
Ga    8.7916311719758111E-02   -6.2426848194643003E-02    8.4405481120640005E+00
N    8.8775647134357150E-02   -6.4044887288582070E-02    1.0417364000909567E+01
Ga    8.8632820589325215E-02    1.7759927091449024E+00    1.1066653992330730E+01
N    8.7597713793296020E-02    1.7570631320155166E+00    1.3062265790037122E+01
Ga    8.8105895788643446E-02   -6.3070014011994691E-02    1.3863743251980818E+01
N    8.8676637059328670E-02   -6.4320478325339825E-02    1.6068139444916063E+01
Ga    8.6942331693150202E-02    1.9750498801079950E+00    1.6478861022965869E+01
Ga    6.5191662962628211E-02    3.6572537601773054E+00    1.3635353825026173E+00
N   -1.3937104020943947E+00    4.5172168727924102E+00    2.5227074123879496E+00
Ga   -1.5876229378720610E+00    2.6727120222810514E+00    3.2749389383249747E+00
N   -1.5168379548276101E+00    2.7218292745690520E+00    5.2543447971801003E+00
Ga   -1.5457682197327125E+00    4.5864716806353982E+00    5.8057570386891699E+00
N   -1.5279092141899484E+00    4.5861443072735906E+00    7.8019604381695853E+00
Ga   -1.5087969633982279E+00    2.7250266930745317E+00    8.4328247281015862E+00
N   -1.5081993810994758E+00    2.7281560089326704E+00    1.0429742374878298E+01
Ga   -1.5342545113156933E+00    4.5856618913666702E+00    1.1069140232755066E+01
N   -1.5521207111312232E+00    4.5966810016942246E+00    1.3063172257919234E+01
Ga   -1.5097067774694162E+00    2.7280309966949332E+00    1.3618623517078147E+01
N   -1.5374040419112915E+00    2.7135836158668272E+00    1.5580982500675088E+01
Ga   -1.3571073221999277E+00    4.4832816178823540E+00    1.6479676061060040E+01
N    9.4214594256951570E-02    3.6449796990833514E+00    1.7614533142238294E+01
N   -3.1179651090895093E+00    7.4868881548152668E+00    2.5296758575391096E+00
Ga   -3.0970528037692868E+00    5.4830570378100694E+00    2.8490152093604233E+00
N   -3.1236094491255084E+00    5.5088334191039623E+00    5.0203074848951292E+00
Ga   -3.1309969823890795E+00    7.3290227554058358E+00    5.8064571649576813E+00
N   -3.1244391413660488E+00    7.3540989983213807E+00    7.7985277697982660E+00
Ga   -3.1262096239239847E+00    5.5069476637296768E+00    8.4482288568101147E+00
N   -3.1271542829322412E+00    5.5078640482608314E+00    1.0421336417257596E+01
Ga   -3.1288516025989557E+00    7.3468735870956436E+00    1.1071077004122353E+01
N   -3.1289450957553533E+00    7.3277735034527902E+00    1.3064902777022331E+01
Ga   -3.1280365519886724E+00    5.5066762147110362E+00    1.3865747448899159E+01
N   -3.1277242045302183E+00    5.5059992698873499E+00    1.6068303286871934E+01
Ga   -3.1293462732929886E+00    7.5454045449391201E+00    1.6479522420933392E+01
Ga   -3.1362463563540821E+00    9.2216920142811869E+00    1.5010800739190553E+00
N   -4.6260180358182605E+00    1.0090589857401030E+01    2.5141565835613968E+00
Ga   -4.8443941199933587E+00    8.2402645676230772E+00    3.2891505945735879E+00
N   -4.7310186460262242E+00    8.2944165013637381E+00    5.2505548835302287E+00
Ga   -4.7642107168841985E+00    1.0169537585280393E+01    5.7970198614142081E+00
N   -4.7433713994713980E+00    1.0155542414732315E+01    7.7955050360395290E+00
Ga   -4.7266936208507646E+00    8.2998883870991875E+00    8.4344009467610714E+00
N   -4.7238450364319595E+00    8.2986231397006698E+00    1.0429176650701315E+01
Ga   -4.7506974534333999E+00    1.0157628283556056E+01    1.1067146624576692E+01
N   -4.7679955459648653E+00    1.0167245115652204E+01    1.3062004077469945E+01
Ga   -4.7266185419810887E+00    8.2992888165598107E+00    1.3619936751515326E+01
N   -4.7544376458170055E+00    8.2842545772541030E+00    1.5582128743748266E+01
Ga   -4.5734436687031828E+00    1.0054258052614049E+01    1.6480126467883508E+01
N   -3.1222912032739081E+00    9.2156788124549625E+00    1.7613393625278341E+01
N    3.2982237973926911E+00    1.7996696359222408E+00    2.6158886598389506E+00
Ga    3.3000749355224404E+00    6.0305885317634485E-02    3.2873236935363348E+00
N    3.3092292040235036E+00   -6.5888349232479632E-02    5.2500285630490140E+00
Ga    3.2997821212279130E+00    1.7963793055646178E+00    5.8719954050897041E+00
N    3.3069386513334948E+00    1.7926253455834475E+00    7.8492436365912157E+00
Ga    3.3041864727698020E+00   -7.3072961703848360E-02    8.4375199886417107E+00
N    3.3054058193898452E+00   -7.6368208478052160E-02    1.0431373418145533E+01
Ga    3.3055233798964063E+00    1.7933503532650750E+00    1.1025661168210000E+01
N    3.3040477758541629E+00    1.7931394752796754E+00    1.2998362467957771E+01
Ga    3.3028693352742096E+00   -7.6106663004130284E-02    1.3619867743230110E+01
N    3.3012853833977087E+00   -4.4972635987927514E-02    1.5582151317946790E+01
Ga    3.3026000957952846E+00    1.7936220487903327E+00    1.5860774446458411E+01
N    1.5846875722747495E+00    4.5191050495320413E+00    2.5201246218265920E+00
Ga    1.7691336875347645E+00    2.6856945830231922E+00    3.2648064162407451E+00
N    1.7010494307462694E+00    2.7215854842956944E+00    5.2497801803814381E+00
Ga    1.7323538804147769E+00    4.5860914207793080E+00    5.8068972359887248E+00
N    1.7082626095956643E+00    4.5846752659996888E+00    7.8037890276633926E+00
Ga    1.6883029597889954E+00    2.7258513548482810E+00    8.4369905749988501E+00
N    1.6870116559948971E+00    2.7277851288015240E+00    1.0432475888907186E+01
Ga    1.7130820444182187E+00    4.5864618951131089E+00    1.1069317357409933E+01
N    1.7277154274510818E+00    4.5969166002389246E+00    1.3063990393049570E+01
Ga    1.6843058590944333E+00    2.7280723854239972E+00    1.3619270581580121E+01
N    1.7110059788192045E+00    2.7122997251321266E+00    1.5582724741900098E+01
Ga    1.5370934643854099E+00    4.4868770119937444E+00    1.6479025045436448E+01
N    9.5798413353577971E-02    7.3484165620194180E+00    2.6956625276371069E+00
Ga    1.0254333744949486E-01    5.5076779844716643E+00    3.3367604008870684E+00
N    9.2235444273142744E-02    5.5207958354198778E+00    5.2741895480190530E+00
Ga    1.0043263759032381E-01    7.3623299333464045E+00    5.9051299283012497E+00
N    9.1518093203731138E-02    7.3660366911942559E+00    7.8648646928156376E+00
Ga    9.0744859271070399E-02    5.4924841442181638E+00    8.4438153884267972E+00
N    8.9173621912016041E-02    5.4942757033209730E+00    1.0435355397572613E+01
Ga    9.0032065196551159E-02    7.3635479116434785E+00    1.1028003645445546E+01
N    8.7936851323138096E-02    7.3637922556340456E+00    1.2999823171761440E+01
Ga    8.7303469226967231E-02    5.4935146650768614E+00    1.3619765641536700E+01
N    8.5645797522066497E-02    5.5246792752986620E+00    1.5581858857861462E+01
Ga    8.6974095901657306E-02    7.3629238866603695E+00    1.5861228115689336E+01
N   -1.6180588078478861E+00    1.0078385548908429E+01    2.5220642201154604E+00
Ga   -1.4730945952448464E+00    8.2648783837590862E+00    3.3352764573508313E+00
N   -1.5040148953813854E+00    8.2860313708011386E+00    5.2624536677988782E+00
Ga   -1.4906397222700134E+00    1.0171838449097386E+01    5.8095942409700196E+00
N   -1.5086361656426153E+00    1.0153246799555003E+01    7.8007313987577502E+00
Ga   -1.5293009809564182E+00    8.2993926033138656E+00    8.4466250586364318E+00
N   -1.5302553218263073E+00    8.2985412328739390E+00    1.0436321501223750E+01
Ga   -1.5044307051355670E+00    1.0158761681606631E+01    1.1070473589733316E+01
N   -1.4888571437823788E+00    1.0167661920278610E+01    1.3064438226323825E+01
Ga   -1.5318955994482280E+00    8.2989924809581890E+00    1.3620649454708465E+01
N   -1.5043974511300260E+00    8.2824842151852121E+00    1.5583991365622897E+01
Ga   -1.6794875001541336E+00    1.0057693353059534E+01    1.6479711528600966E+01
N    6.5230681335691036E+00    1.9179563408671967E+00    2.5362079951356922E+00
Ga    6.5430967675401206E+00   -6.3468441151159807E-02    2.8614618588894092E+00
N    6.5197837274879138E+00   -6.2834458058690493E-02    5.0241486503345172E+00
Ga    6.5228272082908259E+00    1.7667054090081722E+00    5.8034133500270126E+00
N    6.5223170991036534E+00    1.7820308469580384E+00    7.8000813184533140E+00
Ga    6.5245822065434993E+00   -6.3318590483949999E-02    8.4453359667990568E+00
N    6.5217416255725418E+00   -6.4188473012312230E-02    1.0419380243707629E+01
Ga    6.5220206690368077E+00    1.7768420365306326E+00    1.1067403551619718E+01
N    6.5200561863683202E+00    1.7570250345085772E+00    1.3062743988163424E+01
Ga    6.5201655508133225E+00   -6.3083007739486427E-02    1.3864874730463978E+01
N    6.5201816011157092E+00   -6.4352548919427599E-02    1.6068838239027528E+01
Ga    6.5191631669142325E+00    1.9744621731289700E+00    1.6477655815175460E+01
Ga    6.5276291735055088E+00    3.6503383975284329E+00    1.5335671697122673E+00
N    5.0223973400083342E+00    4.5170586645118709E+00    2.5293788140889713E+00
Ga    4.8052390633658479E+00    2.6659166290907130E+00    3.2968672385584603E+00
N    4.9135043788612247E+00    2.7215952554494001E+00    5.2578998219630417E+00
Ga    4.8890789283458673E+00    4.5945731835802288E+00    5.8038713968451106E+00
N    4.9055558856418653E+00    4.5847545541315204E+00    7.8010154554042446E+00
Ga    4.9233602740078473E+00    2.7272203910068651E+00    8.4373219253838592E+00
N    4.9244392668948853E+00    2.7279650476022819E+00    1.0431766911792529E+01
Ga    4.8992411077924345E+00    4.5874059283415676E+00    1.1067084911951909E+01
N    4.8805785182336985E+00    4.5969325248505521E+00    1.3062241538537853E+01
Ga    4.9227118273800601E+00    2.7286307768790024E+00    1.3618579555655575E+01
N    4.8943872566169500E+00    2.7138785711639803E+00    1.5581331630445559E+01
Ga    5.0740254415611243E+00    4.4842502951847418E+00    1.6478075581197039E+01
N    6.5271765663570127E+00    3.6461623129251004E+00    1.7609478442370250E+01
N    3.3060990122618650E+00    7.4793213732546420E+00    2.5004438490895002E+00
N    3.3084317958576919E+00    5.5059354775916605E+00    5.0299120531461039E+00
Ga    3.3125323537766427E+00    7.3334178925046558E+00    5.7942048593463369E+00
N    3.3048099833511522E+00    7.3553018994244201E+00    7.7933906885726012E+00
Ga    3.3068329315194824E+00    5.5093793026688216E+00    8.4451122464633759E+00
N    3.3056744976197172E+00    5.5081929414432445E+00    1.0419875850482526E+01
Ga    3.3074048713859376E+00    7.3471358307714540E+00    1.1069181052467817E+01
N    3.3042823016554173E+00    7.3275797597536600E+00    1.3064041624855195E+01
Ga    3.3042590432098180E+00    5.5064742401038211E+00    1.3864971874549228E+01
N    3.3044136881269663E+00    5.5053966493218729E+00    1.6068565331323402E+01
Ga    3.3031439721548854E+00    7.5430359086387089E+00    1.6477349647785672E+01
Ga    3.3449364605328529E+00    9.2440225754803791E+00    1.3166396836196332E+00
N    1.7980542583905263E+00    1.0086397609557601E+01    2.5037401462090081E+00
Ga    1.6949257823985187E+00    8.2823979396169847E+00    3.2874695373229614E+00
N    1.6868775465791848E+00    8.2849482617823789E+00    5.2368600545043957E+00
Ga    1.6773752052155240E+00    1.0165907415667290E+01    5.7941230565243469E+00
N    1.6881720015112360E+00    1.0152286125618742E+01    7.7926697841862493E+00
Ga    1.7125073899277619E+00    8.3008164143320844E+00    8.4441296188111163E+00
N    1.7092123860506974E+00    8.2990523309962896E+00    1.0434855684809108E+01
Ga    1.6839474089493613E+00    1.0158868179113663E+01    1.1068618337691186E+01
N    1.6643836049412064E+00    1.0167569475384683E+01    1.3062953141773681E+01
Ga    1.7069690288201509E+00    8.2991658375945985E+00    1.3619349632990762E+01
N    1.6788088604253180E+00    8.2840654819560449E+00    1.5582451993282936E+01
Ga    1.8573487651175353E+00    1.0055086228577766E+01    1.6478260035885622E+01
N    3.3113358216317668E+00    9.2159706681089233E+00    1.7610618165431710E+01
N    9.7507948231082864E+00    1.7933549854361746E+00    2.6262644495223979E+00
Ga    9.7448065122224854E+00    2.9509450456509892E-02    3.2548600124178644E+00
N    9.7369846122916517E+00   -6.6248530171712519E-02    5.2375786119116716E+00
Ga    9.7463157048789508E+00    1.7876442488113056E+00    5.8641562113059713E+00
N    9.7383276034211299E+00    1.7921702172192799E+00    7.8449497141417375E+00
Ga    9.7407178711088669E+00   -7.4717720816077304E-02    8.4289714966520606E+00
N    9.7375750017139691E+00   -7.6669413119585195E-02    1.0426838860603938E+01
Ga    9.7381378398558081E+00    1.7925299362235469E+00    1.1022638453046312E+01
N    9.7361838819162791E+00    1.7927943994503839E+00    1.2996467995680472E+01
Ga    9.7360000785722498E+00   -7.6092983448845630E-02    1.3618682682534709E+01
N    9.7338253293790569E+00   -4.5616444357580582E-02    1.5582102353288397E+01
Ga    9.7356923034825229E+00    1.7935534741299313E+00    1.5860823775226221E+01
N    8.0271304863105435E+00    4.5180559816523278E+00    2.5368276993533216E+00
Ga    8.2446482496928351E+00    2.6581333351767156E+00    3.2983332998513877E+00
N    8.1322333861203049E+00    2.7211669593181038E+00    5.2588190118144196E+00
Ga    8.1562369155458505E+00    4.5933269503232728E+00    5.8001321257388367E+00
N    8.1411877660140917E+00    4.5857518040461454E+00    7.7978229323246300E+00
Ga    8.1232611125556176E+00    2.7266811946092564E+00    8.4338114544960163E+00
N    8.1191859140426175E+00    2.7282745884428921E+00    1.0430006908630249E+01
Ga    8.1435657703369007E+00    4.5866871810093306E+00    1.1068386896156328E+01
N    8.1594991660522869E+00    4.5969303127768404E+00    1.3063607517413116E+01
Ga    8.1170509644708861E+00    2.7280473022679024E+00    1.3618503582207595E+01
N    8.1436458849554700E+00    2.7119762557143825E+00    1.5582679196512329E+01
Ga    7.9711290549601470E+00    4.4884173077689908E+00    1.6477147282433751E+01
N    6.5194723309871812E+00    7.3672874592054365E+00    2.6092582474534969E+00
Ga    6.5189116007309700E+00    5.6308873976440781E+00    3.2948668385206297E+00
N    6.5233189667092111E+00    5.5098065481506016E+00    5.2555899179682095E+00
Ga    6.5161643918453755E+00    7.3696671557693296E+00    5.8671893159811512E+00
N    6.5223517715310031E+00    7.3653147723688690E+00    7.8442419784632236E+00
Ga    6.5230018447677436E+00    5.4980206726687184E+00    8.4351527481874005E+00
N    6.5221202505292073E+00    5.4951373469283533E+00    1.0430122560682502E+01
Ga    6.5211952603054808E+00    7.3644322950667345E+00    1.1023455152098531E+01
N    6.5198627527452828E+00    7.3640711716838414E+00    1.2996610677649647E+01
Ga    6.5193413266609435E+00    5.4947211172388997E+00    1.3618715748888675E+01
N    6.5172328304197844E+00    5.5254768915043231E+00    1.5581490856807688E+01
Ga    6.5190177267680189E+00    7.3636981881940597E+00    1.5862284125543546E+01
N    4.8176328811676630E+00    1.0094086482109974E+01    2.5082215006223691E+00
Ga    4.9926259132462034E+00    8.2504581088310438E+00    3.2518058519754400E+00
N    4.9138614544000108E+00    8.2928654024796398E+00    5.2348394229457460E+00
Ga    4.9419309361030583E+00    1.0165621119385920E+01    5.7805190012196617E+00
N    4.9248456519529586E+00    1.0155212978157753E+01    7.7875175550063327E+00
Ga    4.9049653972266807E+00    8.3013205597336945E+00    8.4302167757152677E+00
N    4.9027511697838655E+00    8.2987692351774367E+00    1.0427442709010730E+01
Ga    4.9276074146055926E+00    1.0157455849918513E+01    1.1065949135902686E+01
N    4.9433211666318293E+00    1.0167290932294245E+01    1.3062185545829967E+01
Ga    4.9011544351955179E+00    8.2990026431774417E+00    1.3619283531366902E+01
N    4.9270743578808069E+00    8.2827315683829514E+00    1.5583681991530614E+01
Ga    4.7559811441551947E+00    1.0059397855586752E+01    1.6477224747643152E+01
O    9.4523348502826871E-02    4.0804066461072006E+00   -4.2988032745314098E-01
H   -1.4893228633812625E-01    5.8657229654881675E+00   -3.3372923319322079E-01
C    1.2903215958393346E+00    3.7090614802913686E+00   -1.1436661191185400E+00
H    2.2026630205669080E+00    4.0759814472206441E+00   -6.4462286090358190E-01
H    1.3682005531243613E+00    2.6162581040827333E+00   -1.2524798014127212E+00
H    1.2340907226507492E+00    4.1548614696856667E+00   -2.1469579662061760E+00
Ga    3.2800909703851424E+00    5.5044506894613328E+00    2.8523318576736245E+00
O   -1.9737131335422928E-01    6.8499465129667962E+00   -1.9059365516058885E-01
H    4.3713177229279879E-02    7.2788868494128884E+00    1.6580239633964748E+00
C    8.7996440333098824E-01    7.4458034999500660E+00   -9.2612895967600650E-01
H    7.9552212984851267E-01    8.5344519412890101E+00   -8.0835878083855572E-01
H    1.8657193288304110E+00    7.1301358056021922E+00   -5.4335548017907986E-01
H    8.2418277199831269E-01    7.2081011438991034E+00   -1.9992615023400857E+00
     &END COORD
     &KIND C
       BASIS_SET DZVP-MOLOPT-SR-GTH-q4
       POTENTIAL GTH-PBE-q4
       &POTENTIAL
 2 2
  0.3384712400000000E+00 2 -0.8803673979999999E+01  0.1339210850000000E+01
 2
  0.3025757500000000E+00 1  0.9622486650000001E+01
  0.2915069400000000E+00 0
         # Potential name:  GTH-PBE-Q4  for symbol:  C
         # Potential read from the potential filename: GTH_POTENTIALS
       &END POTENTIAL
     &END KIND
     &KIND O
       BASIS_SET DZVP-MOLOPT-SR-GTH-q6
       POTENTIAL GTH-PBE-q6
       &POTENTIAL
 2 4
  0.2445543000000000E+00 2 -0.1666721480000000E+02  0.2487311320000000E+01
 2
  0.2209559200000000E+00 1  0.1833745811000000E+02
  0.2113324700000000E+00 0
         # Potential name:  GTH-PBE-Q6  for symbol:  O
         # Potential read from the potential filename: GTH_POTENTIALS
       &END POTENTIAL
     &END KIND
     &KIND H
       BASIS_SET DZVP-MOLOPT-SR-GTH-q1
       POTENTIAL GTH-PBE-q1
       &POTENTIAL
 1
  0.2000000000000000E+00 2 -0.4178900440000000E+01  0.7244633100000000E+00
 0
         # Potential name:  GTH-PBE-Q1  for symbol:  H
         # Potential read from the potential filename: GTH_POTENTIALS
       &END POTENTIAL
     &END KIND
     &KIND N
       BASIS_SET DZVP-MOLOPT-SR-GTH
       POTENTIAL GTH-PBE-q5
       &POTENTIAL
 2 3
  0.2837905100000000E+00 2 -0.1241522559000000E+02  0.1868095920000000E+01
 2
  0.2554050000000000E+00 1  0.1363026257000000E+02
  0.2454945300000000E+00 0
         # Potential name:  GTH-PBE-Q5  for symbol:  N
         # Potential read from the potential filename: GTH_POTENTIALS
       &END POTENTIAL
     &END KIND
     &KIND Ga
       BASIS_SET DZVP-MOLOPT-SR-GTH
       POTENTIAL GTH-PBE-q13
       &POTENTIAL
 2 1 10
  0.4900000000000000E+00 0
 3
  0.4167772300000000E+00 3  0.1047568975000000E+02 -0.4921768140000000E+01  0.8707055900000000E+00
  0.7770178090000000E+01 -0.2248152160000000E+01
  0.1784415450000000E+01
  0.5696265200000000E+00 2  0.1777985340000000E+01  0.1958597600000000E+00
 -0.2317443900000000E+00
  0.2381265000000000E+00 1 -0.1624868022000000E+02
         # Potential name:  GTH-PBE-Q13  for symbol:  GA
         # Potential read from the potential filename: GTH_POTENTIALS
       &END POTENTIAL
     &END KIND
     &TOPOLOGY
       NUMBER_OF_ATOMS  212
       MULTIPLE_UNIT_CELL  1 1 1
     &END TOPOLOGY
   &END SUBSYS
 &END FORCE_EVAL
