 # Version information for this restart file 
 # current date 2019-06-30 03:38:19.010
 # current working dir /scratch/rzk/rzk/GaN-carbene/443-adatoms-both-2x2/04-2Methanol/02-Combine12-Rotate60
 # Program compiled at                              Sun Apr  7 00:48:11 EDT 2019
 # Program compiled on                          beluga2.int.ets1.calculquebec.ca
 # Program compiled for                        Beluga-Linux-x86-64-intel-openmpi
 # Source code revision number                                         svn:18619
 &GLOBAL
   PRINT_LEVEL  MEDIUM
   PROJECT_NAME TEST
   RUN_TYPE  GEO_OPT
 &END GLOBAL
 &MOTION
   &GEO_OPT
     MAX_ITER  500
     STEP_START_VAL  170
   &END GEO_OPT
 &END MOTION
 &FORCE_EVAL
   METHOD  QS
   STRESS_TENSOR  ANALYTICAL
   &DFT
     BASIS_SET_FILE_NAME BASIS_MOLOPT
     POTENTIAL_FILE_NAME GTH_POTENTIALS
     UKS  T
     SURFACE_DIPOLE_CORRECTION  T
     SURF_DIP_DIR  Z
     &SCF
       MAX_SCF  80
       EPS_SCF     5.0000000000000004E-06
       &OT  T
         PRECONDITIONER  FULL_ALL
       &END OT
       &OUTER_SCF  T
         OPTIMIZER  NONE
         EPS_SCF     5.0000000000000004E-06
         MAX_SCF  4
       &END OUTER_SCF
       &PRINT
         &RESTART  OFF
           BACKUP_COPIES  1
           &EACH
             JUST_ENERGY  0
             QS_SCF  0
             MD  20
           &END EACH
         &END RESTART
       &END PRINT
     &END SCF
     &QS
       EPS_DEFAULT     1.0000000000000000E-14
       METHOD  GPW
     &END QS
     &MGRID
       NGRIDS  5
       CUTOFF     1.2000000000000000E+03
     &END MGRID
     &XC
       DENSITY_CUTOFF     1.0000000000000000E-10
       GRADIENT_CUTOFF     1.0000000000000000E-10
       TAU_CUTOFF     1.0000000000000000E-10
       &XC_FUNCTIONAL  NO_SHORTCUT
         &PBE  T
         &END PBE
       &END XC_FUNCTIONAL
       &VDW_POTENTIAL
         POTENTIAL_TYPE  PAIR_POTENTIAL
         &PAIR_POTENTIAL
           R_CUTOFF     1.0000000000000005E+01
           TYPE  DFTD3
           PARAMETER_FILE_NAME dftd3.dat
           REFERENCE_FUNCTIONAL PBE
           EPS_CN     9.9999999999999995E-07
           CALCULATE_C9_TERM  T
           REFERENCE_C9_TERM  T
           LONG_RANGE_CORRECTION  F
           VERBOSE_OUTPUT  F
         &END PAIR_POTENTIAL
       &END VDW_POTENTIAL
     &END XC
   &END DFT
   &SUBSYS
     &CELL
       A     1.2864472766435110E+01    0.0000000000000000E+00    0.0000000000000000E+00
       B    -6.4322363581020028E+00    1.1140960178524475E+01    0.0000000000000000E+00
       C     0.0000000000000000E+00    0.0000000000000000E+00    3.2000000000000000E+01
       MULTIPLE_UNIT_CELL  1 1 1
       &CELL_REF
         A     1.2982353780853531E+01    0.0000000000000000E+00    0.0000000000000000E+00
         B    -6.4911768904267628E+00    1.1243048175136114E+01    0.0000000000000000E+00
         C     0.0000000000000000E+00    0.0000000000000000E+00    3.2000000000000000E+01
         MULTIPLE_UNIT_CELL  1 1 1
       &END CELL_REF
     &END CELL
     &COORD
N    8.9100718911742122E-02    1.9466497820384374E+00    2.4795427159304722E+00
Ga    9.1222632789173433E-02   -1.9710478292741421E-02    2.8241787233899021E+00
N    9.1228148444493035E-02   -5.9491875028418795E-02    5.0022037547677307E+00
Ga    9.2288993581986667E-02    1.7683424051062913E+00    5.7954107474559331E+00
N    9.0527387861193701E-02    1.7816779093615955E+00    7.7922068767487929E+00
Ga    8.9824829060022926E-02   -6.2043780341918528E-02    8.4439619333720835E+00
N    8.9411020804093216E-02   -6.4251779671486639E-02    1.0413481360553302E+01
Ga    8.9477335508046305E-02    1.7747372929581995E+00    1.1072302725568372E+01
N    8.9143952166371776E-02    1.7552939950213668E+00    1.3061648473604983E+01
Ga    8.9046682736235921E-02   -6.5888791937167887E-02    1.3876323603348974E+01
N    8.9063824980680523E-02   -6.5070938773260478E-02    1.6064327302987614E+01
Ga    8.9004327004100950E-02    1.9769892555103248E+00    1.6474954137694056E+01
Ga    6.1316706445234327E-02    3.6574490513081082E+00    1.3599639094624678E+00
N   -1.3961142139007514E+00    4.5154559696564656E+00    2.5161828609902721E+00
Ga   -1.5898601306405800E+00    2.6757989775887472E+00    3.2738637645143966E+00
N   -1.5188002134767551E+00    2.7206223862739618E+00    5.2489155854153990E+00
Ga   -1.5480952943717430E+00    4.5855020365754910E+00    5.8086582438131833E+00
N   -1.5281148976066112E+00    4.5848296944303257E+00    7.7984253921758713E+00
Ga   -1.5078506342283393E+00    2.7247226147050281E+00    8.4385584122415143E+00
N   -1.5074029665594673E+00    2.7275831498398957E+00    1.0427538552155761E+01
Ga   -1.5347816170770039E+00    4.5857811414761871E+00    1.1074928397199759E+01
N   -1.5519615348109164E+00    4.5972403411504459E+00    1.3063301677336963E+01
Ga   -1.5091563558374104E+00    2.7268823592730276E+00    1.3620599604484605E+01
N   -1.5395393592012632E+00    2.7096410422765129E+00    1.5578774461087791E+01
Ga   -1.3596455998389465E+00    4.4861374891452090E+00    1.6475203291637960E+01
N    8.9052430651776218E-02    3.6494327128423087E+00    1.7592395497849942E+01
N   -3.1212200778103654E+00    7.4855781499517295E+00    2.5196846485256765E+00
Ga   -3.1001539182354230E+00    5.4849859638299137E+00    2.8495765299315403E+00
N   -3.1240024142894707E+00    5.5075878976113017E+00    5.0160442160822081E+00
Ga   -3.1326792499288958E+00    7.3276348604181143E+00    5.8072000765914877E+00
N   -3.1253552020534494E+00    7.3534289628664631E+00    7.7937882671170282E+00
Ga   -3.1265850067655454E+00    5.5062316098408211E+00    8.4503136193664918E+00
N   -3.1266526496088400E+00    5.5072411127373631E+00    1.0417261962406640E+01
Ga   -3.1284994363197849E+00    7.3459512448214124E+00    1.1074643212975202E+01
N   -3.1274226183651659E+00    7.3268905619454365E+00    1.3060638222166489E+01
Ga   -3.1296041977906204E+00    5.5080276522726210E+00    1.3877650998410457E+01
N   -3.1283451747169422E+00    5.5074399991825969E+00    1.6064720395440606E+01
Ga   -3.1281224477099867E+00    7.5578518897772300E+00    1.6488161455211003E+01
Ga   -3.1385648707025178E+00    9.2220686267627823E+00    1.4675131735950604E+00
N   -4.6279725181771632E+00    1.0089574175336717E+01    2.5085282423932447E+00
Ga   -4.8371447310847993E+00    8.2392584162429081E+00    3.2815205082169485E+00
N   -4.7324565740688866E+00    8.2929476285350159E+00    5.2426051376828191E+00
Ga   -4.7623707207804937E+00    1.0167487308319796E+01    5.7941520085665266E+00
N   -4.7442747583884968E+00    1.0155122417129148E+01    7.7875839200289612E+00
Ga   -4.7262739139494183E+00    8.3000758690396630E+00    8.4377788201717454E+00
N   -4.7238769034351780E+00    8.2986188977602868E+00    1.0425173348814432E+01
Ga   -4.7501701345682212E+00    1.0157784514614118E+01    1.1071594317180562E+01
N   -4.7671125461626183E+00    1.0167500710952424E+01    1.3058715449979394E+01
Ga   -4.7239876015801094E+00    8.2992220754844581E+00    1.3622227027912205E+01
N   -4.7509786980292761E+00    8.2831598018809807E+00    1.5577324409676008E+01
Ga   -4.5677522917821047E+00    1.0051244525641168E+01    1.6488021332924450E+01
N   -3.1230282409762444E+00    9.2231042041618352E+00    1.7634984530927653E+01
N    3.2977116203319365E+00    1.7988972157576306E+00    2.6073391405876487E+00
Ga    3.2998953874926333E+00    5.7106277368879639E-02    3.2784219633251839E+00
N    3.3087238326555579E+00   -6.5984786573637516E-02    5.2408795904841705E+00
Ga    3.2993273742563729E+00    1.7953157565013362E+00    5.8700095601090734E+00
N    3.3063735073691665E+00    1.7923342447819099E+00    7.8423810943802907E+00
Ga    3.3039772274270689E+00   -7.3236077162591756E-02    8.4381539832688208E+00
N    3.3056851323890339E+00   -7.7148313639552477E-02    1.0425224044347850E+01
Ga    3.3060810880596638E+00    1.7929047540004581E+00    1.1026418298302893E+01
N    3.3056987628265393E+00    1.7927902855970426E+00    1.2991730694894214E+01
Ga    3.3046052458723518E+00   -7.6360599983386485E-02    1.3622510484772091E+01
N    3.3032633826627036E+00   -4.6336911959223369E-02    1.5578539601072944E+01
Ga    3.3088528406022193E+00    1.7912505946735522E+00    1.5860516598506177E+01
N    1.5814459096775209E+00    4.5199223621928999E+00    2.5152132578784370E+00
Ga    1.7696572459021653E+00    2.6836640328583292E+00    3.2609979195311292E+00
N    1.7001285900586141E+00    2.7210504594507268E+00    5.2422249481328382E+00
Ga    1.7298202840045678E+00    4.5840962739761064E+00    5.8071823852705364E+00
N    1.7084396279296863E+00    4.5844620607183657E+00    7.7975506076815133E+00
Ga    1.6882361076711276E+00    2.7250524328271459E+00    8.4391002587682244E+00
N    1.6866362799001693E+00    2.7277313355755815E+00    1.0427882101168519E+01
Ga    1.7141713016268132E+00    4.5860955349515757E+00    1.1074859929337785E+01
N    1.7304380910388475E+00    4.5973632190911902E+00    1.3063289361531401E+01
Ga    1.6872212512701295E+00    2.7270412706861897E+00    1.3620756600954390E+01
N    1.7175201473149779E+00    2.7096636445033400E+00    1.5578928192205110E+01
Ga    1.5377416597550679E+00    4.4861743707968529E+00    1.6475274347463344E+01
N    8.4897961659594484E-02    7.3449637462053090E+00    2.6937522698797247E+00
Ga    9.5740279055360950E-02    5.5023967072142179E+00    3.3370635116663991E+00
N    9.0771677655975547E-02    5.5197062655002389E+00    5.2703249831195356E+00
Ga    9.1711296838033418E-02    7.3585641802497470E+00    5.9106622023666064E+00
N    9.0486941182305269E-02    7.3649519295195329E+00    7.8630173088966231E+00
Ga    9.0394552293190100E-02    5.4904778755367358E+00    8.4485282684668732E+00
N    8.9676349138800307E-02    5.4933997262988363E+00    1.0432879507431249E+01
Ga    8.9462288681978669E-02    7.3638977476400624E+00    1.1030394880454997E+01
N    8.9119551638323871E-02    7.3641650314745704E+00    1.2994249075939400E+01
Ga    8.9162013456972611E-02    5.4948366176502708E+00    1.3621701681688972E+01
N    8.9021227626870647E-02    5.5304810327292362E+00    1.5579629457855098E+01
Ga    8.9019476098266284E-02    7.3678934495732173E+00    1.5860963526205804E+01
N   -1.6183552130780463E+00    1.0077542128106645E+01    2.5150263101725723E+00
Ga   -1.4880324712612123E+00    8.2667883989925421E+00    3.3305649879930512E+00
N   -1.5059372742782422E+00    8.2852604271171515E+00    5.2568406253210256E+00
Ga   -1.4935130431610524E+00    1.0170516536313729E+01    5.8077743484327824E+00
N   -1.5082034354308889E+00    1.0153234218957662E+01    7.7934948563404909E+00
Ga   -1.5310541640099165E+00    8.2997082942433273E+00    8.4495017337102940E+00
N   -1.5307095257680732E+00    8.2990229465686056E+00    1.0431376002282494E+01
Ga   -1.5039867742763846E+00    1.0159004394569543E+01    1.1074641481838638E+01
N   -1.4867400125192767E+00    1.0167901266284954E+01    1.3061146459605551E+01
Ga   -1.5306118400777446E+00    8.2986954444494234E+00    1.3623269299275140E+01
N   -1.5049904829929848E+00    8.2820082854124486E+00    1.5579143404726617E+01
Ga   -1.6838808559598890E+00    1.0053921300612323E+01    1.6488556311579337E+01
N    6.5230049627368052E+00    1.9172441928178834E+00    2.5285277180858547E+00
Ga    6.5237482010644383E+00   -5.5824325161809622E-02    2.8660202139480573E+00
N    6.5223232377472211E+00   -6.5143042022252851E-02    5.0145687961038865E+00
Ga    6.5221967430478962E+00    1.7681842688844474E+00    5.8018438910372323E+00
N    6.5221105742056205E+00    1.7808317919831773E+00    7.7925775359613381E+00
Ga    6.5226066318558482E+00   -6.2858822146883112E-02    8.4484309766429746E+00
N    6.5220498710470540E+00   -6.4457650648786793E-02    1.0415312246356891E+01
Ga    6.5217835202874461E+00    1.7761214659021927E+00    1.1071816151611573E+01
N    6.5213860238563353E+00    1.7560508144395051E+00    1.3059410869463033E+01
Ga    6.5214159873592141E+00   -6.2913983621556133E-02    1.3877748276171147E+01
N    6.5212411201775469E+00   -6.3603755572609888E-02    1.6064520121766275E+01
Ga    6.5212689829571024E+00    1.9833083900874096E+00    1.6487830803675848E+01
Ga    6.5260694751481756E+00    3.6497195537312552E+00    1.5106419707323304E+00
N    5.0213583782382649E+00    4.5176482076161317E+00    2.5234997876292682E+00
Ga    4.8057117484294434E+00    2.6649338532154534E+00    3.2900883297743402E+00
N    4.9129215910110755E+00    2.7209147557826721E+00    5.2494961094232186E+00
Ga    4.8908254214022930E+00    4.5926754225297470E+00    5.8018295392302663E+00
N    4.9046247525828530E+00    4.5848359232479377E+00    7.7931812818297361E+00
Ga    4.9227310324481479E+00    2.7265692135995803E+00    8.4379546298538823E+00
N    4.9251015436366403E+00    2.7279560282304143E+00    1.0425415911254483E+01
Ga    4.8991658833705554E+00    4.5867882810893184E+00    1.1071653574655517E+01
N    4.8813378699281182E+00    4.5969711096033228E+00    1.3058838499960865E+01
Ga    4.9244017200009615E+00    2.7282888071177922E+00    1.3621644559029653E+01
N    4.8975400737857964E+00    2.7144447085345957E+00    1.5577858489593316E+01
Ga    5.0816470820516209E+00    4.4819641449002701E+00    1.6487524499502197E+01
N    6.5214029735187209E+00    3.6447285512812360E+00    1.7633918392052667E+01
N    3.3009778808721535E+00    7.4852281787296038E+00    2.5051133870678504E+00
N    3.3074337468945414E+00    5.5082276831130956E+00    5.0192413961537126E+00
Ga    3.3112548486817399E+00    7.3296493494272221E+00    5.8039385154343215E+00
N    3.3043747530145833E+00    7.3543155486023659E+00    7.7914031318578996E+00
Ga    3.3065678442154929E+00    5.5068244225558285E+00    8.4486649028362759E+00
N    3.3058521581998215E+00    5.5075514349457899E+00    1.0416166868752207E+01
Ga    3.3075225696016477E+00    7.3458750575048963E+00    1.1074572343293477E+01
N    3.3057034334993052E+00    7.3268566897134875E+00    1.3060573227076656E+01
Ga    3.3079273935117013E+00    5.5080732069657534E+00    1.3877768217439540E+01
N    3.3064396743573292E+00    5.5073851500186670E+00    1.6064836606225466E+01
Ga    3.3061102056359051E+00    7.5578469796609618E+00    1.6488242713552250E+01
Ga    3.3325884778839265E+00    9.2369198154273633E+00    1.4512851927998649E+00
N    1.8000146594122359E+00    1.0080018658722524E+01    2.5082457306447807E+00
Ga    1.6679630749224852E+00    8.2671727205760916E+00    3.3106906317507896E+00
N    1.6848522667641270E+00    8.2835012815820850E+00    5.2429144666745620E+00
Ga    1.6734472979258115E+00    1.0166830246259357E+01    5.8039784521671445E+00
N    1.6877341152427658E+00    1.0151850308205672E+01    7.7908901572388576E+00
Ga    1.7110414704661137E+00    8.2997063350375946E+00    8.4500895825791034E+00
N    1.7098519929077587E+00    8.2990574835828763E+00    1.0431643802394493E+01
Ga    1.6832920176666557E+00    1.0158996526245861E+01    1.1074778555075472E+01
N    1.6651968734035270E+00    1.0167857413187830E+01    1.3061179483347960E+01
Ga    1.7088226483715714E+00    8.2986412175287452E+00    1.3623259920562111E+01
N    1.6830504006550837E+00    8.2820315708894814E+00    1.5579106861268013E+01
Ga    1.8619642743619880E+00    1.0053899792037003E+01    1.6488551463375046E+01
N    3.3011961116582280E+00    9.2231505138683083E+00    1.7635052643912079E+01
N    9.7476001693022312E+00    1.7976213989315446E+00    2.6148026279955325E+00
Ga    9.7442839800400947E+00    5.4189141059212957E-02    3.2800454229719338E+00
N    9.7361374891333163E+00   -6.7341885623993417E-02    5.2422441180004924E+00
Ga    9.7446988467547051E+00    1.7935009346602440E+00    5.8722136878518114E+00
N    9.7379258319262867E+00    1.7918031849674316E+00    7.8436714985640901E+00
Ga    9.7401348287039529E+00   -7.4515405620206351E-02    8.4364744353517782E+00
N    9.7377355117977142E+00   -7.7548783030742363E-02    1.0424110759367885E+01
Ga    9.7373766424330146E+00    1.7926086036771580E+00    1.1025581397539646E+01
N    9.7370177883096503E+00    1.7926550216351169E+00    1.2991153545530576E+01
Ga    9.7381691850314791E+00   -7.6294552880097274E-02    1.3622514639727422E+01
N    9.7392460099997855E+00   -4.6355429104107962E-02    1.5578557073295585E+01
Ga    9.7336239628270711E+00    1.7912068063989979E+00    1.5860642650473432E+01
N    8.0259345095477954E+00    4.5175933684831939E+00    2.5270869159557527E+00
Ga    8.2394831971915306E+00    2.6642249605932555E+00    3.2932569111993617E+00
N    8.1321656141608614E+00    2.7207171287273808E+00    5.2519350916036904E+00
Ga    8.1561620005122464E+00    4.5931138648040877E+00    5.8009849220957364E+00
N    8.1405028880674521E+00    4.5850877761005115E+00    7.7928153847819557E+00
Ga    8.1213836621622946E+00    2.7267706569119317E+00    8.4377011699874380E+00
N    8.1183509378938314E+00    2.7280631711721881E+00    1.0425233143278552E+01
Ga    8.1442492257543559E+00    4.5866413804044974E+00    1.1072086302238993E+01
N    8.1613891555327900E+00    4.5969202190449767E+00    1.3059132506549100E+01
Ga    8.1183933974381457E+00    2.7281635772208026E+00    1.3621588330542886E+01
N    8.1449996095080426E+00    2.7143713639792248E+00    1.5577867797326052E+01
Ga    7.9609622605506276E+00    4.4820112546970226E+00    1.6487369571187447E+01
N    6.5222504156143941E+00    7.3640902918069955E+00    2.6001401640989927E+00
Ga    6.5227899928614077E+00    5.6247117856524325E+00    3.2894647942345743E+00
N    6.5231948509462061E+00    5.5096665144415828E+00    5.2483787478821435E+00
Ga    6.5214499081609025E+00    7.3659417406049084E+00    5.8723757832667980E+00
N    6.5218320432633270E+00    7.3647987302450915E+00    7.8412375635998321E+00
Ga    6.5224219945368205E+00    5.4964313493104795E+00    8.4384467889514863E+00
N    6.5218744164397897E+00    5.4949055230345287E+00    1.0425974472280872E+01
Ga    6.5215327505270286E+00    7.3641209576307931E+00    1.1026901600153373E+01
N    6.5212452427293099E+00    7.3638930557219622E+00    1.2993404920982018E+01
Ga    6.5213081470728023E+00    5.4933947726329677E+00    1.3621483864338346E+01
N    6.5212040430461231E+00    5.5248541773878896E+00    1.5576833045547563E+01
Ga    6.5211859615650312E+00    7.3635930267465080E+00    1.5854210046309708E+01
N    4.8127306548943132E+00    1.0091673721525279E+01    2.5123338449544472E+00
Ga    5.0136801364741954E+00    8.2378634937167590E+00    3.2767080066705727E+00
N    4.9120897738155040E+00    8.2925082001564512E+00    5.2392944124823435E+00
Ga    4.9438293300876390E+00    1.0166633810509776E+01    5.7920620487195018E+00
N    4.9247554996518161E+00    1.0154871782327403E+01    7.7862054694751359E+00
Ga    4.9053482902029062E+00    8.3001291791122824E+00    8.4368619235947708E+00
N    4.9026418048405560E+00    8.2985712592870193E+00    1.0424531991594625E+01
Ga    4.9288776613778680E+00    1.0157694570412120E+01    1.1071271918362934E+01
N    4.9453282653090591E+00    1.0167480003678829E+01    1.3058519284867915E+01
Ga    4.9020647461691240E+00    8.2993063897070929E+00    1.3622325735279345E+01
N    4.9289044076179040E+00    8.2831927748393568E+00    1.5577461801276456E+01
Ga    4.7458652673519985E+00    1.0051301854671220E+01    1.6488050262800233E+01
O    9.3138373180175066E-02    4.0853877552664555E+00   -4.3408399522163726E-01
H   -1.4443214728702364E-01    5.8622403684574493E+00   -3.3897945411749009E-01
C    1.2894311142942299E+00    3.7148383834029071E+00   -1.1470268324950004E+00
H    2.2013769710612587E+00    4.0795493662360682E+00   -6.4578798622974587E-01
H    1.3676660978670743E+00    2.6224588011602421E+00   -1.2574246653413859E+00
H    1.2353932521315210E+00    4.1621017444384654E+00   -2.1497791032849687E+00
Ga    3.2809569719660283E+00    5.4840193668098589E+00    2.8597006000988632E+00
O   -1.9317968598968810E-01    6.8476631968639348E+00   -1.9595507135255752E-01
H    3.9661545890158321E-02    7.2788822914568252E+00    1.6561000669066082E+00
C    8.8566322732189584E-01    7.4450034733351727E+00   -9.2416394436767257E-01
H    8.0504507342347043E-01    8.5334407326008215E+00   -7.9701644147570738E-01
H    1.8704234077844468E+00    7.1191687611682584E+00   -5.4543512718324727E-01
H    8.3054497099607827E-01    7.2184417477488374E+00   -2.0000825706221730E+00
     &END COORD
     &KIND C
       BASIS_SET DZVP-MOLOPT-SR-GTH-q4
       POTENTIAL GTH-PBE-q4
       &POTENTIAL
2 2
0.3384712400000000E+00 2 -0.8803673979999999E+01  0.1339210850000000E+01
2
0.3025757500000000E+00 1  0.9622486650000001E+01
0.2915069400000000E+00 0
       &END POTENTIAL
     &END KIND
     &KIND O
       BASIS_SET DZVP-MOLOPT-SR-GTH-q6
       POTENTIAL GTH-PBE-q6
       &POTENTIAL
2 4
0.2445543000000000E+00 2 -0.1666721480000000E+02  0.2487311320000000E+01
2
0.2209559200000000E+00 1  0.1833745811000000E+02
0.2113324700000000E+00 0
       &END POTENTIAL
     &END KIND
     &KIND H
       BASIS_SET DZVP-MOLOPT-SR-GTH-q1
       POTENTIAL GTH-PBE-q1
       &POTENTIAL
1
0.2000000000000000E+00 2 -0.4178900440000000E+01  0.7244633100000000E+00
0
       &END POTENTIAL
     &END KIND
     &KIND N
       BASIS_SET DZVP-MOLOPT-SR-GTH
       POTENTIAL GTH-PBE-q5
       &POTENTIAL
2 3
0.2837905100000000E+00 2 -0.1241522559000000E+02  0.1868095920000000E+01
2
0.2554050000000000E+00 1  0.1363026257000000E+02
0.2454945300000000E+00 0
       &END POTENTIAL
     &END KIND
     &KIND Ga
       BASIS_SET DZVP-MOLOPT-SR-GTH
       POTENTIAL GTH-PBE-q13
       &POTENTIAL
2 1 10
0.4900000000000000E+00 0
3
0.4167772300000000E+00 3  0.1047568975000000E+02 -0.4921768140000000E+01  0.8707055900000000E+00
0.7770178090000000E+01 -0.2248152160000000E+01
0.1784415450000000E+01
0.5696265200000000E+00 2  0.1777985340000000E+01  0.1958597600000000E+00
-0.2317443900000000E+00
0.2381265000000000E+00 1 -0.1624868022000000E+02
       &END POTENTIAL
     &END KIND
     &TOPOLOGY
       NUMBER_OF_ATOMS  212
       MULTIPLE_UNIT_CELL  1 1 1
     &END TOPOLOGY
   &END SUBSYS
 &END FORCE_EVAL
