 # Version information for this restart file 
 # current date 2019-06-30 03:36:26.222
 # current working dir /scratch/rzk/rzk/GaN-carbene/443-adatoms-both-2x2/04-2Methanol/02-Combine12-Rotate60
 # Program compiled at                              Sun Apr  7 00:48:11 EDT 2019
 # Program compiled on                          beluga2.int.ets1.calculquebec.ca
 # Program compiled for                        Beluga-Linux-x86-64-intel-openmpi
 # Source code revision number                                         svn:18619
 &GLOBAL
   PRINT_LEVEL  MEDIUM
   PROJECT_NAME TEST
   RUN_TYPE  GEO_OPT
 &END GLOBAL
 &MOTION
   &GEO_OPT
     MAX_ITER  500
     STEP_START_VAL  169
   &END GEO_OPT
 &END MOTION
 &FORCE_EVAL
   METHOD  QS
   STRESS_TENSOR  ANALYTICAL
   &DFT
     BASIS_SET_FILE_NAME BASIS_MOLOPT
     POTENTIAL_FILE_NAME GTH_POTENTIALS
     UKS  T
     SURFACE_DIPOLE_CORRECTION  T
     SURF_DIP_DIR  Z
     &SCF
       MAX_SCF  80
       EPS_SCF     5.0000000000000004E-06
       &OT  T
         PRECONDITIONER  FULL_ALL
       &END OT
       &OUTER_SCF  T
         OPTIMIZER  NONE
         EPS_SCF     5.0000000000000004E-06
         MAX_SCF  4
       &END OUTER_SCF
       &PRINT
         &RESTART  OFF
           BACKUP_COPIES  1
           &EACH
             JUST_ENERGY  0
             QS_SCF  0
             MD  20
           &END EACH
         &END RESTART
       &END PRINT
     &END SCF
     &QS
       EPS_DEFAULT     1.0000000000000000E-14
       METHOD  GPW
     &END QS
     &MGRID
       NGRIDS  5
       CUTOFF     1.2000000000000000E+03
     &END MGRID
     &XC
       DENSITY_CUTOFF     1.0000000000000000E-10
       GRADIENT_CUTOFF     1.0000000000000000E-10
       TAU_CUTOFF     1.0000000000000000E-10
       &XC_FUNCTIONAL  NO_SHORTCUT
         &PBE  T
         &END PBE
       &END XC_FUNCTIONAL
       &VDW_POTENTIAL
         POTENTIAL_TYPE  PAIR_POTENTIAL
         &PAIR_POTENTIAL
           R_CUTOFF     1.0000000000000005E+01
           TYPE  DFTD3
           PARAMETER_FILE_NAME dftd3.dat
           REFERENCE_FUNCTIONAL PBE
           EPS_CN     9.9999999999999995E-07
           CALCULATE_C9_TERM  T
           REFERENCE_C9_TERM  T
           LONG_RANGE_CORRECTION  F
           VERBOSE_OUTPUT  F
         &END PAIR_POTENTIAL
       &END VDW_POTENTIAL
     &END XC
   &END DFT
   &SUBSYS
     &CELL
       A     1.2864472766435110E+01    0.0000000000000000E+00    0.0000000000000000E+00
       B    -6.4322363581020028E+00    1.1140960178524475E+01    0.0000000000000000E+00
       C     0.0000000000000000E+00    0.0000000000000000E+00    3.2000000000000000E+01
       MULTIPLE_UNIT_CELL  1 1 1
       &CELL_REF
         A     1.2982353780853531E+01    0.0000000000000000E+00    0.0000000000000000E+00
         B    -6.4911768904267628E+00    1.1243048175136114E+01    0.0000000000000000E+00
         C     0.0000000000000000E+00    0.0000000000000000E+00    3.2000000000000000E+01
         MULTIPLE_UNIT_CELL  1 1 1
       &END CELL_REF
     &END CELL
     &COORD
N    8.9247003834249272E-02    1.9466718064549966E+00    2.4797349158752482E+00
Ga    9.1159182599536648E-02   -1.9675280797668768E-02    2.8239179058549615E+00
N    9.1380744175340867E-02   -5.9415932129070953E-02    5.0022481346220804E+00
Ga    9.2359792621320699E-02    1.7684059435241002E+00    5.7953232117026934E+00
N    9.0548542277733429E-02    1.7817189742737840E+00    7.7921979677868709E+00
Ga    8.9778166980025789E-02   -6.2010632080327852E-02    8.4439306742271860E+00
N    8.9389681408132887E-02   -6.4260471352000845E-02    1.0413525900078984E+01
Ga    8.9442459237026664E-02    1.7747497926262474E+00    1.1072262977338536E+01
N    8.9104414854462258E-02    1.7553063677751528E+00    1.3061665869229872E+01
Ga    8.8984051505261771E-02   -6.5938681702007784E-02    1.3876159653986614E+01
N    8.9043478024446621E-02   -6.4997392797115028E-02    1.6064400113343630E+01
Ga    8.8946488914462343E-02    1.9771384279923281E+00    1.6475048768198189E+01
Ga    6.1394265348678013E-02    3.6575002333876294E+00    1.3602570652619153E+00
N   -1.3960599320794995E+00    4.5155399234955418E+00    2.5164787397843829E+00
Ga   -1.5897094664516243E+00    2.6758454632553152E+00    3.2738096487568695E+00
N   -1.5187056170693785E+00    2.7206737203512188E+00    5.2489180167923344E+00
Ga   -1.5479852674925600E+00    4.5855285921876883E+00    5.8085441798325457E+00
N   -1.5280827995260033E+00    4.5848598364982358E+00    7.7983816829526367E+00
Ga   -1.5078521937949547E+00    2.7247343546701193E+00    8.4384940942143398E+00
N   -1.5074277721711111E+00    2.7275966585701470E+00    1.0427527171596807E+01
Ga   -1.5347818599473178E+00    4.5857844509425680E+00    1.1074895245149239E+01
N   -1.5519636548742006E+00    4.5972231073471708E+00    1.3063324555229650E+01
Ga   -1.5092245211524487E+00    2.7268578331259987E+00    1.3620567344499943E+01
N   -1.5396138358666083E+00    2.7096412837663584E+00    1.5578757651690930E+01
Ga   -1.3594648926181603E+00    4.4860030091514620E+00    1.6475283910313674E+01
N    8.9116371933066568E-02    3.6493711503561324E+00    1.7592926448513026E+01
N   -3.1210884631800289E+00    7.4855723188571570E+00    2.5201292999500486E+00
Ga   -3.1000586821970568E+00    5.4849551634498095E+00    2.8495784857286819E+00
N   -3.1239489591650180E+00    5.5076265330668459E+00    5.0161224828041471E+00
Ga   -3.1325937239213686E+00    7.3276626728145837E+00    5.8071814799607067E+00
N   -3.1253318328186350E+00    7.3534671508651313E+00    7.7938231366911088E+00
Ga   -3.1265474046872930E+00    5.5062399777957065E+00    8.4503317666296898E+00
N   -3.1266714297215401E+00    5.5072696759276347E+00    1.0417321384342866E+01
Ga   -3.1284970900797129E+00    7.3459784208392680E+00    1.1074664533331612E+01
N   -3.1274388383735747E+00    7.3269555875975021E+00    1.3060681733977578E+01
Ga   -3.1296699883574419E+00    5.5080482670834838E+00    1.3877484495465092E+01
N   -3.1282673749146248E+00    5.5073804754350446E+00    1.6064766197385524E+01
Ga   -3.1281324192100293E+00    7.5576982925307084E+00    1.6487991408280330E+01
Ga   -3.1384274617244792E+00    9.2220802789818190E+00    1.4684233442734251E+00
N   -4.6278725502372104E+00    1.0089639661668768E+01    2.5088944046986494E+00
Ga   -4.8371248280121772E+00    8.2392648691993067E+00    3.2816559604411064E+00
N   -4.7323514456820233E+00    8.2930044514870751E+00    5.2427138370996387E+00
Ga   -4.7623293451538036E+00    1.0167541477884663E+01    5.7941755737590963E+00
N   -4.7442577646219855E+00    1.0155143526565391E+01    7.7876609992868451E+00
Ga   -4.7262941172762698E+00    8.3000881819408434E+00    8.4377993846230677E+00
N   -4.7238687749811472E+00    8.2986429555819683E+00    1.0425242763130836E+01
Ga   -4.7501884607367328E+00    1.0157799916130678E+01    1.1071616081640087E+01
N   -4.7671151176289532E+00    1.0167492247752826E+01    1.3058756745304912E+01
Ga   -4.7240146305780355E+00    8.2992389047997470E+00    1.3622254010611952E+01
N   -4.7510509904324127E+00    8.2831499556757713E+00    1.5577422165254664E+01
Ga   -4.5678157612504009E+00    1.0051278240297092E+01    1.6487861859267692E+01
N   -3.1230276666501986E+00    9.2230006149875479E+00    1.7634792406408746E+01
N    3.2978060420191184E+00    1.7989335273846319E+00    2.6077874261075280E+00
Ga    3.2999812194645530E+00    5.7165146635857859E-02    3.2786345858833514E+00
N    3.3087779451492061E+00   -6.5954732101160193E-02    5.2410333509137041E+00
Ga    3.2993779370951617E+00    1.7953763425034504E+00    5.8699815999409779E+00
N    3.3063809907553350E+00    1.7923682023104737E+00    7.8423801509549067E+00
Ga    3.3039781730498441E+00   -7.3174517605472722E-02    8.4382170017244604E+00
N    3.3056853316559134E+00   -7.7153428477257910E-02    1.0425315892163907E+01
Ga    3.3060682944749189E+00    1.7929126922266019E+00    1.1026440477520625E+01
N    3.3057231680422907E+00    1.7927559142644289E+00    1.2991816931672624E+01
Ga    3.3045862846581220E+00   -7.6420360669610166E-02    1.3622527004452412E+01
N    3.3032036387911812E+00   -4.6312485731661322E-02    1.5578596246168166E+01
Ga    3.3088073665529212E+00    1.7912631282902134E+00    1.5860602151822143E+01
N    1.5815937845548287E+00    4.5198980779347249E+00    2.5154265041698300E+00
Ga    1.7696811385298437E+00    2.6837418824494867E+00    3.2610343135541315E+00
N    1.7002070217328664E+00    2.7210719486674302E+00    5.2422903651152559E+00
Ga    1.7298701395904652E+00    4.5841150802329489E+00    5.8070926138168151E+00
N    1.7084447692918985E+00    4.5844768888499283E+00    7.7975443138903033E+00
Ga    1.6882438342570303E+00    2.7250836660589632E+00    8.4391244438959969E+00
N    1.6866279496786174E+00    2.7277412029919192E+00    1.0427940978198871E+01
Ga    1.7141602704783205E+00    4.5861260634296102E+00    1.1074827636546461E+01
N    1.7303911657823074E+00    4.5973596959372012E+00    1.3063322918833821E+01
Ga    1.6871992427190583E+00    2.7270244106571071E+00    1.3620725171976288E+01
N    1.7174894802771603E+00    2.7096509320834619E+00    1.5578940557289974E+01
Ga    1.5375650945863881E+00    4.4861088400515445E+00    1.6475373486328085E+01
N    8.5089924582020401E-02    7.3450000067863179E+00    2.6939491412116379E+00
Ga    9.5904983467445498E-02    5.5024440700484432E+00    3.3369881659305878E+00
N    9.0852797345567879E-02    5.5197285289158149E+00    5.2702951497098436E+00
Ga    9.1862994421675795E-02    7.3585978138743195E+00    5.9104771161047402E+00
N    9.0539819168830110E-02    7.3649887855077276E+00    7.8629085214774754E+00
Ga    9.0427275512458868E-02    5.4905270384073832E+00    8.4484914236969768E+00
N    8.9662762366506527E-02    5.4934379357299354E+00    1.0432894010559988E+01
Ga    8.9483822885774625E-02    7.3639138930035317E+00    1.1030388954305581E+01
N    8.9110210160514486E-02    7.3642318900688686E+00    1.2994304940876882E+01
Ga    8.9126366776883972E-02    5.4948835805192626E+00    1.3621678130316239E+01
N    8.8958472713836279E-02    5.5304999620221063E+00    1.5579616988302869E+01
Ga    8.8985068118888122E-02    7.3678721338360429E+00    1.5861025055357443E+01
N   -1.6182784490120812E+00    1.0077602051669587E+01    2.5154369713984264E+00
Ga   -1.4877367595338744E+00    8.2667564627471890E+00    3.3306558607411789E+00
N   -1.5058712102603935E+00    8.2852983275649059E+00    5.2569010586836482E+00
Ga   -1.4934549801986250E+00    1.0170541035885050E+01    5.8077723394179701E+00
N   -1.5082073889055256E+00    1.0153244385822813E+01    7.7935588971445053E+00
Ga   -1.5309794232896035E+00    8.2997006636725921E+00    8.4495268516049151E+00
N   -1.5306967745359852E+00    8.2990395333143177E+00    1.0431455238311569E+01
Ga   -1.5039792530577476E+00    1.0159014347207744E+01    1.1074657105386210E+01
N   -1.4867654033928150E+00    1.0167896523671311E+01    1.3061193966589903E+01
Ga   -1.5306475880945190E+00    8.2987270666528836E+00    1.3623286686751825E+01
N   -1.5050028828407001E+00    8.2819785147591993E+00    1.5579204655191861E+01
Ga   -1.6838604495082561E+00    1.0053943071227605E+01    1.6488369398944450E+01
N    6.5230467628139648E+00    1.9172358518964623E+00    2.5288035939324756E+00
Ga    6.5239677720947071E+00   -5.5815217324598737E-02    2.8658181076040865E+00
N    6.5222832034773921E+00   -6.5058307106503913E-02    5.0146494416820868E+00
Ga    6.5222365261587196E+00    1.7682455303896443E+00    5.8017807127399914E+00
N    6.5221291527401926E+00    1.7808873093012096E+00    7.7926064325871645E+00
Ga    6.5226762863246703E+00   -6.2852492834022555E-02    8.4484047176847508E+00
N    6.5220592195765263E+00   -6.4450641220627228E-02    1.0415352039530642E+01
Ga    6.5217961204926445E+00    1.7761330354445859E+00    1.1071818523204211E+01
N    6.5213719012059732E+00    1.7560467130610100E+00    1.3059435790122899E+01
Ga    6.5214158422187740E+00   -6.2922540977076655E-02    1.3877620802150252E+01
N    6.5212220461253434E+00   -6.3639702707564180E-02    1.6064611081916443E+01
Ga    6.5212352610289557E+00    1.9832628831738606E+00    1.6487718170604801E+01
Ga    6.5261917830911473E+00    3.6497432630219770E+00    1.5110233749198634E+00
N    5.0213860081502917E+00    4.5176577663279458E+00    2.5237208091467989E+00
Ga    4.8058711103871836E+00    2.6650281757196970E+00    3.2901209345364517E+00
N    4.9129651650340760E+00    2.7209413946086660E+00    5.2495529649927191E+00
Ga    4.8908563810750341E+00    4.5926922241742778E+00    5.8017673890065486E+00
N    4.9046506541582859E+00    4.5848608414068437E+00    7.7932097143549424E+00
Ga    4.9227153261059193E+00    2.7265961204286846E+00    8.4380039034738594E+00
N    4.9251080165126009E+00    2.7279620407791674E+00    1.0425498293274869E+01
Ga    4.8991575347115637E+00    4.5868038554142867E+00    1.1071666195185044E+01
N    4.8813371475642144E+00    4.5969572408463115E+00    1.3058869489949569E+01
Ga    4.9244379130082070E+00    2.7283052034475861E+00    1.3621672016986045E+01
N    4.8974810268973403E+00    2.7144471255687233E+00    1.5577922177422794E+01
Ga    5.0815731364319072E+00    4.4819470042709195E+00    1.6487446083678254E+01
N    6.5214617693256294E+00    3.6447444344122437E+00    1.7633781872235474E+01
N    3.3011249759576340E+00    7.4850715507592724E+00    2.5052012262012093E+00
N    3.3074924629681832E+00    5.5081537668361626E+00    5.0193012419461596E+00
Ga    3.3113105377716745E+00    7.3297149353547386E+00    5.8035538141975849E+00
N    3.3044060069648156E+00    7.3543680454280089E+00    7.7912317898628336E+00
Ga    3.3065593494344956E+00    5.5068917390397720E+00    8.4486298728318161E+00
N    3.3058608667183647E+00    5.5075949328724496E+00    1.0416208084079807E+01
Ga    3.3075079484790715E+00    7.3459155410003527E+00    1.1074559891270374E+01
N    3.3056693186060913E+00    7.3269476027241129E+00    1.3060599518813818E+01
Ga    3.3079345786969334E+00    5.5081282006670547E+00    1.3877623626273692E+01
N    3.3063259528618265E+00    5.5073238035718388E+00    1.6064910113823490E+01
Ga    3.3060242802881898E+00    7.5576935973681074E+00    1.6488093738986375E+01
Ga    3.3327636414554771E+00    9.2370260740318795E+00    1.4499477162124075E+00
N    1.7999892851918968E+00    1.0080165973409461E+01    2.5083749849872627E+00
Ga    1.6683955518136964E+00    8.2673810637809453E+00    3.3101219124657115E+00
N    1.6848869000558657E+00    8.2835058674804891E+00    5.2425829242175821E+00
Ga    1.6735686849638642E+00    1.0166819084012198E+01    5.8035888290436040E+00
N    1.6877908003158930E+00    1.0151858792629641E+01    7.7907150400404523E+00
Ga    1.7110822125243779E+00    8.2997246534993945E+00    8.4500443690176077E+00
N    1.7098505911233859E+00    8.2990985564737283E+00    1.0431683366785984E+01
Ga    1.6833086829457347E+00    1.0159013958704815E+01    1.1074763284612262E+01
N    1.6652079550830787E+00    1.0167844125091589E+01    1.3061203209005626E+01
Ga    1.7088121484442991E+00    8.2986846102116285E+00    1.3623305994645223E+01
N    1.6829793735685350E+00    8.2820269512114990E+00    1.5579180913595762E+01
Ga    1.8619576535422879E+00    1.0053870178798253E+01    1.6488362560556126E+01
N    3.3013156328720612E+00    9.2230408510498005E+00    1.7634882885249098E+01
N    9.7477072162977123E+00    1.7976394512650120E+00    2.6152208188960904E+00
Ga    9.7443528427702795E+00    5.3861400084950287E-02    3.2794801150783828E+00
N    9.7362020131269151E+00   -6.7260412305268358E-02    5.2419701058948638E+00
Ga    9.7447706845872251E+00    1.7934968949912040E+00    5.8719349103180072E+00
N    9.7379543043128205E+00    1.7918206765659701E+00    7.8435059009585384E+00
Ga    9.7401741558009380E+00   -7.4479774454083852E-02    8.4363773576491035E+00
N    9.7377203180720571E+00   -7.7543121631992326E-02    1.0424110693475177E+01
Ga    9.7373869633934653E+00    1.7925996860612303E+00    1.1025554328445303E+01
N    9.7369495910070576E+00    1.7926094109453776E+00    1.2991189083010960E+01
Ga    9.7381228629253833E+00   -7.6327861052255641E-02    1.3622552200926707E+01
N    9.7391823387310410E+00   -4.6338392165797271E-02    1.5578629584840973E+01
Ga    9.7335805862906604E+00    1.7912094739823978E+00    1.5860693701060812E+01
N    8.0260814463577379E+00    4.5176624081993220E+00    2.5274031630053857E+00
Ga    8.2395309530152900E+00    2.6642436994359127E+00    3.2932231420756617E+00
N    8.1321906928221779E+00    2.7207584534677842E+00    5.2519382893804254E+00
Ga    8.1561924316459873E+00    4.5931274805883877E+00    5.8009050592262410E+00
N    8.1405169667909032E+00    4.5851155189072896E+00    7.7928107052166427E+00
Ga    8.1214552510019278E+00    2.7267728906522284E+00    8.4376770450957483E+00
N    8.1183576106014552E+00    2.7280610744028668E+00    1.0425271922412595E+01
Ga    8.1442374187950701E+00    4.5866334426464972E+00    1.1072091875687397E+01
N    8.1613285691208350E+00    4.5968883759925623E+00    1.3059154945907922E+01
Ga    8.1183344549108156E+00    2.7281618608437816E+00    1.3621604874432744E+01
N    8.1449723038087498E+00    2.7143628385601630E+00    1.5577931223555108E+01
Ga    7.9610408813511526E+00    4.4820394594097008E+00    1.6487282559795837E+01
N    6.5223247492317897E+00    7.3641069541344946E+00    2.6005197872995591E+00
Ga    6.5228189643609733E+00    5.6246768928835698E+00    3.2894506012931499E+00
N    6.5232361822661691E+00    5.5096501747640696E+00    5.2484045972142868E+00
Ga    6.5214403678538666E+00    7.3659773996243825E+00    5.8721552777256019E+00
N    6.5218320007614841E+00    7.3648357476343778E+00    7.8411275793469644E+00
Ga    6.5224269645510935E+00    5.4964847846896552E+00    8.4384458660605031E+00
N    6.5218717676492863E+00    5.4949169105316953E+00    1.0426030361632101E+01
Ga    6.5215148383856976E+00    7.3641495851124992E+00    1.1026880419338481E+01
N    6.5212119609897776E+00    7.3639107268343826E+00    1.2993441248767970E+01
Ga    6.5212801434774885E+00    5.4933928734345612E+00    1.3621516871771396E+01
N    6.5211478294912739E+00    5.5248491650366383E+00    1.5576936853311715E+01
Ga    6.5211301313383716E+00    7.3635720604390853E+00    1.5854346001508139E+01
N    4.8129322657846316E+00    1.0091750743493625E+01    2.5124210450808175E+00
Ga    5.0134336786565115E+00    8.2380414043987393E+00    3.2761483029470444E+00
N    4.9121838217282212E+00    8.2925116364271965E+00    5.2390297141576152E+00
Ga    4.9438378093265474E+00    1.0166632181982408E+01    5.7916382322509747E+00
N    4.9247646282260016E+00    1.0154885618477888E+01    7.7860210331554081E+00
Ga    4.9053459703515996E+00    8.3001738683268531E+00    8.4368061078797663E+00
N    4.9026202957298572E+00    8.2986074594876271E+00    1.0424576969974956E+01
Ga    4.9288403159493779E+00    1.0157716448208991E+01    1.1071256715223759E+01
N    4.9452295950733998E+00    1.0167460588874549E+01    1.3058536248930444E+01
Ga    4.9020268591723806E+00    8.2993294469323953E+00    1.3622373281487112E+01
N    4.9288653820946022E+00    8.2831806427837193E+00    1.5577604275216617E+01
Ga    4.7459138349585395E+00    1.0051398895638354E+01    1.6487901512329053E+01
O    9.3128224611087246E-02    4.0852189160098566E+00   -4.3379573183085995E-01
H   -1.4488428771491813E-01    5.8620716802056618E+00   -3.3874410346394351E-01
C    1.2892979376164568E+00    3.7147829581626564E+00   -1.1470073443017503E+00
H    2.2012956956042564E+00    4.0793906830018898E+00   -6.4580581551080785E-01
H    1.3675997261407533E+00    2.6223967412809190E+00   -1.2572251540323331E+00
H    1.2354337307892036E+00    4.1618285943192532E+00   -2.1498460110705482E+00
Ga    3.2810224190241040E+00    5.4841472943905147E+00    2.8594167149221699E+00
O   -1.9340976188494940E-01    6.8475429003477650E+00   -1.9598343594334261E-01
H    3.9599385858072961E-02    7.2788563555402623E+00    1.6562790355383332E+00
C    8.8524474460325209E-01    7.4451080586521750E+00   -9.2431843190548735E-01
H    8.0426231420637018E-01    8.5335588778991411E+00   -7.9757025228876366E-01
H    1.8699897001993695E+00    7.1193821373675448E+00   -5.4538905798804715E-01
H    8.3002550854510415E-01    7.2178205225536507E+00   -2.0000835610670014E+00
     &END COORD
     &KIND C
       BASIS_SET DZVP-MOLOPT-SR-GTH-q4
       POTENTIAL GTH-PBE-q4
       &POTENTIAL
2 2
0.3384712400000000E+00 2 -0.8803673979999999E+01  0.1339210850000000E+01
2
0.3025757500000000E+00 1  0.9622486650000001E+01
0.2915069400000000E+00 0
       &END POTENTIAL
     &END KIND
     &KIND O
       BASIS_SET DZVP-MOLOPT-SR-GTH-q6
       POTENTIAL GTH-PBE-q6
       &POTENTIAL
2 4
0.2445543000000000E+00 2 -0.1666721480000000E+02  0.2487311320000000E+01
2
0.2209559200000000E+00 1  0.1833745811000000E+02
0.2113324700000000E+00 0
       &END POTENTIAL
     &END KIND
     &KIND H
       BASIS_SET DZVP-MOLOPT-SR-GTH-q1
       POTENTIAL GTH-PBE-q1
       &POTENTIAL
1
0.2000000000000000E+00 2 -0.4178900440000000E+01  0.7244633100000000E+00
0
       &END POTENTIAL
     &END KIND
     &KIND N
       BASIS_SET DZVP-MOLOPT-SR-GTH
       POTENTIAL GTH-PBE-q5
       &POTENTIAL
2 3
0.2837905100000000E+00 2 -0.1241522559000000E+02  0.1868095920000000E+01
2
0.2554050000000000E+00 1  0.1363026257000000E+02
0.2454945300000000E+00 0
       &END POTENTIAL
     &END KIND
     &KIND Ga
       BASIS_SET DZVP-MOLOPT-SR-GTH
       POTENTIAL GTH-PBE-q13
       &POTENTIAL
2 1 10
0.4900000000000000E+00 0
3
0.4167772300000000E+00 3  0.1047568975000000E+02 -0.4921768140000000E+01  0.8707055900000000E+00
0.7770178090000000E+01 -0.2248152160000000E+01
0.1784415450000000E+01
0.5696265200000000E+00 2  0.1777985340000000E+01  0.1958597600000000E+00
-0.2317443900000000E+00
0.2381265000000000E+00 1 -0.1624868022000000E+02
       &END POTENTIAL
     &END KIND
     &TOPOLOGY
       NUMBER_OF_ATOMS  212
       MULTIPLE_UNIT_CELL  1 1 1
     &END TOPOLOGY
   &END SUBSYS
 &END FORCE_EVAL
