 # Version information for this restart file 
 # current date 2019-06-28 10:59:38.740
 # current working dir /scratch/rzk/rzk/GaN-carbene/443-adatoms-both-2x2/04-2Methanol/02-Combine12-Rotate60
 # Program compiled at                              Sun Apr  7 00:48:11 EDT 2019
 # Program compiled on                          beluga2.int.ets1.calculquebec.ca
 # Program compiled for                        Beluga-Linux-x86-64-intel-openmpi
 # Source code revision number                                         svn:18619
 &GLOBAL
   PRINT_LEVEL  MEDIUM
   PROJECT_NAME TEST
   RUN_TYPE  GEO_OPT
 &END GLOBAL
 &MOTION
   &GEO_OPT
     MAX_ITER  500
     STEP_START_VAL  153
   &END GEO_OPT
 &END MOTION
 &FORCE_EVAL
   METHOD  QS
   STRESS_TENSOR  ANALYTICAL
   &DFT
     BASIS_SET_FILE_NAME BASIS_MOLOPT
     POTENTIAL_FILE_NAME GTH_POTENTIALS
     UKS  T
     SURFACE_DIPOLE_CORRECTION  T
     SURF_DIP_DIR  Z
     &SCF
       MAX_SCF  80
       EPS_SCF     5.0000000000000004E-06
       &OT  T
         PRECONDITIONER  FULL_ALL
       &END OT
       &OUTER_SCF  T
         OPTIMIZER  NONE
         EPS_SCF     5.0000000000000004E-06
         MAX_SCF  4
       &END OUTER_SCF
       &PRINT
         &RESTART  OFF
           BACKUP_COPIES  1
           &EACH
             JUST_ENERGY  0
             QS_SCF  0
             MD  20
           &END EACH
         &END RESTART
       &END PRINT
     &END SCF
     &QS
       EPS_DEFAULT     1.0000000000000000E-14
       METHOD  GPW
     &END QS
     &MGRID
       NGRIDS  5
       CUTOFF     1.2000000000000000E+03
     &END MGRID
     &XC
       DENSITY_CUTOFF     1.0000000000000000E-10
       GRADIENT_CUTOFF     1.0000000000000000E-10
       TAU_CUTOFF     1.0000000000000000E-10
       &XC_FUNCTIONAL  NO_SHORTCUT
         &PBE  T
         &END PBE
       &END XC_FUNCTIONAL
       &VDW_POTENTIAL
         POTENTIAL_TYPE  PAIR_POTENTIAL
         &PAIR_POTENTIAL
           R_CUTOFF     1.0000000000000004E+01
           TYPE  DFTD3
           PARAMETER_FILE_NAME dftd3.dat
           REFERENCE_FUNCTIONAL PBE
           EPS_CN     9.9999999999999995E-07
           CALCULATE_C9_TERM  T
           REFERENCE_C9_TERM  T
           LONG_RANGE_CORRECTION  F
           VERBOSE_OUTPUT  F
         &END PAIR_POTENTIAL
       &END VDW_POTENTIAL
     &END XC
   &END DFT
   &SUBSYS
     &CELL
       A     1.2864472766435110E+01    0.0000000000000000E+00    0.0000000000000000E+00
       B    -6.4322363581020028E+00    1.1140960178524473E+01    0.0000000000000000E+00
       C     0.0000000000000000E+00    0.0000000000000000E+00    3.2000000000000000E+01
       MULTIPLE_UNIT_CELL  1 1 1
       &CELL_REF
         A     1.2982353780853531E+01    0.0000000000000000E+00    0.0000000000000000E+00
         B    -6.4911768904267628E+00    1.1243048175136114E+01    0.0000000000000000E+00
         C     0.0000000000000000E+00    0.0000000000000000E+00    3.2000000000000000E+01
         MULTIPLE_UNIT_CELL  1 1 1
       &END CELL_REF
     &END CELL
     &COORD
N    9.2401032812552381E-02    1.9469938603735004E+00    2.4843899656449140E+00
Ga    7.3718698305638916E-02   -2.5151020608943718E-02    2.8177937404296514E+00
N    9.5158198647012790E-02   -5.7433726705855837E-02    5.0116417950139125E+00
Ga    9.3252322624967368E-02    1.7671433531178369E+00    5.7950299389565787E+00
N    9.1310271608989163E-02    1.7826286553914805E+00    7.7983452456307241E+00
Ga    8.8149402646567190E-02   -6.2591470253138742E-02    8.4401872298123255E+00
N    8.8941542909412516E-02   -6.4222390942982127E-02    1.0417083256833127E+01
Ga    8.8734769529890026E-02    1.7756905583755720E+00    1.1066556324953799E+01
N    8.7666298910627910E-02    1.7571861510867048E+00    1.3062295525027295E+01
Ga    8.8131263348461289E-02   -6.2924526206088918E-02    1.3863278711321257E+01
N    8.8349140141649948E-02   -6.3669131510696142E-02    1.6067586108459768E+01
Ga    8.6846827363944376E-02    1.9764767836405992E+00    1.6478835906922146E+01
Ga    6.5420302365439748E-02    3.6574477203239781E+00    1.3635038637390360E+00
N   -1.3934352794176246E+00    4.5172404088305633E+00    2.5228340491979377E+00
Ga   -1.5872886144777394E+00    2.6725133956151503E+00    3.2746864321774720E+00
N   -1.5167021966001311E+00    2.7217618955060909E+00    5.2540675218859354E+00
Ga   -1.5456013705264060E+00    4.5861262602298485E+00    5.8055734087403961E+00
N   -1.5278697194242941E+00    4.5858511970519329E+00    7.8016691476131843E+00
Ga   -1.5086062032599490E+00    2.7248020612002191E+00    8.4323948259301442E+00
N   -1.5079605010555117E+00    2.7279248563158851E+00    1.0429453239293407E+01
Ga   -1.5341862922293001E+00    4.5854408566188791E+00    1.1068950511800393E+01
N   -1.5519497491399552E+00    4.5968102281582652E+00    1.3063251682738770E+01
Ga   -1.5097000591261580E+00    2.7280992932553980E+00    1.3618532910040495E+01
N   -1.5379672628188188E+00    2.7138351305390125E+00    1.5580895121622971E+01
Ga   -1.3563291830314077E+00    4.4833836576474511E+00    1.6479947182306084E+01
N    9.4202258578202358E-02    3.6454713385678135E+00    1.7613744589330189E+01
N   -3.1179070975363596E+00    7.4870941982940709E+00    2.5299836688372279E+00
Ga   -3.0967016124048956E+00    5.4831024603477472E+00    2.8493312573947254E+00
N   -3.1233925801642966E+00    5.5086679414311375E+00    5.0202494101994857E+00
Ga   -3.1309623267816953E+00    7.3288812338361122E+00    5.8062903397214347E+00
N   -3.1243855984326099E+00    7.3537914824871713E+00    7.7982946441574965E+00
Ga   -3.1260193349325602E+00    5.5066508157890262E+00    8.4477743459086572E+00
N   -3.1270189579665759E+00    5.5076768157913261E+00    1.0420981643671523E+01
Ga   -3.1288162243230730E+00    7.3467124949537475E+00    1.1070638867099897E+01
N   -3.1288346138621712E+00    7.3279278099610154E+00    1.3064549781646328E+01
Ga   -3.1279493965465797E+00    5.5069480484215116E+00    1.3865371593288939E+01
N   -3.1276588342814571E+00    5.5061922728898782E+00    1.6068357891254770E+01
Ga   -3.1294644849593261E+00    7.5455279350873283E+00    1.6478491415655796E+01
Ga   -3.1361129845207105E+00    9.2219289719081239E+00    1.5016413897410659E+00
N   -4.6259032922150185E+00    1.0090879403504195E+01    2.5144889128023120E+00
Ga   -4.8445061792122388E+00    8.2405745171778673E+00    3.2891317875297008E+00
N   -4.7309433218486987E+00    8.2944485076693759E+00    5.2505282075049138E+00
Ga   -4.7641263442179813E+00    1.0169599154431715E+01    5.7967925925902728E+00
N   -4.7431645128686641E+00    1.0155343261445749E+01    7.7953338000717993E+00
Ga   -4.7265574667307106E+00    8.2996150202975976E+00    8.4340451371516831E+00
N   -4.7238131262072587E+00    8.2984247916759273E+00    1.0428900448858762E+01
Ga   -4.7506366398133011E+00    1.0157389203278392E+01    1.1066833401134115E+01
N   -4.7679802633461303E+00    1.0167403634069718E+01    1.3061641235164911E+01
Ga   -4.7265249239868163E+00    8.2995497479359521E+00    1.3619074579321659E+01
N   -4.7545030024633936E+00    8.2846928576237548E+00    1.5581468143820382E+01
Ga   -4.5741229952197777E+00    1.0055058726106575E+01    1.6478946060161746E+01
N   -3.1224822115000430E+00    9.2163509047654983E+00    1.7613141726222878E+01
N    3.2984577595109306E+00    1.7999147617591154E+00    2.6154290541743670E+00
Ga    3.3002389605553955E+00    6.0758916038971683E-02    3.2870502222557838E+00
N    3.3093874988760410E+00   -6.5804663415197667E-02    5.2498329645850088E+00
Ga    3.3000308698708678E+00    1.7964704566247034E+00    5.8714985649029288E+00
N    3.3071925622164273E+00    1.7924579259158040E+00    7.8489164294856630E+00
Ga    3.3044146747483643E+00   -7.3291431334728707E-02    8.4371505232202093E+00
N    3.3054934831643634E+00   -7.6637354531401553E-02    1.0431131546379815E+01
Ga    3.3054670392067558E+00    1.7930856617157749E+00    1.1025315407381193E+01
N    3.3040436196180587E+00    1.7932051069367860E+00    1.2998074032779559E+01
Ga    3.3028442081479747E+00   -7.5968321520542698E-02    1.3619149048987843E+01
N    3.3013171625470998E+00   -4.4639008999727205E-02    1.5581572070952314E+01
Ga    3.3027847866507956E+00    1.7939744137913418E+00    1.5860304965504746E+01
N    1.5848485530036827E+00    4.5191387755959713E+00    2.5200185417570284E+00
Ga    1.7693638913678984E+00    2.6856839671968680E+00    3.2646129901102898E+00
N    1.7012631169139356E+00    2.7216102889444431E+00    5.2495719828012604E+00
Ga    1.7324948002949998E+00    4.5860048373674713E+00    5.8066470853821102E+00
N    1.7083406924718161E+00    4.5843923102190072E+00    7.8035656419782784E+00
Ga    1.6884525869178164E+00    2.7256041430110147E+00    8.4366787713240026E+00
N    1.6870285009624939E+00    2.7275869342236736E+00    1.0432357666931670E+01
Ga    1.7129696826892284E+00    4.5862019122357260E+00    1.1069355072523678E+01
N    1.7274796078765939E+00    4.5969723530158806E+00    1.3064057426512717E+01
Ga    1.6843775036025432E+00    2.7281562535775650E+00    1.3619248113004128E+01
N    1.7112961967447922E+00    2.7125287506221039E+00    1.5582615049795045E+01
Ga    1.5360952471670153E+00    4.4870322764394386E+00    1.6478956223602658E+01
N    9.6037205946563939E-02    7.3483930272457743E+00    2.6960940326170375E+00
Ga    1.0287662968225858E-01    5.5076219528624142E+00    3.3369090462527713E+00
N    9.2313092279286524E-02    5.5205813559277335E+00    5.2742163672126239E+00
Ga    1.0046134794361807E-01    7.3620876432710354E+00    5.9049300725013669E+00
N    9.1476202848533042E-02    7.3656950554797627E+00    7.8646760770966457E+00
Ga    9.0712825537581074E-02    5.4920703754376961E+00    8.4433308409184491E+00
N    8.9241149498844735E-02    5.4940190887564260E+00    1.0435104682972218E+01
Ga    8.9931933674834222E-02    7.3633033764433575E+00    1.1027711604197089E+01
N    8.7947214517007960E-02    7.3639943610423710E+00    1.2999535440626596E+01
Ga    8.7342716604649262E-02    5.4939986662991531E+00    1.3619848361314943E+01
N    8.5450336093970097E-02    5.5257013714737404E+00    1.5581802558933285E+01
Ga    8.6972629170184168E-02    7.3637488621208727E+00    1.5860724831764289E+01
N   -1.6180435662336281E+00    1.0078405717923227E+01    2.5222213721284041E+00
Ga   -1.4728728117133545E+00    8.2649442348625914E+00    3.3351853894118424E+00
N   -1.5039346093044663E+00    8.2858827134055897E+00    5.2623907945023509E+00
Ga   -1.4905211148449742E+00    1.0171774014313156E+01    5.8091538466681705E+00
N   -1.5084654799493511E+00    1.0152983916315874E+01    7.8003648301492978E+00
Ga   -1.5293044867482792E+00    8.2990614182900142E+00    8.4461874952877292E+00
N   -1.5302339932436868E+00    8.2983497526276846E+00    1.0435955815353005E+01
Ga   -1.5044255751223765E+00    1.0158501200582306E+01    1.1070156086792895E+01
N   -1.4889526400638893E+00    1.0167653488735610E+01    1.3064100529618152E+01
Ga   -1.5316713045020509E+00    8.2990584316883425E+00    1.3620174285668334E+01
N   -1.5044594190651426E+00    8.2830650048771446E+00    1.5583559702720208E+01
Ga   -1.6791902052980063E+00    1.0058383241969420E+01    1.6478402473502147E+01
N    6.5233094142216155E+00    1.9181985588946779E+00    2.5360311645010909E+00
Ga    6.5432943565207964E+00   -6.3612618617872888E-02    2.8609128582547014E+00
N    6.5199170794463255E+00   -6.2760645748358962E-02    5.0236375603034134E+00
Ga    6.5231703276908215E+00    1.7667906571909870E+00    5.8027721747145415E+00
N    6.5225544877090105E+00    1.7818595680627227E+00    7.7995227078281433E+00
Ga    6.5247340628456767E+00   -6.3533367672041555E-02    8.4447629682793526E+00
N    6.5217008218864079E+00   -6.4409891702103497E-02    1.0418974244455836E+01
Ga    6.5220222131271148E+00    1.7766660394388805E+00    1.1066859966137187E+01
N    6.5198563289141056E+00    1.7570482042856230E+00    1.3062442661414423E+01
Ga    6.5200321772141008E+00   -6.3174831809539339E-02    1.3864236598412059E+01
N    6.5203948606410860E+00   -6.4026804595407882E-02    1.6068044676038333E+01
Ga    6.5189843476149862E+00    1.9742914963859612E+00    1.6476774727865180E+01
Ga    6.5280595179051746E+00    3.6504755173204080E+00    1.5339726483993024E+00
N    5.0224802034417291E+00    4.5173194319437107E+00    2.5290652497494643E+00
Ga    4.8053301548827356E+00    2.6661337252263606E+00    3.2963152671538154E+00
N    4.9138480303982126E+00    2.7217000736174155E+00    5.2575036924630316E+00
Ga    4.8892983572216915E+00    4.5946361738604304E+00    5.8034007573870499E+00
N    4.9056894475627315E+00    4.5846085235617524E+00    7.8006485727514852E+00
Ga    4.9235529530121456E+00    2.7270924164014501E+00    8.4367956809999320E+00
N    4.9243987026190714E+00    2.7277706067346825E+00    1.0431416966647797E+01
Ga    4.8991771192319504E+00    4.5872384121873031E+00    1.1066751616302009E+01
N    4.8802266449145586E+00    4.5970217769030972E+00    1.3061962303632095E+01
Ga    4.9224949079977884E+00    2.7287201251304629E+00    1.3618266114524443E+01
N    4.8946468104681689E+00    2.7142556810214118E+00    1.5581159149410379E+01
Ga    5.0734204540485539E+00    4.4849413485555027E+00    1.6477286198999263E+01
N    6.5270228269927379E+00    3.6465364194618504E+00    1.7609479854834589E+01
N    3.3061321017125129E+00    7.4792252444529126E+00    2.4998085198703479E+00
N    3.3085944282772615E+00    5.5057739401707027E+00    5.0293378085355567E+00
Ga    3.3124715064286865E+00    7.3332656273768118E+00    5.7937152373818517E+00
N    3.3048530003352803E+00    7.3550242707321942E+00    7.7931087123860090E+00
Ga    3.3068331541784972E+00    5.5090624691743102E+00    8.4448099249005431E+00
N    3.3055136918854933E+00    5.5079420062180269E+00    1.0419686734283978E+01
Ga    3.3073448667703627E+00    7.3469511618231556E+00    1.1068988628363929E+01
N    3.3040793339925227E+00    7.3276388466431834E+00    1.3063731941085523E+01
Ga    3.3038856652449842E+00    5.5066851718055441E+00    1.3864718999842609E+01
N    3.3041116104323827E+00    5.5059529066537101E+00    1.6068350995401371E+01
Ga    3.3030292758141138E+00    7.5436535513195295E+00    1.6476419869468941E+01
Ga    3.3450866928333229E+00    9.2438149429214462E+00    1.3147862851833976E+00
N    1.7978133889211121E+00    1.0086545196023820E+01    2.5033603406718568E+00
Ga    1.6952639871187913E+00    8.2824621186429255E+00    3.2869351868600414E+00
N    1.6868330785674062E+00    8.2848162762403241E+00    5.2365628593439233E+00
Ga    1.6775689460076393E+00    1.0165834481993670E+01    5.7933943355076858E+00
N    1.6882813757513402E+00    1.0152032904593295E+01    7.7921214504952996E+00
Ga    1.7124549866292897E+00    8.3005184703175097E+00    8.4436828183767734E+00
N    1.7091464803226415E+00    8.2987868371602858E+00    1.0434576187034841E+01
Ga    1.6839339209618254E+00    1.0158687303265383E+01    1.1068240995201823E+01
N    1.6643029003982621E+00    1.0167590550945864E+01    1.3062609777666838E+01
Ga    1.7068325297380460E+00    8.2992604607207365E+00    1.3619002357726927E+01
N    1.6786922591534115E+00    8.2847498918838554E+00    1.5581846112424541E+01
Ga    1.8574318279793796E+00    1.0055462218522960E+01    1.6477306643654853E+01
N    3.3114314740259041E+00    9.2165829735812181E+00    1.7608947874046763E+01
N    9.7510212196047483E+00    1.7934275798289856E+00    2.6261761247144211E+00
Ga    9.7449047117731737E+00    2.9166422873464794E-02    3.2538441156220004E+00
N    9.7370400070133236E+00   -6.6238843377736403E-02    5.2369140710552182E+00
Ga    9.7466569015184241E+00    1.7875123596590585E+00    5.8635955746091435E+00
N    9.7385604828440009E+00    1.7919418803969547E+00    7.8444087980919246E+00
Ga    9.7408643392552499E+00   -7.4884305211159213E-02    8.4283532452618939E+00
N    9.7376704548658015E+00   -7.6964643046408737E-02    1.0426439725734708E+01
Ga    9.7382344761751050E+00    1.7923668240894632E+00    1.1022113124576235E+01
N    9.7360928935910174E+00    1.7929068761743843E+00    1.2996197990115773E+01
Ga    9.7359401869289712E+00   -7.6081456333073019E-02    1.3618008926643681E+01
N    9.7335793452004804E+00   -4.5156639363827814E-02    1.5581332789544938E+01
Ga    9.7353414556081077E+00    1.7938266678025392E+00    1.5860820948181694E+01
N    8.0273944011006684E+00    4.5182271177884141E+00    2.5368944252082262E+00
Ga    8.2449664992926053E+00    2.6579893905158398E+00    3.2981857977961355E+00
N    8.1325927804975198E+00    2.7211973438020540E+00    5.2584958158576418E+00
Ga    8.1564478190523211E+00    4.5932717865982813E+00    5.7997817785756300E+00
N    8.1414068766803194E+00    4.5855827214591658E+00    7.7974185860740812E+00
Ga    8.1235589919280713E+00    2.7265328424416611E+00    8.4330127125626611E+00
N    8.1192004576268690E+00    2.7280503618059546E+00    1.0429457451625906E+01
Ga    8.1435546999001005E+00    4.5865112877692509E+00    1.1067738657539772E+01
N    8.1594294951743365E+00    4.5970713398141578E+00    1.3063298061053086E+01
Ga    8.1168666377868544E+00    2.7281139765540541E+00    1.3618143164524376E+01
N    8.1432609878604207E+00    2.7123214929838992E+00    1.5582610182376508E+01
Ga    7.9714494748393685E+00    4.4892424368509261E+00    1.6476782807797800E+01
N    6.5195393156524988E+00    7.3675473975390098E+00    2.6091658359472483E+00
Ga    6.5189064304246171E+00    5.6311883738790689E+00    3.2945465933769338E+00
N    6.5235880891953322E+00    5.5097056058868770E+00    5.2552332613901704E+00
Ga    6.5162020515161982E+00    7.3695894748610948E+00    5.8667800264190895E+00
N    6.5224152876285544E+00    7.3651182688976844E+00    7.8439471040023863E+00
Ga    6.5231786240786684E+00    5.4977644849433682E+00    8.4345596311568674E+00
N    6.5220204018525960E+00    5.4950172745623167E+00    1.0429736071699217E+01
Ga    6.5212257751390972E+00    7.3643149841876943E+00    1.1023140819635870E+01
N    6.5197898932110245E+00    7.3641702917957872E+00    1.2996506005548284E+01
Ga    6.5190685846301077E+00    5.4946755549258395E+00    1.3618141707332986E+01
N    6.5170824500435067E+00    5.5256331979905831E+00    1.5581190333926175E+01
Ga    6.5188913730253546E+00    7.3640260380817830E+00    1.5861614803318925E+01
N    4.8178667678202904E+00    1.0094268542181686E+01    2.5076181259384498E+00
Ga    4.9923342156716846E+00    8.2507581980359159E+00    3.2510647159602186E+00
N    4.9138061102860568E+00    8.2927878440270657E+00    5.2344222360790660E+00
Ga    4.9418500844409605E+00    1.0165578574255209E+01    5.7799629836324700E+00
N    4.9250647562104204E+00    1.0154987941202029E+01    7.7870673435820832E+00
Ga    4.9050824746839687E+00    8.3010644787718810E+00    8.4299044789855593E+00
N    4.9027178262519442E+00    8.2985356157821126E+00    1.0427251740628204E+01
Ga    4.9277973761092637E+00    1.0157298698803167E+01    1.1065587825712795E+01
N    4.9433817086017005E+00    1.0167464171509289E+01    1.3061817777709827E+01
Ga    4.9007991692013029E+00    8.2992680268387442E+00    1.3618544145586013E+01
N    4.9270044896606642E+00    8.2832149406993327E+00    1.5582897496769796E+01
Ga    4.7560292104355941E+00    1.0059981783499227E+01    1.6476445586651749E+01
O    9.4096646116089394E-02    4.0808164632869754E+00   -4.2996933946076210E-01
H   -1.4790031286910107E-01    5.8668027709131634E+00   -3.3285077173505478E-01
C    1.2895425502758786E+00    3.7084673157054762E+00   -1.1440568444262709E+00
H    2.2021459395740348E+00    4.0747386143808049E+00   -6.4503205616420456E-01
H    1.3668764725980354E+00    2.6159979788203596E+00   -1.2527022914563970E+00
H    1.2336562576603525E+00    4.1542267109827771E+00   -2.1474667993220482E+00
Ga    3.2802657841471228E+00    5.5045459946336885E+00    2.8517000592424009E+00
O   -1.9554783791219837E-01    6.8509472250636607E+00   -1.8896828251749476E-01
H    4.4292779621164839E-02    7.2786856364366219E+00    1.6584319981228857E+00
C    8.8017971509697546E-01    7.4468023079974595E+00   -9.2629068838134110E-01
H    7.9417388434235714E-01    8.5357375243138236E+00   -8.1107818078716176E-01
H    1.8670996065693235E+00    7.1345184076025276E+00   -5.4403808115530694E-01
H    8.2428129388564131E-01    7.2062652415147612E+00   -1.9988576124246438E+00
     &END COORD
     &KIND C
       BASIS_SET DZVP-MOLOPT-SR-GTH-q4
       POTENTIAL GTH-PBE-q4
       &POTENTIAL
 2 2
  0.3384712400000000E+00 2 -0.8803673979999999E+01  0.1339210850000000E+01
 2
  0.3025757500000000E+00 1  0.9622486650000001E+01
  0.2915069400000000E+00 0
         # Potential name:  GTH-PBE-Q4  for symbol:  C
         # Potential read from the potential filename: GTH_POTENTIALS
       &END POTENTIAL
     &END KIND
     &KIND O
       BASIS_SET DZVP-MOLOPT-SR-GTH-q6
       POTENTIAL GTH-PBE-q6
       &POTENTIAL
 2 4
  0.2445543000000000E+00 2 -0.1666721480000000E+02  0.2487311320000000E+01
 2
  0.2209559200000000E+00 1  0.1833745811000000E+02
  0.2113324700000000E+00 0
         # Potential name:  GTH-PBE-Q6  for symbol:  O
         # Potential read from the potential filename: GTH_POTENTIALS
       &END POTENTIAL
     &END KIND
     &KIND H
       BASIS_SET DZVP-MOLOPT-SR-GTH-q1
       POTENTIAL GTH-PBE-q1
       &POTENTIAL
 1
  0.2000000000000000E+00 2 -0.4178900440000000E+01  0.7244633100000000E+00
 0
         # Potential name:  GTH-PBE-Q1  for symbol:  H
         # Potential read from the potential filename: GTH_POTENTIALS
       &END POTENTIAL
     &END KIND
     &KIND N
       BASIS_SET DZVP-MOLOPT-SR-GTH
       POTENTIAL GTH-PBE-q5
       &POTENTIAL
 2 3
  0.2837905100000000E+00 2 -0.1241522559000000E+02  0.1868095920000000E+01
 2
  0.2554050000000000E+00 1  0.1363026257000000E+02
  0.2454945300000000E+00 0
         # Potential name:  GTH-PBE-Q5  for symbol:  N
         # Potential read from the potential filename: GTH_POTENTIALS
       &END POTENTIAL
     &END KIND
     &KIND Ga
       BASIS_SET DZVP-MOLOPT-SR-GTH
       POTENTIAL GTH-PBE-q13
       &POTENTIAL
 2 1 10
  0.4900000000000000E+00 0
 3
  0.4167772300000000E+00 3  0.1047568975000000E+02 -0.4921768140000000E+01  0.8707055900000000E+00
  0.7770178090000000E+01 -0.2248152160000000E+01
  0.1784415450000000E+01
  0.5696265200000000E+00 2  0.1777985340000000E+01  0.1958597600000000E+00
 -0.2317443900000000E+00
  0.2381265000000000E+00 1 -0.1624868022000000E+02
         # Potential name:  GTH-PBE-Q13  for symbol:  GA
         # Potential read from the potential filename: GTH_POTENTIALS
       &END POTENTIAL
     &END KIND
     &TOPOLOGY
       NUMBER_OF_ATOMS  212
       MULTIPLE_UNIT_CELL  1 1 1
     &END TOPOLOGY
   &END SUBSYS
 &END FORCE_EVAL
