 # Version information for this restart file 
 # current date 2019-06-30 03:34:02.019
 # current working dir /scratch/rzk/rzk/GaN-carbene/443-adatoms-both-2x2/04-2Methanol/02-Combine12-Rotate60
 # Program compiled at                              Sun Apr  7 00:48:11 EDT 2019
 # Program compiled on                          beluga2.int.ets1.calculquebec.ca
 # Program compiled for                        Beluga-Linux-x86-64-intel-openmpi
 # Source code revision number                                         svn:18619
 &GLOBAL
   PRINT_LEVEL  MEDIUM
   PROJECT_NAME TEST
   RUN_TYPE  GEO_OPT
 &END GLOBAL
 &MOTION
   &GEO_OPT
     MAX_ITER  500
     STEP_START_VAL  168
   &END GEO_OPT
 &END MOTION
 &FORCE_EVAL
   METHOD  QS
   STRESS_TENSOR  ANALYTICAL
   &DFT
     BASIS_SET_FILE_NAME BASIS_MOLOPT
     POTENTIAL_FILE_NAME GTH_POTENTIALS
     UKS  T
     SURFACE_DIPOLE_CORRECTION  T
     SURF_DIP_DIR  Z
     &SCF
       MAX_SCF  80
       EPS_SCF     5.0000000000000004E-06
       &OT  T
         PRECONDITIONER  FULL_ALL
       &END OT
       &OUTER_SCF  T
         OPTIMIZER  NONE
         EPS_SCF     5.0000000000000004E-06
         MAX_SCF  4
       &END OUTER_SCF
       &PRINT
         &RESTART  OFF
           BACKUP_COPIES  1
           &EACH
             JUST_ENERGY  0
             QS_SCF  0
             MD  20
           &END EACH
         &END RESTART
       &END PRINT
     &END SCF
     &QS
       EPS_DEFAULT     1.0000000000000000E-14
       METHOD  GPW
     &END QS
     &MGRID
       NGRIDS  5
       CUTOFF     1.2000000000000000E+03
     &END MGRID
     &XC
       DENSITY_CUTOFF     1.0000000000000000E-10
       GRADIENT_CUTOFF     1.0000000000000000E-10
       TAU_CUTOFF     1.0000000000000000E-10
       &XC_FUNCTIONAL  NO_SHORTCUT
         &PBE  T
         &END PBE
       &END XC_FUNCTIONAL
       &VDW_POTENTIAL
         POTENTIAL_TYPE  PAIR_POTENTIAL
         &PAIR_POTENTIAL
           R_CUTOFF     1.0000000000000005E+01
           TYPE  DFTD3
           PARAMETER_FILE_NAME dftd3.dat
           REFERENCE_FUNCTIONAL PBE
           EPS_CN     9.9999999999999995E-07
           CALCULATE_C9_TERM  T
           REFERENCE_C9_TERM  T
           LONG_RANGE_CORRECTION  F
           VERBOSE_OUTPUT  F
         &END PAIR_POTENTIAL
       &END VDW_POTENTIAL
     &END XC
   &END DFT
   &SUBSYS
     &CELL
       A     1.2864472766435110E+01    0.0000000000000000E+00    0.0000000000000000E+00
       B    -6.4322363581020028E+00    1.1140960178524475E+01    0.0000000000000000E+00
       C     0.0000000000000000E+00    0.0000000000000000E+00    3.2000000000000000E+01
       MULTIPLE_UNIT_CELL  1 1 1
       &CELL_REF
         A     1.2982353780853531E+01    0.0000000000000000E+00    0.0000000000000000E+00
         B    -6.4911768904267628E+00    1.1243048175136114E+01    0.0000000000000000E+00
         C     0.0000000000000000E+00    0.0000000000000000E+00    3.2000000000000000E+01
         MULTIPLE_UNIT_CELL  1 1 1
       &END CELL_REF
     &END CELL
     &COORD
N    8.9317169680273589E-02    1.9466462064501679E+00    2.4796048167407285E+00
Ga    9.0846188517264073E-02   -1.9750270715023045E-02    2.8248255784633667E+00
N    9.1394061116747388E-02   -5.9536258366992112E-02    5.0029445048043062E+00
Ga    9.2339981496256635E-02    1.7684866910573054E+00    5.7957582659832561E+00
N    9.0587262073208691E-02    1.7816915804892137E+00    7.7921529211222120E+00
Ga    8.9855622295690468E-02   -6.2038911330514472E-02    8.4438727519831094E+00
N    8.9436231177233788E-02   -6.4186480633047535E-02    1.0413235343398808E+01
Ga    8.9428100643727595E-02    1.7748589718907599E+00    1.1072059056348037E+01
N    8.9057009201103182E-02    1.7556788360189202E+00    1.3061639485586706E+01
Ga    8.8957134363027587E-02   -6.5761394126676587E-02    1.3875511106126167E+01
N    8.8937284492986449E-02   -6.5126894367678170E-02    1.6064218562350444E+01
Ga    8.8994377873566663E-02    1.9764341280530628E+00    1.6474813114203055E+01
Ga    6.1532371901204447E-02    3.6574699552824717E+00    1.3600320373016817E+00
N   -1.3958374467157719E+00    4.5155201288984088E+00    2.5163143471716816E+00
Ga   -1.5897156611976848E+00    2.6757140904781909E+00    3.2741489586867658E+00
N   -1.5186808502030620E+00    2.7207011221490860E+00    5.2489432038777331E+00
Ga   -1.5479516314134256E+00    4.5855193776382475E+00    5.8089558046978809E+00
N   -1.5281189514096747E+00    4.5849282592795237E+00    7.7983106333959675E+00
Ga   -1.5078928628613122E+00    2.7247120730497163E+00    8.4382725515381143E+00
N   -1.5074210817449616E+00    2.7276435101104628E+00    1.0427033003807320E+01
Ga   -1.5347109510989403E+00    4.5857456410516022E+00    1.1074820516386382E+01
N   -1.5517800211478312E+00    4.5971086632775302E+00    1.3063440180120603E+01
Ga   -1.5092333679819292E+00    2.7269038727774872E+00    1.3620880539409745E+01
N   -1.5394102472268476E+00    2.7096081181029694E+00    1.5579638625376301E+01
Ga   -1.3601281414957742E+00    4.4863370652576213E+00    1.6475005900978545E+01
N    8.8962477849208424E-02    3.6494460452290256E+00    1.7592370464216309E+01
N   -3.1210632473573345E+00    7.4855165242391699E+00    2.5198711877261331E+00
Ga   -3.1000245539480193E+00    5.4849339403891975E+00    2.8503190387923807E+00
N   -3.1240104378395026E+00    5.5077273503928081E+00    5.0167127534693288E+00
Ga   -3.1325724020866672E+00    7.3277872773269177E+00    5.8078160817017910E+00
N   -3.1253136071041592E+00    7.3535278844243495E+00    7.7940052907365862E+00
Ga   -3.1265824397601132E+00    5.5062872513595789E+00    8.4503867238685331E+00
N   -3.1266092226835260E+00    5.5072272521123145E+00    1.0417083642083174E+01
Ga   -3.1285627879945386E+00    7.3459375523575083E+00    1.1074362404091385E+01
N   -3.1274478314666849E+00    7.3269789377619627E+00    1.3060220280946124E+01
Ga   -3.1297712359146437E+00    5.5080385600350779E+00    1.3876904586923196E+01
N   -3.1283733074879727E+00    5.5073738623950117E+00    1.6064486283786117E+01
Ga   -3.1282320478346826E+00    7.5575082741687067E+00    1.6488297974546729E+01
Ga   -3.1383712766821659E+00    9.2221432344457011E+00    1.4675848141397858E+00
N   -4.6280271295412962E+00    1.0089751483405799E+01    2.5086242983777352E+00
Ga   -4.8371047834524443E+00    8.2393413117176504E+00    3.2820856551370130E+00
N   -4.7322920140774922E+00    8.2930314240399579E+00    5.2429032177463526E+00
Ga   -4.7622378319381680E+00    1.0167433002798697E+01    5.7948723873420827E+00
N   -4.7441879213840110E+00    1.0155129419556758E+01    7.7878315737285515E+00
Ga   -4.7263001816134098E+00    8.3001309262016214E+00    8.4376521485931644E+00
N   -4.7238531744886227E+00    8.2986249135135459E+00    1.0424825553964217E+01
Ga   -4.7501812524112461E+00    1.0157756058697782E+01    1.1071312414464305E+01
N   -4.7671059513411187E+00    1.0167548340619948E+01    1.3058364300501720E+01
Ga   -4.7242000686601306E+00    8.2991772641025605E+00    1.3622141947797081E+01
N   -4.7509095407126267E+00    8.2831827385404928E+00    1.5577247859043911E+01
Ga   -4.5679552756471677E+00    1.0051170955680702E+01    1.6488081604641721E+01
N   -3.1230662783905379E+00    9.2230671744075501E+00    1.7636342834529700E+01
N    3.2979177359892029E+00    1.7988926582294209E+00    2.6077734993187676E+00
Ga    3.3000208621885250E+00    5.7064634758888698E-02    3.2790124584742650E+00
N    3.3088069680016980E+00   -6.6110519331802842E-02    5.2411959362137024E+00
Ga    3.2994924227761406E+00    1.7953911073448268E+00    5.8700398763535988E+00
N    3.3064397235882961E+00    1.7923730394395048E+00    7.8420838842306191E+00
Ga    3.3039557457547692E+00   -7.3100698650068061E-02    8.4380841890952585E+00
N    3.3056300792256503E+00   -7.7012235148872676E-02    1.0424945600476230E+01
Ga    3.3059357642893339E+00    1.7929959225137655E+00    1.1026337234477657E+01
N    3.3054946496923683E+00    1.7928595448854037E+00    1.2991604458793484E+01
Ga    3.3043965138275633E+00   -7.6077825568063348E-02    1.3622584582054614E+01
N    3.3028233694852900E+00   -4.6449279444759448E-02    1.5578675224240767E+01
Ga    3.3088215871055144E+00    1.7912223581118230E+00    1.5861037090567903E+01
N    1.5816398364971804E+00    4.5199319117305512E+00    2.5153219318599129E+00
Ga    1.7697667609831655E+00    2.6837346647539735E+00    3.2613373723176564E+00
N    1.7002035096852537E+00    2.7210907480154605E+00    5.2423343306368375E+00
Ga    1.7298746776055287E+00    4.5841425500251995E+00    5.8075459447392381E+00
N    1.7084978168625093E+00    4.5844927159260287E+00    7.7975104506496438E+00
Ga    1.6883120278294730E+00    2.7250534159460931E+00    8.4389332068267535E+00
N    1.6866381335997800E+00    2.7277569313621628E+00    1.0427455697658290E+01
Ga    1.7140854362210469E+00    4.5860955839719271E+00    1.1074644504368177E+01
N    1.7300828393558847E+00    4.5972292567497517E+00    1.3063298137918485E+01
Ga    1.6872194299867098E+00    2.7270304875304547E+00    1.3620894015001340E+01
N    1.7172639964882901E+00    2.7097288102599277E+00    1.5579574321996539E+01
Ga    1.5382265021873505E+00    4.4863818575689107E+00    1.6475134915825457E+01
N    8.5184716317445938E-02    7.3450795200399188E+00    2.6939006653014412E+00
Ga    9.6056374503528663E-02    5.5025609600315999E+00    3.3374894708758687E+00
N    9.0862836238446945E-02    5.5198122605631719E+00    5.2704239960620889E+00
Ga    9.2045462119385926E-02    7.3587560394303386E+00    5.9105708729094459E+00
N    9.0554737275749878E-02    7.3650594970246637E+00    7.8625640699242050E+00
Ga    9.0450031301077163E-02    5.4905846226810118E+00    8.4483435497278290E+00
N    8.9649569114673158E-02    5.4934267311389009E+00    1.0432432118788125E+01
Ga    8.9527730184860765E-02    7.3637315839771906E+00    1.1030331616811171E+01
N    8.9145336579808790E-02    7.3639076638320802E+00    1.2994191935719948E+01
Ga    8.9096860754828450E-02    5.4947944156812323E+00    1.3621988383484032E+01
N    8.9045474991182899E-02    5.5303028912671381E+00    1.5580498983041302E+01
Ga    8.8907680462690389E-02    7.3679205997958315E+00    1.5861584607139445E+01
N   -1.6180946016662452E+00    1.0077679696959100E+01    2.5152172721115442E+00
Ga   -1.4877463310242744E+00    8.2668316043336976E+00    3.3310559829154864E+00
N   -1.5058641486130002E+00    8.2853428702730270E+00    5.2570227736859936E+00
Ga   -1.4934467803153619E+00    1.0170488571258650E+01    5.8084918434799917E+00
N   -1.5082558828744677E+00    1.0153235202191739E+01    7.7937682578640874E+00
Ga   -1.5309250962554959E+00    8.2997042760631725E+00    8.4494763227828198E+00
N   -1.5306216255322491E+00    8.2989041277025244E+00    1.0431154558729043E+01
Ga   -1.5040957048094847E+00    1.0158979984561553E+01    1.1074159190900977E+01
N   -1.4870442822389511E+00    1.0167795365317758E+01    1.3060802053928551E+01
Ga   -1.5304795019299111E+00    8.2984395479531798E+00    1.3623210435088371E+01
N   -1.5053614880738806E+00    8.2817172213258061E+00    1.5579025928011649E+01
Ga   -1.6836888989816825E+00    1.0053985110062701E+01    1.6488683705712972E+01
N    6.5230962994002999E+00    1.9171810236392361E+00    2.5285708009555554E+00
Ga    6.5244181047553553E+00   -5.5968199412296256E-02    2.8667768450438267E+00
N    6.5223151126757575E+00   -6.5019752562135283E-02    5.0155176775484422E+00
Ga    6.5223611692329353E+00    1.7683753634835502E+00    5.8024570810699654E+00
N    6.5221418581089674E+00    1.7809651385501790E+00    7.7928006177719435E+00
Ga    6.5226723381206506E+00   -6.2813642869102487E-02    8.4482985791328549E+00
N    6.5220618630596716E+00   -6.4427703276483880E-02    1.0415030173337213E+01
Ga    6.5217827063302272E+00    1.7762877775910733E+00    1.1071345685992359E+01
N    6.5213039126483379E+00    1.7563788239672968E+00    1.3059071505530095E+01
Ga    6.5212179092167535E+00   -6.2775600340550200E-02    1.3876888993966116E+01
N    6.5212815403024305E+00   -6.3642577457854399E-02    1.6063771120156723E+01
Ga    6.5212944491443219E+00    1.9832677789993625E+00    1.6488122530329186E+01
Ga    6.5262292644476494E+00    3.6497523325012451E+00    1.5099020318894270E+00
N    5.0213180238511601E+00    4.5177818098076825E+00    2.5234224603586801E+00
Ga    4.8060249454019885E+00    2.6651296087517271E+00    3.2904410715337726E+00
N    4.9131698200166358E+00    2.7210302849271026E+00    5.2496479315754963E+00
Ga    4.8910462810508673E+00    4.5927235979622196E+00    5.8024102377397941E+00
N    4.9047344585205241E+00    4.5848392376458573E+00    7.7933458406155083E+00
Ga    4.9226865867347609E+00    2.7266011602595581E+00    8.4378972749392851E+00
N    4.9249518618458179E+00    2.7279573805060315E+00    1.0425164216815402E+01
Ga    4.8992241921132225E+00    4.5868322044483207E+00    1.1071407660952072E+01
N    4.8813117314858800E+00    4.5968956578769360E+00    1.3058502228836744E+01
Ga    4.9240097377128995E+00    2.7282926208190754E+00    1.3621746754484008E+01
N    4.8973390579981340E+00    2.7147452603836242E+00    1.5577975435723703E+01
Ga    5.0817102708526134E+00    4.4819978003488039E+00    1.6487768391949103E+01
N    6.5213693840521287E+00    3.6447371903831614E+00    1.7635665727907057E+01
N    3.3012938733324639E+00    7.4849674130949237E+00    2.5051117640124407E+00
N    3.3076352018846467E+00    5.5082224159408097E+00    5.0199706806309772E+00
Ga    3.3113431749453048E+00    7.3298885953100790E+00    5.8041803142665866E+00
N    3.3044350847255206E+00    7.3544017376129602E+00    7.7913619231432669E+00
Ga    3.3066609950211343E+00    5.5068849462784097E+00    8.4485662353952797E+00
N    3.3058424003738787E+00    5.5075295317759867E+00    1.0415906163512524E+01
Ga    3.3075593302419901E+00    7.3458955248773021E+00    1.1074204304330424E+01
N    3.3055620960032264E+00    7.3269043517808958E+00    1.3060156177233432E+01
Ga    3.3078161314040226E+00    5.5080184376931181E+00    1.3876997082141715E+01
N    3.3064121438840091E+00    5.5074257874050643E+00    1.6064687032973104E+01
Ga    3.3062461364118136E+00    7.5575076993290757E+00    1.6488431141299557E+01
Ga    3.3330415084189742E+00    9.2371957497798984E+00    1.4476608864390248E+00
N    1.8000379478212558E+00    1.0080251355703906E+01    2.5083332272047767E+00
Ga    1.6687661488783061E+00    8.2675123732477225E+00    3.3101366591274028E+00
N    1.6850547628926751E+00    8.2836112046441563E+00    5.2423991061477153E+00
Ga    1.6737043664633628E+00    1.0166749519776710E+01    5.8042388587874330E+00
N    1.6878124229595237E+00    1.0151859686861910E+01    7.7908213502317993E+00
Ga    1.7110917161279828E+00    8.2997407108036327E+00    8.4498917862033132E+00
N    1.7097807310590711E+00    8.2989777086468077E+00    1.0431295376890150E+01
Ga    1.6834426320538161E+00    1.0158956782588421E+01    1.1074322682900700E+01
N    1.6652905019514344E+00    1.0167767010601789E+01    1.3060980994255882E+01
Ga    1.7086292528500502E+00    8.2984160051238565E+00    1.3623319829021252E+01
N    1.6832996151559421E+00    8.2816570940028100E+00    1.5579277754364336E+01
Ga    1.8618042273145374E+00    1.0053965687083981E+01    1.6488608968890826E+01
N    3.3011080353116098E+00    9.2231316985368288E+00    1.7636500620552958E+01
N    9.7477009199813249E+00    1.7975543151481599E+00    2.6154385500749227E+00
Ga    9.7443700157041153E+00    5.3701187855753556E-02    3.2796128546896361E+00
N    9.7362413144547961E+00   -6.7440274061048244E-02    5.2418877564472570E+00
Ga    9.7447603109132750E+00    1.7934013091737133E+00    5.8719185408044670E+00
N    9.7379345663547046E+00    1.7918282157903236E+00    7.8431106003118094E+00
Ga    9.7402070295651981E+00   -7.4412036628644068E-02    8.4361429974779369E+00
N    9.7377892337354552E+00   -7.7403302146950598E-02    1.0423699259510922E+01
Ga    9.7375683109972471E+00    1.7926712004224428E+00    1.1025454055967945E+01
N    9.7372410129013343E+00    1.7927106943952567E+00    1.2991014534636530E+01
Ga    9.7382109031697190E+00   -7.6028470224506484E-02    1.3622579952894350E+01
N    9.7396697932684706E+00   -4.6461501595899964E-02    1.5578728488865023E+01
Ga    9.7334932809631169E+00    1.7912129227910278E+00    1.5861228082870911E+01
N    8.0260973495296035E+00    4.5176921774682963E+00    2.5271635199312437E+00
Ga    8.2395299650462626E+00    2.6642248677170852E+00    3.2935853825269872E+00
N    8.1321789881943367E+00    2.7208235802669156E+00    5.2520135242703425E+00
Ga    8.1561251159773605E+00    4.5930921883515614E+00    5.8014743218403355E+00
N    8.1405114616802212E+00    4.5851340894475419E+00    7.7929630006667585E+00
Ga    8.1215392344101520E+00    2.7267510496560177E+00    8.4375741776208688E+00
N    8.1185244554988376E+00    2.7280801913260722E+00    1.0424968801150335E+01
Ga    8.1442302059779959E+00    4.5867055238642447E+00    1.1071802681238440E+01
N    8.1612322507750097E+00    4.5968481436410302E+00    1.3058710481495163E+01
Ga    8.1186951108276268E+00    2.7281237760920987E+00    1.3621562271355959E+01
N    8.1450732355075548E+00    2.7147286367060355E+00    1.5577728854407525E+01
Ga    7.9610037291813116E+00    4.4820757967099336E+00    1.6487683207112056E+01
N    6.5223516134528197E+00    7.3641629554817998E+00    2.6006166022106836E+00
Ga    6.5227864241781752E+00    5.6247060113535676E+00    3.2898409162406987E+00
N    6.5233038621381008E+00    5.5096716179352931E+00    5.2485392290049342E+00
Ga    6.5213931285515674E+00    7.3660264646227516E+00    5.8723188550072107E+00
N    6.5218597453223781E+00    7.3648506834123078E+00    7.8409944358289954E+00
Ga    6.5224233789695782E+00    5.4965055403525698E+00    8.4383128764380579E+00
N    6.5218994953303788E+00    5.4949421593688141E+00    1.0425629255694970E+01
Ga    6.5215309895255000E+00    7.3641483994083483E+00    1.1026555149785048E+01
N    6.5212349059426442E+00    7.3639149155057133E+00    1.2992960609416434E+01
Ga    6.5212136737764990E+00    5.4936118700963394E+00    1.3621425905928618E+01
N    6.5211891290590396E+00    5.5247270244294082E+00    1.5576746581554806E+01
Ga    6.5211153646393587E+00    7.3635515816614525E+00    1.5854297585495358E+01
N    4.8130372319021495E+00    1.0091764970806233E+01    2.5123442130891545E+00
Ga    5.0133417669068807E+00    8.2380624019195725E+00    3.2762730133002282E+00
N    4.9121365965706358E+00    8.2925893874397456E+00    5.2389672840701840E+00
Ga    4.9437330817004685E+00    1.0166541679761648E+01    5.7923025943626323E+00
N    4.9248110063138233E+00    1.0154888363900142E+01    7.7861815865210993E+00
Ga    4.9053828659152519E+00    8.3001952115597550E+00    8.4365784818679970E+00
N    4.9026447924561669E+00    8.2986008440230794E+00    1.0424125309399798E+01
Ga    4.9288754728730426E+00    1.0157712190789782E+01    1.1070872883602766E+01
N    4.9451627832429663E+00    1.0167536812686320E+01    1.3058092679371571E+01
Ga    4.9021575011586975E+00    8.2992172308914540E+00    1.3622078477737627E+01
N    4.9286857389030887E+00    8.2832841897436840E+00    1.5577179131787048E+01
Ga    4.7461390466793807E+00    1.0051279896663011E+01    1.6488240296564651E+01
O    9.3019094241739791E-02    4.0852574215120763E+00   -4.3402173067131511E-01
H   -1.4497163960250692E-01    5.8621862439370025E+00   -3.3864813704418556E-01
C    1.2893821482528269E+00    3.7145683555190705E+00   -1.1469108043400766E+00
H    2.2015219129301213E+00    4.0793644074694795E+00   -6.4572244983034011E-01
H    1.3676037988203533E+00    2.6219982626804130E+00   -1.2571040970600109E+00
H    1.2350388645413479E+00    4.1618183001941640E+00   -2.1497691333238507E+00
Ga    3.2809836406670274E+00    5.4846194878189838E+00    2.8602153860958754E+00
O   -1.9382931839756720E-01    6.8475827208248239E+00   -1.9577908353824647E-01
H    3.9526471140626004E-02    7.2788438704704710E+00    1.6563259513962294E+00
C    8.8482019579556392E-01    7.4448930117270207E+00   -9.2438317074916387E-01
H    8.0378151834990019E-01    8.5334652087312008E+00   -7.9796214856437775E-01
H    1.8698414032219839E+00    7.1198737284641105E+00   -5.4537022285514447E-01
H    8.2970206293210547E-01    7.2173377295261254E+00   -2.0001938458298762E+00
     &END COORD
     &KIND C
       BASIS_SET DZVP-MOLOPT-SR-GTH-q4
       POTENTIAL GTH-PBE-q4
       &POTENTIAL
2 2
0.3384712400000000E+00 2 -0.8803673979999999E+01  0.1339210850000000E+01
2
0.3025757500000000E+00 1  0.9622486650000001E+01
0.2915069400000000E+00 0
       &END POTENTIAL
     &END KIND
     &KIND O
       BASIS_SET DZVP-MOLOPT-SR-GTH-q6
       POTENTIAL GTH-PBE-q6
       &POTENTIAL
2 4
0.2445543000000000E+00 2 -0.1666721480000000E+02  0.2487311320000000E+01
2
0.2209559200000000E+00 1  0.1833745811000000E+02
0.2113324700000000E+00 0
       &END POTENTIAL
     &END KIND
     &KIND H
       BASIS_SET DZVP-MOLOPT-SR-GTH-q1
       POTENTIAL GTH-PBE-q1
       &POTENTIAL
1
0.2000000000000000E+00 2 -0.4178900440000000E+01  0.7244633100000000E+00
0
       &END POTENTIAL
     &END KIND
     &KIND N
       BASIS_SET DZVP-MOLOPT-SR-GTH
       POTENTIAL GTH-PBE-q5
       &POTENTIAL
2 3
0.2837905100000000E+00 2 -0.1241522559000000E+02  0.1868095920000000E+01
2
0.2554050000000000E+00 1  0.1363026257000000E+02
0.2454945300000000E+00 0
       &END POTENTIAL
     &END KIND
     &KIND Ga
       BASIS_SET DZVP-MOLOPT-SR-GTH
       POTENTIAL GTH-PBE-q13
       &POTENTIAL
2 1 10
0.4900000000000000E+00 0
3
0.4167772300000000E+00 3  0.1047568975000000E+02 -0.4921768140000000E+01  0.8707055900000000E+00
0.7770178090000000E+01 -0.2248152160000000E+01
0.1784415450000000E+01
0.5696265200000000E+00 2  0.1777985340000000E+01  0.1958597600000000E+00
-0.2317443900000000E+00
0.2381265000000000E+00 1 -0.1624868022000000E+02
       &END POTENTIAL
     &END KIND
     &TOPOLOGY
       NUMBER_OF_ATOMS  212
       MULTIPLE_UNIT_CELL  1 1 1
     &END TOPOLOGY
   &END SUBSYS
 &END FORCE_EVAL
