 # Version information for this restart file 
 # current date 2019-05-26 14:39:33.627
 # current working dir /lustre03/project/6004141/rzk/GaN-carbene/01-Methanol/443-capped/03-both-ads
 # Program compiled at                              Sun Apr  7 00:48:11 EDT 2019
 # Program compiled on                          beluga2.int.ets1.calculquebec.ca
 # Program compiled for                        Beluga-Linux-x86-64-intel-openmpi
 # Source code revision number                                         svn:18619
 &GLOBAL
   PRINT_LEVEL  MEDIUM
   PROJECT_NAME TEST
   RUN_TYPE  GEO_OPT
 &END GLOBAL
 &MOTION
   &GEO_OPT
     MAX_ITER  500
     STEP_START_VAL  64
   &END GEO_OPT
 &END MOTION
 &FORCE_EVAL
   METHOD  QS
   STRESS_TENSOR  ANALYTICAL
   &DFT
     BASIS_SET_FILE_NAME BASIS_MOLOPT
     POTENTIAL_FILE_NAME GTH_POTENTIALS
     SURFACE_DIPOLE_CORRECTION  T
     SURF_DIP_DIR  Z
     &SCF
       MAX_SCF  100
       EPS_SCF     5.0000000000000004E-06
       &OT  T
         PRECONDITIONER  FULL_ALL
       &END OT
       &OUTER_SCF  T
         OPTIMIZER  NONE
         EPS_SCF     5.0000000000000004E-06
         MAX_SCF  4
       &END OUTER_SCF
       &PRINT
         &RESTART  OFF
           BACKUP_COPIES  1
           &EACH
             JUST_ENERGY  0
             QS_SCF  0
             MD  20
           &END EACH
         &END RESTART
       &END PRINT
     &END SCF
     &QS
       EPS_DEFAULT     1.0000000000000000E-14
       METHOD  GPW
     &END QS
     &MGRID
       NGRIDS  5
       CUTOFF     1.2000000000000000E+03
     &END MGRID
     &XC
       DENSITY_CUTOFF     1.0000000000000000E-10
       GRADIENT_CUTOFF     1.0000000000000000E-10
       TAU_CUTOFF     1.0000000000000000E-10
       &XC_FUNCTIONAL  NO_SHORTCUT
         &PBE  T
         &END PBE
       &END XC_FUNCTIONAL
       &VDW_POTENTIAL
         POTENTIAL_TYPE  PAIR_POTENTIAL
         &PAIR_POTENTIAL
           R_CUTOFF     1.0000000000000005E+01
           TYPE  DFTD3
           PARAMETER_FILE_NAME dftd3.dat
           REFERENCE_FUNCTIONAL PBE
           EPS_CN     9.9999999999999995E-07
           CALCULATE_C9_TERM  T
           REFERENCE_C9_TERM  T
           LONG_RANGE_CORRECTION  F
           VERBOSE_OUTPUT  F
         &END PAIR_POTENTIAL
       &END VDW_POTENTIAL
     &END XC
   &END DFT
   &SUBSYS
     &CELL
       A     1.2845720507224698E+01    0.0000000000000000E+00    0.0000000000000000E+00
       B    -6.4473440219514533E+00    1.1167127419895399E+01    0.0000000000000000E+00
       C     0.0000000000000000E+00    0.0000000000000000E+00    2.9000000000000000E+01
       MULTIPLE_UNIT_CELL  1 1 1
       &CELL_REF
         A     1.2982353780853531E+01    0.0000000000000000E+00    0.0000000000000000E+00
         B    -6.4911768904267628E+00    1.1243048175136114E+01    0.0000000000000000E+00
         C     0.0000000000000000E+00    0.0000000000000000E+00    2.9000000000000000E+01
         MULTIPLE_UNIT_CELL  1 1 1
       &END CELL_REF
     &END CELL
     &COORD
Ga    1.0123338695940164E-01    2.6034474452519111E-02   -2.1764778006031973E-01
N    9.7656604108996847E-02    1.8844110274164041E+00    5.6531010825220940E-01
Ga    1.0010012824668665E-01    1.8803011336992630E+00    2.5002858659531428E+00
N    1.0603482642282709E-01    2.2235995669438912E-02    3.1894896049257495E+00
Ga    1.1151709405399689E-01    1.4394711429940834E-02    5.1515614764196265E+00
N    1.0803023758828781E-01    1.8721107479630452E+00    5.8065144672768039E+00
Ga    1.1795864608454379E-01    1.8692503009516148E+00    7.7770982803266611E+00
N    1.2081355187002407E-01    1.0068331248167988E-02    8.4290265074114519E+00
Ga    1.3418828257694024E-01    5.5940254605327602E-03    1.0420949185906894E+01
N    1.2014013662294612E-01    1.8650127745610614E+00    1.0999663644262219E+01
Ga    1.9504587588145153E-01    1.8230499486737790E+00    1.3007274746479618E+01
N    1.8107910517703063E-01   -3.5799187143690184E-03    1.3475285085206105E+01
Ga   -1.5105285642373059E+00    2.8186779099053214E+00   -2.1648009433801521E-01
N   -1.5140123782717554E+00    4.6766990597046814E+00    5.6857653496214811E-01
Ga   -1.5112315753455388E+00    4.6735939944418803E+00    2.5041670531082660E+00
N   -1.5040220086576761E+00    2.8137583203878749E+00    3.1875243197272236E+00
Ga   -1.4998650791775567E+00    2.8067054412609074E+00    5.1491744999954401E+00
N   -1.5078893956077504E+00    4.6668147025846167E+00    5.7996666020095695E+00
Ga   -1.4973212358717851E+00    4.6637836004385615E+00    7.7656746481380461E+00
N   -1.4884309405207152E+00    2.8106761785164083E+00    8.4082782370608182E+00
Ga   -1.4683391923296418E+00    2.8073653923628701E+00    1.0378391278529104E+01
N   -1.4636721268845936E+00    4.6422638194024799E+00    1.1050459135685690E+01
Ga   -1.4791277182239713E+00    4.6568657547709078E+00    1.3043510173211773E+01
N   -1.4314626352166158E+00    2.7689434527303476E+00    1.3590362018262772E+01
Ga   -3.1225385719867305E+00    5.6103119623361382E+00   -2.1353122009068690E-01
N   -3.1266436381363341E+00    7.4692096042314198E+00    5.6982690949631465E-01
Ga   -3.1248973029041052E+00    7.4660499312640614E+00    2.5052129901043596E+00
N   -3.1183919397559290E+00    5.6069132314305694E+00    3.1890707806298524E+00
Ga   -3.1133459461922119E+00    5.6009627451721746E+00    5.1498990537201204E+00
N   -3.1173744210158616E+00    7.4563458861459537E+00    5.8139229239674028E+00
Ga   -3.1047754080863785E+00    7.4520193729551911E+00    7.7854851776708900E+00
N   -3.0965730961970523E+00    5.5968953544528128E+00    8.4395701281823090E+00
Ga   -3.0690671230165831E+00    5.5774557702477043E+00    1.0430306684025110E+01
N   -3.0915586087987394E+00    7.4272907619403190E+00    1.1052348475750325E+01
Ga   -3.0584894546270935E+00    7.3858757880538537E+00    1.3169945276406111E+01
N   -3.0391708870765113E+00    5.5535025283123964E+00    1.3639032003085418E+01
Ga   -4.7347533819070291E+00    8.4015601102065265E+00   -2.1478777359584791E-01
N   -4.7385541122657058E+00    1.0260221003070152E+01    5.6837177038988351E-01
Ga   -4.7363682701736103E+00    1.0255863704479106E+01    2.5037182988628115E+00
N   -4.7299336085560322E+00    8.3981512651406760E+00    3.1948797571922158E+00
Ga   -4.7242817241573869E+00    8.3904653776205667E+00    5.1582858749328437E+00
N   -4.7302481336865689E+00    1.0249028694332637E+01    5.8125572419123088E+00
Ga   -4.7197780872553015E+00    1.0244510332932196E+01    7.7851202289140353E+00
N   -4.7058660777037709E+00    8.3866244114833091E+00    8.4312759229924410E+00
Ga   -4.6830726283126092E+00    8.3721128842991135E+00    1.0424322975949536E+01
N   -4.7045706470584410E+00    1.0232243145656684E+01    1.0997440246623489E+01
Ga   -4.6654892038499165E+00    1.0226733597111757E+01    1.3071153202785394E+01
N   -4.6572781079348262E+00    8.3699999725402314E+00    1.3447077079921659E+01
Ga    3.3129275164388523E+00    2.6288050508477268E-02   -2.1545506420927443E-01
N    3.3093896395233293E+00    1.8842140975061219E+00    5.6823810006782860E-01
Ga    3.3118998450304371E+00    1.8798314538928889E+00    2.5034543731432364E+00
N    3.3163865087956528E+00    2.0911270761898505E-02    3.1906699714419777E+00
Ga    3.3238522731447238E+00    1.3629044616612657E-02    5.1531532829030775E+00
N    3.3202321574231286E+00    1.8730650988014088E+00    5.8037776842601003E+00
Ga    3.3302518528816210E+00    1.8702187091883662E+00    7.7732504566830336E+00
N    3.3359519775497652E+00    1.3684968763419774E-02    8.4200509668670698E+00
Ga    3.3501899031779132E+00   -3.0507525132133007E-03    1.0406080344235159E+01
N    3.3393752119912010E+00    1.8566327581479549E+00    1.1008991472854174E+01
Ga    3.3793790442396525E+00    1.8407021801433177E+00    1.3081419307260415E+01
N    3.3927927045683792E+00   -1.2970285699704780E-02    1.3471733761559124E+01
Ga    1.7018371438217010E+00    2.8185899392480462E+00   -2.1612700372509497E-01
N    1.6975510044600020E+00    4.6760865064459773E+00    5.6953150457403712E-01
Ga    1.7003561659124153E+00    4.6725253039682455E+00    2.5052059739625543E+00
N    1.7057614474912892E+00    2.8118771849081603E+00    3.1857153499701321E+00
Ga    1.7133406420037414E+00    2.8043548690258353E+00    5.1465633420884167E+00
N    1.7086127787033729E+00    4.6629302361886760E+00    5.8003675853584706E+00
Ga    1.7189573847671906E+00    4.6588490368256545E+00    7.7674535575026260E+00
N    1.7264903888458014E+00    2.8016400024769772E+00    8.4192606468947435E+00
Ga    1.7262338155678985E+00    2.7992254812240427E+00    1.0404287914981724E+01
N    1.7230051828103197E+00    4.6544961907709084E+00    1.1019182480833557E+01
Ga    1.7915018843412809E+00    4.6321812312533925E+00    1.3048153522972020E+01
N    1.7682853821931626E+00    2.7836994348207198E+00    1.3446659176599614E+01
Ga    8.9780692895573180E-02    5.6103173370296808E+00   -2.1345748744498574E-01
N    8.4996583746578383E-02    7.4689874626806141E+00    5.7025690045788491E-01
Ga    8.7768508719492613E-02    7.4652830746801442E+00    2.5059068395081661E+00
N    9.4698458146923473E-02    5.6067358193682519E+00    3.1889239447147988E+00
Ga    9.9851940377645484E-02    5.6008556240126026E+00    5.1507657153037485E+00
N    9.4150654030364989E-02    7.4586953892536094E+00    5.8109143848501583E+00
Ga    1.0638590655391925E-01    7.4548622555551400E+00    7.7831417110814929E+00
N    1.0953484823287124E-01    5.5883802600925501E+00    8.4091813805269524E+00
Ga    1.2040432547828460E-01    5.5695108709254670E+00    1.0377510231225521E+01
N    1.2618962964529906E-01    7.4090167663587225E+00    1.1018243859755620E+01
Ga    1.5741813337886146E-01    7.4435032665524954E+00    1.3040859584701440E+01
N    1.6110055134803122E-01    5.5707424049343697E+00    1.3619848773374960E+01
Ga   -1.5227871594900659E+00    8.4020637946264607E+00   -2.1381924220927237E-01
N   -1.5268957232708571E+00    1.0260350477967158E+01    5.7020893001111672E-01
Ga   -1.5247167509647772E+00    1.0256196834369547E+01    2.5058746994587580E+00
N   -1.5188656936910250E+00    8.3972437605847094E+00    3.1918134359484163E+00
Ga   -1.5128331576007947E+00    8.3903811619552666E+00    5.1543440649211476E+00
N   -1.5176311756091405E+00    1.0247166827775331E+01    5.8106732118145779E+00
Ga   -1.5059898185452847E+00    1.0240702159894981E+01    7.7830954961879533E+00
N   -1.5030643340935892E+00    8.3847325426931913E+00    8.4383881585850791E+00
Ga   -1.4834119016080813E+00    8.3583950912336533E+00    1.0431481843099059E+01
N   -1.4908968665933862E+00    1.0226816075805324E+01    1.0994728964730344E+01
Ga   -1.4594758337050504E+00    1.0208251622234650E+01    1.3057155664917094E+01
N   -1.4463829963790140E+00    8.3559203847579884E+00    1.3443754481186325E+01
Ga    6.5240701220698805E+00    2.6558379986086844E-02   -2.1338005226699927E-01
N    6.5212770541712519E+00    1.8843789904860300E+00    5.7089425847680675E-01
Ga    6.5240801821030630E+00    1.8804135595716760E+00    2.5059054010970194E+00
N    6.5285537494642636E+00    2.1577357235358044E-02    3.1927649942923368E+00
Ga    6.5360835533333326E+00    1.3840104422968737E-02    5.1555903689121649E+00
N    6.5322005406036663E+00    1.8735533354252918E+00    5.8084972345685975E+00
Ga    6.5422578817586210E+00    1.8667212913765452E+00    7.7802857671636332E+00
N    6.5471678200542414E+00    6.3502643435660337E-03    8.4213375868000711E+00
Ga    6.5680455756220217E+00   -7.5133920921593095E-03    1.0409072680085913E+01
N    6.5606992806992199E+00    1.8517135039295565E+00    1.0995281017998565E+01
Ga    6.5926363071042244E+00    1.8422199428572812E+00    1.3064622127775337E+01
N    6.6040154166283722E+00   -1.9971001238962813E-02    1.3418234381650253E+01
Ga    4.9132024996770687E+00    2.8184755670744033E+00   -2.1278213012194674E-01
N    4.9100048347243366E+00    4.6764863662816003E+00    5.7187276420671462E-01
Ga    4.9134587189280161E+00    4.6728098766763528E+00    2.5069077419112582E+00
N    4.9181033448259885E+00    2.8132237651322849E+00    3.1895473469877036E+00
Ga    4.9259406976358395E+00    2.8051170824437621E+00    5.1506857393206307E+00
N    4.9203635881359169E+00    4.6635562262469135E+00    5.8111900699210857E+00
Ga    4.9289854726383284E+00    4.6593700205175645E+00    7.7824665189446938E+00
N    4.9360425473320841E+00    2.7989294403874880E+00    8.4240616144382781E+00
Ga    4.9563942193179260E+00    2.7899040381755609E+00    1.0413136054344779E+01
N    4.9434588521159686E+00    4.6424445765472901E+00    1.1015456394374818E+01
Ga    4.9727647173861618E+00    4.6322124605710711E+00    1.3101218208113318E+01
N    4.9908213069080771E+00    2.7746289143326570E+00    1.3466714603753315E+01
Ga    3.3016112741031458E+00    5.6102217967492702E+00   -2.1093219821000966E-01
N    3.2966864432228764E+00    7.4690509891154271E+00    5.7209884827412572E-01
Ga    3.2997976442116412E+00    7.4651145951323361E+00    2.5074124920920040E+00
N    3.3076525497789797E+00    5.6054764473699041E+00    3.1905842997751575E+00
Ga    3.3140661891447603E+00    5.5985630254638403E+00    5.1516779220312241E+00
N    3.3081889164842968E+00    7.4565826824986985E+00    5.8143649450506931E+00
Ga    3.3183119592156469E+00    7.4524189303700572E+00    7.7862496680519095E+00
N    3.3204068784731633E+00    5.5908263086502341E+00    8.4240484805850055E+00
Ga    3.3345274885987020E+00    5.5721231980363966E+00    1.0411936700094465E+01
N    3.3462625021274639E+00    7.4278018705237372E+00    1.1015119379100037E+01
Ga    3.3860908190064958E+00    7.4105034004591230E+00    1.3091793118600686E+01
N    3.3716382991316318E+00    5.5668643965278317E+00    1.3501917491945438E+01
Ga    1.6889409999405511E+00    8.4021004421075229E+00   -2.1208641272500073E-01
N    1.6845955544606748E+00    1.0260563745648291E+01    5.7120923457562045E-01
Ga    1.6871686044298653E+00    1.0256277638829770E+01    2.5066653907318601E+00
N    1.6938145198072079E+00    8.3972193910682655E+00    3.1931824640701900E+00
Ga    1.7000127167847179E+00    8.3915542163363455E+00    5.1560020981121379E+00
N    1.6966070178550372E+00    1.0248705244135301E+01    5.8107262844745708E+00
Ga    1.7093649407294631E+00    1.0242743798166911E+01    7.7836137137483927E+00
N    1.7101761493103398E+00    8.3845101903943782E+00    8.4294590995529930E+00
Ga    1.7252535753057137E+00    8.3601215951996739E+00    1.0419461213835104E+01
N    1.7357651610501621E+00    1.0226755452303227E+01    1.0999371436297489E+01
Ga    1.7822481301730875E+00    1.0222253748576639E+01    1.3067298523237032E+01
N    1.7716021628019762E+00    8.3581198755343031E+00    1.3403076838506934E+01
Ga    9.7352809825908526E+00    2.6749967895532932E-02   -2.1345151175943347E-01
N    9.7319792338351867E+00    1.8856101776276377E+00    5.6866018803233209E-01
Ga    9.7348916763646667E+00    1.8817297151271397E+00    2.5036860724000265E+00
N    9.7409312045696304E+00    2.2680047724420130E-02    3.1901979383391237E+00
Ga    9.7461444839120261E+00    1.5302076279685087E-02    5.1520846597709280E+00
N    9.7420192496186573E+00    1.8737796610901014E+00    5.8064289338241135E+00
Ga    9.7524551309680074E+00    1.8677819090700702E+00    7.7772592502347617E+00
N    9.7602737328070042E+00    1.2337236600833409E-02    8.4268147470851051E+00
Ga    9.7872520275420563E+00    5.1276886584011869E-03    1.0413804593179236E+01
N    9.7937854332643806E+00    1.8596931811994186E+00    1.1012264836936238E+01
Ga    9.7857120904914368E+00    1.8115694608472312E+00    1.3028394458602515E+01
N    9.8174518266092630E+00   -8.3780730855416031E-03    1.3530268526831311E+01
Ga    8.1234857437651087E+00    2.8183391645284250E+00   -2.1470684008779825E-01
N    8.1197196127160751E+00    4.6765748527260609E+00    5.6958860389891841E-01
Ga    8.1224291491337084E+00    4.6733659333743747E+00    2.5042997079066156E+00
N    8.1297322130153269E+00    2.8155311262662783E+00    3.1914986324139858E+00
Ga    8.1359075450940317E+00    2.8076881338094317E+00    5.1536307529888816E+00
N    8.1317798984231899E+00    4.6660453597324700E+00    5.8169045455826307E+00
Ga    8.1428809885275566E+00    4.6615747722757588E+00    7.7908835133226590E+00
N    8.1462177065166284E+00    2.8006805728331665E+00    8.4269908085857406E+00
Ga    8.1783138021913935E+00    2.7876615590344787E+00    1.0418702574583142E+01
N    8.1668508472424453E+00    4.6462660349197673E+00    1.1014650561544739E+01
Ga    8.2222049320806914E+00    4.6426725902958683E+00    1.3103261060371818E+01
N    8.2057229092437822E+00    2.7764694160526862E+00    1.3433037114525140E+01
Ga    6.5118545143833080E+00    5.6101834444188130E+00   -2.1344560676476354E-01
N    6.5084583032495136E+00    7.4683765677715215E+00    5.7206647000211031E-01
Ga    6.5113193807909537E+00    7.4646073276608895E+00    2.5073927673901579E+00
N    6.5188338906340535E+00    5.6061356439716503E+00    3.1962076808349318E+00
Ga    6.5252305644564039E+00    5.5992529536588114E+00    5.1593884854527623E+00
N    6.5173946148552160E+00    7.4570268038962197E+00    5.8206722982560430E+00
Ga    6.5286861827126597E+00    7.4530050250404418E+00    7.7948667315520668E+00
N    6.5338156045212221E+00    5.5912362522264969E+00    8.4335452800611854E+00
Ga    6.5564208119708418E+00    5.5769906412875185E+00    1.0426755140154690E+01
N    6.5543495264594780E+00    7.4398634728771293E+00    1.1003158030242741E+01
Ga    6.5838338979981659E+00    7.4268996491228272E+00    1.3070215093222641E+01
N    6.5931304266209860E+00    5.5705077499950129E+00    1.3429637221339304E+01
Ga    4.9001108353952043E+00    8.4016484482924767E+00   -2.1213435816648488E-01
N    4.8965865532747506E+00    1.0260688431586519E+01    5.6941484739988091E-01
Ga    4.8988733420958717E+00    1.0256277032007013E+01    2.5044990070216802E+00
N    4.9059255646440736E+00    8.3977295151850821E+00    3.1937170128167063E+00
Ga    4.9116496062285568E+00    8.3899480284047776E+00    5.1560455460521704E+00
N    4.9061073022203106E+00    1.0248170525457601E+01    5.8097557893586531E+00
Ga    4.9149543032453415E+00    1.0244522910191508E+01    7.7798095309581825E+00
N    4.9234837619689120E+00    8.3906972327573968E+00    8.4365709779079889E+00
Ga    4.9455223174271756E+00    8.3803612856623566E+00    1.0429960018135242E+01
N    4.9303362551848737E+00    1.0228076528139681E+01    1.1047892920529556E+01
Ga    4.9700878025081057E+00    1.0209498896542886E+01    1.3160716054641210E+01
N    4.9828205119312150E+00    8.3529100433966565E+00    1.3494398806813068E+01
H    4.9036699868800051E+00    8.4070032911262249E+00   -1.7636928177903841E+00
H    1.6935124963698045E+00    8.4091642106556979E+00   -1.7635889664178415E+00
H   -1.5191025425899713E+00    8.4077952001983487E+00   -1.7655372627696153E+00
H   -4.7310652782026805E+00    8.4056601626066758E+00   -1.7666203895566537E+00
H    6.5136958235840448E+00    5.6148806280877297E+00   -1.7649149663103796E+00
H    3.3063849690298093E+00    5.6155601640454984E+00   -1.7623636136708083E+00
H    9.4581577203823722E-02    5.6144647715993772E+00   -1.7652498084139561E+00
H   -3.1197201857773260E+00    5.6146113109483702E+00   -1.7652316421722902E+00
H    8.1258724944759440E+00    2.8214108206661028E+00   -1.7663912732953118E+00
H    4.9190162456133777E+00    2.8233307472729989E+00   -1.7643596998774922E+00
H    1.7083833052004989E+00    2.8238163202159163E+00   -1.7680245926036495E+00
H   -1.5077867855412059E+00    2.8226274880667548E+00   -1.7683042500501447E+00
H    1.0486776646199038E-01    2.9954680479802809E-02   -1.7695448834573144E+00
H    3.3185599982752554E+00    3.2225194729569251E-02   -1.7672724391503625E+00
H    6.5291228879462935E+00    3.3040421763235885E-02   -1.7651313038635847E+00
H    9.7390780757364244E+00    3.1331025151654639E-02   -1.7651975087268175E+00
O   -4.5341576334823414E-01    4.4692542191714724E+00    1.6445391601868682E+01
H    1.3439552328546470E-01    5.5495631351571824E+00    1.4646817624231280E+01
C   -1.5678900735175414E+00    4.0644146728845891E+00    1.6745852829971664E+01
H   -1.4123892767711175E+00    2.7306871572425875E+00    1.4612980482440575E+01
H   -1.6904759463521297E+00    3.1798581410594764E+00    1.7408373192593814E+01
H   -2.4885322654956963E+00    4.5477395246494092E+00    1.6360133966469764E+01
     &END COORD
     &KIND C
       BASIS_SET DZVP-MOLOPT-SR-GTH-q4
       POTENTIAL GTH-PBE-q4
       &POTENTIAL
 2 2
  0.3384712400000000E+00 2 -0.8803673979999999E+01  0.1339210850000000E+01
 2
  0.3025757500000000E+00 1  0.9622486650000001E+01
  0.2915069400000000E+00 0
         # Potential name:  GTH-PBE-Q4  for symbol:  C
         # Potential read from the potential filename: GTH_POTENTIALS
       &END POTENTIAL
     &END KIND
     &KIND O
       BASIS_SET DZVP-MOLOPT-SR-GTH-q6
       POTENTIAL GTH-PBE-q6
       &POTENTIAL
 2 4
  0.2445543000000000E+00 2 -0.1666721480000000E+02  0.2487311320000000E+01
 2
  0.2209559200000000E+00 1  0.1833745811000000E+02
  0.2113324700000000E+00 0
         # Potential name:  GTH-PBE-Q6  for symbol:  O
         # Potential read from the potential filename: GTH_POTENTIALS
       &END POTENTIAL
     &END KIND
     &KIND H
       BASIS_SET DZVP-MOLOPT-SR-GTH-q1
       POTENTIAL GTH-PBE-q1
       &POTENTIAL
 1
  0.2000000000000000E+00 2 -0.4178900440000000E+01  0.7244633100000000E+00
 0
         # Potential name:  GTH-PBE-Q1  for symbol:  H
         # Potential read from the potential filename: GTH_POTENTIALS
       &END POTENTIAL
     &END KIND
     &KIND N
       BASIS_SET DZVP-MOLOPT-SR-GTH-q5
       POTENTIAL GTH-PBE-q5
       &POTENTIAL
 2 3
  0.2837905100000000E+00 2 -0.1241522559000000E+02  0.1868095920000000E+01
 2
  0.2554050000000000E+00 1  0.1363026257000000E+02
  0.2454945300000000E+00 0
         # Potential name:  GTH-PBE-Q5  for symbol:  N
         # Potential read from the potential filename: GTH_POTENTIALS
       &END POTENTIAL
     &END KIND
     &KIND Ga
       BASIS_SET DZVP-MOLOPT-SR-GTH-q13
       POTENTIAL GTH-PBE-q13
       &POTENTIAL
 2 1 10
  0.4900000000000000E+00 0
 3
  0.4167772300000000E+00 3  0.1047568975000000E+02 -0.4921768140000000E+01  0.8707055900000000E+00
  0.7770178090000000E+01 -0.2248152160000000E+01
  0.1784415450000000E+01
  0.5696265200000000E+00 2  0.1777985340000000E+01  0.1958597600000000E+00
 -0.2317443900000000E+00
  0.2381265000000000E+00 1 -0.1624868022000000E+02
         # Potential name:  GTH-PBE-Q13  for symbol:  GA
         # Potential read from the potential filename: GTH_POTENTIALS
       &END POTENTIAL
     &END KIND
     &TOPOLOGY
       NUMBER_OF_ATOMS  214
       MULTIPLE_UNIT_CELL  1 1 1
     &END TOPOLOGY
   &END SUBSYS
 &END FORCE_EVAL
