 # Version information for this restart file 
 # current date 2019-05-26 14:44:25.852
 # current working dir /lustre03/project/6004141/rzk/GaN-carbene/01-Methanol/443-capped/03-both-ads
 # Program compiled at                              Sun Apr  7 00:48:11 EDT 2019
 # Program compiled on                          beluga2.int.ets1.calculquebec.ca
 # Program compiled for                        Beluga-Linux-x86-64-intel-openmpi
 # Source code revision number                                         svn:18619
 &GLOBAL
   PRINT_LEVEL  MEDIUM
   PROJECT_NAME TEST
   RUN_TYPE  GEO_OPT
 &END GLOBAL
 &MOTION
   &GEO_OPT
     MAX_ITER  500
     STEP_START_VAL  65
   &END GEO_OPT
 &END MOTION
 &FORCE_EVAL
   METHOD  QS
   STRESS_TENSOR  ANALYTICAL
   &DFT
     BASIS_SET_FILE_NAME BASIS_MOLOPT
     POTENTIAL_FILE_NAME GTH_POTENTIALS
     SURFACE_DIPOLE_CORRECTION  T
     SURF_DIP_DIR  Z
     &SCF
       MAX_SCF  100
       EPS_SCF     5.0000000000000004E-06
       &OT  T
         PRECONDITIONER  FULL_ALL
       &END OT
       &OUTER_SCF  T
         OPTIMIZER  NONE
         EPS_SCF     5.0000000000000004E-06
         MAX_SCF  4
       &END OUTER_SCF
       &PRINT
         &RESTART  OFF
           BACKUP_COPIES  1
           &EACH
             JUST_ENERGY  0
             QS_SCF  0
             MD  20
           &END EACH
         &END RESTART
       &END PRINT
     &END SCF
     &QS
       EPS_DEFAULT     1.0000000000000000E-14
       METHOD  GPW
     &END QS
     &MGRID
       NGRIDS  5
       CUTOFF     1.2000000000000000E+03
     &END MGRID
     &XC
       DENSITY_CUTOFF     1.0000000000000000E-10
       GRADIENT_CUTOFF     1.0000000000000000E-10
       TAU_CUTOFF     1.0000000000000000E-10
       &XC_FUNCTIONAL  NO_SHORTCUT
         &PBE  T
         &END PBE
       &END XC_FUNCTIONAL
       &VDW_POTENTIAL
         POTENTIAL_TYPE  PAIR_POTENTIAL
         &PAIR_POTENTIAL
           R_CUTOFF     1.0000000000000005E+01
           TYPE  DFTD3
           PARAMETER_FILE_NAME dftd3.dat
           REFERENCE_FUNCTIONAL PBE
           EPS_CN     9.9999999999999995E-07
           CALCULATE_C9_TERM  T
           REFERENCE_C9_TERM  T
           LONG_RANGE_CORRECTION  F
           VERBOSE_OUTPUT  F
         &END PAIR_POTENTIAL
       &END VDW_POTENTIAL
     &END XC
   &END DFT
   &SUBSYS
     &CELL
       A     1.2845720507224698E+01    0.0000000000000000E+00    0.0000000000000000E+00
       B    -6.4473440219514533E+00    1.1167127419895399E+01    0.0000000000000000E+00
       C     0.0000000000000000E+00    0.0000000000000000E+00    2.9000000000000000E+01
       MULTIPLE_UNIT_CELL  1 1 1
       &CELL_REF
         A     1.2982353780853531E+01    0.0000000000000000E+00    0.0000000000000000E+00
         B    -6.4911768904267628E+00    1.1243048175136114E+01    0.0000000000000000E+00
         C     0.0000000000000000E+00    0.0000000000000000E+00    2.9000000000000000E+01
         MULTIPLE_UNIT_CELL  1 1 1
       &END CELL_REF
     &END CELL
     &COORD
Ga    1.0214075178089602E-01    2.5210199272823332E-02   -2.1704176023033764E-01
N    9.7899625563919387E-02    1.8838748273879038E+00    5.6536361448222472E-01
Ga    1.0120734548094530E-01    1.8797300442220759E+00    2.4996820676389597E+00
N    1.0758981415007630E-01    2.1661876361159970E-02    3.1884806534934969E+00
Ga    1.1281219255265622E-01    1.4155702802312591E-02    5.1498106850309782E+00
N    1.0861526951920125E-01    1.8720972454967848E+00    5.8056517492906634E+00
Ga    1.1936517916746045E-01    1.8689213457641376E+00    7.7757433942864118E+00
N    1.2285054572691878E-01    8.9589680150180470E-03    8.4275558471161549E+00
Ga    1.3495477216847995E-01    5.7427487689162551E-03    1.0419148675880598E+01
N    1.2207143080435019E-01    1.8635916997606954E+00    1.1001047690531376E+01
Ga    1.9537196729078388E-01    1.8261417423323090E+00    1.3009358297838681E+01
N    1.8070079869143954E-01   -2.6557461771576953E-03    1.3475169014174373E+01
Ga   -1.5097382819774057E+00    2.8177290940028623E+00   -2.1639607801346686E-01
N   -1.5136655840265265E+00    4.6762969115881052E+00    5.6830008524465869E-01
Ga   -1.5104177991910901E+00    4.6730377069158111E+00    2.5033435045099659E+00
N   -1.5033700732383410E+00    2.8129985162522861E+00    3.1873531823220911E+00
Ga   -1.5000935134478708E+00    2.8061676785140257E+00    5.1485907762609955E+00
N   -1.5069898552736922E+00    4.6656532234308843E+00    5.7994327055265034E+00
Ga   -1.4957054492081938E+00    4.6621755436091297E+00    7.7650577773138023E+00
N   -1.4873450000985116E+00    2.8082305258645861E+00    8.4083424808403091E+00
Ga   -1.4678934789185527E+00    2.8066359031508972E+00    1.0376903221420529E+01
N   -1.4631284314230573E+00    4.6408208496417211E+00    1.1047404064289532E+01
Ga   -1.4819177131055001E+00    4.6554432628309455E+00    1.3038986361751057E+01
N   -1.4305543488552901E+00    2.7691953987550639E+00    1.3591576241611502E+01
Ga   -3.1214760116801226E+00    5.6095659352946212E+00   -2.1418127102681064E-01
N   -3.1258546004896153E+00    7.4687998764026737E+00    5.6908397863824145E-01
Ga   -3.1234382494640944E+00    7.4655526864141706E+00    2.5040333527922822E+00
N   -3.1175151286102007E+00    5.6063963319170611E+00    3.1886305363861953E+00
Ga   -3.1129785151551754E+00    5.5998620637679499E+00    5.1492892195548023E+00
N   -3.1162069248036124E+00    7.4556023409928587E+00    5.8122420618112924E+00
Ga   -3.1033920139842679E+00    7.4505071078665175E+00    7.7837339610074743E+00
N   -3.0960375918770029E+00    5.5940028176774863E+00    8.4362994564880207E+00
Ga   -3.0688814823947221E+00    5.5767052657966847E+00    1.0425347508113889E+01
N   -3.0919471533754743E+00    7.4263803935760464E+00    1.1048774728886146E+01
Ga   -3.0611094001061487E+00    7.3853566789969909E+00    1.3163657475432860E+01
N   -3.0425733428474668E+00    5.5527254684433389E+00    1.3632438357273502E+01
Ga   -4.7337650435270762E+00    8.4008622427755419E+00   -2.1487355783685955E-01
N   -4.7377215973986004E+00    1.0259484051066263E+01    5.6841266927624623E-01
Ga   -4.7343593336233072E+00    1.0255091907266491E+01    2.5035391816276751E+00
N   -4.7286309672855431E+00    8.3973852444624129E+00    3.1937577099942489E+00
Ga   -4.7231982936497152E+00    8.3895394665232015E+00    5.1566268839917111E+00
N   -4.7288174498864146E+00    1.0248639711608478E+01    5.8107244549387902E+00
Ga   -4.7181849771430517E+00    1.0243340944224636E+01    7.7821760631651626E+00
N   -4.7050368783893948E+00    8.3855361214816178E+00    8.4292021884614083E+00
Ga   -4.6833988784643648E+00    8.3703305851368075E+00    1.0420841260822236E+01
N   -4.7047301340797194E+00    1.0230416066715042E+01    1.0997567608562527E+01
Ga   -4.6674482744208197E+00    1.0224662685297069E+01    1.3069604615062648E+01
N   -4.6578980712487796E+00    8.3681551265385057E+00    1.3447484948136804E+01
Ga    3.3138100155069217E+00    2.5466388476465131E-02   -2.1537227628402630E-01
N    3.3103577745552801E+00    1.8837108979073833E+00    5.6808931000397511E-01
Ga    3.3137392476408891E+00    1.8794186565966218E+00    2.5024726307590943E+00
N    3.3185738352335643E+00    2.0698550223823962E-02    3.1900688453936765E+00
Ga    3.3256452200034343E+00    1.3769974108957271E-02    5.1518876624631122E+00
N    3.3201334349923037E+00    1.8733249581219031E+00    5.8029492195749528E+00
Ga    3.3293659404509732E+00    1.8694444164813973E+00    7.7720440445788874E+00
N    3.3371138718359452E+00    1.2407402604303635E-02    8.4192937720334751E+00
Ga    3.3513482041874223E+00   -2.9912812184843462E-03    1.0405044638470576E+01
N    3.3402012539238779E+00    1.8558368668053753E+00    1.1008227893782006E+01
Ga    3.3759822558168402E+00    1.8420865995841234E+00    1.3083054440363730E+01
N    3.3906632869253377E+00   -1.4329054879623705E-02    1.3464362359352190E+01
Ga    1.7025867563058228E+00    2.8177263937490284E+00   -2.1551783829178270E-01
N    1.6982883938575346E+00    4.6761482300941442E+00    5.6884652362941845E-01
Ga    1.7018280052779613E+00    4.6727546400740785E+00    2.5035646040464932E+00
N    1.7070283404836837E+00    2.8119693735121456E+00    3.1849176093396983E+00
Ga    1.7138685918120951E+00    2.8053982593779208E+00    5.1447973899226209E+00
N    1.7087615167169889E+00    4.6630603352687041E+00    5.8016272333681416E+00
Ga    1.7194542202710339E+00    4.6589912510890796E+00    7.7692115295732371E+00
N    1.7268539825823424E+00    2.8004980443056282E+00    8.4193789013131255E+00
Ga    1.7272623426094735E+00    2.7993626985714317E+00    1.0405175837041551E+01
N    1.7245617437151537E+00    4.6526578921930435E+00    1.1020137194475318E+01
Ga    1.7905018351971538E+00    4.6327559185755414E+00    1.3048306578101723E+01
N    1.7682883180770963E+00    2.7859849624873037E+00    1.3454601542798368E+01
Ga    9.0507061227962163E-02    5.6096022605910223E+00   -2.1371802241862362E-01
N    8.5845650708014878E-02    7.4687885198587889E+00    5.6926317428305795E-01
Ga    8.9403185461292958E-02    7.4650684999599788E+00    2.5042198056746519E+00
N    9.5582665034340583E-02    5.6062111214765071E+00    3.1880717044676801E+00
Ga    1.0040487499857320E-01    5.5998763241828282E+00    5.1491112349901105E+00
N    9.5109579630055799E-02    7.4576200170374660E+00    5.8096232713248268E+00
Ga    1.0666458103790340E-01    7.4532775007011356E+00    7.7814942046086788E+00
N    1.0986150802733158E-01    5.5880207852889079E+00    8.4110336197860534E+00
Ga    1.2279681419906069E-01    5.5703452222742893E+00    1.0380796689402645E+01
N    1.2660453147863968E-01    7.4107701378774040E+00    1.1021185683257050E+01
Ga    1.5753716139687454E-01    7.4442402842471802E+00    1.3046163960296642E+01
N    1.5941247202044348E-01    5.5693878433454111E+00    1.3619170824937031E+01
Ga   -1.5217432365696839E+00    8.4015842647950620E+00   -2.1457112577342521E-01
N   -1.5258036323277586E+00    1.0260040455349452E+01    5.6967783741648914E-01
Ga   -1.5225115110875262E+00    1.0256058709864915E+01    2.5047456975550033E+00
N   -1.5172830645058051E+00    8.3971072247302594E+00    3.1905107111324691E+00
Ga   -1.5117391236127948E+00    8.3900467233827740E+00    5.1523253751363267E+00
N   -1.5165449510934781E+00    1.0246563536508082E+01    5.8099174182116249E+00
Ga   -1.5048910444403538E+00    1.0239156283534356E+01    7.7824255109638951E+00
N   -1.5015696844409612E+00    8.3829392536299210E+00    8.4380698959371436E+00
Ga   -1.4830346707042963E+00    8.3581651757360085E+00    1.0432386444170124E+01
N   -1.4874594829361485E+00    1.0228598199630722E+01    1.0991928062032279E+01
Ga   -1.4588848965857715E+00    1.0210978678590781E+01    1.3053090360741544E+01
N   -1.4500640152075917E+00    8.3562023634758624E+00    1.3436699737073353E+01
Ga    6.5252295659514399E+00    2.5973868832930621E-02   -2.1381743094448372E-01
N    6.5221092859948469E+00    1.8840994287473676E+00    5.7049512442236983E-01
Ga    6.5256575665387073E+00    1.8801711973278461E+00    2.5051139328597474E+00
N    6.5304972289793337E+00    2.1550124493418577E-02    3.1925791590293513E+00
Ga    6.5372460678038848E+00    1.3796826767605574E-02    5.1552631443195391E+00
N    6.5318502823446538E+00    1.8735508388881612E+00    5.8088068019599524E+00
Ga    6.5416190774479377E+00    1.8665763520428820E+00    7.7803762661334925E+00
N    6.5484061344614650E+00    5.6707550355649767E-03    8.4184154890068665E+00
Ga    6.5710472484365612E+00   -8.0445184620465369E-03    1.0404628120032905E+01
N    6.5630285213259043E+00    1.8527565416377101E+00    1.0992351604220373E+01
Ga    6.5927714222670213E+00    1.8425602822503506E+00    1.3058476050976470E+01
N    6.6019854288830935E+00   -1.8259877611243067E-02    1.3422229853040951E+01
Ga    4.9142500787369734E+00    2.8175941970992451E+00   -2.1365130671410917E-01
N    4.9105036607455235E+00    4.6762266002856192E+00    5.7058891958023894E-01
Ga    4.9143845239805879E+00    4.6727454410701990E+00    2.5048048109177530E+00
N    4.9195542983268492E+00    2.8134502355995457E+00    3.1891832731415009E+00
Ga    4.9261324373206099E+00    2.8060739533700465E+00    5.1500541273298950E+00
N    4.9201170184793126E+00    4.6639183059492115E+00    5.8118106790918898E+00
Ga    4.9290171523920385E+00    4.6592168296314815E+00    7.7839962744628286E+00
N    4.9354394386999765E+00    2.7972546851101083E+00    8.4240619791071900E+00
Ga    4.9568120443502277E+00    2.7896401463461502E+00    1.0413306258706321E+01
N    4.9454089454409740E+00    4.6422582191740602E+00    1.1017105515415430E+01
Ga    4.9727885899678164E+00    4.6345294335750964E+00    1.3104383381614285E+01
N    4.9885525372670791E+00    2.7750594365894643E+00    1.3458644089486310E+01
Ga    3.3024158012602696E+00    5.6094490516844724E+00   -2.1278085589255305E-01
N    3.2974299734913628E+00    7.4685357247682189E+00    5.7071570995455734E-01
Ga    3.3014281473701743E+00    7.4648380737837359E+00    2.5053949851096098E+00
N    3.3087271031152303E+00    5.6055186711925815E+00    3.1903715934747554E+00
Ga    3.3141706572160792E+00    5.5991005437074266E+00    5.1513246875022602E+00
N    3.3089441490859675E+00    7.4565551488266522E+00    5.8147663142839274E+00
Ga    3.3187010346717996E+00    7.4514122720502263E+00    7.7871935985215277E+00
N    3.3215439488853482E+00    5.5904900624956442E+00    8.4258814227436059E+00
Ga    3.3348652557452310E+00    5.5721035430750474E+00    1.0414082551471589E+01
N    3.3445902879601834E+00    7.4277440625695839E+00    1.1015462612999949E+01
Ga    3.3849923492990270E+00    7.4163690120753216E+00    1.3089812621903198E+01
N    3.3701338856692957E+00    5.5704587771224272E+00    1.3497715202167452E+01
Ga    1.6899450395905757E+00    8.4014670060143946E+00   -2.1352712437529367E-01
N    1.6854887750687821E+00    1.0260035317755563E+01    5.7063959547015219E-01
Ga    1.6890197935558180E+00    1.0255930073045375E+01    2.5057983412952995E+00
N    1.6954470183484212E+00    8.3968331852931559E+00    3.1922694882963816E+00
Ga    1.7013843184284569E+00    8.3908785090904310E+00    5.1548238486559015E+00
N    1.6976687683518261E+00    1.0248187401609981E+01    5.8092688786577069E+00
Ga    1.7101720795720365E+00    1.0241273479381109E+01    7.7815242760714991E+00
N    1.7102908054448336E+00    8.3838858656971240E+00    8.4302638022279428E+00
Ga    1.7245325335506378E+00    8.3618907851438582E+00    1.0420605675803417E+01
N    1.7356534973120101E+00    1.0228751245356001E+01    1.1001296468331621E+01
Ga    1.7825666484383147E+00    1.0225329406093957E+01    1.3068836009028308E+01
N    1.7711589124472191E+00    8.3611843604193385E+00    1.3410652245396555E+01
Ga    9.7362588304766131E+00    2.5932919543064651E-02   -2.1409626534595774E-01
N    9.7323198050434314E+00    1.8849683255830609E+00    5.6828069273656023E-01
Ga    9.7359220896854168E+00    1.8810326005448570E+00    2.5029146206064556E+00
N    9.7425434748947968E+00    2.2341501834535631E-02    3.1898976912070225E+00
Ga    9.7471106626465804E+00    1.4974375112946097E-02    5.1516618359757160E+00
N    9.7418487339180402E+00    1.8733258122535938E+00    5.8067114101089370E+00
Ga    9.7527447901447761E+00    1.8667153931683240E+00    7.7772299892517447E+00
N    9.7608640810941303E+00    1.1837866935054585E-02    8.4261689650764389E+00
Ga    9.7868324342940589E+00    6.1075632118257070E-03    1.0413090586844683E+01
N    9.7942231227756977E+00    1.8613644182343854E+00    1.1016202066824176E+01
Ga    9.7859782613781601E+00    1.8123407220937890E+00    1.3031648392887268E+01
N    9.8173359457823217E+00   -7.7981564451623285E-03    1.3534141952975711E+01
Ga    8.1245738323142493E+00    2.8175830218895141E+00   -2.1517146999381528E-01
N    8.1202755677574743E+00    4.6763192407120506E+00    5.6890329302695841E-01
Ga    8.1234584878216527E+00    4.6729979979808531E+00    2.5033514983210048E+00
N    8.1310353131769428E+00    2.8150000130351449E+00    3.1912231195545391E+00
Ga    8.1357559095042955E+00    2.8072550815308719E+00    5.1532683269911068E+00
N    8.1310902606578193E+00    4.6653781561224523E+00    5.8156114304342452E+00
Ga    8.1418953799004044E+00    4.6602252548939420E+00    7.7891099790388747E+00
N    8.1467368680531926E+00    2.7999913201649740E+00    8.4280176341732513E+00
Ga    8.1791664597732758E+00    2.7898594160102985E+00    1.0418736400943551E+01
N    8.1682056495589936E+00    4.6482898344986632E+00    1.1018236097616883E+01
Ga    8.2179267466071959E+00    4.6433304486357638E+00    1.3105689911649915E+01
N    8.2038108551157674E+00    2.7757565265775055E+00    1.3433243123419203E+01
Ga    6.5128909441727005E+00    5.6095522005858713E+00   -2.1464800987672128E-01
N    6.5089456220198594E+00    7.4678195886853382E+00    5.7125983175931361E-01
Ga    6.5124765509981462E+00    7.4642144015216552E+00    2.5064936848738912E+00
N    6.5194217303735069E+00    5.6055658321606430E+00    3.1948523302780307E+00
Ga    6.5245421184098058E+00    5.5987791802964137E+00    5.1578035538018927E+00
N    6.5180662776838414E+00    7.4562405409167694E+00    5.8191611675979624E+00
Ga    6.5292703868489550E+00    7.4523019407665281E+00    7.7924388141190173E+00
N    6.5354003008333432E+00    5.5908923481882393E+00    8.4345645074019231E+00
Ga    6.5561710506711837E+00    5.5782096350421781E+00    1.0428425604449338E+01
N    6.5519846055548641E+00    7.4414811568716814E+00    1.1004571734621928E+01
Ga    6.5812824565601540E+00    7.4265032266002855E+00    1.3073394350687748E+01
N    6.5901374411120957E+00    5.5724754438818325E+00    1.3440147063872953E+01
Ga    4.9012419092026667E+00    8.4009751567791913E+00   -2.1331768709224372E-01
N    4.8969225037425028E+00    1.0259891092868390E+01    5.6907474629517996E-01
Ga    4.9002996642765844E+00    1.0255519845375666E+01    2.5039019675402461E+00
N    4.9069858243968651E+00    8.3972084202423734E+00    3.1930476619946226E+00
Ga    4.9120846669086093E+00    8.3893993409067633E+00    5.1552656204108436E+00
N    4.9075030812567659E+00    1.0248069227844418E+01    5.8086879363311761E+00
Ga    4.9159844457748747E+00    1.0243563079692471E+01    7.7783074659401592E+00
N    4.9248401153944616E+00    8.3902568285973498E+00    8.4354023588219462E+00
Ga    4.9452377912612304E+00    8.3798855163915231E+00    1.0428255676687655E+01
N    4.9310038154836748E+00    1.0228582478295731E+01    1.1046184176880136E+01
Ga    4.9707880228791881E+00    1.0212205016598061E+01    1.3156805784707450E+01
N    4.9815584454154180E+00    8.3555822970548519E+00    1.3494950598589023E+01
H    4.9039654717244643E+00    8.4060876631242749E+00   -1.7649865014282369E+00
H    1.6939030652002180E+00    8.4081634417499398E+00   -1.7651220149346745E+00
H   -1.5187806303696065E+00    8.4072377578072057E+00   -1.7662918492075832E+00
H   -4.7310027060504618E+00    8.4051378741640459E+00   -1.7667180702108076E+00
H    6.5140633113038486E+00    5.6150601621744949E+00   -1.7661698604440090E+00
H    3.3070441447411727E+00    5.6155814087118898E+00   -1.7641699285684753E+00
H    9.4998989604937814E-02    5.6147042346898086E+00   -1.7653295034673389E+00
H   -3.1192121412745828E+00    5.6148819336902953E+00   -1.7659137622499448E+00
H    8.1262152147676847E+00    2.8219101962479591E+00   -1.7668088569106439E+00
H    4.9191929460647108E+00    2.8239312474687122E+00   -1.7650756891309483E+00
H    1.7087088696101163E+00    2.8240401363972740E+00   -1.7670780931631929E+00
H   -1.5075395523817698E+00    2.8232996343097292E+00   -1.7680774262962868E+00
H    1.0494745665406609E-01    2.9693093168930599E-02   -1.7688274912038902E+00
H    3.3186512241072155E+00    3.1706479412178711E-02   -1.7670541997227656E+00
H    6.5290463379286834E+00    3.2321816261459045E-02   -1.7655013772648196E+00
H    9.7390908724219969E+00    3.1073701376452788E-02   -1.7658190242253642E+00
O   -4.6106791005857894E-01    4.4699611876852599E+00    1.6449942020471013E+01
H    1.2812345308523274E-01    5.5527833107611775E+00    1.4648555040824323E+01
C   -1.5760207182574610E+00    4.0734500079795213E+00    1.6756811409654713E+01
H   -1.4108877289131940E+00    2.7316819332498659E+00    1.4615361666019952E+01
H   -1.6977125027418920E+00    3.1929634473682662E+00    1.7426798188395772E+01
H   -2.4991037334644313E+00    4.5555376826635081E+00    1.6365867953094721E+01
     &END COORD
     &KIND C
       BASIS_SET DZVP-MOLOPT-SR-GTH-q4
       POTENTIAL GTH-PBE-q4
       &POTENTIAL
 2 2
  0.3384712400000000E+00 2 -0.8803673979999999E+01  0.1339210850000000E+01
 2
  0.3025757500000000E+00 1  0.9622486650000001E+01
  0.2915069400000000E+00 0
         # Potential name:  GTH-PBE-Q4  for symbol:  C
         # Potential read from the potential filename: GTH_POTENTIALS
       &END POTENTIAL
     &END KIND
     &KIND O
       BASIS_SET DZVP-MOLOPT-SR-GTH-q6
       POTENTIAL GTH-PBE-q6
       &POTENTIAL
 2 4
  0.2445543000000000E+00 2 -0.1666721480000000E+02  0.2487311320000000E+01
 2
  0.2209559200000000E+00 1  0.1833745811000000E+02
  0.2113324700000000E+00 0
         # Potential name:  GTH-PBE-Q6  for symbol:  O
         # Potential read from the potential filename: GTH_POTENTIALS
       &END POTENTIAL
     &END KIND
     &KIND H
       BASIS_SET DZVP-MOLOPT-SR-GTH-q1
       POTENTIAL GTH-PBE-q1
       &POTENTIAL
 1
  0.2000000000000000E+00 2 -0.4178900440000000E+01  0.7244633100000000E+00
 0
         # Potential name:  GTH-PBE-Q1  for symbol:  H
         # Potential read from the potential filename: GTH_POTENTIALS
       &END POTENTIAL
     &END KIND
     &KIND N
       BASIS_SET DZVP-MOLOPT-SR-GTH-q5
       POTENTIAL GTH-PBE-q5
       &POTENTIAL
 2 3
  0.2837905100000000E+00 2 -0.1241522559000000E+02  0.1868095920000000E+01
 2
  0.2554050000000000E+00 1  0.1363026257000000E+02
  0.2454945300000000E+00 0
         # Potential name:  GTH-PBE-Q5  for symbol:  N
         # Potential read from the potential filename: GTH_POTENTIALS
       &END POTENTIAL
     &END KIND
     &KIND Ga
       BASIS_SET DZVP-MOLOPT-SR-GTH-q13
       POTENTIAL GTH-PBE-q13
       &POTENTIAL
 2 1 10
  0.4900000000000000E+00 0
 3
  0.4167772300000000E+00 3  0.1047568975000000E+02 -0.4921768140000000E+01  0.8707055900000000E+00
  0.7770178090000000E+01 -0.2248152160000000E+01
  0.1784415450000000E+01
  0.5696265200000000E+00 2  0.1777985340000000E+01  0.1958597600000000E+00
 -0.2317443900000000E+00
  0.2381265000000000E+00 1 -0.1624868022000000E+02
         # Potential name:  GTH-PBE-Q13  for symbol:  GA
         # Potential read from the potential filename: GTH_POTENTIALS
       &END POTENTIAL
     &END KIND
     &TOPOLOGY
       NUMBER_OF_ATOMS  214
       MULTIPLE_UNIT_CELL  1 1 1
     &END TOPOLOGY
   &END SUBSYS
 &END FORCE_EVAL
