 # Version information for this restart file 
 # current date 2019-05-26 14:33:23.663
 # current working dir /lustre03/project/6004141/rzk/GaN-carbene/01-Methanol/443-capped/03-both-ads
 # Program compiled at                              Sun Apr  7 00:48:11 EDT 2019
 # Program compiled on                          beluga2.int.ets1.calculquebec.ca
 # Program compiled for                        Beluga-Linux-x86-64-intel-openmpi
 # Source code revision number                                         svn:18619
 &GLOBAL
   PRINT_LEVEL  MEDIUM
   PROJECT_NAME TEST
   RUN_TYPE  GEO_OPT
 &END GLOBAL
 &MOTION
   &GEO_OPT
     MAX_ITER  500
     STEP_START_VAL  63
   &END GEO_OPT
 &END MOTION
 &FORCE_EVAL
   METHOD  QS
   STRESS_TENSOR  ANALYTICAL
   &DFT
     BASIS_SET_FILE_NAME BASIS_MOLOPT
     POTENTIAL_FILE_NAME GTH_POTENTIALS
     SURFACE_DIPOLE_CORRECTION  T
     SURF_DIP_DIR  Z
     &SCF
       MAX_SCF  100
       EPS_SCF     5.0000000000000004E-06
       &OT  T
         PRECONDITIONER  FULL_ALL
       &END OT
       &OUTER_SCF  T
         OPTIMIZER  NONE
         EPS_SCF     5.0000000000000004E-06
         MAX_SCF  4
       &END OUTER_SCF
       &PRINT
         &RESTART  OFF
           BACKUP_COPIES  1
           &EACH
             JUST_ENERGY  0
             QS_SCF  0
             MD  20
           &END EACH
         &END RESTART
       &END PRINT
     &END SCF
     &QS
       EPS_DEFAULT     1.0000000000000000E-14
       METHOD  GPW
     &END QS
     &MGRID
       NGRIDS  5
       CUTOFF     1.2000000000000000E+03
     &END MGRID
     &XC
       DENSITY_CUTOFF     1.0000000000000000E-10
       GRADIENT_CUTOFF     1.0000000000000000E-10
       TAU_CUTOFF     1.0000000000000000E-10
       &XC_FUNCTIONAL  NO_SHORTCUT
         &PBE  T
         &END PBE
       &END XC_FUNCTIONAL
       &VDW_POTENTIAL
         POTENTIAL_TYPE  PAIR_POTENTIAL
         &PAIR_POTENTIAL
           R_CUTOFF     1.0000000000000005E+01
           TYPE  DFTD3
           PARAMETER_FILE_NAME dftd3.dat
           REFERENCE_FUNCTIONAL PBE
           EPS_CN     9.9999999999999995E-07
           CALCULATE_C9_TERM  T
           REFERENCE_C9_TERM  T
           LONG_RANGE_CORRECTION  F
           VERBOSE_OUTPUT  F
         &END PAIR_POTENTIAL
       &END VDW_POTENTIAL
     &END XC
   &END DFT
   &SUBSYS
     &CELL
       A     1.2845720507224698E+01    0.0000000000000000E+00    0.0000000000000000E+00
       B    -6.4473440219514533E+00    1.1167127419895399E+01    0.0000000000000000E+00
       C     0.0000000000000000E+00    0.0000000000000000E+00    2.9000000000000000E+01
       MULTIPLE_UNIT_CELL  1 1 1
       &CELL_REF
         A     1.2982353780853531E+01    0.0000000000000000E+00    0.0000000000000000E+00
         B    -6.4911768904267628E+00    1.1243048175136114E+01    0.0000000000000000E+00
         C     0.0000000000000000E+00    0.0000000000000000E+00    2.9000000000000000E+01
         MULTIPLE_UNIT_CELL  1 1 1
       &END CELL_REF
     &END CELL
     &COORD
Ga    9.9721363467311488E-02    2.6689252627078323E-02   -2.1807179741831742E-01
N    9.6815389137856311E-02    1.8851585478813166E+00    5.6527854967316349E-01
Ga    9.8853369323622195E-02    1.8812597235323807E+00    2.5008131530640973E+00
N    1.0443919393222861E-01    2.2869874331606258E-02    3.1903897365450113E+00
Ga    1.1068057112454553E-01    1.4828582261456551E-02    5.1527906108016230E+00
N    1.0783759738363748E-01    1.8718970537712736E+00    5.8072989484052950E+00
Ga    1.1821645796175678E-01    1.8693622033959041E+00    7.7785474463773321E+00
N    1.1930370836655688E-01    1.0091049853235489E-02    8.4295417577869340E+00
Ga    1.3552083600490605E-01    5.6077483564614802E-03    1.0421268812531665E+01
N    1.2001493486596181E-01    1.8666273496087367E+00    1.0996308283085360E+01
Ga    1.9550737111538619E-01    1.8198011920829236E+00    1.3003234569955739E+01
N    1.8254223926523425E-01   -3.8340246955065379E-03    1.3476596680844809E+01
Ga   -1.5119734012538064E+00    2.8194700903385277E+00   -2.1638011460800541E-01
N   -1.5151309029739535E+00    4.6771961993681472E+00    5.6869295194418179E-01
Ga   -1.5124409814312625E+00    4.6743052332402053E+00    2.5048353524398959E+00
N   -1.5051268464959544E+00    2.8147694286411071E+00    3.1881161411806698E+00
Ga   -1.4993222945075861E+00    2.8078358812552207E+00    5.1503078087534169E+00
N   -1.5080212776241848E+00    4.6686771567941800E+00    5.8007203669289824E+00
Ga   -1.4970717458370955E+00    4.6655447407995281E+00    7.7670969495173869E+00
N   -1.4877328276211343E+00    2.8130370634458473E+00    8.4062215709217618E+00
Ga   -1.4676347644130254E+00    2.8067784109286111E+00    1.0376964347034820E+01
N   -1.4625160227226075E+00    4.6422108975526655E+00    1.1051649373224967E+01
Ga   -1.4770171317745433E+00    4.6547058418523122E+00    1.3046712389302277E+01
N   -1.4322422064700275E+00    2.7647975653440828E+00    1.3588439555917960E+01
Ga   -3.1242795685517315E+00    5.6108652919893851E+00   -2.1293866323066210E-01
N   -3.1281188324356073E+00    7.4695267289052527E+00    5.7021661779797972E-01
Ga   -3.1263966610459994E+00    7.4663835134463170E+00    2.5061410578667602E+00
N   -3.1195136425997236E+00    5.6074675935568665E+00    3.1897199054755951E+00
Ga   -3.1131870820103695E+00    5.6018468954275749E+00    5.1505680661415179E+00
N   -3.1184830594575206E+00    7.4568713262602175E+00    5.8163020396511236E+00
Ga   -3.1045000312961823E+00    7.4528827466423042E+00    7.7876530172446410E+00
N   -3.0965278902966538E+00    5.5984591020351147E+00    8.4446952469876440E+00
Ga   -3.0703688807699883E+00    5.5763369106704817E+00    1.0437261356144717E+01
N   -3.0907577585049815E+00    7.4275389410753716E+00    1.1054840785377179E+01
Ga   -3.0536863192601555E+00    7.3854190692868738E+00    1.3171899894090728E+01
N   -3.0342269674816902E+00    5.5524750198275994E+00    1.3642448166080447E+01
Ga   -4.7362989813753771E+00    8.4020517121283529E+00   -2.1481141740624801E-01
N   -4.7399444372568302E+00    1.0260895813100495E+01    5.6790699847752557E-01
Ga   -4.7383314770109930E+00    1.0256573778043867E+01    2.5034725446610908E+00
N   -4.7313495614906120E+00    8.3988416485405377E+00    3.1958555741688111E+00
Ga   -4.7249909538277306E+00    8.3911916308152321E+00    5.1595085925582325E+00
N   -4.7312699108598171E+00    1.0249095405185841E+01    5.8144908333046601E+00
Ga   -4.7199551391706827E+00    1.0245616601481730E+01    7.7878370104739343E+00
N   -4.7060681088969165E+00    8.3876876965646332E+00    8.4334433172683241E+00
Ga   -4.6829196569313289E+00    8.3731063678898732E+00    1.0427189816371508E+01
N   -4.7034252868985265E+00    1.0232830635247671E+01    1.0996938572675077E+01
Ga   -4.6636618460000596E+00    1.0226825055434567E+01    1.3073065548583887E+01
N   -4.6554905901478048E+00    8.3699004968858581E+00    1.3448074519129618E+01
Ga    3.3116754469536169E+00    2.6937622855544071E-02   -2.1546891303749294E-01
N    3.3078698753840965E+00    1.8848617655353179E+00    5.6839459836787209E-01
Ga    3.3099526031541435E+00    1.8806458814414848E+00    2.5045259554777193E+00
N    3.3142353686472976E+00    2.1169533675060050E-02    3.1913960929973380E+00
Ga    3.3221946806192806E+00    1.3609921240086555E-02    5.1542056972587149E+00
N    3.3205819642198167E+00    1.8723949467950627E+00    5.8050906558579642E+00
Ga    3.3322808156467425E+00    1.8707309517348181E+00    7.7746453651305947E+00
N    3.3356816510485841E+00    1.4176805489513247E-02    8.4212331155069453E+00
Ga    3.3501153743527716E+00   -3.4937345525153031E-03    1.0407494526173602E+01
N    3.3400396748355994E+00    1.8574551420181862E+00    1.1007300304162650E+01
Ga    3.3836620990045030E+00    1.8407769978691106E+00    1.3077452891516739E+01
N    3.3951318628526739E+00   -1.0457369496171804E-02    1.3477527037789169E+01
Ga    1.7006375971962910E+00    2.8193639401348318E+00   -2.1667776332776945E-01
N    1.6961808843853836E+00    4.6762476405942870E+00    5.7000665296041386E-01
Ga    1.6986800036256111E+00    4.6729465544696582E+00    2.5065059290169445E+00
N    1.7042439107943375E+00    2.8127352142235162E+00    3.1875017958745522E+00
Ga    1.7131713191259796E+00    2.8041830779633194E+00    5.1494479486279792E+00
N    1.7083182013241967E+00    4.6638569357012409E+00    5.8008140413749816E+00
Ga    1.7194980762690149E+00    4.6592532529182078E+00    7.7678085328886262E+00
N    1.7278389404831096E+00    2.8027754129362767E+00    8.4173977599857572E+00
Ga    1.7263812366560622E+00    2.7991080589230739E+00    1.0400640062783216E+01
N    1.7236449889309087E+00    4.6553406896921343E+00    1.1015988655861388E+01
Ga    1.7953092124560281E+00    4.6298072667740264E+00    1.3042567548452350E+01
N    1.7689003311747602E+00    2.7812747119235239E+00    1.3438377696293239E+01
Ga    8.8438259943987088E-02    5.6108883891814862E+00   -2.1342235203844084E-01
N    8.3476194010045648E-02    7.4690651320086632E+00    5.7090895738963798E-01
Ga    8.5907637052615934E-02    7.4655703322250719E+00    2.5070689070296841E+00
N    9.3493408755723678E-02    5.6075134696772118E+00    3.1902759385895045E+00
Ga    9.9651188151187411E-02    5.6020600168806940E+00    5.1528210074853460E+00
N    9.3708361054697625E-02    7.4597532541852827E+00    5.8137355068732255E+00
Ga    1.0702146679763852E-01    7.4563170148754558E+00    7.7863871168375631E+00
N    1.1093551384884172E-01    5.5894498690819958E+00    8.4086362691014287E+00
Ga    1.2037152354870789E-01    5.5686382081713912E+00    1.0375896001513610E+01
N    1.2588955030400506E-01    7.4090668886102087E+00    1.1018069171315327E+01
Ga    1.5850792050502341E-01    7.4402273742869616E+00    1.3034506954901223E+01
N    1.6593619146030913E-01    5.5688740839587618E+00    1.3617090299956924E+01
Ga   -1.5243621943799910E+00    8.4022643726757877E+00   -2.1328537976125003E-01
N   -1.5285200222393731E+00    1.0260494746568627E+01    5.7039751659727889E-01
Ga   -1.5269251960490253E+00    1.0256167264681409E+01    2.5065642104163750E+00
N   -1.5204448679948865E+00    8.3973214394058591E+00    3.1937525028775520E+00
Ga   -1.5136420044147527E+00    8.3905905399904928E+00    5.1568676948438839E+00
N   -1.5187398853100573E+00    1.0247781167247286E+01    5.8118325163559286E+00
Ga   -1.5060092952207331E+00    1.0242125401005186E+01    7.7839031396180616E+00
N   -1.5036230176300318E+00    8.3866913791627269E+00    8.4389939201911961E+00
Ga   -1.4833158697196163E+00    8.3596930676931507E+00    1.0430632486643070E+01
N   -1.4920750034286538E+00    1.0226009067351947E+01    1.0998292591533398E+01
Ga   -1.4607215048147384E+00    1.0204713690464420E+01    1.3062530365363410E+01
N   -1.4428390154030222E+00    8.3549658227693531E+00    1.3454130124304314E+01
Ga    6.5224635126952757E+00    2.6971108000534812E-02   -2.1298638428369218E-01
N    6.5194890377411809E+00    1.8846851453891478E+00    5.7089019071335612E-01
Ga    6.5220476177210376E+00    1.8809095323334306E+00    2.5064626484944341E+00
N    6.5262673885475175E+00    2.1746229242768051E-02    3.1930425185851425E+00
Ga    6.5346795640088784E+00    1.4018772448992420E-02    5.1558574999268680E+00
N    6.5325550893209972E+00    1.8732445904875261E+00    5.8090842185875173E+00
Ga    6.5440122475952558E+00    1.8674493037359379E+00    7.7809156772385055E+00
N    6.5472204496210695E+00    7.1623160501234941E-03    8.4238878171822620E+00
Ga    6.5667297629681229E+00   -5.3023914677052253E-03    1.0413132376144612E+01
N    6.5590634397843495E+00    1.8516790052745558E+00    1.0998831599058477E+01
Ga    6.5929723673399305E+00    1.8429601979193688E+00    1.3068693344888059E+01
N    6.6048344194853170E+00   -2.0459763617666483E-02    1.3411966656344417E+01
Ga    4.9115835761697211E+00    2.8192579095574781E+00   -2.1223192863343718E-01
N    4.9083819874385322E+00    4.6767956300445404E+00    5.7273835554732322E-01
Ga    4.9117406034977744E+00    4.6733981865039649E+00    2.5088663507008748E+00
N    4.9163643579368630E+00    2.8135962967305455E+00    3.1906949455788407E+00
Ga    4.9257002342972296E+00    2.8048841434375107E+00    5.1523781829764532E+00
N    4.9206241048644923E+00    4.6642498101011807E+00    5.8117398429463334E+00
Ga    4.9299945937663647E+00    4.6592446365111728E+00    7.7820011879545294E+00
N    4.9373019341587057E+00    2.8000555762851285E+00    8.4237201004878663E+00
Ga    4.9577911971207316E+00    2.7928365416088381E+00    1.0411775352357854E+01
N    4.9404673849830854E+00    4.6441219404523517E+00    1.1013115147843793E+01
Ga    4.9737087372358220E+00    4.6309544389706048E+00    1.3094511198136800E+01
N    4.9937722490743175E+00    2.7755248965276942E+00    1.3471608451820854E+01
Ga    3.3001035003571970E+00    5.6108783679790024E+00   -2.0986061288518393E-01
N    3.2951322590680108E+00    7.4693460569717329E+00    5.7307827035418379E-01
Ga    3.2978574606140816E+00    7.4655031978246083E+00    2.5091944555178820E+00
N    3.3057983699379028E+00    5.6059451322708309E+00    3.1917728180241660E+00
Ga    3.3135960510227127E+00    5.5985520723185020E+00    5.1531999237060901E+00
N    3.3075221461826989E+00    7.4573593408338219E+00    5.8141895355323525E+00
Ga    3.3175809349239267E+00    7.4540477747783376E+00    7.7847029603836804E+00
N    3.3206702773261370E+00    5.5926697054197652E+00    8.4225656031243687E+00
Ga    3.3347783508082429E+00    5.5727688107285580E+00    1.0409090030125686E+01
N    3.3467933609501510E+00    7.4278760590981765E+00    1.1016230579502958E+01
Ga    3.3842970845057780E+00    7.4071609684443684E+00    1.3096681846718633E+01
N    3.3751404463219212E+00    5.5650182186896258E+00    1.3506385046734771E+01
Ga    1.6873526493257269E+00    8.4025129255015543E+00   -2.1104957243823058E-01
N    1.6829591647378515E+00    1.0260965502798154E+01    5.7146160157231307E-01
Ga    1.6850177508359825E+00    1.0256599531901481E+01    2.5072398971062460E+00
N    1.6917509608410679E+00    8.3976912508585144E+00    3.1942241127680657E+00
Ga    1.6987377672188031E+00    8.3920756393308924E+00    5.1570669998567098E+00
N    1.6955547842794161E+00    1.0249138898539821E+01    5.8125905037112124E+00
Ga    1.7087726323944832E+00    1.0243946067748144E+01    7.7852056795372064E+00
N    1.7112508784490976E+00    8.3860024637446973E+00    8.4310340027519093E+00
Ga    1.7264605826956769E+00    8.3603440189023956E+00    1.0420740173957499E+01
N    1.7370048669367140E+00    1.0227276721296766E+01    1.1001978218788064E+01
Ga    1.7804316572814447E+00    1.0216358844160226E+01    1.3073468461615134E+01
N    1.7707643384508795E+00    8.3546087804137876E+00    1.3411050279919071E+01
Ga    9.7337014129662212E+00    2.7313829262865099E-02   -2.1297456291795658E-01
N    9.7308049391188032E+00    1.8861213458284294E+00    5.6879565181509839E-01
Ga    9.7334956748239243E+00    1.8824049906800795E+00    2.5043170975784697E+00
N    9.7389823191981666E+00    2.2946716543894644E-02    3.1903135521602648E+00
Ga    9.7450427258503556E+00    1.5800870316994519E-02    5.1519424270588647E+00
N    9.7422808175728353E+00    1.8739373609865253E+00    5.8061366911519672E+00
Ga    9.7534270806415631E+00    1.8694892222336943E+00    7.7766180248552512E+00
N    9.7596491752076613E+00    1.2951796835425508E-02    8.4276603745333230E+00
Ga    9.7888899643813954E+00    6.7320693234015619E-03    1.0414606751612343E+01
N    9.7940443306709426E+00    1.8607669226251002E+00    1.1008706336166712E+01
Ga    9.7832615831384100E+00    1.8094981417324940E+00    1.3024842997164319E+01
N    9.8161494634051998E+00   -8.9869801502611701E-03    1.3523645541963715E+01
Ga    8.1217595224939672E+00    2.8188949753494055E+00   -2.1421283311038375E-01
N    8.1182409314855484E+00    4.6768033999147480E+00    5.6981096883007765E-01
Ga    8.1209461897247035E+00    4.6739497687077618E+00    2.5050556467354195E+00
N    8.1279355509701556E+00    2.8160721644401883E+00    3.1919153011213415E+00
Ga    8.1358911585587457E+00    2.8084667607939622E+00    5.1542782144364594E+00
N    8.1323271828403421E+00    4.6673267374423695E+00    5.8185559858491418E+00
Ga    8.1440943162232813E+00    4.6620921105510416E+00    7.7925053952417604E+00
N    8.1475088576544969E+00    2.8011014124931419E+00    8.4258546893478741E+00
Ga    8.1784719226458886E+00    2.7858603065129373E+00    1.0417163784325835E+01
N    8.1632003885966995E+00    4.6426150948296616E+00    1.1015102594771371E+01
Ga    8.2243369043019623E+00    4.6412401168942754E+00    1.3106335042580968E+01
N    8.2079064412889053E+00    2.7766222241818332E+00    1.3435529880007488E+01
Ga    6.5100580921548454E+00    5.6105630068786327E+00   -2.1261701887769044E-01
N    6.5070799367132768E+00    7.4688437729282349E+00    5.7195906479751191E-01
Ga    6.5097187233239060E+00    7.4653161087979409E+00    2.5075798020950382E+00
N    6.5175777316330450E+00    5.6072628943359248E+00    3.1972847043070671E+00
Ga    6.5257203517743685E+00    5.6002826288878556E+00    5.1605561368166928E+00
N    6.5170082806597884E+00    7.4583145092567218E+00    5.8227669503230199E+00
Ga    6.5285849962505056E+00    7.4536854388593001E+00    7.7976988249730672E+00
N    6.5335206153312928E+00    5.5920950340449371E+00    8.4330358258880036E+00
Ga    6.5558468906734291E+00    5.5747810629823435E+00    1.0425918939695531E+01
N    6.5552456485954425E+00    7.4373808526458172E+00    1.1000677887523571E+01
Ga    6.5855591278810861E+00    7.4272709326581321E+00    1.3067425237151109E+01
N    6.5958323574974074E+00    5.5688926076053651E+00    1.3421801402649734E+01
Ga    4.8982177669917606E+00    8.4020621749915065E+00   -2.1146614273519090E-01
N    4.8953888165446893E+00    1.0261308590726626E+01    5.6941368305281481E-01
Ga    4.8971472648489724E+00    1.0256871756846104E+01    2.5048626144832400E+00
N    4.9046188510171467E+00    8.3982250060903656E+00    3.1943022097570637E+00
Ga    4.9114642929442276E+00    8.3906403063417425E+00    5.1564543709483530E+00
N    4.9045963728559103E+00    1.0248428085778279E+01    5.8113150971142504E+00
Ga    4.9140436475746467E+00    1.0245434803352989E+01    7.7813829167731692E+00
N    4.9211321184237828E+00    8.3907862261668100E+00    8.4372020353935842E+00
Ga    4.9443257575000104E+00    8.3805983915638276E+00    1.0430979350575175E+01
N    4.9314392102227806E+00    1.0227261262099130E+01    1.1047608241125623E+01
Ga    4.9694250767453338E+00    1.0209034577313950E+01    1.3160323459119684E+01
N    4.9837513539152267E+00    8.3515695925042799E+00    1.3491257787590913E+01
H    4.9014437811091316E+00    8.4076745060457476E+00   -1.7630563853742063E+00
H    1.6916511765912046E+00    8.4096239133985371E+00   -1.7625714654888365E+00
H   -1.5200904608077539E+00    8.4084394820530886E+00   -1.7650313510054838E+00
H   -4.7326474332366164E+00    8.4063417420948738E+00   -1.7666780759572398E+00
H    6.5115366530084362E+00    5.6137515773773217E+00   -1.7641982894229449E+00
H    3.3041676968728755E+00    5.6146213904913447E+00   -1.7614642375623653E+00
H    9.3231082384217859E-02    5.6138014622126429E+00   -1.7654452453139096E+00
H   -3.1212057223855307E+00    5.6136337988971876E+00   -1.7647795399275823E+00
H    8.1240175850583096E+00    2.8205034716178701E+00   -1.7659940328121986E+00
H    4.9170401747905030E+00    2.8222940041238189E+00   -1.7641016211106202E+00
H    1.7068225412776670E+00    2.8234252765136687E+00   -1.7689452196323125E+00
H   -1.5092624494967495E+00    2.8219688916127921E+00   -1.7683704219124534E+00
H    1.0319749201360311E-01    3.0459098319342175E-02   -1.7700918769166976E+00
H    3.3171288113926396E+00    3.3084966111606273E-02   -1.7675002218977371E+00
H    6.5278599467414189E+00    3.3672358528982482E-02   -1.7647987253861150E+00
H    9.7374032407867208E+00    3.1539876893636451E-02   -1.7647672103665797E+00
O   -4.4812198054438934E-01    4.4658054521283956E+00    1.6433363529128847E+01
H    1.4028485509642916E-01    5.5567402456197303E+00    1.4652045546837005E+01
C   -1.5628953023292795E+00    4.0543247477151789E+00    1.6732270880043892E+01
H   -1.4198527081001591E+00    2.7239028468429147E+00    1.4610225420737306E+01
H   -1.6875823330785622E+00    3.1649237688715659E+00    1.7385591651797618E+01
H   -2.4788985691133401E+00    4.5416804191701701E+00    1.6348712375743933E+01
     &END COORD
     &KIND C
       BASIS_SET DZVP-MOLOPT-SR-GTH-q4
       POTENTIAL GTH-PBE-q4
       &POTENTIAL
 2 2
  0.3384712400000000E+00 2 -0.8803673979999999E+01  0.1339210850000000E+01
 2
  0.3025757500000000E+00 1  0.9622486650000001E+01
  0.2915069400000000E+00 0
         # Potential name:  GTH-PBE-Q4  for symbol:  C
         # Potential read from the potential filename: GTH_POTENTIALS
       &END POTENTIAL
     &END KIND
     &KIND O
       BASIS_SET DZVP-MOLOPT-SR-GTH-q6
       POTENTIAL GTH-PBE-q6
       &POTENTIAL
 2 4
  0.2445543000000000E+00 2 -0.1666721480000000E+02  0.2487311320000000E+01
 2
  0.2209559200000000E+00 1  0.1833745811000000E+02
  0.2113324700000000E+00 0
         # Potential name:  GTH-PBE-Q6  for symbol:  O
         # Potential read from the potential filename: GTH_POTENTIALS
       &END POTENTIAL
     &END KIND
     &KIND H
       BASIS_SET DZVP-MOLOPT-SR-GTH-q1
       POTENTIAL GTH-PBE-q1
       &POTENTIAL
 1
  0.2000000000000000E+00 2 -0.4178900440000000E+01  0.7244633100000000E+00
 0
         # Potential name:  GTH-PBE-Q1  for symbol:  H
         # Potential read from the potential filename: GTH_POTENTIALS
       &END POTENTIAL
     &END KIND
     &KIND N
       BASIS_SET DZVP-MOLOPT-SR-GTH-q5
       POTENTIAL GTH-PBE-q5
       &POTENTIAL
 2 3
  0.2837905100000000E+00 2 -0.1241522559000000E+02  0.1868095920000000E+01
 2
  0.2554050000000000E+00 1  0.1363026257000000E+02
  0.2454945300000000E+00 0
         # Potential name:  GTH-PBE-Q5  for symbol:  N
         # Potential read from the potential filename: GTH_POTENTIALS
       &END POTENTIAL
     &END KIND
     &KIND Ga
       BASIS_SET DZVP-MOLOPT-SR-GTH-q13
       POTENTIAL GTH-PBE-q13
       &POTENTIAL
 2 1 10
  0.4900000000000000E+00 0
 3
  0.4167772300000000E+00 3  0.1047568975000000E+02 -0.4921768140000000E+01  0.8707055900000000E+00
  0.7770178090000000E+01 -0.2248152160000000E+01
  0.1784415450000000E+01
  0.5696265200000000E+00 2  0.1777985340000000E+01  0.1958597600000000E+00
 -0.2317443900000000E+00
  0.2381265000000000E+00 1 -0.1624868022000000E+02
         # Potential name:  GTH-PBE-Q13  for symbol:  GA
         # Potential read from the potential filename: GTH_POTENTIALS
       &END POTENTIAL
     &END KIND
     &TOPOLOGY
       NUMBER_OF_ATOMS  214
       MULTIPLE_UNIT_CELL  1 1 1
     &END TOPOLOGY
   &END SUBSYS
 &END FORCE_EVAL
