 # Version information for this restart file 
 # current date 2019-05-26 14:47:53.137
 # current working dir /lustre03/project/6004141/rzk/GaN-carbene/01-Methanol/443-capped/03-both-ads
 # Program compiled at                              Sun Apr  7 00:48:11 EDT 2019
 # Program compiled on                          beluga2.int.ets1.calculquebec.ca
 # Program compiled for                        Beluga-Linux-x86-64-intel-openmpi
 # Source code revision number                                         svn:18619
 &GLOBAL
   PRINT_LEVEL  MEDIUM
   PROJECT_NAME TEST
   RUN_TYPE  GEO_OPT
 &END GLOBAL
 &MOTION
   &GEO_OPT
     MAX_ITER  500
     STEP_START_VAL  66
   &END GEO_OPT
 &END MOTION
 &FORCE_EVAL
   METHOD  QS
   STRESS_TENSOR  ANALYTICAL
   &DFT
     BASIS_SET_FILE_NAME BASIS_MOLOPT
     POTENTIAL_FILE_NAME GTH_POTENTIALS
     SURFACE_DIPOLE_CORRECTION  T
     SURF_DIP_DIR  Z
     &SCF
       MAX_SCF  100
       EPS_SCF     5.0000000000000004E-06
       &OT  T
         PRECONDITIONER  FULL_ALL
       &END OT
       &OUTER_SCF  T
         OPTIMIZER  NONE
         EPS_SCF     5.0000000000000004E-06
         MAX_SCF  4
       &END OUTER_SCF
       &PRINT
         &RESTART  OFF
           BACKUP_COPIES  1
           &EACH
             JUST_ENERGY  0
             QS_SCF  0
             MD  20
           &END EACH
         &END RESTART
       &END PRINT
     &END SCF
     &QS
       EPS_DEFAULT     1.0000000000000000E-14
       METHOD  GPW
     &END QS
     &MGRID
       NGRIDS  5
       CUTOFF     1.2000000000000000E+03
     &END MGRID
     &XC
       DENSITY_CUTOFF     1.0000000000000000E-10
       GRADIENT_CUTOFF     1.0000000000000000E-10
       TAU_CUTOFF     1.0000000000000000E-10
       &XC_FUNCTIONAL  NO_SHORTCUT
         &PBE  T
         &END PBE
       &END XC_FUNCTIONAL
       &VDW_POTENTIAL
         POTENTIAL_TYPE  PAIR_POTENTIAL
         &PAIR_POTENTIAL
           R_CUTOFF     1.0000000000000005E+01
           TYPE  DFTD3
           PARAMETER_FILE_NAME dftd3.dat
           REFERENCE_FUNCTIONAL PBE
           EPS_CN     9.9999999999999995E-07
           CALCULATE_C9_TERM  T
           REFERENCE_C9_TERM  T
           LONG_RANGE_CORRECTION  F
           VERBOSE_OUTPUT  F
         &END PAIR_POTENTIAL
       &END VDW_POTENTIAL
     &END XC
   &END DFT
   &SUBSYS
     &CELL
       A     1.2845720507224698E+01    0.0000000000000000E+00    0.0000000000000000E+00
       B    -6.4473440219514533E+00    1.1167127419895399E+01    0.0000000000000000E+00
       C     0.0000000000000000E+00    0.0000000000000000E+00    2.9000000000000000E+01
       MULTIPLE_UNIT_CELL  1 1 1
       &CELL_REF
         A     1.2982353780853531E+01    0.0000000000000000E+00    0.0000000000000000E+00
         B    -6.4911768904267628E+00    1.1243048175136114E+01    0.0000000000000000E+00
         C     0.0000000000000000E+00    0.0000000000000000E+00    2.9000000000000000E+01
         MULTIPLE_UNIT_CELL  1 1 1
       &END CELL_REF
     &END CELL
     &COORD
Ga    1.0341135698681447E-01    2.4189424946618333E-02   -2.1676887658317934E-01
N    9.8794631028615479E-02    1.8833605540002933E+00    5.6543927983559839E-01
Ga    1.0266828891525702E-01    1.8792332516108066E+00    2.4993852091243838E+00
N    1.0941316975926797E-01    2.1027859099521533E-02    3.1877717170482458E+00
Ga    1.1450888764856261E-01    1.4052611319333741E-02    5.1483929771354502E+00
N    1.0935334545249059E-01    1.8714817753515429E+00    5.8054899845155150E+00
Ga    1.2105217345346117E-01    1.8679935816117896E+00    7.7757583892961382E+00
N    1.2447366597925562E-01    7.2870672255691280E-03    8.4270744764108301E+00
Ga    1.3632171570916202E-01    5.9517310006032753E-03    1.0418942849771573E+01
N    1.2392658887121813E-01    1.8637598859932607E+00    1.1001404029306556E+01
Ga    1.9562641526652788E-01    1.8286610711522953E+00    1.3011005236648467E+01
N    1.8050061913822793E-01   -1.6138930633840126E-03    1.3475748843706240E+01
Ga   -1.5085769191426477E+00    2.8167730042307846E+00   -2.1660791093180295E-01
N   -1.5129051574534604E+00    4.6759269990963475E+00    5.6796311875569438E-01
Ga   -1.5092648202355450E+00    4.6722893055878103E+00    2.5027819237656157E+00
N   -1.5023605733920999E+00    2.8122476695942304E+00    3.1872857121807359E+00
Ga   -1.4993442813732649E+00    2.8057464077352319E+00    5.1483442928851240E+00
N   -1.5052425746929510E+00    4.6647340555656722E+00    5.7999186749341725E+00
Ga   -1.4934920945159242E+00    4.6611778608056698E+00    7.7655535327585801E+00
N   -1.4862655017261257E+00    2.8064264476503089E+00    8.4079127917182426E+00
Ga   -1.4673782852920751E+00    2.8057546401515223E+00    1.0375700376929052E+01
N   -1.4618488209860023E+00    4.6397272625530039E+00    1.1044727987491550E+01
Ga   -1.4837055108898896E+00    4.6547467003435123E+00    1.3035917675142004E+01
N   -1.4314013216599260E+00    2.7686866603010594E+00    1.3591472157962906E+01
Ga   -3.1202309092875198E+00    5.6089109006450251E+00   -2.1483713849694505E-01
N   -3.1247742511718761E+00    7.4683367720343536E+00    5.6854886618884759E-01
Ga   -3.1215666355162686E+00    7.4646224167883926E+00    2.5032536292720682E+00
N   -3.1161577184379903E+00    5.6056036669326028E+00    3.1882655871255916E+00
Ga   -3.1116682315897237E+00    5.5985569813371230E+00    5.1488008031940735E+00
N   -3.1149284852047909E+00    7.4547689311010998E+00    5.8111969684585016E+00
Ga   -3.1010319192482219E+00    7.4491077806753614E+00    7.7825238685355602E+00
N   -3.0952396620945883E+00    5.5912202021809163E+00    8.4352282063971522E+00
Ga   -3.0697953289922877E+00    5.5752832356861637E+00    1.0423052391644395E+01
N   -3.0925796569517390E+00    7.4246276126654021E+00    1.1044356395047123E+01
Ga   -3.0626011992182907E+00    7.3869695621259783E+00    1.3154584485490554E+01
N   -3.0439348831697317E+00    5.5533102047634237E+00    1.3622717002130971E+01
Ga   -4.7324338596758508E+00    8.4000757825091021E+00   -2.1507406879748178E-01
N   -4.7364939062986728E+00    1.0258765479564099E+01    5.6826847578800666E-01
Ga   -4.7322165104867882E+00    1.0254384380971814E+01    2.5031869810343208E+00
N   -4.7269926697902420E+00    8.3966308798440039E+00    3.1925331002202344E+00
Ga   -4.7214389031297657E+00    8.3886956154438650E+00    5.1547580619364277E+00
N   -4.7272762020579977E+00    1.0247871974922438E+01    5.8095730288215526E+00
Ga   -4.7160139692111640E+00    1.0242772791716520E+01    7.7804201545561824E+00
N   -4.7040044246334896E+00    8.3847559956585815E+00    8.4279254276935411E+00
Ga   -4.6837133544444898E+00    8.3685661980707913E+00    1.0418819420571310E+01
N   -4.7033112540274757E+00    1.0228832984597078E+01    1.0997193275188280E+01
Ga   -4.6696264134767667E+00    1.0222952524749443E+01    1.3068451022088624E+01
N   -4.6586560138453770E+00    8.3670118266558422E+00    1.3448170937488072E+01
Ga    3.3150694297903733E+00    2.4491226517789844E-02   -2.1556047954045887E-01
N    3.3116426461111330E+00    1.8832818655382042E+00    5.6787927328694154E-01
Ga    3.3155741604677575E+00    1.8792165360883626E+00    2.5021030452903750E+00
N    3.3207328259842832E+00    2.0359229007687489E-02    3.1895948972820594E+00
Ga    3.3273759564342575E+00    1.3969303530094688E-02    5.1510357379856844E+00
N    3.3202760219434984E+00    1.8730232787088981E+00    5.8031003824001255E+00
Ga    3.3297291446868629E+00    1.8685202148901165E+00    7.7722296711119068E+00
N    3.3385671842104530E+00    1.0798368775130669E-02    8.4189544356993427E+00
Ga    3.3532134960182161E+00   -2.2481215134348212E-03    1.0404580024937422E+01
N    3.3407000037339722E+00    1.8561301541716431E+00    1.1006607229904727E+01
Ga    3.3726944653260635E+00    1.8453258993941168E+00    1.3083202091415840E+01
N    3.3898571220410569E+00   -1.3831843141935951E-02    1.3455242719206970E+01
Ga    1.7037440383673703E+00    2.8168796282186279E+00   -2.1558691718655998E-01
N    1.6995314285718288E+00    4.6761489188813172E+00    5.6809011610803295E-01
Ga    1.7035057214824358E+00    4.6727343709401898E+00    2.5023059086191335E+00
N    1.7083111091554968E+00    2.8122735949183935E+00    3.1852863996209972E+00
Ga    1.7146445705755384E+00    2.8060011653294801E+00    5.1448953221985567E+00
N    1.7091438672337367E+00    4.6632819692609857E+00    5.8030582318713595E+00
Ga    1.7201188737580630E+00    4.6589506446367217E+00    7.7711223060927948E+00
N    1.7276806560465614E+00    2.8000073868768842E+00    8.4186953038443235E+00
Ga    1.7281471304804183E+00    2.7996021364183523E+00    1.0404487120548630E+01
N    1.7258871491627858E+00    4.6513273892907767E+00    1.1021891210134523E+01
Ga    1.7886572659532936E+00    4.6335105938021375E+00    1.3049554243144224E+01
N    1.7675266899389865E+00    2.7879881650092360E+00    1.3463330120148743E+01
Ga    9.1611968015919837E-02    5.6089028825928917E+00   -2.1447028692134706E-01
N    8.7078409403415977E-02    7.4684217271658451E+00    5.6830083311567769E-01
Ga    9.1305280356445889E-02    7.4644910531473521E+00    2.5027677283550758E+00
N    9.6868598070797410E-02    5.6055484748261870E+00    3.1876826944295336E+00
Ga    1.0156242587669823E-01    5.5989132593205246E+00    5.1482783995885546E+00
N    9.6651876130019312E-02    7.4563593769480381E+00    5.8096312567712793E+00
Ga    1.0707580911469486E-01    7.4517945496299776E+00    7.7812560280711836E+00
N    1.1165648632466339E-01    5.5880020348135959E+00    8.4132399559680131E+00
Ga    1.2531190995125610E-01    5.5712718671066499E+00    1.0383738579994889E+01
N    1.2690478223071822E-01    7.4127550456117657E+00    1.1025687565207482E+01
Ga    1.5693613828397110E-01    7.4461627893131457E+00    1.3050550711065393E+01
N    1.5753170569735123E-01    5.5712640253084205E+00    1.3619353970947365E+01
Ga   -1.5204440857342474E+00    8.4007858101744635E+00   -2.1543562041719591E-01
N   -1.5244247151896002E+00    1.0259534355084332E+01    5.6907473666602482E-01
Ga   -1.5202251017533264E+00    1.0255568815729575E+01    2.5038673056064935E+00
N   -1.5152693436888394E+00    8.3965601505607257E+00    3.1896984216002151E+00
Ga   -1.5100458917079038E+00    8.3893389941460725E+00    5.1509894791018223E+00
N   -1.5155931303133054E+00    1.0245649324357304E+01    5.8090163269577850E+00
Ga   -1.5038587519709283E+00    1.0237729337347965E+01    7.7815207261968347E+00
N   -1.4998731274007764E+00    8.3816540369741190E+00    8.4377453176637918E+00
Ga   -1.4828031851530037E+00    8.3578565450237292E+00    1.0432928782360303E+01
N   -1.4844578266135653E+00    1.0229265704440907E+01    1.0989173371045277E+01
Ga   -1.4582239383092070E+00    1.0213357377440605E+01    1.3048519892790186E+01
N   -1.4535949105342478E+00    8.3573910470848407E+00    1.3432564088062154E+01
Ga    6.5267391325828434E+00    2.5126322363805954E-02   -2.1449929651879546E-01
N    6.5230151305013564E+00    1.8837363344953744E+00    5.6974949463436098E-01
Ga    6.5271008327393298E+00    1.8798903002528784E+00    2.5045587699242029E+00
N    6.5325203296029892E+00    2.1244215872597453E-02    3.1921579138766933E+00
Ga    6.5380835985279635E+00    1.3476929852134931E-02    5.1549220949028474E+00
N    6.5319463346753261E+00    1.8731537164495962E+00    5.8089264068734963E+00
Ga    6.5415464889231876E+00    1.8665370131243706E+00    7.7805806872939538E+00
N    6.5502147453135757E+00    4.5819823913429954E-03    8.4155767858665911E+00
Ga    6.5729948373868057E+00   -7.4332328606387457E-03    1.0400431501238138E+01
N    6.5633900380066086E+00    1.8533061169212368E+00    1.0991278150564121E+01
Ga    6.5923111950015185E+00    1.8438990702497593E+00    1.3054105086458952E+01
N    6.6000527073504642E+00   -1.6185783487254645E-02    1.3424350484590990E+01
Ga    4.9155508532760521E+00    2.8168288234064249E+00   -2.1490417314175109E-01
N    4.9111876202529015E+00    4.6760023086851223E+00    5.6923481897903405E-01
Ga    4.9153387218925211E+00    4.6726193175085200E+00    2.5033107384913804E+00
N    4.9209754116768654E+00    2.8137249100360342E+00    3.1893323292007554E+00
Ga    4.9262249596414884E+00    2.8065346620878113E+00    5.1505234488560818E+00
N    4.9204055051225364E+00    4.6643625641664199E+00    5.8129903621005532E+00
Ga    4.9297519037277766E+00    4.6584845322624311E+00    7.7860094374133153E+00
N    4.9354762615321963E+00    2.7959744448931154E+00    8.4244066039785839E+00
Ga    4.9571788944441053E+00    2.7917778978966927E+00    1.0413802690061789E+01
N    4.9457445773310722E+00    4.6441835460010443E+00    1.1018491885288180E+01
Ga    4.9723740526925910E+00    4.6379202847230454E+00    1.3105097439492319E+01
N    4.9871416260965162E+00    2.7770448786126072E+00    1.3449879269246191E+01
Ga    3.3035761340915393E+00    5.6087981350597991E+00   -2.1496898937128747E-01
N    3.2985875472463788E+00    7.4678595147854869E+00    5.6944337537280110E-01
Ga    3.3032342510330364E+00    7.4641492176239552E+00    2.5038938354597646E+00
N    3.3096761969031001E+00    5.6053364522416889E+00    3.1907300459321952E+00
Ga    3.3143921135821697E+00    5.5989843923349394E+00    5.1519388748385806E+00
N    3.3098570082471119E+00    7.4563403338355911E+00    5.8147793723474877E+00
Ga    3.3185802248750940E+00    7.4505504766830750E+00    7.7870901978346927E+00
N    3.3225460635306270E+00    5.5905793473264795E+00    8.4279637003896219E+00
Ga    3.3353158844142978E+00    5.5721048957013686E+00    1.0416065684808890E+01
N    3.3427024467315540E+00    7.4281655285970594E+00    1.1015937414145105E+01
Ga    3.3826965535044762E+00    7.4214962260421204E+00    1.3089768144102306E+01
N    3.3695117125527942E+00    5.5743651989988505E+00    1.3496854915596492E+01
Ga    1.6913557096472216E+00    8.4006034103634768E+00   -2.1506754767804603E-01
N    1.6866718935232019E+00    1.0259326301028638E+01    5.6989261783916123E-01
Ga    1.6909870587751250E+00    1.0255208759463654E+01    2.5050098519960082E+00
N    1.6972184379317568E+00    8.3961385871164715E+00    3.1912238714201657E+00
Ga    1.7026673940538790E+00    8.3895371921762951E+00    5.1534155569533837E+00
N    1.6990470609601067E+00    1.0247024854927968E+01    5.8079921177405378E+00
Ga    1.7110123630388687E+00    1.0239835222285306E+01    7.7792088433348949E+00
N    1.7110836233099491E+00    8.3836699258615557E+00    8.4316833042978470E+00
Ga    1.7238489518825872E+00    8.3637656128083382E+00    1.0422355469041918E+01
N    1.7361670712423938E+00    1.0231657423756525E+01    1.1002224691119046E+01
Ga    1.7806361296624547E+00    1.0226686549560435E+01    1.3070403953443190E+01
N    1.7697586717825255E+00    8.3638997299586872E+00    1.3419919578660542E+01
Ga    9.7376615718112163E+00    2.4804014797652284E-02   -2.1489673670399545E-01
N    9.7330404722930943E+00    1.8841616092937474E+00    5.6780153477156192E-01
Ga    9.7372031237893886E+00    1.8801153189365365E+00    2.5024500043775588E+00
N    9.7443312673863751E+00    2.1574163107789739E-02    3.1892293375664269E+00
Ga    9.7482035766337134E+00    1.4446409898467865E-02    5.1506483198492470E+00
N    9.7424711565941280E+00    1.8723718233609963E+00    5.8065202695612719E+00
Ga    9.7532486634066675E+00    1.8660755046250910E+00    7.7765170968441089E+00
N    9.7612950264873799E+00    1.1043934846158929E-02    8.4257945489665182E+00
Ga    9.7877836753839684E+00    8.0412219076367031E-03    1.0412572587293567E+01
N    9.7942138642563403E+00    1.8639148358627131E+00    1.1018980724509344E+01
Ga    9.7827112403557344E+00    1.8125193655617813E+00    1.3034965410569077E+01
N    9.8151765030826770E+00   -7.2048412265379594E-03    1.3533182321096982E+01
Ga    8.1259316845366243E+00    2.8168194971182614E+00   -2.1585567284352886E-01
N    8.1210581344859367E+00    4.6759988259360092E+00    5.6815061505723363E-01
Ga    8.1246767652139873E+00    4.6724546874486306E+00    2.5027827059465042E+00
N    8.1323730122200857E+00    2.8141989826479161E+00    3.1907554786546375E+00
Ga    8.1359539839722963E+00    2.8066051073306149E+00    5.1529375632692647E+00
N    8.1311290521233346E+00    4.6648256200664555E+00    5.8143513825796198E+00
Ga    8.1417142182713587E+00    4.6584246128298270E+00    7.7873026013065534E+00
N    8.1480854744637004E+00    2.7989636527694652E+00    8.4287414381871546E+00
Ga    8.1794447962776964E+00    2.7909706972571930E+00    1.0418248150498510E+01
N    8.1666159600193691E+00    4.6485065856928269E+00    1.1020924844085156E+01
Ga    8.2134545567021267E+00    4.6441900394544913E+00    1.3107382580562872E+01
N    8.2015295653718301E+00    2.7765828747982351E+00    1.3436891706506222E+01
Ga    6.5141829558183462E+00    5.6090122178803554E+00   -2.1594588935846659E-01
N    6.5098356547721368E+00    7.4672799074875824E+00    5.7024230939214504E-01
Ga    6.5138715073446942E+00    7.4636459113465952E+00    2.5054197696504290E+00
N    6.5201451019599101E+00    5.6051852805866771E+00    3.1935721586592898E+00
Ga    6.5244545528213118E+00    5.5981474822881134E+00    5.1563592799131737E+00
N    6.5193316964939685E+00    7.4559134142996903E+00    5.8180360650585312E+00
Ga    6.5301926196283890E+00    7.4515258260417028E+00    7.7908056660491090E+00
N    6.5376299318912467E+00    5.5908258787156049E+00    8.4350796950854772E+00
Ga    6.5547717948874835E+00    5.5785045929001118E+00    1.0429685652822149E+01
N    6.5495754484374995E+00    7.4414822179695266E+00    1.1005339273435187E+01
Ga    6.5782601643474692E+00    7.4265779464048114E+00    1.3077327732518681E+01
N    6.5879361756115751E+00    5.5738185182110236E+00    1.3449508342886244E+01
Ga    4.9026779340979729E+00    8.4000535825799734E+00   -2.1458550936309159E-01
N    4.8977808873456796E+00    1.0258921405393075E+01    5.6859274091118661E-01
Ga    4.9019985315577568E+00    1.0254566976168398E+01    2.5033219161808318E+00
N    4.9084508719476219E+00    8.3964775622757397E+00    3.1922006462585553E+00
Ga    4.9128425219905525E+00    8.3886493462237670E+00    5.1541472710721470E+00
N    4.9089599567111648E+00    1.0247591850166939E+01    5.8085210246948060E+00
Ga    4.9171827417030389E+00    1.0242666786087970E+01    7.7779660859389708E+00
N    4.9245295476490121E+00    8.3890565128693364E+00    8.4343239410391195E+00
Ga    4.9444315946023059E+00    8.3796927159325421E+00    1.0427194899873143E+01
N    4.9318111990836613E+00    1.0228742429936343E+01    1.1043649059544842E+01
Ga    4.9702826396683815E+00    1.0215770135993429E+01    1.3152059064493539E+01
N    4.9800725601462146E+00    8.3586882842961270E+00    1.3495112051055596E+01
H    4.9045886224107331E+00    8.4051418311106776E+00   -1.7666695878573315E+00
H    1.6944117613551086E+00    8.4072613302414769E+00   -1.7671484362829164E+00
H   -1.5183991369999752E+00    8.4067369375616536E+00   -1.7674786639629745E+00
H   -4.7309483477031957E+00    8.4045436161226768E+00   -1.7671279322747295E+00
H    6.5147413943463031E+00    5.6154230094075137E+00   -1.7679356193281539E+00
H    3.3078378651014484E+00    5.6156901442769227E+00   -1.7668265641409757E+00
H    9.5292780615338399E-02    5.6150374311354234E+00   -1.7663785905583989E+00
H   -3.1185709027496329E+00    5.6151955097079291E+00   -1.7670196670240121E+00
H    8.1267172907104168E+00    2.8225217874685846E+00   -1.7679369891977104E+00
H    4.9196299596331334E+00    2.8244066112661286E+00   -1.7668130128689643E+00
H    1.7090459233799828E+00    2.8242064483124469E+00   -1.7673642030106633E+00
H   -1.5073267495765874E+00    2.8240555194235495E+00   -1.7686056593196007E+00
H    1.0522240904794157E-01    2.9190581600886022E-02   -1.7687440522349447E+00
H    3.3187452537576041E+00    3.0871825100653290E-02   -1.7675439062820355E+00
H    6.5291792397573278E+00    3.1606254457890844E-02   -1.7665610873936144E+00
H    9.7392641259990818E+00    3.0821525441434513E-02   -1.7670124239009690E+00
O   -4.7221705762108035E-01    4.4685249007265595E+00    1.6451318785987418E+01
H    1.2016418318794014E-01    5.5524980608051679E+00    1.4648931399878540E+01
C   -1.5879292439379604E+00    4.0818262714694136E+00    1.6765327914240526E+01
H   -1.4137505897615656E+00    2.7359344006111361E+00    1.4615401034850439E+01
H   -1.7105263234526948E+00    3.2067096881012631E+00    1.7441586715086949E+01
H   -2.5116302726843576E+00    4.5653114378664181E+00    1.6369616564653398E+01
     &END COORD
     &KIND C
       BASIS_SET DZVP-MOLOPT-SR-GTH-q4
       POTENTIAL GTH-PBE-q4
       &POTENTIAL
 2 2
  0.3384712400000000E+00 2 -0.8803673979999999E+01  0.1339210850000000E+01
 2
  0.3025757500000000E+00 1  0.9622486650000001E+01
  0.2915069400000000E+00 0
         # Potential name:  GTH-PBE-Q4  for symbol:  C
         # Potential read from the potential filename: GTH_POTENTIALS
       &END POTENTIAL
     &END KIND
     &KIND O
       BASIS_SET DZVP-MOLOPT-SR-GTH-q6
       POTENTIAL GTH-PBE-q6
       &POTENTIAL
 2 4
  0.2445543000000000E+00 2 -0.1666721480000000E+02  0.2487311320000000E+01
 2
  0.2209559200000000E+00 1  0.1833745811000000E+02
  0.2113324700000000E+00 0
         # Potential name:  GTH-PBE-Q6  for symbol:  O
         # Potential read from the potential filename: GTH_POTENTIALS
       &END POTENTIAL
     &END KIND
     &KIND H
       BASIS_SET DZVP-MOLOPT-SR-GTH-q1
       POTENTIAL GTH-PBE-q1
       &POTENTIAL
 1
  0.2000000000000000E+00 2 -0.4178900440000000E+01  0.7244633100000000E+00
 0
         # Potential name:  GTH-PBE-Q1  for symbol:  H
         # Potential read from the potential filename: GTH_POTENTIALS
       &END POTENTIAL
     &END KIND
     &KIND N
       BASIS_SET DZVP-MOLOPT-SR-GTH-q5
       POTENTIAL GTH-PBE-q5
       &POTENTIAL
 2 3
  0.2837905100000000E+00 2 -0.1241522559000000E+02  0.1868095920000000E+01
 2
  0.2554050000000000E+00 1  0.1363026257000000E+02
  0.2454945300000000E+00 0
         # Potential name:  GTH-PBE-Q5  for symbol:  N
         # Potential read from the potential filename: GTH_POTENTIALS
       &END POTENTIAL
     &END KIND
     &KIND Ga
       BASIS_SET DZVP-MOLOPT-SR-GTH-q13
       POTENTIAL GTH-PBE-q13
       &POTENTIAL
 2 1 10
  0.4900000000000000E+00 0
 3
  0.4167772300000000E+00 3  0.1047568975000000E+02 -0.4921768140000000E+01  0.8707055900000000E+00
  0.7770178090000000E+01 -0.2248152160000000E+01
  0.1784415450000000E+01
  0.5696265200000000E+00 2  0.1777985340000000E+01  0.1958597600000000E+00
 -0.2317443900000000E+00
  0.2381265000000000E+00 1 -0.1624868022000000E+02
         # Potential name:  GTH-PBE-Q13  for symbol:  GA
         # Potential read from the potential filename: GTH_POTENTIALS
       &END POTENTIAL
     &END KIND
     &TOPOLOGY
       NUMBER_OF_ATOMS  214
       MULTIPLE_UNIT_CELL  1 1 1
     &END TOPOLOGY
   &END SUBSYS
 &END FORCE_EVAL
