 # Version information for this restart file 
 # current date 2019-07-03 12:02:00.922
 # current working dir /lustre04/scratch/rzk/rzk/GaN-carbene/443-adatoms-both-2x2/07-CH3O-H2O-H3C/02-Use0401
 # Program compiled at                              Sun Apr  7 00:48:11 EDT 2019
 # Program compiled on                          beluga2.int.ets1.calculquebec.ca
 # Program compiled for                        Beluga-Linux-x86-64-intel-openmpi
 # Source code revision number                                         svn:18619
 &GLOBAL
   PRINT_LEVEL  MEDIUM
   PROJECT_NAME TEST
   RUN_TYPE  GEO_OPT
 &END GLOBAL
 &MOTION
   &GEO_OPT
     MAX_ITER  500
     STEP_START_VAL  83
   &END GEO_OPT
 &END MOTION
 &FORCE_EVAL
   METHOD  QS
   STRESS_TENSOR  ANALYTICAL
   &DFT
     BASIS_SET_FILE_NAME BASIS_MOLOPT
     POTENTIAL_FILE_NAME GTH_POTENTIALS
     UKS  T
     SURFACE_DIPOLE_CORRECTION  T
     SURF_DIP_DIR  Z
     &SCF
       MAX_SCF  80
       EPS_SCF     5.0000000000000004E-06
       &OT  T
         PRECONDITIONER  FULL_ALL
       &END OT
       &OUTER_SCF  T
         OPTIMIZER  NONE
         EPS_SCF     5.0000000000000004E-06
         MAX_SCF  4
       &END OUTER_SCF
       &PRINT
         &RESTART  OFF
           BACKUP_COPIES  1
           &EACH
             JUST_ENERGY  0
             QS_SCF  0
             MD  20
           &END EACH
         &END RESTART
       &END PRINT
     &END SCF
     &QS
       EPS_DEFAULT     1.0000000000000000E-14
       METHOD  GPW
     &END QS
     &MGRID
       NGRIDS  5
       CUTOFF     1.2000000000000000E+03
     &END MGRID
     &XC
       DENSITY_CUTOFF     1.0000000000000000E-10
       GRADIENT_CUTOFF     1.0000000000000000E-10
       TAU_CUTOFF     1.0000000000000000E-10
       &XC_FUNCTIONAL  NO_SHORTCUT
         &PBE  T
         &END PBE
       &END XC_FUNCTIONAL
       &VDW_POTENTIAL
         POTENTIAL_TYPE  PAIR_POTENTIAL
         &PAIR_POTENTIAL
           R_CUTOFF     1.0000000000000004E+01
           TYPE  DFTD3
           PARAMETER_FILE_NAME dftd3.dat
           REFERENCE_FUNCTIONAL PBE
           EPS_CN     9.9999999999999995E-07
           CALCULATE_C9_TERM  T
           REFERENCE_C9_TERM  T
           LONG_RANGE_CORRECTION  F
           VERBOSE_OUTPUT  F
         &END PAIR_POTENTIAL
       &END VDW_POTENTIAL
     &END XC
   &END DFT
   &SUBSYS
     &CELL
       A     1.2864472766435110E+01    0.0000000000000000E+00    0.0000000000000000E+00
       B    -6.4322363581020028E+00    1.1140960178524473E+01    0.0000000000000000E+00
       C     0.0000000000000000E+00    0.0000000000000000E+00    3.2000000000000000E+01
       MULTIPLE_UNIT_CELL  1 1 1
       &CELL_REF
         A     1.2982353780853531E+01    0.0000000000000000E+00    0.0000000000000000E+00
         B    -6.4911768904267628E+00    1.1243048175136114E+01    0.0000000000000000E+00
         C     0.0000000000000000E+00    0.0000000000000000E+00    3.2000000000000000E+01
         MULTIPLE_UNIT_CELL  1 1 1
       &END CELL_REF
     &END CELL
     &COORD
N    1.0180539543304290E-01    1.9545840026609689E+00    2.5104688943358084E+00
Ga    1.1859532897329504E-01   -1.5586026416105516E-02    2.8193621206778019E+00
N    1.0612116608435423E-01   -4.3954139287305988E-02    5.0312629524481398E+00
Ga    1.0398726149946810E-01    1.7840494426862834E+00    5.7982482424354274E+00
N    1.0225553402267416E-01    1.7992055022676516E+00    7.8055540621325337E+00
Ga    1.0102036698172913E-01   -4.5311234323099608E-02    8.4463721093299640E+00
N    1.0175010692794499E-01   -4.7098148018687322E-02    1.0423338599043886E+01
Ga    1.0167127830519226E-01    1.7938665130849607E+00    1.1069135752857045E+01
N    1.0214533693697017E-01    1.7738525325630492E+00    1.3065926451135384E+01
Ga    1.0146478167452951E-01   -4.6215293946742252E-02    1.3866758113397125E+01
N    1.0091047741727269E-01   -4.7226449709792458E-02    1.6071536957604454E+01
Ga    1.0238213081243627E-01    1.9910938824925979E+00    1.6480949460410191E+01
Ga    7.4483600113903536E-02    3.6491902509879028E+00    1.3284779675023604E+00
N   -1.3846892735186829E+00    4.5313895876709926E+00    2.5137700803460583E+00
Ga   -1.5694565622492325E+00    2.6896938869759892E+00    3.2754122033299549E+00
N   -1.5067508871112845E+00    2.7403697339452502E+00    5.2603289415641061E+00
Ga   -1.5325606592224994E+00    4.6045278228316562E+00    5.8064967445092810E+00
N   -1.5154433652813726E+00    4.6039734050376344E+00    7.8057158018739727E+00
Ga   -1.4966277782672246E+00    2.7423306326154204E+00    8.4355602638491121E+00
N   -1.4961182510913751E+00    2.7452525766187810E+00    1.0433950014375711E+01
Ga   -1.5207321814026720E+00    4.6025025070510317E+00    1.1072197502537982E+01
N   -1.5374313651538729E+00    4.6135522760577246E+00    1.3067707789617661E+01
Ga   -1.4946753522500706E+00    2.7445509121482532E+00    1.3621822153310296E+01
N   -1.5215384663082732E+00    2.7293827911543658E+00    1.5586249869950867E+01
Ga   -1.3488866330771900E+00    4.5044643597297629E+00    1.6481707852322945E+01
N    9.4791423035286565E-02    3.6620715813019404E+00    1.7616728749951868E+01
N   -3.1174409213497269E+00    7.5123133096697057E+00    2.5020262226458483E+00
Ga   -3.0705410544209615E+00    5.5358515555486312E+00    2.8471925266609053E+00
N   -3.1141693797919183E+00    5.5244685432391964E+00    5.0300045125748714E+00
Ga   -3.1147359671373946E+00    7.3450054328466283E+00    5.8088336700748959E+00
N   -3.1150931406662328E+00    7.3717707430069570E+00    7.8028254414632983E+00
Ga   -3.1126276383954283E+00    5.5248940192639804E+00    8.4519239827702481E+00
N   -3.1140224216242456E+00    5.5250269793055615E+00    1.0425223323644522E+01
Ga   -3.1136315331411000E+00    7.3634437404844251E+00    1.1076159036348617E+01
N   -3.1137564052806606E+00    7.3442018673467446E+00    1.3069971350831400E+01
Ga   -3.1140831960663666E+00    5.5228855641377921E+00    1.3868972363025359E+01
N   -3.1151788853529467E+00    5.5227602477585824E+00    1.6072803487641330E+01
Ga   -3.1137631234398033E+00    7.5614959272579485E+00    1.6482097361411004E+01
Ga   -3.0888631763973722E+00    9.3048051018228204E+00    1.3160758103767360E+00
N   -4.6049871354352758E+00    1.0097623455580681E+01    2.4969946377952632E+00
Ga   -4.7236783803364766E+00    8.3202560851682694E+00    3.3086844880487720E+00
N   -4.7348071956757760E+00    8.3023481736338276E+00    5.2530796868823382E+00
Ga   -4.7518275988135370E+00    1.0191450644954811E+01    5.8051072210308030E+00
N   -4.7319687788517086E+00    1.0169066272573341E+01    7.8051144072390928E+00
Ga   -4.7096691453983599E+00    8.3192384245174829E+00    8.4502912045771090E+00
N   -4.7107147907166382E+00    8.3153314075390021E+00    1.0440865348668231E+01
Ga   -4.7368799672899842E+00    1.0176622632953505E+01    1.1072701132621217E+01
N   -4.7534373126784883E+00    1.0184441987921957E+01    1.3067958564640096E+01
Ga   -4.7104749553670624E+00    8.3163142137018475E+00    1.3624241195604183E+01
N   -4.7375803349573049E+00    8.2999819555629202E+00    1.5588276685087152E+01
Ga   -4.5655761280966241E+00    1.0076093505353759E+01    1.6481342256412429E+01
N   -3.1214154113773978E+00    9.2337976600070402E+00    1.7616724886225420E+01
N    3.3046765189095550E+00    1.8085202308156643E+00    2.6454303748887531E+00
Ga    3.3059792097008187E+00    4.4391436412278718E-02    3.2788881073842155E+00
N    3.3171842546982733E+00   -4.8402289002333808E-02    5.2611566456310532E+00
Ga    3.3086789173585722E+00    1.8089480823468789E+00    5.8708238230145406E+00
N    3.3193273776921868E+00    1.8115066492028256E+00    7.8538799110509316E+00
Ga    3.3176776779356731E+00   -5.5538177355256201E-02    8.4381235468848406E+00
N    3.3183187935197882E+00   -5.9218106604769449E-02    1.0435045796326580E+01
Ga    3.3174149065036267E+00    1.8100155300000778E+00    1.1028158046252360E+01
N    3.3182489207764871E+00    1.8099534893127349E+00    1.3001946938887251E+01
Ga    3.3188330834964717E+00   -5.9015801625150112E-02    1.3622446436193094E+01
N    3.3200277871304622E+00   -2.8883516244100488E-02    1.5585575901666154E+01
Ga    3.3181113357652166E+00    1.8101127804464714E+00    1.5863114890747349E+01
N    1.5945744030079179E+00    4.5355823144598206E+00    2.5216034297960626E+00
Ga    1.7712790825962503E+00    2.6994172446918725E+00    3.2686930482227106E+00
N    1.7109822239996988E+00    2.7415594528074756E+00    5.2598432943899063E+00
Ga    1.7366356173719004E+00    4.6032372251514122E+00    5.8094876653872261E+00
N    1.7194004149123074E+00    4.6040013096872761E+00    7.8085657857074287E+00
Ga    1.7001917286191934E+00    2.7429561820609183E+00    8.4385096378210420E+00
N    1.6996550738025646E+00    2.7455458756930042E+00    1.0436050487729448E+01
Ga    1.7257707842845424E+00    4.6032775263134234E+00    1.1071748891216082E+01
N    1.7423436467912490E+00    4.6138061972674720E+00    1.3066914619043045E+01
Ga    1.6992026571594048E+00    2.7450587057328177E+00    1.3621506793805183E+01
N    1.7264791902062235E+00    2.7307428066842090E+00    1.5584692012555173E+01
Ga    1.5472014767358271E+00    4.5008476611050208E+00    1.6482082675436306E+01
N    9.8949511625942135E-02    7.3781899684312817E+00    2.6995531180235957E+00
Ga    1.0740471595168297E-01    5.5181302267745069E+00    3.3217789872432482E+00
N    1.0206325697039070E-01    5.5414843998898586E+00    5.2657309682841582E+00
Ga    1.0391342371306417E-01    7.3825580288084982E+00    5.9001036038394785E+00
N    1.0332077435479237E-01    7.3830361571600989E+00    7.8647057967160041E+00
Ga    1.0212243799463282E-01    5.5115457215411201E+00    8.4469618186560105E+00
N    1.0209530722056126E-01    5.5117108002124269E+00    1.0439613365054415E+01
Ga    1.0190222025753554E-01    7.3806611683759833E+00    1.1030997411334070E+01
N    1.0210494223507029E-01    7.3809456921929444E+00    1.3003321952914195E+01
Ga    1.0276809055559477E-01    5.5107418801952388E+00    1.3622393041914439E+01
N    1.0359286742109027E-01    5.5415483361666604E+00    1.5585448929558376E+01
Ga    1.0188368722142542E-01    7.3802426947225213E+00    1.5864258291225832E+01
N   -1.6275450312075812E+00    1.0095784427253459E+01    2.5141259700080072E+00
Ga   -1.5090022560088958E+00    8.3062519473468228E+00    3.3142904466737848E+00
N   -1.4955383000236424E+00    8.3015982614081363E+00    5.2582715604955244E+00
Ga   -1.4839738329689136E+00    1.0186826660397609E+01    5.8072635313461376E+00
N   -1.4962747810076500E+00    1.0169721823907103E+01    7.8052304760212774E+00
Ga   -1.5167471151911911E+00    8.3171923927771640E+00    8.4470466465038605E+00
N   -1.5175089564286710E+00    8.3153381383468652E+00    1.0438883968172870E+01
Ga   -1.4913027425262673E+00    1.0175953679783470E+01    1.1071739111601985E+01
N   -1.4742332131007110E+00    1.0184327289053591E+01    1.3066707544862394E+01
Ga   -1.5164935652983702E+00    8.3163591799324657E+00    1.3623459240011549E+01
N   -1.4896299032620275E+00    8.3016649214666138E+00    1.5586449018884473E+01
Ga   -1.6683248787935383E+00    1.0072494961320183E+01    1.6482117398895937E+01
N    6.5316799117289781E+00    1.9302413479219169E+00    2.5485016704846495E+00
Ga    6.5173610871317349E+00   -7.2484455279485258E-02    2.8517629512128124E+00
N    6.5292010641870455E+00   -4.4954181623948285E-02    5.0311902118014569E+00
Ga    6.5337793366948320E+00    1.7796312738324509E+00    5.8079248535981849E+00
N    6.5344160665790589E+00    1.7991732161193044E+00    7.8055878153363256E+00
Ga    6.5350535479286265E+00   -4.7815343501553871E-02    8.4480312741821937E+00
N    6.5351892245297041E+00   -4.6817758902604770E-02    1.0423346965708264E+01
Ga    6.5349893609116556E+00    1.7936875029107617E+00    1.1070941554702074E+01
N    6.5347286234976814E+00    1.7738913095090465E+00    1.3066595181675847E+01
Ga    6.5341245689674503E+00   -4.6415077494251007E-02    1.3867120474228935E+01
N    6.5336132209081983E+00   -4.6933652413476981E-02    1.6071831720722383E+01
Ga    6.5345722956253178E+00    1.9917774132221580E+00    1.6482337543578190E+01
Ga    6.5327483511924003E+00    3.6338352414180504E+00    1.5408506989519606E+00
N    5.0391724429341647E+00    4.5449925955491350E+00    2.5339870052628313E+00
Ga    4.8082731841247703E+00    2.6744971428362403E+00    3.3077191236358501E+00
N    4.9284933136244975E+00    2.7447442070280883E+00    5.2670309817783236E+00
Ga    4.8943957737584949E+00    4.6108317751998644E+00    5.8179607011945427E+00
N    4.9205431834790865E+00    4.6040997665510615E+00    7.8092339465975522E+00
Ga    4.9347521981491917E+00    2.7421182115936578E+00    8.4419202559124766E+00
N    4.9372392723064635E+00    2.7455343856127787E+00    1.0437059191853782E+01
Ga    4.9110865878871914E+00    4.6034788783946041E+00    1.1074198568961039E+01
N    4.8948893642036007E+00    4.6137432259587134E+00    1.3068578995963598E+01
Ga    4.9376632506682396E+00    2.7446129148754492E+00    1.3622748062604421E+01
N    4.9098650883872823E+00    2.7286240743530876E+00    1.5586435982091547E+01
Ga    5.0839484238817265E+00    4.5040885701838009E+00    1.6482638359855375E+01
N    6.5269781781563578E+00    3.6621255515250626E+00    1.7617420135472226E+01
N    3.3235966596490298E+00    7.4874558177892911E+00    2.5118531812472442E+00
N    3.3214057048984684E+00    5.5220126667963330E+00    5.0430686189163287E+00
Ga    3.3195396004692550E+00    7.3470214862587548E+00    5.8042736057213800E+00
N    3.3195220731699728E+00    7.3737793178093680E+00    7.7994997384559897E+00
Ga    3.3173316639022952E+00    5.5262761155531948E+00    8.4507304382313801E+00
N    3.3193410689703318E+00    5.5256724450814989E+00    1.0424728658905437E+01
Ga    3.3182172499423515E+00    7.3638974425956203E+00    1.1075563119818888E+01
N    3.3183979703923150E+00    7.3442628884677656E+00    1.3069333734777917E+01
Ga    3.3178178103572211E+00    5.5231201979480469E+00    1.3869452773584117E+01
N    3.3174300272885811E+00    5.5231070059362448E+00    1.6072062926726641E+01
Ga    3.3185248981069533E+00    7.5633543433350798E+00    1.6482728152772935E+01
Ga    3.3152427396506439E+00    9.2975636651717615E+00    1.2554921409669546E+00
N    1.8033816688340700E+00    1.0107761652182358E+01    2.5169228153024310E+00
Ga    1.7121366160701432E+00    8.3067818363914334E+00    3.2928080993237430E+00
N    1.7012223635020023E+00    8.3016846293917173E+00    5.2433412292987640E+00
Ga    1.6851949198856657E+00    1.0186259123300243E+01    5.7956369296806081E+00
N    1.7000552291593256E+00    1.0169567535677603E+01    7.7967930918908914E+00
Ga    1.7219484782464198E+00    8.3184720193734574E+00    8.4456800780588459E+00
N    1.7217160448861342E+00    8.3156051092800158E+00    1.0438208491237452E+01
Ga    1.6965115284261940E+00    1.0175821731936923E+01    1.1072105442431260E+01
N    1.6790235888510161E+00    1.0184311039483649E+01    1.3067208546577760E+01
Ga    1.7213636328607114E+00    8.3160111632416100E+00    1.3623652631315016E+01
N    1.6930626591049629E+00    8.2994969051947205E+00    1.5586966516365642E+01
Ga    1.8683350302467554E+00    1.0075232466154114E+01    1.6482361900088133E+01
N    3.3110837463876361E+00    9.2337689387945314E+00    1.7615665411387127E+01
N    9.7619507020420002E+00    1.8112072676235946E+00    2.6359620416870682E+00
Ga    9.7578033661247332E+00    4.3500590204551257E-02    3.2534831796560422E+00
N    9.7504608010257474E+00   -5.1763027600612722E-02    5.2423960414161046E+00
Ga    9.7587315713577389E+00    1.8049135469528019E+00    5.8647085567802408E+00
N    9.7492860913094255E+00    1.8095719715025436E+00    7.8480741067682880E+00
Ga    9.7503769864367964E+00   -5.6994171020416359E-02    8.4333308090389227E+00
N    9.7501804848137592E+00   -5.9557099459833722E-02    1.0431378751035270E+01
Ga    9.7504162152642682E+00    1.8096970050839605E+00    1.1026258002031222E+01
N    9.7505284088179263E+00    1.8100459252897196E+00    1.2999959978576548E+01
Ga    9.7509444301787749E+00   -5.8499243424981702E-02    1.3622421654946333E+01
N    9.7524544349498079E+00   -2.7565610604288731E-02    1.5584628375334397E+01
Ga    9.7509622921914065E+00    1.8104763433400597E+00    1.5864415572469492E+01
N    8.0306299926967775E+00    4.5460308686697477E+00    2.5312025031924610E+00
Ga    8.2584304872256666E+00    2.6729899816369040E+00    3.3036929358310787E+00
N    8.1403051005252252E+00    2.7433896115240533E+00    5.2631274492196898E+00
Ga    8.1781229077285769E+00    4.6111993534957927E+00    5.8117537291249084E+00
N    8.1502554595471537E+00    4.6042355966668689E+00    7.8047128153018539E+00
Ga    8.1345444293281695E+00    2.7421090356098814E+00    8.4385222833955620E+00
N    8.1317020965360882E+00    2.7459387988265993E+00    1.0434124818196933E+01
Ga    8.1587056111772753E+00    4.6030712401554812E+00    1.1073968136332871E+01
N    8.1743175128650716E+00    4.6135273934492416E+00    1.3067748454176188E+01
Ga    8.1322434107990169E+00    2.7446542207662032E+00    1.3622590375950706E+01
N    8.1595978939253424E+00    2.7307382656600763E+00    1.5585148035480525E+01
Ga    7.9786518718043888E+00    4.5002996360112704E+00    1.6483852323462216E+01
N    6.5392812651407626E+00    7.3960288975797965E+00    2.6171047453987222E+00
Ga    6.5348409850191569E+00    5.5841818025404484E+00    3.3410423139314349E+00
N    6.5352324553072263E+00    5.5461511544782347E+00    5.2643973208768573E+00
Ga    6.5340092732191390E+00    7.3953485489076245E+00    5.9071653597921161E+00
N    6.5339412053343455E+00    7.3829839868727154E+00    7.8667464914065848E+00
Ga    6.5353965129880374E+00    5.5126637179435702E+00    8.4527151237563221E+00
N    6.5350916544146820E+00    5.5120361566880058E+00    1.0441506836022311E+01
Ga    6.5338716327603255E+00    7.3818129438591198E+00    1.1033052968901641E+01
N    6.5345072441397303E+00    7.3812292247307907E+00    1.3004228719439256E+01
Ga    6.5350386120233193E+00    5.5110774962404516E+00    1.3623798012172742E+01
N    6.5365666847235389E+00    5.5421892202823289E+00    1.5586015899825732E+01
Ga    6.5348409206853599E+00    7.3804478244605489E+00    1.5864848439537223E+01
N    4.8356787764193223E+00    1.0110221634748127E+01    2.5057849228030364E+00
Ga    4.9323143510355409E+00    8.3171968652288193E+00    3.2928353624962106E+00
N    4.9394743769325240E+00    8.3025168896563279E+00    5.2408963179071142E+00
Ga    4.9576390817383125E+00    1.0191964632264813E+01    5.7940657046831765E+00
N    4.9357505378421838E+00    1.0169283020288951E+01    7.7970215886019201E+00
Ga    4.9136419209779927E+00    8.3203829266386489E+00    8.4481155225973854E+00
N    4.9147729997054181E+00    8.3160225542876489E+00    1.0439000252528279E+01
Ga    4.9405080058831139E+00    1.0176911659970925E+01    1.1071752140905767E+01
N    4.9574868089827868E+00    1.0184421441833800E+01    1.3066345410474939E+01
Ga    4.9154706779136017E+00    8.3165781943331716E+00    1.3623757034772899E+01
N    4.9440408328121768E+00    8.3013079589383718E+00    1.5585618437647730E+01
Ga    4.7622195311781672E+00    1.0071380975182951E+01    1.6483129772863638E+01
O    1.1947297709101576E-01    3.8224201143582190E+00   -4.7400979412646699E-01
H   -3.6298743163768901E+00    8.7153683262498642E+00   -8.8314794026419730E-01
C    1.3750206508865266E+00    3.5329376642270858E+00   -1.1118087952496070E+00
H    2.2087743082141773E+00    4.1094072191011923E+00   -6.7627551475875214E-01
H    1.6318969358175341E+00    2.4625693554930805E+00   -1.0590231564405579E+00
H    1.2745952318211711E+00    3.8157423910072117E+00   -2.1699571995211473E+00
Ga    3.2745876806278322E+00    5.5182164812267542E+00    2.8694398467891036E+00
O   -2.9503007749829346E+00    9.2875902624354421E+00   -4.9181875959979854E-01
H    8.7683863532860271E-02    7.3645536845580883E+00    1.6722169821710029E+00
C    6.5493806083616803E+00    7.3837019167454709E+00    1.1244921352416937E+00
H    6.5643615732430138E+00    8.4105679443031942E+00    7.2938371867889618E-01
H    7.4369579683827940E+00    6.8560442352343838E+00    7.4342833427702670E-01
H    5.6536557085601462E+00    6.8823059149291756E+00    7.2861119131135277E-01
     &END COORD
     &KIND C
       BASIS_SET DZVP-MOLOPT-SR-GTH-q4
       POTENTIAL GTH-PBE-q4
       &POTENTIAL
 2 2
  0.3384712400000000E+00 2 -0.8803673979999999E+01  0.1339210850000000E+01
 2
  0.3025757500000000E+00 1  0.9622486650000001E+01
  0.2915069400000000E+00 0
         # Potential name:  GTH-PBE-Q4  for symbol:  C
         # Potential read from the potential filename: GTH_POTENTIALS
       &END POTENTIAL
     &END KIND
     &KIND O
       BASIS_SET DZVP-MOLOPT-SR-GTH-q6
       POTENTIAL GTH-PBE-q6
       &POTENTIAL
 2 4
  0.2445543000000000E+00 2 -0.1666721480000000E+02  0.2487311320000000E+01
 2
  0.2209559200000000E+00 1  0.1833745811000000E+02
  0.2113324700000000E+00 0
         # Potential name:  GTH-PBE-Q6  for symbol:  O
         # Potential read from the potential filename: GTH_POTENTIALS
       &END POTENTIAL
     &END KIND
     &KIND H
       BASIS_SET DZVP-MOLOPT-SR-GTH-q1
       POTENTIAL GTH-PBE-q1
       &POTENTIAL
 1
  0.2000000000000000E+00 2 -0.4178900440000000E+01  0.7244633100000000E+00
 0
         # Potential name:  GTH-PBE-Q1  for symbol:  H
         # Potential read from the potential filename: GTH_POTENTIALS
       &END POTENTIAL
     &END KIND
     &KIND N
       BASIS_SET DZVP-MOLOPT-SR-GTH
       POTENTIAL GTH-PBE-q5
       &POTENTIAL
 2 3
  0.2837905100000000E+00 2 -0.1241522559000000E+02  0.1868095920000000E+01
 2
  0.2554050000000000E+00 1  0.1363026257000000E+02
  0.2454945300000000E+00 0
         # Potential name:  GTH-PBE-Q5  for symbol:  N
         # Potential read from the potential filename: GTH_POTENTIALS
       &END POTENTIAL
     &END KIND
     &KIND Ga
       BASIS_SET DZVP-MOLOPT-SR-GTH
       POTENTIAL GTH-PBE-q13
       &POTENTIAL
 2 1 10
  0.4900000000000000E+00 0
 3
  0.4167772300000000E+00 3  0.1047568975000000E+02 -0.4921768140000000E+01  0.8707055900000000E+00
  0.7770178090000000E+01 -0.2248152160000000E+01
  0.1784415450000000E+01
  0.5696265200000000E+00 2  0.1777985340000000E+01  0.1958597600000000E+00
 -0.2317443900000000E+00
  0.2381265000000000E+00 1 -0.1624868022000000E+02
         # Potential name:  GTH-PBE-Q13  for symbol:  GA
         # Potential read from the potential filename: GTH_POTENTIALS
       &END POTENTIAL
     &END KIND
     &TOPOLOGY
       NUMBER_OF_ATOMS  212
       MULTIPLE_UNIT_CELL  1 1 1
     &END TOPOLOGY
   &END SUBSYS
 &END FORCE_EVAL
