 # Version information for this restart file 
 # current date 2019-07-03 12:04:08.803
 # current working dir /lustre04/scratch/rzk/rzk/GaN-carbene/443-adatoms-both-2x2/07-CH3O-H2O-H3C/02-Use0401
 # Program compiled at                              Sun Apr  7 00:48:11 EDT 2019
 # Program compiled on                          beluga2.int.ets1.calculquebec.ca
 # Program compiled for                        Beluga-Linux-x86-64-intel-openmpi
 # Source code revision number                                         svn:18619
 &GLOBAL
   PRINT_LEVEL  MEDIUM
   PROJECT_NAME TEST
   RUN_TYPE  GEO_OPT
 &END GLOBAL
 &MOTION
   &GEO_OPT
     MAX_ITER  500
     STEP_START_VAL  84
   &END GEO_OPT
 &END MOTION
 &FORCE_EVAL
   METHOD  QS
   STRESS_TENSOR  ANALYTICAL
   &DFT
     BASIS_SET_FILE_NAME BASIS_MOLOPT
     POTENTIAL_FILE_NAME GTH_POTENTIALS
     UKS  T
     SURFACE_DIPOLE_CORRECTION  T
     SURF_DIP_DIR  Z
     &SCF
       MAX_SCF  80
       EPS_SCF     5.0000000000000004E-06
       &OT  T
         PRECONDITIONER  FULL_ALL
       &END OT
       &OUTER_SCF  T
         OPTIMIZER  NONE
         EPS_SCF     5.0000000000000004E-06
         MAX_SCF  4
       &END OUTER_SCF
       &PRINT
         &RESTART  OFF
           BACKUP_COPIES  1
           &EACH
             JUST_ENERGY  0
             QS_SCF  0
             MD  20
           &END EACH
         &END RESTART
       &END PRINT
     &END SCF
     &QS
       EPS_DEFAULT     1.0000000000000000E-14
       METHOD  GPW
     &END QS
     &MGRID
       NGRIDS  5
       CUTOFF     1.2000000000000000E+03
     &END MGRID
     &XC
       DENSITY_CUTOFF     1.0000000000000000E-10
       GRADIENT_CUTOFF     1.0000000000000000E-10
       TAU_CUTOFF     1.0000000000000000E-10
       &XC_FUNCTIONAL  NO_SHORTCUT
         &PBE  T
         &END PBE
       &END XC_FUNCTIONAL
       &VDW_POTENTIAL
         POTENTIAL_TYPE  PAIR_POTENTIAL
         &PAIR_POTENTIAL
           R_CUTOFF     1.0000000000000004E+01
           TYPE  DFTD3
           PARAMETER_FILE_NAME dftd3.dat
           REFERENCE_FUNCTIONAL PBE
           EPS_CN     9.9999999999999995E-07
           CALCULATE_C9_TERM  T
           REFERENCE_C9_TERM  T
           LONG_RANGE_CORRECTION  F
           VERBOSE_OUTPUT  F
         &END PAIR_POTENTIAL
       &END VDW_POTENTIAL
     &END XC
   &END DFT
   &SUBSYS
     &CELL
       A     1.2864472766435110E+01    0.0000000000000000E+00    0.0000000000000000E+00
       B    -6.4322363581020028E+00    1.1140960178524473E+01    0.0000000000000000E+00
       C     0.0000000000000000E+00    0.0000000000000000E+00    3.2000000000000000E+01
       MULTIPLE_UNIT_CELL  1 1 1
       &CELL_REF
         A     1.2982353780853531E+01    0.0000000000000000E+00    0.0000000000000000E+00
         B    -6.4911768904267628E+00    1.1243048175136114E+01    0.0000000000000000E+00
         C     0.0000000000000000E+00    0.0000000000000000E+00    3.2000000000000000E+01
         MULTIPLE_UNIT_CELL  1 1 1
       &END CELL_REF
     &END CELL
     &COORD
N    1.0201452577873989E-01    1.9547344559660211E+00    2.5103693546739030E+00
Ga    1.1882185485996115E-01   -1.5383293852253227E-02    2.8189732158080294E+00
N    1.0618264383858748E-01   -4.3874859797821145E-02    5.0314597939497006E+00
Ga    1.0408770041447479E-01    1.7840956801975245E+00    5.7982276949792713E+00
N    1.0224810118838588E-01    1.7991687043615894E+00    7.8055979859726961E+00
Ga    1.0105673025483776E-01   -4.5468639407087903E-02    8.4461730707061289E+00
N    1.0174008859323115E-01   -4.7229917466195870E-02    1.0423267138114376E+01
Ga    1.0165923521462043E-01    1.7938738134955796E+00    1.1069042922455592E+01
N    1.0211840110058537E-01    1.7738162632765242E+00    1.3065941852341391E+01
Ga    1.0148984478847260E-01   -4.6202669657554013E-02    1.3866998413944662E+01
N    1.0090156138635478E-01   -4.7209312470485230E-02    1.6071971080229336E+01
Ga    1.0233637157587233E-01    1.9913490702878203E+00    1.6481194093858605E+01
Ga    7.4678604144461300E-02    3.6495070917556394E+00    1.3287910711450750E+00
N   -1.3845453869578923E+00    4.5316515193869611E+00    2.5139419374199279E+00
Ga   -1.5691683615982428E+00    2.6900037418164429E+00    3.2754468804494534E+00
N   -1.5066054162476534E+00    2.7405380120796310E+00    5.2604048468649545E+00
Ga   -1.5323792091136070E+00    4.6046942293510771E+00    5.8063559152001885E+00
N   -1.5154205665606975E+00    4.6039292694352811E+00    7.8057165419618215E+00
Ga   -1.4966605564024764E+00    2.7422939298241986E+00    8.4354076037796251E+00
N   -1.4962110854837514E+00    2.7451403637306755E+00    1.0433929260797333E+01
Ga   -1.5208054490768113E+00    4.6023967252542421E+00    1.1072304746742484E+01
N   -1.5375244750462429E+00    4.6135634149192590E+00    1.3067776277123508E+01
Ga   -1.4946920798142369E+00    2.7445490300117341E+00    1.3621945979505250E+01
N   -1.5217540671789334E+00    2.7291895826691972E+00    1.5586278080858904E+01
Ga   -1.3486886475896247E+00    4.5044217053783786E+00    1.6481737850500497E+01
N    9.4681129199435915E-02    3.6621723158058916E+00    1.7616486495399105E+01
N   -3.1173624773736912E+00    7.5124353158982959E+00    2.5024181185338623E+00
Ga   -3.0704611626354494E+00    5.5360431179104950E+00    2.8472018303206039E+00
N   -3.1141120969899925E+00    5.5244531368752394E+00    5.0300748867606515E+00
Ga   -3.1146164601786022E+00    7.3449956330165262E+00    5.8085963504316380E+00
N   -3.1150853681013735E+00    7.3716759712714319E+00    7.8027927909405630E+00
Ga   -3.1126483844034691E+00    5.5248219034731738E+00    8.4517368253985232E+00
N   -3.1141326555948936E+00    5.5249008243170898E+00    1.0425244917218960E+01
Ga   -3.1136590789033494E+00    7.3633631378575721E+00    1.1076276302209862E+01
N   -3.1137355230996353E+00    7.3441003273859700E+00    1.3070080829168839E+01
Ga   -3.1140171705722488E+00    5.5228922188054677E+00    1.3869495030931697E+01
N   -3.1150766104212808E+00    5.5228231772160719E+00    1.6072962435598086E+01
Ga   -3.1136672328758039E+00    7.5615990522618581E+00    1.6482181867454891E+01
Ga   -3.0889738140753673E+00    9.3045548668231337E+00    1.3161382966576649E+00
N   -4.6048809281515375E+00    1.0097528222615912E+01    2.4969187200602341E+00
Ga   -4.7236471874590391E+00    8.3202391265038056E+00    3.3086936884589102E+00
N   -4.7348114242036763E+00    8.3022585372612880E+00    5.2530554452307276E+00
Ga   -4.7517626578837433E+00    1.0191385421712214E+01    5.8049516317570085E+00
N   -4.7319231410602365E+00    1.0168881818550652E+01    7.8050633624536312E+00
Ga   -4.7096960724342480E+00    8.3189729010446740E+00    8.4499276636477436E+00
N   -4.7108085645705904E+00    8.3151147577494591E+00    1.0440768869975843E+01
Ga   -4.7367680821020057E+00    1.0176430321156808E+01    1.1072582728168271E+01
N   -4.7534395929531428E+00    1.0184401255449250E+01    1.3068010481274788E+01
Ga   -4.7104663754101628E+00    8.3162632965318686E+00    1.3624417761178750E+01
N   -4.7378532664162352E+00    8.2999212682092391E+00    1.5588327901067661E+01
Ga   -4.5653655253364800E+00    1.0075974260247365E+01    1.6481639172744945E+01
N   -3.1213240736066137E+00    9.2336155278859255E+00    1.7616506333911250E+01
N    3.3047897901503029E+00    1.8085268199393663E+00    2.6456033728675017E+00
Ga    3.3061926359476588E+00    4.4255324010531283E-02    3.2789869505437537E+00
N    3.3173240453296322E+00   -4.8340547733896566E-02    5.2610720537649875E+00
Ga    3.3087338061869827E+00    1.8089816308524154E+00    5.8709182599208898E+00
N    3.3192610667255247E+00    1.8114392080256549E+00    7.8539399538607535E+00
Ga    3.3176841637098073E+00   -5.5648306744833606E-02    8.4378751039482722E+00
N    3.3183088860304832E+00   -5.9276436350998031E-02    1.0434976633950772E+01
Ga    3.3173614519618462E+00    1.8099256213570118E+00    1.1028044229852540E+01
N    3.3183961645474467E+00    1.8100260877568803E+00    1.3001955443386246E+01
Ga    3.3188807059465284E+00   -5.9040713509471758E-02    1.3622658245802713E+01
N    3.3200866183096220E+00   -2.8743429133308473E-02    1.5585751571155543E+01
Ga    3.3181192338325118E+00    1.8101699887140197E+00    1.5863438533560076E+01
N    1.5946330953742807E+00    4.5357628971751023E+00    2.5217840627013750E+00
Ga    1.7714815653304681E+00    2.6995495910203049E+00    3.2687767868571309E+00
N    1.7110756440934687E+00    2.7416481352007129E+00    5.2599388426820184E+00
Ga    1.7365856313286638E+00    4.6033245711707194E+00    5.8093881909138307E+00
N    1.7192521416999609E+00    4.6039111278179750E+00    7.8085499102789750E+00
Ga    1.7001479555140675E+00    2.7429449799103685E+00    8.4384236097365548E+00
N    1.6996490975314511E+00    2.7454793422256665E+00    1.0435971304727385E+01
Ga    1.7256573968491946E+00    4.6032312200938490E+00    1.1071816815724508E+01
N    1.7423452081484327E+00    4.6138785636399673E+00    1.3066967789758344E+01
Ga    1.6992040848271235E+00    2.7450988701162586E+00    1.3621643164238003E+01
N    1.7266003311692122E+00    2.7307597341718606E+00    1.5584804653417766E+01
Ga    1.5468961055071813E+00    4.5007506245768978E+00    1.6482332195856820E+01
N    9.8663407372692094E-02    7.3787048696951416E+00    2.6988953430357387E+00
Ga    1.0748321374008264E-01    5.5186444529427492E+00    3.3216210433200870E+00
N    1.0219508821977755E-01    5.5416371552986128E+00    5.2656295810367979E+00
Ga    1.0393662113009294E-01    7.3825777231689127E+00    5.9001554602485085E+00
N    1.0335284944958543E-01    7.3829502739175412E+00    7.8648222642094865E+00
Ga    1.0205247319109544E-01    5.5114635146819966E+00    8.4470127736817293E+00
N    1.0198846956679067E-01    5.5116468529179992E+00    1.0439657832436668E+01
Ga    1.0188959073591848E-01    7.3806787964406375E+00    1.1030960445454420E+01
N    1.0227723769525963E-01    7.3810377953425963E+00    1.3003359186919026E+01
Ga    1.0274047258009393E-01    5.5107824340472833E+00    1.3622529410669518E+01
N    1.0375881811279020E-01    5.5417322641330484E+00    1.5585471504636960E+01
Ga    1.0213621779099648E-01    7.3802569414508756E+00    1.5864187655773671E+01
N   -1.6275308217696223E+00    1.0095914808800279E+01    2.5139859959571988E+00
Ga   -1.5089249093593702E+00    8.3066098368714734E+00    3.3144292405923133E+00
N   -1.4954393120930891E+00    8.3016940005224811E+00    5.2585153700655436E+00
Ga   -1.4837797998948299E+00    1.0186849428323685E+01    5.8071780955107446E+00
N   -1.4962459400378569E+00    1.0169656679808105E+01    7.8052913748241339E+00
Ga   -1.5167980566422523E+00    8.3171075408665267E+00    8.4469082892275242E+00
N   -1.5175753168841017E+00    8.3152695042157259E+00    1.0438910094326953E+01
Ga   -1.4913654753065952E+00    1.0175867897696900E+01    1.1071836385226387E+01
N   -1.4741392383871827E+00    1.0184314670022736E+01    1.3066854189497839E+01
Ga   -1.5164301120664079E+00    8.3163278985896589E+00    1.3623682666085445E+01
N   -1.4892953114445791E+00    8.3015922594811684E+00    1.5586532298585064E+01
Ga   -1.6685132834278191E+00    1.0072219826856891E+01    1.6482407910718528E+01
N    6.5318897225010533E+00    1.9303112824840185E+00    2.5485379406708271E+00
Ga    6.5172348706020822E+00   -7.2304842726926735E-02    2.8517390659700390E+00
N    6.5292912440025006E+00   -4.4812178621669391E-02    5.0312268353168808E+00
Ga    6.5337548111975723E+00    1.7797665966961753E+00    5.8077939072087839E+00
N    6.5343212634358991E+00    1.7991788706931977E+00    7.8056005732029918E+00
Ga    6.5350739388584653E+00   -4.7847143565402241E-02    8.4479147606245668E+00
N    6.5351803020539849E+00   -4.6859685169254664E-02    1.0423435685291899E+01
Ga    6.5349546731297039E+00    1.7936620496609126E+00    1.1070946020024994E+01
N    6.5347925090986623E+00    1.7738245825838785E+00    1.3066730321455328E+01
Ga    6.5342026549344689E+00   -4.6522838753472240E-02    1.3867504268751160E+01
N    6.5335255532709251E+00   -4.7113852866039314E-02    1.6072127364527432E+01
Ga    6.5346646037325486E+00    1.9916905794785782E+00    1.6482290524657348E+01
Ga    6.5330464327900284E+00    3.6335948975779027E+00    1.5407294067649386E+00
N    5.0393514342783998E+00    4.5449535646296004E+00    2.5336630214636640E+00
Ga    4.8083747123905614E+00    2.6746119691363548E+00    3.3075892719309272E+00
N    4.9284435718318749E+00    2.7447947082487025E+00    5.2669708973772362E+00
Ga    4.8942030972414781E+00    4.6108200243588149E+00    5.8178460335100075E+00
N    4.9203463451350933E+00    4.6039916981240889E+00    7.8091954308726761E+00
Ga    4.9346670535475123E+00    2.7420811609598896E+00    8.4418654394908099E+00
N    4.9371791358685604E+00    2.7454597096611950E+00    1.0437019271045571E+01
Ga    4.9110247701258185E+00    4.6033891582107493E+00    1.1074163462117877E+01
N    4.8948525218277572E+00    4.6138339106765685E+00    1.3068697818143495E+01
Ga    4.9377929932729012E+00    2.7446833080673998E+00    1.3622919258693607E+01
N    4.9100437673151438E+00    2.7287828909334237E+00    1.5586847552586667E+01
Ga    5.0838770785472054E+00    4.5042641380035100E+00    1.6482653834176144E+01
N    6.5270244892476486E+00    3.6621444569876509E+00    1.7617137325360144E+01
N    3.3234472006681544E+00    7.4874417866315994E+00    2.5118571464288642E+00
N    3.3213949619641525E+00    5.5220183941470422E+00    5.0430099889182562E+00
Ga    3.3195242197484860E+00    7.3469968470009119E+00    5.8040154700858126E+00
N    3.3194539293359857E+00    7.3737190351790662E+00    7.7993899326664442E+00
Ga    3.3171537674092324E+00    5.5262451662150998E+00    8.4505560386312126E+00
N    3.3192304886657360E+00    5.5256536652856916E+00    1.0424674357539645E+01
Ga    3.3182098887723139E+00    7.3639003745862004E+00    1.1075659021438792E+01
N    3.3184576910161829E+00    7.3443117870492438E+00    1.3069460418579160E+01
Ga    3.3177442071802732E+00    5.5232252599930449E+00    1.3869602347173593E+01
N    3.3172621238755275E+00    5.5230948373115289E+00    1.6072531078132975E+01
Ga    3.3184818772100013E+00    7.5626914019239733E+00    1.6482378288116848E+01
Ga    3.3148526488542616E+00    9.2978010524653421E+00    1.2550774792611685E+00
N    1.8032885562467809E+00    1.0108196554109908E+01    2.5169496450979687E+00
Ga    1.7119594386493533E+00    8.3069639944170266E+00    3.2925405310915825E+00
N    1.7012385298901476E+00    8.3016795229846991E+00    5.2431561078809503E+00
Ga    1.6852526614927417E+00    1.0186310405338448E+01    5.7954184897947663E+00
N    1.7000562108788293E+00    1.0169528800490314E+01    7.7967439903415832E+00
Ga    1.7219589316029846E+00    8.3184802953368777E+00    8.4456495269117404E+00
N    1.7217495408170558E+00    8.3156405367195081E+00    1.0438184701508362E+01
Ga    1.6965664788303239E+00    1.0175809297724978E+01    1.1072233771560704E+01
N    1.6790819653300628E+00    1.0184341298511475E+01    1.3067379504330635E+01
Ga    1.7215393294675603E+00    8.3161079523752868E+00    1.3623908071300038E+01
N    1.6934702453757913E+00    8.2996277457298344E+00    1.5587400734188714E+01
Ga    1.8677957893801354E+00    1.0075458226242374E+01    1.6481989522974231E+01
N    3.3108714319970427E+00    9.2336580665174459E+00    1.7615720055742223E+01
N    9.7622736766792091E+00    1.8114164314676124E+00    2.6363126680379709E+00
Ga    9.7580621316501812E+00    4.3527225321048565E-02    3.2531984074404470E+00
N    9.7505963016894128E+00   -5.1753326547101193E-02    5.2422982957348081E+00
Ga    9.7588736598525685E+00    1.8049635097445336E+00    5.8645969989945685E+00
N    9.7493107010874986E+00    1.8094988186409751E+00    7.8480403830643972E+00
Ga    9.7503843492971214E+00   -5.7090621493761901E-02    8.4330877967990361E+00
N    9.7502197173877114E+00   -5.9664150680587107E-02    1.0431284896597203E+01
Ga    9.7504121618897468E+00    1.8095322458630048E+00    1.1026200693988281E+01
N    9.7504246714303591E+00    1.8099222281896634E+00    1.3000147986876787E+01
Ga    9.7509733501078379E+00   -5.8641836563907750E-02    1.3622668523489947E+01
N    9.7523790026925958E+00   -2.7919534173992667E-02    1.5585126490571046E+01
Ga    9.7509051090702865E+00    1.8103021753412392E+00    1.5864311336999970E+01
N    8.0308193828466052E+00    4.5460569714508026E+00    2.5311466349061731E+00
Ga    8.2586081524414983E+00    2.6731006555862304E+00    3.3037398000276093E+00
N    8.1403704034589950E+00    2.7433979595019400E+00    5.2632116317646354E+00
Ga    8.1781805456142465E+00    4.6111824026513784E+00    5.8116636222600642E+00
N    8.1501917940373918E+00    4.6041442265188568E+00    7.8046804691053069E+00
Ga    8.1345329836907165E+00    2.7419943700158949E+00    8.4383488839420338E+00
N    8.1317236271567772E+00    2.7457834444616149E+00    1.0434074826429132E+01
Ga    8.1585684096567075E+00    4.6028922772308922E+00    1.1073961625106101E+01
N    8.1743542750952809E+00    4.6135108631085444E+00    1.3067888643938543E+01
Ga    8.1321732194880454E+00    2.7446730397821151E+00    1.3622709575077216E+01
N    8.1595194693382300E+00    2.7306905598908831E+00    1.5585428413025165E+01
Ga    7.9788135105996680E+00    4.5004175486037203E+00    1.6483701334424961E+01
N    6.5391939708183768E+00    7.3959738232566474E+00    2.6171542907564938E+00
Ga    6.5349835723903622E+00    5.5840388045884923E+00    3.3409921698745668E+00
N    6.5351862681593431E+00    5.5460136477173059E+00    5.2643170331960505E+00
Ga    6.5339505507937483E+00    7.3952308285085602E+00    5.9069156667533527E+00
N    6.5338364829287698E+00    7.3827741196599383E+00    7.8666314466988894E+00
Ga    6.5352552840833491E+00    5.5124751971391737E+00    8.4524328453967321E+00
N    6.5350082876633833E+00    5.5118772618370757E+00    1.0441394131396912E+01
Ga    6.5338200244864391E+00    7.3816269449466132E+00    1.1032955285567009E+01
N    6.5344026740916910E+00    7.3811134669866032E+00    1.3004402633487798E+01
Ga    6.5350529139068874E+00    5.5109761951238259E+00    1.3623971380310964E+01
N    6.5364498199059016E+00    5.5422337121491569E+00    1.5586365298223841E+01
Ga    6.5346370723800149E+00    7.3805735672750448E+00    1.5864937367392566E+01
N    4.8360558535923994E+00    1.0110520633504825E+01    2.5055265572755441E+00
Ga    4.9322169691172775E+00    8.3174249901107498E+00    3.2925396684936707E+00
N    4.9394506821193787E+00    8.3025514689675077E+00    5.2406622967547296E+00
Ga    4.9577431857494449E+00    1.0191956224399441E+01    5.7939252657904303E+00
N    4.9357356914813710E+00    1.0169087662029007E+01    7.7969831046816882E+00
Ga    4.9135942655949769E+00    8.3201558437145273E+00    8.4478545124492808E+00
N    4.9147823812147884E+00    8.3158816390067045E+00    1.0438876456316814E+01
Ga    4.9404578440779732E+00    1.0176720742798372E+01    1.1071754309888188E+01
N    4.9575225100414366E+00    1.0184393917019031E+01    1.3066537924500221E+01
Ga    4.9154201961093369E+00    8.3166155001050868E+00    1.3624005659440263E+01
N    4.9436708091706949E+00    8.3014452061591832E+00    1.5586127875895681E+01
Ga    4.7626371990324614E+00    1.0071677615790986E+01    1.6482858739701427E+01
O    1.1976059920147640E-01    3.8237565867242340E+00   -4.7351871639425097E-01
H   -3.6295306360721198E+00    8.7145876041593429E+00   -8.8414242251118935E-01
C    1.3748620629692578E+00    3.5333564641925230E+00   -1.1116135518554036E+00
H    2.2089121478588654E+00    4.1094104251162822E+00   -6.7646095492152758E-01
H    1.6313111116657313E+00    2.4629972341238289E+00   -1.0586057232982338E+00
H    1.2744193648655586E+00    3.8161085793275391E+00   -2.1696791346114921E+00
Ga    3.2746835217757071E+00    5.5182725414248326E+00    2.8691669455700421E+00
O   -2.9504017682998240E+00    9.2864292912701742E+00   -4.9132100886842839E-01
H    8.6347415811073955E-02    7.3647677793541932E+00    1.6714405038333060E+00
C    6.5492128161788532E+00    7.3835962613996040E+00    1.1245001495873044E+00
H    6.5644544124236601E+00    8.4104195159189388E+00    7.2926393369535125E-01
H    7.4365579139766700E+00    6.8557820433434022E+00    7.4330275789254907E-01
H    5.6533673786347256E+00    6.8823625758922802E+00    7.2869354657547947E-01
     &END COORD
     &KIND C
       BASIS_SET DZVP-MOLOPT-SR-GTH-q4
       POTENTIAL GTH-PBE-q4
       &POTENTIAL
 2 2
  0.3384712400000000E+00 2 -0.8803673979999999E+01  0.1339210850000000E+01
 2
  0.3025757500000000E+00 1  0.9622486650000001E+01
  0.2915069400000000E+00 0
         # Potential name:  GTH-PBE-Q4  for symbol:  C
         # Potential read from the potential filename: GTH_POTENTIALS
       &END POTENTIAL
     &END KIND
     &KIND O
       BASIS_SET DZVP-MOLOPT-SR-GTH-q6
       POTENTIAL GTH-PBE-q6
       &POTENTIAL
 2 4
  0.2445543000000000E+00 2 -0.1666721480000000E+02  0.2487311320000000E+01
 2
  0.2209559200000000E+00 1  0.1833745811000000E+02
  0.2113324700000000E+00 0
         # Potential name:  GTH-PBE-Q6  for symbol:  O
         # Potential read from the potential filename: GTH_POTENTIALS
       &END POTENTIAL
     &END KIND
     &KIND H
       BASIS_SET DZVP-MOLOPT-SR-GTH-q1
       POTENTIAL GTH-PBE-q1
       &POTENTIAL
 1
  0.2000000000000000E+00 2 -0.4178900440000000E+01  0.7244633100000000E+00
 0
         # Potential name:  GTH-PBE-Q1  for symbol:  H
         # Potential read from the potential filename: GTH_POTENTIALS
       &END POTENTIAL
     &END KIND
     &KIND N
       BASIS_SET DZVP-MOLOPT-SR-GTH
       POTENTIAL GTH-PBE-q5
       &POTENTIAL
 2 3
  0.2837905100000000E+00 2 -0.1241522559000000E+02  0.1868095920000000E+01
 2
  0.2554050000000000E+00 1  0.1363026257000000E+02
  0.2454945300000000E+00 0
         # Potential name:  GTH-PBE-Q5  for symbol:  N
         # Potential read from the potential filename: GTH_POTENTIALS
       &END POTENTIAL
     &END KIND
     &KIND Ga
       BASIS_SET DZVP-MOLOPT-SR-GTH
       POTENTIAL GTH-PBE-q13
       &POTENTIAL
 2 1 10
  0.4900000000000000E+00 0
 3
  0.4167772300000000E+00 3  0.1047568975000000E+02 -0.4921768140000000E+01  0.8707055900000000E+00
  0.7770178090000000E+01 -0.2248152160000000E+01
  0.1784415450000000E+01
  0.5696265200000000E+00 2  0.1777985340000000E+01  0.1958597600000000E+00
 -0.2317443900000000E+00
  0.2381265000000000E+00 1 -0.1624868022000000E+02
         # Potential name:  GTH-PBE-Q13  for symbol:  GA
         # Potential read from the potential filename: GTH_POTENTIALS
       &END POTENTIAL
     &END KIND
     &TOPOLOGY
       NUMBER_OF_ATOMS  212
       MULTIPLE_UNIT_CELL  1 1 1
     &END TOPOLOGY
   &END SUBSYS
 &END FORCE_EVAL
