 # Version information for this restart file 
 # current date 2019-07-03 07:32:10.515
 # current working dir /lustre04/scratch/rzk/rzk/GaN-carbene/443-adatoms-both-2x2/07-CH3O-H2O-H3C/02-Use0401
 # Program compiled at                              Sun Apr  7 00:48:11 EDT 2019
 # Program compiled on                          beluga2.int.ets1.calculquebec.ca
 # Program compiled for                        Beluga-Linux-x86-64-intel-openmpi
 # Source code revision number                                         svn:18619
 &GLOBAL
   PRINT_LEVEL  MEDIUM
   PROJECT_NAME TEST
   RUN_TYPE  GEO_OPT
 &END GLOBAL
 &MOTION
   &GEO_OPT
     MAX_ITER  500
     STEP_START_VAL  20
   &END GEO_OPT
 &END MOTION
 &FORCE_EVAL
   METHOD  QS
   STRESS_TENSOR  ANALYTICAL
   &DFT
     BASIS_SET_FILE_NAME BASIS_MOLOPT
     POTENTIAL_FILE_NAME GTH_POTENTIALS
     UKS  T
     SURFACE_DIPOLE_CORRECTION  T
     SURF_DIP_DIR  Z
     &SCF
       MAX_SCF  80
       EPS_SCF     5.0000000000000004E-06
       &OT  T
         PRECONDITIONER  FULL_ALL
       &END OT
       &OUTER_SCF  T
         OPTIMIZER  NONE
         EPS_SCF     5.0000000000000004E-06
         MAX_SCF  4
       &END OUTER_SCF
       &PRINT
         &RESTART  OFF
           BACKUP_COPIES  1
           &EACH
             JUST_ENERGY  0
             QS_SCF  0
             MD  20
           &END EACH
         &END RESTART
       &END PRINT
     &END SCF
     &QS
       EPS_DEFAULT     1.0000000000000000E-14
       METHOD  GPW
     &END QS
     &MGRID
       NGRIDS  5
       CUTOFF     1.2000000000000000E+03
     &END MGRID
     &XC
       DENSITY_CUTOFF     1.0000000000000000E-10
       GRADIENT_CUTOFF     1.0000000000000000E-10
       TAU_CUTOFF     1.0000000000000000E-10
       &XC_FUNCTIONAL  NO_SHORTCUT
         &PBE  T
         &END PBE
       &END XC_FUNCTIONAL
       &VDW_POTENTIAL
         POTENTIAL_TYPE  PAIR_POTENTIAL
         &PAIR_POTENTIAL
           R_CUTOFF     1.0000000000000004E+01
           TYPE  DFTD3
           PARAMETER_FILE_NAME dftd3.dat
           REFERENCE_FUNCTIONAL PBE
           EPS_CN     9.9999999999999995E-07
           CALCULATE_C9_TERM  T
           REFERENCE_C9_TERM  T
           LONG_RANGE_CORRECTION  F
           VERBOSE_OUTPUT  F
         &END PAIR_POTENTIAL
       &END VDW_POTENTIAL
     &END XC
   &END DFT
   &SUBSYS
     &CELL
       A     1.2864472766435110E+01    0.0000000000000000E+00    0.0000000000000000E+00
       B    -6.4322363581020028E+00    1.1140960178524473E+01    0.0000000000000000E+00
       C     0.0000000000000000E+00    0.0000000000000000E+00    3.2000000000000000E+01
       MULTIPLE_UNIT_CELL  1 1 1
       &CELL_REF
         A     1.2982353780853531E+01    0.0000000000000000E+00    0.0000000000000000E+00
         B    -6.4911768904267628E+00    1.1243048175136114E+01    0.0000000000000000E+00
         C     0.0000000000000000E+00    0.0000000000000000E+00    3.2000000000000000E+01
         MULTIPLE_UNIT_CELL  1 1 1
       &END CELL_REF
     &END CELL
     &COORD
N    7.9881316264748356E-02    1.9575054345194649E+00    2.4937916205879316E+00
Ga    8.4205210502679054E-02    5.9385669580732546E-03    2.8232069975581364E+00
N    8.2521963313313296E-02   -4.7392392074183484E-02    5.0146077059834484E+00
Ga    8.1500348916274098E-02    1.7888686124616218E+00    5.7958413923751921E+00
N    7.8584934408605853E-02    1.8005944834914194E+00    7.7992413095281492E+00
Ga    7.8789346330062321E-02   -4.0583834553954493E-02    8.4482616393704806E+00
N    7.8394398548895003E-02   -3.8690661820688525E-02    1.0420793148314614E+01
Ga    7.8293898387986602E-02    1.8033487328400712E+00    1.1069231570827462E+01
N    7.8791789408557647E-02    1.7867195105998384E+00    1.3064619952023966E+01
Ga    7.8954091155778089E-02   -3.2484728329193288E-02    1.3879101067901166E+01
N    7.8800120976917881E-02   -3.1699663771216184E-02    1.6068478312785896E+01
Ga    7.9243423258986215E-02    2.0161203178436695E+00    1.6491461558752363E+01
Ga    4.7860990210578151E-02    3.7006594018790757E+00    1.3346599362870770E+00
N   -1.4022028610249413E+00    4.5272152270480426E+00    2.5241351148002518E+00
Ga   -1.5864298225040707E+00    2.6980020242144338E+00    3.2759552284540301E+00
N   -1.5295143272563125E+00    2.7380933883526235E+00    5.2594335337309284E+00
Ga   -1.5476131997011906E+00    4.6072520367563703E+00    5.7985837305459045E+00
N   -1.5404638386753711E+00    4.6069900568840181E+00    7.8015725707319588E+00
Ga   -1.5203312074772013E+00    2.7481575509793412E+00    8.4327174037884447E+00
N   -1.5193957553672597E+00    2.7536491855610876E+00    1.0430450253807873E+01
Ga   -1.5439870506903881E+00    4.6124196225692033E+00    1.1068658281284787E+01
N   -1.5599275043819425E+00    4.6264365340695868E+00    1.3061873310263358E+01
Ga   -1.5178697372609236E+00    2.7589829289484902E+00    1.3621947985256078E+01
N   -1.5510345676751267E+00    2.7492163206273914E+00    1.5582265476783913E+01
Ga   -1.3504956100070575E+00    4.5112100643543256E+00    1.6493886783882999E+01
N    7.9367575962765113E-02    3.6729954191456771E+00    1.7637174698874965E+01
N   -3.1345237832783139E+00    7.4938596921069029E+00    2.5304463231040137E+00
Ga   -3.0913896929342601E+00    5.4884276439926207E+00    2.8468409607830067E+00
N   -3.1369891909334964E+00    5.5238220147058881E+00    5.0244275033707551E+00
Ga   -3.1355866343692327E+00    7.3397596601367541E+00    5.8096591045016241E+00
N   -3.1416014398827059E+00    7.3748081533182903E+00    7.8007411920566279E+00
Ga   -3.1364359388907963E+00    5.5269598338866324E+00    8.4477367056028463E+00
N   -3.1393687160135952E+00    5.5335782419948449E+00    1.0422062669494656E+01
Ga   -3.1370902163859018E+00    7.3729561993243129E+00    1.1073671330391376E+01
N   -3.1370288918825806E+00    7.3585201602210422E+00    1.3064761341711050E+01
Ga   -3.1277490665888732E+00    5.5419715490019010E+00    1.3867055623705042E+01
N   -3.1244887497544243E+00    5.5458853149168474E+00    1.6070566545820668E+01
Ga   -3.1331433027344668E+00    7.6002587481818713E+00    1.6496344885423134E+01
Ga   -3.0403470077067380E+00    9.2144509186789954E+00    1.4599897389212810E+00
N   -4.6261477488769831E+00    1.0083309223699937E+01    2.4827195873771948E+00
Ga   -4.7670551371325027E+00    8.2945654587622819E+00    3.3166913185868299E+00
N   -4.7604761459477398E+00    8.3001965129980171E+00    5.2468611361050010E+00
Ga   -4.7756969007879500E+00    1.0189708781056812E+01    5.8050954831337620E+00
N   -4.7559686836099306E+00    1.0171230675598419E+01    7.7976878478190788E+00
Ga   -4.7339276678490299E+00    8.3208480087368617E+00    8.4496875652781060E+00
N   -4.7353848486879535E+00    8.3248220184822710E+00    1.0437759400198480E+01
Ga   -4.7607972962190654E+00    1.0185922100923769E+01    1.1074904142012569E+01
N   -4.7764134247388510E+00    1.0197215090585939E+01    1.3067799163175295E+01
Ga   -4.7328189409814847E+00    8.3289808483012440E+00    1.3626234030585438E+01
N   -4.7600911087017908E+00    8.3069697651295371E+00    1.5585554009153199E+01
Ga   -4.5791154035548338E+00    1.0086195718534315E+01    1.6493570708851333E+01
N   -3.1437741046599985E+00    9.2581200324653565E+00    1.7638914677287655E+01
N    3.2835941277840153E+00    1.8127500164088384E+00    2.6328010514606719E+00
Ga    3.2865707191411149E+00    6.3955086248873638E-02    3.2776238374179427E+00
N    3.2913825763186710E+00   -5.3247776715070944E-02    5.2482004506126447E+00
Ga    3.2872449757133544E+00    1.8129714129941050E+00    5.8636448353202404E+00
N    3.2953006916460610E+00    1.8130059987530514E+00    7.8456076296569623E+00
Ga    3.2943215082498978E+00   -5.1076422303532182E-02    8.4382882851802208E+00
N    3.2933475662700893E+00   -4.9653684222410212E-02    1.0432419537299845E+01
Ga    3.2934922350670335E+00    1.8204276580245982E+00    1.1026150355467754E+01
N    3.2977620401632448E+00    1.8249933343177582E+00    1.3000731821546427E+01
Ga    3.2959063307259875E+00   -4.5829407107798321E-02    1.3624404659937866E+01
N    3.3026641514721815E+00   -8.6942890276763170E-03    1.5584076231199516E+01
Ga    3.2923283191154562E+00    1.8244520669291491E+00    1.5865849026478109E+01
N    1.5696272978030652E+00    4.5301198293441933E+00    2.5192938612908886E+00
Ga    1.7481712590024432E+00    2.7050701258998227E+00    3.2608887651572713E+00
N    1.6884659497644694E+00    2.7387183217389985E+00    5.2512408104114128E+00
Ga    1.7072699106399283E+00    4.6057820228455570E+00    5.7973468485701813E+00
N    1.6969400588225114E+00    4.6064249603969181E+00    7.8013699769539526E+00
Ga    1.6771020222115447E+00    2.7480496093292350E+00    8.4326409080376958E+00
N    1.6760234896803301E+00    2.7532712884407284E+00    1.0430394743201472E+01
Ga    1.7002338858009243E+00    4.6121631675895065E+00    1.1068560076018358E+01
N    1.7176481933162124E+00    4.6264531551787895E+00    1.3061803949498866E+01
Ga    1.6752932364115538E+00    2.7591849400231441E+00    1.3622126766221776E+01
N    1.7098067725942501E+00    2.7488616077966608E+00    1.5582329946143288E+01
Ga    1.5097125810694627E+00    4.5113150429594997E+00    1.6493796716582033E+01
N    8.4737161828488575E-02    7.3722060038047621E+00    2.6469481855163925E+00
Ga    8.8958813203016213E-02    5.5889500985950233E+00    3.2867236009912393E+00
N    7.9674889035325047E-02    5.5334952551903269E+00    5.2628116988507525E+00
Ga    8.3208443038091814E-02    7.3739463286913622E+00    5.8914181665600083E+00
N    7.9138690736213296E-02    7.3865299329373073E+00    7.8617870385174902E+00
Ga    7.8571540798068606E-02    5.5151141841004572E+00    8.4402170188320316E+00
N    7.8098241841455251E-02    5.5203487910428501E+00    1.0433790410152236E+01
Ga    7.8426876296371004E-02    7.3897319844495133E+00    1.1027607828931663E+01
N    7.8627041700142161E-02    7.3939621890008551E+00    1.2997451650050570E+01
Ga    7.8962939632934645E-02    5.5249192620228316E+00    1.3621333050707271E+01
N    7.9316674223780637E-02    5.5583123863034594E+00    1.5579639028749018E+01
Ga    7.9652018173844041E-02    7.3953037357713631E+00    1.5859248492522687E+01
N   -1.6234352828124192E+00    1.0096246190101938E+01    2.5489034755296518E+00
Ga   -1.4282398781951315E+00    8.2429599249831451E+00    3.3263537024154686E+00
N   -1.5292676217129768E+00    8.3061891222572903E+00    5.2737121703655978E+00
Ga   -1.5057430245284660E+00    1.0184883979562386E+01    5.8078047252158420E+00
N   -1.5207826320198856E+00    1.0175797364277491E+01    7.8033284214413277E+00
Ga   -1.5396921210455961E+00    8.3204782497686427E+00    8.4427983499499870E+00
N   -1.5419022674957177E+00    8.3246233434071524E+00    1.0433953101523706E+01
Ga   -1.5162326734263063E+00    1.0184302699250535E+01    1.1071341751527836E+01
N   -1.4987853342038973E+00    1.0196531152598315E+01    1.3063373310473276E+01
Ga   -1.5390639983466612E+00    8.3284809812972043E+00    1.3623552702656772E+01
N   -1.5113711400764633E+00    8.3142943230459014E+00    1.5581569619457953E+01
Ga   -1.7030844722309237E+00    1.0077313374735285E+01    1.6495061867516306E+01
N    6.5131768637165539E+00    1.9244269183833573E+00    2.5394327428255314E+00
Ga    6.5177619401493772E+00   -4.6345456416188466E-02    2.8674774502299099E+00
N    6.5114346890292643E+00   -4.8933291997745182E-02    5.0298386132634274E+00
Ga    6.5098478922480831E+00    1.7828201953059311E+00    5.8034018202606816E+00
N    6.5099003684292276E+00    1.8032675306624038E+00    7.8017296475026274E+00
Ga    6.5108903337449648E+00   -4.1959013644255791E-02    8.4488040852490016E+00
N    6.5104153775148834E+00   -3.7047288211279769E-02    1.0423577398005683E+01
Ga    6.5102684328686387E+00    1.8026444610034340E+00    1.1071268090493076E+01
N    6.5110116691435751E+00    1.7860253606984369E+00    1.3072347639918238E+01
Ga    6.5114812688428225E+00   -4.3489374839424486E-02    1.3866177368170925E+01
N    6.5119254700551608E+00   -4.5571361220617237E-02    1.6069725053554514E+01
Ga    6.5120421472900194E+00    1.9615707531879674E+00    1.6439434551247505E+01
Ga    6.5154838938857766E+00    3.6143594945771436E+00    1.4361495940734221E+00
N    5.0135804752133151E+00    4.5372131810362575E+00    2.5125442712038266E+00
Ga    4.7994299724298468E+00    2.6833171974719687E+00    3.2843113139340887E+00
N    4.9036349547241320E+00    2.7412803245166870E+00    5.2535859759287398E+00
Ga    4.8677028584851936E+00    4.6082671582930930E+00    5.8061302941927684E+00
N    4.8956790313142884E+00    4.6065441282065489E+00    7.7997293716737817E+00
Ga    4.9103990656900889E+00    2.7463496813820223E+00    8.4375097926140885E+00
N    4.9137320527430575E+00    2.7552683529397717E+00    1.0434316459857069E+01
Ga    4.8859377889832922E+00    4.6135942646591603E+00    1.1072955566680262E+01
N    4.8708348464390303E+00    4.6276940344226869E+00    1.3073140024212906E+01
Ga    4.9133634552847383E+00    2.7580461470543485E+00    1.3617704278638570E+01
N    4.8961542911323530E+00    2.7497993423278362E+00    1.5597147847518468E+01
Ga    5.0217013776275206E+00    4.5426626453854091E+00    1.6440472761912115E+01
N    6.5111329413867916E+00    3.6814386917193445E+00    1.7564119187627472E+01
N    3.3051383204116869E+00    7.4998711848220854E+00    2.5159328111938404E+00
N    3.2965550139180757E+00    5.5257226803422883E+00    5.0279912682479706E+00
Ga    3.2935078333531780E+00    7.3418951691779499E+00    5.8100117081503404E+00
N    3.2984743171660984E+00    7.3756159925178313E+00    7.8018268493436951E+00
Ga    3.2929425779431720E+00    5.5271035309296632E+00    8.4474901142117282E+00
N    3.2955387387588151E+00    5.5334886027418468E+00    1.0422049057298823E+01
Ga    3.2944535778098483E+00    7.3728397629219291E+00    1.1073936598605080E+01
N    3.2952326358282344E+00    7.3585359227938847E+00    1.3064659449657395E+01
Ga    3.2857108505062427E+00    5.5423047617507253E+00    1.3867124915843512E+01
N    3.2832097084009795E+00    5.5462569920894378E+00    1.6070297777855366E+01
Ga    3.2922485121982765E+00    7.6021271024100434E+00    1.6497692587903430E+01
Ga    3.2444725252097402E+00    9.2517156005457739E+00    1.4450189039728289E+00
N    1.7961639407397727E+00    1.0102556685317325E+01    2.5448002152383609E+00
Ga    1.6052034654130560E+00    8.2473374819909431E+00    3.3053709015940127E+00
N    1.6902951408282594E+00    8.3067255507821933E+00    5.2626468584095711E+00
Ga    1.6642178332070545E+00    1.0182098864205138E+01    5.8064617279413850E+00
N    1.6774038285733242E+00    1.0175125985174244E+01    7.8031633340100397E+00
Ga    1.6970339113411659E+00    8.3206909869440757E+00    8.4449609441354863E+00
N    1.6988565064006254E+00    8.3248005787617476E+00    1.0435437181904984E+01
Ga    1.6728453349627577E+00    1.0184754278214625E+01    1.1071830899971303E+01
N    1.6566637264658599E+00    1.0196658446998340E+01    1.3063435392444390E+01
Ga    1.6969803141682296E+00    8.3282957206724344E+00    1.3623164574195025E+01
N    1.6699463978898674E+00    8.3141115426458256E+00    1.5580747467440567E+01
Ga    1.8639302540216518E+00    1.0076186167579490E+01    1.6496464441245010E+01
N    3.3020722068830213E+00    9.2577938368539936E+00    1.7642812865134992E+01
N    9.7431867677888722E+00    1.8140788618901498E+00    2.6424259125061407E+00
Ga    9.7444679069115967E+00    6.6571066511559529E-02    3.2881691743602031E+00
N    9.7327965572062780E+00   -5.2319476310253306E-02    5.2561298411297814E+00
Ga    9.7335662340522635E+00    1.8131397973791015E+00    5.8693724528771840E+00
N    9.7248586322004691E+00    1.8134864704615770E+00    7.8495414025986125E+00
Ga    9.7271549342360668E+00   -5.1944222315598844E-02    8.4383566573622240E+00
N    9.7278959955043351E+00   -4.9883738806047649E-02    1.0432646888390954E+01
Ga    9.7276293264558404E+00    1.8205622764547629E+00    1.1025622550034809E+01
N    9.7241275350612550E+00    1.8252716124763806E+00    1.3000200242088571E+01
Ga    9.7267090289259972E+00   -4.5522617939567828E-02    1.3624321113172037E+01
N    9.7207032913740239E+00   -8.2091320939368228E-03    1.5583291492176771E+01
Ga    9.7311524957813909E+00    1.8243696760164165E+00    1.5865653760747241E+01
N    8.0142435626945634E+00    4.5364870339729384E+00    2.5163011255138703E+00
Ga    8.2246424890148830E+00    2.6817615713238951E+00    3.2883932424476878E+00
N    8.1176824949015050E+00    2.7406779683223763E+00    5.2567736979114894E+00
Ga    8.1540424623046057E+00    4.6081180584911658E+00    5.8057276165649307E+00
N    8.1254139569972192E+00    4.6071323768566685E+00    7.7992862062851342E+00
Ga    8.1090541979216155E+00    2.7468310252288539E+00    8.4381647113768743E+00
N    8.1065931040432808E+00    2.7553583328072144E+00    1.0434691318639727E+01
Ga    8.1347209001694853E+00    4.6135338865776028E+00    1.1073001887907331E+01
N    8.1514590791091397E+00    4.6276965823710192E+00    1.3073076365411250E+01
Ga    8.1088457167119721E+00    2.7581278631299262E+00    1.3617643711832477E+01
N    8.1273721574764721E+00    2.7500828075077348E+00    1.5596862383901557E+01
Ga    8.0014428459156228E+00    4.5420770224559588E+00    1.6440815204757076E+01
N    6.5150532405915245E+00    7.3745376904276494E+00    2.6109319272823130E+00
Ga    6.5128420656085746E+00    5.5444743627041726E+00    3.3182956419423659E+00
N    6.5112926404816820E+00    5.5403228408650191E+00    5.2494985686854756E+00
Ga    6.5113557070581365E+00    7.3786226920744120E+00    5.9073123735757145E+00
N    6.5108801615014373E+00    7.3836545967861129E+00    7.8628195206482232E+00
Ga    6.5103213278779721E+00    5.5130501761050814E+00    8.4494466413293061E+00
N    6.5104160967681581E+00    5.5206352247997419E+00    1.0439801646401317E+01
Ga    6.5111867265841710E+00    7.3909178529617421E+00    1.1032698701748492E+01
N    6.5115137172997075E+00    7.3908826390435234E+00    1.3004549615994758E+01
Ga    6.5113155460135603E+00    5.5246483228236825E+00    1.3619699396598563E+01
N    6.5120598235286309E+00    5.5475888640648918E+00    1.5598125774162558E+01
Ga    6.5117849450794045E+00    7.3993201573293055E+00    1.5867362001914175E+01
N    4.8075483139549808E+00    1.0094388620198709E+01    2.5069883888553277E+00
Ga    4.9326262363083044E+00    8.2944618156396164E+00    3.3175922546396821E+00
N    4.9199204151957412E+00    8.2997602228960901E+00    5.2485027186341924E+00
Ga    4.9372500067299487E+00    1.0189372362824274E+01    5.8043750881748810E+00
N    4.9141548537410102E+00    1.0171406920868174E+01    7.7979352689928181E+00
Ga    4.8911879770425086E+00    8.3212515424702982E+00    8.4501345962718357E+00
N    4.8929116154870904E+00    8.3247692035514369E+00    1.0438111133560305E+01
Ga    4.9176934289442009E+00    1.0185822662895191E+01    1.1075207298934256E+01
N    4.9344507067125951E+00    1.0197311497011986E+01    1.3067689965067146E+01
Ga    4.8910863453978006E+00    8.3291132768600029E+00    1.3626241772294618E+01
N    4.9198147787090365E+00    8.3068950052305492E+00    1.5584810951410477E+01
Ga    4.7356086850917691E+00    1.0084989945786152E+01    1.6495124963432776E+01
O    1.6697258280700733E-02    3.9878657616427247E+00   -4.5946212587797325E-01
H   -4.2440944554166593E-01    6.7958134438424818E+00   -4.3428093774991644E-01
C    1.1729410140118395E+00    3.5905365745060744E+00   -1.2138261734596756E+00
H    2.1129675493458353E+00    3.9653301220412875E+00   -7.7523949552352101E-01
H    1.2466751228029851E+00    2.4952124208860136E+00   -1.3062986195833255E+00
H    1.0690379520307318E+00    4.0173017006687326E+00   -2.2223350877516048E+00
Ga    3.2530969655707276E+00    5.4928466046440416E+00    2.8500593283993036E+00
O   -4.1640992486433542E-01    7.7044942935215257E+00   -7.8021179803503385E-02
H   -1.6150357137907284E-01    7.5656339246983402E+00    8.8672028581172746E-01
C    6.5146716418548873E+00    7.3820115058091940E+00    1.1179406023368321E+00
H    6.5046598102967375E+00    8.4137214656548789E+00    7.3812301589544960E-01
H    7.4100796570908356E+00    6.8794597329874172E+00    7.2378159098689487E-01
H    5.6296484974143084E+00    6.8616557538024487E+00    7.2370611568871746E-01
     &END COORD
     &KIND C
       BASIS_SET DZVP-MOLOPT-SR-GTH-q4
       POTENTIAL GTH-PBE-q4
       &POTENTIAL
 2 2
  0.3384712400000000E+00 2 -0.8803673979999999E+01  0.1339210850000000E+01
 2
  0.3025757500000000E+00 1  0.9622486650000001E+01
  0.2915069400000000E+00 0
         # Potential name:  GTH-PBE-Q4  for symbol:  C
         # Potential read from the potential filename: GTH_POTENTIALS
       &END POTENTIAL
     &END KIND
     &KIND O
       BASIS_SET DZVP-MOLOPT-SR-GTH-q6
       POTENTIAL GTH-PBE-q6
       &POTENTIAL
 2 4
  0.2445543000000000E+00 2 -0.1666721480000000E+02  0.2487311320000000E+01
 2
  0.2209559200000000E+00 1  0.1833745811000000E+02
  0.2113324700000000E+00 0
         # Potential name:  GTH-PBE-Q6  for symbol:  O
         # Potential read from the potential filename: GTH_POTENTIALS
       &END POTENTIAL
     &END KIND
     &KIND H
       BASIS_SET DZVP-MOLOPT-SR-GTH-q1
       POTENTIAL GTH-PBE-q1
       &POTENTIAL
 1
  0.2000000000000000E+00 2 -0.4178900440000000E+01  0.7244633100000000E+00
 0
         # Potential name:  GTH-PBE-Q1  for symbol:  H
         # Potential read from the potential filename: GTH_POTENTIALS
       &END POTENTIAL
     &END KIND
     &KIND N
       BASIS_SET DZVP-MOLOPT-SR-GTH
       POTENTIAL GTH-PBE-q5
       &POTENTIAL
 2 3
  0.2837905100000000E+00 2 -0.1241522559000000E+02  0.1868095920000000E+01
 2
  0.2554050000000000E+00 1  0.1363026257000000E+02
  0.2454945300000000E+00 0
         # Potential name:  GTH-PBE-Q5  for symbol:  N
         # Potential read from the potential filename: GTH_POTENTIALS
       &END POTENTIAL
     &END KIND
     &KIND Ga
       BASIS_SET DZVP-MOLOPT-SR-GTH
       POTENTIAL GTH-PBE-q13
       &POTENTIAL
 2 1 10
  0.4900000000000000E+00 0
 3
  0.4167772300000000E+00 3  0.1047568975000000E+02 -0.4921768140000000E+01  0.8707055900000000E+00
  0.7770178090000000E+01 -0.2248152160000000E+01
  0.1784415450000000E+01
  0.5696265200000000E+00 2  0.1777985340000000E+01  0.1958597600000000E+00
 -0.2317443900000000E+00
  0.2381265000000000E+00 1 -0.1624868022000000E+02
         # Potential name:  GTH-PBE-Q13  for symbol:  GA
         # Potential read from the potential filename: GTH_POTENTIALS
       &END POTENTIAL
     &END KIND
     &TOPOLOGY
       NUMBER_OF_ATOMS  212
       MULTIPLE_UNIT_CELL  1 1 1
     &END TOPOLOGY
   &END SUBSYS
 &END FORCE_EVAL
