 # Version information for this restart file 
 # current date 2019-07-03 07:39:20.969
 # current working dir /lustre04/scratch/rzk/rzk/GaN-carbene/443-adatoms-both-2x2/07-CH3O-H2O-H3C/02-Use0401
 # Program compiled at                              Sun Apr  7 00:48:11 EDT 2019
 # Program compiled on                          beluga2.int.ets1.calculquebec.ca
 # Program compiled for                        Beluga-Linux-x86-64-intel-openmpi
 # Source code revision number                                         svn:18619
 &GLOBAL
   PRINT_LEVEL  MEDIUM
   PROJECT_NAME TEST
   RUN_TYPE  GEO_OPT
 &END GLOBAL
 &MOTION
   &GEO_OPT
     MAX_ITER  500
     STEP_START_VAL  21
   &END GEO_OPT
 &END MOTION
 &FORCE_EVAL
   METHOD  QS
   STRESS_TENSOR  ANALYTICAL
   &DFT
     BASIS_SET_FILE_NAME BASIS_MOLOPT
     POTENTIAL_FILE_NAME GTH_POTENTIALS
     UKS  T
     SURFACE_DIPOLE_CORRECTION  T
     SURF_DIP_DIR  Z
     &SCF
       MAX_SCF  80
       EPS_SCF     5.0000000000000004E-06
       &OT  T
         PRECONDITIONER  FULL_ALL
       &END OT
       &OUTER_SCF  T
         OPTIMIZER  NONE
         EPS_SCF     5.0000000000000004E-06
         MAX_SCF  4
       &END OUTER_SCF
       &PRINT
         &RESTART  OFF
           BACKUP_COPIES  1
           &EACH
             JUST_ENERGY  0
             QS_SCF  0
             MD  20
           &END EACH
         &END RESTART
       &END PRINT
     &END SCF
     &QS
       EPS_DEFAULT     1.0000000000000000E-14
       METHOD  GPW
     &END QS
     &MGRID
       NGRIDS  5
       CUTOFF     1.2000000000000000E+03
     &END MGRID
     &XC
       DENSITY_CUTOFF     1.0000000000000000E-10
       GRADIENT_CUTOFF     1.0000000000000000E-10
       TAU_CUTOFF     1.0000000000000000E-10
       &XC_FUNCTIONAL  NO_SHORTCUT
         &PBE  T
         &END PBE
       &END XC_FUNCTIONAL
       &VDW_POTENTIAL
         POTENTIAL_TYPE  PAIR_POTENTIAL
         &PAIR_POTENTIAL
           R_CUTOFF     1.0000000000000004E+01
           TYPE  DFTD3
           PARAMETER_FILE_NAME dftd3.dat
           REFERENCE_FUNCTIONAL PBE
           EPS_CN     9.9999999999999995E-07
           CALCULATE_C9_TERM  T
           REFERENCE_C9_TERM  T
           LONG_RANGE_CORRECTION  F
           VERBOSE_OUTPUT  F
         &END PAIR_POTENTIAL
       &END VDW_POTENTIAL
     &END XC
   &END DFT
   &SUBSYS
     &CELL
       A     1.2864472766435110E+01    0.0000000000000000E+00    0.0000000000000000E+00
       B    -6.4322363581020028E+00    1.1140960178524473E+01    0.0000000000000000E+00
       C     0.0000000000000000E+00    0.0000000000000000E+00    3.2000000000000000E+01
       MULTIPLE_UNIT_CELL  1 1 1
       &CELL_REF
         A     1.2982353780853531E+01    0.0000000000000000E+00    0.0000000000000000E+00
         B    -6.4911768904267628E+00    1.1243048175136114E+01    0.0000000000000000E+00
         C     0.0000000000000000E+00    0.0000000000000000E+00    3.2000000000000000E+01
         MULTIPLE_UNIT_CELL  1 1 1
       &END CELL_REF
     &END CELL
     &COORD
N    8.0240167318646208E-02    1.9574862532623123E+00    2.4879663345224960E+00
Ga    8.5168662496816747E-02    7.0108258232835542E-03    2.8152919375676002E+00
N    8.2492475520990191E-02   -4.6324677518027824E-02    5.0116346840234200E+00
Ga    8.2579842390178182E-02    1.7897322288778534E+00    5.7946232536947075E+00
N    7.9545253861102505E-02    1.8010279239000118E+00    7.7991915079808116E+00
Ga    7.9526452171161444E-02   -3.9888457736162980E-02    8.4494308694977320E+00
N    7.8660423580314678E-02   -3.8860504968124959E-02    1.0421965813041766E+01
Ga    7.8741265539047187E-02    1.8024553766647817E+00    1.1072563039899965E+01
N    7.8952267561862993E-02    1.7850312844021015E+00    1.3066515630788830E+01
Ga    7.8652344286800499E-02   -3.3377373138690269E-02    1.3881692871765724E+01
N    7.8940945015370953E-02   -3.2171829564672599E-02    1.6070502868959732E+01
Ga    7.9161388252206658E-02    2.0159055411576690E+00    1.6492848567945707E+01
Ga    4.7943867242070538E-02    3.7067276187389542E+00    1.3316684340282674E+00
N   -1.4021813343648177E+00    4.5275340075386445E+00    2.5231284460955994E+00
Ga   -1.5868412089414727E+00    2.6968898148173484E+00    3.2717972585268034E+00
N   -1.5287776212762489E+00    2.7385253045133804E+00    5.2568805903146743E+00
Ga   -1.5484989343861506E+00    4.6063489962351358E+00    5.8021305396236320E+00
N   -1.5412483681386000E+00    4.6068547859534403E+00    7.8040739199904525E+00
Ga   -1.5192185077258531E+00    2.7478022656949079E+00    8.4355993632042203E+00
N   -1.5184522431765548E+00    2.7528849614056212E+00    1.0432213292357510E+01
Ga   -1.5426746367724273E+00    4.6121136751497822E+00    1.1069334781313559E+01
N   -1.5597156356141222E+00    4.6261865728660148E+00    1.3062093367051725E+01
Ga   -1.5176346300082060E+00    2.7583009588711151E+00    1.3623814397232078E+01
N   -1.5518961799234774E+00    2.7479882763771633E+00    1.5582382326011151E+01
Ga   -1.3488677474268347E+00    4.5090777067437111E+00    1.6495139089354019E+01
N    7.9316145960781279E-02    3.6716233051097515E+00    1.7636323527712978E+01
N   -3.1367232729103072E+00    7.4940377374897942E+00    2.5271209297802146E+00
Ga   -3.0912510998112750E+00    5.4907542089473624E+00    2.8444525493950628E+00
N   -3.1363907879071893E+00    5.5249307743748322E+00    5.0245804591596208E+00
Ga   -3.1364326611598226E+00    7.3408989387187660E+00    5.8113367935414111E+00
N   -3.1422488003403859E+00    7.3747035391531588E+00    7.8019689565500272E+00
Ga   -3.1369765468029769E+00    5.5271550784544123E+00    8.4512113906612267E+00
N   -3.1394358559267657E+00    5.5331424495345880E+00    1.0424169891272319E+01
Ga   -3.1362351822157000E+00    7.3735978000738962E+00    1.1073920114243565E+01
N   -3.1366131425272759E+00    7.3578557862601484E+00    1.3064846214658074E+01
Ga   -3.1268542231369447E+00    5.5419206576659024E+00    1.3864510638417949E+01
N   -3.1260743996926226E+00    5.5446542567899284E+00    1.6071525368383693E+01
Ga   -3.1339208280098907E+00    7.6025182746317661E+00    1.6497836031513419E+01
Ga   -3.0398802308300654E+00    9.2122871821087688E+00    1.4485949483928537E+00
N   -4.6275062429553770E+00    1.0085566785670586E+01    2.4778424787586038E+00
Ga   -4.7666019231906285E+00    8.2973193235204690E+00    3.3168183499231754E+00
N   -4.7596197390637318E+00    8.3019853495092626E+00    5.2475655430053560E+00
Ga   -4.7750776177434959E+00    1.0192008379026184E+01    5.8032298618119560E+00
N   -4.7559073223921571E+00    1.0172329304722579E+01    7.7966963678065042E+00
Ga   -4.7334318761098793E+00    8.3223765532552569E+00    8.4516361229909993E+00
N   -4.7350537262939936E+00    8.3253141522262002E+00    1.0438606891997329E+01
Ga   -4.7608389137422824E+00    1.0186079170773882E+01    1.1077317485391518E+01
N   -4.7773791182426892E+00    1.0197242828083366E+01    1.3069186984484400E+01
Ga   -4.7330402641027707E+00    8.3285194061415009E+00    1.3627499395874720E+01
N   -4.7611558025391600E+00    8.3063655778584771E+00    1.5585474091307445E+01
Ga   -4.5787449149458643E+00    1.0085403865982176E+01    1.6495159480004489E+01
N   -3.1447557440054132E+00    9.2581630280811389E+00    1.7638794488464612E+01
N    3.2869887541668223E+00    1.8141913456554093E+00    2.6261477995515246E+00
Ga    3.2886043647409213E+00    6.4685617475002954E-02    3.2724949157610888E+00
N    3.2921043099874221E+00   -5.0953887838233465E-02    5.2445679297834396E+00
Ga    3.2875078695319297E+00    1.8139445724373222E+00    5.8627649952166161E+00
N    3.2958477475194741E+00    1.8133329617154565E+00    7.8450203742990654E+00
Ga    3.2944351570355686E+00   -5.0291748067024744E-02    8.4387074667289941E+00
N    3.2930627008981666E+00   -5.0270693916138247E-02    1.0432532267420058E+01
Ga    3.2936756464784351E+00    1.8195813974299526E+00    1.1028128252761132E+01
N    3.2978782217310680E+00    1.8241864632531322E+00    1.3001597142250560E+01
Ga    3.2957960789120082E+00   -4.7036948885213925E-02    1.3626193281646801E+01
N    3.3023159550432890E+00   -8.3578189290837886E-03    1.5584024449842822E+01
Ga    3.2936319611411480E+00    1.8244120518305598E+00    1.5864622858266264E+01
N    1.5691039423508639E+00    4.5305055097338220E+00    2.5171882329265909E+00
Ga    1.7493907827446249E+00    2.7036997285215341E+00    3.2560909602768078E+00
N    1.6898048042063698E+00    2.7385237188185281E+00    5.2483802442253307E+00
Ga    1.7094430930533480E+00    4.6040817354208210E+00    5.8003568646566661E+00
N    1.6990232922509432E+00    4.6059105247791718E+00    7.8033375232013498E+00
Ga    1.6779900957349259E+00    2.7475088802704204E+00    8.4355047181996543E+00
N    1.6760639319873905E+00    2.7525656350561594E+00    1.0432123452702189E+01
Ga    1.6997005604003885E+00    4.6119145225069502E+00    1.1069282478765068E+01
N    1.7175687209151889E+00    4.6261946720647442E+00    1.3062063557715634E+01
Ga    1.6752247291604838E+00    2.7585438676639136E+00    1.3624196233459266E+01
N    1.7106395357178037E+00    2.7476243927838753E+00    1.5582556721567677E+01
Ga    1.5080027260165212E+00    4.5090901896052129E+00    1.6495035283766573E+01
N    8.2850688994428059E-02    7.3679188222977290E+00    2.6605632406173791E+00
Ga    8.8751547270242315E-02    5.5846339398012148E+00    3.2955349897355872E+00
N    8.0455748660602663E-02    5.5312287047057671E+00    5.2691071880717208E+00
Ga    8.3762062354535483E-02    7.3748863430239959E+00    5.8879082765522748E+00
N    7.9698002594354000E-02    7.3875933061501904E+00    7.8585416421072063E+00
Ga    7.9326217270301327E-02    5.5163003998616711E+00    8.4392064362940911E+00
N    7.8510226672453165E-02    5.5205803629671530E+00    1.0432568306278837E+01
Ga    7.8691940045905545E-02    7.3897855136172517E+00    1.1026945913364791E+01
N    7.8729030156201335E-02    7.3936958824255745E+00    1.2996067683663149E+01
Ga    7.8998398463427849E-02    5.5251646975252600E+00    1.3622349695573680E+01
N    7.9292300523950365E-02    5.5586096489244774E+00    1.5579594206191802E+01
Ga    7.9893703765979249E-02    7.3953041608345114E+00    1.5857523357380472E+01
N   -1.6238097348756542E+00    1.0095595180509784E+01    2.5444024362411501E+00
Ga   -1.4323201379971047E+00    8.2452952055651334E+00    3.3264852516953058E+00
N   -1.5304821879544275E+00    8.3077869195252312E+00    5.2742805844219118E+00
Ga   -1.5062372633321148E+00    1.0186978681484577E+01    5.8071157530854398E+00
N   -1.5205642106261350E+00    1.0177477109486958E+01    7.8023265379729914E+00
Ga   -1.5389219866681465E+00    8.3211071374820289E+00    8.4405403734346987E+00
N   -1.5415489892967946E+00    8.3243566077624092E+00    1.0431849519742190E+01
Ga   -1.5163638161446589E+00    1.0183284078692024E+01    1.1070730816755649E+01
N   -1.4985458214316671E+00    1.0195722394718143E+01    1.3062832079411882E+01
Ga   -1.5387187183057058E+00    8.3278946223719608E+00    1.3624491856698160E+01
N   -1.5109533420780612E+00    8.3136956141873135E+00    1.5581511254661010E+01
Ga   -1.7058640558848190E+00    1.0076200216381160E+01    1.6496737494711184E+01
N    6.5138478620821392E+00    1.9257508486580182E+00    2.5368169900750916E+00
Ga    6.5179347817660274E+00   -4.7329829502018389E-02    2.8625498479763158E+00
N    6.5117509118678747E+00   -4.7387667794182693E-02    5.0273721903833337E+00
Ga    6.5106982533729143E+00    1.7839859946511061E+00    5.8025612846343195E+00
N    6.5106638109038792E+00    1.8041214948003779E+00    7.8010924869578755E+00
Ga    6.5113217979850537E+00   -4.0828417132674176E-02    8.4493139127689432E+00
N    6.5108086071515494E+00   -3.7479887158836905E-02    1.0423438848375584E+01
Ga    6.5106169805359331E+00    1.8019648790080129E+00    1.1071935353169378E+01
N    6.5110936600846427E+00    1.7841769798863085E+00    1.3071770943111995E+01
Ga    6.5117176226258273E+00   -4.5357519418876120E-02    1.3864019598295283E+01
N    6.5116698751137783E+00   -4.4320656171680482E-02    1.6070468139342228E+01
Ga    6.5119772468980290E+00    1.9554933335781322E+00    1.6437925952319240E+01
Ga    6.5158891048253507E+00    3.6187262355483312E+00    1.4336290040822621E+00
N    5.0125599479631626E+00    4.5412076970163664E+00    2.5116595091501726E+00
Ga    4.8013069343754662E+00    2.6842503002899760E+00    3.2833867507907319E+00
N    4.9045589045253495E+00    2.7433602022927817E+00    5.2522498125972907E+00
Ga    4.8683839007688148E+00    4.6099118251508449E+00    5.8070221975330041E+00
N    4.8963485495150154E+00    4.6068802543562262E+00    7.8008964943938421E+00
Ga    4.9108120895752316E+00    2.7462977202856655E+00    8.4378299740578129E+00
N    4.9138690315323776E+00    2.7543336141195813E+00    1.0434399667425033E+01
Ga    4.8859992251831743E+00    4.6123351029946580E+00    1.1074835213174328E+01
N    4.8696348083306180E+00    4.6273643433049605E+00    1.3073451678233772E+01
Ga    4.9138883737729770E+00    2.7572944313684014E+00    1.3619206770349733E+01
N    4.8968534250962037E+00    2.7496511245716415E+00    1.5596854101159936E+01
Ga    5.0166819225888730E+00    4.5451539772244436E+00    1.6438540193434523E+01
N    6.5109545837497480E+00    3.6810259501991580E+00    1.7558200372301997E+01
N    3.3054856552247016E+00    7.4995461596066981E+00    2.5119982284716649E+00
N    3.2972037636284064E+00    5.5265293098428980E+00    5.0272718001923495E+00
Ga    3.2939017847462737E+00    7.3429472516616237E+00    5.8102503964167767E+00
N    3.2992050364212906E+00    7.3756892742763274E+00    7.8018922836387476E+00
Ga    3.2943548879489133E+00    5.5274682732260505E+00    8.4503717393695563E+00
N    3.2960564724349335E+00    5.5332789805207412E+00    1.0423710851067504E+01
Ga    3.2937786565161891E+00    7.3734672072448042E+00    1.1074252128456815E+01
N    3.2946550223150957E+00    7.3579290018377472E+00    1.3064671536020542E+01
Ga    3.2847104282500617E+00    5.5425148169469853E+00    1.3865211697215905E+01
N    3.2845473626844326E+00    5.5448057330904961E+00    1.6071180091253492E+01
Ga    3.2930236909044401E+00    7.6043375001014102E+00    1.6500002168009761E+01
Ga    3.2496379327025968E+00    9.2511133069867562E+00    1.4371626017626047E+00
N    1.7950001407857168E+00    1.0102267018931501E+01    2.5387182457048834E+00
Ga    1.6053704235509243E+00    8.2502968936282404E+00    3.3008780307603383E+00
N    1.6919020216576395E+00    8.3086506536446461E+00    5.2596972469060033E+00
Ga    1.6646480735399238E+00    1.0183768997259264E+01    5.8051925754688165E+00
N    1.6779133830732849E+00    1.0176623795923334E+01    7.8014781721356368E+00
Ga    1.6968833371759651E+00    8.3213825294540449E+00    8.4425182003269921E+00
N    1.6988741885737484E+00    8.3247197258942993E+00    1.0433018773625880E+01
Ga    1.6735145589284803E+00    1.0183727782015813E+01    1.1071365425133147E+01
N    1.6566419031274051E+00    1.0195700971383443E+01    1.3062819618320612E+01
Ga    1.6967313772653554E+00    8.3277871073748688E+00    1.3624713488142815E+01
N    1.6697568010194850E+00    8.3136913488069428E+00    1.5581113330056603E+01
Ga    1.8666365121168258E+00    1.0075046672642330E+01    1.6499023923129805E+01
N    3.3027537702860337E+00    9.2576556654070874E+00    1.7643081617477812E+01
N    9.7410236803285830E+00    1.8154847462420347E+00    2.6352896662406926E+00
Ga    9.7410276618230576E+00    6.7305176574219638E-02    3.2827308530939963E+00
N    9.7327263791704315E+00   -5.0644974740888929E-02    5.2519502810158603E+00
Ga    9.7351217698068115E+00    1.8143927137201132E+00    5.8681494621935739E+00
N    9.7260865195288186E+00    1.8140315294533997E+00    7.8486155951382441E+00
Ga    9.7277729630511303E+00   -5.1112037148678013E-02    8.4383899461277991E+00
N    9.7284187544840215E+00   -5.0563513216857640E-02    1.0432283507019456E+01
Ga    9.7282282730779208E+00    1.8195693413068796E+00    1.1027378187056327E+01
N    9.7242683787068032E+00    1.8242626962148480E+00    1.3000845478357665E+01
Ga    9.7268983948444117E+00   -4.6914090846217164E-02    1.3626403922163050E+01
N    9.7210412078454755E+00   -8.2040682552422771E-03    1.5583473565448742E+01
Ga    9.7298611287165873E+00    1.8240718486167462E+00    1.5864072928493464E+01
N    8.0154518767996272E+00    4.5405776264454767E+00    2.5145550094153282E+00
Ga    8.2243649799198124E+00    2.6833370951246387E+00    3.2866871076013502E+00
N    8.1183742448311467E+00    2.7427871441998315E+00    5.2549812397248541E+00
Ga    8.1551459462850140E+00    4.6098544676847855E+00    5.8067218523793347E+00
N    8.1258243883465244E+00    4.6073020790494637E+00    7.8006148430989866E+00
Ga    8.1100178612824418E+00    2.7467958396891303E+00    8.4384121469219231E+00
N    8.1072799088849816E+00    2.7543890960885724E+00    1.0434583216506855E+01
Ga    8.1349557353562645E+00    4.6121513913916097E+00    1.1074872898686372E+01
N    8.1525408292915102E+00    4.6273133313699777E+00    1.3073285224430641E+01
Ga    8.1085624315640281E+00    2.7572875077737939E+00    1.3618883510384805E+01
N    8.1266124457385978E+00    2.7499348836002575E+00    1.5596403047715150E+01
Ga    8.0060154571562379E+00    4.5444277095379295E+00    1.6438740256340779E+01
N    6.5148734415570528E+00    7.3771945071009624E+00    2.6149108488524173E+00
Ga    6.5130324844969438E+00    5.5458928586249367E+00    3.3199143535387643E+00
N    6.5120396384699140E+00    5.5416537085851632E+00    5.2512253745396906E+00
Ga    6.5121558420374139E+00    7.3809465774579772E+00    5.9086673651700634E+00
N    6.5113129939375041E+00    7.3840720994968239E+00    7.8639149729382591E+00
Ga    6.5108409554273790E+00    5.5122459582048240E+00    8.4514156317457765E+00
N    6.5106438869416916E+00    5.5191408253905889E+00    1.0440898036421883E+01
Ga    6.5110567770678829E+00    7.3904240622038779E+00    1.1033981019806292E+01
N    6.5113146945656881E+00    7.3901776851448480E+00    1.3004952299520539E+01
Ga    6.5112706475681419E+00    5.5240258584769961E+00    1.3620776707271194E+01
N    6.5120018992111515E+00    5.5466701628139168E+00    1.5597740943970255E+01
Ga    6.5115845761307662E+00    7.3979334933825625E+00    1.5866397160141640E+01
N    4.8067943569265230E+00    1.0095569416031461E+01    2.5005958215071695E+00
Ga    4.9303151410978154E+00    8.2956642464921604E+00    3.3181498613659364E+00
N    4.9197473640682743E+00    8.3015515327143543E+00    5.2489072959771494E+00
Ga    4.9379854545590804E+00    1.0191987145747540E+01    5.8033938644241365E+00
N    4.9150273221582763E+00    1.0172651034206105E+01    7.7972039589130064E+00
Ga    4.8910490872790993E+00    8.3224370440367661E+00    8.4514935076211302E+00
N    4.8924925656231775E+00    8.3250146366131048E+00    1.0438507767730890E+01
Ga    4.9179537974345138E+00    1.0185816633980796E+01    1.1077132706002029E+01
N    4.9353123920691910E+00    1.0197177469506697E+01    1.3068590888628924E+01
Ga    4.8910199351950245E+00    8.3287035286723636E+00    1.3627986043568164E+01
N    4.9206004815752431E+00    8.3064246259785328E+00    1.5585051582448800E+01
Ga    4.7349303675920371E+00    1.0084039137424407E+01    1.6497545148084985E+01
O    1.3114924240553862E-02    3.9820333717208265E+00   -4.6426495822554809E-01
H   -4.3864731106014948E-01    6.8045510054616321E+00   -4.3227574419001691E-01
C    1.1721140267533658E+00    3.5898767385502230E+00   -1.2138567774432774E+00
H    2.1113943648342315E+00    3.9672296379539955E+00   -7.7243625813607364E-01
H    1.2503904922092075E+00    2.4936012643830603E+00   -1.3078091210230198E+00
H    1.0711401022319853E+00    4.0168961808544976E+00   -2.2238138866978900E+00
Ga    3.2534466880253974E+00    5.4935624445076190E+00    2.8475846803187110E+00
O   -4.3382844093199058E-01    7.7041479815375400E+00   -5.1412591548367088E-02
H   -1.6799431890274014E-01    7.5408036132719403E+00    9.1018019611591694E-01
C    6.5145056064321931E+00    7.3824232709282773E+00    1.1237765975382057E+00
H    6.5054096474002669E+00    8.4142145294389952E+00    7.3972262232666175E-01
H    7.4113390041667913E+00    6.8776775304647622E+00    7.3107816359724787E-01
H    5.6278175411300264E+00    6.8608309815469291E+00    7.3155699046094269E-01
     &END COORD
     &KIND C
       BASIS_SET DZVP-MOLOPT-SR-GTH-q4
       POTENTIAL GTH-PBE-q4
       &POTENTIAL
 2 2
  0.3384712400000000E+00 2 -0.8803673979999999E+01  0.1339210850000000E+01
 2
  0.3025757500000000E+00 1  0.9622486650000001E+01
  0.2915069400000000E+00 0
         # Potential name:  GTH-PBE-Q4  for symbol:  C
         # Potential read from the potential filename: GTH_POTENTIALS
       &END POTENTIAL
     &END KIND
     &KIND O
       BASIS_SET DZVP-MOLOPT-SR-GTH-q6
       POTENTIAL GTH-PBE-q6
       &POTENTIAL
 2 4
  0.2445543000000000E+00 2 -0.1666721480000000E+02  0.2487311320000000E+01
 2
  0.2209559200000000E+00 1  0.1833745811000000E+02
  0.2113324700000000E+00 0
         # Potential name:  GTH-PBE-Q6  for symbol:  O
         # Potential read from the potential filename: GTH_POTENTIALS
       &END POTENTIAL
     &END KIND
     &KIND H
       BASIS_SET DZVP-MOLOPT-SR-GTH-q1
       POTENTIAL GTH-PBE-q1
       &POTENTIAL
 1
  0.2000000000000000E+00 2 -0.4178900440000000E+01  0.7244633100000000E+00
 0
         # Potential name:  GTH-PBE-Q1  for symbol:  H
         # Potential read from the potential filename: GTH_POTENTIALS
       &END POTENTIAL
     &END KIND
     &KIND N
       BASIS_SET DZVP-MOLOPT-SR-GTH
       POTENTIAL GTH-PBE-q5
       &POTENTIAL
 2 3
  0.2837905100000000E+00 2 -0.1241522559000000E+02  0.1868095920000000E+01
 2
  0.2554050000000000E+00 1  0.1363026257000000E+02
  0.2454945300000000E+00 0
         # Potential name:  GTH-PBE-Q5  for symbol:  N
         # Potential read from the potential filename: GTH_POTENTIALS
       &END POTENTIAL
     &END KIND
     &KIND Ga
       BASIS_SET DZVP-MOLOPT-SR-GTH
       POTENTIAL GTH-PBE-q13
       &POTENTIAL
 2 1 10
  0.4900000000000000E+00 0
 3
  0.4167772300000000E+00 3  0.1047568975000000E+02 -0.4921768140000000E+01  0.8707055900000000E+00
  0.7770178090000000E+01 -0.2248152160000000E+01
  0.1784415450000000E+01
  0.5696265200000000E+00 2  0.1777985340000000E+01  0.1958597600000000E+00
 -0.2317443900000000E+00
  0.2381265000000000E+00 1 -0.1624868022000000E+02
         # Potential name:  GTH-PBE-Q13  for symbol:  GA
         # Potential read from the potential filename: GTH_POTENTIALS
       &END POTENTIAL
     &END KIND
     &TOPOLOGY
       NUMBER_OF_ATOMS  212
       MULTIPLE_UNIT_CELL  1 1 1
     &END TOPOLOGY
   &END SUBSYS
 &END FORCE_EVAL
