 # Version information for this restart file 
 # current date 2019-07-03 10:04:03.334
 # current working dir /lustre04/scratch/rzk/rzk/GaN-carbene/443-adatoms-both-2x2/07-CH3O-H2O-H3C/02-Use0401
 # Program compiled at                              Sun Apr  7 00:48:11 EDT 2019
 # Program compiled on                          beluga2.int.ets1.calculquebec.ca
 # Program compiled for                        Beluga-Linux-x86-64-intel-openmpi
 # Source code revision number                                         svn:18619
 &GLOBAL
   PRINT_LEVEL  MEDIUM
   PROJECT_NAME TEST
   RUN_TYPE  GEO_OPT
 &END GLOBAL
 &MOTION
   &GEO_OPT
     MAX_ITER  500
     STEP_START_VAL  46
   &END GEO_OPT
 &END MOTION
 &FORCE_EVAL
   METHOD  QS
   STRESS_TENSOR  ANALYTICAL
   &DFT
     BASIS_SET_FILE_NAME BASIS_MOLOPT
     POTENTIAL_FILE_NAME GTH_POTENTIALS
     UKS  T
     SURFACE_DIPOLE_CORRECTION  T
     SURF_DIP_DIR  Z
     &SCF
       MAX_SCF  80
       EPS_SCF     5.0000000000000004E-06
       &OT  T
         PRECONDITIONER  FULL_ALL
       &END OT
       &OUTER_SCF  T
         OPTIMIZER  NONE
         EPS_SCF     5.0000000000000004E-06
         MAX_SCF  4
       &END OUTER_SCF
       &PRINT
         &RESTART  OFF
           BACKUP_COPIES  1
           &EACH
             JUST_ENERGY  0
             QS_SCF  0
             MD  20
           &END EACH
         &END RESTART
       &END PRINT
     &END SCF
     &QS
       EPS_DEFAULT     1.0000000000000000E-14
       METHOD  GPW
     &END QS
     &MGRID
       NGRIDS  5
       CUTOFF     1.2000000000000000E+03
     &END MGRID
     &XC
       DENSITY_CUTOFF     1.0000000000000000E-10
       GRADIENT_CUTOFF     1.0000000000000000E-10
       TAU_CUTOFF     1.0000000000000000E-10
       &XC_FUNCTIONAL  NO_SHORTCUT
         &PBE  T
         &END PBE
       &END XC_FUNCTIONAL
       &VDW_POTENTIAL
         POTENTIAL_TYPE  PAIR_POTENTIAL
         &PAIR_POTENTIAL
           R_CUTOFF     1.0000000000000004E+01
           TYPE  DFTD3
           PARAMETER_FILE_NAME dftd3.dat
           REFERENCE_FUNCTIONAL PBE
           EPS_CN     9.9999999999999995E-07
           CALCULATE_C9_TERM  T
           REFERENCE_C9_TERM  T
           LONG_RANGE_CORRECTION  F
           VERBOSE_OUTPUT  F
         &END PAIR_POTENTIAL
       &END VDW_POTENTIAL
     &END XC
   &END DFT
   &SUBSYS
     &CELL
       A     1.2864472766435110E+01    0.0000000000000000E+00    0.0000000000000000E+00
       B    -6.4322363581020028E+00    1.1140960178524473E+01    0.0000000000000000E+00
       C     0.0000000000000000E+00    0.0000000000000000E+00    3.2000000000000000E+01
       MULTIPLE_UNIT_CELL  1 1 1
       &CELL_REF
         A     1.2982353780853531E+01    0.0000000000000000E+00    0.0000000000000000E+00
         B    -6.4911768904267628E+00    1.1243048175136114E+01    0.0000000000000000E+00
         C     0.0000000000000000E+00    0.0000000000000000E+00    3.2000000000000000E+01
         MULTIPLE_UNIT_CELL  1 1 1
       &END CELL_REF
     &END CELL
     &COORD
N    8.4084925218219225E-02    1.9511371314970105E+00    2.4612535729617777E+00
Ga    1.1984030849006987E-01   -2.8215833377851170E-02    2.7579006817605061E+00
N    9.5798753130350772E-02   -5.2074739124342191E-02    4.9978877085771449E+00
Ga    8.4698998067045506E-02    1.7768483241555395E+00    5.7622387455130051E+00
N    8.2008387285206305E-02    1.7936707691365739E+00    7.7773705416915835E+00
Ga    8.0335608549935350E-02   -4.5195869501167815E-02    8.4360650318451675E+00
N    8.5341622193675193E-02   -4.2840557600053758E-02    1.0419935854457279E+01
Ga    8.9228296370558957E-02    1.8000327616804881E+00    1.1063506586266215E+01
N    9.1926183548331930E-02    1.7858317017770200E+00    1.3068102833658781E+01
Ga    1.0191046553200458E-01   -2.6903284190341287E-02    1.3867411072025764E+01
N    1.1023019926290047E-01   -1.7642121253879265E-02    1.6106970223149730E+01
Ga    9.5156501833512611E-02    2.0465758400812715E+00    1.6531056020168290E+01
Ga    3.6284783150874945E-02    3.6671219961460806E+00    1.2987141899161883E+00
N   -1.4044809970963479E+00    4.5405153616288425E+00    2.4931290158209460E+00
Ga   -1.5820389214691351E+00    2.6916390469455318E+00    3.2443458592224332E+00
N   -1.5254297516924298E+00    2.7374829536850678E+00    5.2312816732654452E+00
Ga   -1.5364168084743393E+00    4.5991334003177320E+00    5.7881364943002467E+00
N   -1.5281606165665842E+00    4.5997336713881074E+00    7.7911248232083592E+00
Ga   -1.5134577507464337E+00    2.7359359635916523E+00    8.4149078741099359E+00
N   -1.5093316825157601E+00    2.7455253914171442E+00    1.0421541439698837E+01
Ga   -1.5359564266139623E+00    4.5985421602284360E+00    1.1077394876079095E+01
N   -1.5479759377787312E+00    4.6192088434065903E+00    1.3075971605091139E+01
Ga   -1.5037012204831304E+00    2.7524428007252237E+00    1.3634535199069127E+01
N   -1.5255613625784334E+00    2.7367465126168411E+00    1.5599227346626069E+01
Ga   -1.3479757422739074E+00    4.5214356113671164E+00    1.6506749552285847E+01
N    8.3349268878243968E-02    3.7046097898439245E+00    1.7672375109695075E+01
N   -3.1193851363269496E+00    7.4736353868256309E+00    2.6832340864415851E+00
Ga   -3.0963113922666450E+00    5.5096920239109224E+00    2.9277731431794041E+00
N   -3.1389239632323460E+00    5.5076677619219261E+00    5.0559355865286069E+00
Ga   -3.1579478146637969E+00    7.3376379078605281E+00    5.8353740450508207E+00
N   -3.1424566170031998E+00    7.3648365560521647E+00    7.8227862195433904E+00
Ga   -3.1285621498785599E+00    5.5144821463394385E+00    8.4493952231859257E+00
N   -3.1242845232467698E+00    5.5242738512878198E+00    1.0424685013699692E+01
Ga   -3.1264707360050052E+00    7.3654119598041508E+00    1.1077040328933139E+01
N   -3.1259787493525102E+00    7.3542815008377493E+00    1.3076212311689554E+01
Ga   -3.1237013537026375E+00    5.5335773463257887E+00    1.3883696047279209E+01
N   -3.1198185137956265E+00    5.5431270447720831E+00    1.6072553228818222E+01
Ga   -3.1224178466397188E+00    7.5876463336388218E+00    1.6502124029508881E+01
Ga   -2.7679903464659361E+00    8.9721516991028913E+00    1.3789244149012194E+00
N   -4.5955754785364986E+00    1.0055838669936259E+01    2.4117880104599152E+00
Ga   -4.7550785975185832E+00    8.3417272616391518E+00    3.3139808688544341E+00
N   -4.7646899571096020E+00    8.3072151234778548E+00    5.2650092069780916E+00
Ga   -4.7652911445690433E+00    1.0196711566292608E+01    5.7999875791030009E+00
N   -4.7483046843621430E+00    1.0171867446436538E+01    7.8017765500607492E+00
Ga   -4.7349657569733088E+00    8.3224706265237334E+00    8.4529070743886532E+00
N   -4.7252540314791194E+00    8.3227535261914518E+00    1.0445212996182068E+01
Ga   -4.7497829550491186E+00    1.0184510124364472E+01    1.1074509450483930E+01
N   -4.7638826205235238E+00    1.0196909119429186E+01    1.3074198580381262E+01
Ga   -4.7212957236281392E+00    8.3295789051360600E+00    1.3632809939743385E+01
N   -4.7544947983128116E+00    8.3272327295866919E+00    1.5597017894423393E+01
Ga   -4.5478069438847273E+00    1.0080758618857196E+01    1.6523465221163033E+01
N   -3.1164134657935234E+00    9.2406851007002029E+00    1.7664113582279874E+01
N    3.2820006690067860E+00    1.8071300500861047E+00    2.6228294378336474E+00
Ga    3.2814092572611586E+00    1.8060377646480389E-02    3.1965840651989761E+00
N    3.2944966208517865E+00   -5.4339442635198187E-02    5.2192685723504697E+00
Ga    3.2790492061794674E+00    1.8034233517407912E+00    5.8236412716569683E+00
N    3.2957289080089764E+00    1.8089409631902769E+00    7.8190158244649295E+00
Ga    3.2962253311703300E+00   -4.6597050380461635E-02    8.4362251879656309E+00
N    3.3031165221865639E+00   -5.2350210924438860E-02    1.0435455983340777E+01
Ga    3.3012321664826945E+00    1.8158793408768388E+00    1.1024100011836943E+01
N    3.3026026830245958E+00    1.8198983526323864E+00    1.2999132954999967E+01
Ga    3.3058989025237633E+00   -4.4942982252213264E-02    1.3633621300837049E+01
N    3.3036850245339040E+00   -1.1161711400264574E-02    1.5595169509331820E+01
Ga    3.3070741676829063E+00    1.8276180411568004E+00    1.5867486329629104E+01
N    1.5652857937695512E+00    4.5508427121566086E+00    2.4759584614485806E+00
Ga    1.7468086355057300E+00    2.7049085972933917E+00    3.2246761603687060E+00
N    1.6821949158989069E+00    2.7451954665926039E+00    5.2193360446385118E+00
Ga    1.7042993852885686E+00    4.6069358551925257E+00    5.7635659153944632E+00
N    1.6948121668365486E+00    4.6009629730742940E+00    7.7766604332695435E+00
Ga    1.6804238611426270E+00    2.7407959585164470E+00    8.4083331421901839E+00
N    1.6851911546844260E+00    2.7463659189203997E+00    1.0417753738702089E+01
Ga    1.7122301119223169E+00    4.5983823236237429E+00    1.1071433828987262E+01
N    1.7289424883073039E+00    4.6168811680833342E+00    1.3070168622193975E+01
Ga    1.6880708207134389E+00    2.7509529675481947E+00    1.3636764781376304E+01
N    1.7129689432485260E+00    2.7436399170851087E+00    1.5599243793595063E+01
Ga    1.5216909711885946E+00    4.5088295160111871E+00    1.6512138286208074E+01
N    4.7795477381289191E-02    7.4461207783899699E+00    2.6375427553668773E+00
Ga    8.2664307977445575E-02    5.5725886209029447E+00    3.2438094179840382E+00
N    7.6238332795009189E-02    5.5591647784798122E+00    5.2102422818453915E+00
Ga    1.1049451407279681E-01    7.3700779252715725E+00    5.9189009489023841E+00
N    9.6008344614834540E-02    7.3714519921404635E+00    7.8775214795458917E+00
Ga    8.7552876906016999E-02    5.4981594398143363E+00    8.4521048290578609E+00
N    8.7611537989473229E-02    5.5079556124605196E+00    1.0444492545722413E+01
Ga    8.6363052792439748E-02    7.3804528276268755E+00    1.1035667271338404E+01
N    9.2648291620386652E-02    7.3904119685974763E+00    1.3013831722762079E+01
Ga    9.1379864646627396E-02    5.5181637757466584E+00    1.3632995219751002E+01
N    1.0233340567216717E-01    5.5661450380035484E+00    1.5593878302102095E+01
Ga    8.8729126936069644E-02    7.3977666503745843E+00    1.5876961859541384E+01
N   -1.6113459616572900E+00    1.0087225050863735E+01    2.6047168599967905E+00
Ga   -1.4813407820537916E+00    8.3157157176941148E+00    3.4727002446815609E+00
N   -1.5139264273674429E+00    8.3045900627379723E+00    5.3722553920932699E+00
Ga   -1.5092590995736150E+00    1.0215746666966650E+01    5.8264251164883136E+00
N   -1.5159174812292662E+00    1.0178698600742871E+01    7.8196531707741679E+00
Ga   -1.5328968885662579E+00    8.3141424624864726E+00    8.4392544048108569E+00
N   -1.5295742931453706E+00    8.3162125797335644E+00    1.0440133222128892E+01
Ga   -1.5066280719125336E+00    1.0179269806542726E+01    1.1067961104660535E+01
N   -1.4903515394889395E+00    1.0194587447286303E+01    1.3068629837877401E+01
Ga   -1.5298821109574656E+00    8.3276886789161395E+00    1.3631914692772694E+01
N   -1.4916704753836898E+00    8.3246627174563805E+00    1.5594098688411776E+01
Ga   -1.6960465824275717E+00    1.0084848400871547E+01    1.6507459911409114E+01
N    6.5077316269849073E+00    1.9307414264364458E+00    2.5211417069811870E+00
Ga    6.5183796498846895E+00   -6.9486525101891530E-02    2.8521166921305312E+00
N    6.5156522059052620E+00   -4.7254914953954029E-02    5.0310868534456246E+00
Ga    6.5113746477516310E+00    1.7768859153443770E+00    5.7923664440225959E+00
N    6.5143715598126066E+00    1.7964013127898788E+00    7.7919764539527225E+00
Ga    6.5255987679553282E+00   -4.9198906983057671E-02    8.4437577336550884E+00
N    6.5250115341070520E+00   -4.5579539460627386E-02    1.0422971815156453E+01
Ga    6.5193923710471422E+00    1.7995114170701205E+00    1.1057009774478770E+01
N    6.5223864364466149E+00    1.7865330221567508E+00    1.3054933905091733E+01
Ga    6.5108955470991852E+00   -2.6834221468730751E-02    1.3857906104104821E+01
N    6.5055245615117823E+00   -1.7216704429858447E-02    1.6077412796191709E+01
Ga    6.5212647645112218E+00    2.0543209381259775E+00    1.6492010516435982E+01
Ga    6.5111494386605111E+00    3.6483091482751662E+00    1.5038869371040433E+00
N    5.0120571934705822E+00    4.5489261706893824E+00    2.5152242521059618E+00
Ga    4.7876768153128388E+00    2.6706517410277408E+00    3.2796763370625279E+00
N    4.9077632908455504E+00    2.7423969930625520E+00    5.2439805864481395E+00
Ga    4.8636036388751238E+00    4.6081267341330223E+00    5.7992057901169378E+00
N    4.8961409512978387E+00    4.6028189350509994E+00    7.7931739783588680E+00
Ga    4.9095796824563376E+00    2.7386334068887819E+00    8.4169268896389564E+00
N    4.9197577921171920E+00    2.7468520609716087E+00    1.0418524828511581E+01
Ga    4.8945109442895109E+00    4.6054085654735442E+00    1.1058297294335565E+01
N    4.8829180908822956E+00    4.6224863520924115E+00    1.3054718487421324E+01
Ga    4.9222544748097468E+00    2.7536176381504900E+00    1.3614003973839642E+01
N    4.8917751567582215E+00    2.7429374490483074E+00    1.5567864302673440E+01
Ga    5.1091272719243879E+00    4.4997201774126792E+00    1.6491671212855582E+01
N    6.5421344879963614E+00    3.6967306173012671E+00    1.7617305891195826E+01
N    3.3009087788897520E+00    7.4964471268404722E+00    2.4729051294993409E+00
N    3.2984672741424856E+00    5.5217297655988258E+00    5.0101536011403818E+00
Ga    3.2920730758499053E+00    7.3507339418166691E+00    5.7689868571695602E+00
N    3.2970601488766000E+00    7.3728927490868870E+00    7.7793454300163436E+00
Ga    3.2906841776646920E+00    5.5255753806968775E+00    8.4302150142676346E+00
N    3.2985726984373942E+00    5.5284401430681003E+00    1.0413062689341981E+01
Ga    3.3037685366012011E+00    7.3620324351696240E+00    1.1081425864415507E+01
N    3.3072405682232584E+00    7.3501901996543930E+00    1.3084843629398964E+01
Ga    3.3074237278974703E+00    5.5174544198882645E+00    1.3864804266532781E+01
N    3.3079799784330230E+00    5.5205635498778305E+00    1.6078018616020834E+01
Ga    3.3072009302466641E+00    7.5120756739657599E+00    1.6432335729277412E+01
Ga    3.2952414793466143E+00    9.3436183900145213E+00    1.1983811531462025E+00
N    1.8075111597756908E+00    1.0128207185059862E+01    2.4732970921423121E+00
Ga    1.6854032123910170E+00    8.3161714126298723E+00    3.2302525106504256E+00
N    1.6744548026252650E+00    8.3019904162808444E+00    5.1983947757366797E+00
Ga    1.6728779506014779E+00    1.0178880508542964E+01    5.7717345509740614E+00
N    1.6838094170865889E+00    1.0161082746563455E+01    7.7843035298135579E+00
Ga    1.7107839073577027E+00    8.3156094908904485E+00    8.4523744680041286E+00
N    1.7089358470311871E+00    8.3178253939679223E+00    1.0447807495147954E+01
Ga    1.6841430620781586E+00    1.0181545692978654E+01    1.1076499470966601E+01
N    1.6677459036029274E+00    1.0195853342765069E+01    1.3081824685283543E+01
Ga    1.7077972063497717E+00    8.3251593760750406E+00    1.3626654849207114E+01
N    1.6957175102903677E+00    8.3262992168694137E+00    1.5610515746261754E+01
Ga    1.7970296159583501E+00    1.0129846792331572E+01    1.6431905628741259E+01
N    3.3107560883740281E+00    9.2591592448641986E+00    1.7546844305157457E+01
N    9.7413927541959993E+00    1.8252317775312676E+00    2.6105563106356131E+00
Ga    9.7566741821063001E+00    5.7043589953091799E-02    3.2220067713394522E+00
N    9.7345744904602380E+00   -5.1806913318036510E-02    5.2135644186228056E+00
Ga    9.7381632255877353E+00    1.8025662159683358E+00    5.8398946644939596E+00
N    9.7291716959833465E+00    1.8064922262205678E+00    7.8260438285590439E+00
Ga    9.7325719862685691E+00   -6.0668325604477914E-02    8.4172707063894663E+00
N    9.7356625297080441E+00   -5.7340023297328693E-02    1.0425321199666545E+01
Ga    9.7396210467695941E+00    1.8130441472312995E+00    1.1018459401923925E+01
N    9.7439392146007133E+00    1.8154876660658501E+00    1.2998999721531833E+01
Ga    9.7398265187853017E+00   -4.4136308503081915E-02    1.3628320664939613E+01
N    9.7417611967030773E+00   -2.3555697782534291E-02    1.5614376645132044E+01
Ga    9.7428753782629975E+00    1.8342045918945855E+00    1.5875951792163670E+01
N    8.0053427662361401E+00    4.5504658158375380E+00    2.5395047298144395E+00
Ga    8.2264129632533400E+00    2.6708357554728437E+00    3.2808455674838011E+00
N    8.1150824128125656E+00    2.7371194788283875E+00    5.2451748262463829E+00
Ga    8.1440848039617073E+00    4.5972354492659351E+00    5.8131621765533401E+00
N    8.1270274569683192E+00    4.6003806092680817E+00    7.8011490016231981E+00
Ga    8.1148270607115567E+00    2.7369304922154081E+00    8.4242167671127035E+00
N    8.1195430052450703E+00    2.7477800049210672E+00    1.0423832906684359E+01
Ga    8.1452474100732655E+00    4.6069289728776308E+00    1.1066168820438570E+01
N    8.1648859581901494E+00    4.6248201938609395E+00    1.3062339377931149E+01
Ga    8.1223237397829298E+00    2.7547752252409259E+00    1.3612427121723254E+01
N    8.1554183123546302E+00    2.7325634019061762E+00    1.5569440828000609E+01
Ga    7.9587843341894322E+00    4.5138683527392729E+00    1.6486318707512112E+01
N    6.5151824407488608E+00    7.3954497376246957E+00    2.6238905886808706E+00
Ga    6.5064619640311090E+00    5.5847446787130037E+00    3.3398352059630461E+00
N    6.5097275643636543E+00    5.5455016343771106E+00    5.2634739921946281E+00
Ga    6.4986368557042642E+00    7.4003217279342666E+00    5.9009858053337707E+00
N    6.5074183559572454E+00    7.3852341353957165E+00    7.8633513581473622E+00
Ga    6.5100453129041620E+00    5.5133264175314265E+00    8.4429218662437737E+00
N    6.5196136564943741E+00    5.5187334286641194E+00    1.0435506833491761E+01
Ga    6.5187996371953529E+00    7.3909582775101095E+00    1.1030422332422582E+01
N    6.5194268237874509E+00    7.3990505456371523E+00    1.3006548712623355E+01
Ga    6.5227424553242450E+00    5.5229029770934916E+00    1.3611249151311085E+01
N    6.5147047345632991E+00    5.5724661626409784E+00    1.5567136606201807E+01
Ga    6.5287387442032490E+00    7.3967251373278939E+00    1.5870787070499659E+01
N    4.8275267615591932E+00    1.0120808744069027E+01    2.4671745399167722E+00
Ga    4.9009540054903811E+00    8.3251192119359274E+00    3.2613124604654389E+00
N    4.9112376351683578E+00    8.3047688462280416E+00    5.2144446657829198E+00
Ga    4.9399705757873216E+00    1.0190799033283660E+01    5.7673666259967042E+00
N    4.9181065284820260E+00    1.0168178702029717E+01    7.7782103015338047E+00
Ga    4.8858079818384361E+00    8.3215559486444004E+00    8.4396770308125131E+00
N    4.8945297240118437E+00    8.3217034914884955E+00    1.0439166076043287E+01
Ga    4.9250839566015880E+00    1.0183248161646731E+01    1.1073705012955937E+01
N    4.9474628485919370E+00    1.0197349753124048E+01    1.3082471560303173E+01
Ga    4.9048703019045830E+00    8.3275551740031446E+00    1.3628439449550280E+01
N    4.9197201422716983E+00    8.3266573578834020E+00    1.5615512647981062E+01
Ga    4.8223311802604885E+00    1.0130827260672904E+01    1.6446420956406961E+01
O    1.4699943741786658E-02    3.8861628610992853E+00   -5.0213319106048704E-01
H   -1.5876008615779236E+00    7.2906081953131512E+00   -6.9246289809436138E-04
C    1.2307636854464932E+00    3.5735362202944341E+00   -1.1987153683021459E+00
H    2.1159108619649243E+00    4.0339531924412011E+00   -7.2555358661367664E-01
H    1.3984015221817998E+00    2.4836927552584567E+00   -1.2564747611115110E+00
H    1.1369504029418214E+00    3.9692750792382392E+00   -2.2229414144161708E+00
Ga    3.2540156137213088E+00    5.5287020667686617E+00    2.8302729365405881E+00
O   -1.3511458365254605E+00    8.1926013164984379E+00    3.1599590087953294E-01
H   -1.2855326967965539E-01    7.5997243827710808E+00    1.5992593397877297E+00
C    6.5286472691393689E+00    7.3770201884826472E+00    1.1332753850773694E+00
H    6.5203107099459476E+00    8.4004534943809848E+00    7.3058456007771677E-01
H    7.4273321467672773E+00    6.8643810118708126E+00    7.5207721342055645E-01
H    5.6424922837221558E+00    6.8498639482361376E+00    7.4362265343502998E-01
     &END COORD
     &KIND C
       BASIS_SET DZVP-MOLOPT-SR-GTH-q4
       POTENTIAL GTH-PBE-q4
       &POTENTIAL
 2 2
  0.3384712400000000E+00 2 -0.8803673979999999E+01  0.1339210850000000E+01
 2
  0.3025757500000000E+00 1  0.9622486650000001E+01
  0.2915069400000000E+00 0
         # Potential name:  GTH-PBE-Q4  for symbol:  C
         # Potential read from the potential filename: GTH_POTENTIALS
       &END POTENTIAL
     &END KIND
     &KIND O
       BASIS_SET DZVP-MOLOPT-SR-GTH-q6
       POTENTIAL GTH-PBE-q6
       &POTENTIAL
 2 4
  0.2445543000000000E+00 2 -0.1666721480000000E+02  0.2487311320000000E+01
 2
  0.2209559200000000E+00 1  0.1833745811000000E+02
  0.2113324700000000E+00 0
         # Potential name:  GTH-PBE-Q6  for symbol:  O
         # Potential read from the potential filename: GTH_POTENTIALS
       &END POTENTIAL
     &END KIND
     &KIND H
       BASIS_SET DZVP-MOLOPT-SR-GTH-q1
       POTENTIAL GTH-PBE-q1
       &POTENTIAL
 1
  0.2000000000000000E+00 2 -0.4178900440000000E+01  0.7244633100000000E+00
 0
         # Potential name:  GTH-PBE-Q1  for symbol:  H
         # Potential read from the potential filename: GTH_POTENTIALS
       &END POTENTIAL
     &END KIND
     &KIND N
       BASIS_SET DZVP-MOLOPT-SR-GTH
       POTENTIAL GTH-PBE-q5
       &POTENTIAL
 2 3
  0.2837905100000000E+00 2 -0.1241522559000000E+02  0.1868095920000000E+01
 2
  0.2554050000000000E+00 1  0.1363026257000000E+02
  0.2454945300000000E+00 0
         # Potential name:  GTH-PBE-Q5  for symbol:  N
         # Potential read from the potential filename: GTH_POTENTIALS
       &END POTENTIAL
     &END KIND
     &KIND Ga
       BASIS_SET DZVP-MOLOPT-SR-GTH
       POTENTIAL GTH-PBE-q13
       &POTENTIAL
 2 1 10
  0.4900000000000000E+00 0
 3
  0.4167772300000000E+00 3  0.1047568975000000E+02 -0.4921768140000000E+01  0.8707055900000000E+00
  0.7770178090000000E+01 -0.2248152160000000E+01
  0.1784415450000000E+01
  0.5696265200000000E+00 2  0.1777985340000000E+01  0.1958597600000000E+00
 -0.2317443900000000E+00
  0.2381265000000000E+00 1 -0.1624868022000000E+02
         # Potential name:  GTH-PBE-Q13  for symbol:  GA
         # Potential read from the potential filename: GTH_POTENTIALS
       &END POTENTIAL
     &END KIND
     &TOPOLOGY
       NUMBER_OF_ATOMS  212
       MULTIPLE_UNIT_CELL  1 1 1
     &END TOPOLOGY
   &END SUBSYS
 &END FORCE_EVAL
