 # Version information for this restart file 
 # current date 2019-07-03 10:15:59.934
 # current working dir /lustre04/scratch/rzk/rzk/GaN-carbene/443-adatoms-both-2x2/07-CH3O-H2O-H3C/02-Use0401
 # Program compiled at                              Sun Apr  7 00:48:11 EDT 2019
 # Program compiled on                          beluga2.int.ets1.calculquebec.ca
 # Program compiled for                        Beluga-Linux-x86-64-intel-openmpi
 # Source code revision number                                         svn:18619
 &GLOBAL
   PRINT_LEVEL  MEDIUM
   PROJECT_NAME TEST
   RUN_TYPE  GEO_OPT
 &END GLOBAL
 &MOTION
   &GEO_OPT
     MAX_ITER  500
     STEP_START_VAL  48
   &END GEO_OPT
 &END MOTION
 &FORCE_EVAL
   METHOD  QS
   STRESS_TENSOR  ANALYTICAL
   &DFT
     BASIS_SET_FILE_NAME BASIS_MOLOPT
     POTENTIAL_FILE_NAME GTH_POTENTIALS
     UKS  T
     SURFACE_DIPOLE_CORRECTION  T
     SURF_DIP_DIR  Z
     &SCF
       MAX_SCF  80
       EPS_SCF     5.0000000000000004E-06
       &OT  T
         PRECONDITIONER  FULL_ALL
       &END OT
       &OUTER_SCF  T
         OPTIMIZER  NONE
         EPS_SCF     5.0000000000000004E-06
         MAX_SCF  4
       &END OUTER_SCF
       &PRINT
         &RESTART  OFF
           BACKUP_COPIES  1
           &EACH
             JUST_ENERGY  0
             QS_SCF  0
             MD  20
           &END EACH
         &END RESTART
       &END PRINT
     &END SCF
     &QS
       EPS_DEFAULT     1.0000000000000000E-14
       METHOD  GPW
     &END QS
     &MGRID
       NGRIDS  5
       CUTOFF     1.2000000000000000E+03
     &END MGRID
     &XC
       DENSITY_CUTOFF     1.0000000000000000E-10
       GRADIENT_CUTOFF     1.0000000000000000E-10
       TAU_CUTOFF     1.0000000000000000E-10
       &XC_FUNCTIONAL  NO_SHORTCUT
         &PBE  T
         &END PBE
       &END XC_FUNCTIONAL
       &VDW_POTENTIAL
         POTENTIAL_TYPE  PAIR_POTENTIAL
         &PAIR_POTENTIAL
           R_CUTOFF     1.0000000000000004E+01
           TYPE  DFTD3
           PARAMETER_FILE_NAME dftd3.dat
           REFERENCE_FUNCTIONAL PBE
           EPS_CN     9.9999999999999995E-07
           CALCULATE_C9_TERM  T
           REFERENCE_C9_TERM  T
           LONG_RANGE_CORRECTION  F
           VERBOSE_OUTPUT  F
         &END PAIR_POTENTIAL
       &END VDW_POTENTIAL
     &END XC
   &END DFT
   &SUBSYS
     &CELL
       A     1.2864472766435110E+01    0.0000000000000000E+00    0.0000000000000000E+00
       B    -6.4322363581020028E+00    1.1140960178524473E+01    0.0000000000000000E+00
       C     0.0000000000000000E+00    0.0000000000000000E+00    3.2000000000000000E+01
       MULTIPLE_UNIT_CELL  1 1 1
       &CELL_REF
         A     1.2982353780853531E+01    0.0000000000000000E+00    0.0000000000000000E+00
         B    -6.4911768904267628E+00    1.1243048175136114E+01    0.0000000000000000E+00
         C     0.0000000000000000E+00    0.0000000000000000E+00    3.2000000000000000E+01
         MULTIPLE_UNIT_CELL  1 1 1
       &END CELL_REF
     &END CELL
     &COORD
N    8.5885371790527590E-02    1.9668295444850901E+00    2.4590549621353466E+00
Ga    1.1839393683818628E-01   -1.9248096433142608E-02    2.7527860418191161E+00
N    9.3874977686002545E-02   -4.7962302760634866E-02    5.0082962639329773E+00
Ga    8.8959102805667947E-02    1.7781579696671175E+00    5.7713026743553408E+00
N    8.3503460167531171E-02    1.7929184932853151E+00    7.7854248797965129E+00
Ga    8.3454582869201321E-02   -4.8812111277915161E-02    8.4353311192497724E+00
N    8.6148167940748435E-02   -4.6609947841155165E-02    1.0419991733911317E+01
Ga    8.8964458584826989E-02    1.7968742369812178E+00    1.1062282643513091E+01
N    9.1481102524040500E-02    1.7847889074093783E+00    1.3063228589340437E+01
Ga    1.0566558019098250E-01   -2.6725373288131547E-02    1.3857139493916796E+01
N    1.1016187962238226E-01   -1.9627251949347307E-02    1.6091105234160018E+01
Ga    9.5050708698459510E-02    2.0413382131841709E+00    1.6524050634547027E+01
Ga    4.1474358110465036E-02    3.6768380063863702E+00    1.3055543513325378E+00
N   -1.4029950151556734E+00    4.5475452114432615E+00    2.5144214367752169E+00
Ga   -1.5749757420882491E+00    2.7004769667284880E+00    3.2585363630806614E+00
N   -1.5202184505437746E+00    2.7431495776687327E+00    5.2421260735169923E+00
Ga   -1.5357539246326108E+00    4.6071391449974364E+00    5.8011789042001674E+00
N   -1.5275912950416672E+00    4.6000148019382170E+00    7.8012402861126837E+00
Ga   -1.5118456161457532E+00    2.7356951860372614E+00    8.4240900498248443E+00
N   -1.5116050306950748E+00    2.7432828550617461E+00    1.0427008326100374E+01
Ga   -1.5363651198284456E+00    4.5968480433066645E+00    1.1079405409549066E+01
N   -1.5499316915845565E+00    4.6181482087202923E+00    1.3075162319735876E+01
Ga   -1.5042196682877396E+00    2.7511089117862997E+00    1.3635391382410360E+01
N   -1.5292019830016887E+00    2.7353111220721424E+00    1.5597845190483550E+01
Ga   -1.3481089438716785E+00    4.5192773909732029E+00    1.6514289092031536E+01
N    8.4887821520533424E-02    3.6970449128983294E+00    1.7659944670004560E+01
N   -3.1136248642760114E+00    7.4932395148112425E+00    2.6274313218622827E+00
Ga   -3.0860647619630579E+00    5.5216841356982593E+00    2.9155424265897896E+00
N   -3.1362719344771204E+00    5.5149651172495187E+00    5.0555499941749860E+00
Ga   -3.1467476366129317E+00    7.3431746230847148E+00    5.8344541116759174E+00
N   -3.1357188199346275E+00    7.3642644589698110E+00    7.8219842518288898E+00
Ga   -3.1297944872014627E+00    5.5125564244783201E+00    8.4576777923397071E+00
N   -3.1283066426339574E+00    5.5200278738833131E+00    1.0430783902203141E+01
Ga   -3.1291651957326603E+00    7.3603885002710108E+00    1.1083392499776167E+01
N   -3.1269826055526697E+00    7.3510742596077669E+00    1.3078294043537349E+01
Ga   -3.1257782209411853E+00    5.5309322018436076E+00    1.3891574888336500E+01
N   -3.1278639182978716E+00    5.5386117406888173E+00    1.6080993134213212E+01
Ga   -3.1216338290177088E+00    7.5896462868684891E+00    1.6513300216754718E+01
Ga   -2.7578876458858557E+00    9.0121556506123390E+00    1.3409000559414983E+00
N   -4.6216884938170066E+00    1.0076599926708226E+01    2.4252653544471268E+00
Ga   -4.7438169346169747E+00    8.3474105128081693E+00    3.2999467483246105E+00
N   -4.7564809511002633E+00    8.3029594855909679E+00    5.2522262490887393E+00
Ga   -4.7656853570480981E+00    1.0192756741914691E+01    5.7979488301759492E+00
N   -4.7479823420048266E+00    1.0164378763230571E+01    7.8039519026616562E+00
Ga   -4.7346344499200699E+00    8.3153719778653663E+00    8.4548830068001912E+00
N   -4.7271552663156271E+00    8.3145402678068550E+00    1.0446125207944021E+01
Ga   -4.7510205628054907E+00    1.0179332529665576E+01    1.1073251893423318E+01
N   -4.7624732560975209E+00    1.0193513212259631E+01    1.3068805163123555E+01
Ga   -4.7206959152400643E+00    8.3277885788065369E+00    1.3635746929789820E+01
N   -4.7555640073908583E+00    8.3241057242550589E+00    1.5597112202855476E+01
Ga   -4.5469086445990134E+00    1.0080007586609433E+01    1.6519482914805774E+01
N   -3.1179403528592564E+00    9.2441914528236921E+00    1.7657267622674507E+01
N    3.2828070868868795E+00    1.8002142981149838E+00    2.6092027655964545E+00
Ga    3.2698434870984374E+00    1.5603024942424654E-02    3.1965382250893466E+00
N    3.2921091356106791E+00   -5.3877815639723638E-02    5.2232428680155287E+00
Ga    3.2814106900559823E+00    1.7992013981213988E+00    5.8273814095382459E+00
N    3.2957403561988228E+00    1.8062310995280699E+00    7.8245701971366950E+00
Ga    3.2936630389471748E+00   -5.1173797058208827E-02    8.4401462603532682E+00
N    3.3020375933318356E+00   -5.5070407916259584E-02    1.0436525119095252E+01
Ga    3.3010099347450828E+00    1.8146895261129052E+00    1.1027715462371180E+01
N    3.3043856761857446E+00    1.8199926899921954E+00    1.3000410757593963E+01
Ga    3.3061777534252164E+00   -4.5592966866725128E-02    1.3634568024663876E+01
N    3.3066307768955436E+00   -1.1182564430919702E-02    1.5594112072386480E+01
Ga    3.3068294106270328E+00    1.8265339017228932E+00    1.5870486273342239E+01
N    1.5764386001869675E+00    4.5515884910583466E+00    2.4868759006727790E+00
Ga    1.7531414790508293E+00    2.7060493656142524E+00    3.2256515249840434E+00
N    1.6884888610136615E+00    2.7469806601697702E+00    5.2199183164893181E+00
Ga    1.7106446499409249E+00    4.6101640544103013E+00    5.7712405489680947E+00
N    1.6944019020818626E+00    4.6008645254225637E+00    7.7826930929505380E+00
Ga    1.6813971592304950E+00    2.7400164083149687E+00    8.4141694333944166E+00
N    1.6842577932394669E+00    2.7445327974841160E+00    1.0420002913218337E+01
Ga    1.7123693375527043E+00    4.5957245583483086E+00    1.1069154476111272E+01
N    1.7302346348099304E+00    4.6150734041538071E+00    1.3063888801830073E+01
Ga    1.6876652903815061E+00    2.7502979001887482E+00    1.3636584744112605E+01
N    1.7144273564606163E+00    2.7440917577618964E+00    1.5596985124325700E+01
Ga    1.5195547083500569E+00    4.5074519101840513E+00    1.6514167834818522E+01
N    8.2186095515974888E-02    7.4210931623348380E+00    2.6229220797193906E+00
Ga    9.4123849620517119E-02    5.5613365017301648E+00    3.2631089958262458E+00
N    8.2472463116356101E-02    5.5655281480379610E+00    5.2251002115478320E+00
Ga    1.0529081909487602E-01    7.3808721515671110E+00    5.9235502387398977E+00
N    9.2369535424420668E-02    7.3784809309266262E+00    7.8833630758588829E+00
Ga    8.8327249361670371E-02    5.5024607493024495E+00    8.4551273514018170E+00
N    8.7376269305861468E-02    5.5080749647398477E+00    1.0445768777927615E+01
Ga    9.0431442092356429E-02    7.3793742659892194E+00    1.1037617532447271E+01
N    9.4525968571744931E-02    7.3890388742853776E+00    1.3012971274534268E+01
Ga    9.2501592421811815E-02    5.5121880523230447E+00    1.3630651713496624E+01
N    1.0086312360628182E-01    5.5615165612747122E+00    1.5588414108347086E+01
Ga    8.9228414387106644E-02    7.3952492176054125E+00    1.5857884514589035E+01
N   -1.6129233731036208E+00    1.0086541933876505E+01    2.5933191120295800E+00
Ga   -1.4679534625912938E+00    8.3066509890498548E+00    3.4338070209965594E+00
N   -1.5079929961915060E+00    8.3021778223627063E+00    5.3392018071857841E+00
Ga   -1.5132390597250400E+00    1.0208020301540278E+01    5.8220343152499954E+00
N   -1.5178332125666156E+00    1.0171656479525495E+01    7.8172429403166079E+00
Ga   -1.5333518906555557E+00    8.3137385053337631E+00    8.4576376338353381E+00
N   -1.5306806657179521E+00    8.3138396541561832E+00    1.0449853707850211E+01
Ga   -1.5083642308306620E+00    1.0179475136521445E+01    1.1073272053212351E+01
N   -1.4900714551749241E+00    1.0194661415399834E+01    1.3066931287722074E+01
Ga   -1.5319200187663784E+00    8.3281653002901272E+00    1.3630407896898484E+01
N   -1.4928431413825136E+00    8.3221972514171956E+00    1.5589698992934748E+01
Ga   -1.6979349025587098E+00    1.0079849887520867E+01    1.6510781151246910E+01
N    6.5138680898395185E+00    1.9293485905450549E+00    2.5174798864107655E+00
Ga    6.5173255359911062E+00   -6.9939403704351338E-02    2.8616843732638046E+00
N    6.5161783567120590E+00   -4.5171538131486777E-02    5.0384764452881416E+00
Ga    6.5133176072454164E+00    1.7774480513637860E+00    5.8002320099482310E+00
N    6.5136256596910744E+00    1.7949487591028104E+00    7.7994507952701859E+00
Ga    6.5207660382147132E+00   -5.0312026368402624E-02    8.4502847848857243E+00
N    6.5226915523320983E+00   -4.6093152689733519E-02    1.0426609167439372E+01
Ga    6.5164375444978289E+00    1.7988708438356151E+00    1.1067089657569564E+01
N    6.5200208925080219E+00    1.7867583283997470E+00    1.3061077696904219E+01
Ga    6.5066375825613925E+00   -2.4730817074323438E-02    1.3858512967527149E+01
N    6.5072678115673863E+00   -1.5678064398828778E-02    1.6068646763212332E+01
Ga    6.5270479872429554E+00    2.0524460575880621E+00    1.6505252127749685E+01
Ga    6.5155254457504554E+00    3.6394980503443501E+00    1.5156449664445117E+00
N    5.0153725690803581E+00    4.5439421520411738E+00    2.5068508580395599E+00
Ga    4.7868924590138890E+00    2.6665246106651010E+00    3.2763134874819837E+00
N    4.9082535955995317E+00    2.7384536564223358E+00    5.2378454682736457E+00
Ga    4.8660827809389833E+00    4.6048968151528467E+00    5.7990343520772774E+00
N    4.8962661819551414E+00    4.5971885499811744E+00    7.7944127845312661E+00
Ga    4.9069268380762860E+00    2.7354105658207417E+00    8.4246473872291254E+00
N    4.9190391138235094E+00    2.7443621567301948E+00    1.0425074183559618E+01
Ga    4.8947971071048109E+00    4.6008474257806089E+00    1.1064768205122544E+01
N    4.8842693547083984E+00    4.6196446034514747E+00    1.3058916374856647E+01
Ga    4.9234510196478389E+00    2.7542844481994804E+00    1.3629559385520775E+01
N    4.8960871594036917E+00    2.7448792247965335E+00    1.5585368379308868E+01
Ga    5.1119586568030515E+00    4.5037757521251240E+00    1.6507440468986800E+01
N    6.5397939208514426E+00    3.6930064382750332E+00    1.7646874724025793E+01
N    3.3088267063838730E+00    7.5007745735364271E+00    2.4768081952001646E+00
N    3.3017795410302946E+00    5.5269003580347258E+00    5.0161624471133965E+00
Ga    3.2997252838510502E+00    7.3516459176049054E+00    5.7806110435149947E+00
N    3.2991069083618147E+00    7.3709179430070595E+00    7.7848945858753229E+00
Ga    3.2922567929651203E+00    5.5205140307032545E+00    8.4319832798081809E+00
N    3.3011360953799409E+00    5.5232267199880685E+00    1.0414344756745644E+01
Ga    3.3070580974310784E+00    7.3576327335161160E+00    1.1073638856476341E+01
N    3.3091267128444630E+00    7.3458013076772959E+00    1.3075934294742753E+01
Ga    3.3083827930864445E+00    5.5105277359959093E+00    1.3861959318835003E+01
N    3.3122865110434296E+00    5.5191407329478643E+00    1.6071156472620093E+01
Ga    3.3121031342377045E+00    7.5065617164146943E+00    1.6409929484766725E+01
Ga    3.2929030641749484E+00    9.3327803270119745E+00    1.2318345391815340E+00
N    1.8020341365481458E+00    1.0132093669526196E+01    2.4995575104669467E+00
Ga    1.6994364511160158E+00    8.3233286814170970E+00    3.2540094050629342E+00
N    1.6799410430951007E+00    8.3066826187260236E+00    5.2135431363976883E+00
Ga    1.6737119522031103E+00    1.0187045715950255E+01    5.7883978236487312E+00
N    1.6857059823021947E+00    1.0164457510032108E+01    7.7940182659380275E+00
Ga    1.7120188736877020E+00    8.3158152870152122E+00    8.4543518491322605E+00
N    1.7116373964244846E+00    8.3161351414094291E+00    1.0447737751327601E+01
Ga    1.6851702956772614E+00    1.0180324361197126E+01    1.1071961705711374E+01
N    1.6655823635969484E+00    1.0196412619124830E+01    1.3074714294072880E+01
Ga    1.7126632121575078E+00    8.3252986877343567E+00    1.3612679072970826E+01
N    1.7019717931781411E+00    8.3271461841812968E+00    1.5598051828926689E+01
Ga    1.7951784000068347E+00    1.0133179249593955E+01    1.6408106795505425E+01
N    3.3109747301892822E+00    9.2584684552944339E+00    1.7549989637083293E+01
N    9.7527321066265724E+00    1.8258964315124884E+00    2.6154904676445048E+00
Ga    9.7592429044063653E+00    5.8107707701902239E-02    3.2383900760952549E+00
N    9.7392393464761557E+00   -4.9551697074680656E-02    5.2245392018283159E+00
Ga    9.7431056910002116E+00    1.8062349774328244E+00    5.8491962170166669E+00
N    9.7302012451086703E+00    1.8066465731332588E+00    7.8353689836343969E+00
Ga    9.7371460917179746E+00   -6.0375777491058658E-02    8.4233733972232798E+00
N    9.7377195560288463E+00   -5.8573927221613149E-02    1.0428548524934016E+01
Ga    9.7371922876021912E+00    1.8102377138549635E+00    1.1025057340312056E+01
N    9.7409025602124899E+00    1.8151104827584055E+00    1.3002432430538994E+01
Ga    9.7394468966016543E+00   -4.6563922468146550E-02    1.3614553164492689E+01
N    9.7448303937435732E+00   -2.8045237573085195E-02    1.5598954144012373E+01
Ga    9.7419220193067009E+00    1.8310368939655763E+00    1.5871032088926665E+01
N    8.0110182815475959E+00    4.5482640039739568E+00    2.5296196106847537E+00
Ga    8.2373994327762112E+00    2.6759469465358561E+00    3.2818896918187321E+00
N    8.1193641741884637E+00    2.7363057428837863E+00    5.2461590730295473E+00
Ga    8.1490466975856695E+00    4.5978896134324510E+00    5.8161034151565323E+00
N    8.1280342892419526E+00    4.5952304892396132E+00    7.8075991147623354E+00
Ga    8.1143968363123467E+00    2.7345143080459668E+00    8.4371826363622748E+00
N    8.1169502634510540E+00    2.7445531085412984E+00    1.0435184753765379E+01
Ga    8.1417224400626633E+00    4.6030075195224684E+00    1.1078219169877146E+01
N    8.1616136936684391E+00    4.6229600371770374E+00    1.3072426683056642E+01
Ga    8.1185496830016763E+00    2.7537874088183760E+00    1.3625594194385867E+01
N    8.1542738535576049E+00    2.7334364140982008E+00    1.5578594910520172E+01
Ga    7.9622500138935468E+00    4.5152339914723951E+00    1.6504217855160736E+01
N    6.5228634884597261E+00    7.3916514138315286E+00    2.6195210450468753E+00
Ga    6.5093039405087314E+00    5.5790717042283715E+00    3.3324562920369121E+00
N    6.5124587567531798E+00    5.5379843045470976E+00    5.2571568798011921E+00
Ga    6.5101947550952257E+00    7.3930344963302561E+00    5.8950641246347564E+00
N    6.5118535593546909E+00    7.3763526654084730E+00    7.8590592803326764E+00
Ga    6.5098777271768151E+00    5.5071454139489555E+00    8.4484325243786191E+00
N    6.5186125541187003E+00    5.5131928525497527E+00    1.0440213259438307E+01
Ga    6.5180102618219973E+00    7.3829773046792511E+00    1.1035319457942009E+01
N    6.5197509165416001E+00    7.3942820565912530E+00    1.3008859420484296E+01
Ga    6.5207292831844299E+00    5.5190208979146336E+00    1.3627369175393062E+01
N    6.5150535446615994E+00    5.5713654023976140E+00    1.5579254683203150E+01
Ga    6.5272005581478085E+00    7.3987090049013418E+00    1.5866950498762293E+01
N    4.8244637975879385E+00    1.0119908464080206E+01    2.4662037520612761E+00
Ga    4.9133790732463787E+00    8.3241360790714101E+00    3.2620910107647743E+00
N    4.9194413721214145E+00    8.3036157897753622E+00    5.2164550899037225E+00
Ga    4.9471907620688009E+00    1.0190474229125364E+01    5.7743547900370986E+00
N    4.9192159777661217E+00    1.0163849674303442E+01    7.7839271849717040E+00
Ga    4.8936611395933935E+00    8.3144717564806037E+00    8.4389078593354334E+00
N    4.8992015793352266E+00    8.3157098426172613E+00    1.0436678385700658E+01
Ga    4.9273168259165585E+00    1.0178576019959843E+01    1.1066908508740664E+01
N    4.9479739669016967E+00    1.0194892062087195E+01    1.3074142258532918E+01
Ga    4.9039400596459961E+00    8.3258868576794374E+00    1.3615166697364549E+01
N    4.9187597753621075E+00    8.3308972754954382E+00    1.5600057985559568E+01
Ga    4.8287222598921860E+00    1.0133577267336953E+01    1.6421941413811595E+01
O    3.6270002494322315E-02    3.9394652993912413E+00   -4.9320163266742850E-01
H   -1.8874538431236727E+00    7.4394897740300188E+00   -1.4764238530197121E-01
C    1.2476171153146134E+00    3.5882172374093684E+00   -1.1850804023816359E+00
H    2.1399537393015597E+00    4.0527333932926295E+00   -7.2859668802723188E-01
H    1.4001741677457651E+00    2.4943968973035857E+00   -1.2093267806538259E+00
H    1.1575333737486897E+00    3.9520222566127585E+00   -2.2219869595440294E+00
Ga    3.2532053334031308E+00    5.5329178553619149E+00    2.8269538970381118E+00
O   -1.5488040881567058E+00    8.2930947652244420E+00    2.1216442576078112E-01
H   -7.7752046654927021E-02    7.5494463756511667E+00    1.6207665898920880E+00
C    6.5430220384186430E+00    7.3763963461988649E+00    1.1263909487753001E+00
H    6.5478920468054023E+00    8.4002506777795265E+00    7.2817055516845852E-01
H    7.4381040102340172E+00    6.8569898489857222E+00    7.4900474665599825E-01
H    5.6549351106266874E+00    6.8608431164124761E+00    7.2336345125509027E-01
     &END COORD
     &KIND C
       BASIS_SET DZVP-MOLOPT-SR-GTH-q4
       POTENTIAL GTH-PBE-q4
       &POTENTIAL
 2 2
  0.3384712400000000E+00 2 -0.8803673979999999E+01  0.1339210850000000E+01
 2
  0.3025757500000000E+00 1  0.9622486650000001E+01
  0.2915069400000000E+00 0
         # Potential name:  GTH-PBE-Q4  for symbol:  C
         # Potential read from the potential filename: GTH_POTENTIALS
       &END POTENTIAL
     &END KIND
     &KIND O
       BASIS_SET DZVP-MOLOPT-SR-GTH-q6
       POTENTIAL GTH-PBE-q6
       &POTENTIAL
 2 4
  0.2445543000000000E+00 2 -0.1666721480000000E+02  0.2487311320000000E+01
 2
  0.2209559200000000E+00 1  0.1833745811000000E+02
  0.2113324700000000E+00 0
         # Potential name:  GTH-PBE-Q6  for symbol:  O
         # Potential read from the potential filename: GTH_POTENTIALS
       &END POTENTIAL
     &END KIND
     &KIND H
       BASIS_SET DZVP-MOLOPT-SR-GTH-q1
       POTENTIAL GTH-PBE-q1
       &POTENTIAL
 1
  0.2000000000000000E+00 2 -0.4178900440000000E+01  0.7244633100000000E+00
 0
         # Potential name:  GTH-PBE-Q1  for symbol:  H
         # Potential read from the potential filename: GTH_POTENTIALS
       &END POTENTIAL
     &END KIND
     &KIND N
       BASIS_SET DZVP-MOLOPT-SR-GTH
       POTENTIAL GTH-PBE-q5
       &POTENTIAL
 2 3
  0.2837905100000000E+00 2 -0.1241522559000000E+02  0.1868095920000000E+01
 2
  0.2554050000000000E+00 1  0.1363026257000000E+02
  0.2454945300000000E+00 0
         # Potential name:  GTH-PBE-Q5  for symbol:  N
         # Potential read from the potential filename: GTH_POTENTIALS
       &END POTENTIAL
     &END KIND
     &KIND Ga
       BASIS_SET DZVP-MOLOPT-SR-GTH
       POTENTIAL GTH-PBE-q13
       &POTENTIAL
 2 1 10
  0.4900000000000000E+00 0
 3
  0.4167772300000000E+00 3  0.1047568975000000E+02 -0.4921768140000000E+01  0.8707055900000000E+00
  0.7770178090000000E+01 -0.2248152160000000E+01
  0.1784415450000000E+01
  0.5696265200000000E+00 2  0.1777985340000000E+01  0.1958597600000000E+00
 -0.2317443900000000E+00
  0.2381265000000000E+00 1 -0.1624868022000000E+02
         # Potential name:  GTH-PBE-Q13  for symbol:  GA
         # Potential read from the potential filename: GTH_POTENTIALS
       &END POTENTIAL
     &END KIND
     &TOPOLOGY
       NUMBER_OF_ATOMS  212
       MULTIPLE_UNIT_CELL  1 1 1
     &END TOPOLOGY
   &END SUBSYS
 &END FORCE_EVAL
