 # Version information for this restart file 
 # current date 2019-07-03 10:10:32.146
 # current working dir /lustre04/scratch/rzk/rzk/GaN-carbene/443-adatoms-both-2x2/07-CH3O-H2O-H3C/02-Use0401
 # Program compiled at                              Sun Apr  7 00:48:11 EDT 2019
 # Program compiled on                          beluga2.int.ets1.calculquebec.ca
 # Program compiled for                        Beluga-Linux-x86-64-intel-openmpi
 # Source code revision number                                         svn:18619
 &GLOBAL
   PRINT_LEVEL  MEDIUM
   PROJECT_NAME TEST
   RUN_TYPE  GEO_OPT
 &END GLOBAL
 &MOTION
   &GEO_OPT
     MAX_ITER  500
     STEP_START_VAL  47
   &END GEO_OPT
 &END MOTION
 &FORCE_EVAL
   METHOD  QS
   STRESS_TENSOR  ANALYTICAL
   &DFT
     BASIS_SET_FILE_NAME BASIS_MOLOPT
     POTENTIAL_FILE_NAME GTH_POTENTIALS
     UKS  T
     SURFACE_DIPOLE_CORRECTION  T
     SURF_DIP_DIR  Z
     &SCF
       MAX_SCF  80
       EPS_SCF     5.0000000000000004E-06
       &OT  T
         PRECONDITIONER  FULL_ALL
       &END OT
       &OUTER_SCF  T
         OPTIMIZER  NONE
         EPS_SCF     5.0000000000000004E-06
         MAX_SCF  4
       &END OUTER_SCF
       &PRINT
         &RESTART  OFF
           BACKUP_COPIES  1
           &EACH
             JUST_ENERGY  0
             QS_SCF  0
             MD  20
           &END EACH
         &END RESTART
       &END PRINT
     &END SCF
     &QS
       EPS_DEFAULT     1.0000000000000000E-14
       METHOD  GPW
     &END QS
     &MGRID
       NGRIDS  5
       CUTOFF     1.2000000000000000E+03
     &END MGRID
     &XC
       DENSITY_CUTOFF     1.0000000000000000E-10
       GRADIENT_CUTOFF     1.0000000000000000E-10
       TAU_CUTOFF     1.0000000000000000E-10
       &XC_FUNCTIONAL  NO_SHORTCUT
         &PBE  T
         &END PBE
       &END XC_FUNCTIONAL
       &VDW_POTENTIAL
         POTENTIAL_TYPE  PAIR_POTENTIAL
         &PAIR_POTENTIAL
           R_CUTOFF     1.0000000000000004E+01
           TYPE  DFTD3
           PARAMETER_FILE_NAME dftd3.dat
           REFERENCE_FUNCTIONAL PBE
           EPS_CN     9.9999999999999995E-07
           CALCULATE_C9_TERM  T
           REFERENCE_C9_TERM  T
           LONG_RANGE_CORRECTION  F
           VERBOSE_OUTPUT  F
         &END PAIR_POTENTIAL
       &END VDW_POTENTIAL
     &END XC
   &END DFT
   &SUBSYS
     &CELL
       A     1.2864472766435110E+01    0.0000000000000000E+00    0.0000000000000000E+00
       B    -6.4322363581020028E+00    1.1140960178524473E+01    0.0000000000000000E+00
       C     0.0000000000000000E+00    0.0000000000000000E+00    3.2000000000000000E+01
       MULTIPLE_UNIT_CELL  1 1 1
       &CELL_REF
         A     1.2982353780853531E+01    0.0000000000000000E+00    0.0000000000000000E+00
         B    -6.4911768904267628E+00    1.1243048175136114E+01    0.0000000000000000E+00
         C     0.0000000000000000E+00    0.0000000000000000E+00    3.2000000000000000E+01
         MULTIPLE_UNIT_CELL  1 1 1
       &END CELL_REF
     &END CELL
     &COORD
N    8.5136539852279980E-02    1.9552791475826603E+00    2.4592657940099611E+00
Ga    1.2001998074781772E-01   -2.4673419184881629E-02    2.7554654498995519E+00
N    9.6011061971808434E-02   -5.0294754690935778E-02    4.9986446131756672E+00
Ga    8.6684153420603288E-02    1.7777650648760430E+00    5.7641596855372708E+00
N    8.3014445106070298E-02    1.7943426242382603E+00    7.7789042076235173E+00
Ga    8.1525085063302263E-02   -4.5295085394692132E-02    8.4360800418847930E+00
N    8.5674367893371670E-02   -4.3858723114173319E-02    1.0419903485409089E+01
Ga    8.9448683796257297E-02    1.7991201393398712E+00    1.1063681932982213E+01
N    9.1919324914478795E-02    1.7846697402243317E+00    1.3066840522897049E+01
Ga    1.0264976858758956E-01   -2.7743089770709755E-02    1.3865485473406533E+01
N    1.0941427575274715E-01   -1.9697968190938039E-02    1.6103137919509660E+01
Ga    9.4967566957739710E-02    2.0435639979948315E+00    1.6528703253349210E+01
Ga    3.8769783045467611E-02    3.6721827844438781E+00    1.2996260106535289E+00
N   -1.4037266870572602E+00    4.5421468287867501E+00    2.4979077152223632E+00
Ga   -1.5794974770974086E+00    2.6935648278263677E+00    3.2470275899814527E+00
N   -1.5235418738258946E+00    2.7394398693685575E+00    5.2331781185788078E+00
Ga   -1.5363712368874214E+00    4.6014055860367815E+00    5.7924909541994252E+00
N   -1.5277547843127688E+00    4.6000375707016863E+00    7.7939983271003710E+00
Ga   -1.5125988659503238E+00    2.7361386180920637E+00    8.4179620806259976E+00
N   -1.5095454150546845E+00    2.7447302223602601E+00    1.0422894394953685E+01
Ga   -1.5353173524046901E+00    4.5980893050095828E+00    1.1077638065644052E+01
N   -1.5482100909523124E+00    4.6186264929386533E+00    1.3075326303276190E+01
Ga   -1.5037113783768252E+00    2.7515416123121583E+00    1.3635216780385608E+01
N   -1.5263838699320147E+00    2.7356217387506883E+00    1.5599050479877794E+01
Ga   -1.3487354153830637E+00    4.5198197982466466E+00    1.6508315545050849E+01
N    8.3488129006080880E-02    3.7017076880469553E+00    1.7668500910788072E+01
N   -3.1166863909376405E+00    7.4803966343853485E+00    2.6658062851378097E+00
Ga   -3.0927955478125257E+00    5.5128356348305338E+00    2.9252368682813858E+00
N   -3.1378167160593078E+00    5.5102228177784580E+00    5.0553245908508133E+00
Ga   -3.1552853783778061E+00    7.3391669651129847E+00    5.8361365583853297E+00
N   -3.1403351649689930E+00    7.3654575270321008E+00    7.8226051649309092E+00
Ga   -3.1282675568368705E+00    5.5146464734823928E+00    8.4520666323673002E+00
N   -3.1250510406355856E+00    5.5232748152132212E+00    1.0426291238756278E+01
Ga   -3.1267073665995220E+00    7.3645651825938714E+00    1.1078355159941541E+01
N   -3.1259614944916292E+00    7.3530822373444789E+00    1.3076233645810511E+01
Ga   -3.1239256126802992E+00    5.5325748205617540E+00    1.3885420532481822E+01
N   -3.1214989910053270E+00    5.5415968430217672E+00    1.6074664645558958E+01
Ga   -3.1226361670611911E+00    7.5872018837653181E+00    1.6504493331380548E+01
Ga   -2.7643071041267371E+00    8.9846046656842624E+00    1.3678377012340515E+00
N   -4.6000157101842021E+00    1.0061048131539188E+01    2.4119372505121701E+00
Ga   -4.7527504489514669E+00    8.3445348694923336E+00    3.3104369569819685E+00
N   -4.7623193416107510E+00    8.3074367958099984E+00    5.2615641774582489E+00
Ga   -4.7651030866682875E+00    1.0197400174012015E+01    5.7997778907321766E+00
N   -4.7475075475498052E+00    1.0170823417350036E+01    7.8020685230273248E+00
Ga   -4.7343936818394710E+00    8.3215220355275452E+00    8.4540326714387817E+00
N   -4.7255758530811995E+00    8.3208571282293491E+00    1.0445298593837256E+01
Ga   -4.7498665704430918E+00    1.0183223476007113E+01    1.1074510011690338E+01
N   -4.7637261580190264E+00    1.0195524761895049E+01    1.3072705829302947E+01
Ga   -4.7210814011807045E+00    8.3285280938689645E+00    1.3634025752234837E+01
N   -4.7547271707616874E+00    8.3254488945621965E+00    1.5597170440940875E+01
Ga   -4.5479832329222258E+00    1.0079635853587863E+01    1.6521835172029135E+01
N   -3.1170382993568646E+00    9.2404977000084649E+00    1.7662332004540300E+01
N    3.2830545230482238E+00    1.8070229961077691E+00    2.6178530251522694E+00
Ga    3.2788824614519023E+00    1.9226568052335621E-02    3.1957441305688010E+00
N    3.2942126207661282E+00   -5.2870225737804546E-02    5.2191247784325041E+00
Ga    3.2806969689084746E+00    1.8034368434449177E+00    5.8251563626257656E+00
N    3.2966760949236544E+00    1.8088944221676100E+00    7.8203505060618888E+00
Ga    3.2963290937265004E+00   -4.7048216600370910E-02    8.4377333755257524E+00
N    3.3032554697186769E+00   -5.3093716593141507E-02    1.0435585040923010E+01
Ga    3.3015423459041227E+00    1.8155033472283653E+00    1.1025159589424671E+01
N    3.3030485408417261E+00    1.8191755113913626E+00    1.2999474269380681E+01
Ga    3.3061661335489130E+00   -4.6274897609591491E-02    1.3634307665187931E+01
N    3.3041415153384981E+00   -1.2022422952195178E-02    1.5595096993257185E+01
Ga    3.3066084986347248E+00    1.8261864418935612E+00    1.5867462309886013E+01
N    1.5684116218217707E+00    4.5513610631988950E+00    2.4776579591388339E+00
Ga    1.7484478120545763E+00    2.7059192080334156E+00    3.2241682700438949E+00
N    1.6849364675819667E+00    2.7461703875034438E+00    5.2186109643775245E+00
Ga    1.7072426835490184E+00    4.6079896223555581E+00    5.7664484813758676E+00
N    1.6956309142995210E+00    4.6013237410190069E+00    7.7784793588214693E+00
Ga    1.6814639235114475E+00    2.7409043806502096E+00    8.4107309509977366E+00
N    1.6852755178554473E+00    2.7458296153564472E+00    1.0418546721454534E+01
Ga    1.7124652316687836E+00    4.5979026383656922E+00    1.1070801386961175E+01
N    1.7293350472391928E+00    4.6162212745269189E+00    1.3068172932187204E+01
Ga    1.6877998441124518E+00    2.7505410501961047E+00    1.3637192442879741E+01
N    1.7131494182302798E+00    2.7425962097724308E+00    1.5598896661202049E+01
Ga    1.5215902975552029E+00    4.5074435708887899E+00    1.6512215899966428E+01
N    5.4432059621954854E-02    7.4375907780799109E+00    2.6349171187952916E+00
Ga    8.6084457176526172E-02    5.5693831592399681E+00    3.2510767503159883E+00
N    7.8268051667881589E-02    5.5596582456494339E+00    5.2161540374998037E+00
Ga    1.1022414577665839E-01    7.3733147477199621E+00    5.9191807056004304E+00
N    9.5366230972734098E-02    7.3741083970224066E+00    7.8781069247104414E+00
Ga    8.8252426098610420E-02    5.5001306981806550E+00    8.4525860062705469E+00
N    8.8008700836880976E-02    5.5083230802063010E+00    1.0444283187159012E+01
Ga    8.7914324271216218E-02    7.3803821612195009E+00    1.1035767884132563E+01
N    9.3172809931707082E-02    7.3896427848719606E+00    1.3012804476778422E+01
Ga    9.1870368731002267E-02    5.5166115658059498E+00    1.3633174983571799E+01
N    1.0155972245808574E-01    5.5634705950351355E+00    1.5593282682318122E+01
Ga    8.8099708493489970E-02    7.3958405857713077E+00    1.5871408440229414E+01
N   -1.6113911330450927E+00    1.0086880916283823E+01    2.6011217375737132E+00
Ga   -1.4753636173373168E+00    8.3128395300734219E+00    3.4656589466564496E+00
N   -1.5131549556695418E+00    8.3051955976158798E+00    5.3659621236708590E+00
Ga   -1.5094719448341762E+00    1.0215762360675884E+01    5.8249170672397419E+00
N   -1.5158278903864773E+00    1.0177714646657854E+01    7.8181145786857629E+00
Ga   -1.5323355761766515E+00    8.3147834788257828E+00    8.4438597423278186E+00
N   -1.5293429399061966E+00    8.3157855819691289E+00    1.0442035867998214E+01
Ga   -1.5065624894490646E+00    1.0179161639967402E+01    1.1069210441286051E+01
N   -1.4899709482474432E+00    1.0193811745042940E+01    1.3067721634664068E+01
Ga   -1.5299592812240346E+00    8.3271422688823282E+00    1.3632227942060684E+01
N   -1.4925759957159628E+00    8.3230901292732771E+00    1.5593528381498261E+01
Ga   -1.6966653892182237E+00    1.0082873045643375E+01    1.6507864962505650E+01
N    6.5099792057837051E+00    1.9312423062130042E+00    2.5195622057125422E+00
Ga    6.5187247544183125E+00   -6.8829049699144301E-02    2.8534769626739687E+00
N    6.5165722487280373E+00   -4.5158952464028575E-02    5.0312687487304570E+00
Ga    6.5124922534093965E+00    1.7780031180296576E+00    5.7948641929525193E+00
N    6.5149543895960305E+00    1.7966069450149407E+00    7.7937063106050983E+00
Ga    6.5250150897836727E+00   -4.8923280134574025E-02    8.4454975336730769E+00
N    6.5249367028426235E+00   -4.5702310816234978E-02    1.0423645967461217E+01
Ga    6.5190093706242269E+00    1.7992243924332152E+00    1.1059443405705467E+01
N    6.5218253297742583E+00    1.7853163522118991E+00    1.3055940081286540E+01
Ga    6.5101175688546444E+00   -2.7637402659466469E-02    1.3858126336721893E+01
N    6.5068705359656622E+00   -1.8804723370377838E-02    1.6075931006801447E+01
Ga    6.5216800860001181E+00    2.0506480419830204E+00    1.6493315207821944E+01
Ga    6.5122347454554914E+00    3.6480351219733014E+00    1.5071043962972774E+00
N    5.0127852020202788E+00    4.5494764236270653E+00    2.5132498849348082E+00
Ga    4.7883421681347578E+00    2.6711512795839716E+00    3.2786656962452203E+00
N    4.9086719283518594E+00    2.7425725071757490E+00    5.2418472088413122E+00
Ga    4.8645949330439384E+00    4.6082726379628172E+00    5.8001921618672743E+00
N    4.8966751765295724E+00    4.6021106575772279E+00    7.7937567436760737E+00
Ga    4.9097949775313179E+00    2.7384157505381705E+00    8.4193390131938628E+00
N    4.9200006320309839E+00    2.7460987710240312E+00    1.0419914751658911E+01
Ga    4.8949530983321337E+00    4.6040871298504076E+00    1.1059887121390259E+01
N    4.8828121343752153E+00    4.6214482328263795E+00    1.3055308081936376E+01
Ga    4.9228219071552983E+00    2.7532173214537923E+00    1.3617718269875542E+01
N    4.8926270765322633E+00    2.7422678974411121E+00    1.5572049687070910E+01
Ga    5.1071761834287352E+00    4.4998962108018867E+00    1.6493575596310492E+01
N    6.5419667295911941E+00    3.6953021017186636E+00    1.7623476925608283E+01
N    3.3030492500266604E+00    7.4973560963930064E+00    2.4729502217031403E+00
N    3.2999541484553996E+00    5.5236277627325832E+00    5.0108628098298764E+00
Ga    3.2941093205542118E+00    7.3513609012385643E+00    5.7723515799268972E+00
N    3.2980471851457187E+00    7.3730443516500301E+00    7.7805846089287627E+00
Ga    3.2916705055494639E+00    5.5250387026950945E+00    8.4316295652519955E+00
N    3.2997340015704411E+00    5.5274221903204213E+00    1.0413822089430138E+01
Ga    3.3045361638681436E+00    7.3614372916587447E+00    1.1079447103454545E+01
N    3.3074444405165102E+00    7.3485690564935320E+00    1.3082135098649969E+01
Ga    3.3073322903479392E+00    5.5157142137932320E+00    1.3864262886315542E+01
N    3.3086919465240734E+00    5.5208257469906448E+00    1.6076884990764611E+01
Ga    3.3076024864065157E+00    7.5130010704280492E+00    1.6427792533300071E+01
Ga    3.2950515367330686E+00    9.3396028692846382E+00    1.2062757394833554E+00
N    1.8061502021301161E+00    1.0129729138250569E+01    2.4785137646464754E+00
Ga    1.6870563567346111E+00    8.3172428887939240E+00    3.2340892650003448E+00
N    1.6770579190339672E+00    8.3045900034522990E+00    5.2014055972656159E+00
Ga    1.6732718547907397E+00    1.0182014771090323E+01    5.7759500216036805E+00
N    1.6849468909653620E+00    1.0162815713431478E+01    7.7861693237007117E+00
Ga    1.7112669379628704E+00    8.3163612112788989E+00    8.4525929578021248E+00
N    1.7098418808271687E+00    8.3175685028291699E+00    1.0446971102422768E+01
Ga    1.6847896940413893E+00    1.0180824171608618E+01    1.1075273589274902E+01
N    1.6670633327254663E+00    1.0195133889275260E+01    1.3079513536640434E+01
Ga    1.7088716745404084E+00    8.3245203490725128E+00    1.3623813895183401E+01
N    1.6956015682270897E+00    8.3246574095959982E+00    1.5606896489426266E+01
Ga    1.7988536745343739E+00    1.0127462296328515E+01    1.6427051500299140E+01
N    3.3110546302062520E+00    9.2581931627190368E+00    1.7552278212205970E+01
N    9.7442632601950123E+00    1.8261062162047630E+00    2.6099255503529206E+00
Ga    9.7578241151679688E+00    5.7515048614097557E-02    3.2244028077833344E+00
N    9.7361548900486188E+00   -5.0472804480570441E-02    5.2147867051537293E+00
Ga    9.7400463409589193E+00    1.8041590387619493E+00    5.8424074346542367E+00
N    9.7300346362005641E+00    1.8070492469892216E+00    7.8280635137528725E+00
Ga    9.7341586893177219E+00   -5.9866688706068406E-02    8.4192094073901096E+00
N    9.7363416083918715E+00   -5.7830050273262899E-02    1.0425787005266901E+01
Ga    9.7393734720627769E+00    1.8119271987031329E+00    1.1020208007007724E+01
N    9.7432728694602435E+00    1.8145395698783173E+00    1.2999684420660746E+01
Ga    9.7394696065629418E+00   -4.5930989384933806E-02    1.3625681232572308E+01
N    9.7421956665941956E+00   -2.4416769676464164E-02    1.5610734028485027E+01
Ga    9.7427350319593984E+00    1.8328092532978568E+00    1.5874093729969994E+01
N    8.0073154565725382E+00    4.5514668143156465E+00    2.5368813807520438E+00
Ga    8.2297530889423438E+00    2.6730550898836705E+00    3.2810533163792099E+00
N    8.1168473139606068E+00    2.7380311860610957E+00    5.2450154531629876E+00
Ga    8.1461471900434290E+00    4.5984861925589451E+00    5.8150572592212999E+00
N    8.1280383326109682E+00    4.5996636364734682E+00    7.8031248449068658E+00
Ga    8.1154491166432710E+00    2.7367497050174219E+00    8.4276938095502256E+00
N    8.1193075558526626E+00    2.7466488295426434E+00    1.0426170084357715E+01
Ga    8.1444017107325557E+00    4.6055958707311104E+00    1.1068949978044925E+01
N    8.1642948665831465E+00    4.6238822367323786E+00    1.3064414914236862E+01
Ga    8.1212675316899610E+00    2.7536409666255284E+00    1.3615928967584795E+01
N    8.1542021143986929E+00    2.7317636185296736E+00    1.5572617247033675E+01
Ga    7.9614955342923981E+00    4.5141653792194232E+00    1.6488733754810166E+01
N    6.5163691057566755E+00    7.3959684366233391E+00    2.6248036117893925E+00
Ga    6.5070585277592139E+00    5.5842124979259200E+00    3.3388440794927909E+00
N    6.5109788676850684E+00    5.5446875653177257E+00    5.2624035131063085E+00
Ga    6.5018033223356699E+00    7.3996012542924534E+00    5.9007522903526848E+00
N    6.5089743651230085E+00    7.3837319277727937E+00    7.8626733663766828E+00
Ga    6.5106285239958650E+00    5.5121465263111942E+00    8.4447443968991003E+00
N    6.5195987036094136E+00    5.5174203662852985E+00    1.0436371829599215E+01
Ga    6.5185714506993442E+00    7.3890740934940782E+00    1.1031674353403645E+01
N    6.5193785337316745E+00    7.3973705830042586E+00    1.3006947551763220E+01
Ga    6.5220300008511742E+00    5.5213170391356732E+00    1.3615660774059654E+01
N    6.5142688478136188E+00    5.5703737681195582E+00    1.5571352720318266E+01
Ga    6.5286965170119542E+00    7.3961572567576050E+00    1.5869216112998652E+01
N    4.8277826605878742E+00    1.0121387964724603E+01    2.4650507303947111E+00
Ga    4.9027742000956458E+00    8.3263548626239796E+00    3.2619159974343237E+00
N    4.9135615842093872E+00    8.3055129363478226E+00    5.2151371004829095E+00
Ga    4.9426453670933705E+00    1.0192178476511311E+01    5.7692391868803732E+00
N    4.9186876350886797E+00    1.0167922350787567E+01    7.7792085510170468E+00
Ga    4.8880505714837588E+00    8.3206709431554646E+00    8.4400856421119190E+00
N    4.8957525683302734E+00    8.3203900669687183E+00    1.0438395847597604E+01
Ga    4.9255996362428522E+00    1.0181960139804168E+01    1.1072311076956172E+01
N    4.9476897207253385E+00    1.0196085150233397E+01    1.3080362198034425E+01
Ga    4.9041200174131241E+00    8.3264589049012194E+00    1.3625989110943786E+01
N    4.9203687619798915E+00    8.3258326015620661E+00    1.5611868785200256E+01
Ga    4.8215711507573138E+00    1.0129108378184890E+01    1.6441866030892786E+01
O    1.8696275432718786E-02    3.8947118891797108E+00   -5.0110135521970756E-01
H   -1.6687327190206451E+00    7.3299382864331237E+00   -2.6937889729998440E-02
C    1.2343484473565296E+00    3.5758120541420051E+00   -1.1960447167931214E+00
H    2.1201347154293453E+00    4.0395978814232461E+00   -7.2428045889829507E-01
H    1.4019689544581544E+00    2.4847903641812210E+00   -1.2462137378403808E+00
H    1.1428374688003933E+00    3.9658038138497478E+00   -2.2231965836332277E+00
Ga    3.2534615333193484E+00    5.5304276089329365E+00    2.8295610199347965E+00
O   -1.4121609284851337E+00    8.2116072497808403E+00    3.1104426525513695E-01
H   -1.4536893749501145E-01    7.5888865761864714E+00    1.6036213382138611E+00
C    6.5317850257250614E+00    7.3758556261576347E+00    1.1342065194094677E+00
H    6.5267482877069014E+00    8.3992468293696945E+00    7.3079803741633131E-01
H    7.4295346057492972E+00    6.8608743854570422E+00    7.5244029261639456E-01
H    5.6435577539090742E+00    6.8521961682369819E+00    7.4031526583205287E-01
     &END COORD
     &KIND C
       BASIS_SET DZVP-MOLOPT-SR-GTH-q4
       POTENTIAL GTH-PBE-q4
       &POTENTIAL
 2 2
  0.3384712400000000E+00 2 -0.8803673979999999E+01  0.1339210850000000E+01
 2
  0.3025757500000000E+00 1  0.9622486650000001E+01
  0.2915069400000000E+00 0
         # Potential name:  GTH-PBE-Q4  for symbol:  C
         # Potential read from the potential filename: GTH_POTENTIALS
       &END POTENTIAL
     &END KIND
     &KIND O
       BASIS_SET DZVP-MOLOPT-SR-GTH-q6
       POTENTIAL GTH-PBE-q6
       &POTENTIAL
 2 4
  0.2445543000000000E+00 2 -0.1666721480000000E+02  0.2487311320000000E+01
 2
  0.2209559200000000E+00 1  0.1833745811000000E+02
  0.2113324700000000E+00 0
         # Potential name:  GTH-PBE-Q6  for symbol:  O
         # Potential read from the potential filename: GTH_POTENTIALS
       &END POTENTIAL
     &END KIND
     &KIND H
       BASIS_SET DZVP-MOLOPT-SR-GTH-q1
       POTENTIAL GTH-PBE-q1
       &POTENTIAL
 1
  0.2000000000000000E+00 2 -0.4178900440000000E+01  0.7244633100000000E+00
 0
         # Potential name:  GTH-PBE-Q1  for symbol:  H
         # Potential read from the potential filename: GTH_POTENTIALS
       &END POTENTIAL
     &END KIND
     &KIND N
       BASIS_SET DZVP-MOLOPT-SR-GTH
       POTENTIAL GTH-PBE-q5
       &POTENTIAL
 2 3
  0.2837905100000000E+00 2 -0.1241522559000000E+02  0.1868095920000000E+01
 2
  0.2554050000000000E+00 1  0.1363026257000000E+02
  0.2454945300000000E+00 0
         # Potential name:  GTH-PBE-Q5  for symbol:  N
         # Potential read from the potential filename: GTH_POTENTIALS
       &END POTENTIAL
     &END KIND
     &KIND Ga
       BASIS_SET DZVP-MOLOPT-SR-GTH
       POTENTIAL GTH-PBE-q13
       &POTENTIAL
 2 1 10
  0.4900000000000000E+00 0
 3
  0.4167772300000000E+00 3  0.1047568975000000E+02 -0.4921768140000000E+01  0.8707055900000000E+00
  0.7770178090000000E+01 -0.2248152160000000E+01
  0.1784415450000000E+01
  0.5696265200000000E+00 2  0.1777985340000000E+01  0.1958597600000000E+00
 -0.2317443900000000E+00
  0.2381265000000000E+00 1 -0.1624868022000000E+02
         # Potential name:  GTH-PBE-Q13  for symbol:  GA
         # Potential read from the potential filename: GTH_POTENTIALS
       &END POTENTIAL
     &END KIND
     &TOPOLOGY
       NUMBER_OF_ATOMS  212
       MULTIPLE_UNIT_CELL  1 1 1
     &END TOPOLOGY
   &END SUBSYS
 &END FORCE_EVAL
