 # Version information for this restart file 
 # current date 2019-07-03 11:59:57.295
 # current working dir /lustre04/scratch/rzk/rzk/GaN-carbene/443-adatoms-both-2x2/07-CH3O-H2O-H3C/02-Use0401
 # Program compiled at                              Sun Apr  7 00:48:11 EDT 2019
 # Program compiled on                          beluga2.int.ets1.calculquebec.ca
 # Program compiled for                        Beluga-Linux-x86-64-intel-openmpi
 # Source code revision number                                         svn:18619
 &GLOBAL
   PRINT_LEVEL  MEDIUM
   PROJECT_NAME TEST
   RUN_TYPE  GEO_OPT
 &END GLOBAL
 &MOTION
   &GEO_OPT
     MAX_ITER  500
     STEP_START_VAL  82
   &END GEO_OPT
 &END MOTION
 &FORCE_EVAL
   METHOD  QS
   STRESS_TENSOR  ANALYTICAL
   &DFT
     BASIS_SET_FILE_NAME BASIS_MOLOPT
     POTENTIAL_FILE_NAME GTH_POTENTIALS
     UKS  T
     SURFACE_DIPOLE_CORRECTION  T
     SURF_DIP_DIR  Z
     &SCF
       MAX_SCF  80
       EPS_SCF     5.0000000000000004E-06
       &OT  T
         PRECONDITIONER  FULL_ALL
       &END OT
       &OUTER_SCF  T
         OPTIMIZER  NONE
         EPS_SCF     5.0000000000000004E-06
         MAX_SCF  4
       &END OUTER_SCF
       &PRINT
         &RESTART  OFF
           BACKUP_COPIES  1
           &EACH
             JUST_ENERGY  0
             QS_SCF  0
             MD  20
           &END EACH
         &END RESTART
       &END PRINT
     &END SCF
     &QS
       EPS_DEFAULT     1.0000000000000000E-14
       METHOD  GPW
     &END QS
     &MGRID
       NGRIDS  5
       CUTOFF     1.2000000000000000E+03
     &END MGRID
     &XC
       DENSITY_CUTOFF     1.0000000000000000E-10
       GRADIENT_CUTOFF     1.0000000000000000E-10
       TAU_CUTOFF     1.0000000000000000E-10
       &XC_FUNCTIONAL  NO_SHORTCUT
         &PBE  T
         &END PBE
       &END XC_FUNCTIONAL
       &VDW_POTENTIAL
         POTENTIAL_TYPE  PAIR_POTENTIAL
         &PAIR_POTENTIAL
           R_CUTOFF     1.0000000000000004E+01
           TYPE  DFTD3
           PARAMETER_FILE_NAME dftd3.dat
           REFERENCE_FUNCTIONAL PBE
           EPS_CN     9.9999999999999995E-07
           CALCULATE_C9_TERM  T
           REFERENCE_C9_TERM  T
           LONG_RANGE_CORRECTION  F
           VERBOSE_OUTPUT  F
         &END PAIR_POTENTIAL
       &END VDW_POTENTIAL
     &END XC
   &END DFT
   &SUBSYS
     &CELL
       A     1.2864472766435110E+01    0.0000000000000000E+00    0.0000000000000000E+00
       B    -6.4322363581020028E+00    1.1140960178524473E+01    0.0000000000000000E+00
       C     0.0000000000000000E+00    0.0000000000000000E+00    3.2000000000000000E+01
       MULTIPLE_UNIT_CELL  1 1 1
       &CELL_REF
         A     1.2982353780853531E+01    0.0000000000000000E+00    0.0000000000000000E+00
         B    -6.4911768904267628E+00    1.1243048175136114E+01    0.0000000000000000E+00
         C     0.0000000000000000E+00    0.0000000000000000E+00    3.2000000000000000E+01
         MULTIPLE_UNIT_CELL  1 1 1
       &END CELL_REF
     &END CELL
     &COORD
N    1.0227693905513718E-01    1.9547908230857329E+00    2.5108432668431249E+00
Ga    1.1884309186296661E-01   -1.5359162310824997E-02    2.8197157833123141E+00
N    1.0632099219687886E-01   -4.3898208034286547E-02    5.0320400824199218E+00
Ga    1.0421497717028907E-01    1.7841396084275873E+00    5.7984220202808441E+00
N    1.0221228609062327E-01    1.7990516234291427E+00    7.8059547425357945E+00
Ga    1.0093314354056011E-01   -4.5689622307514804E-02    8.4460178936972685E+00
N    1.0169182628716943E-01   -4.7508572359202840E-02    1.0423375924639171E+01
Ga    1.0163696550499125E-01    1.7936353419775608E+00    1.1069061940370815E+01
N    1.0215697387993426E-01    1.7736458041704655E+00    1.3066135565817149E+01
Ga    1.0174180646823427E-01   -4.6241296441278078E-02    1.3867630424952686E+01
N    1.0094813132995978E-01   -4.7234319583624791E-02    1.6072721065025593E+01
Ga    1.0246604550112293E-01    1.9913656754375733E+00    1.6481509673550605E+01
Ga    7.4880974898850303E-02    3.6496143721126550E+00    1.3290364584751764E+00
N   -1.3843058075650907E+00    4.5316829145936461E+00    2.5138829761548647E+00
Ga   -1.5688076720489643E+00    2.6900159382846431E+00    3.2757009643433697E+00
N   -1.5064981830629223E+00    2.7404952328342933E+00    5.2607006862010790E+00
Ga   -1.5321481894464357E+00    4.6046695946080272E+00    5.8060666552314730E+00
N   -1.5152550043245430E+00    4.6036388073654999E+00    7.8057171254393349E+00
Ga   -1.4967412747388216E+00    2.7420871884545530E+00    8.4352911764326013E+00
N   -1.4962941273747614E+00    2.7448662622117164E+00    1.0434166379330053E+01
Ga   -1.5208082443493134E+00    4.6021544911718379E+00    1.1072269040311907E+01
N   -1.5375946138012568E+00    4.6135132216578105E+00    1.3067966343989839E+01
Ga   -1.4945630303411399E+00    2.7444583882076659E+00    1.3622097395491352E+01
N   -1.5217613474590939E+00    2.7291075446184343E+00    1.5586552406365760E+01
Ga   -1.3486792218596328E+00    4.5045764676365794E+00    1.6481982988401416E+01
N    9.4598385416336986E-02    3.6622025456880158E+00    1.7616743292103035E+01
N   -3.1170730475729007E+00    7.5124620121439936E+00    2.5028152417839027E+00
Ga   -3.0704521081689156E+00    5.5360837856785814E+00    2.8472643478010595E+00
N   -3.1139503391053562E+00    5.5244060404419253E+00    5.0304153362067332E+00
Ga   -3.1145446227627556E+00    7.3450306251779045E+00    5.8082021937066877E+00
N   -3.1150948543258021E+00    7.3715200982810005E+00    7.8026770106724435E+00
Ga   -3.1125364310731687E+00    5.5246003903650864E+00    8.4512081595896351E+00
N   -3.1141005978548053E+00    5.5246345651628923E+00    1.0425141913239653E+01
Ga   -3.1136360452389322E+00    7.3630941672642720E+00    1.1076092674364510E+01
N   -3.1136945462601062E+00    7.3438258767602766E+00    1.3070174959557562E+01
Ga   -3.1139310767379040E+00    5.5228165686317228E+00    1.3870094237522753E+01
N   -3.1149314450247791E+00    5.5229174508418613E+00    1.6073357645888194E+01
Ga   -3.1135234036774260E+00    7.5616434233440026E+00    1.6482516444276666E+01
Ga   -3.0887948949962887E+00    9.3047119597206525E+00    1.3167131602714599E+00
N   -4.6043721448545663E+00    1.0097673044648596E+01    2.4968804873610688E+00
Ga   -4.7235614126767773E+00    8.3205936531324785E+00    3.3085020282695434E+00
N   -4.7347449681492311E+00    8.3023614559826431E+00    5.2530170451463416E+00
Ga   -4.7515554935882003E+00    1.0191370136242615E+01    5.8050035840147540E+00
N   -4.7318270185224218E+00    1.0168744351054613E+01    7.8052629793525501E+00
Ga   -4.7097625278462516E+00    8.3187310805347607E+00    8.4496064708647172E+00
N   -4.7108914986156556E+00    8.3147957058265618E+00    1.0440896104213325E+01
Ga   -4.7367705448128188E+00    1.0176123974946865E+01    1.1072543163514174E+01
N   -4.7534016055383574E+00    1.0184263889409971E+01    1.3068158150183599E+01
Ga   -4.7103253820894739E+00    8.3161812058430495E+00    1.3624570388857004E+01
N   -4.7378979978857396E+00    8.2999464991741867E+00    1.5588611792829143E+01
Ga   -4.5652295697530532E+00    1.0076087019225485E+01    1.6482027581567589E+01
N   -3.1213380521020779E+00    9.2336132460346292E+00    1.7616821204323831E+01
N    3.3050420330108747E+00    1.8088380429676940E+00    2.6465088836197932E+00
Ga    3.3064617567955632E+00    4.4219239307960283E-02    3.2790483366642831E+00
N    3.3174822055794522E+00   -4.8384231516070478E-02    5.2611999060134229E+00
Ga    3.3089195444764852E+00    1.8090338546464773E+00    5.8708947915708523E+00
N    3.3192893655662510E+00    1.8112751796279267E+00    7.8541535536090832E+00
Ga    3.3178021533143762E+00   -5.5878024453245828E-02    8.4376934511537254E+00
N    3.3183149048840388E+00   -5.9571580277688128E-02    1.0435111851427616E+01
Ga    3.3173968010555539E+00    1.8096747279731407E+00    1.1028090728898741E+01
N    3.3185817675976876E+00    1.8099675967848667E+00    1.3002204898302773E+01
Ga    3.3189529427161260E+00   -5.9181868841677164E-02    1.3622720751305767E+01
N    3.3202706424620492E+00   -2.8624613659074427E-02    1.5585926147492453E+01
Ga    3.3183036533042221E+00    1.8102484827650556E+00    1.5863583638287382E+01
N    1.5949276585633123E+00    4.5358853611053949E+00    2.5220089515807160E+00
Ga    1.7715359841996365E+00    2.6998284840591049E+00    3.2691682463925100E+00
N    1.7111050719643985E+00    2.7416962112526422E+00    5.2603341891360618E+00
Ga    1.7366564056107490E+00    4.6033333576627529E+00    5.8092244376850832E+00
N    1.7191846413451104E+00    4.6036772327358459E+00    7.8086274748104350E+00
Ga    1.7001264820492954E+00    2.7428217979640790E+00    8.4383067216715215E+00
N    1.6996235135033972E+00    2.7452040001647791E+00    1.0436156847949094E+01
Ga    1.7255704543146027E+00    4.6029783572567657E+00    1.1071723698591914E+01
N    1.7423814549531644E+00    4.6138001586399646E+00    1.3067074910219752E+01
Ga    1.6992358430293262E+00    2.7449901979608771E+00    1.3621696277587912E+01
N    1.7267846448197119E+00    2.7308690270602582E+00    1.5585009962430751E+01
Ga    1.5469177331379873E+00    4.5007671372301257E+00    1.6482787211334077E+01
N    9.8661148800484710E-02    7.3789085321456991E+00    2.6986048487347198E+00
Ga    1.0776550030397873E-01    5.5188852745988983E+00    3.3213372258575338E+00
N    1.0230110680340486E-01    5.5415753484324339E+00    5.2653469980676224E+00
Ga    1.0421638039617631E-01    7.3824748119604617E+00    5.8997192505818887E+00
N    1.0345131381825572E-01    7.3826007052610736E+00    7.8645935395226676E+00
Ga    1.0210263311863399E-01    5.5112135275304617E+00    8.4466612290104237E+00
N    1.0193750802800385E-01    5.5113520383544525E+00    1.0439668292448284E+01
Ga    1.0187803002790034E-01    7.3804261086069909E+00    1.1030784216737956E+01
N    1.0229092819037985E-01    7.3809590421116500E+00    1.3003596737292424E+01
Ga    1.0276866671483748E-01    5.5106511869420487E+00    1.3622727634913476E+01
N    1.0399497110777611E-01    5.5419003791928283E+00    1.5585830371613733E+01
Ga    1.0208687087097006E-01    7.3803461554204048E+00    1.5864896778804379E+01
N   -1.6272971810641681E+00    1.0096055179415869E+01    2.5141631987545447E+00
Ga   -1.5085816540102317E+00    8.3068277990160340E+00    3.3146360289263819E+00
N   -1.4953106728517880E+00    8.3016777615181603E+00    5.2586540466729321E+00
Ga   -1.4836084200707487E+00    1.0186813992086559E+01    5.8069679775134944E+00
N   -1.4962192016536937E+00    1.0169422521893058E+01    7.8052657754553598E+00
Ga   -1.5167056318022478E+00    8.3167725853874117E+00    8.4462529045859469E+00
N   -1.5175893334638451E+00    8.3149230746670408E+00    1.0438739009424436E+01
Ga   -1.4913798027195095E+00    1.0175461378524023E+01    1.1071566985406459E+01
N   -1.4740667172691506E+00    1.0184161153780424E+01    1.3066846899197555E+01
Ga   -1.5164883580616537E+00    8.3162746135786794E+00    1.3623864632632239E+01
N   -1.4891058496988354E+00    8.3018028348140689E+00    1.5586859612483675E+01
Ga   -1.6685467438704140E+00    1.0072286853990898E+01    1.6482934856427406E+01
N    6.5321247342781543E+00    1.9304750431013482E+00    2.5489532332225950E+00
Ga    6.5175377084246673E+00   -7.2248471278206799E-02    2.8520499874910183E+00
N    6.5294428510391329E+00   -4.4919143302918615E-02    5.0314918750918851E+00
Ga    6.5338295376389617E+00    1.7797241565302802E+00    5.8078140562829921E+00
N    6.5343876343194758E+00    1.7989353770029499E+00    7.8057904404138494E+00
Ga    6.5352525499976171E+00   -4.8225064709835577E-02    8.4474357937374762E+00
N    6.5352036222976926E+00   -4.7196487254965697E-02    1.0423359193485128E+01
Ga    6.5349621050134594E+00    1.7933395273516592E+00    1.1070813547472396E+01
N    6.5348145172133201E+00    1.7736683921714704E+00    1.3066968076936416E+01
Ga    6.5339944338795455E+00   -4.6646938997469710E-02    1.3867678808782838E+01
N    6.5335348469165035E+00   -4.7110492907863018E-02    1.6072960272119243E+01
Ga    6.5346597745878325E+00    1.9912778517481216E+00    1.6481955872141061E+01
Ga    6.5331682240047693E+00    3.6339683503852989E+00    1.5410539023680943E+00
N    5.0395586086579733E+00    4.5450845953825754E+00    2.5341376884590971E+00
Ga    4.8087861922985633E+00    2.6750602275521391E+00    3.3080534907058166E+00
N    4.9286626862721841E+00    2.7448752981977318E+00    5.2674616900274929E+00
Ga    4.8943765501196816E+00    4.6108758984004918E+00    5.8177873625368575E+00
N    4.9203676153838334E+00    4.6038395153805549E+00    7.8093361470351264E+00
Ga    4.9348036074233903E+00    2.7419154397855308E+00    8.4416709746257759E+00
N    4.9372252793539388E+00    2.7452159821369477E+00    1.0437163022478865E+01
Ga    4.9109432836383426E+00    4.6031698571888882E+00    1.1074034167861798E+01
N    4.8948605976935857E+00    4.6136776820910130E+00    1.3068915443865952E+01
Ga    4.9379203009149037E+00    2.7445836600080846E+00    1.3622905164612327E+01
N    4.9103661656045032E+00    2.7289883933205408E+00    1.5587184271962169E+01
Ga    5.0834376686507472E+00    4.5045664820342308E+00    1.6482261995217264E+01
N    6.5270681915721021E+00    3.6622752787823267E+00    1.7616118732122075E+01
N    3.3236246313558038E+00    7.4873920105983007E+00    2.5118509019150359E+00
N    3.3214942236884970E+00    5.5219378918899311E+00    5.0434332958383346E+00
Ga    3.3193690196123233E+00    7.3470027115607959E+00    5.8035509546337920E+00
N    3.3193504784572876E+00    7.3735379857614740E+00    7.7992415580660497E+00
Ga    3.3170551561361687E+00    5.5261349451706305E+00    8.4500963584325870E+00
N    3.3191449594674354E+00    5.5254222023110673E+00    1.0424681745675226E+01
Ga    3.3180627693125544E+00    7.3636462678559083E+00    1.1075688168417509E+01
N    3.3184108065892852E+00    7.3440744819512673E+00    1.3069928032578574E+01
Ga    3.3176503746160635E+00    5.5229180632815114E+00    1.3869860739620076E+01
N    3.3172799190919173E+00    5.5231404997018672E+00    1.6073306807858504E+01
Ga    3.3184950969829683E+00    7.5620595750277948E+00    1.6482644518092272E+01
Ga    3.3148780957609838E+00    9.2986052977257216E+00    1.2537626290480914E+00
N    1.8035828811833319E+00    1.0108465821129277E+01    2.5166183232452761E+00
Ga    1.7122234551018969E+00    8.3070159716909213E+00    3.2916603951179262E+00
N    1.7012300308481640E+00    8.3015741143994575E+00    5.2425633068530555E+00
Ga    1.6854050559289246E+00    1.0185959554715248E+01    5.7950153820371098E+00
N    1.7001383828590917E+00    1.0169137494775477E+01    7.7966747752517938E+00
Ga    1.7219779593538909E+00    8.3181841336800897E+00    8.4452792107568815E+00
N    1.7217154910578425E+00    8.3153522824845094E+00    1.0438213197847997E+01
Ga    1.6965216400163174E+00    1.0175442109045751E+01    1.1072228525378572E+01
N    1.6789955958254019E+00    1.0184223498985233E+01    1.3067815204825092E+01
Ga    1.7215103517223631E+00    8.3159989277270192E+00    1.3624201257256892E+01
N    1.6937363938701855E+00    8.2998288263793185E+00    1.5588321539231821E+01
Ga    1.8672178741675851E+00    1.0075877122177102E+01    1.6482231659457668E+01
N    3.3108906095553694E+00    9.2337344491572626E+00    1.7615441764432582E+01
N    9.7623662882854809E+00    1.8116367985949580E+00    2.6369695522503882E+00
Ga    9.7582829624493410E+00    4.3422159574178908E-02    3.2532570894323829E+00
N    9.7505535460125810E+00   -5.1807101227173802E-02    5.2425015775868742E+00
Ga    9.7589022950279336E+00    1.8048074373336807E+00    5.8646838108638333E+00
N    9.7492908924121924E+00    1.8092445996576076E+00    7.8482899010823246E+00
Ga    9.7502307263213162E+00   -5.7386473842488329E-02    8.4329842331234595E+00
N    9.7501293600092822E+00   -5.9942905714521100E-02    1.0431560487997615E+01
Ga    9.7503438168521370E+00    1.8092255647382021E+00    1.1026213934620673E+01
N    9.7502964101450864E+00    1.8098199778276325E+00    1.3000631367096563E+01
Ga    9.7509632047604757E+00   -5.8789791445904772E-02    1.3622865538982877E+01
N    9.7523419059606375E+00   -2.8090226481539797E-02    1.5585868116928074E+01
Ga    9.7508753478335315E+00    1.8104424818028448E+00    1.5864712468775474E+01
N    8.0309936821060397E+00    4.5462800180451879E+00    2.5315315959993754E+00
Ga    8.2585851342378707E+00    2.6733267535987073E+00    3.3043173808323254E+00
N    8.1404775826798499E+00    2.7434111850977461E+00    5.2636777098999223E+00
Ga    8.1781587040603760E+00    4.6112279218496415E+00    5.8115999967808536E+00
N    8.1501672794302529E+00    4.6039591948454657E+00    7.8048154097825320E+00
Ga    8.1345403650514427E+00    2.7417916697881810E+00    8.4381211329996688E+00
N    8.1317058469573205E+00    2.7455285113515053E+00    1.0434280143140848E+01
Ga    8.1585791678935102E+00    4.6026598322896684E+00    1.1073829645074317E+01
N    8.1743885094741433E+00    4.6133649467839115E+00    1.3068161191432084E+01
Ga    8.1320212059306272E+00    2.7445924377607791E+00    1.3622788022818797E+01
N    8.1593245445207359E+00    2.7306892749179354E+00    1.5585822635105561E+01
Ga    7.9793250078167626E+00    4.5007283648728924E+00    1.6483195796301711E+01
N    6.5392103857538029E+00    7.3962862441257196E+00    2.6171410331776244E+00
Ga    6.5349925046586801E+00    5.5843620692926006E+00    3.3411132159729982E+00
N    6.5353231800295237E+00    5.5461197872033949E+00    5.2644079168934859E+00
Ga    6.5338203284779066E+00    7.3953831862837136E+00    5.9066319005448813E+00
N    6.5336939464357933E+00    7.3827351108673342E+00    7.8666211764821350E+00
Ga    6.5352277615227816E+00    5.5124361250829903E+00    8.4521015095058303E+00
N    6.5349598931834691E+00    5.5116872344040502E+00    1.0441564325026468E+01
Ga    6.5336928981470157E+00    7.3813927168690272E+00    1.1032972042978335E+01
N    6.5343570402310185E+00    7.3808489093720464E+00    1.3004865026292075E+01
Ga    6.5350483820874450E+00    5.5106532857563986E+00    1.3623996177661617E+01
N    6.5363777892197970E+00    5.5420437841030621E+00    1.5586669101098495E+01
Ga    6.5348008464462408E+00    7.3804741775849250E+00    1.5865320487738831E+01
N    4.8362745471133062E+00    1.0110863821697469E+01    2.5058886492203984E+00
Ga    4.9319237231583557E+00    8.3177814751897845E+00    3.2925420924598301E+00
N    4.9392515706667330E+00    8.3026128087789939E+00    5.2406948365661954E+00
Ga    4.9575286331186987E+00    1.0191857491986205E+01    5.7939124099866151E+00
N    4.9355679726559281E+00    1.0168913164602731E+01    7.7971800817623231E+00
Ga    4.9133704814764920E+00    8.3199342799710028E+00    8.4475759615663790E+00
N    4.9146576428461604E+00    8.3156036549842902E+00    1.0439081908903862E+01
Ga    4.9403832527422535E+00    1.0176444688205279E+01    1.1071828458679599E+01
N    4.9575634299165179E+00    1.0184264422681538E+01    1.3067051495860184E+01
Ga    4.9153624230524260E+00    8.3164737764889569E+00    1.3624219468303451E+01
N    4.9434971245566013E+00    8.3014632736914482E+00    1.5586906459991871E+01
Ga    4.7633484115236469E+00    1.0072093947126325E+01    1.6482948085957776E+01
O    1.1940688348393827E-01    3.8239902633866940E+00   -4.7330231868589229E-01
H   -3.6312470158839956E+00    8.7166295071465569E+00   -8.8262537762886406E-01
C    1.3745040068461880E+00    3.5345468677222467E+00   -1.1119394514563219E+00
H    2.2084829682808698E+00    4.1103094946734702E+00   -6.7679390862280120E-01
H    1.6314830756480523E+00    2.4642639273903750E+00   -1.0597510771143746E+00
H    1.2738946214208156E+00    3.8179511162658972E+00   -2.1696390076995300E+00
Ga    3.2750625791572414E+00    5.5184311830190724E+00    2.8695284324414816E+00
O   -2.9517323012482142E+00    9.2887660075897713E+00   -4.9084942435171286E-01
H    8.5439325104522956E-02    7.3653438459756231E+00    1.6716025386300688E+00
C    6.5485344724512773E+00    7.3835625689778208E+00    1.1241972242099163E+00
H    6.5643804399186916E+00    8.4100644610900712E+00    7.2856526105311481E-01
H    7.4351165150188319E+00    6.8550967753800753E+00    7.4288229938226569E-01
H    5.6523104687328045E+00    6.8829128959729129E+00    7.2926421281364739E-01
     &END COORD
     &KIND C
       BASIS_SET DZVP-MOLOPT-SR-GTH-q4
       POTENTIAL GTH-PBE-q4
       &POTENTIAL
 2 2
  0.3384712400000000E+00 2 -0.8803673979999999E+01  0.1339210850000000E+01
 2
  0.3025757500000000E+00 1  0.9622486650000001E+01
  0.2915069400000000E+00 0
         # Potential name:  GTH-PBE-Q4  for symbol:  C
         # Potential read from the potential filename: GTH_POTENTIALS
       &END POTENTIAL
     &END KIND
     &KIND O
       BASIS_SET DZVP-MOLOPT-SR-GTH-q6
       POTENTIAL GTH-PBE-q6
       &POTENTIAL
 2 4
  0.2445543000000000E+00 2 -0.1666721480000000E+02  0.2487311320000000E+01
 2
  0.2209559200000000E+00 1  0.1833745811000000E+02
  0.2113324700000000E+00 0
         # Potential name:  GTH-PBE-Q6  for symbol:  O
         # Potential read from the potential filename: GTH_POTENTIALS
       &END POTENTIAL
     &END KIND
     &KIND H
       BASIS_SET DZVP-MOLOPT-SR-GTH-q1
       POTENTIAL GTH-PBE-q1
       &POTENTIAL
 1
  0.2000000000000000E+00 2 -0.4178900440000000E+01  0.7244633100000000E+00
 0
         # Potential name:  GTH-PBE-Q1  for symbol:  H
         # Potential read from the potential filename: GTH_POTENTIALS
       &END POTENTIAL
     &END KIND
     &KIND N
       BASIS_SET DZVP-MOLOPT-SR-GTH
       POTENTIAL GTH-PBE-q5
       &POTENTIAL
 2 3
  0.2837905100000000E+00 2 -0.1241522559000000E+02  0.1868095920000000E+01
 2
  0.2554050000000000E+00 1  0.1363026257000000E+02
  0.2454945300000000E+00 0
         # Potential name:  GTH-PBE-Q5  for symbol:  N
         # Potential read from the potential filename: GTH_POTENTIALS
       &END POTENTIAL
     &END KIND
     &KIND Ga
       BASIS_SET DZVP-MOLOPT-SR-GTH
       POTENTIAL GTH-PBE-q13
       &POTENTIAL
 2 1 10
  0.4900000000000000E+00 0
 3
  0.4167772300000000E+00 3  0.1047568975000000E+02 -0.4921768140000000E+01  0.8707055900000000E+00
  0.7770178090000000E+01 -0.2248152160000000E+01
  0.1784415450000000E+01
  0.5696265200000000E+00 2  0.1777985340000000E+01  0.1958597600000000E+00
 -0.2317443900000000E+00
  0.2381265000000000E+00 1 -0.1624868022000000E+02
         # Potential name:  GTH-PBE-Q13  for symbol:  GA
         # Potential read from the potential filename: GTH_POTENTIALS
       &END POTENTIAL
     &END KIND
     &TOPOLOGY
       NUMBER_OF_ATOMS  212
       MULTIPLE_UNIT_CELL  1 1 1
     &END TOPOLOGY
   &END SUBSYS
 &END FORCE_EVAL
