 # Version information for this restart file 
 # current date 2019-07-03 07:43:39.988
 # current working dir /lustre04/scratch/rzk/rzk/GaN-carbene/443-adatoms-both-2x2/07-CH3O-H2O-H3C/02-Use0401
 # Program compiled at                              Sun Apr  7 00:48:11 EDT 2019
 # Program compiled on                          beluga2.int.ets1.calculquebec.ca
 # Program compiled for                        Beluga-Linux-x86-64-intel-openmpi
 # Source code revision number                                         svn:18619
 &GLOBAL
   PRINT_LEVEL  MEDIUM
   PROJECT_NAME TEST
   RUN_TYPE  GEO_OPT
 &END GLOBAL
 &MOTION
   &GEO_OPT
     MAX_ITER  500
     STEP_START_VAL  22
   &END GEO_OPT
 &END MOTION
 &FORCE_EVAL
   METHOD  QS
   STRESS_TENSOR  ANALYTICAL
   &DFT
     BASIS_SET_FILE_NAME BASIS_MOLOPT
     POTENTIAL_FILE_NAME GTH_POTENTIALS
     UKS  T
     SURFACE_DIPOLE_CORRECTION  T
     SURF_DIP_DIR  Z
     &SCF
       MAX_SCF  80
       EPS_SCF     5.0000000000000004E-06
       &OT  T
         PRECONDITIONER  FULL_ALL
       &END OT
       &OUTER_SCF  T
         OPTIMIZER  NONE
         EPS_SCF     5.0000000000000004E-06
         MAX_SCF  4
       &END OUTER_SCF
       &PRINT
         &RESTART  OFF
           BACKUP_COPIES  1
           &EACH
             JUST_ENERGY  0
             QS_SCF  0
             MD  20
           &END EACH
         &END RESTART
       &END PRINT
     &END SCF
     &QS
       EPS_DEFAULT     1.0000000000000000E-14
       METHOD  GPW
     &END QS
     &MGRID
       NGRIDS  5
       CUTOFF     1.2000000000000000E+03
     &END MGRID
     &XC
       DENSITY_CUTOFF     1.0000000000000000E-10
       GRADIENT_CUTOFF     1.0000000000000000E-10
       TAU_CUTOFF     1.0000000000000000E-10
       &XC_FUNCTIONAL  NO_SHORTCUT
         &PBE  T
         &END PBE
       &END XC_FUNCTIONAL
       &VDW_POTENTIAL
         POTENTIAL_TYPE  PAIR_POTENTIAL
         &PAIR_POTENTIAL
           R_CUTOFF     1.0000000000000004E+01
           TYPE  DFTD3
           PARAMETER_FILE_NAME dftd3.dat
           REFERENCE_FUNCTIONAL PBE
           EPS_CN     9.9999999999999995E-07
           CALCULATE_C9_TERM  T
           REFERENCE_C9_TERM  T
           LONG_RANGE_CORRECTION  F
           VERBOSE_OUTPUT  F
         &END PAIR_POTENTIAL
       &END VDW_POTENTIAL
     &END XC
   &END DFT
   &SUBSYS
     &CELL
       A     1.2864472766435110E+01    0.0000000000000000E+00    0.0000000000000000E+00
       B    -6.4322363581020028E+00    1.1140960178524473E+01    0.0000000000000000E+00
       C     0.0000000000000000E+00    0.0000000000000000E+00    3.2000000000000000E+01
       MULTIPLE_UNIT_CELL  1 1 1
       &CELL_REF
         A     1.2982353780853531E+01    0.0000000000000000E+00    0.0000000000000000E+00
         B    -6.4911768904267628E+00    1.1243048175136114E+01    0.0000000000000000E+00
         C     0.0000000000000000E+00    0.0000000000000000E+00    3.2000000000000000E+01
         MULTIPLE_UNIT_CELL  1 1 1
       &END CELL_REF
     &END CELL
     &COORD
N    8.0351656750099781E-02    1.9572100247819679E+00    2.4871077735202785E+00
Ga    8.5356810329359475E-02    6.6942670116371446E-03    2.8151318330973956E+00
N    8.2591903745152531E-02   -4.6612693024097401E-02    5.0118552015029145E+00
Ga    8.2517136717616374E-02    1.7896249334081085E+00    5.7940036905596974E+00
N    7.9714895736629252E-02    1.8010724509048306E+00    7.7990756548135467E+00
Ga    7.9564301743193178E-02   -3.9714818068094834E-02    8.4495218162097849E+00
N    7.8764356846828185E-02   -3.8930750550133120E-02    1.0422372456693095E+01
Ga    7.8922222918133583E-02    1.8021965972749043E+00    1.1073126681742268E+01
N    7.9017973282844489E-02    1.7848927391196632E+00    1.3066908265727735E+01
Ga    7.8832212957768405E-02   -3.3445737881071427E-02    1.3882644682114874E+01
N    7.9113625929872824E-02   -3.2222876551711556E-02    1.6070947800053077E+01
Ga    7.9196846406506316E-02    2.0150663005744791E+00    1.6493641924236318E+01
Ga    4.7802535853561257E-02    3.7071579270641370E+00    1.3321015855169382E+00
N   -1.4027758702113575E+00    4.5277590349149950E+00    2.5235447054734443E+00
Ga   -1.5873855231640950E+00    2.6965338536444481E+00    3.2705973359233971E+00
N   -1.5289153864766829E+00    2.7379899066030271E+00    5.2560506216336531E+00
Ga   -1.5484032295161321E+00    4.6056273452469343E+00    5.8021976009366156E+00
N   -1.5410593916987854E+00    4.6064131254556147E+00    7.8042760982785211E+00
Ga   -1.5189812986342603E+00    2.7474207986140673E+00    8.4360974373018447E+00
N   -1.5182486547729830E+00    2.7526062977821160E+00    1.0432655925629978E+01
Ga   -1.5425334286575438E+00    4.6119289354180451E+00    1.1069400426795585E+01
N   -1.5595798761304835E+00    4.6258824411952277E+00    1.3062058651410920E+01
Ga   -1.5176172253580134E+00    2.7580442421782387E+00    1.3623970621706016E+01
N   -1.5513633692970474E+00    2.7476054110597565E+00    1.5582338211332043E+01
Ga   -1.3493364039535376E+00    4.5088497892750432E+00    1.6495498774155916E+01
N    7.9234066176140511E-02    3.6712662578885120E+00    1.7636311285985499E+01
N   -3.1365076693106722E+00    7.4938810246885001E+00    2.5286155778343571E+00
Ga   -3.0917877260115727E+00    5.4907777113456602E+00    2.8451621286001489E+00
N   -3.1363914042492276E+00    5.5250832045032334E+00    5.0257321322898552E+00
Ga   -3.1364894527896956E+00    7.3411845352936140E+00    5.8122565004550921E+00
N   -3.1422381774794994E+00    7.3748741029242879E+00    7.8028427371806481E+00
Ga   -3.1368677575184223E+00    5.5269309330705223E+00    8.4516667471670992E+00
N   -3.1392286306330606E+00    5.5329573607128513E+00    1.0424389432507889E+01
Ga   -3.1360905740918601E+00    7.3733909190206699E+00    1.1073974154125835E+01
N   -3.1365717905005854E+00    7.3576549901621870E+00    1.3064789783770150E+01
Ga   -3.1270588390877143E+00    5.5414935849680065E+00    1.3864220535406183E+01
N   -3.1268541807983143E+00    5.5439741550014885E+00    1.6071354521682828E+01
Ga   -3.1342249383593908E+00    7.6019534300621485E+00    1.6498130552035111E+01
Ga   -3.0385009876496278E+00    9.2105250694261187E+00    1.4501521779416684E+00
N   -4.6272068474091839E+00    1.0086052620800482E+01    2.4778790518080300E+00
Ga   -4.7662343406273040E+00    8.2979547728936165E+00    3.3171604119604345E+00
N   -4.7592023944818997E+00    8.3025495174854704E+00    5.2476285519105961E+00
Ga   -4.7747119991329612E+00    1.0192423643904002E+01    5.8033584158054712E+00
N   -4.7557137111196957E+00    1.0172679397552397E+01    7.7970558761071871E+00
Ga   -4.7335488459210850E+00    8.3227728051567293E+00    8.4523988561421781E+00
N   -4.7350535445450275E+00    8.3253530457551879E+00    1.0439310526833129E+01
Ga   -4.7608599190520957E+00    1.0186192927853197E+01    1.1077919122050616E+01
N   -4.7773264979731991E+00    1.0197090023814965E+01    1.3069564205802580E+01
Ga   -4.7330087096288640E+00    8.3283139630824685E+00    1.3627486321536692E+01
N   -4.7609922178335609E+00    8.3067742084937191E+00    1.5585275937591396E+01
Ga   -4.5793292105087557E+00    1.0085551379894104E+01    1.6495862415323959E+01
N   -3.1450073517570032E+00    9.2579841861831316E+00    1.7638725109885819E+01
N    3.2877114052960734E+00    1.8142931314707584E+00    2.6243738831288068E+00
Ga    3.2897647845039772E+00    6.4926075049035248E-02    3.2711512431123300E+00
N    3.2924759470508076E+00   -5.0860096119213639E-02    5.2434802696949987E+00
Ga    3.2877678352066204E+00    1.8139575263026806E+00    5.8622616272726837E+00
N    3.2960406177494952E+00    1.8134492159767091E+00    7.8448114738650503E+00
Ga    3.2944502714955943E+00   -5.0056294996678623E-02    8.4391143235958346E+00
N    3.2930228238038715E+00   -5.0267536371419147E-02    1.0432958451919017E+01
Ga    3.2939696706341151E+00    1.8194824882359109E+00    1.1028487466416616E+01
N    3.2976844711123605E+00    1.8238178014601669E+00    1.3001406285659050E+01
Ga    3.2958499455656720E+00   -4.7108505299819609E-02    1.3626276875405770E+01
N    3.3020245424103867E+00   -9.0379128680610297E-03    1.5583898060040655E+01
Ga    3.2936362318086672E+00    1.8241141753027110E+00    1.5864659804361276E+01
N    1.5694351864490059E+00    4.5305623536590129E+00    2.5170314994719720E+00
Ga    1.7499680331449068E+00    2.7034329579506267E+00    3.2550303644869873E+00
N    1.6899631027132218E+00    2.7381063980194198E+00    5.2476310626161711E+00
Ga    1.7097145051151446E+00    4.6036311107183927E+00    5.8004518897838198E+00
N    1.6992320007166926E+00    4.6054930805696062E+00    7.8035116837593153E+00
Ga    1.6780117315272030E+00    2.7472440106571598E+00    8.4360117920423630E+00
N    1.6762170292447376E+00    2.7523053799571402E+00    1.0432569264039238E+01
Ga    1.6998629973972101E+00    4.6117176780935978E+00    1.1069308079846499E+01
N    1.7174052740138799E+00    4.6258294840478884E+00    1.3062024706307140E+01
Ga    1.6754131857161234E+00    2.7582033816922498E+00    1.3624376924054449E+01
N    1.7101573441379316E+00    2.7473461247354027E+00    1.5582535767412711E+01
Ga    1.5083077360176016E+00    4.5087639455158541E+00    1.6495449196789231E+01
N    8.2999753607444354E-02    7.3683217909211960E+00    2.6618092080523694E+00
Ga    8.8720262291615629E-02    5.5847204799621997E+00    3.2954935293510248E+00
N    8.0550967803644305E-02    5.5307938057348176E+00    5.2692038246001651E+00
Ga    8.4089982782146730E-02    7.3747211093117082E+00    5.8874747520546045E+00
N    8.0008228962182543E-02    7.3875052978229636E+00    7.8584712581501508E+00
Ga    7.9531929085309136E-02    5.5160477455121351E+00    8.4391299075867199E+00
N    7.8675810555987685E-02    5.5203896297031969E+00    1.0432686168792715E+01
Ga    7.8802762074368260E-02    7.3896916153805172E+00    1.1026959403265902E+01
N    7.8754439410597288E-02    7.3934920933294865E+00    1.2996300035603879E+01
Ga    7.8999177871503165E-02    5.5248678701937397E+00    1.3622368455937416E+01
N    7.9354508280407160E-02    5.5582859910562110E+00    1.5579612665226243E+01
Ga    7.9844113188979327E-02    7.3951752888531406E+00    1.5858859120402023E+01
N   -1.6228600486322911E+00    1.0095741916940874E+01    2.5440542514019189E+00
Ga   -1.4321117926397884E+00    8.2458366847274078E+00    3.3270651217841052E+00
N   -1.5305656094097271E+00    8.3080435866624338E+00    5.2745847817805300E+00
Ga   -1.5060147765097884E+00    1.0187422346879343E+01    5.8072556427473438E+00
N   -1.5205883223153236E+00    1.0177661852569731E+01    7.8024156301467000E+00
Ga   -1.5386051010945654E+00    8.3211727840698551E+00    8.4405424095454453E+00
N   -1.5414408296567230E+00    8.3242573268737132E+00    1.0432086013049254E+01
Ga   -1.5162706488750981E+00    1.0183259994042970E+01    1.1070558121323840E+01
N   -1.4986813844655007E+00    1.0195468266053187E+01    1.3062641514373260E+01
Ga   -1.5388057681694698E+00    8.3277879663036085E+00    1.3624403377953756E+01
N   -1.5110996620909463E+00    8.3137073760856293E+00    1.5581443689337148E+01
Ga   -1.7058439816272721E+00    1.0076342306286861E+01    1.6497171813288400E+01
N    6.5139934805520552E+00    1.9262115939250970E+00    2.5357454635532855E+00
Ga    6.5187555474700769E+00   -4.7387777881406003E-02    2.8621241317969441E+00
N    6.5119909772067714E+00   -4.7232052517329690E-02    5.0276641932032327E+00
Ga    6.5110909024152344E+00    1.7842296931524027E+00    5.8020426646114149E+00
N    6.5108967946130489E+00    1.8042248411397792E+00    7.8007053695527242E+00
Ga    6.5115528431954344E+00   -4.0589980216975866E-02    8.4490793328437608E+00
N    6.5108293966091315E+00   -3.7622304726578432E-02    1.0423038718304809E+01
Ga    6.5106702551297317E+00    1.8017537061681299E+00    1.1071604277072147E+01
N    6.5111258698472998E+00    1.7840708031470423E+00    1.3070906057061599E+01
Ga    6.5115384049585652E+00   -4.5170518231897751E-02    1.3863580533314543E+01
N    6.5115086397202555E+00   -4.3511202485117244E-02    1.6070452101716207E+01
Ga    6.5117541840962945E+00    1.9566736805530145E+00    1.6438112400168006E+01
Ga    6.5160673472403579E+00    3.6202454331333871E+00    1.4329439996590165E+00
N    5.0130490497746454E+00    4.5416559556900449E+00    2.5121154223862745E+00
Ga    4.8019528410580943E+00    2.6839222648956360E+00    3.2828312503731438E+00
N    4.9049765888513202E+00    2.7435703575858215E+00    5.2516218400233958E+00
Ga    4.8688378078401637E+00    4.6100862213991878E+00    5.8071205301547772E+00
N    4.8966644247768709E+00    4.6069314329724671E+00    7.8012177951064992E+00
Ga    4.9110635059247763E+00    2.7463294849903179E+00    8.4377656666431289E+00
N    4.9138779837686215E+00    2.7541054706742036E+00    1.0434335533912972E+01
Ga    4.8858997128613177E+00    4.6120205467098367E+00    1.1074757050013581E+01
N    4.8696737234016156E+00    4.6269460929658885E+00    1.3072746443622780E+01
Ga    4.9138138576821859E+00    2.7568671771490822E+00    1.3618692557233484E+01
N    4.8962518939084498E+00    2.7490262129642504E+00    1.5594951461781561E+01
Ga    5.0177613896088706E+00    4.5441011712094550E+00    1.6438614766789062E+01
N    6.5110446924274621E+00    3.6808956730035121E+00    1.7558298364204624E+01
N    3.3054327466747502E+00    7.4996575159279937E+00    2.5125671410407131E+00
N    3.2975490672163339E+00    5.5265793405016552E+00    5.0284802103691844E+00
Ga    3.2940019225700072E+00    7.3433225740013173E+00    5.8105673500220831E+00
N    3.2994181902471351E+00    7.3758489464766877E+00    7.8022512684082024E+00
Ga    3.2945942048598900E+00    5.5274370168524500E+00    8.4504181383096739E+00
N    3.2960285310540751E+00    5.5330807453642850E+00    1.0423647607290498E+01
Ga    3.2937819156682027E+00    7.3732004847870432E+00    1.1074168380131837E+01
N    3.2946204528289509E+00    7.3576719993741495E+00    1.3064722102184819E+01
Ga    3.2849245637125319E+00    5.5418767167999903E+00    1.3864879536169433E+01
N    3.2853217956807308E+00    5.5439425491324972E+00    1.6071196119013099E+01
Ga    3.2931956421323858E+00    7.6033081227889037E+00    1.6500292625069441E+01
Ga    3.2515547833045257E+00    9.2514705659845866E+00    1.4374762260550593E+00
N    1.7948146903272697E+00    1.0102041031911217E+01    2.5378241729101192E+00
Ga    1.6057910498436689E+00    8.2513114225577429E+00    3.3007746999199123E+00
N    1.6921071406224282E+00    8.3089567784508258E+00    5.2600987996392110E+00
Ga    1.6649963633230587E+00    1.0184007926448526E+01    5.8051085805321359E+00
N    1.6781760245700303E+00    1.0176784240428473E+01    7.8013255075426224E+00
Ga    1.6971162474231158E+00    8.3215494515396315E+00    8.4423357978980587E+00
N    1.6989485440649856E+00    8.3246025330277291E+00    1.0433141325331352E+01
Ga    1.6735534819132363E+00    1.0183706619187589E+01    1.1071057597179831E+01
N    1.6566840201867290E+00    1.0195540205596203E+01    1.3062722512988040E+01
Ga    1.6967950896022916E+00    8.3277013947798508E+00    1.3624661479868150E+01
N    1.6700444575586910E+00    8.3137239006223123E+00    1.5581306492218024E+01
Ga    1.8659952990960629E+00    1.0075396588856448E+01    1.6499409955097690E+01
N    3.3030834362053731E+00    9.2576055892028304E+00    1.7642104690599325E+01
N    9.7402401744238212E+00    1.8152146788543482E+00    2.6340922361563717E+00
Ga    9.7394329171493652E+00    6.7353981476917110E-02    3.2824102357100413E+00
N    9.7325266591947734E+00   -5.0263374164994441E-02    5.2513453039604174E+00
Ga    9.7351731521447178E+00    1.8143725304293163E+00    5.8676753841205134E+00
N    9.7262622340170939E+00    1.8140822405963664E+00    7.8482816969509894E+00
Ga    9.7280380173588004E+00   -5.0891005532235106E-02    8.4383238102743459E+00
N    9.7286274995340722E+00   -5.0576670985272132E-02    1.0432415229695184E+01
Ga    9.7282046070815085E+00    1.8194204556486084E+00    1.1027675384414696E+01
N    9.7245432707671622E+00    1.8238547841501132E+00    1.3000782550966031E+01
Ga    9.7268980503776845E+00   -4.7123739656917053E-02    1.3626582002236651E+01
N    9.7213032949286529E+00   -9.0735229242387330E-03    1.5583768216029245E+01
Ga    9.7298649952339460E+00    1.8238285028152545E+00    1.5864258165736706E+01
N    8.0151453654930105E+00    4.5409157823980308E+00    2.5150259630781759E+00
Ga    8.2239604405096376E+00    2.6832773082427370E+00    3.2862790963387449E+00
N    8.1185402128418112E+00    2.7430332295905528E+00    5.2544280412286133E+00
Ga    8.1550509453304691E+00    4.6098219048859388E+00    5.8068767790453091E+00
N    8.1258785146147332E+00    4.6072613716463238E+00    7.8010046920661624E+00
Ga    8.1102993071678071E+00    2.7467217970265931E+00    8.4383437199022389E+00
N    8.1074597159603776E+00    2.7541312905393989E+00    1.0434550963888940E+01
Ga    8.1351349090833622E+00    4.6118519585179598E+00    1.1074878024288461E+01
N    8.1525716218363158E+00    4.6269175590247151E+00    1.3072634206955106E+01
Ga    8.1085923640551414E+00    2.7568987364308000E+00    1.3618465548218667E+01
N    8.1270641686111578E+00    2.7491584711866675E+00    1.5594707721739775E+01
Ga    8.0048859253867892E+00    4.5436075025601816E+00    1.6438707880535166E+01
N    6.5148729953329729E+00    7.3782169784754563E+00    2.6151518281185648E+00
Ga    6.5132965687501585E+00    5.5462659307559345E+00    3.3206733004411135E+00
N    6.5123143689842200E+00    5.5421320655863084E+00    5.2515551620075396E+00
Ga    6.5123599344844800E+00    7.3816617673388407E+00    5.9088507928081375E+00
N    6.5114071511074902E+00    7.3844693509394190E+00    7.8643238949903704E+00
Ga    6.5110082200457571E+00    5.5125035224894985E+00    8.4518752861051425E+00
N    6.5106929165984129E+00    5.5189829513645625E+00    1.0441229586613966E+01
Ga    6.5110703788468207E+00    7.3901544349934687E+00    1.1034419801617176E+01
N    6.5112643774649888E+00    7.3901657297517058E+00    1.3004925041981926E+01
Ga    6.5112614379752927E+00    5.5237007150474859E+00    1.3620261613758169E+01
N    6.5117924221928458E+00    5.5471249100956417E+00    1.5595960574159772E+01
Ga    6.5116163689862958E+00    7.3977978247251643E+00    1.5866306706456257E+01
N    4.8064781289259582E+00    1.0095715287764847E+01    2.5007589720417478E+00
Ga    4.9296955064846593E+00    8.2958235886418148E+00    3.3190363348191720E+00
N    4.9197971828463380E+00    8.3019294826750425E+00    5.2491718504297813E+00
Ga    4.9375451493262137E+00    1.0192323992389298E+01    5.8030470023290137E+00
N    4.9151048428848911E+00    1.0172995859426015E+01    7.7971204954788309E+00
Ga    4.8911819466957001E+00    8.3228421785283011E+00    8.4517571493371015E+00
N    4.8926140482292437E+00    8.3249535471189109E+00    1.0438880912763796E+01
Ga    4.9181064425915793E+00    1.0185832073497512E+01    1.1077509926602742E+01
N    4.9354066525017855E+00    1.0197057843709363E+01    1.3069009029076570E+01
Ga    4.8909967706186404E+00    8.3285078386866118E+00    1.3628089487520006E+01
N    4.9201627477955254E+00    8.3068236316060382E+00    1.5585280013970438E+01
Ga    4.7361005561486254E+00    1.0084483132776745E+01    1.6498204033700745E+01
O    1.3809911353464731E-02    3.9821968006445805E+00   -4.6449213563942282E-01
H   -4.4737462777966408E-01    6.8106810828566253E+00   -4.3277339631812689E-01
C    1.1728000402031304E+00    3.5900621687859950E+00   -1.2141886979209082E+00
H    2.1110179044253976E+00    3.9676250693302055E+00   -7.7175459461229268E-01
H    1.2514180522679912E+00    2.4940363724693646E+00   -1.3069835183892635E+00
H    1.0723246390480556E+00    4.0161063042470051E+00   -2.2240924014384547E+00
Ga    3.2539126885171772E+00    5.4942606279682664E+00    2.8481570908495750E+00
O   -4.4184779801477558E-01    7.7073977854399853E+00   -4.8735434713393720E-02
H   -1.7364572839065742E-01    7.5438944673052930E+00    9.0922552254773570E-01
C    6.5153001712473761E+00    7.3830481864359729E+00    1.1240378195814593E+00
H    6.5059162621421143E+00    8.4133278690971842E+00    7.3769652876594005E-01
H    7.4108386662939045E+00    6.8774521321987789E+00    7.3086310225302864E-01
H    5.6288516524647996E+00    6.8618268317970212E+00    7.3165648856120724E-01
     &END COORD
     &KIND C
       BASIS_SET DZVP-MOLOPT-SR-GTH-q4
       POTENTIAL GTH-PBE-q4
       &POTENTIAL
 2 2
  0.3384712400000000E+00 2 -0.8803673979999999E+01  0.1339210850000000E+01
 2
  0.3025757500000000E+00 1  0.9622486650000001E+01
  0.2915069400000000E+00 0
         # Potential name:  GTH-PBE-Q4  for symbol:  C
         # Potential read from the potential filename: GTH_POTENTIALS
       &END POTENTIAL
     &END KIND
     &KIND O
       BASIS_SET DZVP-MOLOPT-SR-GTH-q6
       POTENTIAL GTH-PBE-q6
       &POTENTIAL
 2 4
  0.2445543000000000E+00 2 -0.1666721480000000E+02  0.2487311320000000E+01
 2
  0.2209559200000000E+00 1  0.1833745811000000E+02
  0.2113324700000000E+00 0
         # Potential name:  GTH-PBE-Q6  for symbol:  O
         # Potential read from the potential filename: GTH_POTENTIALS
       &END POTENTIAL
     &END KIND
     &KIND H
       BASIS_SET DZVP-MOLOPT-SR-GTH-q1
       POTENTIAL GTH-PBE-q1
       &POTENTIAL
 1
  0.2000000000000000E+00 2 -0.4178900440000000E+01  0.7244633100000000E+00
 0
         # Potential name:  GTH-PBE-Q1  for symbol:  H
         # Potential read from the potential filename: GTH_POTENTIALS
       &END POTENTIAL
     &END KIND
     &KIND N
       BASIS_SET DZVP-MOLOPT-SR-GTH
       POTENTIAL GTH-PBE-q5
       &POTENTIAL
 2 3
  0.2837905100000000E+00 2 -0.1241522559000000E+02  0.1868095920000000E+01
 2
  0.2554050000000000E+00 1  0.1363026257000000E+02
  0.2454945300000000E+00 0
         # Potential name:  GTH-PBE-Q5  for symbol:  N
         # Potential read from the potential filename: GTH_POTENTIALS
       &END POTENTIAL
     &END KIND
     &KIND Ga
       BASIS_SET DZVP-MOLOPT-SR-GTH
       POTENTIAL GTH-PBE-q13
       &POTENTIAL
 2 1 10
  0.4900000000000000E+00 0
 3
  0.4167772300000000E+00 3  0.1047568975000000E+02 -0.4921768140000000E+01  0.8707055900000000E+00
  0.7770178090000000E+01 -0.2248152160000000E+01
  0.1784415450000000E+01
  0.5696265200000000E+00 2  0.1777985340000000E+01  0.1958597600000000E+00
 -0.2317443900000000E+00
  0.2381265000000000E+00 1 -0.1624868022000000E+02
         # Potential name:  GTH-PBE-Q13  for symbol:  GA
         # Potential read from the potential filename: GTH_POTENTIALS
       &END POTENTIAL
     &END KIND
     &TOPOLOGY
       NUMBER_OF_ATOMS  212
       MULTIPLE_UNIT_CELL  1 1 1
     &END TOPOLOGY
   &END SUBSYS
 &END FORCE_EVAL
