 # Version information for this restart file 
 # current date 2019-07-03 07:51:50.240
 # current working dir /lustre04/scratch/rzk/rzk/GaN-carbene/443-adatoms-both-2x2/07-CH3O-H2O-H3C/02-Use0401
 # Program compiled at                              Sun Apr  7 00:48:11 EDT 2019
 # Program compiled on                          beluga2.int.ets1.calculquebec.ca
 # Program compiled for                        Beluga-Linux-x86-64-intel-openmpi
 # Source code revision number                                         svn:18619
 &GLOBAL
   PRINT_LEVEL  MEDIUM
   PROJECT_NAME TEST
   RUN_TYPE  GEO_OPT
 &END GLOBAL
 &MOTION
   &GEO_OPT
     MAX_ITER  500
     STEP_START_VAL  23
   &END GEO_OPT
 &END MOTION
 &FORCE_EVAL
   METHOD  QS
   STRESS_TENSOR  ANALYTICAL
   &DFT
     BASIS_SET_FILE_NAME BASIS_MOLOPT
     POTENTIAL_FILE_NAME GTH_POTENTIALS
     UKS  T
     SURFACE_DIPOLE_CORRECTION  T
     SURF_DIP_DIR  Z
     &SCF
       MAX_SCF  80
       EPS_SCF     5.0000000000000004E-06
       &OT  T
         PRECONDITIONER  FULL_ALL
       &END OT
       &OUTER_SCF  T
         OPTIMIZER  NONE
         EPS_SCF     5.0000000000000004E-06
         MAX_SCF  4
       &END OUTER_SCF
       &PRINT
         &RESTART  OFF
           BACKUP_COPIES  1
           &EACH
             JUST_ENERGY  0
             QS_SCF  0
             MD  20
           &END EACH
         &END RESTART
       &END PRINT
     &END SCF
     &QS
       EPS_DEFAULT     1.0000000000000000E-14
       METHOD  GPW
     &END QS
     &MGRID
       NGRIDS  5
       CUTOFF     1.2000000000000000E+03
     &END MGRID
     &XC
       DENSITY_CUTOFF     1.0000000000000000E-10
       GRADIENT_CUTOFF     1.0000000000000000E-10
       TAU_CUTOFF     1.0000000000000000E-10
       &XC_FUNCTIONAL  NO_SHORTCUT
         &PBE  T
         &END PBE
       &END XC_FUNCTIONAL
       &VDW_POTENTIAL
         POTENTIAL_TYPE  PAIR_POTENTIAL
         &PAIR_POTENTIAL
           R_CUTOFF     1.0000000000000004E+01
           TYPE  DFTD3
           PARAMETER_FILE_NAME dftd3.dat
           REFERENCE_FUNCTIONAL PBE
           EPS_CN     9.9999999999999995E-07
           CALCULATE_C9_TERM  T
           REFERENCE_C9_TERM  T
           LONG_RANGE_CORRECTION  F
           VERBOSE_OUTPUT  F
         &END PAIR_POTENTIAL
       &END VDW_POTENTIAL
     &END XC
   &END DFT
   &SUBSYS
     &CELL
       A     1.2864472766435110E+01    0.0000000000000000E+00    0.0000000000000000E+00
       B    -6.4322363581020028E+00    1.1140960178524473E+01    0.0000000000000000E+00
       C     0.0000000000000000E+00    0.0000000000000000E+00    3.2000000000000000E+01
       MULTIPLE_UNIT_CELL  1 1 1
       &CELL_REF
         A     1.2982353780853531E+01    0.0000000000000000E+00    0.0000000000000000E+00
         B    -6.4911768904267628E+00    1.1243048175136114E+01    0.0000000000000000E+00
         C     0.0000000000000000E+00    0.0000000000000000E+00    3.2000000000000000E+01
         MULTIPLE_UNIT_CELL  1 1 1
       &END CELL_REF
     &END CELL
     &COORD
N    8.2121557559729205E-02    1.9575258365315196E+00    2.4826867558851453E+00
Ga    8.7265411067408372E-02    6.0483032541098552E-03    2.8133497664441096E+00
N    8.4173364869484193E-02   -4.7331077188877572E-02    5.0144489888503969E+00
Ga    8.3368874620034575E-02    1.7894401656123227E+00    5.7913535501817277E+00
N    8.1119893809417101E-02    1.8009531796079004E+00    7.7996863931827152E+00
Ga    8.0408155255450114E-02   -3.9469171651637207E-02    8.4497882182963089E+00
N    7.9274014223125203E-02   -4.0203825950880845E-02    1.0425215592343815E+01
Ga    7.9825466124438221E-02    1.8000259709267121E+00    1.1076543068496196E+01
N    7.9282343112762416E-02    1.7832732520222014E+00    1.3070534998453839E+01
Ga    7.9494426487480951E-02   -3.4740449761695512E-02    1.3889241250248876E+01
N    8.0071066400332375E-02   -3.2920113047234814E-02    1.6076132110658275E+01
Ga    7.9188507614061723E-02    2.0121350535019737E+00    1.6499264536671227E+01
Ga    4.8230527678405112E-02    3.7145226401529152E+00    1.3338618644761082E+00
N   -1.4045773909997870E+00    4.5302754574024418E+00    2.5263008675055065E+00
Ga   -1.5883916215168357E+00    2.6956081016043529E+00    3.2647784376056395E+00
N   -1.5283529058816248E+00    2.7360225914346801E+00    5.2526982937925286E+00
Ga   -1.5473410355899608E+00    4.6027692359938506E+00    5.8021789777298114E+00
N   -1.5395387290095530E+00    4.6039139164408507E+00    7.8057860551556928E+00
Ga   -1.5171483730236734E+00    2.7452043052736941E+00    8.4382770547848143E+00
N   -1.5172893324947945E+00    2.7504366903987743E+00    1.0435777480703408E+01
Ga   -1.5414068000497152E+00    4.6102857005741091E+00    1.1069807343138880E+01
N   -1.5586381550655033E+00    4.6239032075730133E+00    1.3062928529709042E+01
Ga   -1.5174122180100018E+00    2.7563659808661853E+00    1.3625445587701876E+01
N   -1.5506491643568852E+00    2.7450578193864854E+00    1.5582895456122658E+01
Ga   -1.3488284664910053E+00    4.5057733607275319E+00    1.6499331867430019E+01
N    7.8840837920493026E-02    3.6685899454742801E+00    1.7638903600440994E+01
N   -3.1354452012360543E+00    7.4948372208086456E+00    2.5352465651559357E+00
Ga   -3.0942498758666104E+00    5.4921715248245793E+00    2.8474524378305683E+00
N   -3.1356478513814325E+00    5.5260910609389331E+00    5.0322935833135851E+00
Ga   -3.1359881524122835E+00    7.3428306258227858E+00    5.8155123753771392E+00
N   -3.1416711281886287E+00    7.3753554379603576E+00    7.8068271701223821E+00
Ga   -3.1356399383221363E+00    5.5257141632456870E+00    8.4531136741277457E+00
N   -3.1379359924099028E+00    5.5314042771082486E+00    1.0425960456513867E+01
Ga   -3.1352698463024260E+00    7.3719329569396717E+00    1.1074219130289327E+01
N   -3.1361669063860984E+00    7.3561829325758836E+00    1.3065501333521977E+01
Ga   -3.1270882848450108E+00    5.5393387011895534E+00    1.3861848683374797E+01
N   -3.1277616151988528E+00    5.5418836918163592E+00    1.6072295081632536E+01
Ga   -3.1355977023881665E+00    7.6020270744412670E+00    1.6501831745540098E+01
Ga   -3.0313354711849794E+00    9.2028131885514100E+00    1.4563479986475591E+00
N   -4.6243393733854994E+00    1.0088538208400246E+01    2.4775379115039713E+00
Ga   -4.7643416097041360E+00    8.3019157598704911E+00    3.3197074604283237E+00
N   -4.7566126336273165E+00    8.3055465375820319E+00    5.2491177898524066E+00
Ga   -4.7721271502055389E+00    1.0194593741917435E+01    5.8038127766287779E+00
N   -4.7542573292193087E+00    1.0173790292625627E+01    7.7994323523546436E+00
Ga   -4.7336919912404065E+00    8.3241245661720775E+00    8.4550096950732314E+00
N   -4.7351848249729009E+00    8.3244176319724197E+00    1.0443134531716352E+01
Ga   -4.7609351117712650E+00    1.0185642625924229E+01    1.1081233570401334E+01
N   -4.7771827407910559E+00    1.0195494454980176E+01    1.3072904287368363E+01
Ga   -4.7325983172280832E+00    8.3265508503660790E+00    1.3628310042181582E+01
N   -4.7613228679933322E+00    8.3067917234334452E+00    1.5585248543260770E+01
Ga   -4.5808012298882925E+00    1.0084862832926921E+01    1.6501220058124130E+01
N   -3.1466130644226906E+00    9.2569685388421803E+00    1.7641357638097976E+01
N    3.2922703000244100E+00    1.8157389583197077E+00    2.6174930251970716E+00
Ga    3.2956946582080344E+00    6.6566778579421670E-02    3.2652599221140903E+00
N    3.2948427679744214E+00   -5.0000329202857990E-02    5.2390127616573610E+00
Ga    3.2897031000449517E+00    1.8140481449004708E+00    5.8596802643725576E+00
N    3.2973361429174712E+00    1.8132719382623097E+00    7.8445819982289393E+00
Ga    3.2947628995141289E+00   -4.9682798752066042E-02    8.4405943437907727E+00
N    3.2929845783806160E+00   -5.1217759727169146E-02    1.0435814679182734E+01
Ga    3.2953916273573824E+00    1.8178926786391185E+00    1.1030757223365498E+01
N    3.2971739286910227E+00    1.8214718488859276E+00    1.3002568292118927E+01
Ga    3.2962270318514100E+00   -4.8681068722364267E-02    1.3627563606099329E+01
N    3.3012574402202235E+00   -1.1403389762432652E-02    1.5584252648296710E+01
Ga    3.2943036245929496E+00    1.8225398318264516E+00    1.5865466717524844E+01
N    1.5717626480926588E+00    4.5322287663459004E+00    2.5174232686854841E+00
Ga    1.7534467166057521E+00    2.7032762865304791E+00    3.2500235145130856E+00
N    1.6917358508676108E+00    2.7365034737890568E+00    5.2447710798462461E+00
Ga    1.7119012767641979E+00    4.6016144244699504E+00    5.8006382346388738E+00
N    1.7003475979283926E+00    4.6029351187348695E+00    7.8050165682094859E+00
Ga    1.6786876532419703E+00    2.7453510008232991E+00    8.4384265860051730E+00
N    1.6771380089410466E+00    2.7502150677024004E+00    1.0435825426941776E+01
Ga    1.7002971371573712E+00    4.6100438207124990E+00    1.1069610033159798E+01
N    1.7163813208938594E+00    4.6236718561067516E+00    1.3062972505371532E+01
Ga    1.6760104411480474E+00    2.7562144254497927E+00    1.3626063360681000E+01
N    1.7094157289434628E+00    2.7453451713262731E+00    1.5583358767318931E+01
Ga    1.5068552634936538E+00    4.5052855009065063E+00    1.6499586685462546E+01
N    8.3685904445605724E-02    7.3703001149587299E+00    2.6637930052454530E+00
Ga    8.9635213770459646E-02    5.5872893793354113E+00    3.2958589925572874E+00
N    8.1911653256086403E-02    5.5292716748549458E+00    5.2700672089606870E+00
Ga    8.6371771751669019E-02    7.3747980337946952E+00    5.8839126919562874E+00
N    8.1654490241030900E-02    7.3868399984446427E+00    7.8576766190774530E+00
Ga    8.0858103378794663E-02    5.5145971342926874E+00    8.4380204572541881E+00
N    7.9523023397115492E-02    5.5190145632906864E+00    1.0433523652562727E+01
Ga    7.9404108205840471E-02    7.3885387517999437E+00    1.1027320665536303E+01
N    7.9065809465891687E-02    7.3919575441921790E+00    1.2998078447582392E+01
Ga    7.8970052172216948E-02    5.5233584902786301E+00    1.3623585843910611E+01
N    7.9593181419882877E-02    5.5570654231556142E+00    1.5580732076499521E+01
Ga    7.9682934524235000E-02    7.3941648160781375E+00    1.5866429555186533E+01
N   -1.6183425553363988E+00    1.0096716212976881E+01    2.5417283543979332E+00
Ga   -1.4298770369193732E+00    8.2484004323103690E+00    3.3286257115187614E+00
N   -1.5302548489100150E+00    8.3094724174542254E+00    5.2755396263927476E+00
Ga   -1.5046537060478786E+00    1.0189521232740057E+01    5.8067548293131894E+00
N   -1.5206024245224325E+00    1.0177775357091035E+01    7.8027440887941708E+00
Ga   -1.5369941866508396E+00    8.3209514646793306E+00    8.4397299178598519E+00
N   -1.5407018513732191E+00    8.3228156473034147E+00    1.0433380042339710E+01
Ga   -1.5159266329911589E+00    1.0181878552609611E+01    1.1069798418348055E+01
N   -1.4992346371923972E+00    1.0193147701040051E+01    1.3062761063683125E+01
Ga   -1.5387776891616149E+00    8.3262493365483135E+00    1.3625111459190776E+01
N   -1.5111956084934208E+00    8.3128902191572891E+00    1.5582212002606449E+01
Ga   -1.7084616046432006E+00    1.0074781311939166E+01    1.6501549724452293E+01
N    6.5157387485660276E+00    1.9290967599294775E+00    2.5307604472390790E+00
Ga    6.5234097728544560E+00   -4.6800061816073373E-02    2.8577570719032432E+00
N    6.5135460338210134E+00   -4.6323178214963498E-02    5.0289940869805339E+00
Ga    6.5135782042852659E+00    1.7855067448762840E+00    5.7993168855870145E+00
N    6.5125068902663701E+00    1.8041311018486557E+00    7.7998265097940340E+00
Ga    6.5127934638535789E+00   -4.0536765922877312E-02    8.4470347223716598E+00
N    6.5111205854157630E+00   -3.9579070865370908E-02    1.0421591403218638E+01
Ga    6.5111369659693272E+00    1.7994842767238073E+00    1.1070047148778672E+01
N    6.5112802198221411E+00    1.7824893293805713E+00    1.3068546527788598E+01
Ga    6.5107979040032529E+00   -4.6405259989226635E-02    1.3860682746776435E+01
N    6.5105032110257754E+00   -4.3405339645478658E-02    1.6072407223466122E+01
Ga    6.5105859105776771E+00    1.9535234666249133E+00    1.6433230111994426E+01
Ga    6.5179123844639699E+00    3.6274862573861326E+00    1.4253729027925341E+00
N    5.0162143964209287E+00    4.5445506532181978E+00    2.5144573649093953E+00
Ga    4.8068069705703627E+00    2.6841829273679294E+00    3.2797860328455406E+00
N    4.9074555974076519E+00    2.7442742642872751E+00    5.2493261555884914E+00
Ga    4.8718153888659668E+00    4.6106191940950518E+00    5.8073749856838566E+00
N    4.8986498861063508E+00    4.6064886484151577E+00    7.8037238682597279E+00
Ga    4.9123563857180566E+00    2.7456169948870786E+00    8.4373611330321943E+00
N    4.9141233849706891E+00    2.7520181608665206E+00    1.0435349797232195E+01
Ga    4.8854978325425211E+00    4.6097977528816836E+00    1.1074319012470909E+01
N    4.8697237212733535E+00    4.6242875491327151E+00    1.3071082659064576E+01
Ga    4.9137003338562755E+00    2.7542088170524797E+00    1.3616215116908073E+01
N    4.8961124137813465E+00    2.7471204563626541E+00    1.5588697685050713E+01
Ga    5.0156311662649582E+00    4.5426700464740994E+00    1.6433158792996341E+01
N    6.5113987527066239E+00    3.6797705596247190E+00    1.7555781816267096E+01
N    3.3063956076321142E+00    7.5013291062842349E+00    2.5130786824033740E+00
N    3.2998618783383837E+00    5.5268288314583360E+00    5.0349351911845925E+00
Ga    3.2945825464822764E+00    7.3453508410247199E+00    5.8103884906291077E+00
N    3.3005856017986286E+00    7.3763107340638836E+00    7.8037345002425518E+00
Ga    3.2958452567584251E+00    5.5268058194318606E+00    8.4500792923692956E+00
N    3.2958572978500809E+00    5.5315673138124488E+00    1.0424143336677279E+01
Ga    3.2938101995574303E+00    7.3715500767626043E+00    1.1074062538011891E+01
N    3.2941589978743075E+00    7.3560374569222207E+00    1.3066190160500337E+01
Ga    3.2848966211096853E+00    5.5389035387685812E+00    1.3862498495182331E+01
N    3.2860814575663908E+00    5.5407684896264948E+00    1.6073213402106084E+01
Ga    3.2937550323767373E+00    7.6003824479024367E+00    1.6503577148689399E+01
Ga    3.2630228859362882E+00    9.2549596847029498E+00    1.4334828798823496E+00
N    1.7951133320039332E+00    1.0101899289356359E+01    2.5314968649151921E+00
Ga    1.6083718520266379E+00    8.2563861450450720E+00    3.2952881782886596E+00
N    1.6933593299849130E+00    8.3104158610804770E+00    5.2592436690942392E+00
Ga    1.6671775177912500E+00    1.0184816934114890E+01    5.8028737266692749E+00
N    1.6800131035296038E+00    1.0176839682829328E+01    7.8003700553244490E+00
Ga    1.6983869239673925E+00    8.3216980748675997E+00    8.4407811563833253E+00
N    1.6993204197455318E+00    8.3232150604109023E+00    1.0434093390461117E+01
Ga    1.6740663539736607E+00    1.0182434957291594E+01    1.1069893687736517E+01
N    1.6569742968640919E+00    1.0193569502034183E+01    1.3063458226291127E+01
Ga    1.6967848729543016E+00    8.3263744296029927E+00    1.3625795311820324E+01
N    1.6710383511959335E+00    8.3131940141643650E+00    1.5583686269361664E+01
Ga    1.8648864207937150E+00    1.0075214004406639E+01    1.6503129851016208E+01
N    3.3050366566626539E+00    9.2571571984441832E+00    1.7639130841437694E+01
N    9.7377567872805653E+00    1.8149766848399864E+00    2.6293134783108711E+00
Ga    9.7335260508435280E+00    6.7516548292351070E-02    3.2794273627031969E+00
N    9.7323176456845246E+00   -4.8463358419246726E-02    5.2481714579737373E+00
Ga    9.7365192937630525E+00    1.8142412899506208E+00    5.8644576931553161E+00
N    9.7278427463485428E+00    1.8138216681235249E+00    7.8471371054220960E+00
Ga    9.7299281891568778E+00   -5.0483327295096282E-02    8.4374016059579766E+00
N    9.7297389485092758E+00   -5.1562660801784482E-02    1.0433882295598519E+01
Ga    9.7283658172185827E+00    1.8176151766012729E+00    1.1029773438743845E+01
N    9.7254105022476462E+00    1.8210496011978197E+00    1.3002643209640622E+01
Ga    9.7266960756032379E+00   -4.9443536187613511E-02    1.3628528850972112E+01
N    9.7217326218906930E+00   -1.2609804943181582E-02    1.5586474864764931E+01
Ga    9.7291174883488534E+00    1.8223648935827590E+00    1.5865828256164182E+01
N    8.0147439806605991E+00    4.5435115158616828E+00    2.5173998905981918E+00
Ga    8.2225647558754069E+00    2.6844432045538373E+00    3.2836571696364207E+00
N    8.1202854036518968E+00    2.7441270828919344E+00    5.2523508967205883E+00
Ga    8.1553517912992497E+00    4.6097240755220286E+00    5.8074259054342585E+00
N    8.1267334920501479E+00    4.6065259610260814E+00    7.8037691774914233E+00
Ga    8.1123284944027176E+00    2.7457088584975393E+00    8.4377599869578823E+00
N    8.1086051294083212E+00    2.7519026656100904E+00    1.0435629303677661E+01
Ga    8.1362612442906759E+00    4.6096832911061059E+00    1.1074790392924003E+01
N    8.1526318642670823E+00    4.6242584583025987E+00    1.3071194695529044E+01
Ga    8.1085460058956880E+00    2.7543032964364396E+00    1.3616394648642132E+01
N    8.1264000522328335E+00    2.7463843700293151E+00    1.5589427764125455E+01
Ga    8.0066162597361501E+00    4.5433163608744396E+00    1.6432657829703235E+01
N    6.5160236305520502E+00    7.3836450368691473E+00    2.6181611240519111E+00
Ga    6.5150711375010060E+00    5.5481659367142013E+00    3.3241026667344609E+00
N    6.5143500805939132E+00    5.5442522543450137E+00    5.2539113448901897E+00
Ga    6.5137168520679323E+00    7.3851010843142717E+00    5.9087551818958692E+00
N    6.5123678224871737E+00    7.3858286325279625E+00    7.8663515110969362E+00
Ga    6.5122794984530818E+00    5.5134573528670519E+00    8.4534155763957060E+00
N    6.5111448088740227E+00    5.5176224020324121E+00    1.0443748575077473E+01
Ga    6.5112090111777974E+00    7.3881719622015574E+00    1.1037089722271478E+01
N    6.5107394807532231E+00    7.3889862101464931E+00    1.3006881665366473E+01
Ga    6.5111238669940255E+00    5.5212256388876177E+00    1.3617808507664698E+01
N    6.5106218224506938E+00    5.5456367038351457E+00    1.5590274568589269E+01
Ga    6.5115746266842871E+00    7.3958734340140717E+00    1.5866645327952089E+01
N    4.8066962416005969E+00    1.0097404919113446E+01    2.5014411059940094E+00
Ga    4.9272208484676883E+00    8.2975553121405667E+00    3.3219930498418773E+00
N    4.9203004123805885E+00    8.3038412002000204E+00    5.2501623962648525E+00
Ga    4.9364742433924755E+00    1.0193998189827157E+01    5.8005360823592182E+00
N    4.9160034440865452E+00    1.0174107148530140E+01    7.7971273989759187E+00
Ga    4.8924203759213940E+00    8.3241050200098954E+00    8.4520509966348385E+00
N    4.8934391714364001E+00    8.3236915173644679E+00    1.0441237164676819E+01
Ga    4.9189510221564827E+00    1.0184892454811752E+01    1.1080015973084780E+01
N    4.9356499959826454E+00    1.0195498688612636E+01    1.3072743911379634E+01
Ga    4.8903002519543266E+00    8.3268784758679875E+00    1.3629770252597430E+01
N    4.9186627454116225E+00    8.3069456438053280E+00    1.5587767160723686E+01
Ga    4.7408599752359546E+00    1.0085675704343537E+01    1.6502887777022746E+01
O    1.9564214382950397E-02    3.9932154187927567E+00   -4.6555027234115631E-01
H   -5.1924000176591323E-01    6.8658812255941166E+00   -4.6111891261642779E-01
C    1.1784637860818437E+00    3.5943730512640641E+00   -1.2127627660645963E+00
H    2.1127326078158593E+00    3.9720738050881179E+00   -7.6742563330546709E-01
H    1.2548891673903835E+00    2.4985508837767885E+00   -1.2936793695447115E+00
H    1.0814020581489134E+00    4.0100697624201294E+00   -2.2250630336291151E+00
Ga    3.2578251054982941E+00    5.4987530348322924E+00    2.8488006655122615E+00
O   -5.1542185655120210E-01    7.7411692551986757E+00   -4.3977249661621136E-02
H   -2.1863069920290373E-01    7.5589563164142595E+00    8.8949359618833512E-01
C    6.5194542724696394E+00    7.3855508848082927E+00    1.1266381391571563E+00
H    6.5120408210163045E+00    8.4097667077464617E+00    7.3089295375661212E-01
H    7.4088605916648280E+00    6.8745721455262201E+00    7.3316567286147938E-01
H    5.6333016034313479E+00    6.8677780395439552E+00    7.3390949315114251E-01
     &END COORD
     &KIND C
       BASIS_SET DZVP-MOLOPT-SR-GTH-q4
       POTENTIAL GTH-PBE-q4
       &POTENTIAL
 2 2
  0.3384712400000000E+00 2 -0.8803673979999999E+01  0.1339210850000000E+01
 2
  0.3025757500000000E+00 1  0.9622486650000001E+01
  0.2915069400000000E+00 0
         # Potential name:  GTH-PBE-Q4  for symbol:  C
         # Potential read from the potential filename: GTH_POTENTIALS
       &END POTENTIAL
     &END KIND
     &KIND O
       BASIS_SET DZVP-MOLOPT-SR-GTH-q6
       POTENTIAL GTH-PBE-q6
       &POTENTIAL
 2 4
  0.2445543000000000E+00 2 -0.1666721480000000E+02  0.2487311320000000E+01
 2
  0.2209559200000000E+00 1  0.1833745811000000E+02
  0.2113324700000000E+00 0
         # Potential name:  GTH-PBE-Q6  for symbol:  O
         # Potential read from the potential filename: GTH_POTENTIALS
       &END POTENTIAL
     &END KIND
     &KIND H
       BASIS_SET DZVP-MOLOPT-SR-GTH-q1
       POTENTIAL GTH-PBE-q1
       &POTENTIAL
 1
  0.2000000000000000E+00 2 -0.4178900440000000E+01  0.7244633100000000E+00
 0
         # Potential name:  GTH-PBE-Q1  for symbol:  H
         # Potential read from the potential filename: GTH_POTENTIALS
       &END POTENTIAL
     &END KIND
     &KIND N
       BASIS_SET DZVP-MOLOPT-SR-GTH
       POTENTIAL GTH-PBE-q5
       &POTENTIAL
 2 3
  0.2837905100000000E+00 2 -0.1241522559000000E+02  0.1868095920000000E+01
 2
  0.2554050000000000E+00 1  0.1363026257000000E+02
  0.2454945300000000E+00 0
         # Potential name:  GTH-PBE-Q5  for symbol:  N
         # Potential read from the potential filename: GTH_POTENTIALS
       &END POTENTIAL
     &END KIND
     &KIND Ga
       BASIS_SET DZVP-MOLOPT-SR-GTH
       POTENTIAL GTH-PBE-q13
       &POTENTIAL
 2 1 10
  0.4900000000000000E+00 0
 3
  0.4167772300000000E+00 3  0.1047568975000000E+02 -0.4921768140000000E+01  0.8707055900000000E+00
  0.7770178090000000E+01 -0.2248152160000000E+01
  0.1784415450000000E+01
  0.5696265200000000E+00 2  0.1777985340000000E+01  0.1958597600000000E+00
 -0.2317443900000000E+00
  0.2381265000000000E+00 1 -0.1624868022000000E+02
         # Potential name:  GTH-PBE-Q13  for symbol:  GA
         # Potential read from the potential filename: GTH_POTENTIALS
       &END POTENTIAL
     &END KIND
     &TOPOLOGY
       NUMBER_OF_ATOMS  212
       MULTIPLE_UNIT_CELL  1 1 1
     &END TOPOLOGY
   &END SUBSYS
 &END FORCE_EVAL
