 # Version information for this restart file 
 # current date 2019-07-03 10:20:55.020
 # current working dir /lustre04/scratch/rzk/rzk/GaN-carbene/443-adatoms-both-2x2/07-CH3O-H2O-H3C/02-Use0401
 # Program compiled at                              Sun Apr  7 00:48:11 EDT 2019
 # Program compiled on                          beluga2.int.ets1.calculquebec.ca
 # Program compiled for                        Beluga-Linux-x86-64-intel-openmpi
 # Source code revision number                                         svn:18619
 &GLOBAL
   PRINT_LEVEL  MEDIUM
   PROJECT_NAME TEST
   RUN_TYPE  GEO_OPT
 &END GLOBAL
 &MOTION
   &GEO_OPT
     MAX_ITER  500
     STEP_START_VAL  49
   &END GEO_OPT
 &END MOTION
 &FORCE_EVAL
   METHOD  QS
   STRESS_TENSOR  ANALYTICAL
   &DFT
     BASIS_SET_FILE_NAME BASIS_MOLOPT
     POTENTIAL_FILE_NAME GTH_POTENTIALS
     UKS  T
     SURFACE_DIPOLE_CORRECTION  T
     SURF_DIP_DIR  Z
     &SCF
       MAX_SCF  80
       EPS_SCF     5.0000000000000004E-06
       &OT  T
         PRECONDITIONER  FULL_ALL
       &END OT
       &OUTER_SCF  T
         OPTIMIZER  NONE
         EPS_SCF     5.0000000000000004E-06
         MAX_SCF  4
       &END OUTER_SCF
       &PRINT
         &RESTART  OFF
           BACKUP_COPIES  1
           &EACH
             JUST_ENERGY  0
             QS_SCF  0
             MD  20
           &END EACH
         &END RESTART
       &END PRINT
     &END SCF
     &QS
       EPS_DEFAULT     1.0000000000000000E-14
       METHOD  GPW
     &END QS
     &MGRID
       NGRIDS  5
       CUTOFF     1.2000000000000000E+03
     &END MGRID
     &XC
       DENSITY_CUTOFF     1.0000000000000000E-10
       GRADIENT_CUTOFF     1.0000000000000000E-10
       TAU_CUTOFF     1.0000000000000000E-10
       &XC_FUNCTIONAL  NO_SHORTCUT
         &PBE  T
         &END PBE
       &END XC_FUNCTIONAL
       &VDW_POTENTIAL
         POTENTIAL_TYPE  PAIR_POTENTIAL
         &PAIR_POTENTIAL
           R_CUTOFF     1.0000000000000004E+01
           TYPE  DFTD3
           PARAMETER_FILE_NAME dftd3.dat
           REFERENCE_FUNCTIONAL PBE
           EPS_CN     9.9999999999999995E-07
           CALCULATE_C9_TERM  T
           REFERENCE_C9_TERM  T
           LONG_RANGE_CORRECTION  F
           VERBOSE_OUTPUT  F
         &END PAIR_POTENTIAL
       &END VDW_POTENTIAL
     &END XC
   &END DFT
   &SUBSYS
     &CELL
       A     1.2864472766435110E+01    0.0000000000000000E+00    0.0000000000000000E+00
       B    -6.4322363581020028E+00    1.1140960178524473E+01    0.0000000000000000E+00
       C     0.0000000000000000E+00    0.0000000000000000E+00    3.2000000000000000E+01
       MULTIPLE_UNIT_CELL  1 1 1
       &CELL_REF
         A     1.2982353780853531E+01    0.0000000000000000E+00    0.0000000000000000E+00
         B    -6.4911768904267628E+00    1.1243048175136114E+01    0.0000000000000000E+00
         C     0.0000000000000000E+00    0.0000000000000000E+00    3.2000000000000000E+01
         MULTIPLE_UNIT_CELL  1 1 1
       &END CELL_REF
     &END CELL
     &COORD
N    8.5290426422586579E-02    1.9722130830358799E+00    2.4582753632321923E+00
Ga    1.1495310804058781E-01   -1.4139434592140178E-02    2.7552614979414374E+00
N    9.2082609735392812E-02   -4.5582992044756472E-02    5.0123473389546360E+00
Ga    8.9578523317735012E-02    1.7789649124321969E+00    5.7753952571365712E+00
N    8.3756390722759519E-02    1.7927551686877936E+00    7.7883949788324918E+00
Ga    8.3970718746685713E-02   -4.9726477086595514E-02    8.4357972864918978E+00
N    8.6318127131065514E-02   -4.7909836362514474E-02    1.0420281755779497E+01
Ga    8.8301637750604858E-02    1.7956606455764779E+00    1.1063304578775520E+01
N    9.1063763822292032E-02    1.7836235410434178E+00    1.3063138075184971E+01
Ga    1.0567946269245826E-01   -2.7197228947333018E-02    1.3855430883841208E+01
N    1.1112325097515090E-01   -1.8433520137489483E-02    1.6086574071551180E+01
Ga    9.5122430642520031E-02    2.0425179206649440E+00    1.6522293115673065E+01
Ga    4.2850532334449500E-02    3.6826661821579560E+00    1.3063903377264987E+00
N   -1.4014552822849171E+00    4.5494490516844692E+00    2.5205605645802298E+00
Ga   -1.5748426713693160E+00    2.7022686463199852E+00    3.2619212830960884E+00
N   -1.5192791261090675E+00    2.7443217316177404E+00    5.2452090897354395E+00
Ga   -1.5369918166492915E+00    4.6085093805974449E+00    5.8047977734718161E+00
N   -1.5286719975954504E+00    4.5998023534380810E+00    7.8036649322261660E+00
Ga   -1.5118168381130659E+00    2.7354622141298148E+00    8.4273336668568408E+00
N   -1.5119841478612961E+00    2.7424096252612822E+00    1.0428641558644967E+01
Ga   -1.5367072809915392E+00    4.5963858420815749E+00    1.1080030816946014E+01
N   -1.5512767481458412E+00    4.6181677349280630E+00    1.3075614134245663E+01
Ga   -1.5048065699319246E+00    2.7505670438648164E+00    1.3636453976885131E+01
N   -1.5311585336167919E+00    2.7345706826326710E+00    1.5598521701207140E+01
Ga   -1.3479442462397979E+00    4.5176328017972986E+00    1.6517095540723314E+01
N    8.4396240527857616E-02    3.6958523800323806E+00    1.7663515329073423E+01
N   -3.1124255697959349E+00    7.4976925983642415E+00    2.6110257413713298E+00
Ga   -3.0831564420569970E+00    5.5236697006411415E+00    2.9082146437545413E+00
N   -3.1350128988080215E+00    5.5176567991667103E+00    5.0521903906395487E+00
Ga   -3.1431842208930858E+00    7.3440626521842249E+00    5.8321149130868806E+00
N   -3.1341483599605175E+00    7.3638638060078074E+00    7.8196200663666593E+00
Ga   -3.1306279655403015E+00    5.5124229725544955E+00    8.4592844997423331E+00
N   -3.1299409306190906E+00    5.5188532989607477E+00    1.0431824315472262E+01
Ga   -3.1303300451246585E+00    7.3589298346922947E+00    1.1085508034295168E+01
N   -3.1278638621423580E+00    7.3495984889125898E+00    1.3079609338100697E+01
Ga   -3.1273739414862627E+00    5.5298152425208364E+00    1.3894818090574887E+01
N   -3.1279930108584870E+00    5.5389565264770884E+00    1.6084855574045861E+01
Ga   -3.1225132605463721E+00    7.5915587978111025E+00    1.6516773483396836E+01
Ga   -2.7665906169435499E+00    9.0313812834956764E+00    1.3382992736032431E+00
N   -4.6319769599768756E+00    1.0087286187965089E+01    2.4351705472668836E+00
Ga   -4.7428978592244420E+00    8.3491137392707255E+00    3.2971218080178502E+00
N   -4.7543074320013261E+00    8.3027522256327373E+00    5.2489412535103677E+00
Ga   -4.7668675464980401E+00    1.0192827119414519E+01    5.7980101484403423E+00
N   -4.7486073714455523E+00    1.0162297433832668E+01    7.8040454826765746E+00
Ga   -4.7336627024869040E+00    8.3134414071456622E+00    8.4553436679506451E+00
N   -4.7275613924936151E+00    8.3123605108653233E+00    1.0445783511928598E+01
Ga   -4.7514690214391129E+00    1.0177242488822129E+01    1.1073458851034843E+01
N   -4.7631449787144593E+00    1.0192913453839067E+01    1.3068100789917803E+01
Ga   -4.7213611096343273E+00    8.3274706431480237E+00    1.3637684609640834E+01
N   -4.7571199046487784E+00    8.3238253617711297E+00    1.5598833378595897E+01
Ga   -4.5456008590080490E+00    1.0080321150906750E+01    1.6518574551630305E+01
N   -3.1189647647130050E+00    9.2451374873076713E+00    1.7660598525998491E+01
N    3.2843963354755541E+00    1.8001465555281309E+00    2.6044503249053248E+00
Ga    3.2682210477978435E+00    1.8108428433726936E-02    3.1988716893188252E+00
N    3.2922015317114601E+00   -5.4303690777879221E-02    5.2232533937021284E+00
Ga    3.2829469085015308E+00    1.7982515417076133E+00    5.8303435186208041E+00
N    3.2960653197464871E+00    1.8049855091337836E+00    7.8262842992876624E+00
Ga    3.2934674537963455E+00   -5.3606753535106591E-02    8.4400863970206998E+00
N    3.3010795407687072E+00   -5.6720859404662226E-02    1.0435280666488627E+01
Ga    3.3002006527120407E+00    1.8132129825122048E+00    1.1028590159144873E+01
N    3.3042218810984418E+00    1.8193803228862828E+00    1.3000298592797387E+01
Ga    3.3051242693413041E+00   -4.5560953091837941E-02    1.3635814206291974E+01
N    3.3068692654480767E+00   -9.3649839906762150E-03    1.5594792139433315E+01
Ga    3.3079579420221443E+00    1.8276755268916187E+00    1.5870854831560219E+01
N    1.5801665283111668E+00    4.5503405472613974E+00    2.4924580160805094E+00
Ga    1.7554511880865433E+00    2.7054055167827826E+00    3.2269078495142143E+00
N    1.6902697180379695E+00    2.7459656502237180E+00    5.2210251250306650E+00
Ga    1.7137988869188885E+00    4.6090368976118388E+00    5.7765291798927034E+00
N    1.6951691894774923E+00    4.5998268323697982E+00    7.7860861461477500E+00
Ga    1.6816703738889305E+00    2.7385738454756443E+00    8.4173114764863168E+00
N    1.6834606942349626E+00    2.7431443755228173E+00    1.0420937664589621E+01
Ga    1.7112126449296481E+00    4.5948201586360868E+00    1.1068268838298705E+01
N    1.7297327235239730E+00    4.6146294719501810E+00    1.3062783604857760E+01
Ga    1.6874610347496755E+00    2.7497305143988999E+00    1.3636764098966715E+01
N    1.7156362004523402E+00    2.7438811883539325E+00    1.5596600511238707E+01
Ga    1.5177075377398772E+00    4.5058488677635546E+00    1.6514830476771696E+01
N    9.3902600336224620E-02    7.4121415170865346E+00    2.6239303298576511E+00
Ga    9.9161903398220216E-02    5.5570770836842289E+00    3.2735309263398773E+00
N    8.4759767898973090E-02    5.5636491985100953E+00    5.2319283036455522E+00
Ga    1.0441514393225855E-01    7.3825395771910793E+00    5.9233476486425269E+00
N    9.1144629717261227E-02    7.3795681594498577E+00    7.8828454129896359E+00
Ga    8.7927078784524423E-02    5.5035033106322873E+00    8.4545126982623184E+00
N    8.6675745033196583E-02    5.5079434091271038E+00    1.0445387588797226E+01
Ga    9.0441823748241376E-02    7.3785422069441742E+00    1.1037317880860504E+01
N    9.4534199962358789E-02    7.3891245641231462E+00    1.3012658918874774E+01
Ga    9.2045928617458236E-02    5.5115128934515436E+00    1.3632143625004415E+01
N    1.0002584332876560E-01    5.5621349286381268E+00    1.5589817771742521E+01
Ga    9.0617797211116680E-02    7.3960714310921132E+00    1.5856260278948216E+01
N   -1.6119296746118108E+00    1.0086374362843628E+01    2.5845758638057874E+00
Ga   -1.4650050394646486E+00    8.3013383719273861E+00    3.4185680328206574E+00
N   -1.5059066557969505E+00    8.3004635648538301E+00    5.3258807804730628E+00
Ga   -1.5128812784172876E+00    1.0204400446519035E+01    5.8184817299456331E+00
N   -1.5182021182901879E+00    1.0169151829699308E+01    7.8142511682321336E+00
Ga   -1.5334678650444211E+00    8.3132926353369481E+00    8.4604921068601211E+00
N   -1.5317668743458974E+00    8.3128511344602511E+00    1.0450724471198974E+01
Ga   -1.5097678863022297E+00    1.0178650974840707E+01    1.1074272580753776E+01
N   -1.4910038511618522E+00    1.0194467741524090E+01    1.3066896506813110E+01
Ga   -1.5327257982687741E+00    8.3277503163679363E+00    1.3632405578565905E+01
N   -1.4924897599854099E+00    8.3215742491162814E+00    1.5591535643010047E+01
Ga   -1.7001213956897188E+00    1.0079441265774852E+01    1.6511652369180045E+01
N    6.5165462445291205E+00    1.9301667189335348E+00    2.5177922795336745E+00
Ga    6.5195583976509983E+00   -6.8316982474174420E-02    2.8606563924563111E+00
N    6.5160153530683003E+00   -4.4565254420241597E-02    5.0381206414511359E+00
Ga    6.5135373016763580E+00    1.7778398390827495E+00    5.8019280788359984E+00
N    6.5135497435040959E+00    1.7947834215037173E+00    7.8003131180172964E+00
Ga    6.5185616564067486E+00   -5.0487434486295252E-02    8.4503799251824923E+00
N    6.5209302989269444E+00   -4.6745500216804077E-02    1.0426223569090528E+01
Ga    6.5151015064636137E+00    1.7982037001845055E+00    1.1069048013645741E+01
N    6.5186075148516158E+00    1.7858738780902215E+00    1.3062052376165978E+01
Ga    6.5052237045860304E+00   -2.4627644915652516E-02    1.3858640842476643E+01
N    6.5077112774336321E+00   -1.6429022980885097E-02    1.6067369157863968E+01
Ga    6.5260753717647964E+00    2.0513579960369976E+00    1.6507405085828299E+01
Ga    6.5179313894504878E+00    3.6402129322346082E+00    1.5134384787279818E+00
N    5.0169741701840946E+00    4.5449360368383891E+00    2.5064594298945306E+00
Ga    4.7880525217919416E+00    2.6669024459364938E+00    3.2749639281789906E+00
N    4.9081805526649465E+00    2.7382614478582417E+00    5.2367302823522719E+00
Ga    4.8670768933714923E+00    4.6044010968978659E+00    5.8006457312743054E+00
N    4.8968613528618157E+00    4.5954642323643098E+00    7.7952684697428172E+00
Ga    4.9068896337235017E+00    2.7340278353299081E+00    8.4261984938517660E+00
N    4.9180798576111551E+00    2.7429073345238830E+00    1.0425095982439894E+01
Ga    4.8945668688699024E+00    4.5985685977953050E+00    1.1066480290948100E+01
N    4.8834113235900620E+00    4.6186209596688155E+00    1.3059766546198766E+01
Ga    4.9226931148958943E+00    2.7538375656696346E+00    1.3633054784682741E+01
N    4.8974361208225643E+00    2.7460439849948637E+00    1.5589069633830521E+01
Ga    5.1098601240722470E+00    4.5040518574102766E+00    1.6510202232120566E+01
N    6.5396601479712748E+00    3.6935679883759938E+00    1.7655683938856733E+01
N    3.3131844567881741E+00    7.5035787516540458E+00    2.4812966805296286E+00
N    3.3027405084885215E+00    5.5274437551686528E+00    5.0199775706005765E+00
Ga    3.3026469222588597E+00    7.3503213512695300E+00    5.7873852233754626E+00
N    3.3002160466934414E+00    7.3696786708237507E+00    7.7884101142743276E+00
Ga    3.2933711778622876E+00    5.5185522745139375E+00    8.4334298191437096E+00
N    3.3015429032293770E+00    5.5212210911882984E+00    1.0414780864041926E+01
Ga    3.3069249702002361E+00    7.3564766913009718E+00    1.1070572589940509E+01
N    3.3091333126475133E+00    7.3445980870304046E+00    1.3073072184653062E+01
Ga    3.3079008432989343E+00    5.5092250118854045E+00    1.3860702206938724E+01
N    3.3114983907937048E+00    5.5200679321818171E+00    1.6069703839715835E+01
Ga    3.3121084417701212E+00    7.5024982136651124E+00    1.6405028870491773E+01
Ga    3.2968338953904848E+00    9.3283788278956248E+00    1.2443618868683732E+00
N    1.8023853926659594E+00    1.0130210079021195E+01    2.5089261526227200E+00
Ga    1.7039213907663364E+00    8.3228046721603874E+00    3.2654190466564361E+00
N    1.6832071677296356E+00    8.3071996877816723E+00    5.2212440133919058E+00
Ga    1.6728427408430377E+00    1.0188893918047352E+01    5.7944256278215267E+00
N    1.6853746920403927E+00    1.0165438924241545E+01    7.7969946471506182E+00
Ga    1.7114757170276220E+00    8.3156107425628090E+00    8.4533300109023042E+00
N    1.7111993201532985E+00    8.3152646710823230E+00    1.0446395107006930E+01
Ga    1.6842431424284494E+00    1.0179242804124378E+01    1.1069959242520657E+01
N    1.6645009095174881E+00    1.0196611880322015E+01    1.3072535735916388E+01
Ga    1.7135457052442360E+00    8.3253802022104963E+00    1.3610103756191521E+01
N    1.7041172152661479E+00    8.3283454083917317E+00    1.5596624200254521E+01
Ga    1.7916089162088062E+00    1.0135225112858738E+01    1.6402867782369455E+01
N    3.3104488019806078E+00    9.2583485891764212E+00    1.7547276608922424E+01
N    9.7540593391812660E+00    1.8259439107947113E+00    2.6172980948569053E+00
Ga    9.7578387586452031E+00    6.0147607910459609E-02    3.2465548938577529E+00
N    9.7394190740465358E+00   -4.8906487318308850E-02    5.2299653703150826E+00
Ga    9.7439377028510563E+00    1.8078101997667371E+00    5.8532862681126749E+00
N    9.7305407109116935E+00    1.8065403122249710E+00    7.8386497101356927E+00
Ga    9.7376000011333197E+00   -6.0343665716560087E-02    8.4254358090040959E+00
N    9.7373738316188412E+00   -5.9632339664153725E-02    1.0429311486087757E+01
Ga    9.7364585791614129E+00    1.8093788494514285E+00    1.1026379297909834E+01
N    9.7395005865300455E+00    1.8144918582510094E+00    1.3003260064023269E+01
Ga    9.7396355379007247E+00   -4.8017863343191046E-02    1.3612414526568271E+01
N    9.7447696204790244E+00   -2.9687704325453538E-02    1.5597488218383450E+01
Ga    9.7402586479843034E+00    1.8302220517910064E+00    1.5868178832828240E+01
N    8.0141224595240477E+00    4.5493672480420777E+00    2.5276605756939690E+00
Ga    8.2400615602511422E+00    2.6790117969158094E+00    3.2835000063883260E+00
N    8.1204660357768859E+00    2.7374649621148861E+00    5.2477849025584842E+00
Ga    8.1515402351093940E+00    4.5996820331561095E+00    5.8168759315214880E+00
N    8.1285475064337014E+00    4.5941951887843580E+00    7.8083086588237069E+00
Ga    8.1143523715064951E+00    2.7337958044284072E+00    8.4395372993833213E+00
N    8.1157131360244286E+00    2.7429779343953253E+00    1.0436179087731229E+01
Ga    8.1401599883891667E+00    4.6010453893551517E+00    1.1080609599598320E+01
N    8.1607409708944409E+00    4.6224179787348989E+00    1.3073883795775187E+01
Ga    8.1169025654344900E+00    2.7532417135764420E+00    1.3629774398093264E+01
N    8.1520026873888973E+00    2.7348158747655873E+00    1.5583263641054666E+01
Ga    7.9648074728720211E+00    4.5170870452444838E+00    1.6508703822400921E+01
N    6.5263984039610738E+00    7.3915039888763854E+00    2.6145475372222369E+00
Ga    6.5118108961403962E+00    5.5784688262672146E+00    3.3314106089360109E+00
N    6.5133274578058327E+00    5.5372940167565696E+00    5.2563856456144062E+00
Ga    6.5141653713945171E+00    7.3912998483351249E+00    5.8963281505916383E+00
N    6.5134450003066977E+00    7.3736411266506350E+00    7.8592244286053052E+00
Ga    6.5104826071767903E+00    5.5045481694232388E+00    8.4497744657470673E+00
N    6.5176259231450659E+00    5.5107638077550778E+00    1.0440219528217979E+01
Ga    6.5177158288887398E+00    7.3802810398377483E+00    1.1036200499551857E+01
N    6.5190033234553084E+00    7.3928241731472983E+00    1.3009704832760962E+01
Ga    6.5195950070015618E+00    5.5176264634681402E+00    1.3632392288630211E+01
N    6.5146830043118564E+00    5.5697067895312040E+00    1.5584847557275932E+01
Ga    6.5256897658786563E+00    7.3988108767081577E+00    1.5864898483791304E+01
N    4.8224345126728281E+00    1.0119783740773190E+01    2.4699111688199076E+00
Ga    4.9210399250009296E+00    8.3234471584016472E+00    3.2661982062914614E+00
N    4.9226371021781041E+00    8.3034349633883746E+00    5.2195428074663655E+00
Ga    4.9484776633290775E+00    1.0191224659922359E+01    5.7788094388808426E+00
N    4.9191746119689315E+00    1.0162685551018717E+01    7.7870017563541518E+00
Ga    4.8957428550831716E+00    8.3129812877042841E+00    8.4397173235778187E+00
N    4.8997479094577256E+00    8.3138774999991636E+00    1.0436331053595572E+01
Ga    4.9273607856262132E+00    1.0176957071335076E+01    1.1064994870112516E+01
N    4.9485607289131277E+00    1.0194590619160868E+01    1.3071113924261152E+01
Ga    4.9029502401936824E+00    8.3261533048062173E+00    1.3613095087582355E+01
N    4.9171123747958800E+00    8.3322363498545968E+00    1.5598677977208780E+01
Ga    4.8318961084433898E+00    1.0135991262661831E+01    1.6415636708442769E+01
O    4.5016703134719567E-02    3.9731748324023934E+00   -4.8864696086654358E-01
H   -1.9433513405442724E+00    7.4734351670988293E+00   -2.5148695425887369E-01
C    1.2514971512430157E+00    3.5969482906857415E+00   -1.1787753276382338E+00
H    2.1515571720500901E+00    4.0591746555554202E+00   -7.3114423432740527E-01
H    1.3922871590304589E+00    2.4996506457320220E+00   -1.1876257487868422E+00
H    1.1618887678060221E+00    3.9473768473831430E+00   -2.2217175168868732E+00
Ga    3.2544713929940241E+00    5.5341105329637426E+00    2.8297491244703163E+00
O   -1.6024560759532145E+00    8.3063785112821460E+00    1.3809198579555143E-01
H   -4.4350832131724936E-02    7.5134384985047733E+00    1.6165259984401299E+00
C    6.5479132725124485E+00    7.3761839463852867E+00    1.1219620165770803E+00
H    6.5596492057064051E+00    8.4018142768666753E+00    7.2484388761528895E-01
H    7.4434408055752259E+00    6.8532018382025202E+00    7.4636871946274819E-01
H    5.6577250584207546E+00    6.8641811458110018E+00    7.1634349130156771E-01
     &END COORD
     &KIND C
       BASIS_SET DZVP-MOLOPT-SR-GTH-q4
       POTENTIAL GTH-PBE-q4
       &POTENTIAL
 2 2
  0.3384712400000000E+00 2 -0.8803673979999999E+01  0.1339210850000000E+01
 2
  0.3025757500000000E+00 1  0.9622486650000001E+01
  0.2915069400000000E+00 0
         # Potential name:  GTH-PBE-Q4  for symbol:  C
         # Potential read from the potential filename: GTH_POTENTIALS
       &END POTENTIAL
     &END KIND
     &KIND O
       BASIS_SET DZVP-MOLOPT-SR-GTH-q6
       POTENTIAL GTH-PBE-q6
       &POTENTIAL
 2 4
  0.2445543000000000E+00 2 -0.1666721480000000E+02  0.2487311320000000E+01
 2
  0.2209559200000000E+00 1  0.1833745811000000E+02
  0.2113324700000000E+00 0
         # Potential name:  GTH-PBE-Q6  for symbol:  O
         # Potential read from the potential filename: GTH_POTENTIALS
       &END POTENTIAL
     &END KIND
     &KIND H
       BASIS_SET DZVP-MOLOPT-SR-GTH-q1
       POTENTIAL GTH-PBE-q1
       &POTENTIAL
 1
  0.2000000000000000E+00 2 -0.4178900440000000E+01  0.7244633100000000E+00
 0
         # Potential name:  GTH-PBE-Q1  for symbol:  H
         # Potential read from the potential filename: GTH_POTENTIALS
       &END POTENTIAL
     &END KIND
     &KIND N
       BASIS_SET DZVP-MOLOPT-SR-GTH
       POTENTIAL GTH-PBE-q5
       &POTENTIAL
 2 3
  0.2837905100000000E+00 2 -0.1241522559000000E+02  0.1868095920000000E+01
 2
  0.2554050000000000E+00 1  0.1363026257000000E+02
  0.2454945300000000E+00 0
         # Potential name:  GTH-PBE-Q5  for symbol:  N
         # Potential read from the potential filename: GTH_POTENTIALS
       &END POTENTIAL
     &END KIND
     &KIND Ga
       BASIS_SET DZVP-MOLOPT-SR-GTH
       POTENTIAL GTH-PBE-q13
       &POTENTIAL
 2 1 10
  0.4900000000000000E+00 0
 3
  0.4167772300000000E+00 3  0.1047568975000000E+02 -0.4921768140000000E+01  0.8707055900000000E+00
  0.7770178090000000E+01 -0.2248152160000000E+01
  0.1784415450000000E+01
  0.5696265200000000E+00 2  0.1777985340000000E+01  0.1958597600000000E+00
 -0.2317443900000000E+00
  0.2381265000000000E+00 1 -0.1624868022000000E+02
         # Potential name:  GTH-PBE-Q13  for symbol:  GA
         # Potential read from the potential filename: GTH_POTENTIALS
       &END POTENTIAL
     &END KIND
     &TOPOLOGY
       NUMBER_OF_ATOMS  212
       MULTIPLE_UNIT_CELL  1 1 1
     &END TOPOLOGY
   &END SUBSYS
 &END FORCE_EVAL
