#p

i =       90, E =     -8504.7368555111

0 1
 N                  0.00208651    2.04718576    2.50908191
 Ga                -0.02923949    0.09328747    2.86088248
 N                 -0.00164757    0.04979202    5.02539244
 Ga                -0.00409196    1.88434433    5.80708171
 N                 -0.00588777    1.89088095    7.80891572
 Ga                -0.00748022    0.04778516    8.44842876
 N                 -0.00535932    0.04587956   10.42394952
 Ga                -0.00581490    1.88554378   11.07295537
 N                 -0.00603657    1.86486810   13.07421491
 Ga                -0.00470156    0.03611033   13.86523339
 N                 -0.00510649    0.03294430   16.07424198
 Ga                -0.00521722    2.03233419   16.43492633
 Ga                 0.02802941    3.77094603    1.38878811
 N                 -1.47706419    4.62058252    2.50427764
 Ga                -1.67656740    2.78969710    3.27257419
 N                 -1.61461509    2.83199897    5.25528629
 Ga                -1.62587546    4.69910484    5.80368193
 N                 -1.62605628    4.69638837    7.80532145
 Ga                -1.60388629    2.83853867    8.44048921
 N                 -1.60226925    2.83965763   10.43875731
 Ga                -1.62923022    4.69896935   11.07306300
 N                 -1.64773222    4.70848761   13.07428241
 Ga                -1.60357571    2.83816387   13.61747465
 N                 -1.61891294    2.82881266   15.59685193
 Ga                -1.50334114    4.62555247   16.43501936
 N                 -0.00639237    3.76148204   17.55886944
 N                 -3.22987870    7.59674446    2.52754059
 Ga                -3.17189055    5.58708553    2.86023057
 N                 -3.22010268    5.61706395    5.01454465
 Ga                -3.21251593    7.43788405    5.80586218
 N                 -3.22236606    7.46458477    7.79671412
 Ga                -3.21993088    5.61707877    8.44956587
 N                 -3.22265064    5.61887050   10.42388899
 Ga                -3.22025221    7.45914938   11.07310615
 N                 -3.22187953    7.44001623   13.06576315
 Ga                -3.23101954    5.62367375   13.86633489
 N                 -3.23416030    5.62490818   16.07428728
 Ga                -3.22349866    7.68135640   16.50384145
 Ga                -3.18766097    9.34809191    1.52961644
 N                 -4.72589991   10.19132353    2.52215488
 Ga                -4.87550624    8.38306103    3.33944998
 N                 -4.84724662    8.39337962    5.25945499
 Ga                -4.85976752   10.28729819    5.81095088
 N                 -4.83739500   10.26356044    7.80127079
 Ga                -4.81845364    8.40907113    8.44546405
 N                 -4.81782839    8.40939390   10.43451965
 Ga                -4.84317077   10.26840350   11.07307590
 N                 -4.85959567   10.27640941   13.06580887
 Ga                -4.81831173    8.40925008   13.62947194
 N                 -4.84636779    8.39325117   15.58678353
 Ga                -4.65104809   10.15438968   16.50375343
 N                 -3.21280849    9.33615193   17.64694554
 N                  3.19249376    1.92001050    2.61212785
 Ga                 3.20786200    0.18422351    3.29883796
 N                  3.21038144    0.04945932    5.25653434
 Ga                 3.20888540    1.91603069    5.88440488
 N                  3.21504695    1.90483886    7.85981609
 Ga                 3.21402619    0.03803502    8.44366883
 N                  3.21177796    0.03411619   10.43712753
 Ga                 3.21128549    1.90232145   11.03655618
 N                  3.20883707    1.90413009   13.01014817
 Ga                 3.21108224    0.03235384   13.62950610
 N                  3.20392046    0.06907220   15.58857521
 Ga                 3.21246673    1.90295621   15.86576097
 N                  1.47645245    4.61465818    2.54457451
 Ga                 1.67572492    2.80636288    3.30600564
 N                  1.60553508    2.83138485    5.27453789
 Ga                 1.64402021    4.71324795    5.81934355
 N                  1.60320870    4.68946029    7.83403643
 Ga                 1.59180820    2.83804261    8.44946338
 N                  1.59252068    2.83536620   10.44712409
 Ga                 1.61886739    4.69956288   11.06889669
 N                  1.63620442    4.70874408   13.07302720
 Ga                 1.59134841    2.83933680   13.61733222
 N                  1.60762616    2.82916455   15.59682732
 Ga                 1.49210633    4.62510752   16.43495504
 N                  0.01179525    7.45729283    2.61383457
 Ga                 0.01983377    5.70237888    3.30188458
 N                 -0.00409582    5.62065062    5.27102408
 Ga                 0.01333394    7.47182448    5.87105813
 N                 -0.00164031    7.47821899    7.85213012
 Ga                -0.00599981    5.60827243    8.44516235
 N                 -0.00846467    5.60793825   10.44442845
 Ga                -0.00629132    7.47660488   11.03340214
 N                 -0.00618267    7.47283962   13.00811186
 Ga                -0.00505539    5.60473684   13.61701815
 N                 -0.00534081    5.62337150   15.59690640
 Ga                -0.00567171    7.47600105   15.86629917
 N                 -1.71335266   10.20279984    2.54216021
 Ga                -1.48441805    8.33324435    3.29617910
 N                 -1.61113835    8.40225695    5.25368629
 Ga                -1.58625225   10.27547674    5.80478172
 N                 -1.60336876   10.26590499    7.79991544
 Ga                -1.61762414    8.40892813    8.43850758
 N                 -1.62455179    8.41029532   10.43389006
 Ga                -1.59664436   10.26885951   11.07574719
 N                 -1.58067238   10.27844018   13.07055175
 Ga                -1.62572124    8.41026173   13.62925202
 N                 -1.59767331    8.38585673   15.58837385
 Ga                -1.77940001   10.16383812   16.50242575
 N                  6.42292033    2.02949776    2.54277744
 Ga                 6.45387285    0.03931799    2.87990738
 N                  6.42592573    0.05085292    5.02508817
 Ga                 6.42255319    1.88044008    5.80304773
 N                  6.42667632    1.89309399    7.79972332
 Ga                 6.43085122    0.04712412    8.44614524
 N                  6.42777011    0.04779893   10.42241937
 Ga                 6.42944207    1.88527545   11.07914445
 N                  6.42844456    1.86667714   13.07296958
 Ga                 6.42713060    0.04765302   13.88616397
 N                  6.42607080    0.04713605   16.07687768
 Ga                 6.42621310    2.09652942   16.50383564
 Ga                 6.45121752    3.70947098    1.49407445
 N                  4.91997738    4.63781220    2.41442051
 Ga                 4.69191320    2.80411891    3.28741191
 N                  4.82120372    2.84521422    5.24687510
 Ga                 4.76552584    4.71359109    5.83956859
 N                  4.82605877    4.68828045    7.83588962
 Ga                 4.83262835    2.83438194    8.45674955
 N                  4.83116714    2.83516886   10.44802956
 Ga                 4.80404009    4.69855089   11.07354434
 N                  4.78980923    4.70720786   13.06767621
 Ga                 4.83166736    2.83971313   13.62902727
 N                  4.79617330    2.82662524   15.58832845
 Ga                 4.99962338    4.58669821   16.50453674
 N                  6.42636429    3.75090798   17.64979300
 N                  3.21659575    7.59157856    2.39389789
 N                  3.21747928    5.61744465    5.17117648
 Ga                 3.20524422    7.42149833    5.82119345
 N                  3.21378500    7.48052738    7.82714249
 Ga                 3.20992272    5.62007479    8.44246684
 N                  3.21244770    5.61916933   10.42677461
 Ga                 3.21050733    7.45824168   11.07226744
 N                  3.21165189    7.44026556   13.06725085
 Ga                 3.22075991    5.62306188   13.86335701
 N                  3.22303638    5.62435985   16.07463589
 Ga                 3.21257334    7.67910748   16.50034047
 Ga                 3.17645748    9.41680988    1.29339215
 N                  1.71094124   10.20168725    2.52812294
 Ga                 1.54778554    8.33310057    3.24517736
 N                  1.61617459    8.40006837    5.22910852
 Ga                 1.58606706   10.26516308    5.78941356
 N                  1.59264816   10.26565981    7.79327443
 Ga                 1.61235409    8.41407969    8.44881694
 N                  1.61124757    8.41261212   10.44374570
 Ga                 1.58808121   10.27081358   11.07733001
 N                  1.57099437   10.27968159   13.07233115
 Ga                 1.61506496    8.41011857   13.62752639
 N                  1.58663713    8.38583475   15.58796459
 Ga                 1.76558800   10.16480076   16.49965162
 N                  3.20088654    9.33619134   17.64281823
 N                  9.65599297    1.90610483    2.62539611
 Ga                 9.65122896    0.14441210    3.27215597
 N                  9.64708386    0.04869978    5.24857073
 Ga                 9.65264443    1.90301459    5.87255875
 N                  9.64301081    1.90447871    7.85124620
 Ga                 9.64263694    0.03503806    8.43255656
 N                  9.64317114    0.03456053   10.43132724
 Ga                 9.64261726    1.90365469   11.02712470
 N                  9.64480099    1.90504403   13.00297907
 Ga                 9.64330402    0.03472893   13.62913815
 N                  9.64964221    0.06978081   15.58918711
 Ga                 9.64133356    1.90329377   15.86984740
 N                  7.91600580    4.63867649    2.52336965
 Ga                 8.15132341    2.76882813    3.30267735
 N                  8.03531663    2.83660508    5.25882514
 Ga                 8.06317922    4.70701495    5.80176787
 N                  8.04388100    4.69997089    7.79515273
 Ga                 8.02616604    2.83773784    8.43661809
 N                  8.02385711    2.83980243   10.43301783
 Ga                 8.05102087    4.69648547   11.07707924
 N                  8.06591395    4.70655060   13.06865059
 Ga                 8.02435927    2.83893626   13.63037684
 N                  8.05797546    2.82631919   15.58933142
 Ga                 7.85330256    4.58663171   16.50523341
 N                  6.41626064    7.47764149    2.60321394
 Ga                 6.38262403    5.65734625    3.31791576
 N                  6.41956034    5.63027746    5.24133838
 Ga                 6.40769725    7.47389681    5.90215746
 N                  6.42449513    7.47421897    7.85954270
 Ga                 6.43103235    5.60445361    8.45953109
 N                  6.43132768    5.60796688   10.44610750
 Ga                 6.42904024    7.47660395   11.03803150
 N                  6.42811639    7.47524756   13.00605209
 Ga                 6.42733874    5.60531217   13.62912868
 N                  6.42691759    5.63724698   15.58693111
 Ga                 6.42709639    7.47416712   15.86400967
 N                  4.72158132   10.19614166    2.50971642
 Ga                 4.79489064    8.38049663    3.28186029
 N                  4.82488662    8.39189925    5.22405364
 Ga                 4.84506984   10.27416387    5.79264098
 N                  4.83157950   10.26187914    7.79271335
 Ga                 4.80591266    8.41441445    8.45659727
 N                  4.81189822    8.41168321   10.44493778
 Ga                 4.83223530   10.27031671   11.07526470
 N                  4.84919346   10.27789949   13.06795545
 Ga                 4.80838616    8.40938467   13.62784560
 N                  4.83570527    8.39329253   15.58649012
 Ga                 4.64174575   10.15498042   16.50106013
 O                  0.65109857    3.98702520   -0.36051851
 H                  2.50573722    6.45511802   -0.10174809
 C                  0.97972212    2.78160640   -1.08307772
 H                  1.71127126    2.16363783   -0.53658883
 H                  0.08164539    2.17636581   -1.27707283
 H                  1.41458760    3.07630678   -2.04846993
 Ga                 3.13836954    5.59810838    2.26045372
 O                  2.81301395    5.55380662    0.10666421
 H                  2.00961810    4.95037777   -0.08536009
 C                  6.44769650    7.48077578    1.11260765
 H                  9.69557512    1.95615940    1.62743429
 H                  7.33622628    8.01161860    0.73985290
 H                  5.57634721    6.95194378    0.69883289

