 # Version information for this restart file 
 # current date 2019-06-30 09:34:58.117
 # current working dir /scratch/rzk/rzk/GaN-carbene/443-adatoms-both-2x2/08-CH3O-H2O-H2C-H/01-Use-0701
 # Program compiled at                              Sun Apr  7 00:48:11 EDT 2019
 # Program compiled on                          beluga2.int.ets1.calculquebec.ca
 # Program compiled for                        Beluga-Linux-x86-64-intel-openmpi
 # Source code revision number                                         svn:18619
 &GLOBAL
   PRINT_LEVEL  MEDIUM
   PROJECT_NAME TEST
   RUN_TYPE  GEO_OPT
 &END GLOBAL
 &MOTION
   &GEO_OPT
     MAX_ITER  500
     STEP_START_VAL  49
   &END GEO_OPT
 &END MOTION
 &FORCE_EVAL
   METHOD  QS
   STRESS_TENSOR  ANALYTICAL
   &DFT
     BASIS_SET_FILE_NAME BASIS_MOLOPT
     POTENTIAL_FILE_NAME GTH_POTENTIALS
     UKS  T
     SURFACE_DIPOLE_CORRECTION  T
     SURF_DIP_DIR  Z
     &SCF
       MAX_SCF  80
       EPS_SCF     5.0000000000000004E-06
       &OT  T
         PRECONDITIONER  FULL_ALL
       &END OT
       &OUTER_SCF  T
         OPTIMIZER  NONE
         EPS_SCF     5.0000000000000004E-06
         MAX_SCF  4
       &END OUTER_SCF
       &PRINT
         &RESTART  OFF
           BACKUP_COPIES  1
           &EACH
             JUST_ENERGY  0
             QS_SCF  0
             MD  20
           &END EACH
         &END RESTART
       &END PRINT
     &END SCF
     &QS
       EPS_DEFAULT     1.0000000000000000E-14
       METHOD  GPW
     &END QS
     &MGRID
       NGRIDS  5
       CUTOFF     1.2000000000000000E+03
     &END MGRID
     &XC
       DENSITY_CUTOFF     1.0000000000000000E-10
       GRADIENT_CUTOFF     1.0000000000000000E-10
       TAU_CUTOFF     1.0000000000000000E-10
       &XC_FUNCTIONAL  NO_SHORTCUT
         &PBE  T
         &END PBE
       &END XC_FUNCTIONAL
       &VDW_POTENTIAL
         POTENTIAL_TYPE  PAIR_POTENTIAL
         &PAIR_POTENTIAL
           R_CUTOFF     1.0000000000000004E+01
           TYPE  DFTD3
           PARAMETER_FILE_NAME dftd3.dat
           REFERENCE_FUNCTIONAL PBE
           EPS_CN     9.9999999999999995E-07
           CALCULATE_C9_TERM  T
           REFERENCE_C9_TERM  T
           LONG_RANGE_CORRECTION  F
           VERBOSE_OUTPUT  F
         &END PAIR_POTENTIAL
       &END VDW_POTENTIAL
     &END XC
   &END DFT
   &SUBSYS
     &CELL
       A     1.2864472766435110E+01    0.0000000000000000E+00    0.0000000000000000E+00
       B    -6.4322363581020028E+00    1.1140960178524473E+01    0.0000000000000000E+00
       C     0.0000000000000000E+00    0.0000000000000000E+00    3.2000000000000000E+01
       MULTIPLE_UNIT_CELL  1 1 1
       &CELL_REF
         A     1.2982353780853531E+01    0.0000000000000000E+00    0.0000000000000000E+00
         B    -6.4911768904267628E+00    1.1243048175136114E+01    0.0000000000000000E+00
         C     0.0000000000000000E+00    0.0000000000000000E+00    3.2000000000000000E+01
         MULTIPLE_UNIT_CELL  1 1 1
       &END CELL_REF
     &END CELL
     &COORD
N    4.4279181516491154E-03    2.0471993210629917E+00    2.5111837579768035E+00
Ga   -1.2108890987146639E-02    9.5260166838840157E-02    2.9052182751544371E+00
N    2.0482948261495538E-02    6.0856856922806651E-02    5.0497984788425603E+00
Ga    8.7709294909450817E-03    1.8861931345081620E+00    5.8223376453912552E+00
N   -3.4891348587259832E-03    1.8944622689706561E+00    7.8128385612146660E+00
Ga   -5.0849395269378936E-03    4.6492846190358844E-02    8.4432560284342966E+00
N   -2.2367364396405891E-03    4.5529408093288294E-02    1.0417212353689900E+01
Ga   -9.1699976499726057E-04    1.8861814597623972E+00    1.1070954616011733E+01
N   -1.7102624349480766E-03    1.8664723173617559E+00    1.3065172809743492E+01
Ga   -9.2108886073375296E-04    4.7658756510846008E-02    1.3868250334519459E+01
N   -9.0590689704178726E-04    4.8410493158273851E-02    1.6070396763766027E+01
Ga   -9.4899281927523377E-04    2.0930647924592725E+00    1.6479371241208586E+01
Ga    6.4566247071974142E-02    3.7803284560406021E+00    1.3796034122211676E+00
N   -1.4796942382664078E+00    4.6131391233196357E+00    2.4933982398816434E+00
Ga   -1.6048153305521502E+00    2.8289092157007150E+00    3.3139394815617549E+00
N   -1.6210625788408013E+00    2.8251799441489163E+00    5.2538654020135933E+00
Ga   -1.6243146346610753E+00    4.7069757648092319E+00    5.8110317730568566E+00
N   -1.6214894432525435E+00    4.6938581177471779E+00    7.8044481538677672E+00
Ga   -1.6013545495525185E+00    2.8387728648625896E+00    8.4456022375505579E+00
N   -1.5993454003369454E+00    2.8396841454414741E+00    1.0436429989265413E+01
Ga   -1.6246602018109193E+00    4.6999344391980005E+00    1.1071924294915993E+01
N   -1.6420673138100537E+00    4.7079270040328982E+00    1.3066102113978932E+01
Ga   -1.5985485980732184E+00    2.8383068651388057E+00    1.3620165704018691E+01
N   -1.6246067946878382E+00    2.8219637316627435E+00    1.5582685404414528E+01
Ga   -1.4522931272618518E+00    4.5991464649321552E+00    1.6478444998681578E+01
N   -1.3212092375981495E-03    3.7701568693019261E+00    1.7611536628643975E+01
N   -3.2125522491533238E+00    7.6018506680851576E+00    2.5259383722541484E+00
Ga   -3.1872331347118683E+00    5.5810005197187227E+00    2.8672693594595540E+00
N   -3.2089373996915702E+00    5.6201459447961142E+00    5.0232297696554671E+00
Ga   -3.2049527489466758E+00    7.4361152096789267E+00    5.8074745611932412E+00
N   -3.2203354294865072E+00    7.4657320446237119E+00    7.7939197811930363E+00
Ga   -3.2186195157369939E+00    5.6162629743198949E+00    8.4436649346109292E+00
N   -3.2190102025744833E+00    5.6186012167848602E+00    1.0416954951828076E+01
Ga   -3.2170819994296167E+00    7.4578161850201630E+00    1.1069418365052197E+01
N   -3.2175453792449740E+00    7.4382557820103807E+00    1.3063055790445448E+01
Ga   -3.2171058466989120E+00    5.6185928010518316E+00    1.3868731513959876E+01
N   -3.2175838814373456E+00    5.6198158473360955E+00    1.6070344151545640E+01
Ga   -3.2170154679645382E+00    7.6643356488955465E+00    1.6481042240406389E+01
Ga   -3.1482394746426805E+00    9.3620891267053477E+00    1.5137992887603158E+00
N   -4.7112778911630517E+00    1.0199279316871682E+01    2.5025757396552479E+00
Ga   -4.8135038708955147E+00    8.4311070905133025E+00    3.3405407599072907E+00
N   -4.8466827975720328E+00    8.3944480394379450E+00    5.2453580729082150E+00
Ga   -4.8479356996253085E+00    1.0291012734856150E+01    5.8232791495700624E+00
N   -4.8311120405670520E+00    1.0261546917619048E+01    7.8051150692812961E+00
Ga   -4.8195200688894584E+00    8.4052545757042960E+00    8.4395985366420216E+00
N   -4.8158036052744366E+00    8.4080114086802116E+00    1.0428999849998601E+01
Ga   -4.8404913617554097E+00    1.0268227829131558E+01    1.1069537249769965E+01
N   -4.8570884935367529E+00    1.0277493590961821E+01    1.3063821904027501E+01
Ga   -4.8135204877664322E+00    8.4092917414324369E+00    1.3622157307796227E+01
N   -4.8406240035573536E+00    8.3924498684014672E+00    1.5583626163770839E+01
Ga   -4.6673698173814886E+00    1.0168845784219718E+01    1.6480361775278674E+01
N   -3.2166953341113551E+00    9.3402254741849458E+00    1.7613660720555909E+01
N    3.2007225339438965E+00    1.9208817549256469E+00    2.6139591328563467E+00
Ga    3.2243313831502531E+00    1.8973567337488331E-01    3.2983997579657816E+00
N    3.2174505686681267E+00    4.5926017788002114E-02    5.2554955960765346E+00
Ga    3.2227587137693066E+00    1.9184548248443403E+00    5.8744598499782930E+00
N    3.2201977372963384E+00    1.9041668882472547E+00    7.8536727248441798E+00
Ga    3.2204085751588818E+00    3.9783235672142765E-02    8.4450669073373898E+00
N    3.2153191878354521E+00    3.4674650598519249E-02    1.0436379880719031E+01
Ga    3.2161555620477227E+00    1.9043332029183511E+00    1.1032721441193097E+01
N    3.2156976796429051E+00    1.9035111238083031E+00    1.3004076258795473E+01
Ga    3.2157624849760058E+00    3.3176885954977635E-02    1.3620956052352218E+01
N    3.2149506326811070E+00    6.5869617606586620E-02    1.5584199434175162E+01
Ga    3.2150771332792845E+00    1.9042493167240950E+00    1.5859026264606326E+01
N    1.4768325032008023E+00    4.6099616428156480E+00    2.5541946051301685E+00
Ga    1.6906811755206728E+00    2.8072952737452117E+00    3.3095348326996676E+00
N    1.6094284274506361E+00    2.8313067484811278E+00    5.2766866229164746E+00
Ga    1.6478780207131458E+00    4.7129342599667288E+00    5.8172390773895799E+00
N    1.6071225611355986E+00    4.6901495483314326E+00    7.8291875717127830E+00
Ga    1.6001084368433898E+00    2.8395438702552354E+00    8.4482840767233842E+00
N    1.5973459408223749E+00    2.8358049874559543E+00    1.0442303994566846E+01
Ga    1.6233561444158027E+00    4.7003035099725619E+00    1.1066024136202646E+01
N    1.6390873418455854E+00    4.7082742137561722E+00    1.3063852379590879E+01
Ga    1.5952991971614612E+00    2.8396331509331358E+00    1.3619719149380233E+01
N    1.6219354309777676E+00    2.8222052766033863E+00    1.5582689964695751E+01
Ga    1.4503674380594223E+00    4.5991450430428422E+00    1.6478138181789372E+01
N    7.5024380658637738E-03    7.4544215984095983E+00    2.5987708908816072E+00
Ga    2.4268882742144133E-02    5.7053426502426534E+00    3.2967530694970382E+00
N   -2.6744136753219004E-03    5.6189024528285527E+00    5.2665029021465690E+00
Ga    2.1648398985246748E-02    7.4748937497568368E+00    5.8637595686419015E+00
N    2.1539511885684051E-03    7.4780361082962195E+00    7.8459630836313501E+00
Ga   -2.4411277816202613E-04    5.6094799437280827E+00    8.4436528940415663E+00
N   -4.4082661676447766E-03    5.6084580570518900E+00    1.0439344695133796E+01
Ga   -7.9721885932101499E-04    7.4770932320092225E+00    1.1027913098440658E+01
N   -1.2160777711308364E-03    7.4759164808155756E+00    1.3000448021768403E+01
Ga   -5.5656411693552209E-04    5.6049204635060192E+00    1.3619428302632540E+01
N   -1.1684417584060861E-03    5.6368272472689185E+00    1.5583601017476672E+01
Ga   -8.9122184207756033E-04    7.4747056040087969E+00    1.5859610222812499E+01
N   -1.7028141577816873E+00    1.0205694559868382E+01    2.5484094954499836E+00
Ga   -1.4733478049400575E+00    8.3369222664304505E+00    3.2987736652762587E+00
N   -1.6076904690741496E+00    8.4037178063730629E+00    5.2538644187061374E+00
Ga   -1.5784055353556672E+00    1.0276540621901244E+01    5.8101026079977833E+00
N   -1.5994726430213515E+00    1.0264998808520813E+01    7.8029229111464140E+00
Ga   -1.6132347886096789E+00    8.4084217067103513E+00    8.4369414934511919E+00
N   -1.6213306153906981E+00    8.4092609896519335E+00    1.0430704087793510E+01
Ga   -1.5915906887297691E+00    1.0268847220337598E+01    1.1068048225741800E+01
N   -1.5762626872704326E+00    1.0278251137414600E+01    1.3063289492034906E+01
Ga   -1.6202325993096933E+00    8.4095353187520523E+00    1.3620285318365584E+01
N   -1.5941784700546922E+00    8.3924763374160296E+00    1.5582477213595066E+01
Ga   -1.7665410697123451E+00    1.0168849159771812E+01    1.6479627073741046E+01
N    6.4261087069169776E+00    2.0180334759200713E+00    2.5171974000679538E+00
Ga    6.4601453716081325E+00    5.6820478618774539E-02    2.8970160499128448E+00
N    6.4268285909775571E+00    5.0769200654814529E-02    5.0404651744666049E+00
Ga    6.4241266055993886E+00    1.8786405802416719E+00    5.7976554802175162E+00
N    6.4338810787643075E+00    1.8960851164964141E+00    7.7942114561666429E+00
Ga    6.4388666601254902E+00    4.7699163901780722E-02    8.4357919926356608E+00
N    6.4338326035613358E+00    4.7859108706504463E-02    1.0414085592921939E+01
Ga    6.4334198331524819E+00    1.8862143666801579E+00    1.1069446720620363E+01
N    6.4327552734114759E+00    1.8671547517497131E+00    1.3063767177182923E+01
Ga    6.4319913436326193E+00    4.7754758599582260E-02    1.3867002755860618E+01
N    6.4309945554420445E+00    4.8754621923498609E-02    1.6069890706768874E+01
Ga    6.4309177820402423E+00    2.0937661434827248E+00    1.6480454964861138E+01
Ga    6.3861046399285089E+00    3.6589796711952194E+00    1.1947391871541277E+00
N    4.9149184567146733E+00    4.6174721605186084E+00    2.3998077203992287E+00
Ga    4.7306243782814468E+00    2.8049471287617864E+00    3.2466786696116534E+00
N    4.8296660132133900E+00    2.8420019094012807E+00    5.2306535355138921E+00
Ga    4.7684983385613613E+00    4.7081062236031475E+00    5.8183679081997592E+00
N    4.8303448767001260E+00    4.6892362650925934E+00    7.8195886682110896E+00
Ga    4.8375756412441140E+00    2.8369295046223200E+00    8.4476844343306503E+00
N    4.8357881337485606E+00    2.8371044753656962E+00    1.0440243161562885E+01
Ga    4.8078486578599717E+00    4.7001057931482046E+00    1.1067329909893967E+01
N    4.7924978367537392E+00    4.7081007293134558E+00    1.3063761935047525E+01
Ga    4.8357387262836848E+00    2.8391577889013213E+00    1.3619843877890366E+01
N    4.8082719200683943E+00    2.8221158628413168E+00    1.5582353783675551E+01
Ga    4.9803530823404278E+00    4.5982112664880415E+00    1.6479548109987970E+01
N    6.4309631561031289E+00    3.7696395863230112E+00    1.7613798065877070E+01
N    3.1881028072072057E+00    7.5526978135838618E+00    2.3873372394376520E+00
N    3.2170169823532819E+00    5.6093244558693582E+00    5.1485756485038108E+00
Ga    3.1991108644125212E+00    7.4110645946453531E+00    5.8022191715465965E+00
N    3.2193601315130143E+00    7.4795140802216498E+00    7.8083673692326405E+00
Ga    3.2163850498525375E+00    5.6200026949096245E+00    8.4324586104653232E+00
N    3.2172390791042065E+00    5.6198951262826133E+00    1.0417361861885942E+01
Ga    3.2151494240827230E+00    7.4579125506233925E+00    1.1064860457758401E+01
N    3.2156216959260786E+00    7.4391569223826464E+00    1.3061522432516014E+01
Ga    3.2152840661953741E+00    5.6188509190889677E+00    1.3864122289891128E+01
N    3.2152524524396831E+00    5.6195480465241827E+00    1.6069988758032398E+01
Ga    3.2145989645015440E+00    7.6634390194030173E+00    1.6479766160324331E+01
Ga    2.8543746532169534E+00    9.3695305753520053E+00    8.5118447270945197E-01
N    1.6782212623987096E+00    1.0207235540098827E+01    2.4838942812232561E+00
Ga    1.5497508999710961E+00    8.3463745905316760E+00    3.2030683078940956E+00
N    1.6181020243104791E+00    8.4021758247993272E+00    5.2104061284034353E+00
Ga    1.5900077139318090E+00    1.0266556361760257E+01    5.7717530800062624E+00
N    1.6026049438239329E+00    1.0267010221240117E+01    7.7795436052151521E+00
Ga    1.6186318021156849E+00    8.4146268709042271E+00    8.4357548085732557E+00
N    1.6169659151352578E+00    8.4123994918326161E+00    1.0432623333709966E+01
Ga    1.5933021321569547E+00    1.0269340333840164E+01    1.1068651465021325E+01
N    1.5760694804867743E+00    1.0279029541645187E+01    1.3063628202312950E+01
Ga    1.6189765067442901E+00    8.4095512300205630E+00    1.3619056116339902E+01
N    1.5920211324577807E+00    8.3927601262437914E+00    1.5581714596372837E+01
Ga    1.7637215946252900E+00    1.0168811390510685E+01    1.6479147637907900E+01
N    3.2143152722379864E+00    9.3400404227125176E+00    1.7612776325640422E+01
N    9.6508275828515551E+00    1.9089619930192210E+00    2.6626120440711647E+00
Ga    9.6529296908824289E+00    2.5371084618596714E-02    3.2085465477048758E+00
N    9.6513898665951388E+00    6.0133604785498972E-02    5.1927144155454386E+00
Ga    9.6465866945114023E+00    1.8916060964011394E+00    5.8762455330641945E+00
N    9.6470768337313757E+00    1.9021279040587777E+00    7.8451062595035514E+00
Ga    9.6468963744804661E+00    3.1846159351496955E-02    8.4306534641083815E+00
N    9.6493749607298174E+00    3.4662655467123743E-02    1.0426207159767602E+01
Ga    9.6465223179309643E+00    1.9040336225757497E+00    1.1025513807924073E+01
N    9.6466609664896179E+00    1.9035850142718742E+00    1.2997658074977545E+01
Ga    9.6471001203163276E+00    3.4626762384258158E-02    1.3621698440552750E+01
N    9.6472590134853018E+00    6.6543785184619550E-02    1.5584722679670282E+01
Ga    9.6474525555275275E+00    1.9041890175128418E+00    1.5862655095959742E+01
N    7.9531978190774186E+00    4.6305692923818862E+00    2.5046126594411322E+00
Ga    8.0414317228272072E+00    2.8264143402338830E+00    3.2860628766445119E+00
N    8.0517415733082718E+00    2.8278330236957778E+00    5.2330533004800364E+00
Ga    8.0702696427059539E+00    4.7074346352110572E+00    5.7882636389521034E+00
N    8.0466350782916471E+00    4.6982125732723379E+00    7.7816436077714553E+00
Ga    8.0290069844915752E+00    2.8393777460939051E+00    8.4336763277454789E+00
N    8.0293173277585996E+00    2.8416080626555527E+00    1.0427660472170734E+01
Ga    8.0550200902211060E+00    4.6986292424660547E+00    1.1072772066421528E+01
N    8.0713945384983479E+00    4.7074056441584213E+00    1.3065786261747501E+01
Ga    8.0286080360802945E+00    2.8381451745544144E+00    1.3621486130984886E+01
N    8.0548801534200223E+00    2.8219426748154857E+00    1.5583337228933283E+01
Ga    7.8812340714173379E+00    4.5982764076155478E+00    1.6480311824955255E+01
N    6.5928133243164995E+00    7.3696132905961900E+00    2.4476529695127875E+00
Ga    6.3866780451341301E+00    5.5265579843852031E+00    3.2763474443247862E+00
N    6.4256816428776098E+00    5.6277760248764794E+00    5.2046769377589435E+00
Ga    6.4046265539649410E+00    7.4650277955432358E+00    5.8625628483570171E+00
N    6.4260231893534066E+00    7.4744562920956685E+00    7.8278865838300087E+00
Ga    6.4327106591583219E+00    5.6062025744755184E+00    8.4449224612133076E+00
N    6.4356252262359090E+00    5.6095608102288157E+00    1.0435118814246923E+01
Ga    6.4313347436770982E+00    7.4765394789873953E+00    1.1032106297080743E+01
N    6.4314756793226779E+00    7.4753556526433158E+00    1.3001831964557097E+01
Ga    6.4311165036700961E+00    5.6044102898778156E+00    1.3621634160231416E+01
N    6.4312145114082391E+00    5.6369567666278533E+00    1.5584665271558222E+01
Ga    6.4308234091762717E+00    7.4746737055890495E+00    1.5861304612383652E+01
N    4.7924583222386561E+00    1.0245995899723644E+01    2.4914306030471480E+00
Ga    4.5593778228983490E+00    8.5252733027497722E+00    3.2656734051259542E+00
N    4.8269343060860574E+00    8.3955602993514393E+00    5.1796215070004825E+00
Ga    4.8540899319040287E+00    1.0288409717919908E+01    5.7745198059067784E+00
N    4.8333246226231559E+00    1.0262677415271957E+01    7.7735175918618893E+00
Ga    4.8104997491249213E+00    8.4128522677626183E+00    8.4403654311066596E+00
N    4.8165866383346962E+00    8.4122620584021774E+00    1.0431952376311049E+01
Ga    4.8378254588188847E+00    1.0269391411372791E+01    1.1072020237899649E+01
N    4.8546200630279008E+00    1.0278567950030586E+01    1.3065338067231799E+01
Ga    4.8108881396462371E+00    8.4093477171339472E+00    1.3621081637371775E+01
N    4.8380913504664003E+00    8.3925818947754554E+00    1.5583024990960210E+01
Ga    4.6654962123506785E+00    1.0168735905983263E+01    1.6479798108995524E+01
O    6.4034848814849332E-01    3.9655648808999091E+00   -3.7792720956314513E-01
H    2.5815404132929265E+00    6.4748325030722178E+00   -6.1685684462551772E-02
C    9.8749733881864621E-01    2.7508366825547816E+00   -1.0751322713213125E+00
H    1.7017740009570630E+00    2.1363980876050293E+00   -5.0188807333144647E-01
H    9.4788241576309926E-02    2.1446722631026098E+00   -1.2926720163016030E+00
H    1.4534780137552084E+00    3.0352556501504959E+00   -2.0295512819128563E+00
Ga    3.1618846001472063E+00    5.5850309095634341E+00    2.3540476102668317E+00
O    2.8685184104445440E+00    5.5633176399339508E+00    1.3653025169526281E-01
H    2.0730351564232841E+00    4.9818114854622291E+00   -8.1787518177382224E-02
C    6.3109857373443772E+00    7.5575929644752602E+00    1.2051519796748318E+00
H    9.6636520509249006E+00    1.9487705051951758E+00    1.6364851534955118E+00
H    6.6383435144024077E+00    8.4633992883274338E+00    6.7712005365953998E-01
H    5.7005093005040584E+00    6.8337668713846771E+00    6.4605317389414041E-01
     &END COORD
     &KIND C
       BASIS_SET DZVP-MOLOPT-SR-GTH-q4
       POTENTIAL GTH-PBE-q4
       &POTENTIAL
 2 2
  0.3384712400000000E+00 2 -0.8803673979999999E+01  0.1339210850000000E+01
 2
  0.3025757500000000E+00 1  0.9622486650000001E+01
  0.2915069400000000E+00 0
         # Potential name:  GTH-PBE-Q4  for symbol:  C
         # Potential read from the potential filename: GTH_POTENTIALS
       &END POTENTIAL
     &END KIND
     &KIND O
       BASIS_SET DZVP-MOLOPT-SR-GTH-q6
       POTENTIAL GTH-PBE-q6
       &POTENTIAL
 2 4
  0.2445543000000000E+00 2 -0.1666721480000000E+02  0.2487311320000000E+01
 2
  0.2209559200000000E+00 1  0.1833745811000000E+02
  0.2113324700000000E+00 0
         # Potential name:  GTH-PBE-Q6  for symbol:  O
         # Potential read from the potential filename: GTH_POTENTIALS
       &END POTENTIAL
     &END KIND
     &KIND H
       BASIS_SET DZVP-MOLOPT-SR-GTH-q1
       POTENTIAL GTH-PBE-q1
       &POTENTIAL
 1
  0.2000000000000000E+00 2 -0.4178900440000000E+01  0.7244633100000000E+00
 0
         # Potential name:  GTH-PBE-Q1  for symbol:  H
         # Potential read from the potential filename: GTH_POTENTIALS
       &END POTENTIAL
     &END KIND
     &KIND N
       BASIS_SET DZVP-MOLOPT-SR-GTH
       POTENTIAL GTH-PBE-q5
       &POTENTIAL
 2 3
  0.2837905100000000E+00 2 -0.1241522559000000E+02  0.1868095920000000E+01
 2
  0.2554050000000000E+00 1  0.1363026257000000E+02
  0.2454945300000000E+00 0
         # Potential name:  GTH-PBE-Q5  for symbol:  N
         # Potential read from the potential filename: GTH_POTENTIALS
       &END POTENTIAL
     &END KIND
     &KIND Ga
       BASIS_SET DZVP-MOLOPT-SR-GTH
       POTENTIAL GTH-PBE-q13
       &POTENTIAL
 2 1 10
  0.4900000000000000E+00 0
 3
  0.4167772300000000E+00 3  0.1047568975000000E+02 -0.4921768140000000E+01  0.8707055900000000E+00
  0.7770178090000000E+01 -0.2248152160000000E+01
  0.1784415450000000E+01
  0.5696265200000000E+00 2  0.1777985340000000E+01  0.1958597600000000E+00
 -0.2317443900000000E+00
  0.2381265000000000E+00 1 -0.1624868022000000E+02
         # Potential name:  GTH-PBE-Q13  for symbol:  GA
         # Potential read from the potential filename: GTH_POTENTIALS
       &END POTENTIAL
     &END KIND
     &TOPOLOGY
       NUMBER_OF_ATOMS  212
       MULTIPLE_UNIT_CELL  1 1 1
     &END TOPOLOGY
   &END SUBSYS
 &END FORCE_EVAL
