 # Version information for this restart file 
 # current date 2019-06-30 10:28:52.425
 # current working dir /scratch/rzk/rzk/GaN-carbene/443-adatoms-both-2x2/08-CH3O-H2O-H2C-H/01-Use-0701
 # Program compiled at                              Sun Apr  7 00:48:11 EDT 2019
 # Program compiled on                          beluga2.int.ets1.calculquebec.ca
 # Program compiled for                        Beluga-Linux-x86-64-intel-openmpi
 # Source code revision number                                         svn:18619
 &GLOBAL
   PRINT_LEVEL  MEDIUM
   PROJECT_NAME TEST
   RUN_TYPE  GEO_OPT
 &END GLOBAL
 &MOTION
   &GEO_OPT
     MAX_ITER  500
     STEP_START_VAL  57
   &END GEO_OPT
 &END MOTION
 &FORCE_EVAL
   METHOD  QS
   STRESS_TENSOR  ANALYTICAL
   &DFT
     BASIS_SET_FILE_NAME BASIS_MOLOPT
     POTENTIAL_FILE_NAME GTH_POTENTIALS
     UKS  T
     SURFACE_DIPOLE_CORRECTION  T
     SURF_DIP_DIR  Z
     &SCF
       MAX_SCF  80
       EPS_SCF     5.0000000000000004E-06
       &OT  T
         PRECONDITIONER  FULL_ALL
       &END OT
       &OUTER_SCF  T
         OPTIMIZER  NONE
         EPS_SCF     5.0000000000000004E-06
         MAX_SCF  4
       &END OUTER_SCF
       &PRINT
         &RESTART  OFF
           BACKUP_COPIES  1
           &EACH
             JUST_ENERGY  0
             QS_SCF  0
             MD  20
           &END EACH
         &END RESTART
       &END PRINT
     &END SCF
     &QS
       EPS_DEFAULT     1.0000000000000000E-14
       METHOD  GPW
     &END QS
     &MGRID
       NGRIDS  5
       CUTOFF     1.2000000000000000E+03
     &END MGRID
     &XC
       DENSITY_CUTOFF     1.0000000000000000E-10
       GRADIENT_CUTOFF     1.0000000000000000E-10
       TAU_CUTOFF     1.0000000000000000E-10
       &XC_FUNCTIONAL  NO_SHORTCUT
         &PBE  T
         &END PBE
       &END XC_FUNCTIONAL
       &VDW_POTENTIAL
         POTENTIAL_TYPE  PAIR_POTENTIAL
         &PAIR_POTENTIAL
           R_CUTOFF     1.0000000000000004E+01
           TYPE  DFTD3
           PARAMETER_FILE_NAME dftd3.dat
           REFERENCE_FUNCTIONAL PBE
           EPS_CN     9.9999999999999995E-07
           CALCULATE_C9_TERM  T
           REFERENCE_C9_TERM  T
           LONG_RANGE_CORRECTION  F
           VERBOSE_OUTPUT  F
         &END PAIR_POTENTIAL
       &END VDW_POTENTIAL
     &END XC
   &END DFT
   &SUBSYS
     &CELL
       A     1.2864472766435110E+01    0.0000000000000000E+00    0.0000000000000000E+00
       B    -6.4322363581020028E+00    1.1140960178524473E+01    0.0000000000000000E+00
       C     0.0000000000000000E+00    0.0000000000000000E+00    3.2000000000000000E+01
       MULTIPLE_UNIT_CELL  1 1 1
       &CELL_REF
         A     1.2982353780853531E+01    0.0000000000000000E+00    0.0000000000000000E+00
         B    -6.4911768904267628E+00    1.1243048175136114E+01    0.0000000000000000E+00
         C     0.0000000000000000E+00    0.0000000000000000E+00    3.2000000000000000E+01
         MULTIPLE_UNIT_CELL  1 1 1
       &END CELL_REF
     &END CELL
     &COORD
N    4.0529720822301794E-03    2.0470217350720818E+00    2.5116578040293098E+00
Ga   -1.2784875176572738E-02    9.5024285910812009E-02    2.9050748557791688E+00
N    2.0218111817533805E-02    6.0715977189636991E-02    5.0501335949009096E+00
Ga    8.3358374395271686E-03    1.8860303330826858E+00    5.8223798923871959E+00
N   -3.7707016962394615E-03    1.8943436312580124E+00    7.8129837206631505E+00
Ga   -5.3876329346416747E-03    4.6396787471246786E-02    8.4430262185683098E+00
N   -2.3828008572893545E-03    4.5611443756913450E-02    1.0417162354525765E+01
Ga   -1.0453055195000910E-03    1.8862537721945902E+00    1.1070734947625963E+01
N   -1.7683332744947390E-03    1.8667077741190703E+00    1.3065372239947473E+01
Ga   -9.5129206670563360E-04    4.7779345007094284E-02    1.3868077199327134E+01
N   -1.0672468454282311E-03    4.8458232047690911E-02    1.6070598878597949E+01
Ga   -9.8766165113854144E-04    2.0928208168160789E+00    1.6479690062395854E+01
Ga    6.3993825250082501E-02    3.7801196456844228E+00    1.3801602576589735E+00
N   -1.4801726948362213E+00    4.6132625219894630E+00    2.4942623375123167E+00
Ga   -1.6052839384554394E+00    2.8288413215301724E+00    3.3140740773358202E+00
N   -1.6213929695106850E+00    2.8249528904376371E+00    5.2541104407353281E+00
Ga   -1.6245665508029445E+00    4.7066322414357424E+00    5.8110403627741878E+00
N   -1.6216964811294416E+00    4.6936154304256608E+00    7.8045496854408967E+00
Ga   -1.6016583889338838E+00    2.8385411606112774E+00    8.4453633199805189E+00
N   -1.5995034427748813E+00    2.8395921936764887E+00    1.0436404606668415E+01
Ga   -1.6247499383512518E+00    4.6998161810777797E+00    1.1071729637587708E+01
N   -1.6420225460092601E+00    4.7079212747160391E+00    1.3066382254602487E+01
Ga   -1.5986561623196154E+00    2.8383106766334629E+00    1.3620400556846310E+01
N   -1.6244778532691611E+00    2.8221438876787843E+00    1.5583344473551158E+01
Ga   -1.4526161079851458E+00    4.5994037862563957E+00    1.6478837128267696E+01
N   -1.2310021683462412E-03    3.7703872494055619E+00    1.7611797873364448E+01
N   -3.2121597754976916E+00    7.6023018203125075E+00    2.5270630900057451E+00
Ga   -3.1878569927637406E+00    5.5809559573345959E+00    2.8678646054166306E+00
N   -3.2091039131097983E+00    5.6203020396790340E+00    5.0238033020528468E+00
Ga   -3.2051761970662986E+00    7.4361064860595709E+00    5.8077518035951377E+00
N   -3.2204758500531727E+00    7.4656219819482725E+00    7.7941536666257623E+00
Ga   -3.2188732419149981E+00    5.6160578427879218E+00    8.4434470210465289E+00
N   -3.2191220763626696E+00    5.6185539463270020E+00    1.0416939441056879E+01
Ga   -3.2172019507046055E+00    7.4578777478779186E+00    1.1069190015058448E+01
N   -3.2175748816972738E+00    7.4384956792852872E+00    1.3063154242367998E+01
Ga   -3.2172012490373696E+00    5.6187684388343166E+00    1.3868484011856109E+01
N   -3.2176695154207846E+00    5.6200345551974520E+00    1.6070605142510470E+01
Ga   -3.2170886020817386E+00    7.6643295268791576E+00    1.6481802352332096E+01
Ga   -3.1477133582729881E+00    9.3624307148926249E+00    1.5144468066009764E+00
N   -4.7112650346477825E+00    1.0198997904168298E+01    2.5033852249396609E+00
Ga   -4.8130469040927952E+00    8.4308002430873934E+00    3.3408453414549348E+00
N   -4.8466609466957156E+00    8.3944133489652604E+00    5.2453768156737119E+00
Ga   -4.8482464681511921E+00    1.0290942400533705E+01    5.8234906318783617E+00
N   -4.8313666598663216E+00    1.0261554676443252E+01    7.8053173049980789E+00
Ga   -4.8198075636133231E+00    8.4051740898072715E+00    8.4393314697714086E+00
N   -4.8159271348032009E+00    8.4081346256949310E+00    1.0428961571176108E+01
Ga   -4.8405896240482660E+00    1.0268383792262757E+01    1.1069320001765325E+01
N   -4.8570953142694959E+00    1.0277666833162005E+01    1.3063885517133730E+01
Ga   -4.8136276536895748E+00    8.4094687681461728E+00    1.3622416719939469E+01
N   -4.8406385298101702E+00    8.3926129428086860E+00    1.5584164495909157E+01
Ga   -4.6677474257385638E+00    1.0169155827429730E+01    1.6480998560894697E+01
N   -3.2168017754633111E+00    9.3405802984042108E+00    1.7614342741369043E+01
N    3.2004469500428172E+00    1.9207179517756714E+00    2.6144060095130559E+00
Ga    3.2244116933662554E+00    1.8997783816256197E-01    3.2988129023141131E+00
N    3.2171585273116046E+00    4.5881458814197168E-02    5.2558208860137681E+00
Ga    3.2227359541562914E+00    1.9186064917216858E+00    5.8741738215299169E+00
N    3.2199954418422467E+00    1.9042619629382342E+00    7.8535946089977866E+00
Ga    3.2200938620304238E+00    3.9900133412338418E-02    8.4448176951249945E+00
N    3.2151997945969564E+00    3.4900714770086119E-02    1.0436346579701706E+01
Ga    3.2160594005714676E+00    1.9044961444426525E+00    1.1032632774392463E+01
N    3.2157092090175938E+00    1.9037440321297470E+00    1.3004320399326794E+01
Ga    3.2156974947275274E+00    3.3415276780371608E-02    1.3621199724560876E+01
N    3.2148672476191709E+00    6.6013892444896444E-02    1.5584741426727433E+01
Ga    3.2151063882859665E+00    1.9044098038416870E+00    1.5860345002549849E+01
N    1.4763772520896510E+00    4.6098234884503135E+00    2.5547585146013265E+00
Ga    1.6904992668637855E+00    2.8072637175413084E+00    3.3097869933948418E+00
N    1.6091372032337254E+00    2.8310475331835279E+00    5.2770380889863739E+00
Ga    1.6472846847995775E+00    4.7126092412912559E+00    5.8172912183304781E+00
N    1.6069957001831801E+00    4.6901307281909483E+00    7.8293824508462606E+00
Ga    1.5998227588193226E+00    2.8394535383867305E+00    8.4479825747665167E+00
N    1.5972421998704724E+00    2.8358385754683546E+00    1.0442261489974223E+01
Ga    1.6233449570581939E+00    4.7002808789992443E+00    1.1065867156307734E+01
N    1.6390578161873437E+00    4.7083422358411289E+00    1.3064135057190583E+01
Ga    1.5953015066223526E+00    2.8396741159744514E+00    1.3619902930598483E+01
N    1.6216708602044443E+00    2.8223944151651708E+00    1.5583283438973845E+01
Ga    1.4506903854554409E+00    4.5994396188263424E+00    1.6478384489399652E+01
N    7.5358785715463721E-03    7.4544504473225910E+00    2.5999491206447236E+00
Ga    2.3999018506646146E-02    5.7052011162900378E+00    3.2970620743559098E+00
N   -3.0120965132663996E-03    5.6187859702181635E+00    5.2669689166582874E+00
Ga    2.1307048996939758E-02    7.4746922338653068E+00    5.8638434216478812E+00
N    1.9941726288065917E-03    7.4779131215343373E+00    7.8461389516098761E+00
Ga   -4.9269739765464983E-04    5.6093307300474828E+00    8.4435500645348860E+00
N   -4.4446785713196510E-03    5.6084665609263409E+00    1.0439445245731243E+01
Ga   -7.6725494683211215E-04    7.4771832742237532E+00    1.1027801553026402E+01
N   -1.1842430253535153E-03    7.4760093315592240E+00    1.3000787466302803E+01
Ga   -5.7072987888503643E-04    5.6050267468623183E+00    1.3619603625416682E+01
N   -1.2083590800006894E-03    5.6366686834791153E+00    1.5584254810379598E+01
Ga   -9.0523328542852670E-04    7.4748691903940738E+00    1.5860974695402115E+01
N   -1.7027514893203952E+00    1.0205893251946078E+01    2.5496237456418256E+00
Ga   -1.4732078626951493E+00    8.3370507795843363E+00    3.2990253528472060E+00
N   -1.6080258233069848E+00    8.4037601779907902E+00    5.2541368142593488E+00
Ga   -1.5787473629456030E+00    1.0276530820966922E+01    5.8102979062667339E+00
N   -1.5997567622603190E+00    1.0264989324979599E+01    7.8031588227042086E+00
Ga   -1.6133806840324609E+00    8.4083446061493969E+00    8.4369096011175593E+00
N   -1.6213597585476365E+00    8.4093926055570591E+00    1.0430817620998647E+01
Ga   -1.5917137898789848E+00    1.0269074553956930E+01    1.1067835218787526E+01
N   -1.5763255087681458E+00    1.0278455720890037E+01    1.3063382262454342E+01
Ga   -1.6202419836003319E+00    8.4097431011295747E+00    1.3620513466176217E+01
N   -1.5942866184936488E+00    8.3926228023994991E+00    1.5582993028961461E+01
Ga   -1.7663380031626323E+00    1.0169146825437693E+01    1.6480274582332399E+01
N    6.4261122530508485E+00    2.0181401035837028E+00    2.5173241020905062E+00
Ga    6.4606681526066811E+00    5.7119162900488352E-02    2.8970070345983641E+00
N    6.4264202360268428E+00    5.0989455927225105E-02    5.0411960484023499E+00
Ga    6.4238214237532629E+00    1.8789876212441108E+00    5.7974605852264851E+00
N    6.4336201143820908E+00    1.8960482120308835E+00    7.7942567431904015E+00
Ga    6.4386710966816851E+00    4.7713098137385862E-02    8.4355430962807212E+00
N    6.4337552536847324E+00    4.8015207656410493E-02    1.0413973589671102E+01
Ga    6.4333553475621157E+00    1.8863528742989406E+00    1.1069350624108409E+01
N    6.4327360492927426E+00    1.8673882602621752E+00    1.3063935904869284E+01
Ga    6.4319827059182328E+00    4.7951347601038058E-02    1.3866776861854849E+01
N    6.4310566067702393E+00    4.8882713029259194E-02    1.6070172524961968E+01
Ga    6.4308025923460086E+00    2.0932734524011551E+00    1.6481014717093359E+01
Ga    6.3873506051733040E+00    3.6586746999611619E+00    1.1932575375060988E+00
N    4.9148281747072149E+00    4.6168113844180771E+00    2.3996689705121126E+00
Ga    4.7308281414433928E+00    2.8048644151191096E+00    3.2455567974753592E+00
N    4.8293783189738626E+00    2.8417557811487630E+00    5.2302194768126400E+00
Ga    4.7684900731037931E+00    4.7075500916332302E+00    5.8181775546315491E+00
N    4.8300233941442841E+00    4.6892122464164547E+00    7.8197115208751056E+00
Ga    4.8373419065888861E+00    2.8369297118362957E+00    8.4474981230955173E+00
N    4.8357142925760126E+00    2.8371927026020560E+00    1.0440281072959669E+01
Ga    4.8078292278233379E+00    4.7001659469990722E+00    1.1067257035797780E+01
N    4.7925484743381004E+00    4.7082320572795631E+00    1.3063941488765774E+01
Ga    4.8357409938821112E+00    2.8393196311174589E+00    1.3620179326680240E+01
N    4.8084043572118809E+00    2.8224102136922453E+00    1.5583029447817234E+01
Ga    4.9796491577067670E+00    4.5987447303489910E+00    1.6480011808321304E+01
N    6.4307166501548956E+00    3.7698823654424793E+00    1.7613981136276827E+01
N    3.1878336690883398E+00    7.5526244199026920E+00    2.3879534990300111E+00
N    3.2166746379220630E+00    5.6092477503349585E+00    5.1500795300110003E+00
Ga    3.1990398847395762E+00    7.4112440003497717E+00    5.8024564411197188E+00
N    3.2192085672915072E+00    7.4793661398724520E+00    7.8087394590747827E+00
Ga    3.2162594456244373E+00    5.6199845440122447E+00    8.4322341316237210E+00
N    3.2172074040980294E+00    5.6199223133561995E+00    1.0417409466482688E+01
Ga    3.2151839026561313E+00    7.4580149444852939E+00    1.1064649410801469E+01
N    3.2156711797057684E+00    7.4393666325041741E+00    1.3061659381570951E+01
Ga    3.2153536741757902E+00    5.6190396448524993E+00    1.3863967900067848E+01
N    3.2152192318122812E+00    5.6198955117345193E+00    1.6070319919813109E+01
Ga    3.2145955790695009E+00    7.6636514094457464E+00    1.6480619079033513E+01
Ga    2.8565017817949228E+00    9.3710025693982573E+00    8.5217637599814000E-01
N    1.6782151779500856E+00    1.0206951552263364E+01    2.4850974231335616E+00
Ga    1.5496725311013511E+00    8.3465080855089653E+00    3.2036767733612366E+00
N    1.6177757084514377E+00    8.4019431620963747E+00    5.2110431721425963E+00
Ga    1.5897389684911691E+00    1.0266469852044310E+01    5.7718161473410783E+00
N    1.6023691955975683E+00    1.0266958918275131E+01    7.7797602006296263E+00
Ga    1.6185046482727510E+00    8.4145644771367287E+00    8.4354854400887973E+00
N    1.6169774416947187E+00    8.4125005979796406E+00    1.0432555996838468E+01
Ga    1.5933252610852571E+00    1.0269502379065280E+01    1.1068388555993721E+01
N    1.5761236863560091E+00    1.0279217816673340E+01    1.3063740774656413E+01
Ga    1.6190170266546640E+00    8.4097613437776833E+00    1.3619383147612632E+01
N    1.5920592612525766E+00    8.3928670286255542E+00    1.5582250297064299E+01
Ga    1.7637281256307114E+00    1.0168919970315761E+01    1.6480004520700579E+01
N    3.2143286905161688E+00    9.3401974699867747E+00    1.7613637598452993E+01
N    9.6505704000222998E+00    1.9088495901135769E+00    2.6633335706838257E+00
Ga    9.6523837441849434E+00    2.5420111184452303E-02    3.2097451193695736E+00
N    9.6513930341245651E+00    6.0074933026172388E-02    5.1937684386902507E+00
Ga    9.6462408863822926E+00    1.8917123901629160E+00    5.8762645912782112E+00
N    9.6467504122875862E+00    1.9019426357758007E+00    7.8451592922117825E+00
Ga    9.6466852239926570E+00    3.1760321128536821E-02    8.4302768247628954E+00
N    9.6492672775950137E+00    3.4750936176922105E-02    1.0426025143013868E+01
Ga    9.6463916740388740E+00    1.9040093019934907E+00    1.1025391206544244E+01
N    9.6465731021528747E+00    1.9037765443550985E+00    1.2997997301389800E+01
Ga    9.6471194426522615E+00    3.4857676659093749E-02    1.3622082162611530E+01
N    9.6472653496889862E+00    6.6725816249415107E-02    1.5585325919658500E+01
Ga    9.6472745094063779E+00    1.9043320507776371E+00    1.5864236899604011E+01
N    7.9527591647143172E+00    4.6306150522435816E+00    2.5057184681614113E+00
Ga    8.0411230997207461E+00    2.8266053886249822E+00    3.2858500135115265E+00
N    8.0515910072163468E+00    2.8276495427006383E+00    5.2330540047763856E+00
Ga    8.0699551370825571E+00    4.7071790409565164E+00    5.7878622902976220E+00
N    8.0464476504046569E+00    4.6980227775966918E+00    7.7814794866116159E+00
Ga    8.0288252694644502E+00    2.8392689604111032E+00    8.4334290196504433E+00
N    8.0291963366331842E+00    2.8415589716567125E+00    1.0427651880780621E+01
Ga    8.0548625220681220E+00    4.6985636544621121E+00    1.1072606892181669E+01
N    8.0712698085139714E+00    4.7074593906663287E+00    1.3065941058369694E+01
Ga    8.0285560208772591E+00    2.8382699622584417E+00    1.3621875778038770E+01
N    8.0545868602607715E+00    2.8222247033815164E+00    1.5584100679185687E+01
Ga    7.8816753155554711E+00    4.5987850292585586E+00    1.6480922231967678E+01
N    6.5926218901571882E+00    7.3695360767659404E+00    2.4481242643472649E+00
Ga    6.3857801117307877E+00    5.5260233285200222E+00    3.2762138757982733E+00
N    6.4253760585371920E+00    5.6276069120836274E+00    5.2046859152985991E+00
Ga    6.4045324650867048E+00    7.4648371436270677E+00    5.8623321762968441E+00
N    6.4257776600315877E+00    7.4743095468212246E+00    7.8278495388791507E+00
Ga    6.4325770987839013E+00    5.6061339751489641E+00    8.4445692693211711E+00
N    6.4355030081512874E+00    5.6095811778061364E+00    1.0435059807093495E+01
Ga    6.4312263807418333E+00    7.4766113503722931E+00    1.1031858750343448E+01
N    6.4314458783454533E+00    7.4754338097336088E+00    1.3001959189373711E+01
Ga    6.4311074531482220E+00    5.6045610389836149E+00    1.3622051265512546E+01
N    6.4311396437443387E+00    5.6368471490620342E+00    1.5585429511955684E+01
Ga    6.4307722057422190E+00    7.4747337263980880E+00    1.5862949606361752E+01
N    4.7917535337692385E+00    1.0245560389383108E+01    2.4909084877358065E+00
Ga    4.5593425896202824E+00    8.5249649723887710E+00    3.2655789671393669E+00
N    4.8267574330504024E+00    8.3955175515422233E+00    5.1798191749837388E+00
Ga    4.8540468847656246E+00    1.0288172452502954E+01    5.7748603853520359E+00
N    4.8330332712973210E+00    1.0262530857267924E+01    7.7739260146729254E+00
Ga    4.8103795835321037E+00    8.4127393886612740E+00    8.4400165496934036E+00
N    4.8165141970991501E+00    8.4123366629583494E+00    1.0431811826770620E+01
Ga    4.8376562633930309E+00    1.0269479523906018E+01    1.1071717956772858E+01
N    4.8545462482947652E+00    1.0278714012652799E+01    1.3065389031601665E+01
Ga    4.8109863820926773E+00    8.4095231385566649E+00    1.3621466892423655E+01
N    4.8380564327547217E+00    8.3927077521873734E+00    1.5583613956701697E+01
Ga    4.6654889986183932E+00    1.0168846442641220E+01    1.6480660092502884E+01
O    6.3842887211549171E-01    3.9655648405711248E+00   -3.7746779524352020E-01
H    2.5784129095056989E+00    6.4767841971712024E+00   -5.7886300404177110E-02
C    9.8664961975602472E-01    2.7511698188436085E+00   -1.0748676570006910E+00
H    1.7011587630675657E+00    2.1370646000965818E+00   -5.0192018660023197E-01
H    9.4633847913475025E-02    2.1444772305096893E+00   -1.2928557718932290E+00
H    1.4525727417168735E+00    3.0361859223669514E+00   -2.0289556784769345E+00
Ga    3.1618632040681711E+00    5.5847063422539716E+00    2.3534537201771188E+00
O    2.8662778734420633E+00    5.5649805921242130E+00    1.3743235717533792E-01
H    2.0712835194836305E+00    4.9831793948115788E+00   -8.0943901379703490E-02
C    6.3184319729738920E+00    7.5535500770613018E+00    1.2025020960320454E+00
H    9.6636088739579939E+00    1.9473333402898689E+00    1.6373033495177998E+00
H    6.6511140945366565E+00    8.4570153120852627E+00    6.7240079320237067E-01
H    5.7101520921755000E+00    6.8281741394910300E+00    6.4179043223602750E-01
     &END COORD
     &KIND C
       BASIS_SET DZVP-MOLOPT-SR-GTH-q4
       POTENTIAL GTH-PBE-q4
       &POTENTIAL
 2 2
  0.3384712400000000E+00 2 -0.8803673979999999E+01  0.1339210850000000E+01
 2
  0.3025757500000000E+00 1  0.9622486650000001E+01
  0.2915069400000000E+00 0
         # Potential name:  GTH-PBE-Q4  for symbol:  C
         # Potential read from the potential filename: GTH_POTENTIALS
       &END POTENTIAL
     &END KIND
     &KIND O
       BASIS_SET DZVP-MOLOPT-SR-GTH-q6
       POTENTIAL GTH-PBE-q6
       &POTENTIAL
 2 4
  0.2445543000000000E+00 2 -0.1666721480000000E+02  0.2487311320000000E+01
 2
  0.2209559200000000E+00 1  0.1833745811000000E+02
  0.2113324700000000E+00 0
         # Potential name:  GTH-PBE-Q6  for symbol:  O
         # Potential read from the potential filename: GTH_POTENTIALS
       &END POTENTIAL
     &END KIND
     &KIND H
       BASIS_SET DZVP-MOLOPT-SR-GTH-q1
       POTENTIAL GTH-PBE-q1
       &POTENTIAL
 1
  0.2000000000000000E+00 2 -0.4178900440000000E+01  0.7244633100000000E+00
 0
         # Potential name:  GTH-PBE-Q1  for symbol:  H
         # Potential read from the potential filename: GTH_POTENTIALS
       &END POTENTIAL
     &END KIND
     &KIND N
       BASIS_SET DZVP-MOLOPT-SR-GTH
       POTENTIAL GTH-PBE-q5
       &POTENTIAL
 2 3
  0.2837905100000000E+00 2 -0.1241522559000000E+02  0.1868095920000000E+01
 2
  0.2554050000000000E+00 1  0.1363026257000000E+02
  0.2454945300000000E+00 0
         # Potential name:  GTH-PBE-Q5  for symbol:  N
         # Potential read from the potential filename: GTH_POTENTIALS
       &END POTENTIAL
     &END KIND
     &KIND Ga
       BASIS_SET DZVP-MOLOPT-SR-GTH
       POTENTIAL GTH-PBE-q13
       &POTENTIAL
 2 1 10
  0.4900000000000000E+00 0
 3
  0.4167772300000000E+00 3  0.1047568975000000E+02 -0.4921768140000000E+01  0.8707055900000000E+00
  0.7770178090000000E+01 -0.2248152160000000E+01
  0.1784415450000000E+01
  0.5696265200000000E+00 2  0.1777985340000000E+01  0.1958597600000000E+00
 -0.2317443900000000E+00
  0.2381265000000000E+00 1 -0.1624868022000000E+02
         # Potential name:  GTH-PBE-Q13  for symbol:  GA
         # Potential read from the potential filename: GTH_POTENTIALS
       &END POTENTIAL
     &END KIND
     &TOPOLOGY
       NUMBER_OF_ATOMS  212
       MULTIPLE_UNIT_CELL  1 1 1
     &END TOPOLOGY
   &END SUBSYS
 &END FORCE_EVAL
