 # Version information for this restart file 
 # current date 2019-06-30 10:21:23.239
 # current working dir /scratch/rzk/rzk/GaN-carbene/443-adatoms-both-2x2/08-CH3O-H2O-H2C-H/01-Use-0701
 # Program compiled at                              Sun Apr  7 00:48:11 EDT 2019
 # Program compiled on                          beluga2.int.ets1.calculquebec.ca
 # Program compiled for                        Beluga-Linux-x86-64-intel-openmpi
 # Source code revision number                                         svn:18619
 &GLOBAL
   PRINT_LEVEL  MEDIUM
   PROJECT_NAME TEST
   RUN_TYPE  GEO_OPT
 &END GLOBAL
 &MOTION
   &GEO_OPT
     MAX_ITER  500
     STEP_START_VAL  56
   &END GEO_OPT
 &END MOTION
 &FORCE_EVAL
   METHOD  QS
   STRESS_TENSOR  ANALYTICAL
   &DFT
     BASIS_SET_FILE_NAME BASIS_MOLOPT
     POTENTIAL_FILE_NAME GTH_POTENTIALS
     UKS  T
     SURFACE_DIPOLE_CORRECTION  T
     SURF_DIP_DIR  Z
     &SCF
       MAX_SCF  80
       EPS_SCF     5.0000000000000004E-06
       &OT  T
         PRECONDITIONER  FULL_ALL
       &END OT
       &OUTER_SCF  T
         OPTIMIZER  NONE
         EPS_SCF     5.0000000000000004E-06
         MAX_SCF  4
       &END OUTER_SCF
       &PRINT
         &RESTART  OFF
           BACKUP_COPIES  1
           &EACH
             JUST_ENERGY  0
             QS_SCF  0
             MD  20
           &END EACH
         &END RESTART
       &END PRINT
     &END SCF
     &QS
       EPS_DEFAULT     1.0000000000000000E-14
       METHOD  GPW
     &END QS
     &MGRID
       NGRIDS  5
       CUTOFF     1.2000000000000000E+03
     &END MGRID
     &XC
       DENSITY_CUTOFF     1.0000000000000000E-10
       GRADIENT_CUTOFF     1.0000000000000000E-10
       TAU_CUTOFF     1.0000000000000000E-10
       &XC_FUNCTIONAL  NO_SHORTCUT
         &PBE  T
         &END PBE
       &END XC_FUNCTIONAL
       &VDW_POTENTIAL
         POTENTIAL_TYPE  PAIR_POTENTIAL
         &PAIR_POTENTIAL
           R_CUTOFF     1.0000000000000004E+01
           TYPE  DFTD3
           PARAMETER_FILE_NAME dftd3.dat
           REFERENCE_FUNCTIONAL PBE
           EPS_CN     9.9999999999999995E-07
           CALCULATE_C9_TERM  T
           REFERENCE_C9_TERM  T
           LONG_RANGE_CORRECTION  F
           VERBOSE_OUTPUT  F
         &END PAIR_POTENTIAL
       &END VDW_POTENTIAL
     &END XC
   &END DFT
   &SUBSYS
     &CELL
       A     1.2864472766435110E+01    0.0000000000000000E+00    0.0000000000000000E+00
       B    -6.4322363581020028E+00    1.1140960178524473E+01    0.0000000000000000E+00
       C     0.0000000000000000E+00    0.0000000000000000E+00    3.2000000000000000E+01
       MULTIPLE_UNIT_CELL  1 1 1
       &CELL_REF
         A     1.2982353780853531E+01    0.0000000000000000E+00    0.0000000000000000E+00
         B    -6.4911768904267628E+00    1.1243048175136114E+01    0.0000000000000000E+00
         C     0.0000000000000000E+00    0.0000000000000000E+00    3.2000000000000000E+01
         MULTIPLE_UNIT_CELL  1 1 1
       &END CELL_REF
     &END CELL
     &COORD
N    4.0749680347763996E-03    2.0471530970917566E+00    2.5115194943538981E+00
Ga   -1.2952811074893615E-02    9.5241497949745346E-02    2.9049683304202949E+00
N    2.0156436230926070E-02    6.0832289196677096E-02    5.0500250955570039E+00
Ga    8.4371009210023277E-03    1.8861959372352215E+00    5.8223668216500712E+00
N   -3.7391229191822734E-03    1.8943655967626778E+00    7.8129297137073355E+00
Ga   -5.3865332810201800E-03    4.6456190465991795E-02    8.4430820225676282E+00
N   -2.3196161132684060E-03    4.5603801526830468E-02    1.0417172700807697E+01
Ga   -9.9001219579317418E-04    1.8862777619543205E+00    1.1070790026860927E+01
N   -1.7325149713442131E-03    1.8666742903659765E+00    1.3065294795008542E+01
Ga   -9.9349699818085824E-04    4.7861563195245080E-02    1.3868275759017360E+01
N   -1.2443941329924014E-03    4.8315025361447141E-02    1.6070635370012397E+01
Ga   -1.0078510130253316E-03    2.0927911026329027E+00    1.6479805130192492E+01
Ga    6.4267572330943462E-02    3.7801303701156681E+00    1.3802206500514029E+00
N   -1.4799383439291673E+00    4.6131414617214412E+00    2.4938841473768680E+00
Ga   -1.6052320269865705E+00    2.8289047394172933E+00    3.3140520385818921E+00
N   -1.6213642716721135E+00    2.8249752330868723E+00    5.2540796468463835E+00
Ga   -1.6244123060046805E+00    4.7066608259103448E+00    5.8109735609544408E+00
N   -1.6216437594850319E+00    4.6936781176280018E+00    7.8044722558072621E+00
Ga   -1.6015910017882182E+00    2.8386097183881889E+00    8.4453840505869149E+00
N   -1.5994503319563131E+00    2.8396101215473055E+00    1.0436334225306275E+01
Ga   -1.6246933755161748E+00    4.6998398802294439E+00    1.1071730805873862E+01
N   -1.6420281886394037E+00    4.7078923751898731E+00    1.3066285027915114E+01
Ga   -1.5986272917679467E+00    2.8382583411144142E+00    1.3620451544550820E+01
N   -1.6244705573210805E+00    2.8221829914614109E+00    1.5583296049494480E+01
Ga   -1.4525351471050680E+00    4.5993188999600498E+00    1.6479020721812628E+01
N   -1.1669824568976386E-03    3.7702943991675091E+00    1.7611723107916252E+01
N   -3.2121304147569991E+00    7.6023077432303774E+00    2.5265408680609793E+00
Ga   -3.1875780284848623E+00    5.5807675932908642E+00    2.8674893977175095E+00
N   -3.2090593610565139E+00    5.6201465415391336E+00    5.0236131609593375E+00
Ga   -3.2050933555767980E+00    7.4360520012949944E+00    5.8076340005868179E+00
N   -3.2204186654726930E+00    7.4655945084080173E+00    7.7940809918526455E+00
Ga   -3.2187860289392409E+00    5.6160782140593621E+00    8.4434732870567153E+00
N   -3.2191049133896943E+00    5.6185970019211364E+00    1.0416916326003761E+01
Ga   -3.2171641084977307E+00    7.4579238385747804E+00    1.1069211093772903E+01
N   -3.2176003743426800E+00    7.4384594903623764E+00    1.3063204181209437E+01
Ga   -3.2171293141056889E+00    5.6186559150638242E+00    1.3868622539242120E+01
N   -3.2178465097075040E+00    5.6198758012106120E+00    1.6070652324442978E+01
Ga   -3.2170380070498630E+00    7.6637730574265861E+00    1.6481400764531244E+01
Ga   -3.1478481648143024E+00    9.3623670138938540E+00    1.5152349041897393E+00
N   -4.7112109049101401E+00    1.0199040414086362E+01    2.5030153032829192E+00
Ga   -4.8133099755938247E+00    8.4305870271494552E+00    3.3408809624506994E+00
N   -4.8467160922590118E+00    8.3943638347101821E+00    5.2455138990291630E+00
Ga   -4.8482077518382685E+00    1.0290978179319326E+01    5.8234362570126486E+00
N   -4.8313624528506987E+00    1.0261604726626123E+01    7.8053002113646288E+00
Ga   -4.8197150206974912E+00    8.4051985466030938E+00    8.4392827273627695E+00
N   -4.8158880787001470E+00    8.4081671148810546E+00    1.0428889258109621E+01
Ga   -4.8405316144978858E+00    1.0268383890480662E+01    1.1069392035343187E+01
N   -4.8570938047890069E+00    1.0277681715212941E+01    1.3063946188316871E+01
Ga   -4.8136428459471148E+00    8.4094944501217004E+00    1.3622449381891098E+01
N   -4.8404786191338962E+00    8.3926280406492495E+00    1.5584319842195343E+01
Ga   -4.6682127219409715E+00    1.0169457920906437E+01    1.6480558266182943E+01
N   -3.2168276644297573E+00    9.3405578481434883E+00    1.7613703269053413E+01
N    3.2004549523127084E+00    1.9210710619520512E+00    2.6143601131074496E+00
Ga    3.2243403891090736E+00    1.9035015271210684E-01    3.2987095117895895E+00
N    3.2172016960715784E+00    4.6026441772189133E-02    5.2557352686006586E+00
Ga    3.2226273419703682E+00    1.9187157471981140E+00    5.8743211832647617E+00
N    3.2199955993497120E+00    1.9042816213029297E+00    7.8536566122254436E+00
Ga    3.2201614699086503E+00    3.9906628902905333E-02    8.4448046002109294E+00
N    3.2152277860031448E+00    3.4865132606957047E-02    1.0436276980261061E+01
Ga    3.2160808155298217E+00    1.9044678376528206E+00    1.1032647764315552E+01
N    3.2157479958911153E+00    1.9036806757675127E+00    1.3004299719845356E+01
Ga    3.2156965747339923E+00    3.3416281080414750E-02    1.3621235279538068E+01
N    3.2149170273900953E+00    6.5873706548477212E-02    1.5584879527749463E+01
Ga    3.2150716443648157E+00    1.9044037400007876E+00    1.5860136723815890E+01
N    1.4765619598998556E+00    4.6099074112306395E+00    2.5546584253046274E+00
Ga    1.6904576662377748E+00    2.8074100890246938E+00    3.3097535562382503E+00
N    1.6091632264286435E+00    2.8311800935263269E+00    5.2769659630179966E+00
Ga    1.6473652480003160E+00    4.7126424099911661E+00    5.8173328478978217E+00
N    1.6070213100097182E+00    4.6901315280979139E+00    7.8293105015203457E+00
Ga    1.5998167844900417E+00    2.8394797411416279E+00    8.4480235775952739E+00
N    1.5972835032780830E+00    2.8358193203858106E+00    1.0442200383895052E+01
Ga    1.6233429069765510E+00    4.7002762775662807E+00    1.1065853636626246E+01
N    1.6391041268230802E+00    4.7082869320994840E+00    1.3064025686174404E+01
Ga    1.5953180093582284E+00    2.8396371412333812E+00    1.3619984443742537E+01
N    1.6216992327480173E+00    2.8223510124776134E+00    1.5583310853696238E+01
Ga    1.4507392327766260E+00    4.5994562059587514E+00    1.6478551583133900E+01
N    7.7218198593063921E-03    7.4542418831754702E+00    2.5994624659651726E+00
Ga    2.4162023841312986E-02    5.7051091833286565E+00    3.2969857871521664E+00
N   -2.8657497912626308E-03    5.6187439164726554E+00    5.2668488340424755E+00
Ga    2.1412437953514333E-02    7.4746244630309144E+00    5.8638001113077038E+00
N    2.0548206001696394E-03    7.4779006768169562E+00    7.8460665043855391E+00
Ga   -4.4213562091314584E-04    5.6093463302015625E+00    8.4435367546278091E+00
N   -4.4300302690696630E-03    5.6084784604995406E+00    1.0439342582441983E+01
Ga   -7.8330862843678181E-04    7.4771837732240849E+00    1.1027785450658369E+01
N   -1.2398731840723390E-03    7.4760339739096375E+00    1.3000735138111487E+01
Ga   -5.2875437500458076E-04    5.6049887095627176E+00    1.3619588932457457E+01
N   -1.2674097887575191E-03    5.6366649269154321E+00    1.5584188785055092E+01
Ga   -9.0282731761023914E-04    7.4748321606757342E+00    1.5860923967440911E+01
N   -1.7027515666578839E+00    1.0205799000240086E+01    2.5493031528384114E+00
Ga   -1.4729634264705875E+00    8.3366856646216156E+00    3.2989704930482100E+00
N   -1.6078814648883668E+00    8.4036540270433200E+00    5.2540168440279409E+00
Ga   -1.5787246650646987E+00    1.0276437175084240E+01    5.8102350958448836E+00
N   -1.5996616377724631E+00    1.0265035436805491E+01    7.8031306398778586E+00
Ga   -1.6133088932542374E+00    8.4083599883464792E+00    8.4368039048484551E+00
N   -1.6213665058375375E+00    8.4094178398857817E+00    1.0430680751127563E+01
Ga   -1.5917133084225001E+00    1.0269045371912105E+01    1.1067873310453422E+01
N   -1.5763064064943695E+00    1.0278502540733767E+01    1.3063407802411097E+01
Ga   -1.6202477371165191E+00    8.4097692859596158E+00    1.3620505390684739E+01
N   -1.5944100635839278E+00    8.3926659001711563E+00    1.5583099579327753E+01
Ga   -1.7658705177831893E+00    1.0169380831890084E+01    1.6479814174852088E+01
N    6.4258804494478712E+00    2.0182107009623618E+00    2.5173717822897732E+00
Ga    6.4606420124035315E+00    5.7236259927773946E-02    2.8969083226749106E+00
N    6.4264253613356930E+00    5.0994946320315204E-02    5.0409730175878122E+00
Ga    6.4237618364026021E+00    1.8790383171264937E+00    5.7974421297089567E+00
N    6.4336635860415461E+00    1.8960572702077476E+00    7.7942153234458242E+00
Ga    6.4387585022073273E+00    4.7740064182254766E-02    8.4355981808861866E+00
N    6.4337684551194441E+00    4.8024564848452626E-02    1.0413994240113285E+01
Ga    6.4333645434699447E+00    1.8863879139929205E+00    1.1069403087077418E+01
N    6.4327264023907400E+00    1.8673988451931314E+00    1.3063916842655708E+01
Ga    6.4320555700181528E+00    4.7965854975218297E-02    1.3866946271127436E+01
N    6.4312833927903723E+00    4.8957245572663947E-02    1.6070219378394768E+01
Ga    6.4308688381369246E+00    2.0933431974394447E+00    1.6480781878438137E+01
Ga    6.3863609422373919E+00    3.6584441184214360E+00    1.1935424898104225E+00
N    4.9145997914237061E+00    4.6169336802334771E+00    2.3997279676953873E+00
Ga    4.7307099828279418E+00    2.8051238748404654E+00    3.2457591093878255E+00
N    4.8292773388242667E+00    2.8418677829353918E+00    5.2302353234131251E+00
Ga    4.7684322616011752E+00    4.7077051421410641E+00    5.8181046081027352E+00
N    4.8300541807117963E+00    4.6892331399961833E+00    7.8195960970915781E+00
Ga    4.8373775962581265E+00    2.8369405736703737E+00    8.4475349936744220E+00
N    4.8357189819734421E+00    2.8372009662777953E+00    1.0440255682471145E+01
Ga    4.8078294128775809E+00    4.7001640552130048E+00    1.1067303248795188E+01
N    4.7925499750025988E+00    4.7081859787657185E+00    1.3063947656353060E+01
Ga    4.8357260049079160E+00    2.8392870887538200E+00    1.3620189772766460E+01
N    4.8084106945432881E+00    2.8223180483517774E+00    1.5583002547834106E+01
Ga    4.9796650250708172E+00    4.5986846736405038E+00    1.6479844131483457E+01
N    6.4307022475003759E+00    3.7698551062488113E+00    1.7613904214015065E+01
N    3.1877700110464247E+00    7.5526183140063248E+00    2.3877428613461236E+00
N    3.2166425128082947E+00    5.6091923574584515E+00    5.1498794004506800E+00
Ga    3.1991104981058625E+00    7.4111586940157155E+00    5.8021878342327229E+00
N    3.2192363526681245E+00    7.4793968191824636E+00    7.8084798286395989E+00
Ga    3.2162643607373318E+00    5.6200105910778975E+00    8.4321852580572170E+00
N    3.2172353087595273E+00    5.6199121850803113E+00    1.0417313233096538E+01
Ga    3.2152052517443304E+00    7.4580120636245502E+00    1.1064673126195638E+01
N    3.2157103023246854E+00    7.4392812469267762E+00    1.3061606627250645E+01
Ga    3.2152958855177323E+00    5.6189911049504069E+00    1.3864147297403180E+01
N    3.2154378101694818E+00    5.6199624235048304E+00    1.6070289507107468E+01
Ga    3.2145699215020191E+00    7.6638932667431972E+00    1.6480776879285404E+01
Ga    2.8556870048960588E+00    9.3707811281709432E+00    8.5167619148832829E-01
N    1.6781302848866773E+00    1.0206954982733674E+01    2.4848725386349386E+00
Ga    1.5496754379916466E+00    8.3464171607948288E+00    3.2035232741526172E+00
N    1.6178641016579842E+00    8.4018669132172903E+00    5.2108404670870785E+00
Ga    1.5898569758067054E+00    1.0266402864690770E+01    5.7715796559348354E+00
N    1.6024444026554143E+00    1.0267007328359767E+01    7.7795505081396712E+00
Ga    1.6185319122838584E+00    8.4145841444084120E+00    8.4354731874473554E+00
N    1.6169939627644780E+00    8.4125034769101994E+00    1.0432485992739551E+01
Ga    1.5933771006180422E+00    1.0269492500896087E+01    1.1068444666639687E+01
N    1.5761039058582920E+00    1.0279260263807096E+01    1.3063681158132692E+01
Ga    1.6190538445285103E+00    8.4097579216517779E+00    1.3619271926482075E+01
N    1.5919675993163263E+00    8.3928687926405932E+00    1.5582052075748729E+01
Ga    1.7641017475258209E+00    1.0168734510901933E+01    1.6480143762391677E+01
N    3.2143861811899792E+00    9.3401352619589826E+00    1.7614160836731187E+01
N    9.6505888337051164E+00    1.9089640446494380E+00    2.6630092917123847E+00
Ga    9.6523099403174193E+00    2.5564330500215868E-02    3.2094399388924706E+00
N    9.6513631406634701E+00    6.0108094800166656E-02    5.1935531379523976E+00
Ga    9.6462469537241518E+00    1.8916839673342534E+00    5.8761731080721500E+00
N    9.6468252902204661E+00    1.9019857732526493E+00    7.8451232352617239E+00
Ga    9.6467759223924983E+00    3.1800497760879919E-02    8.4303212838293433E+00
N    9.6493525765344152E+00    3.4767642105263508E-02    1.0425978946082351E+01
Ga    9.6464277241321454E+00    1.9040559494177336E+00    1.1025397204883451E+01
N    9.6465650044001521E+00    1.9037952920672148E+00    1.2997870859094679E+01
Ga    9.6471537607509781E+00    3.4866607413508395E-02    1.3621983974215544E+01
N    9.6472523186434351E+00    6.6784845163844420E-02    1.5585107007425492E+01
Ga    9.6473518720811082E+00    1.9043460842176156E+00    1.5863990642153706E+01
N    7.9528026487648606E+00    4.6304852967298986E+00    2.5054345283459529E+00
Ga    8.0410452221409603E+00    2.8264424577897671E+00    3.2857161747631305E+00
N    8.0515361954561939E+00    2.8276750440905731E+00    5.2329612397073229E+00
Ga    8.0699172021259038E+00    4.7072250223533363E+00    5.7878636835336001E+00
N    8.0465019401479001E+00    4.6980723938591211E+00    7.7814734300304291E+00
Ga    8.0288758015681694E+00    2.8392849224072774E+00    8.4334586461469581E+00
N    8.0292146713075567E+00    2.8416218241326745E+00    1.0427598830341124E+01
Ga    8.0548814702895317E+00    4.6986091512763970E+00    1.1072660812230367E+01
N    8.0712569741805602E+00    4.7074424783293471E+00    1.3065953295156097E+01
Ga    8.0285831752989250E+00    2.8382207346506125E+00    1.3621844080696928E+01
N    8.0546366946887886E+00    2.8222221285229674E+00    1.5583992265481543E+01
Ga    7.8816050208467328E+00    4.5986197435112519E+00    1.6480766301442973E+01
N    6.5929151205923002E+00    7.3694140640145882E+00    2.4480446132845324E+00
Ga    6.3857331457431599E+00    5.5259802418000827E+00    3.2761386568174191E+00
N    6.4253620707321613E+00    5.6275229622405298E+00    5.2046189241249463E+00
Ga    6.4043166609766651E+00    7.4647780639554639E+00    5.8621605671253390E+00
N    6.4258178362250620E+00    7.4743373858460718E+00    7.8277268235518678E+00
Ga    6.4325888176576154E+00    5.6061441180980207E+00    8.4445889934942659E+00
N    6.4355227115968408E+00    5.6095874750748598E+00    1.0435016687123706E+01
Ga    6.4312735330089090E+00    7.4766129558401708E+00    1.1031863099019853E+01
N    6.4315172087968646E+00    7.4754156737583957E+00    1.3001925119128895E+01
Ga    6.4310791062292596E+00    5.6045568388481390E+00    1.3621998436241078E+01
N    6.4312365547538652E+00    5.6368474281961163E+00    1.5585365797946627E+01
Ga    6.4307918758580449E+00    7.4747418833736177E+00    1.5862679801101049E+01
N    4.7916804691010473E+00    1.0245733809550803E+01    2.4907625764763379E+00
Ga    4.5590143664812031E+00    8.5250987243895473E+00    3.2654849001877300E+00
N    4.8266219229677008E+00    8.3955476904586632E+00    5.1796432682477942E+00
Ga    4.8539311208540754E+00    1.0288121328985525E+01    5.7746482104998540E+00
N    4.8331004403652180E+00    1.0262610971356692E+01    7.7737251913857737E+00
Ga    4.8103841933555076E+00    8.4128221031448227E+00    8.4399833732993841E+00
N    4.8165787986350272E+00    8.4123516627547019E+00    1.0431733871262784E+01
Ga    4.8377128610746682E+00    1.0269466438846882E+01    1.1071810576768103E+01
N    4.8546182770156054E+00    1.0278732698683443E+01    1.3065363183869710E+01
Ga    4.8109980805785364E+00    8.4095262964574609E+00    1.3621383296600952E+01
N    4.8381572881438846E+00    8.3926874405497021E+00    1.5583459867493945E+01
Ga    4.6651722792991412E+00    1.0168733094041976E+01    1.6480810353632055E+01
O    6.3873788725385205E-01    3.9654343973897004E+00   -3.7731200317266228E-01
H    2.5785076664539526E+00    6.4765896758762471E+00   -5.8118115018910010E-02
C    9.8673276886437267E-01    2.7510393787919614E+00   -1.0747871986112945E+00
H    1.7011845269844190E+00    2.1368593027736407E+00   -5.0201985704234942E-01
H    9.4806196925527511E-02    2.1444162179082236E+00   -1.2928650927762853E+00
H    1.4526960267932350E+00    3.0360277849682684E+00   -2.0287487795384602E+00
Ga    3.1619745485944226E+00    5.5848200981380343E+00    2.3535327807095747E+00
O    2.8664778102932083E+00    5.5649969524749334E+00    1.3736281584779278E-01
H    2.0715108049052908E+00    4.9833237643604651E+00   -8.0963543752097480E-02
C    6.3179557084322333E+00    7.5537287123587422E+00    1.2026622671749485E+00
H    9.6635163301052742E+00    1.9478627468187131E+00    1.6370110992087714E+00
H    6.6497019690087074E+00    8.4579629362058615E+00    6.7304424750732461E-01
H    5.7091239938694116E+00    6.8289484856614955E+00    6.4237142968389727E-01
     &END COORD
     &KIND C
       BASIS_SET DZVP-MOLOPT-SR-GTH-q4
       POTENTIAL GTH-PBE-q4
       &POTENTIAL
 2 2
  0.3384712400000000E+00 2 -0.8803673979999999E+01  0.1339210850000000E+01
 2
  0.3025757500000000E+00 1  0.9622486650000001E+01
  0.2915069400000000E+00 0
         # Potential name:  GTH-PBE-Q4  for symbol:  C
         # Potential read from the potential filename: GTH_POTENTIALS
       &END POTENTIAL
     &END KIND
     &KIND O
       BASIS_SET DZVP-MOLOPT-SR-GTH-q6
       POTENTIAL GTH-PBE-q6
       &POTENTIAL
 2 4
  0.2445543000000000E+00 2 -0.1666721480000000E+02  0.2487311320000000E+01
 2
  0.2209559200000000E+00 1  0.1833745811000000E+02
  0.2113324700000000E+00 0
         # Potential name:  GTH-PBE-Q6  for symbol:  O
         # Potential read from the potential filename: GTH_POTENTIALS
       &END POTENTIAL
     &END KIND
     &KIND H
       BASIS_SET DZVP-MOLOPT-SR-GTH-q1
       POTENTIAL GTH-PBE-q1
       &POTENTIAL
 1
  0.2000000000000000E+00 2 -0.4178900440000000E+01  0.7244633100000000E+00
 0
         # Potential name:  GTH-PBE-Q1  for symbol:  H
         # Potential read from the potential filename: GTH_POTENTIALS
       &END POTENTIAL
     &END KIND
     &KIND N
       BASIS_SET DZVP-MOLOPT-SR-GTH
       POTENTIAL GTH-PBE-q5
       &POTENTIAL
 2 3
  0.2837905100000000E+00 2 -0.1241522559000000E+02  0.1868095920000000E+01
 2
  0.2554050000000000E+00 1  0.1363026257000000E+02
  0.2454945300000000E+00 0
         # Potential name:  GTH-PBE-Q5  for symbol:  N
         # Potential read from the potential filename: GTH_POTENTIALS
       &END POTENTIAL
     &END KIND
     &KIND Ga
       BASIS_SET DZVP-MOLOPT-SR-GTH
       POTENTIAL GTH-PBE-q13
       &POTENTIAL
 2 1 10
  0.4900000000000000E+00 0
 3
  0.4167772300000000E+00 3  0.1047568975000000E+02 -0.4921768140000000E+01  0.8707055900000000E+00
  0.7770178090000000E+01 -0.2248152160000000E+01
  0.1784415450000000E+01
  0.5696265200000000E+00 2  0.1777985340000000E+01  0.1958597600000000E+00
 -0.2317443900000000E+00
  0.2381265000000000E+00 1 -0.1624868022000000E+02
         # Potential name:  GTH-PBE-Q13  for symbol:  GA
         # Potential read from the potential filename: GTH_POTENTIALS
       &END POTENTIAL
     &END KIND
     &TOPOLOGY
       NUMBER_OF_ATOMS  212
       MULTIPLE_UNIT_CELL  1 1 1
     &END TOPOLOGY
   &END SUBSYS
 &END FORCE_EVAL
