 # Version information for this restart file 
 # current date 2019-06-30 09:25:19.715
 # current working dir /scratch/rzk/rzk/GaN-carbene/443-adatoms-both-2x2/08-CH3O-H2O-H2C-H/01-Use-0701
 # Program compiled at                              Sun Apr  7 00:48:11 EDT 2019
 # Program compiled on                          beluga2.int.ets1.calculquebec.ca
 # Program compiled for                        Beluga-Linux-x86-64-intel-openmpi
 # Source code revision number                                         svn:18619
 &GLOBAL
   PRINT_LEVEL  MEDIUM
   PROJECT_NAME TEST
   RUN_TYPE  GEO_OPT
 &END GLOBAL
 &MOTION
   &GEO_OPT
     MAX_ITER  500
     STEP_START_VAL  47
   &END GEO_OPT
 &END MOTION
 &FORCE_EVAL
   METHOD  QS
   STRESS_TENSOR  ANALYTICAL
   &DFT
     BASIS_SET_FILE_NAME BASIS_MOLOPT
     POTENTIAL_FILE_NAME GTH_POTENTIALS
     UKS  T
     SURFACE_DIPOLE_CORRECTION  T
     SURF_DIP_DIR  Z
     &SCF
       MAX_SCF  80
       EPS_SCF     5.0000000000000004E-06
       &OT  T
         PRECONDITIONER  FULL_ALL
       &END OT
       &OUTER_SCF  T
         OPTIMIZER  NONE
         EPS_SCF     5.0000000000000004E-06
         MAX_SCF  4
       &END OUTER_SCF
       &PRINT
         &RESTART  OFF
           BACKUP_COPIES  1
           &EACH
             JUST_ENERGY  0
             QS_SCF  0
             MD  20
           &END EACH
         &END RESTART
       &END PRINT
     &END SCF
     &QS
       EPS_DEFAULT     1.0000000000000000E-14
       METHOD  GPW
     &END QS
     &MGRID
       NGRIDS  5
       CUTOFF     1.2000000000000000E+03
     &END MGRID
     &XC
       DENSITY_CUTOFF     1.0000000000000000E-10
       GRADIENT_CUTOFF     1.0000000000000000E-10
       TAU_CUTOFF     1.0000000000000000E-10
       &XC_FUNCTIONAL  NO_SHORTCUT
         &PBE  T
         &END PBE
       &END XC_FUNCTIONAL
       &VDW_POTENTIAL
         POTENTIAL_TYPE  PAIR_POTENTIAL
         &PAIR_POTENTIAL
           R_CUTOFF     1.0000000000000004E+01
           TYPE  DFTD3
           PARAMETER_FILE_NAME dftd3.dat
           REFERENCE_FUNCTIONAL PBE
           EPS_CN     9.9999999999999995E-07
           CALCULATE_C9_TERM  T
           REFERENCE_C9_TERM  T
           LONG_RANGE_CORRECTION  F
           VERBOSE_OUTPUT  F
         &END PAIR_POTENTIAL
       &END VDW_POTENTIAL
     &END XC
   &END DFT
   &SUBSYS
     &CELL
       A     1.2864472766435110E+01    0.0000000000000000E+00    0.0000000000000000E+00
       B    -6.4322363581020028E+00    1.1140960178524473E+01    0.0000000000000000E+00
       C     0.0000000000000000E+00    0.0000000000000000E+00    3.2000000000000000E+01
       MULTIPLE_UNIT_CELL  1 1 1
       &CELL_REF
         A     1.2982353780853531E+01    0.0000000000000000E+00    0.0000000000000000E+00
         B    -6.4911768904267628E+00    1.1243048175136114E+01    0.0000000000000000E+00
         C     0.0000000000000000E+00    0.0000000000000000E+00    3.2000000000000000E+01
         MULTIPLE_UNIT_CELL  1 1 1
       &END CELL_REF
     &END CELL
     &COORD
N    4.2139653985178464E-03    2.0469269582338994E+00    2.5119498182044540E+00
Ga   -1.2556270554395399E-02    9.4979068214229329E-02    2.9057369901871715E+00
N    2.0321381761754711E-02    6.0585658660635401E-02    5.0506337352137889E+00
Ga    8.5045206331092835E-03    1.8858212600985229E+00    5.8229890214029334E+00
N   -3.7341490378272682E-03    1.8942393387012313E+00    7.8135048416590038E+00
Ga   -5.2726705675654505E-03    4.6288788485254986E-02    8.4434287328020670E+00
N   -2.4448658624126574E-03    4.5522980850455801E-02    1.0417530956644995E+01
Ga   -1.1366456460605062E-03    1.8862116552676342E+00    1.1070847162259776E+01
N   -1.8595440239736253E-03    1.8666895240731498E+00    1.3065488825398008E+01
Ga   -9.4672428331884313E-04    4.7742457386597131E-02    1.3868104846932768E+01
N   -1.0667010491891013E-03    4.8654796382587844E-02    1.6070941157415419E+01
Ga   -1.0845899049434823E-03    2.0930459914837432E+00    1.6479669057304431E+01
Ga    6.3712745742148122E-02    3.7800178969293325E+00    1.3803529976097850E+00
N   -1.4801091700060929E+00    4.6130775680844458E+00    2.4947330622486188E+00
Ga   -1.6050098241475550E+00    2.8286950450875805E+00    3.3149802618815869E+00
N   -1.6212477759709354E+00    2.8248663624665529E+00    5.2548951662424361E+00
Ga   -1.6245956073322247E+00    4.7066392705142199E+00    5.8116513927408961E+00
N   -1.6217556118730636E+00    4.6935346493495302E+00    7.8050845300721852E+00
Ga   -1.6016022384349451E+00    2.8384902021035963E+00    8.4457755792372886E+00
N   -1.5995958981289560E+00    2.8395384483696011E+00    1.0436755393250285E+01
Ga   -1.6248739556003249E+00    4.6997592513342958E+00    1.1071885634122440E+01
N   -1.6422081210503729E+00    4.7079401437733104E+00    1.3066559550373773E+01
Ga   -1.5987899811972510E+00    2.8382921090221380E+00    1.3620496719169113E+01
N   -1.6246603472595773E+00    2.8220942560197200E+00    1.5583475944949630E+01
Ga   -1.4529502873571345E+00    4.5995498123289957E+00    1.6478746216653317E+01
N   -1.5364384641329933E-03    3.7706006022693472E+00    1.7611970878889291E+01
N   -3.2122455609900058E+00    7.6020839386175343E+00    2.5272636309789833E+00
Ga   -3.1878618018940807E+00    5.5807715599582357E+00    2.8683804552479217E+00
N   -3.2090995053091418E+00    5.6202899867352327E+00    5.0242117129596853E+00
Ga   -3.2051503573981552E+00    7.4361558740904270E+00    5.8080946743550355E+00
N   -3.2205503671095617E+00    7.4656055788930278E+00    7.7944902172815533E+00
Ga   -3.2189527079627300E+00    5.6160424973514527E+00    8.4436810358566987E+00
N   -3.2192015950322417E+00    5.6185023299878996E+00    1.0417177098629269E+01
Ga   -3.2172578850956737E+00    7.4577890292411126E+00    1.1069455890838602E+01
N   -3.2176991543670610E+00    7.4384638704612600E+00    1.3063433937247391E+01
Ga   -3.2173913468866906E+00    5.6187896684590068E+00    1.3868913629118179E+01
N   -3.2178234905797880E+00    5.6200343280091110E+00    1.6070938112072348E+01
Ga   -3.2171753285374973E+00    7.6643520149043916E+00    1.6481768867829583E+01
Ga   -3.1473012844812875E+00    9.3625953822821160E+00    1.5146886519693206E+00
N   -4.7111835788086038E+00    1.0199244559291502E+01    2.5035155849809536E+00
Ga   -4.8133192740330131E+00    8.4309559976826431E+00    3.3409105860184720E+00
N   -4.8466846480132162E+00    8.3944075288213504E+00    5.2456244393698661E+00
Ga   -4.8481561702880738E+00    1.0290878234300791E+01    5.8238543524909376E+00
N   -4.8313082779031804E+00    1.0261442255799540E+01    7.8056414571380852E+00
Ga   -4.8197541002456576E+00    8.4051339353769325E+00    8.4396970694623192E+00
N   -4.8159962085560908E+00    8.4080224129055736E+00    1.0429267095552653E+01
Ga   -4.8406091468984922E+00    1.0268286837183382E+01    1.1069537404563235E+01
N   -4.8571178310218812E+00    1.0277592081991333E+01    1.3064114182162738E+01
Ga   -4.8136555469353306E+00    8.4094667619995143E+00    1.3622730758393141E+01
N   -4.8407508462038571E+00    8.3927259761828807E+00    1.5584425362679125E+01
Ga   -4.6676546427586798E+00    1.0169138928158491E+01    1.6481043834663051E+01
N   -3.2168392215029606E+00    9.3405276462335607E+00    1.7614532239852714E+01
N    3.2009408620555924E+00    1.9205852758190185E+00    2.6144602383604831E+00
Ga    3.2248398898976660E+00    1.8980793437187918E-01    3.2993788647088200E+00
N    3.2173791365506035E+00    4.5761576313462123E-02    5.2564006419782947E+00
Ga    3.2230020887255351E+00    1.9185566068478264E+00    5.8745126626542259E+00
N    3.2200773412155401E+00    1.9040908266741585E+00    7.8539277780487415E+00
Ga    3.2200900635838794E+00    3.9795392733840598E-02    8.4451014256229193E+00
N    3.2151451445976535E+00    3.4787523687868548E-02    1.0436579889882863E+01
Ga    3.2160026505486679E+00    1.9043672984694584E+00    1.1032819503129488E+01
N    3.2156161076266900E+00    1.9036336230051201E+00    1.3004486313986757E+01
Ga    3.2156149416435795E+00    3.3368942229718382E-02    1.3621462247055488E+01
N    3.2147180168848806E+00    6.6056002955826684E-02    1.5584955292836359E+01
Ga    3.2150111661988303E+00    1.9044377596034510E+00    1.5860263363330201E+01
N    1.4764799650660134E+00    4.6096349098943605E+00    2.5548904902372676E+00
Ga    1.6908445878207183E+00    2.8069839782445754E+00    3.3101366810857340E+00
N    1.6092763666224175E+00    2.8309102972792095E+00    5.2774407295305856E+00
Ga    1.6473928192889002E+00    4.7125131441752774E+00    5.8178501315317259E+00
N    1.6068842820878311E+00    4.6899478245685575E+00    7.8299374993867854E+00
Ga    1.5999130002738551E+00    2.8392272977912398E+00    8.4483035137334870E+00
N    1.5971785746846148E+00    2.8357132576037403E+00    1.0442534924239377E+01
Ga    1.6231654660809534E+00    4.7001696710295615E+00    1.1065976666609776E+01
N    1.6389432935674353E+00    4.7083056686264415E+00    1.3064282649794233E+01
Ga    1.5952470537391048E+00    2.8396291925701589E+00    1.3619974197550693E+01
N    1.6216309329326504E+00    2.8224159071213966E+00    1.5583365583914640E+01
Ga    1.4505736659937631E+00    4.5994580164541068E+00    1.6478356243839137E+01
N    7.5485558419948213E-03    7.4544751971128393E+00    2.6000311809965320E+00
Ga    2.4034005840972011E-02    5.7051482603444343E+00    3.2976397586700741E+00
N   -2.9734879753841683E-03    5.6186647430257661E+00    5.2675276215561055E+00
Ga    2.1314889549844267E-02    7.4745988988178240E+00    5.8644783832227487E+00
N    1.8594250088057281E-03    7.4778666387062493E+00    7.8467383586550721E+00
Ga   -6.0267450494285466E-04    5.6092794637075993E+00    8.4439627363792855E+00
N   -4.5999512054522010E-03    5.6084325548559795E+00    1.0439831033676660E+01
Ga   -9.4984048317553406E-04    7.4771161200432381E+00    1.1028094719810987E+01
N   -1.3357869828021028E-03    7.4760788772081712E+00    1.3001110866927526E+01
Ga   -7.0152778174222582E-04    5.6050235378117348E+00    1.3619665256722264E+01
N   -1.2864280167751189E-03    5.6368479666320077E+00    1.5584375157800350E+01
Ga   -1.1154291665633133E-03    7.4749746863963002E+00    1.5860769191923360E+01
N   -1.7021830264435245E+00    1.0205862484700877E+01    2.5500469750656398E+00
Ga   -1.4732364638761450E+00    8.3371458906779008E+00    3.2998196867356806E+00
N   -1.6079189562109191E+00    8.4037505841960130E+00    5.2548321056181626E+00
Ga   -1.5785655806687857E+00    1.0276424019200686E+01    5.8108690916454515E+00
N   -1.5998076405923107E+00    1.0264861624988411E+01    7.8036371277310685E+00
Ga   -1.6135175935335473E+00    8.4082638835651284E+00    8.4372722146971650E+00
N   -1.6214664918768127E+00    8.4092814753132039E+00    1.0431132919783572E+01
Ga   -1.5918445019599285E+00    1.0268921489014133E+01    1.1068058317433204E+01
N   -1.5764723957930789E+00    1.0278405706880063E+01    1.3063616875221467E+01
Ga   -1.6204460072561082E+00    8.4097584633463711E+00    1.3620820184153766E+01
N   -1.5943915967978524E+00    8.3926939580148403E+00    1.5583240518506939E+01
Ga   -1.7665572072627540E+00    1.0169168390888531E+01    1.6480251001986744E+01
N    6.4268963994676485E+00    2.0178150079113490E+00    2.5175173955499828E+00
Ga    6.4610614629874101E+00    5.6968200273242349E-02    2.8976599473202351E+00
N    6.4265728673743743E+00    5.0742352863941062E-02    5.0416757213274348E+00
Ga    6.4240743781464174E+00    1.8788291009293732E+00    5.7977294884238049E+00
N    6.4336436039044154E+00    1.8959272687832307E+00    7.7945200609157670E+00
Ga    6.4385412771699420E+00    4.7652471710680072E-02    8.4359113872241736E+00
N    6.4336343101535967E+00    4.7866378111499290E-02    1.0414319058205232E+01
Ga    6.4332670290573404E+00    1.8862507687818897E+00    1.1069489005130080E+01
N    6.4326091921934898E+00    1.8673415764333288E+00    1.3064081464010783E+01
Ga    6.4317491534094362E+00    4.8014254735404577E-02    1.3866960914939426E+01
N    6.4308056793014456E+00    4.9069893643966758E-02    1.6070504087194980E+01
Ga    6.4306472905326402E+00    2.0939731293868324E+00    1.6481396352668568E+01
Ga    6.3888417543980012E+00    3.6588235774345423E+00    1.1922012284699741E+00
N    4.9154110775719344E+00    4.6166024753464541E+00    2.3996993222135838E+00
Ga    4.7316331700908068E+00    2.8047474595146547E+00    3.2454508868980820E+00
N    4.8296947731459738E+00    2.8415679281941846E+00    5.2304116033907357E+00
Ga    4.7687682001378997E+00    4.7074087567320504E+00    5.8182629625866982E+00
N    4.8301254490930940E+00    4.6890105134138702E+00    7.8199018212701308E+00
Ga    4.8373762647034857E+00    2.8367582040068888E+00    8.4476751822740681E+00
N    4.8356410699620556E+00    2.8370379755511856E+00    1.0440420594985429E+01
Ga    4.8077598657725096E+00    4.7000071254869171E+00    1.1067408680412560E+01
N    4.7924483478156814E+00    4.7081762910438574E+00    1.3064128389601890E+01
Ga    4.8356312869435163E+00    2.8392683571884390E+00    1.3620440433498933E+01
N    4.8080852955495370E+00    2.8223940121182363E+00    1.5583119949982564E+01
Ga    4.9800451685687914E+00    4.5984818222739818E+00    1.6480415027769759E+01
N    6.4307500821660062E+00    3.7700005249034945E+00    1.7614335297920537E+01
N    3.1885609799382428E+00    7.5523476775914560E+00    2.3884068319976470E+00
N    3.2168057414748898E+00    5.6090483193058089E+00    5.1502383024493597E+00
Ga    3.1990969913597307E+00    7.4110290668720786E+00    5.8030694748771046E+00
N    3.2191881670061275E+00    7.4792828115827072E+00    7.8093789978231607E+00
Ga    3.2162950599724942E+00    5.6197260201468451E+00    8.4325801152633080E+00
N    3.2170821562029532E+00    5.6198031240817352E+00    1.0417757960801490E+01
Ga    3.2150203970266276E+00    7.4578891890192587E+00    1.1064928351925724E+01
N    3.2155478986312325E+00    7.4392963186805510E+00    1.3062001259115062E+01
Ga    3.2153072409405699E+00    5.6189117995390685E+00    1.3864188988793959E+01
N    3.2151187429924435E+00    5.6197589152342395E+00    1.6070636764620318E+01
Ga    3.2144466831830498E+00    7.6629786501125858E+00    1.6480037900054040E+01
Ga    2.8594133808594222E+00    9.3708216216543683E+00    8.5326739765863358E-01
N    1.6788892752580744E+00    1.0206864052311010E+01    2.4856725673475406E+00
Ga    1.5500790956906081E+00    8.3463690305882690E+00    3.2039534105375886E+00
N    1.6178633268041056E+00    8.4018975532344022E+00    5.2115661791186838E+00
Ga    1.5898002136044016E+00    1.0266381226789523E+01    5.7726422261446384E+00
N    1.6022920581465334E+00    1.0266822385316175E+01    7.7804683370546925E+00
Ga    1.6183499469537643E+00    8.4144144438926123E+00    8.4360846707109829E+00
N    1.6168130813478492E+00    8.4123943648780131E+00    1.0433080069452549E+01
Ga    1.5931648672453635E+00    1.0269389880290566E+01    1.1068653656304621E+01
N    1.5759434291645580E+00    1.0279190015973041E+01    1.3064050518138643E+01
Ga    1.6189192187807111E+00    8.4097480093046357E+00    1.3619488140489043E+01
N    1.5920292744605493E+00    8.3929379103252462E+00    1.5582572638143846E+01
Ga    1.7628878046228780E+00    1.0169331425943247E+01    1.6479399711195715E+01
N    3.2141235062217985E+00    9.3403211380495588E+00    1.7612908462314834E+01
N    9.6511096025349747E+00    1.9083218465414034E+00    2.6640314255776918E+00
Ga    9.6529643470127908E+00    2.4948710976106989E-02    3.2108499943379698E+00
N    9.6515927308469127E+00    5.9878844650537250E-02    5.1946292177902587E+00
Ga    9.6464082505409738E+00    1.8915924646851652E+00    5.8770985196670020E+00
N    9.6467650701458325E+00    1.9018642884099140E+00    7.8458979806977869E+00
Ga    9.6467128149010222E+00    3.1596823537671688E-02    8.4307625138376459E+00
N    9.6491297567535081E+00    3.4637200068249545E-02    1.0426493307816022E+01
Ga    9.6463078163148879E+00    1.9039461681043652E+00    1.1025614192578436E+01
N    9.6464431278132405E+00    1.9036618650211783E+00    1.2998206277266684E+01
Ga    9.6469796375882950E+00    3.4767979253348839E-02    1.3622182870704311E+01
N    9.6471744374417607E+00    6.6592029217965865E-02    1.5585686783343856E+01
Ga    9.6471293911220730E+00    1.9043990850990080E+00    1.5864086755118333E+01
N    7.9532003600946064E+00    4.6301795346439549E+00    2.5058194635864215E+00
Ga    8.0415245448382642E+00    2.8263994026509831E+00    3.2862371655688007E+00
N    8.0519033148274630E+00    2.8274396709841323E+00    5.2334618897719691E+00
Ga    8.0699935142652333E+00    4.7069909512162189E+00    5.7881944594208683E+00
N    8.0464211234510152E+00    4.6978959049523974E+00    7.7818087679512198E+00
Ga    8.0287304065391201E+00    2.8391979342686380E+00    8.4337173820000526E+00
N    8.0291292753837471E+00    2.8414556206845476E+00    1.0427906674900960E+01
Ga    8.0548159496282281E+00    4.6984638217507877E+00    1.1072802400280565E+01
N    8.0711828007989688E+00    4.7074627133834950E+00    1.3066151743764280E+01
Ga    8.0284034367909918E+00    2.8382552605729692E+00    1.3622162904190677E+01
N    8.0546434299400254E+00    2.8221369807261238E+00    1.5584241393390506E+01
Ga    7.8811988284702092E+00    4.5986303683496237E+00    1.6481270862952428E+01
N    6.5922242006006462E+00    7.3693103208638133E+00    2.4474557635168397E+00
Ga    6.3863324540922717E+00    5.5256801262283872E+00    3.2762046764695656E+00
N    6.4255981403936797E+00    5.6275091631259855E+00    5.2047857455125692E+00
Ga    6.4047962023733342E+00    7.4645768071089167E+00    5.8628422743075808E+00
N    6.4259053781651074E+00    7.4741802589833135E+00    7.8283261167054947E+00
Ga    6.4325890935410310E+00    5.6059541036520182E+00    8.4448118842395026E+00
N    6.4354489224834799E+00    5.6094977958225538E+00    1.0435293781664543E+01
Ga    6.4311784703708685E+00    7.4765093036318175E+00    1.1032214927006532E+01
N    6.4313468782200420E+00    7.4754783983180424E+00    1.3002360722445154E+01
Ga    6.4309941615076953E+00    5.6045089304734628E+00    1.3622313883384948E+01
N    6.4309765393945906E+00    5.6371933309230435E+00    1.5585542398428798E+01
Ga    6.4307512017045712E+00    7.4748523319853488E+00    1.5862848925351036E+01
N    4.7920778839057458E+00    1.0245213783059748E+01    2.4915815692129555E+00
Ga    4.5607493617178232E+00    8.5243421879300474E+00    3.2661930902724605E+00
N    4.8270248782198735E+00    8.3953645990080830E+00    5.1805210190923008E+00
Ga    4.8543192018274466E+00    1.0288099058767337E+01    5.7757192611474917E+00
N    4.8331469206943343E+00    1.0262400850955059E+01    7.7746033584040415E+00
Ga    4.8104776608476154E+00    8.4126176365821692E+00    8.4404788151545613E+00
N    4.8164103005683669E+00    8.4122053450764369E+00    1.0432251686229627E+01
Ga    4.8375646429740247E+00    1.0269398924351197E+01    1.1071966417481761E+01
N    4.8544379293892446E+00    1.0278650580937665E+01    1.3065686023255338E+01
Ga    4.8108227708555340E+00    8.4094904348119854E+00    1.3621589711109843E+01
N    4.8378357296357537E+00    8.3928207288559022E+00    1.5583947877890951E+01
Ga    4.6659680558621082E+00    1.0169217757965747E+01    1.6480115774633795E+01
O    6.3802675338790649E-01    3.9659305841252008E+00   -3.7739552755653272E-01
H    2.5802262377038510E+00    6.4761101628241287E+00   -5.8563851787673489E-02
C    9.8595689110105011E-01    2.7516444429075699E+00   -1.0751278020841710E+00
H    1.7007300326888657E+00    2.1375859369283701E+00   -5.0218450964314909E-01
H    9.3698175942821094E-02    2.1449559972001695E+00   -1.2927983496810955E+00
H    1.4516084775191531E+00    3.0369042383480371E+00   -2.0294104137390794E+00
Ga    3.1624618819259789E+00    5.5841591439565548E+00    2.3536015553322214E+00
O    2.8670514696419214E+00    5.5641858770688177E+00    1.3782390429579808E-01
H    2.0714384712783747E+00    4.9831617911384658E+00   -8.0532173865404524E-02
C    6.3174839127395011E+00    7.5531271445576111E+00    1.2019709441706063E+00
H    9.6644363599308249E+00    1.9462599105496812E+00    1.6378056574898880E+00
H    6.6482140423150993E+00    8.4572288722576268E+00    6.7189410388608761E-01
H    5.7107033631135637E+00    6.8266444898789729E+00    6.4136061663219213E-01
     &END COORD
     &KIND C
       BASIS_SET DZVP-MOLOPT-SR-GTH-q4
       POTENTIAL GTH-PBE-q4
       &POTENTIAL
 2 2
  0.3384712400000000E+00 2 -0.8803673979999999E+01  0.1339210850000000E+01
 2
  0.3025757500000000E+00 1  0.9622486650000001E+01
  0.2915069400000000E+00 0
         # Potential name:  GTH-PBE-Q4  for symbol:  C
         # Potential read from the potential filename: GTH_POTENTIALS
       &END POTENTIAL
     &END KIND
     &KIND O
       BASIS_SET DZVP-MOLOPT-SR-GTH-q6
       POTENTIAL GTH-PBE-q6
       &POTENTIAL
 2 4
  0.2445543000000000E+00 2 -0.1666721480000000E+02  0.2487311320000000E+01
 2
  0.2209559200000000E+00 1  0.1833745811000000E+02
  0.2113324700000000E+00 0
         # Potential name:  GTH-PBE-Q6  for symbol:  O
         # Potential read from the potential filename: GTH_POTENTIALS
       &END POTENTIAL
     &END KIND
     &KIND H
       BASIS_SET DZVP-MOLOPT-SR-GTH-q1
       POTENTIAL GTH-PBE-q1
       &POTENTIAL
 1
  0.2000000000000000E+00 2 -0.4178900440000000E+01  0.7244633100000000E+00
 0
         # Potential name:  GTH-PBE-Q1  for symbol:  H
         # Potential read from the potential filename: GTH_POTENTIALS
       &END POTENTIAL
     &END KIND
     &KIND N
       BASIS_SET DZVP-MOLOPT-SR-GTH
       POTENTIAL GTH-PBE-q5
       &POTENTIAL
 2 3
  0.2837905100000000E+00 2 -0.1241522559000000E+02  0.1868095920000000E+01
 2
  0.2554050000000000E+00 1  0.1363026257000000E+02
  0.2454945300000000E+00 0
         # Potential name:  GTH-PBE-Q5  for symbol:  N
         # Potential read from the potential filename: GTH_POTENTIALS
       &END POTENTIAL
     &END KIND
     &KIND Ga
       BASIS_SET DZVP-MOLOPT-SR-GTH
       POTENTIAL GTH-PBE-q13
       &POTENTIAL
 2 1 10
  0.4900000000000000E+00 0
 3
  0.4167772300000000E+00 3  0.1047568975000000E+02 -0.4921768140000000E+01  0.8707055900000000E+00
  0.7770178090000000E+01 -0.2248152160000000E+01
  0.1784415450000000E+01
  0.5696265200000000E+00 2  0.1777985340000000E+01  0.1958597600000000E+00
 -0.2317443900000000E+00
  0.2381265000000000E+00 1 -0.1624868022000000E+02
         # Potential name:  GTH-PBE-Q13  for symbol:  GA
         # Potential read from the potential filename: GTH_POTENTIALS
       &END POTENTIAL
     &END KIND
     &TOPOLOGY
       NUMBER_OF_ATOMS  212
       MULTIPLE_UNIT_CELL  1 1 1
     &END TOPOLOGY
   &END SUBSYS
 &END FORCE_EVAL
