 # Version information for this restart file 
 # current date 2019-06-30 09:22:07.922
 # current working dir /scratch/rzk/rzk/GaN-carbene/443-adatoms-both-2x2/08-CH3O-H2O-H2C-H/01-Use-0701
 # Program compiled at                              Sun Apr  7 00:48:11 EDT 2019
 # Program compiled on                          beluga2.int.ets1.calculquebec.ca
 # Program compiled for                        Beluga-Linux-x86-64-intel-openmpi
 # Source code revision number                                         svn:18619
 &GLOBAL
   PRINT_LEVEL  MEDIUM
   PROJECT_NAME TEST
   RUN_TYPE  GEO_OPT
 &END GLOBAL
 &MOTION
   &GEO_OPT
     MAX_ITER  500
     STEP_START_VAL  46
   &END GEO_OPT
 &END MOTION
 &FORCE_EVAL
   METHOD  QS
   STRESS_TENSOR  ANALYTICAL
   &DFT
     BASIS_SET_FILE_NAME BASIS_MOLOPT
     POTENTIAL_FILE_NAME GTH_POTENTIALS
     UKS  T
     SURFACE_DIPOLE_CORRECTION  T
     SURF_DIP_DIR  Z
     &SCF
       MAX_SCF  80
       EPS_SCF     5.0000000000000004E-06
       &OT  T
         PRECONDITIONER  FULL_ALL
       &END OT
       &OUTER_SCF  T
         OPTIMIZER  NONE
         EPS_SCF     5.0000000000000004E-06
         MAX_SCF  4
       &END OUTER_SCF
       &PRINT
         &RESTART  OFF
           BACKUP_COPIES  1
           &EACH
             JUST_ENERGY  0
             QS_SCF  0
             MD  20
           &END EACH
         &END RESTART
       &END PRINT
     &END SCF
     &QS
       EPS_DEFAULT     1.0000000000000000E-14
       METHOD  GPW
     &END QS
     &MGRID
       NGRIDS  5
       CUTOFF     1.2000000000000000E+03
     &END MGRID
     &XC
       DENSITY_CUTOFF     1.0000000000000000E-10
       GRADIENT_CUTOFF     1.0000000000000000E-10
       TAU_CUTOFF     1.0000000000000000E-10
       &XC_FUNCTIONAL  NO_SHORTCUT
         &PBE  T
         &END PBE
       &END XC_FUNCTIONAL
       &VDW_POTENTIAL
         POTENTIAL_TYPE  PAIR_POTENTIAL
         &PAIR_POTENTIAL
           R_CUTOFF     1.0000000000000004E+01
           TYPE  DFTD3
           PARAMETER_FILE_NAME dftd3.dat
           REFERENCE_FUNCTIONAL PBE
           EPS_CN     9.9999999999999995E-07
           CALCULATE_C9_TERM  T
           REFERENCE_C9_TERM  T
           LONG_RANGE_CORRECTION  F
           VERBOSE_OUTPUT  F
         &END PAIR_POTENTIAL
       &END VDW_POTENTIAL
     &END XC
   &END DFT
   &SUBSYS
     &CELL
       A     1.2864472766435110E+01    0.0000000000000000E+00    0.0000000000000000E+00
       B    -6.4322363581020028E+00    1.1140960178524473E+01    0.0000000000000000E+00
       C     0.0000000000000000E+00    0.0000000000000000E+00    3.2000000000000000E+01
       MULTIPLE_UNIT_CELL  1 1 1
       &CELL_REF
         A     1.2982353780853531E+01    0.0000000000000000E+00    0.0000000000000000E+00
         B    -6.4911768904267628E+00    1.1243048175136114E+01    0.0000000000000000E+00
         C     0.0000000000000000E+00    0.0000000000000000E+00    3.2000000000000000E+01
         MULTIPLE_UNIT_CELL  1 1 1
       &END CELL_REF
     &END CELL
     &COORD
N    4.0704606103695836E-03    2.0467754788824730E+00    2.5123697101501445E+00
Ga   -1.2858846444269854E-02    9.4802703974310468E-02    2.9061324809525213E+00
N    2.0203618888735394E-02    6.0404381852453469E-02    5.0512290048669550E+00
Ga    8.3064473830466931E-03    1.8855928267283095E+00    5.8234853780780389E+00
N   -3.9122136470035561E-03    1.8940784848177341E+00    7.8139429071267044E+00
Ga   -5.4003644145628003E-03    4.6157572502479698E-02    8.4434448741024433E+00
N   -2.5866882249722346E-03    4.5544517529991321E-02    1.0417599578712444E+01
Ga   -1.2933702051140419E-03    1.8862535851635518E+00    1.1070747469818617E+01
N   -1.9432880786241227E-03    1.8668705168731330E+00    1.3065615332931397E+01
Ga   -9.7321738390176201E-04    4.7810091589799868E-02    1.3867832009576947E+01
N   -1.2039385196521695E-03    4.8792597280025565E-02    1.6071068844551228E+01
Ga   -1.1768386977937723E-03    2.0929853860421814E+00    1.6479822830267626E+01
Ga    6.3208754922397109E-02    3.7798443241299311E+00    1.3808205856498799E+00
N   -1.4803911405856864E+00    4.6129975674687147E+00    2.4955132440786065E+00
Ga   -1.6051281358866776E+00    2.8285472423792091E+00    3.3157025977668981E+00
N   -1.6214075909558172E+00    2.8246112819739593E+00    5.2555836449959870E+00
Ga   -1.6247415844495170E+00    4.7063759133332406E+00    5.8121040926994185E+00
N   -1.6219221782777546E+00    4.6932909482691834E+00    7.8054985764480325E+00
Ga   -1.6017773861682743E+00    2.8382776304960275E+00    8.4458447989234973E+00
N   -1.5997618903902597E+00    2.8394359795439805E+00    1.0436848656531717E+01
Ga   -1.6249812537111346E+00    4.6996347714813833E+00    1.1071822997195522E+01
N   -1.6422409689544468E+00    4.7079300849745680E+00    1.3066787249318036E+01
Ga   -1.5989441342942621E+00    2.8382738698899410E+00    1.3620626028855357E+01
N   -1.6246392528439575E+00    2.8222354306325044E+00    1.5583928120380985E+01
Ga   -1.4533928766423403E+00    4.5998223101134439E+00    1.6478922783674154E+01
N   -1.6285533092498462E-03    3.7708920507037509E+00    1.7612469280601186E+01
N   -3.2120798824465449E+00    7.6023285785537587E+00    2.5281335207281823E+00
Ga   -3.1882164891043856E+00    5.5805991506133221E+00    2.8691056003122943E+00
N   -3.2092598956058520E+00    5.6203133484980548E+00    5.0248710023083518E+00
Ga   -3.2052341505678523E+00    7.4361609307434637E+00    5.8085623273985050E+00
N   -3.2206666510488242E+00    7.4655108887950981E+00    7.7948510715979662E+00
Ga   -3.2191292645178664E+00    5.6159057458963089E+00    8.4436770165553980E+00
N   -3.2192918091843823E+00    5.6184375878616448E+00    1.0417243416741112E+01
Ga   -3.2173301297101591E+00    7.4577909828435347E+00    1.1069413751897489E+01
N   -3.2177808106565995E+00    7.4386495466193887E+00    1.3063580375773499E+01
Ga   -3.2175580475884482E+00    5.6189361081979499E+00    1.3868796109813603E+01
N   -3.2179586084971752E+00    5.6202124156038922E+00    1.6071103144879004E+01
Ga   -3.2172552411974267E+00    7.6644000079220129E+00    1.6482302065342502E+01
Ga   -3.1467174121007226E+00    9.3629526925856741E+00    1.5155151255195296E+00
N   -4.7110823992833870E+00    1.0199130620426097E+01    2.5041145320471290E+00
Ga   -4.8131535335682338E+00    8.4309240096728502E+00    3.3413844830974795E+00
N   -4.8466275343066743E+00    8.3943939692387222E+00    5.2458839231327437E+00
Ga   -4.8482791029133301E+00    1.0290810041938563E+01    5.8242653196357708E+00
N   -4.8314443583004065E+00    1.0261413434921778E+01    7.8059602701620348E+00
Ga   -4.8198924857858989E+00    8.4050724197041013E+00    8.4396475108632547E+00
N   -4.8160928688997133E+00    8.4080583106011826E+00    1.0429292381567173E+01
Ga   -4.8406717256327845E+00    1.0268357733470634E+01    1.1069476554053820E+01
N   -4.8571217823893162E+00    1.0277674995170822E+01    1.3064206082819025E+01
Ga   -4.8137219086298328E+00    8.4096113002305142E+00    1.3623019152904915E+01
N   -4.8407892899369971E+00    8.3929033981127770E+00    1.5584904404692059E+01
Ga   -4.6678418650321696E+00    1.0169322925196949E+01    1.6481534198536181E+01
N   -3.2169485235876274E+00    9.3407291244636212E+00    1.7615155028507235E+01
N    3.2010886331040642E+00    1.9204250257205862E+00    2.6147306370715171E+00
Ga    3.2251208180412307E+00    1.8994858862379019E-01    3.3000803696686134E+00
N    3.2173020364269513E+00    4.5679249216643202E-02    5.2569520723713721E+00
Ga    3.2231361506145588E+00    1.9186109550432031E+00    5.8745966682986621E+00
N    3.2199717098484180E+00    1.9040362342292709E+00    7.8540642545011785E+00
Ga    3.2198894781644065E+00    3.9808872641843275E-02    8.4450559488351669E+00
N    3.2150556662913923E+00    3.4875922778239983E-02    1.0436575083518388E+01
Ga    3.2159006994267698E+00    1.9044083494944903E+00    1.1032844716395315E+01
N    3.2155815717027285E+00    1.9037306750225302E+00    1.3004688387484913E+01
Ga    3.2155290560155763E+00    3.3493875621770114E-02    1.3621690912079741E+01
N    3.2145877109005450E+00    6.6162280897677714E-02    1.5585396593536723E+01
Ga    3.2149907303410403E+00    1.9045997675345563E+00    1.5861148833782694E+01
N    1.4762623527767977E+00    4.6094021296248249E+00    2.5552986929754620E+00
Ga    1.6909740708714016E+00    2.8068014893744926E+00    3.3105807752423750E+00
N    1.6091696835556148E+00    2.8306179604289308E+00    5.2779410983711985E+00
Ga    1.6470697098351865E+00    4.7122269705750135E+00    5.8182921191316366E+00
N    1.6067099989585349E+00    4.6897964248722390E+00    7.8304289873147210E+00
Ga    1.5997715820861533E+00    2.8389943248763370E+00    8.4482903577662150E+00
N    1.5970562324170248E+00    2.8356579008570262E+00    1.0442583238728602E+01
Ga    1.6230259895016605E+00    4.7000954190545654E+00    1.1065913324065445E+01
N    1.6388402576097052E+00    4.7083175772180814E+00    1.3064489265803740E+01
Ga    1.5952210810485621E+00    2.8396385100140744E+00    1.3620046117561388E+01
N    1.6213879896409942E+00    2.8225935864185114E+00    1.5583748460683315E+01
Ga    1.4507722957856590E+00    4.5997005187219218E+00    1.6478460091210337E+01
N    7.5753003534128451E-03    7.4544941123477173E+00    2.6007796024195882E+00
Ga    2.3905942126800483E-02    5.7049994190669011E+00    3.2982119844390989E+00
N   -3.1697577397483481E-03    5.6185113558850199E+00    5.2681720431972563E+00
Ga    2.1044471530912340E-02    7.4743885696062371E+00    5.8650117933562482E+00
N    1.6658246010975545E-03    7.4777509579453056E+00    7.8472065436185643E+00
Ga   -8.4751598340427009E-04    5.6091765036062444E+00    8.4441266890447277E+00
N   -4.7189559271783692E-03    5.6084261736958396E+00    1.0440030362711056E+01
Ga   -1.0220342226386053E-03    7.4771392932555116E+00    1.1028162521252177E+01
N   -1.4017936814071708E-03    7.4762047368141902E+00    1.3001451873764131E+01
Ga   -7.6964195734630591E-04    5.6051290964811615E+00    1.3619726484132201E+01
N   -1.3660227042434127E-03    5.6367973969368812E+00    1.5584825275858293E+01
Ga   -1.2397765849967654E-03    7.4751460566725010E+00    1.5861630310408774E+01
N   -1.7018519794871847E+00    1.0206054834646647E+01    2.5511170560149203E+00
Ga   -1.4731245558404480E+00    8.3373140015749314E+00    3.3004896705817117E+00
N   -1.6081072570483717E+00    8.4037506506368729E+00    5.2553837341770739E+00
Ga   -1.5787471506339550E+00    1.0276314055637320E+01    5.8113425543132671E+00
N   -1.6000667785868812E+00    1.0264753585166142E+01    7.8040191838576449E+00
Ga   -1.6136678773266520E+00    8.4081609093584131E+00    8.4374055870938651E+00
N   -1.6215193621934809E+00    8.4093130877892719E+00    1.0431268929447739E+01
Ga   -1.5919799707749029E+00    1.0268973330624876E+01    1.1068008684738132E+01
N   -1.5766126772230455E+00    1.0278510833065916E+01    1.3063735431308020E+01
Ga   -1.6205571875470868E+00    8.4099177478715923E+00    1.3621076529914211E+01
N   -1.5945437883832865E+00    8.3928343688739719E+00    1.5583673494788902E+01
Ga   -1.7665700000474691E+00    1.0169334533004246E+01    1.6480703755982802E+01
N    6.4272849443589628E+00    2.0176840706818364E+00    2.5176808360149181E+00
Ga    6.4615477771433909E+00    5.7097116163193226E-02    2.8981778048631299E+00
N    6.4262668790275246E+00    5.0767991880404949E-02    5.0424552035451926E+00
Ga    6.4239433822736887E+00    1.8789451733889220E+00    5.7978558194541563E+00
N    6.4334644560742733E+00    1.8957857843248072E+00    7.7947135848587168E+00
Ga    6.4382854884818226E+00    4.7584621672796541E-02    8.4359014831767656E+00
N    6.4335283016587645E+00    4.7870467963974345E-02    1.0414341823825024E+01
Ga    6.4331832231511736E+00    1.8862716763775378E+00    1.1069465921115301E+01
N    6.4325149033300315E+00    1.8674959315620014E+00    1.3064189568150992E+01
Ga    6.4316310340060774E+00    4.8181931427700449E-02    1.3866717211608169E+01
N    6.4307416004947671E+00    4.9232872428203157E-02    1.6070662966255473E+01
Ga    6.4305050423522543E+00    2.0940142675969411E+00    1.6482032157102065E+01
Ga    6.3908373283489750E+00    3.6587652104237889E+00    1.1907811123508587E+00
N    4.9157741819694243E+00    4.6160641011757377E+00    2.3996124000710521E+00
Ga    4.7321949555481542E+00    2.8046287939881940E+00    3.2447600756367807E+00
N    4.8296735165628943E+00    2.8412521537330888E+00    5.2302361705008780E+00
Ga    4.7689370585768431E+00    4.7069004819907923E+00    5.8182239248663778E+00
N    4.8299669843422679E+00    4.6888660788215963E+00    7.8201109224468945E+00
Ga    4.8372308682779837E+00    2.8366232917779626E+00    8.4476152907436983E+00
N    4.8355508476294116E+00    2.8369917194707428E+00    1.0440429452911534E+01
Ga    4.8076947490221826E+00    4.6999443968875569E+00    1.1067419820294354E+01
N    4.7924150028056598E+00    4.7082275014208852E+00    1.3064281100014933E+01
Ga    4.8355826127302581E+00    2.8393612854461838E+00    1.3620742609549612E+01
N    4.8080602519847382E+00    2.8226167747175563E+00    1.5583591210825960E+01
Ga    4.9797406107604525E+00    4.5987269118330740E+00    1.6480996604771800E+01
N    6.4305891841570899E+00    3.7702570199841041E+00    1.7614746764879019E+01
N    3.1888019752643229E+00    7.5522330596361398E+00    2.3889739971318247E+00
N    3.2166847979159132E+00    5.6088125520298009E+00    5.1512801779644315E+00
Ga    3.1990434970385651E+00    7.4109616909673450E+00    5.8036079783646768E+00
N    3.2190810916474022E+00    7.4791458037938003E+00    7.8100096319472945E+00
Ga    3.2162146972567940E+00    5.6195602427832023E+00    8.4326275518801950E+00
N    3.2169700828690155E+00    5.6197674210994037E+00    1.0417941294320167E+01
Ga    3.2149246774413340E+00    7.4579092761500414E+00    1.1064943975014195E+01
N    3.2155047707058166E+00    7.4394220064014442E+00    1.3062220047113948E+01
Ga    3.2153205718494613E+00    5.6189932307701280E+00    1.3864017623415268E+01
N    3.2150308194670019E+00    5.6199792442920335E+00    1.6070807465917685E+01
Ga    3.2143428538556189E+00    7.6627917579172369E+00    1.6480272763805978E+01
Ga    2.8621679237151563E+00    9.3718036901724027E+00    8.5477490997419081E-01
N    1.6792250026435873E+00    1.0206599667439024E+01    2.4867390862523622E+00
Ga    1.5502594597365391E+00    8.3463496367309862E+00    3.2045862610165128E+00
N    1.6176327448627394E+00    8.4016771247270743E+00    5.2122918304432613E+00
Ga    1.5895814749121042E+00    1.0266259079739489E+01    5.7732085416241619E+00
N    1.6020770065114143E+00    1.0266713194865437E+01    7.7810323553877279E+00
Ga    1.6181399103739496E+00    8.4142770577298904E+00    8.4362148012900793E+00
N    1.6167227799387096E+00    8.4124155445763442E+00    1.0433229937356069E+01
Ga    1.5930944928681785E+00    1.0269426928694944E+01    1.1068619501507632E+01
N    1.5759077207452943E+00    1.0279284017292639E+01    1.3064231885906713E+01
Ga    1.6188980279778262E+00    8.4098851668674559E+00    1.3619677501400480E+01
N    1.5920405461010940E+00    8.3930596602121703E+00    1.5583018784786628E+01
Ga    1.7624825808880527E+00    1.0169603396779012E+01    1.6479622779106865E+01
N    3.2140381739550827E+00    9.3404672952319707E+00    1.7613358686833202E+01
N    9.6512281006105258E+00    1.9079609220820586E+00    2.6649081733363076E+00
Ga    9.6528563362839055E+00    2.4693335759025183E-02    3.2122681677302820E+00
N    9.6517029347642005E+00    5.9687269445721142E-02    5.1958371867000066E+00
Ga    9.6462415245295219E+00    1.8915362258032995E+00    5.8776865763369948E+00
N    9.6465510314808469E+00    1.9016640204726096E+00    7.8463920577565842E+00
Ga    9.6465799819800804E+00    3.1425795088154893E-02    8.4307805911214988E+00
N    9.6489690074696295E+00    3.4642839279811335E-02    1.0426547748187522E+01
Ga    9.6461914257389836E+00    1.9038955465604868E+00    1.1025694816450763E+01
N    9.6463040650159133E+00    1.9037329612803404E+00    1.2998505984568100E+01
Ga    9.6469113544434766E+00    3.4872523738968070E-02    1.3622403075813279E+01
N    9.6471270765199417E+00    6.6657822233455510E-02    1.5586198095678549E+01
Ga    9.6469178462288809E+00    1.9045752302867300E+00    1.5865096787299935E+01
N    7.9531015903108653E+00    4.6297902395845121E+00    2.5065785242427499E+00
Ga    8.0414738398352732E+00    2.8262190417595825E+00    3.2865139100584497E+00
N    8.0519158179417261E+00    2.8271416549535262E+00    5.2337851690700150E+00
Ga    8.0697574686283016E+00    4.7066176536868944E+00    5.7883023794717694E+00
N    8.0463160848905257E+00    4.6976644283177276E+00    7.7819753174655339E+00
Ga    8.0285300049843471E+00    2.8390298995228478E+00    8.4337270823825072E+00
N    8.0290323312875103E+00    2.8413264860612766E+00    1.0427976945520221E+01
Ga    8.0547104437571075E+00    4.6983407272437621E+00    1.1072771458053623E+01
N    8.0710284989757355E+00    4.7074923758277274E+00    1.3066303809592876E+01
Ga    8.0282736549963314E+00    2.8383234878147534E+00    1.3622518256394200E+01
N    8.0544312010013446E+00    2.8223256254962283E+00    1.5584787930999427E+01
Ga    7.8812808646658503E+00    4.5989023178283608E+00    1.6481928205804710E+01
N    6.5922087094938240E+00    7.3689446257217757E+00    2.4473443875651602E+00
Ga    6.3860658312074063E+00    5.5251049409052388E+00    3.2762630229836613E+00
N    6.4255655745173774E+00    5.6272986702262937E+00    5.2048931220844299E+00
Ga    6.4049290591098602E+00    7.4642868602098273E+00    5.8630251753905194E+00
N    6.4258223503073326E+00    7.4740101638296501E+00    7.8285685098502968E+00
Ga    6.4325157314147123E+00    5.6057963134507780E+00    8.4446982553823382E+00
N    6.4353433810941389E+00    5.6094563684333378E+00    1.0435311888147718E+01
Ga    6.4310788696036019E+00    7.4765133358239062E+00    1.1032230527032111E+01
N    6.4312750484957668E+00    7.4755688620356668E+00    1.3002631185463139E+01
Ga    6.4309033704536844E+00    5.6045707446965114E+00    1.3622673237961745E+01
N    6.4308475484424319E+00    5.6372579576193109E+00    1.5586096191215963E+01
Ga    6.4307026368752069E+00    7.4749510469537999E+00    1.5863964497263403E+01
N    4.7917192055986835E+00    1.0244718094502112E+01    2.4915347843072064E+00
Ga    4.5614815387025711E+00    8.5238301018631546E+00    3.2665727316099202E+00
N    4.8271050744594426E+00    8.3952178067752303E+00    5.1810841027605621E+00
Ga    4.8544398688184378E+00    1.0287883115847155E+01    5.7765803264815965E+00
N    4.8330199879050015E+00    1.0262244278646108E+01    7.7753190653346786E+00
Ga    4.8104637101934058E+00    8.4124889955086797E+00    8.4404605744704142E+00
N    4.8162851757380976E+00    8.4122050260007164E+00    1.0432300000105702E+01
Ga    4.8373842820434447E+00    1.0269436331857989E+01    1.1071904961285927E+01
N    4.8543135219588587E+00    1.0278708082111814E+01    1.3065822777032945E+01
Ga    4.8107617547823409E+00    8.4096021777936745E+00    1.3621839179184539E+01
N    4.8376734194725035E+00    8.3929811626123261E+00    1.5584460697205506E+01
Ga    4.6661907305480268E+00    1.0169497405326830E+01    1.6480379408024081E+01
O    6.3657951589759432E-01    3.9662026083947679E+00   -3.7705946732306733E-01
H    2.5790975567517460E+00    6.4770357037100057E+00   -5.6435008128470562E-02
C    9.8498633161047044E-01    2.7521212947274791E+00   -1.0750387243692512E+00
H    1.7000313218829590E+00    2.1383145012081952E+00   -5.0232241590028648E-01
H    9.3027291178617758E-02    2.1451743650073016E+00   -1.2928201723454025E+00
H    1.4504154785319849E+00    3.0379195989080925E+00   -2.0291845377206874E+00
Ga    3.1628510379180619E+00    5.5836432951671746E+00    2.3534136337396565E+00
O    2.8659623284937221E+00    5.5648918570546515E+00    1.3871011234760569E-01
H    2.0703632446582487E+00    4.9840738498194090E+00   -7.9666612559649713E-02
C    6.3220372049449027E+00    7.5502369484241632E+00    1.2000387940874819E+00
H    9.6647729585040647E+00    1.9447529549453488E+00    1.6386654461819767E+00
H    6.6545123051917390E+00    8.4537465192017152E+00    6.6886910735341665E-01
H    5.7180960644502008E+00    6.8217121193693577E+00    6.3849304536541296E-01
     &END COORD
     &KIND C
       BASIS_SET DZVP-MOLOPT-SR-GTH-q4
       POTENTIAL GTH-PBE-q4
       &POTENTIAL
 2 2
  0.3384712400000000E+00 2 -0.8803673979999999E+01  0.1339210850000000E+01
 2
  0.3025757500000000E+00 1  0.9622486650000001E+01
  0.2915069400000000E+00 0
         # Potential name:  GTH-PBE-Q4  for symbol:  C
         # Potential read from the potential filename: GTH_POTENTIALS
       &END POTENTIAL
     &END KIND
     &KIND O
       BASIS_SET DZVP-MOLOPT-SR-GTH-q6
       POTENTIAL GTH-PBE-q6
       &POTENTIAL
 2 4
  0.2445543000000000E+00 2 -0.1666721480000000E+02  0.2487311320000000E+01
 2
  0.2209559200000000E+00 1  0.1833745811000000E+02
  0.2113324700000000E+00 0
         # Potential name:  GTH-PBE-Q6  for symbol:  O
         # Potential read from the potential filename: GTH_POTENTIALS
       &END POTENTIAL
     &END KIND
     &KIND H
       BASIS_SET DZVP-MOLOPT-SR-GTH-q1
       POTENTIAL GTH-PBE-q1
       &POTENTIAL
 1
  0.2000000000000000E+00 2 -0.4178900440000000E+01  0.7244633100000000E+00
 0
         # Potential name:  GTH-PBE-Q1  for symbol:  H
         # Potential read from the potential filename: GTH_POTENTIALS
       &END POTENTIAL
     &END KIND
     &KIND N
       BASIS_SET DZVP-MOLOPT-SR-GTH
       POTENTIAL GTH-PBE-q5
       &POTENTIAL
 2 3
  0.2837905100000000E+00 2 -0.1241522559000000E+02  0.1868095920000000E+01
 2
  0.2554050000000000E+00 1  0.1363026257000000E+02
  0.2454945300000000E+00 0
         # Potential name:  GTH-PBE-Q5  for symbol:  N
         # Potential read from the potential filename: GTH_POTENTIALS
       &END POTENTIAL
     &END KIND
     &KIND Ga
       BASIS_SET DZVP-MOLOPT-SR-GTH
       POTENTIAL GTH-PBE-q13
       &POTENTIAL
 2 1 10
  0.4900000000000000E+00 0
 3
  0.4167772300000000E+00 3  0.1047568975000000E+02 -0.4921768140000000E+01  0.8707055900000000E+00
  0.7770178090000000E+01 -0.2248152160000000E+01
  0.1784415450000000E+01
  0.5696265200000000E+00 2  0.1777985340000000E+01  0.1958597600000000E+00
 -0.2317443900000000E+00
  0.2381265000000000E+00 1 -0.1624868022000000E+02
         # Potential name:  GTH-PBE-Q13  for symbol:  GA
         # Potential read from the potential filename: GTH_POTENTIALS
       &END POTENTIAL
     &END KIND
     &TOPOLOGY
       NUMBER_OF_ATOMS  212
       MULTIPLE_UNIT_CELL  1 1 1
     &END TOPOLOGY
   &END SUBSYS
 &END FORCE_EVAL
