 # Version information for this restart file 
 # current date 2019-06-30 09:29:06.729
 # current working dir /scratch/rzk/rzk/GaN-carbene/443-adatoms-both-2x2/08-CH3O-H2O-H2C-H/01-Use-0701
 # Program compiled at                              Sun Apr  7 00:48:11 EDT 2019
 # Program compiled on                          beluga2.int.ets1.calculquebec.ca
 # Program compiled for                        Beluga-Linux-x86-64-intel-openmpi
 # Source code revision number                                         svn:18619
 &GLOBAL
   PRINT_LEVEL  MEDIUM
   PROJECT_NAME TEST
   RUN_TYPE  GEO_OPT
 &END GLOBAL
 &MOTION
   &GEO_OPT
     MAX_ITER  500
     STEP_START_VAL  48
   &END GEO_OPT
 &END MOTION
 &FORCE_EVAL
   METHOD  QS
   STRESS_TENSOR  ANALYTICAL
   &DFT
     BASIS_SET_FILE_NAME BASIS_MOLOPT
     POTENTIAL_FILE_NAME GTH_POTENTIALS
     UKS  T
     SURFACE_DIPOLE_CORRECTION  T
     SURF_DIP_DIR  Z
     &SCF
       MAX_SCF  80
       EPS_SCF     5.0000000000000004E-06
       &OT  T
         PRECONDITIONER  FULL_ALL
       &END OT
       &OUTER_SCF  T
         OPTIMIZER  NONE
         EPS_SCF     5.0000000000000004E-06
         MAX_SCF  4
       &END OUTER_SCF
       &PRINT
         &RESTART  OFF
           BACKUP_COPIES  1
           &EACH
             JUST_ENERGY  0
             QS_SCF  0
             MD  20
           &END EACH
         &END RESTART
       &END PRINT
     &END SCF
     &QS
       EPS_DEFAULT     1.0000000000000000E-14
       METHOD  GPW
     &END QS
     &MGRID
       NGRIDS  5
       CUTOFF     1.2000000000000000E+03
     &END MGRID
     &XC
       DENSITY_CUTOFF     1.0000000000000000E-10
       GRADIENT_CUTOFF     1.0000000000000000E-10
       TAU_CUTOFF     1.0000000000000000E-10
       &XC_FUNCTIONAL  NO_SHORTCUT
         &PBE  T
         &END PBE
       &END XC_FUNCTIONAL
       &VDW_POTENTIAL
         POTENTIAL_TYPE  PAIR_POTENTIAL
         &PAIR_POTENTIAL
           R_CUTOFF     1.0000000000000004E+01
           TYPE  DFTD3
           PARAMETER_FILE_NAME dftd3.dat
           REFERENCE_FUNCTIONAL PBE
           EPS_CN     9.9999999999999995E-07
           CALCULATE_C9_TERM  T
           REFERENCE_C9_TERM  T
           LONG_RANGE_CORRECTION  F
           VERBOSE_OUTPUT  F
         &END PAIR_POTENTIAL
       &END VDW_POTENTIAL
     &END XC
   &END DFT
   &SUBSYS
     &CELL
       A     1.2864472766435110E+01    0.0000000000000000E+00    0.0000000000000000E+00
       B    -6.4322363581020028E+00    1.1140960178524473E+01    0.0000000000000000E+00
       C     0.0000000000000000E+00    0.0000000000000000E+00    3.2000000000000000E+01
       MULTIPLE_UNIT_CELL  1 1 1
       &CELL_REF
         A     1.2982353780853531E+01    0.0000000000000000E+00    0.0000000000000000E+00
         B    -6.4911768904267628E+00    1.1243048175136114E+01    0.0000000000000000E+00
         C     0.0000000000000000E+00    0.0000000000000000E+00    3.2000000000000000E+01
         MULTIPLE_UNIT_CELL  1 1 1
       &END CELL_REF
     &END CELL
     &COORD
N    8.7653586734419402E-03    2.0518633655629386E+00    2.5009752113848900E+00
Ga   -4.5874150436274038E-03    1.0023111925032623E-01    2.8973000921569914E+00
N    2.4245811527387327E-02    6.5875670012774196E-02    5.0375149036458664E+00
Ga    1.4288423799946394E-02    1.8929234366737258E+00    5.8120771715126720E+00
N    1.0624766822709122E-03    1.8983381304687694E+00    7.8029183323528253E+00
Ga   -1.7752925110736308E-03    4.9753782103749755E-02    8.4424084444738554E+00
N    1.2604691537987500E-03    4.5089473620575873E-02    1.0414367469777899E+01
Ga    3.0087423003006372E-03    1.8852782065467644E+00    1.1072992238555312E+01
N    5.7797456690345330E-04    1.8624090145948451E+00    1.3061036856419150E+01
Ga   -6.7048658000846821E-04    4.6377110199534166E-02    1.3873072880736999E+01
N    1.7622725573376425E-03    4.5186361210403911E-02    1.6064326843394447E+01
Ga    1.1655509095896640E-03    2.0953975352735084E+00    1.6475967275964514E+01
Ga    7.7855622803850291E-02    3.7856066260804191E+00    1.3667818400355678E+00
N   -1.4720835530943683E+00    4.6149782799704964E+00    2.4737667235855993E+00
Ga   -1.6020808149216159E+00    2.8324110121286044E+00    3.2970525524382017E+00
N   -1.6168509027467879E+00    2.8314634824954177E+00    5.2376341556640007E+00
Ga   -1.6194744389072639E+00    4.7133294772460816E+00    5.8012384853371932E+00
N   -1.6173220540207476E+00    4.6998992932056787E+00    7.7947653764751168E+00
Ga   -1.5970010194431219E+00    2.8438670069558931E+00    8.4436669323210296E+00
N   -1.5952174621326314E+00    2.8420209814692838E+00    1.0432915510978141E+01
Ga   -1.6216801494679398E+00    4.7028483720810881E+00    1.1072947252090232E+01
N   -1.6405164156996919E+00    4.7076663399733611E+00    1.3059482336954554E+01
Ga   -1.5947661516894100E+00    2.8383396719760441E+00    1.3616013241943406E+01
N   -1.6248465754374219E+00    2.8189378764381186E+00    1.5569632304255144E+01
Ga   -1.4402924331651361E+00    4.5917261142189654E+00    1.6474767387512948E+01
N    1.4803169841240923E-03    3.7628116286423512E+00    1.7601604924007553E+01
N   -3.2168680030768351E+00    7.5972771994004491E+00    2.5040284292398240E+00
Ga   -3.1773999308474559E+00    5.5851531243306116E+00    2.8489973847703816E+00
N   -3.2051373533628351E+00    5.6194161323609748E+00    5.0075315959958191E+00
Ga   -3.2020955247790934E+00    7.4367685963212651E+00    5.7974308855929211E+00
N   -3.2171499474428571E+00    7.4683024474650290E+00    7.7853789841049421E+00
Ga   -3.2138622179882144E+00    5.6200139143666021E+00    8.4438011140801130E+00
N   -3.2165653148219451E+00    5.6201028896030003E+00    1.0414557366674581E+01
Ga   -3.2149863188129513E+00    7.4576707846782160E+00    1.1069741164960194E+01
N   -3.2154246331820793E+00    7.4340218091956363E+00    1.3058568269290257E+01
Ga   -3.2123948064868437E+00    5.6146075176608052E+00    1.3869321766973556E+01
N   -3.2140386674873525E+00    5.6149477054754682E+00    1.6063637828931473E+01
Ga   -3.2145958363398317E+00    7.6626894676151966E+00    1.6467768783935437E+01
Ga   -3.1597661175895939E+00    9.3534432220654882E+00    1.4958636769423717E+00
N   -4.7118877736571676E+00    1.0200648900862754E+01    2.4864723276466081E+00
Ga   -4.8180336177159777E+00    8.4318266368577284E+00    3.3312686086581773E+00
N   -4.8474234933069029E+00    8.3950104195558115E+00    5.2400027879062412E+00
Ga   -4.8435547117911861E+00    1.0292856862064388E+01    5.8151720436886833E+00
N   -4.8273721157790659E+00    1.0262477540975262E+01    7.7980893802799294E+00
Ga   -4.8159881557160054E+00    8.4068037644217224E+00    8.4401931925435321E+00
N   -4.8133036998985643E+00    8.4072018505046167E+00    1.0427225972084043E+01
Ga   -4.8388968347162225E+00    1.0266707486239694E+01    1.1070399899500099E+01
N   -4.8568401617772539E+00    1.0275523946634863E+01    1.3060711863547390E+01
Ga   -4.8117235337728719E+00    8.4059643047144643E+00    1.3614068813424868E+01
N   -4.8388500457669101E+00    8.3880906266055231E+00    1.5570943394534115E+01
Ga   -4.6634999172897356E+00    1.0164759645237870E+01    1.6468094524447917E+01
N   -3.2140921961813649E+00    9.3354815471732540E+00    1.7597793895344573E+01
N    3.1977277375358866E+00    1.9244668559327909E+00    2.6073793424844274E+00
Ga    3.2184602778388083E+00    1.8659534022500918E-01    3.2824761609863620E+00
N    3.2200218176167752E+00    4.7804299175598468E-02    5.2417741582801458E+00
Ga    3.2197805407292415E+00    1.9166049135987613E+00    5.8734274286061865E+00
N    3.2228738430606678E+00    1.9051579802894802E+00    7.8502655592163109E+00
Ga    3.2258633362051845E+00    3.9428687026973684E-02    8.4459231275528968E+00
N    3.2176625141676678E+00    3.2517581903569057E-02    1.0435452316676360E+01
Ga    3.2186461851170778E+00    1.9034141638369586E+00    1.1032019753757686E+01
N    3.2167989593135560E+00    1.9010358127232256E+00    1.2998451956761036E+01
Ga    3.2178674736972250E+00    3.0061385154549914E-02    1.3614314736688515E+01
N    3.2186172914073010E+00    6.2744029124231035E-02    1.5572531471101049E+01
Ga    3.2155127483738526E+00    1.9005924188681305E+00    1.5837819855086412E+01
N    1.4830345110847780E+00    4.6157700557929839E+00    2.5437410436800785E+00
Ga    1.6882940976201359E+00    2.8122606139941353E+00    3.2995031622493691E+00
N    1.6129359325217789E+00    2.8384068969933827E+00    5.2648873896186901E+00
Ga    1.6562516383734616E+00    4.7201971083794350E+00    5.8073449783123374E+00
N    1.6113133740891317E+00    4.6936542393670448E+00    7.8174162766158561E+00
Ga    1.6039731155938333E+00    2.8450084772713975E+00    8.4485723877265020E+00
N    1.6004753523941238E+00    2.8369835855847523E+00    1.0440231558369581E+01
Ga    1.6267732424032673E+00    4.7021064281419074E+00    1.1067111452641841E+01
N    1.6414597890424114E+00    4.7075713992339221E+00    1.3057767808957845E+01
Ga    1.5960505281872610E+00    2.8393800251665731E+00    1.3617262819818974E+01
N    1.6277657878179610E+00    2.8179977530835401E+00    1.5571825363047662E+01
Ga    1.4450130224857800E+00    4.5930147047708747E+00    1.6476086597924230E+01
N    6.9103990819310126E-03    7.4540269780729851E+00    2.5806901278595755E+00
Ga    2.8251145978282217E-02    5.7088322170527013E+00    3.2833489752361631E+00
N    2.5852052063724926E-03    5.6232482136243229E+00    5.2509752240841685E+00
Ga    2.8369846295490758E-02    7.4805862481196037E+00    5.8514980264930303E+00
N    6.9082377482434952E-03    7.4811440446555855E+00    7.8342783750982967E+00
Ga    5.9390873183065782E-03    5.6126486962367927E+00    8.4393651607765836E+00
N   -1.4193006160863951E-03    5.6086174860184981E+00    1.0433368842409381E+01
Ga    1.1907041651615523E-03    7.4763406688858121E+00    1.1025791961719021E+01
N    4.3098441108692777E-04    7.4730017496764107E+00    1.2990881473675604E+01
Ga    1.4822551335796270E-03    5.6025472631306634E+00    1.3616887249835711E+01
N    6.2124028463391313E-04    5.6378513515114177E+00    1.5570721228585011E+01
Ga    2.4782830216391709E-03    7.4704470705859443E+00    1.5838832364765796E+01
N   -1.7119194437793583E+00    1.0200861918203410E+01    2.5217232864818020E+00
Ga   -1.4749379468506350E+00    8.3336260622236562E+00    3.2832734761558480E+00
N   -1.6030398924840414E+00    8.4040362779471884E+00    5.2398319766216721E+00
Ga   -1.5738088048511478E+00    1.0279047951031467E+01    5.7995159891506791E+00
N   -1.5929191201871580E+00    1.0267684307456745E+01    7.7934559018794545E+00
Ga   -1.6090284433839732E+00    8.4111674768044544E+00    8.4332478997395253E+00
N   -1.6198947167288464E+00    8.4085303600872496E+00    1.0426198975651486E+01
Ga   -1.5880415507836432E+00    1.0267537460259613E+01    1.1068684748150863E+01
N   -1.5731182505597481E+00    1.0275541013721753E+01    1.3059517753623876E+01
Ga   -1.6171995702864213E+00    8.4055913299339764E+00    1.3612858253706495E+01
N   -1.5907558367526942E+00    8.3892290725995586E+00    1.5570632372515838E+01
Ga   -1.7651927435987875E+00    1.0164807424009142E+01    1.6468417958639964E+01
N    6.4149986615463028E+00    2.0200877519717966E+00    2.5139690563739490E+00
Ga    6.4485932178534409E+00    5.2277564798846314E-02    2.8863060433121945E+00
N    6.4333860512458205E+00    5.0722476920884545E-02    5.0223101991626056E+00
Ga    6.4270738146952588E+00    1.8757381391984105E+00    5.7957960023165640E+00
N    6.4386595300535632E+00    1.8991928569476384E+00    7.7896523258116979E+00
Ga    6.4453124287118344E+00    4.9206564553626757E-02    8.4357062479581373E+00
N    6.4367481314799138E+00    4.7704027208743886E-02    1.0412641193605253E+01
Ga    6.4355835281575651E+00    1.8856697291028444E+00    1.1069470413436624E+01
N    6.4350140784212826E+00    1.8637148887681547E+00    1.3060225505804983E+01
Ga    6.4355003371988051E+00    4.3379398036494585E-02    1.3870518840229014E+01
N    6.4335394472557477E+00    4.4835714956771119E-02    1.6063038205201575E+01
Ga    6.4348642462630172E+00    2.0930465875277569E+00    1.6465019827019013E+01
Ga    6.3342480566510639E+00    3.6580231036301636E+00    1.2325966091589582E+00
N    4.9068113624796137E+00    4.6298768612229084E+00    2.4020006448192075E+00
Ga    4.7162999481883299E+00    2.8076670344809149E+00    3.2662748948574407E+00
N    4.8301085606114729E+00    2.8490679762654350E+00    5.2355524121442762E+00
Ga    4.7643277283207190E+00    4.7199505471668699E+00    5.8198582137538484E+00
N    4.8342537571101891E+00    4.6926662402637582E+00    7.8144933158019381E+00
Ga    4.8413315821931207E+00    2.8398450535847850E+00    8.4486156218750779E+00
N    4.8379948987410657E+00    2.8380008317875061E+00    1.0439009039772419E+01
Ga    4.8092180441104411E+00    4.7014849939789967E+00    1.1066452944743983E+01
N    4.7932815735276897E+00    4.7065779328824169E+00    1.3059120322615852E+01
Ga    4.8370700336141832E+00    2.8369725555992278E+00    1.3611349810577714E+01
N    4.8095070445691661E+00    2.8165194147709021E+00    1.5569487828289619E+01
Ga    4.9878740536574337E+00    4.5920681900825571E+00    1.6465392821004770E+01
N    6.4346685641087813E+00    3.7633708009286102E+00    1.7603574426130724E+01
N    3.1823534293134439E+00    7.5556362873965703E+00    2.3716484326967691E+00
N    3.2202952548848649E+00    5.6148062544230166E+00    5.1234800613183289E+00
Ga    3.1997865893480015E+00    7.4126622691598021E+00    5.7894582219890571E+00
N    3.2220583654642936E+00    7.4831504003996061E+00    7.7930766734457837E+00
Ga    3.2183349570896915E+00    5.6242527569524139E+00    8.4308536567371615E+00
N    3.2199981496195851E+00    5.6208281960826323E+00    1.0411821650999318E+01
Ga    3.2173031295555004E+00    7.4573377595472703E+00    1.1063931889667408E+01
N    3.2166834480717283E+00    7.4362374064109016E+00    1.3054922045613335E+01
Ga    3.2145601384752918E+00    5.6170339338016895E+00    1.3866384414367785E+01
N    3.2175198818903414E+00    5.6145326733574317E+00    1.6062573517132648E+01
Ga    3.2169270311562737E+00    7.6697548856679356E+00    1.6474743942607518E+01
Ga    2.7766025942852988E+00    9.3450068519079998E+00    8.0191128470953688E-01
N    1.6681806947860054E+00    1.0213331950072915E+01    2.4565956625589975E+00
Ga    1.5463741962334954E+00    8.3475064434819668E+00    3.1871005496710683E+00
N    1.6231082983257130E+00    8.4072410069784578E+00    5.1925279008594174E+00
Ga    1.5954985280292922E+00    1.0269349089921175E+01    5.7576636044421141E+00
N    1.6082103440733864E+00    1.0270031800351703E+01    7.7655426569622961E+00
Ga    1.6236416101302509E+00    8.4181635285263496E+00    8.4317806468856613E+00
N    1.6192435691741838E+00    8.4119486061401894E+00    1.0427589332478471E+01
Ga    1.5952582227409249E+00    1.0268292952939102E+01    1.1069028685333102E+01
N    1.5775664912524818E+00    1.0276331038340388E+01    1.3057966452999487E+01
Ga    1.6196838098141897E+00    8.4060312139546998E+00    1.3613191135180212E+01
N    1.5916233077139772E+00    8.3899221552256993E+00    1.5568529219017405E+01
Ga    1.7758306725845692E+00    1.0161023041524945E+01    1.6474523185766962E+01
N    3.2167613960305896E+00    9.3359166500924022E+00    1.7605992946296798E+01
N    9.6480474782456813E+00    1.9182468783292526E+00    2.6393540516158054E+00
Ga    9.6538390644233303E+00    3.1186883663156719E-02    3.1719733186986345E+00
N    9.6488325049014421E+00    6.5021714233500658E-02    5.1625898508652224E+00
Ga    9.6506042363658651E+00    1.8926231335722048E+00    5.8617653603685689E+00
N    9.6525597725996075E+00    1.9069692024167582E+00    7.8324481301153801E+00
Ga    9.6503881822578279E+00    3.6111872412755971E-02    8.4296156212651336E+00
N    9.6534389792834574E+00    3.4707487344896960E-02    1.0423430099411490E+01
Ga    9.6497079047963261E+00    1.9053185393003396E+00    1.1023374909205279E+01
N    9.6500448239258283E+00    1.9018877342142706E+00    1.2988986526474099E+01
Ga    9.6489039543921322E+00    3.2171028764153078E-02    1.3614838478694343E+01
N    9.6482315056701307E+00    6.5247765487969525E-02    1.5569606262524417E+01
Ga    9.6530002104727490E+00    1.9000198174483935E+00    1.5837646027552559E+01
N    7.9553848830797014E+00    4.6388309089184441E+00    2.4849493451414624E+00
Ga    8.0424655230416899E+00    2.8285117494565499E+00    3.2804066940250469E+00
N    8.0508566141917317E+00    2.8352563302520335E+00    5.2251977110236894E+00
Ga    8.0753369357458400E+00    4.7160962652153229E+00    5.7872210483188526E+00
N    8.0498222716291323E+00    4.7039926543020298E+00    7.7781996554479695E+00
Ga    8.0341050859952468E+00    2.8431890791696435E+00    8.4332320822482938E+00
N    8.0320417309345782E+00    2.8445433833696487E+00    1.0424922428048784E+01
Ga    8.0578803416183362E+00    4.7014862848629120E+00    1.1072905512249404E+01
N    8.0749846804373924E+00    4.7063240762400822E+00    1.3061217952208462E+01
Ga    8.0319636459917714E+00    2.8361346679440476E+00    1.3611455098862505E+01
N    8.0599386319571469E+00    2.8175338199104787E+00    1.5568212996130519E+01
Ga    7.8790939676304541E+00    4.5909302028058043E+00    1.6464453147628095E+01
N    6.5975026378727630E+00    7.3762076507799366E+00    2.4499305407531833E+00
Ga    6.3932206772234386E+00    5.5407397596435350E+00    3.2760004038003920E+00
N    6.4267417313044826E+00    5.6327693993215968E+00    5.2023365030352027E+00
Ga    6.4009593191885896E+00    7.4724659025336226E+00    5.8583179787419128E+00
N    6.4280005220391692E+00    7.4788397995723193E+00    7.8216768925929854E+00
Ga    6.4345205039874145E+00    5.6102365901485554E+00    8.4472519833981163E+00
N    6.4382844538566140E+00    5.6104725315215358E+00    1.0433713407937653E+01
Ga    6.4336510505066906E+00    7.4764023774035708E+00    1.1031270333158288E+01
N    6.4333530133158021E+00    7.4730853858292576E+00    1.2994285867687696E+01
Ga    6.4331383463018126E+00    5.6025379006361664E+00    1.3611590647481123E+01
N    6.4348637838421983E+00    5.6348365850989541E+00    1.5569717279926875E+01
Ga    6.4318932954927170E+00    7.4722884926194064E+00    1.5834320425430489E+01
N    4.8019337647730085E+00    1.0258049033701543E+01    2.4909539731619526E+00
Ga    4.5382352408238527E+00    8.5389082558537304E+00    3.2576225002239823E+00
N    4.8246692420123152E+00    8.3994652084064043E+00    5.1670507908331400E+00
Ga    4.8504624331310033E+00    1.0293697270188002E+01    5.7546611187471974E+00
N    4.8366721569444540E+00    1.0267001694425577E+01    7.7565351631987269E+00
Ga    4.8107958145467666E+00    8.4164024866235678E+00    8.4399272614917145E+00
N    4.8195375941401268E+00    8.4124476685282978E+00    1.0429357790838322E+01
Ga    4.8422565686327008E+00    1.0268668465903458E+01    1.1072973923968801E+01
N    4.8575243959759797E+00    1.0277033286405148E+01    1.3060779600442554E+01
Ga    4.8119942919444156E+00    8.4067094331617742E+00    1.3613845513963337E+01
N    4.8421211667305837E+00    8.3886453623987229E+00    1.5568495421929491E+01
Ga    4.6580646041804403E+00    1.0161163581932868E+01    1.6474041302756756E+01
O    6.7705874420693790E-01    3.9598227625577458E+00   -3.8752471016087564E-01
H    2.6116939618969921E+00    6.4527559346961132E+00   -1.1510614976904303E-01
C    1.0116464908274920E+00    2.7386057354589450E+00   -1.0765255580007234E+00
H    1.7192377459809169E+00    2.1170071412279974E+00   -4.9747518851888672E-01
H    1.1104324795993588E-01    2.1384715270837278E+00   -1.2921662150784170E+00
H    1.4839973377215889E+00    3.0093072843202564E+00   -2.0346947993977302E+00
Ga    3.1531896762866034E+00    5.5984248441351028E+00    2.3610415555780824E+00
O    2.8968943610570901E+00    5.5456736806804914E+00    1.1490280017408741E-01
H    2.1007235013510348E+00    4.9589242611504494E+00   -1.0329305811076672E-01
C    6.1932195011957729E+00    7.6317497286604317E+00    1.2529427693391264E+00
H    9.6559459661282254E+00    1.9872262207203968E+00    1.6133196911897953E+00
H    6.4660178192422482E+00    8.5614749522841542E+00    7.5540066688925323E-01
H    5.5175620754930881E+00    6.9546846440406140E+00    7.1596448698094395E-01
     &END COORD
     &KIND C
       BASIS_SET DZVP-MOLOPT-SR-GTH-q4
       POTENTIAL GTH-PBE-q4
       &POTENTIAL
 2 2
  0.3384712400000000E+00 2 -0.8803673979999999E+01  0.1339210850000000E+01
 2
  0.3025757500000000E+00 1  0.9622486650000001E+01
  0.2915069400000000E+00 0
         # Potential name:  GTH-PBE-Q4  for symbol:  C
         # Potential read from the potential filename: GTH_POTENTIALS
       &END POTENTIAL
     &END KIND
     &KIND O
       BASIS_SET DZVP-MOLOPT-SR-GTH-q6
       POTENTIAL GTH-PBE-q6
       &POTENTIAL
 2 4
  0.2445543000000000E+00 2 -0.1666721480000000E+02  0.2487311320000000E+01
 2
  0.2209559200000000E+00 1  0.1833745811000000E+02
  0.2113324700000000E+00 0
         # Potential name:  GTH-PBE-Q6  for symbol:  O
         # Potential read from the potential filename: GTH_POTENTIALS
       &END POTENTIAL
     &END KIND
     &KIND H
       BASIS_SET DZVP-MOLOPT-SR-GTH-q1
       POTENTIAL GTH-PBE-q1
       &POTENTIAL
 1
  0.2000000000000000E+00 2 -0.4178900440000000E+01  0.7244633100000000E+00
 0
         # Potential name:  GTH-PBE-Q1  for symbol:  H
         # Potential read from the potential filename: GTH_POTENTIALS
       &END POTENTIAL
     &END KIND
     &KIND N
       BASIS_SET DZVP-MOLOPT-SR-GTH
       POTENTIAL GTH-PBE-q5
       &POTENTIAL
 2 3
  0.2837905100000000E+00 2 -0.1241522559000000E+02  0.1868095920000000E+01
 2
  0.2554050000000000E+00 1  0.1363026257000000E+02
  0.2454945300000000E+00 0
         # Potential name:  GTH-PBE-Q5  for symbol:  N
         # Potential read from the potential filename: GTH_POTENTIALS
       &END POTENTIAL
     &END KIND
     &KIND Ga
       BASIS_SET DZVP-MOLOPT-SR-GTH
       POTENTIAL GTH-PBE-q13
       &POTENTIAL
 2 1 10
  0.4900000000000000E+00 0
 3
  0.4167772300000000E+00 3  0.1047568975000000E+02 -0.4921768140000000E+01  0.8707055900000000E+00
  0.7770178090000000E+01 -0.2248152160000000E+01
  0.1784415450000000E+01
  0.5696265200000000E+00 2  0.1777985340000000E+01  0.1958597600000000E+00
 -0.2317443900000000E+00
  0.2381265000000000E+00 1 -0.1624868022000000E+02
         # Potential name:  GTH-PBE-Q13  for symbol:  GA
         # Potential read from the potential filename: GTH_POTENTIALS
       &END POTENTIAL
     &END KIND
     &TOPOLOGY
       NUMBER_OF_ATOMS  212
       MULTIPLE_UNIT_CELL  1 1 1
     &END TOPOLOGY
   &END SUBSYS
 &END FORCE_EVAL
