 # Version information for this restart file 
 # current date 2019-06-30 10:12:06.496
 # current working dir /scratch/rzk/rzk/GaN-carbene/443-adatoms-both-2x2/08-CH3O-H2O-H2C-H/01-Use-0701
 # Program compiled at                              Sun Apr  7 00:48:11 EDT 2019
 # Program compiled on                          beluga2.int.ets1.calculquebec.ca
 # Program compiled for                        Beluga-Linux-x86-64-intel-openmpi
 # Source code revision number                                         svn:18619
 &GLOBAL
   PRINT_LEVEL  MEDIUM
   PROJECT_NAME TEST
   RUN_TYPE  GEO_OPT
 &END GLOBAL
 &MOTION
   &GEO_OPT
     MAX_ITER  500
     STEP_START_VAL  55
   &END GEO_OPT
 &END MOTION
 &FORCE_EVAL
   METHOD  QS
   STRESS_TENSOR  ANALYTICAL
   &DFT
     BASIS_SET_FILE_NAME BASIS_MOLOPT
     POTENTIAL_FILE_NAME GTH_POTENTIALS
     UKS  T
     SURFACE_DIPOLE_CORRECTION  T
     SURF_DIP_DIR  Z
     &SCF
       MAX_SCF  80
       EPS_SCF     5.0000000000000004E-06
       &OT  T
         PRECONDITIONER  FULL_ALL
       &END OT
       &OUTER_SCF  T
         OPTIMIZER  NONE
         EPS_SCF     5.0000000000000004E-06
         MAX_SCF  4
       &END OUTER_SCF
       &PRINT
         &RESTART  OFF
           BACKUP_COPIES  1
           &EACH
             JUST_ENERGY  0
             QS_SCF  0
             MD  20
           &END EACH
         &END RESTART
       &END PRINT
     &END SCF
     &QS
       EPS_DEFAULT     1.0000000000000000E-14
       METHOD  GPW
     &END QS
     &MGRID
       NGRIDS  5
       CUTOFF     1.2000000000000000E+03
     &END MGRID
     &XC
       DENSITY_CUTOFF     1.0000000000000000E-10
       GRADIENT_CUTOFF     1.0000000000000000E-10
       TAU_CUTOFF     1.0000000000000000E-10
       &XC_FUNCTIONAL  NO_SHORTCUT
         &PBE  T
         &END PBE
       &END XC_FUNCTIONAL
       &VDW_POTENTIAL
         POTENTIAL_TYPE  PAIR_POTENTIAL
         &PAIR_POTENTIAL
           R_CUTOFF     1.0000000000000004E+01
           TYPE  DFTD3
           PARAMETER_FILE_NAME dftd3.dat
           REFERENCE_FUNCTIONAL PBE
           EPS_CN     9.9999999999999995E-07
           CALCULATE_C9_TERM  T
           REFERENCE_C9_TERM  T
           LONG_RANGE_CORRECTION  F
           VERBOSE_OUTPUT  F
         &END PAIR_POTENTIAL
       &END VDW_POTENTIAL
     &END XC
   &END DFT
   &SUBSYS
     &CELL
       A     1.2864472766435110E+01    0.0000000000000000E+00    0.0000000000000000E+00
       B    -6.4322363581020028E+00    1.1140960178524473E+01    0.0000000000000000E+00
       C     0.0000000000000000E+00    0.0000000000000000E+00    3.2000000000000000E+01
       MULTIPLE_UNIT_CELL  1 1 1
       &CELL_REF
         A     1.2982353780853531E+01    0.0000000000000000E+00    0.0000000000000000E+00
         B    -6.4911768904267628E+00    1.1243048175136114E+01    0.0000000000000000E+00
         C     0.0000000000000000E+00    0.0000000000000000E+00    3.2000000000000000E+01
         MULTIPLE_UNIT_CELL  1 1 1
       &END CELL_REF
     &END CELL
     &COORD
N    4.2052018770446058E-03    2.0474321071566828E+00    2.5110951964612647E+00
Ga   -1.2960829110590953E-02    9.5564827997460813E-02    2.9047766627126936E+00
N    2.0115299077066724E-02    6.0986072804144746E-02    5.0494450436220220E+00
Ga    8.4005946877380219E-03    1.8861445980070239E+00    5.8224997846586382E+00
N   -3.6778019230799524E-03    1.8944936973882054E+00    7.8128537601093928E+00
Ga   -5.3437259213770724E-03    4.6575270036031124E-02    8.4430583601323121E+00
N   -2.2658483131296979E-03    4.5702585583269978E-02    1.0417046922884833E+01
Ga   -9.0248098561532513E-04    1.8864118627229451E+00    1.1070807729923596E+01
N   -1.6633999670533281E-03    1.8666985151687283E+00    1.3064929027368631E+01
Ga   -1.1030306506556403E-03    4.8036972282906806E-02    1.3867873881851017E+01
N   -9.4514146144369145E-04    4.8809557783657843E-02    1.6070087497273430E+01
Ga   -8.5180810843685413E-04    2.0937893488668791E+00    1.6480515846488547E+01
Ga    6.4535445352387588E-02    3.7801702670656119E+00    1.3800250295985419E+00
N   -1.4796018039948000E+00    4.6131038631167716E+00    2.4932332536986790E+00
Ga   -1.6050978526599058E+00    2.8290138740580266E+00    3.3138749911874674E+00
N   -1.6212692919971947E+00    2.8250509009818594E+00    5.2537321171686546E+00
Ga   -1.6243602908480144E+00    4.7066161747943251E+00    5.8111706698853585E+00
N   -1.6215312831136759E+00    4.6937549194368282E+00    7.8044700023999516E+00
Ga   -1.6014380168138245E+00    2.8386969567882891E+00    8.4455442000195777E+00
N   -1.5993113480984478E+00    2.8397013217341680E+00    1.0436170721709468E+01
Ga   -1.6244737230422526E+00    4.6998649571487148E+00    1.1071657187442915E+01
N   -1.6419274739003771E+00    4.7079447249965183E+00    1.3065794072052521E+01
Ga   -1.5985631892523988E+00    2.8383008172117243E+00    1.3620222740949467E+01
N   -1.6246344458732147E+00    2.8219479231527456E+00    1.5582634301516268E+01
Ga   -1.4515954854867124E+00    4.5987754999459209E+00    1.6479658937181238E+01
N   -1.1179629408438335E-03    3.7701888344021710E+00    1.7612503621318169E+01
N   -3.2123122883247719E+00    7.6018072055423778E+00    2.5256036238583452E+00
Ga   -3.1872928074998379E+00    5.5803736615277719E+00    2.8667447582035566E+00
N   -3.2090208451601661E+00    5.6199136830127232E+00    5.0229133152892711E+00
Ga   -3.2051962011245512E+00    7.4358557752882497E+00    5.8077580384587213E+00
N   -3.2203391145136600E+00    7.4656000896978574E+00    7.7940765068729725E+00
Ga   -3.2186596601924928E+00    5.6161105079226248E+00    8.4436271656070598E+00
N   -3.2189578853097847E+00    5.6186052467986141E+00    1.0416890621563061E+01
Ga   -3.2170235985881144E+00    7.4579314802668355E+00    1.1069173923978360E+01
N   -3.2174853857148538E+00    7.4384061586508938E+00    1.3063055760007570E+01
Ga   -3.2167725503758611E+00    5.6185331108417769E+00    1.3868393425721104E+01
N   -3.2173813281461956E+00    5.6197018028806749E+00    1.6069939253156701E+01
Ga   -3.2169599023175959E+00    7.6633786535903488E+00    1.6480892924341248E+01
Ga   -3.1481936271301580E+00    9.3623283608242591E+00    1.5155165954504519E+00
N   -4.7114805060849925E+00    1.0199241585040083E+01    2.5022919453356440E+00
Ga   -4.8136177641488880E+00    8.4306374552384789E+00    3.3408956614022838E+00
N   -4.8467807488648535E+00    8.3944179065144677E+00    5.2456936501226066E+00
Ga   -4.8485233526952634E+00    1.0291088186517676E+01    5.8235335082619590E+00
N   -4.8313071197911182E+00    1.0261652526956084E+01    7.8052222285095310E+00
Ga   -4.8196163666172955E+00    8.4052956097850977E+00    8.4393392534690506E+00
N   -4.8158112715766723E+00    8.4081759269893563E+00    1.0428835833805492E+01
Ga   -4.8405007026992690E+00    1.0268437680437934E+01    1.1069415529424175E+01
N   -4.8570456849652590E+00    1.0277658153281159E+01    1.3063917875751370E+01
Ga   -4.8134922095480119E+00    8.4094683141022877E+00    1.3622086588979435E+01
N   -4.8403305348011525E+00    8.3926873577702104E+00    1.5583936485527435E+01
Ga   -4.6684296919597967E+00    1.0169595898039610E+01    1.6480182788972613E+01
N   -3.2168686693525017E+00    9.3404653620103346E+00    1.7613466618698396E+01
N    3.2003116950485571E+00    1.9213083117138805E+00    2.6138857862163674E+00
Ga    3.2242411490069487E+00    1.9049599314111978E-01    3.2982855441207293E+00
N    3.2170421465309138E+00    4.5975402044845716E-02    5.2554784289398482E+00
Ga    3.2224882418763103E+00    1.9188163008337142E+00    5.8744516855534368E+00
N    3.2200023841241823E+00    1.9043509829429577E+00    7.8536345559040353E+00
Ga    3.2201879120331660E+00    3.9921174851349807E-02    8.4449893641261600E+00
N    3.2152659413384033E+00    3.4873660765423274E-02    1.0436280978632068E+01
Ga    3.2160263998569967E+00    1.9045246357211902E+00    1.1032613475625888E+01
N    3.2157040385497937E+00    1.9035767089776487E+00    1.3003958462119682E+01
Ga    3.2157767862851725E+00    3.3463754660320776E-02    1.3620820452439684E+01
N    3.2150446402056052E+00    6.5550089508644632E-02    1.5584469668469755E+01
Ga    3.2150322523079553E+00    1.9042961779279730E+00    1.5860298001725841E+01
N    1.4767254322274530E+00    4.6098208571390238E+00    2.5542930447150525E+00
Ga    1.6904921410308862E+00    2.8073954087126172E+00    3.3096352226210666E+00
N    1.6089754111698180E+00    2.8313541718155095E+00    5.2767463787764211E+00
Ga    1.6476224200423286E+00    4.7128291807910632E+00    5.8173845622481526E+00
N    1.6069124468561122E+00    4.6900850195993540E+00    7.8292422260874366E+00
Ga    1.5998123159227693E+00    2.8394160132754442E+00    8.4483022719449039E+00
N    1.5973030130037558E+00    2.8358823433844669E+00    1.0442134797663609E+01
Ga    1.6232778413756694E+00    4.7002802370292125E+00    1.1065835056812334E+01
N    1.6390753869186967E+00    4.7082930014411355E+00    1.3063588437524858E+01
Ga    1.5953534298009930E+00    2.8397051903726944E+00    1.3619758482624214E+01
N    1.6220763742939044E+00    2.8221027718784661E+00    1.5582570850346936E+01
Ga    1.4499793411984725E+00    4.5988313550688948E+00    1.6479260151913461E+01
N    7.6423137736313243E-03    7.4540313236324760E+00    2.5987247574423620E+00
Ga    2.4372811374952705E-02    5.7050533757740958E+00    3.2967709528949403E+00
N   -2.8240396972079415E-03    5.6186295236006352E+00    5.2665023139972176E+00
Ga    2.1533442855656792E-02    7.4745488628179633E+00    5.8639262851207006E+00
N    2.0983252359694144E-03    7.4778946667752608E+00    7.8460375703431735E+00
Ga   -4.4535008429932448E-04    5.6094435491548200E+00    8.4437622035492108E+00
N   -4.3612142480460685E-03    5.6085221299392503E+00    1.0439240356367584E+01
Ga   -7.2279221834414668E-04    7.4770873276112093E+00    1.1027701921418497E+01
N   -1.1043659787993941E-03    7.4761284021828862E+00    1.3000394181015848E+01
Ga   -4.5223950312786278E-04    5.6050177802835286E+00    1.3619349895933528E+01
N   -1.1684456045267801E-03    5.6370555061613219E+00    1.5583512831874195E+01
Ga   -7.6826346629711717E-04    7.4749098895347545E+00    1.5860583242274373E+01
N   -1.7029100257137160E+00    1.0205752329163460E+01    2.5482868919144135E+00
Ga   -1.4730172322987725E+00    8.3366471717237225E+00    3.2986164840380723E+00
N   -1.6079072524275746E+00    8.4035213437160916E+00    5.2537478180195443E+00
Ga   -1.5785075631753696E+00    1.0276549864206325E+01    5.8100736411544558E+00
N   -1.5995975638861113E+00    1.0265034924615785E+01    7.8029347943159584E+00
Ga   -1.6132509034333142E+00    8.4083722327777366E+00    8.4369582853302596E+00
N   -1.6212546730176811E+00    8.4093559604470496E+00    1.0430635402871896E+01
Ga   -1.5917201612139240E+00    1.0268946102116800E+01    1.1067891153376349E+01
N   -1.5762850795398295E+00    1.0278358490561981E+01    1.3063324340278426E+01
Ga   -1.6200769429111062E+00    8.4096219955005740E+00    1.3620208904076664E+01
N   -1.5944793230360248E+00    8.3928302847458731E+00    1.5582768879679287E+01
Ga   -1.7657065751309635E+00    1.0169397745167819E+01    1.6479497562895439E+01
N    6.4254971746552183E+00    2.0183358234659443E+00    2.5172777267804265E+00
Ga    6.4601156850822052E+00    5.7127301807232876E-02    2.8964446944481743E+00
N    6.4265510762586251E+00    5.1112209749666487E-02    5.0401468910462084E+00
Ga    6.4237741918327087E+00    1.8789826332920081E+00    5.7977132608773561E+00
N    6.4336916637660062E+00    1.8961669235808907E+00    7.7942480363169828E+00
Ga    6.4388121135728031E+00    4.7868450074164563E-02    8.4357644367658526E+00
N    6.4338476043025130E+00    4.8008919790176977E-02    1.0414115197830622E+01
Ga    6.4333475572955585E+00    1.8864952950676981E+00    1.1069371671731112E+01
N    6.4327443582521164E+00    1.8672989048921991E+00    1.3063737424835583E+01
Ga    6.4322466818454735E+00    4.7783874061923436E-02    1.3866411991692580E+01
N    6.4310809157860307E+00    4.8961513384244482E-02    1.6069510889228681E+01
Ga    6.4308556967182566E+00    2.0933952764329082E+00    1.6480729953653089E+01
Ga    6.3852205705931953E+00    3.6586028803915833E+00    1.1948856791107147E+00
N    4.9143416621325038E+00    4.6172229729187091E+00    2.3997391328336239E+00
Ga    4.7301467349127213E+00    2.8051382664868356E+00    3.2463020491567667E+00
N    4.8293083230996574E+00    2.8421664637266453E+00    5.2303658453512245E+00
Ga    4.7683035239549492E+00    4.7079769169942498E+00    5.8183775139015301E+00
N    4.8302094617504823E+00    4.6892131345695782E+00    7.8195770439390735E+00
Ga    4.8374366003304852E+00    2.8369303714668610E+00    8.4477244799500237E+00
N    4.8356682502541748E+00    2.8372314375870942E+00    1.0440157884387949E+01
Ga    4.8077469129745820E+00    4.7001530987709597E+00    1.1067300251505435E+01
N    4.7924387436098277E+00    4.7082080133958977E+00    1.3063794978039562E+01
Ga    4.8356255971347890E+00    2.8392151346933026E+00    1.3619726781278384E+01
N    4.8084343077458183E+00    2.8221343286670613E+00    1.5582469429743885E+01
Ga    4.9795327795944351E+00    4.5985879238703919E+00    1.6479723806478063E+01
N    6.4307817427460918E+00    3.7699139501897352E+00    1.7614234373895851E+01
N    3.1876546866682851E+00    7.5523331335126080E+00    2.3874750290244413E+00
N    3.2167950331095687E+00    5.6090862785990456E+00    5.1489394777783515E+00
Ga    3.1991992246028129E+00    7.4109846351806778E+00    5.8019705006938418E+00
N    3.2193137778152754E+00    7.4795353846848434E+00    7.8082413424920905E+00
Ga    3.2163048757213617E+00    5.6199942121349178E+00    8.4322689618958062E+00
N    3.2171854728870222E+00    5.6199406225101090E+00    1.0417197793395291E+01
Ga    3.2151291849799950E+00    7.4579585577129297E+00    1.1064761768674634E+01
N    3.2156524961439867E+00    7.4393393256035996E+00    1.3061417896648798E+01
Ga    3.2150260870998766E+00    5.6190329720024303E+00    1.3863823710919929E+01
N    3.2151011623967065E+00    5.6194913245187132E+00    1.6069532931627382E+01
Ga    3.2146081287278916E+00    7.6632263290246430E+00    1.6480461976458979E+01
Ga    2.8545176408421278E+00    9.3701996771099001E+00    8.5090668403300496E-01
N    1.6778078045364986E+00    1.0207295980137259E+01    2.4842959190801475E+00
Ga    1.5496067597363936E+00    8.3464770960407932E+00    3.2028582181977558E+00
N    1.6179019869526812E+00    8.4019603999230554E+00    5.2103066724879605E+00
Ga    1.5899819203174750E+00    1.0266656853194233E+01    5.7715663612774000E+00
N    1.6025141868859449E+00    1.0267068499128348E+01    7.7794436682719468E+00
Ga    1.6185165066942089E+00    8.4146367448256267E+00    8.4356119276584298E+00
N    1.6170256993905194E+00    8.4124495443377825E+00    1.0432430973877347E+01
Ga    1.5934566663659153E+00    1.0269370526894054E+01    1.1068502205552100E+01
N    1.5762324754230248E+00    1.0279067517105259E+01    1.3063477817758582E+01
Ga    1.6191069332567414E+00    8.4096811131452682E+00    1.3619135029514156E+01
N    1.5923410240634104E+00    8.3931176615736316E+00    1.5581949577605350E+01
Ga    1.7638039801262366E+00    1.0168842059736720E+01    1.6479926434671196E+01
N    3.2145248822193420E+00    9.3400344389827552E+00    1.7613463740742361E+01
N    9.6503776079389780E+00    1.9092075098621806E+00    2.6624064662884868E+00
Ga    9.6522368247318813E+00    2.5620170240757627E-02    3.2087408273426399E+00
N    9.6513600817630820E+00    6.0235745142458323E-02    5.1928288541932481E+00
Ga    9.6463336993646838E+00    1.8916532391775689E+00    5.8761722275265793E+00
N    9.6469597859095604E+00    1.9021825729530106E+00    7.8450850403800017E+00
Ga    9.6469935611943338E+00    3.1873750394805708E-02    8.4303820389792712E+00
N    9.6494378453525123E+00    3.4767045948591847E-02    1.0425915831589245E+01
Ga    9.6466144771382876E+00    1.9041577768932012E+00    1.1025329529645196E+01
N    9.6466851132219453E+00    1.9035889194369773E+00    1.2997491234324938E+01
Ga    9.6471464665074453E+00    3.4774925539686467E-02    1.3621764934566603E+01
N    9.6472220854482202E+00    6.6226228929506831E-02    1.5584988072987720E+01
Ga    9.6475288629218969E+00    1.9041569734121124E+00    1.5863798398740943E+01
N    7.9525860631006093E+00    4.6306616373059724E+00    2.5047186871414038E+00
Ga    8.0408607242406891E+00    2.8265622150640417E+00    3.2858921949287008E+00
N    8.0514500638430189E+00    2.8277651817771061E+00    5.2328949494242814E+00
Ga    8.0698997325225807E+00    4.7072689886285470E+00    5.7881940485708103E+00
N    8.0466027755351739E+00    4.6982140070777785E+00    7.7815625056414106E+00
Ga    8.0289013238377596E+00    2.8393895736043269E+00    8.4335593347680327E+00
N    8.0293144934465257E+00    2.8416782816764519E+00    1.0427453656950735E+01
Ga    8.0549823248156951E+00    4.6986592499743800E+00    1.1072599503557617E+01
N    8.0714564984918109E+00    4.7075175182895297E+00    1.3065749354797243E+01
Ga    8.0287555800176076E+00    2.8381266736882558E+00    1.3621387340429280E+01
N    8.0546707721317592E+00    2.8220435591823518E+00    1.5583517789254568E+01
Ga    7.8818129672244988E+00    4.5985828936002360E+00    1.6480589871594312E+01
N    6.5928717890203705E+00    7.3693007053642932E+00    2.4478314888502943E+00
Ga    6.3857128210603298E+00    5.5261609517898069E+00    3.2765513673404980E+00
N    6.4253088656664481E+00    5.6274975371088134E+00    5.2048573462941334E+00
Ga    6.4041868695537145E+00    7.4648157326416742E+00    5.8623472768129457E+00
N    6.4258570296643551E+00    7.4743888071282365E+00    7.8277086105394709E+00
Ga    6.4326718007741333E+00    5.6061941264983526E+00    8.4447310847923980E+00
N    6.4355330233726491E+00    5.6096201483481378E+00    1.0434964458212509E+01
Ga    6.4313065259706566E+00    7.4766517660791880E+00    1.1031888078594918E+01
N    6.4314478046268109E+00    7.4755724486210315E+00    1.3001906710135170E+01
Ga    6.4310748925572758E+00    5.6044737657830348E+00    1.3621513701547572E+01
N    6.4312579492324984E+00    5.6369526740117930E+00    1.5584901286456638E+01
Ga    6.4307528994251157E+00    7.4748866493348070E+00    1.5862534605974085E+01
N    4.7917161550007323E+00    1.0246275887587966E+01    2.4906395706107975E+00
Ga    4.5583838715280027E+00    8.5255947580969753E+00    3.2652736158994040E+00
N    4.8266663335498681E+00    8.3956812950993598E+00    5.1793481587880761E+00
Ga    4.8538878494793236E+00    1.0288365045559164E+01    5.7746165668181906E+00
N    4.8332498985277237E+00    1.0262719492037869E+01    7.7734749914946137E+00
Ga    4.8104949912381718E+00    8.4130728793364771E+00    8.4400740644385710E+00
N    4.8165353495838223E+00    8.4123786940301351E+00    1.0431719536106293E+01
Ga    4.8378300973950052E+00    1.0269527445329354E+01    1.1071895488497498E+01
N    4.8545748476059893E+00    1.0278671490305999E+01    1.3065246733744514E+01
Ga    4.8107462169036239E+00    8.4095694265490231E+00    1.3621164063527798E+01
N    4.8379007734864752E+00    8.3928332479862178E+00    1.5583275760383309E+01
Ga    4.6657317914323437E+00    1.0168957047178655E+01    1.6480553306455452E+01
O    6.3945142714871372E-01    3.9652141758346908E+00   -3.7709796322635092E-01
H    2.5784403192383438E+00    6.4763291265715122E+00   -5.8649854663833344E-02
C    9.8711834102612617E-01    2.7508410961033252E+00   -1.0746235163941098E+00
H    1.7013753017911637E+00    2.1366350355053894E+00   -5.0212039845380985E-01
H    9.5336610099653760E-02    2.1444852580671561E+00   -1.2927658183330706E+00
H    1.4530649290135396E+00    3.0355041978501527E+00   -2.0283969035565370E+00
Ga    3.1617708361776273E+00    5.5849554691889276E+00    2.3533182526280108E+00
O    2.8666292042982562E+00    5.5650107419058132E+00    1.3685936939754262E-01
H    2.0718757599982434E+00    4.9832665083706829E+00   -8.1416945369029853E-02
C    6.3172616909668244E+00    7.5547376171073735E+00    1.2032317727048172E+00
H    9.6631578061270602E+00    1.9487118674933823E+00    1.6366853091148716E+00
H    6.6480089072800137E+00    8.4596074468428952E+00    6.7483282180660042E-01
H    5.7075321619545774E+00    6.8305638795355819E+00    6.4433329362538605E-01
     &END COORD
     &KIND C
       BASIS_SET DZVP-MOLOPT-SR-GTH-q4
       POTENTIAL GTH-PBE-q4
       &POTENTIAL
 2 2
  0.3384712400000000E+00 2 -0.8803673979999999E+01  0.1339210850000000E+01
 2
  0.3025757500000000E+00 1  0.9622486650000001E+01
  0.2915069400000000E+00 0
         # Potential name:  GTH-PBE-Q4  for symbol:  C
         # Potential read from the potential filename: GTH_POTENTIALS
       &END POTENTIAL
     &END KIND
     &KIND O
       BASIS_SET DZVP-MOLOPT-SR-GTH-q6
       POTENTIAL GTH-PBE-q6
       &POTENTIAL
 2 4
  0.2445543000000000E+00 2 -0.1666721480000000E+02  0.2487311320000000E+01
 2
  0.2209559200000000E+00 1  0.1833745811000000E+02
  0.2113324700000000E+00 0
         # Potential name:  GTH-PBE-Q6  for symbol:  O
         # Potential read from the potential filename: GTH_POTENTIALS
       &END POTENTIAL
     &END KIND
     &KIND H
       BASIS_SET DZVP-MOLOPT-SR-GTH-q1
       POTENTIAL GTH-PBE-q1
       &POTENTIAL
 1
  0.2000000000000000E+00 2 -0.4178900440000000E+01  0.7244633100000000E+00
 0
         # Potential name:  GTH-PBE-Q1  for symbol:  H
         # Potential read from the potential filename: GTH_POTENTIALS
       &END POTENTIAL
     &END KIND
     &KIND N
       BASIS_SET DZVP-MOLOPT-SR-GTH
       POTENTIAL GTH-PBE-q5
       &POTENTIAL
 2 3
  0.2837905100000000E+00 2 -0.1241522559000000E+02  0.1868095920000000E+01
 2
  0.2554050000000000E+00 1  0.1363026257000000E+02
  0.2454945300000000E+00 0
         # Potential name:  GTH-PBE-Q5  for symbol:  N
         # Potential read from the potential filename: GTH_POTENTIALS
       &END POTENTIAL
     &END KIND
     &KIND Ga
       BASIS_SET DZVP-MOLOPT-SR-GTH
       POTENTIAL GTH-PBE-q13
       &POTENTIAL
 2 1 10
  0.4900000000000000E+00 0
 3
  0.4167772300000000E+00 3  0.1047568975000000E+02 -0.4921768140000000E+01  0.8707055900000000E+00
  0.7770178090000000E+01 -0.2248152160000000E+01
  0.1784415450000000E+01
  0.5696265200000000E+00 2  0.1777985340000000E+01  0.1958597600000000E+00
 -0.2317443900000000E+00
  0.2381265000000000E+00 1 -0.1624868022000000E+02
         # Potential name:  GTH-PBE-Q13  for symbol:  GA
         # Potential read from the potential filename: GTH_POTENTIALS
       &END POTENTIAL
     &END KIND
     &TOPOLOGY
       NUMBER_OF_ATOMS  212
       MULTIPLE_UNIT_CELL  1 1 1
     &END TOPOLOGY
   &END SUBSYS
 &END FORCE_EVAL
