 # Version information for this restart file 
 # current date 2019-06-30 09:41:34.742
 # current working dir /scratch/rzk/rzk/GaN-carbene/443-adatoms-both-2x2/08-CH3O-H2O-H2C-H/01-Use-0701
 # Program compiled at                              Sun Apr  7 00:48:11 EDT 2019
 # Program compiled on                          beluga2.int.ets1.calculquebec.ca
 # Program compiled for                        Beluga-Linux-x86-64-intel-openmpi
 # Source code revision number                                         svn:18619
 &GLOBAL
   PRINT_LEVEL  MEDIUM
   PROJECT_NAME TEST
   RUN_TYPE  GEO_OPT
 &END GLOBAL
 &MOTION
   &GEO_OPT
     MAX_ITER  500
     STEP_START_VAL  50
   &END GEO_OPT
 &END MOTION
 &FORCE_EVAL
   METHOD  QS
   STRESS_TENSOR  ANALYTICAL
   &DFT
     BASIS_SET_FILE_NAME BASIS_MOLOPT
     POTENTIAL_FILE_NAME GTH_POTENTIALS
     UKS  T
     SURFACE_DIPOLE_CORRECTION  T
     SURF_DIP_DIR  Z
     &SCF
       MAX_SCF  80
       EPS_SCF     5.0000000000000004E-06
       &OT  T
         PRECONDITIONER  FULL_ALL
       &END OT
       &OUTER_SCF  T
         OPTIMIZER  NONE
         EPS_SCF     5.0000000000000004E-06
         MAX_SCF  4
       &END OUTER_SCF
       &PRINT
         &RESTART  OFF
           BACKUP_COPIES  1
           &EACH
             JUST_ENERGY  0
             QS_SCF  0
             MD  20
           &END EACH
         &END RESTART
       &END PRINT
     &END SCF
     &QS
       EPS_DEFAULT     1.0000000000000000E-14
       METHOD  GPW
     &END QS
     &MGRID
       NGRIDS  5
       CUTOFF     1.2000000000000000E+03
     &END MGRID
     &XC
       DENSITY_CUTOFF     1.0000000000000000E-10
       GRADIENT_CUTOFF     1.0000000000000000E-10
       TAU_CUTOFF     1.0000000000000000E-10
       &XC_FUNCTIONAL  NO_SHORTCUT
         &PBE  T
         &END PBE
       &END XC_FUNCTIONAL
       &VDW_POTENTIAL
         POTENTIAL_TYPE  PAIR_POTENTIAL
         &PAIR_POTENTIAL
           R_CUTOFF     1.0000000000000004E+01
           TYPE  DFTD3
           PARAMETER_FILE_NAME dftd3.dat
           REFERENCE_FUNCTIONAL PBE
           EPS_CN     9.9999999999999995E-07
           CALCULATE_C9_TERM  T
           REFERENCE_C9_TERM  T
           LONG_RANGE_CORRECTION  F
           VERBOSE_OUTPUT  F
         &END PAIR_POTENTIAL
       &END VDW_POTENTIAL
     &END XC
   &END DFT
   &SUBSYS
     &CELL
       A     1.2864472766435110E+01    0.0000000000000000E+00    0.0000000000000000E+00
       B    -6.4322363581020028E+00    1.1140960178524473E+01    0.0000000000000000E+00
       C     0.0000000000000000E+00    0.0000000000000000E+00    3.2000000000000000E+01
       MULTIPLE_UNIT_CELL  1 1 1
       &CELL_REF
         A     1.2982353780853531E+01    0.0000000000000000E+00    0.0000000000000000E+00
         B    -6.4911768904267628E+00    1.1243048175136114E+01    0.0000000000000000E+00
         C     0.0000000000000000E+00    0.0000000000000000E+00    3.2000000000000000E+01
         MULTIPLE_UNIT_CELL  1 1 1
       &END CELL_REF
     &END CELL
     &COORD
N    4.1833430351537115E-03    2.0468682154413713E+00    2.5116682267901269E+00
Ga   -1.2594398155634614E-02    9.4946173539310869E-02    2.9055397361613888E+00
N    2.0408975676696625E-02    6.0652950553296295E-02    5.0503677892560797E+00
Ga    8.5271222865949455E-03    1.8859013976270229E+00    5.8226714077570803E+00
N   -3.6900615604068144E-03    1.8942714659897157E+00    7.8132751851602524E+00
Ga   -5.2894691407999218E-03    4.6287944845092091E-02    8.4433381540804948E+00
N   -2.4228015808988204E-03    4.5542961064434291E-02    1.0417400664170792E+01
Ga   -1.0809787121373211E-03    1.8862178263104883E+00    1.1070956583343229E+01
N   -1.8411797259639685E-03    1.8666934119627014E+00    1.3065453225098230E+01
Ga   -9.8338682560599952E-04    4.7803898989708243E-02    1.3868246457370857E+01
N   -1.3547386561115120E-03    4.8782955885703118E-02    1.6070793618478472E+01
Ga   -1.0904537499690462E-03    2.0933136519791007E+00    1.6479823965470892E+01
Ga    6.3897067636978888E-02    3.7799803215208043E+00    1.3801188085671074E+00
N   -1.4800046435063170E+00    4.6130834906538327E+00    2.4942763096492713E+00
Ga   -1.6049590134532963E+00    2.8287443509126557E+00    3.3145400242937679E+00
N   -1.6212666012248289E+00    2.8248923549859200E+00    5.2545288920343980E+00
Ga   -1.6245689784157569E+00    4.7067054031140776E+00    5.8113632323695388E+00
N   -1.6216873205342690E+00    4.6936748353423594E+00    7.8048608729065947E+00
Ga   -1.6016154898859647E+00    2.8385663249019006E+00    8.4456570287581059E+00
N   -1.5995382030132874E+00    2.8396017704696828E+00    1.0436637050234211E+01
Ga   -1.6248063101251995E+00    4.6998553870884177E+00    1.1071984753151430E+01
N   -1.6420860750291872E+00    4.7079430049817388E+00    1.3066464652576560E+01
Ga   -1.5987518635571420E+00    2.8383366219581858E+00    1.3620475356841441E+01
N   -1.6246615416366428E+00    2.8221227136841556E+00    1.5583243062493720E+01
Ga   -1.4524263587436113E+00    4.5993006231885483E+00    1.6478909171357618E+01
N   -1.4078126807031163E-03    3.7704586471706834E+00    1.7612041288491490E+01
N   -3.2122256404688487E+00    7.6020532066050803E+00    2.5270042340091892E+00
Ga   -3.1876775784736506E+00    5.5808287696713776E+00    2.8681821324738919E+00
N   -3.2090848364446463E+00    5.6202217829161301E+00    5.0240169234117662E+00
Ga   -3.2050275734041596E+00    7.4360185728037687E+00    5.8079240267202321E+00
N   -3.2204720354770697E+00    7.4656671452105252E+00    7.7943336443440394E+00
Ga   -3.2188837977274476E+00    5.6161216624539634E+00    8.4436977726933478E+00
N   -3.2191377486187327E+00    5.6185610521402607E+00    1.0417122757595084E+01
Ga   -3.2171917830657675E+00    7.4578319381133049E+00    1.1069507777507681E+01
N   -3.2176190542083054E+00    7.4384577102366061E+00    1.3063400678860027E+01
Ga   -3.2171745142965875E+00    5.6187625577753861E+00    1.3868827494302359E+01
N   -3.2175111472948839E+00    5.6197868336699228E+00    1.6070774051645948E+01
Ga   -3.2170678960328107E+00    7.6638119293098761E+00    1.6481470849109002E+01
Ga   -3.1475990899392445E+00    9.3625531819874439E+00    1.5142800003157091E+00
N   -4.7114192976772813E+00    1.0199069618885630E+01    2.5033899089767528E+00
Ga   -4.8130086704872932E+00    8.4309811219298432E+00    3.3411435480849758E+00
N   -4.8465669419526947E+00    8.3943777822895544E+00    5.2457849382930739E+00
Ga   -4.8481058270098831E+00    1.0290944271359692E+01    5.8236559613193064E+00
N   -4.8312449517457177E+00    1.0261465046693120E+01    7.8055140128790708E+00
Ga   -4.8197126963098675E+00    8.4051423479167813E+00    8.4396969805621875E+00
N   -4.8159135581159003E+00    8.4080626508884659E+00    1.0429218145223530E+01
Ga   -4.8405976263036647E+00    1.0268302470994252E+01    1.1069592724674724E+01
N   -4.8571387129774886E+00    1.0277604531023270E+01    1.3064119674771272E+01
Ga   -4.8135811724431603E+00    8.4094463887969031E+00    1.3622613295734576E+01
N   -4.8405227741117391E+00    8.3927063697636726E+00    1.5584459461965912E+01
Ga   -4.6681652372510110E+00    1.0169419326462263E+01    1.6480751033655235E+01
N   -3.2168766460720519E+00    9.3404938968072457E+00    1.7613517097261997E+01
N    3.2007789512940810E+00    1.9205122923516744E+00    2.6144844705108992E+00
Ga    3.2244932459046343E+00    1.8961164150627033E-01    3.2990988864857642E+00
N    3.2173739372455321E+00    4.5765215874271355E-02    5.2561250066291665E+00
Ga    3.2228412225237637E+00    1.9184224290006948E+00    5.8745684083458123E+00
N    3.2200437514921822E+00    1.9040818942089885E+00    7.8539213246732773E+00
Ga    3.2201788473346431E+00    3.9782072309279007E-02    8.4451190785511958E+00
N    3.2151957828535260E+00    3.4737723069481419E-02    1.0436524737373702E+01
Ga    3.2160489078622807E+00    1.9043519365824184E+00    1.1032825284601607E+01
N    3.2156707942438101E+00    1.9036269941024038E+00    1.3004489139214858E+01
Ga    3.2156795630443109E+00    3.3294120585977464E-02    1.3621363437451670E+01
N    3.2148406612747715E+00    6.5834714101342617E-02    1.5585002415625034E+01
Ga    3.2149691846933113E+00    1.9043730383553992E+00    1.5860071723547762E+01
N    1.4763549863864174E+00    4.6096993338855468E+00    2.5546763582538543E+00
Ga    1.6906211755907385E+00    2.8069896203494098E+00    3.3099056606075825E+00
N    1.6093190530606079E+00    2.8309565709445161E+00    5.2772455672656644E+00
Ga    1.6475115476276012E+00    4.7126021235764544E+00    5.8175944072057426E+00
N    1.6069963531055802E+00    4.6900582082906359E+00    7.8296678515842313E+00
Ga    1.5999405056032614E+00    2.8393824665885883E+00    8.4482792276970269E+00
N    1.5972204366278171E+00    2.8358047112079676E+00    1.0442478582534465E+01
Ga    1.6232574490642848E+00    4.7002893472117382E+00    1.1066060774864257E+01
N    1.6389567400438358E+00    4.7083549914568987E+00    1.3064171667641228E+01
Ga    1.5952330155131669E+00    2.8397033042749902E+00    1.3619921522090740E+01
N    1.6217124270295376E+00    2.8223725357941931E+00    1.5583170265103067E+01
Ga    1.4502692355675388E+00    4.5993365337169712E+00    1.6478511070500119E+01
N    7.6419498991352856E-03    7.4545506979790712E+00    2.5997754377871405E+00
Ga    2.3967404775699950E-02    5.7052747631267096E+00    3.2973591429060045E+00
N   -2.9010962355474749E-03    5.6187866412979917E+00    5.2672811025165860E+00
Ga    2.1336659708165267E-02    7.4747421970568455E+00    5.8641218566515230E+00
N    1.9460629031633758E-03    7.4779380153478670E+00    7.8463922909939807E+00
Ga   -4.6232452688033462E-04    5.6093588964200034E+00    8.4438454105120044E+00
N   -4.5202538000223254E-03    5.6084966001784524E+00    1.0439677684491205E+01
Ga   -8.7886779622715384E-04    7.4772012080896895E+00    1.1028074112056217E+01
N   -1.3198453574959472E-03    7.4760753320729583E+00    1.3000949768610205E+01
Ga   -6.5420836252256165E-04    5.6050682808158605E+00    1.3619679727401003E+01
N   -1.3006887047784562E-03    5.6368872846751419E+00    1.5584150630919897E+01
Ga   -1.0370213119546552E-03    7.4748809694155014E+00    1.5860372935492348E+01
N   -1.7024492473762340E+00    1.0205820118714124E+01    2.5498701479654766E+00
Ga   -1.4732049585870148E+00    8.3370677853626436E+00    3.2994533949200298E+00
N   -1.6079423433141535E+00    8.4037481001365624E+00    5.2544851769551588E+00
Ga   -1.5786167490823715E+00    1.0276416196976379E+01    5.8106331076573294E+00
N   -1.5997757110821349E+00    1.0264901186259420E+01    7.8034087813319308E+00
Ga   -1.6134157348306617E+00    8.4083362233690409E+00    8.4371851206255251E+00
N   -1.6214312501370363E+00    8.4093247095170938E+00    1.0431003599912982E+01
Ga   -1.5917380279370745E+00    1.0268940054546979E+01    1.1068081842380368E+01
N   -1.5763926548602212E+00    1.0278364537601623E+01    1.3063561477614764E+01
Ga   -1.6203411097087739E+00    8.4097121201185736E+00    1.3620726725869018E+01
N   -1.5944606756574704E+00    8.3927183946067689E+00    1.5583260918061709E+01
Ga   -1.7660635736584203E+00    1.0169308588502108E+01    1.6479974110182855E+01
N    6.4264638112953119E+00    2.0178430753971006E+00    2.5175502166094046E+00
Ga    6.4607853130803825E+00    5.6709113309102575E-02    2.8974729778001840E+00
N    6.4264271560738155E+00    5.0755342276154226E-02    5.0413833618996975E+00
Ga    6.4240477243917251E+00    1.8786947347781464E+00    5.7977826015269640E+00
N    6.4336574429938453E+00    1.8958847193870787E+00    7.7945284329768132E+00
Ga    6.4385948784279980E+00    4.7584599049352527E-02    8.4358728206627962E+00
N    6.4337005873168147E+00    4.7878903191665045E-02    1.0414210788438094E+01
Ga    6.4333178467061627E+00    1.8862353518360040E+00    1.1069508882768487E+01
N    6.4326824743880380E+00    1.8672948411884007E+00    1.3064071531431585E+01
Ga    6.4318753370419737E+00    4.7885068925073153E-02    1.3866983325384759E+01
N    6.4312089702402488E+00    4.8900500565162271E-02    1.6070414162816736E+01
Ga    6.4307730638289780E+00    2.0934558580394964E+00    1.6481010548094574E+01
Ga    6.3876142865028553E+00    3.6585489867353100E+00    1.1931965383055425E+00
N    4.9151784616752359E+00    4.6168127763707956E+00    2.3996261643005279E+00
Ga    4.7311615370517952E+00    2.8047577990063104E+00    3.2458356372648325E+00
N    4.8296085213257411E+00    2.8415869411083503E+00    5.2304761548216909E+00
Ga    4.7685347910372125E+00    4.7076040473154039E+00    5.8183390923045728E+00
N    4.8301035517889703E+00    4.6891415051835725E+00    7.8199161955889744E+00
Ga    4.8373814265407118E+00    2.8368265053662682E+00    8.4477149552715520E+00
N    4.8356793532686257E+00    2.8371069820284633E+00    1.0440443443669007E+01
Ga    4.8077739901230450E+00    4.7001059503646250E+00    1.1067442967183981E+01
N    4.7924035994421939E+00    4.7082421095576885E+00    1.3064118341532113E+01
Ga    4.8357184474493797E+00    2.8392982311861967E+00    1.3620272294242518E+01
N    4.8082630688395085E+00    2.8223312812243435E+00    1.5583116656399433E+01
Ga    4.9796068834047755E+00    4.5987378183911716E+00    1.6480024995649597E+01
N    6.4307587078210817E+00    3.7699778900271648E+00    1.7613660854488252E+01
N    3.1883225963718194E+00    7.5525779148420646E+00    2.3877867412093234E+00
N    3.2167533904469314E+00    5.6091557551270483E+00    5.1496560145326393E+00
Ga    3.1990606553462344E+00    7.4110270813245727E+00    5.8026830186667153E+00
N    3.2192168380971675E+00    7.4793689487769504E+00    7.8089883284866124E+00
Ga    3.2162858601873467E+00    5.6198943011210822E+00    8.4325325054214204E+00
N    3.2171376202445603E+00    5.6199103487628141E+00    1.0417616771483321E+01
Ga    3.2150677271378698E+00    7.4579574398350656E+00    1.1064972106668597E+01
N    3.2155579244552399E+00    7.4393144383508574E+00    1.3061897068192543E+01
Ga    3.2151822258946159E+00    5.6189859219851810E+00    1.3864233356445704E+01
N    3.2149111391667384E+00    5.6198967110895817E+00    1.6070433110224421E+01
Ga    3.2144279710442847E+00    7.6633439932185352E+00    1.6480140692883271E+01
Ga    2.8580083171225699E+00    9.3709093730116493E+00    8.5262853892833379E-01
N    1.6786369226959945E+00    1.0206887959328261E+01    2.4850472699790966E+00
Ga    1.5499270859735748E+00    8.3464650390674091E+00    3.2038562024905528E+00
N    1.6178684047369110E+00    8.4019417655380604E+00    5.2112935442711725E+00
Ga    1.5897294984441608E+00    1.0266428205639581E+01    5.7721600441811454E+00
N    1.6023552406785795E+00    1.0266900328174488E+01    7.7800466542686060E+00
Ga    1.6184328949636526E+00    8.4145078021972690E+00    8.4359193689601604E+00
N    1.6168998971850892E+00    8.4124510338195382E+00    1.0432890042087767E+01
Ga    1.5932039787444694E+00    1.0269417706814796E+01    1.1068690555407590E+01
N    1.5760317990331036E+00    1.0279148384455921E+01    1.3063945289658863E+01
Ga    1.6188963365253513E+00    8.4097081237077695E+00    1.3619412215186575E+01
N    1.5919830622819959E+00    8.3929356137444788E+00    1.5582330921973806E+01
Ga    1.7634364484244396E+00    1.0169027897181151E+01    1.6479537930694331E+01
N    3.2142638372038048E+00    9.3402214175294240E+00    1.7613228567152742E+01
N    9.6509333501122541E+00    1.9084781894566585E+00    2.6636737841934082E+00
Ga    9.6528898493267281E+00    2.4974798142997547E-02    3.2101041323899935E+00
N    9.6514446390280977E+00    6.0009243330819202E-02    5.1941013186428382E+00
Ga    9.6462957753286656E+00    1.8916598209135782E+00    5.8766770406317015E+00
N    9.6468048741979668E+00    1.9018627411274600E+00    7.8455466135862828E+00
Ga    9.6466814579023055E+00    3.1676312044297487E-02    8.4307024687514858E+00
N    9.6491937484660344E+00    3.4628640217687308E-02    1.0426346059300247E+01
Ga    9.6463424204108197E+00    1.9039465485551739E+00    1.1025598576173271E+01
N    9.6464928387437254E+00    1.9037170152097631E+00    1.2998075730421588E+01
Ga    9.6470051837340112E+00    3.4823338109565144E-02    1.3622106304803109E+01
N    9.6471555686627806E+00    6.6611864586872335E-02    1.5585419384765194E+01
Ga    9.6472849736817636E+00    1.9043366926457017E+00    1.5863666343096138E+01
N    7.9531137674747470E+00    4.6302965771619080E+00    2.5055059264211281E+00
Ga    8.0414130779184703E+00    2.8265295561026775E+00    3.2861225471879973E+00
N    8.0516687300414986E+00    2.8275700418736980E+00    5.2332492214577657E+00
Ga    8.0701041165599872E+00    4.7070927992236742E+00    5.7881959402347167E+00
N    8.0464608840327347E+00    4.6980080429158653E+00    7.7817922508605717E+00
Ga    8.0288016971940852E+00    2.8392250122473972E+00    8.4336896678393263E+00
N    8.0291737687771931E+00    2.8415171407319666E+00    1.0427847906947241E+01
Ga    8.0548746773754871E+00    4.6985480791352545E+00    1.1072867148410088E+01
N    8.0712868131066724E+00    4.7074769144130251E+00    1.3066162650699455E+01
Ga    8.0284917197573478E+00    2.8382448250715773E+00    1.3622016052746320E+01
N    8.0546162102128225E+00    2.8221551023592517E+00    1.5584194817783082E+01
Ga    7.8816704370862301E+00    4.5987759976889686E+00    1.6480868991815061E+01
N    6.5927287811683843E+00    7.3690598922625341E+00    2.4478033961674539E+00
Ga    6.3864629387484273E+00    5.5259039717222969E+00    3.2763193163596052E+00
N    6.4255888814160977E+00    5.6274767094555429E+00    5.2048652829592896E+00
Ga    6.4047476332329767E+00    7.4646491176346155E+00    5.8627129574209427E+00
N    6.4258843989957670E+00    7.4742777522134984E+00    7.8282149628845445E+00
Ga    6.4325943489925015E+00    5.6060441110305854E+00    8.4448959664151886E+00
N    6.4354874310137005E+00    5.6095732820148854E+00    1.0435312627958851E+01
Ga    6.4312115321420382E+00    7.4766027830776531E+00    1.1032225416863472E+01
N    6.4314257884849253E+00    7.4754618793893224E+00    1.3002320410537445E+01
Ga    6.4310444679059504E+00    5.6044954856729570E+00    1.3622128058124709E+01
N    6.4311023704660775E+00    5.6370404618485228E+00    1.5585511201908909E+01
Ga    6.4307614381013627E+00    7.4748696031832740E+00    1.5862570082190430E+01
N    4.7922108994181682E+00    1.0245456487121222E+01    2.4912603090013126E+00
Ga    4.5598335610495733E+00    8.5250021863796359E+00    3.2661341530512038E+00
N    4.8269872526342583E+00    8.3953532321049860E+00    5.1803436681261923E+00
Ga    4.8542178410672241E+00    1.0288180825719765E+01    5.7750337473341116E+00
N    4.8330706477398460E+00    1.0262478452590733E+01    7.7741120037474776E+00
Ga    4.8104243013004258E+00    8.4126867804208381E+00    8.4404108309234758E+00
N    4.8164285138809033E+00    8.4122692949073272E+00    1.0432127903835172E+01
Ga    4.8376175338482650E+00    1.0269413403923695E+01    1.1072051165252077E+01
N    4.8544746708283961E+00    1.0278672875045972E+01    1.3065646025526737E+01
Ga    4.8108483655052696E+00    8.4094810930729746E+00    1.3621472180594413E+01
N    4.8379033565783063E+00    8.3927791709191712E+00    1.5583716718031660E+01
Ga    4.6656375320318748E+00    1.0169060264191714E+01    1.6480225892192589E+01
O    6.3873261050829178E-01    3.9659773534991833E+00   -3.7756933508551288E-01
H    2.5795093693617059E+00    6.4762358366966950E+00   -5.8931991430278198E-02
C    9.8624059384253182E-01    2.7513713721288999E+00   -1.0750831011412290E+00
H    1.7009051944040736E+00    2.1373455562738743E+00   -5.0198074569667528E-01
H    9.3905366061048393E-02    2.1448524078224693E+00   -1.2927731739196331E+00
H    1.4521616859411290E+00    3.0364072754605780E+00   -2.0293127829158704E+00
Ga    3.1619983264313039E+00    5.5845212881083421E+00    2.3538255806176074E+00
O    2.8666858220099112E+00    5.5646315762001475E+00    1.3786760398582379E-01
H    2.0715855625173738E+00    4.9830941364908323E+00   -8.0785412121876524E-02
C    6.3172692178139496E+00    7.5533268078439049E+00    1.2024121548111844E+00
H    9.6638865441253223E+00    1.9473287215171267E+00    1.6375013813860952E+00
H    6.6480732020647197E+00    8.4580986305471537E+00    6.7292574319495191E-01
H    5.7099079379136617E+00    6.8273464455123101E+00    6.4172430161658045E-01
     &END COORD
     &KIND C
       BASIS_SET DZVP-MOLOPT-SR-GTH-q4
       POTENTIAL GTH-PBE-q4
       &POTENTIAL
 2 2
  0.3384712400000000E+00 2 -0.8803673979999999E+01  0.1339210850000000E+01
 2
  0.3025757500000000E+00 1  0.9622486650000001E+01
  0.2915069400000000E+00 0
         # Potential name:  GTH-PBE-Q4  for symbol:  C
         # Potential read from the potential filename: GTH_POTENTIALS
       &END POTENTIAL
     &END KIND
     &KIND O
       BASIS_SET DZVP-MOLOPT-SR-GTH-q6
       POTENTIAL GTH-PBE-q6
       &POTENTIAL
 2 4
  0.2445543000000000E+00 2 -0.1666721480000000E+02  0.2487311320000000E+01
 2
  0.2209559200000000E+00 1  0.1833745811000000E+02
  0.2113324700000000E+00 0
         # Potential name:  GTH-PBE-Q6  for symbol:  O
         # Potential read from the potential filename: GTH_POTENTIALS
       &END POTENTIAL
     &END KIND
     &KIND H
       BASIS_SET DZVP-MOLOPT-SR-GTH-q1
       POTENTIAL GTH-PBE-q1
       &POTENTIAL
 1
  0.2000000000000000E+00 2 -0.4178900440000000E+01  0.7244633100000000E+00
 0
         # Potential name:  GTH-PBE-Q1  for symbol:  H
         # Potential read from the potential filename: GTH_POTENTIALS
       &END POTENTIAL
     &END KIND
     &KIND N
       BASIS_SET DZVP-MOLOPT-SR-GTH
       POTENTIAL GTH-PBE-q5
       &POTENTIAL
 2 3
  0.2837905100000000E+00 2 -0.1241522559000000E+02  0.1868095920000000E+01
 2
  0.2554050000000000E+00 1  0.1363026257000000E+02
  0.2454945300000000E+00 0
         # Potential name:  GTH-PBE-Q5  for symbol:  N
         # Potential read from the potential filename: GTH_POTENTIALS
       &END POTENTIAL
     &END KIND
     &KIND Ga
       BASIS_SET DZVP-MOLOPT-SR-GTH
       POTENTIAL GTH-PBE-q13
       &POTENTIAL
 2 1 10
  0.4900000000000000E+00 0
 3
  0.4167772300000000E+00 3  0.1047568975000000E+02 -0.4921768140000000E+01  0.8707055900000000E+00
  0.7770178090000000E+01 -0.2248152160000000E+01
  0.1784415450000000E+01
  0.5696265200000000E+00 2  0.1777985340000000E+01  0.1958597600000000E+00
 -0.2317443900000000E+00
  0.2381265000000000E+00 1 -0.1624868022000000E+02
         # Potential name:  GTH-PBE-Q13  for symbol:  GA
         # Potential read from the potential filename: GTH_POTENTIALS
       &END POTENTIAL
     &END KIND
     &TOPOLOGY
       NUMBER_OF_ATOMS  212
       MULTIPLE_UNIT_CELL  1 1 1
     &END TOPOLOGY
   &END SUBSYS
 &END FORCE_EVAL
