 # Version information for this restart file 
 # current date 2019-06-09 08:06:08.815
 # current working dir /lustre03/project/6037349/rzk/GaN-carbene/444-addat/00-Surface/UKS_SYMM
 # Program compiled at                              Sun Apr  7 00:48:11 EDT 2019
 # Program compiled on                          beluga2.int.ets1.calculquebec.ca
 # Program compiled for                        Beluga-Linux-x86-64-intel-openmpi
 # Source code revision number                                         svn:18619
 &GLOBAL
   PRINT_LEVEL  MEDIUM
   PROJECT_NAME TEST
   RUN_TYPE  CELL_OPT
 &END GLOBAL
 &MOTION
   &CELL_OPT
     MAX_ITER  300
     STEP_START_VAL  48
     EXTERNAL_PRESSURE     1.0000000000000000E+00
     KEEP_ANGLES  T
     KEEP_SYMMETRY  T
     CONSTRAINT  Z
     PRESSURE_TOLERANCE     5.0000000000000000E+02
   &END CELL_OPT
 &END MOTION
 &FORCE_EVAL
   METHOD  QS
   STRESS_TENSOR  ANALYTICAL
   &DFT
     BASIS_SET_FILE_NAME BASIS_MOLOPT
     POTENTIAL_FILE_NAME GTH_POTENTIALS
     UKS  T
     SURFACE_DIPOLE_CORRECTION  T
     SURF_DIP_DIR  Z
     &SCF
       MAX_SCF  100
       EPS_SCF     5.0000000000000004E-06
       &OT  T
         PRECONDITIONER  FULL_ALL
       &END OT
       &OUTER_SCF  T
         OPTIMIZER  NONE
         EPS_SCF     5.0000000000000004E-06
         MAX_SCF  4
       &END OUTER_SCF
       &PRINT
         &RESTART  OFF
           BACKUP_COPIES  1
           &EACH
             JUST_ENERGY  0
             QS_SCF  0
             MD  20
           &END EACH
         &END RESTART
       &END PRINT
     &END SCF
     &QS
       EPS_DEFAULT     1.0000000000000000E-14
       METHOD  GPW
     &END QS
     &MGRID
       NGRIDS  5
       CUTOFF     1.2000000000000000E+03
     &END MGRID
     &XC
       DENSITY_CUTOFF     1.0000000000000000E-10
       GRADIENT_CUTOFF     1.0000000000000000E-10
       TAU_CUTOFF     1.0000000000000000E-10
       &XC_FUNCTIONAL  NO_SHORTCUT
         &PBE  T
         &END PBE
       &END XC_FUNCTIONAL
       &VDW_POTENTIAL
         POTENTIAL_TYPE  PAIR_POTENTIAL
         &PAIR_POTENTIAL
           R_CUTOFF     1.0000000000000004E+01
           TYPE  DFTD3
           PARAMETER_FILE_NAME dftd3.dat
           REFERENCE_FUNCTIONAL PBE
           EPS_CN     9.9999999999999995E-07
           CALCULATE_C9_TERM  T
           REFERENCE_C9_TERM  T
           LONG_RANGE_CORRECTION  F
           VERBOSE_OUTPUT  F
         &END PAIR_POTENTIAL
       &END VDW_POTENTIAL
     &END XC
   &END DFT
   &SUBSYS
     &CELL
       A     1.2831611333584737E+01    0.0000000000000000E+00    0.0000000000000000E+00
       B    -6.4142616914039303E+00    1.1109827142554348E+01    0.0000000000000000E+00
       C     0.0000000000000000E+00    0.0000000000000000E+00    3.2000000000000000E+01
       MULTIPLE_UNIT_CELL  1 1 1
       &CELL_REF
         A     1.2982353780853531E+01    0.0000000000000000E+00    0.0000000000000000E+00
         B    -6.4911768904267628E+00    1.1243048175136114E+01    0.0000000000000000E+00
         C     0.0000000000000000E+00    0.0000000000000000E+00    3.2000000000000000E+01
         MULTIPLE_UNIT_CELL  1 1 1
       &END CELL_REF
     &END CELL
     &COORD
N    3.6816795904062168E-04   -2.1959229608786422E-04   -2.0738658230779070E-01
Ga    6.9010550631238448E-04    1.8515450073284061E+00    4.7344875839948625E-01
N    7.4264193988344933E-04    1.8518174227070043E+00    2.3906147654634471E+00
Ga    5.0664308133714165E-04    1.8271955677846706E-05    3.1190988227485974E+00
N    7.7699998722513715E-04    2.1876554157284806E-04    5.0403454509492809E+00
Ga    1.1498673140819804E-03    1.8520879913994168E+00    5.7563083546433491E+00
N    1.5985706232232654E-03    1.8535223546068631E+00    7.6793962214083171E+00
Ga    1.2033508171107293E-03    2.2381495881353877E-03    8.3926850657801513E+00
N    1.3962151522393734E-03    4.6634968534425697E-03    1.0316615622110154E+01
Ga    2.9211370203383450E-03    1.8566266728437877E+00    1.1030572836730066E+01
N    3.6591966130794322E-03    1.8594879361832206E+00    1.2957274501859407E+01
Ga    1.6074480983966140E-03    5.4371056794938607E-03    1.3669582430313916E+01
N   -7.0266223665712193E-03    1.9974406589804198E-03    1.5587341571769551E+01
Ga   -1.5622262098823343E-03    1.8497738595948952E+00    1.6653701018889489E+01
N    1.5953174975791284E+00    9.1795022607713195E-01    1.7529143834929258E+01
N   -1.6032373794613299E+00    2.7772775797601792E+00   -2.0725286469189108E-01
Ga   -1.6028372072582704E+00    4.6290369613503071E+00    4.7355979669628268E-01
N   -1.6027274697573921E+00    4.6293358866534389E+00    2.3907402459449312E+00
Ga   -1.6030934795066190E+00    2.7776003639195710E+00    3.1194014205165699E+00
N   -1.6028493300238857E+00    2.7779230701496305E+00    5.0406532518795606E+00
Ga   -1.6023464791777930E+00    4.6298005724316083E+00    5.7569059645018044E+00
N   -1.6018701232179287E+00    4.6313184875338411E+00    7.6801566548214151E+00
Ga   -1.6017037817739328E+00    2.7797584293905038E+00    8.3931082583349639E+00
N   -1.6007028217635522E+00    2.7820251331115942E+00    1.0317190570035287E+01
Ga   -1.6014163260075103E+00    4.6335504171970703E+00    1.1030843698631047E+01
N   -1.6016249453492608E+00    4.6347481401453976E+00    1.2956886886090842E+01
Ga   -1.6015518679408201E+00    2.7826453026505895E+00    1.3676201329035228E+01
N   -1.5948766736040914E+00    2.7856791100293563E+00    1.5601132543160260E+01
Ga   -1.6044955963325869E+00    4.6269488520194386E+00    1.6606323567136958E+01
N   -1.7849064685434655E-02    3.7049754713151946E+00    1.7532214800140494E+01
N   -3.2067692744023182E+00    5.5546945778457300E+00   -2.0720318752010855E-01
Ga   -3.2063547050306238E+00    7.4064658732683570E+00    4.7357718292592799E-01
N   -3.2061871451428310E+00    7.4067700442372608E+00    2.3907430243615044E+00
Ga   -3.2065444301855615E+00    5.5550798383654714E+00    3.1194974779657545E+00
N   -3.2062565378299808E+00    5.5554337509455394E+00    5.0407268804206478E+00
Ga   -3.2057758411864468E+00    7.4072469045381721E+00    5.7568587666718916E+00
N   -3.2051784267052654E+00    7.4086465206262133E+00    7.6800820924189788E+00
Ga   -3.2055911606910663E+00    5.5572028166941978E+00    8.3938698477743170E+00
N   -3.2051168449342406E+00    5.5591255143853688E+00    1.0318046026190173E+01
Ga   -3.2047962527114140E+00    7.4109782911673916E+00    1.1030758725824221E+01
N   -3.2043087071958793E+00    7.4141578241202257E+00    1.2956592123260307E+01
Ga   -3.2051906691524596E+00    5.5638470271175402E+00    1.3678492285727090E+01
N   -3.2085217178122587E+00    5.5427766360245467E+00    1.5598805156357587E+01
Ga   -3.2304669370372947E+00    7.4044675630301846E+00    1.6634968300765628E+01
N   -1.6234422822845649E+00    6.4713755222906446E+00    1.7521559299054445E+01
N   -4.8102910644278722E+00    8.3320823597116611E+00   -2.0728599197532807E-01
Ga   -4.8099494901231443E+00    1.0183903037934144E+01    4.7337283372169697E-01
N   -4.8098206001043886E+00    1.0184180974119863E+01    2.3905382969557660E+00
Ga   -4.8100951139604540E+00    8.3324668481686857E+00    3.1192778013896532E+00
N   -4.8097506937150429E+00    8.3327356555429208E+00    5.0404978223607939E+00
Ga   -4.8094623930991816E+00    1.0184569722803630E+01    5.7566266222322504E+00
N   -4.8089793458258754E+00    1.0185931700439745E+01    7.6799447058804660E+00
Ga   -4.8092770955860882E+00    8.3340928656330675E+00    8.3928791447706903E+00
N   -4.8088937866723240E+00    8.3354683017527371E+00    1.0316710856622215E+01
Ga   -4.8087548761607684E+00    1.0187918924670100E+01    1.1026776436500715E+01
N   -4.8097742919232029E+00    1.0190121569193357E+01    1.2950027415503387E+01
Ga   -4.8091301091461736E+00    8.3413862001495129E+00    1.3674365544212487E+01
N   -4.8152898577863006E+00    8.3412889917010631E+00    1.5593091530866314E+01
Ga   -4.8220898665067473E+00    1.0191670532199254E+01    1.6615067962092272E+01
N   -3.2290523532218853E+00    9.2503112914845467E+00    1.7515708896590748E+01
N    3.2083039157787496E+00   -2.4970812616947495E-04   -2.0731475191270377E-01
Ga    3.2086646191074952E+00    1.8515331167255349E+00    4.7342916487855990E-01
N    3.2087901424247600E+00    1.8518128539502778E+00    2.3906098827815563E+00
Ga    3.2084898688374350E+00    5.5004327128293370E-05    3.1192798894511871E+00
N    3.2088390003309484E+00    2.4424462344916888E-04    5.0405462617867549E+00
Ga    3.2091481639897736E+00    1.8521168345427592E+00    5.7564609622066962E+00
N    3.2096171896054315E+00    1.8533666959077741E+00    7.6795890502149149E+00
Ga    3.2095678060007100E+00    2.0677817947787518E-03    8.3931952523131130E+00
N    3.2101502983323176E+00    3.9759809614329121E-03    1.0317091688965883E+01
Ga    3.2097879555043685E+00    1.8558762944831699E+00    1.1030303296833546E+01
N    3.2102841885228193E+00    1.8582927583153719E+00    1.2955806786562272E+01
Ga    3.2073535183750796E+00    6.0977573110161474E-03    1.3670902512126194E+01
N    3.1940371087852872E+00   -7.6228788604233337E-03    1.5589050196757645E+01
Ga    3.2069626532073396E+00    1.8560423330413656E+00    1.6659617683072906E+01
N    4.7890202602294298E+00    9.0710954134534572E-01    1.7519889653035133E+01
N    1.6046867457686915E+00    2.7772103474118364E+00   -2.0728599684529997E-01
Ga    1.6050150087535950E+00    4.6290170532707187E+00    4.7339235129958041E-01
N    1.6050888526888811E+00    4.6292947674800420E+00    2.3905677041922178E+00
Ga    1.6048523078369323E+00    2.7775289491470310E+00    3.1191728009110351E+00
N    1.6051345471177050E+00    2.7777053056816201E+00    5.0403629721569381E+00
Ga    1.6054471530628627E+00    4.6295263259073698E+00    5.7565757204494332E+00
N    1.6057669038209892E+00    4.6307515149372485E+00    7.6797636857413636E+00
Ga    1.6057810282273217E+00    2.7789938130920233E+00    8.3926489705403871E+00
N    1.6063916286711053E+00    2.7807373438446583E+00    1.0316537141240337E+01
Ga    1.6070084294289928E+00    4.6320529101168546E+00    1.1028863424994135E+01
N    1.6069176139778809E+00    4.6329385006804147E+00    1.2953492114043422E+01
Ga    1.6088922490341164E+00    2.7833167578790552E+00    1.3680481961377534E+01
N    1.5993064288434327E+00    2.7822548581379780E+00    1.5604251307682595E+01
Ga    1.5904112472309042E+00    4.6311557062712465E+00    1.6618132119945681E+01
N    3.1901150538251266E+00    3.7131819517462148E+00    1.7523675548036145E+01
N    1.0770755812932722E-03    5.5547187290048727E+00   -2.0730214775996025E-01
Ga    1.4833138150846666E-03    7.4064821915377275E+00    4.7355877778573863E-01
N    1.6017236456044891E-03    7.4067956969445587E+00    2.3907515197449993E+00
Ga    1.3018307869508538E-03    5.5550519677581693E+00    3.1194227434799942E+00
N    1.5638174292611281E-03    5.5554225579716316E+00    5.0406590498205803E+00
Ga    2.0632187140081659E-03    7.4072829140036909E+00    5.7568093965632530E+00
N    2.6261940499329472E-03    7.4087101798560235E+00    7.6801406681386988E+00
Ga    2.2769291127493628E-03    5.5570125971004982E+00    8.3935732223197448E+00
N    2.8075313795955922E-03    5.5590715226657350E+00    1.0317801954920967E+01
Ga    3.8190089833107614E-03    7.4118603967316945E+00    1.1028324452118181E+01
N    4.4736413274822848E-03    7.4141165336487775E+00    1.2953589770715356E+01
Ga    4.9174676521478496E-03    5.5625684466079282E+00    1.3667811511269873E+01
N   -1.6545686239378150E-03    5.5511245609399786E+00    1.5584852949255540E+01
Ga   -1.0363021241101968E-02    7.3873549215851915E+00    1.6624350236932777E+01
N    1.5908868395703619E+00    6.4739156346793783E+00    1.7529337631008499E+01
N   -1.6024377489694013E+00    8.3321505436144818E+00   -2.0723994763564996E-01
Ga   -1.6020249668563733E+00    1.0183931003600735E+01    4.7350293257520049E-01
N   -1.6018511521059426E+00    1.0184240358705210E+01    2.3906858374417816E+00
Ga   -1.6022195513263100E+00    8.3325791693047364E+00    3.1194818964973994E+00
N   -1.6018856107432853E+00    8.3329463924319729E+00    5.0407560697142921E+00
Ga   -1.6013730722456847E+00    1.0184763291979948E+01    5.7569731440309777E+00
N   -1.6007194395306334E+00    1.0186196832389847E+01    7.6802538886814444E+00
Ga   -1.6012672425808681E+00    8.3346642326480040E+00    8.3935086064601609E+00
N   -1.6009026127920072E+00    8.3366956802962093E+00    1.0317695485563419E+01
Ga   -1.6002754534649577E+00    1.0188714306250633E+01    1.1030659159530328E+01
N   -1.5996516783036359E+00    1.0191302155423092E+01    1.2956241664170241E+01
Ga   -1.5985807834893784E+00    8.3399206762353693E+00    1.3674936821765034E+01
N   -1.6143092666473595E+00    8.3317641834071523E+00    1.5596918067906957E+01
Ga   -1.6201959922550222E+00    1.0187315099373579E+01    1.6628996913275369E+01
N   -2.4013342015687254E-02    9.2183375851919855E+00    1.7510956107463688E+01
N    6.4161615805322594E+00   -1.7744811020575717E-04   -2.0723484175298043E-01
Ga    6.4165824771140070E+00    1.8515777368803013E+00    4.7359438684089999E-01
N    6.4167457775074901E+00    1.8518790569099028E+00    2.3907730809517065E+00
Ga    6.4163897292186833E+00    1.7975510678048534E-04    3.1194242681819917E+00
N    6.4167023763208038E+00    5.4599501539782220E-04    5.0407187957689166E+00
Ga    6.4170779629233703E+00    1.8523142210725563E+00    5.7570334515591410E+00
N    6.4176428209124525E+00    1.8537565512572323E+00    7.6802803539101401E+00
Ga    6.4174163304365281E+00    2.4424295780033586E-03    8.3940939419324092E+00
N    6.4179180243430700E+00    4.4286998358746155E-03    1.0318257688759671E+01
Ga    6.4180183728571523E+00    1.8564132275822938E+00    1.1031046802840297E+01
N    6.4187641254801973E+00    1.8594156097604444E+00    1.2957247520465152E+01
Ga    6.4178223329329693E+00    9.1686864542980823E-03    1.3678634550199973E+01
N    6.4139654277924683E+00   -1.0936262103976236E-02    1.5599555913448105E+01
Ga    6.3932808789715594E+00    1.8486844578774464E+00    1.6636579640807039E+01
N    8.0004970642602942E+00    9.1476490854298176E-01    1.7522169597092532E+01
N    4.8126487672742773E+00    2.7771988894563422E+00   -2.0729450917040920E-01
Ga    4.8129935866708875E+00    4.6289847663100128E+00    4.7342062325344969E-01
N    4.8130978341020150E+00    4.6292511377600176E+00    2.3905976262561679E+00
Ga    4.8128296892382725E+00    2.7775437774534018E+00    3.1193402827424985E+00
N    4.8131469871659247E+00    2.7777414016084130E+00    5.0405843051147308E+00
Ga    4.8134234871259505E+00    4.6295724724000102E+00    5.7567471059067747E+00
N    4.8138621095679959E+00    4.6309016416208149E+00    7.6800284122295031E+00
Ga    4.8134889005038648E+00    2.7791287817018961E+00    8.3932370588395564E+00
N    4.8138941932250905E+00    2.7806144952299823E+00    1.0317142964678768E+01
Ga    4.8139924292167482E+00    4.6332315204600709E+00    1.1026982956475717E+01
N    4.8131117038606419E+00    4.6352835481633283E+00    1.2950139261873991E+01
Ga    4.8137942540072833E+00    2.7866681456247351E+00    1.3675410445324109E+01
N    4.8084283936249896E+00    2.7866908450456895E+00    1.5594107997993204E+01
Ga    4.8027593779194557E+00    4.6349069557161613E+00    1.6615185098976035E+01
N    6.3968177443171959E+00    3.6943400227977214E+00    1.7517111194257588E+01
N    3.2090287887528972E+00    5.5546615530049888E+00   -2.0732075160843794E-01
Ga    3.2093539407947751E+00    7.4064497055962750E+00    4.7345497312992191E-01
N    3.2094167578113324E+00    7.4067287275400657E+00    2.3906092598827464E+00
Ga    3.2091827864406248E+00    5.5549348884552812E+00    3.1192093708363680E+00
N    3.2094250552423880E+00    5.5551610970721077E+00    5.0404198741421338E+00
Ga    3.2098120289891954E+00    7.4071187412608319E+00    5.7561888749559991E+00
N    3.2101925503036997E+00    7.4085354521904669E+00    7.6792327968177618E+00
Ga    3.2097214670792309E+00    5.5570798167468780E+00    8.3925316888191155E+00
N    3.2098908936050390E+00    5.5595116625069796E+00    1.0316408090936324E+01
Ga    3.2115138115876611E+00    7.4112650871238834E+00    1.1030186024168410E+01
N    3.2124454628796193E+00    7.4143220339088369E+00    1.2956895272848728E+01
Ga    3.2104519911975800E+00    5.5604305172123336E+00    1.3669953503547678E+01
N    3.2018524116683249E+00    5.5568057423147916E+00    1.5587804349984260E+01
Ga    3.2073325458149924E+00    7.4034081874147875E+00    1.6652709351113213E+01
N    4.8050629583204563E+00    6.4716528605751904E+00    1.7527779589672686E+01
N    1.6054274906124748E+00    8.3321634419014838E+00   -2.0726082687027406E-01
Ga    1.6058270427696049E+00    1.0183957997170610E+01    4.7348302909231038E-01
N    1.6059483198279383E+00    1.0184295360492778E+01    2.3906664831728759E+00
Ga    1.6056311663247138E+00    8.3326056765793979E+00    3.1193101159597116E+00
N    1.6058743367731765E+00    8.3330359278406281E+00    5.0405566933067947E+00
Ga    1.6063219720702699E+00    1.0184828483367124E+01    5.7569341539310770E+00
N    1.6067695506114539E+00    1.0186315050169380E+01    7.6802275302553085E+00
Ga    1.6068976013081493E+00    8.3346634786408185E+00    8.3930466125823759E+00
N    1.6078588673783096E+00    8.3368383428218795E+00    1.0317126488455871E+01
Ga    1.6071968043482270E+00    1.0188323860449591E+01    1.1030735270730602E+01
N    1.6068673447817883E+00    1.0189571765551285E+01    1.2956868060817738E+01
Ga    1.6069328930923341E+00    8.3372994458264333E+00    1.3675752500257083E+01
N    1.6130017741801528E+00    8.3404637508496613E+00    1.5600678012771489E+01
Ga    1.6033310932049925E+00    1.0180583903205573E+01    1.6606228528679427E+01
N    3.1911174299315697E+00    9.2579700826148521E+00    1.7530955529535863E+01
N    9.6240112057772933E+00   -1.7097633032796568E-04   -2.0733794096295632E-01
Ga    9.6244041445630355E+00    1.8515899770526054E+00    4.7349437332698252E-01
N    9.6244998520805982E+00    1.8518974066743581E+00    2.3907033486385632E+00
Ga    9.6242264777456512E+00    1.9903102375659254E-04    3.1193784200362935E+00
N    9.6244560642130068E+00    5.7723485059082437E-04    5.0406824287496210E+00
Ga    9.6249095358164105E+00    1.8523776389745163E+00    5.7570913511856929E+00
N    9.6253594017421431E+00    1.8539530390773178E+00    7.6804774587095332E+00
Ga    9.6251163025654627E+00    2.2847905222705234E-03    8.3935145632051622E+00
N    9.6255823199612127E+00    4.2707311050137293E-03    1.0317765890612250E+01
Ga    9.6268905824701818E+00    1.8572267260541173E+00    1.1028402744542532E+01
N    9.6276503981683099E+00    1.8590462977880597E+00    1.2953791957115946E+01
Ga    9.6279779518896618E+00    7.2341996674299353E-03    1.3667579445882117E+01
N    9.6210159096290990E+00   -4.9453602083585676E-03    1.5584530677688150E+01
Ga    9.6139673494562459E+00    1.8305681452986777E+00    1.6624132548801022E+01
N    1.1214606485265692E+01    9.1683660212030860E-01    1.7529258321512955E+01
N    8.0204901300512894E+00    2.7772650694780840E+00   -2.0726127673022893E-01
Ga    8.0209101959132578E+00    4.6289951678160852E+00    4.7361064694284144E-01
N    8.0210616868334625E+00    4.6292890724688895E+00    2.3908006718946297E+00
Ga    8.0207302606847026E+00    2.7776051012906207E+00    3.1196198656439895E+00
N    8.0209751198056320E+00    2.7779324209010832E+00    5.0409003289051499E+00
Ga    8.0214515185788500E+00    4.6298268794396034E+00    5.7569269588218281E+00
N    8.0219890538911685E+00    4.6313283270298111E+00    7.6801666714980339E+00
Ga    8.0214272753221980E+00    2.7799986353733459E+00    8.3938234342680325E+00
N    8.0219252361720290E+00    2.7819200762070406E+00    1.0317975445935739E+01
Ga    8.0224144895081189E+00    4.6340257475225224E+00    1.1030639124857423E+01
N    8.0230401095264750E+00    4.6359324396756589E+00    1.2956067179334859E+01
Ga    8.0247966898083707E+00    2.7848455902658249E+00    1.3675174022796034E+01
N    8.0098817812763539E+00    2.7764961877217602E+00    1.5597380950002666E+01
Ga    8.0039287326738613E+00    4.6315685521170611E+00    1.6627317388923089E+01
N    9.6006332061820281E+00    3.6614899439251634E+00    1.7510852985984457E+01
N    6.4169909600742860E+00    5.5546340299056434E+00   -2.0729249037347502E-01
Ga    6.4173433739218835E+00    7.4064142730034188E+00    4.7347042672855533E-01
N    6.4174575039092039E+00    7.4066969968746106E+00    2.3906256177536140E+00
Ga    6.4171193202669743E+00    5.5549594834854963E+00    3.1193886924080862E+00
N    6.4173908491535494E+00    5.5551980042055300E+00    5.0405979160073153E+00
Ga    6.4177739930955378E+00    7.4071554857871922E+00    5.7562686682376469E+00
N    6.4182758900342094E+00    7.4085282643165629E+00    7.6793124857475972E+00
Ga    6.4180654728944235E+00    5.5571778715306062E+00    8.3930062473493674E+00
N    6.4186478696698517E+00    5.5591166924665494E+00    1.0316879807086242E+01
Ga    6.4185379109762852E+00    7.4109252675529529E+00    1.1029565437182852E+01
N    6.4189331019130282E+00    7.4130145704947470E+00    1.2955055138259013E+01
Ga    6.4160061613566581E+00    5.5609323384886382E+00    1.3670525662530190E+01
N    6.4033320811248942E+00    5.5462678130998464E+00    1.5588643183105145E+01
Ga    6.4165791376316523E+00    7.4092996007863317E+00    1.6657540584359349E+01
N    7.9983939226295941E+00    6.4609253996129450E+00    1.7517878704203667E+01
N    4.8133700416469374E+00    8.3320840785794257E+00   -2.0728129299364970E-01
Ga    4.8137019165931934E+00    1.0183944174213430E+01    4.7330302960036241E-01
N    4.8137449955814926E+00    1.0184247565936497E+01    2.3904872245280493E+00
Ga    4.8135195104526396E+00    8.3324913447121318E+00    3.1190697852140730E+00
N    4.8137627638004350E+00    8.3327975024995986E+00    5.0402585322663196E+00
Ga    4.8141205803466010E+00    1.0184594166267640E+01    5.7565419431742368E+00
N    4.8144622073127978E+00    1.0185952535112255E+01    7.6797771072957559E+00
Ga    4.8143664103656141E+00    8.3340551408224659E+00    8.3922027412166056E+00
N    4.8150018185179082E+00    8.3355796214119433E+00    1.0316046478204408E+01
Ga    4.8156016897754554E+00    1.0186930516098743E+01    1.1028115684759435E+01
N    4.8156434966045145E+00    1.0187483002266429E+01    1.2952837427584871E+01
Ga    4.8176449652555204E+00    8.3381430842718984E+00    1.3679342716729392E+01
N    4.8080978581038405E+00    8.3361487017212816E+00    1.5603274166098483E+01
Ga    4.7992330514958601E+00    1.0184923747308575E+01    1.6617216828343377E+01
N    6.3981762449626371E+00    9.2662062469864921E+00    1.7522502120047374E+01
H    3.2714843021195989E-04   -1.3758582393057038E-04   -1.2344021473703486E+00
H   -1.6033244567131346E+00    2.7773429623980501E+00   -1.2342804098968212E+00
H   -3.2068363709478334E+00    5.5547197342141006E+00   -1.2342324363693591E+00
H   -4.8102912232457786E+00    8.3319917775232089E+00   -1.2343051928305557E+00
H    3.2083387564672270E+00   -2.4854915419199726E-04   -1.2343330354115076E+00
H    1.6046221127801166E+00    2.7771757560358989E+00   -1.2343055615363230E+00
H    9.1370239849691847E-04    5.5547404049190563E+00   -1.2343325968328993E+00
H   -1.6025583350141432E+00    8.3321770247032472E+00   -1.2342678541889041E+00
H    6.4160470307581150E+00   -1.3787337707312199E-04   -1.2342562963792623E+00
H    4.8126380603009089E+00    2.7771493961983955E+00   -1.2343219292615355E+00
H    3.2089810254993494E+00    5.5547077526132043E+00   -1.2343397363265969E+00
H    1.6053442464840688E+00    8.3321805948047203E+00   -1.2342831266277137E+00
H    9.6238391974648678E+00   -1.1171900138633630E-04   -1.2343600340771412E+00
H    8.0203718352522753E+00    2.7772867379952708E+00   -1.2342965098658405E+00
H    6.4169827107446293E+00    5.5546157088619825E+00   -1.2343156373477167E+00
H    4.8132893176587439E+00    8.3319857896697389E+00   -1.2342911348805232E+00
     &END COORD
     &KIND H
       BASIS_SET DZVP-MOLOPT-SR-GTH-q1
       POTENTIAL GTH-PBE-q1
       &POTENTIAL
 1
  0.2000000000000000E+00 2 -0.4178900440000000E+01  0.7244633100000000E+00
 0
         # Potential name:  GTH-PBE-Q1  for symbol:  H
         # Potential read from the potential filename: GTH_POTENTIALS
       &END POTENTIAL
     &END KIND
     &KIND N
       BASIS_SET DZVP-MOLOPT-SR-GTH
       POTENTIAL GTH-PBE-q5
       &POTENTIAL
 2 3
  0.2837905100000000E+00 2 -0.1241522559000000E+02  0.1868095920000000E+01
 2
  0.2554050000000000E+00 1  0.1363026257000000E+02
  0.2454945300000000E+00 0
         # Potential name:  GTH-PBE-Q5  for symbol:  N
         # Potential read from the potential filename: GTH_POTENTIALS
       &END POTENTIAL
     &END KIND
     &KIND Ga
       BASIS_SET DZVP-MOLOPT-SR-GTH
       POTENTIAL GTH-PBE-q13
       &POTENTIAL
 2 1 10
  0.4900000000000000E+00 0
 3
  0.4167772300000000E+00 3  0.1047568975000000E+02 -0.4921768140000000E+01  0.8707055900000000E+00
  0.7770178090000000E+01 -0.2248152160000000E+01
  0.1784415450000000E+01
  0.5696265200000000E+00 2  0.1777985340000000E+01  0.1958597600000000E+00
 -0.2317443900000000E+00
  0.2381265000000000E+00 1 -0.1624868022000000E+02
         # Potential name:  GTH-PBE-Q13  for symbol:  GA
         # Potential read from the potential filename: GTH_POTENTIALS
       &END POTENTIAL
     &END KIND
     &TOPOLOGY
       NUMBER_OF_ATOMS  256
       MULTIPLE_UNIT_CELL  1 1 1
     &END TOPOLOGY
   &END SUBSYS
 &END FORCE_EVAL
