 # Version information for this restart file 
 # current date 2019-06-09 06:56:12.593
 # current working dir /lustre03/project/6037349/rzk/GaN-carbene/444-addat/00-Surface/UKS_SYMM
 # Program compiled at                              Sun Apr  7 00:48:11 EDT 2019
 # Program compiled on                          beluga2.int.ets1.calculquebec.ca
 # Program compiled for                        Beluga-Linux-x86-64-intel-openmpi
 # Source code revision number                                         svn:18619
 &GLOBAL
   PRINT_LEVEL  MEDIUM
   PROJECT_NAME TEST
   RUN_TYPE  CELL_OPT
 &END GLOBAL
 &MOTION
   &CELL_OPT
     MAX_ITER  300
     STEP_START_VAL  42
     EXTERNAL_PRESSURE     1.0000000000000000E+00
     KEEP_ANGLES  T
     KEEP_SYMMETRY  T
     CONSTRAINT  Z
     PRESSURE_TOLERANCE     5.0000000000000000E+02
   &END CELL_OPT
 &END MOTION
 &FORCE_EVAL
   METHOD  QS
   STRESS_TENSOR  ANALYTICAL
   &DFT
     BASIS_SET_FILE_NAME BASIS_MOLOPT
     POTENTIAL_FILE_NAME GTH_POTENTIALS
     UKS  T
     SURFACE_DIPOLE_CORRECTION  T
     SURF_DIP_DIR  Z
     &SCF
       MAX_SCF  100
       EPS_SCF     5.0000000000000004E-06
       &OT  T
         PRECONDITIONER  FULL_ALL
       &END OT
       &OUTER_SCF  T
         OPTIMIZER  NONE
         EPS_SCF     5.0000000000000004E-06
         MAX_SCF  4
       &END OUTER_SCF
       &PRINT
         &RESTART  OFF
           BACKUP_COPIES  1
           &EACH
             JUST_ENERGY  0
             QS_SCF  0
             MD  20
           &END EACH
         &END RESTART
       &END PRINT
     &END SCF
     &QS
       EPS_DEFAULT     1.0000000000000000E-14
       METHOD  GPW
     &END QS
     &MGRID
       NGRIDS  5
       CUTOFF     1.2000000000000000E+03
     &END MGRID
     &XC
       DENSITY_CUTOFF     1.0000000000000000E-10
       GRADIENT_CUTOFF     1.0000000000000000E-10
       TAU_CUTOFF     1.0000000000000000E-10
       &XC_FUNCTIONAL  NO_SHORTCUT
         &PBE  T
         &END PBE
       &END XC_FUNCTIONAL
       &VDW_POTENTIAL
         POTENTIAL_TYPE  PAIR_POTENTIAL
         &PAIR_POTENTIAL
           R_CUTOFF     1.0000000000000004E+01
           TYPE  DFTD3
           PARAMETER_FILE_NAME dftd3.dat
           REFERENCE_FUNCTIONAL PBE
           EPS_CN     9.9999999999999995E-07
           CALCULATE_C9_TERM  T
           REFERENCE_C9_TERM  T
           LONG_RANGE_CORRECTION  F
           VERBOSE_OUTPUT  F
         &END PAIR_POTENTIAL
       &END VDW_POTENTIAL
     &END XC
   &END DFT
   &SUBSYS
     &CELL
       A     1.2831767789758409E+01    0.0000000000000000E+00    0.0000000000000000E+00
       B    -6.4146309643093806E+00    1.1110466741988446E+01    0.0000000000000000E+00
       C     0.0000000000000000E+00    0.0000000000000000E+00    3.2000000000000000E+01
       MULTIPLE_UNIT_CELL  1 1 1
       &CELL_REF
         A     1.2982353780853531E+01    0.0000000000000000E+00    0.0000000000000000E+00
         B    -6.4911768904267628E+00    1.1243048175136114E+01    0.0000000000000000E+00
         C     0.0000000000000000E+00    0.0000000000000000E+00    3.2000000000000000E+01
         MULTIPLE_UNIT_CELL  1 1 1
       &END CELL_REF
     &END CELL
     &COORD
N    3.4430003829732865E-04   -2.0435722694665077E-04   -2.0836134863143255E-01
Ga    5.8524284335260881E-04    1.8516478143336776E+00    4.7307049105446092E-01
N    6.2500716162236741E-04    1.8519193525216444E+00    2.3906432211179669E+00
Ga    4.7909079027280124E-04    5.7136689774889562E-06    3.1187608244845619E+00
N    7.0706374998078360E-04    7.3521872417139876E-05    5.0401112168790663E+00
Ga    9.4310484217065044E-04    1.8520632539002078E+00    5.7565295954597824E+00
N    1.3812176577990714E-03    1.8532366633238153E+00    7.6797786492188918E+00
Ga    1.2219016874814802E-03    1.8644523489680597E-03    8.3931944246479535E+00
N    1.5923975383973900E-03    4.3651164288510290E-03    1.0317160724294737E+01
Ga    2.8868627564781289E-03    1.8563120877172308E+00    1.1031144372794952E+01
N    4.0477444451865914E-03    1.8600309764481495E+00    1.2957375281637049E+01
Ga    1.9835487314670110E-03    6.0739002548639313E-03    1.3669914449660052E+01
N   -6.2926958693523445E-03    3.2146078409749246E-03    1.5587511245343551E+01
Ga   -2.1172270821230312E-03    1.8508236672156992E+00    1.6654613522422096E+01
N    1.5954370908635191E+00    9.1960351649161354E-01    1.7528979587447811E+01
N   -1.6033608483161419E+00    2.7774458912897622E+00   -2.0823864106973206E-01
Ga   -1.6030222395111799E+00    4.6292982347616940E+00    4.7316041768930689E-01
N   -1.6029202540077547E+00    4.6295939424295671E+00    2.3907496728994331E+00
Ga   -1.6032882811620803E+00    2.7777782734969589E+00    3.1190550138620843E+00
N   -1.6031016670512690E+00    2.7780033918710632E+00    5.0404683206717387E+00
Ga   -1.6025985097958810E+00    4.6298917699812749E+00    5.7574083566308305E+00
N   -1.6020924418223481E+00    4.6313310996707919E+00    7.6808224853791511E+00
Ga   -1.6018469299334759E+00    2.7796121510638758E+00    8.3937812197792656E+00
N   -1.6007268372185035E+00    2.7821184827327299E+00    1.0317935690807039E+01
Ga   -1.6014012817368151E+00    4.6339369775282693E+00    1.1031462879068334E+01
N   -1.6015318492605128E+00    4.6356848805158135E+00    1.2956991405069445E+01
Ga   -1.6012614099137639E+00    2.7834976946529384E+00    1.3676326612028737E+01
N   -1.5947269695172188E+00    2.7846726062251546E+00    1.5600733470225071E+01
Ga   -1.6055453806532427E+00    4.6262757675661685E+00    1.6606664687923452E+01
N   -1.7876712175078861E-02    3.7057736465936006E+00    1.7530983540433660E+01
N   -3.2069797779428493E+00    5.5550280156896203E+00   -2.0820673371469489E-01
Ga   -3.2066109366260505E+00    7.4068646470288577E+00    4.7319213181466979E-01
N   -3.2064423886577580E+00    7.4071383054455620E+00    2.3907804233468690E+00
Ga   -3.2067759370101871E+00    5.5553472955915737E+00    3.1192344851516651E+00
N   -3.2064892309362811E+00    5.5556045418209585E+00    5.0406403460585452E+00
Ga   -3.2060013637099307E+00    7.4075021572840747E+00    5.7573056036073833E+00
N   -3.2053671114934104E+00    7.4089356991687696E+00    7.6806757954691047E+00
Ga   -3.2057836338746166E+00    5.5574407461639614E+00    8.3945987903642472E+00
N   -3.2053604865110374E+00    5.5595706249020242E+00    1.0318870513783496E+01
Ga   -3.2049862484814522E+00    7.4117370249758254E+00    1.1031335782402653E+01
N   -3.2045142326355531E+00    7.4149025535269493E+00    1.2956750389511182E+01
Ga   -3.2056178060214013E+00    5.5645787416555477E+00    1.3678234037216908E+01
N   -3.2097019357771615E+00    5.5425715373078281E+00    1.5597961027670669E+01
Ga   -3.2308025290372755E+00    7.4039675618048078E+00    1.6635405237312526E+01
N   -1.6239420037511028E+00    6.4702754466191337E+00    1.7520162645079029E+01
N   -4.8105814282648867E+00    8.3325682282339049E+00   -2.0826422490314250E-01
Ga   -4.8103093819446272E+00    1.0184462850824618E+01    4.7294852409775301E-01
N   -4.8101844100865598E+00    1.0184705081781303E+01    2.3905454497171088E+00
Ga   -4.8103607286530856E+00    8.3328891569448835E+00    3.1189628557115023E+00
N   -4.8100196097921941E+00    8.3330357473593502E+00    5.0403117207808377E+00
Ga   -4.8097960177321122E+00    1.0185010973750556E+01    5.7568706144897366E+00
N   -4.8092600851848895E+00    1.0186328356559363E+01    7.6803247791791973E+00
Ga   -4.8095691589352407E+00    8.3344867771409898E+00    8.3934349477826924E+00
N   -4.8092079206735550E+00    8.3360387941068286E+00    1.0317419671800147E+01
Ga   -4.8090008772644675E+00    1.0188420626363754E+01    1.1027877773515653E+01
N   -4.8099742834273131E+00    1.0190940616442496E+01    1.2950630509491882E+01
Ga   -4.8093751160187574E+00    8.3421377394918554E+00    1.3674785871939987E+01
N   -4.8156629070447252E+00    8.3418795619317265E+00    1.5593135351990430E+01
Ga   -4.8220689613289576E+00    1.0192667595182908E+01    1.6615853090626977E+01
N   -3.2308589579562805E+00    9.2503574615284982E+00    1.7515520266520507E+01
N    3.2083270456984589E+00   -2.4126390902099945E-04   -2.0829370416654500E-01
Ga    3.2086289746958641E+00    1.8516249716976918E+00    4.7302573332719711E-01
N    3.2087547847909934E+00    1.8518918706525180E+00    2.3906098789624308E+00
Ga    3.2085102954178764E+00    2.6949862615973141E-05    3.1189309401625716E+00
N    3.2088853743717052E+00    1.1222566147812537E-04    5.0403125410429688E+00
Ga    3.2091075259184110E+00    1.8520683674222567E+00    5.7567511517591896E+00
N    3.2096970839308301E+00    1.8532288256828384E+00    7.6800331656671599E+00
Ga    3.2096101788424289E+00    1.8964884039051211E-03    8.3938929311065582E+00
N    3.2102054307197347E+00    3.8614665806080599E-03    1.0317924041085739E+01
Ga    3.2098298693485026E+00    1.8558022741697162E+00    1.1031341118294140E+01
N    3.2104550557005309E+00    1.8585158691691814E+00    1.2956597576041634E+01
Ga    3.2076704091974748E+00    6.0669484838782196E-03    1.3671560365594152E+01
N    3.1942667198632235E+00   -6.4221440410163182E-03    1.5589737726901786E+01
Ga    3.2075526249331094E+00    1.8573855778499015E+00    1.6660602637520256E+01
N    4.7893370562951629E+00    9.0764544993076357E-01    1.7520752918581373E+01
N    1.6046097762562237E+00    2.7773760714639351E+00   -2.0821677078467757E-01
Ga    1.6048506922108734E+00    4.6292855749664348E+00    4.7298194869825000E-01
N    1.6048774702848538E+00    4.6295457994709830E+00    2.3905664062563949E+00
Ga    1.6047629424404011E+00    2.7776873472806214E+00    3.1187918100968957E+00
N    1.6050033877046859E+00    2.7777417050863149E+00    5.0401277819219210E+00
Ga    1.6052456714663093E+00    4.6296275972026599E+00    5.7569158043834232E+00
N    1.6055730377027997E+00    4.6306553564374502E+00    7.6802675437926169E+00
Ga    1.6056520676680659E+00    2.7786531585140564E+00    8.3930366661013540E+00
N    1.6063562955131176E+00    2.7804162693932044E+00    1.0317068477596059E+01
Ga    1.6068738624104908E+00    4.6319698752006788E+00    1.1029153300097164E+01
N    1.6070796689473046E+00    4.6335372585877499E+00    1.2953620031740712E+01
Ga    1.6090240855966713E+00    2.7840518131572551E+00    1.3680939483839545E+01
N    1.5996688350137986E+00    2.7826316134527489E+00    1.5604526861231756E+01
Ga    1.5904774269680069E+00    4.6320339419405556E+00    1.6619288404568117E+01
N    3.1906671111243217E+00    3.7141057144304659E+00    1.7522948456977652E+01
N    8.9885165233356769E-04    5.5550493872435238E+00   -2.0832303267365027E-01
Ga    1.2263656924745494E-03    7.4068830856324661E+00    4.7313119094811418E-01
N    1.3232702533173641E-03    7.4071722941471672E+00    2.3907510121956226E+00
Ga    1.0672197651228896E-03    5.5553657786898558E+00    3.1191923322835282E+00
N    1.2938385901826365E-03    5.5556108298426095E+00    5.0405805275615272E+00
Ga    1.7612969549965457E-03    7.4076029543928348E+00    5.7571627686024884E+00
N    2.3729550734363537E-03    7.4090120960318968E+00    7.6805925434378146E+00
Ga    2.1088268060830044E-03    5.5572280482637879E+00    8.3939178281565141E+00
N    2.7738142158094986E-03    5.5594950323901298E+00    1.0318284027410799E+01
Ga    3.7013026283287420E-03    7.4124649230525117E+00    1.1028892724031785E+01
N    4.4035276742191683E-03    7.4151216687708583E+00    1.2953823917473645E+01
Ga    5.0158447647229518E-03    5.5636553697190436E+00    1.3668378399515912E+01
N   -2.2629729693676602E-03    5.5509591796785811E+00    1.5584773981562211E+01
Ga   -1.1255098085592413E-02    7.3876141678566238E+00    1.6625859742003552E+01
N    1.5904128091646452E+00    6.4745674982795629E+00    1.7528125515931002E+01
N   -1.6027074896670979E+00    8.3326430754964882E+00   -2.0826622243700721E-01
Ga   -1.6023487562283705E+00    1.0184477014354899E+01    4.7311371508743211E-01
N   -1.6021813856351381E+00    1.0184765249521629E+01    2.3906995076342263E+00
Ga   -1.6024918859731456E+00    8.3330196535584307E+00    3.1192374667361875E+00
N   -1.6021923046726541E+00    8.3333524090306277E+00    5.0406419654818890E+00
Ga   -1.6016506530369607E+00    1.0185270085603962E+01    5.7574847726849034E+00
N   -1.6009025918101880E+00    1.0186725066256768E+01    7.6809197527624784E+00
Ga   -1.6014377066832794E+00    8.3351391887121320E+00    8.3940606645048934E+00
N   -1.6010421838746385E+00    8.3372467057247057E+00    1.0318277426403492E+01
Ga   -1.6005478747389206E+00    1.0189256680513241E+01    1.1031509549059182E+01
N   -1.5999644858653510E+00    1.0191668107738487E+01    1.2956622605339179E+01
Ga   -1.5987053348669520E+00    8.3404724437821578E+00    1.3675642320157516E+01
N   -1.6158066417942798E+00    8.3316037268340626E+00    1.5597088826755208E+01
Ga   -1.6208657742222554E+00    1.0186536314334253E+01    1.6630273299511373E+01
N   -2.6080676318978622E-02    9.2195621119513422E+00    1.7509280829125441E+01
N    6.4162029109244179E+00   -1.7130628891573132E-04   -2.0822229190051220E-01
Ga    6.4165825371250822E+00    1.8516770872157253E+00    4.7319619998253182E-01
N    6.4167668377219274E+00    1.8519926777164466E+00    2.3907991204281904E+00
Ga    6.4164213608059937E+00    1.8377446591663475E-04    3.1191253567264550E+00
N    6.4167315308666373E+00    4.5362826979281729E-04    5.0405465980218231E+00
Ga    6.4170907306399672E+00    1.8522590068088762E+00    5.7574945953060723E+00
N    6.4176515800534055E+00    1.8536894049657557E+00    7.6809386987355293E+00
Ga    6.4175163975221299E+00    2.4171520370497891E-03    8.3950298023953334E+00
N    6.4179729949711186E+00    4.6455846516540436E-03    1.0319255817143276E+01
Ga    6.4179018602523437E+00    1.8567822923512147E+00    1.1032159510847043E+01
N    6.4186919670155778E+00    1.8601353445124780E+00    1.2957697149698241E+01
Ga    6.4179551045113516E+00    9.6617107855083758E-03    1.3678911761358995E+01
N    6.4124630558732374E+00   -1.0669730460051697E-02    1.5599018326983300E+01
Ga    6.3939678014843420E+00    1.8474144177239935E+00    1.6637579377635735E+01
N    8.0009781909992359E+00    9.1272747779889540E-01    1.7520977986885658E+01
N    4.8126092591147183E+00    2.7773597700382777E+00   -2.0828262145765417E-01
Ga    4.8128974693150548E+00    4.6292217709486474E+00    4.7300777378888048E-01
N    4.8130243728833548E+00    4.6294562375744643E+00    2.3905979162026192E+00
Ga    4.8128081148342146E+00    2.7776646688185633E+00    3.1190480940922343E+00
N    4.8131220044983749E+00    2.7777595215446218E+00    5.0404084478381730E+00
Ga    4.8132944166440073E+00    4.6296056868889961E+00    5.7571422840345887E+00
N    4.8137616820532720E+00    4.6307977397753346E+00    7.6805625964926048E+00
Ga    4.8134831188168699E+00    2.7789879254288805E+00    8.3940829335240963E+00
N    4.8137115312168843E+00    2.7807785017834883E+00    1.0318067427781205E+01
Ga    4.8138904954736388E+00    4.6333545487448875E+00    1.1027994762642926E+01
N    4.8131683542301902E+00    4.6356533716460211E+00    1.2950874839141131E+01
Ga    4.8138372102346905E+00    2.7871164199975116E+00    1.3676560416518200E+01
N    4.8088542218943733E+00    2.7866963564095770E+00    1.5595124744325478E+01
Ga    4.8029544291303399E+00    4.6360539925377893E+00    1.6616952558943968E+01
N    6.3961172488462124E+00    3.6933682534950929E+00    1.7516429924402029E+01
N    3.2088985250607114E+00    5.5549904608429852E+00   -2.0829557034539339E-01
Ga    3.2091326312305424E+00    7.4068538642129225E+00    4.7306322615102248E-01
N    3.2091629732579690E+00    7.4071061051056688E+00    2.3906342683752784E+00
Ga    3.2090309156612333E+00    5.5551679904649074E+00    3.1188107776929455E+00
N    3.2092641881967627E+00    5.5552561544418806E+00    5.0401823575656426E+00
Ga    3.2095164172781705E+00    7.4073268145302453E+00    5.7563674657238959E+00
N    3.2099053052818314E+00    7.4086452269557093E+00    7.6795707642193101E+00
Ga    3.2095913884461851E+00    5.5570835419860494E+00    8.3929895049833050E+00
N    3.2098655396283409E+00    5.5595634371661413E+00    1.0316980279690865E+01
Ga    3.2113466914687607E+00    7.4116372978373777E+00    1.1030391575884844E+01
N    3.2125954003243340E+00    7.4149683180346120E+00    1.2956673481402602E+01
Ga    3.2106796456568718E+00    5.5613140168956567E+00    1.3669943076976868E+01
N    3.2021845478955755E+00    5.5576199557987467E+00    1.5587545823805371E+01
Ga    3.2070294098058105E+00    7.4046126735556737E+00    1.6653318466563938E+01
N    4.8052626859456415E+00    6.4731276031415392E+00    1.7527082337194706E+01
N    1.6051934913220973E+00    8.3326554533255450E+00   -2.0824142166217785E-01
Ga    1.6055280228290729E+00    1.0184527779724300E+01    4.7308243886334123E-01
N    1.6056377084930120E+00    1.0184851491106064E+01    2.3906708754335679E+00
Ga    1.6053147099424483E+00    8.3330769842475760E+00    3.1190412632541702E+00
N    1.6055591070737572E+00    8.3334624600150295E+00    5.0404151730169904E+00
Ga    1.6059822572341553E+00    1.0185387906538732E+01    5.7574152075763960E+00
N    1.6064646590313847E+00    1.0186895973831135E+01    7.6808594137976263E+00
Ga    1.6066636791020723E+00    8.3350994458755157E+00    8.3933690072974372E+00
N    1.6076955650015425E+00    8.3374642724264589E+00    1.0317519249493103E+01
Ga    1.6071017051760128E+00    1.0189131340285950E+01    1.1031280264476980E+01
N    1.6068561849522389E+00    1.0190628657924155E+01    1.2956822526420879E+01
Ga    1.6072755683949267E+00    8.3382987810413667E+00    1.3675838306572631E+01
N    1.6127941981653937E+00    8.3396688766813725E+00    1.5600036310013122E+01
Ga    1.6018883482726241E+00    1.0179698196275673E+01    1.6605962173329257E+01
N    3.1913043193872013E+00    9.2592042240909489E+00    1.7529679588917809E+01
N    9.6240911354779453E+00   -1.5979976586262185E-04   -2.0833215078328710E-01
Ga    9.6244182938963689E+00    1.8516928243228477E+00    4.7308244066729699E-01
N    9.6244824888757350E+00    1.8520090032950314E+00    2.3906874796571183E+00
Ga    9.6242557836205549E+00    2.3065797603606246E-04    3.1190263274728238E+00
N    9.6244358969336368E+00    5.4522321710322467E-04    5.0404553569024984E+00
Ga    9.6248748879978443E+00    1.8523474786076797E+00    5.7576323391543287E+00
N    9.6252473221527506E+00    1.8539330880613147E+00    7.6811333008631033E+00
Ga    9.6251915584240670E+00    2.2179742164365706E-03    8.3942014565417153E+00
N    9.6258091812920998E+00    4.6250531840892600E-03    1.0318482718766301E+01
Ga    9.6267391406878833E+00    1.8576770577834876E+00    1.1029123294973761E+01
N    9.6277509628996594E+00    1.8599427024480315E+00    1.2954091259841746E+01
Ga    9.6282787490144681E+00    7.9548171284326962E-03    1.3667690919837845E+01
N    9.6207726440822583E+00   -5.6458915782417332E-03    1.5584012785963248E+01
Ga    9.6129702489174651E+00    1.8297971024956341E+00    1.6624652155401915E+01
N    1.1214443163349603E+01    9.1708648075892640E-01    1.7528389818120953E+01
N    8.0204882614570803E+00    2.7774250152109206E+00   -2.0826570580737330E-01
Ga    8.0208583019766433E+00    4.6292319406583653E+00    4.7318642940071759E-01
N    8.0210215564154854E+00    4.6294853523866974E+00    2.3908008239393759E+00
Ga    8.0207334655007578E+00    2.7777640890996773E+00    3.1194232121233063E+00
N    8.0209822671829674E+00    2.7779939322292759E+00    5.0408342582437431E+00
Ga    8.0214395693566978E+00    4.6299060184076035E+00    5.7574987225161580E+00
N    8.0219918028407502E+00    4.6313869238737082E+00    7.6809011107395690E+00
Ga    8.0213059821867585E+00    2.7799898363417683E+00    8.3946884825167594E+00
N    8.0217576622925613E+00    2.7823342111307703E+00    1.0318860877375680E+01
Ga    8.0221625122805449E+00    4.6344925128973307E+00    1.1031506095276821E+01
N    8.0228602637899655E+00    4.6361658482383721E+00    1.2956527102523816E+01
Ga    8.0247197030831661E+00    2.7851336343147812E+00    1.3676399138906771E+01
N    8.0095464404217065E+00    2.7753339293557677E+00    1.5597697178546824E+01
Ga    8.0040457458377663E+00    4.6295396690169595E+00    1.6628374034599279E+01
N    9.6005653338734245E+00    3.6620080105417574E+00    1.7509694293588357E+01
N    6.4168966930668594E+00    5.5549548916018239E+00   -2.0828218679167079E-01
Ga    6.4172088108263328E+00    7.4068067282960071E+00    4.7304758815628595E-01
N    6.4173455519207225E+00    7.4070441825435092E+00    2.3906387580070958E+00
Ga    6.4170679311289938E+00    5.5551794043579310E+00    3.1190885135067807E+00
N    6.4173146884301566E+00    5.5552850318857665E+00    5.0404686962378378E+00
Ga    6.4176221028762770E+00    7.4073966387987573E+00    5.7565208392019649E+00
N    6.4181391144235285E+00    7.4087653669729718E+00    7.6797420297241343E+00
Ga    6.4179124179312277E+00    5.5573216529659266E+00    8.3935720331254497E+00
N    6.4183389871052414E+00    5.5594742166886082E+00    1.0317606181831108E+01
Ga    6.4183159067257796E+00    7.4115148696666058E+00    1.1030339384326032E+01
N    6.4189749995751511E+00    7.4136066627149937E+00    1.2955422880995142E+01
Ga    6.4161603785988124E+00    5.5615664751749829E+00    1.3670879408639253E+01
N    6.4036704044634813E+00    5.5463652373557562E+00    1.5588797383895599E+01
Ga    6.4169646911236367E+00    7.4104163277209203E+00    1.6658387560210556E+01
N    7.9990163418295932E+00    6.4599600224241485E+00    1.7518188650333929E+01
N    4.8131803775376865E+00    8.3325694321137487E+00   -2.0822095350131364E-01
Ga    4.8134430568320381E+00    1.0184526068086427E+01    4.7288054143182512E-01
N    4.8134763410422803E+00    1.0184823793293376E+01    2.3904851905429578E+00
Ga    4.8133213835874482E+00    8.3329220518611784E+00    3.1186545656798770E+00
N    4.8135228467768538E+00    8.3331155387518709E+00    5.0399915297005409E+00
Ga    4.8137328952630565E+00    1.0185077221059014E+01    5.7567472420379149E+00
N    4.8140981552715765E+00    1.0186426963458910E+01    7.6801525043173271E+00
Ga    4.8140844031926369E+00    8.3343974187842615E+00    8.3924865011135488E+00
N    4.8147586525969848E+00    8.3361369214524164E+00    1.0316487832048738E+01
Ga    4.8154710703598624E+00    1.0187604112522063E+01    1.1028641458720372E+01
N    4.8157971679980536E+00    1.0188761558935449E+01    1.2952856825219472E+01
Ga    4.8176799892743842E+00    8.3392073726779259E+00    1.3679536241187291E+01
N    4.8087240790504540E+00    8.3372230197072454E+00    1.5602901331057247E+01
Ga    4.7989709404196628E+00    1.0185383791600731E+01    1.6617308402027430E+01
N    6.3986845492344484E+00    9.2674542475269739E+00    1.7521337860518418E+01
H    2.9799246736224197E-04   -1.5226005527246619E-04   -1.2356284053334166E+00
H   -1.6034383083289188E+00    2.7774899983315899E+00   -1.2355067492493703E+00
H   -3.2070496560845356E+00    5.5550234988141316E+00   -1.2354781496022476E+00
H   -4.8106225291417894E+00    8.3324698721774126E+00   -1.2355310368726977E+00
H    3.2083308375886133E+00   -2.6266715460543383E-04   -1.2355611024597108E+00
H    1.6045363018576850E+00    2.7773307637604754E+00   -1.2354797416350687E+00
H    7.4459133358291375E-04    5.5550277806425949E+00   -1.2355921079915486E+00
H   -1.6028356705976488E+00    8.3326548303026904E+00   -1.2355361344108051E+00
H    6.4160845108768951E+00   -1.6833856843411960E-04   -1.2354901295369956E+00
H    4.8125692008975562E+00    2.7773152991200818E+00   -1.2355501580668657E+00
H    3.2088445222715074E+00    5.5550240403483429E+00   -1.2355622040339003E+00
H    1.6051376179905150E+00    8.3326433775597692E+00   -1.2355089629806231E+00
H    9.6239271882176300E+00   -1.4401593511059380E-04   -1.2355979805179811E+00
H    8.0203649512150399E+00    2.7774290616470929E+00   -1.2355334791959649E+00
H    6.4168547403550997E+00    5.5549406663534260E+00   -1.2355521767648130E+00
H    4.8130887887999778E+00    8.3324448892961271E+00   -1.2354866617682712E+00
     &END COORD
     &KIND H
       BASIS_SET DZVP-MOLOPT-SR-GTH-q1
       POTENTIAL GTH-PBE-q1
       &POTENTIAL
 1
  0.2000000000000000E+00 2 -0.4178900440000000E+01  0.7244633100000000E+00
 0
         # Potential name:  GTH-PBE-Q1  for symbol:  H
         # Potential read from the potential filename: GTH_POTENTIALS
       &END POTENTIAL
     &END KIND
     &KIND N
       BASIS_SET DZVP-MOLOPT-SR-GTH
       POTENTIAL GTH-PBE-q5
       &POTENTIAL
 2 3
  0.2837905100000000E+00 2 -0.1241522559000000E+02  0.1868095920000000E+01
 2
  0.2554050000000000E+00 1  0.1363026257000000E+02
  0.2454945300000000E+00 0
         # Potential name:  GTH-PBE-Q5  for symbol:  N
         # Potential read from the potential filename: GTH_POTENTIALS
       &END POTENTIAL
     &END KIND
     &KIND Ga
       BASIS_SET DZVP-MOLOPT-SR-GTH
       POTENTIAL GTH-PBE-q13
       &POTENTIAL
 2 1 10
  0.4900000000000000E+00 0
 3
  0.4167772300000000E+00 3  0.1047568975000000E+02 -0.4921768140000000E+01  0.8707055900000000E+00
  0.7770178090000000E+01 -0.2248152160000000E+01
  0.1784415450000000E+01
  0.5696265200000000E+00 2  0.1777985340000000E+01  0.1958597600000000E+00
 -0.2317443900000000E+00
  0.2381265000000000E+00 1 -0.1624868022000000E+02
         # Potential name:  GTH-PBE-Q13  for symbol:  GA
         # Potential read from the potential filename: GTH_POTENTIALS
       &END POTENTIAL
     &END KIND
     &TOPOLOGY
       NUMBER_OF_ATOMS  256
       MULTIPLE_UNIT_CELL  1 1 1
     &END TOPOLOGY
   &END SUBSYS
 &END FORCE_EVAL
