 # Version information for this restart file 
 # current date 2019-06-09 04:12:13.690
 # current working dir /lustre03/project/6037349/rzk/GaN-carbene/444-addat/00-Surface/UKS_SYMM
 # Program compiled at                              Sun Apr  7 00:48:11 EDT 2019
 # Program compiled on                          beluga2.int.ets1.calculquebec.ca
 # Program compiled for                        Beluga-Linux-x86-64-intel-openmpi
 # Source code revision number                                         svn:18619
 &GLOBAL
   PRINT_LEVEL  MEDIUM
   PROJECT_NAME TEST
   RUN_TYPE  CELL_OPT
 &END GLOBAL
 &MOTION
   &CELL_OPT
     MAX_ITER  300
     STEP_START_VAL  10
     EXTERNAL_PRESSURE     1.0000000000000000E+00
     KEEP_ANGLES  T
     KEEP_SYMMETRY  T
     CONSTRAINT  Z
     PRESSURE_TOLERANCE     5.0000000000000000E+02
   &END CELL_OPT
 &END MOTION
 &FORCE_EVAL
   METHOD  QS
   STRESS_TENSOR  ANALYTICAL
   &DFT
     BASIS_SET_FILE_NAME BASIS_MOLOPT
     POTENTIAL_FILE_NAME GTH_POTENTIALS
     UKS  T
     SURFACE_DIPOLE_CORRECTION  T
     SURF_DIP_DIR  Z
     &SCF
       MAX_SCF  100
       EPS_SCF     5.0000000000000004E-06
       &OT  T
         PRECONDITIONER  FULL_ALL
       &END OT
       &OUTER_SCF  T
         OPTIMIZER  NONE
         EPS_SCF     5.0000000000000004E-06
         MAX_SCF  4
       &END OUTER_SCF
       &PRINT
         &RESTART  OFF
           BACKUP_COPIES  1
           &EACH
             JUST_ENERGY  0
             QS_SCF  0
             MD  20
           &END EACH
         &END RESTART
       &END PRINT
     &END SCF
     &QS
       EPS_DEFAULT     1.0000000000000000E-14
       METHOD  GPW
     &END QS
     &MGRID
       NGRIDS  5
       CUTOFF     1.2000000000000000E+03
     &END MGRID
     &XC
       DENSITY_CUTOFF     1.0000000000000000E-10
       GRADIENT_CUTOFF     1.0000000000000000E-10
       TAU_CUTOFF     1.0000000000000000E-10
       &XC_FUNCTIONAL  NO_SHORTCUT
         &PBE  T
         &END PBE
       &END XC_FUNCTIONAL
       &VDW_POTENTIAL
         POTENTIAL_TYPE  PAIR_POTENTIAL
         &PAIR_POTENTIAL
           R_CUTOFF     1.0000000000000004E+01
           TYPE  DFTD3
           PARAMETER_FILE_NAME dftd3.dat
           REFERENCE_FUNCTIONAL PBE
           EPS_CN     9.9999999999999995E-07
           CALCULATE_C9_TERM  T
           REFERENCE_C9_TERM  T
           LONG_RANGE_CORRECTION  F
           VERBOSE_OUTPUT  F
         &END PAIR_POTENTIAL
       &END VDW_POTENTIAL
     &END XC
   &END DFT
   &SUBSYS
     &CELL
       A     1.2894294052693104E+01    0.0000000000000000E+00    0.0000000000000000E+00
       B    -6.4410063226313223E+00    1.1156150202669846E+01    0.0000000000000000E+00
       C     0.0000000000000000E+00    0.0000000000000000E+00    3.2000000000000000E+01
       MULTIPLE_UNIT_CELL  1 1 1
       &CELL_REF
         A     1.2982353780853531E+01    0.0000000000000000E+00    0.0000000000000000E+00
         B    -6.4911768904267628E+00    1.1243048175136114E+01    0.0000000000000000E+00
         C     0.0000000000000000E+00    0.0000000000000000E+00    3.2000000000000000E+01
         MULTIPLE_UNIT_CELL  1 1 1
       &END CELL_REF
     &END CELL
     &COORD
N    2.0566196536692238E-04    1.9671293338012597E-04   -3.9541424883953923E-02
Ga    1.0081548659219297E-03    1.8591618833679560E+00    6.3007694719322049E-01
N    9.5473498387756183E-04    1.8593265701985262E+00    2.5359732802331716E+00
Ga    1.5698403015535495E-04    3.1708497323447470E-04    3.2449803374953414E+00
N    1.4402060162329330E-04    1.6749307335565229E-04    5.1536015242530233E+00
Ga    8.5266828242617078E-04    1.8589862010487324E+00    5.8351382094717437E+00
N    7.3888959464909619E-04    1.8591333131331507E+00    7.7377823882732351E+00
Ga    4.1555214590795231E-05    6.0931573855007258E-04    8.3950226774452510E+00
N    9.7453758154478884E-05    1.0190272169113294E-03    1.0280978865267151E+01
Ga    9.7163076730863570E-04    1.8586831346020949E+00    1.0924462500641180E+01
N    1.6725396424020753E-03    1.8594745162006523E+00    1.2827178750911838E+01
Ga    1.2374779492113253E-03   -2.4694453585737425E-03    1.3500606312179000E+01
N   -1.1999412166084097E-02   -3.0719601002202087E-03    1.5409517765701439E+01
Ga    1.4403762525494962E-03    1.8562648877323042E+00    1.6408014655980899E+01
N    1.6058527901691235E+00    9.2048156628629385E-01    1.7349215452481456E+01
N   -1.6100510618778519E+00    2.7892254113850536E+00   -3.9517521297598432E-02
Ga   -1.6092510868296990E+00    4.6481958195258350E+00    6.3014396075931245E-01
N   -1.6092955150476926E+00    4.6483045109121761E+00    2.5360092568436188E+00
Ga   -1.6100943642500556E+00    2.7893541961270567E+00    3.2449956664447024E+00
N   -1.6100684303551982E+00    2.7892166371345928E+00    5.1536016266931401E+00
Ga   -1.6094048862962691E+00    4.6480863345025663E+00    5.8353130363590937E+00
N   -1.6093086842378796E+00    4.6484266978136093E+00    7.7382106204878864E+00
Ga   -1.6090802359995071E+00    2.7899474429928475E+00    8.3952057046575117E+00
N   -1.6076629666113076E+00    2.7909364169240685E+00    1.0281323167053271E+01
Ga   -1.6096883795848929E+00    4.6485822169239164E+00    1.0924316688029192E+01
N   -1.6091961226320548E+00    4.6496439820126367E+00    1.2827844389184452E+01
Ga   -1.6107692588826956E+00    2.7894961237348568E+00    1.3504803521752073E+01
N   -1.6104134261278793E+00    2.8124413952002190E+00    1.5421311255961228E+01
Ga   -1.5972471038260723E+00    4.6613403134961819E+00    1.6361147558284010E+01
N   -2.3756968007067621E-02    3.7325186031906994E+00    1.7368038823099063E+01
N   -3.2203072839178284E+00    5.5782913202707896E+00   -3.9514817691044798E-02
Ga   -3.2194887065665148E+00    7.4372151083657991E+00    6.3014040312545017E-01
N   -3.2194852573279520E+00    7.4372892862290616E+00    2.5359581930518975E+00
Ga   -3.2203490649967037E+00    5.5784137633060507E+00    3.2450185176392585E+00
N   -3.2202516600989317E+00    5.5782594587141867E+00    5.1536043943787693E+00
Ga   -3.2194724086486977E+00    7.4371777830813901E+00    5.8355107055121431E+00
N   -3.2191062234829402E+00    7.4374559864036014E+00    7.7386481809816630E+00
Ga   -3.2198497383408315E+00    5.5787743829849754E+00    8.3958236773442110E+00
N   -3.2188320889090503E+00    5.5791762058689294E+00    1.0282299520638611E+01
Ga   -3.2187648049952031E+00    7.4375699391698182E+00    1.0925811456410665E+01
N   -3.2145392470156118E+00    7.4400586269106483E+00    1.2829016683904658E+01
Ga   -3.2169928681393909E+00    5.5841670439498667E+00    1.3509567615409004E+01
N   -3.2211793102329240E+00    5.5714634867413722E+00    1.5431562354073991E+01
Ga   -3.2305187802291200E+00    7.4624301353781943E+00    1.6402733269917771E+01
N   -1.6323243049329841E+00    6.5099601864022203E+00    1.7356279390028281E+01
N   -4.8305525681128492E+00    8.3673296275194016E+00   -3.9499672229059431E-02
Ga   -4.8297453341547483E+00    1.0226279235526318E+01    6.3014889268260343E-01
N   -4.8297879818300764E+00    1.0226405262289161E+01    2.5359612346179805E+00
Ga   -4.8305555439084280E+00    8.3674061453421409E+00    3.2450912903012243E+00
N   -4.8305161983462579E+00    8.3672193602790781E+00    5.1536866625300917E+00
Ga   -4.8298349498508673E+00    1.0226135760055804E+01    5.8352226665385265E+00
N   -4.8298848685169506E+00    1.0226442519415263E+01    7.7383918592038006E+00
Ga   -4.8301364687269519E+00    8.3674303265744250E+00    8.3952902167486201E+00
N   -4.8294117639154095E+00    8.3669286168493269E+00    1.0281136141028552E+01
Ga   -4.8303445855738216E+00    1.0226168889278672E+01    1.0920068891456378E+01
N   -4.8303831018886996E+00    1.0226285909018793E+01    1.2819607597893050E+01
Ga   -4.8312397230908699E+00    8.3695994291758673E+00    1.3504044756543450E+01
N   -4.8336190772853875E+00    8.3803162025911995E+00    1.5412524842814621E+01
Ga   -4.8338371580754469E+00    1.0231405829794861E+01    1.6397682174754340E+01
N   -3.2202013104054030E+00    9.2951435586349458E+00    1.7356402712177182E+01
N    3.2237758237976704E+00    1.8972818165992008E-04   -3.9495972595519943E-02
Ga    3.2245879321051532E+00    1.8591470829522863E+00    6.3016289942392811E-01
N    3.2245255220422200E+00    1.8592653943725337E+00    2.5359886341553941E+00
Ga    3.2237606214905252E+00    2.9490718055256846E-04    3.2450353406261443E+00
N    3.2237834855980871E+00    1.2948894913541640E-04    5.1537181355590880E+00
Ga    3.2245202070767229E+00    1.8589727915686107E+00    5.8354190527408845E+00
N    3.2245494352890542E+00    1.8590825794183938E+00    7.7382611672056605E+00
Ga    3.2240900330779394E+00   -3.3385447153534410E-04    8.3953543931370067E+00
N    3.2246080055849067E+00   -9.3786220775586441E-04    1.0281043731689207E+01
Ga    3.2249478235681472E+00    1.8593375783537280E+00    1.0919663820130742E+01
N    3.2261663709042354E+00    1.8597661534645786E+00    1.2818166670828655E+01
Ga    3.2205282602393863E+00    3.7516569559238439E-03    1.3498612162693325E+01
N    3.2063543174110922E+00   -1.0739872685414672E-02    1.5405228227550920E+01
Ga    3.2252752685456643E+00    1.8736815150457877E+00    1.6411263514934053E+01
N    4.8130109851330776E+00    9.1634739753973149E-01    1.7337933174372402E+01
N    1.6135208476188199E+00    2.7892224394756107E+00   -3.9508774041251901E-02
Ga    1.6143319735474351E+00    4.6481911700733747E+00    6.3013454757579712E-01
N    1.6142643181879375E+00    4.6482852476321179E+00    2.5360114914971348E+00
Ga    1.6135188667962237E+00    2.7893410154089051E+00    3.2449893680327455E+00
N    1.6134736756761883E+00    2.7891393080530111E+00    5.1536341732120245E+00
Ga    1.6143289250793620E+00    4.6481145150549814E+00    5.8354434645043805E+00
N    1.6141333746026645E+00    4.6483569062934587E+00    7.7385338536917363E+00
Ga    1.6128389077960201E+00    2.7888808939588232E+00    8.3944923520163357E+00
N    1.6124118230188731E+00    2.7877553180331360E+00    1.0279814696411542E+01
Ga    1.6152065548026715E+00    4.6472378857830154E+00    1.0920494451550514E+01
N    1.6161666623235778E+00    4.6466895392570766E+00    1.2818455217510817E+01
Ga    1.6171587653736712E+00    2.7893001675203748E+00    1.3502829361164402E+01
N    1.5992095664094161E+00    2.7990400503584167E+00    1.5417004477121333E+01
Ga    1.6028776683267265E+00    4.6452453164297252E+00    1.6381989767284839E+01
N    3.2078296281712682E+00    3.7244233188499818E+00    1.7354360265116327E+01
N    3.2691264365724251E-03    5.5782737615873765E+00   -3.9514721906841119E-02
Ga    4.0740221119625469E-03    7.4372338655904509E+00    6.3013446044159560E-01
N    4.0033628078712732E-03    7.4373102370322837E+00    2.5360025392503602E+00
Ga    3.2534960609104744E-03    5.5784149815240927E+00    3.2450266045716982E+00
N    3.1958023672018724E-03    5.5782500585680292E+00    5.1537659503250932E+00
Ga    4.0550739400383590E-03    7.4373000765268467E+00    5.8355347276996898E+00
N    4.1353171754103342E-03    7.4375642945225691E+00    7.7389728349399611E+00
Ga    2.7686683010640129E-03    5.5784909597676924E+00    8.3955938773654228E+00
N    2.2035575267487922E-03    5.5786355825640435E+00    1.0281732170715383E+01
Ga    5.8178097878383095E-03    7.4385271708369389E+00    1.0921570940386349E+01
N    8.3074611560870100E-03    7.4398743582484874E+00    1.2823183572901002E+01
Ga    9.0526147500925181E-03    5.5795616196104847E+00    1.3497843434231227E+01
N   -1.5782027049597617E-03    5.5731887455103930E+00    1.5398471240586998E+01
Ga    5.2810287543981135E-03    7.4085970710654534E+00    1.6370681870376824E+01
N    1.6133011189458428E+00    6.5015074928244800E+00    1.7356617333563328E+01
N   -1.6070018495152176E+00    8.3673289043239976E+00   -3.9527450140847208E-02
Ga   -1.6061704488514157E+00    1.0226270130049668E+01    6.3014292792472681E-01
N   -1.6062465917683295E+00    1.0226367297587002E+01    2.5359693414425659E+00
Ga   -1.6070195856258309E+00    8.3674645201286495E+00    3.2450491677884714E+00
N   -1.6069767402801118E+00    8.3672498607889594E+00    5.1537173610248210E+00
Ga   -1.6061395687089834E+00    1.0226123888829092E+01    5.8355307834355221E+00
N   -1.6059630601043906E+00    1.0226270279406348E+01    7.7385647336550933E+00
Ga   -1.6069991610526895E+00    8.3678987322623666E+00    8.3962963253670235E+00
N   -1.6064708049864391E+00    8.3683174370393694E+00    1.0283321208873529E+01
Ga   -1.6054773740509705E+00    1.0227232575628555E+01    1.0925964306939482E+01
N   -1.6028378669910199E+00    1.0231093725172469E+01    1.2827726797436226E+01
Ga   -1.5991731623674263E+00    8.3731945691916678E+00    1.3505044225530130E+01
N   -1.6121911838585092E+00    8.3799033495948443E+00    1.5419425427990225E+01
Ga   -1.6310250165832574E+00    1.0248243187534770E+01    1.6391755600919574E+01
N   -2.8284037201051618E-02    9.2297392766683419E+00    1.7357341581570171E+01
N    6.4473305306735638E+00    1.6600742153211816E-04   -3.9527998718448254E-02
Ga    6.4481685883339610E+00    1.8591491743446167E+00    6.3019272592780162E-01
N    6.4481175526017713E+00    1.8592645298237842E+00    2.5359705645260067E+00
Ga    6.4473442263176688E+00    2.6891168102123988E-04    3.2450161028289446E+00
N    6.4472751006797511E+00    3.9357816869531127E-05    5.1536328177368125E+00
Ga    6.4481210836380205E+00    1.8588311981242727E+00    5.8353277681869242E+00
N    6.4481635510496105E+00    1.8587596541577540E+00    7.7381508213705414E+00
Ga    6.4474346290912603E+00   -1.0037145178391668E-04    8.3964332796696262E+00
N    6.4476864227907216E+00   -4.4650710307706588E-04    1.0282907927834167E+01
Ga    6.4493316004680636E+00    1.8583710247103806E+00    1.0923739936947708E+01
N    6.4533918017203264E+00    1.8604974223640041E+00    1.2826560279049326E+01
Ga    6.4490784251082731E+00    6.1532554442435420E-03    1.3513929760030262E+01
N    6.4497398914318289E+00   -1.8388597904414078E-02    1.5430024989451560E+01
Ga    6.4320492165302738E+00    1.8868966080809988E+00    1.6399357382987674E+01
N    8.0403995536856474E+00    9.3423385889931865E-01    1.7351686213950735E+01
N    4.8370740395452234E+00    2.7892213617101587E+00   -3.9518161106911837E-02
Ga    4.8379059360670214E+00    4.6481953005882435E+00    6.3016876641896125E-01
N    4.8378310809651284E+00    4.6482957380402850E+00    2.5359548421550921E+00
Ga    4.8370899568465555E+00    2.7893643563025412E+00    3.2450170683106303E+00
N    4.8370119358736430E+00    2.7891242703541650E+00    5.1536646131114736E+00
Ga    4.8377613763711311E+00    4.6481713484182432E+00    5.8351122692731812E+00
N    4.8376259926966929E+00    4.6484212455987235E+00    7.7379728935852459E+00
Ga    4.8376092257833578E+00    2.7894102611879492E+00    8.3945000108242223E+00
N    4.8386520206489587E+00    2.7887659367774580E+00    1.0279697457179379E+01
Ga    4.8375027420338883E+00    4.6486543079169715E+00    1.0920258075936022E+01
N    4.8381491110077119E+00    4.6494604122424885E+00    1.2815871771260715E+01
Ga    4.8379107747528369E+00    2.7938785376528861E+00    1.3499735999322603E+01
N    4.8321355249687468E+00    2.8108726897081402E+00    1.5404650081372500E+01
Ga    4.8281622150564187E+00    4.6616789857378604E+00    1.6391212739790596E+01
N    6.4393469984007332E+00    3.7280577130831869E+00    1.7345359895295761E+01
N    3.2268290755470304E+00    5.5782683220363296E+00   -3.9511862062916049E-02
Ga    3.2276480990484711E+00    7.4372235732074463E+00    6.3014318318782625E-01
N    3.2275452114587093E+00    7.4372725310432761E+00    2.5359018679150052E+00
Ga    3.2268276029018841E+00    5.5784358302372521E+00    3.2450380705906134E+00
N    3.2267103155249601E+00    5.5782162652136318E+00    5.1535496176073359E+00
Ga    3.2275617383124566E+00    7.4372190345417311E+00    5.8353486019074952E+00
N    3.2274096843937099E+00    7.4376437568656639E+00    7.7380724072309972E+00
Ga    3.2268760311578917E+00    5.5793411116179294E+00    8.3953415131452811E+00
N    3.2267073786648677E+00    5.5800681281042896E+00    1.0280514136499150E+01
Ga    3.2272422267365819E+00    7.4378647919140315E+00    1.0926934215959099E+01
N    3.2275302346243757E+00    7.4398492764696043E+00    1.2828111027056975E+01
Ga    3.2280324676059640E+00    5.5772316957926380E+00    1.3501609526524788E+01
N    3.2177019468978596E+00    5.5842572318335764E+00    1.5408947734528876E+01
Ga    3.2207302785929257E+00    7.4510259630037865E+00    1.6420205403376496E+01
N    4.8309072869555214E+00    6.5116457674721859E+00    1.7361364943078843E+01
N    1.6165824126137773E+00    8.3673187774901070E+00   -3.9547126678736153E-02
Ga    1.6174098568308406E+00    1.0226264150674675E+01    6.3018753856753817E-01
N    1.6173358683443764E+00    1.0226382159753143E+01    2.5359329302243183E+00
Ga    1.6165968522764456E+00    8.3674668019789813E+00    3.2450384240945103E+00
N    1.6164649398656272E+00    8.3672616661075256E+00    5.1536863287193606E+00
Ga    1.6172884804554803E+00    1.0226169367282001E+01    5.8355613491278282E+00
N    1.6172128913336734E+00    1.0226382909640243E+01    7.7385374569793681E+00
Ga    1.6171523558801186E+00    8.3678783387211375E+00    8.3960171756822319E+00
N    1.6177146199409105E+00    8.3687986406921500E+00    1.0282133555644826E+01
Ga    1.6170382294877024E+00    1.0226548350048400E+01    1.0926996661363647E+01
N    1.6178636126462584E+00    1.0228070754255349E+01    1.2829329042858676E+01
Ga    1.6174481114389565E+00    8.3695401216552838E+00    1.3508445085848320E+01
N    1.6190949554582394E+00    8.3910556379778090E+00    1.5426364542197449E+01
Ga    1.6388931436906373E+00    1.0248113206397782E+01    1.6357791961703164E+01
N    3.1938893535190678E+00    9.3035356342045201E+00    1.7368053193086880E+01
N    9.6709091303117507E+00    1.8675171225150089E-04   -3.9502885893643751E-02
Ga    9.6717348013036268E+00    1.8591469526810458E+00    6.3012758948858227E-01
N    9.6717061590787612E+00    1.8592799056930718E+00    2.5360011879252666E+00
Ga    9.6708912133547127E+00    2.7647033944968940E-04    3.2450838220721754E+00
N    9.6708347373567154E+00    1.4833231745973186E-04    5.1537237281133450E+00
Ga    9.6718240714945800E+00    1.8589472561891411E+00    5.8354738958702459E+00
N    9.6722794615065393E+00    1.8591452233532064E+00    7.7388543379232990E+00
Ga    9.6708321912642070E+00   -4.9996219905741309E-04    8.3959081770958655E+00
N    9.6709186298694050E+00   -1.2385057074886096E-03    1.0281935884070432E+01
Ga    9.6731373737656519E+00    1.8597993414548530E+00    1.0918566320400314E+01
N    9.6774544416512214E+00    1.8600473948149479E+00    1.2816034401543174E+01
Ga    9.6786294241078057E+00    3.9444841866081931E-03    1.3494298909568114E+01
N    9.6700262003938438E+00    3.0300971294993100E-03    1.5397770111245221E+01
Ga    9.6706482696925224E+00    1.8486081779857961E+00    1.6381833085859775E+01
N    1.1282353005326184E+01    9.3248450891777290E-01    1.7351016352522354E+01
N    8.0606808191413517E+00    2.7892204426444738E+00   -3.9533951415785890E-02
Ga    8.0614881606061850E+00    4.6481896069602646E+00    6.3013977149272515E-01
N    8.0614597239455499E+00    4.6483057739523383E+00    2.5359475238753637E+00
Ga    8.0606605755719283E+00    2.7893639372395436E+00    3.2450734320206811E+00
N    8.0606915185634893E+00    2.7891296972273039E+00    5.1537239614902681E+00
Ga    8.0615543419146434E+00    4.6481604449274263E+00    5.8352828133350965E+00
N    8.0620315165124445E+00    4.6484429996139793E+00    7.7381057661143320E+00
Ga    8.0604431096098104E+00    2.7894226624815763E+00    8.3941968752549858E+00
N    8.0606546610673622E+00    2.7894783949740880E+00    1.0280293714236080E+01
Ga    8.0634034407421691E+00    4.6481706580222344E+00    1.0923231844425937E+01
N    8.0688844492261271E+00    4.6497855877173695E+00    1.2825913467765137E+01
Ga    8.0710313734081556E+00    2.7897429588704652E+00    1.3499697537937680E+01
N    8.0559171748560932E+00    2.7992184543213767E+00    1.5415688022575054E+01
Ga    8.0350980706453665E+00    4.6623508659985626E+00    1.6383438391002546E+01
N    9.6379220466855635E+00    3.6730720164387782E+00    1.7349713242382798E+01
N    6.4504084979035134E+00    5.5782621199742266E+00   -3.9495918841903309E-02
Ga    6.4512226554961822E+00    7.4372134864309301E+00    6.3022028344992598E-01
N    6.4511828787639036E+00    7.4373037210260158E+00    2.5359365431885914E+00
Ga    6.4504020130703035E+00    5.5783987651602169E+00    3.2450829837926891E+00
N    6.4503938455134282E+00    5.5781719142326285E+00    5.1536522721417066E+00
Ga    6.4511084151805340E+00    7.4372069225021100E+00    5.8354859416695373E+00
N    6.4511186104335883E+00    7.4375321959872744E+00    7.7385778823316365E+00
Ga    6.4507229788864722E+00    5.5781113169072221E+00    8.3944868747376589E+00
N    6.4520280518569182E+00    5.5766665791288990E+00    1.0279695413332608E+01
Ga    6.4514696359225860E+00    7.4361354361932301E+00    1.0921805434544584E+01
N    6.4536064023723663E+00    7.4351603329940863E+00    1.2820253455965405E+01
Ga    6.4498651638275399E+00    5.5765753748703712E+00    1.3498219344145761E+01
N    6.4330119831415606E+00    5.5783606179112031E+00    1.5403537655601609E+01
Ga    6.4427051012499748E+00    7.4631777261699765E+00    1.6411103268665677E+01
N    8.0352415751942026E+00    6.5033047269829654E+00    1.7346662366297277E+01
N    4.8401561926260328E+00    8.3673132392122174E+00   -3.9529843918968285E-02
Ga    4.8409728126479061E+00    1.0226266759654520E+01    6.3017182858560394E-01
N    4.8409406063524276E+00    1.0226409531595827E+01    2.5359266133867098E+00
Ga    4.8401104983204091E+00    8.3674137363674070E+00    3.2450357335851718E+00
N    4.8400979995989024E+00    8.3672358491065921E+00    5.1535776620318385E+00
Ga    4.8408828086090825E+00    1.0226085206374732E+01    5.8353569986829159E+00
N    4.8410147136600186E+00    1.0226257236311596E+01    7.7383783230070637E+00
Ga    4.8396055539962202E+00    8.3673564106356846E+00    8.3961388201737304E+00
N    4.8395510403325961E+00    8.3666166798117310E+00    1.0281564112458948E+01
Ga    4.8422812959595296E+00    1.0225053878142790E+01    1.0920663300878861E+01
N    4.8444434575615638E+00    1.0222722844453418E+01    1.2821252053622276E+01
Ga    4.8446712380383650E+00    8.3650137780990619E+00    1.3506620715392181E+01
N    4.8266519834032611E+00    8.3804734611754377E+00    1.5419204303505905E+01
Ga    4.8237645634137305E+00    1.0233033736764677E+01    1.6385454724373499E+01
N    6.4331900531605699E+00    9.2997901637461595E+00    1.7350842447511280E+01
H   -5.7739629328167219E-05   -1.0940778979805323E-04   -1.0644511410019357E+00
H   -1.6103156236469816E+00    2.7889317024221563E+00   -1.0643913959089848E+00
H   -3.2205635518341138E+00    5.5779707642537470E+00   -1.0644102501762001E+00
H   -4.8308252010560269E+00    8.3670014672183033E+00   -1.0644165307286468E+00
H    3.2235134665761240E+00   -1.1561287342182551E-04   -1.0644543984920658E+00
H    1.6132726600418990E+00    2.7889231609760348E+00   -1.0644024686192557E+00
H    3.0075218795108201E-03    5.5779492968320854E+00   -1.0644028913131867E+00
H   -1.6072556507491231E+00    8.3670015520614047E+00   -1.0644010293954769E+00
H    6.4470885423838196E+00   -1.1996576075076740E-04   -1.0644350536135629E+00
H    4.8368437895468981E+00    2.7889317913861511E+00   -1.0644089779265822E+00
H    3.2265861687952495E+00    5.5779449185293641E+00   -1.0644173621119706E+00
H    1.6163288355381511E+00    8.3670093126099712E+00   -1.0644293030050234E+00
H    9.6706724117045546E+00   -1.1159152342766935E-04   -1.0644384346825679E+00
H    8.0604370479797289E+00    2.7889170526175047E+00   -1.0644085350094175E+00
H    6.4501612662615564E+00    5.5779582050469401E+00   -1.0644033153773029E+00
H    4.8399349026926100E+00    8.3669931531512685E+00   -1.0644216867279024E+00
     &END COORD
     &KIND H
       BASIS_SET DZVP-MOLOPT-SR-GTH-q1
       POTENTIAL GTH-PBE-q1
       &POTENTIAL
 1
  0.2000000000000000E+00 2 -0.4178900440000000E+01  0.7244633100000000E+00
 0
         # Potential name:  GTH-PBE-Q1  for symbol:  H
         # Potential read from the potential filename: GTH_POTENTIALS
       &END POTENTIAL
     &END KIND
     &KIND N
       BASIS_SET DZVP-MOLOPT-SR-GTH
       POTENTIAL GTH-PBE-q5
       &POTENTIAL
 2 3
  0.2837905100000000E+00 2 -0.1241522559000000E+02  0.1868095920000000E+01
 2
  0.2554050000000000E+00 1  0.1363026257000000E+02
  0.2454945300000000E+00 0
         # Potential name:  GTH-PBE-Q5  for symbol:  N
         # Potential read from the potential filename: GTH_POTENTIALS
       &END POTENTIAL
     &END KIND
     &KIND Ga
       BASIS_SET DZVP-MOLOPT-SR-GTH
       POTENTIAL GTH-PBE-q13
       &POTENTIAL
 2 1 10
  0.4900000000000000E+00 0
 3
  0.4167772300000000E+00 3  0.1047568975000000E+02 -0.4921768140000000E+01  0.8707055900000000E+00
  0.7770178090000000E+01 -0.2248152160000000E+01
  0.1784415450000000E+01
  0.5696265200000000E+00 2  0.1777985340000000E+01  0.1958597600000000E+00
 -0.2317443900000000E+00
  0.2381265000000000E+00 1 -0.1624868022000000E+02
         # Potential name:  GTH-PBE-Q13  for symbol:  GA
         # Potential read from the potential filename: GTH_POTENTIALS
       &END POTENTIAL
     &END KIND
     &TOPOLOGY
       NUMBER_OF_ATOMS  256
       MULTIPLE_UNIT_CELL  1 1 1
     &END TOPOLOGY
   &END SUBSYS
 &END FORCE_EVAL
