 # Version information for this restart file 
 # current date 2019-06-09 05:42:18.008
 # current working dir /lustre03/project/6037349/rzk/GaN-carbene/444-addat/00-Surface/UKS_SYMM
 # Program compiled at                              Sun Apr  7 00:48:11 EDT 2019
 # Program compiled on                          beluga2.int.ets1.calculquebec.ca
 # Program compiled for                        Beluga-Linux-x86-64-intel-openmpi
 # Source code revision number                                         svn:18619
 &GLOBAL
   PRINT_LEVEL  MEDIUM
   PROJECT_NAME TEST
   RUN_TYPE  CELL_OPT
 &END GLOBAL
 &MOTION
   &CELL_OPT
     MAX_ITER  300
     STEP_START_VAL  28
     EXTERNAL_PRESSURE     1.0000000000000000E+00
     KEEP_ANGLES  T
     KEEP_SYMMETRY  T
     CONSTRAINT  Z
     PRESSURE_TOLERANCE     5.0000000000000000E+02
   &END CELL_OPT
 &END MOTION
 &FORCE_EVAL
   METHOD  QS
   STRESS_TENSOR  ANALYTICAL
   &DFT
     BASIS_SET_FILE_NAME BASIS_MOLOPT
     POTENTIAL_FILE_NAME GTH_POTENTIALS
     UKS  T
     SURFACE_DIPOLE_CORRECTION  T
     SURF_DIP_DIR  Z
     &SCF
       MAX_SCF  100
       EPS_SCF     5.0000000000000004E-06
       &OT  T
         PRECONDITIONER  FULL_ALL
       &END OT
       &OUTER_SCF  T
         OPTIMIZER  NONE
         EPS_SCF     5.0000000000000004E-06
         MAX_SCF  4
       &END OUTER_SCF
       &PRINT
         &RESTART  OFF
           BACKUP_COPIES  1
           &EACH
             JUST_ENERGY  0
             QS_SCF  0
             MD  20
           &END EACH
         &END RESTART
       &END PRINT
     &END SCF
     &QS
       EPS_DEFAULT     1.0000000000000000E-14
       METHOD  GPW
     &END QS
     &MGRID
       NGRIDS  5
       CUTOFF     1.2000000000000000E+03
     &END MGRID
     &XC
       DENSITY_CUTOFF     1.0000000000000000E-10
       GRADIENT_CUTOFF     1.0000000000000000E-10
       TAU_CUTOFF     1.0000000000000000E-10
       &XC_FUNCTIONAL  NO_SHORTCUT
         &PBE  T
         &END PBE
       &END XC_FUNCTIONAL
       &VDW_POTENTIAL
         POTENTIAL_TYPE  PAIR_POTENTIAL
         &PAIR_POTENTIAL
           R_CUTOFF     1.0000000000000004E+01
           TYPE  DFTD3
           PARAMETER_FILE_NAME dftd3.dat
           REFERENCE_FUNCTIONAL PBE
           EPS_CN     9.9999999999999995E-07
           CALCULATE_C9_TERM  T
           REFERENCE_C9_TERM  T
           LONG_RANGE_CORRECTION  F
           VERBOSE_OUTPUT  F
         &END PAIR_POTENTIAL
       &END VDW_POTENTIAL
     &END XC
   &END DFT
   &SUBSYS
     &CELL
       A     1.2839734138842296E+01    0.0000000000000000E+00    0.0000000000000000E+00
       B    -6.4155411619624356E+00    1.1112043250568460E+01    0.0000000000000000E+00
       C     0.0000000000000000E+00    0.0000000000000000E+00    3.2000000000000000E+01
       MULTIPLE_UNIT_CELL  1 1 1
       &CELL_REF
         A     1.2982353780853531E+01    0.0000000000000000E+00    0.0000000000000000E+00
         B    -6.4911768904267628E+00    1.1243048175136114E+01    0.0000000000000000E+00
         C     0.0000000000000000E+00    0.0000000000000000E+00    3.2000000000000000E+01
         MULTIPLE_UNIT_CELL  1 1 1
       &END CELL_REF
     &END CELL
     &COORD
N    3.6562984001261949E-04   -2.8526465989634674E-05   -2.0062928275977293E-01
Ga    8.5083911511316991E-04    1.8517057795944869E+00    4.7364748885596270E-01
N    8.8826813964324315E-04    1.8521512112705418E+00    2.3870196452336714E+00
Ga    5.0556780044927973E-04   -3.4323552739272115E-05    3.1193064953810872E+00
N    8.0432149872467016E-04   -1.0858707847831732E-04    5.0429455007628512E+00
Ga    1.0011948466866843E-03    1.8523306208010231E+00    5.7546863609120571E+00
N    1.1561310166162582E-03    1.8533740422178862E+00    7.6771150235810648E+00
Ga    7.4055521841829002E-04    1.3924404894990580E-03    8.3874428251276552E+00
N    1.5485889884187371E-03    3.3896908521655624E-03    1.0312498439071685E+01
Ga    2.5792383303057408E-03    1.8545761648851946E+00    1.1027638061676111E+01
N    4.1484229989606734E-03    1.8608568979634148E+00    1.2958076085432603E+01
Ga    3.6303237989893122E-03    6.6809687061333001E-03    1.3666571331363849E+01
N   -6.9017357900565089E-03    9.7009173169468940E-03    1.5585780743747119E+01
Ga   -2.8908444882996663E-04    1.8553900730176178E+00    1.6668255431300480E+01
N    1.5965103558602614E+00    9.2345124177495264E-01    1.7530364353543892E+01
N   -1.6035282510755096E+00    2.7780369867849930E+00   -2.0056542194602500E-01
Ga   -1.6029392516220122E+00    4.6297899126890103E+00    4.7371017889877426E-01
N   -1.6028459951578502E+00    4.6303084212310859E+00    2.3871078422512353E+00
Ga   -1.6036945265906088E+00    2.7783817302014460E+00    3.1197800352044895E+00
N   -1.6036324703506462E+00    2.7785729108292014E+00    5.0433669831189301E+00
Ga   -1.6027113134736213E+00    4.6303367656209016E+00    5.7570009489824185E+00
N   -1.6020694902008652E+00    4.6311724543785555E+00    7.6798885997160689E+00
Ga   -1.6021773674860615E+00    2.7795645873765604E+00    8.3915273956015142E+00
N   -1.6011486010245959E+00    2.7818609990184453E+00    1.0315920238608200E+01
Ga   -1.6010657496894984E+00    4.6335991545951050E+00    1.1027777830168926E+01
N   -1.5991042776601465E+00    4.6377135942472112E+00    1.2956193207312959E+01
Ga   -1.5999977865636308E+00    2.7864853395842024E+00    1.3671447708596428E+01
N   -1.5979445712797917E+00    2.7861472244353567E+00    1.5596621747446139E+01
Ga   -1.6091517401346380E+00    4.6215498281062040E+00    1.6602907437307479E+01
N   -1.8772113512189995E-02    3.7089855813846686E+00    1.7532015640663420E+01
N   -3.2073790243703320E+00    5.5559959555349856E+00   -2.0055174195620301E-01
Ga   -3.2067111235334433E+00    7.4077137828959216E+00    4.7371921671424277E-01
N   -3.2063730168492857E+00    7.4080118895682379E+00    2.3871031303695212E+00
Ga   -3.2074254263380855E+00    5.5560433802973819E+00    3.1201967864730555E+00
N   -3.2072177265301729E+00    5.5558461572109721E+00    5.0437811487895621E+00
Ga   -3.2060118571001421E+00    7.4077170085947657E+00    5.7560780112760961E+00
N   -3.2049339567538477E+00    7.4087696348728436E+00    7.6787549129761201E+00
Ga   -3.2056849687320250E+00    5.5577788998967987E+00    8.3932907717261447E+00
N   -3.2049330998460706E+00    5.5606866436309383E+00    1.0317680437209491E+01
Ga   -3.2039785986897771E+00    7.4132471530438568E+00    1.1028237038938920E+01
N   -3.2031531112986928E+00    7.4190455680579399E+00    1.2957361239765550E+01
Ga   -3.2035640184914800E+00    5.5678993470834932E+00    1.3673143926876314E+01
N   -3.2158508194635953E+00    5.5406737182887973E+00    1.5593184235246886E+01
Ga   -3.2319177060249591E+00    7.4011626517075122E+00    1.6640985576797792E+01
N   -1.6260894719575922E+00    6.4649381221974940E+00    1.7517360370097290E+01
N   -4.8112583957865462E+00    8.3339333260731721E+00   -2.0066362998341944E-01
Ga   -4.8106682600338306E+00    1.0185750710208719E+01    4.7348522115758945E-01
N   -4.8104319264381070E+00    1.0186168829754994E+01    2.3867854580560812E+00
Ga   -4.8109634677990627E+00    8.3340555692903724E+00    3.1193203214032050E+00
N   -4.8106505804970991E+00    8.3338389390261050E+00    5.0430759956096702E+00
Ga   -4.8099695677935674E+00    1.0186049429855403E+01    5.7560606221015433E+00
N   -4.8089367375544612E+00    1.0187201928431481E+01    7.6788607838904248E+00
Ga   -4.8099535901705748E+00    8.3343314565335085E+00    8.3890130358158945E+00
N   -4.8096278391727720E+00    8.3362797349999678E+00    1.0313756618974576E+01
Ga   -4.8086054011818282E+00    1.0189988503584294E+01    1.1022065938481356E+01
N   -4.8074626859484013E+00    1.0193098195046606E+01    1.2950382082600351E+01
Ga   -4.8102820401258963E+00    8.3440626414127319E+00    1.3669992811136346E+01
N   -4.8150676328775868E+00    8.3417478641654235E+00    1.5592079180765603E+01
Ga   -4.8202789877746266E+00    1.0199488430146346E+01    1.6616095422047845E+01
N   -3.2331042680951034E+00    9.2483516058715711E+00    1.7519429096081957E+01
N    3.2103363680489565E+00   -7.3647462439779512E-05   -2.0067821017999657E-01
Ga    3.2109909108155166E+00    1.8516458443790802E+00    4.7367987877362533E-01
N    3.2113263855286047E+00    1.8520510168891249E+00    2.3870653240788400E+00
Ga    3.2104225769916908E+00   -1.5442590899446268E-04    3.1195902065193390E+00
N    3.2106575371523962E+00   -1.3909633359098810E-04    5.0432131633619939E+00
Ga    3.2115103801207017E+00    1.8520218051791404E+00    5.7551044965751776E+00
N    3.2119987241307695E+00    1.8529353499035313E+00    7.6778377702303962E+00
Ga    3.2120748967795927E+00    1.6676981465974683E-03    8.3908259791579844E+00
N    3.2135607336295644E+00    4.2194165942038694E-03    1.0315477028323787E+01
Ga    3.2125282215330508E+00    1.8558780340929799E+00    1.1027089066804253E+01
N    3.2129446992128470E+00    1.8592192352332275E+00    1.2957397712042264E+01
Ga    3.2112983444386489E+00    6.7471351316227062E-03    1.3669276067434161E+01
N    3.1977857271186645E+00   -4.3629975429176392E-03    1.5588752844586667E+01
Ga    3.2107873596675649E+00    1.8560823531029453E+00    1.6666009128378992E+01
N    4.7932794044628855E+00    9.0849554417697964E-01    1.7524778589536311E+01
N    1.6064090041920525E+00    2.7779679035598783E+00   -2.0044853049901923E-01
Ga    1.6069431244649595E+00    4.6298528949914575E+00    4.7356444211260307E-01
N    1.6070647680005454E+00    4.6303711011216455E+00    2.3869215284630161E+00
Ga    1.6064330522128409E+00    2.7781264223850242E+00    3.1189689175820625E+00
N    1.6066742624537309E+00    2.7780708139203973E+00    5.0426392139834721E+00
Ga    1.6070265782725810E+00    4.6299467023348626E+00    5.7558485428046611E+00
N    1.6075516959204004E+00    4.6305651219938504E+00    7.6785411568376425E+00
Ga    1.6068566963497286E+00    2.7778342918324146E+00    8.3885105287210653E+00
N    1.6076871259381507E+00    2.7787335653723932E+00    1.0313026197025643E+01
Ga    1.6080925782403570E+00    4.6296722681553275E+00    1.1021772292484291E+01
N    1.6089800733366735E+00    4.6324348742396673E+00    1.2950278539966456E+01
Ga    1.6104252246511643E+00    2.7842520028200619E+00    1.3676596126316305E+01
N    1.6055508276384967E+00    2.7909383617822985E+00    1.5603183095859997E+01
Ga    1.5934605843221588E+00    4.6331775478218225E+00    1.6621614900082477E+01
N    3.1990237784256195E+00    3.7170137366513734E+00    1.7525650441049500E+01
N    2.4713795946673936E-03    5.5560083361120780E+00   -2.0076830114693286E-01
Ga    3.0558344706149865E-03    7.4077549705442678E+00    4.7349348291278825E-01
N    3.1148687911049114E-03    7.4081795874427696E+00    2.3869044955720260E+00
Ga    2.3374586949987076E-03    5.5562519346254842E+00    3.1196526799863791E+00
N    2.4675019997836985E-03    5.5561095094184276E+00    5.0435225916151580E+00
Ga    3.2521864176467633E-03    7.4080096448276143E+00    5.7570113934644001E+00
N    3.9736045628220411E-03    7.4091282263718083E+00    7.6799795526942027E+00
Ga    3.1196166816792464E-03    5.5568315437961360E+00    8.3913219830796439E+00
N    4.5277031234191665E-03    5.5595377491756288E+00    1.0316034742104954E+01
Ga    6.6297234996580655E-03    7.4140477499607584E+00    1.1023476784931697E+01
N    9.4038860900797043E-03    7.4181506432984241E+00    1.2952457072179962E+01
Ga    8.4334114309141690E-03    5.5661177546763598E+00    1.3659188105829060E+01
N   -5.7356841205326986E-04    5.5519996482390592E+00    1.5579505480369582E+01
Ga   -7.4926738411389103E-03    7.3876002011370652E+00    1.6632530187477769E+01
N    1.5963986489058941E+00    6.4739136720450192E+00    1.7526549349219241E+01
N   -1.6013695154874539E+00    8.3339999228609329E+00   -2.0078202166361961E-01
Ga   -1.6007151211953334E+00    1.0185721038791138E+01    4.7370664558448455E-01
N   -1.6004168769669938E+00    1.0186167844190658E+01    2.3871430706099916E+00
Ga   -1.6012676684411087E+00    8.3341624895001125E+00    3.1200029870077541E+00
N   -1.6010587486390304E+00    8.3342256938600894E+00    5.0437897047936824E+00
Ga   -1.6000675432238807E+00    1.0186506209263950E+01    5.7563613195763148E+00
N   -1.5991366179057303E+00    1.0188056598216793E+01    7.6791705496187754E+00
Ga   -1.6007502611282414E+00    8.3363842113296620E+00    8.3909523104149795E+00
N   -1.5993813719903072E+00    8.3391092323378544E+00    1.0315923400000370E+01
Ga   -1.5980517800776237E+00    1.0191037201452119E+01    1.1028956278609916E+01
N   -1.5979652505397040E+00    1.0193881588085466E+01    1.2957743373696392E+01
Ga   -1.5953441595413145E+00    8.3425595667659387E+00    1.3673004948887824E+01
N   -1.6175079001984267E+00    8.3283489898681538E+00    1.5596519090941538E+01
Ga   -1.6254297038124388E+00    1.0190045443004486E+01    1.6634144009710994E+01
N   -2.8238435826509180E-02    9.2240382347782663E+00    1.7505425034678794E+01
N    6.4202130576950855E+00   -3.3798976134279815E-05   -2.0057665487866644E-01
Ga    6.4208413424916104E+00    1.8516879638511416E+00    4.7366216949873491E-01
N    6.4210612648226544E+00    1.8521395670937872E+00    2.3870239820994561E+00
Ga    6.4202130509409807E+00    2.5586804806294650E-04    3.1200367243343687E+00
N    6.4203955470722311E+00    5.1465405568295014E-04    5.0436211599723713E+00
Ga    6.4215786712458485E+00    1.8523900778909945E+00    5.7566257619767738E+00
N    6.4221641335112167E+00    1.8534218983130872E+00    7.6793356943174649E+00
Ga    6.4214168063654569E+00    2.0532199475315782E-03    8.3926178847613020E+00
N    6.4220801342666718E+00    4.8964092140190004E-03    1.0317906132766106E+01
Ga    6.4225096588046648E+00    1.8567164596707428E+00    1.1031992215179972E+01
N    6.4235113635412189E+00    1.8613438329554732E+00    1.2961847093315479E+01
Ga    6.4215270815163752E+00    1.0061962367274623E-02    1.3674717881364291E+01
N    6.4098417615658310E+00   -2.0252503533055695E-02    1.5595901265445598E+01
Ga    6.4007437704103394E+00    1.8449640388012942E+00    1.6646591426015057E+01
N    8.0064059016375815E+00    9.0159623695601954E-01    1.7518373215524566E+01
N    4.8163671823100547E+00    2.7779683446742234E+00   -2.0060692801567259E-01
Ga    4.8169371099431508E+00    4.6297231394502347E+00    4.7354049914053981E-01
N    4.8171892896700266E+00    4.6300588358492298E+00    2.3868514747736866E+00
Ga    4.8166376384905414E+00    2.7781227976291953E+00    3.1196590798291117E+00
N    4.8168627905029728E+00    2.7779898870169437E+00    5.0433166221108197E+00
Ga    4.8176569744694921E+00    4.6298321816518619E+00    5.7561098815363501E+00
N    4.8179125129544316E+00    4.6309895809400352E+00    7.6790963283054010E+00
Ga    4.8172917868182772E+00    2.7785976553164624E+00    8.3902852007119151E+00
N    4.8177473332135401E+00    2.7799253835684730E+00    1.0315075162826252E+01
Ga    4.8178988418324726E+00    4.6324122495182589E+00    1.1022599886969466E+01
N    4.8174758998386613E+00    4.6353221453207496E+00    1.2950476121954630E+01
Ga    4.8169902834480789E+00    2.7874209218362194E+00    1.3673826745550780E+01
N    4.8114028882380060E+00    2.7875038112209558E+00    1.5595696505424636E+01
Ga    4.8086927220498232E+00    4.6416798133000086E+00    1.6621849428825648E+01
N    6.3979394937599778E+00    3.6940859925884895E+00    1.7514679685046609E+01
N    3.2124550046163680E+00    5.5559941201484451E+00   -2.0060658835875866E-01
Ga    3.2129749287628040E+00    7.4077198119840881E+00    4.7377719899293103E-01
N    3.2130263638659446E+00    7.4080399129629910E+00    2.3870931956861012E+00
Ga    3.2125811268116817E+00    5.5557838582965973E+00    3.1195396630112886E+00
N    3.2126996581336233E+00    5.5552434267223054E+00    5.0430507298767147E+00
Ga    3.2132612811926258E+00    7.4077183745804520E+00    5.7541477163659707E+00
N    3.2137438329748305E+00    7.4082090217705652E+00    7.6765916402584056E+00
Ga    3.2126931980176314E+00    5.5570185799381644E+00    8.3899428484592544E+00
N    3.2122331631683330E+00    5.5592039837832550E+00    1.0314275576382949E+01
Ga    3.2141975764962880E+00    7.4126410454243050E+00    1.1025692888963881E+01
N    3.2155100550208910E+00    7.4171983933593371E+00    1.2956427477597819E+01
Ga    3.2129028007705238E+00    5.5618783306908739E+00    1.3662338116108053E+01
N    3.2054564823095930E+00    5.5632415343619614E+00    1.5583676408705237E+01
Ga    3.2131317619018511E+00    7.4081982115199754E+00    1.6663387596877065E+01
N    4.8097563833741885E+00    6.4824456117634677E+00    1.7527658727291840E+01
N    1.6085516754378426E+00    8.3339929590899207E+00   -2.0061430580361372E-01
Ga    1.6091262974282485E+00    1.0185795499100092E+01    4.7366774221325886E-01
N    1.6091582523377101E+00    1.0186291717179136E+01    2.3870105394508787E+00
Ga    1.6081998214513429E+00    8.3342179790396873E+00    3.1194620758360148E+00
N    1.6082611388787795E+00    8.3342407092185784E+00    5.0432381989475896E+00
Ga    1.6094040497890925E+00    1.0186656516719417E+01    5.7561806508971465E+00
N    1.6101100006365998E+00    1.0188156424300860E+01    7.6790196531516095E+00
Ga    1.6103057258449285E+00    8.3359083206070341E+00    8.3888920724977201E+00
N    1.6114126867954082E+00    8.3393540459823043E+00    1.0313795489163661E+01
Ga    1.6106360363885455E+00    1.0190952155279394E+01    1.1027767711131961E+01
N    1.6112293857240436E+00    1.0195018257215523E+01    1.2957236768426101E+01
Ga    1.6114613185236915E+00    8.3425217823515023E+00    1.3671453782174964E+01
N    1.6140678644926412E+00    8.3378878828582046E+00    1.5596839741777639E+01
Ga    1.6006633642544394E+00    1.0174174349915663E+01    1.6601388060586547E+01
N    3.1920965944138082E+00    9.2657060850018436E+00    1.7532130033898518E+01
N    9.6301105916436889E+00   -3.1092858193717818E-05   -2.0079264822697127E-01
Ga    9.6307656197818510E+00    1.8517280819070661E+00    4.7362515848159015E-01
N    9.6309082035987359E+00    1.8523036860899726E+00    2.3869593166475696E+00
Ga    9.6300027052538582E+00    2.7687535201352282E-04    3.1194194444466787E+00
N    9.6300829143632036E+00    5.4994389723651447E-04    5.0431358065007226E+00
Ga    9.6310751918078399E+00    1.8526487026904421E+00    5.7566575603602397E+00
N    9.6319526491770784E+00    1.8539622533829720E+00    7.6795900924000984E+00
Ga    9.6309672001507423E+00    2.0176246613086805E-03    8.3915757751161326E+00
N    9.6312914709799013E+00    5.5598945944946966E-03    1.0316741411120075E+01
Ga    9.6321098148928623E+00    1.8596688774910382E+00    1.1025328746735029E+01
N    9.6338202396914188E+00    1.8655552856520008E+00    1.2954653637595033E+01
Ga    9.6359278454318833E+00    1.2621538137121012E-02    1.3659072071293664E+01
N    9.6280410473581686E+00   -9.6690126739083834E-03    1.5577255933708354E+01
Ga    9.6228306180123209E+00    1.8258590358075479E+00    1.6626390386314824E+01
N    1.1220628163584463E+01    9.1630638188318858E-01    1.7526988313087028E+01
N    8.0262591319647445E+00    2.7780061016066044E+00   -2.0063372140580418E-01
Ga    8.0269505120416529E+00    4.6297700193998352E+00    4.7366296744476155E-01
N    8.0272238342247491E+00    4.6302164495330604E+00    2.3869715621326537E+00
Ga    8.0263014052775379E+00    2.7782765320801248E+00    3.1197676398835630E+00
N    8.0264988097805592E+00    2.7784912304085410E+00    5.0435968429272169E+00
Ga    8.0276962366562383E+00    4.6302004064443238E+00    5.7572938070043724E+00
N    8.0285083588682280E+00    4.6320402396314835E+00    7.6800778381322496E+00
Ga    8.0269532563901009E+00    2.7800033093384968E+00    8.3920705784397764E+00
N    8.0262501529837476E+00    2.7831886327886424E+00    1.0316306116196346E+01
Ga    8.0289613452201678E+00    4.6356066766969173E+00    1.1026908802775514E+01
N    8.0297606059313118E+00    4.6396242640985594E+00    1.2955765096328378E+01
Ga    8.0297766834128730E+00    2.7903005767459810E+00    1.3672950656514979E+01
N    8.0172080588298762E+00    2.7659771653180605E+00    1.5595931139223762E+01
Ga    8.0115366792707068E+00    4.6278147308886481E+00    1.6636157145599604E+01
N    9.6052998684578093E+00    3.6634532812446112E+00    1.7507440334532816E+01
N    6.4224114038365077E+00    5.5559562109099829E+00   -2.0058418798811861E-01
Ga    6.4230417273962006E+00    7.4076842214203689E+00    4.7373039923081378E-01
N    6.4233066146763376E+00    7.4078919265812360E+00    2.3869987743180090E+00
Ga    6.4226142529662775E+00    5.5556782262070703E+00    3.1197580410197245E+00
N    6.4229479611489513E+00    5.5552709994910101E+00    5.0433490951617950E+00
Ga    6.4236597827837212E+00    7.4074160794880992E+00    5.7548367895936936E+00
N    6.4239465355441130E+00    7.4084389818032070E+00    7.6775548605909192E+00
Ga    6.4234582888432641E+00    5.5571543755872232E+00    8.3912536339802184E+00
N    6.4232661169729370E+00    5.5602040781034576E+00    1.0315090997496112E+01
Ga    6.4232353946213623E+00    7.4130601544930474E+00    1.1022885352182126E+01
N    6.4232885255406105E+00    7.4157379009593480E+00    1.2953650730579366E+01
Ga    6.4215595016855520E+00    5.5642496359622191E+00    1.3665405878768114E+01
N    6.4121797025811587E+00    5.5458926375640347E+00    1.5587890256581272E+01
Ga    6.4226436122395176E+00    7.4095052411728055E+00    1.6664913641395330E+01
N    8.0055223411350767E+00    6.4604873651306347E+00    1.7519211014810828E+01
N    4.8184964396967294E+00    8.3339186006584853E+00   -2.0053134370531550E-01
Ga    4.8190468568253779E+00    1.0185784843858965E+01    4.7347847149296091E-01
N    4.8192007765715612E+00    1.0186220594729873E+01    2.3868338274729068E+00
Ga    4.8185964461451594E+00    8.3340313774282713E+00    3.1190165098227798E+00
N    4.8188788149628561E+00    8.3337476038683285E+00    5.0425386764725522E+00
Ga    4.8191972802104006E+00    1.0186186805120954E+01    5.7550422950978195E+00
N    4.8192432121832205E+00    1.0186945177609575E+01    7.6777770065556270E+00
Ga    4.8188476077131961E+00    8.3346442212183476E+00    8.3872233478566933E+00
N    4.8187262157888267E+00    8.3365362486195362E+00    1.0312045556424573E+01
Ga    4.8214439277547436E+00    1.0188804013021835E+01    1.1023740073433082E+01
N    4.8224961751673350E+00    1.0191461628852450E+01    1.2952255422233504E+01
Ga    4.8213497957433216E+00    8.3418803380206867E+00    1.3674101232897264E+01
N    4.8166710964088670E+00    8.3389363197932909E+00    1.5601250826368920E+01
Ga    4.8071197260488008E+00    1.0187908420143797E+01    1.6615054459622556E+01
N    6.4102644644754072E+00    9.2702849290757214E+00    1.7523275684433852E+01
H    2.7275930146774624E-04   -2.1380652195685565E-04   -1.2270210462273912E+00
H   -1.6037288953473507E+00    2.7778099899213071E+00   -1.2269550482202669E+00
H   -3.2076120289431547E+00    5.5557531616797728E+00   -1.2269359863525306E+00
H   -4.8114539675349155E+00    8.3337459708841060E+00   -1.2270756563952456E+00
H    3.2101074472474638E+00   -2.9860036114373557E-04   -1.2270835542071350E+00
H    1.6062019642132592E+00    2.7777577904091855E+00   -1.2268499193816480E+00
H    2.2882304832837607E-03    5.5558155925808643E+00   -1.2271692576901945E+00
H   -1.6015154954912874E+00    8.3337631349161878E+00   -1.2271913388571909E+00
H    6.4200277287067546E+00   -1.8176607631196823E-04   -1.2269660178031438E+00
H    4.8162388198414252E+00    2.7777685505086773E+00   -1.2269950036531334E+00
H    3.2123087417371536E+00    5.5557410818836646E+00   -1.2269974413239011E+00
H    1.6083336033507023E+00    8.3337799337592173E+00   -1.2270170219914402E+00
H    9.6298686043204640E+00   -1.9425717892405752E-04   -1.2272095473467139E+00
H    8.0260493217183111E+00    2.7777849841358120E+00   -1.2270349611630846E+00
H    6.4222253766564075E+00    5.5557259720375889E+00   -1.2269735941935773E+00
H    4.8183133684675861E+00    8.3336580561756701E+00   -1.2269353974030575E+00
     &END COORD
     &KIND H
       BASIS_SET DZVP-MOLOPT-SR-GTH-q1
       POTENTIAL GTH-PBE-q1
       &POTENTIAL
 1
  0.2000000000000000E+00 2 -0.4178900440000000E+01  0.7244633100000000E+00
 0
         # Potential name:  GTH-PBE-Q1  for symbol:  H
         # Potential read from the potential filename: GTH_POTENTIALS
       &END POTENTIAL
     &END KIND
     &KIND N
       BASIS_SET DZVP-MOLOPT-SR-GTH
       POTENTIAL GTH-PBE-q5
       &POTENTIAL
 2 3
  0.2837905100000000E+00 2 -0.1241522559000000E+02  0.1868095920000000E+01
 2
  0.2554050000000000E+00 1  0.1363026257000000E+02
  0.2454945300000000E+00 0
         # Potential name:  GTH-PBE-Q5  for symbol:  N
         # Potential read from the potential filename: GTH_POTENTIALS
       &END POTENTIAL
     &END KIND
     &KIND Ga
       BASIS_SET DZVP-MOLOPT-SR-GTH
       POTENTIAL GTH-PBE-q13
       &POTENTIAL
 2 1 10
  0.4900000000000000E+00 0
 3
  0.4167772300000000E+00 3  0.1047568975000000E+02 -0.4921768140000000E+01  0.8707055900000000E+00
  0.7770178090000000E+01 -0.2248152160000000E+01
  0.1784415450000000E+01
  0.5696265200000000E+00 2  0.1777985340000000E+01  0.1958597600000000E+00
 -0.2317443900000000E+00
  0.2381265000000000E+00 1 -0.1624868022000000E+02
         # Potential name:  GTH-PBE-Q13  for symbol:  GA
         # Potential read from the potential filename: GTH_POTENTIALS
       &END POTENTIAL
     &END KIND
     &TOPOLOGY
       NUMBER_OF_ATOMS  256
       MULTIPLE_UNIT_CELL  1 1 1
     &END TOPOLOGY
   &END SUBSYS
 &END FORCE_EVAL
