 # Version information for this restart file 
 # current date 2019-06-09 07:49:56.620
 # current working dir /lustre03/project/6037349/rzk/GaN-carbene/444-addat/00-Surface/UKS_SYMM
 # Program compiled at                              Sun Apr  7 00:48:11 EDT 2019
 # Program compiled on                          beluga2.int.ets1.calculquebec.ca
 # Program compiled for                        Beluga-Linux-x86-64-intel-openmpi
 # Source code revision number                                         svn:18619
 &GLOBAL
   PRINT_LEVEL  MEDIUM
   PROJECT_NAME TEST
   RUN_TYPE  CELL_OPT
 &END GLOBAL
 &MOTION
   &CELL_OPT
     MAX_ITER  300
     STEP_START_VAL  46
     EXTERNAL_PRESSURE     1.0000000000000000E+00
     KEEP_ANGLES  T
     KEEP_SYMMETRY  T
     CONSTRAINT  Z
     PRESSURE_TOLERANCE     5.0000000000000000E+02
   &END CELL_OPT
 &END MOTION
 &FORCE_EVAL
   METHOD  QS
   STRESS_TENSOR  ANALYTICAL
   &DFT
     BASIS_SET_FILE_NAME BASIS_MOLOPT
     POTENTIAL_FILE_NAME GTH_POTENTIALS
     UKS  T
     SURFACE_DIPOLE_CORRECTION  T
     SURF_DIP_DIR  Z
     &SCF
       MAX_SCF  100
       EPS_SCF     5.0000000000000004E-06
       &OT  T
         PRECONDITIONER  FULL_ALL
       &END OT
       &OUTER_SCF  T
         OPTIMIZER  NONE
         EPS_SCF     5.0000000000000004E-06
         MAX_SCF  4
       &END OUTER_SCF
       &PRINT
         &RESTART  OFF
           BACKUP_COPIES  1
           &EACH
             JUST_ENERGY  0
             QS_SCF  0
             MD  20
           &END EACH
         &END RESTART
       &END PRINT
     &END SCF
     &QS
       EPS_DEFAULT     1.0000000000000000E-14
       METHOD  GPW
     &END QS
     &MGRID
       NGRIDS  5
       CUTOFF     1.2000000000000000E+03
     &END MGRID
     &XC
       DENSITY_CUTOFF     1.0000000000000000E-10
       GRADIENT_CUTOFF     1.0000000000000000E-10
       TAU_CUTOFF     1.0000000000000000E-10
       &XC_FUNCTIONAL  NO_SHORTCUT
         &PBE  T
         &END PBE
       &END XC_FUNCTIONAL
       &VDW_POTENTIAL
         POTENTIAL_TYPE  PAIR_POTENTIAL
         &PAIR_POTENTIAL
           R_CUTOFF     1.0000000000000004E+01
           TYPE  DFTD3
           PARAMETER_FILE_NAME dftd3.dat
           REFERENCE_FUNCTIONAL PBE
           EPS_CN     9.9999999999999995E-07
           CALCULATE_C9_TERM  T
           REFERENCE_C9_TERM  T
           LONG_RANGE_CORRECTION  F
           VERBOSE_OUTPUT  F
         &END PAIR_POTENTIAL
       &END VDW_POTENTIAL
     &END XC
   &END DFT
   &SUBSYS
     &CELL
       A     1.2831225206384849E+01    0.0000000000000000E+00    0.0000000000000000E+00
       B    -6.4142460591267829E+00    1.1109800066656092E+01    0.0000000000000000E+00
       C     0.0000000000000000E+00    0.0000000000000000E+00    3.2000000000000000E+01
       MULTIPLE_UNIT_CELL  1 1 1
       &CELL_REF
         A     1.2982353780853531E+01    0.0000000000000000E+00    0.0000000000000000E+00
         B    -6.4911768904267628E+00    1.1243048175136114E+01    0.0000000000000000E+00
         C     0.0000000000000000E+00    0.0000000000000000E+00    3.2000000000000000E+01
         MULTIPLE_UNIT_CELL  1 1 1
       &END CELL_REF
     &END CELL
     &COORD
N    3.5572551908093257E-04   -2.2019012199333047E-04   -2.0786021846931665E-01
Ga    6.4568131341263422E-04    1.8515495006674687E+00    4.7358009006102386E-01
N    6.8861113184638396E-04    1.8518061297834461E+00    2.3909273054697278E+00
Ga    4.9204706229271538E-04    1.6694178491636452E-05    3.1192353312799801E+00
N    7.4001929917958829E-04    1.6554209916214615E-04    5.0403694004090314E+00
Ga    1.0666948490071194E-03    1.8520176029332016E+00    5.7568343887230000E+00
N    1.5277641083968020E-03    1.8533323292229649E+00    7.6798897934812018E+00
Ga    1.2394526647052037E-03    2.0913247863240171E-03    8.3933689155257429E+00
N    1.4861620354726908E-03    4.5767467389774552E-03    1.0316900561879146E+01
Ga    2.9369301375721940E-03    1.8565417515629186E+00    1.1030761816818153E+01
N    3.8167168618466847E-03    1.8595940061654339E+00    1.2957009902810354E+01
Ga    1.6954389167207753E-03    5.7368359061423912E-03    1.3669499047327328E+01
N   -6.6949481350138760E-03    2.1611746250165494E-03    1.5587106814820020E+01
Ga   -1.8679088466813099E-03    1.8500658101439267E+00    1.6652743587729617E+01
N    1.5952797740152851E+00    9.1843364776163339E-01    1.7528692571241827E+01
N   -1.6032520359840459E+00    2.7772661444071360E+00   -2.0772733254714898E-01
Ga   -1.6028736482571471E+00    4.6290303040325647E+00    4.7368799405796430E-01
N   -1.6027722196637457E+00    4.6293100846326833E+00    2.3910446006542538E+00
Ga   -1.6031278354030631E+00    2.7775933466960101E+00    3.1195280667415357E+00
N   -1.6029007954860863E+00    2.7778668612439090E+00    5.0406944273916503E+00
Ga   -1.6024064150977337E+00    4.6297135398146869E+00    5.7574720234152990E+00
N   -1.6019290874810683E+00    4.6312265528791228E+00    7.6806655686864262E+00
Ga   -1.6017167477194210E+00    2.7796332423321699E+00    8.3936685374718145E+00
N   -1.6006504844586835E+00    2.7820348407610038E+00    1.0317406148111395E+01
Ga   -1.6013957964695040E+00    4.6336339713102843E+00    1.1031047860683788E+01
N   -1.6016870327608579E+00    4.6349718621526659E+00    1.2956758809837556E+01
Ga   -1.6014637459922860E+00    2.7827568842054089E+00    1.3676209279272657E+01
N   -1.5946280446889429E+00    2.7851237124758348E+00    1.5600706469576247E+01
Ga   -1.6046352324663908E+00    4.6268355730403821E+00    1.6606165617324933E+01
N   -1.7826761507108109E-02    3.7050832940435363E+00    1.7531258611147660E+01
N   -3.2067760902213549E+00    5.5546780641655964E+00   -2.0768448271258610E-01
Ga   -3.2063799632868939E+00    7.4064434591421566E+00    4.7371081503316020E-01
N   -3.2062210593566638E+00    7.4067282014022187E+00    2.3910604930059245E+00
Ga   -3.2065476580125103E+00    5.5550499366376238E+00    3.1196477769409121E+00
N   -3.2062557990378342E+00    5.5553860651484843E+00    5.0407967207076476E+00
Ga   -3.2057937625670139E+00    7.4071909679971046E+00    5.7574474651278980E+00
N   -3.2052119256323475E+00    7.4086304874063744E+00    7.6806249227417815E+00
Ga   -3.2056261794175755E+00    5.5571712000785505E+00    8.3944116310323924E+00
N   -3.2051793817040362E+00    5.5591538861303711E+00    1.0318261356223207E+01
Ga   -3.2048667407174904E+00    7.4110494967291132E+00    1.1030936290426704E+01
N   -3.2043767598814621E+00    7.4141057024455179E+00    1.2956402258943793E+01
Ga   -3.2054502197866834E+00    5.5638586268773373E+00    1.3678281311078152E+01
N   -3.2086745088013702E+00    5.5426293118658334E+00    1.5598350669560185E+01
Ga   -3.2303989795952699E+00    7.4043504109924303E+00    1.6634332795392659E+01
N   -1.6235112214424836E+00    6.4710752885998080E+00    1.7520759121670455E+01
N   -4.8102849299412513E+00    8.3320565201422632E+00   -2.0775507620016909E-01
Ga   -4.8099753495748825E+00    1.0183872930129997E+01    4.7348538434820953E-01
N   -4.8098543105452638E+00    1.0184123144433935E+01    2.3908474902828960E+00
Ga   -4.8100822419450866E+00    8.3324235394880386E+00    3.1194344007462496E+00
N   -4.8097351446768419E+00    8.3326604163887996E+00    5.0405474606208722E+00
Ga   -4.8094870986321228E+00    1.0184496331606372E+01    5.7571004997761843E+00
N   -4.8090079402138528E+00    1.0185844971137207E+01    7.6803695973152859E+00
Ga   -4.8092931336163245E+00    8.3341114086690080E+00    8.3935232293407047E+00
N   -4.8089059558746765E+00    8.3355420163863894E+00    1.0316996210042872E+01
Ga   -4.8087754003389893E+00    1.0187837287786774E+01    1.1027256019145035E+01
N   -4.8098960933811767E+00    1.0190155486912717E+01    1.2950091147734490E+01
Ga   -4.8091136128896377E+00    8.3413838128901876E+00    1.3674445333743321E+01
N   -4.8153411136830186E+00    8.3413711795119241E+00    1.5592731291069999E+01
Ga   -4.8220173856384099E+00    1.0191557930112516E+01    1.6614943044871509E+01
N   -3.2295496784202840E+00    9.2501983950777689E+00    1.7515068974089235E+01
N    3.2081987618981245E+00   -2.5380702458772199E-04   -2.0778300416597981E-01
Ga    3.2085323486255488E+00    1.8515349642691412E+00    4.7354545181084595E-01
N    3.2086454576533145E+00    1.8517933501627470E+00    2.3909052083461169E+00
Ga    3.2083907018311479E+00    5.4122379252466333E-05    3.1194095546036089E+00
N    3.2087598014463841E+00    1.9926659584498652E-04    5.0405695624759623E+00
Ga    3.2090131394139840E+00    1.8520528107198380E+00    5.7570082699753797E+00
N    3.2095333725568986E+00    1.8532613911123728E+00    7.6800800042720754E+00
Ga    3.2094427573940374E+00    1.9953784983831198E-03    8.3938263549867536E+00
N    3.2099891226893074E+00    3.8844813728875880E-03    1.0317378909132840E+01
Ga    3.2096705558468144E+00    1.8558077608955847E+00    1.1030790585332529E+01
N    3.2102492545497583E+00    1.8582573352115230E+00    1.2955797524622245E+01
Ga    3.2072871112640664E+00    6.1238483047177470E-03    1.3670966471594783E+01
N    3.1939817729501980E+00   -7.2270060988530753E-03    1.5588978578091094E+01
Ga    3.2071288304886734E+00    1.8568301816496773E+00    1.6659107432949167E+01
N    4.7888943889284734E+00    9.0721522043134972E-01    1.7519736974728161E+01
N    1.6045804495063021E+00    2.7771974741086765E+00   -2.0774157544879612E-01
Ga    1.6048722626322598E+00    4.6290102974434610E+00    4.7351197788478144E-01
N    1.6049164877809046E+00    4.6292607220854816E+00    2.3908659200910467E+00
Ga    1.6047500140416884E+00    2.7775233174527791E+00    3.1193115262432358E+00
N    1.6050107478237847E+00    2.7776396508388292E+00    5.0404038680895393E+00
Ga    1.6053042040588001E+00    4.6294529040663956E+00    5.7571050360053420E+00
N    1.6056144404074257E+00    4.6306032611605445E+00    7.6802458979511723E+00
Ga    1.6056841876159409E+00    2.7788228948600380E+00    8.3932168589298684E+00
N    1.6063192109638671E+00    2.7806227097745859E+00    1.0316751913652398E+01
Ga    1.6069445701170240E+00    4.6320439702806038E+00    1.1029197012346028E+01
N    1.6068946424792330E+00    4.6331805828190733E+00    1.2953463068642648E+01
Ga    1.6089196280885554E+00    2.7835641142626244E+00    1.3680536350921576E+01
N    1.5991354619406057E+00    2.7818865809278925E+00    1.5604007011333135E+01
Ga    1.5903101545280003E+00    4.6313968533938068E+00    1.6617971958673888E+01
N    3.1899009892737249E+00    3.7133636693708887E+00    1.7522900865077727E+01
N    9.7030001944096360E-04    5.5547020566783125E+00   -2.0778812472351385E-01
Ga    1.3468648846642493E-03    7.4064599009958076E+00    4.7368347929375459E-01
N    1.4518801021649211E-03    7.4067537723399104E+00    2.3910641309948839E+00
Ga    1.1887900579895341E-03    5.5550333247568613E+00    3.1196094586204772E+00
N    1.4368407455606219E-03    5.5553690426675448E+00    5.0407403881229387E+00
Ga    1.9245808934924215E-03    7.4072494100234509E+00    5.7572915964004325E+00
N    2.4956670728474096E-03    7.4086830079627575E+00    7.6805357411057029E+00
Ga    2.2057121637445039E-03    5.5570154585477196E+00    8.3940122871312433E+00
N    2.7360895671955394E-03    5.5591437243975586E+00    1.0317899540315791E+01
Ga    3.6869468585083022E-03    7.4118642726686570E+00    1.1028603785450928E+01
N    4.2182142156486826E-03    7.4142494291328394E+00    1.2953544289898749E+01
Ga    4.8406698815079141E-03    5.5627710000523862E+00    1.3668245946424666E+01
N   -1.9735344801445872E-03    5.5508228003773885E+00    1.5584612305319157E+01
Ga   -1.0866779182063633E-02    7.3872786796507821E+00    1.6624110550386781E+01
N    1.5904599394342507E+00    6.4741932301527321E+00    1.7528526055700734E+01
N   -1.6025387942512910E+00    8.3321273521569701E+00   -2.0772285454485839E-01
Ga   -1.6021473391166461E+00    1.0183896845515791E+01    4.7362969692261109E-01
N   -1.6019848784104280E+00    1.0184183847646695E+01    2.3909879728652941E+00
Ga   -1.6023152541058283E+00    8.3325473991616050E+00    3.1196484364375454E+00
N   -1.6019926301975269E+00    8.3329152335842380E+00    5.0408142245105223E+00
Ga   -1.6014703235146106E+00    1.0184710239139473E+01    5.7575871240355436E+00
N   -1.6007975490162354E+00    1.0186144808094481E+01    7.6808155980042798E+00
Ga   -1.6012885727089596E+00    8.3346401260452332E+00    8.3940453080146042E+00
N   -1.6009741217162867E+00    8.3366760939104836E+00    1.0317860775752289E+01
Ga   -1.6004265537155882E+00    1.0188645953145516E+01    1.1030888919104786E+01
N   -1.5997843899881796E+00    1.0191142969102767E+01    1.2956134422458589E+01
Ga   -1.5987207401722525E+00    8.3398358187412409E+00    1.3674965148420879E+01
N   -1.6147894152720803E+00    8.3317737423586316E+00    1.5596608302963471E+01
Ga   -1.6201866373051970E+00    1.0186659938946342E+01    1.6628846391189331E+01
N   -2.4814935644881478E-02    9.2183498345935888E+00    1.7510113665477036E+01
N    6.4159506544373759E+00   -1.8015374362822663E-04   -2.0770703925333536E-01
Ga    6.4163576285723449E+00    1.8515828170458619E+00    4.7372918303623257E-01
N    6.4165254602309192E+00    1.8518744011798995E+00    2.3910916429878690E+00
Ga    6.4161885425209073E+00    1.8143771948488747E-04    3.1195649677891653E+00
N    6.4165046742533702E+00    5.0552677860657327E-04    5.0407593332896532E+00
Ga    6.4168442826048073E+00    1.8522354453768364E+00    5.7576194199465229E+00
N    6.4174006755817716E+00    1.8536926923395614E+00    7.6808245531225356E+00
Ga    6.4172324192035664E+00    2.4425517712159802E-03    8.3947776260317326E+00
N    6.4177004902137424E+00    4.5048326749496017E-03    1.0318561191801141E+01
Ga    6.4177283466761121E+00    1.8565444079114519E+00    1.1031297916207695E+01
N    6.4184993818038638E+00    1.8595691637370482E+00    1.2956984502729968E+01
Ga    6.4176928168755643E+00    9.4284790782727425E-03    1.3678612807749188E+01
N    6.4133995143582530E+00   -1.0390579986135172E-02    1.5599098780215970E+01
Ga    6.3932934332919604E+00    1.8484491083822219E+00    1.6635907781373366E+01
N    8.0003937150736295E+00    9.1450275896386135E-01    1.7521482596145081E+01
N    4.8124485974960782E+00    2.7771820060861954E+00   -2.0777114939155039E-01
Ga    4.8127699679785154E+00    4.6289673930130641E+00    4.7354168025854632E-01
N    4.8128747574004356E+00    4.6292067020449315E+00    2.3909003059795975E+00
Ga    4.8126361864268867E+00    2.7775213710666717E+00    3.1194953492139654E+00
N    4.8129586877883579E+00    2.7776723774140581E+00    5.0406294722855334E+00
Ga    4.8131661344151890E+00    4.6294725832791430E+00    5.7572976274125800E+00
N    4.8136367719661237E+00    4.6307398799410233E+00    7.6805077297127999E+00
Ga    4.8132961610152618E+00    2.7790297724622888E+00    8.3939763187386767E+00
N    4.8136311420843265E+00    2.7806615694905958E+00    1.0317461070715582E+01
Ga    4.8137598993474819E+00    4.6332397306728783E+00    1.1027532103120084E+01
N    4.8129612247182809E+00    4.6353457501925748E+00    1.2950166771943806E+01
Ga    4.8136787565043537E+00    2.7868033416325817E+00    1.3675796473116041E+01
N    4.8085253524997791E+00    2.7865803212250402E+00    1.5594023065186727E+01
Ga    4.8026887085436654E+00    4.6349685543577142E+00    1.6615146288515373E+01
N    6.3964658298035948E+00    3.6937547261447397E+00    1.7516590273074119E+01
N    3.2088298094636292E+00    5.5546410330925395E+00   -2.0779138036485886E-01
Ga    3.2091173498675194E+00    7.4064292217756202E+00    4.7357456357910516E-01
N    3.2091604036979069E+00    7.4066891019625647E+00    2.3909138086809518E+00
Ga    3.2089768905521701E+00    5.5548944821648067E+00    3.1193107804147311E+00
N    3.2092199438720868E+00    5.5550916579604301E+00    5.0404370638181737E+00
Ga    3.2095439345324270E+00    7.4070339940959391E+00    5.7567125318552410E+00
N    3.2099295836271260E+00    7.4084535814767074E+00    7.6797213531206054E+00
Ga    3.2095530018895690E+00    5.5569718211848755E+00    8.3930562834106617E+00
N    3.2098029059221989E+00    5.5594491726090505E+00    1.0316567133109858E+01
Ga    3.2113680373610038E+00    7.4111902624777262E+00    1.1030307308399344E+01
N    3.2124308088655331E+00    7.4143915566932694E+00    1.2956523333323364E+01
Ga    3.2105076518155875E+00    5.5606665245533389E+00    1.3670047286813116E+01
N    3.2018351710750825E+00    5.5567353376270914E+00    1.5587469579092797E+01
Ga    3.2069705587219679E+00    7.4036514353071237E+00    1.6651931891780983E+01
N    4.8049176247431982E+00    6.4717413691300836E+00    1.7527134270533050E+01
N    1.6052254127068439E+00    8.3321422695201193E+00   -2.0773168325950309E-01
Ga    1.6056028027444440E+00    1.0183933040174038E+01    4.7360737450543139E-01
N    1.6057178990229422E+00    1.0184253399750544E+01    2.3909688595836931E+00
Ga    1.6054211254559791E+00    8.3325873908703034E+00    3.1194857953259114E+00
N    1.6056709137756233E+00    8.3330217203873662E+00    5.0406195252975259E+00
Ga    1.6060842751721629E+00    1.0184796184359692E+01    5.7575415364715772E+00
N    1.6065338860165517E+00    1.0186291487995911E+01    7.6807743930881216E+00
Ga    1.6066834197380870E+00    8.3346428407552011E+00    8.3935712099674760E+00
N    1.6076662111425368E+00    8.3368625944207064E+00    1.0317276061750462E+01
Ga    1.6070646748614170E+00    1.0188377381468801E+01    1.1030890451582957E+01
N    1.6067030691483537E+00    1.0189611891445544E+01    1.2956620758977449E+01
Ga    1.6069779056624085E+00    8.3372931988724410E+00    1.3675681515838193E+01
N    1.6129063031018787E+00    8.3400989861011041E+00    1.5600126545292982E+01
Ga    1.6030467917794757E+00    1.0180358507716781E+01    1.6605810390328660E+01
N    3.1911544047945517E+00    9.2579455619153226E+00    1.7529868033795619E+01
N    9.6237008007163247E+00   -1.7045019064955934E-04   -2.0780925804016920E-01
Ga    9.6240660905090447E+00    1.8515953249168322E+00    4.7361612312968349E-01
N    9.6241404216445776E+00    1.8518874709300690E+00    2.3910008886685490E+00
Ga    9.6239093914251104E+00    2.1487730644362976E-04    3.1195214822573263E+00
N    9.6241215462420122E+00    5.6451976842752613E-04    5.0407200711770210E+00
Ga    9.6245535748776163E+00    1.8523036013839513E+00    5.7577068084014078E+00
N    9.6249468840495922E+00    1.8538966418476945E+00    7.6810220313639563E+00
Ga    9.6248188757151709E+00    2.2585347441223484E-03    8.3941008404379414E+00
N    9.6253687860770416E+00    4.3609026815104313E-03    1.0317948927297207E+01
Ga    9.6265221417716980E+00    1.8572677856850672E+00    1.1028736638090162E+01
N    9.6273652097790468E+00    1.8590622079900909E+00    1.2953607187694935E+01
Ga    9.6276626572606787E+00    7.3576397954899560E-03    1.3667717757721665E+01
N    9.6205113991009181E+00   -5.0384175239838484E-03    1.5584244348252925E+01
Ga    9.6129915737896745E+00    1.8304969641195044E+00    1.6623722453643232E+01
N    1.1214199918897458E+01    9.1704996173171327E-01    1.7528602252219077E+01
N    8.0201908548541141E+00    2.7772493644791036E+00   -2.0774301200497550E-01
Ga    8.0205893368768635E+00    4.6289750664452693E+00    4.7373256003360475E-01
N    8.0207407320594637E+00    4.6292351353533681E+00    2.3911113213438813E+00
Ga    8.0204445873148202E+00    2.7775946645691727E+00    3.1198353731784669E+00
N    8.0206891909404643E+00    2.7778718656079273E+00    5.0410019019514776E+00
Ga    8.0211365976093010E+00    4.6297426660672771E+00    5.7575112003087474E+00
N    8.0216604398769995E+00    4.6312213062809109E+00    7.6807071382234069E+00
Ga    8.0210818354161475E+00    2.7799387582427615E+00    8.3944951403068711E+00
N    8.0216106321968788E+00    2.7819947465662049E+00    1.0318255121633154E+01
Ga    8.0219573679679321E+00    4.6340538733048415E+00    1.1031052598885696E+01
N    8.0226509175157119E+00    4.6357227740979514E+00    1.2956050509842617E+01
Ga    8.0245009742465392E+00    2.7846286283602497E+00    1.3675427595734977E+01
N    8.0093747528972337E+00    2.7764929718621714E+00    1.5597280653037959E+01
Ga    8.0035824030177078E+00    4.6306530835580473E+00    1.6626765951006849E+01
N    9.6002701819408180E+00    3.6615426623628227E+00    1.7510092124482583E+01
N    6.4166979245776385E+00    5.5546093358179807E+00   -2.0777119172476324E-01
Ga    6.4170318681406178E+00    7.4063876389598438E+00    4.7358032967701724E-01
N    6.4171480565904924E+00    7.4066471976130233E+00    2.3909293870536596E+00
Ga    6.4168441032363512E+00    5.5549186091562390E+00    3.1195384872361953E+00
N    6.4171015341690048E+00    5.5551224860121939E+00    5.0406663839959913E+00
Ga    6.4174408363017470E+00    7.4071030528665274E+00    5.7567973371496484E+00
N    6.4179664964079155E+00    7.4084980876776108E+00    7.6797989701286307E+00
Ga    6.4177427456161702E+00    5.5571333253767046E+00    8.3935555342584873E+00
N    6.4183089621866518E+00    5.5591212682216087E+00    1.0317105103922476E+01
Ga    6.4182287336218620E+00    7.4109207179247347E+00    1.1030080362536589E+01
N    6.4188019606512050E+00    7.4130437862724134E+00    1.2954998866649429E+01
Ga    6.4158451211355807E+00    5.5608880978677862E+00    1.3670745356712025E+01
N    6.4030928634128523E+00    5.5462303342490413E+00    1.5588252434032070E+01
Ga    6.4165340814809113E+00    7.4097688554860257E+00    1.6656983808239087E+01
N    7.9983438053997222E+00    6.4603103630958199E+00    1.7517615752602509E+01
N    4.8130764717705183E+00    8.3320593169398709E+00   -2.0773748862087879E-01
Ga    4.8133800482129798E+00    1.0183925979987059E+01    4.7341559191346855E-01
N    4.8134080135899326E+00    1.0184217311366794E+01    2.3907851932568005E+00
Ga    4.8132256836392671E+00    8.3324561727165349E+00    3.1191828358922979E+00
N    4.8134447434747916E+00    8.3327419985646554E+00    5.0402850927451324E+00
Ga    4.8137436204181494E+00    1.0184537054703826E+01    5.7570550020397917E+00
N    4.8141251494660615E+00    1.0185917719056960E+01    7.6802412365272819E+00
Ga    4.8140608239885037E+00    8.3340238719825948E+00    8.3927818486192596E+00
N    4.8147693351340450E+00    8.3356553230538371E+00    1.0316253983259926E+01
Ga    4.8153081880517732E+00    1.0186946944502962E+01    1.1028308562477783E+01
N    4.8154790684875826E+00    1.0187689471566323E+01    1.2952684089021714E+01
Ga    4.8175426717073249E+00    8.3382327181714135E+00    1.3679309596986487E+01
N    4.8080111502506089E+00    8.3363689446872566E+00    1.5602768019383072E+01
Ga    4.7986682254257849E+00    1.0184804283208173E+01    1.6616852532848000E+01
N    6.3978660537435337E+00    9.2663669838547058E+00    1.7521531861187910E+01
H    3.1484565339800021E-04   -1.3951711842162545E-04   -1.2351088326250408E+00
H   -1.6033269817770632E+00    2.7773351271896476E+00   -1.2349827057753437E+00
H   -3.2068363254619103E+00    5.5547035934410749E+00   -1.2349422982828044E+00
H   -4.8102963571309933E+00    8.3319664375605242E+00   -1.2350023325107704E+00
H    3.2082320156217348E+00   -2.5204072452819697E-04   -1.2350331672578341E+00
H    1.6045192493839227E+00    2.7771656266196345E+00   -1.2349907411968448E+00
H    8.1324823528060709E-04    5.5547129116281546E+00   -1.2350424002374496E+00
H   -1.6026629585864489E+00    8.3321608475933537E+00   -1.2349772666420264E+00
H    6.4158365024528994E+00   -1.5017353466712861E-04   -1.2349611356566832E+00
H    4.8124278354083581E+00    2.7771429315556402E+00   -1.2350264537622377E+00
H    3.2087850085694374E+00    5.5546974927684634E+00   -1.2350422741982336E+00
H    1.6051646013791638E+00    8.3321557935915962E+00   -1.2349828936761191E+00
H    9.6235375461625896E+00   -1.2291825002083267E-04   -1.2350599466250551E+00
H    8.0200742792099877E+00    2.7772749074883021E+00   -1.2350015988915095E+00
H    6.4166806950351125E+00    5.5546055969585399E+00   -1.2350249808694904E+00
H    4.8129957716576861E+00    8.3319550856284099E+00   -1.2349810848319787E+00
     &END COORD
     &KIND H
       BASIS_SET DZVP-MOLOPT-SR-GTH-q1
       POTENTIAL GTH-PBE-q1
       &POTENTIAL
 1
  0.2000000000000000E+00 2 -0.4178900440000000E+01  0.7244633100000000E+00
 0
         # Potential name:  GTH-PBE-Q1  for symbol:  H
         # Potential read from the potential filename: GTH_POTENTIALS
       &END POTENTIAL
     &END KIND
     &KIND N
       BASIS_SET DZVP-MOLOPT-SR-GTH
       POTENTIAL GTH-PBE-q5
       &POTENTIAL
 2 3
  0.2837905100000000E+00 2 -0.1241522559000000E+02  0.1868095920000000E+01
 2
  0.2554050000000000E+00 1  0.1363026257000000E+02
  0.2454945300000000E+00 0
         # Potential name:  GTH-PBE-Q5  for symbol:  N
         # Potential read from the potential filename: GTH_POTENTIALS
       &END POTENTIAL
     &END KIND
     &KIND Ga
       BASIS_SET DZVP-MOLOPT-SR-GTH
       POTENTIAL GTH-PBE-q13
       &POTENTIAL
 2 1 10
  0.4900000000000000E+00 0
 3
  0.4167772300000000E+00 3  0.1047568975000000E+02 -0.4921768140000000E+01  0.8707055900000000E+00
  0.7770178090000000E+01 -0.2248152160000000E+01
  0.1784415450000000E+01
  0.5696265200000000E+00 2  0.1777985340000000E+01  0.1958597600000000E+00
 -0.2317443900000000E+00
  0.2381265000000000E+00 1 -0.1624868022000000E+02
         # Potential name:  GTH-PBE-Q13  for symbol:  GA
         # Potential read from the potential filename: GTH_POTENTIALS
       &END POTENTIAL
     &END KIND
     &TOPOLOGY
       NUMBER_OF_ATOMS  256
       MULTIPLE_UNIT_CELL  1 1 1
     &END TOPOLOGY
   &END SUBSYS
 &END FORCE_EVAL
