 # Version information for this restart file 
 # current date 2019-06-09 03:45:23.831
 # current working dir /lustre03/project/6037349/rzk/GaN-carbene/444-addat/00-Surface/UKS_SYMM
 # Program compiled at                              Sun Apr  7 00:48:11 EDT 2019
 # Program compiled on                          beluga2.int.ets1.calculquebec.ca
 # Program compiled for                        Beluga-Linux-x86-64-intel-openmpi
 # Source code revision number                                         svn:18619
 &GLOBAL
   PRINT_LEVEL  MEDIUM
   PROJECT_NAME TEST
   RUN_TYPE  CELL_OPT
 &END GLOBAL
 &MOTION
   &CELL_OPT
     MAX_ITER  300
     STEP_START_VAL  7
     EXTERNAL_PRESSURE     1.0000000000000000E+00
     KEEP_ANGLES  T
     KEEP_SYMMETRY  T
     CONSTRAINT  Z
     PRESSURE_TOLERANCE     5.0000000000000000E+02
   &END CELL_OPT
 &END MOTION
 &FORCE_EVAL
   METHOD  QS
   STRESS_TENSOR  ANALYTICAL
   &DFT
     BASIS_SET_FILE_NAME BASIS_MOLOPT
     POTENTIAL_FILE_NAME GTH_POTENTIALS
     UKS  T
     SURFACE_DIPOLE_CORRECTION  T
     SURF_DIP_DIR  Z
     &SCF
       MAX_SCF  100
       EPS_SCF     5.0000000000000004E-06
       &OT  T
         PRECONDITIONER  FULL_ALL
       &END OT
       &OUTER_SCF  T
         OPTIMIZER  NONE
         EPS_SCF     5.0000000000000004E-06
         MAX_SCF  4
       &END OUTER_SCF
       &PRINT
         &RESTART  OFF
           BACKUP_COPIES  1
           &EACH
             JUST_ENERGY  0
             QS_SCF  0
             MD  20
           &END EACH
         &END RESTART
       &END PRINT
     &END SCF
     &QS
       EPS_DEFAULT     1.0000000000000000E-14
       METHOD  GPW
     &END QS
     &MGRID
       NGRIDS  5
       CUTOFF     1.2000000000000000E+03
     &END MGRID
     &XC
       DENSITY_CUTOFF     1.0000000000000000E-10
       GRADIENT_CUTOFF     1.0000000000000000E-10
       TAU_CUTOFF     1.0000000000000000E-10
       &XC_FUNCTIONAL  NO_SHORTCUT
         &PBE  T
         &END PBE
       &END XC_FUNCTIONAL
       &VDW_POTENTIAL
         POTENTIAL_TYPE  PAIR_POTENTIAL
         &PAIR_POTENTIAL
           R_CUTOFF     1.0000000000000004E+01
           TYPE  DFTD3
           PARAMETER_FILE_NAME dftd3.dat
           REFERENCE_FUNCTIONAL PBE
           EPS_CN     9.9999999999999995E-07
           CALCULATE_C9_TERM  T
           REFERENCE_C9_TERM  T
           LONG_RANGE_CORRECTION  F
           VERBOSE_OUTPUT  F
         &END PAIR_POTENTIAL
       &END VDW_POTENTIAL
     &END XC
   &END DFT
   &SUBSYS
     &CELL
       A     1.2915889329632261E+01    0.0000000000000000E+00    0.0000000000000000E+00
       B    -6.4609316130822281E+00    1.1190661818086378E+01    0.0000000000000000E+00
       C     0.0000000000000000E+00    0.0000000000000000E+00    3.2000000000000000E+01
       MULTIPLE_UNIT_CELL  1 1 1
       &CELL_REF
         A     1.2982353780853531E+01    0.0000000000000000E+00    0.0000000000000000E+00
         B    -6.4911768904267628E+00    1.1243048175136114E+01    0.0000000000000000E+00
         C     0.0000000000000000E+00    0.0000000000000000E+00    3.2000000000000000E+01
         MULTIPLE_UNIT_CELL  1 1 1
       &END CELL_REF
     &END CELL
     &COORD
N    4.0908983724147553E-05   -7.8253286082425206E-06   -2.0645034832869811E-02
Ga   -4.2392894771920147E-04    1.8651445830803826E+00    6.3277925983951899E-01
N   -3.9396676211324744E-04    1.8653607387188285E+00    2.5553662154063730E+00
Ga    2.5746517516356704E-05    8.8737249492086754E-05    3.2419748448388961E+00
N   -6.6166007575195465E-05   -2.2230413689512834E-04    5.1628474217157558E+00
Ga   -4.5295263567806830E-04    1.8650930889524526E+00    5.8339189306998112E+00
N   -4.3463945323664804E-04    1.8654156844193290E+00    7.7552233122687744E+00
Ga    2.1550118315078677E-05    1.0283401238716452E-04    8.4154361411229459E+00
N    8.8865110997310963E-06    1.1368145577197739E-04    1.0326257281145910E+01
Ga   -6.2433879988794364E-04    1.8640919396277629E+00    1.0952081076454814E+01
N    1.0101121589392913E-03    1.8663160983469818E+00    1.2840485596117960E+01
Ga    2.1390899593662993E-03   -2.5835545642748543E-03    1.3490065871641116E+01
N   -8.7538630082961057E-03   -3.9347436622894265E-03    1.5390529829814154E+01
Ga   -2.4965200778451061E-03    1.8740283632492030E+00    1.6346898200253555E+01
N    1.6019497770137594E+00    9.2135122878261855E-01    1.7249156299127897E+01
N   -1.6151889926100513E+00    2.7976376967165657E+00   -2.0605455835782691E-02
Ga   -1.6156519787838255E+00    4.6628336277947842E+00    6.3274222434652649E-01
N   -1.6156218958887072E+00    4.6630315426468707E+00    2.5554437174786795E+00
Ga   -1.6151977335055556E+00    2.7976578533115055E+00    3.2419842956879470E+00
N   -1.6153448898595164E+00    2.7974662544145459E+00    5.1628869505778567E+00
Ga   -1.6156907813747030E+00    4.6627449733179738E+00    5.8339350442457754E+00
N   -1.6156859308095748E+00    4.6629928321132086E+00    7.7555417312473969E+00
Ga   -1.6147456202473915E+00    2.7980507885721551E+00    8.4158417729332360E+00
N   -1.6145065143606976E+00    2.7982175069388369E+00    1.0327002210088112E+01
Ga   -1.6153723030659153E+00    4.6632405620682604E+00    1.0953531629037082E+01
N   -1.6141776270139403E+00    4.6627738021088705E+00    1.2840854721228734E+01
Ga   -1.6154475646857875E+00    2.7973466073781683E+00    1.3486686305986661E+01
N   -1.6173566488147613E+00    2.8143260988860126E+00    1.5396559111418865E+01
Ga   -1.6116684998001745E+00    4.6772174982168213E+00    1.6321344799568259E+01
N   -2.6699994375289565E-02    3.7348482609794114E+00    1.7263459432925281E+01
N   -3.2304361291519621E+00    5.5953176773378299E+00   -2.0619301103229487E-02
Ga   -3.2308940031317981E+00    7.4605043560275952E+00    6.3277591304878422E-01
N   -3.2308822198997889E+00    7.4606709294074403E+00    2.5554495819152403E+00
Ga   -3.2304518168619483E+00    5.5953897175320106E+00    3.2419405173902902E+00
N   -3.2306171157318189E+00    5.5951895618255216E+00    5.1628931915776972E+00
Ga   -3.2308075968790404E+00    7.4604366162527880E+00    5.8340457171184008E+00
N   -3.2308796993973217E+00    7.4606836309381519E+00    7.7555019122535089E+00
Ga   -3.2300206592595906E+00    5.5955310924987431E+00    8.4157730028868230E+00
N   -3.2302748642892540E+00    5.5955698244260521E+00    1.0327345720490063E+01
Ga   -3.2304609976611554E+00    7.4611018952139352E+00    1.0950565404132952E+01
N   -3.2277632554207574E+00    7.4640895224483126E+00    1.2840751643321463E+01
Ga   -3.2274133588927127E+00    5.6001967952094063E+00    1.3495539931582735E+01
N   -3.2277662612454838E+00    5.5898754928572432E+00    1.5400576174514107E+01
Ga   -3.2417467979224122E+00    7.4868360475435436E+00    1.6343633528892735E+01
N   -1.6364211824327954E+00    6.5303061685928636E+00    1.7253388008976863E+01
N   -4.8456745835781021E+00    8.3929745356452621E+00   -2.0624318950628301E-02
Ga   -4.8461197377695919E+00    1.0258165972798626E+01    6.3274984555403768E-01
N   -4.8461365386197466E+00    1.0258306968483396E+01    2.5554465037878940E+00
Ga   -4.8456233024857633E+00    8.3930624338513216E+00    3.2418707686221988E+00
N   -4.8457329887493215E+00    8.3927200842744405E+00    5.1628954390514643E+00
Ga   -4.8462177539756777E+00    1.0258219911432601E+01    5.8339559341091096E+00
N   -4.8461154744010528E+00    1.0258212526518919E+01    7.7552658157699010E+00
Ga   -4.8455761065422456E+00    8.3932798974276732E+00    8.4153082611666790E+00
N   -4.8456246720866130E+00    8.3925710004890401E+00    1.0326890800495693E+01
Ga   -4.8468116329663316E+00    1.0258341994349395E+01    1.0950143253310785E+01
N   -4.8450716623847896E+00    1.0256341705124909E+01    1.2835108172164674E+01
Ga   -4.8461168794656828E+00    8.3945874571538202E+00    1.3488271104774132E+01
N   -4.8516691395163738E+00    8.4006908741713353E+00    1.5389430870625164E+01
Ga   -4.8504159544661833E+00    1.0254969104594654E+01    1.6345961585701154E+01
N   -3.2343132332293454E+00    9.3284364765990624E+00    1.7263096596053479E+01
N    3.2290190967117129E+00   -1.9906964192768709E-05   -2.0656486378413483E-02
Ga    3.2285716679251100E+00    1.8651420023043086E+00    6.3274429288738265E-01
N    3.2286662660557113E+00    1.8653649587632621E+00    2.5554514760343205E+00
Ga    3.2289762027746978E+00   -9.6372329616908581E-06    3.2420001827373710E+00
N    3.2289444668184593E+00   -2.0251210492997339E-04    5.1628884394260153E+00
Ga    3.2284462100222568E+00    1.8650790982353547E+00    5.8338529684449245E+00
N    3.2286773014196739E+00    1.8654538794835014E+00    7.7556235243550109E+00
Ga    3.2289399412565740E+00   -1.4860966278940833E-04    8.4154936280510437E+00
N    3.2290401830703250E+00   -3.4323140235252309E-04    1.0326765257219565E+01
Ga    3.2292637105440516E+00    1.8650392437878391E+00    1.0944926693577482E+01
N    3.2316362537290204E+00    1.8672533005584639E+00    1.2834664356143106E+01
Ga    3.2260550883420156E+00    2.1368590872392719E-03    1.3484050183535468E+01
N    3.2148033936752833E+00   -5.3184397198290396E-03    1.5386894449038962E+01
Ga    3.2266527713897224E+00    1.8841693879525732E+00    1.6347283423160299E+01
N    4.8279686623370548E+00    9.2763847990864967E-01    1.7242997272078259E+01
N    1.6137711606050342E+00    2.7976450829461164E+00   -2.0614643672580583E-02
Ga    1.6133266392728485E+00    4.6628376972889827E+00    6.3276361489608102E-01
N    1.6134048559261476E+00    4.6630435885402557E+00    2.5554349632963085E+00
Ga    1.6136908990457401E+00    2.7976613551693545E+00    3.2419955221687506E+00
N    1.6137322198492772E+00    2.7975139539083753E+00    5.1629122368002660E+00
Ga    1.6132232471002252E+00    4.6626731520945546E+00    5.8338287752011775E+00
N    1.6134779651770748E+00    4.6629334396214004E+00    7.7556087579237172E+00
Ga    1.6134560290540272E+00    2.7974207837308471E+00    8.4150894814689732E+00
N    1.6136745610231713E+00    2.7970295384327244E+00    1.0326378566140352E+01
Ga    1.6128278604481323E+00    4.6620717611523430E+00    1.0945203652963201E+01
N    1.6155357631566782E+00    4.6611282580382563E+00    1.2835345688103232E+01
Ga    1.6167415377799201E+00    2.7964151491779812E+00    1.3484920895840597E+01
N    1.6057452289561063E+00    2.8045145454236500E+00    1.5390290817527351E+01
Ga    1.6002970450386582E+00    4.6624846996437395E+00    1.6332660403486511E+01
N    3.2116370903519162E+00    3.7339637286131548E+00    1.7253429668283733E+01
N   -1.4554996022339093E-03    5.5953143960757883E+00   -2.0613054606623313E-02
Ga   -1.9015777031458311E-03    7.4604912587535885E+00    6.3271215848807194E-01
N   -1.8690498440441065E-03    7.4606925779629529E+00    2.5554287567956004E+00
Ga   -1.4836909599328103E-03    5.5953607714531319E+00    3.2420223981859992E+00
N   -1.5006184289609024E-03    5.5951863800800741E+00    5.1629218288804681E+00
Ga   -1.9904533204570534E-03    7.4604725592949590E+00    5.8339759766615833E+00
N   -1.7687264914780715E-03    7.4607021193822503E+00    7.7556338420854667E+00
Ga   -1.7517949375521879E-03    5.5954961677358162E+00    8.4150570031920839E+00
N   -1.3171894828523524E-03    5.5952812523615085E+00    1.0327315148779494E+01
Ga   -7.5647128174757535E-04    7.4609273350436487E+00    1.0949092586646664E+01
N    2.7752527861583235E-03    7.4605192031836829E+00    1.2836882516178724E+01
Ga    2.0584016096173224E-03    5.5967724944575883E+00    1.3482358219534666E+01
N   -7.6003317625945336E-03    5.5923369855764458E+00    1.5388200116711129E+01
Ga   -5.1904829860656854E-03    7.4404547989441037E+00    1.6323783327581143E+01
N    1.6054354108417865E+00    6.5187745358520131E+00    1.7253590899158279E+01
N   -1.6166909731653618E+00    8.3929746958241029E+00   -2.0597213146304982E-02
Ga   -1.6171497046901762E+00    1.0258158927560943E+01    6.3276524455266747E-01
N   -1.6170839577037961E+00    1.0258363254044555E+01    2.5554239240837782E+00
Ga   -1.6167538612921835E+00    8.3930407696482234E+00    3.2420313361789685E+00
N   -1.6168027501697226E+00    8.3928346982900841E+00    5.1629038735599000E+00
Ga   -1.6171695570901761E+00    1.0258049498258167E+01    5.8340554984119706E+00
N   -1.6170924307287950E+00    1.0258359641061663E+01    7.7554417142442746E+00
Ga   -1.6165095751952483E+00    8.3931715360214110E+00    8.4161286388266046E+00
N   -1.6162579851051870E+00    8.3930684405050027E+00    1.0327684214140472E+01
Ga   -1.6170638565957454E+00    1.0258579385813798E+01    1.0953213585815890E+01
N   -1.6161218889851681E+00    1.0260520691438186E+01    1.2841680144350535E+01
Ga   -1.6106945182381998E+00    8.3953830287716844E+00    1.3489459999844735E+01
N   -1.6175212571095066E+00    8.4023144248487949E+00    1.5394779218103613E+01
Ga   -1.6404495745005003E+00    1.0277555099696793E+01    1.6338410315123017E+01
N   -2.8845387403726365E-02    9.2769114166773150E+00    1.7253358531336485E+01
N    6.4579861421308111E+00   -1.8897719932961884E-05   -2.0614137497944222E-02
Ga    6.4575267384748871E+00    1.8651359512214840E+00    6.3263223963296533E-01
N    6.4575815128808873E+00    1.8653594348000841E+00    2.5554939340030391E+00
Ga    6.4578836540235693E+00   -4.4617886531135276E-05    3.2419671769614431E+00
N    6.4578929985691200E+00   -1.4561003148268396E-04    5.1628792211868619E+00
Ga    6.4574603245890625E+00    1.8649952722099099E+00    5.8337731210603447E+00
N    6.4575401302341211E+00    1.8653576829279901E+00    7.7556353650289109E+00
Ga    6.4579814793071053E+00   -1.6595513828423841E-04    8.4160861049310860E+00
N    6.4580166077225796E+00   -1.4673932492673141E-04    1.0327730455024632E+01
Ga    6.4576043775736593E+00    1.8645696817863662E+00    1.0949249251676100E+01
N    6.4618487332860317E+00    1.8674555711442364E+00    1.2838339092156511E+01
Ga    6.4582010025401342E+00    4.2721175490232468E-03    1.3496130564926231E+01
N    6.4597746267297307E+00   -1.9091113075776892E-02    1.5405495320211388E+01
Ga    6.4463267069544319E+00    1.8934621382734687E+00    1.6338833154008263E+01
N    8.0542445195440386E+00    9.3784329239282960E-01    1.7255522465820839E+01
N    4.8427581515621849E+00    2.7976501909000784E+00   -2.0600860950437692E-02
Ga    4.8422682326063775E+00    4.6628258204569066E+00    6.3268359605868629E-01
N    4.8423256387254572E+00    4.6630340748343961E+00    2.5554860786581313E+00
Ga    4.8426875287168825E+00    2.7976698481124598E+00    3.2419592838965809E+00
N    4.8426938793571530E+00    2.7975524207070830E+00    5.1629268658777034E+00
Ga    4.8421944067152847E+00    4.6627459210045732E+00    5.8337907741022565E+00
N    4.8422537095792340E+00    4.6630904026263336E+00    7.7554011419949935E+00
Ga    4.8428294863500350E+00    2.7977611979121262E+00    8.4144431775182600E+00
N    4.8432570536668296E+00    2.7985427256121391E+00    1.0326714109616239E+01
Ga    4.8422883453767076E+00    4.6628804085124287E+00    1.0946270799641859E+01
N    4.8426805794363155E+00    4.6632748516524147E+00    1.2836541636332628E+01
Ga    4.8452054485740401E+00    2.8000549220124449E+00    1.3483228390480546E+01
N    4.8410830682331190E+00    2.8066382879734157E+00    1.5387446059990189E+01
Ga    4.8276185681697070E+00    4.6853570961969933E+00    1.6345256637674673E+01
N    6.4399233032943588E+00    3.7414383082406175E+00    1.7241963830260232E+01
N    3.2275284879237462E+00    5.5953090412028850E+00   -2.0613277507701942E-02
Ga    3.2270412131395911E+00    7.4604781563173184E+00    6.3268685275846737E-01
N    3.2271088275108459E+00    7.4606663848947248E+00    2.5554495729171656E+00
Ga    3.2274060846535493E+00    5.5953507222209380E+00    3.2418725066797416E+00
N    3.2274855163437746E+00    5.5951784538063150E+00    5.1629241929440797E+00
Ga    3.2269694146399819E+00    7.4604743503346684E+00    5.8339108357764031E+00
N    3.2271329975255134E+00    7.4606302717325290E+00    7.7554171148138131E+00
Ga    3.2274638413566477E+00    5.5957057494331748E+00    8.4151500986584704E+00
N    3.2278136242486810E+00    5.5956141445432541E+00    1.0327177365833927E+01
Ga    3.2263539205666785E+00    7.4613606028068569E+00    1.0951750871190351E+01
N    3.2274900856433284E+00    7.4600893784543914E+00    1.2843077576394387E+01
Ga    3.2277370616291505E+00    5.5943185646889848E+00    1.3483593466205472E+01
N    3.2191078145376379E+00    5.5963772128087541E+00    1.5390087057744562E+01
Ga    3.2230892726533966E+00    7.4767632898734337E+00    1.6358151051413060E+01
N    4.8281286221731303E+00    6.5373146247615992E+00    1.7262101135621165E+01
N    1.6122916720507907E+00    8.3929673697815321E+00   -2.0607386736422810E-02
Ga    1.6118185703960446E+00    1.0258151880874998E+01    6.3269392356268206E-01
N    1.6118814599296536E+00    1.0258335280170026E+01    2.5554825836042863E+00
Ga    1.6122035428190566E+00    8.3929926316876973E+00    3.2419943833969485E+00
N    1.6122743708717964E+00    8.3928161313490737E+00    5.1628814529907681E+00
Ga    1.6117430268206696E+00    1.0258063545482729E+01    5.8340613489098150E+00
N    1.6118879453912549E+00    1.0258378568179122E+01    7.7555756511818164E+00
Ga    1.6123248778620529E+00    8.3932274482989833E+00    8.4158507353701513E+00
N    1.6130337243819797E+00    8.3931742452648663E+00    1.0327473160518906E+01
Ga    1.6116261227337412E+00    1.0258067413523566E+01    1.0953826500347938E+01
N    1.6134443026285565E+00    1.0259294604880102E+01    1.2842313421595136E+01
Ga    1.6114953895674045E+00    8.3940672621589183E+00    1.3493708791734887E+01
N    1.6150167763804022E+00    8.4121609857714539E+00    1.5401845938500198E+01
Ga    1.6255627217763498E+00    1.0280365321464958E+01    1.6312093654412742E+01
N    3.1937130783030674E+00    9.3297035254320733E+00    1.7269021504765934E+01
N    9.6869752527169108E+00   -1.2661405303569267E-05   -2.0632920601446770E-02
Ga    9.6865195708683043E+00    1.8651315449686678E+00    6.3277589294043335E-01
N    9.6864777644844686E+00    1.8653208654902667E+00    2.5554142961686259E+00
Ga    9.6869404236872310E+00    4.1762019553596749E-05    3.2419568844641398E+00
N    9.6868322339632318E+00   -1.3740777256305217E-04    5.1629217809398167E+00
Ga    9.6865994891596845E+00    1.8650916778709248E+00    5.8340391393778050E+00
N    9.6866817452509117E+00    1.8653425074805703E+00    7.7554839193600458E+00
Ga    9.6870537223878355E+00   -2.8962727171653348E-04    8.4156346463735936E+00
N    9.6872532434226901E+00   -5.9863597439674595E-05    1.0327321487924678E+01
Ga    9.6877926144364324E+00    1.8653878618869213E+00    1.0943492382052391E+01
N    9.6909312391968054E+00    1.8659421421706057E+00    1.2833865655520061E+01
Ga    9.6936141854261244E+00    2.1783654251302177E-03    1.3482190413920497E+01
N    9.6833685088418697E+00    3.0255863819024214E-03    1.5381432023504969E+01
Ga    9.6833939789373620E+00    1.8633941185985821E+00    1.6329715541541386E+01
N    1.1294062716781099E+01    9.3663124671465692E-01    1.7252086703394934E+01
N    8.0717488229133956E+00    2.7976471511904224E+00   -2.0606884688283041E-02
Ga    8.0712756677827322E+00    4.6628206147062734E+00    6.3270823819316313E-01
N    8.0712425348407173E+00    4.6629978060898756E+00    2.5554592485785679E+00
Ga    8.0717254854840519E+00    2.7976934558849793E+00    3.2419516988032426E+00
N    8.0716584226207750E+00    2.7975039615183057E+00    5.1629662976727229E+00
Ga    8.0713306450481106E+00    4.6627646412987014E+00    5.8338304295010630E+00
N    8.0713141139453626E+00    4.6629962489456789E+00    7.7554382029722104E+00
Ga    8.0717133434767074E+00    2.7975329870015533E+00    8.4146279768130547E+00
N    8.0721930179008989E+00    2.7973633955351156E+00    1.0326062143246453E+01
Ga    8.0724504454886166E+00    4.6625881268963765E+00    1.0948051429000241E+01
N    8.0769044018009630E+00    4.6612791082117599E+00    1.2837980482602584E+01
Ga    8.0783117044876196E+00    2.7967632787698360E+00    1.3487681103402295E+01
N    8.0726895544885604E+00    2.7990921429736426E+00    1.5388973400641708E+01
Ga    8.0556751487091436E+00    4.6786822985945760E+00    1.6337005133154964E+01
N    9.6541845506076953E+00    3.7080237834248027E+00    1.7254201542771771E+01
N    6.4565038928718659E+00    5.5953013845998489E+00   -2.0606956758596223E-02
Ga    6.4560486335865361E+00    7.4604831583179685E+00    6.3267395809269478E-01
N    6.4560328565057308E+00    7.4606602313649528E+00    2.5555471752081353E+00
Ga    6.4564739933657878E+00    5.5952936719146233E+00    3.2418923648144049E+00
N    6.4564035592002549E+00    5.5951739144941337E+00    5.1629609894075097E+00
Ga    6.4559337041500795E+00    7.4604484933001514E+00    5.8339448149317237E+00
N    6.4559878226713296E+00    7.4606042928940317E+00    7.7556355687139753E+00
Ga    6.4564622010838981E+00    5.5953088114318348E+00    8.4146053181911533E+00
N    6.4565646547267823E+00    5.5941813878888365E+00    1.0326426582180847E+01
Ga    6.4564264301701204E+00    7.4597121648270699E+00    1.0945892281092789E+01
N    6.4587625717568589E+00    7.4532429567240923E+00    1.2836346196787849E+01
Ga    6.4581901626777380E+00    5.5913107387853360E+00    1.3481392246869813E+01
N    6.4473687349135362E+00    5.5887206342074860E+00    1.5388187807117470E+01
Ga    6.4471537442299276E+00    7.4807151013672728E+00    1.6351480303290135E+01
N    8.0449155859500294E+00    6.5217513310376880E+00    1.7247786583053905E+01
N    4.8412700659043697E+00    8.3929723534767326E+00   -2.0608162581069726E-02
Ga    4.8408000781182761E+00    1.0258167358316403E+01    6.3269392950450742E-01
N    4.8408117733516720E+00    1.0258272724070812E+01    2.5554812750034972E+00
Ga    4.8411842947655481E+00    8.3930315688776673E+00    3.2418884825682839E+00
N    4.8411814624019538E+00    8.3927577839470455E+00    5.1628743360692111E+00
Ga    4.8408208734296334E+00    1.0258092191908084E+01    5.8338702321759754E+00
N    4.8407512910066002E+00    1.0258144919760888E+01    7.7554676081814105E+00
Ga    4.8410311715342225E+00    8.3932005687011788E+00    8.4153964521712243E+00
N    4.8410123599705237E+00    8.3920685347741166E+00    1.0327670210444923E+01
Ga    4.8420528678103381E+00    1.0258063284485482E+01    1.0951773792529856E+01
N    4.8434965462568567E+00    1.0256311132799503E+01    1.2836089879311938E+01
Ga    4.8455881345113276E+00    8.3920466628258321E+00    1.3488277751597858E+01
N    4.8359717973640590E+00    8.4035115728422944E+00    1.5393483583381748E+01
Ga    4.8217595765105123E+00    1.0263066247267709E+01    1.6333365534241210E+01
N    6.4351233532359080E+00    9.3346352543482283E+00    1.7256375394445371E+01
H   -7.9591860246067770E-05   -1.2706031007660368E-04   -1.0469126166895617E+00
H   -1.6153113235710550E+00    2.7975510516741982E+00   -1.0469062223395358E+00
H   -3.2305503858519291E+00    5.5952211802749288E+00   -1.0468961978671874E+00
H   -4.8457925364174921E+00    8.3928889970847784E+00   -1.0468814167439286E+00
H    3.2288979370460407E+00   -1.2927389768636007E-04   -1.0468654040161460E+00
H    1.6136726797136425E+00    2.7975363186205153E+00   -1.0468973544378242E+00
H   -1.5777014310664093E-03    5.5952082017300375E+00   -1.0469141041470185E+00
H   -1.6168168427008354E+00    8.3928883077974739E+00   -1.0468973101335741E+00
H    6.4578777534139196E+00   -1.2915863937227679E-04   -1.0468843124435474E+00
H    4.8426491169393566E+00    2.7975482430177654E+00   -1.0468971880152540E+00
H    3.2274117666136184E+00    5.5952088258145150E+00   -1.0468792139278473E+00
H    1.6121696687443900E+00    8.3928975842154578E+00   -1.0469054312688575E+00
H    9.6868559940663932E+00   -1.3444307768082102E-04   -1.0468668687557501E+00
H    8.0716268385991796E+00    2.7975378330878846E+00   -1.0469181759640924E+00
H    6.4563818769696528E+00    5.5952142751948326E+00   -1.0468748962608856E+00
H    4.8411674574151009E+00    8.3928800330855449E+00   -1.0468961686217662E+00
     &END COORD
     &KIND H
       BASIS_SET DZVP-MOLOPT-SR-GTH-q1
       POTENTIAL GTH-PBE-q1
       &POTENTIAL
 1
  0.2000000000000000E+00 2 -0.4178900440000000E+01  0.7244633100000000E+00
 0
         # Potential name:  GTH-PBE-Q1  for symbol:  H
         # Potential read from the potential filename: GTH_POTENTIALS
       &END POTENTIAL
     &END KIND
     &KIND N
       BASIS_SET DZVP-MOLOPT-SR-GTH
       POTENTIAL GTH-PBE-q5
       &POTENTIAL
 2 3
  0.2837905100000000E+00 2 -0.1241522559000000E+02  0.1868095920000000E+01
 2
  0.2554050000000000E+00 1  0.1363026257000000E+02
  0.2454945300000000E+00 0
         # Potential name:  GTH-PBE-Q5  for symbol:  N
         # Potential read from the potential filename: GTH_POTENTIALS
       &END POTENTIAL
     &END KIND
     &KIND Ga
       BASIS_SET DZVP-MOLOPT-SR-GTH
       POTENTIAL GTH-PBE-q13
       &POTENTIAL
 2 1 10
  0.4900000000000000E+00 0
 3
  0.4167772300000000E+00 3  0.1047568975000000E+02 -0.4921768140000000E+01  0.8707055900000000E+00
  0.7770178090000000E+01 -0.2248152160000000E+01
  0.1784415450000000E+01
  0.5696265200000000E+00 2  0.1777985340000000E+01  0.1958597600000000E+00
 -0.2317443900000000E+00
  0.2381265000000000E+00 1 -0.1624868022000000E+02
         # Potential name:  GTH-PBE-Q13  for symbol:  GA
         # Potential read from the potential filename: GTH_POTENTIALS
       &END POTENTIAL
     &END KIND
     &TOPOLOGY
       NUMBER_OF_ATOMS  256
       MULTIPLE_UNIT_CELL  1 1 1
     &END TOPOLOGY
   &END SUBSYS
 &END FORCE_EVAL
