 # Version information for this restart file 
 # current date 2019-06-09 04:38:24.107
 # current working dir /lustre03/project/6037349/rzk/GaN-carbene/444-addat/00-Surface/UKS_SYMM
 # Program compiled at                              Sun Apr  7 00:48:11 EDT 2019
 # Program compiled on                          beluga2.int.ets1.calculquebec.ca
 # Program compiled for                        Beluga-Linux-x86-64-intel-openmpi
 # Source code revision number                                         svn:18619
 &GLOBAL
   PRINT_LEVEL  MEDIUM
   PROJECT_NAME TEST
   RUN_TYPE  CELL_OPT
 &END GLOBAL
 &MOTION
   &CELL_OPT
     MAX_ITER  300
     STEP_START_VAL  14
     EXTERNAL_PRESSURE     1.0000000000000000E+00
     KEEP_ANGLES  T
     KEEP_SYMMETRY  T
     CONSTRAINT  Z
     PRESSURE_TOLERANCE     5.0000000000000000E+02
   &END CELL_OPT
 &END MOTION
 &FORCE_EVAL
   METHOD  QS
   STRESS_TENSOR  ANALYTICAL
   &DFT
     BASIS_SET_FILE_NAME BASIS_MOLOPT
     POTENTIAL_FILE_NAME GTH_POTENTIALS
     UKS  T
     SURFACE_DIPOLE_CORRECTION  T
     SURF_DIP_DIR  Z
     &SCF
       MAX_SCF  100
       EPS_SCF     5.0000000000000004E-06
       &OT  T
         PRECONDITIONER  FULL_ALL
       &END OT
       &OUTER_SCF  T
         OPTIMIZER  NONE
         EPS_SCF     5.0000000000000004E-06
         MAX_SCF  4
       &END OUTER_SCF
       &PRINT
         &RESTART  OFF
           BACKUP_COPIES  1
           &EACH
             JUST_ENERGY  0
             QS_SCF  0
             MD  20
           &END EACH
         &END RESTART
       &END PRINT
     &END SCF
     &QS
       EPS_DEFAULT     1.0000000000000000E-14
       METHOD  GPW
     &END QS
     &MGRID
       NGRIDS  5
       CUTOFF     1.2000000000000000E+03
     &END MGRID
     &XC
       DENSITY_CUTOFF     1.0000000000000000E-10
       GRADIENT_CUTOFF     1.0000000000000000E-10
       TAU_CUTOFF     1.0000000000000000E-10
       &XC_FUNCTIONAL  NO_SHORTCUT
         &PBE  T
         &END PBE
       &END XC_FUNCTIONAL
       &VDW_POTENTIAL
         POTENTIAL_TYPE  PAIR_POTENTIAL
         &PAIR_POTENTIAL
           R_CUTOFF     1.0000000000000004E+01
           TYPE  DFTD3
           PARAMETER_FILE_NAME dftd3.dat
           REFERENCE_FUNCTIONAL PBE
           EPS_CN     9.9999999999999995E-07
           CALCULATE_C9_TERM  T
           REFERENCE_C9_TERM  T
           LONG_RANGE_CORRECTION  F
           VERBOSE_OUTPUT  F
         &END PAIR_POTENTIAL
       &END VDW_POTENTIAL
     &END XC
   &END DFT
   &SUBSYS
     &CELL
       A     1.2872264302689695E+01    0.0000000000000000E+00    0.0000000000000000E+00
       B    -6.4331063933759633E+00    1.1142467123823364E+01    0.0000000000000000E+00
       C     0.0000000000000000E+00    0.0000000000000000E+00    3.2000000000000000E+01
       MULTIPLE_UNIT_CELL  1 1 1
       &CELL_REF
         A     1.2982353780853531E+01    0.0000000000000000E+00    0.0000000000000000E+00
         B    -6.4911768904267628E+00    1.1243048175136114E+01    0.0000000000000000E+00
         C     0.0000000000000000E+00    0.0000000000000000E+00    3.2000000000000000E+01
         MULTIPLE_UNIT_CELL  1 1 1
       &END CELL_REF
     &END CELL
     &COORD
N   -3.5324815994934307E-04   -8.3021519443745391E-04   -6.0432770871879038E-02
Ga    1.0714249352952883E-03    1.8577712701797684E+00    6.0408795281212546E-01
N    9.4225145477567021E-04    1.8578994607566992E+00    2.5213476305588123E+00
Ga   -2.8802792737899152E-04   -5.2381607097397754E-04    3.2230352615073175E+00
N   -4.6522588741610853E-04   -1.0436050926773571E-03    5.1324418841422670E+00
Ga    8.9605923336812826E-04    1.8575650301402766E+00    5.8003070154752994E+00
N    7.4485441569842239E-04    1.8578922041583397E+00    7.6947976905990449E+00
Ga   -5.4815803036986784E-04    7.9763703170998061E-05    8.3483723355591071E+00
N   -8.0317952185136551E-04    7.4354085154321474E-04    1.0251579453027180E+01
Ga    1.3519965676136757E-03    1.8590139379613830E+00    1.0950138605373423E+01
N    3.8501382136576226E-04    1.8606041631970951E+00    1.2870634544061614E+01
Ga   -1.6007415555678629E-03   -3.1801099901604432E-03    1.3559605309717607E+01
N   -7.0324627789052569E-03   -5.3080653418247159E-03    1.5468725539562506E+01
Ga    2.3011065395330669E-03    1.8523187054536572E+00    1.6473603135040992E+01
N    1.6079483391956695E+00    9.2462127685576267E-01    1.7380671457996893E+01
N   -1.6086281808803899E+00    2.7848114918255029E+00   -6.0373238616609808E-02
Ga   -1.6072238390003801E+00    4.6433859893532050E+00    6.0415466766382142E-01
N   -1.6073629531296216E+00    4.6434708646697720E+00    2.5213951151655216E+00
Ga   -1.6085831812850739E+00    2.7851925479460635E+00    3.2230544740379092E+00
N   -1.6087929717522578E+00    2.7849015357427751E+00    5.1324684932676474E+00
Ga   -1.6072429338310055E+00    4.6434713180419882E+00    5.8010972191667838E+00
N   -1.6072756075698567E+00    4.6442031392731158E+00    7.6960754653988879E+00
Ga   -1.6075980821453448E+00    2.7855966600653024E+00    8.3484263200286293E+00
N   -1.6067677394823223E+00    2.7864257627688316E+00    1.0252472109270624E+01
Ga   -1.6077283347918931E+00    4.6442497748936011E+00    1.0949688511572887E+01
N   -1.6080739120429219E+00    4.6464391720790008E+00    1.2870083990543156E+01
Ga   -1.6082684558143940E+00    2.7872254477981442E+00    1.3572729755621717E+01
N   -1.6005660075753023E+00    2.8050238515389889E+00    1.5491813564290570E+01
Ga   -1.5877655826275865E+00    4.6543471661487201E+00    1.6399159059876592E+01
N   -2.7177056018757549E-02    3.7455285723344507E+00    1.7394185012137893E+01
N   -3.2168922935510404E+00    5.5704157174307465E+00   -6.0403078883224562E-02
Ga   -3.2154867955179238E+00    7.4289993903377685E+00    6.0405262036522234E-01
N   -3.2155566567357465E+00    7.4290062784694912E+00    2.5213554742952748E+00
Ga   -3.2167730298066055E+00    5.5708025204594769E+00    3.2230786212134732E+00
N   -3.2167754143701095E+00    5.5706021562036065E+00    5.1324518230078455E+00
Ga   -3.2152042931503759E+00    7.4289851224969468E+00    5.8016343280205875E+00
N   -3.2144748111714132E+00    7.4294090201959442E+00    7.6964577975114006E+00
Ga   -3.2164858680150625E+00    5.5714573996844630E+00    8.3502147472111474E+00
N   -3.2158215048247127E+00    5.5720640257780731E+00    1.0254636757602395E+01
Ga   -3.2136551302033110E+00    7.4296588130162577E+00    1.0954252432122992E+01
N   -3.2101768426277664E+00    7.4328198261751002E+00    1.2875178571984399E+01
Ga   -3.2137569692949306E+00    5.5785650220708041E+00    1.3580229278724236E+01
N   -3.2201410713389245E+00    5.5621349151064976E+00    1.5499204959278552E+01
Ga   -3.2306747848630550E+00    7.4471200664542243E+00    1.6462245548872673E+01
N   -1.6299978417150454E+00    6.5012752239640088E+00    1.7387120635025472E+01
N   -4.8251789837429708E+00    8.3560482606086222E+00   -6.0368115920504742E-02
Ga   -4.8237468420098866E+00    1.0214611419804431E+01    6.0410802806362607E-01
N   -4.8238013143835392E+00    1.0214637062144124E+01    2.5214168031366908E+00
Ga   -4.8250352832618235E+00    8.3562972969386369E+00    3.2232615874611787E+00
N   -4.8251077538922047E+00    8.3559069195411784E+00    5.1327916736247410E+00
Ga   -4.8238025957412711E+00    1.0214424655901901E+01    5.8015581125761075E+00
N   -4.8237150490686638E+00    1.0214729445972432E+01    7.6965250711329860E+00
Ga   -4.8244754637021510E+00    8.3553960029928032E+00    8.3494620960309760E+00
N   -4.8233201458516861E+00    8.3538706379532446E+00    1.0253800820777599E+01
Ga   -4.8235142751456923E+00    1.0213899592170129E+01    1.0944274888420077E+01
N   -4.8249367662890554E+00    1.0216852421871444E+01    1.2858795891105261E+01
Ga   -4.8247537530336890E+00    8.3624609972253765E+00    1.3569867081254205E+01
N   -4.8217986235838177E+00    8.3686891194833581E+00    1.5479049397283411E+01
Ga   -4.8297272858412610E+00    1.0228697789537108E+01    1.6446774136961544E+01
N   -3.2249211036304706E+00    9.2837753811626165E+00    1.7370300585326664E+01
N    3.2177158373108647E+00   -8.1216612232264574E-04   -6.0449620629812732E-02
Ga    3.2191158973649285E+00    1.8577337820225435E+00    6.0408925091926957E-01
N    3.2190268483603384E+00    1.8578009037365819E+00    2.5213550199939152E+00
Ga    3.2178602060054571E+00   -5.0190034385237659E-04    3.2232453691922442E+00
N    3.2178557925880185E+00   -1.0146036023999788E-03    5.1326798784495518E+00
Ga    3.2190378185108202E+00    1.8574482883517389E+00    5.8012795039047402E+00
N    3.2192776334188844E+00    1.8575556098983372E+00    7.6959858260484815E+00
Ga    3.2186350432719286E+00   -1.0050108444704007E-03    8.3488914799423792E+00
N    3.2195821597284242E+00   -1.2354773256574327E-03    1.0252694880095124E+01
Ga    3.2186609515831335E+00    1.8577903857247815E+00    1.0946331713257999E+01
N    3.2182151390652129E+00    1.8604427571705682E+00    1.2865295131538144E+01
Ga    3.2137470375572899E+00    2.7876414008390195E-03    1.3559371726324542E+01
N    3.2009139394535979E+00   -1.2536240254789834E-02    1.5466156399902403E+01
Ga    3.2208111855120714E+00    1.8676448551625480E+00    1.6480822330598301E+01
N    4.7901247813420369E+00    9.0669863500000492E-01    1.7361218812210748E+01
N    1.6094711887747646E+00    2.7847859848011165E+00   -6.0396120130879929E-02
Ga    1.6108404236507781E+00    4.6433633316135223E+00    6.0413535387838191E-01
N    1.6107207781608819E+00    4.6434535320063519E+00    2.5213783288216383E+00
Ga    1.6095951712203009E+00    2.7851683135534322E+00    3.2231592687652966E+00
N    1.6094904675274753E+00    2.7848384575229881E+00    5.1325665433103600E+00
Ga    1.6106119688405438E+00    4.6434093685074709E+00    5.8016325091271135E+00
N    1.6104817113265577E+00    4.6439760042421421E+00    7.6965994259988335E+00
Ga    1.6091128030061002E+00    2.7845397377950905E+00    8.3475219080126450E+00
N    1.6090520580155481E+00    2.7841014771389001E+00    1.0251736892956758E+01
Ga    1.6123974955324527E+00    4.6419565812705610E+00    1.0946105133895918E+01
N    1.6137002957312483E+00    4.6416729162151649E+00    1.2863779028064044E+01
Ga    1.6118345215327352E+00    2.7858223415474961E+00    1.3575035483008520E+01
N    1.5944319236576994E+00    2.7894868119550118E+00    1.5491308321291106E+01
Ga    1.6049187260485531E+00    4.6465780180305334E+00    1.6432720205915995E+01
N    3.1975276940253381E+00    3.7311086360047723E+00    1.7380758067096544E+01
N    1.1593218312792087E-03    5.5704122785825367E+00   -6.0334839042993992E-02
Ga    2.5598500465450458E-03    7.4290119824171059E+00    6.0416843810217202E-01
N    2.4887372912897805E-03    7.4290548893414394E+00    2.5214122805763362E+00
Ga    1.2522331206872835E-03    5.5707825863986145E+00    3.2233378108093369E+00
N    1.1141627005521340E-03    5.5705825210297206E+00    5.1327603163285280E+00
Ga    2.5238360412208204E-03    7.4290353253703856E+00    5.8024933603205469E+00
N    2.7392214028933255E-03    7.4298929020326279E+00    7.6977442204634512E+00
Ga    9.9228631620478349E-04    5.5710450367320981E+00    8.3502486661369471E+00
N    1.1838087646591411E-03    5.5713684307289251E+00    1.0255255472073298E+01
Ga    4.1365494926292384E-03    7.4316263596852350E+00    1.0949163080551257E+01
N    5.7500099239158548E-03    7.4347738223319242E+00    1.2867277404934383E+01
Ga    8.6217573305363178E-03    5.5743265013235792E+00    1.3551868698759382E+01
N    7.7655504620512093E-03    5.5685431588182945E+00    1.5459181042714354E+01
Ga    5.4128935229482335E-03    7.3992802449557322E+00    1.6422773785119755E+01
N    1.6033602284447128E+00    6.4956186096569795E+00    1.7390086752220853E+01
N   -1.6071202671400127E+00    8.3560559221395092E+00   -6.0380704379916605E-02
Ga   -1.6057100037227288E+00    1.0214618624194372E+01    6.0407800978331772E-01
N   -1.6057937624033991E+00    1.0214692326465407E+01    2.5213294482278772E+00
Ga   -1.6069866789966050E+00    8.3563752908234026E+00    3.2232712697632229E+00
N   -1.6070320648749308E+00    8.3560250796589468E+00    5.1327162383924447E+00
Ga   -1.6055273775620660E+00    1.0214353523174147E+01    5.8016051694190871E+00
N   -1.6047642761604852E+00    1.0214609290753595E+01    7.6965700424974868E+00
Ga   -1.6071071003174011E+00    8.3566981891838719E+00    8.3516469266345528E+00
N   -1.6070188620834092E+00    8.3575946572867750E+00    1.0256105065916227E+01
Ga   -1.6040160562613550E+00    1.0216515974682006E+01    1.0950364506314916E+01
N   -1.6003895576075338E+00    1.0222502408275608E+01    1.2870130471122463E+01
Ga   -1.5992928212944870E+00    8.3659644198131620E+00    1.3571828967831912E+01
N   -1.6102012317383294E+00    8.3612523269513446E+00    1.5487669070841498E+01
Ga   -1.6291623125459345E+00    1.0232560935361672E+01    1.6447482114968363E+01
N   -4.1549435011248553E-02    9.1973018215222488E+00    1.7395473001976942E+01
N    6.4357966915811531E+00   -8.2154794013351200E-04   -6.0414941340797251E-02
Ga    6.4371977823453781E+00    1.8577366890510412E+00    6.0415608996414050E-01
N    6.4371395458540901E+00    1.8578330425839544E+00    2.5214989037700497E+00
Ga    6.4358780265634215E+00   -5.7062995818039073E-04    3.2231211751523468E+00
N    6.4358064999626983E+00   -1.0607605108676292E-03    5.1324474833103704E+00
Ga    6.4372483600746566E+00    1.8572065032247214E+00    5.8009810429082052E+00
N    6.4378666463927576E+00    1.8570399521640084E+00    7.6959045682312670E+00
Ga    6.4362032385311538E+00   -8.6328070320941086E-04    8.3507621877235092E+00
N    6.4372133746965039E+00   -4.1615180941264278E-04    1.0254804283137426E+01
Ga    6.4389902668007188E+00    1.8571904667034969E+00    1.0952564629182479E+01
N    6.4412668823232915E+00    1.8617737027999004E+00    1.2872913637193196E+01
Ga    6.4406065993379009E+00    7.3007728391859131E-03    1.3578830085619439E+01
N    6.4414638236541846E+00   -1.0599215693291425E-02    1.5496729975595919E+01
Ga    6.4120327601125773E+00    1.8718946033393753E+00    1.6463103630768526E+01
N    8.0233993547558757E+00    9.2899407370843423E-01    1.7371923802512125E+01
N    4.8275126611409478E+00    2.7847774714250466E+00   -6.0348341932387278E-02
Ga    4.8289166185902159E+00    4.6433698534002863E+00    6.0411232565130979E-01
N    4.8288635292187037E+00    4.6434513175516425E+00    2.5214706566821596E+00
Ga    4.8275643326539184E+00    2.7850634257302089E+00    3.2231595782876918E+00
N    4.8275731732719196E+00    2.7846622505352499E+00    5.1325886090280859E+00
Ga    4.8286971216299044E+00    4.6433208576911520E+00    5.8008685634253530E+00
N    4.8288274035939756E+00    4.6439068546015756E+00    7.6961305239654765E+00
Ga    4.8281855821142070E+00    2.7843025621626589E+00    8.3482339429009951E+00
N    4.8292632201251386E+00    2.7827238998846542E+00    1.0253038438622207E+01
Ga    4.8289602462203201E+00    4.6438865424837656E+00    1.0941233665947367E+01
N    4.8275923708820727E+00    4.6475823349339498E+00    1.2857960823186030E+01
Ga    4.8260773119121687E+00    2.7916179648175063E+00    1.3563406658189619E+01
N    4.8237057724739820E+00    2.8105609929724187E+00    1.5473310223234664E+01
Ga    4.8272948342298765E+00    4.6456298298953955E+00    1.6432415739072589E+01
N    6.4285455042646769E+00    3.7243714736985045E+00    1.7380950483823746E+01
N    3.2192302374774444E+00    5.5704138465151809E+00   -6.0399112786415882E-02
Ga    3.2206269959609020E+00    7.4290015021440867E+00    6.0399977971076713E-01
N    3.2205051570728291E+00    7.4290318061772762E+00    2.5213456550849944E+00
Ga    3.2192506806303554E+00    5.5707494583653832E+00    3.2230397969187523E+00
N    3.2190545198857845E+00    5.5705246415146590E+00    5.1325355119721570E+00
Ga    3.2204433594611790E+00    7.4291653924985255E+00    5.8008760296517474E+00
N    3.2203061877721106E+00    7.4300500330504589E+00    7.6954914819409961E+00
Ga    3.2187426434339854E+00    5.5719894971255988E+00    8.3480276324341300E+00
N    3.2183453337533736E+00    5.5729736548865150E+00    1.0252202948453380E+01
Ga    3.2209280624485186E+00    7.4303583398014927E+00    1.0951082989441485E+01
N    3.2208032982822230E+00    7.4330235256198618E+00    1.2871879720342571E+01
Ga    3.2200464552743799E+00    5.5712658352863880E+00    1.3564664689697688E+01
N    3.2133204896488423E+00    5.5794424611233646E+00    1.5477045260449302E+01
Ga    3.2182726230405279E+00    7.4339115893230003E+00    1.6477431631079188E+01
N    4.8245750960680907E+00    6.4928796180836876E+00    1.7385568139942368E+01
N    1.6109504559958570E+00    8.3560657235566858E+00   -6.0395456398056505E-02
Ga    1.6123637442142407E+00    1.0214617546436282E+01    6.0405982636086064E-01
N    1.6122599718213073E+00    1.0214736866986565E+01    2.5213415495789699E+00
Ga    1.6110051501332947E+00    8.3564290978787952E+00    3.2232209297113807E+00
N    1.6107808688179044E+00    8.3561576092668641E+00    5.1326243989078666E+00
Ga    1.6121709261720867E+00    1.0214511492027434E+01    5.8015619640483997E+00
N    1.6120881977449411E+00    1.0214894047171937E+01    7.6963791170369973E+00
Ga    1.6116098848627254E+00    8.3567745526721584E+00    8.3502422280486108E+00
N    1.6126383050083317E+00    8.3578855340024027E+00    1.0254502109013298E+01
Ga    1.6118245876609472E+00    1.0215068922518968E+01    1.0951193404938753E+01
N    1.6125779114832961E+00    1.0218123157198146E+01    1.2870604945781732E+01
Ga    1.6126666490587900E+00    8.3602227407634384E+00    1.3572096890575198E+01
N    1.6108105422614205E+00    8.3762676399850644E+00    1.5491289919396499E+01
Ga    1.6382808602318901E+00    1.0231449122626668E+01    1.6406289259062550E+01
N    3.1851621025757897E+00    9.3020027083170014E+00    1.7388528444051275E+01
N    9.6538475027981505E+00   -8.3781939877686446E-04   -6.0424232560938630E-02
Ga    9.6552656070506817E+00    1.8577391868394646E+00    6.0412041247356107E-01
N    9.6551871745782609E+00    1.8578025127333657E+00    2.5214208352623091E+00
Ga    9.6539102344260321E+00   -5.4212056838169511E-04    3.2232589728485292E+00
N    9.6537711622836166E+00   -9.1944049949332452E-04    5.1327779190837290E+00
Ga    9.6554249653667021E+00    1.8574417313895093E+00    5.8020972885446653E+00
N    9.6558833672373403E+00    1.8577689728963760E+00    7.6972867789950188E+00
Ga    9.6533859041655106E+00   -1.2139978491108698E-03    8.3495796214704647E+00
N    9.6532882192093297E+00   -1.3819140010044061E-03    1.0254023493665906E+01
Ga    9.6578126844484711E+00    1.8590725695522448E+00    1.0943958379221398E+01
N    9.6603935715287896E+00    1.8615625158224218E+00    1.2862971024179062E+01
Ga    9.6622712914205540E+00    2.7244331255074617E-03    1.3553133721628310E+01
N    9.6623487317969392E+00    7.2807978629233572E-03    1.5458112082261293E+01
Ga    9.6568390750366451E+00    1.8310688758338043E+00    1.6435350645372555E+01
N    1.1265196398778620E+01    9.2421395488936164E-01    1.7380157024592936E+01
N    8.0455656377033584E+00    2.7847854475738276E+00   -6.0337436209565345E-02
Ga    8.0470008083402007E+00    4.6433813932383359E+00    6.0410057996095345E-01
N    8.0469325315780598E+00    4.6434532585225270E+00    2.5214456528927003E+00
Ga    8.0457397212979487E+00    2.7851018552712508E+00    3.2232525841747433E+00
N    8.0457403249990413E+00    2.7846723777005633E+00    5.1327949098132768E+00
Ga    8.0473419394161017E+00    4.6433716942527976E+00    5.8008771117713520E+00
N    8.0482925172535058E+00    4.6438615103762357E+00    7.6958183954779180E+00
Ga    8.0455060002627174E+00    2.7852999814347466E+00    8.3490060237725139E+00
N    8.0461908640172091E+00    2.7859615135048634E+00    1.0254493411134490E+01
Ga    8.0494785570494027E+00    4.6448131044130161E+00    1.0951305620980605E+01
N    8.0510576392742994E+00    4.6506551876770628E+00    1.2871402295747727E+01
Ga    8.0553216420749170E+00    2.7899181041134744E+00    1.3567199930108526E+01
N    8.0346215808387633E+00    2.8001398176799399E+00    1.5481685759464884E+01
Ga    8.0157444045290838E+00    4.6612019816301720E+00    1.6430522265272337E+01
N    9.6150927352758178E+00    3.6383857507212540E+00    1.7375282161561717E+01
N    6.4372967446022624E+00    5.5704288578223933E+00   -6.0353693516924461E-02
Ga    6.4387141021311711E+00    7.4290132383861662E+00    6.0407161762435935E-01
N    6.4386441105187773E+00    7.4290591684655656E+00    2.5214441625261403E+00
Ga    6.4374335053012857E+00    5.5708181801925916E+00    3.2231526308396963E+00
N    6.4374016028688841E+00    5.5704565569600497E+00    5.1326793573455340E+00
Ga    6.4386029657154698E+00    7.4291393913395618E+00    5.8016460005602744E+00
N    6.4387770735622292E+00    7.4294098863678508E+00    7.6963652882785523E+00
Ga    6.4384714139617358E+00    5.5705770703804154E+00    8.3483455824977550E+00
N    6.4403863867166447E+00    5.5700004445514386E+00    1.0253105601198889E+01
Ga    6.4391688589528506E+00    7.4291034545729815E+00    1.0948391798480277E+01
N    6.4389957487167431E+00    7.4351942670346558E+00    1.2866423272163837E+01
Ga    6.4335563902426882E+00    5.5768340829648722E+00    1.3559271076351791E+01
N    6.4151401707952331E+00    5.5796295415396147E+00    1.5467546381346509E+01
Ga    6.4335968688255836E+00    7.4455521407343301E+00    1.6466823065735365E+01
N    8.0138806069194590E+00    6.4942075908455887E+00    1.7371684974313236E+01
N    4.8290320696135574E+00    8.3560450642993249E+00   -6.0383168749684281E-02
Ga    4.8304216937439834E+00    1.0214615687723093E+01    6.0407113339177809E-01
N    4.8302852364902780E+00    1.0214711699609262E+01    2.5213546349712135E+00
Ga    4.8290820736744431E+00    8.3563801800060826E+00    3.2230952539918696E+00
N    4.8290196182544838E+00    8.3560031587009878E+00    5.1324979963244823E+00
Ga    4.8302849576133839E+00    1.0214341727049097E+01    5.8016361529594445E+00
N    4.8302880064948956E+00    1.0214419766543219E+01    7.6966275344224115E+00
Ga    4.8287645837224309E+00    8.3552772346409974E+00    8.3490360342105401E+00
N    4.8289722657907355E+00    8.3533792947138945E+00    1.0252541910163796E+01
Ga    4.8315658822992251E+00    1.0211311808134358E+01    1.0944816130337985E+01
N    4.8314842902366966E+00    1.0209823689021178E+01    1.2860137923189509E+01
Ga    4.8319733849110875E+00    8.3567330138158677E+00    1.3576143425989102E+01
N    4.8107264318002603E+00    8.3637606329925553E+00    1.5490966144601677E+01
Ga    4.8203998352601864E+00    1.0223986670064159E+01    1.6442215658604372E+01
N    6.4143331565933508E+00    9.2926123186986693E+00    1.7379079817743815E+01
H    7.9068811991142238E-06   -8.6136016408194739E-05   -1.0865354805648690E+00
H   -1.6083018386546599E+00    2.7855530727330637E+00   -1.0865129761421366E+00
H   -3.2165445278698419E+00    5.5711410835048367E+00   -1.0865108368717238E+00
H   -4.8248431987847100E+00    8.3567479571250214E+00   -1.0864682816211397E+00
H    3.2180626358515494E+00   -7.8484151081041669E-05   -1.0865142251302169E+00
H    1.6098119856381918E+00    2.7855499291482184E+00   -1.0865113543701741E+00
H    1.5115357592031505E-03    5.5711314803292789E+00   -1.0864559185021592E+00
H   -1.6067665647820861E+00    8.3567518917220909E+00   -1.0865185241455555E+00
H    6.4361301527993193E+00   -7.3768263992181511E-05   -1.0865250951670251E+00
H    4.8278706876187698E+00    2.7855406579188857E+00   -1.0864718443870640E+00
H    3.2195762039604774E+00    5.5711036085520140E+00   -1.0865169495755516E+00
H    1.6112809576582929E+00    8.3567616424224909E+00   -1.0865184139643898E+00
H    9.6541965100737031E+00   -6.9098114151210289E-05   -1.0865100685238258E+00
H    8.0459368990622675E+00    2.7855195059689035E+00   -1.0864790768201862E+00
H    6.4376379267532888E+00    5.5711374320138356E+00   -1.0864621545591406E+00
H    4.8294008267408106E+00    8.3567444604394971E+00   -1.0864966656237469E+00
     &END COORD
     &KIND H
       BASIS_SET DZVP-MOLOPT-SR-GTH-q1
       POTENTIAL GTH-PBE-q1
       &POTENTIAL
 1
  0.2000000000000000E+00 2 -0.4178900440000000E+01  0.7244633100000000E+00
 0
         # Potential name:  GTH-PBE-Q1  for symbol:  H
         # Potential read from the potential filename: GTH_POTENTIALS
       &END POTENTIAL
     &END KIND
     &KIND N
       BASIS_SET DZVP-MOLOPT-SR-GTH
       POTENTIAL GTH-PBE-q5
       &POTENTIAL
 2 3
  0.2837905100000000E+00 2 -0.1241522559000000E+02  0.1868095920000000E+01
 2
  0.2554050000000000E+00 1  0.1363026257000000E+02
  0.2454945300000000E+00 0
         # Potential name:  GTH-PBE-Q5  for symbol:  N
         # Potential read from the potential filename: GTH_POTENTIALS
       &END POTENTIAL
     &END KIND
     &KIND Ga
       BASIS_SET DZVP-MOLOPT-SR-GTH
       POTENTIAL GTH-PBE-q13
       &POTENTIAL
 2 1 10
  0.4900000000000000E+00 0
 3
  0.4167772300000000E+00 3  0.1047568975000000E+02 -0.4921768140000000E+01  0.8707055900000000E+00
  0.7770178090000000E+01 -0.2248152160000000E+01
  0.1784415450000000E+01
  0.5696265200000000E+00 2  0.1777985340000000E+01  0.1958597600000000E+00
 -0.2317443900000000E+00
  0.2381265000000000E+00 1 -0.1624868022000000E+02
         # Potential name:  GTH-PBE-Q13  for symbol:  GA
         # Potential read from the potential filename: GTH_POTENTIALS
       &END POTENTIAL
     &END KIND
     &TOPOLOGY
       NUMBER_OF_ATOMS  256
       MULTIPLE_UNIT_CELL  1 1 1
     &END TOPOLOGY
   &END SUBSYS
 &END FORCE_EVAL
