 # Version information for this restart file 
 # current date 2019-06-09 04:48:21.167
 # current working dir /lustre03/project/6037349/rzk/GaN-carbene/444-addat/00-Surface/UKS_SYMM
 # Program compiled at                              Sun Apr  7 00:48:11 EDT 2019
 # Program compiled on                          beluga2.int.ets1.calculquebec.ca
 # Program compiled for                        Beluga-Linux-x86-64-intel-openmpi
 # Source code revision number                                         svn:18619
 &GLOBAL
   PRINT_LEVEL  MEDIUM
   PROJECT_NAME TEST
   RUN_TYPE  CELL_OPT
 &END GLOBAL
 &MOTION
   &CELL_OPT
     MAX_ITER  300
     STEP_START_VAL  16
     EXTERNAL_PRESSURE     1.0000000000000000E+00
     KEEP_ANGLES  T
     KEEP_SYMMETRY  T
     CONSTRAINT  Z
     PRESSURE_TOLERANCE     5.0000000000000000E+02
   &END CELL_OPT
 &END MOTION
 &FORCE_EVAL
   METHOD  QS
   STRESS_TENSOR  ANALYTICAL
   &DFT
     BASIS_SET_FILE_NAME BASIS_MOLOPT
     POTENTIAL_FILE_NAME GTH_POTENTIALS
     UKS  T
     SURFACE_DIPOLE_CORRECTION  T
     SURF_DIP_DIR  Z
     &SCF
       MAX_SCF  100
       EPS_SCF     5.0000000000000004E-06
       &OT  T
         PRECONDITIONER  FULL_ALL
       &END OT
       &OUTER_SCF  T
         OPTIMIZER  NONE
         EPS_SCF     5.0000000000000004E-06
         MAX_SCF  4
       &END OUTER_SCF
       &PRINT
         &RESTART  OFF
           BACKUP_COPIES  1
           &EACH
             JUST_ENERGY  0
             QS_SCF  0
             MD  20
           &END EACH
         &END RESTART
       &END PRINT
     &END SCF
     &QS
       EPS_DEFAULT     1.0000000000000000E-14
       METHOD  GPW
     &END QS
     &MGRID
       NGRIDS  5
       CUTOFF     1.2000000000000000E+03
     &END MGRID
     &XC
       DENSITY_CUTOFF     1.0000000000000000E-10
       GRADIENT_CUTOFF     1.0000000000000000E-10
       TAU_CUTOFF     1.0000000000000000E-10
       &XC_FUNCTIONAL  NO_SHORTCUT
         &PBE  T
         &END PBE
       &END XC_FUNCTIONAL
       &VDW_POTENTIAL
         POTENTIAL_TYPE  PAIR_POTENTIAL
         &PAIR_POTENTIAL
           R_CUTOFF     1.0000000000000004E+01
           TYPE  DFTD3
           PARAMETER_FILE_NAME dftd3.dat
           REFERENCE_FUNCTIONAL PBE
           EPS_CN     9.9999999999999995E-07
           CALCULATE_C9_TERM  T
           REFERENCE_C9_TERM  T
           LONG_RANGE_CORRECTION  F
           VERBOSE_OUTPUT  F
         &END PAIR_POTENTIAL
       &END VDW_POTENTIAL
     &END XC
   &END DFT
   &SUBSYS
     &CELL
       A     1.2871540320246698E+01    0.0000000000000000E+00    0.0000000000000000E+00
       B    -6.4372645289307648E+00    1.1149669225869042E+01    0.0000000000000000E+00
       C     0.0000000000000000E+00    0.0000000000000000E+00    3.2000000000000000E+01
       MULTIPLE_UNIT_CELL  1 1 1
       &CELL_REF
         A     1.2982353780853531E+01    0.0000000000000000E+00    0.0000000000000000E+00
         B    -6.4911768904267628E+00    1.1243048175136114E+01    0.0000000000000000E+00
         C     0.0000000000000000E+00    0.0000000000000000E+00    3.2000000000000000E+01
         MULTIPLE_UNIT_CELL  1 1 1
       &END CELL_REF
     &END CELL
     &COORD
N   -3.3197813367079570E-04   -9.0370476129428929E-04   -8.1962193804032690E-02
Ga    3.7346744598673701E-04    1.8589832296324338E+00    5.8112451642005725E-01
N    4.4048869488251275E-04    1.8594145515628799E+00    2.5047794288847514E+00
Ga   -3.3899158237466316E-04   -8.5452252076732751E-04    3.1963892939843883E+00
N   -5.6413045535667948E-04   -1.6403696924923679E-03    5.1022773994882469E+00
Ga    2.7214382614091363E-04    1.8589150613377206E+00    5.7614353326518657E+00
N    4.5796388243360869E-04    1.8598241083650635E+00    7.6611237519296846E+00
Ga   -5.5870330021367545E-04    8.7212290702244453E-05    8.3393628897407677E+00
N   -8.6661416236481520E-04    5.4211273581520594E-04    1.0264176382152165E+01
Ga    6.6036934185083568E-04    1.8610880304141135E+00    1.0971665082376020E+01
N    1.9827990152286899E-04    1.8655479240207438E+00    1.2891026449147560E+01
Ga   -3.0577196262049646E-03   -3.0635074965541099E-03    1.3582948389036954E+01
N   -1.5610070139055715E-03   -6.4592830414671237E-03    1.5495475307246327E+01
Ga    2.2900506288626781E-03    1.8657415089478413E+00    1.6542457379532870E+01
N    1.6088500602118967E+00    9.2518860101161615E-01    1.7436410681457563E+01
N   -1.6096533050403330E+00    2.7865420242175483E+00   -8.1898889389096119E-02
Ga   -1.6089390813313902E+00    4.6464524563077925E+00    5.8113849574411358E-01
N   -1.6088559212959510E+00    4.6468826079094470E+00    2.5048268744399547E+00
Ga   -1.6097823249588854E+00    2.7867499843200609E+00    3.1964219556093321E+00
N   -1.6101980900356572E+00    2.7864790799728492E+00    5.1023355216116180E+00
Ga   -1.6088042179418069E+00    4.6468389310546394E+00    5.7630101610059690E+00
N   -1.6087388646508329E+00    4.6478138471945760E+00    7.6634648446712177E+00
Ga   -1.6089157300953751E+00    2.7873429014572491E+00    8.3399002366466757E+00
N   -1.6089438291191840E+00    2.7877660227065468E+00    1.0265298675877117E+01
Ga   -1.6093901865650218E+00    4.6475694101018661E+00    1.0972791732938486E+01
N   -1.6095886471430887E+00    4.6497823435971970E+00    1.2889238582115151E+01
Ga   -1.6080199995021784E+00    2.7905757270258444E+00    1.3597895391202313E+01
N   -1.5965416663804444E+00    2.8017324921614968E+00    1.5524159326808611E+01
Ga   -1.5896351674393105E+00    4.6636755680601434E+00    1.6449994727924757E+01
N   -3.0043802479164241E-02    3.7523827593774035E+00    1.7443867421859732E+01
N   -3.2189605655946396E+00    5.5739212929559780E+00   -8.1949206841457969E-02
Ga   -3.2182705282916442E+00    7.4338698055303105E+00    5.8107150049494938E-01
N   -3.2182084155639346E+00    7.4342579345154363E+00    2.5048110464576103E+00
Ga   -3.2188954959537996E+00    5.5742435509503787E+00    3.1963791422621486E+00
N   -3.2189903054021136E+00    5.5741044100395740E+00    5.1022211164188009E+00
Ga   -3.2176169206598146E+00    7.4339913622901372E+00    5.7635072509673098E+00
N   -3.2170525850897889E+00    7.4345175973437474E+00    7.6633925777474179E+00
Ga   -3.2184258298075292E+00    5.5752383470042544E+00    8.3423525027663974E+00
N   -3.2188756822771185E+00    5.5759386688725696E+00    1.0268514672286553E+01
Ga   -3.2155060398769924E+00    7.4348843293629363E+00    1.0975892674687437E+01
N   -3.2132880568456215E+00    7.4416922353913249E+00    1.2896658806949652E+01
Ga   -3.2152841983057945E+00    5.5845658899712385E+00    1.3611563840144372E+01
N   -3.2176588870805252E+00    5.5606419268218161E+00    1.5528686880821843E+01
Ga   -3.2404110196498239E+00    7.4481789890363395E+00    1.6525079329612524E+01
N   -1.6299086174733259E+00    6.4982405385677877E+00    1.7436517476168223E+01
N   -4.8282988249383223E+00    8.3613429161244586E+00   -8.1906098267944719E-02
Ga   -4.8275447430779819E+00    1.0221254769868020E+01    5.8113478840475785E-01
N   -4.8274387133251713E+00    1.0221508773929456E+01    2.5049037814904440E+00
Ga   -4.8281548602765332E+00    8.3614752836542561E+00    3.1966259465072886E+00
N   -4.8282267669258934E+00    8.3609228357765524E+00    5.1027720176209908E+00
Ga   -4.8275373939035529E+00    1.0221201400128386E+01    5.7638323305502359E+00
N   -4.8270795180009376E+00    1.0220987177559200E+01    7.6636975097486628E+00
Ga   -4.8273538880506530E+00    8.3603011105776410E+00    8.3414082920662445E+00
N   -4.8266145129379190E+00    8.3580132505434932E+00    1.0267951078086428E+01
Ga   -4.8272427643453755E+00    1.0220575262767012E+01    1.0963474991590640E+01
N   -4.8273309508788236E+00    1.0223491001314594E+01    1.2875390286006152E+01
Ga   -4.8260868842611444E+00    8.3725489508609812E+00    1.3595055839687094E+01
N   -4.8260908361983459E+00    8.3734874591965003E+00    1.5508421746530798E+01
Ga   -4.8366845479846816E+00    1.0235044197439025E+01    1.6502433962385435E+01
N   -3.2339715806359948E+00    9.2918669466530428E+00    1.7417868992284209E+01
N    3.2175556511079364E+00   -8.8230577385974658E-04   -8.2001010114983008E-02
Ga    3.2182521765473315E+00    1.8589416127371370E+00    5.8101046440784510E-01
N    3.2183983137871501E+00    1.8593612277720863E+00    2.5048030675512449E+00
Ga    3.2175925356808501E+00   -8.3302195449412987E-04    3.1966976955088886E+00
N    3.2176472716197377E+00   -1.4654851691570912E-03    5.1026093543803750E+00
Ga    3.2182350182239476E+00    1.8587400467677908E+00    5.7626217759147043E+00
N    3.2187236998228430E+00    1.8592473367568132E+00    7.6628950234845599E+00
Ga    3.2186081060691287E+00   -7.3919463237498255E-04    8.3400985685223592E+00
N    3.2192876414850433E+00    3.5572096571077602E-05    1.0266031621107874E+01
Ga    3.2175065131013776E+00    1.8592650475476771E+00    1.0965487589089030E+01
N    3.2170137850858214E+00    1.8660738945724655E+00    1.2888403797356986E+01
Ga    3.2127480907613304E+00    2.4863512286790995E-03    1.3579315448759813E+01
N    3.2001411413621295E+00   -1.1341253016086515E-02    1.5493104955236651E+01
Ga    3.2181313269630545E+00    1.8756604494381501E+00    1.6547509107752713E+01
N    4.7850561564508540E+00    9.0271621807310798E-01    1.7414750983062444E+01
N    1.6082694212633046E+00    2.7865239557035242E+00   -8.1940771868339077E-02
Ga    1.6089014933031311E+00    4.6464266267223975E+00    5.8113587412952827E-01
N    1.6089662974979853E+00    4.6468533951456230E+00    2.5048206161064055E+00
Ga    1.6082540288912641E+00    2.7867536247812765E+00    3.1965512067253292E+00
N    1.6083688292095311E+00    2.7865905070703332E+00    5.1024491416253133E+00
Ga    1.6084147935777084E+00    4.6465839911193241E+00    5.7632287022547803E+00
N    1.6086271824538969E+00    4.6471993335709660E+00    7.6635917382952936E+00
Ga    1.6082835196399805E+00    2.7862699191633631E+00    8.3390099664248201E+00
N    1.6092399219543578E+00    2.7867312307846857E+00    1.0265247252983247E+01
Ga    1.6104630875688688E+00    4.6443590997762234E+00    1.0963365292437182E+01
N    1.6140592885471416E+00    4.6432050768627988E+00    1.2885146902340692E+01
Ga    1.6087862841791394E+00    2.7856935982353646E+00    1.3604869462705079E+01
N    1.5953399853438752E+00    2.7869822886183346E+00    1.5526898926216843E+01
Ga    1.6021511432933271E+00    4.6577105828691536E+00    1.6492870777382638E+01
N    3.1963508191118377E+00    3.7396801511727973E+00    1.7430893774080968E+01
N   -1.0846255135489953E-03    5.5739546673140410E+00   -8.1839437140537846E-02
Ga   -3.7944983043142726E-04    7.4338464985203183E+00    5.8119396320680183E-01
N   -2.3108846148627788E-04    7.4342381059100378E+00    2.5048361471221785E+00
Ga   -1.1240060889220241E-03    5.5742363639256576E+00    3.1968723794216198E+00
N   -1.0987409189016429E-03    5.5742152275160715E+00    5.1027563968462459E+00
Ga   -5.2015495315522868E-04    7.4340265609038685E+00    5.7650430834127073E+00
N   -4.4314407967134721E-05    7.4350158362900274E+00    7.6652998446375200E+00
Ga   -1.1250307489830567E-03    5.5749928134228091E+00    8.3423430818534055E+00
N    8.0867287449559613E-04    5.5753854088662429E+00    1.0270308664017250E+01
Ga    1.0094603331903614E-03    7.4378632365092203E+00    1.0970153375333460E+01
N    4.4659692558373740E-03    7.4417709303767055E+00    1.2885603987691992E+01
Ga    5.8928988669388260E-03    5.5813664928225428E+00    1.3567654581381145E+01
N    1.2523543925488351E-02    5.5756134108237081E+00    1.5487707489085134E+01
Ga    1.8405171418903921E-03    7.3993877920093833E+00    1.6482531001115369E+01
N    1.5986774821311349E+00    6.4967945180631173E+00    1.7444301722390080E+01
N   -1.6103741022184650E+00    8.3613589133288126E+00   -8.1926062599526825E-02
Ga   -1.6097192601180834E+00    1.0221279266921343E+01    5.8106732900832070E-01
N   -1.6095649328045312E+00    1.0221666248112822E+01    2.5047683266384926E+00
Ga   -1.6103287477081181E+00    8.3614562746587726E+00    3.1968314702311149E+00
N   -1.6102495278461137E+00    8.3611406932026195E+00    5.1026820608648835E+00
Ga   -1.6092871923575496E+00    1.0220874820412861E+01    5.7636351754163933E+00
N   -1.6083041977356327E+00    1.0221421718319855E+01    7.6637005655268036E+00
Ga   -1.6102767838853604E+00    8.3617941225661188E+00    8.3441830639778054E+00
N   -1.6101930320356315E+00    8.3626060724333229E+00    1.0269848327000433E+01
Ga   -1.6069814552953199E+00    1.0224013748994347E+01    1.0971698272817708E+01
N   -1.6039985784485040E+00    1.0230888514471747E+01    1.2889880760251058E+01
Ga   -1.6029840424996171E+00    8.3729554847753835E+00    1.3599411508286469E+01
N   -1.6099273729471932E+00    8.3602793388878922E+00    1.5519323065305743E+01
Ga   -1.6317087724021420E+00    1.0234274534811165E+01    1.6506600478176235E+01
N   -5.2912603795447405E-02    9.1895476054423160E+00    1.7451858817578501E+01
N    6.4354587062985802E+00   -8.5252817527044960E-04   -8.1956679199228721E-02
Ga    6.4361213823059185E+00    1.8589481403192807E+00    5.8104469147813431E-01
N    6.4362923878930003E+00    1.8593859686307685E+00    2.5050318835537428E+00
Ga    6.4353204193260867E+00   -8.9613949649099557E-04    3.1964271923746184E+00
N    6.4353952570052275E+00   -1.3148045635848558E-03    5.1022138482575521E+00
Ga    6.4364134753245548E+00    1.8584721631983183E+00    5.7625245168605064E+00
N    6.4374254703579226E+00    1.8589629154728884E+00    7.6631319328592529E+00
Ga    6.4361407888578661E+00   -4.4279849587796532E-04    8.3422166035346343E+00
N    6.4374623324260787E+00    1.2845315300987930E-03    1.0267968217494698E+01
Ga    6.4379742032452310E+00    1.8592373386822416E+00    1.0974271140164591E+01
N    6.4400650156103927E+00    1.8680527563199922E+00    1.2893589443198177E+01
Ga    6.4410802986621398E+00    9.8616607852096798E-03    1.3605362789841674E+01
N    6.4429729630096748E+00   -1.4191476998731129E-02    1.5529564091654276E+01
Ga    6.4052760042610313E+00    1.8713728249250203E+00    1.6527987206448163E+01
N    8.0208580155292051E+00    9.2395680162378535E-01    1.7420217372049521E+01
N    4.8261584961644779E+00    2.7865056090521616E+00   -8.1858263820418678E-02
Ga    4.8267996065336662E+00    4.6463988537471534E+00    5.8107796921341781E-01
N    4.8269705639866070E+00    4.6468052652424072E+00    2.5050182950203070E+00
Ga    4.8260352291417865E+00    2.7865418277453231E+00    3.1965195056885758E+00
N    4.8261887027618018E+00    2.7862091408250258E+00    5.1025418480164610E+00
Ga    4.8267740339261405E+00    4.6463694251975971E+00    5.7627988035867848E+00
N    4.8272573668757524E+00    4.6470790772338715E+00    7.6639034117124005E+00
Ga    4.8268414063486116E+00    2.7852070019388355E+00    8.3399973140889543E+00
N    4.8271814646150260E+00    2.7844856937798035E+00    1.0267957622105959E+01
Ga    4.8274356285099476E+00    4.6466292092930583E+00    1.0957161143930467E+01
N    4.8249770379274812E+00    4.6523514884825072E+00    1.2879179405961743E+01
Ga    4.8242882972903613E+00    2.7953645767969144E+00    1.3586614335028964E+01
N    4.8243035686992446E+00    2.8046945630313305E+00    1.5508586322747082E+01
Ga    4.8247131119910618E+00    4.6549336440566780E+00    1.6488486668289742E+01
N    6.4261907651398031E+00    3.7242086485049253E+00    1.7433565590296748E+01
N    3.2168292167503632E+00    5.5739245864853411E+00   -8.1929944455289824E-02
Ga    3.2174507680881228E+00    7.4338530269930336E+00    5.8092082498691733E-01
N    3.2175940933855953E+00    7.4342921003031739E+00    2.5048505688560097E+00
Ga    3.2165837792087904E+00    5.5740462047626052E+00    3.1962724029529745E+00
N    3.2165390352969960E+00    5.5738919808924567E+00    5.1025717272872324E+00
Ga    3.2171843795901536E+00    7.4343549395666759E+00    5.7621105316243240E+00
N    3.2172336541559212E+00    7.4350845863831676E+00    7.6620774321286884E+00
Ga    3.2158378063202702E+00    5.5755105951185069E+00    8.3385728290339713E+00
N    3.2158973202482146E+00    5.5757779280151540E+00    1.0265504868088581E+01
Ga    3.2180126618511009E+00    7.4363274431323108E+00    1.0970262159542546E+01
N    3.2185655101663571E+00    7.4377272231587508E+00    1.2893122313469169E+01
Ga    3.2169567913298329E+00    5.5775003180924374E+00    1.3587076045766779E+01
N    3.2134663994968014E+00    5.5809425656219442E+00    1.5506847194817880E+01
Ga    3.2175207220184521E+00    7.4362052465031434E+00    1.6540948138771920E+01
N    4.8232964359439672E+00    6.4875650507232008E+00    1.7437305922861363E+01
N    1.6074758109434630E+00    8.3613629984550428E+00   -8.1934128691643307E-02
Ga    1.6081769983332692E+00    1.0221271677505571E+01    5.8095344572114616E-01
N    1.6083080655079378E+00    1.0221690513310223E+01    2.5048362532077935E+00
Ga    1.6072371447073641E+00    8.3615353607447087E+00    3.1966678551823584E+00
N    1.6070989425505604E+00    8.3612984704678510E+00    5.1025481586015449E+00
Ga    1.6079772703819415E+00    1.0221187642268355E+01    5.7633860752146679E+00
N    1.6081276719682216E+00    1.0221717009881685E+01    7.6634018558467281E+00
Ga    1.6077208129201459E+00    8.3621466686762371E+00    8.3420090368567390E+00
N    1.6091381512804781E+00    8.3623151271559237E+00    1.0268055509803782E+01
Ga    1.6077404179989501E+00    1.0221798798094374E+01    1.0971132969219038E+01
N    1.6101664765411283E+00    1.0226214653151136E+01    1.2888975664219707E+01
Ga    1.6078551248500910E+00    8.3663275350230215E+00    1.3598285870834520E+01
N    1.6077219245802015E+00    8.3799532648367894E+00    1.5521712541178635E+01
Ga    1.6312333422004273E+00    1.0239625849177918E+01    1.6457808307319766E+01
N    3.1820984840932516E+00    9.3112818061930902E+00    1.7438025278880144E+01
N    9.6533415699897080E+00   -9.0063218844871340E-04   -8.1966061722028277E-02
Ga    9.6540273347619401E+00    1.8589390075435914E+00    5.8117918526076051E-01
N    9.6540401898982449E+00    1.8592768352660347E+00    2.5048318975983608E+00
Ga    9.6532687510544513E+00   -7.5217925489197196E-04    3.1967265528316902E+00
N    9.6531572915463766E+00   -1.1630491577748123E-03    5.1028032077386127E+00
Ga    9.6541949976158321E+00    1.8587963564530960E+00    5.7643631910218485E+00
N    9.6542060881857399E+00    1.8594002034849419E+00    7.6643332972906526E+00
Ga    9.6528034675959997E+00   -8.1853188299615541E-04    8.3409279552522158E+00
N    9.6532411404918932E+00    2.8313843048361663E-04    1.0267526674591865E+01
Ga    9.6577354982267263E+00    1.8613910784204073E+00    1.0961963296357009E+01
N    9.6587514177501514E+00    1.8668521669895255E+00    1.2886176914951495E+01
Ga    9.6632815032168562E+00    3.4123533556106775E-03    1.3572986143408773E+01
N    9.6665537457209325E+00    8.1061422551613107E-03    1.5483397974787522E+01
Ga    9.6551223931254277E+00    1.8220472681340214E+00    1.6492250075731032E+01
N    1.1265965927258630E+01    9.1698682884689398E-01    1.7435240098257793E+01
N    8.0439811664623200E+00    2.7865236975778429E+00   -8.1836348165772066E-02
Ga    8.0447256690398969E+00    4.6464249418942325E+00    5.8111134616012028E-01
N    8.0447894435093019E+00    4.6467681987966660E+00    2.5049483071435188E+00
Ga    8.0441295047238608E+00    2.7866197039788978E+00    3.1967183081453521E+00
N    8.0442130859978551E+00    2.7861570576095329E+00    5.1027544924031334E+00
Ga    8.0453354709757559E+00    4.6464478483592488E+00    5.7624513926884182E+00
N    8.0460528713138952E+00    4.6469171045495079E+00    7.6629406278116488E+00
Ga    8.0442031900870763E+00    2.7870931100413334E+00    8.3425260443455489E+00
N    8.0454588728300855E+00    2.7882908487681264E+00    1.0269702387984344E+01
Ga    8.0477962963170082E+00    4.6491978509827394E+00    1.0971401492411681E+01
N    8.0467937959018077E+00    4.6569707181390214E+00    1.2892578246155042E+01
Ga    8.0501580475426522E+00    2.7957730906762746E+00    1.3597687664408914E+01
N    8.0298818368096114E+00    2.7983844539557028E+00    1.5510640415747755E+01
Ga    8.0120255061190377E+00    4.6743112309428332E+00    1.6492026677709877E+01
N    9.6096410461676207E+00    3.6230760303645591E+00    1.7427918641509411E+01
N    6.4347056696192020E+00    5.5739601500554601E+00   -8.1867060496212368E-02
Ga    6.4354256075772582E+00    7.4338847075812327E+00    5.8092921094483396E-01
N    6.4354640182099292E+00    7.4342838013257238E+00    2.5049995578623481E+00
Ga    6.4347644733576850E+00    5.5741367346763795E+00    3.1964948680123211E+00
N    6.4347408606688106E+00    5.5739431906198851E+00    5.1026897005994725E+00
Ga    6.4353781577471283E+00    7.4340406249868014E+00    5.7631735908811121E+00
N    6.4359550463202577E+00    7.4340156284391314E+00    7.6632177964173245E+00
Ga    6.4364900451824383E+00    5.5744467400450706E+00    8.3403549428433976E+00
N    6.4374848390318471E+00    5.5749530150503164E+00    1.0267945762179679E+01
Ga    6.4363048586845455E+00    7.4357236140356351E+00    1.0966274172521469E+01
N    6.4354690006720991E+00    7.4420115944763019E+00    1.2888809301502667E+01
Ga    6.4277767225091749E+00    5.5864683539783657E+00    1.3577882546355070E+01
N    6.4122503641281590E+00    5.5816508253531874E+00    1.5496786971937427E+01
Ga    6.4321131694692513E+00    7.4456019552033039E+00    1.6528252375405760E+01
N    8.0067151336375861E+00    6.4878738273629670E+00    1.7420816317940556E+01
N    4.8254086178194555E+00    8.3613566156701502E+00   -8.1922203485670544E-02
Ga    4.8260434849388405E+00    1.0221292812129835E+01    5.8095562346676743E-01
N    4.8260336395817722E+00    1.0221589298119699E+01    2.5048373924318486E+00
Ga    4.8253432980517372E+00    8.3615872850605903E+00    3.1963487322825261E+00
N    4.8253748920022099E+00    8.3611145484906224E+00    5.1023986218472670E+00
Ga    4.8259449821633922E+00    1.0221049863770947E+01    5.7636597735359034E+00
N    4.8255886169630831E+00    1.0220808592912366E+01    7.6637690560610210E+00
Ga    4.8255991393008957E+00    8.3601783678602040E+00    8.3387271422281639E+00
N    4.8262293525778279E+00    8.3569788749432092E+00    1.0265018515290050E+01
Ga    4.8274789984276847E+00    1.0217203993347901E+01    1.0965369592573030E+01
N    4.8257781050192516E+00    1.0216846317963444E+01    1.2876816426249890E+01
Ga    4.8261251285475169E+00    8.3656808532773717E+00    1.3602873576590749E+01
N    4.8082638201325958E+00    8.3661917625077464E+00    1.5525322953926706E+01
Ga    4.8162202161790963E+00    1.0230059942486763E+01    1.6502610159549828E+01
N    6.4109891815752205E+00    9.3073565902911959E+00    1.7428264594615147E+01
H    1.2535216770498997E-06   -1.8677628753192968E-04   -1.1071702043314136E+00
H   -1.6093729057850832E+00    2.7872761122204439E+00   -1.1071449860034150E+00
H   -3.2186245892019256E+00    5.5746246902126853E+00   -1.1071656103684473E+00
H   -4.8279786666912514E+00    8.3620483422824261E+00   -1.1070990336530713E+00
H    3.2178632822306183E+00   -1.6670970040399009E-04   -1.1071834988778242E+00
H    1.6085901312885398E+00    2.7872711478985113E+00   -1.1071715379492357E+00
H   -7.6568331853817822E-04    5.5746356708501938E+00   -1.1070557484096604E+00
H   -1.6100599106094193E+00    8.3620490095053537E+00   -1.1071589820043344E+00
H    6.4357560488783045E+00   -1.4271980711424219E-04   -1.1071538693440945E+00
H    4.8264716615726906E+00    2.7872450258407522E+00   -1.1070629202036057E+00
H    3.2171211765496386E+00    5.5745797662435654E+00   -1.1071474172401010E+00
H    1.6077635654697060E+00    8.3620663994284143E+00   -1.1071373438504182E+00
H    9.6536293775715176E+00   -1.5017625680144742E-04   -1.1071524766974072E+00
H    8.0443252838844792E+00    2.7872164808012845E+00   -1.1070633174266773E+00
H    6.4349945150911969E+00    5.5746381662298674E+00   -1.1070706702405151E+00
H    4.8257358268644159E+00    8.3620466252967738E+00   -1.1071203145758641E+00
     &END COORD
     &KIND H
       BASIS_SET DZVP-MOLOPT-SR-GTH-q1
       POTENTIAL GTH-PBE-q1
       &POTENTIAL
 1
  0.2000000000000000E+00 2 -0.4178900440000000E+01  0.7244633100000000E+00
 0
         # Potential name:  GTH-PBE-Q1  for symbol:  H
         # Potential read from the potential filename: GTH_POTENTIALS
       &END POTENTIAL
     &END KIND
     &KIND N
       BASIS_SET DZVP-MOLOPT-SR-GTH
       POTENTIAL GTH-PBE-q5
       &POTENTIAL
 2 3
  0.2837905100000000E+00 2 -0.1241522559000000E+02  0.1868095920000000E+01
 2
  0.2554050000000000E+00 1  0.1363026257000000E+02
  0.2454945300000000E+00 0
         # Potential name:  GTH-PBE-Q5  for symbol:  N
         # Potential read from the potential filename: GTH_POTENTIALS
       &END POTENTIAL
     &END KIND
     &KIND Ga
       BASIS_SET DZVP-MOLOPT-SR-GTH
       POTENTIAL GTH-PBE-q13
       &POTENTIAL
 2 1 10
  0.4900000000000000E+00 0
 3
  0.4167772300000000E+00 3  0.1047568975000000E+02 -0.4921768140000000E+01  0.8707055900000000E+00
  0.7770178090000000E+01 -0.2248152160000000E+01
  0.1784415450000000E+01
  0.5696265200000000E+00 2  0.1777985340000000E+01  0.1958597600000000E+00
 -0.2317443900000000E+00
  0.2381265000000000E+00 1 -0.1624868022000000E+02
         # Potential name:  GTH-PBE-Q13  for symbol:  GA
         # Potential read from the potential filename: GTH_POTENTIALS
       &END POTENTIAL
     &END KIND
     &TOPOLOGY
       NUMBER_OF_ATOMS  256
       MULTIPLE_UNIT_CELL  1 1 1
     &END TOPOLOGY
   &END SUBSYS
 &END FORCE_EVAL
