 # Version information for this restart file 
 # current date 2019-06-09 05:01:19.420
 # current working dir /lustre03/project/6037349/rzk/GaN-carbene/444-addat/00-Surface/UKS_SYMM
 # Program compiled at                              Sun Apr  7 00:48:11 EDT 2019
 # Program compiled on                          beluga2.int.ets1.calculquebec.ca
 # Program compiled for                        Beluga-Linux-x86-64-intel-openmpi
 # Source code revision number                                         svn:18619
 &GLOBAL
   PRINT_LEVEL  MEDIUM
   PROJECT_NAME TEST
   RUN_TYPE  CELL_OPT
 &END GLOBAL
 &MOTION
   &CELL_OPT
     MAX_ITER  300
     STEP_START_VAL  19
     EXTERNAL_PRESSURE     1.0000000000000000E+00
     KEEP_ANGLES  T
     KEEP_SYMMETRY  T
     CONSTRAINT  Z
     PRESSURE_TOLERANCE     5.0000000000000000E+02
   &END CELL_OPT
 &END MOTION
 &FORCE_EVAL
   METHOD  QS
   STRESS_TENSOR  ANALYTICAL
   &DFT
     BASIS_SET_FILE_NAME BASIS_MOLOPT
     POTENTIAL_FILE_NAME GTH_POTENTIALS
     UKS  T
     SURFACE_DIPOLE_CORRECTION  T
     SURF_DIP_DIR  Z
     &SCF
       MAX_SCF  100
       EPS_SCF     5.0000000000000004E-06
       &OT  T
         PRECONDITIONER  FULL_ALL
       &END OT
       &OUTER_SCF  T
         OPTIMIZER  NONE
         EPS_SCF     5.0000000000000004E-06
         MAX_SCF  4
       &END OUTER_SCF
       &PRINT
         &RESTART  OFF
           BACKUP_COPIES  1
           &EACH
             JUST_ENERGY  0
             QS_SCF  0
             MD  20
           &END EACH
         &END RESTART
       &END PRINT
     &END SCF
     &QS
       EPS_DEFAULT     1.0000000000000000E-14
       METHOD  GPW
     &END QS
     &MGRID
       NGRIDS  5
       CUTOFF     1.2000000000000000E+03
     &END MGRID
     &XC
       DENSITY_CUTOFF     1.0000000000000000E-10
       GRADIENT_CUTOFF     1.0000000000000000E-10
       TAU_CUTOFF     1.0000000000000000E-10
       &XC_FUNCTIONAL  NO_SHORTCUT
         &PBE  T
         &END PBE
       &END XC_FUNCTIONAL
       &VDW_POTENTIAL
         POTENTIAL_TYPE  PAIR_POTENTIAL
         &PAIR_POTENTIAL
           R_CUTOFF     1.0000000000000004E+01
           TYPE  DFTD3
           PARAMETER_FILE_NAME dftd3.dat
           REFERENCE_FUNCTIONAL PBE
           EPS_CN     9.9999999999999995E-07
           CALCULATE_C9_TERM  T
           REFERENCE_C9_TERM  T
           LONG_RANGE_CORRECTION  F
           VERBOSE_OUTPUT  F
         &END PAIR_POTENTIAL
       &END VDW_POTENTIAL
     &END XC
   &END DFT
   &SUBSYS
     &CELL
       A     1.2867537755214721E+01    0.0000000000000000E+00    0.0000000000000000E+00
       B    -6.4254424049460210E+00    1.1129192706474091E+01    0.0000000000000000E+00
       C     0.0000000000000000E+00    0.0000000000000000E+00    3.2000000000000000E+01
       MULTIPLE_UNIT_CELL  1 1 1
       &CELL_REF
         A     1.2982353780853531E+01    0.0000000000000000E+00    0.0000000000000000E+00
         B    -6.4911768904267628E+00    1.1243048175136114E+01    0.0000000000000000E+00
         C     0.0000000000000000E+00    0.0000000000000000E+00    3.2000000000000000E+01
         MULTIPLE_UNIT_CELL  1 1 1
       &END CELL_REF
     &END CELL
     &COORD
N    3.4122290931087163E-04    1.1656921111547166E-04   -1.0434835839766812E-01
Ga    1.4866517638053528E-03    1.8546074979575324E+00    5.6545275583819277E-01
N    1.5753814839196613E-03    1.8550089925253503E+00    2.4665507646662430E+00
Ga    2.4328664810501941E-04   -1.2649247572796732E-04    3.1664645994967922E+00
N    2.2983547067550610E-04   -6.5251428313464060E-04    5.0636117411100061E+00
Ga    1.3291994747063212E-03    1.8545422065894990E+00    5.7420860161271552E+00
N    1.7397378921758845E-03    1.8555583846070127E+00    7.6516169203266662E+00
Ga    7.9833361618798131E-05    1.3605053145570763E-03    8.3578030171986182E+00
N   -5.3158329243099704E-05    1.9397092146373552E-03    1.0280267246847638E+01
Ga    2.2441156913841276E-03    1.8571111730999250E+00    1.0978960542847309E+01
N    2.0038830741313639E-03    1.8602896998448082E+00    1.2910196890782512E+01
Ga   -8.8814582167364949E-04   -1.4047206735734552E-04    1.3598921170335936E+01
N    1.3955661661165634E-03   -3.1886005070343726E-03    1.5522456559472992E+01
Ga    4.0101387632659191E-03    1.8705391473852215E+00    1.6600976829008523E+01
N    1.6056084385901330E+00    9.2227587424367152E-01    1.7482557022214781E+01
N   -1.6060687047485303E+00    2.7824264368904315E+00   -1.0430437876039923E-01
Ga   -1.6048468839471746E+00    4.6369477040015985E+00    5.6547040514097890E-01
N   -1.6046287965636616E+00    4.6374568203118836E+00    2.4664648562635390E+00
Ga   -1.6064353682516699E+00    2.7825653425477030E+00    3.1665113251770411E+00
N   -1.6066432953719580E+00    2.7825834981832460E+00    5.0636174498512938E+00
Ga   -1.6048592762387033E+00    4.6374061357572867E+00    5.7443907769142886E+00
N   -1.6043541860230890E+00    4.6384982351090249E+00    7.6545279390866661E+00
Ga   -1.6051105280222744E+00    2.7835996982106108E+00    8.3585577920184342E+00
N   -1.6037281283696101E+00    2.7850553879924109E+00    1.0280853806963217E+01
Ga   -1.6059089242903848E+00    4.6380675249884291E+00    1.0979733308195932E+01
N   -1.6057894615115744E+00    4.6421402225089397E+00    1.2910751215985062E+01
Ga   -1.6051826752366460E+00    2.7869094085938499E+00    1.3616282455222624E+01
N   -1.5915743336622357E+00    2.7967431257224518E+00    1.5548345496737095E+01
Ga   -1.5904758290277665E+00    4.6551254288022310E+00    1.6499125352806480E+01
N   -2.7347143208200711E-02    3.7434586032839889E+00    1.7486086289260840E+01
N   -3.2124129171745128E+00    5.5647290614144449E+00   -1.0434998654648944E-01
Ga   -3.2112110647794769E+00    7.4192466706552693E+00    5.6547247217814300E-01
N   -3.2110190013304756E+00    7.4197744222266024E+00    2.4663984254477218E+00
Ga   -3.2124281538759267E+00    5.5649909540885769E+00    3.1664198068407243E+00
N   -3.2121914650133521E+00    5.5649537767733239E+00    5.0634272303377337E+00
Ga   -3.2107199404754652E+00    7.4193238866907114E+00    5.7443004349117714E+00
N   -3.2099127206786009E+00    7.4199270123705645E+00    7.6543467174290916E+00
Ga   -3.2118106935102864E+00    5.5659955910347314E+00    8.3616740269260692E+00
N   -3.2108165697715538E+00    5.5675046828787043E+00    1.0284645720334295E+01
Ga   -3.2085779417656766E+00    7.4201448992346135E+00    1.0984722422865625E+01
N   -3.2053723135408627E+00    7.4290284505412734E+00    1.2915807747128721E+01
Ga   -3.2101002679125732E+00    5.5766838869685156E+00    1.3625821161717122E+01
N   -3.2063637810248857E+00    5.5463228535318665E+00    1.5553904471716473E+01
Ga   -3.2364489724086791E+00    7.4290849852561065E+00    1.6578667737234664E+01
N   -1.6235669535137747E+00    6.4791594140441751E+00    1.7475964021408291E+01
N   -4.8187547200049652E+00    8.3470378676289219E+00   -1.0433241283496737E-01
Ga   -4.8175651279965992E+00    1.0201492583319071E+01    5.6554004806449198E-01
N   -4.8174103100399854E+00    1.0201835678835284E+01    2.4664320298407003E+00
Ga   -4.8187179173693915E+00    8.3470814949152548E+00    3.1669594140201522E+00
N   -4.8184435711515574E+00    8.3467426446739132E+00    5.0638704587582337E+00
Ga   -4.8174814405562971E+00    1.0201031743313939E+01    5.7444757412632699E+00
N   -4.8169634173691884E+00    1.0200977746357669E+01    7.6547382574526299E+00
Ga   -4.8174013514922747E+00    8.3458144256487063E+00    8.3607452754879965E+00
N   -4.8160850445814205E+00    8.3449205051315687E+00    1.0282323430474070E+01
Ga   -4.8174767656674380E+00    1.0201119296529271E+01    1.0968180036310200E+01
N   -4.8184239045236108E+00    1.0205477385122546E+01    1.2893422503262133E+01
Ga   -4.8166100699173908E+00    8.3594628833235411E+00    1.3611557407056960E+01
N   -4.8213720769068473E+00    8.3571131770479177E+00    1.5532519932798367E+01
Ga   -4.8273718256202773E+00    1.0214604172658499E+01    1.6550559112636456E+01
N   -3.2298981299571565E+00    9.2749819123507908E+00    1.7462247866035270E+01
N    3.2171880967555815E+00    1.0323473437512864E-04   -1.0440462299689363E-01
Ga    3.2183875886153182E+00    1.8545711142453274E+00    5.6543342416611542E-01
N    3.2184815984367323E+00    1.8549127087115933E+00    2.4664159210628092E+00
Ga    3.2171798743321243E+00   -1.0184538038626042E-05    3.1668014427609177E+00
N    3.2173286459509223E+00   -5.4491876076312635E-04    5.0639854904349972E+00
Ga    3.2185861284095547E+00    1.8543536686157793E+00    5.7433088248417699E+00
N    3.2189448579204294E+00    1.8549788155236151E+00    7.6528442443579472E+00
Ga    3.2184794804219279E+00    4.8969224156556758E-04    8.3591664683068352E+00
N    3.2190862535526170E+00    1.1820988733633397E-03    1.0281352257068164E+01
Ga    3.2174509887838734E+00    1.8566841145527100E+00    1.0977645790419976E+01
N    3.2171119396776824E+00    1.8625995598224270E+00    1.2904332863089122E+01
Ga    3.2131215218977345E+00    6.9025292964854396E-03    1.3596075191040823E+01
N    3.1995556880950016E+00   -1.0428152383117041E-02    1.5517386441476203E+01
Ga    3.2164515898588402E+00    1.8786081386795987E+00    1.6601072010735916E+01
N    4.7881169496616858E+00    9.0159544410972947E-01    1.7464750795796945E+01
N    1.6108362217640686E+00    2.7824319670887840E+00   -1.0436122564961851E-01
Ga    1.6119657010967356E+00    4.6369332062693065E+00    5.6546510903615077E-01
N    1.6119122228491811E+00    4.6374066418167725E+00    2.4664419919307270E+00
Ga    1.6108740406772422E+00    2.7826207373757024E+00    3.1664286312382028E+00
N    1.6109931718806121E+00    2.7825408030749421E+00    5.0633285029225341E+00
Ga    1.6115200983013591E+00    4.6371363207800247E+00    5.7439690882741603E+00
N    1.6112621855960361E+00    4.6374793369886351E+00    7.6536560192130567E+00
Ga    1.6109174327323323E+00    2.7822197665953583E+00    8.3582540428278538E+00
N    1.6109370054741319E+00    2.7816417685307537E+00    1.0279261547485081E+01
Ga    1.6152861404319079E+00    4.6342983805666496E+00    1.0974618887681148E+01
N    1.6166464366030870E+00    4.6325646519303190E+00    1.2901217798068757E+01
Ga    1.6117286873772478E+00    2.7817403329930102E+00    1.3625103249486983E+01
N    1.6008328621964458E+00    2.7845426124080106E+00    1.5553833030101769E+01
Ga    1.6035758296456193E+00    4.6502067406860714E+00    1.6546546329093459E+01
N    3.2014125693599218E+00    3.7350845786424700E+00    1.7474309030418098E+01
N    4.4694144356313458E-03    5.5647572609832174E+00   -1.0425777845880643E-01
Ga    5.6442393613422206E-03    7.4192193253862255E+00    5.6550941626819229E-01
N    5.7111934153477213E-03    7.4196188329923922E+00    2.4664402774600926E+00
Ga    4.3838333802859331E-03    5.5651041912779844E+00    3.1669369727465750E+00
N    4.3449518726658698E-03    5.5653138293350661E+00    5.0640813872139772E+00
Ga    5.5064558419571329E-03    7.4194734074186419E+00    5.7457873458010065E+00
N    5.7793779459917915E-03    7.4201654186036121E+00    7.6561559826372028E+00
Ga    4.4419055704002629E-03    5.5657125335311237E+00    8.3627935791949053E+00
N    5.3822570366786945E-03    5.5666084410924173E+00    1.0285735797178418E+01
Ga    7.5952860077515656E-03    7.4241402342049785E+00    1.0975738529693531E+01
N    1.0177672089763884E-02    7.4302687501173148E+00    1.2902650206555601E+01
Ga    1.3252362879588288E-02    5.5729358058838185E+00    1.3589303640609382E+01
N    1.8023780296128469E-02    5.5669998780197965E+00    1.5504223378298144E+01
Ga    6.2062889259027363E-03    7.3797201305801021E+00    1.6536440328092780E+01
N    1.6066592860789055E+00    6.4831439851465493E+00    1.7488565503772133E+01
N   -1.6018628694230985E+00    8.3470219016057126E+00   -1.0435718826254742E-01
Ga   -1.6007214315982885E+00    1.0201498968441401E+01    5.6543716203851480E-01
N   -1.6006294549749653E+00    1.0201792089807956E+01    2.4664016482881244E+00
Ga   -1.6017998516887426E+00    8.3470425931384504E+00    3.1669072276716257E+00
N   -1.6014487999830291E+00    8.3467475276601899E+00    5.0640472042074691E+00
Ga   -1.6001976083884843E+00    1.0201034808969041E+01    5.7446293055207427E+00
N   -1.5993556890012859E+00    1.0201599585256897E+01    7.6547720173897220E+00
Ga   -1.6019250740754698E+00    8.3477173182546238E+00    8.3627852429994913E+00
N   -1.6013156161346416E+00    8.3491983633760469E+00    1.0285597517895097E+01
Ga   -1.5972952940405289E+00    1.0205027037348357E+01    1.0979774688011155E+01
N   -1.5940300957588607E+00    1.0211351229971859E+01    1.2909996863609384E+01
Ga   -1.5937124547972983E+00    8.3583825000027865E+00    1.3617512231685600E+01
N   -1.6032196234264624E+00    8.3421335647289609E+00    1.5544701174897964E+01
Ga   -1.6206280773193908E+00    1.0208548593738525E+01    1.6556548476730846E+01
N   -4.8567619580302278E-02    9.1765489230825619E+00    1.7494293301777684E+01
N    6.4340565573291242E+00    1.3891781114661864E-04   -1.0437688604856633E-01
Ga    6.4352822340452303E+00    1.8546089624505078E+00    5.6560649256878437E-01
N    6.4354401755046355E+00    1.8549930597496456E+00    2.4664669710820761E+00
Ga    6.4339702831481000E+00    7.3682195030462310E-05    3.1663987250546395E+00
N    6.4339892709609607E+00   -2.8045765378751308E-04    5.0635050629748930E+00
Ga    6.4357730117808458E+00    1.8543580647927078E+00    5.7439760862207754E+00
N    6.4367518127923704E+00    1.8552571998915166E+00    7.6538562253742466E+00
Ga    6.4350166031986999E+00    1.4514476200261231E-03    8.3607712394149498E+00
N    6.4360111711001142E+00    3.1239843503618678E-03    1.0283636641106343E+01
Ga    6.4378018924041758E+00    1.8567753744369679E+00    1.0982366050598134E+01
N    6.4388579160401367E+00    1.8647691837922551E+00    1.2912244492383277E+01
Ga    6.4395318693306391E+00    1.3805892487908715E-02    1.3625184106840303E+01
N    6.4390139448705863E+00   -2.3458287724009184E-02    1.5552860731896285E+01
Ga    6.4046538212544597E+00    1.8674389814525199E+00    1.6581940152921852E+01
N    8.0170346315423355E+00    9.1669561140628597E-01    1.7464014540840317E+01
N    4.8277298552704160E+00    2.7824048070380414E+00   -1.0426701689050988E-01
Ga    4.8289085471660282E+00    4.6369068602035579E+00    5.6561737178771476E-01
N    4.8289851001984871E+00    4.6373030670983031E+00    2.4664758052686255E+00
Ga    4.8277222240053401E+00    2.7824516242621633E+00    3.1666584381572047E+00
N    4.8278795280715165E+00    2.7821123272498745E+00    5.0636812415389665E+00
Ga    4.8291318798256606E+00    4.6368023335034509E+00    5.7447089457011487E+00
N    4.8297255385215081E+00    4.6370820938561579E+00    7.6547508596719194E+00
Ga    4.8289100171203234E+00    2.7811897162747581E+00    8.3601809824094104E+00
N    4.8290132943216451E+00    2.7808164930763546E+00    1.0281773362856123E+01
Ga    4.8288455776417303E+00    4.6376387484001107E+00    1.0970093860696629E+01
N    4.8265375839761084E+00    4.6436900610199112E+00    1.2894484263789687E+01
Ga    4.8267607010347175E+00    2.7939121163862368E+00    1.3610786703455853E+01
N    4.8263617576872644E+00    2.7923584607787211E+00    1.5533619432012767E+01
Ga    4.8239231583877373E+00    4.6512151568071154E+00    1.6541117493776294E+01
N    6.4249494008045884E+00    3.7130163957222919E+00    1.7473796644074735E+01
N    3.2213467582487336E+00    5.5646886915633837E+00   -1.0433327571540940E-01
Ga    3.2224976276824209E+00    7.4192361034297081E+00    5.6546768792613467E-01
N    3.2225101180997324E+00    7.4197140825535151E+00    2.4664168659171426E+00
Ga    3.2212132944621970E+00    5.5647700834500675E+00    3.1666672657506321E+00
N    3.2211152598691553E+00    5.5644920789477448E+00    5.0636518632971841E+00
Ga    3.2220730759824567E+00    7.4195903895505220E+00    5.7427236081192339E+00
N    3.2218927198645075E+00    7.4202702271655054E+00    7.6520710076371721E+00
Ga    3.2208275509828175E+00    5.5662475704572616E+00    8.3579344766774444E+00
N    3.2209815753883406E+00    5.5669270793658807E+00    1.0279008110036653E+01
Ga    3.2234860735996795E+00    7.4206458170906169E+00    1.0979918291198933E+01
N    3.2229225819889482E+00    7.4256715196548448E+00    1.2910403372660580E+01
Ga    3.2211825160880463E+00    5.5681743240970993E+00    1.3604426411500533E+01
N    3.2182414807229360E+00    5.5695867754928621E+00    1.5524864539069204E+01
Ga    3.2221187040374066E+00    7.4240587755336955E+00    1.6597939424411326E+01
N    4.8251359787424635E+00    6.4731514994169155E+00    1.7484276271603171E+01
N    1.6149392983579460E+00    8.3470180603539390E+00   -1.0436312543109709E-01
Ga    1.6161982611870955E+00    1.0201522436796408E+01    5.6546180711606386E-01
N    1.6163179793279041E+00    1.0201905580193975E+01    2.4663740349510501E+00
Ga    1.6146284093451395E+00    8.3471582498779320E+00    3.1667203821438572E+00
N    1.6141611852468738E+00    8.3469534069805249E+00    5.0637902397412535E+00
Ga    1.6159841137634914E+00    1.0201387065305655E+01    5.7441692005943779E+00
N    1.6162248216736113E+00    1.0201918723736291E+01    7.6542397884185567E+00
Ga    1.6156013286169615E+00    8.3479539728809851E+00    8.3607813936843680E+00
N    1.6166596489239056E+00    8.3485806402026359E+00    1.0282682546698252E+01
Ga    1.6163480297172783E+00    1.0202875548427023E+01    1.0978275784941589E+01
N    1.6183713965978237E+00    1.0207172720076832E+01    1.2908391102890077E+01
Ga    1.6154935195830158E+00    8.3527732149152136E+00    1.3616476699089162E+01
N    1.6182573442483073E+00    8.3659273307260520E+00    1.5548364048291630E+01
Ga    1.6325083507339551E+00    1.0216866244015709E+01    1.6502852215940422E+01
N    3.1912001824801530E+00    9.2910614116191965E+00    1.7480196807143212E+01
N    9.6509492925973905E+00    1.4139095769273317E-04   -1.0440078541204847E-01
Ga    9.6521158673511565E+00    1.8545644815416467E+00    5.6552419079735705E-01
N    9.6522072190261206E+00    1.8548914098255196E+00    2.4664026072520002E+00
Ga    9.6508602920316662E+00    2.2013273290068892E-04    3.1670137118809620E+00
N    9.6508226576715916E+00   -9.8876731891954048E-06    5.0641303874540853E+00
Ga    9.6519456697414299E+00    1.8545029271164957E+00    5.7448549073899526E+00
N    9.6520189790911335E+00    1.8553987366252536E+00    7.6549068675098644E+00
Ga    9.6507158175437162E+00    4.7922359460685781E-04    8.3603321179371886E+00
N    9.6519625146563719E+00    1.2575623864652223E-03    1.0282521597963376E+01
Ga    9.6550923288059316E+00    1.8586555594815291E+00    1.0975787929980061E+01
N    9.6557134166955532E+00    1.8662204713625161E+00    1.2902336163206074E+01
Ga    9.6604828959806142E+00    9.4602389982999177E-03    1.3588950378550308E+01
N    9.6639941514292271E+00    4.2338860649922096E-03    1.5505689091834464E+01
Ga    9.6518233230100616E+00    1.8142563034596124E+00    1.6541342964380309E+01
N    1.1265381427475202E+01    9.1095719770713668E-01    1.7481043629527168E+01
N    8.0445982867922687E+00    2.7824077152122531E+00   -1.0424210199413374E-01
Ga    8.0457843281437320E+00    4.6368917791011279E+00    5.6557566792769987E-01
N    8.0459521111119319E+00    4.6372708483939595E+00    2.4664888082535041E+00
Ga    8.0447047166803216E+00    2.7823968637045398E+00    3.1668886440524107E+00
N    8.0449309815053276E+00    2.7820797251923297E+00    5.0637503558084003E+00
Ga    8.0462608986406128E+00    4.6367570195844143E+00    5.7440026464428176E+00
N    8.0471381873014050E+00    4.6372205343284127E+00    7.6540739143485652E+00
Ga    8.0447016378833336E+00    2.7836136038256059E+00    8.3630599951061839E+00
N    8.0456169914958053E+00    2.7851793556653868E+00    1.0285069275304080E+01
Ga    8.0488325026750420E+00    4.6402702212285787E+00    1.0981712865521446E+01
N    8.0489203347413376E+00    4.6501061751334944E+00    1.2911231523370818E+01
Ga    8.0487246196946476E+00    2.7958338583565530E+00    1.3613526132940676E+01
N    8.0280573088880161E+00    2.7897587623812750E+00    1.5544622859527564E+01
Ga    8.0195748118645689E+00    4.6593645755792865E+00    1.6547924752222254E+01
N    9.6072661570514857E+00    3.6157686163438725E+00    1.7470146883297204E+01
N    6.4382446579815040E+00    5.5647168891781975E+00   -1.0425695430964446E-01
Ga    6.4394439259516938E+00    7.4192307116398863E+00    5.6554296603994869E-01
N    6.4395837764683774E+00    7.4197056900497405E+00    2.4663696214960051E+00
Ga    6.4382161661567450E+00    5.5648351471784974E+00    3.1668241360743274E+00
N    6.4383343157657018E+00    5.5645249702903836E+00    5.0637078330655374E+00
Ga    6.4397440266900787E+00    7.4190435988352741E+00    5.7435217971590662E+00
N    6.4407064063765489E+00    7.4191649312246364E+00    7.6531994008569315E+00
Ga    6.4402378706481711E+00    5.5650932153145600E+00    8.3604583313232084E+00
N    6.4406924659943661E+00    5.5664274372149549E+00    1.0281977593847422E+01
Ga    6.4402773425109512E+00    7.4220211705262837E+00    1.0977434329182209E+01
N    6.4394814239950033E+00    7.4316899131312697E+00    1.2904259486923547E+01
Ga    6.4306985019556038E+00    5.5775032664535971E+00    1.3595850492924306E+01
N    6.4173098871240057E+00    5.5646619985861641E+00    1.5513413845156505E+01
Ga    6.4375737539483024E+00    7.4345420698750351E+00    1.6584861794535055E+01
N    8.0104563353976115E+00    6.4710643517959676E+00    1.7466591503978464E+01
N    4.8318806690006735E+00    8.3470250713725545E+00   -1.0435583054194437E-01
Ga    4.8330089043639424E+00    1.0201536182104212E+01    5.6541334312243674E-01
N    4.8330322734323392E+00    1.0201957547702477E+01    2.4662989038761043E+00
Ga    4.8318653872416544E+00    8.3471882318556112E+00    3.1664807196808122E+00
N    4.8319495067878906E+00    8.3468959580840156E+00    5.0634569019973430E+00
Ga    4.8327436299018407E+00    1.0201238105679138E+01    5.7441881721960373E+00
N    4.8326340685546301E+00    1.0201263485794184E+01    7.6539224367160621E+00
Ga    4.8321671795095131E+00    8.3455918547603503E+00    8.3570236362285346E+00
N    4.8323672560849102E+00    8.3442646651384891E+00    1.0278344197608256E+01
Ga    4.8347207292672323E+00    1.0197635542746445E+01    1.0969068063922297E+01
N    4.8346921845973920E+00    1.0198973661474344E+01    1.2897272837016065E+01
Ga    4.8317672037965655E+00    8.3518373326350250E+00    1.3621523431287349E+01
N    4.8191369886886317E+00    8.3510562803538413E+00    1.5549882735517885E+01
Ga    4.8214670604786152E+00    1.0207963047491608E+01    1.6553282483438657E+01
N    6.4208472992302070E+00    9.2921060540277267E+00    1.7468570013440399E+01
H   -1.8590440934320267E-06   -3.1158962330676067E-04   -1.1302811170223181E+00
H   -1.6064552212894547E+00    2.7820422379741623E+00   -1.1302037945649772E+00
H   -3.2127319631085505E+00    5.5642416398529786E+00   -1.1302758897548455E+00
H   -4.8191292707429749E+00    8.3465722227225712E+00   -1.1302585924199082E+00
H    3.2168288419010138E+00   -2.9853787035603299E-04   -1.1303544971039057E+00
H    1.6105212555828547E+00    2.7820417544236467E+00   -1.1302748135721243E+00
H    4.1182422235330274E-03    5.5642882838311314E+00   -1.1301501433427652E+00
H   -1.6021870725098373E+00    8.3465531423470178E+00   -1.1302523790758872E+00
H    6.4337264175686677E+00   -2.3948135989723934E-04   -1.1303050519565647E+00
H    4.8274236026532416E+00    2.7820027876702160E+00   -1.1301812973243075E+00
H    3.2210088894995548E+00    5.5641858710365737E+00   -1.1302526648947515E+00
H    1.6145665884895872E+00    8.3465726292408107E+00   -1.1302745689161586E+00
H    9.6506005970144564E+00   -2.4926845883995228E-04   -1.1303250592510001E+00
H    8.0442480316669016E+00    2.7819719532060647E+00   -1.1301384755563857E+00
H    6.4378828956252416E+00    5.5642644256068783E+00   -1.1301829902393923E+00
H    4.8315863997722550E+00    8.3465626770613977E+00   -1.1302771872113058E+00
     &END COORD
     &KIND H
       BASIS_SET DZVP-MOLOPT-SR-GTH-q1
       POTENTIAL GTH-PBE-q1
       &POTENTIAL
 1
  0.2000000000000000E+00 2 -0.4178900440000000E+01  0.7244633100000000E+00
 0
         # Potential name:  GTH-PBE-Q1  for symbol:  H
         # Potential read from the potential filename: GTH_POTENTIALS
       &END POTENTIAL
     &END KIND
     &KIND N
       BASIS_SET DZVP-MOLOPT-SR-GTH
       POTENTIAL GTH-PBE-q5
       &POTENTIAL
 2 3
  0.2837905100000000E+00 2 -0.1241522559000000E+02  0.1868095920000000E+01
 2
  0.2554050000000000E+00 1  0.1363026257000000E+02
  0.2454945300000000E+00 0
         # Potential name:  GTH-PBE-Q5  for symbol:  N
         # Potential read from the potential filename: GTH_POTENTIALS
       &END POTENTIAL
     &END KIND
     &KIND Ga
       BASIS_SET DZVP-MOLOPT-SR-GTH
       POTENTIAL GTH-PBE-q13
       &POTENTIAL
 2 1 10
  0.4900000000000000E+00 0
 3
  0.4167772300000000E+00 3  0.1047568975000000E+02 -0.4921768140000000E+01  0.8707055900000000E+00
  0.7770178090000000E+01 -0.2248152160000000E+01
  0.1784415450000000E+01
  0.5696265200000000E+00 2  0.1777985340000000E+01  0.1958597600000000E+00
 -0.2317443900000000E+00
  0.2381265000000000E+00 1 -0.1624868022000000E+02
         # Potential name:  GTH-PBE-Q13  for symbol:  GA
         # Potential read from the potential filename: GTH_POTENTIALS
       &END POTENTIAL
     &END KIND
     &TOPOLOGY
       NUMBER_OF_ATOMS  256
       MULTIPLE_UNIT_CELL  1 1 1
     &END TOPOLOGY
   &END SUBSYS
 &END FORCE_EVAL
