 # Version information for this restart file 
 # current date 2019-06-09 04:57:18.680
 # current working dir /lustre03/project/6037349/rzk/GaN-carbene/444-addat/00-Surface/UKS_SYMM
 # Program compiled at                              Sun Apr  7 00:48:11 EDT 2019
 # Program compiled on                          beluga2.int.ets1.calculquebec.ca
 # Program compiled for                        Beluga-Linux-x86-64-intel-openmpi
 # Source code revision number                                         svn:18619
 &GLOBAL
   PRINT_LEVEL  MEDIUM
   PROJECT_NAME TEST
   RUN_TYPE  CELL_OPT
 &END GLOBAL
 &MOTION
   &CELL_OPT
     MAX_ITER  300
     STEP_START_VAL  18
     EXTERNAL_PRESSURE     1.0000000000000000E+00
     KEEP_ANGLES  T
     KEEP_SYMMETRY  T
     CONSTRAINT  Z
     PRESSURE_TOLERANCE     5.0000000000000000E+02
   &END CELL_OPT
 &END MOTION
 &FORCE_EVAL
   METHOD  QS
   STRESS_TENSOR  ANALYTICAL
   &DFT
     BASIS_SET_FILE_NAME BASIS_MOLOPT
     POTENTIAL_FILE_NAME GTH_POTENTIALS
     UKS  T
     SURFACE_DIPOLE_CORRECTION  T
     SURF_DIP_DIR  Z
     &SCF
       MAX_SCF  100
       EPS_SCF     5.0000000000000004E-06
       &OT  T
         PRECONDITIONER  FULL_ALL
       &END OT
       &OUTER_SCF  T
         OPTIMIZER  NONE
         EPS_SCF     5.0000000000000004E-06
         MAX_SCF  4
       &END OUTER_SCF
       &PRINT
         &RESTART  OFF
           BACKUP_COPIES  1
           &EACH
             JUST_ENERGY  0
             QS_SCF  0
             MD  20
           &END EACH
         &END RESTART
       &END PRINT
     &END SCF
     &QS
       EPS_DEFAULT     1.0000000000000000E-14
       METHOD  GPW
     &END QS
     &MGRID
       NGRIDS  5
       CUTOFF     1.2000000000000000E+03
     &END MGRID
     &XC
       DENSITY_CUTOFF     1.0000000000000000E-10
       GRADIENT_CUTOFF     1.0000000000000000E-10
       TAU_CUTOFF     1.0000000000000000E-10
       &XC_FUNCTIONAL  NO_SHORTCUT
         &PBE  T
         &END PBE
       &END XC_FUNCTIONAL
       &VDW_POTENTIAL
         POTENTIAL_TYPE  PAIR_POTENTIAL
         &PAIR_POTENTIAL
           R_CUTOFF     1.0000000000000004E+01
           TYPE  DFTD3
           PARAMETER_FILE_NAME dftd3.dat
           REFERENCE_FUNCTIONAL PBE
           EPS_CN     9.9999999999999995E-07
           CALCULATE_C9_TERM  T
           REFERENCE_C9_TERM  T
           LONG_RANGE_CORRECTION  F
           VERBOSE_OUTPUT  F
         &END PAIR_POTENTIAL
       &END VDW_POTENTIAL
     &END XC
   &END DFT
   &SUBSYS
     &CELL
       A     1.2871836495568376E+01    0.0000000000000000E+00    0.0000000000000000E+00
       B    -6.4302409950329409E+00    1.1137504108309331E+01    0.0000000000000000E+00
       C     0.0000000000000000E+00    0.0000000000000000E+00    3.2000000000000000E+01
       MULTIPLE_UNIT_CELL  1 1 1
       &CELL_REF
         A     1.2982353780853531E+01    0.0000000000000000E+00    0.0000000000000000E+00
         B    -6.4911768904267628E+00    1.1243048175136114E+01    0.0000000000000000E+00
         C     0.0000000000000000E+00    0.0000000000000000E+00    3.2000000000000000E+01
         MULTIPLE_UNIT_CELL  1 1 1
       &END CELL_REF
     &END CELL
     &COORD
N    1.6734212896397588E-04   -1.4823162915210197E-04   -9.8357582751536513E-02
Ga    1.1776554368154231E-03    1.8562350743226277E+00    5.7049295223315888E-01
N    1.3141166633738495E-03    1.8567306713034533E+00    2.4788300942410668E+00
Ga    6.2906785728880394E-05   -3.7545783282661485E-04    3.1760086572407622E+00
N   -1.4253383605276959E-05   -9.9274122725679140E-04    5.0739933644633126E+00
Ga    1.0447387066000700E-03    1.8561895116619471E+00    5.7438235515312712E+00
N    1.4600877062813540E-03    1.8572901348041679E+00    7.6497323295694581E+00
Ga   -1.2848065182347615E-04    9.4698335028015859E-04    8.3507299608976453E+00
N   -2.9754555923749651E-04    1.3920112602114380E-03    1.0276495642973311E+01
Ga    1.7411843906231541E-03    1.8587153366241835E+00    1.0977282423086624E+01
N    1.5572906826611444E-03    1.8627973750806071E+00    1.2904308036488416E+01
Ga   -1.9452301298134903E-03   -1.1492756204598640E-03    1.3592917574328146E+01
N    9.5753554979567418E-04   -4.8876310749860347E-03    1.5513311809430762E+01
Ga    3.7302335593115310E-03    1.8710952076439018E+00    1.6588551505821790E+01
N    1.6076047200651380E+00    9.2311802685579536E-01    1.7476043340938190E+01
N   -1.6074268698034746E+00    2.7842442582956117E+00   -9.8314380375768382E-02
Ga   -1.6063615314258306E+00    4.6406666851260816E+00    5.7050359923999627E-01
N   -1.6061331891046309E+00    4.6412272895592883E+00    2.4787941241675959E+00
Ga   -1.6077683876726085E+00    2.7843297258416420E+00    3.1760512898834379E+00
N   -1.6080501405374432E+00    2.7842807877472326E+00    5.0740112945804787E+00
Ga   -1.6063076763298774E+00    4.6411442273779704E+00    5.7459482343066632E+00
N   -1.6059093122485408E+00    4.6422330869855477E+00    7.6525751691938737E+00
Ga   -1.6066262969092544E+00    2.7852478878416966E+00    8.3515019019689927E+00
N   -1.6058464822286171E+00    2.7862870792405179E+00    1.0277146001650591E+01
Ga   -1.6072666781779097E+00    4.6417996089963731E+00    1.0978336245784027E+01
N   -1.6071882031262932E+00    4.6451213424194515E+00    1.2903856749091284E+01
Ga   -1.6061385867168905E+00    2.7886487200403867E+00    1.3609501116407079E+01
N   -1.5929229549480532E+00    2.7980657917755560E+00    1.5540950184134088E+01
Ga   -1.5899811303206726E+00    4.6602674927743335E+00    1.6487778771370220E+01
N   -2.8231589566579431E-02    3.7473857156915140E+00    1.7480399986213943E+01
N   -3.2149755956685078E+00    5.5686057823329156E+00   -9.8359629675040694E-02
Ga   -3.2139345261898336E+00    7.4250408343609315E+00    5.7050174629267003E-01
N   -3.2137503620730881E+00    7.4256044936978061E+00    2.4787377374054742E+00
Ga   -3.2150046200838442E+00    5.5688416573594601E+00    3.1759712536887452E+00
N   -3.2148561767699610E+00    5.5688128662287619E+00    5.0738172807538096E+00
Ga   -3.2133325559848811E+00    7.4251776057046968E+00    5.7460496517605728E+00
N   -3.2126359569130112E+00    7.4257865898799809E+00    7.6523991096379991E+00
Ga   -3.2144085750779938E+00    5.5698816033819325E+00    8.3544626382585321E+00
N   -3.2140792002996381E+00    5.5711219697938175E+00    1.0280914744720633E+01
Ga   -3.2111403455964656E+00    7.4259621017414306E+00    1.0982425059110545E+01
N   -3.2084212445977296E+00    7.4348147291105890E+00    1.2910047543433571E+01
Ga   -3.2121291109741796E+00    5.5803452254126480E+00    1.3621654724584552E+01
N   -3.2098699088407416E+00    5.5511770603748447E+00    1.5546191985077387E+01
Ga   -3.2392521050702614E+00    7.4365740959408013E+00    1.6567476004823249E+01
N   -1.6252315816528571E+00    6.4854693670563464E+00    1.7471087936058911E+01
N   -4.8225334928319299E+00    8.3529893238013404E+00   -9.8327851449370646E-02
Ga   -4.8214712768889818E+00    1.0209371120624724E+01    5.7057008881954463E-01
N   -4.8212917903859545E+00    1.0209751813485889E+01    2.4787996750591610E+00
Ga   -4.8224909067308257E+00    8.3530017340778819E+00    3.1764300018671681E+00
N   -4.8223202358943036E+00    8.3526011838723218E+00    5.0743633111248565E+00
Ga   -4.8214074327764234E+00    1.0209088817125958E+01    5.7463288061495659E+00
N   -4.8208361509698632E+00    1.0208887118376703E+01    7.6527990860601243E+00
Ga   -4.8213220755235255E+00    8.3517564833442464E+00    8.3535403831358757E+00
N   -4.8202990298328547E+00    8.3502538115634550E+00    1.0279308937365757E+01
Ga   -4.8213563175125511E+00    1.0208897393666332E+01    1.0966991101905640E+01
N   -4.8217350280596207E+00    1.0212531411250030E+01    1.2887459947157877E+01
Ga   -4.8200645939137035E+00    8.3655762557700051E+00    1.3605538836540170E+01
N   -4.8237745934578982E+00    8.3638324246861426E+00    1.5524690749912052E+01
Ga   -4.8315348018541977E+00    1.0222501875950805E+01    1.6540562320875878E+01
N   -3.2315316380826458E+00    9.2823507416939179E+00    1.7455509035269717E+01
N    3.2181017856166521E+00   -1.4965811747688919E-04   -9.8404044568536492E-02
Ga    3.2191484568383477E+00    1.8561976796123656E+00    5.7043200484622658E-01
N    3.2193038328141550E+00    1.8566579651021549E+00    2.4787528702378658E+00
Ga    3.2180645624814956E+00   -2.8996115678439746E-04    3.1763374026927784E+00
N    3.2182062675568233E+00   -8.2877957214126891E-04    5.0743709287899819E+00
Ga    3.2192849856413845E+00    1.8560018271583900E+00    5.7450504785460907E+00
N    3.2197056327336129E+00    1.8566582808848866E+00    7.6512455968068283E+00
Ga    3.2192785450360533E+00    1.1059540724400478E-04    8.3518678266257158E+00
N    3.2198356983979561E+00    9.7142834146031508E-04    1.0277828243930349E+01
Ga    3.2182561834493297E+00    1.8577027695274251E+00    1.0973887981208954E+01
N    3.2178146848355231E+00    1.8644814708158388E+00    1.2899705264745547E+01
Ga    3.2135407348365796E+00    5.3099005335115095E-03    1.3589216522173242E+01
N    3.2001959954833388E+00   -1.0632698544191202E-02    1.5509040772998313E+01
Ga    3.2176831043777407E+00    1.8792572887658519E+00    1.6590263735669769E+01
N    4.7873729609928981E+00    9.0104532348607602E-01    1.7456533997778632E+01
N    1.6105568694813384E+00    2.7842424167513431E+00   -9.8364205780766031E-02
Ga    1.6115291325056025E+00    4.6406468483309959E+00    5.7050125874088986E-01
N    1.6115586985243351E+00    4.6411721771049113E+00    2.4787824166037145E+00
Ga    1.6105290948704101E+00    2.7843754263600182E+00    3.1760586199399428E+00
N    1.6107062926745450E+00    2.7843385669871417E+00    5.0738963010147193E+00
Ga    1.6110448552148586E+00    4.6408633661506498E+00    5.7457214000275485E+00
N    1.6110012942818606E+00    4.6412971802745684E+00    7.6520036822419675E+00
Ga    1.6106177006702789E+00    2.7839681323714971E+00    8.3510487992063389E+00
N    1.6111846510375638E+00    2.7839272973951035E+00    1.0276221962452507E+01
Ga    1.6142410773417566E+00    4.6381348432850755E+00    1.0970829276163187E+01
N    1.6167868045998499E+00    4.6364346656729296E+00    1.2896365587878535E+01
Ga    1.6110322951026876E+00    2.7830506654480041E+00    1.3618322922604408E+01
N    1.5994737588136909E+00    2.7848550898648963E+00    1.5545848042729752E+01
Ga    1.6035271096626156E+00    4.6546792042342586E+00    1.6534956375118469E+01
N    3.2006589787642747E+00    3.7375717030635429E+00    1.7467977751611688E+01
N    2.9797171174903081E-03    5.5686415347412579E+00   -9.8252579779082319E-02
Ga    4.0160002799244825E-03    7.4250110323948668E+00    5.7056232605153989E-01
N    4.1627464636361591E-03    7.4254820760206552E+00    2.4787836337933515E+00
Ga    2.8644319722801658E-03    5.5689127514679395E+00    3.1764921917392090E+00
N    2.9110090313719489E-03    5.5691004159180775E+00    5.0744993404413927E+00
Ga    3.8651036988955217E-03    7.4252989946579060E+00    5.7476310030516631E+00
N    4.2552989531546119E-03    7.4260925246913603E+00    7.6543326026048515E+00
Ga    2.9049828254707937E-03    5.5696588555134925E+00    8.3551245187393288E+00
N    4.5050157481204521E-03    5.5704178405890712E+00    1.0282419532829532E+01
Ga    5.7415400187618816E-03    7.4298247280887217E+00    1.0974577110744999E+01
N    9.0102408044577947E-03    7.4352443486008299E+00    1.2897164144493772E+01
Ga    1.0943199509882815E-02    5.5769492762320230E+00    1.3580438220515324E+01
N    1.7460347379510278E-02    5.5710515789826767E+00    1.5498679518402492E+01
Ga    5.2423217472100381E-03    7.3864957120051775E+00    1.6524327041256637E+01
N    1.6046037671993163E+00    6.4880542673879340E+00    1.7482680855902846E+01
N   -1.6045486931383492E+00    8.3529855291366708E+00   -9.8356867932720346E-02
Ga   -1.6035619878486822E+00    1.0209388258053572E+01    5.7046930276335506E-01
N   -1.6033985651472171E+00    1.0209792611601451E+01    2.4787303770115949E+00
Ga   -1.6045367606700476E+00    8.3529557110595416E+00    3.1764718711156519E+00
N   -1.6042222262165624E+00    8.3526869036462319E+00    5.0744378629938938E+00
Ga   -1.6030239349512387E+00    1.0208928598484853E+01    5.7463336882799814E+00
N   -1.6021219711884511E+00    1.0209517641358586E+01    7.6528144459045562E+00
Ga   -1.6045686117380971E+00    8.3534968940085612E+00    8.3558838547069723E+00
N   -1.6040814894334832E+00    8.3546736929436332E+00    1.0282058821192896E+01
Ga   -1.6001990526891010E+00    1.0212765725353901E+01    1.0977736067197414E+01
N   -1.5971620201934156E+00    1.0219355623046717E+01    1.2903635909158508E+01
Ga   -1.5968015208607891E+00    8.3646043898359537E+00    1.3611288543024120E+01
N   -1.6044981795182114E+00    8.3487139168989408E+00    1.5536752008256601E+01
Ga   -1.6243833329269137E+00    1.0218469363066488E+01    1.6546031425857940E+01
N   -5.0308652402345957E-02    9.1788536436653825E+00    1.7489480208399321E+01
N    6.4360547341321661E+00   -1.1110773934429468E-04   -9.8377946429271515E-02
Ga    6.4371028516342657E+00    1.8562235277187662E+00    5.7055780862322247E-01
N    6.4373101851263357E+00    1.8567082960104979E+00    2.4788722884419609E+00
Ga    6.4358958197303551E+00   -2.5813702711513785E-04    3.1759660219974597E+00
N    6.4359663115043739E+00   -6.0488423694353194E-04    5.0738758956691186E+00
Ga    6.4375670119490236E+00    1.8558982325306552E+00    5.7454673309013353E+00
N    6.4385856487196067E+00    1.8567468332315638E+00    7.6519886747991652E+00
Ga    6.4369383561487652E+00    8.8737606626511931E-04    8.3537081252750056E+00
N    6.4380590529446184E+00    2.7288367864621538E-03    1.0280017300137180E+01
Ga    6.4394594540288077E+00    1.8578365118456981E+00    1.0980380573762414E+01
N    6.4409127967679014E+00    1.8667290911862076E+00    1.2906458229355056E+01
Ga    6.4416463415296183E+00    1.2943563233116351E-02    1.3618243298898266E+01
N    6.4424273438457975E+00   -2.0747180081100318E-02    1.5546077585004729E+01
Ga    6.4055941476932263E+00    1.8698435731934633E+00    1.6570781819434249E+01
N    8.0201602599481738E+00    9.1890225334371922E-01    1.7457399492077833E+01
N    4.8285257718622390E+00    2.7842156278925776E+00   -9.8269016603398998E-02
Ga    4.8295339990872268E+00    4.6406144203131037E+00    5.7058490083365176E-01
N    4.8296868796703247E+00    4.6410864445785087E+00    2.4788778462577903E+00
Ga    4.8284277358351915E+00    2.7841758610828942E+00    3.1761762945812406E+00
N    4.8285938587642745E+00    2.7838755799022907E+00    5.0741485776941850E+00
Ga    4.8297113015970208E+00    4.6405641300817315E+00    5.7460731050360998E+00
N    4.8302912304572736E+00    4.6410075375794406E+00    7.6529366664091558E+00
Ga    4.8295406468146949E+00    2.7827972328737181E+00    8.3526257135309603E+00
N    4.8295791743482939E+00    2.7824134333732515E+00    1.0278958249212376E+01
Ga    4.8298404203960699E+00    4.6411296409064802E+00    1.0965638163262710E+01
N    4.8273390207153328E+00    4.6473274006663559E+00    1.2889864069679447E+01
Ga    4.8271563349400326E+00    2.7950715561144848E+00    1.3601560791967300E+01
N    4.8272961088875963E+00    2.7960038292065530E+00    1.5526076455474771E+01
Ga    4.8252767809375898E+00    4.6544312949593243E+00    1.6529647283521236E+01
N    6.4274277399612005E+00    3.7168633162007767E+00    1.7468956602740654E+01
N    3.2209462192343965E+00    5.5685800912012313E+00   -9.8340854339467459E-02
Ga    3.2219256081376226E+00    7.4250308050580536E+00    5.7042800314872510E-01
N    3.2220410061202456E+00    7.4255822451461677E+00    2.4787643444083511E+00
Ga    3.2207073358945379E+00    5.5686128744074352E+00    3.1760822781131313E+00
N    3.2206432046747002E+00    5.5684178246561231E+00    5.0741400242918422E+00
Ga    3.2215622985819965E+00    7.4255229311525834E+00    5.7445004529637718E+00
N    3.2214764917767584E+00    7.4261816683110489E+00    7.6504297445082736E+00
Ga    3.2201562405505846E+00    5.5701391144841663E+00    8.3505398773776172E+00
N    3.2203413586212015E+00    5.5705205872491836E+00    1.0276076904362890E+01
Ga    3.2227984767191962E+00    7.4270079185764679E+00    1.0977123971068558E+01
N    3.2227672362541018E+00    7.4305111333763110E+00    1.2905317882670676E+01
Ga    3.2208909083273838E+00    5.5724066268541561E+00    1.3598029648440999E+01
N    3.2180835650521553E+00    5.5737319490702752E+00    1.5519116453865809E+01
Ga    3.2219149401009965E+00    7.4287202771772325E+00    1.6585606281297842E+01
N    4.8264665899602228E+00    6.4772866161769214E+00    1.7477071743769582E+01
N    1.6133368224005620E+00    8.3529808620840775E+00   -9.8361248532682258E-02
Ga    1.6144234812645566E+00    1.0209397061160242E+01    5.7043253411476591E-01
N    1.6145945435547162E+00    1.0209862306517868E+01    2.4787370591505056E+00
Ga    1.6129899215054497E+00    8.3530652916673027E+00    3.1762863930687901E+00
N    1.6126610161816792E+00    8.3528688685932089E+00    5.0742299458679039E+00
Ga    1.6142225005348918E+00    1.0209293802334992E+01    5.7459261576329252E+00
N    1.6144551857923468E+00    1.0209820295816426E+01    7.6523426210967873E+00
Ga    1.6137487717550500E+00    8.3538502329743700E+00    8.3537460073468779E+00
N    1.6149204097205605E+00    8.3540972445080808E+00    1.0279519490831019E+01
Ga    1.6143874457154994E+00    1.0210473636300055E+01    1.0976327157920695E+01
N    1.6168647340966533E+00    1.0214866947658738E+01    1.2902173907698494E+01
Ga    1.6135512806935079E+00    8.3583394715325259E+00    1.3610033215181168E+01
N    1.6155179238080244E+00    8.3717400861047402E+00    1.5539946551709180E+01
Ga    1.6331311199898209E+00    1.0226890578322811E+01    1.6493034757291255E+01
N    3.1892786263259123E+00    9.2997306648177620E+00    1.7474693089625116E+01
N    9.6540236499513927E+00   -1.3153997291333148E-04   -9.8390724894522358E-02
Ga    9.6550386663180312E+00    1.8561902857492185E+00    5.7057901803974820E-01
N    9.6551360962932264E+00    1.8565964721559252E+00    2.4787449123628300E+00
Ga    9.6538926492414490E+00   -9.2963631561379783E-05    3.1765016462132301E+00
N    9.6538619323158432E+00   -3.6079494977613182E-04    5.0745473486327723E+00
Ga    9.6550003990275517E+00    1.8561219254022925E+00    5.7467784704494216E+00
N    9.6549857764828335E+00    1.8569451795825673E+00    7.6530800325075203E+00
Ga    9.6536466219708359E+00    1.0475190509730415E-04    8.3529971958198512E+00
N    9.6547051269621083E+00    1.1102119309854225E-03    1.0279139689565456E+01
Ga    9.6584596110294125E+00    1.8598396327757210E+00    1.0971242080513536E+01
N    9.6591414518760992E+00    1.8668903119196347E+00    1.2897673981895551E+01
Ga    9.6640360254188593E+00    7.4212564419914896E-03    1.3582436828750193E+01
N    9.6677362741043691E+00    5.7768613949288686E-03    1.5497709483531262E+01
Ga    9.6551847724831514E+00    1.8160918608391663E+00    1.6530858627312359E+01
N    1.1268527303978050E+01    9.1201148909988772E-01    1.7474660565064234E+01
N    8.0464459471800254E+00    2.7842269644085089E+00   -9.8247748214390113E-02
Ga    8.0475033694861935E+00    4.6406169854233417E+00    5.7057574011387779E-01
N    8.0476719066946778E+00    4.6410514206102889E+00    2.4788496392494492E+00
Ga    8.0465399747334665E+00    2.7841764452780109E+00    3.1764345586911786E+00
N    8.0467569209067715E+00    2.7838217849666695E+00    5.0742660847449743E+00
Ga    8.0480643822458013E+00    4.6405562763885646E+00    5.7454423152299636E+00
N    8.0488277955166083E+00    4.6410104681872104E+00    7.6520182879697165E+00
Ga    8.0465959092838109E+00    2.7851495621517466E+00    8.3556914078602489E+00
N    8.0477149516382589E+00    2.7866109473979019E+00    1.0281717678827352E+01
Ga    8.0507140962549535E+00    4.6438920052475563E+00    1.0978688735845290E+01
N    8.0500863705855537E+00    4.6532043500392763E+00    1.2905651976350818E+01
Ga    8.0508476041440158E+00    2.7965480286169604E+00    1.3608172287662518E+01
N    8.0303437699575753E+00    2.7925984373428450E+00    1.5533249242694081E+01
Ga    8.0180994613380907E+00    4.6675886262935986E+00    1.6535691234528727E+01
N    9.6100748394690232E+00    3.6156570337294025E+00    1.7464841091571000E+01
N    6.4389103551515525E+00    5.5686152439708847E+00   -9.8264723131335982E-02
Ga    6.4399638904700742E+00    7.4250388552067417E+00    5.7047753249522903E-01
N    6.4400936077077349E+00    7.4255715936269047E+00    2.4787889433643526E+00
Ga    6.4388812427380673E+00    5.5686894142832415E+00    3.1762971549128669E+00
N    6.4389528026722598E+00    5.5684963433699437E+00    5.0742171564188610E+00
Ga    6.4401394396692462E+00    7.4250004058996257E+00    5.7454020430982480E+00
N    6.4410215015668975E+00    7.4250233507458026E+00    7.6516157154314017E+00
Ga    6.4409158187941653E+00    5.5690355353006238E+00    8.3529709113287094E+00
N    6.4413931587955178E+00    5.5702398540713949E+00    1.0279029045711336E+01
Ga    6.4409171151926028E+00    7.4276912081873432E+00    1.0973807016026726E+01
N    6.4400802788459783E+00    7.4359911506222716E+00    1.2899881010660064E+01
Ga    6.4310121002733354E+00    5.5820440178002944E+00    1.3588562422552831E+01
N    6.4173160840264227E+00    5.5711044237787197E+00    1.5507980431946338E+01
Ga    6.4375746507188927E+00    7.4388270090915034E+00    1.6572088838838919E+01
N    8.0110253457590073E+00    6.4758170922045020E+00    1.7459076735528928E+01
N    4.8313558916555346E+00    8.3529874947719094E+00   -9.8352132046662086E-02
Ga    4.8323267893434156E+00    1.0209415520927683E+01    5.7040206310546393E-01
N    4.8323791198444610E+00    1.0209850388967652E+01    2.4786881144245796E+00
Ga    4.8312835938059928E+00    8.3531162237896037E+00    3.1760048396734439E+00
N    4.8313764278951066E+00    8.3527826740073294E+00    5.0739513339752236E+00
Ga    4.8321281795462383E+00    1.0209147206893602E+01    5.7460982409448276E+00
N    4.8318666689505037E+00    1.0209009695031598E+01    7.6523065035492044E+00
Ga    4.8316490608386689E+00    8.3515931727396353E+00    8.3498576026478037E+00
N    4.8321108904671171E+00    8.3493428238677012E+00    1.0275487384695960E+01
Ga    4.8339951350095971E+00    1.0205370458108463E+01    1.0968383413579868E+01
N    4.8331331933102559E+00    1.0206089663386262E+01    1.2890490066706198E+01
Ga    4.8312033034850534E+00    8.3579805346333718E+00    1.3614888125470610E+01
N    4.8170087014273095E+00    8.3570123565858445E+00    1.5542591833557736E+01
Ga    4.8213663503296642E+00    1.0216833242507203E+01    1.6542783830325728E+01
N    6.4197291950411408E+00    9.2998263706466755E+00    1.7463032877205926E+01
H   -7.1076009622829355E-06   -2.8101855975782599E-04   -1.1239571680059215E+00
H   -1.6076483681572478E+00    2.7841494169294587E+00   -1.1238887150678643E+00
H   -3.2151276024222128E+00    5.5684318515106765E+00   -1.1239528818905793E+00
H   -4.8227282546293759E+00    8.3528328826419358E+00   -1.1239157337024739E+00
H    3.2179100335029727E+00   -2.6337409089070439E-04   -1.1240177189081979E+00
H    1.6104009812629352E+00    2.7841466637668861E+00   -1.1239500435250001E+00
H    2.7970879851985930E-03    5.5684664972457396E+00   -1.1238186099767959E+00
H   -1.6047179546809927E+00    8.3528213546184737E+00   -1.1239278859045148E+00
H    6.4358806719218764E+00   -2.1680858878317562E-04   -1.1239647153759120E+00
H    4.8283691461780442E+00    2.7841101463962068E+00   -1.1238443423500399E+00
H    3.2207601866761109E+00    5.5683792324842587E+00   -1.1239256145327416E+00
H    1.6131319492158729E+00    8.3528410705233789E+00   -1.1239351667484443E+00
H    9.6538278418131327E+00   -2.2688892128130977E-04   -1.1239771155627709E+00
H    8.0462765562228746E+00    2.7840790486642719E+00   -1.1238122468669354E+00
H    6.4387081363658920E+00    5.5684537203185007E+00   -1.1238537740829047E+00
H    4.8312122459043074E+00    8.3528274980304307E+00   -1.1239321395303432E+00
     &END COORD
     &KIND H
       BASIS_SET DZVP-MOLOPT-SR-GTH-q1
       POTENTIAL GTH-PBE-q1
       &POTENTIAL
 1
  0.2000000000000000E+00 2 -0.4178900440000000E+01  0.7244633100000000E+00
 0
         # Potential name:  GTH-PBE-Q1  for symbol:  H
         # Potential read from the potential filename: GTH_POTENTIALS
       &END POTENTIAL
     &END KIND
     &KIND N
       BASIS_SET DZVP-MOLOPT-SR-GTH
       POTENTIAL GTH-PBE-q5
       &POTENTIAL
 2 3
  0.2837905100000000E+00 2 -0.1241522559000000E+02  0.1868095920000000E+01
 2
  0.2554050000000000E+00 1  0.1363026257000000E+02
  0.2454945300000000E+00 0
         # Potential name:  GTH-PBE-Q5  for symbol:  N
         # Potential read from the potential filename: GTH_POTENTIALS
       &END POTENTIAL
     &END KIND
     &KIND Ga
       BASIS_SET DZVP-MOLOPT-SR-GTH
       POTENTIAL GTH-PBE-q13
       &POTENTIAL
 2 1 10
  0.4900000000000000E+00 0
 3
  0.4167772300000000E+00 3  0.1047568975000000E+02 -0.4921768140000000E+01  0.8707055900000000E+00
  0.7770178090000000E+01 -0.2248152160000000E+01
  0.1784415450000000E+01
  0.5696265200000000E+00 2  0.1777985340000000E+01  0.1958597600000000E+00
 -0.2317443900000000E+00
  0.2381265000000000E+00 1 -0.1624868022000000E+02
         # Potential name:  GTH-PBE-Q13  for symbol:  GA
         # Potential read from the potential filename: GTH_POTENTIALS
       &END POTENTIAL
     &END KIND
     &TOPOLOGY
       NUMBER_OF_ATOMS  256
       MULTIPLE_UNIT_CELL  1 1 1
     &END TOPOLOGY
   &END SUBSYS
 &END FORCE_EVAL
