 # Version information for this restart file 
 # current date 2019-06-09 05:51:43.522
 # current working dir /lustre03/project/6037349/rzk/GaN-carbene/444-addat/00-Surface/UKS_SYMM
 # Program compiled at                              Sun Apr  7 00:48:11 EDT 2019
 # Program compiled on                          beluga2.int.ets1.calculquebec.ca
 # Program compiled for                        Beluga-Linux-x86-64-intel-openmpi
 # Source code revision number                                         svn:18619
 &GLOBAL
   PRINT_LEVEL  MEDIUM
   PROJECT_NAME TEST
   RUN_TYPE  CELL_OPT
 &END GLOBAL
 &MOTION
   &CELL_OPT
     MAX_ITER  300
     STEP_START_VAL  30
     EXTERNAL_PRESSURE     1.0000000000000000E+00
     KEEP_ANGLES  T
     KEEP_SYMMETRY  T
     CONSTRAINT  Z
     PRESSURE_TOLERANCE     5.0000000000000000E+02
   &END CELL_OPT
 &END MOTION
 &FORCE_EVAL
   METHOD  QS
   STRESS_TENSOR  ANALYTICAL
   &DFT
     BASIS_SET_FILE_NAME BASIS_MOLOPT
     POTENTIAL_FILE_NAME GTH_POTENTIALS
     UKS  T
     SURFACE_DIPOLE_CORRECTION  T
     SURF_DIP_DIR  Z
     &SCF
       MAX_SCF  100
       EPS_SCF     5.0000000000000004E-06
       &OT  T
         PRECONDITIONER  FULL_ALL
       &END OT
       &OUTER_SCF  T
         OPTIMIZER  NONE
         EPS_SCF     5.0000000000000004E-06
         MAX_SCF  4
       &END OUTER_SCF
       &PRINT
         &RESTART  OFF
           BACKUP_COPIES  1
           &EACH
             JUST_ENERGY  0
             QS_SCF  0
             MD  20
           &END EACH
         &END RESTART
       &END PRINT
     &END SCF
     &QS
       EPS_DEFAULT     1.0000000000000000E-14
       METHOD  GPW
     &END QS
     &MGRID
       NGRIDS  5
       CUTOFF     1.2000000000000000E+03
     &END MGRID
     &XC
       DENSITY_CUTOFF     1.0000000000000000E-10
       GRADIENT_CUTOFF     1.0000000000000000E-10
       TAU_CUTOFF     1.0000000000000000E-10
       &XC_FUNCTIONAL  NO_SHORTCUT
         &PBE  T
         &END PBE
       &END XC_FUNCTIONAL
       &VDW_POTENTIAL
         POTENTIAL_TYPE  PAIR_POTENTIAL
         &PAIR_POTENTIAL
           R_CUTOFF     1.0000000000000004E+01
           TYPE  DFTD3
           PARAMETER_FILE_NAME dftd3.dat
           REFERENCE_FUNCTIONAL PBE
           EPS_CN     9.9999999999999995E-07
           CALCULATE_C9_TERM  T
           REFERENCE_C9_TERM  T
           LONG_RANGE_CORRECTION  F
           VERBOSE_OUTPUT  F
         &END PAIR_POTENTIAL
       &END VDW_POTENTIAL
     &END XC
   &END DFT
   &SUBSYS
     &CELL
       A     1.2835450908854783E+01    0.0000000000000000E+00    0.0000000000000000E+00
       B    -6.4147572512904674E+00    1.1110685477456023E+01    0.0000000000000000E+00
       C     0.0000000000000000E+00    0.0000000000000000E+00    3.2000000000000000E+01
       MULTIPLE_UNIT_CELL  1 1 1
       &CELL_REF
         A     1.2982353780853531E+01    0.0000000000000000E+00    0.0000000000000000E+00
         B    -6.4911768904267628E+00    1.1243048175136114E+01    0.0000000000000000E+00
         C     0.0000000000000000E+00    0.0000000000000000E+00    3.2000000000000000E+01
         MULTIPLE_UNIT_CELL  1 1 1
       &END CELL_REF
     &END CELL
     &COORD
N    2.5339000985410379E-04   -2.4876283232999234E-04   -2.0455737680910682E-01
Ga    7.7505011757782898E-04    1.8517111553709789E+00    4.7543022482478225E-01
N    7.3006400078755025E-04    1.8519937428639961E+00    2.3923242749901221E+00
Ga    4.5866582893010330E-04   -9.1332172564474712E-05    3.1199112851007609E+00
N    7.0251708105901231E-04   -1.4041248780340661E-04    5.0432136970872161E+00
Ga    9.0254966289204843E-04    1.8522303873406332E+00    5.7547822105052147E+00
N    1.0128048213432772E-03    1.8531606175208801E+00    7.6790840679258601E+00
Ga    8.5561142573882358E-04    1.3534529771340976E-03    8.3899553098122848E+00
N    1.5708711964966232E-03    3.5214942499337851E-03    1.0315075638256587E+01
Ga    2.8816899686834774E-03    1.8547594382219843E+00    1.1027189744967123E+01
N    4.4089686369240197E-03    1.8602576721249917E+00    1.2957412427178276E+01
Ga    3.3767988309538993E-03    6.7073705102853381E-03    1.3667707519136627E+01
N   -6.5868423151719049E-03    8.0721388501077650E-03    1.5587915686676387E+01
Ga   -1.3280497607210653E-03    1.8529809005386517E+00    1.6660839297333258E+01
N    1.5966666855553731E+00    9.2286957878329479E-01    1.7525589142081081E+01
N   -1.6034677383011688E+00    2.7774811321334614E+00   -2.0448038700125895E-01
Ga   -1.6028429914960700E+00    4.6294246755120110E+00    4.7554196560062839E-01
N   -1.6028500524941560E+00    4.6297758676855665E+00    2.3924123508175992E+00
Ga   -1.6035218296940241E+00    2.7779576505482200E+00    3.1203236860065959E+00
N   -1.6034478253227860E+00    2.7781437119384913E+00    5.0435511731882023E+00
Ga   -1.6026243853927316E+00    4.6297772578715595E+00    5.7569000804706434E+00
N   -1.6020714628567259E+00    4.6307266623662660E+00    7.6814659039673865E+00
Ga   -1.6019578886582382E+00    2.7791581645697963E+00    8.3930255776414437E+00
N   -1.6006867365912729E+00    2.7818432440473817E+00    1.0317674827092850E+01
Ga   -1.6008740858810475E+00    4.6334342961053840E+00    1.1026495693057047E+01
N   -1.5999001995713451E+00    4.6373935172859309E+00    1.2956184684480707E+01
Ga   -1.6005025450420345E+00    2.7853037192291672E+00    1.3673035521930215E+01
N   -1.5969771996310229E+00    2.7846257914315000E+00    1.5598609781958050E+01
Ga   -1.6094466410053048E+00    4.6220677024675831E+00    1.6602282008674187E+01
N   -1.8009203718483417E-02    3.7078625575340740E+00    1.7527458904448508E+01
N   -3.2071098500967659E+00    5.5551020210213604E+00   -2.0447489932143656E-01
Ga   -3.2064148293006198E+00    7.4070018748465243E+00    4.7552658662652225E-01
N   -3.2061766922426282E+00    7.4071516488959057E+00    2.3924524730961756E+00
Ga   -3.2070373301230446E+00    5.5552881784705388E+00    3.1206670242878025E+00
N   -3.2067018574188983E+00    5.5551859702496662E+00    5.0439435044132441E+00
Ga   -3.2058774188022063E+00    7.4070565779469311E+00    5.7560585036834935E+00
N   -3.2047915566889040E+00    7.4081919861415617E+00    7.6806296681657615E+00
Ga   -3.2054322626828391E+00    5.5571587909781162E+00    8.3945713917105973E+00
N   -3.2044072443093850E+00    5.5598924317628740E+00    1.0319157418405716E+01
Ga   -3.2042257376427505E+00    7.4125634134409726E+00    1.1027734746613385E+01
N   -3.2030356986585837E+00    7.4171054999879988E+00    1.2956350162730235E+01
Ga   -3.2043847306628903E+00    5.5663123217994528E+00    1.3673606031688287E+01
N   -3.2145304214075727E+00    5.5414189300137719E+00    1.5595983892757008E+01
Ga   -3.2320196086556243E+00    7.4002919037920654E+00    1.6636113725626387E+01
N   -1.6249145660702768E+00    6.4656560998492205E+00    1.7512920853284630E+01
N   -4.8107737485524265E+00    8.3327072982730641E+00   -2.0455211453021474E-01
Ga   -4.8101726276569048E+00    1.0184689587517768E+01    4.7526957649651086E-01
N   -4.8100148619608625E+00    1.0184944331336032E+01    2.3921062480702431E+00
Ga   -4.8104765285965669E+00    8.3329620740493073E+00    3.1201191402369184E+00
N   -4.8101346560711109E+00    8.3328556205584121E+00    5.0433245703890499E+00
Ga   -4.8094995864660985E+00    1.0184844749703885E+01    5.7558216339931363E+00
N   -4.8086464675854490E+00    1.0186039876753755E+01    7.6803880973788674E+00
Ga   -4.8095414113632469E+00    8.3336059385325409E+00    8.3912661458835629E+00
N   -4.8089320254155945E+00    8.3359624563716181E+00    1.0315466220580051E+01
Ga   -4.8081158449284436E+00    1.0188628760065811E+01    1.1023350531260522E+01
N   -4.8083405658242437E+00    1.0192031731143606E+01    1.2950545836327676E+01
Ga   -4.8098452855084979E+00    8.3423594712125357E+00    1.3672294576713162E+01
N   -4.8147406787950766E+00    8.3419996976848285E+00    1.5593800011022974E+01
Ga   -4.8210978791399830E+00    1.0196429213748077E+01    1.6613316224706207E+01
N   -3.2326195725576117E+00    9.2480707167406404E+00    1.7514317320668013E+01
N    3.2091584126545309E+00   -2.9557335319113214E-04   -2.0457687627891985E-01
Ga    3.2098106594890008E+00    1.8516519160069986E+00    4.7550222715217921E-01
N    3.2099767569354847E+00    1.8518766269786890E+00    2.3923220623514889E+00
Ga    3.2093425326485288E+00   -1.2304273221790560E-04    3.1201594302974471E+00
N    3.2096126259919049E+00   -1.4133872328447021E-04    5.0433494586074969E+00
Ga    3.2102079146730262E+00    1.8519287014533485E+00    5.7553733656487323E+00
N    3.2107135611248681E+00    1.8528050378408847E+00    7.6794944944318857E+00
Ga    3.2109197286383186E+00    1.7189701914386687E-03    8.3927468984593308E+00
N    3.2120306567256312E+00    3.7894939047615293E-03    1.0317042580516944E+01
Ga    3.2112321429292110E+00    1.8557378306513432E+00    1.1028340987380254E+01
N    3.2113407895294173E+00    1.8579701851791361E+00    1.2956100312350424E+01
Ga    3.2100234980995088E+00    6.5457092358481087E-03    1.3670891340542852E+01
N    3.1959924132129736E+00   -4.5839753710579098E-03    1.5590361238847485E+01
Ga    3.2094570298483296E+00    1.8562826814440159E+00    1.6661530009390329E+01
N    4.7925321009375565E+00    9.0857581143555322E-01    1.7519786968304995E+01
N    1.6054194696929525E+00    2.7774050459186763E+00   -2.0434814644929208E-01
Ga    1.6059709369914166E+00    4.6294605155184572E+00    4.7537190754899650E-01
N    1.6059427443918162E+00    4.6297653608907225E+00    2.3921879087286362E+00
Ga    1.6055811854366813E+00    2.7777444878183934E+00    3.1197758597303498E+00
N    1.6057378095169776E+00    2.7776318397543789E+00    5.0428992506463590E+00
Ga    1.6061486059028320E+00    4.6294599891147987E+00    5.7558930986819670E+00
N    1.6063600207644158E+00    4.6300430927788421E+00    7.6802046389095473E+00
Ga    1.6061234439058307E+00    2.7775872479556822E+00    8.3907727496188631E+00
N    1.6065076895816326E+00    2.7781749963162863E+00    1.0314957524170987E+01
Ga    1.6075374526459316E+00    4.6299002678481518E+00    1.1023497916371946E+01
N    1.6080464954468685E+00    4.6327445188946221E+00    1.2949766944878142E+01
Ga    1.6100262595837376E+00    2.7846948361176596E+00    1.3678264416188748E+01
N    1.6037641167771732E+00    2.7885929830689506E+00    1.5604724648161465E+01
Ga    1.5926838486128425E+00    4.6319939150251859E+00    1.6618338884571941E+01
N    3.1960026526166763E+00    3.7153622769686634E+00    1.7520315965063563E+01
N    1.6642200465737987E-03    5.5551118173597107E+00   -2.0466487773387446E-01
Ga    2.2773977780098176E-03    7.4070512689990000E+00    4.7533793516375145E-01
N    2.2455688747942152E-03    7.4073077013356583E+00    2.3922560913072255E+00
Ga    1.6943558764030279E-03    5.5554796080487225E+00    3.1203631828503813E+00
N    1.7453855246786201E-03    5.5554372528583471E+00    5.0437603939441926E+00
Ga    2.5463652465640123E-03    7.4072806963055546E+00    5.7567720877683159E+00
N    3.1527939723812212E-03    7.4085079070161042E+00    7.6813251167321068E+00
Ga    2.6092793196182537E-03    5.5564544532411455E+00    8.3930214967290819E+00
N    3.0791002546766964E-03    5.5593145997244884E+00    1.0317162579660630E+01
Ga    5.6858631809625412E-03    7.4130564845918014E+00    1.1023950818627434E+01
N    7.1816885811915544E-03    7.4174157561091221E+00    1.2952293986755537E+01
Ga    7.9538141758160579E-03    5.5649030214886102E+00    1.3664255608606698E+01
N   -2.3424299622262432E-03    5.5513575493323177E+00    1.5581215563902253E+01
Ga   -1.0036876455106531E-02    7.3875378877262365E+00    1.6629012743568236E+01
N    1.5934352290734493E+00    6.4736776847177389E+00    1.7522676450237970E+01
N   -1.6019773266763733E+00    8.3327832459621582E+00   -2.0466135465992705E-01
Ga   -1.6012847399739834E+00    1.0184668398913978E+01    4.7554497226281212E-01
N   -1.6011047528512010E+00    1.0184937078835112E+01    2.3924549509056487E+00
Ga   -1.6017557952330879E+00    8.3330994615648724E+00    3.1205929045991772E+00
N   -1.6014847301847475E+00    8.3332150925890520E+00    5.0439461972935584E+00
Ga   -1.6007310584758403E+00    1.0185367804624029E+01    5.7563486551832623E+00
N   -1.5997392418057550E+00    1.0186792208379877E+01    7.6809525769699905E+00
Ga   -1.6009754708048525E+00    8.3353257859449048E+00    8.3928644832984158E+00
N   -1.5996809119553703E+00    8.3379140014286275E+00    1.0317664879701555E+01
Ga   -1.5990749987553137E+00    1.0189603744701204E+01    1.1028209949252807E+01
N   -1.5986723394242530E+00    1.0192253366435335E+01    1.2956959094468623E+01
Ga   -1.5963946695756446E+00    8.3409391852853680E+00    1.3674150475796882E+01
N   -1.6174646845205018E+00    8.3285564490291382E+00    1.5598606729611769E+01
Ga   -1.6250115823800764E+00    1.0187448341165792E+01    1.6631056890904798E+01
N   -2.7591402441266968E-02    9.2235897952073316E+00    1.7500700044343493E+01
N    6.4179409469086695E+00   -2.5027421730034843E-04   -2.0449272650271311E-01
Ga    6.4186283755817106E+00    1.8516966711595626E+00    4.7553638915313756E-01
N    6.4187940772571785E+00    1.8519735269349378E+00    2.3923530280443139E+00
Ga    6.4180933192674683E+00    2.3338032733095305E-04    3.1205258375289140E+00
N    6.4182811770233679E+00    3.9012780444188115E-04    5.0437600877913580E+00
Ga    6.4192406928972199E+00    1.8522533682281512E+00    5.7566358711708414E+00
N    6.4198891979787831E+00    1.8532113138053681E+00    7.6809801288536965E+00
Ga    6.4192778652751361E+00    2.1774793792642706E-03    8.3946050225268429E+00
N    6.4198113154742327E+00    4.9431973222261640E-03    1.0319615913414141E+01
Ga    6.4201827943517529E+00    1.8567746874032549E+00    1.1031042274124957E+01
N    6.4209094653338488E+00    1.8606120365178347E+00    1.2959979607835610E+01
Ga    6.4194679140224453E+00    9.5652706171974241E-03    1.3676542853147138E+01
N    6.4091865246103099E+00   -1.5678991228313465E-02    1.5597053884933695E+01
Ga    6.3973538792925710E+00    1.8441308552475013E+00    1.6641763018841637E+01
N    8.0048404868535528E+00    9.0386130812266841E-01    1.7513917403904244E+01
N    4.8143073722399876E+00    2.7773953001899119E+00   -2.0452778692186083E-01
Ga    4.8149252523708990E+00    4.6293550429948072E+00    4.7539196388935506E-01
N    4.8150935314422165E+00    4.6295258077308672E+00    2.3921829730959936E+00
Ga    4.8146390723442511E+00    2.7776974671185792E+00    3.1202822923296818E+00
N    4.8148807908081626E+00    2.7775321199824869E+00    5.0434577786223800E+00
Ga    4.8154284245721186E+00    4.6294335420879227E+00    5.7563256846523023E+00
N    4.8157850506495725E+00    4.6304512247241254E+00    7.6806493579852617E+00
Ga    4.8154172444802823E+00    2.7783820548201703E+00    8.3924946185884686E+00
N    4.8160758099089467E+00    2.7794834795503887E+00    1.0316766590390394E+01
Ga    4.8156266759365218E+00    4.6324457826785981E+00    1.1024605782564628E+01
N    4.8155273344960952E+00    4.6354151751645123E+00    1.2949446414832863E+01
Ga    4.8151104912773279E+00    2.7874834520712697E+00    1.3676265627490126E+01
N    4.8096705151933064E+00    2.7872737318835750E+00    1.5596015691140259E+01
Ga    4.8054749598820505E+00    4.6405788167267268E+00    1.6618422435327201E+01
N    6.3969048225525924E+00    3.6925075832587448E+00    1.7510766679548595E+01
N    3.2105845340803190E+00    5.5550928569020144E+00   -2.0452872246908027E-01
Ga    3.2111425481778095E+00    7.4070186356122800E+00    4.7556076971570937E-01
N    3.2110788900014966E+00    7.4072054031966896E+00    2.3923657909099036E+00
Ga    3.2107873122863975E+00    5.5550692906255446E+00    3.1201234315911939E+00
N    3.2108635176662732E+00    5.5546782003483459E+00    5.0431210469643810E+00
Ga    3.2113864516269022E+00    7.4068865462515268E+00    5.7544853663420703E+00
N    3.2116986885864507E+00    7.4077791528242631E+00    7.6785973170202038E+00
Ga    3.2110860655054339E+00    5.5564874588771183E+00    8.3919638361722448E+00
N    3.2108353407426833E+00    5.5589766829522471E+00    1.0315824885840312E+01
Ga    3.2125402376900762E+00    7.4114555750022788E+00    1.1026185868015302E+01
N    3.2139809144238969E+00    7.4163933921276142E+00    1.2955341805661769E+01
Ga    3.2115051326194441E+00    5.5610310501755285E+00    1.3665901835680369E+01
N    3.2044638389108604E+00    5.5615481202743950E+00    1.5585238867355690E+01
Ga    3.2099703019352717E+00    7.4068693765166858E+00    1.6656581607706286E+01
N    4.8078411613726209E+00    6.4797503164633312E+00    1.7523342019025932E+01
N    1.6068685348846106E+00    8.3327759722188279E+00   -2.0450895086085646E-01
Ga    1.6074724803076894E+00    1.0184744821186857E+01    4.7547843396216949E-01
N    1.6074094204369545E+00    1.0185086113873961E+01    2.3923114569079491E+00
Ga    1.6067160309179060E+00    8.3331472584221746E+00    3.1201932079251380E+00
N    1.6067292105823086E+00    8.3332654529957537E+00    5.0434966923669879E+00
Ga    1.6077818122884577E+00    1.0185486658984294E+01    5.7561478150019161E+00
N    1.6083876462255930E+00    1.0187012667379943E+01    7.6808291343697128E+00
Ga    1.6087231659055563E+00    8.3348711847762598E+00    8.3911098998352198E+00
N    1.6094079095907297E+00    8.3384333973951197E+00    1.0315614295672008E+01
Ga    1.6091078985410874E+00    1.0189711611526848E+01    1.1027396694559636E+01
N    1.6094914470304544E+00    1.0193025735050867E+01    1.2956399433602408E+01
Ga    1.6101099735726496E+00    8.3406110215597078E+00    1.3672379703532524E+01
N    1.6131564952213600E+00    8.3367603292793753E+00    1.5599010538760123E+01
Ga    1.5988341363841783E+00    1.0173922383676517E+01    1.6600675625299779E+01
N    3.1918898584196440E+00    9.2639695279646332E+00    1.7526865599672362E+01
N    9.6267703849683759E+00   -2.3159131467347528E-04   -2.0467293818977209E-01
Ga    9.6274290227660835E+00    1.8517388091864149E+00    4.7541833946819678E-01
N    9.6274957493667372E+00    1.8521486834561218E+00    2.3923169530252473E+00
Ga    9.6267980581151438E+00    2.3192780884729379E-04    3.1201031477928263E+00
N    9.6269457087554855E+00    5.3317784813261830E-04    5.0433714034890400E+00
Ga    9.6277304991558808E+00    1.8524192458465847E+00    5.7565950984289866E+00
N    9.6284356446784987E+00    1.8537812194846148E+00    7.6814336715032336E+00
Ga    9.6277668949049051E+00    1.9856377606867468E-03    8.3936182069222181E+00
N    9.6283228585507743E+00    5.1837928190273126E-03    1.0318260406500684E+01
Ga    9.6285526689693182E+00    1.8590319779824158E+00    1.1026772439130898E+01
N    9.6310512075292625E+00    1.8639176211733941E+00    1.2952572904029658E+01
Ga    9.6319443384861572E+00    1.1778491570213072E-02    1.3662603941923889E+01
N    9.6240635321682699E+00   -9.4418501908895801E-03    1.5580472649345628E+01
Ga    9.6170040164553949E+00    1.8277374060810900E+00    1.6623874421657934E+01
N    1.1216513907540598E+01    9.1655344848007492E-01    1.7522780933384762E+01
N    8.0231316030357593E+00    2.7774434601753337E+00   -2.0453714107380297E-01
Ga    8.0238232632526998E+00    4.6293881106513419E+00    4.7547536491681441E-01
N    8.0240443396642078E+00    4.6296552571556351E+00    2.3923352207977282E+00
Ga    8.0232839147731863E+00    2.7778571064844555E+00    3.1205296151440498E+00
N    8.0235694946243807E+00    2.7780324621872658E+00    5.0438928152187534E+00
Ga    8.0244204170291056E+00    4.6297445775020076E+00    5.7572016123260807E+00
N    8.0253686265846298E+00    4.6313893785272118E+00    7.6817433840194012E+00
Ga    8.0237344427028301E+00    2.7796335133048267E+00    8.3935969191486581E+00
N    8.0231768602415521E+00    2.7825601908807656E+00    1.0318220700903257E+01
Ga    8.0252812821255937E+00    4.6349674066066431E+00    1.1027498490351443E+01
N    8.0266924308137853E+00    4.6386763359199490E+00    1.2955322434536480E+01
Ga    8.0274593247786097E+00    2.7884581569629376E+00    1.3673067038113009E+01
N    8.0136509611532851E+00    2.7671429885943790E+00    1.5599884224676755E+01
Ga    8.0070051738376389E+00    4.6270129799142765E+00    1.6631871672050710E+01
N    9.6033258850903831E+00    3.6636800014995132E+00    1.7502922051777109E+01
N    6.4194846536105423E+00    5.5550529451301971E+00   -2.0451332534987809E-01
Ga    6.4201195796494082E+00    7.4069581148620109E+00    4.7552596849461826E-01
N    6.4203183811559477E+00    7.4070445869093202E+00    2.3922801639040201E+00
Ga    6.4197652701513750E+00    5.5550189074796918E+00    3.1203445209849909E+00
N    6.4201209860546502E+00    5.5547219900009210E+00    5.0434622648260952E+00
Ga    6.4206365757444397E+00    7.4067589399247451E+00    5.7551195875297374E+00
N    6.4210118228283823E+00    7.4080032797822435E+00    7.6792701604065545E+00
Ga    6.4204699515325174E+00    5.5565658874481452E+00    8.3926774791661405E+00
N    6.4206991590227345E+00    5.5593202266887829E+00    1.0316280458991297E+01
Ga    6.4204993696467101E+00    7.4119046203589196E+00    1.1025274621340396E+01
N    6.4209792515393360E+00    7.4150808971424249E+00    1.2952914034012680E+01
Ga    6.4188620346674270E+00    5.5623462510244854E+00    1.3669552889488983E+01
N    6.4089533082147021E+00    5.5461143426119603E+00    1.5587901640348599E+01
Ga    6.4205283564268836E+00    7.4093490803623263E+00    1.6660261152262787E+01
N    8.0028911964546854E+00    6.4601234505287417E+00    1.7515025112832276E+01
N    4.8157536936812360E+00    8.3326902975583206E+00   -2.0442945004781082E-01
Ga    4.8163279442338203E+00    1.0184713846367400E+01    4.7529613739430687E-01
N    4.8163870708237022E+00    1.0185037775162254E+01    2.3921235980846776E+00
Ga    4.8159672071727169E+00    8.3329453714105650E+00    3.1196928234908050E+00
N    4.8162222287719203E+00    8.3328489991478065E+00    5.0427579689968862E+00
Ga    4.8163343429075773E+00    1.0185000186550544E+01    5.7550706429321048E+00
N    4.8164184001484456E+00    1.0186055923398968E+01    7.6794923138581792E+00
Ga    4.8162233256428815E+00    8.3337344181333517E+00    8.3897891572435199E+00
N    4.8161267390044049E+00    8.3364373041223860E+00    1.0313919030061859E+01
Ga    4.8184883426165417E+00    1.0187686733518175E+01    1.1023647187959943E+01
N    4.8199291103484008E+00    1.0190319969682204E+01    1.2952236572302624E+01
Ga    4.8192913619958668E+00    8.3400773463185214E+00    1.3676283009510826E+01
N    4.8134672924296575E+00    8.3388977875372525E+00    1.5602502181460915E+01
Ga    4.8037929634499257E+00    1.0186280659508844E+01    1.6612638844668510E+01
N    6.4059717131308611E+00    9.2689712668788040E+00    1.7518068567499959E+01
H    2.8505908702153895E-04   -1.7769658607953666E-04   -1.2317635395712283E+00
H   -1.6035025478879112E+00    2.7775038177178217E+00   -1.2316903092144660E+00
H   -3.2071881201092665E+00    5.5551096121840748E+00   -1.2316779108248455E+00
H   -4.8108316380243119E+00    8.3327306127364693E+00   -1.2317757550370305E+00
H    3.2090869397347999E+00   -2.7163479905272674E-04   -1.2317931588864588E+00
H    1.6053521156440556E+00    2.7774289549832649E+00   -1.2315573708017107E+00
H    1.6183667390150510E-03    5.5551501309581610E+00   -1.2318857975839890E+00
H   -1.6019994857305415E+00    8.3327861681791653E+00   -1.2318902814450567E+00
H    6.4179037465987285E+00   -1.7088053524267379E-04   -1.2317041734011822E+00
H    4.8143078372441330E+00    2.7774394894599244E+00   -1.2317456448671817E+00
H    3.2105773512484981E+00    5.5551099989066346E+00   -1.2317410768509383E+00
H    1.6068253777597470E+00    8.3327922844661533E+00   -1.2317295825512926E+00
H    9.6266701306167199E+00   -1.7288021965569433E-04   -1.2318993958984599E+00
H    8.0230571752653095E+00    2.7774746169428197E+00   -1.2317575863335202E+00
H    6.4194400722363065E+00    5.5550751076519056E+00   -1.2317225193773615E+00
H    4.8157037237801879E+00    8.3326497306937917E+00   -1.2316460291300333E+00
     &END COORD
     &KIND H
       BASIS_SET DZVP-MOLOPT-SR-GTH-q1
       POTENTIAL GTH-PBE-q1
       &POTENTIAL
 1
  0.2000000000000000E+00 2 -0.4178900440000000E+01  0.7244633100000000E+00
 0
         # Potential name:  GTH-PBE-Q1  for symbol:  H
         # Potential read from the potential filename: GTH_POTENTIALS
       &END POTENTIAL
     &END KIND
     &KIND N
       BASIS_SET DZVP-MOLOPT-SR-GTH
       POTENTIAL GTH-PBE-q5
       &POTENTIAL
 2 3
  0.2837905100000000E+00 2 -0.1241522559000000E+02  0.1868095920000000E+01
 2
  0.2554050000000000E+00 1  0.1363026257000000E+02
  0.2454945300000000E+00 0
         # Potential name:  GTH-PBE-Q5  for symbol:  N
         # Potential read from the potential filename: GTH_POTENTIALS
       &END POTENTIAL
     &END KIND
     &KIND Ga
       BASIS_SET DZVP-MOLOPT-SR-GTH
       POTENTIAL GTH-PBE-q13
       &POTENTIAL
 2 1 10
  0.4900000000000000E+00 0
 3
  0.4167772300000000E+00 3  0.1047568975000000E+02 -0.4921768140000000E+01  0.8707055900000000E+00
  0.7770178090000000E+01 -0.2248152160000000E+01
  0.1784415450000000E+01
  0.5696265200000000E+00 2  0.1777985340000000E+01  0.1958597600000000E+00
 -0.2317443900000000E+00
  0.2381265000000000E+00 1 -0.1624868022000000E+02
         # Potential name:  GTH-PBE-Q13  for symbol:  GA
         # Potential read from the potential filename: GTH_POTENTIALS
       &END POTENTIAL
     &END KIND
     &TOPOLOGY
       NUMBER_OF_ATOMS  256
       MULTIPLE_UNIT_CELL  1 1 1
     &END TOPOLOGY
   &END SUBSYS
 &END FORCE_EVAL
