 # Version information for this restart file 
 # current date 2019-06-09 06:23:30.780
 # current working dir /lustre03/project/6037349/rzk/GaN-carbene/444-addat/00-Surface/UKS_SYMM
 # Program compiled at                              Sun Apr  7 00:48:11 EDT 2019
 # Program compiled on                          beluga2.int.ets1.calculquebec.ca
 # Program compiled for                        Beluga-Linux-x86-64-intel-openmpi
 # Source code revision number                                         svn:18619
 &GLOBAL
   PRINT_LEVEL  MEDIUM
   PROJECT_NAME TEST
   RUN_TYPE  CELL_OPT
 &END GLOBAL
 &MOTION
   &CELL_OPT
     MAX_ITER  300
     STEP_START_VAL  36
     EXTERNAL_PRESSURE     1.0000000000000000E+00
     KEEP_ANGLES  T
     KEEP_SYMMETRY  T
     CONSTRAINT  Z
     PRESSURE_TOLERANCE     5.0000000000000000E+02
   &END CELL_OPT
 &END MOTION
 &FORCE_EVAL
   METHOD  QS
   STRESS_TENSOR  ANALYTICAL
   &DFT
     BASIS_SET_FILE_NAME BASIS_MOLOPT
     POTENTIAL_FILE_NAME GTH_POTENTIALS
     UKS  T
     SURFACE_DIPOLE_CORRECTION  T
     SURF_DIP_DIR  Z
     &SCF
       MAX_SCF  100
       EPS_SCF     5.0000000000000004E-06
       &OT  T
         PRECONDITIONER  FULL_ALL
       &END OT
       &OUTER_SCF  T
         OPTIMIZER  NONE
         EPS_SCF     5.0000000000000004E-06
         MAX_SCF  4
       &END OUTER_SCF
       &PRINT
         &RESTART  OFF
           BACKUP_COPIES  1
           &EACH
             JUST_ENERGY  0
             QS_SCF  0
             MD  20
           &END EACH
         &END RESTART
       &END PRINT
     &END SCF
     &QS
       EPS_DEFAULT     1.0000000000000000E-14
       METHOD  GPW
     &END QS
     &MGRID
       NGRIDS  5
       CUTOFF     1.2000000000000000E+03
     &END MGRID
     &XC
       DENSITY_CUTOFF     1.0000000000000000E-10
       GRADIENT_CUTOFF     1.0000000000000000E-10
       TAU_CUTOFF     1.0000000000000000E-10
       &XC_FUNCTIONAL  NO_SHORTCUT
         &PBE  T
         &END PBE
       &END XC_FUNCTIONAL
       &VDW_POTENTIAL
         POTENTIAL_TYPE  PAIR_POTENTIAL
         &PAIR_POTENTIAL
           R_CUTOFF     1.0000000000000004E+01
           TYPE  DFTD3
           PARAMETER_FILE_NAME dftd3.dat
           REFERENCE_FUNCTIONAL PBE
           EPS_CN     9.9999999999999995E-07
           CALCULATE_C9_TERM  T
           REFERENCE_C9_TERM  T
           LONG_RANGE_CORRECTION  F
           VERBOSE_OUTPUT  F
         &END PAIR_POTENTIAL
       &END VDW_POTENTIAL
     &END XC
   &END DFT
   &SUBSYS
     &CELL
       A     1.2832955945466217E+01    0.0000000000000000E+00    0.0000000000000000E+00
       B    -6.4147680486076126E+00    1.1110704178957903E+01    0.0000000000000000E+00
       C     0.0000000000000000E+00    0.0000000000000000E+00    3.2000000000000000E+01
       MULTIPLE_UNIT_CELL  1 1 1
       &CELL_REF
         A     1.2982353780853531E+01    0.0000000000000000E+00    0.0000000000000000E+00
         B    -6.4911768904267628E+00    1.1243048175136114E+01    0.0000000000000000E+00
         C     0.0000000000000000E+00    0.0000000000000000E+00    3.2000000000000000E+01
         MULTIPLE_UNIT_CELL  1 1 1
       &END CELL_REF
     &END CELL
     &COORD
N    2.6706317890421810E-04   -2.6201751463733239E-04   -2.0760319907306071E-01
Ga    6.2488654267306399E-04    1.8517333596832641E+00    4.7431029782915407E-01
N    6.3337781740769889E-04    1.8520314728702003E+00    2.3917554134834469E+00
Ga    4.4478755676700884E-04   -6.5223302345778644E-05    3.1194083404835342E+00
N    6.6158533856973986E-04   -9.8592973127407439E-05    5.0406232104858946E+00
Ga    8.3438914066425503E-04    1.8521428857973170E+00    5.7559067740584782E+00
N    1.1532417713143775E-03    1.8531396872413830E+00    7.6793730551806698E+00
Ga    1.0635291457348353E-03    1.4646582240844660E-03    8.3919111067546535E+00
N    1.6748237071853003E-03    3.8571179385842266E-03    1.0315899682566068E+01
Ga    2.7970624164991571E-03    1.8554619062178390E+00    1.1029961480394544E+01
N    4.4718514702370279E-03    1.8603826308225997E+00    1.2957045653042902E+01
Ga    2.5905453752957043E-03    6.5073649411590620E-03    1.3669484338111129E+01
N   -5.9822800230631724E-03    5.7242447385554658E-03    1.5587409793033459E+01
Ga   -2.1170156390726384E-03    1.8516317809648806E+00    1.6658076344014056E+01
N    1.5962057208539697E+00    9.2151519747321586E-01    1.7528437121813553E+01
N   -1.6034654571408598E+00    2.7774576522517855E+00   -2.0750551899896139E-01
Ga   -1.6030030142699758E+00    4.6294509533382548E+00    4.7438155554066269E-01
N   -1.6029508284093326E+00    4.6297605722726836E+00    2.3918510032547182E+00
Ga   -1.6034581392323963E+00    2.7778717270465361E+00    3.1196971492254262E+00
N   -1.6033560427392544E+00    2.7780548041513642E+00    5.0409798799222116E+00
Ga   -1.6026877662428312E+00    4.6298769020397694E+00    5.7574527867171144E+00
N   -1.6021391571272634E+00    4.6310887841188295E+00    7.6811794978295023E+00
Ga   -1.6019807406815487E+00    2.7792958318334766E+00    8.3935802901423191E+00
N   -1.6008104045580172E+00    2.7818258800517812E+00    1.0317631386795560E+01
Ga   -1.6010942340946799E+00    4.6338609243326099E+00    1.1029997623462339E+01
N   -1.6006988742133410E+00    4.6368004200028210E+00    1.2956087749846965E+01
Ga   -1.6008418037265544E+00    2.7846085700788401E+00    1.3675133878225628E+01
N   -1.5956066964344793E+00    2.7843445444828077E+00    1.5599907974504632E+01
Ga   -1.6073951383887348E+00    4.6243031709298581E+00    1.6604887947410354E+01
N   -1.7939298241308872E-02    3.7074061402240885E+00    1.7530369227465012E+01
N   -3.2071145944128694E+00    5.5550899799589093E+00   -2.0749147399654139E-01
Ga   -3.2065996535200654E+00    7.4070553943986148E+00    4.7441161688509853E-01
N   -3.2064204445323532E+00    7.4072564256548334E+00    2.3918979794210422E+00
Ga   -3.2069539806311029E+00    5.5553530989493813E+00    3.1199932251017861E+00
N   -3.2066724018250459E+00    5.5553953421210274E+00    5.0412922064199641E+00
Ga   -3.2059950684458736E+00    7.4073779260785608E+00    5.7570065805395698E+00
N   -3.2051666838928314E+00    7.4086871448793081E+00    7.6806640921592146E+00
Ga   -3.2056568696346566E+00    5.5573484427588911E+00    8.3947033734619811E+00
N   -3.2051269571807732E+00    5.5598200263689019E+00    1.0318767499782611E+01
Ga   -3.2046770276752636E+00    7.4123923917105561E+00    1.1030052671426949E+01
N   -3.2038997871756130E+00    7.4160581125672067E+00    1.2956401373229152E+01
Ga   -3.2052208456777658E+00    5.5655810081681336E+00    1.3676534030164563E+01
N   -3.2121349161798474E+00    5.5422602728062946E+00    1.5596639839105416E+01
Ga   -3.2314503325783157E+00    7.4021040184321354E+00    1.6636247447026566E+01
N   -1.6243183031538466E+00    6.4679157577876474E+00    1.7517679477597582E+01
N   -4.8107628071231723E+00    8.3326911714868697E+00   -2.0754553000143558E-01
Ga   -4.8103426472889463E+00    1.0184718153151778E+01    4.7414344195252317E-01
N   -4.8102073622831556E+00    1.0184929372445627E+01    2.3915979872429869E+00
Ga   -4.8104859789254402E+00    8.3329856670465965E+00    3.1195757488151092E+00
N   -4.8101709299231779E+00    8.3329393651890236E+00    5.0408263099005088E+00
Ga   -4.8097656829747555E+00    1.0185055861044104E+01    5.7565775074717118E+00
N   -4.8090565150513500E+00    1.0186277516882372E+01    7.6802497709624467E+00
Ga   -4.8096354307096174E+00    8.3341790857540197E+00    8.3924379875395072E+00
N   -4.8091754886596618E+00    8.3361107857828909E+00    1.0316456327208371E+01
Ga   -4.8086828280056695E+00    1.0188656090094300E+01    1.1026630111431995E+01
N   -4.8093329593447862E+00    1.0191678968407553E+01    1.2950466423625071E+01
Ga   -4.8096005043885990E+00    8.3424344787512403E+00    1.3674340979882381E+01
N   -4.8154725058900283E+00    8.3423859015343957E+00    1.5593335053474041E+01
Ga   -4.8219207614352042E+00    1.0194420831257190E+01    1.6615727110928837E+01
N   -3.2322748774995675E+00    9.2492385476256960E+00    1.7515990447263412E+01
N    3.2085585086456243E+00   -2.9962799271117944E-04   -2.0757421001413762E-01
Ga    3.2090012597605178E+00    1.8516860342398942E+00    4.7429192486951388E-01
N    3.2091398261760036E+00    1.8519461016666219E+00    2.3917370498270949E+00
Ga    3.2087469053052859E+00   -6.8579781462508333E-05    3.1195584119178634E+00
N    3.2090767701734655E+00   -5.2422023043529196E-05    5.0407927858439976E+00
Ga    3.2094268021196859E+00    1.8519996230361373E+00    5.7562498974608198E+00
N    3.2100812220693631E+00    1.8530743237630267E+00    7.6797974826589952E+00
Ga    3.2100489089775821E+00    1.7278929031795012E-03    8.3934273510385484E+00
N    3.2108587244022240E+00    3.8069231266665044E-03    1.0317436167488713E+01
Ga    3.2103364878757690E+00    1.8556414010582682E+00    1.1030310910330122E+01
N    3.2108442428821813E+00    1.8585292838733041E+00    1.2956619800510467E+01
Ga    3.2086438058060991E+00    6.0791473278191946E-03    1.3671638866956162E+01
N    3.1947754234398218E+00   -5.2625583249509712E-03    1.5590128860976273E+01
Ga    3.2085472505142043E+00    1.8572953000153587E+00    1.6662134079103232E+01
N    4.7911238548087596E+00    9.0822178523434327E-01    1.7521423357038415E+01
N    1.6048102357485063E+00    2.7773876844930303E+00   -2.0741033837816120E-01
Ga    1.6051656702445170E+00    4.6294606030420233E+00    4.7419612199926475E-01
N    1.6051550749101557E+00    4.6297200182251883E+00    2.3916571398044657E+00
Ga    1.6049649122005518E+00    2.7777188854619377E+00    3.1192929338974258E+00
N    1.6051659524072506E+00    2.7776766597690576E+00    5.0405144257917867E+00
Ga    1.6054242251044064E+00    4.6295947618946673E+00    5.7566281083591830E+00
N    1.6057504989326448E+00    4.6303668853953273E+00    7.6803130461053959E+00
Ga    1.6056696927082013E+00    2.7780054429471659E+00    8.3919527768640201E+00
N    1.6063689424202958E+00    2.7792826417675127E+00    1.0315960941228868E+01
Ga    1.6068588366707215E+00    4.6310443070536147E+00    1.1026595436182079E+01
N    1.6076236698195643E+00    4.6333914457337748E+00    1.2951869511238851E+01
Ga    1.6093047106443923E+00    2.7845448313815702E+00    1.3680274463417140E+01
N    1.6012797717909499E+00    2.7855085089969136E+00    1.5604712385939226E+01
Ga    1.5916113534086112E+00    4.6320666525255358E+00    1.6619654691845739E+01
N    3.1930379721285713E+00    3.7149949661958850E+00    1.7522729456750273E+01
N    1.0552718261538775E-03    5.5551061034565477E+00   -2.0764230000783604E-01
Ga    1.4884739619053220E-03    7.4070816436067330E+00    4.7427095743335707E-01
N    1.5217669789381189E-03    7.4073310776934633E+00    2.3917709924547514E+00
Ga    1.1449922026480236E-03    5.5554703842550568E+00    3.1198709391585182E+00
N    1.2980171459796349E-03    5.5555146835902631E+00    5.0412055364719652E+00
Ga    1.8812467824716457E-03    7.4075484378121104E+00    5.7572103191121773E+00
N    2.5427084935615348E-03    7.4088635875646931E+00    7.6809061889588550E+00
Ga    2.1452065210051411E-03    5.5569327325187388E+00    8.3934021976326001E+00
N    2.9296387790417018E-03    5.5594991039134545E+00    1.0317575477891387E+01
Ga    4.3899322243521671E-03    7.4129036395791994E+00    1.1027139655295315E+01
N    5.4139293544559850E-03    7.4164154679149679E+00    1.2952893531273071E+01
Ga    6.2287133202888175E-03    5.5646399615587301E+00    1.3666768510480800E+01
N   -3.0126408452774995E-03    5.5511219217933032E+00    1.5583812160340701E+01
Ga   -1.1180687867751159E-02    7.3870012329427057E+00    1.6627970436206230E+01
N    1.5910252584872737E+00    6.4742897552857244E+00    1.7526704214479302E+01
N   -1.6025893204261901E+00    8.3327758529804399E+00   -2.0761640793403202E-01
Ga   -1.6020933245900151E+00    1.0184711240521102E+01    4.7437387721387547E-01
N   -1.6019302783253415E+00    1.0184981039663251E+01    2.3918402330506434E+00
Ga   -1.6023535386680663E+00    8.3331150448189639E+00    3.1199797479805884E+00
N   -1.6020927515048908E+00    8.3333219519816435E+00    5.0412904409783472E+00
Ga   -1.6014420222240997E+00    1.0185435872858701E+01    5.7572388013045508E+00
N   -1.6005165656878102E+00    1.0186901770417803E+01    7.6810047023414088E+00
Ga   -1.6013563264488417E+00    8.3352915135851600E+00    8.3936537587489894E+00
N   -1.6005966344191422E+00    8.3376090275646852E+00    1.0317738337535305E+01
Ga   -1.6001168707869069E+00    1.0189550781832288E+01    1.1030686774788148E+01
N   -1.5996094106779122E+00    1.0191913616843868E+01    1.2956453222876414E+01
Ga   -1.5978667203778165E+00    8.3408043126588129E+00    1.3675655800477362E+01
N   -1.6171112903856895E+00    8.3303228009026569E+00    1.5597960964505251E+01
Ga   -1.6230624945133083E+00    1.0186434573444588E+01    1.6631647333878114E+01
N   -2.7996840106994717E-02    9.2214702143187992E+00    1.7506394234672413E+01
N    6.4167146694305695E+00   -2.4277346123769070E-04   -2.0750306178608843E-01
Ga    6.4172322855853787E+00    1.8517416788648129E+00    4.7438727944151787E-01
N    6.4174134879994993E+00    1.8520690301720657E+00    2.3918662462380360E+00
Ga    6.4169027318450587E+00    1.7353430883486091E-04    3.1198565468993213E+00
N    6.4171661705254142E+00    3.8017477922124693E-04    5.0411160647089925E+00
Ga    6.4177830365076565E+00    1.8522299170822276E+00    5.7572648757370297E+00
N    6.4183848351261314E+00    1.8534952026664793E+00    7.6810014602946728E+00
Ga    6.4180841901715677E+00    2.2411215028491104E-03    8.3950903860282775E+00
N    6.4185692947108146E+00    4.8577422834339247E-03    1.0319308898281019E+01
Ga    6.4185219023585018E+00    1.8568570142988252E+00    1.1032268950538530E+01
N    6.4193494520033800E+00    1.8607392455903469E+00    1.2958456622908306E+01
Ga    6.4184290251749543E+00    9.7056983067314202E-03    1.3678345249922668E+01
N    6.4103353883827845E+00   -1.2358067905133031E-02    1.5598024709369689E+01
Ga    6.3946196972358162E+00    1.8450147114744924E+00    1.6640358572275289E+01
N    8.0029483049813646E+00    9.0776787386236391E-01    1.7518422896970524E+01
N    4.8130871639503665E+00    2.7773736988045630E+00   -2.0754862905549476E-01
Ga    4.8135143027925924E+00    4.6293652388521087E+00    4.7422566764020879E-01
N    4.8136668376871166E+00    4.6295617253142067E+00    2.3916787201806127E+00
Ga    4.8133495126399310E+00    2.7776638148168216E+00    3.1197042121965062E+00
N    4.8136320851762218E+00    2.7776511372398756E+00    5.0409630610595615E+00
Ga    4.8139304024741429E+00    4.6295397757491470E+00    5.7569266139600934E+00
N    4.8143389420254206E+00    4.6305980255341019E+00    7.6806683781779892E+00
Ga    4.8140889077531588E+00    2.7785867212379314E+00    8.3935171471500034E+00
N    4.8143601680059476E+00    2.7803103073724098E+00    1.0317537427943170E+01
Ga    4.8144431867054021E+00    4.6329649946701128E+00    1.1026648894629071E+01
N    4.8139090101742479E+00    4.6357533741615038E+00    1.2950546222550958E+01
Ga    4.8140603421909569E+00    2.7873325191665401E+00    1.3676745815171246E+01
N    4.8089987499563023E+00    2.7871535788429269E+00    1.5596161470361803E+01
Ga    4.8036306288890378E+00    4.6382984164468812E+00    1.6618412687296448E+01
N    6.3963565652505130E+00    3.6928005838558762E+00    1.7515130795055018E+01
N    3.2093554911776825E+00    5.5550669823559939E+00   -2.0755280194276510E-01
Ga    3.2097057270787239E+00    7.4070512143210818E+00    4.7433879730575201E-01
N    3.2096917356617634E+00    7.4072444470552794E+00    2.3917873020260663E+00
Ga    3.2095104630880944E+00    5.5551428808284209E+00    3.1194178336606759E+00
N    3.2096927330343377E+00    5.5549556418766350E+00    5.0406651399299358E+00
Ga    3.2100000220934874E+00    7.4072011396300663E+00    5.7556380385598178E+00
N    3.2103428708265671E+00    7.4082420686812993E+00    7.6791051359180393E+00
Ga    3.2099361420107138E+00    5.5567695546933109E+00    8.3924099467769864E+00
N    3.2100883621832210E+00    5.5591765365460581E+00    1.0316357214903888E+01
Ga    3.2115621164300308E+00    7.4117429729487077E+00    1.1028725640479935E+01
N    3.2130047014757115E+00    7.4155275576237987E+00    1.2955708098971625E+01
Ga    3.2108540179932956E+00    5.5614670646521089E+00    1.3668174624120702E+01
N    3.2031877201010612E+00    5.5597171153251130E+00    1.5586527515833355E+01
Ga    3.2078790299044648E+00    7.4059719732489917E+00    1.6655361082767499E+01
N    4.8060783381558503E+00    6.4763045953797720E+00    1.7526608803673724E+01
N    1.6056227424891887E+00    8.3327762750237397E+00   -2.0751561914003908E-01
Ga    1.6060629535792221E+00    1.0184786306748087E+01    4.7431208531623020E-01
N    1.6060999246078336E+00    1.0185105751743505E+01    2.3917670395415933E+00
Ga    1.6055852481371986E+00    8.3331821408739408E+00    3.1196801624790949E+00
N    1.6057547104949508E+00    8.3333991361001907E+00    5.0409729161640060E+00
Ga    1.6064383437926220E+00    1.0185585173694214E+01    5.7571189950073300E+00
N    1.6069860974310903E+00    1.0187107717029356E+01    7.6809118689355600E+00
Ga    1.6072219549096589E+00    8.3350941887340184E+00    8.3923135619783267E+00
N    1.6082152196520749E+00    8.3379477702661848E+00    1.0316403686849259E+01
Ga    1.6077199782920399E+00    1.0189620137963507E+01    1.1030093599938411E+01
N    1.6079349565984649E+00    1.0192095919395477E+01    1.2956158916465943E+01
Ga    1.6083614430286910E+00    8.3395866955865543E+00    1.3674802275444593E+01
N    1.6127376971890657E+00    8.3383657574203784E+00    1.5599400755268684E+01
Ga    1.6002699757115089E+00    1.0176987649268527E+01    1.6603584694643448E+01
N    3.1915966639892992E+00    9.2618179952375765E+00    1.7529033712410595E+01
N    9.6249109604209782E+00   -2.3003609164038935E-04   -2.0764218992772768E-01
Ga    9.6253744596584809E+00    1.8517682945969971E+00    4.7429581279008437E-01
N    9.6254115717102167E+00    1.8521367311434382E+00    2.3917573574382942E+00
Ga    9.6250139397926713E+00    2.1562845122871744E-04    3.1195868019717952E+00
N    9.6251447531883016E+00    5.0671600375479383E-04    5.0408757007942127E+00
Ga    9.6257633206071471E+00    1.8523721944866522E+00    5.7574699375188674E+00
N    9.6261827453259929E+00    1.8538789484484286E+00    7.6813184880551670E+00
Ga    9.6259541079956765E+00    2.0740549625292938E-03    8.3940670277622171E+00
N    9.6266011658119339E+00    5.1155642773774886E-03    1.0318288601723761E+01
Ga    9.6271657580320547E+00    1.8584035390624889E+00    1.1027904820043689E+01
N    9.6288701046461735E+00    1.8620091268121830E+00    1.2953558872196501E+01
Ga    9.6296491529292645E+00    9.6700140440810576E-03    1.3665730061153397E+01
N    9.6215187136354157E+00   -7.4722036742328711E-03    1.5582301492310021E+01
Ga    9.6138618324857266E+00    1.8284251807199134E+00    1.6625130714455292E+01
N    1.1214993271382847E+01    9.1671172655119104E-01    1.7526617759535128E+01
N    8.0212718211012373E+00    2.7774283538096860E+00   -2.0754640946589692E-01
Ga    8.0217834368908765E+00    4.6293859331137748E+00    4.7435604692470279E-01
N    8.0219566726497238E+00    4.6296153642606859E+00    2.3918378093516668E+00
Ga    8.0214986532453914E+00    2.7778141371453620E+00    3.1200559581553655E+00
N    8.0217509074991487E+00    2.7779893935623705E+00    5.0414167696061982E+00
Ga    8.0224095994185323E+00    4.6298740567721000E+00    5.7576311262425302E+00
N    8.0231210931961563E+00    4.6313701936011222E+00    7.6813738784683734E+00
Ga    8.0219920918134449E+00    2.7797554414548067E+00    8.3944071922131673E+00
N    8.0220503822835028E+00    2.7825122286696362E+00    1.0318544140802384E+01
Ga    8.0230376651692872E+00    4.6349294811042592E+00    1.1030073856313466E+01
N    8.0240313627944175E+00    4.6374637194500234E+00    1.2955886380214107E+01
Ga    8.0255128766012529E+00    2.7864441113369192E+00    1.3676353768547338E+01
N    8.0107365382433162E+00    2.7715241958082761E+00    1.5598340210573749E+01
Ga    8.0046614582449784E+00    4.6272892094404554E+00    1.6630457976877750E+01
N    9.6015566930815552E+00    3.6623773797968271E+00    1.7507506474680408E+01
N    6.4176334750009234E+00    5.5550285017002494E+00   -2.0754268108388224E-01
Ga    6.4181009654878887E+00    7.4069993918742529E+00    4.7429373717788448E-01
N    6.4182696495970903E+00    7.4071376439778076E+00    2.3917482812793072E+00
Ga    6.4178826955369424E+00    5.5551309689636605E+00    3.1197163719784684E+00
N    6.4181389275435379E+00    5.5549893719795529E+00    5.0410120953157262E+00
Ga    6.4185418365959377E+00    7.4072076282119061E+00    5.7560089691295300E+00
N    6.4189996580048829E+00    7.4084646522154971E+00    7.6795449748027291E+00
Ga    6.4186317570077005E+00    5.5569937044041344E+00    8.3930457336211184E+00
N    6.4188449743664728E+00    5.5593792148915355E+00    1.0316970538752138E+01
Ga    6.4188233644981247E+00    7.4118915075703491E+00    1.1028437098075974E+01
N    6.4195786269075388E+00    7.4143227439464505E+00    1.2954520551951381E+01
Ga    6.4170011517305490E+00    5.5621364126876038E+00    1.3670124041371881E+01
N    6.4055948193890169E+00    5.5464255526707733E+00    1.5588704962658777E+01
Ga    6.4186102763308348E+00    7.4104547982852500E+00    1.6660056618393188E+01
N    8.0005745435513393E+00    6.4599961118422131E+00    1.7518371375820152E+01
N    4.8138942081598666E+00    8.3326857424300176E+00   -2.0745419905337564E-01
Ga    4.8142821619512368E+00    1.0184780245885641E+01    4.7411607435554382E-01
N    4.8143094539070459E+00    1.0185067705132303E+01    2.3915692356010640E+00
Ga    4.8140787795465849E+00    8.3330019306435421E+00    3.1191756656684078E+00
N    4.8142746667907721E+00    8.3329742266754696E+00    5.0403651522612245E+00
Ga    4.8144034951730967E+00    1.0185174947953351E+01    5.7561361082802263E+00
N    4.8146134550324584E+00    1.0186400379878911E+01    7.6797852772636723E+00
Ga    4.8145791777765856E+00    8.3341517707503847E+00    8.3911616150796480E+00
N    4.8148794698206396E+00    8.3362828497090060E+00    1.0315141748258913E+01
Ga    4.8164276399277837E+00    1.0187823430129846E+01    1.1027067631519987E+01
N    4.8172444203569009E+00    1.0189955234384911E+01    1.2952077061920836E+01
Ga    4.8181071897071890E+00    8.3399657514410208E+00    1.3678552924523139E+01
N    4.8105549326096719E+00    8.3387066886657095E+00    1.5602639904750600E+01
Ga    4.8005203538641110E+00    1.0185768771590331E+01    1.6616138236137605E+01
N    6.4018578400165183E+00    9.2684677123605610E+00    1.7520319992657402E+01
H    2.8510291063947861E-04   -1.6732648087437567E-04   -1.2349438681694465E+00
H   -1.6034911854620213E+00    2.7775314960566582E+00   -1.2348444821915046E+00
H   -3.2071576661598233E+00    5.5551281748340609E+00   -1.2348329488292837E+00
H   -4.8107941614920886E+00    8.3326950011639624E+00   -1.2348868776204871E+00
H    3.2085410164045207E+00   -2.6774533636047458E-04   -1.2349148534998586E+00
H    1.6047598378909655E+00    2.7774118744594225E+00   -1.2347429900525699E+00
H    9.7595109176007618E-04    5.5551437569028757E+00   -1.2349857264190913E+00
H   -1.6026461059651564E+00    8.3328220575496932E+00   -1.2349619217568544E+00
H    6.4166588473491712E+00   -1.7722065977796104E-04   -1.2348448842897326E+00
H    4.8130811055041862E+00    2.7774111474038445E+00   -1.2348862464763750E+00
H    3.2093420380753197E+00    5.5551355740086175E+00   -1.2348933289423250E+00
H    1.6056045442381983E+00    8.3328126328699970E+00   -1.2348563739339391E+00
H    9.6248034448801025E+00   -1.6637118572917660E-04   -1.2349865362074905E+00
H    8.0211963840151341E+00    2.7774823532785162E+00   -1.2348847968950969E+00
H    6.4176088512900904E+00    5.5550770582238744E+00   -1.2348832816095210E+00
H    4.8138432715666521E+00    8.3326380125440025E+00   -1.2347965891609372E+00
     &END COORD
     &KIND H
       BASIS_SET DZVP-MOLOPT-SR-GTH-q1
       POTENTIAL GTH-PBE-q1
       &POTENTIAL
 1
  0.2000000000000000E+00 2 -0.4178900440000000E+01  0.7244633100000000E+00
 0
         # Potential name:  GTH-PBE-Q1  for symbol:  H
         # Potential read from the potential filename: GTH_POTENTIALS
       &END POTENTIAL
     &END KIND
     &KIND N
       BASIS_SET DZVP-MOLOPT-SR-GTH
       POTENTIAL GTH-PBE-q5
       &POTENTIAL
 2 3
  0.2837905100000000E+00 2 -0.1241522559000000E+02  0.1868095920000000E+01
 2
  0.2554050000000000E+00 1  0.1363026257000000E+02
  0.2454945300000000E+00 0
         # Potential name:  GTH-PBE-Q5  for symbol:  N
         # Potential read from the potential filename: GTH_POTENTIALS
       &END POTENTIAL
     &END KIND
     &KIND Ga
       BASIS_SET DZVP-MOLOPT-SR-GTH
       POTENTIAL GTH-PBE-q13
       &POTENTIAL
 2 1 10
  0.4900000000000000E+00 0
 3
  0.4167772300000000E+00 3  0.1047568975000000E+02 -0.4921768140000000E+01  0.8707055900000000E+00
  0.7770178090000000E+01 -0.2248152160000000E+01
  0.1784415450000000E+01
  0.5696265200000000E+00 2  0.1777985340000000E+01  0.1958597600000000E+00
 -0.2317443900000000E+00
  0.2381265000000000E+00 1 -0.1624868022000000E+02
         # Potential name:  GTH-PBE-Q13  for symbol:  GA
         # Potential read from the potential filename: GTH_POTENTIALS
       &END POTENTIAL
     &END KIND
     &TOPOLOGY
       NUMBER_OF_ATOMS  256
       MULTIPLE_UNIT_CELL  1 1 1
     &END TOPOLOGY
   &END SUBSYS
 &END FORCE_EVAL
