 # Version information for this restart file 
 # current date 2019-06-09 04:05:43.421
 # current working dir /lustre03/project/6037349/rzk/GaN-carbene/444-addat/00-Surface/UKS_SYMM
 # Program compiled at                              Sun Apr  7 00:48:11 EDT 2019
 # Program compiled on                          beluga2.int.ets1.calculquebec.ca
 # Program compiled for                        Beluga-Linux-x86-64-intel-openmpi
 # Source code revision number                                         svn:18619
 &GLOBAL
   PRINT_LEVEL  MEDIUM
   PROJECT_NAME TEST
   RUN_TYPE  CELL_OPT
 &END GLOBAL
 &MOTION
   &CELL_OPT
     MAX_ITER  300
     STEP_START_VAL  9
     EXTERNAL_PRESSURE     1.0000000000000000E+00
     KEEP_ANGLES  T
     KEEP_SYMMETRY  T
     CONSTRAINT  Z
     PRESSURE_TOLERANCE     5.0000000000000000E+02
   &END CELL_OPT
 &END MOTION
 &FORCE_EVAL
   METHOD  QS
   STRESS_TENSOR  ANALYTICAL
   &DFT
     BASIS_SET_FILE_NAME BASIS_MOLOPT
     POTENTIAL_FILE_NAME GTH_POTENTIALS
     UKS  T
     SURFACE_DIPOLE_CORRECTION  T
     SURF_DIP_DIR  Z
     &SCF
       MAX_SCF  100
       EPS_SCF     5.0000000000000004E-06
       &OT  T
         PRECONDITIONER  FULL_ALL
       &END OT
       &OUTER_SCF  T
         OPTIMIZER  NONE
         EPS_SCF     5.0000000000000004E-06
         MAX_SCF  4
       &END OUTER_SCF
       &PRINT
         &RESTART  OFF
           BACKUP_COPIES  1
           &EACH
             JUST_ENERGY  0
             QS_SCF  0
             MD  20
           &END EACH
         &END RESTART
       &END PRINT
     &END SCF
     &QS
       EPS_DEFAULT     1.0000000000000000E-14
       METHOD  GPW
     &END QS
     &MGRID
       NGRIDS  5
       CUTOFF     1.2000000000000000E+03
     &END MGRID
     &XC
       DENSITY_CUTOFF     1.0000000000000000E-10
       GRADIENT_CUTOFF     1.0000000000000000E-10
       TAU_CUTOFF     1.0000000000000000E-10
       &XC_FUNCTIONAL  NO_SHORTCUT
         &PBE  T
         &END PBE
       &END XC_FUNCTIONAL
       &VDW_POTENTIAL
         POTENTIAL_TYPE  PAIR_POTENTIAL
         &PAIR_POTENTIAL
           R_CUTOFF     1.0000000000000004E+01
           TYPE  DFTD3
           PARAMETER_FILE_NAME dftd3.dat
           REFERENCE_FUNCTIONAL PBE
           EPS_CN     9.9999999999999995E-07
           CALCULATE_C9_TERM  T
           REFERENCE_C9_TERM  T
           LONG_RANGE_CORRECTION  F
           VERBOSE_OUTPUT  F
         &END PAIR_POTENTIAL
       &END VDW_POTENTIAL
     &END XC
   &END DFT
   &SUBSYS
     &CELL
       A     1.2907928193760787E+01    0.0000000000000000E+00    0.0000000000000000E+00
       B    -6.4533684163061897E+00    1.1177561977002640E+01    0.0000000000000000E+00
       C     0.0000000000000000E+00    0.0000000000000000E+00    3.2000000000000000E+01
       MULTIPLE_UNIT_CELL  1 1 1
       &CELL_REF
         A     1.2982353780853531E+01    0.0000000000000000E+00    0.0000000000000000E+00
         B    -6.4911768904267628E+00    1.1243048175136114E+01    0.0000000000000000E+00
         C     0.0000000000000000E+00    0.0000000000000000E+00    3.2000000000000000E+01
         MULTIPLE_UNIT_CELL  1 1 1
       &END CELL_REF
     &END CELL
     &COORD
N    2.0375102537124924E-04    2.1787462113352684E-04   -3.2115692509546281E-02
Ga    6.0833822828608680E-05    1.8627279078646466E+00    6.3106727682230823E-01
N    7.0134675314789891E-05    1.8629633319011041E+00    2.5456823398566244E+00
Ga    1.5054884996686428E-04    3.0387305609071402E-04    3.2439555512036873E+00
N    1.0602177616986968E-04    6.4743568776213980E-05    5.1589107362371003E+00
Ga   -2.2054795241077141E-05    1.8626337321430280E+00    5.8351861817349358E+00
N   -4.5106480001813075E-05    1.8629002071660672E+00    7.7483162545146467E+00
Ga    1.0791716758442047E-04    4.4324505178350385E-04    8.4063036636142954E+00
N    1.6692734530162771E-04    6.6454603881242649E-04    1.0303177105320762E+01
Ga   -1.8004439928399524E-04    1.8617636903478714E+00    1.0928769879247392E+01
N    1.3705693406306648E-03    1.8637442721581092E+00    1.2822210373983312E+01
Ga    1.6355890401437622E-03   -2.6755455369413010E-03    1.3491077783731036E+01
N   -1.1561425510084546E-02   -2.7600503320436946E-03    1.5399110218264253E+01
Ga   -3.0675612138086693E-04    1.8637634164093559E+00    1.6384923049727220E+01
N    1.6046094767151886E+00    9.2112096494805673E-01    1.7319337172202587E+01
N   -1.6131425598018789E+00    2.7945875455722056E+00   -3.2079943866404503E-02
Ga   -1.6132793754313297E+00    4.6571365138585810E+00    6.3107687753400943E-01
N   -1.6132668816133378E+00    4.6573216163387459E+00    2.5457525453836962E+00
Ga   -1.6131852869457437E+00    2.7946245195947017E+00    3.2439781732843387E+00
N   -1.6132514759602670E+00    2.7944615582340848E+00    5.1589301050170038E+00
Ga   -1.6133710953429938E+00    4.6570361545434897E+00    5.8352667910038356E+00
N   -1.6133074089028592E+00    4.6573254172769252E+00    7.7487152653026214E+00
Ga   -1.6124047169884044E+00    2.7951871723338249E+00    8.4066573875035360E+00
N   -1.6115404865593239E+00    2.7957407534191847E+00    1.0303649131806598E+01
Ga   -1.6134117859168433E+00    4.6574627633441024E+00    1.0929667824306270E+01
N   -1.6124715956457616E+00    4.6575928200436358E+00    1.2822416734471505E+01
Ga   -1.6135078304718504E+00    2.7947808433755985E+00    1.3491050434928248E+01
N   -1.6150344736999795E+00    2.8159548972868640E+00    1.5408325460122379E+01
Ga   -1.6046038034603098E+00    4.6722311896402040E+00    1.6347460347310040E+01
N   -2.5578161861078443E-02    3.7343140457649628E+00    1.7336847359139000E+01
N   -3.2264955391782535E+00    5.5890032147562279E+00   -3.2089257961353916E-02
Ga   -3.2266202071034287E+00    7.4515165098630627E+00    6.3110262761918445E-01
N   -3.2265943539852833E+00    7.4516697682218807E+00    2.5457282270064052E+00
Ga   -3.2265461665527919E+00    5.5890701585486040E+00    3.2439558058328917E+00
N   -3.2265914480065043E+00    5.5888908090029465E+00    5.1589358760180053E+00
Ga   -3.2265446289660473E+00    7.4514794968828610E+00    5.8354325306273012E+00
N   -3.2264580566021599E+00    7.4517474897743998E+00    7.7488847762318924E+00
Ga   -3.2259889632264644E+00    5.5893555664491785E+00    8.4068985681465520E+00
N   -3.2256685480115705E+00    5.5895899937438775E+00    1.0304339594438167E+01
Ga   -3.2259967391187150E+00    7.4519612235141475E+00    1.0928366854614024E+01
N   -3.2224468094113812E+00    7.4550841953600191E+00    1.2823298926020167E+01
Ga   -3.2229077657584204E+00    5.5944009215909407E+00    1.3498617810050675E+01
N   -3.2253093374849402E+00    5.5823587083433948E+00    1.5415812893811923E+01
Ga   -3.2368893004644996E+00    7.4769858722044855E+00    1.6380107352727638E+01
N   -1.6362135436711294E+00    6.5216579771225245E+00    1.7324672937228186E+01
N   -4.8398366576699097E+00    8.3833850076202214E+00   -3.2079230256789867E-02
Ga   -4.8399577597581001E+00    1.0245922671655284E+01    6.3108884866632076E-01
N   -4.8399862790782819E+00    1.0246085597082239E+01    2.5457280793640797E+00
Ga   -4.8398134754740738E+00    8.3834494701116284E+00    3.2439281398801465E+00
N   -4.8398504691627275E+00    8.3831586043078872E+00    5.1589655808343942E+00
Ga   -4.8400555723461984E+00    1.0245922838630388E+01    5.8352429948473388E+00
N   -4.8400153772371182E+00    1.0246011166724619E+01    7.7486153845473682E+00
Ga   -4.8395656533273916E+00    8.3836495892269500E+00    8.4062906006946960E+00
N   -4.8392950632150731E+00    8.3830063591523611E+00    1.0303571783590378E+01
Ga   -4.8407655432817602E+00    1.0246034813840030E+01    1.0925202749356693E+01
N   -4.8394090243209344E+00    1.0244707342591747E+01    1.2815412924093001E+01
Ga   -4.8400748287017326E+00    8.3856830967042431E+00    1.3491675480872136E+01
N   -4.8450888249471271E+00    8.3955235512565203E+00    1.5400087774819633E+01
Ga   -4.8440918396880681E+00    1.0246880814687719E+01    1.6378259816587267E+01
N   -3.2279609590641360E+00    9.3145932840576702E+00    1.7330749168564754E+01
N    3.2271876177984478E+00    2.0579876349646159E-04   -3.2084764776269724E-02
Ga    3.2270654985462661E+00    1.8627180319136956E+00    6.3109191684549293E-01
N    3.2271071197059582E+00    1.8629383237456791E+00    2.5457480948882285E+00
Ga    3.2271299181571731E+00    2.2283669569084463E-04    3.2439949051053767E+00
N    3.2271373520054794E+00    6.1632550519917395E-05    5.1589833491157435E+00
Ga    3.2269553209836181E+00    1.8626266355877534E+00    5.8352489093604829E+00
N    3.2271131990618360E+00    1.8629089753893044E+00    7.7487986250956533E+00
Ga    3.2272654343292388E+00   -1.8301975629696958E-04    8.4064702490528038E+00
N    3.2275676929932011E+00   -5.2952903465580919E-04    1.0303471558133968E+01
Ga    3.2276430967305698E+00    1.8627271077808130E+00    1.0921672673068379E+01
N    3.2296067999306333E+00    1.8642308998734662E+00    1.2814516722547312E+01
Ga    3.2240076225148240E+00    2.7570100286994320E-03    1.3486606448190988E+01
N    3.2105648549065067E+00   -8.8066090827550181E-03    1.5395134552504613E+01
Ga    3.2269098016405642E+00    1.8795745599925180E+00    1.6386611180847392E+01
N    4.8220671961158841E+00    9.2204250429713963E-01    1.7310412466970270E+01
N    1.6138284556094142E+00    2.7945944123506767E+00   -3.2078991490985816E-02
Ga    1.6137150303851029E+00    4.6571409146951295E+00    6.3109027261055595E-01
N    1.6137482331236048E+00    4.6573239825339057E+00    2.5457477203016667E+00
Ga    1.6137543742100320E+00    2.7946262478990898E+00    3.2439742007356931E+00
N    1.6137818338900827E+00    2.7944650779863771E+00    5.1589655773965424E+00
Ga    1.6136500802731080E+00    4.6570030614901619E+00    5.8352201620754069E+00
N    1.6137319037368014E+00    4.6572521356265346E+00    7.7489076257029241E+00
Ga    1.6132630122089384E+00    2.7942571626075750E+00    8.4057997116663508E+00
N    1.6132587359243746E+00    2.7934839580703157E+00    1.0302576784564378E+01
Ga    1.6137946292921830E+00    4.6562704986674062E+00    1.0922337383437245E+01
N    1.6161547838161550E+00    4.6554324187904008E+00    1.2814956931318941E+01
Ga    1.6168095006003076E+00    2.7936575305678186E+00    1.3488947198340608E+01
N    1.6015635068309448E+00    2.8042319756132499E+00    1.5402878675412499E+01
Ga    1.6011460299644986E+00    4.6547273889061040E+00    1.6363397844362641E+01
N    3.2104356217939611E+00    3.7293542239052400E+00    1.7324303439427055E+01
N    4.9456058294249528E-04    5.5889936340467239E+00   -3.2093074726173135E-02
Ga    3.7011546519587896E-04    7.4515203267300176E+00    6.3105678500071316E-01
N    3.6711848532775714E-04    7.4516956722331704E+00    2.5457374794667778E+00
Ga    4.5058417992149239E-04    5.5890529610985773E+00    3.2440041309767493E+00
N    4.3538943263409495E-04    5.5888895974651076E+00    5.1590321575284808E+00
Ga    3.0400610701726506E-04    7.4515640944638966E+00    5.8353615582488487E+00
N    4.8808831853312042E-04    7.4517744685560556E+00    7.7491104772984132E+00
Ga    9.4656593807434640E-06    5.5892125929961542E+00    8.4062803341994119E+00
N    7.1192718851093823E-05    5.5891380300595843E+00    1.0304103143415444E+01
Ga    1.8963551093752083E-03    7.4524803317830512E+00    1.0925234085332340E+01
N    5.4128588537035701E-03    7.4528616728331469E+00    1.2817993399450643E+01
Ga    4.7537472881411897E-03    5.5904349037074841E+00    1.3485429425892718E+01
N   -6.6934195914816180E-03    5.5844416839891302E+00    1.5392632403562470E+01
Ga   -2.7949216795721704E-04    7.4244037930458306E+00    1.6352413372126232E+01
N    1.6115422301472477E+00    6.5125502160315918E+00    1.7325108509844661E+01
N   -1.6128608161898854E+00    8.3833879504116950E+00   -3.2085677901204743E-02
Ga   -1.6129789536379318E+00    1.0245917030138415E+01    6.3109493949909279E-01
N   -1.6129600911268858E+00    1.0246103120678468E+01    2.5457187415618026E+00
Ga   -1.6129300363544570E+00    8.3834641553380624E+00    3.2440304402919020E+00
N   -1.6129180639928584E+00    8.3832519789364355E+00    5.1589887671772541E+00
Ga   -1.6129687624292961E+00    1.0245776345596449E+01    5.8354493912932330E+00
N   -1.6128712974637436E+00    1.0246039617201763E+01    7.7488048704296748E+00
Ga   -1.6127473642084014E+00    8.3837607177875793E+00    8.4072492585739393E+00
N   -1.6123154462944815E+00    8.3839146919894301E+00    1.0305053837038313E+01
Ga   -1.6125223104586552E+00    1.0246599990025395E+01    1.0930321814354212E+01
N   -1.6108045348467306E+00    1.0249792944296624E+01    1.2823077559980440E+01
Ga   -1.6057852874444476E+00    8.3878394056849910E+00    1.3493023603044584E+01
N   -1.6170632764591173E+00    8.3961668130781923E+00    1.5406242883964815E+01
Ga   -1.6368871546933044E+00    1.0266995390780176E+01    1.6371081690146948E+01
N   -2.9901882438804504E-02    9.2560514875568067E+00    1.7325175319434340E+01
N    6.4541514351511475E+00    1.9336357772719518E-04   -3.2097039586897559E-02
Ga    6.4540330304108453E+00    1.8627134955566036E+00    6.3103236348871850E-01
N    6.4540589010129139E+00    1.8629305664774627E+00    2.5457642809146734E+00
Ga    6.4540739615308453E+00    1.8755779272143435E-04    3.2439652104741907E+00
N    6.4540602855741263E+00    5.4928485091058861E-05    5.1589424607023933E+00
Ga    6.4539831578326545E+00    1.8624980924085837E+00    5.8351570830354431E+00
N    6.4540155570721849E+00    1.8627124989759758E+00    7.7487630488495878E+00
Ga    6.4541832936232373E+00   -6.8868684055257878E-05    8.4073581271770035E+00
N    6.4543116964644076E+00   -1.9884499645863031E-04    1.0304904219287721E+01
Ga    6.4546249507079727E+00    1.8618698322722018E+00    1.0926535879561770E+01
N    6.4592650644752618E+00    1.8647023197910124E+00    1.2820745899384766E+01
Ga    6.4549115412559068E+00    5.3712580340493157E-03    1.3501243404073454E+01
N    6.4561432605157218E+00   -2.0423858093025219E-02    1.5418226086717223E+01
Ga    6.4400269107039581E+00    1.8925905133293970E+00    1.6376161589364230E+01
N    8.0490530811644199E+00    9.3628564428623606E-01    1.7324042833860961E+01
N    4.8408097914953272E+00    2.7945967262544040E+00   -3.2091072117573165E-02
Ga    4.8406695721129287E+00    4.6571324332259287E+00    6.3105344655837370E-01
N    4.8406834801231717E+00    4.6573238394884395E+00    2.5457465954348950E+00
Ga    4.8407530982762879E+00    2.7946466291344971E+00    3.2439596200027907E+00
N    4.8407289466971921E+00    2.7944849554978686E+00    5.1589933987051690E+00
Ga    4.8405714277497847E+00    4.6570829320412956E+00    5.8350497785856392E+00
N    4.8405322998708682E+00    4.6573829027956517E+00    7.7485172354967640E+00
Ga    4.8411045904776042E+00    2.7947265342223178E+00    8.4053726864904394E+00
N    4.8418544310643075E+00    2.7949958275586457E+00    1.0302717544765857E+01
Ga    4.8404522191628665E+00    4.6572958471761980E+00    1.0923141986716763E+01
N    4.8412445299603837E+00    4.6578879459007352E+00    1.2814218456036665E+01
Ga    4.8425739291235841E+00    2.7983861874510030E+00    1.3486331454005059E+01
N    4.8364367433232047E+00    2.8112235689724296E+00    1.5394981335766833E+01
Ga    4.8280498215124652E+00    4.6762232998058444E+00    1.6374656259122407E+01
N    6.4426163949813491E+00    3.7349051617252669E+00    1.7313385007263154E+01
N    3.2274762322615871E+00    5.5889843932871566E+00   -3.2083127543139592E-02
Ga    3.2273270212368312E+00    7.4515019430733043E+00    6.3105202243406133E-01
N    3.2273376266289495E+00    7.4516541112294323E+00    2.5457002625056404E+00
Ga    3.2273772120015880E+00    5.5890573977965712E+00    3.2439148427602826E+00
N    3.2273930469661667E+00    5.5888608887996716E+00    5.1589366712624916E+00
Ga    3.2272499634823455E+00    7.4515256045356377E+00    5.8352632768127082E+00
N    3.2272918465093170E+00    7.4517602512934937E+00    7.7485823901478925E+00
Ga    3.2274582028145473E+00    5.5897420348669717E+00    8.4062737912616807E+00
N    3.2276683996234277E+00    5.5900150971435743E+00    1.0303440771514319E+01
Ga    3.2266022311216918E+00    7.4524046838444411E+00    1.0929805305198405E+01
N    3.2275850984039498E+00    7.4524782737738855E+00    1.2824147181720415E+01
Ga    3.2284776680203233E+00    5.5882299044470205E+00    1.3488355302881642E+01
N    3.2180020195673018E+00    5.5931268759471884E+00    1.5398328518993459E+01
Ga    3.2205720838053411E+00    7.4667595875033648E+00    1.6397699896448426E+01
N    4.8302993186220684E+00    6.5262101514313979E+00    1.7332042063203325E+01
N    1.6141322777018534E+00    8.3833744879982994E+00   -3.2110350515129574E-02
Ga    1.6140033109292760E+00    1.0245907503249313E+01    6.3107199453943175E-01
N    1.6140218183130850E+00    1.0246091675995896E+01    2.5457382895902079E+00
Ga    1.6140647432975088E+00    8.3834294589079832E+00    3.2439957257820016E+00
N    1.6140639888184563E+00    8.3832349700542625E+00    5.1589682825847829E+00
Ga    1.6139102057600874E+00    1.0245813519777673E+01    5.8354644898043775E+00
N    1.6139625109770395E+00    1.0246089707742298E+01    7.7488835357181225E+00
Ga    1.6143906848439471E+00    8.3838012287289132E+00    8.4069933311108720E+00
N    1.6151436590254442E+00    8.3842047827931321E+00    1.0304362118434875E+01
Ga    1.6136210529352772E+00    1.0245948843444801E+01    1.0931158133510708E+01
N    1.6152034540027931E+00    1.0247496811931768E+01    1.2824364168297715E+01
Ga    1.6140560964699087E+00    8.3851785490523287E+00    1.3496992698539421E+01
N    1.6172562803041861E+00    8.4063708959460470E+00    1.5413877648710159E+01
Ga    1.6320046934401340E+00    1.0269084026936206E+01    1.6340171860925324E+01
N    3.1936098214755493E+00    9.3194711191385693E+00    1.7339513816918611E+01
N    9.6811482659364678E+00    2.1269562364234924E-04   -3.2082274465762554E-02
Ga    9.6810280608943327E+00    1.8627111724382608E+00    6.3109214576026718E-01
N    9.6809984514870990E+00    1.8629153208376683E+00    2.5457218938087620E+00
Ga    9.6811033554925352E+00    2.5493892479005862E-04    3.2439969518294065E+00
N    9.6810206275962702E+00    1.1817473786863163E-04    5.1590051928604925E+00
Ga    9.6811245535115731E+00    1.8626129123056789E+00    5.8353886627238536E+00
N    9.6813752109169045E+00    1.8628512069289314E+00    7.7489274247334849E+00
Ga    9.6811579982694376E+00   -3.3889612689148987E-04    8.4068248453897230E+00
N    9.6813598369615530E+00   -5.2577767784377173E-04    1.0304224436822597E+01
Ga    9.6824739453386428E+00    1.8631862974296605E+00    1.0920347055888751E+01
N    9.6865932541358859E+00    1.8635204902900746E+00    1.2812839418950777E+01
Ga    9.6886863794404263E+00    3.0374074727283818E-03    1.3483517717764867E+01
N    9.6781583595198626E+00    2.4389653779770251E-03    1.5388211323933144E+01
Ga    9.6789626296810223E+00    1.8560609728434252E+00    1.6361722832947443E+01
N    1.1292083292690727E+01    9.3569358687082915E-01    1.7321763704588331E+01
N    8.0678213435994888E+00    2.7945961849211876E+00   -3.2101126084325880E-02
Ga    8.0676817994748387E+00    4.6571285443274206E+00    6.3105752254727476E-01
N    8.0676557673194758E+00    4.6573045916642171E+00    2.5457242538647247E+00
Ga    8.0677774690522632E+00    2.7946634601126106E+00    3.2439899455430199E+00
N    8.0677661283376949E+00    2.7944558588945831E+00    5.1590332552509306E+00
Ga    8.0677504869838863E+00    4.6570861231389618E+00    5.8351795935173651E+00
N    8.0679176916526529E+00    4.6573385002877510E+00    7.7485967530414701E+00
Ga    8.0676771627374038E+00    2.7945832548425744E+00    8.4053415644209775E+00
N    8.0680705431438611E+00    2.7945483170755576E+00    1.0302542304952770E+01
Ga    8.0694130005184483E+00    4.6570014933373871E+00    1.0925532393745399E+01
N    8.0747524346107440E+00    4.6570436475065389E+00    1.2820315337243342E+01
Ga    8.0764790392603114E+00    2.7943034469694021E+00    1.3489638556268089E+01
N    8.0652784578065084E+00    2.8010657515118988E+00    1.5401329110461806E+01
Ga    8.0451984930856622E+00    4.6727734127583318E+00    1.6366955220403412E+01
N    9.6479374856876809E+00    3.6907746195465063E+00    1.7321895275829625E+01
N    6.4544620069300054E+00    5.5889775887564239E+00   -3.2074393751202759E-02
Ga    6.4543398475221148E+00    7.4515048767037628E+00    6.3107405852263143E-01
N    6.4543153644369209E+00    7.4516727156315765E+00    2.5457813891921104E+00
Ga    6.4544213504585564E+00    5.5889965028613089E+00    3.2439572468077085E+00
N    6.4543829054774280E+00    5.5888445623526417E+00    5.1590042225276465E+00
Ga    6.4541979792863895E+00    7.4514766213834163E+00    5.8353358344543791E+00
N    6.4542502149730829E+00    7.4517123693513252E+00    7.7489698118860275E+00
Ga    6.4545639109359811E+00    5.5888997696754474E+00    8.4054584512084798E+00
N    6.4551911629396050E+00    5.5874882043996443E+00    1.0302539570917226E+01
Ga    6.4546993408146056E+00    7.4505584698848422E+00    1.0923293566105436E+01
N    6.4572384173156445E+00    7.4459874762752358E+00    1.2816614396017734E+01
Ga    6.4547525682048539E+00    5.5859778411348486E+00    1.3484680387325877E+01
N    6.4399074928880387E+00    5.5857184604498125E+00    1.5395160869366673E+01
Ga    6.4467712015634069E+00    7.4763115256907131E+00    1.6389874260486430E+01
N    8.0401998944328525E+00    6.5145498741198082E+00    1.7317239582597971E+01
N    4.8411185679671203E+00    8.3833774074357965E+00   -3.2098402976296743E-02
Ga    4.8409811487390471E+00    1.0245922233119190E+01    6.3106297301257763E-01
N    4.8409916733968199E+00    1.0246063410920776E+01    2.5457341498398853E+00
Ga    4.8410211790578854E+00    8.3834312247626084E+00    3.2439249634173235E+00
N    4.8410329858688490E+00    8.3831975172984521E+00    5.1589135574434071E+00
Ga    4.8409578297916784E+00    1.0245800096596618E+01    5.8352302306643580E+00
N    4.8409750355509926E+00    1.0245885576106723E+01    7.7487375182091300E+00
Ga    4.8406801579886078E+00    8.3835768957881101E+00    8.4067633403649094E+00
N    4.8406812991459764E+00    8.3825137027292715E+00    1.0304317399016588E+01
Ga    4.8424129895048171E+00    1.0245380150523566E+01    1.0926590626041939E+01
N    4.8442418976702308E+00    1.0243062973500580E+01    1.2816675001365525E+01
Ga    4.8453033432406940E+00    8.3817629593334217E+00    1.3492920617823460E+01
N    4.8304583276353759E+00    8.3968440651764560E+00    1.5406076717142644E+01
Ga    4.8222306447522039E+00    1.0251548370460000E+01    1.6364977518361531E+01
N    6.4358302404043730E+00    9.3192642829979473E+00    1.7322506117785331E+01
H   -7.9750366630911137E-05   -1.3386879618122350E-04   -1.0574521383470015E+00
H   -1.6134228029020752E+00    2.7942651244653720E+00   -1.0574203581765267E+00
H   -3.2267664650208499E+00    5.5886580562715018E+00   -1.0574194023320078E+00
H   -4.8401195616384207E+00    8.3830462477169263E+00   -1.0574239060309620E+00
H    3.2269032985818438E+00   -1.3751216480393120E-04   -1.0574401520649839E+00
H    1.6135719201953929E+00    2.7942517821793009E+00   -1.0574253262606899E+00
H    2.1314061463794819E-04    5.5886395883377649E+00   -1.0574255823408336E+00
H   -1.6131374981326450E+00    8.3830455368466339E+00   -1.0574235391368711E+00
H    6.4538909976229411E+00   -1.4009724885431299E-04   -1.0574210488124416E+00
H    4.8405541946507817E+00    2.7942630694030024E+00   -1.0574124065698982E+00
H    3.2272071026311426E+00    5.5886388761370434E+00   -1.0574152973266304E+00
H    1.6138580621420564E+00    8.3830555476993478E+00   -1.0574298369385842E+00
H    9.6808804008151945E+00   -1.3994054170782537E-04   -1.0574248338924677E+00
H    8.0675486072669678E+00    2.7942499770442444E+00   -1.0574299981836324E+00
H    6.4541879547310916E+00    5.5886486935351067E+00   -1.0574054280012275E+00
H    4.8408697310066415E+00    8.3830373006841192E+00   -1.0574247085355497E+00
     &END COORD
     &KIND H
       BASIS_SET DZVP-MOLOPT-SR-GTH-q1
       POTENTIAL GTH-PBE-q1
       &POTENTIAL
 1
  0.2000000000000000E+00 2 -0.4178900440000000E+01  0.7244633100000000E+00
 0
         # Potential name:  GTH-PBE-Q1  for symbol:  H
         # Potential read from the potential filename: GTH_POTENTIALS
       &END POTENTIAL
     &END KIND
     &KIND N
       BASIS_SET DZVP-MOLOPT-SR-GTH
       POTENTIAL GTH-PBE-q5
       &POTENTIAL
 2 3
  0.2837905100000000E+00 2 -0.1241522559000000E+02  0.1868095920000000E+01
 2
  0.2554050000000000E+00 1  0.1363026257000000E+02
  0.2454945300000000E+00 0
         # Potential name:  GTH-PBE-Q5  for symbol:  N
         # Potential read from the potential filename: GTH_POTENTIALS
       &END POTENTIAL
     &END KIND
     &KIND Ga
       BASIS_SET DZVP-MOLOPT-SR-GTH
       POTENTIAL GTH-PBE-q13
       &POTENTIAL
 2 1 10
  0.4900000000000000E+00 0
 3
  0.4167772300000000E+00 3  0.1047568975000000E+02 -0.4921768140000000E+01  0.8707055900000000E+00
  0.7770178090000000E+01 -0.2248152160000000E+01
  0.1784415450000000E+01
  0.5696265200000000E+00 2  0.1777985340000000E+01  0.1958597600000000E+00
 -0.2317443900000000E+00
  0.2381265000000000E+00 1 -0.1624868022000000E+02
         # Potential name:  GTH-PBE-Q13  for symbol:  GA
         # Potential read from the potential filename: GTH_POTENTIALS
       &END POTENTIAL
     &END KIND
     &TOPOLOGY
       NUMBER_OF_ATOMS  256
       MULTIPLE_UNIT_CELL  1 1 1
     &END TOPOLOGY
   &END SUBSYS
 &END FORCE_EVAL
