 # Version information for this restart file 
 # current date 2019-06-09 08:12:02.003
 # current working dir /lustre03/project/6037349/rzk/GaN-carbene/444-addat/00-Surface/UKS_SYMM
 # Program compiled at                              Sun Apr  7 00:48:11 EDT 2019
 # Program compiled on                          beluga2.int.ets1.calculquebec.ca
 # Program compiled for                        Beluga-Linux-x86-64-intel-openmpi
 # Source code revision number                                         svn:18619
 &GLOBAL
   PRINT_LEVEL  MEDIUM
   PROJECT_NAME TEST
   RUN_TYPE  CELL_OPT
 &END GLOBAL
 &MOTION
   &CELL_OPT
     MAX_ITER  300
     STEP_START_VAL  49
     EXTERNAL_PRESSURE     1.0000000000000000E+00
     KEEP_ANGLES  T
     KEEP_SYMMETRY  T
     CONSTRAINT  Z
     PRESSURE_TOLERANCE     5.0000000000000000E+02
   &END CELL_OPT
 &END MOTION
 &FORCE_EVAL
   METHOD  QS
   STRESS_TENSOR  ANALYTICAL
   &DFT
     BASIS_SET_FILE_NAME BASIS_MOLOPT
     POTENTIAL_FILE_NAME GTH_POTENTIALS
     UKS  T
     SURFACE_DIPOLE_CORRECTION  T
     SURF_DIP_DIR  Z
     &SCF
       MAX_SCF  100
       EPS_SCF     5.0000000000000004E-06
       &OT  T
         PRECONDITIONER  FULL_ALL
       &END OT
       &OUTER_SCF  T
         OPTIMIZER  NONE
         EPS_SCF     5.0000000000000004E-06
         MAX_SCF  4
       &END OUTER_SCF
       &PRINT
         &RESTART  OFF
           BACKUP_COPIES  1
           &EACH
             JUST_ENERGY  0
             QS_SCF  0
             MD  20
           &END EACH
         &END RESTART
       &END PRINT
     &END SCF
     &QS
       EPS_DEFAULT     1.0000000000000000E-14
       METHOD  GPW
     &END QS
     &MGRID
       NGRIDS  5
       CUTOFF     1.2000000000000000E+03
     &END MGRID
     &XC
       DENSITY_CUTOFF     1.0000000000000000E-10
       GRADIENT_CUTOFF     1.0000000000000000E-10
       TAU_CUTOFF     1.0000000000000000E-10
       &XC_FUNCTIONAL  NO_SHORTCUT
         &PBE  T
         &END PBE
       &END XC_FUNCTIONAL
       &VDW_POTENTIAL
         POTENTIAL_TYPE  PAIR_POTENTIAL
         &PAIR_POTENTIAL
           R_CUTOFF     1.0000000000000004E+01
           TYPE  DFTD3
           PARAMETER_FILE_NAME dftd3.dat
           REFERENCE_FUNCTIONAL PBE
           EPS_CN     9.9999999999999995E-07
           CALCULATE_C9_TERM  T
           REFERENCE_C9_TERM  T
           LONG_RANGE_CORRECTION  F
           VERBOSE_OUTPUT  F
         &END PAIR_POTENTIAL
       &END VDW_POTENTIAL
     &END XC
   &END DFT
   &SUBSYS
     &CELL
       A     1.2832449554851504E+01    0.0000000000000000E+00    0.0000000000000000E+00
       B    -6.4148860501669045E+00    1.1110908563653975E+01    0.0000000000000000E+00
       C     0.0000000000000000E+00    0.0000000000000000E+00    3.2000000000000000E+01
       MULTIPLE_UNIT_CELL  1 1 1
       &CELL_REF
         A     1.2982353780853531E+01    0.0000000000000000E+00    0.0000000000000000E+00
         B    -6.4911768904267628E+00    1.1243048175136114E+01    0.0000000000000000E+00
         C     0.0000000000000000E+00    0.0000000000000000E+00    3.2000000000000000E+01
         MULTIPLE_UNIT_CELL  1 1 1
       &END CELL_REF
     &END CELL
     &COORD
N    3.7280745011642602E-04   -2.1179039096503411E-04   -2.0919189206834818E-01
Ga    6.4825630433753677E-04    1.8517247443556111E+00    4.7233225154078257E-01
N    7.0561942224556045E-04    1.8520005844108161E+00    2.3899023950148415E+00
Ga    5.1139782627575151E-04    3.1945851618748929E-05    3.1184505501347859E+00
N    7.7867269175157497E-04    2.2958017411925304E-04    5.0401237377324017E+00
Ga    1.1017614595151119E-03    1.8522458830691777E+00    5.7563491867739653E+00
N    1.5575841913693046E-03    1.8536478429193948E+00    7.6801318564087424E+00
Ga    1.2447205802429849E-03    2.1910177495522579E-03    8.3937733810005550E+00
N    1.4674141687685183E-03    4.6769950043671939E-03    1.0317937585685440E+01
Ga    2.9279894080034255E-03    1.8567620608450601E+00    1.1031301117767303E+01
N    3.8212129876223693E-03    1.8597633686317712E+00    1.2958125211989838E+01
Ga    1.6281055278746677E-03    5.6213780840736879E-03    1.3670812380655738E+01
N   -6.9436994073676988E-03    2.1173899835694294E-03    1.5588330872835279E+01
Ga   -1.9069407118486529E-03    1.8497229890263256E+00    1.6653536900798066E+01
N    1.5952798949022684E+00    9.1840904202006424E-01    1.7528707839799438E+01
N   -1.6033911560054468E+00    2.7775506935318020E+00   -2.0906703704947943E-01
Ga   -1.6030346615852067E+00    4.6294805028996757E+00    4.7244544350739548E-01
N   -1.6029221168510031E+00    4.6297722661877119E+00    2.3900274675763615E+00
Ga   -1.6032572005529218E+00    2.7778747084647475E+00    3.1187350833072749E+00
N   -1.6030061957762467E+00    2.7781956314480047E+00    5.0404378450727041E+00
Ga   -1.6025431886385533E+00    4.6302202753936124E+00    5.7569353951982816E+00
N   -1.6020603825473458E+00    4.6317358101529953E+00    7.6808773772385752E+00
Ga   -1.6018555608121872E+00    2.7800028504174170E+00    8.3941140516514192E+00
N   -1.6008161278561805E+00    2.7823587104087162E+00    1.0318439565754582E+01
Ga   -1.6015772759945757E+00    4.6340845567340860E+00    1.1031471553544769E+01
N   -1.6018525377177433E+00    4.6352955997121708E+00    1.2957830525654435E+01
Ga   -1.6016473176080726E+00    2.7829883548284586E+00    1.3677353542941793E+01
N   -1.5949206639533744E+00    2.7853688546601125E+00    1.5601806877021474E+01
Ga   -1.6053554285715739E+00    4.6268558926815064E+00    1.6607712345631732E+01
N   -1.7655974545970055E-02    3.7049615747345785E+00    1.7531641418631335E+01
N   -3.2070777250857243E+00    5.5552441657431988E+00   -2.0901964761648897E-01
Ga   -3.2067010388018113E+00    7.4071720650409070E+00    4.7246746291511837E-01
N   -3.2065375493301596E+00    7.4074697644990151E+00    2.3900327444254974E+00
Ga   -3.2068522140742828E+00    5.5556201770100166E+00    3.1188471583531214E+00
N   -3.2065497485753802E+00    5.5559751243901170E+00    5.0405279790698945E+00
Ga   -3.2061100918622296E+00    7.4079687056799282E+00    5.7569003578334170E+00
N   -3.2055335758032277E+00    7.4093857789812345E+00    7.6808031505184351E+00
Ga   -3.2059064016832632E+00    5.5577734896126536E+00    8.3948217875305975E+00
N   -3.2054376514726446E+00    5.5597104880348773E+00    1.0319238112104593E+01
Ga   -3.2052185935949713E+00    7.4117943151271932E+00    1.1031327161263512E+01
N   -3.2047350038058413E+00    7.4147383979105408E+00    1.2957402585958679E+01
Ga   -3.2056618399344412E+00    5.5643239454253974E+00    1.3679249602071447E+01
N   -3.2089282616131358E+00    5.5435117587360345E+00    1.5599413279844541E+01
Ga   -3.2306797077745006E+00    7.4049294997054176E+00    1.6635099585907945E+01
N   -1.6236977402125443E+00    6.4720110531174440E+00    1.7521102508126862E+01
N   -4.8107502084456870E+00    8.3329018267858821E+00   -2.0908666543201079E-01
Ga   -4.8104544064722292E+00    1.0184881580868039E+01    4.7224543201033897E-01
N   -4.8103281007829990E+00    1.0185152341312476E+01    2.3898205184125882E+00
Ga   -4.8105473152942322E+00    8.3332749922459382E+00    3.1186363679500553E+00
N   -4.8102028570446400E+00    8.3335444093325162E+00    5.0402827538387944E+00
Ga   -4.8099570517903123E+00    1.0185556679408858E+01    5.7566156475898493E+00
N   -4.8094812963012439E+00    1.0186926518024388E+01    7.6805978612801713E+00
Ga   -4.8097527114948164E+00    8.3350026110089335E+00    8.3939005108024247E+00
N   -4.8093641063137476E+00    8.3364294839136850E+00    1.0317959407582581E+01
Ga   -4.8092559342928753E+00    1.0188942909114315E+01    1.1027828858243602E+01
N   -4.8103346624506083E+00    1.0191167461503346E+01    1.2951155948191390E+01
Ga   -4.8095760634121181E+00    8.3421842925785050E+00    1.3675639737027474E+01
N   -4.8158813618575440E+00    8.3420733310395008E+00    1.5593908621324740E+01
Ga   -4.8228012164751428E+00    1.0192236100388598E+01    1.6615717648889596E+01
N   -3.2297121238485884E+00    9.2511382993021591E+00    1.7515209345065802E+01
N    3.2085221847269771E+00   -2.4251553219458612E-04   -2.0912017342879038E-01
Ga    3.2088385563856021E+00    1.8517111576279812E+00    4.7231249870069991E-01
N    3.2089570583268086E+00    1.8519865456037972E+00    2.3898810255228677E+00
Ga    3.2087133038520612E+00    6.8491725529610110E-05    3.1186202812427952E+00
N    3.2090688633093292E+00    2.6138145540780498E-04    5.0403085012172975E+00
Ga    3.2093294409094950E+00    1.8522758985004777E+00    5.7565069854338820E+00
N    3.2098166123920460E+00    1.8535419061266105E+00    7.6802759690119764E+00
Ga    3.2097795476202196E+00    2.0665805319355669E-03    8.3942246862952494E+00
N    3.2103117284636404E+00    4.0009666122217411E-03    1.0318333492416402E+01
Ga    3.2100246570062509E+00    1.8560610711460896E+00    1.1031196706070599E+01
N    3.2104827276184715E+00    1.8584249280452898E+00    1.2956869452349327E+01
Ga    3.2076836043651831E+00    5.9933515860788825E-03    1.3672186438174423E+01
N    3.1943087819796281E+00   -7.2569546876942205E-03    1.5590134508065974E+01
Ga    3.2072719125313616E+00    1.8563338527442164E+00    1.6659937597696832E+01
N    4.7895866071111657E+00    9.0773036693221598E-01    1.7519774640627109E+01
N    1.6047457602494315E+00    2.7774817166226926E+00   -2.0908347250581358E-01
Ga    1.6050259901486315E+00    4.6294600315488301E+00    4.7226911157974433E-01
N    1.6050870068483218E+00    4.6297219300975287E+00    2.3898492637945483E+00
Ga    1.6049148889005287E+00    2.7778029889672262E+00    3.1185178567902154E+00
N    1.6051884020524376E+00    2.7779739633747655E+00    5.0401516107179747E+00
Ga    1.6054731171062764E+00    4.6299589940118144E+00    5.7565953133042269E+00
N    1.6057887912023532E+00    4.6311534324651538E+00    7.6804698056187277E+00
Ga    1.6058522567989928E+00    2.7792271828617885E+00    8.3936786667907626E+00
N    1.6064878880628803E+00    2.7810204613951504E+00    1.0317785083400405E+01
Ga    1.6070485443548097E+00    4.6325931936744906E+00    1.1029664730020469E+01
N    1.6069982599471231E+00    4.6335542620450640E+00    1.2954534954046482E+01
Ga    1.6089805748341066E+00    2.7838324659836955E+00    1.3681454010999161E+01
N    1.5993497364669027E+00    2.7822299571897333E+00    1.5605096481571248E+01
Ga    1.5904774797983052E+00    4.6314442000314138E+00    1.6618728740720176E+01
N    3.1901242406473234E+00    3.7134246092085501E+00    1.7523192836852775E+01
N    9.7687493199445207E-04    5.5552670774515871E+00   -2.0912000956465587E-01
Ga    1.3376167403995590E-03    7.4071910701611365E+00    4.7244235760721909E-01
N    1.4535240970270911E-03    7.4074946346415844E+00    2.3900364112801835E+00
Ga    1.1981406515925628E-03    5.5556022528873825E+00    3.1187864368619143E+00
N    1.4634784003310865E-03    5.5559513245255738E+00    5.0404638913003135E+00
Ga    1.9325835183205517E-03    7.4080197506624028E+00    5.7567768514613959E+00
N    2.4978777905650023E-03    7.4094306317880703E+00    7.6807774467098771E+00
Ga    2.2034798204799907E-03    5.5576148269916761E+00    8.3944379108859408E+00
N    2.7028768528617225E-03    5.5597034397157277E+00    1.0318932274697922E+01
Ga    3.6806257486325373E-03    7.4126297481470171E+00    1.1029082391580904E+01
N    4.2020112740457933E-03    7.4148517422523783E+00    1.2954612953671196E+01
Ga    4.6596907759884959E-03    5.5632245085885934E+00    1.3669698178755468E+01
N   -2.0869720808243853E-03    5.5514633592869442E+00    1.5586045423969724E+01
Ga   -1.0867021514747895E-02    7.3884678372843489E+00    1.6625043023762302E+01
N    1.5904369875915743E+00    6.4747275431045956E+00    1.7528791252495793E+01
N   -1.6026943135857254E+00    8.3329734067317478E+00   -2.0905726445703832E-01
Ga   -1.6023199744256311E+00    1.0184907864421143E+01    4.7239674261169279E-01
N   -1.6021556913839980E+00    1.0185214049915484E+01    2.3899637353731866E+00
Ga   -1.6024695891605418E+00    8.3333929000778966E+00    3.1188439351380159E+00
N   -1.6021408113103035E+00    8.3337702814948784E+00    5.0405419579660098E+00
Ga   -1.6016440320425198E+00    1.0185758277201581E+01    5.7570331083618793E+00
N   -1.6009985617190914E+00    1.0187194021951896E+01    7.6809855294716058E+00
Ga   -1.6014616145379845E+00    8.3355320909780541E+00    8.3944400671771113E+00
N   -1.6011256887070977E+00    8.3375097183027158E+00    1.0318862567515758E+01
Ga   -1.6006041831661852E+00    1.0189721761881573E+01    1.1031368762471713E+01
N   -1.6001219196216763E+00    1.0192081044943542E+01    1.2957055046940637E+01
Ga   -1.5989917506659386E+00    8.3406704785402468E+00    1.3676113537311082E+01
N   -1.6148308933520661E+00    8.3325543644407620E+00    1.5597574187619102E+01
Ga   -1.6201193368735409E+00    1.0187576043916424E+01    1.6629741078091769E+01
N   -2.3962437591228271E-02    9.2205279318186193E+00    1.7510001399663377E+01
N    6.4165816915629463E+00   -1.7176058622324323E-04   -2.0904682020633741E-01
Ga    6.4169674766807026E+00    1.8517567731345301E+00    4.7248836352556267E-01
N    6.4171349390855434E+00    1.8520677412337869E+00    2.3900593308081777E+00
Ga    6.4168197113289756E+00    1.9087943204630048E-04    3.1187835064943479E+00
N    6.4171386297901636E+00    5.5165508570105385E-04    5.0404924737441155E+00
Ga    6.4174685824773112E+00    1.8524638928641626E+00    5.7570848296721051E+00
N    6.4180142880988633E+00    1.8539392567753050E+00    7.6810081103258989E+00
Ga    6.4178652666314395E+00    2.4771400461344184E-03    8.3951564130804144E+00
N    6.4183186447882221E+00    4.4834752797538267E-03    1.0319516568740708E+01
Ga    6.4183646750705208E+00    1.8566882449214441E+00    1.1031862749089179E+01
N    6.4190545561087333E+00    1.8597031783246145E+00    1.2957844828406932E+01
Ga    6.4182604084993793E+00    9.3047225868072309E-03    1.3679855846796935E+01
N    6.4141267828052397E+00   -1.0331646417314110E-02    1.5599892546926000E+01
Ga    6.3939834280339083E+00    1.8483724889547131E+00    1.6636636612692136E+01
N    8.0011456688661209E+00    9.1485709538149196E-01    1.7521829082040306E+01
N    4.8129147914127275E+00    2.7774691353401884E+00   -2.0910963485133263E-01
Ga    4.8132203491927816E+00    4.6294220325264881E+00    4.7230115948221935E-01
N    4.8133316174901113E+00    4.6296811561509408E+00    2.3898769812757465E+00
Ga    4.8131009542919738E+00    2.7778089910762751E+00    3.1187003812884804E+00
N    4.8134141851206254E+00    2.7780148558596727E+00    5.0403654014874144E+00
Ga    4.8136428130935389E+00    4.6299910721555335E+00    5.7567798779946804E+00
N    4.8140824630971544E+00    4.6313062343234002E+00    7.6807056783220098E+00
Ga    4.8137859072922131E+00    2.7794026758995534E+00    8.3943430552798048E+00
N    4.8140913062551123E+00    2.7810175531443639E+00    1.0318382426837664E+01
Ga    4.8142428428799748E+00    4.6337317926199661E+00    1.1027981741772182E+01
N    4.8133615895629873E+00    4.6357534449117441E+00    1.2951287586926115E+01
Ga    4.8142514308259710E+00    2.7869230953433632E+00    1.3676632961921579E+01
N    4.8087708731140673E+00    2.7868248535928100E+00    1.5595218800496971E+01
Ga    4.8027669873830030E+00    4.6353446771933546E+00    1.6615970080886772E+01
N    6.3969642496422008E+00    3.6943390060743999E+00    1.7516747561999541E+01
N    3.2091405697459505E+00    5.5552081943023426E+00   -2.0912555573504785E-01
Ga    3.2094167432261438E+00    7.4071580119675406E+00    4.7233388720635039E-01
N    3.2094771942125289E+00    7.4074272572137678E+00    2.3898861099199871E+00
Ga    3.2092915656823133E+00    5.5554725670806464E+00    3.1185294222264144E+00
N    3.2095384123771962E+00    5.5556972059383378E+00    5.0401864433394339E+00
Ga    3.2098694519114193E+00    7.4078251127978838E+00    5.7562249171232374E+00
N    3.2102598990127573E+00    7.4092373386312955E+00    7.6799589514996267E+00
Ga    3.2098687338996861E+00    5.5576234723062621E+00    8.3935436895942033E+00
N    3.2100883845760908E+00    5.5600563505947660E+00    1.0317632402978363E+01
Ga    3.2116543714214969E+00    7.4120191142328773E+00    1.1030854847585903E+01
N    3.2126213576547631E+00    7.4149976654500254E+00    1.2957679610094427E+01
Ga    3.2107149054960042E+00    5.5611407147191709E+00    1.3671239774425020E+01
N    3.2020267474870407E+00    5.5572233216658828E+00    1.5588628656806806E+01
Ga    3.2072657322199563E+00    7.4042131680781083E+00    1.6652775536919886E+01
N    4.8052688987634591E+00    6.4723065118339251E+00    1.7527278515566920E+01
N    1.6053799688743027E+00    8.3329856398105147E+00   -2.0906913756354226E-01
Ga    1.6057371904387185E+00    1.0184940980043780E+01    4.7237478570815228E-01
N    1.6058627010373356E+00    1.0185275849829239E+01    2.3899384117339775E+00
Ga    1.6055809757516981E+00    8.3334294839422718E+00    3.1186831851992052E+00
N    1.6058428491513017E+00    8.3338670153072005E+00    5.0403520310292000E+00
Ga    1.6062383788030714E+00    1.0185833607959580E+01    5.7569995173899811E+00
N    1.6066942241293032E+00    1.0187330359718851E+01    7.6809564070752607E+00
Ga    1.6068503082366559E+00    8.3355318241888217E+00    8.3940115587657473E+00
N    1.6077929426949862E+00    8.3376936841582392E+00    1.0318307341428516E+01
Ga    1.6071711498841881E+00    1.0189407188568039E+01    1.1031451047451116E+01
N    1.6068643189393750E+00    1.0190471689352529E+01    1.2957641507249145E+01
Ga    1.6070694365530664E+00    8.3381622469854886E+00    1.3676821301887122E+01
N    1.6130686581213456E+00    8.3407787065455050E+00    1.5601194941463215E+01
Ga    1.6028101963216628E+00    1.0181117385571461E+01    1.6607507271097095E+01
N    3.1915921834416778E+00    9.2584055713423119E+00    1.7530278604071977E+01
N    9.6246408855032737E+00   -1.6229081199004849E-04   -2.0914804201546350E-01
Ga    9.6249895066747868E+00    1.8517700366120509E+00    4.7238454794723478E-01
N    9.6250812931947429E+00    1.8520793801951012E+00    2.3899794396062100E+00
Ga    9.6248501102739112E+00    2.1770108033969957E-04    3.1187281976551287E+00
N    9.6250868260863367E+00    6.0689327091458629E-04    5.0404540813953327E+00
Ga    9.6254921816436809E+00    1.8525268686636995E+00    5.7571519266398656E+00
N    9.6259272369892876E+00    1.8541389926642291E+00    7.6811826736055115E+00
Ga    9.6257608955191252E+00    2.3072764421975638E-03    8.3945559705021822E+00
N    9.6262850269585094E+00    4.3729754695946291E-03    1.0318955015054950E+01
Ga    9.6274103099218404E+00    1.8574224636170851E+00    1.1029260501515569E+01
N    9.6283066643053665E+00    1.8591379903517180E+00    1.2954669058991785E+01
Ga    9.6285022175709063E+00    7.2001524502457595E-03    1.3669229937868783E+01
N    9.6213072176557457E+00   -4.9502084043070351E-03    1.5585618069660290E+01
Ga    9.6139052626099470E+00    1.8313254761493241E+00    1.6624804537695642E+01
N    1.1215086734886087E+01    9.1712485617828776E-01    1.7528853056886192E+01
N    8.0209678527142501E+00    2.7775370616411439E+00   -2.0908235376925294E-01
Ga    8.0213480316365811E+00    4.6294324607279034E+00    4.7249274315441764E-01
N    8.0215008382634849E+00    4.6297162474106646E+00    2.3900847538071410E+00
Ga    8.0212153173580703E+00    2.7778819472845750E+00    3.1190130947692003E+00
N    8.0214755423543771E+00    2.7782089419838827E+00    5.0407124129815699E+00
Ga    8.0218936189868817E+00    4.6302491929536727E+00    5.7569777097216237E+00
N    8.0224228711845154E+00    4.6317580228906108E+00    7.6808891167468420E+00
Ga    8.0218784589009875E+00    2.7802575422972597E+00    8.3948599138408309E+00
N    8.0224176791383268E+00    2.7822796291409739E+00    1.0319176626465465E+01
Ga    8.0227656064213768E+00    4.6344893734121007E+00    1.1031378091951060E+01
N    8.0234614549489756E+00    4.6361929254479906E+00    1.2957038927777996E+01
Ga    8.0251712730010709E+00    2.7848238186078609E+00    1.3676430687421156E+01
N    8.0103224041111378E+00    2.7766192302486048E+00    1.5598316004709668E+01
Ga    8.0048534596270340E+00    4.6309292392957824E+00    1.6627896837817996E+01
N    9.6017665867806414E+00    3.6631764111132279E+00    1.7510175619346377E+01
N    6.4173123274640069E+00    5.5551780181770560E+00   -2.0910045086167475E-01
Ga    6.4176258846609189E+00    7.4071191347379806E+00    4.7234068929688749E-01
N    6.4177457182370778E+00    7.4073973013111711E+00    2.3899059576058788E+00
Ga    6.4174549478075500E+00    5.5554922649639513E+00    3.1187378409095712E+00
N    6.4177184194811376E+00    5.5557343042758704E+00    5.0403881905152836E+00
Ga    6.4180509849833429E+00    7.4078817728299295E+00    5.7562888966567769E+00
N    6.4185576497005172E+00    7.4092710874185315E+00    7.6800251247267539E+00
Ga    6.4183666356277786E+00    5.5577498703605723E+00    8.3939757847125982E+00
N    6.4189221322644192E+00    5.5596855154662590E+00    1.0318060826694079E+01
Ga    6.4188494887005634E+00    7.4116743964927654E+00    1.1030552793126503E+01
N    6.4193485020872068E+00    7.4135896654295204E+00    1.2956054984811983E+01
Ga    6.4165090684614494E+00    5.5613389525881241E+00    1.3672046398251585E+01
N    6.4037479725564150E+00    5.5466832358938545E+00    1.5589399729410545E+01
Ga    6.4169728710458411E+00    7.4101145527625283E+00    1.6658012682019155E+01
N    7.9993332755857853E+00    6.4613859452499298E+00    1.7517796545473569E+01
N    4.8135333239430889E+00    8.3329039242238228E+00   -2.0907067612687311E-01
Ga    4.8138201607294109E+00    1.0184928268999164E+01    4.7217863936059867E-01
N    4.8138677879508078E+00    1.0185232401403711E+01    2.3897608599399343E+00
Ga    4.8136791149372717E+00    8.3333041259177705E+00    3.1184052607446500E+00
N    4.8139209624290853E+00    8.3336160865983473E+00    5.0400328251037738E+00
Ga    4.8142194422151876E+00    1.0185586814978610E+01    5.7565570058624624E+00
N    4.8145851530992845E+00    1.0186980468887750E+01    7.6804631586031933E+00
Ga    4.8145358252286536E+00    8.3349494141864984E+00    8.3932415141775571E+00
N    4.8151912365223257E+00    8.3365582211015621E+00    1.0317318649293696E+01
Ga    4.8157477385610443E+00    1.0188048892271388E+01    1.1028971093212999E+01
N    4.8158286265553834E+00    1.0188681001542328E+01    1.2953845631375945E+01
Ga    4.8179456064809374E+00    8.3390927613676951E+00    1.3680438562397553E+01
N    4.8085333114385929E+00    8.3370449684774766E+00    1.5603811247948251E+01
Ga    4.7992918408474141E+00    1.0185733599196542E+01    1.6617676376285914E+01
N    6.3984757030580335E+00    9.2669952113896716E+00    1.7521855407006012E+01
H    3.2740805685036595E-04   -1.3699952880067294E-04   -1.2365601080538284E+00
H   -1.6034768709807274E+00    2.7776154128678061E+00   -1.2364253642398020E+00
H   -3.2071460650057104E+00    5.5552603061069679E+00   -1.2363779467499583E+00
H   -4.8107605083075189E+00    8.3327988352804745E+00   -1.2364556833394935E+00
H    3.2085517251233280E+00   -2.4994432662987960E-04   -1.2364830344418627E+00
H    1.6046763514616400E+00    2.7774447398189293E+00   -1.2364467098399998E+00
H    8.1027524052302191E-04    5.5552760575686753E+00   -1.2364790479308070E+00
H   -1.6028204975271005E+00    8.3329909586202344E+00   -1.2364156995675615E+00
H    6.4164648757073524E+00   -1.4259268183869033E-04   -1.2364043777892388E+00
H    4.8128985165021110E+00    2.7774203700364710E+00   -1.2364693031000902E+00
H    3.2090891284738459E+00    5.5552530054379616E+00   -1.2364925034112673E+00
H    1.6053032305347905E+00    8.3329903426798353E+00   -1.2364280373020384E+00
H    9.6244673663029534E+00   -1.1546102958190786E-04   -1.2365055498019788E+00
H    8.0208450602849588E+00    2.7775580154714565E+00   -1.2364370334913333E+00
H    6.4172986987910452E+00    5.5551589247327726E+00   -1.2364701806070597E+00
H    4.8134484780699482E+00    8.3327906032525068E+00   -1.2364432124730174E+00
     &END COORD
     &KIND H
       BASIS_SET DZVP-MOLOPT-SR-GTH-q1
       POTENTIAL GTH-PBE-q1
       &POTENTIAL
 1
  0.2000000000000000E+00 2 -0.4178900440000000E+01  0.7244633100000000E+00
 0
         # Potential name:  GTH-PBE-Q1  for symbol:  H
         # Potential read from the potential filename: GTH_POTENTIALS
       &END POTENTIAL
     &END KIND
     &KIND N
       BASIS_SET DZVP-MOLOPT-SR-GTH
       POTENTIAL GTH-PBE-q5
       &POTENTIAL
 2 3
  0.2837905100000000E+00 2 -0.1241522559000000E+02  0.1868095920000000E+01
 2
  0.2554050000000000E+00 1  0.1363026257000000E+02
  0.2454945300000000E+00 0
         # Potential name:  GTH-PBE-Q5  for symbol:  N
         # Potential read from the potential filename: GTH_POTENTIALS
       &END POTENTIAL
     &END KIND
     &KIND Ga
       BASIS_SET DZVP-MOLOPT-SR-GTH
       POTENTIAL GTH-PBE-q13
       &POTENTIAL
 2 1 10
  0.4900000000000000E+00 0
 3
  0.4167772300000000E+00 3  0.1047568975000000E+02 -0.4921768140000000E+01  0.8707055900000000E+00
  0.7770178090000000E+01 -0.2248152160000000E+01
  0.1784415450000000E+01
  0.5696265200000000E+00 2  0.1777985340000000E+01  0.1958597600000000E+00
 -0.2317443900000000E+00
  0.2381265000000000E+00 1 -0.1624868022000000E+02
         # Potential name:  GTH-PBE-Q13  for symbol:  GA
         # Potential read from the potential filename: GTH_POTENTIALS
       &END POTENTIAL
     &END KIND
     &TOPOLOGY
       NUMBER_OF_ATOMS  256
       MULTIPLE_UNIT_CELL  1 1 1
     &END TOPOLOGY
   &END SUBSYS
 &END FORCE_EVAL
