 # Version information for this restart file 
 # current date 2019-06-09 05:05:15.240
 # current working dir /lustre03/project/6037349/rzk/GaN-carbene/444-addat/00-Surface/UKS_SYMM
 # Program compiled at                              Sun Apr  7 00:48:11 EDT 2019
 # Program compiled on                          beluga2.int.ets1.calculquebec.ca
 # Program compiled for                        Beluga-Linux-x86-64-intel-openmpi
 # Source code revision number                                         svn:18619
 &GLOBAL
   PRINT_LEVEL  MEDIUM
   PROJECT_NAME TEST
   RUN_TYPE  CELL_OPT
 &END GLOBAL
 &MOTION
   &CELL_OPT
     MAX_ITER  300
     STEP_START_VAL  20
     EXTERNAL_PRESSURE     1.0000000000000000E+00
     KEEP_ANGLES  T
     KEEP_SYMMETRY  T
     CONSTRAINT  Z
     PRESSURE_TOLERANCE     5.0000000000000000E+02
   &END CELL_OPT
 &END MOTION
 &FORCE_EVAL
   METHOD  QS
   STRESS_TENSOR  ANALYTICAL
   &DFT
     BASIS_SET_FILE_NAME BASIS_MOLOPT
     POTENTIAL_FILE_NAME GTH_POTENTIALS
     UKS  T
     SURFACE_DIPOLE_CORRECTION  T
     SURF_DIP_DIR  Z
     &SCF
       MAX_SCF  100
       EPS_SCF     5.0000000000000004E-06
       &OT  T
         PRECONDITIONER  FULL_ALL
       &END OT
       &OUTER_SCF  T
         OPTIMIZER  NONE
         EPS_SCF     5.0000000000000004E-06
         MAX_SCF  4
       &END OUTER_SCF
       &PRINT
         &RESTART  OFF
           BACKUP_COPIES  1
           &EACH
             JUST_ENERGY  0
             QS_SCF  0
             MD  20
           &END EACH
         &END RESTART
       &END PRINT
     &END SCF
     &QS
       EPS_DEFAULT     1.0000000000000000E-14
       METHOD  GPW
     &END QS
     &MGRID
       NGRIDS  5
       CUTOFF     1.2000000000000000E+03
     &END MGRID
     &XC
       DENSITY_CUTOFF     1.0000000000000000E-10
       GRADIENT_CUTOFF     1.0000000000000000E-10
       TAU_CUTOFF     1.0000000000000000E-10
       &XC_FUNCTIONAL  NO_SHORTCUT
         &PBE  T
         &END PBE
       &END XC_FUNCTIONAL
       &VDW_POTENTIAL
         POTENTIAL_TYPE  PAIR_POTENTIAL
         &PAIR_POTENTIAL
           R_CUTOFF     1.0000000000000004E+01
           TYPE  DFTD3
           PARAMETER_FILE_NAME dftd3.dat
           REFERENCE_FUNCTIONAL PBE
           EPS_CN     9.9999999999999995E-07
           CALCULATE_C9_TERM  T
           REFERENCE_C9_TERM  T
           LONG_RANGE_CORRECTION  F
           VERBOSE_OUTPUT  F
         &END PAIR_POTENTIAL
       &END VDW_POTENTIAL
     &END XC
   &END DFT
   &SUBSYS
     &CELL
       A     1.2860071425305804E+01    0.0000000000000000E+00    0.0000000000000000E+00
       B    -6.4215577991082622E+00    1.1122464371795715E+01    0.0000000000000000E+00
       C     0.0000000000000000E+00    0.0000000000000000E+00    3.2000000000000000E+01
       MULTIPLE_UNIT_CELL  1 1 1
       &CELL_REF
         A     1.2982353780853531E+01    0.0000000000000000E+00    0.0000000000000000E+00
         B    -6.4911768904267628E+00    1.1243048175136114E+01    0.0000000000000000E+00
         C     0.0000000000000000E+00    0.0000000000000000E+00    3.2000000000000000E+01
         MULTIPLE_UNIT_CELL  1 1 1
       &END CELL_REF
     &END CELL
     &COORD
N    4.2570569547612809E-04    2.2698060671330294E-04   -1.1221794155355497E-01
Ga    1.4642975183415498E-03    1.8533865989531704E+00    5.5576554841640358E-01
N    1.4456626183308756E-03    1.8536106131589327E+00    2.4520192070795703E+00
Ga    3.9139917045293634E-04    7.0021274084316684E-05    3.1527711136346692E+00
N    4.2763441890079375E-04   -3.9764829953217333E-04    5.0526352612769232E+00
Ga    1.2795963545183418E-03    1.8532820590639629E+00    5.7422581901229108E+00
N    1.6243088020792230E-03    1.8541356504200692E+00    7.6572363754979360E+00
Ga    2.7527004727667410E-04    1.7331492606280047E-03    8.3656741819699487E+00
N    1.5751350977559388E-04    2.5691279483380232E-03    1.0284254054757378E+01
Ga    2.4306125576933294E-03    1.8558343292142561E+00    1.0982861306739830E+01
N    2.1173973087283797E-03    1.8579983355937431E+00    1.2917563712591345E+01
Ga    5.0615818500667723E-04    9.0875251096688260E-04    1.3610196306148252E+01
N    1.5430889773803398E-03   -3.5102945302180192E-04    1.5535960285346119E+01
Ga    3.6106937295468846E-03    1.8685505752831764E+00    1.6613481597221728E+01
N    1.6022036200466137E+00    9.2204800196203140E-01    1.7484957959517512E+01
N   -1.6050292788989178E+00    2.7808516524880833E+00   -1.1216540750785933E-01
Ga   -1.6038898960625003E+00    4.6340288596933785E+00    5.5577961637009687E-01
N   -1.6037391862572918E+00    4.6344127865964815E+00    2.4518848968822087E+00
Ga   -1.6053501994145978E+00    2.7811478039587794E+00    3.1528190105567773E+00
N   -1.6055135732653567E+00    2.7811933710134431E+00    5.0526561281365439E+00
Ga   -1.6039768749247649E+00    4.6344371447842505E+00    5.7447396062732121E+00
N   -1.6034046449198398E+00    4.6355209772753181E+00    7.6602033747349854E+00
Ga   -1.6038357269888686E+00    2.7822708780324819E+00    8.3663864925904452E+00
N   -1.6018320152424010E+00    2.7841380878147763E+00    1.0285125101901308E+01
Ga   -1.6049731771582803E+00    4.6351721377840800E+00    1.0983506554251152E+01
N   -1.6048474154009340E+00    4.6401809834826233E+00    1.2919155672343846E+01
Ga   -1.6045106127738420E+00    2.7856584518514791E+00    1.3628001967304602E+01
N   -1.5907239546321998E+00    2.7961778587274417E+00    1.5559393519239231E+01
Ga   -1.5924625997642481E+00    4.6488016608174174E+00    1.6511593905172600E+01
N   -2.7086050604939405E-02    3.7395085161449750E+00    1.7487637118433916E+01
N   -3.2103944293007807E+00    5.5614919372744156E+00   -1.1221324394321659E-01
Ga   -3.2092706078536617E+00    7.4146534824986849E+00    5.5576452527910059E-01
N   -3.2091085411190550E+00    7.4150656639483241E+00    2.4518269072434022E+00
Ga   -3.2103335090409573E+00    5.5618549268471806E+00    3.1527195663657097E+00
N   -3.2100765952386467E+00    5.5617379259852138E+00    5.0525138388599293E+00
Ga   -3.2089206985305516E+00    7.4146061862943480E+00    5.7444417754453170E+00
N   -3.2079868294219298E+00    7.4151682812816810E+00    7.6599757906120640E+00
Ga   -3.2096951582513000E+00    5.5628130116480898E+00    8.3695813310202123E+00
N   -3.2080093182571732E+00    5.5645992169675242E+00    1.0288790194709961E+01
Ga   -3.2068293998591080E+00    7.4156802565891828E+00    1.0989275898192311E+01
N   -3.2031327428855279E+00    7.4241145775799717E+00    1.2922978309820580E+01
Ga   -3.2085236981265672E+00    5.5737208156754319E+00    1.3634076497426962E+01
N   -3.2039965165947555E+00    5.5425483770867014E+00    1.5564457650413859E+01
Ga   -3.2335922276881859E+00    7.4217446035665020E+00    1.6589062740341799E+01
N   -1.6235279259241291E+00    6.4738983071613481E+00    1.7476563059583295E+01
N   -4.8157475605744615E+00    8.3421198059862274E+00   -1.1221922513313724E-01
Ga   -4.8146732407299186E+00    1.0195204648197226E+01    5.5582214025491694E-01
N   -4.8145871446716999E+00    1.0195434001972474E+01    2.4518215820026041E+00
Ga   -4.8156533902464238E+00    8.3422899204461860E+00    3.1532735073004989E+00
N   -4.8152980032541191E+00    8.3419539182073574E+00    5.0527673524376011E+00
Ga   -4.8145768193183800E+00    1.0194523840434563E+01    5.7444977064529619E+00
N   -4.8141471843288794E+00    1.0194701175514298E+01    7.6603297679359592E+00
Ga   -4.8142101217386450E+00    8.3409912242395929E+00    8.3684917367183260E+00
N   -4.8125440453596058E+00    8.3407887333630644E+00    1.0285636846002053E+01
Ga   -4.8145478498218663E+00    1.0195011827726557E+01    1.0971909110479961E+01
N   -4.8160790130092641E+00    1.0200368364193226E+01    1.2901044664958267E+01
Ga   -4.8141773237153176E+00    8.3541633921568792E+00    1.3622534706277293E+01
N   -4.8196165707470957E+00    8.3512873294526635E+00    1.5544477397938744E+01
Ga   -4.8238690252438916E+00    1.0208398000335754E+01    1.6560172209328204E+01
N   -3.2303354936951716E+00    9.2683047521527175E+00    1.7465344020040536E+01
N    3.2153957201638259E+00    2.0197549699171744E-04   -1.1228970931094469E-01
Ga    3.2165047882379780E+00    1.8533490811456863E+00    5.5577414904243871E-01
N    3.2165125016959379E+00    1.8534860246936586E+00    2.4518392944242819E+00
Ga    3.2154741842408172E+00    2.0587551491413222E-04    3.1531122313580888E+00
N    3.2156044293137502E+00   -3.7758124086300396E-04    5.0530034717770906E+00
Ga    3.2167516163655705E+00    1.8530925081326111E+00    5.7434214594450559E+00
N    3.2170802448139497E+00    1.8536619133509746E+00    7.6581433946722566E+00
Ga    3.2168705557652895E+00    8.6094006576961082E-04    8.3672756856631096E+00
N    3.2176280913330526E+00    1.3758814950838799E-03    1.0285381339578247E+01
Ga    3.2155600675981773E+00    1.8561353211602010E+00    1.0983577501277818E+01
N    3.2154840058044862E+00    1.8610623837540583E+00    1.2910816671111528E+01
Ga    3.2120768178866528E+00    8.4645522801212684E-03    1.3608311157099218E+01
N    3.1985614906099822E+00   -1.0064731721727291E-02    1.5530472946051562E+01
Ga    3.2140101293618590E+00    1.8765312485311465E+00    1.6611522926602152E+01
N    4.7883792763284960E+00    9.0340727469726989E-01    1.7469494152298378E+01
N    1.6100078579253796E+00    2.7808647298095663E+00   -1.1223161717859513E-01
Ga    1.6110558339054413E+00    4.6340239182850498E+00    5.5576748833736112E-01
N    1.6108875306376833E+00    4.6343913430272741E+00    2.4518482182811638E+00
Ga    1.6101646513633885E+00    2.7811988920161639E+00    3.1525921330639615E+00
N    1.6101785535748545E+00    2.7809993147548808E+00    5.0521341643959250E+00
Ga    1.6106357383536993E+00    4.6341675415376544E+00    5.7440582700751905E+00
N    1.6101671084568707E+00    4.6344446113419151E+00    7.6590449404905510E+00
Ga    1.6101659448455941E+00    2.7807924769268424E+00    8.3660226086057197E+00
N    1.6094937668328932E+00    2.7795639168446544E+00    1.0282784999711629E+01
Ga    1.6149127090276725E+00    4.6312922861873913E+00    1.0980882170169396E+01
N    1.6148728571412825E+00    4.6296701029945924E+00    1.2907827381311659E+01
Ga    1.6114329431325149E+00    2.7810986922345928E+00    1.3636233156254166E+01
N    1.6017089766325854E+00    2.7857290473560852E+00    1.5565377081881696E+01
Ga    1.6021371920333847E+00    4.6454316723592655E+00    1.6558076645719023E+01
N    3.2008285257624047E+00    3.7331188331179748E+00    1.7477152766280874E+01
N    4.6225414330562063E-03    5.5615097477901205E+00   -1.1214701151318489E-01
Ga    5.6881815955855857E-03    7.4146279937890558E+00    5.5578065656877851E-01
N    5.6265928808174040E-03    7.4148906498569138E+00    2.4518358069426656E+00
Ga    4.6186866053658316E-03    5.5620153814700499E+00    3.1532168652270696E+00
N    4.4288780949781710E-03    5.5621715741985591E+00    5.0530598234480300E+00
Ga    5.5560363740625061E-03    7.4147674922375675E+00    5.7457851710713141E+00
N    5.6904528420704988E-03    7.4153686936819785E+00    7.6616213850826771E+00
Ga    4.7333376169167137E-03    5.5624130805098320E+00    8.3711478294452846E+00
N    4.8571771819995481E-03    5.5633765009613096E+00    1.0289405669460285E+01
Ga    7.9124314299186208E-03    7.4195729771672188E+00    1.0979027104635904E+01
N    9.5770082584494282E-03    7.4263847581466713E+00    1.2909796847248254E+01
Ga    1.4326571595173631E-02    5.5695399189690509E+00    1.3603209166429188E+01
N    1.6605516629302944E-02    5.5634130363765015E+00    1.5514660881325659E+01
Ga    5.3434236133417775E-03    7.3744230769880135E+00    1.6549211573478942E+01
N    1.6068821249666287E+00    6.4795619627900569E+00    1.7489865299629386E+01
N   -1.6007435995318755E+00    8.3420922693099833E+00   -1.1223472815512316E-01
Ga   -1.5996890123799314E+00    1.0195195791752008E+01    5.5573253473790063E-01
N   -1.5997070424966850E+00    1.0195302254734889E+01    2.4518267434375520E+00
Ga   -1.6005681921825543E+00    8.3422627054196212E+00    3.1531765758162495E+00
N   -1.6002554245374163E+00    8.3418943920291895E+00    5.0530712742962347E+00
Ga   -1.5992178548817295E+00    1.0194726511974467E+01    5.7447978751370892E+00
N   -1.5984220898416339E+00    1.0195301778474906E+01    7.6603972376301597E+00
Ga   -1.6008061275147327E+00    8.3431171176794798E+00    8.3702602600284717E+00
N   -1.6001750077949608E+00    8.3450192122612421E+00    1.0289381651911990E+01
Ga   -1.5963137545751951E+00    1.0198838162096930E+01    1.0984177263606856E+01
N   -1.5927451643449140E+00    1.0204891093299576E+01    1.2918026254110847E+01
Ga   -1.5920771558763684E+00    8.3530581721127728E+00    1.3628353854803576E+01
N   -1.6044963586295702E+00    8.3368562348405195E+00    1.5556549544868588E+01
Ga   -1.6182388511665280E+00    1.0199302249724891E+01    1.6567101712652018E+01
N   -4.8589622019856719E-02    9.1795714920410649E+00    1.7493844079812856E+01
N    6.4303916402908552E+00    2.3410593333451367E-04   -1.1225019403116021E-01
Ga    6.4315486238049679E+00    1.8534023546622760E+00    5.5597269247379033E-01
N    6.4316227096837064E+00    1.8536134562345794E+00    2.4518287569424584E+00
Ga    6.4304323367372769E+00    3.5093639791309987E-04    3.1526969385484502E+00
N    6.4303759185124258E+00   -1.9971824178407131E-05    5.0525889489252132E+00
Ga    6.4320406991968824E+00    1.8532317377267338E+00    5.7443836500581167E+00
N    6.4329794582394015E+00    1.8541815209463814E+00    7.6594883672011305E+00
Ga    6.4314567453221976E+00    1.9523207713574022E-03    8.3685746779122301E+00
N    6.4323294441606231E+00    3.4343906352787674E-03    1.0287655677157520E+01
Ga    6.4341046157367874E+00    1.8561594738591318E+00    1.0986479139872801E+01
N    6.4347102786095123E+00    1.8629489551451111E+00    1.2919771164566995E+01
Ga    6.4357254089254434E+00    1.4182902062940050E-02    1.3636507842710104E+01
N    6.4329617536945758E+00   -2.6395546010066839E-02    1.5563003897879657E+01
Ga    6.4026624101449290E+00    1.8638429141673327E+00    1.6592612439041950E+01
N    8.0115999406825527E+00    9.1396389392514499E-01    1.7466991294767009E+01
N    4.8250369266676971E+00    2.7808410684683555E+00   -1.1214133438867704E-01
Ga    4.8261377561428960E+00    4.6340039515475038E+00    5.5596563092961471E-01
N    4.8261042184663898E+00    4.6342594400786554E+00    2.4518355769043914E+00
Ga    4.8251809711292886E+00    2.7810747903868314E+00    3.1529762833677912E+00
N    4.8253429090739370E+00    2.7806633827173011E+00    5.0526358116541052E+00
Ga    4.8263828770374424E+00    4.6337882701485285E+00    5.7452343750918216E+00
N    4.8270035656873036E+00    4.6339098201782516E+00    7.6602541443896852E+00
Ga    4.8263687429030089E+00    2.7800181319693369E+00    8.3683436616725277E+00
N    4.8266229410474857E+00    2.7796856051554197E+00    1.0285084580078534E+01
Ga    4.8256345747149787E+00    4.6349920708305179E+00    1.0977082071544830E+01
N    4.8235966137240540E+00    4.6406921456990675E+00    1.2901068308396919E+01
Ga    4.8246050837489509E+00    2.7929148229864085E+00    1.3625344383374225E+01
N    4.8232495602078487E+00    2.7893086032898653E+00    1.5545511947843307E+01
Ga    4.8207727141727128E+00    4.6477370561000795E+00    1.6552503759011852E+01
N    6.4192199856282670E+00    3.7097269666413544E+00    1.7474350178813118E+01
N    3.2196206560182743E+00    5.5614389972869862E+00   -1.1219883039402444E-01
Ga    3.2206985861928432E+00    7.4146319755047516E+00    5.5583963914496726E-01
N    3.2205597334987646E+00    7.4149548150519635E+00    2.4518524756498752E+00
Ga    3.2196644127459448E+00    5.5616427005653204E+00    3.1530877879200765E+00
N    3.2195463358603829E+00    5.5612096883324362E+00    5.0526033899598168E+00
Ga    3.2201875021159689E+00    7.4147544805528138E+00    5.7427835132835909E+00
N    3.2199368103671548E+00    7.4154544691048079E+00    7.6573739497506397E+00
Ga    3.2194921422987357E+00    5.5630085891018197E+00    8.3659968099149911E+00
N    3.2195775529772490E+00    5.5640812788408427E+00    1.0282537434027001E+01
Ga    3.2217982170602988E+00    7.4154339473990767E+00    1.0984957946785006E+01
N    3.2205521949110869E+00    7.4221020084417084E+00    1.2916892352011539E+01
Ga    3.2192664284109678E+00    5.5646789564152863E+00    1.3615289106083804E+01
N    3.2160164808749570E+00    5.5665121308611107E+00    1.5534705773304685E+01
Ga    3.2200704017026895E+00    7.4206240418223519E+00    1.6610251912687321E+01
N    4.8205793743759795E+00    6.4713464111676675E+00    1.7487404539195822E+01
N    1.6141900213092222E+00    8.3420943512166197E+00   -1.1224078396535009E-01
Ga    1.6153749290890342E+00    1.0195239227613424E+01    5.5581829702049934E-01
N    1.6154055445399305E+00    1.0195476462548301E+01    2.4517807043564743E+00
Ga    1.6139642383705035E+00    8.3423772413024047E+00    3.1529732598385807E+00
N    1.6133448989846570E+00    8.3421330469231751E+00    5.0527361012183238E+00
Ga    1.6151329743232274E+00    1.0195051039456013E+01    5.7442997623730072E+00
N    1.6153896634594418E+00    1.0195640314263642E+01    7.6598229077319040E+00
Ga    1.6152248295368870E+00    8.3431581407930011E+00    8.3683784183775174E+00
N    1.6162756006795169E+00    8.3443671429305386E+00    1.0286113271755251E+01
Ga    1.6157481397301321E+00    1.0196920101182965E+01    1.0982719470842177E+01
N    1.6169931066787560E+00    1.0201321000521144E+01    1.2916241281637177E+01
Ga    1.6153763083605355E+00    8.3485900460664730E+00    1.3627709171907856E+01
N    1.6189191345119325E+00    8.3608950758392826E+00    1.5560530183732356E+01
Ga    1.6286492637004453E+00    1.0206695606662429E+01    1.6513480336413700E+01
N    3.1906295583112931E+00    9.2829899849030930E+00    1.7481408406953356E+01
N    9.6454094471437806E+00    2.6266897954539849E-04   -1.1229852010664679E-01
Ga    9.6464891929353236E+00    1.8533460084852951E+00    5.5578104066646428E-01
N    9.6465309109858168E+00    1.8535207667127644E+00    2.4518209980633059E+00
Ga    9.6454213543919032E+00    4.6670871734532954E-04    3.1533384935725111E+00
N    9.6453227325508060E+00    2.4195009622621780E-04    5.0531004711707261E+00
Ga    9.6461572255769461E+00    1.8532856385834036E+00    5.7447621525836796E+00
N    9.6463594081853721E+00    1.8542802349147518E+00    7.6604425805556469E+00
Ga    9.6454001967298311E+00    8.4125805249792994E-04    8.3683484950975071E+00
N    9.6467251220590278E+00    1.4781249272582705E-03    1.0286380888595019E+01
Ga    9.6489104314615641E+00    1.8579366782269668E+00    1.0982682919622542E+01
N    9.6492745091174648E+00    1.8662052433232366E+00    1.2908795799131918E+01
Ga    9.6542335786769407E+00    1.1593121162378180E-02    1.3600714019855770E+01
N    9.6572543052465978E+00    2.0671940136040528E-03    1.5518424913382521E+01
Ga    9.6457763229233766E+00    1.8129418189050373E+00    1.6552040861641935E+01
N    1.1258749031004143E+01    9.1079594663890695E-01    1.7483199262970551E+01
N    8.0400639117717567E+00    2.7808317388177248E+00   -1.1211285675270453E-01
Ga    8.0411315131279313E+00    4.6339689296474402E+00    5.5589770269661376E-01
N    8.0412564096409742E+00    4.6342244914306505E+00    2.4518956933946052E+00
Ga    8.0402239704463891E+00    2.7809575843321399E+00    3.1531202177642510E+00
N    8.0403998932295924E+00    2.7806669217525082E+00    5.0526495808936041E+00
Ga    8.0415042274926485E+00    4.6337232007760196E+00    5.7445198360091592E+00
N    8.0425377756075385E+00    4.6342388616435484E+00    7.6599495891190177E+00
Ga    8.0401983168573583E+00    2.7824463085975237E+00    8.3708409014624010E+00
N    8.0408307764843165E+00    2.7841865018899972E+00    1.0288880263868359E+01
Ga    8.0438613071416505E+00    4.6375530863308114E+00    1.0987024171422471E+01
N    8.0448392190193392E+00    4.6478141491897444E+00    1.2918167180496107E+01
Ga    8.0440391963022275E+00    2.7955339178895477E+00    1.3624152616540313E+01
N    8.0233660143963696E+00    2.7871709765287003E+00    1.5559868017236314E+01
Ga    8.0196819159258723E+00    4.6488462168975495E+00    1.6560560726566592E+01
N    9.6015576528996665E+00    3.6195668514963604E+00    1.7470987525466604E+01
N    6.4346594793146057E+00    5.5614557974550527E+00   -1.1212631304201577E-01
Ga    6.4357643543045109E+00    7.4146166897991916E+00    5.5592344376512426E-01
N    6.4358896755857282E+00    7.4149464590558161E+00    2.4517429409725553E+00
Ga    6.4346743285972794E+00    5.5616884396120208E+00    3.1531443158543766E+00
N    6.4348374698205344E+00    5.5611493875622360E+00    5.0526318911941832E+00
Ga    6.4362059107678560E+00    7.4142201471267812E+00    5.7434842056415940E+00
N    6.4372319796975743E+00    7.4144625104672519E+00    7.6584110454391157E+00
Ga    6.4365910399248252E+00    5.5618591778637239E+00    8.3685706054345825E+00
N    6.4370837366472680E+00    5.5632290482211513E+00    1.0285503590984295E+01
Ga    6.4363525632492671E+00    7.4175872607723461E+00    1.0983418443299312E+01
N    6.4356070773011371E+00    7.4286690391056016E+00    1.2910145846474400E+01
Ga    6.4279568074806699E+00    5.5734109101404767E+00    1.3608104449006953E+01
N    6.4148313258112779E+00    5.5585235528515851E+00    1.5523550980249766E+01
Ga    6.4345829319570447E+00    7.4311716955053058E+00    1.6597803284202321E+01
N    8.0066205024878201E+00    6.4682200447407974E+00    1.7470986268305900E+01
N    4.8292567317054873E+00    8.3420966590800170E+00   -1.1223632857795027E-01
Ga    4.8303002947787235E+00    1.0195250567614231E+01    5.5574703567764527E-01
N    4.8302497427536224E+00    1.0195594039886796E+01    2.4516762084369450E+00
Ga    4.8293471358620828E+00    8.3423814746557863E+00    3.1527692038556645E+00
N    4.8293991668918972E+00    8.3420644390251795E+00    5.0523555974817116E+00
Ga    4.8299622649040552E+00    1.0194909263175344E+01    5.7440603888171680E+00
N    4.8300643481507075E+00    1.0195168681985262E+01    7.6591467255768029E+00
Ga    4.8295582859449260E+00    8.3406847568127471E+00    8.3649396480132765E+00
N    4.8293587352949405E+00    8.3404747764280600E+00    1.0281581549559972E+01
Ga    4.8320593134751819E+00    1.0191622206487871E+01    1.0972397788659782E+01
N    4.8330026290387957E+00    1.0193843416131433E+01    1.2905659839965207E+01
Ga    4.8294169404746068E+00    8.3467684755056073E+00    1.3632973685077841E+01
N    4.8187048808718487E+00    8.3463239582912898E+00    1.5560884152990214E+01
Ga    4.8181381956657221E+00    1.0200005512043937E+01    1.6563268593654477E+01
N    6.4183283776097637E+00    9.2846814249138649E+00    1.7470771202372735E+01
H    1.5406727720305068E-05   -3.3937832518536636E-04   -1.1384191518044209E+00
H   -1.6054833395218635E+00    2.7803338841837033E+00   -1.1383430442983644E+00
H   -3.2107881099271358E+00    5.5608480951760537E+00   -1.1384134200879952E+00
H   -4.8162070017566583E+00    8.3415047542175724E+00   -1.1384204862187053E+00
H    3.2149624811178379E+00   -3.3311991880405437E-04   -1.1385030443346544E+00
H    1.6096279259858699E+00    2.7803365162885236E+00   -1.1384222441727869E+00
H    4.1985127041498814E-03    5.5609107664253079E+00   -1.1383157707832567E+00
H   -1.6011230802731566E+00    8.3414757084646851E+00   -1.1384036567659916E+00
H    6.4299960573480215E+00   -2.5602205014350795E-04   -1.1384607769728583E+00
H    4.8246770971343391E+00    2.7802960007193072E+00   -1.1383406129439888E+00
H    3.2192275228745806E+00    5.5607889628499070E+00   -1.1383978006941657E+00
H    1.6137377718678956E+00    8.3414949526413498E+00   -1.1384361735229516E+00
H    9.6450045524451582E+00   -2.6641283295361938E-04   -1.1384947685426208E+00
H    8.0396222427237749E+00    2.7802658098137045E+00   -1.1382908845362836E+00
H    6.4342341339427493E+00    5.5608705746050715E+00   -1.1383282888340600E+00
H    4.8289071213508885E+00    8.3414878011851368E+00   -1.1384420078851005E+00
     &END COORD
     &KIND H
       BASIS_SET DZVP-MOLOPT-SR-GTH-q1
       POTENTIAL GTH-PBE-q1
       &POTENTIAL
 1
  0.2000000000000000E+00 2 -0.4178900440000000E+01  0.7244633100000000E+00
 0
         # Potential name:  GTH-PBE-Q1  for symbol:  H
         # Potential read from the potential filename: GTH_POTENTIALS
       &END POTENTIAL
     &END KIND
     &KIND N
       BASIS_SET DZVP-MOLOPT-SR-GTH
       POTENTIAL GTH-PBE-q5
       &POTENTIAL
 2 3
  0.2837905100000000E+00 2 -0.1241522559000000E+02  0.1868095920000000E+01
 2
  0.2554050000000000E+00 1  0.1363026257000000E+02
  0.2454945300000000E+00 0
         # Potential name:  GTH-PBE-Q5  for symbol:  N
         # Potential read from the potential filename: GTH_POTENTIALS
       &END POTENTIAL
     &END KIND
     &KIND Ga
       BASIS_SET DZVP-MOLOPT-SR-GTH
       POTENTIAL GTH-PBE-q13
       &POTENTIAL
 2 1 10
  0.4900000000000000E+00 0
 3
  0.4167772300000000E+00 3  0.1047568975000000E+02 -0.4921768140000000E+01  0.8707055900000000E+00
  0.7770178090000000E+01 -0.2248152160000000E+01
  0.1784415450000000E+01
  0.5696265200000000E+00 2  0.1777985340000000E+01  0.1958597600000000E+00
 -0.2317443900000000E+00
  0.2381265000000000E+00 1 -0.1624868022000000E+02
         # Potential name:  GTH-PBE-Q13  for symbol:  GA
         # Potential read from the potential filename: GTH_POTENTIALS
       &END POTENTIAL
     &END KIND
     &TOPOLOGY
       NUMBER_OF_ATOMS  256
       MULTIPLE_UNIT_CELL  1 1 1
     &END TOPOLOGY
   &END SUBSYS
 &END FORCE_EVAL
