 # Version information for this restart file 
 # current date 2019-06-09 06:01:46.830
 # current working dir /lustre03/project/6037349/rzk/GaN-carbene/444-addat/00-Surface/UKS_SYMM
 # Program compiled at                              Sun Apr  7 00:48:11 EDT 2019
 # Program compiled on                          beluga2.int.ets1.calculquebec.ca
 # Program compiled for                        Beluga-Linux-x86-64-intel-openmpi
 # Source code revision number                                         svn:18619
 &GLOBAL
   PRINT_LEVEL  MEDIUM
   PROJECT_NAME TEST
   RUN_TYPE  CELL_OPT
 &END GLOBAL
 &MOTION
   &CELL_OPT
     MAX_ITER  300
     STEP_START_VAL  32
     EXTERNAL_PRESSURE     1.0000000000000000E+00
     KEEP_ANGLES  T
     KEEP_SYMMETRY  T
     CONSTRAINT  Z
     PRESSURE_TOLERANCE     5.0000000000000000E+02
   &END CELL_OPT
 &END MOTION
 &FORCE_EVAL
   METHOD  QS
   STRESS_TENSOR  ANALYTICAL
   &DFT
     BASIS_SET_FILE_NAME BASIS_MOLOPT
     POTENTIAL_FILE_NAME GTH_POTENTIALS
     UKS  T
     SURFACE_DIPOLE_CORRECTION  T
     SURF_DIP_DIR  Z
     &SCF
       MAX_SCF  100
       EPS_SCF     5.0000000000000004E-06
       &OT  T
         PRECONDITIONER  FULL_ALL
       &END OT
       &OUTER_SCF  T
         OPTIMIZER  NONE
         EPS_SCF     5.0000000000000004E-06
         MAX_SCF  4
       &END OUTER_SCF
       &PRINT
         &RESTART  OFF
           BACKUP_COPIES  1
           &EACH
             JUST_ENERGY  0
             QS_SCF  0
             MD  20
           &END EACH
         &END RESTART
       &END PRINT
     &END SCF
     &QS
       EPS_DEFAULT     1.0000000000000000E-14
       METHOD  GPW
     &END QS
     &MGRID
       NGRIDS  5
       CUTOFF     1.2000000000000000E+03
     &END MGRID
     &XC
       DENSITY_CUTOFF     1.0000000000000000E-10
       GRADIENT_CUTOFF     1.0000000000000000E-10
       TAU_CUTOFF     1.0000000000000000E-10
       &XC_FUNCTIONAL  NO_SHORTCUT
         &PBE  T
         &END PBE
       &END XC_FUNCTIONAL
       &VDW_POTENTIAL
         POTENTIAL_TYPE  PAIR_POTENTIAL
         &PAIR_POTENTIAL
           R_CUTOFF     1.0000000000000004E+01
           TYPE  DFTD3
           PARAMETER_FILE_NAME dftd3.dat
           REFERENCE_FUNCTIONAL PBE
           EPS_CN     9.9999999999999995E-07
           CALCULATE_C9_TERM  T
           REFERENCE_C9_TERM  T
           LONG_RANGE_CORRECTION  F
           VERBOSE_OUTPUT  F
         &END PAIR_POTENTIAL
       &END VDW_POTENTIAL
     &END XC
   &END DFT
   &SUBSYS
     &CELL
       A     1.2831782112998185E+01    0.0000000000000000E+00    0.0000000000000000E+00
       B    -6.4150102881391051E+00    1.1111123750134052E+01    0.0000000000000000E+00
       C     0.0000000000000000E+00    0.0000000000000000E+00    3.2000000000000000E+01
       MULTIPLE_UNIT_CELL  1 1 1
       &CELL_REF
         A     1.2982353780853531E+01    0.0000000000000000E+00    0.0000000000000000E+00
         B    -6.4911768904267628E+00    1.1243048175136114E+01    0.0000000000000000E+00
         C     0.0000000000000000E+00    0.0000000000000000E+00    3.2000000000000000E+01
         MULTIPLE_UNIT_CELL  1 1 1
       &END CELL_REF
     &END CELL
     &COORD
N    1.6359817850983887E-04   -4.0803444460360447E-04   -2.0533381878950785E-01
Ga    5.4635338130003697E-04    1.8519435336306762E+00    4.7623464369445995E-01
N    4.9120365364099198E-04    1.8521802901895290E+00    2.3952750116410932E+00
Ga    3.9359127925194898E-04   -1.4762180066231690E-04    3.1208268496011851E+00
N    5.8018271084274095E-04   -2.4189782902775051E-04    5.0418370200389484E+00
Ga    6.9556583671385769E-04    1.8523543006411696E+00    5.7561264406470967E+00
N    8.8727461149369440E-04    1.8532783861781019E+00    7.6794107351296415E+00
Ga    9.4690628318004426E-04    1.2844530421695949E-03    8.3899000259775232E+00
N    1.5573388060548502E-03    3.6237446117102796E-03    1.0314651309195735E+01
Ga    2.7245632585744081E-03    1.8552781066280557E+00    1.1028577802784122E+01
N    4.3439417763377541E-03    1.8604370675814521E+00    1.2954928167349417E+01
Ga    2.8880723433398177E-03    6.3853210518265927E-03    1.3667373115118712E+01
N   -6.1040497444215473E-03    6.3470955616593194E-03    1.5585551687615713E+01
Ga   -2.4704717397251445E-03    1.8522521260371696E+00    1.6658036325736955E+01
N    1.5966613013632251E+00    9.2187876318971629E-01    1.7527424643235079E+01
N   -1.6036280386505881E+00    2.7774273913500704E+00   -2.0524300470959339E-01
Ga   -1.6031428798424641E+00    4.6297632472948136E+00    4.7632011695217868E-01
N   -1.6031733719513652E+00    4.6300346116632616E+00    2.3953705636583189E+00
Ga   -1.6035857411059162E+00    2.7779465846112434E+00    3.1211242283266700E+00
N   -1.6035546838314390E+00    2.7780946404773728E+00    5.0421697114922530E+00
Ga   -1.6028690200308247E+00    4.6300879486141806E+00    5.7579441581010018E+00
N   -1.6023971079300328E+00    4.6311990096752691E+00    7.6815103308377726E+00
Ga   -1.6021294453470725E+00    2.7791520107173873E+00    8.3919873365368183E+00
N   -1.6009772578629982E+00    2.7817235925503283E+00    1.0316892329335618E+01
Ga   -1.6010189942870339E+00    4.6339616886192063E+00    1.1028455339123793E+01
N   -1.6007855750618096E+00    4.6374343375471705E+00    1.2953670575205935E+01
Ga   -1.6007500002044488E+00    2.7849730521510856E+00    1.3672785801486361E+01
N   -1.5965131162142669E+00    2.7844134910248006E+00    1.5597594199031830E+01
Ga   -1.6083056526364363E+00    4.6236926278033286E+00    1.6602155542211253E+01
N   -1.8046115865496665E-02    3.7082433255416887E+00    1.7529542230368577E+01
N   -3.2073332926944111E+00    5.5551539475921157E+00   -2.0523668361679667E-01
Ga   -3.2067933370298860E+00    7.4074633932728160E+00    4.7631197458388302E-01
N   -3.2066391529082505E+00    7.4075767181672285E+00    2.3954413613597305E+00
Ga   -3.2071521480674363E+00    5.5554458121115093E+00    3.1214210555279971E+00
N   -3.2068863293942544E+00    5.5553844164571782E+00    5.0425420722380467E+00
Ga   -3.2062391872441522E+00    7.4076333120938775E+00    5.7573434706773243E+00
N   -3.2053131593454043E+00    7.4088163112185166E+00    7.6808877604328210E+00
Ga   -3.2057391741140053E+00    5.5574140241710097E+00    8.3932308705772360E+00
N   -3.2051283063762797E+00    5.5598731027776127E+00    1.0318133609560473E+01
Ga   -3.2047899913648767E+00    7.4130126085010764E+00    1.1028866506524842E+01
N   -3.2038346109601146E+00    7.4166044926765853E+00    1.2954124316276349E+01
Ga   -3.2050091568578978E+00    5.5659955333771860E+00    1.3674027164399476E+01
N   -3.2132539667112967E+00    5.5426478484777446E+00    1.5594499495053268E+01
Ga   -3.2325110978008471E+00    7.4015409988636920E+00    1.6635197566875203E+01
N   -1.6246112578520140E+00    6.4674517546730783E+00    1.7515842875395148E+01
N   -4.8110510990591875E+00    8.3328657840701919E+00   -2.0528651569792786E-01
Ga   -4.8105974090314323E+00    1.0185236258296381E+01    4.7603734085532429E-01
N   -4.8104859109793674E+00    1.0185390534930596E+01    2.3951144937310156E+00
Ga   -4.8107270627778940E+00    8.3332143003953192E+00    3.1210096762363078E+00
N   -4.8104385009378783E+00    8.3330857589554217E+00    5.0420156480463119E+00
Ga   -4.8099966888715979E+00    1.0185422290144404E+01    5.7569909043913112E+00
N   -4.8092614316159290E+00    1.0186598037493845E+01    7.6804345171839561E+00
Ga   -4.8098889370766642E+00    8.3341486314010425E+00    8.3905594910893395E+00
N   -4.8093052430252961E+00    8.3362441833349994E+00    1.0315361659391048E+01
Ga   -4.8087027738251633E+00    1.0189004142298096E+01    1.1025421552201909E+01
N   -4.8094998839169385E+00    1.0192335088900327E+01    1.2948176624854824E+01
Ga   -4.8098472928272908E+00    8.3426877763238263E+00    1.3672200736303974E+01
N   -4.8155457233913452E+00    8.3426782637220906E+00    1.5591776955986626E+01
Ga   -4.8221947279553605E+00    1.0195748636304865E+01    1.6613682259043564E+01
N   -3.2327789356519565E+00    9.2495536081620777E+00    1.7515658825087399E+01
N    3.2081654871420873E+00   -4.4547600601852752E-04   -2.0531909473146037E-01
Ga    3.2086307955816444E+00    1.8518848490091788E+00    4.7623621905019142E-01
N    3.2087421395854081E+00    1.8520754436154685E+00    2.3952810508326343E+00
Ga    3.2083970218305691E+00   -1.5646833732391391E-04    3.1210063925478160E+00
N    3.2086868992430477E+00   -2.0317922397577583E-04    5.0419574963583331E+00
Ga    3.2089723493843807E+00    1.8521190411256239E+00    5.7566056588708321E+00
N    3.2096363190557287E+00    1.8531201183785695E+00    7.6798852936880238E+00
Ga    3.2097898319133544E+00    1.6612176776139864E-03    8.3918190118403491E+00
N    3.2106793604495270E+00    3.6479486316737010E-03    1.0316479745308591E+01
Ga    3.2099959557240152E+00    1.8557042503051762E+00    1.1029029797029104E+01
N    3.2103440451348124E+00    1.8584119570231890E+00    1.2954444980511227E+01
Ga    3.2085658428979111E+00    5.9728068217473340E-03    1.3669811476538946E+01
N    3.1945693420446069E+00   -5.0595292215936281E-03    1.5588280116764901E+01
Ga    3.2079898385460641E+00    1.8572971879184954E+00    1.6660952145578911E+01
N    4.7912265819724569E+00    9.0809449404040088E-01    1.7520687938348576E+01
N    1.6043600853295035E+00    2.7773538354281104E+00   -2.0512148094051377E-01
Ga    1.6047393573735411E+00    4.6297792120523242E+00    4.7612820842190079E-01
N    1.6046847404569977E+00    4.6299948972576503E+00    2.3951712460413144E+00
Ga    1.6045523856590520E+00    2.7777649306459602E+00    3.1207044455958162E+00
N    1.6047138473799334E+00    2.7776455397867288E+00    5.0416480806927266E+00
Ga    1.6049172545403023E+00    4.6297876255596977E+00    5.7570081084217390E+00
N    1.6051744576112594E+00    4.6304710508471798E+00    7.6805663315248687E+00
Ga    1.6052282625261942E+00    2.7777853735555924E+00    8.3900381620296560E+00
N    1.6056972325954433E+00    2.7786453476242383E+00    1.0314848939719901E+01
Ga    1.6062940500759193E+00    4.6307886867239576E+00    1.1024970077372132E+01
N    1.6071954783177194E+00    4.6334501246416577E+00    1.2948781006584335E+01
Ga    1.6089829987692708E+00    2.7847522549136841E+00    1.3678099707170711E+01
N    1.6015520384804820E+00    2.7869845624160194E+00    1.5602749909512518E+01
Ga    1.5910983822247380E+00    4.6322607625029741E+00    1.6618256065293259E+01
N    3.1935113293934423E+00    3.7152417218528684E+00    1.7521748931720150E+01
N    5.3642436034894467E-04    5.5551693921032994E+00   -2.0539943069969552E-01
Ga    9.9069741557907660E-04    7.4074965575285816E+00    4.7616354277957268E-01
N    9.6139774113503823E-04    7.4076913258213644E+00    2.3952544456418958E+00
Ga    6.4776359614509660E-04    5.5556007456430834E+00    3.1213180901107118E+00
N    7.0902818716699198E-04    5.5555758422466006E+00    5.0424200256292373E+00
Ga    1.3009893086670854E-03    7.4077854894853647E+00    5.7577938360854066E+00
N    1.9433726620949824E-03    7.4090959141069339E+00    7.6812714668808129E+00
Ga    1.6539492891530924E-03    5.5569073083115352E+00    8.3918437894174005E+00
N    2.1777823315896638E-03    5.5595589176383484E+00    1.0316610898339054E+01
Ga    4.0492564190493796E-03    7.4132735933799863E+00    1.1025773572141855E+01
N    5.1616289834175598E-03    7.4172772689052984E+00    1.2950349764942308E+01
Ga    6.5330123728902763E-03    5.5649833238481614E+00    1.3664071802448513E+01
N   -3.7573773397848072E-03    5.5517298377011697E+00    1.5580985838756467E+01
Ga   -1.1933542804154519E-02    7.3871834316996985E+00    1.6627072492654857E+01
N    1.5909978531578062E+00    6.4740753337096555E+00    1.7525460647820971E+01
N   -1.6031667699446113E+00    8.3329544888210627E+00   -2.0538529615965226E-01
Ga   -1.6026440585158386E+00    1.0185223633140163E+01    4.7631975610393795E-01
N   -1.6025090153606687E+00    1.0185439263548949E+01    2.3953853014863524E+00
Ga   -1.6028818157759930E+00    8.3333468736191012E+00    3.1214548649037916E+00
N   -1.6026496136420940E+00    8.3334864301641680E+00    5.0425250688456016E+00
Ga   -1.6020858103306970E+00    1.0185853181485964E+01    5.7575893840290728E+00
N   -1.6010463312853898E+00    1.0187314181898710E+01    7.6811869668599169E+00
Ga   -1.6019316999183153E+00    8.3354906009619434E+00    8.3921561272972252E+00
N   -1.6009994777438854E+00    8.3379083732838968E+00    1.0316882527705726E+01
Ga   -1.6007034538313603E+00    1.0189942887842982E+01    1.1029545963816666E+01
N   -1.5999860402266515E+00    1.0192594252456848E+01    1.2954302828274168E+01
Ga   -1.5979270184988148E+00    8.3411243031207150E+00    1.3673867101912467E+01
N   -1.6181217308121909E+00    8.3297201768537015E+00    1.5596283831645406E+01
Ga   -1.6252676680685705E+00    1.0187085683001820E+01    1.6630299392193248E+01
N   -2.8383358101042113E-02    9.2221608052821669E+00    1.7504431324221127E+01
N    6.4160251583602053E+00   -3.9147153975522820E-04   -2.0524986783753635E-01
Ga    6.4165613206755232E+00    1.8519356050015434E+00    4.7628921273374458E-01
N    6.4167240033680484E+00    1.8521895851965897E+00    2.3953902317827320E+00
Ga    6.4162277857950736E+00    1.1816083262560710E-04    3.1213076435548572E+00
N    6.4164625327305318E+00    2.8088288337953785E-04    5.0423361458732687E+00
Ga    6.4170957610730337E+00    1.8523660607530419E+00    5.7576451464955580E+00
N    6.4177770330089743E+00    1.8534976103964005E+00    7.6812108928477816E+00
Ga    6.4174186548958136E+00    2.0919085630347212E-03    8.3936960647808654E+00
N    6.4179838800396398E+00    4.8803124981860006E-03    1.0318636098056547E+01
Ga    6.4177535327716333E+00    1.8569060020630843E+00    1.1031408669916903E+01
N    6.4187530616166599E+00    1.8608928018391484E+00    1.2956746459930406E+01
Ga    6.4177058773650995E+00    9.2532888899683422E-03    1.3676305633973701E+01
N    6.4090909334132480E+00   -1.2916928173244309E-02    1.5595879506435875E+01
Ga    6.3937431382810503E+00    1.8445377049402019E+00    1.6640033925573057E+01
N    8.0026752572091766E+00    9.0602419381950849E-01    1.7516521268540767E+01
N    4.8123386777809536E+00    2.7773414126151148E+00   -2.0528475172836169E-01
Ga    4.8127869079939973E+00    4.6296835971851378E+00    4.7614257024672751E-01
N    4.8129299557731073E+00    4.6298171576814404E+00    2.3952248098115394E+00
Ga    4.8126548410153340E+00    2.7776900999666014E+00    3.1211218084159431E+00
N    4.8129391578324325E+00    2.7775969070931490E+00    5.0421532450045001E+00
Ga    4.8131533286337032E+00    4.6297515175860289E+00    5.7573963428598374E+00
N    4.8135935811235973E+00    4.6307624558556135E+00    7.6809189837293008E+00
Ga    4.8133750203401400E+00    2.7784601519219194E+00    8.3917313315489732E+00
N    4.8139204578113404E+00    2.7799001913376244E+00    1.0316670886405628E+01
Ga    4.8135926719254734E+00    4.6329390047168566E+00    1.1025379661908364E+01
N    4.8133877721022849E+00    4.6360699185895475E+00    1.2948036840774115E+01
Ga    4.8130802018649019E+00    2.7875745651377692E+00    1.3674906289253013E+01
N    4.8080135879911943E+00    2.7876796382814493E+00    1.5594014808597167E+01
Ga    4.8022731252731319E+00    4.6395917432066165E+00    1.6617576523852325E+01
N    6.3957209115575706E+00    3.6929465014261464E+00    1.7513773440897626E+01
N    3.2085486872591704E+00    5.5551440534429997E+00   -2.0529085929004245E-01
Ga    3.2089248837969127E+00    7.4074631598282688E+00    4.7627251173823965E-01
N    3.2088590257966025E+00    7.4076007089763065E+00    2.3953455842318436E+00
Ga    3.2087400529471997E+00    5.5552401644996676E+00    3.1208376913258826E+00
N    3.2088962851420586E+00    5.5549491538187583E+00    5.0418394307599179E+00
Ga    3.2091465826384571E+00    7.4074186747888389E+00    5.7558584053534476E+00
N    3.2094537654504975E+00    7.4084323128296710E+00    7.6791337332966165E+00
Ga    3.2091074470986509E+00    5.5567566549162564E+00    8.3907335672171168E+00
N    3.2091623329880750E+00    5.5592259591446780E+00    1.0315490746456584E+01
Ga    3.2105342807642878E+00    7.4119438541137264E+00    1.1027369606086044E+01
N    3.2121077585908382E+00    7.4161334405934394E+00    1.2953323356920592E+01
Ga    3.2097596196619009E+00    5.5612989222957774E+00    1.3665865738988812E+01
N    3.2028680483977880E+00    5.5607659891092371E+00    1.5583840959409530E+01
Ga    3.2066939225844444E+00    7.4068068731890451E+00    1.6654505428545704E+01
N    4.8057916297679899E+00    6.4778528025572593E+00    1.7525685650166920E+01
N    1.6047608893451957E+00    8.3329514834019758E+00   -2.0525876908737858E-01
Ga    1.6052078304473627E+00    1.0185299175617828E+01    4.7622352881439445E-01
N    1.6051657058615212E+00    1.0185584241988966E+01    2.3953027064834065E+00
Ga    1.6047047329273714E+00    8.3333952111422498E+00    3.1211191018052289E+00
N    1.6048076270277112E+00    8.3335530916930534E+00    5.0421680877725956E+00
Ga    1.6055323732252995E+00    1.0185998224446909E+01    5.7574352558207806E+00
N    1.6060890359362692E+00    1.0187549381326678E+01    7.6811072498647865E+00
Ga    1.6064636353906345E+00    8.3351845417548329E+00    8.3904977431976278E+00
N    1.6073687270881785E+00    8.3383785086821884E+00    1.0315268349951330E+01
Ga    1.6068538375832762E+00    1.0190040216426073E+01    1.1028807229851248E+01
N    1.6072046937282920E+00    1.0193077959325670E+01    1.2953900659561082E+01
Ga    1.6076738690202426E+00    8.3401544348798637E+00    1.3672381214466686E+01
N    1.6116640721793769E+00    8.3381880112098870E+00    1.5597368278231556E+01
Ga    1.5975941095337205E+00    1.0176182579484363E+01    1.6601253165455809E+01
N    3.1903330610642815E+00    9.2634889386792771E+00    1.7528595418334213E+01
N    9.6239322190229029E+00   -3.7868902265371937E-04   -2.0539830064398557E-01
Ga    9.6244223505443145E+00    1.8519710245656074E+00    4.7619678112441349E-01
N    9.6244202409943256E+00    1.8523034944902053E+00    2.3953017383477957E+00
Ga    9.6240485542897058E+00    1.3356468307083676E-04    3.1210000292081435E+00
N    9.6241652730353309E+00    4.1172734484351417E-04    5.0420286655622775E+00
Ga    9.6247587624720481E+00    1.8525125735335339E+00    5.7578731644478145E+00
N    9.6252075762072700E+00    1.8539745359061841E+00    7.6816697935510270E+00
Ga    9.6249627490751113E+00    1.9642587805457352E-03    8.3925459383584258E+00
N    9.6255778737702524E+00    5.1590965202740792E-03    1.0317637330136922E+01
Ga    9.6259621840067453E+00    1.8586787607783437E+00    1.1026686990639408E+01
N    9.6280573327962600E+00    1.8629583711279896E+00    1.2950955862263577E+01
Ga    9.6289377630892385E+00    1.0266001811789036E-02    1.3662992137908947E+01
N    9.6209445449230184E+00   -8.2102871674376281E-03    1.5579498565044091E+01
Ga    9.6131868911132141E+00    1.8283718043303281E+00    1.6623320079775450E+01
N    1.1213961888668921E+01    9.1626122764486884E-01    1.7525101566790756E+01
N    8.0202301465795127E+00    2.7773932382465123E+00   -2.0528514179894231E-01
Ga    8.0207619279792777E+00    4.6297092250764029E+00    4.7624872126359136E-01
N    8.0209188164185914E+00    4.6298883222502587E+00    2.3953575398106643E+00
Ga    8.0204627857505066E+00    2.7778602423635399E+00    3.1214390259911005E+00
N    8.0207195197603145E+00    2.7780026896501084E+00    5.0426243642287778E+00
Ga    8.0213586207467653E+00    4.6300758969657823E+00    5.7581513153632562E+00
N    8.0222145804125660E+00    4.6315656773825831E+00    7.6818116817028654E+00
Ga    8.0209439260307249E+00    2.7796348864883229E+00    8.3925810157280658E+00
N    8.0207864336184400E+00    2.7825057678207492E+00    1.0317923544094885E+01
Ga    8.0219039740546361E+00    4.6352660931526390E+00    1.1028542060525435E+01
N    8.0232168109712134E+00    4.6384962327147594E+00    1.2953620156879881E+01
Ga    8.0247209864726798E+00    2.7869680739980991E+00    1.3674260042218670E+01
N    8.0100457738710489E+00    2.7699075038580707E+00    1.5596753046079055E+01
Ga    8.0024833286868979E+00    4.6270946771665127E+00    1.6629574729883348E+01
N    9.6004765383433490E+00    3.6621820337517539E+00    1.7506002545434743E+01
N    6.4165296029073904E+00    5.5551044704703090E+00   -2.0527732503897736E-01
Ga    6.4170151552594845E+00    7.4074088332161727E+00    4.7620885803790780E-01
N    6.4171697744316427E+00    7.4074587506005356E+00    2.3953081958630746E+00
Ga    6.4168322139157103E+00    5.5552163238723509E+00    3.1210966309745154E+00
N    6.4171239594486105E+00    5.5549747683988162E+00    5.0421855123691053E+00
Ga    6.4174482331266880E+00    7.4074173101182748E+00    5.7564093138393817E+00
N    6.4178917656634527E+00    7.4086420642474184E+00    7.6796511545576642E+00
Ga    6.4175073640934306E+00    5.5569514306126280E+00    8.3913047928676896E+00
N    6.4178785241640055E+00    5.5593247857595314E+00    1.0316091567879162E+01
Ga    6.4175717237449748E+00    7.4122199409369216E+00    1.1026807979962296E+01
N    6.4182962683192608E+00    7.4148801013649930E+00    1.2952024367293330E+01
Ga    6.4157424810576815E+00    5.5623483469465889E+00    1.3668116540964785E+01
N    6.4052030446850425E+00    5.5468516055250321E+00    1.5586152193622519E+01
Ga    6.4170000143198838E+00    7.4108106518991850E+00    1.6658831913271420E+01
N    8.0000727927945086E+00    6.4608256414385563E+00    1.7517212712157914E+01
N    4.8127330007519111E+00    8.3328575884493663E+00   -2.0518573921572195E-01
Ga    4.8131420288463387E+00    1.0185283269667051E+01    4.7604232656944762E-01
N    4.8131385798441499E+00    1.0185530609103294E+01    2.3951074099365841E+00
Ga    4.8129634694101906E+00    8.3332179035081655E+00    3.1205661220127983E+00
N    4.8131752606652087E+00    8.3331196296619421E+00    5.0414980043700179E+00
Ga    4.8131556807970668E+00    1.0185558583653055E+01    5.7563812167064876E+00
N    4.8132747764164883E+00    1.0186749878979802E+01    7.6798386106036105E+00
Ga    4.8133641015737956E+00    8.3341178358078789E+00    8.3892172791272621E+00
N    4.8134041081832031E+00    8.3365499338645677E+00    1.0313887152687617E+01
Ga    4.8152375089341177E+00    1.0188100839304692E+01    1.1025653543871154E+01
N    4.8163637722975974E+00    1.0190594338786603E+01    1.2949551326060114E+01
Ga    4.8167419969406424E+00    8.3402092768265703E+00    1.3676342319397138E+01
N    4.8097416729246056E+00    8.3394913506605501E+00    1.5600521085566863E+01
Ga    4.7998473490272922E+00    1.0186689974461931E+01    1.6613688194466210E+01
N    6.4015360037839910E+00    9.2691668952320718E+00    1.7519348307783709E+01
H    2.8348748917359515E-04   -1.6711830626469772E-04   -1.2329011979995852E+00
H   -1.6035575425644162E+00    2.7776320377988557E+00   -1.2328181715145281E+00
H   -3.2072944473889970E+00    5.5553412199328056E+00   -1.2328137950783387E+00
H   -4.8110004082169251E+00    8.3330406469621749E+00   -1.2328666790776837E+00
H    3.2082098408702997E+00   -2.6197874372243228E-04   -1.2328959440766092E+00
H    1.6043913039851321E+00    2.7775336555335755E+00   -1.2326888232434272E+00
H    5.6874637774089040E-04    5.5553639990874313E+00   -1.2329807034680016E+00
H   -1.6031175236292052E+00    8.3331356940242785E+00   -1.2329679604972004E+00
H    6.4160709253025550E+00   -1.7122718703769567E-04   -1.2328251825070380E+00
H    4.8124181819467573E+00    2.7775385495220322E+00   -1.2328628470351051E+00
H    3.2086244138961515E+00    5.5553474630429864E+00   -1.2328649495912372E+00
H    1.6048248266993543E+00    8.3331319771648484E+00   -1.2328321722056030E+00
H    9.6239215719367497E+00   -1.6612590984925086E-04   -1.2329764352993668E+00
H    8.0202499562872180E+00    2.7775911880335293E+00   -1.2328621209078381E+00
H    6.4165832426829654E+00    5.5553007251335504E+00   -1.2328518546982283E+00
H    4.8127716990513640E+00    8.3329714799647299E+00   -1.2327586967397481E+00
     &END COORD
     &KIND H
       BASIS_SET DZVP-MOLOPT-SR-GTH-q1
       POTENTIAL GTH-PBE-q1
       &POTENTIAL
 1
  0.2000000000000000E+00 2 -0.4178900440000000E+01  0.7244633100000000E+00
 0
         # Potential name:  GTH-PBE-Q1  for symbol:  H
         # Potential read from the potential filename: GTH_POTENTIALS
       &END POTENTIAL
     &END KIND
     &KIND N
       BASIS_SET DZVP-MOLOPT-SR-GTH
       POTENTIAL GTH-PBE-q5
       &POTENTIAL
 2 3
  0.2837905100000000E+00 2 -0.1241522559000000E+02  0.1868095920000000E+01
 2
  0.2554050000000000E+00 1  0.1363026257000000E+02
  0.2454945300000000E+00 0
         # Potential name:  GTH-PBE-Q5  for symbol:  N
         # Potential read from the potential filename: GTH_POTENTIALS
       &END POTENTIAL
     &END KIND
     &KIND Ga
       BASIS_SET DZVP-MOLOPT-SR-GTH
       POTENTIAL GTH-PBE-q13
       &POTENTIAL
 2 1 10
  0.4900000000000000E+00 0
 3
  0.4167772300000000E+00 3  0.1047568975000000E+02 -0.4921768140000000E+01  0.8707055900000000E+00
  0.7770178090000000E+01 -0.2248152160000000E+01
  0.1784415450000000E+01
  0.5696265200000000E+00 2  0.1777985340000000E+01  0.1958597600000000E+00
 -0.2317443900000000E+00
  0.2381265000000000E+00 1 -0.1624868022000000E+02
         # Potential name:  GTH-PBE-Q13  for symbol:  GA
         # Potential read from the potential filename: GTH_POTENTIALS
       &END POTENTIAL
     &END KIND
     &TOPOLOGY
       NUMBER_OF_ATOMS  256
       MULTIPLE_UNIT_CELL  1 1 1
     &END TOPOLOGY
   &END SUBSYS
 &END FORCE_EVAL
