 # Version information for this restart file 
 # current date 2019-06-09 05:47:12.524
 # current working dir /lustre03/project/6037349/rzk/GaN-carbene/444-addat/00-Surface/UKS_SYMM
 # Program compiled at                              Sun Apr  7 00:48:11 EDT 2019
 # Program compiled on                          beluga2.int.ets1.calculquebec.ca
 # Program compiled for                        Beluga-Linux-x86-64-intel-openmpi
 # Source code revision number                                         svn:18619
 &GLOBAL
   PRINT_LEVEL  MEDIUM
   PROJECT_NAME TEST
   RUN_TYPE  CELL_OPT
 &END GLOBAL
 &MOTION
   &CELL_OPT
     MAX_ITER  300
     STEP_START_VAL  29
     EXTERNAL_PRESSURE     1.0000000000000000E+00
     KEEP_ANGLES  T
     KEEP_SYMMETRY  T
     CONSTRAINT  Z
     PRESSURE_TOLERANCE     5.0000000000000000E+02
   &END CELL_OPT
 &END MOTION
 &FORCE_EVAL
   METHOD  QS
   STRESS_TENSOR  ANALYTICAL
   &DFT
     BASIS_SET_FILE_NAME BASIS_MOLOPT
     POTENTIAL_FILE_NAME GTH_POTENTIALS
     UKS  T
     SURFACE_DIPOLE_CORRECTION  T
     SURF_DIP_DIR  Z
     &SCF
       MAX_SCF  100
       EPS_SCF     5.0000000000000004E-06
       &OT  T
         PRECONDITIONER  FULL_ALL
       &END OT
       &OUTER_SCF  T
         OPTIMIZER  NONE
         EPS_SCF     5.0000000000000004E-06
         MAX_SCF  4
       &END OUTER_SCF
       &PRINT
         &RESTART  OFF
           BACKUP_COPIES  1
           &EACH
             JUST_ENERGY  0
             QS_SCF  0
             MD  20
           &END EACH
         &END RESTART
       &END PRINT
     &END SCF
     &QS
       EPS_DEFAULT     1.0000000000000000E-14
       METHOD  GPW
     &END QS
     &MGRID
       NGRIDS  5
       CUTOFF     1.2000000000000000E+03
     &END MGRID
     &XC
       DENSITY_CUTOFF     1.0000000000000000E-10
       GRADIENT_CUTOFF     1.0000000000000000E-10
       TAU_CUTOFF     1.0000000000000000E-10
       &XC_FUNCTIONAL  NO_SHORTCUT
         &PBE  T
         &END PBE
       &END XC_FUNCTIONAL
       &VDW_POTENTIAL
         POTENTIAL_TYPE  PAIR_POTENTIAL
         &PAIR_POTENTIAL
           R_CUTOFF     1.0000000000000004E+01
           TYPE  DFTD3
           PARAMETER_FILE_NAME dftd3.dat
           REFERENCE_FUNCTIONAL PBE
           EPS_CN     9.9999999999999995E-07
           CALCULATE_C9_TERM  T
           REFERENCE_C9_TERM  T
           LONG_RANGE_CORRECTION  F
           VERBOSE_OUTPUT  F
         &END PAIR_POTENTIAL
       &END VDW_POTENTIAL
     &END XC
   &END DFT
   &SUBSYS
     &CELL
       A     1.2838504837208792E+01    0.0000000000000000E+00    0.0000000000000000E+00
       B    -6.4151510601898698E+00    1.1111367574478258E+01    0.0000000000000000E+00
       C     0.0000000000000000E+00    0.0000000000000000E+00    3.2000000000000000E+01
       MULTIPLE_UNIT_CELL  1 1 1
       &CELL_REF
         A     1.2982353780853531E+01    0.0000000000000000E+00    0.0000000000000000E+00
         B    -6.4911768904267628E+00    1.1243048175136114E+01    0.0000000000000000E+00
         C     0.0000000000000000E+00    0.0000000000000000E+00    3.2000000000000000E+01
         MULTIPLE_UNIT_CELL  1 1 1
       &END CELL_REF
     &END CELL
     &COORD
N    3.2675636449655012E-04   -1.1576961684376272E-04   -2.0465005906401651E-01
Ga    8.7270805325074966E-04    1.8516839235416993E+00    4.7311107420746146E-01
N    8.7310998926203617E-04    1.8520555651234454E+00    2.3881386063968253E+00
Ga    4.9626374611939027E-04   -5.0704815776958939E-05    3.1191367519176842E+00
N    7.8317835803914514E-04   -8.3333862574522358E-05    5.0431718450772287E+00
Ga    1.0162198779670212E-03    1.8522819831442545E+00    5.7547782330642727E+00
N    1.1383966574288844E-03    1.8532706062099531E+00    7.6784539723779330E+00
Ga    8.1502620557182004E-04    1.3841158068093047E-03    8.3896201012761740E+00
N    1.6161175858074510E-03    3.4774564551923676E-03    1.0314802063026290E+01
Ga    2.8290652716429824E-03    1.8546535792843095E+00    1.1027959292775646E+01
N    4.4185584761006775E-03    1.8605858017063432E+00    1.2959298734221926E+01
Ga    3.6042349078156516E-03    6.9092280894154480E-03    1.3668500057698690E+01
N   -6.9888519228721120E-03    9.1075738117585743E-03    1.5588424471335649E+01
Ga   -6.9470355462880932E-04    1.8538416505965425E+00    1.6665250681582645E+01
N    1.5966646422954069E+00    9.2329335251742339E-01    1.7527999276056757E+01
N   -1.6034809701776203E+00    2.7777844689518165E+00   -2.0458060209478257E-01
Ga   -1.6028315934933297E+00    4.6295815955382613E+00    4.7320852848756279E-01
N   -1.6027870847333683E+00    4.6300252903690700E+00    2.3882314580915112E+00
Ga   -1.6036015015148926E+00    2.7781850575889004E+00    3.1196012225617684E+00
N   -1.6035110819069371E+00    2.7783906861956194E+00    5.0435517733821227E+00
Ga   -1.6026083626596075E+00    4.6300278535023525E+00    5.7570068544509052E+00
N   -1.6019948982550760E+00    4.6309016394079938E+00    7.6810184554593537E+00
Ga   -1.6020349255017481E+00    2.7793949430464275E+00    8.3933250244242945E+00
N   -1.6008530540058648E+00    2.7819528951472163E+00    1.0317782145009900E+01
Ga   -1.6008795180451945E+00    4.6335587480641980E+00    1.1027474189417527E+01
N   -1.5993197019261631E+00    4.6376016954100594E+00    1.2957752188596054E+01
Ga   -1.6002452971052599E+00    2.7859584370565247E+00    1.3673371592272423E+01
N   -1.5976400929639416E+00    2.7850563481557207E+00    1.5598680486474139E+01
Ga   -1.6098836761351507E+00    4.6212478880974572E+00    1.6604596824733850E+01
N   -1.7989149912613519E-02    3.7077373938301350E+00    1.7529765935394867E+01
N   -3.2072267849362630E+00    5.5555746622405282E+00   -2.0456952996298203E-01
Ga   -3.2064983777117928E+00    7.4073277664423740E+00    4.7320761698826075E-01
N   -3.2061971788992270E+00    7.4075506049921840E+00    2.3882462404221028E+00
Ga   -3.2072306644936388E+00    5.5556701115821516E+00    3.1199958241514265E+00
N   -3.2069250131197111E+00    5.5555331321458308E+00    5.0439627731138899E+00
Ga   -3.2058856919997858E+00    7.4073608145536065E+00    5.7560833186551861E+00
N   -3.2047783885472056E+00    7.4084764080552272E+00    7.6800203374622678E+00
Ga   -3.2055158743053367E+00    5.5574919264033635E+00    8.3949754902414320E+00
N   -3.2045488322735478E+00    5.5603760391661785E+00    1.0319367669983455E+01
Ga   -3.2040618609929421E+00    7.4129479217762091E+00    1.1028421867495693E+01
N   -3.2030399697548586E+00    7.4181449280273668E+00    1.2958183735736421E+01
Ga   -3.2040233906818734E+00    5.5670606496936115E+00    1.3674212188856828E+01
N   -3.2156201344041442E+00    5.5411047205051371E+00    1.5595680809606847E+01
Ga   -3.2318309529048048E+00    7.4003860444134499E+00    1.6639196358232461E+01
N   -1.6254472647678169E+00    6.4652182673472760E+00    1.7515029854762282E+01
N   -4.8109986994388674E+00    8.3333457883203792E+00   -2.0466601735897291E-01
Ga   -4.8103606599120603E+00    1.0185196988588526E+01    4.7295765704250797E-01
N   -4.8101542895000309E+00    1.0185547356999995E+01    2.3879017315930651E+00
Ga   -4.8107126770036679E+00    8.3335180074905821E+00    3.1192647534356071E+00
N   -4.8103693899513571E+00    8.3333847475119551E+00    5.0432832633027580E+00
Ga   -4.8096498010653672E+00    1.0185440091797844E+01    5.7559454703706878E+00
N   -4.8086886130690480E+00    1.0186639197271134E+01    7.6799484569263896E+00
Ga   -4.8097376738445421E+00    8.3340243029379462E+00    8.3911188992334758E+00
N   -4.8092765739681402E+00    8.3363131682854945E+00    1.0315446778387141E+01
Ga   -4.8082482446786567E+00    1.0189398168876988E+01    1.1023429506351093E+01
N   -4.8077750964037671E+00    1.0192606730708412E+01    1.2952325376046607E+01
Ga   -4.8100837356283463E+00    8.3430885683919556E+00    1.3672429707551053E+01
N   -4.8148297093810717E+00    8.3418993496410447E+00    1.5594402127294185E+01
Ga   -4.8206161935624499E+00    1.0197957890010491E+01    1.6615584197496929E+01
N   -3.2328690659416197E+00    9.2478546815209359E+00    1.7517096915004636E+01
N    3.2099927031477553E+00   -1.6416259417312634E-04   -2.0468501557477164E-01
Ga    3.2106946477883964E+00    1.8516242752361736E+00    4.7318054564930045E-01
N    3.2109481313693942E+00    1.8519439108831242E+00    2.3881574846145539E+00
Ga    3.2101223310803100E+00   -1.2569004399892928E-04    3.1194054176518260E+00
N    3.2103822442764773E+00   -1.0063054146031967E-04    5.0433629485848872E+00
Ga    3.2111642965647293E+00    1.8519679286083577E+00    5.7552933121987406E+00
N    3.2116353554708552E+00    1.8528499914843681E+00    7.6789752253478589E+00
Ga    3.2117589523282555E+00    1.7298765903227854E-03    8.3928049776102878E+00
N    3.2130650878643698E+00    4.0535833730570578E-03    1.0317187466406562E+01
Ga    3.2122312752046263E+00    1.8558568967877407E+00    1.1028584322808358E+01
N    3.2124093854089297E+00    1.8583786917241307E+00    1.2958191216751736E+01
Ga    3.2110522873273304E+00    6.7151657246152267E-03    1.3671774041096244E+01
N    3.1972026777679208E+00   -4.3255621993082008E-03    1.5591184138627886E+01
Ga    3.2105625484369704E+00    1.8557420928349293E+00    1.6664487868391909E+01
N    4.7936160812001862E+00    9.0872773595649525E-01    1.7522607107502893E+01
N    1.6061575464006119E+00    2.7777087621186882E+00   -2.0444872665949654E-01
Ga    1.6067467486005824E+00    4.6296323870343148E+00    4.7305060765098306E-01
N    1.6067942655546368E+00    4.6300470039643091E+00    2.3880142912437128E+00
Ga    1.6062488890827582E+00    2.7779466516190441E+00    3.1189165046035359E+00
N    1.6064499540683996E+00    2.7778723775741172E+00    5.0428524914263555E+00
Ga    1.6069083369208725E+00    4.6296801932231482E+00    5.7559274830669782E+00
N    1.6072586979853507E+00    4.6302653823656561E+00    7.6796692376722628E+00
Ga    1.6067282969276022E+00    2.7777204535874436E+00    8.3906869824022436E+00
N    1.6073334092450868E+00    2.7784602966754397E+00    1.0314881896595475E+01
Ga    1.6080995565496703E+00    4.6298290092983914E+00    1.1023356276809489E+01
N    1.6087116214713040E+00    4.6327610122821756E+00    1.2951397316063208E+01
Ga    1.6105845346883503E+00    2.7847014255100677E+00    1.3678537475603163E+01
N    1.6050964702165520E+00    2.7898628557172653E+00    1.5605147415083493E+01
Ga    1.5934223608237872E+00    4.6323419573375348E+00    1.6620979186339319E+01
N    3.1979088734906256E+00    3.7157989058910390E+00    1.7523108670986886E+01
N    2.3090466769720079E-03    5.5555843067141488E+00   -2.0478047538842872E-01
Ga    2.9550858499770350E-03    7.4073781270141401E+00    4.7299250535393361E-01
N    2.9684896869996260E-03    7.4077230649174615E+00    2.3880480448220180E+00
Ga    2.2519018583180058E-03    5.5558750146548173E+00    3.1195342585392734E+00
N    2.3503092911728129E-03    5.5557912185462861E+00    5.0437310877601034E+00
Ga    3.2032987258506858E-03    7.4076314518399462E+00    5.7569044699419196E+00
N    3.8642744623947579E-03    7.4088083621925085E+00    7.6809616847982243E+00
Ga    3.1070957906381472E-03    5.5566534675142840E+00    8.3931401542292008E+00
N    3.9913995530244184E-03    5.5595415324265236E+00    1.0317390915004399E+01
Ga    6.5138614413534921E-03    7.4135642237970893E+00    1.1024300696748098E+01
N    8.5979699906815095E-03    7.4178240510410181E+00    1.2953966384621223E+01
Ga    8.3893482310277850E-03    5.5654990056977622E+00    1.3663528419084246E+01
N   -1.6404853625534607E-03    5.5515407259769347E+00    1.5581901289743652E+01
Ga   -8.7835863700015601E-03    7.3882873391031278E+00    1.6632420103393930E+01
N    1.5950092477786566E+00    6.4738795940698077E+00    1.7524461968962139E+01
N   -1.6014322653531361E+00    8.3334181657432254E+00   -2.0478389028946936E-01
Ga   -1.6007068928137900E+00    1.0185170321884900E+01    4.7321362321752675E-01
N   -1.6004606129851895E+00    1.0185536343184351E+01    2.3882753168956787E+00
Ga   -1.6012775261923917E+00    8.3336477298094369E+00    3.1198373493004921E+00
N   -1.6010190687445276E+00    8.3337557981342627E+00    5.0439656430118580E+00
Ga   -1.6001025015772641E+00    1.0185954455666367E+01    5.7563766649347325E+00
N   -1.5991488801421463E+00    1.0187439071948690E+01    7.6803879848244394E+00
Ga   -1.6006092341465410E+00    8.3359179703074382E+00    8.3928263689455029E+00
N   -1.5991985807323155E+00    8.3386005784633372E+00    1.0317708763075647E+01
Ga   -1.5982749875870856E+00    1.0190349705561118E+01    1.1029076644968365E+01
N   -1.5981554068091517E+00    1.0192957476379954E+01    1.2958887215832560E+01
Ga   -1.5957488535967785E+00    8.3416562505873806E+00    1.3674739706110069E+01
N   -1.6174982957298796E+00    8.3284308516494931E+00    1.5598850257022164E+01
Ga   -1.6250341616408488E+00    1.0188740851202796E+01    1.6633857198627130E+01
N   -2.6936256320329765E-02    9.2253466873574332E+00    1.7502085247668226E+01
N    6.4195473224196942E+00   -1.2234536449072961E-04   -2.0459059327051426E-01
Ga    6.4202544294115027E+00    1.8516666987963992E+00    4.7319116982824222E-01
N    6.4204492648542919E+00    1.8520330041119408E+00    2.3881447973558059E+00
Ga    6.4196249196450514E+00    2.6894294313265486E-04    3.1198367290040814E+00
N    6.4198108607472797E+00    4.8425312795727561E-04    5.0437899583318515E+00
Ga    6.4209380780742151E+00    1.8523242764502470E+00    5.7567052368173179E+00
N    6.4215390257059859E+00    1.8532876618287561E+00    7.6804827797149011E+00
Ga    6.4208224147929052E+00    2.1582327363064038E-03    8.3946468307898776E+00
N    6.4213846567098711E+00    4.9656909074440496E-03    1.0319777704515225E+01
Ga    6.4219163988675421E+00    1.8568109658714438E+00    1.1032233524324470E+01
N    6.4227003193032619E+00    1.8608562460290974E+00    1.2962439275811727E+01
Ga    6.4208632913484678E+00    9.8085807939455785E-03    1.3676687141255345E+01
N    6.4096233321491463E+00   -1.7735790055701424E-02    1.5597386636898875E+01
Ga    6.3998570774533992E+00    1.8440917004542168E+00    1.6644963829475952E+01
N    8.0064592287932062E+00    9.0244814148944863E-01    1.7516229527402810E+01
N    4.8158073444891238E+00    2.7777036788091323E+00   -2.0462760718974565E-01
Ga    4.8164520110077573E+00    4.6295131493842021E+00    4.7305362274166318E-01
N    4.8166681987058535E+00    4.6297663351968330E+00    2.3879672589991165E+00
Ga    4.8161120467151628E+00    2.7779244013002655E+00    3.1195169987160511E+00
N    4.8163384277185255E+00    2.7777739782877959E+00    5.0434641217018710E+00
Ga    4.8170811647000802E+00    4.6296271268630411E+00    5.7562638923659009E+00
N    4.8173680177441307E+00    4.6307214215444628E+00    7.6801591963623741E+00
Ga    4.8168478071240903E+00    2.7785511855975176E+00    8.3924155029311347E+00
N    4.8174272343921762E+00    2.7797308450335629E+00    1.0316757924619717E+01
Ga    4.8172879266230817E+00    4.6324813013484016E+00    1.1024571280109079E+01
N    4.8170938472125933E+00    4.6353451070358060E+00    1.2951474147529138E+01
Ga    4.8165988129629804E+00    2.7874282401589068E+00    1.3676593979093321E+01
N    4.8109165853578144E+00    2.7873461861969955E+00    1.5597174893030438E+01
Ga    4.8076159728626706E+00    4.6411346787317704E+00    1.6621286957741557E+01
N    6.3977688736291904E+00    3.6928974138127200E+00    1.7512662719056895E+01
N    3.2119894395514237E+00    5.5555688469409858E+00   -2.0462543743882697E-01
Ga    3.2125783000251196E+00    7.4073448057904550E+00    4.7326304110761991E-01
N    3.2125716229680998E+00    7.4076013035089083E+00    2.3881870345182157E+00
Ga    3.2121576195592318E+00    5.5554333560410951E+00    3.1193877804297325E+00
N    3.2122409989335274E+00    5.5549726297666693E+00    5.0431436012726651E+00
Ga    3.2128710450431091E+00    7.4072680502004724E+00    5.7543586184969913E+00
N    3.2132639589760839E+00    7.4079732122303001E+00    7.6779098070310567E+00
Ga    3.2123777447134594E+00    5.5567692642976150E+00    8.3920805844185651E+00
N    3.2119877456165180E+00    5.5591623312507030E+00    1.0315943831054952E+01
Ga    3.2138915414548594E+00    7.4120693359614034E+00    1.1026537395992262E+01
N    3.2153256016589413E+00    7.4169328422212217E+00    1.2957285719452731E+01
Ga    3.2127192763349295E+00    5.5614830471976058E+00    1.3665566644559869E+01
N    3.2053362135643857E+00    5.5624521581642918E+00    1.5585844039706275E+01
Ga    3.2121512621298636E+00    7.4073739958083857E+00    1.6660629752000101E+01
N    4.8093568341588986E+00    6.4815855800714175E+00    1.7525430695050819E+01
N    1.6081801083592191E+00    8.3334095082827737E+00   -2.0461738295451617E-01
Ga    1.6088141165409553E+00    1.0185246910329610E+01    4.7316383869470918E-01
N    1.6087917136876730E+00    1.0185672701277060E+01    2.3881216254601427E+00
Ga    1.6079258701250512E+00    8.3336984949195845E+00    3.1193664379551063E+00
N    1.6079628919472060E+00    8.3337826744071002E+00    5.0434602063417344E+00
Ga    1.6091262673174354E+00    1.0186078210112676E+01    5.7561856645401566E+00
N    1.6097870914059329E+00    1.0187601603622086E+01    7.6802536047609360E+00
Ga    1.6100234751368276E+00    8.3354311186940784E+00    8.3909582834194154E+00
N    1.6108267951591646E+00    8.3390345915886979E+00    1.0315586559794536E+01
Ga    1.6104295155346908E+00    1.0190422825585213E+01    1.1028123573722166E+01
N    1.6108999129658386E+00    1.0194002513437130E+01    1.2958366849851984E+01
Ga    1.6113674772327888E+00    8.3416289048802312E+00    1.3672936112793534E+01
N    1.6140547580720324E+00    8.3367942138815714E+00    1.5599076309272588E+01
Ga    1.5996245558277780E+00    1.0173441048491044E+01    1.6602898339325144E+01
N    3.1928433585667939E+00    9.2646640340493001E+00    1.7529620820272154E+01
N    9.6291398078196391E+00   -1.0961625186922844E-04   -2.0479290669740940E-01
Ga    9.6298435036216627E+00    1.8517112082140925E+00    4.7310501137406219E-01
N    9.6299605072870236E+00    1.8522188279519074E+00    2.3881047071927424E+00
Ga    9.6290900952882694E+00    2.7394105978363099E-04    3.1192902047126090E+00
N    9.6292257868917179E+00    5.8624662496185159E-04    5.0433350489329714E+00
Ga    9.6301663420294865E+00    1.8525366555751710E+00    5.7566416563368579E+00
N    9.6309934560396524E+00    1.8538679820436652E+00    7.6808374774424584E+00
Ga    9.6300900676049395E+00    2.0363292744995055E-03    8.3936682535737273E+00
N    9.6305296500068511E+00    5.4200472289285288E-03    1.0318424118598861E+01
Ga    9.6309719734643160E+00    1.8594361403767925E+00    1.1027019267953674E+01
N    9.6332903609212135E+00    1.8646770126384034E+00    1.2954987116132463E+01
Ga    9.6344963317446037E+00    1.2366734018221616E-02    1.3662407336020111E+01
N    9.6263958596006720E+00   -9.9403801691258439E-03    1.5580576719154916E+01
Ga    9.6203660271168161E+00    1.8273848564022173E+00    1.6626570682038135E+01
N    1.1218769859447546E+01    9.1664317036268672E-01    1.7524892440761072E+01
N    8.0253953776453812E+00    2.7777486990911440E+00   -2.0464660307392948E-01
Ga    8.0261342229221331E+00    4.6295545820246815E+00    4.7315234331367451E-01
N    8.0263954396470822E+00    4.6299213424079957E+00    2.3881123174335861E+00
Ga    8.0254839089178986E+00    2.7780858962539243E+00    3.1197036018684723E+00
N    8.0257458836108455E+00    2.7782978393323345E+00    5.0438387917756140E+00
Ga    8.0268032065253347E+00    4.6299689308634413E+00    5.7573247293242398E+00
N    8.0276962115721631E+00    4.6317408898225567E+00    7.6812533617005121E+00
Ga    8.0260205830373277E+00    2.7798557108890436E+00    8.3938400742874624E+00
N    8.0253187517107190E+00    2.7829127276441801E+00    1.0318081183002530E+01
Ga    8.0278654914442154E+00    4.6352835052706522E+00    1.1027852666932795E+01
N    8.0290222163730132E+00    4.6390204045781411E+00    1.2956922133825756E+01
Ga    8.0293146513267057E+00    2.7894032084773510E+00    1.3673803521825697E+01
N    8.0163347039206627E+00    2.7659006366323893E+00    1.5599538697387080E+01
Ga    8.0102941044867340E+00    4.6271060080961304E+00    1.6635421820182131E+01
N    9.6057160365501790E+00    3.6649478803084361E+00    1.7504851986639174E+01
N    6.4216480166065635E+00    5.5555287017031567E+00   -2.0460810493005130E-01
Ga    6.4223237731940257E+00    7.4072919693927721E+00    4.7322805800899037E-01
N    6.4225639473680305E+00    7.4074413854994425E+00    2.3880879584937067E+00
Ga    6.4218914809490464E+00    5.5553540025669594E+00    3.1196132093607938E+00
N    6.4222516127662859E+00    5.5550205010968101E+00    5.0434749863795370E+00
Ga    6.4228982394510714E+00    7.4070535011053398E+00    5.7550135764958874E+00
N    6.4232107217979673E+00    7.4082299558515725E+00    7.6787226930187851E+00
Ga    6.4226415005027677E+00    5.5568766413173662E+00    8.3930236935533724E+00
N    6.4226478903978039E+00    5.5598612278700239E+00    1.0316460241573910E+01
Ga    6.4226043376651658E+00    7.4124784576658014E+00    1.1024821622338699E+01
N    6.4229003054450189E+00    7.4153753294642568E+00    1.2954639404064801E+01
Ga    6.4210878329734893E+00    5.5630733219237900E+00    1.3669444586898459E+01
N    6.4115403482793125E+00    5.5459199312500171E+00    1.5589505244730882E+01
Ga    6.4225600115485353E+00    7.4089202156444012E+00    1.6663673888737083E+01
N    8.0052626527977555E+00    6.4602723033524097E+00    1.7517243511562704E+01
N    4.8178232093578046E+00    8.3333282934806299E+00   -2.0453347865879562E-01
Ga    4.8184329168294031E+00    1.0185221413360814E+01    4.7297607557373361E-01
N    4.8185514300586449E+00    1.0185612887173722E+01    2.3879372651123751E+00
Ga    4.8179818520385966E+00    8.3334937787605430E+00    3.1188948140914796E+00
N    4.8182619935798412E+00    8.3333334879809371E+00    5.0427181279342399E+00
Ga    4.8185135179280252E+00    1.0185581211588437E+01    5.7550715394146073E+00
N    4.8185735963840015E+00    1.0186504846127503E+01    7.6789370474121750E+00
Ga    4.8182180169740594E+00    8.3342709586519153E+00    8.3895412685105057E+00
N    4.8181122639537000E+00    8.3367280942201702E+00    1.0313880648531448E+01
Ga    4.8207106437331202E+00    1.0188411847852166E+01    1.1024296804058139E+01
N    4.8220373733063351E+00    1.0191044247737059E+01    1.2954091123938699E+01
Ga    4.8210694261550788E+00    8.3410008482952147E+00    1.3676273175981237E+01
N    4.8159895979414404E+00    8.3389697552202691E+00    1.5603111668801221E+01
Ga    4.8063381295292587E+00    1.0187052882875021E+01    1.6614570919264740E+01
N    6.4090068718230073E+00    9.2695309160108472E+00    1.7520929074901868E+01
H    2.8617509856250864E-04   -1.8991773406527794E-04   -1.2320907019847813E+00
H   -1.6036080727534709E+00    2.7776609237126344E+00   -1.2320202418735202E+00
H   -3.2073962384215009E+00    5.5554377490159563E+00   -1.2320030931321331E+00
H   -4.8111375292206668E+00    8.3332445519745679E+00   -1.2321287038125670E+00
H    3.2098309452710034E+00   -2.8239481622610184E-04   -1.2321372955331296E+00
H    1.6060081875680992E+00    2.7775964632618955E+00   -1.2318939157597650E+00
H    2.1857602551738717E-03    5.5554889855030662E+00   -1.2322330081408173E+00
H   -1.6015255704150153E+00    8.3332812118313182E+00   -1.2322459980466054E+00
H    6.4194280559168524E+00   -1.7334502493242750E-04   -1.2320327977573926E+00
H    4.8157346146436693E+00    2.7776089697996222E+00   -1.2320726597319822E+00
H    3.2119045668431578E+00    5.5554335751406398E+00   -1.2320702817581068E+00
H    1.6080418368314064E+00    8.3332927314699905E+00   -1.2320731503145814E+00
H    9.6289572679431110E+00   -1.8040230881112082E-04   -1.2322584072885161E+00
H    8.0252425824906677E+00    2.7776358050814833E+00   -1.2320998858053898E+00
H    6.4215225403797707E+00    5.5554055852610293E+00   -1.2320503396516993E+00
H    4.8176949660295492E+00    8.3331579346591784E+00   -1.2319878344544692E+00
     &END COORD
     &KIND H
       BASIS_SET DZVP-MOLOPT-SR-GTH-q1
       POTENTIAL GTH-PBE-q1
       &POTENTIAL
 1
  0.2000000000000000E+00 2 -0.4178900440000000E+01  0.7244633100000000E+00
 0
         # Potential name:  GTH-PBE-Q1  for symbol:  H
         # Potential read from the potential filename: GTH_POTENTIALS
       &END POTENTIAL
     &END KIND
     &KIND N
       BASIS_SET DZVP-MOLOPT-SR-GTH
       POTENTIAL GTH-PBE-q5
       &POTENTIAL
 2 3
  0.2837905100000000E+00 2 -0.1241522559000000E+02  0.1868095920000000E+01
 2
  0.2554050000000000E+00 1  0.1363026257000000E+02
  0.2454945300000000E+00 0
         # Potential name:  GTH-PBE-Q5  for symbol:  N
         # Potential read from the potential filename: GTH_POTENTIALS
       &END POTENTIAL
     &END KIND
     &KIND Ga
       BASIS_SET DZVP-MOLOPT-SR-GTH
       POTENTIAL GTH-PBE-q13
       &POTENTIAL
 2 1 10
  0.4900000000000000E+00 0
 3
  0.4167772300000000E+00 3  0.1047568975000000E+02 -0.4921768140000000E+01  0.8707055900000000E+00
  0.7770178090000000E+01 -0.2248152160000000E+01
  0.1784415450000000E+01
  0.5696265200000000E+00 2  0.1777985340000000E+01  0.1958597600000000E+00
 -0.2317443900000000E+00
  0.2381265000000000E+00 1 -0.1624868022000000E+02
         # Potential name:  GTH-PBE-Q13  for symbol:  GA
         # Potential read from the potential filename: GTH_POTENTIALS
       &END POTENTIAL
     &END KIND
     &TOPOLOGY
       NUMBER_OF_ATOMS  256
       MULTIPLE_UNIT_CELL  1 1 1
     &END TOPOLOGY
   &END SUBSYS
 &END FORCE_EVAL
