 # Version information for this restart file 
 # current date 2019-06-09 05:32:17.483
 # current working dir /lustre03/project/6037349/rzk/GaN-carbene/444-addat/00-Surface/UKS_SYMM
 # Program compiled at                              Sun Apr  7 00:48:11 EDT 2019
 # Program compiled on                          beluga2.int.ets1.calculquebec.ca
 # Program compiled for                        Beluga-Linux-x86-64-intel-openmpi
 # Source code revision number                                         svn:18619
 &GLOBAL
   PRINT_LEVEL  MEDIUM
   PROJECT_NAME TEST
   RUN_TYPE  CELL_OPT
 &END GLOBAL
 &MOTION
   &CELL_OPT
     MAX_ITER  300
     STEP_START_VAL  26
     EXTERNAL_PRESSURE     1.0000000000000000E+00
     KEEP_ANGLES  T
     KEEP_SYMMETRY  T
     CONSTRAINT  Z
     PRESSURE_TOLERANCE     5.0000000000000000E+02
   &END CELL_OPT
 &END MOTION
 &FORCE_EVAL
   METHOD  QS
   STRESS_TENSOR  ANALYTICAL
   &DFT
     BASIS_SET_FILE_NAME BASIS_MOLOPT
     POTENTIAL_FILE_NAME GTH_POTENTIALS
     UKS  T
     SURFACE_DIPOLE_CORRECTION  T
     SURF_DIP_DIR  Z
     &SCF
       MAX_SCF  100
       EPS_SCF     5.0000000000000004E-06
       &OT  T
         PRECONDITIONER  FULL_ALL
       &END OT
       &OUTER_SCF  T
         OPTIMIZER  NONE
         EPS_SCF     5.0000000000000004E-06
         MAX_SCF  4
       &END OUTER_SCF
       &PRINT
         &RESTART  OFF
           BACKUP_COPIES  1
           &EACH
             JUST_ENERGY  0
             QS_SCF  0
             MD  20
           &END EACH
         &END RESTART
       &END PRINT
     &END SCF
     &QS
       EPS_DEFAULT     1.0000000000000000E-14
       METHOD  GPW
     &END QS
     &MGRID
       NGRIDS  5
       CUTOFF     1.2000000000000000E+03
     &END MGRID
     &XC
       DENSITY_CUTOFF     1.0000000000000000E-10
       GRADIENT_CUTOFF     1.0000000000000000E-10
       TAU_CUTOFF     1.0000000000000000E-10
       &XC_FUNCTIONAL  NO_SHORTCUT
         &PBE  T
         &END PBE
       &END XC_FUNCTIONAL
       &VDW_POTENTIAL
         POTENTIAL_TYPE  PAIR_POTENTIAL
         &PAIR_POTENTIAL
           R_CUTOFF     1.0000000000000004E+01
           TYPE  DFTD3
           PARAMETER_FILE_NAME dftd3.dat
           REFERENCE_FUNCTIONAL PBE
           EPS_CN     9.9999999999999995E-07
           CALCULATE_C9_TERM  T
           REFERENCE_C9_TERM  T
           LONG_RANGE_CORRECTION  F
           VERBOSE_OUTPUT  F
         &END PAIR_POTENTIAL
       &END VDW_POTENTIAL
     &END XC
   &END DFT
   &SUBSYS
     &CELL
       A     1.2840716731394195E+01    0.0000000000000000E+00    0.0000000000000000E+00
       B    -6.4211378578696880E+00    1.1121737012234327E+01    0.0000000000000000E+00
       C     0.0000000000000000E+00    0.0000000000000000E+00    3.2000000000000000E+01
       MULTIPLE_UNIT_CELL  1 1 1
       &CELL_REF
         A     1.2982353780853531E+01    0.0000000000000000E+00    0.0000000000000000E+00
         B    -6.4911768904267628E+00    1.1243048175136114E+01    0.0000000000000000E+00
         C     0.0000000000000000E+00    0.0000000000000000E+00    3.2000000000000000E+01
         MULTIPLE_UNIT_CELL  1 1 1
       &END CELL_REF
     &END CELL
     &COORD
N    2.4378241843371523E-04   -1.7862430633364858E-04   -1.8311820436471096E-01
Ga    8.5106833718860396E-05    1.8534743633775050E+00    4.7915599919410434E-01
N    9.9429594134119520E-05    1.8539052528508824E+00    2.3937007829459258E+00
Ga    4.0945055447922025E-04   -1.4117104106434482E-04    3.1182198289455325E+00
N    6.1290150363905657E-04   -4.9692901392129924E-04    5.0399953915724049E+00
Ga    2.1203742900083184E-04    1.8539669946004689E+00    5.7531910715399777E+00
N    4.0782876970075756E-04    1.8550624106985225E+00    7.6743698957613322E+00
Ga    5.4093130971713326E-04    1.2884981432827920E-03    8.3799621730738441E+00
N    1.0593858624888548E-03    3.1276355141909846E-03    1.0306689768473202E+01
Ga    1.3139462046286110E-03    1.8560485065261103E+00    1.1026099144430978E+01
N    2.5296890450462284E-03    1.8627319689056394E+00    1.2948772899767951E+01
Ga    3.4108789479107278E-03    5.1777429491301399E-03    1.3660931276637477E+01
N   -5.2008681007303850E-03    1.0109351495595898E-02    1.5577203436761890E+01
Ga   -3.2628142751723411E-04    1.8611254083665350E+00    1.6669769551288265E+01
N    1.5953262292050454E+00    9.2410959008889948E-01    1.7529351697117363E+01
N   -1.6050396226656252E+00    2.7802978961531086E+00   -1.8306475340142916E-01
Ga   -1.6050895189116654E+00    4.6340112090522023E+00    4.7910384889449087E-01
N   -1.6049807964986156E+00    4.6345391813777077E+00    2.3937539548122420E+00
Ga   -1.6051599921255437E+00    2.7807114800089923E+00    3.1185900095106160E+00
N   -1.6053218665884574E+00    2.7807526295442160E+00    5.0404836836961664E+00
Ga   -1.6048619868885985E+00    4.6346794044189412E+00    5.7556270031284003E+00
N   -1.6043175708665427E+00    4.6355531636642970E+00    7.6775968984007816E+00
Ga   -1.6038522667303443E+00    2.7817158270050961E+00    8.3838852338474243E+00
N   -1.6033334239952162E+00    2.7832577538220735E+00    1.0311145656007518E+01
Ga   -1.6033706205166978E+00    4.6372246162926274E+00    1.1028458715824833E+01
N   -1.6015250066468580E+00    4.6414329818254609E+00    1.2946319469537087E+01
Ga   -1.6009381018861695E+00    2.7891485209147051E+00    1.3666568369140499E+01
N   -1.5983793963477733E+00    2.7912839833931873E+00    1.5591372477202203E+01
Ga   -1.6074268076610241E+00    4.6287461728685297E+00    1.6591409598821599E+01
N   -2.3356963828631915E-02    3.7174320067549402E+00    1.7530137281574351E+01
N   -3.2103027735300920E+00    5.5606834966070355E+00   -1.8305364421140222E-01
Ga   -3.2103007057380206E+00    7.4144035337308951E+00    4.7909477531362887E-01
N   -3.2100134911408040E+00    7.4147625783795332E+00    2.3937599893056984E+00
Ga   -3.2102563112860310E+00    5.5608488087757930E+00    3.1189367402256649E+00
N   -3.2104260631793631E+00    5.5604496004659767E+00    5.0408790913950599E+00
Ga   -3.2094804204548950E+00    7.4142693487318612E+00    5.7549045927886802E+00
N   -3.2085820310709248E+00    7.4150725370635264E+00    7.6762537425763551E+00
Ga   -3.2087089206989190E+00    5.5623587256560842E+00    8.3858704109938440E+00
N   -3.2086959874466476E+00    5.5649098593772282E+00    1.0313287274051712E+01
Ga   -3.2069932829809598E+00    7.4194670654616104E+00    1.1027532175142534E+01
N   -3.2065909477517298E+00    7.4260165283141175E+00    1.2949825952842385E+01
Ga   -3.2051927293556606E+00    5.5738081296296196E+00    1.3671097087681527E+01
N   -3.2162880199606807E+00    5.5435896570700951E+00    1.5586215655861897E+01
Ga   -3.2354261586115287E+00    7.4092575186308549E+00    1.6640577026642170E+01
N   -1.6298343355159739E+00    6.4691123191820772E+00    1.7516165944224948E+01
N   -4.8155959845885219E+00    8.3410457861361031E+00   -1.8317382932328014E-01
Ga   -4.8156283563319260E+00    1.0194825483245300E+01    4.7890333271836044E-01
N   -4.8154390053688072E+00    1.0195193012932206E+01    2.3935417637114744E+00
Ga   -4.8151806031586215E+00    8.3412721160935863E+00    3.1179476240426012E+00
N   -4.8150063963311709E+00    8.3407294739750153E+00    5.0401806349549858E+00
Ga   -4.8150957781900319E+00    1.0195037959614401E+01    5.7551512569780057E+00
N   -4.8140776954049826E+00    1.0195976094495890E+01    7.6766082041989359E+00
Ga   -4.8141399694470604E+00    8.3409227814213533E+00    8.3812595191997925E+00
N   -4.8139368147592156E+00    8.3416630304715849E+00    1.0309838367428345E+01
Ga   -4.8138887666441272E+00    1.0198476143879441E+01    1.1018044778611211E+01
N   -4.8118360721044349E+00    1.0201841981058815E+01    1.2938239295887685E+01
Ga   -4.8142972976416223E+00    8.3527028932291820E+00    1.3663708670809635E+01
N   -4.8197881846732944E+00    8.3480523035940450E+00    1.5584213369950410E+01
Ga   -4.8241772553813265E+00    1.0209576563189916E+01    1.6612191942991885E+01
N   -3.2377431771339320E+00    9.2580849768615980E+00    1.7517311826832351E+01
N    3.2104555717147871E+00   -2.0630497005057416E-04   -1.8319048629633886E-01
Ga    3.2104491512976736E+00    1.8534097657704096E+00    4.7902987079994214E-01
N    3.2108718747044009E+00    1.8538350354428657E+00    2.3938008996090123E+00
Ga    3.2105563924814140E+00   -3.2784141411911237E-04    3.1185309331928499E+00
N    3.2107006559430524E+00   -5.5010372469524774E-04    5.0404073409396304E+00
Ga    3.2109395233226272E+00    1.8536977058697226E+00    5.7534211766992343E+00
N    3.2116371734606965E+00    1.8547253748841179E+00    7.6755842507460139E+00
Ga    3.2121260417900990E+00    1.4008877021893572E-03    8.3831624434008205E+00
N    3.2138388846393631E+00    4.2143983151010983E-03    1.0311122100432888E+01
Ga    3.2116467366044255E+00    1.8572507903794495E+00    1.1021960304541540E+01
N    3.2129489737006227E+00    1.8633300421445864E+00    1.2949617015749336E+01
Ga    3.2106550895286645E+00    6.4724586900139275E-03    1.3660817319849436E+01
N    3.1981432068557085E+00   -4.9169627185690129E-03    1.5580325332143806E+01
Ga    3.2092568031653972E+00    1.8600047412542628E+00    1.6664511710507679E+01
N    4.7907824371762020E+00    9.0879981782490948E-01    1.7522358677434095E+01
N    1.6051442489429324E+00    2.7802568846531011E+00   -1.8300582331488519E-01
Ga    1.6050231248335360E+00    4.6340843346158929E+00    4.7898321008615047E-01
N    1.6052165874871074E+00    4.6346988717396176E+00    2.3936649922900566E+00
Ga    1.6051319612192605E+00    2.7804544398003253E+00    3.1176170678639856E+00
N    1.6053850256951709E+00    2.7803074159756878E+00    5.0397080477563589E+00
Ga    1.6047857086646027E+00    4.6341708712276048E+00    5.7542914745620335E+00
N    1.6056264853674831E+00    4.6349284179287622E+00    7.6764212892907233E+00
Ga    1.6055576488539205E+00    2.7800483774372293E+00    8.3802964004412317E+00
N    1.6065717094914158E+00    2.7810513993897685E+00    1.0308672824778583E+01
Ga    1.6058533398928081E+00    4.6328862013212202E+00    1.1017410549798234E+01
N    1.6076743143894463E+00    4.6347239593968075E+00    1.2942292023638824E+01
Ga    1.6079781033951945E+00    2.7844938922536913E+00    1.3672131555671475E+01
N    1.6043313333237816E+00    2.7944046151048347E+00    1.5597359185880935E+01
Ga    1.5908237180144456E+00    4.6390271931495723E+00    1.6617777581514659E+01
N    3.1986478188618275E+00    3.7242048407838628E+00    1.7524455032797214E+01
N   -1.7265793106000193E-04    5.5607076577890320E+00   -1.8324208909379061E-01
Ga   -2.6217370424988431E-04    7.4144015310298483E+00    4.7890018898115716E-01
N   -1.7451411245658006E-04    7.4148773281141072E+00    2.3935354675399769E+00
Ga   -3.3483534215247342E-04    5.5610429381622568E+00    3.1185211007527593E+00
N   -2.6798907956665551E-04    5.5607504264515129E+00    5.0405982050915838E+00
Ga   -2.5957251835199800E-04    7.4144967739067926E+00    5.7560275010643531E+00
N    5.5079299782187009E-04    7.4155326533423498E+00    7.6779933994603287E+00
Ga    3.7095942559898614E-04    5.5613067140420309E+00    8.3841459010643327E+00
N    2.6659521812654164E-03    5.5631323181335448E+00    1.0312972896237742E+01
Ga    2.9395104870966423E-03    7.4205677564721793E+00    1.1020719175829411E+01
N    6.9648146001136165E-03    7.4244782602169987E+00    1.2942472059350385E+01
Ga    6.0466795590346225E-03    5.5713040596078205E+00    1.3646999038945710E+01
N    5.0649851964606021E-04    5.5576943060571766E+00    1.5571713871920734E+01
Ga   -7.8634649278393892E-03    7.3887076274428400E+00    1.6625132121599069E+01
N    1.5964867141924792E+00    6.4785105616741285E+00    1.7525748814280991E+01
N   -1.6054165772927675E+00    8.3410979637005482E+00   -1.8327561881970186E-01
Ga   -1.6054762708478192E+00    1.0194793293242267E+01    4.7904329082325237E-01
N   -1.6051623697740520E+00    1.0195245391849012E+01    2.3937633080837828E+00
Ga   -1.6052913814245464E+00    8.3412935983364349E+00    3.1188571347024499E+00
N   -1.6052928533888247E+00    8.3411604545734424E+00    5.0408733618868560E+00
Ga   -1.6048365787596339E+00    1.0195290550860465E+01    5.7551565101459738E+00
N   -1.6038447754903502E+00    1.0196978613363141E+01    7.6767325495798930E+00
Ga   -1.6051006208810810E+00    8.3432154047073563E+00    8.3839201981161882E+00
N   -1.6042414041664177E+00    8.3458773692871002E+00    1.0311452176887304E+01
Ga   -1.6025181601331835E+00    1.0199956981284648E+01    1.1028099899057883E+01
N   -1.6017327348409156E+00    1.0204006959897420E+01    1.2948803630531661E+01
Ga   -1.5981979384829847E+00    8.3507948233371607E+00    1.3668328875430229E+01
N   -1.6202295565554301E+00    8.3347963131895391E+00    1.5590137295252667E+01
Ga   -1.6295232783659142E+00    1.0199241940534224E+01    1.6628424691563293E+01
N   -3.8896226943640443E-02    9.2230707658060940E+00    1.7510579179442573E+01
N    6.4206174769063704E+00   -1.6165668368174431E-04   -1.8308409115308275E-01
Ga    6.4205361962338090E+00    1.8534598987574675E+00    4.7892930678976403E-01
N    6.4207638234785263E+00    1.8539544140627360E+00    2.3937801418108964E+00
Ga    6.4205394066553598E+00    4.4420778791976320E-05    3.1188398904426506E+00
N    6.4207041832881497E+00    3.0207278411333998E-04    5.0407257503110205E+00
Ga    6.4212595197548579E+00    1.8540428803735818E+00    5.7550051835984153E+00
N    6.4220021798034743E+00    1.8553882553944003E+00    7.6771110188073477E+00
Ga    6.4217162310351732E+00    1.6528416405250043E-03    8.3847298227265483E+00
N    6.4227903307600336E+00    4.6665650299838411E-03    1.0312821216627688E+01
Ga    6.4217378974074180E+00    1.8578155122674134E+00    1.1029500498995858E+01
N    6.4235550544629607E+00    1.8644340209106551E+00    1.2953764128285084E+01
Ga    6.4225543969701162E+00    1.0172251312221971E-02    1.3670356575998948E+01
N    6.4111480249788064E+00   -2.5877696220809380E-02    1.5592068879251945E+01
Ga    6.3993251566229539E+00    1.8492106947966196E+00    1.6645612473255881E+01
N    8.0038920359481320E+00    9.0164480032172600E-01    1.7516435376466212E+01
N    4.8153616037839431E+00    2.7802689043810793E+00   -1.8308022943742733E-01
Ga    4.8152138618654341E+00    4.6339506792928002E+00    4.7886762988459941E-01
N    4.8154684845294984E+00    4.6343567386427518E+00    2.3936492579414974E+00
Ga    4.8156026674688457E+00    2.7804562150000023E+00    3.1184380592193262E+00
N    4.8159029089182610E+00    2.7803109378192912E+00    5.0405453926921462E+00
Ga    4.8159216257312130E+00    4.6338680046620482E+00    5.7546379421288094E+00
N    4.8163300351874492E+00    4.6350678665370406E+00    7.6771750352401353E+00
Ga    4.8159734602161697E+00    2.7804674920027850E+00    8.3822395619291736E+00
N    4.8162691359919494E+00    2.7822222401476364E+00    1.0311435065747210E+01
Ga    4.8162154374138861E+00    4.6357730901092786E+00    1.1016316382020682E+01
N    4.8151686554344444E+00    4.6392052182705452E+00    1.2942199568058326E+01
Ga    4.8154291125146402E+00    2.7896095199695945E+00    1.3665984027143706E+01
N    4.8108116432409016E+00    2.7891433514285708E+00    1.5590539404042657E+01
Ga    4.8081700647177072E+00    4.6464160019558163E+00    1.6617006120641943E+01
N    6.3967261616420075E+00    3.7003986964395987E+00    1.7513051897458805E+01
N    3.2100537642451643E+00    5.5606902899566046E+00   -1.8309316380665291E-01
Ga    3.2098707338766763E+00    7.4143538052488056E+00    4.7911537216817374E-01
N    3.2099769138673961E+00    7.4147080519861444E+00    2.3938930781544854E+00
Ga    3.2101412682655210E+00    5.5605345034912554E+00    3.1182839183248539E+00
N    3.2104046737085157E+00    5.5598197938982201E+00    5.0404765953651118E+00
Ga    3.2099349541785895E+00    7.4144029605821160E+00    5.7524787368202706E+00
N    3.2105976305965460E+00    7.4145639154453260E+00    7.6740294216024587E+00
Ga    3.2100493123753768E+00    5.5614978011574996E+00    8.3813204447945981E+00
N    3.2097302044669873E+00    5.5631417791262905E+00    1.0310276605001015E+01
Ga    3.2108965062696768E+00    7.4191625337012077E+00    1.1022879357772180E+01
N    3.2116951685847464E+00    7.4227714619703704E+00    1.2948600930362133E+01
Ga    3.2096770342612300E+00    5.5665587842552089E+00    1.3653372612448216E+01
N    3.2030700227312545E+00    5.5683160837438219E+00    1.5576782072435872E+01
Ga    3.2107975246236613E+00    7.4160960596389067E+00    1.6664524017186704E+01
N    4.8063311725781341E+00    6.4864634641686347E+00    1.7526963483875690E+01
N    1.6047505682432082E+00    8.3411041433159792E+00   -1.8313423046206495E-01
Ga    1.6046660666234098E+00    1.0194862622548859E+01    4.7899507934935032E-01
N    1.6047823814834625E+00    1.0195366528245211E+01    2.3937596166940525E+00
Ga    1.6043006991511286E+00    8.3413531070496933E+00    3.1182044680259433E+00
N    1.6043688485519172E+00    8.3412100089834986E+00    5.0402667234974059E+00
Ga    1.6047577015041046E+00    1.0195519267921993E+01    5.7549435904934159E+00
N    1.6055408712933723E+00    1.0197003779318239E+01    7.6765643637421146E+00
Ga    1.6062236407009371E+00    8.3427835018684249E+00    8.3812931922108618E+00
N    1.6083302681498577E+00    8.3455858124816515E+00    1.0309477965380367E+01
Ga    1.6057635585849350E+00    1.0199271566859663E+01    1.1026315352275521E+01
N    1.6066536851487798E+00    1.0204991883279000E+01    1.2948035316542652E+01
Ga    1.6066883960687741E+00    8.3503753477951754E+00    1.3667857053366248E+01
N    1.6102568321379287E+00    8.3484634115246745E+00    1.5591053845790256E+01
Ga    1.5997280565419749E+00    1.0186365340839338E+01    1.6589516905308916E+01
N    3.1851347830969861E+00    9.2755372284471544E+00    1.7530242563529917E+01
N    9.6307523225717340E+00   -1.8099203523260076E-04   -1.8330265556946154E-01
Ga    9.6307533137622681E+00    1.8534745710402256E+00    4.7901831295582492E-01
N    9.6308247260162929E+00    1.8539970708949640E+00    2.3936135206337190E+00
Ga    9.6306644203532770E+00    1.1319367641043645E-04    3.1182629391272685E+00
N    9.6305156870137836E+00    1.6793476430821205E-04    5.0402792752618453E+00
Ga    9.6309027445271784E+00    1.8543492873036129E+00    5.7554198008820929E+00
N    9.6316318192109875E+00    1.8557192603418242E+00    7.6771729126263475E+00
Ga    9.6314124108096308E+00    1.7922316873902359E-03    8.3833845155013123E+00
N    9.6315849048437361E+00    5.6706073328275392E-03    1.0312500481417240E+01
Ga    9.6329398599487153E+00    1.8611329680503588E+00    1.1019379953691196E+01
N    9.6324395158453537E+00    1.8691728495227284E+00    1.2947949960885186E+01
Ga    9.6378035808199325E+00    1.2135484093283114E-02    1.3649971002988691E+01
N    9.6317230929603177E+00   -7.8112841837497792E-03    1.5566966799672619E+01
Ga    9.6264619634902289E+00    1.8218679225785648E+00    1.6619232537992129E+01
N    1.1225206517966688E+01    9.1555226124085465E-01    1.7525735256759202E+01
N    8.0254849397418262E+00    2.7802833489165284E+00   -1.8311409809098605E-01
Ga    8.0255167801384992E+00    4.6339953062594530E+00    4.7904301522828163E-01
N    8.0256973295671266E+00    4.6344439607813754E+00    2.3936924401089579E+00
Ga    8.0255519836183264E+00    2.7805646062176921E+00    3.1183408815557736E+00
N    8.0255228624545456E+00    2.7806696246003293E+00    5.0406122805429643E+00
Ga    8.0263436360131948E+00    4.6342674161074351E+00    5.7557608877797675E+00
N    8.0270249403513816E+00    4.6360314260996587E+00    7.6777842567703347E+00
Ga    8.0264533403708000E+00    2.7821438828682563E+00    8.3846567393342539E+00
N    8.0261608095406931E+00    2.7855144797890832E+00    1.0312695737599363E+01
Ga    8.0278089217747493E+00    4.6400456731460507E+00    1.1023956125478648E+01
N    8.0278992788588255E+00    4.6451314123887011E+00    1.2947367038895079E+01
Ga    8.0281404379460337E+00    2.7941198796240458E+00    1.3672138175902788E+01
N    8.0154734954558364E+00    2.7709380565897548E+00    1.5585517664982087E+01
Ga    8.0108341340274070E+00    4.6337339566195492E+00    1.6631237874083329E+01
N    9.5989508595902358E+00    3.6581454771885080E+00    1.7508159725383049E+01
N    6.4202294992919775E+00    5.5606618816257036E+00   -1.8305298365686831E-01
Ga    6.4202337331059338E+00    7.4143711468990681E+00    4.7899690003440493E-01
N    6.4204608501456004E+00    7.4145949842936796E+00    2.3938676150688627E+00
Ga    6.4203983047081223E+00    5.5604004914902410E+00    3.1184210996859187E+00
N    6.4206340455214344E+00    5.5597260500694707E+00    5.0406535935546222E+00
Ga    6.4208693723837351E+00    7.4139819481167697E+00    5.7532701045150523E+00
N    6.4212682665099114E+00    7.4145739388647458E+00    7.6752118865274497E+00
Ga    6.4214469327950567E+00    5.5617421486899650E+00    8.3835567716577817E+00
N    6.4210636059698389E+00    5.5644124130800048E+00    1.0312236225913725E+01
Ga    6.4202639986585330E+00    7.4199205544435598E+00    1.1017803465585780E+01
N    6.4197758098038991E+00    7.4225266737107205E+00    1.2945787326420719E+01
Ga    6.4181521096870204E+00    5.5714610721772511E+00    1.3652887363156157E+01
N    6.4088348109532038E+00    5.5499358687987117E+00    1.5580661906239229E+01
Ga    6.4184980499539988E+00    7.4186798848979683E+00    1.6661840974916363E+01
N    8.0003174856691075E+00    6.4658344748338692E+00    1.7517395742998914E+01
N    4.8149338275076703E+00    8.3410450369623987E+00   -1.8306624342210229E-01
Ga    4.8148101117904147E+00    1.0194899927825730E+01    4.7881192354244223E-01
N    4.8149084161026305E+00    1.0195274385203858E+01    2.3936075056910542E+00
Ga    4.8149838534851916E+00    8.3412597192870805E+00    3.1177637572847927E+00
N    4.8152056817749536E+00    8.3406111162399839E+00    5.0397493283765913E+00
Ga    4.8150057075972654E+00    1.0195211820162015E+01    5.7537627294921290E+00
N    4.8150547665716390E+00    1.0195694779470253E+01    7.6755048807985506E+00
Ga    4.8153649913239009E+00    8.3411219217669501E+00    8.3787564452120300E+00
N    4.8150801145354372E+00    8.3415165586006594E+00    1.0307555055440019E+01
Ga    4.8173967188074824E+00    1.0196560644552273E+01    1.1021584945660228E+01
N    4.8175951250523203E+00    1.0199686858225194E+01    1.2940343259627891E+01
Ga    4.8169372147574459E+00    8.3496376866276911E+00    1.3669127075991124E+01
N    4.8126697313340694E+00    8.3453188171741548E+00    1.5595606334925932E+01
Ga    4.8024593954324777E+00    1.0196799428136982E+01    1.6612068882286511E+01
N    6.4067541774138546E+00    9.2792889329079085E+00    1.7521183036090438E+01
H    2.1613070304836638E-04   -2.8756862098913266E-04   -1.2071517685998410E+00
H   -1.6052072039716130E+00    2.7801809916635567E+00   -1.2070969546652415E+00
H   -3.2104681921633289E+00    5.5605359060232038E+00   -1.2070844254551818E+00
H   -4.8157244636514100E+00    8.3409868659518800E+00   -1.2072164510957581E+00
H    3.2102733519456255E+00   -3.4382688478984868E-04   -1.2072384785906722E+00
H    1.6050052693883010E+00    2.7801547630154477E+00   -1.2070663940853832E+00
H   -3.0578288941711623E-04    5.5606213723387770E+00   -1.2072772471519186E+00
H   -1.6054977861028550E+00    8.3409686056491648E+00   -1.2073138077189602E+00
H    6.4204653596481247E+00   -2.1260936066255773E-04   -1.2071047720101786E+00
H    4.8152843075743110E+00    2.7801527638735015E+00   -1.2070956455347950E+00
H    3.2099462253853992E+00    5.5605033415599197E+00   -1.2071144352716798E+00
H    1.6045389669479431E+00    8.3409938822436906E+00   -1.2071674299428059E+00
H    9.6305705307766107E+00   -2.3657717455110520E-04   -1.2073461159743824E+00
H    8.0253297945670496E+00    2.7801460002490992E+00   -1.2071434631452773E+00
H    6.4200925261022990E+00    5.5605252702384940E+00   -1.2070755947409866E+00
H    4.8148177894644606E+00    8.3409069738072414E+00   -1.2071068398236429E+00
     &END COORD
     &KIND H
       BASIS_SET DZVP-MOLOPT-SR-GTH-q1
       POTENTIAL GTH-PBE-q1
       &POTENTIAL
 1
  0.2000000000000000E+00 2 -0.4178900440000000E+01  0.7244633100000000E+00
 0
         # Potential name:  GTH-PBE-Q1  for symbol:  H
         # Potential read from the potential filename: GTH_POTENTIALS
       &END POTENTIAL
     &END KIND
     &KIND N
       BASIS_SET DZVP-MOLOPT-SR-GTH
       POTENTIAL GTH-PBE-q5
       &POTENTIAL
 2 3
  0.2837905100000000E+00 2 -0.1241522559000000E+02  0.1868095920000000E+01
 2
  0.2554050000000000E+00 1  0.1363026257000000E+02
  0.2454945300000000E+00 0
         # Potential name:  GTH-PBE-Q5  for symbol:  N
         # Potential read from the potential filename: GTH_POTENTIALS
       &END POTENTIAL
     &END KIND
     &KIND Ga
       BASIS_SET DZVP-MOLOPT-SR-GTH
       POTENTIAL GTH-PBE-q13
       &POTENTIAL
 2 1 10
  0.4900000000000000E+00 0
 3
  0.4167772300000000E+00 3  0.1047568975000000E+02 -0.4921768140000000E+01  0.8707055900000000E+00
  0.7770178090000000E+01 -0.2248152160000000E+01
  0.1784415450000000E+01
  0.5696265200000000E+00 2  0.1777985340000000E+01  0.1958597600000000E+00
 -0.2317443900000000E+00
  0.2381265000000000E+00 1 -0.1624868022000000E+02
         # Potential name:  GTH-PBE-Q13  for symbol:  GA
         # Potential read from the potential filename: GTH_POTENTIALS
       &END POTENTIAL
     &END KIND
     &TOPOLOGY
       NUMBER_OF_ATOMS  256
       MULTIPLE_UNIT_CELL  1 1 1
     &END TOPOLOGY
   &END SUBSYS
 &END FORCE_EVAL
