 # Version information for this restart file 
 # current date 2019-06-09 02:38:54.466
 # current working dir /lustre03/project/6037349/rzk/GaN-carbene/444-addat/00-Surface/UKS_SYMM
 # Program compiled at                              Sun Apr  7 00:48:11 EDT 2019
 # Program compiled on                          beluga2.int.ets1.calculquebec.ca
 # Program compiled for                        Beluga-Linux-x86-64-intel-openmpi
 # Source code revision number                                         svn:18619
 &GLOBAL
   PRINT_LEVEL  MEDIUM
   PROJECT_NAME TEST
   RUN_TYPE  CELL_OPT
 &END GLOBAL
 &MOTION
   &CELL_OPT
     MAX_ITER  300
     STEP_START_VAL  2
     EXTERNAL_PRESSURE     1.0000000000000000E+00
     KEEP_ANGLES  T
     KEEP_SYMMETRY  T
     CONSTRAINT  Z
     PRESSURE_TOLERANCE     5.0000000000000000E+02
   &END CELL_OPT
 &END MOTION
 &FORCE_EVAL
   METHOD  QS
   STRESS_TENSOR  ANALYTICAL
   &DFT
     BASIS_SET_FILE_NAME BASIS_MOLOPT
     POTENTIAL_FILE_NAME GTH_POTENTIALS
     UKS  T
     SURFACE_DIPOLE_CORRECTION  T
     SURF_DIP_DIR  Z
     &SCF
       MAX_SCF  100
       EPS_SCF     5.0000000000000004E-06
       &OT  T
         PRECONDITIONER  FULL_ALL
       &END OT
       &OUTER_SCF  T
         OPTIMIZER  NONE
         EPS_SCF     5.0000000000000004E-06
         MAX_SCF  4
       &END OUTER_SCF
       &PRINT
         &RESTART  OFF
           BACKUP_COPIES  1
           &EACH
             JUST_ENERGY  0
             QS_SCF  0
             MD  20
           &END EACH
         &END RESTART
       &END PRINT
     &END SCF
     &QS
       EPS_DEFAULT     1.0000000000000000E-14
       METHOD  GPW
     &END QS
     &MGRID
       NGRIDS  5
       CUTOFF     1.2000000000000000E+03
     &END MGRID
     &XC
       DENSITY_CUTOFF     1.0000000000000000E-10
       GRADIENT_CUTOFF     1.0000000000000000E-10
       TAU_CUTOFF     1.0000000000000000E-10
       &XC_FUNCTIONAL  NO_SHORTCUT
         &PBE  T
         &END PBE
       &END XC_FUNCTIONAL
       &VDW_POTENTIAL
         POTENTIAL_TYPE  PAIR_POTENTIAL
         &PAIR_POTENTIAL
           R_CUTOFF     1.0000000000000004E+01
           TYPE  DFTD3
           PARAMETER_FILE_NAME dftd3.dat
           REFERENCE_FUNCTIONAL PBE
           EPS_CN     9.9999999999999995E-07
           CALCULATE_C9_TERM  T
           REFERENCE_C9_TERM  T
           LONG_RANGE_CORRECTION  F
           VERBOSE_OUTPUT  F
         &END PAIR_POTENTIAL
       &END VDW_POTENTIAL
     &END XC
   &END DFT
   &SUBSYS
     &CELL
       A     1.3139481224591735E+01    0.0000000000000000E+00    0.0000000000000000E+00
       B    -6.5607968913363406E+00    1.1363633553934497E+01    0.0000000000000000E+00
       C     0.0000000000000000E+00    0.0000000000000000E+00    3.2000000000000000E+01
       MULTIPLE_UNIT_CELL  1 1 1
       &CELL_REF
         A     1.2982353780853531E+01    0.0000000000000000E+00    0.0000000000000000E+00
         B    -6.4911768904267628E+00    1.1243048175136114E+01    0.0000000000000000E+00
         C     0.0000000000000000E+00    0.0000000000000000E+00    3.2000000000000000E+01
         MULTIPLE_UNIT_CELL  1 1 1
       &END CELL_REF
     &END CELL
     &COORD
N   -7.6066693537725974E-05   -6.9235224838389643E-05    8.7268456007427650E-03
Ga    1.5573146930947020E-03    1.8940401199169972E+00    6.5207871200455003E-01
N    1.5223058152204964E-03    1.8940485272598584E+00    2.5514854719242854E+00
Ga   -6.0898411531857920E-05   -5.1774510534996558E-05    3.2453786307259223E+00
N   -7.3123251682214184E-05   -9.2836906599259793E-05    5.1606789422074293E+00
Ga    1.5419246798825143E-03    1.8940480430389597E+00    5.8296790363190256E+00
N    1.4828350954389073E-03    1.8940214766230050E+00    7.7584332236615063E+00
Ga   -5.6286737150652296E-05   -3.8846331982455320E-05    8.4187765229558718E+00
N   -6.8014997083912441E-05   -2.0572209263156556E-04    1.0353052098520644E+01
Ga    1.6411139139931483E-03    1.8937569288487410E+00    1.1007956119031453E+01
N    1.6660396413764921E-03    1.8924704982295790E+00    1.2940928274570378E+01
Ga    1.9208111805487436E-03    8.2483451668979564E-05    1.3574578361539411E+01
N    2.5517402196106090E-03   -7.3701369267942050E-03    1.5408942736746797E+01
Ga   -3.4507326275778029E-03    1.9064995452040019E+00    1.6231803380707060E+01
N    1.6239807357894702E+00    9.4392633935763892E-01    1.6998515603257857E+01
N   -1.6402558422319937E+00    2.8408372862082940E+00    8.7604423077263602E-03
Ga   -1.6386679093222265E+00    4.7349744074664555E+00    6.5207710263713314E-01
N   -1.6386880524999947E+00    4.7350074879138750E+00    2.5514818847649843E+00
Ga   -1.6402670597637281E+00    2.8408548945961138E+00    3.2453875123025537E+00
N   -1.6402702286329991E+00    2.8408398663734249E+00    5.1606795841844226E+00
Ga   -1.6386554972981882E+00    4.7349320240139159E+00    5.8296985157709784E+00
N   -1.6386863764970430E+00    4.7349967516480289E+00    7.7583562524736358E+00
Ga   -1.6401861206078578E+00    2.8408990528653160E+00    8.4187913245760608E+00
N   -1.6400906638565853E+00    2.8411696060325684E+00    1.0353278747897988E+01
Ga   -1.6385767506231637E+00    4.7353680205901529E+00    1.1007521535212339E+01
N   -1.6374391333298359E+00    4.7358499905814675E+00    1.2942437149905498E+01
Ga   -1.6412689665402049E+00    2.8394274771689036E+00    1.3579346219124854E+01
N   -1.6391424013207714E+00    2.8448088184887679E+00    1.5401429305381647E+01
Ga   -1.6430335726129703E+00    4.7379478869662046E+00    1.6232949529342363E+01
N   -2.2603193741897169E-02    3.8021299822297969E+00    1.7002456194233663E+01
N   -3.2804675465359994E+00    5.6817438336870563E+00    8.7401443114715014E-03
Ga   -3.2788652611266458E+00    7.5758810209744665E+00    6.5204289618982714E-01
N   -3.2789004105259885E+00    7.5758931583484799E+00    2.5514964845480703E+00
Ga   -3.2804597314042097E+00    5.6817586857311388E+00    3.2453632958349119E+00
N   -3.2804721127254504E+00    5.6817700495271861E+00    5.1606789121877474E+00
Ga   -3.2788810207544214E+00    7.5758563512049291E+00    5.8296720004650515E+00
N   -3.2788338163573765E+00    7.5759195981729048E+00    7.7584042374645330E+00
Ga   -3.2804575547537853E+00    5.6817380055729023E+00    8.4188653220298608E+00
N   -3.2802808498252323E+00    5.6817996872559968E+00    1.0353018809809623E+01
Ga   -3.2789845239572930E+00    7.5759511363837166E+00    1.1008379982231899E+01
N   -3.2779298459229631E+00    7.5767011600648031E+00    1.2939322941768751E+01
Ga   -3.2816673164327286E+00    5.6833366694633538E+00    1.3579795745223354E+01
N   -3.2801568353038593E+00    5.6808490960786990E+00    1.5402458039709355E+01
Ga   -3.2859945954522227E+00    7.5937748650318522E+00    1.6235713268476353E+01
N   -1.6544605640584786E+00    6.6414153210022215E+00    1.7003287194055392E+01
N   -4.9206736541994154E+00    8.5226755947851753E+00    8.7487273518126255E-03
Ga   -4.9190599475000907E+00    1.0416794252564765E+01    6.5205771828987735E-01
N   -4.9190613234781484E+00    1.0416786807002351E+01    2.5514779334074387E+00
Ga   -4.9206977872432924E+00    8.5226909167097666E+00    3.2454175432793089E+00
N   -4.9207105966531879E+00    8.5226874580591900E+00    5.1607099251605772E+00
Ga   -4.9190784745252811E+00    1.0416729319505968E+01    5.8296609896025036E+00
N   -4.9190983776556028E+00    1.0416830636103983E+01    7.7583034358387133E+00
Ga   -4.9206991822071711E+00    8.5227124470222453E+00    8.4188967189749544E+00
N   -4.9206473428311472E+00    8.5228478312925215E+00    1.0352827724888281E+01
Ga   -4.9191147144480976E+00    1.0416728123469209E+01    1.1007801654712566E+01
N   -4.9200245197977308E+00    1.0416877037773881E+01    1.2941106832588515E+01
Ga   -4.9215345861244408E+00    8.5204760354299367E+00    1.3580876842831211E+01
N   -4.9215798778916859E+00    8.5162026147172547E+00    1.5397686181002731E+01
Ga   -4.9227617860448030E+00    1.0415676607603460E+01    1.6241581477248850E+01
N   -3.2927441321830830E+00    9.4801102333569389E+00    1.7006949353270567E+01
N    3.2847900213695942E+00   -8.3403260153169746E-05    8.7294687842573628E-03
Ga    3.2864409224360274E+00    1.8940300354202260E+00    6.5206656191384593E-01
N    3.2864509073024859E+00    1.8940406044889337E+00    2.5514737055786183E+00
Ga    3.2848014381556920E+00   -4.8016388894744955E-05    3.2453662861457171E+00
N    3.2847937089215238E+00   -9.9338723024682690E-05    5.1607179988556551E+00
Ga    3.2864037071108916E+00    1.8939939793652505E+00    5.8296878176862474E+00
N    3.2864581215098210E+00    1.8940336169773497E+00    7.7583191039840953E+00
Ga    3.2847504638900951E+00   -4.0749381904649986E-05    8.4188479791424200E+00
N    3.2847908310610605E+00   -2.8942128357306520E-04    1.0352853246344887E+01
Ga    3.2867160277589842E+00    1.8941740497765474E+00    1.1008676138913200E+01
N    3.2874120285800603E+00    1.8942581459975654E+00    1.2937962295939522E+01
Ga    3.2840427272709336E+00    2.3523551193269008E-03    1.3578073345847178E+01
N    3.2791582238418666E+00    1.4344179005600531E-03    1.5400428835240065E+01
Ga    3.2811381943753619E+00    1.9077937679099151E+00    1.6235860740139696E+01
N    4.9127077151848288E+00    9.5499849611190457E-01    1.6997121201025756E+01
N    1.6446037051405471E+00    2.8408291504987808E+00    8.7629143578538821E-03
Ga    1.6462264181471096E+00    4.7349624121496445E+00    6.5206775604215328E-01
N    1.6462242605371302E+00    4.7349892226635388E+00    2.5514660554902151E+00
Ga    1.6446291807402182E+00    2.8408415445452770E+00    3.2453746418877527E+00
N    1.6446169834894722E+00    2.8408231817171896E+00    5.1607006602320888E+00
Ga    1.6462106042890257E+00    4.7349316269318411E+00    5.8297078439369789E+00
N    1.6462183456020156E+00    4.7350219704600667E+00    7.7583239711219942E+00
Ga    1.6445893281724291E+00    2.8408084227553090E+00    8.4189655765124609E+00
N    1.6444575064321367E+00    2.8407476430814200E+00    1.0352867739287698E+01
Ga    1.6462306560323232E+00    4.7346586093615270E+00    1.1008607841818353E+01
N    1.6454642125037646E+00    4.7346387258264366E+00    1.2938590667587183E+01
Ga    1.6470933263372602E+00    2.8412281788471017E+00    1.3579662625066110E+01
N    1.6462258732581110E+00    2.8379352994151117E+00    1.5395882710610262E+01
Ga    1.6423743971398383E+00    4.7390013620886853E+00    1.6236562031860913E+01
N    3.2662099482775373E+00    3.8008522576708130E+00    1.7000205584135131E+01
N    4.3999853965335598E-03    5.6817269440297915E+00    8.7548021316023270E-03
Ga    6.0351945978143274E-03    7.5758690938503168E+00    6.5203791803422817E-01
N    6.0126342410451155E-03    7.5759024585373114E+00    2.5514870921132284E+00
Ga    4.4202879993362797E-03    5.6817600467578462E+00    3.2453682101442940E+00
N    4.3872247917374754E-03    5.6817458282569140E+00    5.1607090178921311E+00
Ga    6.0417667115854716E-03    7.5758379169544590E+00    5.8296109689808677E+00
N    6.0447555126847069E-03    7.5759577669325191E+00    7.7585185692994596E+00
Ga    4.3968219971225993E-03    5.6816960351126342E+00    8.4188490231609521E+00
N    4.3127907775261020E-03    5.6818745283518588E+00    1.0352855739283820E+01
Ga    6.1557127797644074E-03    7.5753846524957424E+00    1.1007649583673809E+01
N    6.4360602299263032E-03    7.5754455850711793E+00    1.2941248800275931E+01
Ga    8.1060560387116055E-03    5.6805813121247919E+00    1.3577014875459852E+01
N    6.6805595429227250E-03    5.6802867466752058E+00    1.5400756946559124E+01
Ga   -8.9939317686683730E-05    7.5792770697284366E+00    1.6234965104010325E+01
N    1.6223158974730496E+00    6.6264794082533287E+00    1.7002809757399817E+01
N   -1.6357948705659184E+00    8.5226499642720110E+00    8.7909229104930122E-03
Ga   -1.6341819165619931E+00    1.0416793159399754E+01    6.5203482931238677E-01
N   -1.6341804587251698E+00    1.0416814265448696E+01    2.5514929237444974E+00
Ga   -1.6357819724161062E+00    8.5226718956932981E+00    3.2453487130237146E+00
N   -1.6358095220306588E+00    8.5226568978021948E+00    5.1607273233580671E+00
Ga   -1.6342207358090504E+00    1.0416793624919727E+01    5.8296275702897109E+00
N   -1.6341488219046651E+00    1.0416806932124834E+01    7.7584388642286326E+00
Ga   -1.6357953817494029E+00    8.5226917021800936E+00    8.4187117146345098E+00
N   -1.6356087107950588E+00    8.5228208511496675E+00    1.0353342141065506E+01
Ga   -1.6344549349506672E+00    1.0416973816755590E+01    1.1007615241878840E+01
N   -1.6343217946807236E+00    1.0416277951917778E+01    1.2941383442977161E+01
Ga   -1.6339731681721610E+00    8.5217639070612901E+00    1.3577769563201024E+01
N   -1.6293084656838517E+00    8.5193488243942888E+00    1.5402431044760167E+01
Ga   -1.6482749626317195E+00    1.0426452227865457E+01    1.6236721001468240E+01
N   -1.1963705584856713E-02    9.4534950960891919E+00    1.7001927781081445E+01
N    6.5696840696589138E+00   -8.0488459182633329E-05    8.7555596789122645E-03
Ga    6.5713113942721355E+00    1.8940432011805888E+00    6.5204393220887236E-01
N    6.5712874066135356E+00    1.8940605413143445E+00    2.5514941747319710E+00
Ga    6.5696883815366691E+00   -6.0468730081090111E-05    3.2453598675737210E+00
N    6.5696753090464339E+00   -9.4351607452347407E-05    5.1606942632056487E+00
Ga    6.5713035581451500E+00    1.8940575338221066E+00    5.8296738766444092E+00
N    6.5712514983894232E+00    1.8939484748806770E+00    7.7583746715860142E+00
Ga    6.5697024904349846E+00   -6.1784102410866452E-05    8.4186786842389569E+00
N    6.5696898834150650E+00   -3.3814979369408928E-04    1.0353389996683955E+01
Ga    6.5714964473664663E+00    1.8944859887993937E+00    1.1008325050668800E+01
N    6.5715592706988444E+00    1.8943076604775051E+00    1.2938827244461246E+01
Ga    6.5703003222228098E+00    2.0714237266597655E-03    1.3578828918287556E+01
N    6.5702274380373931E+00   -4.3358609621170765E-03    1.5404927958592310E+01
Ga    6.5678648566454827E+00    1.9015775551703762E+00    1.6230370213413824E+01
N    8.1924338767848131E+00    9.5579320865663864E-01    1.7003095216711777E+01
N    4.9294850483786474E+00    2.8408330021619954E+00    8.7623134029854687E-03
Ga    4.9310986898696259E+00    4.7349671943802232E+00    6.5204952372858549E-01
N    4.9310860792235971E+00    4.7349838601274907E+00    2.5515076481869183E+00
Ga    4.9294770785580910E+00    2.8408272132262233E+00    3.2453725189331428E+00
N    4.9295013019763276E+00    2.8408237688396594E+00    5.1606819684906631E+00
Ga    4.9310850775050303E+00    4.7349662303415796E+00    5.8297194504137142E+00
N    4.9310421690796185E+00    4.7350006932119211E+00    7.7583301267075360E+00
Ga    4.9294969459608549E+00    2.8409564787251989E+00    8.4188894681472366E+00
N    4.9295528546449150E+00    2.8409971640166205E+00    1.0352890700098760E+01
Ga    4.9312033134520643E+00    4.7352630730620131E+00    1.1008086671866602E+01
N    4.9303016314226742E+00    4.7357155118974799E+00    1.2940613210397544E+01
Ga    4.9317141682130767E+00    2.8398357369743232E+00    1.3577382071209762E+01
N    4.9346439556832582E+00    2.8364182098165034E+00    1.5402630963467011E+01
Ga    4.9222336913521989E+00    4.7451188653525103E+00    1.6241917916370461E+01
N    6.5407664464485702E+00    3.8093330707436048E+00    1.6996115118577393E+01
N    3.2892682439984000E+00    5.6817472275426297E+00    8.7575734029994648E-03
Ga    3.2909095261089862E+00    7.5758782982743291E+00    6.5204339072786288E-01
N    3.2908993262782573E+00    7.5758956819823249E+00    2.5514743568863980E+00
Ga    3.2892591429622184E+00    5.6817692996931140E+00    3.2453791936461829E+00
N    3.2892770716048760E+00    5.6817596379553388E+00    5.1606839444565571E+00
Ga    3.2909049391320848E+00    7.5758468143318094E+00    5.8296658980110436E+00
N    3.2908245014895772E+00    7.5759472002940234E+00    7.7583701271871881E+00
Ga    3.2893003182010738E+00    5.6817346818397043E+00    8.4188441041759745E+00
N    3.2892006765925150E+00    5.6820261442853175E+00    1.0352924046504560E+01
Ga    3.2911293386962868E+00    7.5755866173986295E+00    1.1007504911511679E+01
N    3.2905505919084086E+00    7.5763671567516910E+00    1.2941576724588671E+01
Ga    3.2879631172702610E+00    5.6794663630507554E+00    1.3578231223489910E+01
N    3.2860616155361804E+00    5.6768036505159234E+00    1.5397923120564101E+01
Ga    3.2947439107947818E+00    7.5869054123856641E+00    1.6238615885616525E+01
N    4.9107220643182004E+00    6.6478994517483558E+00    1.7007838326807299E+01
N    1.6490874354690426E+00    8.5226627425864692E+00    8.7744491987197422E-03
Ga    1.6506943470294135E+00    1.0416795867199117E+01    6.5204371665384653E-01
N    1.6506539254194172E+00    1.0416804163160963E+01    2.5514904717094624E+00
Ga    1.6490854323716200E+00    8.5226625628233581E+00    3.2453711512311711E+00
N    1.6490806740738648E+00    8.5226782271183357E+00    5.1607176556322463E+00
Ga    1.6507101471717567E+00    1.0416781476730602E+01    5.8296314296090692E+00
N    1.6506355816571125E+00    1.0416795141420179E+01    7.7584623872282217E+00
Ga    1.6491243661636077E+00    8.5226960498776840E+00    8.4186185564345362E+00
N    1.6491676173302838E+00    8.5227635981442624E+00    1.0353477037016070E+01
Ga    1.6510073307897284E+00    1.0417136283257337E+01    1.1007473233884392E+01
N    1.6512220131180184E+00    1.0416235488792401E+01    1.2941687878913809E+01
Ga    1.6491765400321945E+00    8.5224869375087273E+00    1.3577662624124045E+01
N    1.6480916240021439E+00    8.5261357747627340E+00    1.5406582810418454E+01
Ga    1.6548876456151047E+00    1.0425747485026758E+01    1.6229971207968369E+01
N    3.2636927680106567E+00    9.4800281293536877E+00    1.7008520607216596E+01
N    9.8545683041112913E+00   -8.4464095820554422E-05    8.7449914140503206E-03
Ga    9.8561954403246439E+00    1.8940301341145338E+00    6.5207225501052646E-01
N    9.8561614102120618E+00    1.8940357386337243E+00    2.5514725951849582E+00
Ga    9.8545723271507182E+00   -5.3024953259209984E-05    3.2453695657949782E+00
N    9.8545421007680947E+00   -1.0764527844265953E-04    5.1607068855633544E+00
Ga    9.8562272426390916E+00    1.8940324463216156E+00    5.8296879975373646E+00
N    9.8562385417055420E+00    1.8940213307932328E+00    7.7583592505025933E+00
Ga    9.8546310799234806E+00   -5.5687660824514396E-05    8.4188290563938377E+00
N    9.8545446788028919E+00   -3.6479868519071488E-04    1.0352973188337554E+01
Ga    9.8561646503535414E+00    1.8941122283537557E+00    1.1008743806236144E+01
N    9.8564794313548347E+00    1.8939265820183684E+00    1.2938233470763549E+01
Ga    9.8565604026290394E+00    1.8868510308773557E-03    1.3579604789905563E+01
N    9.8555850857958749E+00    5.6792772367573168E-03    1.5396449428221349E+01
Ga    9.8521074157681916E+00    1.8989862811576217E+00    1.6234494174727850E+01
N    1.1475124476514859E+01    9.5003389441889041E-01    1.7000363328765353E+01
N    8.2143848013334271E+00    2.8408237645209651E+00    8.7758683331593448E-03
Ga    8.2159847369178554E+00    4.7349619308279376E+00    6.5205861722909886E-01
N    8.2159444633064638E+00    4.7349746062250038E+00    2.5514866168195236E+00
Ga    8.2144083721830032E+00    2.8408319747606563E+00    3.2453588234069612E+00
N    8.2143501288159904E+00    2.8408155316180697E+00    5.1607076812747845E+00
Ga    8.2159742401878582E+00    4.7349485409031615E+00    5.8297266262137546E+00
N    8.2160058334702111E+00    4.7350243641084866E+00    7.7582693812412558E+00
Ga    8.2143940281964678E+00    2.8408636796367626E+00    8.4190419570080373E+00
N    8.2143808003363041E+00    2.8406449908354428E+00    1.0352453498507776E+01
Ga    8.2158837459133807E+00    4.7345787613571613E+00    1.1008721124353427E+01
N    8.2168714162224283E+00    4.7338825692989186E+00    1.2938060315987084E+01
Ga    8.2166354496983587E+00    2.8400859086483119E+00    1.3578196837950273E+01
N    8.2197980514867677E+00    2.8357039065615952E+00    1.5398285163450183E+01
Ga    8.2180322394938941E+00    4.7398659582234233E+00    1.6232036384132957E+01
N    9.8305673264951707E+00    3.7902167065716887E+00    1.7002906538292603E+01
N    6.5741632634183054E+00    5.6817384145887386E+00    8.7586493300899800E-03
Ga    6.5757885713451962E+00    7.5758652104340420E+00    6.5207263139054472E-01
N    6.5757759556874653E+00    7.5758759694992897E+00    2.5514717890132679E+00
Ga    6.5741782000210964E+00    5.6817838500375757E+00    3.2453618443674923E+00
N    6.5741589222737522E+00    5.6817426562531379E+00    5.1606774320464623E+00
Ga    6.5758446327899351E+00    7.5759092634658876E+00    5.8296703666221736E+00
N    6.5757373348356616E+00    7.5759233527679912E+00    7.7582949887496451E+00
Ga    6.5741479300782526E+00    5.6817123688441873E+00    8.4189644015424676E+00
N    6.5741410343332412E+00    5.6817340892849586E+00    1.0352623271117423E+01
Ga    6.5760209038893596E+00    7.5753901454881936E+00    1.1008677867403085E+01
N    6.5754195890194405E+00    7.5748548499768269E+00    1.2938307409844178E+01
Ga    6.5781172704271667E+00    5.6775863593296458E+00    1.3577770159824265E+01
N    6.5764956720898011E+00    5.6737316063618159E+00    1.5401012206632380E+01
Ga    6.5680104415359164E+00    7.5770055309590241E+00    1.6234220178243170E+01
N    8.1950689139523121E+00    6.6400743149387678E+00    1.6998610402220955E+01
N    4.9339593204876229E+00    8.5226594624324008E+00    8.7710327195327648E-03
Ga    4.9355854053689132E+00    1.0416781909925698E+01    6.5206822680005427E-01
N    4.9355505445897556E+00    1.0416786444218550E+01    2.5514828400123570E+00
Ga    4.9339707223910843E+00    8.5226750385249233E+00    3.2453735848058698E+00
N    4.9339571329452259E+00    8.5226360022477294E+00    5.1607065302948261E+00
Ga    4.9355866672433262E+00    1.0416783678570424E+01    5.8296737001522878E+00
N    4.9355661751037765E+00    1.0416791277831692E+01    7.7583768015408907E+00
Ga    4.9339860860586109E+00    8.5226828398841885E+00    8.4187919329000334E+00
N    4.9337060311823224E+00    8.5227881407840123E+00    1.0353116388109353E+01
Ga    4.9358985074989654E+00    1.0416883369589273E+01    1.1007749685749056E+01
N    4.9367182119012902E+00    1.0416511010528891E+01    1.2941435891187856E+01
Ga    4.9382567257082979E+00    8.5214719092044788E+00    1.3579301182737490E+01
N    4.9393835733038154E+00    8.5200691089990261E+00    1.5397694273607291E+01
Ga    4.9271173568314914E+00    1.0422274706545760E+01    1.6238936831904393E+01
N    6.5401994358757554E+00    9.4864749731805329E+00    1.7020748754833214E+01
H   -5.2510809585876352E-06   -6.9593051195217436E-06   -1.0287198996536797E+00
H   -1.6402090331073929E+00    2.8409135181680982E+00   -1.0287510101079611E+00
H   -3.2804172412909374E+00    5.6818345267357637E+00   -1.0287265346517327E+00
H   -4.9206175299362522E+00    8.5227485043017435E+00   -1.0287165315263871E+00
H    3.2848794465980959E+00   -1.0649155343706993E-05   -1.0287004882877049E+00
H    1.6446732617629656E+00    2.8409089008848585E+00   -1.0287395249605924E+00
H    4.4648136312847187E-03    5.6818347051094236E+00   -1.0287318963470098E+00
H   -1.6357406202053042E+00    8.5227516752797836E+00   -1.0287184172788999E+00
H    6.5697563853247338E+00   -5.2520663712698022E-06   -1.0287124508251424E+00
H    4.9295592929159522E+00    2.8409162168209510E+00   -1.0287219957599461E+00
H    3.2893553637227120E+00    5.6818305034064354E+00   -1.0287319850058707E+00
H    1.6491411772130606E+00    8.5227524393523630E+00   -1.0287222841859345E+00
H    9.8546361310813975E+00   -9.4721271329710988E-06   -1.0287151362126832E+00
H    8.2144291140416854E+00    2.8409113521043134E+00   -1.0287419466035870E+00
H    6.5742264863347302E+00    5.6818290499338850E+00   -1.0287191893558794E+00
H    4.9340274349737960E+00    8.5227467222668611E+00   -1.0287273411335247E+00
     &END COORD
     &KIND H
       BASIS_SET DZVP-MOLOPT-SR-GTH-q1
       POTENTIAL GTH-PBE-q1
       &POTENTIAL
 1
  0.2000000000000000E+00 2 -0.4178900440000000E+01  0.7244633100000000E+00
 0
         # Potential name:  GTH-PBE-Q1  for symbol:  H
         # Potential read from the potential filename: GTH_POTENTIALS
       &END POTENTIAL
     &END KIND
     &KIND N
       BASIS_SET DZVP-MOLOPT-SR-GTH
       POTENTIAL GTH-PBE-q5
       &POTENTIAL
 2 3
  0.2837905100000000E+00 2 -0.1241522559000000E+02  0.1868095920000000E+01
 2
  0.2554050000000000E+00 1  0.1363026257000000E+02
  0.2454945300000000E+00 0
         # Potential name:  GTH-PBE-Q5  for symbol:  N
         # Potential read from the potential filename: GTH_POTENTIALS
       &END POTENTIAL
     &END KIND
     &KIND Ga
       BASIS_SET DZVP-MOLOPT-SR-GTH
       POTENTIAL GTH-PBE-q13
       &POTENTIAL
 2 1 10
  0.4900000000000000E+00 0
 3
  0.4167772300000000E+00 3  0.1047568975000000E+02 -0.4921768140000000E+01  0.8707055900000000E+00
  0.7770178090000000E+01 -0.2248152160000000E+01
  0.1784415450000000E+01
  0.5696265200000000E+00 2  0.1777985340000000E+01  0.1958597600000000E+00
 -0.2317443900000000E+00
  0.2381265000000000E+00 1 -0.1624868022000000E+02
         # Potential name:  GTH-PBE-Q13  for symbol:  GA
         # Potential read from the potential filename: GTH_POTENTIALS
       &END POTENTIAL
     &END KIND
     &TOPOLOGY
       NUMBER_OF_ATOMS  256
       MULTIPLE_UNIT_CELL  1 1 1
     &END TOPOLOGY
   &END SUBSYS
 &END FORCE_EVAL
