 # Version information for this restart file 
 # current date 2019-06-09 04:20:46.481
 # current working dir /lustre03/project/6037349/rzk/GaN-carbene/444-addat/00-Surface/UKS_SYMM
 # Program compiled at                              Sun Apr  7 00:48:11 EDT 2019
 # Program compiled on                          beluga2.int.ets1.calculquebec.ca
 # Program compiled for                        Beluga-Linux-x86-64-intel-openmpi
 # Source code revision number                                         svn:18619
 &GLOBAL
   PRINT_LEVEL  MEDIUM
   PROJECT_NAME TEST
   RUN_TYPE  CELL_OPT
 &END GLOBAL
 &MOTION
   &CELL_OPT
     MAX_ITER  300
     STEP_START_VAL  11
     EXTERNAL_PRESSURE     1.0000000000000000E+00
     KEEP_ANGLES  T
     KEEP_SYMMETRY  T
     CONSTRAINT  Z
     PRESSURE_TOLERANCE     5.0000000000000000E+02
   &END CELL_OPT
 &END MOTION
 &FORCE_EVAL
   METHOD  QS
   STRESS_TENSOR  ANALYTICAL
   &DFT
     BASIS_SET_FILE_NAME BASIS_MOLOPT
     POTENTIAL_FILE_NAME GTH_POTENTIALS
     UKS  T
     SURFACE_DIPOLE_CORRECTION  T
     SURF_DIP_DIR  Z
     &SCF
       MAX_SCF  100
       EPS_SCF     5.0000000000000004E-06
       &OT  T
         PRECONDITIONER  FULL_ALL
       &END OT
       &OUTER_SCF  T
         OPTIMIZER  NONE
         EPS_SCF     5.0000000000000004E-06
         MAX_SCF  4
       &END OUTER_SCF
       &PRINT
         &RESTART  OFF
           BACKUP_COPIES  1
           &EACH
             JUST_ENERGY  0
             QS_SCF  0
             MD  20
           &END EACH
         &END RESTART
       &END PRINT
     &END SCF
     &QS
       EPS_DEFAULT     1.0000000000000000E-14
       METHOD  GPW
     &END QS
     &MGRID
       NGRIDS  5
       CUTOFF     1.2000000000000000E+03
     &END MGRID
     &XC
       DENSITY_CUTOFF     1.0000000000000000E-10
       GRADIENT_CUTOFF     1.0000000000000000E-10
       TAU_CUTOFF     1.0000000000000000E-10
       &XC_FUNCTIONAL  NO_SHORTCUT
         &PBE  T
         &END PBE
       &END XC_FUNCTIONAL
       &VDW_POTENTIAL
         POTENTIAL_TYPE  PAIR_POTENTIAL
         &PAIR_POTENTIAL
           R_CUTOFF     1.0000000000000004E+01
           TYPE  DFTD3
           PARAMETER_FILE_NAME dftd3.dat
           REFERENCE_FUNCTIONAL PBE
           EPS_CN     9.9999999999999995E-07
           CALCULATE_C9_TERM  T
           REFERENCE_C9_TERM  T
           LONG_RANGE_CORRECTION  F
           VERBOSE_OUTPUT  F
         &END PAIR_POTENTIAL
       &END VDW_POTENTIAL
     &END XC
   &END DFT
   &SUBSYS
     &CELL
       A     1.2889251803177759E+01    0.0000000000000000E+00    0.0000000000000000E+00
       B    -6.4354551462334628E+00    1.1146535283106974E+01    0.0000000000000000E+00
       C     0.0000000000000000E+00    0.0000000000000000E+00    3.2000000000000000E+01
       MULTIPLE_UNIT_CELL  1 1 1
       &CELL_REF
         A     1.2982353780853531E+01    0.0000000000000000E+00    0.0000000000000000E+00
         B    -6.4911768904267628E+00    1.1243048175136114E+01    0.0000000000000000E+00
         C     0.0000000000000000E+00    0.0000000000000000E+00    3.2000000000000000E+01
         MULTIPLE_UNIT_CELL  1 1 1
       &END CELL_REF
     &END CELL
     &COORD
N    1.2336970957650353E-04    4.5003032405690574E-05   -4.3773533685890820E-02
Ga    1.6030679189679999E-03    1.8576857427293019E+00    6.2737078458688178E-01
N    1.4918756681003285E-03    1.8577868192040310E+00    2.5299230995425548E+00
Ga    9.9231890435735100E-05    2.2405954904957060E-04    3.2436834626857487E+00
N    8.6055608228409873E-05    8.8659560873224783E-05    5.1494598431858440E+00
Ga    1.4015884592120380E-03    1.8574660918033881E+00    5.8322370756749375E+00
N    1.2196769458030614E-03    1.8575271738727477E+00    7.7285172551000185E+00
Ga   -7.2796767140306532E-05    6.2076622299630721E-04    8.3835580894099841E+00
N   -7.5954465938260629E-05    1.1506659407108785E-03    1.0266184699628408E+01
Ga    1.7433466801400354E-03    1.8576671426369105E+00    1.0927224375205945E+01
N    1.6972949839964134E-03    1.8577210376482398E+00    1.2837835323323112E+01
Ga    8.1982308371725558E-04   -2.3627563431168671E-03    1.3514587789147512E+01
N   -1.1565514690586507E-02   -3.4725483934584388E-03    1.5422458345370989E+01
Ga    2.3687958469342362E-03    1.8521490836220860E+00    1.6421531344931903E+01
N    1.6068725292792614E+00    9.2106105955428785E-01    1.7357310675745147E+01
N   -1.6087447394326289E+00    2.7866803906622830E+00   -4.3751134012384417E-02
Ga   -1.6072767965726715E+00    4.6443037076336537E+00    6.2747000627737903E-01
N   -1.6073785820956699E+00    4.6443432736367996E+00    2.5299415651508275E+00
Ga   -1.6087663970059312E+00    2.7869008020854005E+00    3.2437063985559624E+00
N   -1.6087095057032375E+00    2.7867621850539854E+00    5.1494451394779466E+00
Ga   -1.6074528391707277E+00    4.6441945471702164E+00    5.8325189579497732E+00
N   -1.6073582559198554E+00    4.6446033726493514E+00    7.7290027767857898E+00
Ga   -1.6076409689556626E+00    2.7874726497973654E+00    8.3835829964440194E+00
N   -1.6060039910368340E+00    2.7886508268132735E+00    1.0266511062403607E+01
Ga   -1.6078747206724477E+00    4.6448082213674109E+00    1.0926372743431360E+01
N   -1.6077171496504512E+00    4.6464934947496230E+00    1.2838689954672340E+01
Ga   -1.6095378993744169E+00    2.7872124326533552E+00    1.3522244980918479E+01
N   -1.6072512089755471E+00    2.8101351404695554E+00    1.5436315431464701E+01
Ga   -1.5928504250970712E+00    4.6555072163490543E+00    1.6367973093165677E+01
N   -2.3202116680661404E-02    3.7342717776173640E+00    1.7375803865333484E+01
N   -3.2176066366927505E+00    5.5733379023865437E+00   -4.3747350704178366E-02
Ga   -3.2161181853044876E+00    7.4309202287327230E+00    6.2743143983813621E-01
N   -3.2161451116422906E+00    7.4309111538885642E+00    2.5298775885809168E+00
Ga   -3.2176155002259574E+00    5.5735303757414050E+00    3.2437524234794282E+00
N   -3.2174478733533278E+00    5.5733899576671977E+00    5.1494479768792267E+00
Ga   -3.2161237635019218E+00    7.4308623696501286E+00    5.8327732943638608E+00
N   -3.2155476772650466E+00    7.4311722298429670E+00    7.7295870226746084E+00
Ga   -3.2172029658522359E+00    5.5739367911425441E+00    8.3845527385896688E+00
N   -3.2158160981708428E+00    5.5744500456096153E+00    1.0267713830191340E+01
Ga   -3.2152587635426366E+00    7.4312570623014738E+00    1.0929880799855269E+01
N   -3.2107623344731353E+00    7.4332482686223855E+00    1.2840344274904648E+01
Ga   -3.2145558415398190E+00    5.5796250040878679E+00    1.3525566096619038E+01
N   -3.2201958564204949E+00    5.5665276608560346E+00    1.5447364157825216E+01
Ga   -3.2275710204068564E+00    7.4550166479947135E+00    1.6415399633737426E+01
N   -1.6302097013354777E+00    6.5051692736375788E+00    1.7365318290139097E+01
N   -4.8264624987342843E+00    8.3599814482962955E+00   -4.3728290896100176E-02
Ga   -4.8249896043230054E+00    1.0217578914860136E+01    6.2745850983722895E-01
N   -4.8250538080540970E+00    1.0217652560588906E+01    2.5298883595724839E+00
Ga   -4.8264569869882692E+00    8.3600983558848476E+00    3.2438848853213247E+00
N   -4.8263935382251431E+00    8.3599534621861391E+00    5.1495841677941128E+00
Ga   -4.8250759043321354E+00    1.0217341685800870E+01    5.8324296512908758E+00
N   -4.8251709582066757E+00    1.0217795828352640E+01    7.7293870878813911E+00
Ga   -4.8259544734513096E+00    8.3598968953008708E+00    8.3840569628978567E+00
N   -4.8249167335200012E+00    8.3593921163357852E+00    1.0266375285887854E+01
Ga   -4.8253459692160510E+00    1.0217259146514008E+01    1.0922398244235003E+01
N   -4.8264437445073511E+00    1.0218588317006207E+01    1.2829659735344595E+01
Ga   -4.8272991382974055E+00    8.3624121901619208E+00    1.3520504701296446E+01
N   -4.8274033589377741E+00    8.3728183379080132E+00    1.5427060071178497E+01
Ga   -4.8290086084349140E+00    1.0225831553251453E+01    1.6407877014138158E+01
N   -3.2176996623250274E+00    9.2865247995627573E+00    1.7360213767050297E+01
N    3.2224305646694305E+00    4.2758309503387816E-05   -4.3736914046549100E-02
Ga    3.2239091546839265E+00    1.8576649477220151E+00    6.2747978547622496E-01
N    3.2237724160734458E+00    1.8576973853031076E+00    2.5299080192617884E+00
Ga    3.2224708522918815E+00    2.3663081168661664E-04    3.2437609996783801E+00
N    3.2224947202410883E+00    3.0840706421975173E-05    5.1496096342684865E+00
Ga    3.2238609191838705E+00    1.8574367465854338E+00    5.8327278790595729E+00
N    3.2238352123936438E+00    1.8574187905565820E+00    7.7290330632997550E+00
Ga    3.2229423664072607E+00   -4.9411345567115523E-04    8.3839930202191493E+00
N    3.2236466046378309E+00   -1.2611862590322608E-03    1.0266221128925226E+01
Ga    3.2240518233785265E+00    1.8579351163696345E+00    1.0924028167649363E+01
N    3.2246070817124681E+00    1.8578405337202852E+00    1.2828685207182176E+01
Ga    3.2191474980035992E+00    4.0876261680617811E-03    1.3514451573484180E+01
N    3.2049643760503579E+00   -1.1643463298259899E-02    1.5418079770200011E+01
Ga    3.2253628272290120E+00    1.8701186654144921E+00    1.6426278823784294E+01
N    4.8072300698090320E+00    9.1313352906379475E-01    1.7344070728701730E+01
N    1.6135756120264326E+00    2.7866687544098463E+00   -4.3739639338761974E-02
Ga    1.6150465394828231E+00    4.6442921792052552E+00    6.2744430949539642E-01
N    1.6149065046702287E+00    4.6443151498891240E+00    2.5299427930266964E+00
Ga    1.6136402055822829E+00    2.7868777069493178E+00    3.2437103235011731E+00
N    1.6135346338719958E+00    2.7866336645404939E+00    5.1494789419862323E+00
Ga    1.6150542534203585E+00    4.6442543568074974E+00    5.8328181196546103E+00
N    1.6147033807607096E+00    4.6445348438628917E+00    7.7294230051170212E+00
Ga    1.6128778408485946E+00    2.7863531199589175E+00    8.3829351463677835E+00
N    1.6122122787042452E+00    2.7850970021032904E+00    1.0264870446111935E+01
Ga    1.6164300903502917E+00    4.6432966566718301E+00    1.0924857277303154E+01
N    1.6165240765598947E+00    4.6429893168346448E+00    1.2828811037211562E+01
Ga    1.6174225686407253E+00    2.7875408803879442E+00    1.3520638084407087E+01
N    1.5983936285101803E+00    2.7957487735135058E+00    1.5432967898923375E+01
Ga    1.6052999005234034E+00    4.6418069719156216E+00    1.6392074930834028E+01
N    3.2063358704183789E+00    3.7236632781406866E+00    1.7361956416417371E+01
N    4.7028066315316884E-03    5.5733153936631936E+00   -4.3732741852592523E-02
Ga    6.1719141828154396E-03    7.4309476411795181E+00    6.2746175508854496E-01
N    6.0501821639096275E-03    7.4309378781278674E+00    2.5299463680319989E+00
Ga    4.7274614396814844E-03    5.5735378376267004E+00    3.2437631737479951E+00
N    4.6259129821761245E-03    5.5733660059263670E+00    5.1496469558565563E+00
Ga    6.1826869773369160E-03    7.4309937506199732E+00    5.8329216053793962E+00
N    6.2042932645030883E-03    7.4313695308370766E+00    7.7300672017948537E+00
Ga    4.2464739425858832E-03    5.5735579652827223E+00    8.3845774510634747E+00
N    3.3612635712050765E-03    5.5738314329893903E+00    1.0267091338505208E+01
Ga    7.9863756080873396E-03    7.4324847925533923E+00    1.0925011521929710E+01
N    9.6009157144579822E-03    7.4345462536574471E+00    1.2834343250029791E+01
Ga    1.1482493817668140E-02    5.5746310090653415E+00    1.3513247969159123E+01
N    2.4888836068959509E-03    5.5683921063888207E+00    1.5409187529764177E+01
Ga    8.2750796687771425E-03    7.4025211782914537E+00    1.6381224280126698E+01
N    1.6134355975978958E+00    6.4970324285642365E+00    1.7365758526323436E+01
N   -1.6041823726805868E+00    8.3599781858087798E+00   -4.3760204668906531E-02
Ga   -1.6026756904384878E+00    1.0217569716725665E+01    6.2744575361753185E-01
N   -1.6028170701244222E+00    1.0217592226603706E+01    2.5298943845913606E+00
Ga   -1.6041447150559822E+00    8.3601893736814610E+00    3.2437552254251396E+00
N   -1.6041038971127470E+00    8.3599528974033515E+00    5.1496076054726849E+00
Ga   -1.6026297160982148E+00    1.0217417005765970E+01    5.8327583048042246E+00
N   -1.6023480134948429E+00    1.0217490351386497E+01    7.7295320883161986E+00
Ga   -1.6042395331102419E+00    8.3606539664093056E+00    8.3851939248254208E+00
N   -1.6037445710618778E+00    8.3612999761656113E+00    1.0268949138994451E+01
Ga   -1.6018007943603167E+00    1.0218749493204871E+01    1.0928415772023548E+01
N   -1.5985565674671329E+00    1.0223090996980309E+01    1.2838186016726459E+01
Ga   -1.5960970820183249E+00    8.3668621063247031E+00    1.3521166650664666E+01
N   -1.6095551463628008E+00    8.3713070949561779E+00    1.5434320832464508E+01
Ga   -1.6274990786356032E+00    1.0239276311686277E+01    1.6403396008119341E+01
N   -2.8099574012589064E-02    9.2163450970305103E+00    1.7367356131608066E+01
N    6.4447304247263864E+00    1.3507230680767600E-05   -4.3766415551123046E-02
Ga    6.4462440735046762E+00    1.8576702767514897E+00    6.2756395979521462E-01
N    6.4461368732624740E+00    1.8577078187422187E+00    2.5298903500559575E+00
Ga    6.4448176711748149E+00    2.1133554799256376E-04    3.2437404415685900E+00
N    6.4447088552492255E+00   -1.0808787073961081E-04    5.1494893517353573E+00
Ga    6.4462041042356111E+00    1.8572880720035057E+00    5.8325987674471129E+00
N    6.4463009519869159E+00    1.8570004910806164E+00    7.7288907007934835E+00
Ga    6.4448999811453112E+00   -2.2235889498558361E-04    8.3852484332609194E+00
N    6.4452864719593341E+00   -6.8163713210549605E-04    1.0268322439096524E+01
Ga    6.4477804935275937E+00    1.8569583967420742E+00    1.0927759947899258E+01
N    6.4511625161235342E+00    1.8587253862176107E+00    1.2838076589878302E+01
Ga    6.4473735922828341E+00    6.4969274648777409E-03    1.3530135337443555E+01
N    6.4476169004712993E+00   -1.5712484200559276E-02    1.5443639067764474E+01
Ga    6.4284708681599581E+00    1.8819568164157428E+00    1.6412792170072368E+01
N    8.0368724652754420E+00    9.3310556881407458E-01    1.7357430391896361E+01
N    4.8358571503046308E+00    2.7866656902881624E+00   -4.3739027128625478E-02
Ga    4.8373749963761297E+00    4.6443059787192507E+00    6.2750803111694964E-01
N    4.8372426105737061E+00    4.6443316717242888E+00    2.5298735453495982E+00
Ga    4.8359293413400630E+00    2.7868896611363740E+00    3.2437620181465827E+00
N    4.8358296013787800E+00    2.7865922085829578E+00    5.1495041520071103E+00
Ga    4.8371939891028539E+00    4.6442835175228900E+00    5.8323365242821419E+00
N    4.8370192571562800E+00    4.6445435072852392E+00    7.7287612944279891E+00
Ga    4.8365337534276920E+00    2.7868402780748922E+00    8.3832569761055300E+00
N    4.8377376974729271E+00    2.7855515086171811E+00    1.0264752207315379E+01
Ga    4.8369173750374612E+00    4.6449628135452228E+00    1.0923487603083640E+01
N    4.8371800686780047E+00    4.6462124458688123E+00    1.2824892560830946E+01
Ga    4.8360256886686850E+00    2.7918828605494270E+00    1.3516655668187950E+01
N    4.8309645258938829E+00    2.8111922057530245E+00    1.5417942995126948E+01
Ga    4.8302289360901938E+00    4.6529878614875901E+00    1.6399037607433357E+01
N    6.4382153006293095E+00    3.7252616488658732E+00    1.7355242393105275E+01
N    3.2269966019721981E+00    5.5733157324246632E+00   -4.3747131480807000E-02
Ga    3.2285029695169007E+00    7.4309397819439686E+00    6.2746054471674273E-01
N    3.2283196675035328E+00    7.4308991327621126E+00    2.5298126387911082E+00
Ga    3.2270683333977450E+00    5.5735700904473084E+00    3.2437994812706430E+00
N    3.2268634319611067E+00    5.5733401011287143E+00    5.1493677610009154E+00
Ga    3.2284033247508663E+00    7.4309138790704470E+00    5.8325633646200590E+00
N    3.2281377237304274E+00    7.4315127150382096E+00    7.7288444605108069E+00
Ga    3.2270362064064915E+00    5.5745955821617281E+00    8.3839791220921622E+00
N    3.2266126309395635E+00    5.5756332942934641E+00    1.0265437120258834E+01
Ga    3.2283655222379757E+00    7.4314480143295647E+00    1.0930236881879717E+01
N    3.2281440437761133E+00    7.4345763970950909E+00    1.2838296037668497E+01
Ga    3.2282461330191587E+00    5.5721961308784937E+00    1.3518168661399484E+01
N    3.2184530916216039E+00    5.5805757976658681E+00    1.5422837187142912E+01
Ga    3.2223918067068444E+00    7.4428087356000550E+00    1.6432307028079535E+01
N    4.8319929921572493E+00    6.5042177268641268E+00    1.7368167783416144E+01
N    1.6181427571907423E+00    8.3599742248621478E+00   -4.3775776049422337E-02
Ga    1.6196470335867226E+00    1.0217567599951261E+01    6.2752409213015536E-01
N    1.6195064172305587E+00    1.0217627231017598E+01    2.5298327050281606E+00
Ga    1.6182252027935975E+00    8.3602164525019251E+00    3.2437617417449967E+00
N    1.6180057902333200E+00    8.3599972733597863E+00    5.1495617406871110E+00
Ga    1.6195078604819453E+00    1.0217473220233263E+01    5.8327990120656725E+00
N    1.6193462068091369E+00    1.0217659142810703E+01    7.7294322084713603E+00
Ga    1.6189060556562271E+00    8.3606012140417061E+00    8.3847770821150220E+00
N    1.6194037001389705E+00    8.3618615406277197E+00    1.0267483530290750E+01
Ga    1.6192665789151146E+00    1.0218007656735917E+01    1.0929602137197957E+01
N    1.6195566991716612E+00    1.0219598359383792E+01    1.2839789696699105E+01
Ga    1.6197032404580525E+00    8.3626222886591215E+00    1.3523855832539121E+01
N    1.6198894845118987E+00    8.3831311134475843E+00    1.5440486176212469E+01
Ga    1.6432671655837696E+00    1.0237581422288645E+01    1.6368062276264023E+01
N    3.1945022519590287E+00    9.2979003033989471E+00    1.7373889724633916E+01
N    9.6670394864368561E+00    3.2698469457864907E-05   -4.3744793642288539E-02
Ga    9.6685389579059144E+00    1.8576693476782906E+00    6.2743330069217729E-01
N    9.6684985008407587E+00    1.8577352574505026E+00    2.5299469875267739E+00
Ga    9.6670573907853239E+00    1.8804450457152996E-04    3.2438329435995836E+00
N    9.6670031544287625E+00    3.1801796032357086E-05    5.1496101415377860E+00
Ga    9.6686231952685056E+00    1.8574069256921246E+00    5.8327812471071452E+00
N    9.6692116394656065E+00    1.8575724853734799E+00    7.7299545091497306E+00
Ga    9.6668739085558695E+00   -6.8631644256367849E-04    8.3846321537323778E+00
N    9.6668329264975004E+00   -1.7060042603974435E-03    1.0267214777278333E+01
Ga    9.6699866046941416E+00    1.8584554993554820E+00    1.0922956278296443E+01
N    9.6741422609677539E+00    1.8588211346735770E+00    1.2826397436046278E+01
Ga    9.6746707945165102E+00    4.1374001474276650E-03    1.3509353803858708E+01
N    9.6684227832549787E+00    4.0295615641468109E-03    1.5410480124521470E+01
Ga    9.6683856593287860E+00    1.8437906166070011E+00    1.6393224666136415E+01
N    1.1278875954343233E+01    9.3041839941822768E-01    1.7358453160394451E+01
N    8.0582031697763465E+00    2.7866645137229589E+00   -4.3754843785446342E-02
Ga    8.0596854089726726E+00    4.6443002169456262E+00    6.2746499843044545E-01
N    8.0596396690788783E+00    4.6443566399928571E+00    2.5298749888810845E+00
Ga    8.0582301014639341E+00    2.7868819988763920E+00    3.2438340254945843E+00
N    8.0582724510428516E+00    2.7866181226754900E+00    5.1495910087157650E+00
Ga    8.0597669957670295E+00    4.6442667082057199E+00    5.8325211840655964E+00
N    8.0604835875402046E+00    4.6446010432248661E+00    7.7289022519486306E+00
Ga    8.0579220851706150E+00    2.7870346854965411E+00    8.3828426991465737E+00
N    8.0580765891252835E+00    2.7871614588291709E+00    1.0265850815627921E+01
Ga    8.0617074764468679E+00    4.6444888356015399E+00    1.0927551245485510E+01
N    8.0666873528759258E+00    4.6473539138840261E+00    1.2837150845038767E+01
Ga    8.0693517953673961E+00    2.7880312520229222E+00    1.3514725664721661E+01
N    8.0518115394864278E+00    2.7991718288102292E+00    1.5431290193726246E+01
Ga    8.0320876121209466E+00    4.6572119459038763E+00    1.6391925450870446E+01
N    9.6334030054269331E+00    3.6626285787528210E+00    1.7355970984874659E+01
N    6.4493176595827668E+00    5.5733113016949494E+00   -4.3721479633127898E-02
Ga    6.4507995344173912E+00    7.4309245864093771E+00    6.2756977732505381E-01
N    6.4507414279774631E+00    7.4309393126499517E+00    2.5298245523687188E+00
Ga    6.4493575655502946E+00    5.5735607073043303E+00    3.2438539025330972E+00
N    6.4493597862404703E+00    5.5732689812923581E+00    5.1494887915075260E+00
Ga    6.4507037979705597E+00    7.4309326940717213E+00    5.8328151043523668E+00
N    6.4506890331311695E+00    7.4313213923425065E+00    7.7294264344562569E+00
Ga    6.4498312042697181E+00    5.5731430638290389E+00    8.3832002392580751E+00
N    6.4515741231172274E+00    5.5717847830798712E+00    1.0264835018467693E+01
Ga    6.4510224320463712E+00    7.4298727995438112E+00    1.0926471915430273E+01
N    6.4525401131565747E+00    7.4318302264700238E+00    1.2830633714414848E+01
Ga    6.4482473530487869E+00    5.5730070301710848E+00    1.3515013587552879E+01
N    6.4302884193400667E+00    5.5763580034140157E+00    1.5415700438325485E+01
Ga    6.4424096841226186E+00    7.4559697040095978E+00    1.6422608803305657E+01
N    8.0333518187364135E+00    6.4991757886813497E+00    1.7354032007022987E+01
N    4.8404541035615436E+00    8.3599611157977325E+00   -4.3755611688711560E-02
Ga    4.8419469936835178E+00    1.0217560902969849E+01    6.2751020203318475E-01
N    4.8418679031796357E+00    1.0217680904999391E+01    2.5298295982383241E+00
Ga    4.8404599111029913E+00    8.3601284623974301E+00    3.2437925739353846E+00
N    4.8404223339055887E+00    8.3599620309374814E+00    5.1494228079916011E+00
Ga    4.8418100490075728E+00    1.0217337131300157E+01    5.8326440996383315E+00
N    4.8420087535078640E+00    1.0217559610359320E+01    7.7293175687561542E+00
Ga    4.8398777465221245E+00    8.3598193560402336E+00    8.3850037291182904E+00
N    4.8397783032498438E+00    8.3591925930506967E+00    1.0266504593355798E+01
Ga    4.8431590019082389E+00    1.0215790878323576E+01    1.0922418964912815E+01
N    4.8452157770727364E+00    1.0213558007940073E+01    1.2831486173528155E+01
Ga    4.8450400828849602E+00    8.3575466098740421E+00    1.3524131946542450E+01
N    4.8252343613821562E+00    8.3718536581124035E+00    1.5434271180666586E+01
Ga    4.8268615936295349E+00    1.0225310100156596E+01    1.6397195242060636E+01
N    6.4317381444853181E+00    9.2913405325933844E+00    1.7358553719481506E+01
H   -3.4698537472440590E-05   -8.5375181497519232E-05   -1.0695707459260968E+00
H   -1.6089099938470541E+00    2.7865514379937282E+00   -1.0695048411410202E+00
H   -3.2177652462916373E+00    5.5731844027654702E+00   -1.0695267621042643E+00
H   -4.8266393035590092E+00    8.3598081017399792E+00   -1.0695270839904776E+00
H    3.2222736900077953E+00   -9.1309512016413320E-05   -1.0695694624793863E+00
H    1.6134218183475197E+00    2.7865463380247237E+00   -1.0695168743767525E+00
H    4.5456183679479494E-03    5.5731630023609702E+00   -1.0695125255674915E+00
H   -1.6043307539983109E+00    8.3598090291753753E+00   -1.0695144674491937E+00
H    6.4445859651630508E+00   -9.5862597433356514E-05   -1.0695593739028402E+00
H    4.8357305080888624E+00    2.7865518144015735E+00   -1.0695316589244555E+00
H    3.2268592855928997E+00    5.5731543732008664E+00   -1.0695407506367722E+00
H    1.6179891728113451E+00    8.3598151594181438E+00   -1.0695517380860771E+00
H    9.6669102047212565E+00   -8.3917020761414875E-05   -1.0695573351364920E+00
H    8.0580649201486061E+00    2.7865360233595360E+00   -1.0695231655336166E+00
H    6.4491746610473779E+00    5.5731707216820583E+00   -1.0695225872974616E+00
H    4.8403373001850616E+00    8.3598007413918687E+00   -1.0695427631620305E+00
     &END COORD
     &KIND H
       BASIS_SET DZVP-MOLOPT-SR-GTH-q1
       POTENTIAL GTH-PBE-q1
       &POTENTIAL
 1
  0.2000000000000000E+00 2 -0.4178900440000000E+01  0.7244633100000000E+00
 0
         # Potential name:  GTH-PBE-Q1  for symbol:  H
         # Potential read from the potential filename: GTH_POTENTIALS
       &END POTENTIAL
     &END KIND
     &KIND N
       BASIS_SET DZVP-MOLOPT-SR-GTH
       POTENTIAL GTH-PBE-q5
       &POTENTIAL
 2 3
  0.2837905100000000E+00 2 -0.1241522559000000E+02  0.1868095920000000E+01
 2
  0.2554050000000000E+00 1  0.1363026257000000E+02
  0.2454945300000000E+00 0
         # Potential name:  GTH-PBE-Q5  for symbol:  N
         # Potential read from the potential filename: GTH_POTENTIALS
       &END POTENTIAL
     &END KIND
     &KIND Ga
       BASIS_SET DZVP-MOLOPT-SR-GTH
       POTENTIAL GTH-PBE-q13
       &POTENTIAL
 2 1 10
  0.4900000000000000E+00 0
 3
  0.4167772300000000E+00 3  0.1047568975000000E+02 -0.4921768140000000E+01  0.8707055900000000E+00
  0.7770178090000000E+01 -0.2248152160000000E+01
  0.1784415450000000E+01
  0.5696265200000000E+00 2  0.1777985340000000E+01  0.1958597600000000E+00
 -0.2317443900000000E+00
  0.2381265000000000E+00 1 -0.1624868022000000E+02
         # Potential name:  GTH-PBE-Q13  for symbol:  GA
         # Potential read from the potential filename: GTH_POTENTIALS
       &END POTENTIAL
     &END KIND
     &TOPOLOGY
       NUMBER_OF_ATOMS  256
       MULTIPLE_UNIT_CELL  1 1 1
     &END TOPOLOGY
   &END SUBSYS
 &END FORCE_EVAL
