 # Version information for this restart file 
 # current date 2019-06-09 03:17:11.858
 # current working dir /lustre03/project/6037349/rzk/GaN-carbene/444-addat/00-Surface/UKS_SYMM
 # Program compiled at                              Sun Apr  7 00:48:11 EDT 2019
 # Program compiled on                          beluga2.int.ets1.calculquebec.ca
 # Program compiled for                        Beluga-Linux-x86-64-intel-openmpi
 # Source code revision number                                         svn:18619
 &GLOBAL
   PRINT_LEVEL  MEDIUM
   PROJECT_NAME TEST
   RUN_TYPE  CELL_OPT
 &END GLOBAL
 &MOTION
   &CELL_OPT
     MAX_ITER  300
     STEP_START_VAL  5
     EXTERNAL_PRESSURE     1.0000000000000000E+00
     KEEP_ANGLES  T
     KEEP_SYMMETRY  T
     CONSTRAINT  Z
     PRESSURE_TOLERANCE     5.0000000000000000E+02
   &END CELL_OPT
 &END MOTION
 &FORCE_EVAL
   METHOD  QS
   STRESS_TENSOR  ANALYTICAL
   &DFT
     BASIS_SET_FILE_NAME BASIS_MOLOPT
     POTENTIAL_FILE_NAME GTH_POTENTIALS
     UKS  T
     SURFACE_DIPOLE_CORRECTION  T
     SURF_DIP_DIR  Z
     &SCF
       MAX_SCF  100
       EPS_SCF     5.0000000000000004E-06
       &OT  T
         PRECONDITIONER  FULL_ALL
       &END OT
       &OUTER_SCF  T
         OPTIMIZER  NONE
         EPS_SCF     5.0000000000000004E-06
         MAX_SCF  4
       &END OUTER_SCF
       &PRINT
         &RESTART  OFF
           BACKUP_COPIES  1
           &EACH
             JUST_ENERGY  0
             QS_SCF  0
             MD  20
           &END EACH
         &END RESTART
       &END PRINT
     &END SCF
     &QS
       EPS_DEFAULT     1.0000000000000000E-14
       METHOD  GPW
     &END QS
     &MGRID
       NGRIDS  5
       CUTOFF     1.2000000000000000E+03
     &END MGRID
     &XC
       DENSITY_CUTOFF     1.0000000000000000E-10
       GRADIENT_CUTOFF     1.0000000000000000E-10
       TAU_CUTOFF     1.0000000000000000E-10
       &XC_FUNCTIONAL  NO_SHORTCUT
         &PBE  T
         &END PBE
       &END XC_FUNCTIONAL
       &VDW_POTENTIAL
         POTENTIAL_TYPE  PAIR_POTENTIAL
         &PAIR_POTENTIAL
           R_CUTOFF     1.0000000000000004E+01
           TYPE  DFTD3
           PARAMETER_FILE_NAME dftd3.dat
           REFERENCE_FUNCTIONAL PBE
           EPS_CN     9.9999999999999995E-07
           CALCULATE_C9_TERM  T
           REFERENCE_C9_TERM  T
           LONG_RANGE_CORRECTION  F
           VERBOSE_OUTPUT  F
         &END PAIR_POTENTIAL
       &END VDW_POTENTIAL
     &END XC
   &END DFT
   &SUBSYS
     &CELL
       A     1.2894289593263876E+01    0.0000000000000000E+00    0.0000000000000000E+00
       B    -6.4432489832977327E+00    1.1160034604888200E+01    0.0000000000000000E+00
       C     0.0000000000000000E+00    0.0000000000000000E+00    3.2000000000000000E+01
       MULTIPLE_UNIT_CELL  1 1 1
       &CELL_REF
         A     1.2982353780853531E+01    0.0000000000000000E+00    0.0000000000000000E+00
         B    -6.4911768904267628E+00    1.1243048175136114E+01    0.0000000000000000E+00
         C     0.0000000000000000E+00    0.0000000000000000E+00    3.2000000000000000E+01
         MULTIPLE_UNIT_CELL  1 1 1
       &END CELL_REF
     &END CELL
     &COORD
N   -2.6060968485710259E-04   -4.2043938119695772E-04   -9.8104274882306400E-03
Ga    9.6333693821827170E-04    1.8604504594030229E+00    6.4708643633056773E-01
N    9.2957244107063123E-04    1.8604862690924160E+00    2.5499402176274097E+00
Ga   -2.2290965150672634E-04   -3.1435641773249813E-04    3.2510251672825472E+00
N   -2.8325639509836859E-04   -4.5562319485083989E-04    5.1554075295478006E+00
Ga    9.0391901739286784E-04    1.8603335970204418E+00    5.8423540159049860E+00
N    8.9415783648697899E-04    1.8605337137719866E+00    7.7471816171468584E+00
Ga   -2.6634102011032076E-04   -2.8964615869604303E-04    8.4312079439264327E+00
N   -2.2531587911188265E-04   -4.6535160325326291E-04    1.0334450346471231E+01
Ga    1.2026264546486684E-03    1.8599986866047598E+00    1.1006769797291486E+01
N    1.8683994377753643E-03    1.8587377602358213E+00    1.2889078483400773E+01
Ga    3.4523997082493109E-03   -1.4633694234847971E-03    1.3483461700108604E+01
N   -2.2923649175479290E-03   -9.2512495469855432E-03    1.5345514812611121E+01
Ga   -5.9342945065736811E-03    1.8871055757342703E+00    1.6307174283694959E+01
N    1.5979524409607684E+00    9.1315597746087862E-01    1.7167393815466799E+01
N   -1.6110467961906287E+00    2.7895983348492481E+00   -9.7879001526084888E-03
Ga   -1.6098582951909917E+00    4.6504480800392933E+00    6.4707551177220346E-01
N   -1.6098646729597947E+00    4.6505168908720975E+00    2.5499215572576039E+00
Ga   -1.6110103581698632E+00    2.7897409468912606E+00    3.2510131128947033E+00
N   -1.6110537583950597E+00    2.7895844309969942E+00    5.1554096924852146E+00
Ga   -1.6099484879488724E+00    4.6503514220675530E+00    5.8423010936657933E+00
N   -1.6099048580918698E+00    4.6505663854812500E+00    7.7472108172210685E+00
Ga   -1.6108868768339928E+00    2.7897377657984510E+00    8.4314821441017678E+00
N   -1.6103789056244762E+00    2.7902114246110972E+00    1.0335271384865235E+01
Ga   -1.6095507146880144E+00    4.6509593358305370E+00    1.1007972623755656E+01
N   -1.6082095994218115E+00    4.6510527077365484E+00    1.2890421307321327E+01
Ga   -1.6127910129218208E+00    2.7876246731644501E+00    1.3481120635851651E+01
N   -1.6130720535739382E+00    2.7989642983166552E+00    1.5344608154515081E+01
Ga   -1.6117715968525452E+00    4.6595411819404156E+00    1.6297928163348395E+01
N   -2.3934731596238702E-02    3.7243869516768764E+00    1.7178792808822156E+01
N   -3.2218754926153617E+00    5.5796063771569946E+00   -9.7964447001764286E-03
Ga   -3.2206869020538629E+00    7.4404751699942286E+00    6.4708386268362394E-01
N   -3.2207293520452249E+00    7.4405506630378531E+00    2.5499331530563056E+00
Ga   -3.2218376312227481E+00    5.5797481297723808E+00    3.2510237077667674E+00
N   -3.2218843378710895E+00    5.5795591189650100E+00    5.1554202787480774E+00
Ga   -3.2207743102251158E+00    7.4403695676685357E+00    5.8423165308554381E+00
N   -3.2205827422220374E+00    7.4405720370895105E+00    7.7473722968664083E+00
Ga   -3.2218835974427442E+00    5.5797160163071622E+00    8.4312681149454409E+00
N   -3.2216999252539322E+00    5.5796807929031766E+00    1.0335285660354344E+01
Ga   -3.2209441944167088E+00    7.4409197032726313E+00    1.1006417867531415E+01
N   -3.2183177339709594E+00    7.4424325046580337E+00    1.2887702940166724E+01
Ga   -3.2211713113476419E+00    5.5840791964411309E+00    1.3483761805507458E+01
N   -3.2182579650357694E+00    5.5768106425514912E+00    1.5349896838555244E+01
Ga   -3.2358042399689433E+00    7.4749951431035750E+00    1.6309917038167725E+01
N   -1.6237844640105261E+00    6.5162261128420740E+00    1.7174349720713764E+01
N   -4.8326919361384251E+00    8.3696271755242844E+00   -9.7871746449141889E-03
Ga   -4.8314992125044602E+00    1.0230466500498316E+01    6.4708210020982482E-01
N   -4.8314744066509752E+00    1.0230539202801378E+01    2.5499076470164166E+00
Ga   -4.8327142890845716E+00    8.3697476594601241E+00    3.2511183668576500E+00
N   -4.8327353605575292E+00    8.3696123471582915E+00    5.1554580389217577E+00
Ga   -4.8315618160331164E+00    1.0230250301001881E+01    5.8422716375611543E+00
N   -4.8315162298297274E+00    1.0230613107143895E+01    7.7471168499398111E+00
Ga   -4.8327314604987226E+00    8.3697561857426219E+00    8.4313120776408059E+00
N   -4.8324970682125121E+00    8.3698634603714339E+00    1.0334789295760739E+01
Ga   -4.8317073531215513E+00    1.0230195591234214E+01    1.1006933516739752E+01
N   -4.8326951264241256E+00    1.0229877503771485E+01    1.2886985073208733E+01
Ga   -4.8352451218188364E+00    8.3678326126440083E+00    1.3480626088484957E+01
N   -4.8372776337950683E+00    8.3663693636718772E+00    1.5341936608730785E+01
Ga   -4.8366326091531233E+00    1.0223560631074561E+01    1.6319297387440002E+01
N   -3.2245666689862316E+00    9.3044506952399360E+00    1.7183646004095095E+01
N    3.2233137481191467E+00   -4.2488520620648945E-04   -9.7840444744550382E-03
Ga    3.2245170673377519E+00    1.8604602704878890E+00    6.4708062216262163E-01
N    3.2244769210899311E+00    1.8604911571335170E+00    2.5499236723502374E+00
Ga    3.2233753409308430E+00   -2.7784433371970971E-04    3.2510488184671855E+00
N    3.2232448086802510E+00   -4.9372804342439518E-04    5.1554482285221317E+00
Ga    3.2245016033098084E+00    1.8603035949570763E+00    5.8423618675161704E+00
N    3.2244613610723074E+00    1.8605070307677571E+00    7.7471810350243784E+00
Ga    3.2232504842640819E+00   -2.9021769135000416E-04    8.4312364140245268E+00
N    3.2231215794881218E+00   -7.3088486515122876E-04    1.0334743325707402E+01
Ga    3.2252162350288982E+00    1.8607464988502826E+00    1.1005589088709092E+01
N    3.2273034713478470E+00    1.8612592749856600E+00    1.2882663272450889E+01
Ga    3.2205933863898353E+00    4.5629779280798761E-03    1.3478878824778912E+01
N    3.2120297532535629E+00    5.1923322194295351E-04    1.5339572491124013E+01
Ga    3.2174347622976058E+00    1.8892068411567229E+00    1.6309333920926292E+01
N    4.8253091430742492E+00    9.2622854458401294E-01    1.7164721251383586E+01
N    1.6125258448430888E+00    2.7895825117031121E+00   -9.7848227818342730E-03
Ga    1.6136938922765358E+00    4.6504315836197447E+00    6.4707214955829662E-01
N    1.6135983450921827E+00    4.6504632868344844E+00    2.5499321243838100E+00
Ga    1.6125831894157641E+00    2.7897062855856092E+00    3.2510300480332730E+00
N    1.6124786121817258E+00    2.7895100612407862E+00    5.1554079855806263E+00
Ga    1.6137260412159371E+00    4.6503569615418794E+00    5.8423567490504862E+00
N    1.6136368005052444E+00    4.6504968039012624E+00    7.7472411136312793E+00
Ga    1.6125453729897539E+00    2.7896232355784338E+00    8.4313513995525184E+00
N    1.6121847430986946E+00    2.7891100315805013E+00    1.0334717499232775E+01
Ga    1.6138314165549563E+00    4.6496860083997200E+00    1.1005649077199488E+01
N    1.6128233530757965E+00    4.6483961648214471E+00    1.2883299595759546E+01
Ga    1.6179135593478233E+00    2.7903606055703261E+00    1.3477861049251768E+01
N    1.6104840025986276E+00    2.7890095599538496E+00    1.5339627914873171E+01
Ga    1.6005539231571890E+00    4.6549386798693284E+00    1.6306773822643056E+01
N    3.2090168404735215E+00    3.7246387181237246E+00    1.7171777903769740E+01
N    1.6986160879573890E-03    5.5796026704020063E+00   -9.8027886306375402E-03
Ga    2.9026917455009216E-03    7.4404531216114007E+00    6.4707811791486280E-01
N    2.8478978235933010E-03    7.4404922417231969E+00    2.5498819043809697E+00
Ga    1.7481312995962985E-03    5.5797777272075342E+00    3.2510304549414415E+00
N    1.6191356061135121E-03    5.5795622232505631E+00    5.1554551151178281E+00
Ga    2.8832461686862498E-03    7.4404012808610247E+00    5.8423737625276786E+00
N    2.8631149210528472E-03    7.4406333708625301E+00    7.7472193054111482E+00
Ga    1.8376788629564298E-03    5.5796135431185849E+00    8.4311595538055748E+00
N    1.4956833665219933E-03    5.5797892858102847E+00    1.0334482041936971E+01
Ga    3.6821939732741287E-03    7.4399616268923427E+00    1.1006453549694081E+01
N    5.0310436257290266E-03    7.4398505114349627E+00    1.2886989973741446E+01
Ga    6.9774327632181115E-03    5.5801620727077887E+00    1.3480129834104478E+01
N    9.1455451170318410E-04    5.5775226974180292E+00    1.5337876140682958E+01
Ga   -3.5517652642584841E-03    7.4353396003505114E+00    1.6301419182526519E+01
N    1.5973322296960550E+00    6.4988037368832323E+00    1.7174276094265313E+01
N   -1.6090982800468470E+00    8.3696043532112068E+00   -9.7724041193059680E-03
Ga   -1.6079180532834092E+00    1.0230453436003504E+01    6.4709909019345646E-01
N   -1.6079893536570571E+00    1.0230497676626465E+01    2.5499309242197170E+00
Ga   -1.6090388230506687E+00    8.3697228667787460E+00    3.2510390039164836E+00
N   -1.6091435397636342E+00    8.3695484304199717E+00    5.1554702460388011E+00
Ga   -1.6079687054549154E+00    1.0230412060629059E+01    5.8423415813253969E+00
N   -1.6079071024729223E+00    1.0230557884640326E+01    7.7473538812001630E+00
Ga   -1.6090737926368608E+00    8.3698086692519595E+00    8.4314159661918833E+00
N   -1.6087214062718598E+00    8.3695893747435584E+00    1.0335518444152752E+01
Ga   -1.6084701555619110E+00    1.0230819844338567E+01    1.1007484898842298E+01
N   -1.6075651593878704E+00    1.0230551055210457E+01    1.2890123528681931E+01
Ga   -1.6033582903257599E+00    8.3689015949345489E+00    1.3481081156548674E+01
N   -1.6015545592967069E+00    8.3709380466875523E+00    1.5345927078487385E+01
Ga   -1.6355091914584403E+00    1.0250061459121437E+01    1.6310218303101813E+01
N   -1.8728215788617501E-02    9.2523691727149853E+00    1.7172622335642984E+01
N    6.4469029775477678E+00   -4.1356638970434966E-04   -9.7985088714799464E-03
Ga    6.4481219650615449E+00    1.8604725331421965E+00    6.4709996134167602E-01
N    6.4480698903600100E+00    1.8604861674552904E+00    2.5498532154430604E+00
Ga    6.4469593274089485E+00   -2.4194490144080060E-04    3.2510457338758192E+00
N    6.4468457724734094E+00   -4.6909560360447732E-04    5.1554382745772251E+00
Ga    6.4480479747823436E+00    1.8603470070219426E+00    5.8423587751327117E+00
N    6.4481234816222130E+00    1.8604272399960859E+00    7.7470842165341844E+00
Ga    6.4469548115011461E+00   -2.9242370237250476E-04    8.4314222765168569E+00
N    6.4468047341368377E+00   -4.4404725090973812E-04    1.0335437623748772E+01
Ga    6.4481370545335448E+00    1.8611676487012134E+00    1.1005396129510556E+01
N    6.4505822679172917E+00    1.8616444711973132E+00    1.2885925999257459E+01
Ga    6.4476491942710714E+00    4.5367048395174719E-03    1.3485968278098413E+01
N    6.4478339873119994E+00   -1.4622592222816286E-02    1.5352434346111242E+01
Ga    6.4398051593515229E+00    1.8854970784302518E+00    1.6300945292666082E+01
N    8.0428367974528641E+00    9.3377006706169452E-01    1.7176199316998098E+01
N    4.8361036774308461E+00    2.7895867016536453E+00   -9.8038494303254887E-03
Ga    4.8373037012282873E+00    4.6504390810294218E+00    6.4711581991608769E-01
N    4.8372360005242339E+00    4.6504663766145953E+00    2.5499002235744790E+00
Ga    4.8362112942763424E+00    2.7897190654463850E+00    3.2510618716496955E+00
N    4.8360565779753371E+00    2.7894957145803896E+00    5.1554360003896642E+00
Ga    4.8372336682491248E+00    4.6503938329526324E+00    5.8423574282147319E+00
N    4.8372382265159208E+00    4.6505983112704845E+00    7.7471385310272609E+00
Ga    4.8361447384658627E+00    2.7898651663949980E+00    8.4314710629747260E+00
N    4.8364606825673375E+00    2.7896518691956391E+00    1.0334132939950255E+01
Ga    4.8374003126524814E+00    4.6507838788499187E+00    1.1007402021852064E+01
N    4.8371053454670374E+00    4.6497434518597416E+00    1.2884780740572928E+01
Ga    4.8381717966468187E+00    2.7909783574170071E+00    1.3481411816378403E+01
N    4.8404998215286739E+00    2.7871760117574684E+00    1.5337657552624322E+01
Ga    4.8201055213597170E+00    4.6720371762555475E+00    1.6318463142290092E+01
N    6.4219220022453491E+00    3.7413436088094092E+00    1.7162661128465814E+01
N    3.2252733371316715E+00    5.5796105222563153E+00   -9.7914039633808791E-03
Ga    3.2264983081669518E+00    7.4404814492601528E+00    6.4708914801324380E-01
N    3.2264344385490960E+00    7.4405521614458436E+00    2.5498797920738130E+00
Ga    3.2253454188669690E+00    5.5797765939127748E+00    3.2510640093480809E+00
N    3.2251973599366259E+00    5.5795343197213931E+00    5.1554065030391785E+00
Ga    3.2264751069355007E+00    7.4403413686989515E+00    5.8423347312587079E+00
N    3.2263880940410901E+00    7.4406382031047684E+00    7.7471968432713005E+00
Ga    3.2253328091844757E+00    5.5797680340979587E+00    8.4313873041084300E+00
N    3.2249242301881211E+00    5.5797566887216599E+00    1.0334714056325302E+01
Ga    3.2266881023227851E+00    7.4402793926899315E+00    1.1007782685447339E+01
N    3.2264513176669825E+00    7.4416702068469496E+00    1.2889560959156510E+01
Ga    3.2249600408306893E+00    5.5758068179600526E+00    1.3478037327214496E+01
N    3.2188089649225695E+00    5.5755843914557337E+00    1.5339688631340506E+01
Ga    3.2277517605484363E+00    7.4591746354799193E+00    1.6319741117405282E+01
N    4.8203476677818458E+00    6.5279221125330835E+00    1.7184552968513362E+01
N    1.6144678002891997E+00    8.3696159803957322E+00   -9.8006229364197457E-03
Ga    1.6156731579278187E+00    1.0230454291060033E+01    6.4710799062029223E-01
N    1.6156108656900283E+00    1.0230503304958376E+01    2.5499047846476421E+00
Ga    1.6145266768478848E+00    8.3697343856620527E+00    3.2510528509496095E+00
N    1.6143756719027345E+00    8.3695566938932302E+00    5.1554542393852971E+00
Ga    1.6156116174189450E+00    1.0230380977156528E+01    5.8423442257528837E+00
N    1.6156446349910787E+00    1.0230603797220576E+01    7.7473374919265394E+00
Ga    1.6146655701436010E+00    8.3697800683224042E+00    8.4315203850880422E+00
N    1.6143717415979622E+00    8.3697459460401067E+00    1.0335165253123016E+01
Ga    1.6161587878667518E+00    1.0230712431101558E+01    1.1007606225253728E+01
N    1.6166145336551603E+00    1.0230452830912096E+01    1.2890436587897860E+01
Ga    1.6137567814890084E+00    8.3690511459868340E+00    1.3485297985464532E+01
N    1.6146923527508421E+00    8.3821766775351652E+00    1.5352766557906122E+01
Ga    1.6289589544108691E+00    1.0251664966038840E+01    1.6289454031419986E+01
N    3.1927788386588367E+00    9.3035784885312474E+00    1.7188111953861586E+01
N    9.6704764810336545E+00   -4.4646654212566876E-04   -9.7848707410343322E-03
Ga    9.6716729769359091E+00    1.8604503230128477E+00    6.4708086322384040E-01
N    9.6716453803103732E+00    1.8605089280679374E+00    2.5499540793230731E+00
Ga    9.6705037644893466E+00   -3.4285327601622458E-04    3.2510514187945780E+00
N    9.6704472754940944E+00   -5.1047200326013792E-04    5.1554408057081123E+00
Ga    9.6716106299932711E+00    1.8603311499722182E+00    5.8423485390241270E+00
N    9.6718000161112236E+00    1.8605470914438591E+00    7.7474311313201643E+00
Ga    9.6706321101043518E+00   -3.4909652442645692E-04    8.4313133950209966E+00
N    9.6707618836589049E+00   -7.6701586003325437E-04    1.0334984997454681E+01
Ga    9.6721487988248374E+00    1.8606248212030603E+00    1.1005707909029567E+01
N    9.6733466045929273E+00    1.8609776548368309E+00    1.2882259981899459E+01
Ga    9.6756618989832468E+00    4.2291040903638319E-03    1.3478003229775407E+01
N    9.6691509418111128E+00    6.7475106971176101E-03    1.5336767698341459E+01
Ga    9.6666197043368456E+00    1.8675382563896241E+00    1.6300910773070640E+01
N    1.1268365863464524E+01    9.2796893737922448E-01    1.7170962584964656E+01
N    8.0596697701300979E+00    2.7895712163035911E+00   -9.8023101248503764E-03
Ga    8.0608563506519566E+00    4.6504214985942314E+00    6.4709175561572740E-01
N    8.0608770785189350E+00    4.6504889755849153E+00    2.5499024402691308E+00
Ga    8.0596573801403206E+00    2.7897011294916605E+00    3.2510538140368288E+00
N    8.0596149959400183E+00    2.7895064133533558E+00    5.1554461636742817E+00
Ga    8.0607765986727475E+00    4.6503522703664064E+00    5.8423028885948707E+00
N    8.0609703816374161E+00    4.6505532365743223E+00    7.7472106289082774E+00
Ga    8.0597313482510984E+00    2.7896649949046823E+00    8.4311041781596998E+00
N    8.0595788848891559E+00    2.7893091268307626E+00    1.0334390404861276E+01
Ga    8.0608317949175969E+00    4.6497759479098555E+00    1.1005051050228788E+01
N    8.0649030259977383E+00    4.6475784420038506E+00    1.2885292606430820E+01
Ga    8.0657168857768582E+00    2.7880064299140424E+00    1.3477506502334766E+01
N    8.0668156668964937E+00    2.7834097150919384E+00    1.5342892697597343E+01
Ga    8.0535105306673440E+00    4.6615183717441857E+00    1.6305939926641809E+01
N    9.6402898446420728E+00    3.7075369945504071E+00    1.7175997744645485E+01
N    6.4488489670680895E+00    5.5795930024645264E+00   -9.7875404339264008E-03
Ga    6.4500266280295708E+00    7.4404537138487683E+00    6.4709959342404633E-01
N    6.4500383882199861E+00    7.4405035753095401E+00    2.5498842264938686E+00
Ga    6.4488816714980199E+00    5.5797281728378438E+00    3.2510710413901487E+00
N    6.4488359397878421E+00    5.5795516859352174E+00    5.1554225258196906E+00
Ga    6.4500447663706915E+00    7.4404307466204989E+00    5.8422865293313455E+00
N    6.4500381265578151E+00    7.4406165687069752E+00    7.7472127687056966E+00
Ga    6.4488567259246166E+00    5.5796953223881562E+00    8.4313462141692685E+00
N    6.4492906929378080E+00    5.5791332367339939E+00    1.0334241809059911E+01
Ga    6.4501466074994207E+00    7.4395100744270071E+00    1.1006151524115339E+01
N    6.4517228229504786E+00    7.4361866036810191E+00    1.2883453563733134E+01
Ga    6.4524734560128074E+00    5.5732900025012411E+00    1.3479721865541539E+01
N    6.4484271758348415E+00    5.5690777183476126E+00    1.5337907798186295E+01
Ga    6.4346010286673065E+00    7.4508882825172442E+00    1.6310243362007935E+01
N    8.0398662203624749E+00    6.5090498864623729E+00    1.7168797032464514E+01
N    4.8380374674667319E+00    8.3696092796273316E+00   -9.7968794189665157E-03
Ga    4.8392543994724404E+00    1.0230438155493044E+01    6.4710144967050987E-01
N    4.8392305967948115E+00    1.0230543894646960E+01    2.5498795204827331E+00
Ga    4.8380750228833023E+00    8.3697376726827546E+00    3.2510947322048942E+00
N    4.8380116911501911E+00    8.3695520967906010E+00    5.1554195364813360E+00
Ga    4.8391839467190119E+00    1.0230306587667778E+01    5.8423389706815909E+00
N    4.8392610440526367E+00    1.0230571092563464E+01    7.7471086871037125E+00
Ga    4.8380364750977485E+00    8.3696922967650327E+00    8.4314998021717482E+00
N    4.8378956903055368E+00    8.3698109119294077E+00    1.0334873903669852E+01
Ga    4.8397790553519062E+00    1.0230177805500785E+01    1.1007281045763753E+01
N    4.8425258060731160E+00    1.0229892028171632E+01    1.2888476619496545E+01
Ga    4.8448628019798274E+00    8.3675550082421228E+00    1.3479294260640003E+01
N    4.8427095645797600E+00    8.3721486432134320E+00    1.5341692981625361E+01
Ga    4.8182617078646288E+00    1.0238448818142494E+01    1.6307935121767702E+01
N    6.4274808255005134E+00    9.3203676933610158E+00    1.7181158710864931E+01
H   -4.0131364547503152E-05   -5.8862458685158920E-05   -1.0327881658413776E+00
H   -1.6108566777727118E+00    2.7899523138582514E+00   -1.0327514558646198E+00
H   -3.2216770420690133E+00    5.5799752652446379E+00   -1.0327744016581597E+00
H   -4.8324884965452446E+00    8.3699888550432338E+00   -1.0327638309844380E+00
H    3.2235389250897413E+00   -7.2190101952679519E-05   -1.0327754297887739E+00
H    1.6127213345612723E+00    2.7899449440064275E+00   -1.0327476633957602E+00
H    1.9001398550827528E-03    5.5799634163010907E+00   -1.0327650887375670E+00
H   -1.6089229463701145E+00    8.3699888223136494E+00   -1.0327260152892996E+00
H    6.4471117705747805E+00   -7.1372511485908282E-05   -1.0327782497101621E+00
H    4.8363030811218977E+00    2.7899562749052782E+00   -1.0327711462081572E+00
H    3.2254874835649403E+00    5.5799627046812672E+00   -1.0327637995163694E+00
H    1.6146651879709271E+00    8.3699906960285251E+00   -1.0327586780878004E+00
H    9.6706976880703976E+00   -6.1122406784104165E-05   -1.0327710739732527E+00
H    8.0598929079058355E+00    2.7899490864896426E+00   -1.0327536224802238E+00
H    6.4490666075185148E+00    5.5799649053088070E+00   -1.0327614408190375E+00
H    4.8382604555196087E+00    8.3699792053575006E+00   -1.0327563774911230E+00
     &END COORD
     &KIND H
       BASIS_SET DZVP-MOLOPT-SR-GTH-q1
       POTENTIAL GTH-PBE-q1
       &POTENTIAL
 1
  0.2000000000000000E+00 2 -0.4178900440000000E+01  0.7244633100000000E+00
 0
         # Potential name:  GTH-PBE-Q1  for symbol:  H
         # Potential read from the potential filename: GTH_POTENTIALS
       &END POTENTIAL
     &END KIND
     &KIND N
       BASIS_SET DZVP-MOLOPT-SR-GTH
       POTENTIAL GTH-PBE-q5
       &POTENTIAL
 2 3
  0.2837905100000000E+00 2 -0.1241522559000000E+02  0.1868095920000000E+01
 2
  0.2554050000000000E+00 1  0.1363026257000000E+02
  0.2454945300000000E+00 0
         # Potential name:  GTH-PBE-Q5  for symbol:  N
         # Potential read from the potential filename: GTH_POTENTIALS
       &END POTENTIAL
     &END KIND
     &KIND Ga
       BASIS_SET DZVP-MOLOPT-SR-GTH
       POTENTIAL GTH-PBE-q13
       &POTENTIAL
 2 1 10
  0.4900000000000000E+00 0
 3
  0.4167772300000000E+00 3  0.1047568975000000E+02 -0.4921768140000000E+01  0.8707055900000000E+00
  0.7770178090000000E+01 -0.2248152160000000E+01
  0.1784415450000000E+01
  0.5696265200000000E+00 2  0.1777985340000000E+01  0.1958597600000000E+00
 -0.2317443900000000E+00
  0.2381265000000000E+00 1 -0.1624868022000000E+02
         # Potential name:  GTH-PBE-Q13  for symbol:  GA
         # Potential read from the potential filename: GTH_POTENTIALS
       &END POTENTIAL
     &END KIND
     &TOPOLOGY
       NUMBER_OF_ATOMS  256
       MULTIPLE_UNIT_CELL  1 1 1
     &END TOPOLOGY
   &END SUBSYS
 &END FORCE_EVAL
