 # Version information for this restart file 
 # current date 2019-06-09 04:26:37.029
 # current working dir /lustre03/project/6037349/rzk/GaN-carbene/444-addat/00-Surface/UKS_SYMM
 # Program compiled at                              Sun Apr  7 00:48:11 EDT 2019
 # Program compiled on                          beluga2.int.ets1.calculquebec.ca
 # Program compiled for                        Beluga-Linux-x86-64-intel-openmpi
 # Source code revision number                                         svn:18619
 &GLOBAL
   PRINT_LEVEL  MEDIUM
   PROJECT_NAME TEST
   RUN_TYPE  CELL_OPT
 &END GLOBAL
 &MOTION
   &CELL_OPT
     MAX_ITER  300
     STEP_START_VAL  12
     EXTERNAL_PRESSURE     1.0000000000000000E+00
     KEEP_ANGLES  T
     KEEP_SYMMETRY  T
     CONSTRAINT  Z
     PRESSURE_TOLERANCE     5.0000000000000000E+02
   &END CELL_OPT
 &END MOTION
 &FORCE_EVAL
   METHOD  QS
   STRESS_TENSOR  ANALYTICAL
   &DFT
     BASIS_SET_FILE_NAME BASIS_MOLOPT
     POTENTIAL_FILE_NAME GTH_POTENTIALS
     UKS  T
     SURFACE_DIPOLE_CORRECTION  T
     SURF_DIP_DIR  Z
     &SCF
       MAX_SCF  100
       EPS_SCF     5.0000000000000004E-06
       &OT  T
         PRECONDITIONER  FULL_ALL
       &END OT
       &OUTER_SCF  T
         OPTIMIZER  NONE
         EPS_SCF     5.0000000000000004E-06
         MAX_SCF  4
       &END OUTER_SCF
       &PRINT
         &RESTART  OFF
           BACKUP_COPIES  1
           &EACH
             JUST_ENERGY  0
             QS_SCF  0
             MD  20
           &END EACH
         &END RESTART
       &END PRINT
     &END SCF
     &QS
       EPS_DEFAULT     1.0000000000000000E-14
       METHOD  GPW
     &END QS
     &MGRID
       NGRIDS  5
       CUTOFF     1.2000000000000000E+03
     &END MGRID
     &XC
       DENSITY_CUTOFF     1.0000000000000000E-10
       GRADIENT_CUTOFF     1.0000000000000000E-10
       TAU_CUTOFF     1.0000000000000000E-10
       &XC_FUNCTIONAL  NO_SHORTCUT
         &PBE  T
         &END PBE
       &END XC_FUNCTIONAL
       &VDW_POTENTIAL
         POTENTIAL_TYPE  PAIR_POTENTIAL
         &PAIR_POTENTIAL
           R_CUTOFF     1.0000000000000004E+01
           TYPE  DFTD3
           PARAMETER_FILE_NAME dftd3.dat
           REFERENCE_FUNCTIONAL PBE
           EPS_CN     9.9999999999999995E-07
           CALCULATE_C9_TERM  T
           REFERENCE_C9_TERM  T
           LONG_RANGE_CORRECTION  F
           VERBOSE_OUTPUT  F
         &END PAIR_POTENTIAL
       &END VDW_POTENTIAL
     &END XC
   &END DFT
   &SUBSYS
     &CELL
       A     1.2878837511109712E+01    0.0000000000000000E+00    0.0000000000000000E+00
       B    -6.4296555978294894E+00    1.1136490170610337E+01    0.0000000000000000E+00
       C     0.0000000000000000E+00    0.0000000000000000E+00    3.2000000000000000E+01
       MULTIPLE_UNIT_CELL  1 1 1
       &CELL_REF
         A     1.2982353780853531E+01    0.0000000000000000E+00    0.0000000000000000E+00
         B    -6.4911768904267628E+00    1.1243048175136114E+01    0.0000000000000000E+00
         C     0.0000000000000000E+00    0.0000000000000000E+00    3.2000000000000000E+01
         MULTIPLE_UNIT_CELL  1 1 1
       &END CELL_REF
     &END CELL
     &COORD
N   -5.3414830730232787E-05   -2.7363664951233043E-04   -4.9650369265983617E-02
Ga    1.8834617528476702E-03    1.8562895296268969E+00    6.2078301259218738E-01
N    1.7114507436380504E-03    1.8563310537447657E+00    2.5251480745988517E+00
Ga   -2.8284186356022887E-05   -4.3609561690466342E-06    3.2385172164829665E+00
N   -8.4976521346641985E-05   -2.0630141294618291E-04    5.1445832757223240E+00
Ga    1.6543614988559815E-03    1.8560249146140515E+00    5.8242392911060969E+00
N    1.4145461870041802E-03    1.8560723721828909E+00    7.7164185786074935E+00
Ga   -2.7442290132446078E-04    4.9048524152163584E-04    8.3669980061259697E+00
N   -3.6894235040589216E-04    1.1527537220387552E-03    1.0252496090180379E+01
Ga    2.1628395486888337E-03    1.8568554410378659E+00    1.0933399365271663E+01
N    1.3793250342429546E-03    1.8566362114926711E+00    1.2852387519127626E+01
Ga    2.0263011641375474E-05   -2.5052755598516932E-03    1.3534324751984482E+01
N   -1.0486630818336279E-02   -4.0409179441703979E-03    1.5442573916546266E+01
Ga    2.9799747770164809E-03    1.8479717833712610E+00    1.6439013459548853E+01
N    1.6072781531008975E+00    9.2223400225427843E-01    1.7363620624677651E+01
N   -1.6074699210299175E+00    2.7838621221648503E+00   -4.9617697668894963E-02
Ga   -1.6055551329015205E+00    4.6403875793754485E+00    6.2089482395690743E-01
N   -1.6057221408005307E+00    4.6403650402826644E+00    2.5251660618338940E+00
Ga   -1.6074444193229793E+00    2.7841983649390709E+00    3.2385346741283088E+00
N   -1.6074251469440815E+00    2.7840234326394486E+00    5.1445699534753544E+00
Ga   -1.6057165675747778E+00    4.6403070119767813E+00    5.8246734210530446E+00
N   -1.6056580572495909E+00    4.6408328368690919E+00    7.7170738450523277E+00
Ga   -1.6062844658712085E+00    2.7846889757816942E+00    8.3669134205999356E+00
N   -1.6046301502680258E+00    2.7859355702868998E+00    1.0252920534666270E+01
Ga   -1.6062523884807587E+00    4.6410360258861649E+00    1.0932115149476129E+01
N   -1.6064307685108672E+00    4.6432700598439318E+00    1.2853106888373118E+01
Ga   -1.6081448591849044E+00    2.7849568554407171E+00    1.3545347310448378E+01
N   -1.6033565312314282E+00    2.8069722761638287E+00    1.5459929135107588E+01
Ga   -1.5880831965530964E+00    4.6499177826850850E+00    1.6376885846301811E+01
N   -2.3772970355351863E-02    3.7370657197266319E+00    1.7380970374923081E+01
N   -3.2148736225506593E+00    5.5679985416362356E+00   -4.9622046407626304E-02
Ga   -3.2129413918385996E+00    7.4244973021117255E+00    6.2081881102709957E-01
N   -3.2130085725211881E+00    7.4244045769810008E+00    2.5250922014404615E+00
Ga   -3.2148223275959715E+00    5.5683015447153510E+00    3.2385930033819035E+00
N   -3.2146447417332298E+00    5.5681403031993995E+00    5.1445766835652114E+00
Ga   -3.2129160693336218E+00    7.4244353325144790E+00    5.8250358458763554E+00
N   -3.2121474621059285E+00    7.4247805415851076E+00    7.7177262450261219E+00
Ga   -3.2145178585322465E+00    5.5687639421605679E+00    8.3682912475957689E+00
N   -3.2129817411051738E+00    5.5693883400681221E+00    1.0254453318376068E+01
Ga   -3.2118128098551200E+00    7.4248571335685609E+00    1.0937268211486760E+01
N   -3.2072920706547010E+00    7.4266221158020098E+00    1.2855805873742227E+01
Ga   -3.2120800862809404E+00    5.5748207030344794E+00    1.3548318961240339E+01
N   -3.2191002782058766E+00    5.5611596309377269E+00    1.5470634350768657E+01
Ga   -3.2248922438925152E+00    7.4465052394119500E+00    1.6431255011959276E+01
N   -1.6285135155958528E+00    6.4998356914407251E+00    1.7372244742629707E+01
N   -4.8222816501563006E+00    8.3521400758870996E+00   -4.9599715603742003E-02
Ga   -4.8203597733769872E+00    1.0208636368548788E+01    6.2086683538921972E-01
N   -4.8204513807933758E+00    1.0208643385931628E+01    2.5251174869569444E+00
Ga   -4.8222316714625579E+00    8.3523324729610220E+00    3.2387873966062157E+00
N   -4.8221892602986767E+00    8.3521554281807457E+00    5.1447799789853939E+00
Ga   -4.8204387170289609E+00    1.0208334781023915E+01    5.8246935796235260E+00
N   -4.8205413296205899E+00    1.0208889642320356E+01    7.7176272852703889E+00
Ga   -4.8216843104220688E+00    8.3518086258576663E+00    8.3677262033619737E+00
N   -4.8203667461480784E+00    8.3510954603822007E+00    1.0253120088244128E+01
Ga   -4.8204158588037291E+00    1.0208082966809004E+01    1.0928180610979760E+01
N   -4.8223700441961039E+00    1.0210629672207292E+01    1.2843073426484102E+01
Ga   -4.8230051559560092E+00    8.3553961288106890E+00    1.3542710963151666E+01
N   -4.8206709010127486E+00    8.3648622539838087E+00    1.5449657455607390E+01
Ga   -4.8245184950942104E+00    1.0220572158583693E+01    1.6420431498926952E+01
N   -3.2168485292771067E+00    9.2777733597881902E+00    1.7360834683432085E+01
N    3.2196507047238132E+00   -2.6887190747032491E-04   -4.9637101162184546E-02
Ga    3.2215721933546164E+00    1.8562610475960653E+00    6.2088826948954234E-01
N    3.2213798899702391E+00    1.8562158938269464E+00    2.5251170756725272E+00
Ga    3.2197653064954719E+00    3.2671280425374165E-05    3.2386414613991130E+00
N    3.2197784288430915E+00   -2.6485903744254900E-04    5.1447695667318474E+00
Ga    3.2215229957382538E+00    1.8559631993455694E+00    5.8249813235751873E+00
N    3.2215176666487397E+00    1.8558849354770028E+00    7.7170875233863994E+00
Ga    3.2203936297274747E+00   -7.4375485635960845E-04    8.3674922287535409E+00
N    3.2213024717692988E+00   -1.5570873963888059E-03    1.0252744810684259E+01
Ga    3.2214384299322654E+00    1.8565394258956798E+00    1.0931299885417195E+01
N    3.2212823340260224E+00    1.8565170156513380E+00    1.2843944634806642E+01
Ga    3.2162320189494671E+00    4.0444409822213987E-03    1.3535550825757818E+01
N    3.2024329097161779E+00   -1.2558759696555013E-02    1.5438694059027426E+01
Ga    3.2238466388484706E+00    1.8661191895595006E+00    1.6445442185664131E+01
N    4.7982356547308509E+00    9.0958604284331379E-01    1.7347675317975252E+01
N    1.6122586861577994E+00    2.7838408012208236E+00   -4.9616971613475176E-02
Ga    1.6141671404568836E+00    4.6403690376363818E+00    6.2086238915185388E-01
N    1.6139676733785047E+00    4.6403368299762340E+00    2.5251578318638495E+00
Ga    1.6123978823070242E+00    2.7841684725927780E+00    3.2385712708597421E+00
N    1.6122336362047693E+00    2.7838659797896166E+00    5.1446152380733094E+00
Ga    1.6141373271861572E+00    4.6403680732067603E+00    5.8251679633284645E+00
N    1.6137142599194794E+00    4.6407454716015106E+00    7.7175975647620847E+00
Ga    1.6116119932545914E+00    2.7835571099142782E+00    8.3662044482628879E+00
N    1.6108736602246505E+00    2.7823586237550906E+00    1.0251388544892643E+01
Ga    1.6159434595781659E+00    4.6392908029250215E+00    1.0931981423481295E+01
N    1.6156413241410275E+00    4.6392016569119789E+00    1.2843702827465730E+01
Ga    1.6159795554315535E+00    2.7854229037424312E+00    1.3544706194701144E+01
N    1.5964139736249301E+00    2.7916835886722464E+00    1.5457695668207460E+01
Ga    1.6067250802406059E+00    4.6390804951554596E+00    1.6404581369639224E+01
N    3.2024441972786333E+00    3.7236962047849627E+00    1.7367105657585856E+01
N    4.8236626457596483E-03    5.5679750465233440E+00   -4.9587255933092191E-02
Ga    6.7365462785776145E-03    7.4245288395206419E+00    6.2089177303955989E-01
N    6.5755776279555304E-03    7.4244471440317517E+00    2.5251787882234580E+00
Ga    4.9078816842007857E-03    5.5683024243911525E+00    3.2386583481946598E+00
N    4.7519062063040903E-03    5.5681012635088081E+00    5.1448087125747133E+00
Ga    6.7607193562036682E-03    7.4245511201825476E+00    5.8254069743579198E+00
N    6.7742752228633196E-03    7.4251043554413299E+00    7.7184772689514007E+00
Ga    4.4648292841037267E-03    5.5683071753113538E+00    8.3684740324751541E+00
N    3.5259163987466629E-03    5.5686727149084962E+00    1.0254057010177482E+01
Ga    8.5682268718123341E-03    7.4264106300288422E+00    1.0931979435365562E+01
N    9.4515822003408776E-03    7.4291955227553004E+00    1.2849398773337148E+01
Ga    1.2491699634020928E-02    5.5697350916746462E+00    1.3532539281521709E+01
N    6.0201634787054618E-03    5.5637357746766209E+00    1.5428886345338796E+01
Ga    9.5997745089029061E-03    7.3962026396212615E+00    1.6394372083266411E+01
N    1.6109018940993260E+00    6.4924433898084288E+00    1.7373165317974316E+01
N   -1.6026098396931174E+00    8.3521368394606377E+00   -4.9626341822505256E-02
Ga   -1.6006557561899522E+00    1.0208630510348177E+01    6.2084837887914035E-01
N   -1.6008422190359795E+00    1.0208589697194521E+01    2.5251005419790422E+00
Ga   -1.6025039733281756E+00    8.3524497859983331E+00    3.2386219537138725E+00
N   -1.6024913675428136E+00    8.3521574287055778E+00    5.1447739558248227E+00
Ga   -1.6005855797295385E+00    1.0208451498529255E+01    5.8249873579568465E+00
N   -1.6001249925115040E+00    1.0208507190300438E+01    7.7177242815492120E+00
Ga   -1.6026911388020033E+00    8.3528915219270310E+00    8.3691968216903536E+00
N   -1.6023326133519480E+00    8.3537613333236838E+00    1.0255917104301469E+01
Ga   -1.5994979284431041E+00    1.0210103342150827E+01    1.0934133334321402E+01
N   -1.5957242096142246E+00    1.0215100814670951E+01    1.2852451738057253E+01
Ga   -1.5944267591566774E+00    8.3603444633637380E+00    1.3543410064811701E+01
N   -1.6077986953106462E+00    8.3614862093387732E+00    1.5457273446073492E+01
Ga   -1.6251498529617998E+00    1.0229419119874903E+01    1.6418058415631652E+01
N   -3.0923088702899712E-02    9.2016529792700261E+00    1.7376246177953004E+01
N    6.4393578150857396E+00   -2.9911912471549014E-04   -4.9644064869750953E-02
Ga    6.4413126459134222E+00    1.8562673870668216E+00    6.2100188360821107E-01
N    6.4411653941184541E+00    1.8562411236984744E+00    2.5251390523493331E+00
Ga    6.4395070544121706E+00   -2.6970946981274996E-06    3.2385989992676034E+00
N    6.4393747654139517E+00   -4.2507391055344416E-04    5.1446079881200619E+00
Ga    6.4412828422754602E+00    1.8557915860859804E+00    5.8247759185657397E+00
N    6.4415259408274776E+00    1.8553718286763181E+00    7.7169216988572709E+00
Ga    6.4396217293483646E+00   -4.9089550531456589E-04    8.3690461567767365E+00
N    6.4402137291080628E+00   -8.8646891307166706E-04    1.0255008195019805E+01
Ga    6.4431816672825954E+00    1.8555992831949881E+00    1.0935272738925301E+01
N    6.4458005059705474E+00    1.8575306225656245E+00    1.2853710684235610E+01
Ga    6.4431125295384932E+00    6.7743767658010150E-03    1.3551720346228684E+01
N    6.4431476727088155E+00   -1.2362502048253291E-02    1.5465636901835072E+01
Ga    6.4209001534778745E+00    1.8758532668618033E+00    1.6430027903896040E+01
N    8.0294625213337021E+00    9.3135932179799497E-01    1.7360519323702189E+01
N    4.8319302437773617E+00    2.7838355519572859E+00   -4.9599863627418715E-02
Ga    4.8338974872221838E+00    4.6403901908827763E+00    6.2092472423495271E-01
N    4.8337306869046728E+00    4.6403548598134963E+00    2.5251165516928236E+00
Ga    4.8320477935636879E+00    2.7841515964966712E+00    3.2386280533887875E+00
N    4.8319556396436019E+00    2.7837881747961108E+00    5.1446332870964913E+00
Ga    4.8336676695919127E+00    4.6403575518871012E+00    5.8244985119892938E+00
N    4.8335310865609511E+00    4.6406987034741896E+00    7.7168724408091665E+00
Ga    4.8327030585264792E+00    2.7838835492059109E+00    8.3668208916746973E+00
N    4.8340193044333706E+00    2.7820606709843609E+00    1.0251560078354398E+01
Ga    4.8334906812083114E+00    4.6411664268931903E+00    1.0929028903086095E+01
N    4.8331435140490200E+00    4.6432383155930923E+00    1.2838421646186799E+01
Ga    4.8312843255513851E+00    2.7897227937728579E+00    1.3538809206789288E+01
N    4.8271428867384767E+00    2.8111362210563962E+00    1.5440122583817471E+01
Ga    4.8299508974975947E+00    4.6436570468900253E+00    1.6408495366905615E+01
N    6.4338498818197465E+00    3.7223069660423858E+00    1.7363517526371943E+01
N    3.2245149301817779E+00    5.5679816461119724E+00   -4.9629464359483101E-02
Ga    3.2264755521332442E+00    7.4245184651456082E+00    6.2084944622342486E-01
N    3.2262323560174346E+00    7.4244057131717422E+00    2.5250354523067311E+00
Ga    3.2246453536245618E+00    5.5683347785946218E+00    3.2386460417294622E+00
N    3.2243735726198803E+00    5.5680881658277173E+00    5.1445007561833709E+00
Ga    3.2263472389964645E+00    7.4245076083461434E+00    5.8247012607234883E+00
N    3.2260317958866054E+00    7.4253011075952138E+00    7.7168400225507243E+00
Ga    3.2244525909416035E+00    5.5694784845399807E+00    8.3673174052910628E+00
N    3.2238439767100484E+00    5.5707454540878896E+00    1.0251851617922487E+01
Ga    3.2266095047692120E+00    7.4250723733719832E+00    1.0936393362013675E+01
N    3.2260352610079583E+00    7.4289118514439494E+00    1.2852708634272233E+01
Ga    3.2257152648388803E+00    5.5671190650273736E+00    1.3539906250094990E+01
N    3.2168498090406201E+00    5.5767583386521267E+00    1.5445543587882755E+01
Ga    3.2217307956787153E+00    7.4333566463713492E+00    1.6447058422492727E+01
N    4.8295806340293668E+00    6.4954629635314785E+00    1.7372372320484825E+01
N    1.6171131821881291E+00    8.3521414580579947E+00   -4.9638991914989064E-02
Ga    1.6190639900050949E+00    1.0208631564706184E+01    6.2092682423924639E-01
N    1.6188727300598340E+00    1.0208643482142485E+01    2.5250421060291410E+00
Ga    1.6172574927233909E+00    8.3524942112422114E+00    3.2386329576463400E+00
N    1.6169701326981765E+00    8.3522465354759241E+00    5.1447062644183346E+00
Ga    1.6188978899159847E+00    1.0208528370712390E+01    5.8250372041817595E+00
N    1.6186897471663306E+00    1.0208743102995617E+01    7.7175543383514915E+00
Ga    1.6180139933697337E+00    8.3528344451460832E+00    8.3684858249295715E+00
N    1.6185759338584711E+00    8.3543309412211393E+00    1.0254242471723073E+01
Ga    1.6186426193475962E+00    1.0209194507598207E+01    1.0935455329411900E+01
N    1.6185681714514679E+00    1.0211101748569112E+01    1.2853835932462195E+01
Ga    1.6193052773162766E+00    8.3554198007789449E+00    1.3545097796388641E+01
N    1.6178945739264279E+00    8.3741975826241948E+00    1.5462359379518434E+01
Ga    1.6449320677573012E+00    1.0226364898279932E+01    1.6380897977425928E+01
N    3.1918942971755957E+00    9.2929288323001540E+00    1.7376840266858121E+01
N    9.6590534810533359E+00   -2.8615763601271276E-04   -4.9633916986258506E-02
Ga    9.6610009886864550E+00    1.8562685992760100E+00    6.2084272964178266E-01
N    9.6609350226707384E+00    1.8562659521505069E+00    2.5251829521871780E+00
Ga    9.6591198103598614E+00   -3.9305222277901689E-05    3.2387093537452709E+00
N    9.6590411150560218E+00   -2.6338423801052684E-04    5.1447840079610714E+00
Ga    9.6610960281729401E+00    1.8559346878988734E+00    5.8251871606710326E+00
N    9.6617730702854860E+00    1.8561210004342017E+00    7.7182821416326419E+00
Ga    9.6587543146573651E+00   -9.6801378521695525E-04    8.3682314467287977E+00
N    9.6585887016507854E+00   -2.0407673842874545E-03    1.0253864313541671E+01
Ga    9.6626634190366545E+00    1.8572219852527823E+00    1.0929977604156267E+01
N    9.6664643668442736E+00    1.8580204286132225E+00    1.2841590971375576E+01
Ga    9.6667003577335890E+00    3.8715235494274423E-03    1.3529427297045459E+01
N    9.6634561234130398E+00    5.3822939137170541E-03    1.5431067679809530E+01
Ga    9.6619592681420468E+00    1.8375740227322588E+00    1.6407201635752219E+01
N    1.1270604319965987E+01    9.2786738316943451E-01    1.7363981888923981E+01
N    8.0516655172997229E+00    2.7838359605057068E+00   -4.9606132443395033E-02
Ga    8.0536000149112894E+00    4.6403874385034545E+00    6.2087508466394359E-01
N    8.0535268866085925E+00    4.6403846712727814E+00    2.5251228257777414E+00
Ga    8.0517643191997603E+00    2.7841460936995963E+00    3.2387058679603493E+00
N    8.0517999109909599E+00    2.7838263372915311E+00    5.1447684391781010E+00
Ga    8.0537372663624982E+00    4.6403511550586920E+00    5.8246679122531164E+00
N    8.0546910316924141E+00    4.6407670436324002E+00    7.7169493305504844E+00
Ga    8.0513955737631360E+00    2.7843429098495700E+00    8.3665621344396932E+00
N    8.0516034191621983E+00    2.7846268647526293E+00    1.0253038997979594E+01
Ga    8.0557745138901602E+00    4.6409311227010726E+00    1.0935151234291176E+01
N    8.0596987682009971E+00    4.6452888127856555E+00    1.2852393277120404E+01
Ga    8.0631611024961600E+00    2.7864912875271388E+00    1.3536473304725025E+01
N    8.0431876218196230E+00    2.7990413758178603E+00    1.5454296572338240E+01
Ga    8.0243868617290186E+00    4.6527747675830788E+00    1.6402932497194463E+01
N    9.6238868020998822E+00    3.6499086360404078E+00    1.7360337620733507E+01
N    6.4442340208291995E+00    5.5679818017338141E+00   -4.9591365130638901E-02
Ga    6.4461609205451333E+00    7.4245062175437617E+00    6.2097384510005438E-01
N    6.4460790790659317E+00    7.4244512608864577E+00    2.5250513263156784E+00
Ga    6.4443338662167609E+00    5.5683638551439198E+00    3.2387111697004767E+00
N    6.4443361621582191E+00    5.5679891400514050E+00    5.1446407178833153E+00
Ga    6.4460726275057461E+00    7.4245577432536445E+00    5.8251401813076251E+00
N    6.4460673612722292E+00    7.4249707987301052E+00    7.7175247544489016E+00
Ga    6.4450056609774196E+00    5.5678619512989620E+00    8.3667707655726087E+00
N    6.4471202941080854E+00    5.5666929003530496E+00    1.0251681684064945E+01
Ga    6.4463964997012226E+00    7.4236453205989505E+00    1.0933891988589227E+01
N    6.4471017847262111E+00    7.4286297832075636E+00    1.2845665003758187E+01
Ga    6.4423677492477029E+00    5.5699092680583657E+00    1.3536493600314460E+01
N    6.4233106990593836E+00    5.5746441136144531E+00    1.5436659735855422E+01
Ga    6.4388054480704424E+00    7.4471925127359304E+00    1.6437144584483089E+01
N    8.0256370711945824E+00    6.4943801327027861E+00    1.7358936371078936E+01
N    4.8368224030923299E+00    8.3521208064726746E+00   -4.9621758150806314E-02
Ga    4.8387613983180033E+00    1.0208617646890428E+01    6.2092151825796127E-01
N    4.8386234183335048E+00    1.0208699234170089E+01    2.5250458660214061E+00
Ga    4.8368853816142741E+00    8.3523858313210884E+00    3.2386566801946972E+00
N    4.8368159922100817E+00    8.3521774810098766E+00    5.1445528467063300E+00
Ga    4.8385887516359372E+00    1.0208347291417526E+01    5.8249508336789404E+00
N    4.8388115632756454E+00    1.0208597502504572E+01    7.7175568288299576E+00
Ga    4.8362733045187154E+00    8.3517202478779513E+00    8.3685361973782211E+00
N    4.8361932767402198E+00    8.3509274962120994E+00    1.0252810980310015E+01
Ga    4.8398590413442424E+00    1.0206159306297161E+01    1.0927869399837334E+01
N    4.8414093997218730E+00    1.0204097212453274E+01    1.2844916999480413E+01
Ga    4.8411197316135510E+00    8.3502037904623290E+00    1.3547627574356348E+01
N    4.8195582512821371E+00    8.3622888657271250E+00    1.5458115557790673E+01
Ga    4.8265292315607988E+00    1.0217473033435795E+01    1.6411904890665966E+01
N    6.4249650323773242E+00    9.2831141727743525E+00    1.7364408581546716E+01
H   -7.9896366252808438E-06   -6.3579230926251858E-05   -1.0756648404397553E+00
H   -1.6074408436107448E+00    2.7840655142005653E+00   -1.0756087489109403E+00
H   -3.2148384959999206E+00    5.5681804438718414E+00   -1.0756225738806695E+00
H   -4.8222649021299313E+00    8.3522898556476495E+00   -1.0756075547383852E+00
H    3.2196942637617769E+00   -6.6394162537706007E-05   -1.0756489779770113E+00
H    1.6122957442622150E+00    2.7840632399228991E+00   -1.0756112642469231E+00
H    4.8681585397264918E-03    5.5681613869452669E+00   -1.0755963180151080E+00
H   -1.6025572015858547E+00    8.3522921183100518E+00   -1.0756144207571157E+00
H    6.4394018346130979E+00   -6.9713864785655820E-05   -1.0756565286944433E+00
H    4.8319986832103377E+00    2.7840637891432904E+00   -1.0756209243444099E+00
H    3.2245746415418219E+00    5.5681464302886416E+00   -1.0756345798136113E+00
H    1.6171519700846617E+00    8.3522976550876287E+00   -1.0756484393511909E+00
H    9.6591209169181926E+00   -5.6971605160222735E-05   -1.0756465953099965E+00
H    8.0517265928422237E+00    2.7840465376314931E+00   -1.0756151193956469E+00
H    6.4442856707883465E+00    5.5681677050364309E+00   -1.0756076633376512E+00
H    4.8369011683369436E+00    8.3522839680882104E+00   -1.0756330087674726E+00
     &END COORD
     &KIND H
       BASIS_SET DZVP-MOLOPT-SR-GTH-q1
       POTENTIAL GTH-PBE-q1
       &POTENTIAL
 1
  0.2000000000000000E+00 2 -0.4178900440000000E+01  0.7244633100000000E+00
 0
         # Potential name:  GTH-PBE-Q1  for symbol:  H
         # Potential read from the potential filename: GTH_POTENTIALS
       &END POTENTIAL
     &END KIND
     &KIND N
       BASIS_SET DZVP-MOLOPT-SR-GTH
       POTENTIAL GTH-PBE-q5
       &POTENTIAL
 2 3
  0.2837905100000000E+00 2 -0.1241522559000000E+02  0.1868095920000000E+01
 2
  0.2554050000000000E+00 1  0.1363026257000000E+02
  0.2454945300000000E+00 0
         # Potential name:  GTH-PBE-Q5  for symbol:  N
         # Potential read from the potential filename: GTH_POTENTIALS
       &END POTENTIAL
     &END KIND
     &KIND Ga
       BASIS_SET DZVP-MOLOPT-SR-GTH
       POTENTIAL GTH-PBE-q13
       &POTENTIAL
 2 1 10
  0.4900000000000000E+00 0
 3
  0.4167772300000000E+00 3  0.1047568975000000E+02 -0.4921768140000000E+01  0.8707055900000000E+00
  0.7770178090000000E+01 -0.2248152160000000E+01
  0.1784415450000000E+01
  0.5696265200000000E+00 2  0.1777985340000000E+01  0.1958597600000000E+00
 -0.2317443900000000E+00
  0.2381265000000000E+00 1 -0.1624868022000000E+02
         # Potential name:  GTH-PBE-Q13  for symbol:  GA
         # Potential read from the potential filename: GTH_POTENTIALS
       &END POTENTIAL
     &END KIND
     &TOPOLOGY
       NUMBER_OF_ATOMS  256
       MULTIPLE_UNIT_CELL  1 1 1
     &END TOPOLOGY
   &END SUBSYS
 &END FORCE_EVAL
