 # Version information for this restart file 
 # current date 2019-06-09 07:20:31.234
 # current working dir /lustre03/project/6037349/rzk/GaN-carbene/444-addat/00-Surface/UKS_SYMM
 # Program compiled at                              Sun Apr  7 00:48:11 EDT 2019
 # Program compiled on                          beluga2.int.ets1.calculquebec.ca
 # Program compiled for                        Beluga-Linux-x86-64-intel-openmpi
 # Source code revision number                                         svn:18619
 &GLOBAL
   PRINT_LEVEL  MEDIUM
   PROJECT_NAME TEST
   RUN_TYPE  CELL_OPT
 &END GLOBAL
 &MOTION
   &CELL_OPT
     MAX_ITER  300
     STEP_START_VAL  44
     EXTERNAL_PRESSURE     1.0000000000000000E+00
     KEEP_ANGLES  T
     KEEP_SYMMETRY  T
     CONSTRAINT  Z
     PRESSURE_TOLERANCE     5.0000000000000000E+02
   &END CELL_OPT
 &END MOTION
 &FORCE_EVAL
   METHOD  QS
   STRESS_TENSOR  ANALYTICAL
   &DFT
     BASIS_SET_FILE_NAME BASIS_MOLOPT
     POTENTIAL_FILE_NAME GTH_POTENTIALS
     UKS  T
     SURFACE_DIPOLE_CORRECTION  T
     SURF_DIP_DIR  Z
     &SCF
       MAX_SCF  100
       EPS_SCF     5.0000000000000004E-06
       &OT  T
         PRECONDITIONER  FULL_ALL
       &END OT
       &OUTER_SCF  T
         OPTIMIZER  NONE
         EPS_SCF     5.0000000000000004E-06
         MAX_SCF  4
       &END OUTER_SCF
       &PRINT
         &RESTART  OFF
           BACKUP_COPIES  1
           &EACH
             JUST_ENERGY  0
             QS_SCF  0
             MD  20
           &END EACH
         &END RESTART
       &END PRINT
     &END SCF
     &QS
       EPS_DEFAULT     1.0000000000000000E-14
       METHOD  GPW
     &END QS
     &MGRID
       NGRIDS  5
       CUTOFF     1.2000000000000000E+03
     &END MGRID
     &XC
       DENSITY_CUTOFF     1.0000000000000000E-10
       GRADIENT_CUTOFF     1.0000000000000000E-10
       TAU_CUTOFF     1.0000000000000000E-10
       &XC_FUNCTIONAL  NO_SHORTCUT
         &PBE  T
         &END PBE
       &END XC_FUNCTIONAL
       &VDW_POTENTIAL
         POTENTIAL_TYPE  PAIR_POTENTIAL
         &PAIR_POTENTIAL
           R_CUTOFF     1.0000000000000004E+01
           TYPE  DFTD3
           PARAMETER_FILE_NAME dftd3.dat
           REFERENCE_FUNCTIONAL PBE
           EPS_CN     9.9999999999999995E-07
           CALCULATE_C9_TERM  T
           REFERENCE_C9_TERM  T
           LONG_RANGE_CORRECTION  F
           VERBOSE_OUTPUT  F
         &END PAIR_POTENTIAL
       &END VDW_POTENTIAL
     &END XC
   &END DFT
   &SUBSYS
     &CELL
       A     1.2833372074841520E+01    0.0000000000000000E+00    0.0000000000000000E+00
       B    -6.4151178186733686E+00    1.1111309998482762E+01    0.0000000000000000E+00
       C     0.0000000000000000E+00    0.0000000000000000E+00    3.2000000000000000E+01
       MULTIPLE_UNIT_CELL  1 1 1
       &CELL_REF
         A     1.2982353780853531E+01    0.0000000000000000E+00    0.0000000000000000E+00
         B    -6.4911768904267628E+00    1.1243048175136114E+01    0.0000000000000000E+00
         C     0.0000000000000000E+00    0.0000000000000000E+00    3.2000000000000000E+01
         MULTIPLE_UNIT_CELL  1 1 1
       &END CELL_REF
     &END CELL
     &COORD
N    3.8367839140461421E-04   -1.8369433824946252E-04   -2.0899707355700825E-01
Ga    6.6592140784785855E-04    1.8517718264178569E+00    4.7254557145889459E-01
N    7.2282187627388690E-04    1.8520270655095956E+00    2.3898683022573657E+00
Ga    5.0302502319133681E-04    4.4657694138253742E-05    3.1185702394100261E+00
N    7.5061643928735807E-04    1.9591230636027511E-04    5.0397347394632153E+00
Ga    1.1078122487644196E-03    1.8522151594448359E+00    5.7563649202638327E+00
N    1.6057018055282840E-03    1.8535345813945683E+00    7.6795646812563891E+00
Ga    1.3042409341241150E-03    2.1297060845067578E-03    8.3936652712620159E+00
N    1.5221148696667837E-03    4.6910678580717145E-03    1.0317389319558016E+01
Ga    3.0013216029523043E-03    1.8569492926881515E+00    1.1031245284174943E+01
N    3.8331877876768101E-03    1.8599281275069726E+00    1.2957780424868060E+01
Ga    1.5586840837593890E-03    5.7560221174656140E-03    1.3670891103147735E+01
N   -6.5826186967137545E-03    1.7926753672295509E-03    1.5588432714769903E+01
Ga   -1.8539046998863689E-03    1.8501229940868362E+00    1.6653226745949915E+01
N    1.5953404798973869E+00    9.1849260663751497E-01    1.7529660701460404E+01
N   -1.6034440194658335E+00    2.7776738723180978E+00   -2.0886147097299371E-01
Ga   -1.6030715540132874E+00    4.6296247768567786E+00    4.7265380466389850E-01
N   -1.6029528434984250E+00    4.6299085291680759E+00    2.3899883243002602E+00
Ga   -1.6033248824584048E+00    2.7779711159029028E+00    3.1188584994794093E+00
N   -1.6030827164509729E+00    2.7782455769899412E+00    5.0400828070207435E+00
Ga   -1.6025864248996977E+00    4.6303258113397083E+00    5.7568808756911345E+00
N   -1.6021065349947123E+00    4.6318881252595512E+00    7.6801904927698743E+00
Ga   -1.6019112548413070E+00    2.7800658964755551E+00    8.3937026277067872E+00
N   -1.6008162406012607E+00    2.7825332118649468E+00    1.0317662940947178E+01
Ga   -1.6016511079312783E+00    4.6343383030327860E+00    1.1031583486277928E+01
N   -1.6020569957243906E+00    4.6354566393109700E+00    1.2957675690096620E+01
Ga   -1.6017008366599312E+00    2.7830326320699399E+00    1.3677839319444514E+01
N   -1.5943965773750610E+00    2.7852934391259447E+00    1.5602229636369000E+01
Ga   -1.6043925918126754E+00    4.6278588725766205E+00    1.6607697867196894E+01
N   -1.7749128710448508E-02    3.7054081236375187E+00    1.7532013153176166E+01
N   -3.2071866870994898E+00    5.5554687030230472E+00   -2.0881617515093195E-01
Ga   -3.2067965090734165E+00    7.4074162692550019E+00    4.7268223678087445E-01
N   -3.2066361191533175E+00    7.4077188804556249E+00    2.3900010272167007E+00
Ga   -3.2069570071918791E+00    5.5558355399776636E+00    3.1189677142403616E+00
N   -3.2066557968153564E+00    5.5562165993693071E+00    5.0401614511872523E+00
Ga   -3.2061925079420641E+00    7.4082331665675385E+00    5.7569429931449783E+00
N   -3.2056611703932085E+00    7.4097118710736165E+00    7.6802344364937767E+00
Ga   -3.2061187562552762E+00    5.5579840442942015E+00    8.3943921182832035E+00
N   -3.2056866745969370E+00    5.5599389223592208E+00    1.0318494668875353E+01
Ga   -3.2053632926028959E+00    7.4119714363119584E+00    1.1031455755153500E+01
N   -3.2049121896695869E+00    7.4149234549428389E+00    1.2957197585993839E+01
Ga   -3.2061058713659660E+00    5.5644831289660663E+00    1.3679980235846939E+01
N   -3.2086449128130594E+00    5.5433566335665594E+00    1.5599822897221207E+01
Ga   -3.2306311129490295E+00    7.4055724935172007E+00    1.6635352577219159E+01
N   -1.6236992434801432E+00    6.4722595043358560E+00    1.7522017803866660E+01
N   -4.8109075677797062E+00    8.3332223816389988E+00   -2.0888005185794942E-01
Ga   -4.8106091156289423E+00    1.0185222566666685E+01    4.7245249924600952E-01
N   -4.8104910787851525E+00    1.0185480153317823E+01    2.3898028057006884E+00
Ga   -4.8107152800432091E+00    8.3335778544766868E+00    3.1187833065519550E+00
N   -4.8103614343634078E+00    8.3338435937651774E+00    5.0399267817381332E+00
Ga   -4.8101260319718824E+00    1.0185888967792287E+01    5.7565466451974734E+00
N   -4.8096807459416313E+00    1.0187253205973345E+01    7.6799743541514598E+00
Ga   -4.8099508043222441E+00    8.3353859007076920E+00    8.3937646286947185E+00
N   -4.8095747586187949E+00    8.3367407577082489E+00    1.0317432532700336E+01
Ga   -4.8094945153576507E+00    1.0189184814856743E+01    1.1027834637189597E+01
N   -4.8106389961711180E+00    1.0191492760365984E+01    1.2950841900492264E+01
Ga   -4.8097200435891283E+00    8.3426039783564097E+00    1.3675993694354011E+01
N   -4.8160783589799774E+00    8.3424710536604234E+00    1.5593989010502620E+01
Ga   -4.8225579352631867E+00    1.0192706740996289E+01    1.6616145367014184E+01
N   -3.2300224495285530E+00    9.2516780426885905E+00    1.7515594782203177E+01
N    3.2087631452849914E+00   -2.1893847267924856E-04   -2.0891180571275877E-01
Ga    3.2090904138312797E+00    1.8517610253422356E+00    4.7249832240528916E-01
N    3.2092006478170600E+00    1.8520244491307507E+00    2.3898358071625627E+00
Ga    3.2089509835276471E+00    8.2474694226384885E-05    3.1187494865303496E+00
N    3.2093401476250163E+00    2.3408893944068337E-04    5.0399491597202717E+00
Ga    3.2095910873667242E+00    1.8522809506675917E+00    5.7565198007710441E+00
N    3.2101206193396981E+00    1.8535073399915327E+00    7.6797283368723175E+00
Ga    3.2099486310658207E+00    2.0142915463379654E-03    8.3939441434747302E+00
N    3.2104587793053745E+00    3.9073047495891342E-03    1.0317705381301726E+01
Ga    3.2102129180469543E+00    1.8560879670444714E+00    1.1031393015141584E+01
N    3.2108018877959106E+00    1.8585382961892665E+00    1.2956596178240135E+01
Ga    3.2077130230176700E+00    6.1315152881471968E-03    1.3672351289602670E+01
N    3.1945484325365263E+00   -7.2817015323228184E-03    1.5590278503145457E+01
Ga    3.2076954022954571E+00    1.8573489392073264E+00    1.6660187567493494E+01
N    4.7890665091171041E+00    9.0722709318496186E-01    1.7520596735533626E+01
N    1.6049229146544663E+00    2.7776042805898733E+00   -2.0888354375730347E-01
Ga    1.6052089480089213E+00    4.6296009643175164E+00    4.7247497315704212E-01
N    1.6052566441379319E+00    4.6298548870711294E+00    2.3898107286581594E+00
Ga    1.6050848414341503E+00    2.7779151659039316E+00    3.1186714017605444E+00
N    1.6053561842038606E+00    2.7780456338287465E+00    5.0398135531742243E+00
Ga    1.6056727544578968E+00    4.6300755345084950E+00    5.7565672404040447E+00
N    1.6059912729575283E+00    4.6312521337578776E+00    7.6798203046476727E+00
Ga    1.6060653746857434E+00    2.7792954340529414E+00    8.3934465908184190E+00
N    1.6067370205901725E+00    2.7812713540175706E+00    1.0317168576568282E+01
Ga    1.6074083505359609E+00    4.6328703781061327E+00    1.1030024485113374E+01
N    1.6072591096584481E+00    4.6339480222801770E+00    1.2954587995013846E+01
Ga    1.6092539374032684E+00    2.7839687867385852E+00    1.3682178155296485E+01
N    1.5991992140327949E+00    2.7814914845438086E+00    1.5605399564157260E+01
Ga    1.5906603937000228E+00    4.6322839078189064E+00    1.6619198567328457E+01
N    3.1900283036956276E+00    3.7138664286954102E+00    1.7523635365341995E+01
N    1.0959654763477015E-03    5.5554929034105314E+00   -2.0891327837200227E-01
Ga    1.4702085496385228E-03    7.4074324018794098E+00    4.7266547419956217E-01
N    1.5921415058230213E-03    7.4077344662941753E+00    2.3900293094471712E+00
Ga    1.3194009268679473E-03    5.5558043522918403E+00    3.1189539374546813E+00
N    1.5895592268288647E-03    5.5561686793935836E+00    5.0401160636660665E+00
Ga    2.0803612673994682E-03    7.4082922654214318E+00    5.7566561383301842E+00
N    2.6500938500279027E-03    7.4097357885610462E+00    7.6800508585708505E+00
Ga    2.3637083213564809E-03    5.5578912404758576E+00    8.3940537218213809E+00
N    2.9058235425916488E-03    5.5599910731057873E+00    1.0318252754106872E+01
Ga    3.7234903813924470E-03    7.4128561915833773E+00    1.1029237645307463E+01
N    4.1337137477045110E-03    7.4151018813082699E+00    1.2954473916727808E+01
Ga    4.7233694281486830E-03    5.5635062300765235E+00    1.3670022464250733E+01
N   -1.6859852438466029E-03    5.5515283154617432E+00    1.5586162258256328E+01
Ga   -1.0708611023333477E-02    7.3884221693518288E+00    1.6624970507524235E+01
N    1.5906088750658229E+00    6.4752460587643448E+00    1.7529481057803103E+01
N   -1.6026300369073627E+00    8.3332930290377103E+00   -2.0884231315759369E-01
Ga   -1.6022423589951975E+00    1.0185250864999675E+01    4.7259110963301021E-01
N   -1.6020780878239893E+00    1.0185543799231151E+01    2.3899131106222011E+00
Ga   -1.6024148719034637E+00    8.3337077206744627E+00    3.1189768552182855E+00
N   -1.6020853617842041E+00    8.3341042787323758E+00    5.0401756513330822E+00
Ga   -1.6015310835470677E+00    1.0186081764916835E+01    5.7570855225203657E+00
N   -1.6008914759587247E+00    1.0187523095965467E+01    7.6804179571092615E+00
Ga   -1.6013462930628310E+00    8.3358049951837661E+00    8.3941036020382036E+00
N   -1.6011205087131986E+00    8.3377969590643577E+00    1.0318171634217009E+01
Ga   -1.6005344648394715E+00    1.0190019089616003E+01    1.1031296658880159E+01
N   -1.5999176303377218E+00    1.0192465135063795E+01    1.2956893700333183E+01
Ga   -1.5990217980084998E+00    8.3409845291644267E+00    1.3676375393087721E+01
N   -1.6148401325329731E+00    8.3330935420236187E+00    1.5597701838457683E+01
Ga   -1.6194708983863164E+00    1.0187716190185679E+01    1.6629837729431763E+01
N   -2.4570291401429096E-02    9.2192506095135744E+00    1.7511423543257518E+01
N    6.4170492474730052E+00   -1.4335454593720020E-04   -2.0883857167994796E-01
Ga    6.4174553051925933E+00    1.8518077305154772E+00    4.7270828362046158E-01
N    6.4176302607621087E+00    1.8521071650271224E+00    2.3900438476607855E+00
Ga    6.4172925961537981E+00    1.9436189212907641E-04    3.1188886049011186E+00
N    6.4176224840374063E+00    5.1870628025665238E-04    5.0401290032114856E+00
Ga    6.4179428124688975E+00    1.8524508645984374E+00    5.7570938805082568E+00
N    6.4184730867422521E+00    1.8539635040189473E+00    7.6804453753022113E+00
Ga    6.4183381403765614E+00    2.5090956325168729E-03    8.3947956879507064E+00
N    6.4187779284569899E+00    4.5145771103150137E-03    1.0318787846021291E+01
Ga    6.4188161979747145E+00    1.8568473519370319E+00    1.1031636808067384E+01
N    6.4195811901536626E+00    1.8598083648384149E+00    1.2957494163273866E+01
Ga    6.4188855838714840E+00    9.6077814916627306E-03    1.3680117218461945E+01
N    6.4148539284211594E+00   -9.7790409627032445E-03    1.5600543706272376E+01
Ga    6.3945770867935732E+00    1.8490438251589008E+00    1.6636532375666480E+01
N    8.0013733966860698E+00    9.1557394020771843E-01    1.7522713387040760E+01
N    4.8133317621349043E+00    2.7775869853918862E+00   -2.0890653432760328E-01
Ga    4.8136478004019745E+00    4.6295585766467040E+00    4.7250578692500361E-01
N    4.8137548956845837E+00    4.6298102217949371E+00    2.3898427857660374E+00
Ga    4.8135063797341990E+00    2.7779134495702089E+00    3.1188368038219756E+00
N    4.8138305259002232E+00    2.7780837610645674E+00    5.0400025410048270E+00
Ga    4.8140429763465526E+00    4.6300845986419743E+00    5.7567543273526400E+00
N    4.8145283722094794E+00    4.6313647912471954E+00    7.6800754367416459E+00
Ga    4.8141617383219737E+00    2.7794771748138989E+00    8.3941675699346945E+00
N    4.8144236637396665E+00    2.7812157567939311E+00    1.0317807523202998E+01
Ga    4.8146708867622277E+00    4.6339705648315066E+00    1.1028130486290616E+01
N    4.8138319500383444E+00    4.6360213093968419E+00    1.2951028063314176E+01
Ga    4.8146358861844529E+00    2.7872360844992023E+00    1.3677213211207564E+01
N    4.8096218764074425E+00    2.7867914732891497E+00    1.5595376242355451E+01
Ga    4.8037365784987980E+00    4.6352134562763538E+00    1.6616143454756784E+01
N    6.3975670469945953E+00    3.6939819395609987E+00    1.7517732718599440E+01
N    3.2094925115201809E+00    5.5554258289914857E+00   -2.0892333952250833E-01
Ga    3.2097718718342101E+00    7.4074021852248428E+00    4.7252690864773095E-01
N    3.2098236901920347E+00    7.4076748185259147E+00    2.3898412409042442E+00
Ga    3.2096240629636199E+00    5.5556815102138577E+00    3.1186370154707292E+00
N    3.2098809197122136E+00    5.5559244698566843E+00    5.0398183514956649E+00
Ga    3.2102108227029507E+00    7.4080718272627522E+00    5.7562648316069200E+00
N    3.2106168342763985E+00    7.4095316837283836E+00    7.6794082097233902E+00
Ga    3.2102481413922157E+00    5.5578065756439310E+00    8.3931504432361006E+00
N    3.2105558264881022E+00    5.5603044369438077E+00    1.0316855065888834E+01
Ga    3.2121779800754009E+00    7.4122166606341509E+00    1.1030865978100568E+01
N    3.2131998414348937E+00    7.4153237059628125E+00    1.2957335862919182E+01
Ga    3.2113518982029730E+00    5.5616360805832752E+00    1.3671837740768790E+01
N    3.2024070907684208E+00    5.5570136372544150E+00    1.5588964753589522E+01
Ga    3.2075958524837254E+00    7.4042762327579199E+00    1.6652560157125965E+01
N    4.8058870535359679E+00    6.4717649213912782E+00    1.7527849305167553E+01
N    1.6056661784002375E+00    8.3333097187518934E+00   -2.0886124723298999E-01
Ga    1.6060448276576373E+00    1.0185286912334279E+01    4.7257532401192326E-01
N    1.6061813768569209E+00    1.0185609433350550E+01    2.3899038569849407E+00
Ga    1.6058829406066857E+00    8.3337532763573563E+00    3.1188393758180806E+00
N    1.6061581571191419E+00    8.3342239495500952E+00    5.0399974781722578E+00
Ga    1.6065417101358108E+00    1.0186178508348169E+01    5.7570427778682074E+00
N    1.6069810638119717E+00    1.0187668419036406E+01    7.6803790173691020E+00
Ga    1.6070911253668732E+00    8.3358469425715427E+00    8.3937691321399566E+00
N    1.6080852193089481E+00    8.3379661052158056E+00    1.0317687269694927E+01
Ga    1.6075356057239381E+00    1.0189749794131897E+01    1.1031340362468390E+01
N    1.6070512904729113E+00    1.0190775504915470E+01    1.2957416350131302E+01
Ga    1.6074310507198477E+00    8.3382604794648465E+00    1.3677376181231796E+01
N    1.6134783030203079E+00    8.3413024530903499E+00    1.5601343709434856E+01
Ga    1.6038679595388188E+00    1.0182080291658172E+01    1.6607421509180678E+01
N    3.1920819092549420E+00    9.2588573470941622E+00    1.7530579994655113E+01
N    9.6253348512966763E+00   -1.3281327212213075E-04   -2.0893365061788707E-01
Ga    9.6256924390831848E+00    1.8518187753695454E+00    4.7258725724390033E-01
N    9.6257731851222239E+00    1.8521053662308273E+00    2.3899409003896896E+00
Ga    9.6255431520645267E+00    2.3806818432357089E-04    3.1188785882158423E+00
N    9.6257634307070035E+00    5.8864188232667970E-04    5.0401239357998531E+00
Ga    9.6261895906844686E+00    1.8525127850146010E+00    5.7571845136223905E+00
N    9.6265654238097049E+00    1.8541403249209056E+00    7.6805889252675694E+00
Ga    9.6264668235505670E+00    2.3008927847059193E-03    8.3941274089584397E+00
N    9.6270454270500903E+00    4.3372115807595252E-03    1.0318165776362360E+01
Ga    9.6282607894691807E+00    1.8574051125446138E+00    1.1029274827810008E+01
N    9.6290229559274589E+00    1.8589263802492091E+00    1.2954510807010422E+01
Ga    9.6291816874601341E+00    7.0186783098967189E-03    1.3669462772608002E+01
N    9.6221298164198465E+00   -4.6658043337672091E-03    1.5585904178544029E+01
Ga    9.6144432572842486E+00    1.8308026299289533E+00    1.6624858687048931E+01
N    1.1216092684857220E+01    9.1724482536377427E-01    1.7529779001891903E+01
N    8.0216087976689820E+00    2.7776578590310317E+00   -2.0887813325088905E-01
Ga    8.0220038285706270E+00    4.6295643627531415E+00    4.7270920531520561E-01
N    8.0221573267314525E+00    4.6298327506354546E+00    2.3900678539083500E+00
Ga    8.0218661530590651E+00    2.7779826859538765E+00    3.1192132223268931E+00
N    8.0221212962231494E+00    2.7782625796074139E+00    5.0403896021834464E+00
Ga    8.0225513881567601E+00    4.6303563648416732E+00    5.7569040736835531E+00
N    8.0230298923233665E+00    4.6318406458413639E+00    7.6802124761792445E+00
Ga    8.0224999946008531E+00    2.7803845948208039E+00    8.3946511759493454E+00
N    8.0231378375424391E+00    2.7824331810833711E+00    1.0318532467594087E+01
Ga    8.0233574542127322E+00    4.6346475953878628E+00    1.1031680187945884E+01
N    8.0239647168047572E+00    4.6360511482488196E+00    1.2956997581987860E+01
Ga    8.0257980236449882E+00    2.7847415861507829E+00    1.3677028260138638E+01
N    8.0105398363418718E+00    2.7776553561254955E+00    1.5598476150824446E+01
Ga    8.0050477184007995E+00    4.6315617752162961E+00    1.6627482840022964E+01
N    9.6019668718460913E+00    3.6616971954330890E+00    1.7511277837639625E+01
N    6.4179014233326477E+00    5.5553933506307036E+00   -2.0890436628333500E-01
Ga    6.4182298271352254E+00    7.4073587835083883E+00    4.7253432573373672E-01
N    6.4183448453817862E+00    7.4076426449559865E+00    2.3898674459693203E+00
Ga    6.4180364948037827E+00    5.5557049214347529E+00    3.1188897735154968E+00
N    6.4182828497028650E+00    5.5559592486506499E+00    5.0400524985415212E+00
Ga    6.4186301396739385E+00    7.4081591249715668E+00    5.7563058049896867E+00
N    6.4191753828939717E+00    7.4095776087797942E+00    7.6794358966158187E+00
Ga    6.4189568026268242E+00    5.5579950297619263E+00    8.3936876451937188E+00
N    6.4195248911966285E+00    5.5599747720252317E+00    1.0317429539024660E+01
Ga    6.4195271959525568E+00    7.4119189639311323E+00    1.1030868403881557E+01
N    6.4201131072280795E+00    7.4139644916964365E+00    1.2955922134073102E+01
Ga    6.4170675992340440E+00    5.5617319929771627E+00    1.3672357445611429E+01
N    6.4039711616899853E+00    5.5469234106044150E+00    1.5589572443971306E+01
Ga    6.4178739711096489E+00    7.4108106560970111E+00    1.6657856667564953E+01
N    7.9996568064562892E+00    6.4607399869991378E+00    1.7518440543907314E+01
N    4.8140581156916760E+00    8.3332271310468204E+00   -2.0886619376734444E-01
Ga    4.8143545901477882E+00    1.0185283372107889E+01    4.7237320428720936E-01
N    4.8143906718362688E+00    1.0185579347346717E+01    2.3897246006816264E+00
Ga    4.8141880825318717E+00    8.3336193791701003E+00    3.1185324915360004E+00
N    4.8144068744824171E+00    8.3339415205616092E+00    5.0396874395484135E+00
Ga    4.8147379009354960E+00    1.0185921954297113E+01    5.7565938181148146E+00
N    4.8151706668061180E+00    1.0187333088995464E+01    7.6799159413704787E+00
Ga    4.8150913400594995E+00    8.3352716272026797E+00    8.3930370491063648E+00
N    4.8159161645869313E+00    8.3368303568731186E+00    1.0316710606317091E+01
Ga    4.8162944112559618E+00    1.0188330080641970E+01    1.1028882433697438E+01
N    4.8163371859453852E+00    1.0188992378567104E+01    1.2953483280556418E+01
Ga    4.8186273901953038E+00    8.3393599925029296E+00    1.3680986685079425E+01
N    4.8087724282109390E+00    8.3372858934173610E+00    1.5604126898743138E+01
Ga    4.7996714675711791E+00    1.0186053237730397E+01    1.6618265458793559E+01
N    6.3985491228220583E+00    9.2675732255515850E+00    1.7522414435285633E+01
H    3.1373072615077028E-04   -1.3880788212765257E-04   -1.2363835767962150E+00
H   -1.6035433462217559E+00    2.7777155045756023E+00   -1.2362481426568395E+00
H   -3.2072658497669924E+00    5.5554582397239365E+00   -1.2362076705854039E+00
H   -4.8109412150446804E+00    8.3330840248866274E+00   -1.2362648855128762E+00
H    3.2087842526498451E+00   -2.5408125328009641E-04   -1.2362958694472990E+00
H    1.6048434017835869E+00    2.7775359860255744E+00   -1.2362668726014634E+00
H    9.0886606314166966E-04    5.5554611052868701E+00   -1.2362994404039040E+00
H   -1.6027860849499735E+00    8.3332948784028247E+00   -1.2362279947113366E+00
H    6.4169079779512099E+00   -1.5396418728005743E-04   -1.2362229823045459E+00
H    4.8132866615297409E+00    2.7775111637829877E+00   -1.2362906378486929E+00
H    3.2094252153547531E+00    5.5554531335680810E+00   -1.2363111882389279E+00
H    1.6055905202355527E+00    8.3332862015726494E+00   -1.2362454833273586E+00
H    9.6251461519951622E+00   -1.2370721507710670E-04   -1.2363147722271290E+00
H    8.0214674937721391E+00    2.7776504495067784E+00   -1.2362637941899024E+00
H    6.4178626576716846E+00    5.5553560962750250E+00   -1.2362971043835920E+00
H    4.8139540356389707E+00    8.3330773366175848E+00   -1.2362508056650294E+00
     &END COORD
     &KIND H
       BASIS_SET DZVP-MOLOPT-SR-GTH-q1
       POTENTIAL GTH-PBE-q1
       &POTENTIAL
 1
  0.2000000000000000E+00 2 -0.4178900440000000E+01  0.7244633100000000E+00
 0
         # Potential name:  GTH-PBE-Q1  for symbol:  H
         # Potential read from the potential filename: GTH_POTENTIALS
       &END POTENTIAL
     &END KIND
     &KIND N
       BASIS_SET DZVP-MOLOPT-SR-GTH
       POTENTIAL GTH-PBE-q5
       &POTENTIAL
 2 3
  0.2837905100000000E+00 2 -0.1241522559000000E+02  0.1868095920000000E+01
 2
  0.2554050000000000E+00 1  0.1363026257000000E+02
  0.2454945300000000E+00 0
         # Potential name:  GTH-PBE-Q5  for symbol:  N
         # Potential read from the potential filename: GTH_POTENTIALS
       &END POTENTIAL
     &END KIND
     &KIND Ga
       BASIS_SET DZVP-MOLOPT-SR-GTH
       POTENTIAL GTH-PBE-q13
       &POTENTIAL
 2 1 10
  0.4900000000000000E+00 0
 3
  0.4167772300000000E+00 3  0.1047568975000000E+02 -0.4921768140000000E+01  0.8707055900000000E+00
  0.7770178090000000E+01 -0.2248152160000000E+01
  0.1784415450000000E+01
  0.5696265200000000E+00 2  0.1777985340000000E+01  0.1958597600000000E+00
 -0.2317443900000000E+00
  0.2381265000000000E+00 1 -0.1624868022000000E+02
         # Potential name:  GTH-PBE-Q13  for symbol:  GA
         # Potential read from the potential filename: GTH_POTENTIALS
       &END POTENTIAL
     &END KIND
     &TOPOLOGY
       NUMBER_OF_ATOMS  256
       MULTIPLE_UNIT_CELL  1 1 1
     &END TOPOLOGY
   &END SUBSYS
 &END FORCE_EVAL
