 # Version information for this restart file 
 # current date 2019-06-09 04:53:22.922
 # current working dir /lustre03/project/6037349/rzk/GaN-carbene/444-addat/00-Surface/UKS_SYMM
 # Program compiled at                              Sun Apr  7 00:48:11 EDT 2019
 # Program compiled on                          beluga2.int.ets1.calculquebec.ca
 # Program compiled for                        Beluga-Linux-x86-64-intel-openmpi
 # Source code revision number                                         svn:18619
 &GLOBAL
   PRINT_LEVEL  MEDIUM
   PROJECT_NAME TEST
   RUN_TYPE  CELL_OPT
 &END GLOBAL
 &MOTION
   &CELL_OPT
     MAX_ITER  300
     STEP_START_VAL  17
     EXTERNAL_PRESSURE     1.0000000000000000E+00
     KEEP_ANGLES  T
     KEEP_SYMMETRY  T
     CONSTRAINT  Z
     PRESSURE_TOLERANCE     5.0000000000000000E+02
   &END CELL_OPT
 &END MOTION
 &FORCE_EVAL
   METHOD  QS
   STRESS_TENSOR  ANALYTICAL
   &DFT
     BASIS_SET_FILE_NAME BASIS_MOLOPT
     POTENTIAL_FILE_NAME GTH_POTENTIALS
     UKS  T
     SURFACE_DIPOLE_CORRECTION  T
     SURF_DIP_DIR  Z
     &SCF
       MAX_SCF  100
       EPS_SCF     5.0000000000000004E-06
       &OT  T
         PRECONDITIONER  FULL_ALL
       &END OT
       &OUTER_SCF  T
         OPTIMIZER  NONE
         EPS_SCF     5.0000000000000004E-06
         MAX_SCF  4
       &END OUTER_SCF
       &PRINT
         &RESTART  OFF
           BACKUP_COPIES  1
           &EACH
             JUST_ENERGY  0
             QS_SCF  0
             MD  20
           &END EACH
         &END RESTART
       &END PRINT
     &END SCF
     &QS
       EPS_DEFAULT     1.0000000000000000E-14
       METHOD  GPW
     &END QS
     &MGRID
       NGRIDS  5
       CUTOFF     1.2000000000000000E+03
     &END MGRID
     &XC
       DENSITY_CUTOFF     1.0000000000000000E-10
       GRADIENT_CUTOFF     1.0000000000000000E-10
       TAU_CUTOFF     1.0000000000000000E-10
       &XC_FUNCTIONAL  NO_SHORTCUT
         &PBE  T
         &END PBE
       &END XC_FUNCTIONAL
       &VDW_POTENTIAL
         POTENTIAL_TYPE  PAIR_POTENTIAL
         &PAIR_POTENTIAL
           R_CUTOFF     1.0000000000000004E+01
           TYPE  DFTD3
           PARAMETER_FILE_NAME dftd3.dat
           REFERENCE_FUNCTIONAL PBE
           EPS_CN     9.9999999999999995E-07
           CALCULATE_C9_TERM  T
           REFERENCE_C9_TERM  T
           LONG_RANGE_CORRECTION  F
           VERBOSE_OUTPUT  F
         &END PAIR_POTENTIAL
       &END VDW_POTENTIAL
     &END XC
   &END DFT
   &SUBSYS
     &CELL
       A     1.2874277084413391E+01    0.0000000000000000E+00    0.0000000000000000E+00
       B    -6.4360347103639475E+00    1.1147539117627224E+01    0.0000000000000000E+00
       C     0.0000000000000000E+00    0.0000000000000000E+00    3.2000000000000000E+01
       MULTIPLE_UNIT_CELL  1 1 1
       &CELL_REF
         A     1.2982353780853531E+01    0.0000000000000000E+00    0.0000000000000000E+00
         B    -6.4911768904267628E+00    1.1243048175136114E+01    0.0000000000000000E+00
         C     0.0000000000000000E+00    0.0000000000000000E+00    3.2000000000000000E+01
         MULTIPLE_UNIT_CELL  1 1 1
       &END CELL_REF
     &END CELL
     &COORD
N   -1.1721079317100367E-04   -5.8339017347911392E-04   -8.9627015375462749E-02
Ga    6.3972739517451918E-04    1.8583173614049417E+00    5.7581330546004938E-01
N    7.6556863788297788E-04    1.8588225041400177E+00    2.4939908996292508E+00
Ga   -1.7907673228621579E-04   -6.8653158514759996E-04    3.1869721333838927E+00
N   -3.4617506346920878E-04   -1.4217763340878238E-03    5.0891064576778167E+00
Ga    5.3300674970530048E-04    1.8582742069224809E+00    5.7510067868160704E+00
N    8.5858203179381963E-04    1.8593348716173703E+00    7.6536068722998642E+00
Ga   -3.8706383776861093E-04    4.2255618837859878E-04    8.3435768386865146E+00
N   -6.3081706380494450E-04    8.2127426063872294E-04    1.0271045698140073E+01
Ga    1.0130110200787129E-03    1.8606395572497509E+00    1.0975566782441868E+01
N    7.6959101096937843E-04    1.8653119517676631E+00    1.2897358823420818E+01
Ga   -2.7931924836416856E-03   -2.3147644693596917E-03    1.3587482619890967E+01
N   -7.7036344084187587E-05   -6.1157935032700615E-03    1.5503022849122754E+01
Ga    2.9197623697988862E-03    1.8697035683738106E+00    1.6565291833094999E+01
N    1.6088008692026294E+00    9.2446736087857140E-01    1.7456344372626610E+01
N   -1.6091421314835022E+00    2.7863248147595749E+00   -8.9574493994700882E-02
Ga   -1.6083567088386783E+00    4.6452636244578613E+00    5.7581851749596868E-01
N   -1.6081835970248333E+00    4.6457920985719534E+00    2.4940092895398425E+00
Ga   -1.6093819218876895E+00    2.7864447043905911E+00    3.1870082869626581E+00
N   -1.6097594479610660E+00    2.7862724638248246E+00    5.0891508678710453E+00
Ga   -1.6082387451298368E+00    4.6457153025339135E+00    5.7528554131854710E+00
N   -1.6080237918069624E+00    4.6467562408622127E+00    7.6562373564633051E+00
Ga   -1.6084362619791972E+00    2.7871848364634673E+00    8.3442728045338459E+00
N   -1.6082628463674937E+00    2.7877813048535058E+00    1.0271967682877690E+01
Ga   -1.6089809533792947E+00    4.6464011119838560E+00    1.0976827342377431E+01
N   -1.6090300763981171E+00    4.6489732382104840E+00    1.2895943015058876E+01
Ga   -1.6074823551781821E+00    2.7906012092152093E+00    1.3602957848960626E+01
N   -1.5951199751145386E+00    2.8003309200348685E+00    1.5531709872426539E+01
Ga   -1.5902084889890549E+00    4.6643604806496626E+00    1.6468377147727885E+01
N   -2.9505417777660425E-02    3.7514798443826058E+00    1.7462098325513814E+01
N   -3.2181422134136328E+00    5.5731770475637088E+00   -8.9622448197963750E-02
Ga   -3.2173838642715302E+00    7.4321472967043780E+00    5.7578694348687631E-01
N   -3.2172536588217628E+00    7.4326548297436936E+00    2.4939782714218324E+00
Ga   -3.2181319183507675E+00    5.5734438594308378E+00    3.1869448846091872E+00
N   -3.2181344269369174E+00    5.5733649500644242E+00    5.0889914999986141E+00
Ga   -3.2167088133514201E+00    7.4322959749947737E+00    5.7531903371783573E+00
N   -3.2161220897200975E+00    7.4328694625133478E+00    7.6560815508599811E+00
Ga   -3.2175898879235802E+00    5.5744847801514279E+00    8.3469497713764973E+00
N   -3.2178901815230159E+00    5.5753903185223876E+00    1.0275499542643839E+01
Ga   -3.2145237157868021E+00    7.4331451119908998E+00    1.0980017767020902E+01
N   -3.2122568504749571E+00    7.4411915701727098E+00    1.2903101320082545E+01
Ga   -3.2146975964404416E+00    5.5844401528350058E+00    1.3616802475444029E+01
N   -3.2148584135171370E+00    5.5577811483672601E+00    1.5536334226899031E+01
Ga   -3.2414142121309459E+00    7.4453784426848424E+00    1.6546058932935050E+01
N   -1.6282226897766134E+00    6.4940770795253631E+00    1.7453925078814905E+01
N   -4.8271654922385325E+00    8.3600659088238611E+00   -8.9582197062635704E-02
Ga   -4.8263536180637798E+00    1.0218992447416435E+01    5.7585175417876511E-01
N   -4.8261954921136700E+00    1.0219332728934786E+01    2.4940636279446240E+00
Ga   -4.8270707427053292E+00    8.3601236483755805E+00    3.1872757454239382E+00
N   -4.8270462469760478E+00    8.3596225233783823E+00    5.0895720540205334E+00
Ga   -4.8263210926377971E+00    1.0218877932113132E+01    5.7535426912404919E+00
N   -4.8257684411003563E+00    1.0218599558478914E+01    7.6564491285622056E+00
Ga   -4.8261132327737712E+00    8.3589147696938788E+00    8.3460047364754839E+00
N   -4.8253376287613570E+00    8.3568365668716957E+00    1.0274605700987379E+01
Ga   -4.8261430258788520E+00    1.0218409398804775E+01    1.0966341058948634E+01
N   -4.8261103703687205E+00    1.0221458916345744E+01    1.2880950067737260E+01
Ga   -4.8246514559257925E+00    8.3722505008496917E+00    1.3599758470274848E+01
N   -4.8265075828406028E+00    8.3716455989868521E+00    1.5515543877887861E+01
Ga   -4.8361225559834988E+00    1.0232347031164172E+01    1.6521373003563518E+01
N   -3.2341237718525768E+00    9.2907046134527178E+00    1.7436510981548214E+01
N    3.2184441001643549E+00   -5.7074854073353568E-04   -8.9667482143797730E-02
Ga    3.2192121887153311E+00    1.8582775384883741E+00    5.7570723039696481E-01
N    3.2193935205644921E+00    1.8587688798230193E+00    2.4939810219014991E+00
Ga    3.2184288118299533E+00   -6.4227321310299029E-04    3.1872897613710465E+00
N    3.2185290661203170E+00   -1.2305673508221325E-03    5.0894669733589097E+00
Ga    3.2192594698174775E+00    1.8580914360973644E+00    5.7522148673912614E+00
N    3.2197438384208512E+00    1.8587068443122328E+00    7.6553437384342802E+00
Ga    3.2195298136841042E+00   -3.7404295499950346E-04    8.3444691640257265E+00
N    3.2201115125558619E+00    5.4541183176979224E-04    1.0272746725745272E+01
Ga    3.2183985938221125E+00    1.8590682601819910E+00    1.0970097584935147E+01
N    3.2179305598673480E+00    1.8663194397135485E+00    1.2894223809057614E+01
Ga    3.2136118479551383E+00    3.5039675493229129E-03    1.3583400841745007E+01
N    3.2007271020413137E+00   -1.0871927285163769E-02    1.5499871872161592E+01
Ga    3.2183842392002200E+00    1.8783739357667273E+00    1.6568894097015015E+01
N    4.7865058292344385E+00    9.0183802018896209E-01    1.7435349621617014E+01
N    1.6094589258741654E+00    2.7863138830929675E+00   -8.9618858996223696E-02
Ga    1.6101548300080348E+00    4.6452396296587466E+00    5.7581668541130215E-01
N    1.6102348553233188E+00    4.6457487942468427E+00    2.4940046718663216E+00
Ga    1.6094110005501667E+00    2.7864682740457130E+00    3.1870942722755022E+00
N    1.6095870961665515E+00    2.7863929883168854E+00    5.0891931975482265E+00
Ga    1.6096436838996560E+00    4.6454325276779125E+00    5.7528678431750677E+00
N    1.6098051249786800E+00    4.6459779965168275E+00    7.6560584063705646E+00
Ga    1.6095158536556098E+00    2.7860368445037467E+00    8.3435631304328552E+00
N    1.6104755467535186E+00    2.7864282692527138E+00    1.0271681928779351E+01
Ga    1.6121190013468685E+00    4.6429434276926704E+00    1.0967389209331529E+01
N    1.6156343331563061E+00    4.6414693731775936E+00    1.2890778373476413E+01
Ga    1.6097461310414389E+00    2.7850453131359107E+00    1.3611133993147824E+01
N    1.5974393250707728E+00    2.7862674115355697E+00    1.5535500835171023E+01
Ga    1.6027743333882736E+00    4.6585087523841917E+00    1.6513615612531673E+01
N    3.1986812866800234E+00    3.7401170504976489E+00    1.7449315355963808E+01
N    4.2062452962350128E-04    5.5732156604059888E+00   -8.9508154529590822E-02
Ga    1.1914911707331095E-03    7.4321177361162762E+00    5.7588145880040043E-01
N    1.3720238463769520E-03    7.4325873993735279E+00    2.4940114664602544E+00
Ga    3.2658900429984408E-04    5.5734663411952754E+00    3.1874623361131893E+00
N    3.9606956035058091E-04    5.5735542100236248E+00    5.0896154818566011E+00
Ga    1.0346594834138609E-03    7.4323675975151726E+00    5.7548046368409880E+00
N    1.5107890702980428E-03    7.4332822976452464E+00    7.6580592059175183E+00
Ga    3.5882086936283610E-04    5.5742795238856013E+00    8.3471587333959310E+00
N    2.3950245449435702E-03    5.5748178249069928E+00    1.0277309254847429E+01
Ga    2.6795656707991381E-03    7.4365678321813284E+00    1.0973513184104339E+01
N    6.3399250311311330E-03    7.4410789776661863E+00    1.2891056189501800E+01
Ga    7.6302938465227371E-03    5.5812857178107240E+00    1.3572443233576456E+01
N    1.5019524126162037E-02    5.5755053458291632E+00    1.5492858327484351E+01
Ga    3.0006233123944996E-03    7.3957184226135881E+00    1.6503057036676140E+01
N    1.6009976954040268E+00    6.4945247189954136E+00    1.7463588890789094E+01
N   -1.6085560495148175E+00    8.3600753139380490E+00   -8.9607974678866803E-02
Ga   -1.6078432591443204E+00    1.0219017243244146E+01    5.7576664399229771E-01
N   -1.6076513817449170E+00    1.0219458611287376E+01    2.4939494987187665E+00
Ga   -1.6085470317070292E+00    8.3600822709011915E+00    3.1874379244085382E+00
N   -1.6083518947993238E+00    8.3598005757758731E+00    5.0895402634142481E+00
Ga   -1.6073416521581894E+00    1.0218578193043102E+01    5.7533942940520273E+00
N   -1.6063802353272230E+00    1.0219169868408661E+01    7.6564525582286231E+00
Ga   -1.6084986414137661E+00    8.3604897577458122E+00    8.3486558522130139E+00
N   -1.6082467249791685E+00    8.3613983073592308E+00    1.0276761081867807E+01
Ga   -1.6047621011900230E+00    1.0222075080768787E+01    1.0975712838320888E+01
N   -1.6018768555791902E+00    1.0228876718716316E+01    1.2896318299288225E+01
Ga   -1.6011198831981766E+00    8.3717760128130614E+00    1.3604914867987794E+01
N   -1.6077377419171637E+00    8.3571938724972128E+00    1.5527084625468817E+01
Ga   -1.6293837730355718E+00    1.0230267087528068E+01    1.6526255896285754E+01
N   -5.2613986131278906E-02    9.1860745625734097E+00    1.7471083963465254E+01
N    6.4370217219789083E+00   -5.3337755525716601E-04   -8.9633238341859836E-02
Ga    6.4377645427350076E+00    1.8582912151407809E+00    5.7577079332872150E-01
N    6.4379804165786885E+00    1.8587984144590737E+00    2.4941760056948508E+00
Ga    6.4368405139479909E+00   -6.6924425395456239E-04    3.1869703509297183E+00
N    6.4369352365472681E+00   -1.0385424949234867E-03    5.0890116598884791E+00
Ga    6.4381515310556008E+00    1.8578804086478327E+00    5.7523316916826239E+00
N    6.4391901058381462E+00    1.8585828376785878E+00    7.6557914109009007E+00
Ga    6.4378026181519488E+00    1.2493826011287064E-04    8.3464960241473101E+00
N    6.4390572979242382E+00    2.0200113747088069E-03    1.0274762476930077E+01
Ga    6.4398146171461699E+00    1.8591681536626390E+00    1.0978278942072803E+01
N    6.4416867293158546E+00    1.8684661100508537E+00    1.2899716272612428E+01
Ga    6.4426456742573590E+00    1.1316002798051160E-02    1.3611107957009777E+01
N    6.4443313047132254E+00   -1.7144188426466443E-02    1.5537199780396438E+01
Ga    6.4062067576515993E+00    1.8715248754989107E+00    1.6549233963850238E+01
N    8.0221215383708842E+00    9.2180047063110515E-01    1.7438597155183722E+01
N    4.8280375886088001E+00    2.7862910795522309E+00   -8.9528277642502999E-02
Ga    4.8287499202537489E+00    4.6452055403208377E+00    5.7580941978605638E-01
N    4.8289441809371034E+00    4.6456827576345638E+00    2.4941724669489655E+00
Ga    4.8278938739410489E+00    2.7862504597170843E+00    3.1871104125903371E+00
N    4.8280646508003109E+00    2.7859529166594621E+00    5.0893459313116338E+00
Ga    4.8288292000969184E+00    4.6451780589362013E+00    5.7527658044958763E+00
N    4.8293746150396073E+00    4.6457971124441348E+00    7.6566907599742535E+00
Ga    4.8288423966783265E+00    2.7848443080348972E+00    8.3447613251616115E+00
N    4.8289571061412078E+00    2.7843632163993250E+00    1.0274538702724277E+01
Ga    4.8293497151006379E+00    4.6455055399975445E+00    1.0961490467198070E+01
N    4.8267639321966058E+00    4.6515822188414155E+00    1.2884676146060217E+01
Ga    4.8263241164387285E+00    2.7960479128851596E+00    1.3592782570723617E+01
N    4.8266639481254447E+00    2.8010536743717740E+00    1.5516779733954330E+01
Ga    4.8255620128476755E+00    4.6567814196455490E+00    1.6508708946269977E+01
N    6.4278866282668812E+00    3.7219357072761352E+00    1.7451518903186990E+01
N    3.2190130283916409E+00    5.5731697043836297E+00   -8.9601824698541346E-02
Ga    3.2197002913489272E+00    7.4321322899880711E+00    5.7565154230042803E-01
N    3.2198715400414026E+00    7.4326695730884174E+00    2.4940171450417727E+00
Ga    3.2187287005542395E+00    5.5732202109232665E+00    3.1869080171488982E+00
N    3.2186953073256657E+00    5.5730684070850094E+00    5.0893678866293905E+00
Ga    3.2193963194239901E+00    7.4326812188793276E+00    5.7516892875913577E+00
N    3.2194125787774586E+00    7.4333473966656323E+00    7.6545004625133100E+00
Ga    3.2180346966814297E+00    5.5747326836039317E+00    8.3429795583785111E+00
N    3.2181931428215500E+00    5.5749251661066443E+00    1.0271760642471426E+01
Ga    3.2203994368250810E+00    7.4345628662038150E+00    1.0974339766565969E+01
N    3.2208254793716344E+00    7.4365311856245233E+00    1.2899161881933551E+01
Ga    3.2190050715811931E+00    5.5771041511085526E+00    1.3591847278504822E+01
N    3.2160805197317583E+00    5.5790827968108969E+00    1.5512446337349269E+01
Ga    3.2199452540023468E+00    7.4348109589973763E+00    1.6562812068114759E+01
N    4.8255384523865956E+00    6.4841880151092912E+00    1.7457003817926726E+01
N    1.6099585338462623E+00    8.3600744143388148E+00   -8.9612994507137875E-02
Ga    1.6107428416015674E+00    1.0219013567250881E+01    5.7566986765337003E-01
N    1.6109216031364437E+00    1.0219493003860023E+01    2.4939994456692127E+00
Ga    1.6096378195852108E+00    8.3601757902560809E+00    3.1872560046049485E+00
N    1.6094468293816073E+00    8.3599632849003154E+00    5.0893783965135002E+00
Ga    1.6105468236019858E+00    1.0218929493088716E+01    5.7530696962565182E+00
N    1.6107503118031639E+00    1.0219461463926038E+01    7.6560776280323877E+00
Ga    1.6101982748061883E+00    8.3608887891842123E+00    8.3464334801852829E+00
N    1.6115378711685839E+00    8.3609335964483389E+00    1.0274689348911812E+01
Ga    1.6104769108329282E+00    1.0219753399056234E+01    1.0974642084719427E+01
N    1.6131348192756172E+00    1.0224244830739000E+01    1.2895086722438304E+01
Ga    1.6100701737823231E+00    8.3651549331528514E+00    1.3603613731296626E+01
N    1.6109459066915217E+00    8.3785645272941078E+00    1.5529725088873294E+01
Ga    1.6318856596238469E+00    1.0237572713524605E+01    1.6475250442408253E+01
N    3.1853745361731622E+00    9.3092865726660801E+00    1.7456481893230983E+01
N    9.6555962818150416E+00   -5.7474602575834923E-04   -8.9641286544475854E-02
Ga    9.6563408161030893E+00    1.8582717609715502E+00    5.7588559190459276E-01
N    9.6564027103286065E+00    1.8586805326541345E+00    2.4939892234012166E+00
Ga    9.6554754942452288E+00   -5.0248582096381505E-04    3.1873755050071062E+00
N    9.6554075449103056E+00   -8.4885633292524048E-04    5.0896622780269851E+00
Ga    9.6564361194445159E+00    1.8581773614078716E+00    5.7540485737717875E+00
N    9.6563816604948229E+00    1.8588890739578285E+00    7.6569164984605713E+00
Ga    9.6551086413126761E+00   -4.0422720451052229E-04    8.3454321316266409E+00
N    9.6558390440803805E+00    7.8521958449644309E-04    1.0274188288748778E+01
Ga    9.6600728597942478E+00    1.8612845650604968E+00    1.0966736287107906E+01
N    9.6608287262058763E+00    1.8675794323570001E+00    1.2892109718769369E+01
Ga    9.6657594367842776E+00    4.9643073326538674E-03    1.3576926015616552E+01
N    9.6693885652210678E+00    7.2936349079807455E-03    1.5489360626915095E+01
Ga    9.6569841044382354E+00    1.8194483735591027E+00    1.6511276887754065E+01
N    1.1269312856179118E+01    9.1453538007739721E-01    1.7455106583609624E+01
N    8.0465481220309609E+00    2.7863082738436629E+00   -8.9507573360227272E-02
Ga    8.0473506811173934E+00    4.6452251085231664E+00    5.7583380711722354E-01
N    8.0474747943305580E+00    4.6456431649046337E+00    2.4941099761784398E+00
Ga    8.0466631027054305E+00    2.7863056644628945E+00    3.1873496425994858E+00
N    8.0468140976180624E+00    2.7858904993366225E+00    5.0895200530270488E+00
Ga    8.0479706722767030E+00    4.6452237965424841E+00    5.7522764248381950E+00
N    8.0486574585403048E+00    4.6456795022197408E+00    7.6556563312619570E+00
Ga    8.0467689166866094E+00    2.7869858341959795E+00    8.3476890323991082E+00
N    8.0480303188260791E+00    2.7883138755185417E+00    1.0276661005111253E+01
Ga    8.0505532716852848E+00    4.6482945012128196E+00    1.0975626713588722E+01
N    8.0494409145518979E+00    4.6567496784317486E+00    1.2898899764435869E+01
Ga    8.0516340332682166E+00    2.7970031880132233E+00    1.3602937587329604E+01
N    8.0315029363753272E+00    2.7962787322497658E+00    1.5519985140763646E+01
Ga    8.0156448508031399E+00    4.6741355421284503E+00    1.6513573461034671E+01
N    9.6114415116391676E+00    3.6195982304152361E+00    1.7446729378788781E+01
N    6.4375779808218345E+00    5.5732077036165775E+00   -8.9531759499175023E-02
Ga    6.4383628303225606E+00    7.4321565379115251E+00    5.7566883742903763E-01
N    6.4384508446976989E+00    7.4326570367887221E+00    2.4941246787235780E+00
Ga    6.4375869422076519E+00    5.5733062058461487E+00    3.1871450165168582E+00
N    6.4375992571804659E+00    5.5731521254739942E+00    5.0894671969506282E+00
Ga    6.4384004100093959E+00    7.4322497968877181E+00    5.7527081269248663E+00
N    6.4391335175408750E+00    7.4322035030055460E+00    7.6556846327707495E+00
Ga    6.4395013205961034E+00    5.5736954847699050E+00    8.3451416247036061E+00
N    6.4401649389441387E+00    5.5745763891475910E+00    1.0274529383800388E+01
Ga    6.4393311714271944E+00    7.4344719464280171E+00    1.0970363455007556E+01
N    6.4384695586194098E+00    7.4413237060268393E+00    1.2894519035342681E+01
Ga    6.4299385600271375E+00    5.5865964657081815E+00    1.3582033711397855E+01
N    6.4155507779861276E+00    5.5786438374097047E+00    1.5502047567990573E+01
Ga    6.4353806555730619E+00    7.4443082782881023E+00    1.6549456455605174E+01
N    8.0096409791320511E+00    6.4835022140343410E+00    1.7439578473091050E+01
N    4.8285842742548430E+00    8.3600755650866461E+00   -8.9602321398652068E-02
Ga    4.8292786065218571E+00    1.0219036013728786E+01    5.7565919045609404E-01
N    4.8293154583982867E+00    1.0219416001168703E+01    2.4939808923988802E+00
Ga    4.8284937303354907E+00    8.3602393948593186E+00    3.1869352591018369E+00
N    4.8285646124950024E+00    8.3598197625045660E+00    5.0891774849790821E+00
Ga    4.8291502623023748E+00    1.0218791662490819E+01    5.7533359493364609E+00
N    4.8287820199285365E+00    1.0218542346329389E+01    7.6563144058852126E+00
Ga    4.8288586220338257E+00    8.3587885261144645E+00    8.3427101863382678E+00
N    4.8294864220621303E+00    8.3557674166687512E+00    1.0271181220766149E+01
Ga    4.8308431570018193E+00    1.0214928232634749E+01    1.0968202353393311E+01
N    4.8292710761026640E+00    1.0215033938877179E+01    1.2882971067613463E+01
Ga    4.8287253564056334E+00    8.3649929517182837E+00    1.3608219355252286E+01
N    4.8126925435721573E+00    8.3643563950330417E+00    1.5533258991251444E+01
Ga    4.8189587409483492E+00    1.0227299321481985E+01    1.6522654779619536E+01
N    6.4156591211256675E+00    9.3076481811842875E+00    1.7445769691159388E+01
H   -5.3814438265439182E-06   -2.3345126261930209E-04   -1.1149884860214747E+00
H   -1.6090820801167236E+00    2.7867023546674115E+00   -1.1149435638263023E+00
H   -3.2180172814305608E+00    5.5735051121208272E+00   -1.1149859573803749E+00
H   -4.8270667907502318E+00    8.3604050344820298E+00   -1.1149278688079061E+00
H    3.2185335416298382E+00   -2.1284991060123066E-04   -1.1150251876815742E+00
H    1.6095723740996453E+00    2.7866977754832467E+00   -1.1149873603091942E+00
H    5.2086217879793086E-04    5.5735264358172758E+00   -1.1148601397208209E+00
H   -1.6084551976111643E+00    8.3604011104426359E+00   -1.1149684447452710E+00
H    6.4371125098313184E+00   -1.7924849792451199E-04   -1.1149791087604344E+00
H    4.8281427675357547E+00    2.7866662433818652E+00   -1.1148729709057663E+00
H    3.2190929618965614E+00    5.5734569025522891E+00   -1.1149603025813277E+00
H    1.6100313581293992E+00    8.3604201924452592E+00   -1.1149563817446950E+00
H    9.6556687640373440E+00   -1.8901842994935354E-04   -1.1149847286791568E+00
H    8.0466703430908346E+00    2.7866359691564706E+00   -1.1148594073156863E+00
H    6.4376500336919085E+00    5.5735235604212781E+00   -1.1148849238384053E+00
H    4.8287031975573349E+00    8.3604024429905071E+00   -1.1149453318864777E+00
     &END COORD
     &KIND H
       BASIS_SET DZVP-MOLOPT-SR-GTH-q1
       POTENTIAL GTH-PBE-q1
       &POTENTIAL
 1
  0.2000000000000000E+00 2 -0.4178900440000000E+01  0.7244633100000000E+00
 0
         # Potential name:  GTH-PBE-Q1  for symbol:  H
         # Potential read from the potential filename: GTH_POTENTIALS
       &END POTENTIAL
     &END KIND
     &KIND N
       BASIS_SET DZVP-MOLOPT-SR-GTH
       POTENTIAL GTH-PBE-q5
       &POTENTIAL
 2 3
  0.2837905100000000E+00 2 -0.1241522559000000E+02  0.1868095920000000E+01
 2
  0.2554050000000000E+00 1  0.1363026257000000E+02
  0.2454945300000000E+00 0
         # Potential name:  GTH-PBE-Q5  for symbol:  N
         # Potential read from the potential filename: GTH_POTENTIALS
       &END POTENTIAL
     &END KIND
     &KIND Ga
       BASIS_SET DZVP-MOLOPT-SR-GTH
       POTENTIAL GTH-PBE-q13
       &POTENTIAL
 2 1 10
  0.4900000000000000E+00 0
 3
  0.4167772300000000E+00 3  0.1047568975000000E+02 -0.4921768140000000E+01  0.8707055900000000E+00
  0.7770178090000000E+01 -0.2248152160000000E+01
  0.1784415450000000E+01
  0.5696265200000000E+00 2  0.1777985340000000E+01  0.1958597600000000E+00
 -0.2317443900000000E+00
  0.2381265000000000E+00 1 -0.1624868022000000E+02
         # Potential name:  GTH-PBE-Q13  for symbol:  GA
         # Potential read from the potential filename: GTH_POTENTIALS
       &END POTENTIAL
     &END KIND
     &TOPOLOGY
       NUMBER_OF_ATOMS  256
       MULTIPLE_UNIT_CELL  1 1 1
     &END TOPOLOGY
   &END SUBSYS
 &END FORCE_EVAL
