 # Version information for this restart file 
 # current date 2019-06-09 04:43:51.171
 # current working dir /lustre03/project/6037349/rzk/GaN-carbene/444-addat/00-Surface/UKS_SYMM
 # Program compiled at                              Sun Apr  7 00:48:11 EDT 2019
 # Program compiled on                          beluga2.int.ets1.calculquebec.ca
 # Program compiled for                        Beluga-Linux-x86-64-intel-openmpi
 # Source code revision number                                         svn:18619
 &GLOBAL
   PRINT_LEVEL  MEDIUM
   PROJECT_NAME TEST
   RUN_TYPE  CELL_OPT
 &END GLOBAL
 &MOTION
   &CELL_OPT
     MAX_ITER  300
     STEP_START_VAL  15
     EXTERNAL_PRESSURE     1.0000000000000000E+00
     KEEP_ANGLES  T
     KEEP_SYMMETRY  T
     CONSTRAINT  Z
     PRESSURE_TOLERANCE     5.0000000000000000E+02
   &END CELL_OPT
 &END MOTION
 &FORCE_EVAL
   METHOD  QS
   STRESS_TENSOR  ANALYTICAL
   &DFT
     BASIS_SET_FILE_NAME BASIS_MOLOPT
     POTENTIAL_FILE_NAME GTH_POTENTIALS
     UKS  T
     SURFACE_DIPOLE_CORRECTION  T
     SURF_DIP_DIR  Z
     &SCF
       MAX_SCF  100
       EPS_SCF     5.0000000000000004E-06
       &OT  T
         PRECONDITIONER  FULL_ALL
       &END OT
       &OUTER_SCF  T
         OPTIMIZER  NONE
         EPS_SCF     5.0000000000000004E-06
         MAX_SCF  4
       &END OUTER_SCF
       &PRINT
         &RESTART  OFF
           BACKUP_COPIES  1
           &EACH
             JUST_ENERGY  0
             QS_SCF  0
             MD  20
           &END EACH
         &END RESTART
       &END PRINT
     &END SCF
     &QS
       EPS_DEFAULT     1.0000000000000000E-14
       METHOD  GPW
     &END QS
     &MGRID
       NGRIDS  5
       CUTOFF     1.2000000000000000E+03
     &END MGRID
     &XC
       DENSITY_CUTOFF     1.0000000000000000E-10
       GRADIENT_CUTOFF     1.0000000000000000E-10
       TAU_CUTOFF     1.0000000000000000E-10
       &XC_FUNCTIONAL  NO_SHORTCUT
         &PBE  T
         &END PBE
       &END XC_FUNCTIONAL
       &VDW_POTENTIAL
         POTENTIAL_TYPE  PAIR_POTENTIAL
         &PAIR_POTENTIAL
           R_CUTOFF     1.0000000000000004E+01
           TYPE  DFTD3
           PARAMETER_FILE_NAME dftd3.dat
           REFERENCE_FUNCTIONAL PBE
           EPS_CN     9.9999999999999995E-07
           CALCULATE_C9_TERM  T
           REFERENCE_C9_TERM  T
           LONG_RANGE_CORRECTION  F
           VERBOSE_OUTPUT  F
         &END PAIR_POTENTIAL
       &END VDW_POTENTIAL
     &END XC
   &END DFT
   &SUBSYS
     &CELL
       A     1.2870675159991977E+01    0.0000000000000000E+00    0.0000000000000000E+00
       B    -6.4358328560177291E+00    1.1147189495643842E+01    0.0000000000000000E+00
       C     0.0000000000000000E+00    0.0000000000000000E+00    3.2000000000000000E+01
       MULTIPLE_UNIT_CELL  1 1 1
       &CELL_REF
         A     1.2982353780853531E+01    0.0000000000000000E+00    0.0000000000000000E+00
         B    -6.4911768904267628E+00    1.1243048175136114E+01    0.0000000000000000E+00
         C     0.0000000000000000E+00    0.0000000000000000E+00    3.2000000000000000E+01
         MULTIPLE_UNIT_CELL  1 1 1
       &END CELL_REF
     &END CELL
     &COORD
N   -4.1453052360312161E-04   -9.7967084912682872E-04   -6.9673253292113727E-02
Ga    5.7307447002531470E-04    1.8586719885471836E+00    5.9272396855326437E-01
N    5.3020758829074911E-04    1.8589384547100918E+00    2.5157712643027583E+00
Ga   -3.6915768820577438E-04   -7.6189941546850630E-04    3.2110275337153253E+00
N   -5.9303221428812507E-04   -1.4514135357096725E-03    5.1199856536003567E+00
Ga    4.4078939860630538E-04    1.8585339530588123E+00    5.7821983105602053E+00
N    4.3332059205762982E-04    1.8591318363923517E+00    7.6788242014760355E+00
Ga   -6.1198869830265978E-04   -2.4403816732583186E-05    8.3420713917483482E+00
N   -9.0944903464822840E-04    5.4122994900800592E-04    1.0256744132408132E+01
Ga    8.2335876052717037E-04    1.8603268451244568E+00    1.0961075579208273E+01
N    7.9040940505610921E-05    1.8634025330761737E+00    1.2880222940797818E+01
Ga   -2.4947854199436933E-03   -3.3368161294721906E-03    1.3571371592406914E+01
N   -4.4411541174166130E-03   -6.0453433544112858E-03    1.5481417172990161E+01
Ga    1.9925898779116331E-03    1.8583548168962178E+00    1.6503907876350915E+01
N    1.6083509706386516E+00    9.2523277443909602E-01    1.7403952374479882E+01
N   -1.6093713805066165E+00    2.7858457279343529E+00   -6.9605986967747654E-02
Ga   -1.6083942268273888E+00    4.6454939125605970E+00    5.9276056164193536E-01
N   -1.6084425951502095E+00    4.6457333633471070E+00    2.5158275828274630E+00
Ga   -1.6093840431549504E+00    2.7861644273388126E+00    3.2110525037194737E+00
N   -1.6097229615027655E+00    2.7858494853175699E+00    5.1200331283303901E+00
Ga   -1.6083225980754878E+00    4.6457229243061127E+00    5.7833109418825357E+00
N   -1.6083499508797725E+00    4.6465740092698473E+00    7.6806037082447052E+00
Ga   -1.6084969973902008E+00    2.7866181926066735E+00    8.3423505583395521E+00
N   -1.6081949840833332E+00    2.7871688354791417E+00    1.0257831646654079E+01
Ga   -1.6088027681744723E+00    4.6464805938152374E+00    1.0961477496820200E+01
N   -1.6091174641132118E+00    4.6485888537940756E+00    1.2878862552850066E+01
Ga   -1.6083270208078335E+00    2.7890981984006102E+00    1.3585356929194029E+01
N   -1.5988494320702611E+00    2.8036509245234149E+00    1.5507613479970288E+01
Ga   -1.5887463928756362E+00    4.6592107197520098E+00    1.6420972979251395E+01
N   -2.8988729269905603E-02    3.7496124413716196E+00    1.7414659575467589E+01
N   -3.2183189372697143E+00    5.5726148476738526E+00   -6.9649768794734807E-02
Ga   -3.2173535260746071E+00    7.4322905529584595E+00    5.9266796452441861E-01
N   -3.2173746688374463E+00    7.4324642721452356E+00    2.5158070034953477E+00
Ga   -3.2182083430944322E+00    5.5729876199024950E+00    3.2110454116888230E+00
N   -3.2182960862731993E+00    5.5727970576280743E+00    5.1199791413575175E+00
Ga   -3.2168746998114344E+00    7.4323383962753820E+00    5.7838670436894528E+00
N   -3.2162413859710983E+00    7.4328092115602260E+00    7.6807644805537336E+00
Ga   -3.2178482226380796E+00    5.5738064078302108E+00    8.3444207173954101E+00
N   -3.2178429148936365E+00    5.5744200243279352E+00    1.0260472994134702E+01
Ga   -3.2150413905002360E+00    7.4331417908435204E+00    1.0965157078688433E+01
N   -3.2122964058628170E+00    7.4379378056591774E+00    1.2885338932383766E+01
Ga   -3.2148146896442338E+00    5.5818760533795384E+00    1.3596209565303859E+01
N   -3.2196365595536864E+00    5.5623164189089618E+00    1.5513310182459630E+01
Ga   -3.2356457524952851E+00    7.4485081261475852E+00    1.6489910134012518E+01
N   -1.6305550075584432E+00    6.5010179859760147E+00    1.7407715482238473E+01
N   -4.8272963189325697E+00    8.3594218297385332E+00   -6.9609319347712528E-02
Ga   -4.8262803743541776E+00    1.0219069455609302E+01    5.9272862311856067E-01
N   -4.8262659695533179E+00    1.0219188569549123E+01    2.5158878168525858E+00
Ga   -4.8271331916659053E+00    8.3596355951350869E+00    3.2112358538411185E+00
N   -4.8272387615076022E+00    8.3591335677602672E+00    5.1204240685060736E+00
Ga   -4.8263099585008487E+00    1.0218973167317756E+01    5.7840026452453506E+00
N   -4.8260461379550570E+00    1.0219017271551744E+01    7.6809425893576071E+00
Ga   -4.8264968618200159E+00    8.3585857908873820E+00    8.3435514183923267E+00
N   -4.8255727542699782E+00    8.3565925136604946E+00    1.0259898099346094E+01
Ga   -4.8259791506058241E+00    1.0218350750471236E+01    1.0954294522765805E+01
N   -4.8266914053409788E+00    1.0221221363715744E+01    1.2866559527389066E+01
Ga   -4.8259858287461928E+00    8.3681715186261822E+00    1.3582452031057299E+01
N   -4.8240754525133047E+00    8.3719265676400063E+00    1.5493367541587549E+01
Ga   -4.8338356071610669E+00    1.0233268079714433E+01    1.6471078115755759E+01
N   -3.2300437389323244E+00    9.2886706817102613E+00    1.7389481083907398E+01
N    3.2172601589413885E+00   -9.5715884412871793E-04   -6.9702809795994566E-02
Ga    3.2182261202560789E+00    1.8586317589868553E+00    5.9265708999822508E-01
N    3.2182534170175310E+00    1.8588646211866098E+00    2.5157982449225473E+00
Ga    3.2173657683624892E+00   -7.4796173424328683E-04    3.2112905951869561E+00
N    3.2173758939864805E+00   -1.3477564582611524E-03    5.1202664227257380E+00
Ga    3.2181587814900037E+00    1.8583869141991807E+00    5.7832607609540352E+00
N    3.2185443473401989E+00    1.8586815878206873E+00    7.6803496652142780E+00
Ga    3.2182438603212091E+00   -9.6977205285994432E-04    8.3426618925024183E+00
N    3.2190771216706207E+00   -7.0027645174906166E-04    1.0258327637586941E+01
Ga    3.2176284113872056E+00    1.8586992810967695E+00    1.0955767902935092E+01
N    3.2171575257614911E+00    1.8634669577214320E+00    1.2876570425637238E+01
Ga    3.2128637267606353E+00    2.3261212071960277E-03    1.3569351655040522E+01
N    3.2003015657876714E+00   -1.2037598747039673E-02    1.5479268438885963E+01
Ga    3.2191140442404245E+00    1.8711047443780604E+00    1.6510361124033864E+01
N    4.7868674020195767E+00    9.0488197877946475E-01    1.7383044420484971E+01
N    1.6083346736281865E+00    2.7858220996565959E+00   -6.9639590827430181E-02
Ga    1.6092541770171749E+00    4.6454692811135834E+00    5.9275747958626834E-01
N    1.6092286840947347E+00    4.6457149733590839E+00    2.5158144842845003E+00
Ga    1.6083955088963402E+00    2.7861499556566356E+00    3.2111842161735620E+00
N    1.6083888683209167E+00    2.7858767624812990E+00    5.1201583853639265E+00
Ga    1.6088889685638061E+00    4.6455624552349102E+00    5.7837308639426981E+00
N    1.6089683831709662E+00    4.6461832831818546E+00    7.6810038660339188E+00
Ga    1.6081734234449578E+00    2.7855841846470257E+00    8.3413876032875045E+00
N    1.6086666928515871E+00    2.7856534148800196E+00    1.0257550353099811E+01
Ga    1.6106759917014970E+00    4.6437693978161523E+00    1.0954713643674600E+01
N    1.6132638800484052E+00    4.6431069192791306E+00    1.2874147255105893E+01
Ga    1.6097453357200178E+00    2.7859972282832981E+00    1.3589831818894837E+01
N    1.5942239159488292E+00    2.7883683121394438E+00    1.5508587793463233E+01
Ga    1.6031355085894194E+00    4.6525352505732940E+00    1.6458822107015965E+01
N    3.1959904130557222E+00    3.7357679349583424E+00    1.7401445499575068E+01
N   -6.6274790597210082E-04    5.5726297131956120E+00   -6.9560196127485013E-02
Ga    3.0965874144852360E-04    7.4322854594113750E+00    5.9279884569050634E-01
N    3.4609785305719418E-04    7.4324908820317823E+00    2.5158417958548784E+00
Ga   -6.2157323364738567E-04    5.5729658793857118E+00    3.2114306298882940E+00
N   -6.8992688784217445E-04    5.5728249343844860E+00    5.1203813915659868E+00
Ga    2.1975489175916457E-04    7.4323668028468166E+00    5.7850533434641536E+00
N    5.7991354546168790E-04    7.4333306186304959E+00    7.6823731076151685E+00
Ga   -7.4458541466255166E-04    5.5734749859069455E+00    8.3443758551414966E+00
N    3.6604976094873530E-04    5.5737976349080185E+00    1.0261727197719352E+01
Ga    1.7505106535545031E-03    7.4355107276497439E+00    1.0959985321883433E+01
N    4.2890548656094544E-03    7.4389072654017774E+00    1.2876002769603629E+01
Ga    6.4564814662198024E-03    5.5782588351510691E+00    1.3559375044766709E+01
N    9.4304143207275849E-03    5.5725158787882156E+00    1.5473793492277297E+01
Ga    2.9336499989987218E-03    7.4006437269656988E+00    1.6448888110881697E+01
N    1.5998340012615904E+00    6.4970491418901686E+00    1.7412720397682918E+01
N   -1.6096093204256334E+00    8.3594359173891437E+00   -6.9622592472264960E-02
Ga   -1.6086574288202717E+00    1.0219086214386314E+01    5.9268398492247842E-01
N   -1.6086243600363068E+00    1.0219310140822374E+01    2.5157663352129842E+00
Ga   -1.6095087964976975E+00    8.3596670745424966E+00    3.2113692842616413E+00
N   -1.6095276177858431E+00    8.3593193919021154E+00    5.1203240018859173E+00
Ga   -1.6083625383066824E+00    1.0218753687178937E+01    5.7838999679538867E+00
N   -1.6074660632660902E+00    1.0219162155553430E+01    7.6809644568638271E+00
Ga   -1.6095332310992103E+00    8.3599694683017933E+00    8.3461058085310444E+00
N   -1.6095119668080351E+00    8.3608051808126991E+00    1.0261884758791139E+01
Ga   -1.6065040124664185E+00    1.0221338033241619E+01    1.0961153165292673E+01
N   -1.6032106220812476E+00    1.0227824673136288E+01    1.2879343642618784E+01
Ga   -1.6020046137076280E+00    8.3702030334671154E+00    1.3585635916178914E+01
N   -1.6109020990797387E+00    8.3617020867993439E+00    1.5502988031522777E+01
Ga   -1.6314293235671729E+00    1.0234797295162162E+01    1.6473513235942431E+01
N   -4.8040302601712742E-02    9.1944820402608176E+00    1.7419292801526112E+01
N    6.4349487548263768E+00   -9.4746620398887093E-04   -6.9657666640528679E-02
Ga    6.4358938447953573E+00    1.8586344553305196E+00    5.9269679957768528E-01
N    6.4359451551889348E+00    1.8588919460449138E+00    2.5159999949145049E+00
Ga    6.4349256491575506E+00   -8.2439226626253770E-04    3.2110994870389726E+00
N    6.4349255222142698E+00   -1.2952859647484660E-03    5.1199644327575697E+00
Ga    6.4360454786571681E+00    1.8581145587366870E+00    5.7830081077650979E+00
N    6.4368765789488229E+00    1.8582450523461529E+00    7.6803832987745846E+00
Ga    6.4354774678479174E+00   -8.1148539574045703E-04    8.3446887348973320E+00
N    6.4366747491218383E+00    2.8550872681726904E-04    1.0260306112534314E+01
Ga    6.4376472734823933E+00    1.8583775636550102E+00    1.0963550719519873E+01
N    6.4398832884315258E+00    1.8650979871657558E+00    1.2882729292805312E+01
Ga    6.4402082800736693E+00    8.2397472968616901E-03    1.3591953285366106E+01
N    6.4417078573834576E+00   -1.1653410491535588E-02    1.5512750629280866E+01
Ga    6.4077665088155218E+00    1.8714760053150148E+00    1.6491810116752049E+01
N    8.0213536698498338E+00    9.2686193330729560E-01    1.7391599041287726E+01
N    4.8259930658703611E+00    2.7858097330834228E+00   -6.9575750217900911E-02
Ga    4.8269301314398536E+00    4.6454590778500338E+00    5.9269671193924978E-01
N    4.8269907847265037E+00    4.6456926386120028E+00    2.5159760387059107E+00
Ga    4.8259584450925077E+00    2.7859878424476854E+00    3.2111539458577250E+00
N    4.8260410957651905E+00    2.7856079454796392E+00    5.1202023584308023E+00
Ga    4.8267815047929501E+00    4.6454166909224934E+00    5.7830647815691938E+00
N    4.8270930432117423E+00    4.6461034362310789E+00    7.6808617136986959E+00
Ga    4.8266276622765059E+00    2.7849331942636923E+00    8.3421866395380366E+00
N    4.8273726865770783E+00    2.7837529794869500E+00    1.0259586038383230E+01
Ga    4.8273044817551742E+00    4.6457912667512788E+00    1.0949037849787643E+01
N    4.8253795234149086E+00    4.6504966959350131E+00    1.2868299438738690E+01
Ga    4.8242852455876521E+00    2.7934928331229161E+00    1.3574569869156017E+01
N    4.8231242608991272E+00    2.8084008635842630E+00    1.5490556639948856E+01
Ga    4.8253832514353086E+00    4.6501840517649828E+00    1.6456376082340213E+01
N    6.4264350712297293E+00    3.7250749269162124E+00    1.7403161280034833E+01
N    3.2170258647507803E+00    5.5726191529668840E+00   -6.9637291665906001E-02
Ga    3.2179508415348073E+00    7.4322811288482917E+00    5.9255519412685065E-01
N    3.2179629409828712E+00    7.4325003352924499E+00    2.5158252061965323E+00
Ga    3.2169154302083571E+00    5.5728628305707986E+00    3.2109503928779359E+00
N    3.2167989330984867E+00    5.5726710546414751E+00    5.1201987628237626E+00
Ga    3.2177308825041262E+00    7.4326098907773046E+00    5.7828095381434519E+00
N    3.2177116716825154E+00    7.4334372450946251E+00    7.6796799421450119E+00
Ga    3.2162588765193783E+00    5.5742000389190016E+00    8.3414186501175855E+00
N    3.2160865826151674E+00    5.5748256704432295E+00    1.0257953882146625E+01
Ga    3.2183475889931485E+00    7.4342453287664236E+00    1.0960669948240653E+01
N    3.2186465521458123E+00    7.4360527489633501E+00    1.2882028264596647E+01
Ga    3.2174929123563456E+00    5.5748409054929837E+00    1.3575735827244236E+01
N    3.2123932486239624E+00    5.5809011061989509E+00    1.5492122131992687E+01
Ga    3.2168132557015814E+00    7.4356932697159950E+00    1.6504995362453176E+01
N    4.8228936125586763E+00    6.4911303831824965E+00    1.7406742836269022E+01
N    1.6080486699194232E+00    8.3594443807533150E+00   -6.9634888751067575E-02
Ga    1.6090190385022185E+00    1.0219080885963843E+01    5.9260232447496997E-01
N    1.6090270035323238E+00    1.0219341245652625E+01    2.5158162348291500E+00
Ga    1.6079698993228799E+00    8.3597294411419618E+00    3.2112623508928366E+00
N    1.6078066190667393E+00    8.3594654485875584E+00    5.1202148898616029E+00
Ga    1.6088202656106221E+00    1.0218984267931104E+01    5.7837679417661043E+00
N    1.6088505501766097E+00    1.0219454042044443E+01    7.6807369418419453E+00
Ga    1.6084829094905677E+00    8.3601787963387739E+00    8.3442938957255830E+00
N    1.6097558859593095E+00    8.3608248550780235E+00    1.0260262960987388E+01
Ga    1.6084871990793477E+00    1.0219505847522234E+01    1.0961401022222647E+01
N    1.6100724551405223E+00    1.0223293462097363E+01    1.2879138733813997E+01
Ga    1.6091092784067980E+00    8.3640215000167331E+00    1.3585214940603656E+01
N    1.6079129493959998E+00    8.3787542055408029E+00    1.5505835080329391E+01
Ga    1.6338986234006003E+00    1.0236528967715454E+01    1.6428920860238847E+01
N    3.1822472930677592E+00    9.3077507355898241E+00    1.7408778495824855E+01
N    9.6526070065591547E+00   -9.8306754102299768E-04   -6.9668548163588251E-02
Ga    9.6535789119735131E+00    1.8586337069557433E+00    5.9276472330295038E-01
N    9.6535321798750378E+00    1.8588207072883656E+00    2.5158496083673043E+00
Ga    9.6526142126799215E+00   -7.3925719108972391E-04    3.2112925703139590E+00
N    9.6524719695425656E+00   -1.1622232072694505E-03    5.1204167841586976E+00
Ga    9.6537632450967283E+00    1.8584061052059846E+00    5.7845353116887024E+00
N    9.6539972318240501E+00    1.8588559749581675E+00    7.6816879054702198E+00
Ga    9.6520885265230891E+00   -1.1227128512279164E-03    8.3433836677428026E+00
N    9.6521983037129573E+00   -6.2049555550839155E-04    1.0259752732030147E+01
Ga    9.6567486280962669E+00    1.8604108533856174E+00    1.0952743863498398E+01
N    9.6585280929168320E+00    1.8642672901960362E+00    1.2874275153348137E+01
Ga    9.6617837183142772E+00    2.6307854537058520E-03    1.3563157910668432E+01
N    9.6634568488571997E+00    7.9734048580171867E-03    1.5470591247213086E+01
Ga    9.6550735337851847E+00    1.8269556525349855E+00    1.6460187612829287E+01
N    1.1264234147157635E+01    9.2104318013618725E-01    1.7403099458980201E+01
N    8.0436209225115167E+00    2.7858233623503765E+00   -6.9557688495800546E-02
Ga    8.0446326311630649E+00    4.6454802651253679E+00    5.9271287270619988E-01
N    8.0446151317940959E+00    4.6456733857863748E+00    2.5159246169462035E+00
Ga    8.0437944952985774E+00    2.7860541185685617E+00    3.2112867681450488E+00
N    8.0438143614341389E+00    2.7855881954632311E+00    5.1204257976725946E+00
Ga    8.0451171857702573E+00    4.6454931343227006E+00    5.7829202407035094E+00
N    8.0459541510566197E+00    4.6459831354716226E+00    7.6802215960042028E+00
Ga    8.0437221057810948E+00    2.7863345726991438E+00    8.3437997517089624E+00
N    8.0447153614711340E+00    2.7872542685857051E+00    1.0261075973662583E+01
Ga    8.0473743340549113E+00    4.6475518296640539E+00    1.0961375651922598E+01
N    8.0475712952012266E+00    4.6542431178198518E+00    1.2881399907587635E+01
Ga    8.0517307414806023E+00    2.7928028648258683E+00    1.3582688845870456E+01
N    8.0312681088692450E+00    2.7997858159585500E+00    1.5495049014919184E+01
Ga    8.0123604873014820E+00    4.6683634780009164E+00    1.6457082560904645E+01
N    9.6113084033418232E+00    3.6312665676171667E+00    1.7397218472505429E+01
N    6.4346888744116679E+00    5.5726445871386030E+00   -6.9585439207279096E-02
Ga    6.4356776211977857E+00    7.4323063852645284E+00    5.9258898530993076E-01
N    6.4356497170885030E+00    7.4325091909688510E+00    2.5159652794276344E+00
Ga    6.4348008706162876E+00    5.5729449704128164E+00    3.2111147997632656E+00
N    6.4347609716212411E+00    5.5726570461009759E+00    5.1203345142873387E+00
Ga    6.4355749349213287E+00    7.4324646102202516E+00    5.7837382272709981E+00
N    6.4359272666132439E+00    7.4325862806403276E+00    7.6806902303714644E+00
Ga    6.4361487563955402E+00    5.5729792073272781E+00    8.3424259645621959E+00
N    6.4376650840178220E+00    5.5728972581166705E+00    1.0259609690529143E+01
Ga    6.4363267459335107E+00    7.4331979092192499E+00    1.0957271522838745E+01
N    6.4358140687354028E+00    7.4392561012194038E+00    1.2877342014283142E+01
Ga    6.4294463590394697E+00    5.5820679835105027E+00    1.3568493069087390E+01
N    6.4122932465448317E+00    5.5817122000741879E+00    1.5482461191340112E+01
Ga    6.4314448396805490E+00    7.4458825879714396E+00    1.6493666500950955E+01
N    8.0086373022701061E+00    6.4922392404972351E+00    1.7391751244469155E+01
N    4.8257476910074235E+00    8.3594291660277662E+00   -6.9622787961186192E-02
Ga    4.8266785227073532E+00    1.0219091120887136E+01    5.9261831569471901E-01
N    4.8265938638530841E+00    1.0219266364264366E+01    2.5158282057421233E+00
Ga    4.8257452087907025E+00    8.3597334517631410E+00    3.2110296935668630E+00
N    4.8257202085705728E+00    8.3592804563718452E+00    5.1200918015621060E+00
Ga    4.8265712269248180E+00    1.0218833439466865E+01    5.7839483521944812E+00
N    4.8263862315633652E+00    1.0218743972116444E+01    7.6810901806866996E+00
Ga    4.8257064720650904E+00    8.3584626705728766E+00    8.3420791351972081E+00
N    4.8261480423361700E+00    8.3558157503701782E+00    1.0257869077346690E+01
Ga    4.8279289921207065E+00    1.0215369296238459E+01    1.0955608984251283E+01
N    4.8269265336891953E+00    1.0214365835325525E+01    1.2867745653614227E+01
Ga    4.8276180760724685E+00    8.3619726245396233E+00    1.3589495183543074E+01
N    4.8077459129739797E+00    8.3657051357746877E+00    1.5507780377744734E+01
Ga    4.8169250103975401E+00    1.0228375687863101E+01    1.6468747157267671E+01
N    6.4106593948437469E+00    9.3007023483953599E+00    1.7399590558753260E+01
H    6.2983119206033385E-06   -1.2782187408795105E-04   -1.0954854907033524E+00
H   -1.6089958619169535E+00    2.7867033493077686E+00   -1.0954700381447948E+00
H   -3.2179062348974443E+00    5.5734541626702816E+00   -1.0954711958660819E+00
H   -4.8268943009007286E+00    8.3602478142815180E+00   -1.0954134132874103E+00
H    3.2176593928003565E+00   -1.1344219314480132E-04   -1.0954750337154029E+00
H    1.6087351902607618E+00    2.7866989211666615E+00   -1.0954779870236115E+00
H   -2.5479572835364079E-04    5.5734529701301980E+00   -1.0953921187664915E+00
H   -1.6092047162901404E+00    8.3602513388725477E+00   -1.0954767107242374E+00
H    6.4353326520357328E+00   -1.0081781562711581E-04   -1.0954701384467593E+00
H    4.8263974845489050E+00    2.7866821249890461E+00   -1.0954011455480355E+00
H    3.2174144190236640E+00    5.5734138241965070E+00   -1.0954670740293719E+00
H    1.6084282681848399E+00    8.3602648774114812E+00   -1.0954608220112247E+00
H    9.6529952351467401E+00   -1.0237900684372070E-04   -1.0954602495093853E+00
H    8.0440517136186980E+00    2.7866575499597110E+00   -1.0954098074682754E+00
H    6.4350747611049375E+00    5.5734585217336789E+00   -1.0953987346108913E+00
H    4.8261644912982167E+00    8.3602454558337218E+00   -1.0954397436977092E+00
     &END COORD
     &KIND H
       BASIS_SET DZVP-MOLOPT-SR-GTH-q1
       POTENTIAL GTH-PBE-q1
       &POTENTIAL
 1
  0.2000000000000000E+00 2 -0.4178900440000000E+01  0.7244633100000000E+00
 0
         # Potential name:  GTH-PBE-Q1  for symbol:  H
         # Potential read from the potential filename: GTH_POTENTIALS
       &END POTENTIAL
     &END KIND
     &KIND N
       BASIS_SET DZVP-MOLOPT-SR-GTH
       POTENTIAL GTH-PBE-q5
       &POTENTIAL
 2 3
  0.2837905100000000E+00 2 -0.1241522559000000E+02  0.1868095920000000E+01
 2
  0.2554050000000000E+00 1  0.1363026257000000E+02
  0.2454945300000000E+00 0
         # Potential name:  GTH-PBE-Q5  for symbol:  N
         # Potential read from the potential filename: GTH_POTENTIALS
       &END POTENTIAL
     &END KIND
     &KIND Ga
       BASIS_SET DZVP-MOLOPT-SR-GTH
       POTENTIAL GTH-PBE-q13
       &POTENTIAL
 2 1 10
  0.4900000000000000E+00 0
 3
  0.4167772300000000E+00 3  0.1047568975000000E+02 -0.4921768140000000E+01  0.8707055900000000E+00
  0.7770178090000000E+01 -0.2248152160000000E+01
  0.1784415450000000E+01
  0.5696265200000000E+00 2  0.1777985340000000E+01  0.1958597600000000E+00
 -0.2317443900000000E+00
  0.2381265000000000E+00 1 -0.1624868022000000E+02
         # Potential name:  GTH-PBE-Q13  for symbol:  GA
         # Potential read from the potential filename: GTH_POTENTIALS
       &END POTENTIAL
     &END KIND
     &TOPOLOGY
       NUMBER_OF_ATOMS  256
       MULTIPLE_UNIT_CELL  1 1 1
     &END TOPOLOGY
   &END SUBSYS
 &END FORCE_EVAL
