 # Version information for this restart file 
 # current date 2019-06-09 06:18:12.150
 # current working dir /lustre03/project/6037349/rzk/GaN-carbene/444-addat/00-Surface/UKS_SYMM
 # Program compiled at                              Sun Apr  7 00:48:11 EDT 2019
 # Program compiled on                          beluga2.int.ets1.calculquebec.ca
 # Program compiled for                        Beluga-Linux-x86-64-intel-openmpi
 # Source code revision number                                         svn:18619
 &GLOBAL
   PRINT_LEVEL  MEDIUM
   PROJECT_NAME TEST
   RUN_TYPE  CELL_OPT
 &END GLOBAL
 &MOTION
   &CELL_OPT
     MAX_ITER  300
     STEP_START_VAL  35
     EXTERNAL_PRESSURE     1.0000000000000000E+00
     KEEP_ANGLES  T
     KEEP_SYMMETRY  T
     CONSTRAINT  Z
     PRESSURE_TOLERANCE     5.0000000000000000E+02
   &END CELL_OPT
 &END MOTION
 &FORCE_EVAL
   METHOD  QS
   STRESS_TENSOR  ANALYTICAL
   &DFT
     BASIS_SET_FILE_NAME BASIS_MOLOPT
     POTENTIAL_FILE_NAME GTH_POTENTIALS
     UKS  T
     SURFACE_DIPOLE_CORRECTION  T
     SURF_DIP_DIR  Z
     &SCF
       MAX_SCF  100
       EPS_SCF     5.0000000000000004E-06
       &OT  T
         PRECONDITIONER  FULL_ALL
       &END OT
       &OUTER_SCF  T
         OPTIMIZER  NONE
         EPS_SCF     5.0000000000000004E-06
         MAX_SCF  4
       &END OUTER_SCF
       &PRINT
         &RESTART  OFF
           BACKUP_COPIES  1
           &EACH
             JUST_ENERGY  0
             QS_SCF  0
             MD  20
           &END EACH
         &END RESTART
       &END PRINT
     &END SCF
     &QS
       EPS_DEFAULT     1.0000000000000000E-14
       METHOD  GPW
     &END QS
     &MGRID
       NGRIDS  5
       CUTOFF     1.2000000000000000E+03
     &END MGRID
     &XC
       DENSITY_CUTOFF     1.0000000000000000E-10
       GRADIENT_CUTOFF     1.0000000000000000E-10
       TAU_CUTOFF     1.0000000000000000E-10
       &XC_FUNCTIONAL  NO_SHORTCUT
         &PBE  T
         &END PBE
       &END XC_FUNCTIONAL
       &VDW_POTENTIAL
         POTENTIAL_TYPE  PAIR_POTENTIAL
         &PAIR_POTENTIAL
           R_CUTOFF     1.0000000000000004E+01
           TYPE  DFTD3
           PARAMETER_FILE_NAME dftd3.dat
           REFERENCE_FUNCTIONAL PBE
           EPS_CN     9.9999999999999995E-07
           CALCULATE_C9_TERM  T
           REFERENCE_C9_TERM  T
           LONG_RANGE_CORRECTION  F
           VERBOSE_OUTPUT  F
         &END PAIR_POTENTIAL
       &END VDW_POTENTIAL
     &END XC
   &END DFT
   &SUBSYS
     &CELL
       A     1.2834475012432529E+01    0.0000000000000000E+00    0.0000000000000000E+00
       B    -6.4150819767737586E+00    1.1111247918491596E+01    0.0000000000000000E+00
       C     0.0000000000000000E+00    0.0000000000000000E+00    3.2000000000000000E+01
       MULTIPLE_UNIT_CELL  1 1 1
       &CELL_REF
         A     1.2982353780853531E+01    0.0000000000000000E+00    0.0000000000000000E+00
         B    -6.4911768904267628E+00    1.1243048175136114E+01    0.0000000000000000E+00
         C     0.0000000000000000E+00    0.0000000000000000E+00    3.2000000000000000E+01
         MULTIPLE_UNIT_CELL  1 1 1
       &END CELL_REF
     &END CELL
     &COORD
N    2.6314218366822978E-04   -2.5991175238286053E-04   -2.0756381928244430E-01
Ga    6.8966307603103713E-04    1.8518188390871595E+00    4.7430671870445251E-01
N    6.9622862924218290E-04    1.8521206430785579E+00    2.3914343950012014E+00
Ga    4.4524350708611578E-04   -6.7995332141447309E-05    3.1194394934415230E+00
N    6.6631918255635508E-04   -1.0727612906706599E-04    5.0403095954719115E+00
Ga    8.8348922408717806E-04    1.8522393717214196E+00    5.7558460758755325E+00
N    1.1911248459503447E-03    1.8532214994285456E+00    7.6789889935552225E+00
Ga    1.0454084809013967E-03    1.4353030520102344E-03    8.3919077335517205E+00
N    1.6908746539545806E-03    3.8148580719190020E-03    1.0315596178467599E+01
Ga    2.8415743686499412E-03    1.8554529065425285E+00    1.1030180080769174E+01
N    4.5483136551588673E-03    1.8604885466029413E+00    1.2957222957416061E+01
Ga    2.6891633981186692E-03    6.5792956927806876E-03    1.3669656181971840E+01
N   -5.9819033113937495E-03    5.9324489341979376E-03    1.5587244968254547E+01
Ga   -2.0029685532673915E-03    1.8518607122292223E+00    1.6659104579085312E+01
N    1.5964443780866937E+00    9.2165896587446527E-01    1.7528741812508727E+01
N   -1.6035456265497099E+00    2.7775974903300664E+00   -2.0746957081046438E-01
Ga   -1.6030149169683199E+00    4.6296744243183294E+00    4.7437751265778760E-01
N   -1.6029689263727800E+00    4.6299904852972578E+00    2.3915304751648772E+00
Ga   -1.6035457361636811E+00    2.7780201838674743E+00    3.1197311962026499E+00
N   -1.6034505943092145E+00    2.7782061008235588E+00    5.0406681832397675E+00
Ga   -1.6027100203607354E+00    4.6300862105013492E+00    5.7574769423916914E+00
N   -1.6021568548224598E+00    4.6312736606723952E+00    7.6808926579785641E+00
Ga   -1.6020709224740999E+00    2.7793989537161181E+00    8.3937286423368125E+00
N   -1.6008914151979585E+00    2.7819263559993703E+00    1.0317472827049645E+01
Ga   -1.6010685765126917E+00    4.6340448970834140E+00    1.1030192498325190E+01
N   -1.6006071982829395E+00    4.6371578326413836E+00    1.2956182837383940E+01
Ga   -1.6008627530086230E+00    2.7848587108368870E+00    1.3675183162331281E+01
N   -1.5958172722516581E+00    2.7844878774241906E+00    1.5599637631851564E+01
Ga   -1.6075861172560502E+00    4.6241702869964749E+00    1.6605085657996220E+01
N   -1.7896250692428128E-02    3.7078796642906076E+00    1.7530846403881686E+01
N   -3.2072733390173416E+00    5.5553631733896234E+00   -2.0745827947161338E-01
Ga   -3.2066865542464487E+00    7.4074119242032932E+00    4.7440644974133783E-01
N   -3.2065039287333703E+00    7.4076048806620776E+00    2.3915781912587186E+00
Ga   -3.2071206059770683E+00    5.5556171170982154E+00    3.1200375737372283E+00
N   -3.2068389564015511E+00    5.5556362774124279E+00    5.0409969798643113E+00
Ga   -3.2060810087508318E+00    7.4077008078337778E+00    5.7569798485662371E+00
N   -3.2052299987487309E+00    7.4089871287482616E+00    7.6803338323875741E+00
Ga   -3.2057793262330621E+00    5.5576016353564608E+00    8.3948982588730026E+00
N   -3.2052430145792461E+00    5.5601230926964842E+00    1.0318643763452856E+01
Ga   -3.2047279159727671E+00    7.4128015450347968E+00    1.1030250542904964E+01
N   -3.2038997394847875E+00    7.4165495641947894E+00    1.2956581854051469E+01
Ga   -3.2052983903352361E+00    5.5659398623940888E+00    1.3676499277924677E+01
N   -3.2125895522825942E+00    5.5424898007988750E+00    1.5596251367351144E+01
Ga   -3.2315930155791341E+00    7.4024062640070785E+00    1.6636932974854449E+01
N   -1.6243725564096425E+00    6.4679468285525159E+00    1.7517871720521740E+01
N   -4.8110029262082543E+00    8.3331004935538537E+00   -2.0751241723804956E-01
Ga   -4.8105092378075867E+00    1.0185211931541096E+01    4.7413517467817523E-01
N   -4.8103710678415972E+00    1.0185423740622950E+01    2.3912713325081238E+00
Ga   -4.8107195329298404E+00    8.3333931976137308E+00    3.1195995537745684E+00
N   -4.8104075771839758E+00    8.3333250558027121E+00    5.0405162500926419E+00
Ga   -4.8099193783700303E+00    1.0185526569917753E+01    5.7565603717925731E+00
N   -4.8091870390103901E+00    1.0186737818638051E+01    7.6799252674355705E+00
Ga   -4.8098587034871034E+00    8.3345262844651167E+00    8.3924664899677417E+00
N   -4.8093817503161773E+00    8.3365088495613566E+00    1.0316225182327555E+01
Ga   -4.8087989622343841E+00    1.0189149999089565E+01    1.1026791896960535E+01
N   -4.8093894052018440E+00    1.0192246923978539E+01    1.2950665931724433E+01
Ga   -4.8098915080627123E+00    8.3428492822942655E+00    1.3674478432814166E+01
N   -4.8156636355440394E+00    8.3427071157087820E+00    1.5593239169541302E+01
Ga   -4.8219626548235732E+00    1.0195319835771631E+01    1.6616231216638489E+01
N   -3.2325301383244032E+00    9.2493637852450039E+00    1.7516498430347543E+01
N    3.2089365657625244E+00   -2.9770296013963886E-04   -2.0753903893817868E-01
Ga    3.2094496977968103E+00    1.8517682368374337E+00    4.7429051331225164E-01
N    3.2095935678853755E+00    1.8520305226944331E+00    2.3914251387858307E+00
Ga    3.2091244105934269E+00   -7.6859279703224954E-05    3.1195889445121248E+00
N    3.2094490577247652E+00   -6.0209564201714976E-05    5.0404806773758279E+00
Ga    3.2098691329568241E+00    1.8520709957425030E+00    5.7561936768561264E+00
N    3.2105339979073917E+00    1.8531415848158170E+00    7.6794548573015335E+00
Ga    3.2104534171209473E+00    1.7228733282885218E-03    8.3935294187619700E+00
N    3.2113075746376549E+00    3.8197768884471570E-03    1.0317257685002385E+01
Ga    3.2107993579329968E+00    1.8557141203120155E+00    1.1030569138809680E+01
N    3.2113028761115876E+00    1.8586000028407363E+00    1.2956800739570820E+01
Ga    3.2091008000646113E+00    6.1770341662395045E-03    1.3671880838515488E+01
N    3.1952006466588978E+00   -5.2281855301140141E-03    1.5589963923636304E+01
Ga    3.2089926481538620E+00    1.8574127542843037E+00    1.6662862398329526E+01
N    4.7918767551109642E+00    9.0818544000552537E-01    1.7521903561951245E+01
N    1.6051099764159282E+00    2.7775275941429847E+00   -2.0736599745109169E-01
Ga    1.6055342399913044E+00    4.6296871811009384E+00    4.7418854297811641E-01
N    1.6055241178073865E+00    4.6299506256929863E+00    2.3913387088470293E+00
Ga    1.6052611912346400E+00    2.7778580312835532E+00    3.1193013769877362E+00
N    1.6054653548996873E+00    2.7778124157014310E+00    5.0401878481847726E+00
Ga    1.6057754425123267E+00    4.6298013243370315E+00    5.7565993760073075E+00
N    1.6061089339555525E+00    4.6305483739892299E+00    7.6799987723839074E+00
Ga    1.6059463244284389E+00    2.7780687592165512E+00    8.3919818901325893E+00
N    1.6066464095021586E+00    2.7792928928008744E+00    1.0315694621216773E+01
Ga    1.6071848700131521E+00    4.6311133824896196E+00    1.1026643538703274E+01
N    1.6079969059898203E+00    4.6335990596949754E+00    1.2951839759078904E+01
Ga    1.6096379287682943E+00    2.7846893586286439E+00    1.3680476890186064E+01
N    1.6018616886062449E+00    2.7861193737363497E+00    1.5604515534399399E+01
Ga    1.5920913584285192E+00    4.6322833159028800E+00    1.6620164991584236E+01
N    3.1938522762510080E+00    3.7152564095196792E+00    1.7523197815068762E+01
N    1.2757684987239136E-03    5.5553791467591500E+00   -2.0761163199606802E-01
Ga    1.7762644751057061E-03    7.4074397807621892E+00    4.7425489724573661E-01
N    1.8032297998734367E-03    7.4076864355364469E+00    2.3914402199495108E+00
Ga    1.3543286243775233E-03    5.5557474839615555E+00    3.1198989564663919E+00
N    1.5013147847295456E-03    5.5557720639480834E+00    5.0409050462880058E+00
Ga    2.1509161758039999E-03    7.4078783099362715E+00    5.7572356797124202E+00
N    2.8194536792062021E-03    7.4091782902482137E+00    7.6806344920501619E+00
Ga    2.3456428920109827E-03    5.5571577884905707E+00    8.3935128348264225E+00
N    3.1583823829634526E-03    5.5597668233012696E+00    1.0317403631323517E+01
Ga    4.7341198827010739E-03    7.4132920729974412E+00    1.1027255601345376E+01
N    5.8102611620967403E-03    7.4169145130698517E+00    1.2952983765854107E+01
Ga    6.6316679035931698E-03    5.5649911508222276E+00    1.3666696143567775E+01
N   -2.8833899862749052E-03    5.5515023204888001E+00    1.5583551241645385E+01
Ga   -1.0849428454071630E-02    7.3872793667391718E+00    1.6628746474422918E+01
N    1.5914700904747481E+00    6.4744613908076118E+00    1.7527002830314128E+01
N   -1.6024473914650650E+00    8.3331868612366282E+00   -2.0758978909608997E-01
Ga   -1.6018810206173069E+00    1.0185202379232440E+01    4.7437488999054184E-01
N   -1.6017155605743485E+00    1.0185475356483941E+01    2.3915232336259988E+00
Ga   -1.6022107134432437E+00    8.3335226271834024E+00    3.1200211459781064E+00
N   -1.6019520149060607E+00    8.3337145623378195E+00    5.0409971523463364E+00
Ga   -1.6012367454415406E+00    1.0185920957189174E+01    5.7572174815700832E+00
N   -1.6002894674020087E+00    1.0187396439638229E+01    7.6806809851436828E+00
Ga   -1.6012287102137186E+00    8.3357017597560841E+00    8.3937727738342023E+00
N   -1.6004148231412472E+00    8.3380655339139214E+00    1.0317564519582875E+01
Ga   -1.5998764731253714E+00    1.0190058611915003E+01    1.1030926908735484E+01
N   -1.5993737249086517E+00    1.0192427982525770E+01    1.2956675657897870E+01
Ga   -1.5976327365365841E+00    8.3412188090166399E+00    1.3675905006865783E+01
N   -1.6171570585606483E+00    8.3304124118631382E+00    1.5597820824404057E+01
Ga   -1.6231536285985206E+00    1.0187009596002250E+01    1.6632397871511916E+01
N   -2.7834470442774335E-02    9.2221763216589885E+00    1.7506499202678118E+01
N    6.4174705873418398E+00   -2.4234578950108328E-04   -2.0746853965025130E-01
Ga    6.4180591182056190E+00    1.8518233498558714E+00    4.7437739177497495E-01
N    6.4182389159795328E+00    1.8521516064865693E+00    2.3915417133008670E+00
Ga    6.4176527869921864E+00    1.7939845733198128E-04    3.1198994205493937E+00
N    6.4179100224139747E+00    3.8602600969503463E-04    5.0408129140217648E+00
Ga    6.4186220014004904E+00    1.8523109309878891E+00    5.7572472650504460E+00
N    6.4192212654107346E+00    1.8535554528194722E+00    7.6806902631382492E+00
Ga    6.4188476989740479E+00    2.2290243163790918E-03    8.3952529367184887E+00
N    6.4193331092758665E+00    4.8965839385993384E-03    1.0319186238006422E+01
Ga    6.4193490687370600E+00    1.8569426429559335E+00    1.1032657634603764E+01
N    6.4201927919807007E+00    1.8608659348295939E+00    1.2958798670202368E+01
Ga    6.4191859853879505E+00    9.7171975197745276E-03    1.3678447341764683E+01
N    6.4107503404575432E+00   -1.2688962403282692E-02    1.5597740607354433E+01
Ga    6.3954087157075152E+00    1.8448513498307073E+00    1.6641256530026215E+01
N    8.0039458368498781E+00    9.0706697750435861E-01    1.7518562929194417E+01
N    4.8137645363461470E+00    2.7775142619018660E+00   -2.0751184387533306E-01
Ga    4.8142624057914620E+00    4.6295895117595789E+00    4.7421923447994202E-01
N    4.8144174691250354E+00    4.6297830184922049E+00    2.3913573738147038E+00
Ga    4.8140373791732447E+00    2.7778005213844432E+00    3.1197316104348980E+00
N    4.8143129454177789E+00    2.7777809712219499E+00    5.0406582481244682E+00
Ga    4.8146885065749512E+00    4.6297459821456508E+00    5.7569083726065697E+00
N    4.8150846895732187E+00    4.6307912383912031E+00    7.6803718810463248E+00
Ga    4.8147781499493121E+00    2.7786768811638161E+00    8.3935874012457035E+00
N    4.8150715001961881E+00    2.7803936771528752E+00    1.0317348939410254E+01
Ga    4.8151872057948726E+00    4.6331105367252396E+00    1.1026821532199151E+01
N    4.8146968212353247E+00    4.6360107077021011E+00    1.2950728440465838E+01
Ga    4.8146438942211551E+00    2.7874720055292852E+00    1.3676976416575457E+01
N    4.8096582606323803E+00    2.7873611348568468E+00    1.5596150552232718E+01
Ga    4.8044047008075630E+00    4.6387587240246679E+00    1.6619084774391812E+01
N    6.3971281872567216E+00    3.6930058613976735E+00    1.7515442402748430E+01
N    3.2099559017948889E+00    5.5553433780830828E+00   -2.0751506576279191E-01
Ga    3.2103754217423086E+00    7.4074093832881722E+00    4.7434044064316283E-01
N    3.2103570407075068E+00    7.4075960527231013E+00    2.3914738010382162E+00
Ga    3.2101133257496599E+00    5.5554070495308245E+00    3.1194408744420747E+00
N    3.2102913394415600E+00    5.5551849644624225E+00    5.0403590889003427E+00
Ga    3.2106621782621168E+00    7.4075270612012636E+00    5.7555557553020007E+00
N    3.2110024918262923E+00    7.4085219583713524E+00    7.6787182151948450E+00
Ga    3.2105181841500157E+00    5.5570009558719367E+00    8.3925008994722585E+00
N    3.2106544053891342E+00    5.5594012704068962E+00    1.0316167238363180E+01
Ga    3.2121861397859472E+00    7.4121048011674473E+00    1.1028887221694198E+01
N    3.2136370463720829E+00    7.4159443584730900E+00    1.2955819956920482E+01
Ga    3.2113891897387448E+00    5.5617111845613012E+00    1.3668136431219263E+01
N    3.2038355710282165E+00    5.5602380607422477E+00    1.5586192687167337E+01
Ga    3.2086007317074681E+00    7.4065789885070217E+00    1.6656227510395276E+01
N    4.8069083335664340E+00    6.4770210056157334E+00    1.7527004863887047E+01
N    1.6061466551407231E+00    8.3331852456246462E+00   -2.0747976305451185E-01
Ga    1.6066529437576738E+00    1.0185280057718535E+01    4.7430885714777471E-01
N    1.6066786302351701E+00    1.0185602549409696E+01    2.3914466121648346E+00
Ga    1.6060882923463611E+00    8.3335887674450220E+00    3.1197063542425263E+00
N    1.6062488053286219E+00    8.3337832152040310E+00    5.0406652118598361E+00
Ga    1.6070225894923194E+00    1.0186076404235118E+01    5.7570904395475742E+00
N    1.6075749287928818E+00    1.0187600899308014E+01    7.6805881344520675E+00
Ga    1.6077632897740954E+00    8.3354881517510577E+00    8.3923468835395685E+00
N    1.6087532848137667E+00    8.3384028651799262E+00    1.0316146147752766E+01
Ga    1.6083258730482133E+00    1.0190150210207861E+01    1.1030295968789821E+01
N    1.6085671930473184E+00    1.0192761179663922E+01    1.2956321744722795E+01
Ga    1.6089670699574654E+00    8.3401450133614130E+00    1.3674906345571813E+01
N    1.6132334106135129E+00    8.3385523312634007E+00    1.5599135830177588E+01
Ga    1.6006059415173259E+00    1.0177169254633258E+01    1.6603838347005720E+01
N    3.1922191016665828E+00    9.2624732666946166E+00    1.7529479521717452E+01
N    9.6260481503269375E+00   -2.3037431466898080E-04   -2.0761217569483181E-01
Ga    9.6265837097991600E+00    1.8518524254656992E+00    4.7429109905994848E-01
N    9.6266183705219781E+00    1.8522294945000837E+00    2.3914330771709258E+00
Ga    9.6261433871122755E+00    2.1789996511149324E-04    3.1196082298560528E+00
N    9.6262684090429751E+00    5.1082724130398834E-04    5.0405527916389348E+00
Ga    9.6269659421707328E+00    1.8524599920410187E+00    5.7574606597923967E+00
N    9.6273939758870277E+00    1.8539546813339118E+00    7.6810203169434397E+00
Ga    9.6270836432320426E+00    2.0744084640967799E-03    8.3942110788960491E+00
N    9.6277254436272077E+00    5.1929361337569461E-03    1.0318158158289298E+01
Ga    9.6283125906533371E+00    1.8585770284494965E+00    1.1028109540814846E+01
N    9.6300988109319974E+00    1.8623870055609713E+00    1.2953761302837860E+01
Ga    9.6308562879167940E+00    9.9341290571523314E-03    1.3665652529146225E+01
N    9.6226808734182914E+00   -7.7014161327757088E-03    1.5581947261325077E+01
Ga    9.6152226177409563E+00    1.8284308781252050E+00    1.6625708961501630E+01
N    1.1216257239412670E+01    9.1649604043984845E-01    1.7526828358916347E+01
N    8.0223293287884481E+00    2.7775673749448635E+00   -2.0751317909806277E-01
Ga    8.0229134919804945E+00    4.6296117530095584E+00    4.7434642142948719E-01
N    8.0230884775466560E+00    4.6298427840635288E+00    2.3915068388662206E+00
Ga    8.0225500819043170E+00    2.7779580004795883E+00    3.1200803638795271E+00
N    8.0228029605844906E+00    2.7781334661716208E+00    5.0411070383775520E+00
Ga    8.0235459770955764E+00    4.6300811495922405E+00    5.7576600352007441E+00
N    8.0242749638176321E+00    4.6315870587692070E+00    7.6811083532654276E+00
Ga    8.0230492297700682E+00    2.7798653891949239E+00    8.3945434146369688E+00
N    8.0230412160318423E+00    2.7826814746080024E+00    1.0318369538430996E+01
Ga    8.0241727350911525E+00    4.6351895303053654E+00    1.1030243547094868E+01
N    8.0251928981155150E+00    4.6379046073364973E+00    1.2956051437872478E+01
Ga    8.0265651573048764E+00    2.7867603821120137E+00    1.3676598006826342E+01
N    8.0118946381327945E+00    2.7711280928050979E+00    1.5598123874364703E+01
Ga    8.0057772985771614E+00    4.6272262991637190E+00    1.6631286956540038E+01
N    9.6027780270221772E+00    3.6625168554242991E+00    1.7507678631412553E+01
N    6.4186112190437958E+00    5.5553044006899839E+00   -2.0750614919669585E-01
Ga    6.4191513506789599E+00    7.4073568602607027E+00    4.7429219412808005E-01
N    6.4193248887841836E+00    7.4074838840035477E+00    2.3914302682467321E+00
Ga    6.4188700180826288E+00    5.5553884042951260E+00    3.1197412735525440E+00
N    6.4191279101611753E+00    5.5552208584082079E+00    5.0407069926071184E+00
Ga    6.4196014446406497E+00    7.4075204875147245E+00    5.7559537510186303E+00
N    6.4200494430567696E+00    7.4087550552469423E+00    7.6792015714710615E+00
Ga    6.4196142787740111E+00    5.5572211684891588E+00    8.3931482982284944E+00
N    6.4197987411050539E+00    5.5596395657712518E+00    1.0316787677026545E+01
Ga    6.4198220791749385E+00    7.4122888140432632E+00    1.1028543324985574E+01
N    6.4205640850580306E+00    7.4147468775797485E+00    1.2954617186680357E+01
Ga    6.4179830924230199E+00    5.5624940195685237E+00    1.3670190259439222E+01
N    6.4067561059817750E+00    5.5466828260964993E+00    1.5588565906686096E+01
Ga    6.4197468933841728E+00    7.4106937168757252E+00    1.6660743080712223E+01
N    8.0016421601473979E+00    6.4603440609796685E+00    1.7518824089933389E+01
N    4.8147948126913400E+00    8.3330940882424933E+00   -2.0741642537033581E-01
Ga    4.8152529456355380E+00    1.0185272992982030E+01    4.7411428959550861E-01
N    4.8152822922571934E+00    1.0185561387871292E+01    2.3912470548842690E+00
Ga    4.8149837737601446E+00    8.3334074775657303E+00    3.1191900261216641E+00
N    4.8151837402887585E+00    8.3333502359155478E+00    5.0400402906590029E+00
Ga    4.8153557191131648E+00    1.0185653313566561E+01    5.7560756467583412E+00
N    4.8155446425803028E+00    1.0186858163803528E+01    7.6794144173375516E+00
Ga    4.8154552839257878E+00    8.3345143105758162E+00    8.3911503496681625E+00
N    4.8157028097409480E+00    8.3366811321799030E+00    1.0314842233609323E+01
Ga    4.8174058423648063E+00    1.0188305910903464E+01    1.1027243442919755E+01
N    4.8182957178960679E+00    1.0190564202635100E+01    1.2952191753786860E+01
Ga    4.8189738318163959E+00    8.3404292266312510E+00    1.3678636028216799E+01
N    4.8116733409398869E+00    8.3391918495836155E+00    1.5602438590905015E+01
Ga    4.8016092320341723E+00    1.0186464896517034E+01    1.6616451728362961E+01
N    6.4032446023917737E+00    9.2690051397017204E+00    1.7520746210676286E+01
H    2.8571619689044832E-04   -1.6831700844356323E-04   -1.2350971581079020E+00
H   -1.6035707976876510E+00    2.7776659603389540E+00   -1.2349993537159685E+00
H   -3.2073181554070787E+00    5.5553993501773418E+00   -1.2349891067701357E+00
H   -4.8110358716124688E+00    8.3331101834996701E+00   -1.2350444499570643E+00
H    3.2089111139001991E+00   -2.6724577977677206E-04   -1.2350743126256658E+00
H    1.6050579362946857E+00    2.7775516517726508E+00   -1.2348909696660926E+00
H    1.2009735884017201E-03    5.5554173504568709E+00   -1.2351488099711083E+00
H   -1.6024998651097850E+00    8.3332286934307866E+00   -1.2351284733073624E+00
H    6.4174181935258510E+00   -1.7612689116266607E-04   -1.2350032127759998E+00
H    4.8137587543495357E+00    2.7775523376251958E+00   -1.2350409625543104E+00
H    3.2099428146878211E+00    5.5554065654235112E+00   -1.2350491122794722E+00
H    1.6061258073061322E+00    8.3332205117076015E+00   -1.2350147516226679E+00
H    9.6259424722579467E+00   -1.6725365472274907E-04   -1.2351494147018316E+00
H    8.0222555931522930E+00    2.7776184724047166E+00   -1.2350401861109777E+00
H    6.4185848390551463E+00    5.5553514900695289E+00   -1.2350366230261867E+00
H    4.8147450454541252E+00    8.3330493598986646E+00   -1.2349492308502870E+00
     &END COORD
     &KIND H
       BASIS_SET DZVP-MOLOPT-SR-GTH-q1
       POTENTIAL GTH-PBE-q1
       &POTENTIAL
 1
  0.2000000000000000E+00 2 -0.4178900440000000E+01  0.7244633100000000E+00
 0
         # Potential name:  GTH-PBE-Q1  for symbol:  H
         # Potential read from the potential filename: GTH_POTENTIALS
       &END POTENTIAL
     &END KIND
     &KIND N
       BASIS_SET DZVP-MOLOPT-SR-GTH
       POTENTIAL GTH-PBE-q5
       &POTENTIAL
 2 3
  0.2837905100000000E+00 2 -0.1241522559000000E+02  0.1868095920000000E+01
 2
  0.2554050000000000E+00 1  0.1363026257000000E+02
  0.2454945300000000E+00 0
         # Potential name:  GTH-PBE-Q5  for symbol:  N
         # Potential read from the potential filename: GTH_POTENTIALS
       &END POTENTIAL
     &END KIND
     &KIND Ga
       BASIS_SET DZVP-MOLOPT-SR-GTH
       POTENTIAL GTH-PBE-q13
       &POTENTIAL
 2 1 10
  0.4900000000000000E+00 0
 3
  0.4167772300000000E+00 3  0.1047568975000000E+02 -0.4921768140000000E+01  0.8707055900000000E+00
  0.7770178090000000E+01 -0.2248152160000000E+01
  0.1784415450000000E+01
  0.5696265200000000E+00 2  0.1777985340000000E+01  0.1958597600000000E+00
 -0.2317443900000000E+00
  0.2381265000000000E+00 1 -0.1624868022000000E+02
         # Potential name:  GTH-PBE-Q13  for symbol:  GA
         # Potential read from the potential filename: GTH_POTENTIALS
       &END POTENTIAL
     &END KIND
     &TOPOLOGY
       NUMBER_OF_ATOMS  256
       MULTIPLE_UNIT_CELL  1 1 1
     &END TOPOLOGY
   &END SUBSYS
 &END FORCE_EVAL
