 # Version information for this restart file 
 # current date 2019-06-09 06:27:54.416
 # current working dir /lustre03/project/6037349/rzk/GaN-carbene/444-addat/00-Surface/UKS_SYMM
 # Program compiled at                              Sun Apr  7 00:48:11 EDT 2019
 # Program compiled on                          beluga2.int.ets1.calculquebec.ca
 # Program compiled for                        Beluga-Linux-x86-64-intel-openmpi
 # Source code revision number                                         svn:18619
 &GLOBAL
   PRINT_LEVEL  MEDIUM
   PROJECT_NAME TEST
   RUN_TYPE  CELL_OPT
 &END GLOBAL
 &MOTION
   &CELL_OPT
     MAX_ITER  300
     STEP_START_VAL  37
     EXTERNAL_PRESSURE     1.0000000000000000E+00
     KEEP_ANGLES  T
     KEEP_SYMMETRY  T
     CONSTRAINT  Z
     PRESSURE_TOLERANCE     5.0000000000000000E+02
   &END CELL_OPT
 &END MOTION
 &FORCE_EVAL
   METHOD  QS
   STRESS_TENSOR  ANALYTICAL
   &DFT
     BASIS_SET_FILE_NAME BASIS_MOLOPT
     POTENTIAL_FILE_NAME GTH_POTENTIALS
     UKS  T
     SURFACE_DIPOLE_CORRECTION  T
     SURF_DIP_DIR  Z
     &SCF
       MAX_SCF  100
       EPS_SCF     5.0000000000000004E-06
       &OT  T
         PRECONDITIONER  FULL_ALL
       &END OT
       &OUTER_SCF  T
         OPTIMIZER  NONE
         EPS_SCF     5.0000000000000004E-06
         MAX_SCF  4
       &END OUTER_SCF
       &PRINT
         &RESTART  OFF
           BACKUP_COPIES  1
           &EACH
             JUST_ENERGY  0
             QS_SCF  0
             MD  20
           &END EACH
         &END RESTART
       &END PRINT
     &END SCF
     &QS
       EPS_DEFAULT     1.0000000000000000E-14
       METHOD  GPW
     &END QS
     &MGRID
       NGRIDS  5
       CUTOFF     1.2000000000000000E+03
     &END MGRID
     &XC
       DENSITY_CUTOFF     1.0000000000000000E-10
       GRADIENT_CUTOFF     1.0000000000000000E-10
       TAU_CUTOFF     1.0000000000000000E-10
       &XC_FUNCTIONAL  NO_SHORTCUT
         &PBE  T
         &END PBE
       &END XC_FUNCTIONAL
       &VDW_POTENTIAL
         POTENTIAL_TYPE  PAIR_POTENTIAL
         &PAIR_POTENTIAL
           R_CUTOFF     1.0000000000000004E+01
           TYPE  DFTD3
           PARAMETER_FILE_NAME dftd3.dat
           REFERENCE_FUNCTIONAL PBE
           EPS_CN     9.9999999999999995E-07
           CALCULATE_C9_TERM  T
           REFERENCE_C9_TERM  T
           LONG_RANGE_CORRECTION  F
           VERBOSE_OUTPUT  F
         &END PAIR_POTENTIAL
       &END VDW_POTENTIAL
     &END XC
   &END DFT
   &SUBSYS
     &CELL
       A     1.2831282319973624E+01    0.0000000000000000E+00    0.0000000000000000E+00
       B    -6.4145169881963904E+00    1.1110269329569899E+01    0.0000000000000000E+00
       C     0.0000000000000000E+00    0.0000000000000000E+00    3.2000000000000000E+01
       MULTIPLE_UNIT_CELL  1 1 1
       &CELL_REF
         A     1.2982353780853531E+01    0.0000000000000000E+00    0.0000000000000000E+00
         B    -6.4911768904267628E+00    1.1243048175136114E+01    0.0000000000000000E+00
         C     0.0000000000000000E+00    0.0000000000000000E+00    3.2000000000000000E+01
         MULTIPLE_UNIT_CELL  1 1 1
       &END CELL_REF
     &END CELL
     &COORD
N    2.7607246731072580E-04   -2.6284864503426270E-04   -2.0861493110697527E-01
Ga    5.4308749604305075E-04    1.8516642180537617E+00    4.7357211897487073E-01
N    5.6038667946756735E-04    1.8519596447880835E+00    2.3913043983522870E+00
Ga    4.4726831888634080E-04   -5.6457086019365376E-05    3.1190993083132130E+00
N    6.5932453552471862E-04   -7.3857746874148690E-05    5.0402960443689189E+00
Ga    7.8225478226091514E-04    1.8520559031204868E+00    5.7563573958631480E+00
N    1.1394789736343426E-03    1.8530769944088568E+00    7.6797839772512084E+00
Ga    1.1143718209135739E-03    1.5211056671732351E-03    8.3926764327604229E+00
N    1.6833149616630471E-03    3.9621269034003266E-03    1.0316471610498368E+01
Ga    2.7647379786224662E-03    1.8555984756745221E+00    1.1030739012454337E+01
N    4.4028792642679740E-03    1.8603031246934862E+00    1.2957167210158334E+01
Ga    2.4437665941604175E-03    6.4585815896593549E-03    1.3669992866563803E+01
N   -5.9661371568931372E-03    5.2014326206085331E-03    1.5587706828262032E+01
Ga   -2.3146064373892571E-03    1.8512858033538999E+00    1.6657077173688180E+01
N    1.5958643484673725E+00    9.2113595773518608E-01    1.7528686511981704E+01
N   -1.6033968783004069E+00    2.7773445550267750E+00   -2.0851029208102151E-01
Ga   -1.6030247597070859E+00    4.6292709921510147E+00    4.7364068326383463E-01
N   -1.6029580040247895E+00    4.6295692076688946E+00    2.3914017006313997E+00
Ga   -1.6033731512555878E+00    2.7777414891516359E+00    3.1193749510167286E+00
N   -1.6032540847619330E+00    2.7779264328738349E+00    5.0406557454064558E+00
Ga   -1.6026852958275473E+00    4.6297222168217793E+00    5.7577343166387642E+00
N   -1.6021394716372721E+00    4.6309949212004504E+00    7.6814018990238653E+00
Ga   -1.6019002831093243E+00    2.7792495436350544E+00    8.3940165140319447E+00
N   -1.6007480810054051E+00    2.7817757984038782E+00    1.0317948921115526E+01
Ga   -1.6011562369729084E+00    4.6337921185999447E+00    1.1030861942547718E+01
N   -1.6008909188226501E+00    4.6364224780682877E+00    1.2956350306196612E+01
Ga   -1.6008627170131744E+00    2.7842888880990877E+00    1.3675731386287733E+01
N   -1.5952813735851545E+00    2.7841418690751629E+00    1.5600376240652073E+01
Ga   -1.6070603672786021E+00    4.6245777200367524E+00    1.6605814317496606E+01
N   -1.7916765596008934E-02    3.7066783663608724E+00    1.7530451184855174E+01
N   -3.2069837621518777E+00    5.5548716852901512E+00   -2.0849273863178344E-01
Ga   -3.2065635839024860E+00    7.4067715643206018E+00    4.7367827580151828E-01
N   -3.2063935265612353E+00    7.4069866509134688E+00    2.3914478547163474E+00
Ga   -3.2068048276202306E+00    5.5551526330642105E+00    3.1196545879761910E+00
N   -3.2065261181255336E+00    5.5552402056849841E+00    5.0409431491241339E+00
Ga   -3.2059535257197975E+00    7.4071677769722601E+00    5.7573853001487389E+00
N   -3.2051792525036600E+00    7.4085253244567246E+00    7.6809742320448775E+00
Ga   -3.2055875904370130E+00    5.5571798985698315E+00    8.3950347858611121E+00
N   -3.2051253091398673E+00    5.5595755410293881E+00    1.0318993659268910E+01
Ga   -3.2047246652740107E+00    7.4120530234966315E+00    1.1030771539625439E+01
N   -3.2040732744234810E+00    7.4154768687483976E+00    1.2956531410867736E+01
Ga   -3.2053018754462554E+00    5.5651589304237286E+00    1.3677219239103696E+01
N   -3.2114805746155568E+00    5.5422156138860483E+00    1.5597099111968326E+01
Ga   -3.2312855977445309E+00    7.4021548991511175E+00    1.6636036580841079E+01
N   -1.6242113895054704E+00    6.4682700411533824E+00    1.7518297823947872E+01
N   -4.8105637515055051E+00    8.3323622106697801E+00   -2.0854436588902439E-01
Ga   -4.8102414207536786E+00    1.0184321617939061E+01    4.7341123135882945E-01
N   -4.8101110303819548E+00    1.0184529364066599E+01    2.3911591885483010E+00
Ga   -4.8102964668376806E+00    8.3326652136086619E+00    3.1192697395068048E+00
N   -4.8099789029904070E+00    8.3326546260332925E+00    5.0405063976950570E+00
Ga   -4.8096848059630952E+00    1.0184711603697767E+01    5.7569180999352731E+00
N   -4.8090182930024330E+00    1.0185960522242842E+01    7.6805333202559538E+00
Ga   -4.8094661530141831E+00    8.3340052703904774E+00    8.3930722348728342E+00
N   -4.8090507185485620E+00    8.3358491886010544E+00    1.0316955376188627E+01
Ga   -4.8086722216809417E+00    1.0188286299897074E+01    1.1027581500462233E+01
N   -4.8094451565061123E+00    1.0191173801696788E+01    1.2950688106201515E+01
Ga   -4.8093773669647257E+00    8.3420719400777052E+00    1.3674863039045109E+01
N   -4.8154453209195758E+00    8.3420601819390185E+00    1.5593492146285161E+01
Ga   -4.8219727544248752E+00    1.0193383452991196E+01    1.6615996473024012E+01
N   -3.2320658586593480E+00    9.2492293792268754E+00    1.7515936454398364E+01
N    3.2081483896844154E+00   -2.9943074774338744E-04   -2.0857448985849078E-01
Ga    3.2084932063434781E+00    1.8516217860463886E+00    4.7354169067407637E-01
N    3.2086245513481311E+00    1.8518845563990864E+00    2.3912757154509059E+00
Ga    3.2083367938442056E+00   -5.1232787790268925E-05    3.1192381470705883E+00
N    3.2086827649303884E+00   -2.4084456143705437E-05    5.0404689611469982E+00
Ga    3.2089324243842858E+00    1.8519574063306117E+00    5.7566577894969582E+00
N    3.2095923232555550E+00    1.8530636426333502E+00    7.6801601609430445E+00
Ga    3.2095790408132041E+00    1.7481586625724616E-03    8.3939316626632898E+00
N    3.2103079576254006E+00    3.8178457500624668E-03    1.0317816496164696E+01
Ga    3.2098108096322426E+00    1.8555988824533687E+00    1.1031027696831092E+01
N    3.2103853444507817E+00    1.8585273416665031E+00    1.2956838598696025E+01
Ga    3.2080689064244243E+00    5.9767660025038449E-03    1.3672008200417112E+01
N    3.1942702795659224E+00   -5.3790436769732318E-03    1.5590457058377257E+01
Ga    3.2080042548592700E+00    1.8572955001400289E+00    1.6661880988673424E+01
N    4.7903390715599965E+00    9.0824577901812231E-01    1.7521438385137408E+01
N    1.6044615175677917E+00    2.7772747050529816E+00   -2.0842806820410589E-01
Ga    1.6047222758438733E+00    4.6292741598164069E+00    4.7345461602175326E-01
N    1.6047149280029864E+00    4.6295240511541653E+00    2.3912091344523536E+00
Ga    1.6046189381598752E+00    2.7776034029312999E+00    3.1190108320507832E+00
N    1.6048240837846572E+00    2.7775784955223335E+00    5.0402265926455057E+00
Ga    1.6050179120647139E+00    4.6294486003218669E+00    5.7569843418567404E+00
N    1.6053528063710834E+00    4.6302763452914952E+00    7.6806144651960748E+00
Ga    1.6053678530053666E+00    2.7780357210997941E+00    8.3926010741062758E+00
N    1.6061072090682924E+00    2.7794678032079290E+00    1.0316511092664317E+01
Ga    1.6064836616034850E+00    4.6311857105203318E+00    1.1027668689461631E+01
N    1.6071848438253413E+00    4.6333763008470070E+00    1.2952523802466461E+01
Ga    1.6089705202867990E+00    2.7844511788028874E+00    1.3680737747478409E+01
N    1.6005162248387577E+00    2.7845631867538576E+00    1.5604921900231433E+01
Ga    1.5909651026525484E+00    4.6318421798873564E+00    1.6619836049174225E+01
N    3.1919443695589749E+00    3.7146314880151703E+00    1.7522769953216443E+01
N    7.7031464480601275E-04    5.5548888001936687E+00   -2.0863606499701282E-01
Ga    1.1127257377182955E-03    7.4067943241697884E+00    4.7355328081035586E-01
N    1.1618128259132685E-03    7.4070458560178807E+00    2.3913416466283550E+00
Ga    8.7887441536006706E-04    5.5552471114727320E+00    3.1195620556138599E+00
N    1.0536896875565579E-03    5.5553251226876119E+00    5.0408682900939974E+00
Ga    1.5447888948120112E-03    7.4073258372251276E+00    5.7574610832735766E+00
N    2.2062549851352936E-03    7.4086680888891721E+00    7.6810880518481746E+00
Ga    1.9033179538795199E-03    5.5568258013340008E+00    8.3938403203533269E+00
N    2.6913899738147053E-03    5.5593297992002979E+00    1.0317939906183073E+01
Ga    3.9010098604091970E-03    7.4125772491851540E+00    1.1028064777150455E+01
N    4.8112075379791192E-03    7.4158229835671383E+00    1.2953259631892173E+01
Ga    5.6265677877660875E-03    5.5642792932369431E+00    1.3667692566334569E+01
N   -3.2749573225467183E-03    5.5507424149056686E+00    1.5584587237628966E+01
Ga   -1.1742305709363224E-02    7.3869343024996335E+00    1.6627731161196781E+01
N    1.5902857771016314E+00    6.4742334156020025E+00    1.7527070657458914E+01
N   -1.6028112528372278E+00    8.3324466203734424E+00   -2.0860226801269011E-01
Ga   -1.6024106785155081E+00    1.0184318597415391E+01    4.7362678727041574E-01
N   -1.6022510082752641E+00    1.0184587231399611E+01    2.3913803582526389E+00
Ga   -1.6025755584075367E+00    8.3327939481956328E+00    3.1196452762304130E+00
N   -1.6023108951978360E+00    8.3330323473301622E+00    5.0409358223785175E+00
Ga   -1.6017387546123156E+00    1.0185063967535104E+01    5.7576065309237832E+00
N   -1.6008475501314867E+00    1.0186530898374723E+01    7.6813067166218509E+00
Ga   -1.6015338732543234E+00    8.3349732496704085E+00    8.3941253750905016E+00
N   -1.6008897237017323E+00    8.3372131188645451E+00    1.0318061519797549E+01
Ga   -1.6004997353513635E+00    1.0189142882384354E+01    1.1031403008089555E+01
N   -1.6000011303066641E+00    1.0191431134389131E+01    1.2956514856200220E+01
Ga   -1.5983223693097832E+00    8.3404382238107679E+00    1.3675991588159615E+01
N   -1.6170950250054412E+00    8.3304559323144520E+00    1.5598020311633251E+01
Ga   -1.6227529946667123E+00    1.0185859280209463E+01    1.6631540413842806E+01
N   -2.7940607117841573E-02    9.2209825124302185E+00    1.7507018578063104E+01
N    6.4158874811613549E+00   -2.3938313079052860E-04   -2.0850382466843179E-01
Ga    6.4163127456754863E+00    1.8516793513117578E+00    4.7365492484001942E-01
N    6.4164961948191026E+00    1.8520112229148709E+00    2.3914286961173401E+00
Ga    6.4160888814455959E+00    1.6546293617002928E-04    3.1195190009128857E+00
N    6.4163675996444720E+00    3.8203182794823592E-04    5.0407760013883163E+00
Ga    6.4168466275054374E+00    1.8521705935379704E+00    5.7576076213499938E+00
N    6.4174386979359257E+00    1.8534957678524600E+00    7.6812987679732405E+00
Ga    6.4172551531376474E+00    2.2757561756316666E-03    8.3954936096641966E+00
N    6.4177234872453850E+00    4.8221891122648373E-03    1.0319538495132667E+01
Ga    6.4175729957443561E+00    1.8568215990696779E+00    1.1032677663754459E+01
N    6.4183804334762860E+00    1.8606303241619855E+00    1.2958260357666488E+01
Ga    6.4175969546340799E+00    9.7027279122931243E-03    1.3678783682538764E+01
N    6.4100902577549785E+00   -1.1596541264821061E-02    1.5598412030053410E+01
Ga    6.3936357198550127E+00    1.8452693244199669E+00    1.6639680846257754E+01
N    8.0018016766012536E+00    9.0893490852829262E-01    1.7519147802673078E+01
N    4.8123240546356980E+00    2.7772597140078656E+00   -2.0855387898199076E-01
Ga    4.8126562860048976E+00    4.6291829949488097E+00    4.7348463129365131E-01
N    4.8128032968917971E+00    4.6293846054949013E+00    2.3912345609546390E+00
Ga    4.8125702695737287E+00    2.7775528072274200E+00    3.1193908609973353E+00
N    4.8128624925369969E+00    2.7775692941930221E+00    5.0406369928373191E+00
Ga    4.8130564879046238E+00    4.6293946811671258E+00    5.7572556536188433E+00
N    4.8134800875998955E+00    4.6304782244559535E+00    7.6809425756808647E+00
Ga    4.8133009566501599E+00    2.7785728633403539E+00    8.3940807279605920E+00
N    4.8135062289241874E+00    2.7803894173568584E+00    1.0317961685330696E+01
Ga    4.8136187230122536E+00    4.6329517312192552E+00    1.1027501820163030E+01
N    4.8130119055167615E+00    4.6355893670773680E+00    1.2950898841710933E+01
Ga    4.8133988426175618E+00    2.7871997957224526E+00    1.3677058759114503E+01
N    4.8083486213887303E+00    2.7869477365111308E+00    1.5596273823828572E+01
Ga    4.8026321891074337E+00    4.6375492892331724E+00    1.6618293059772125E+01
N    6.3954691975094295E+00    3.6926679279480306E+00    1.7515507393568495E+01
N    3.2086526345375472E+00    5.5548437655930201E+00   -2.0855878796752875E-01
Ga    3.2089072828835303E+00    7.4067645026503772E+00    4.7358489845064933E-01
N    3.2089034687129185E+00    7.4069643472075812E+00    2.3913261154336256E+00
Ga    3.2088019658594784E+00    5.5549452846519172E+00    3.1190962023085320E+00
N    3.2090009678463547E+00    5.5548210188515457E+00    5.0403469295003163E+00
Ga    3.2092227690890609E+00    7.4069847108387066E+00    5.7561083826910435E+00
N    3.2095766839602260E+00    7.4080931291586314E+00    7.6795360553890095E+00
Ga    3.2092707139884529E+00    5.5566342259459933E+00    8.3929082563888482E+00
N    3.2094891052343852E+00    5.5590553644130347E+00    1.0316775923707034E+01
Ga    3.2108784076000982E+00    7.4115074783354871E+00    1.1029552270413374E+01
N    3.2123189747609162E+00    7.4150915993999469E+00    1.2955997386990228E+01
Ga    3.2103025530180465E+00    5.5613149845944552E+00    1.3668987289955005E+01
N    3.2024170655502595E+00    5.5589881473774430E+00    1.5587103681665036E+01
Ga    3.2069464501277047E+00    7.4053515615396863E+00    1.6654767391719844E+01
N    4.8051042337783212E+00    6.4753288372763800E+00    1.7526790771556986E+01
N    1.6049790035272973E+00    8.3324500673765129E+00   -2.0851773753510114E-01
Ga    1.6053315601321840E+00    1.0184391223630360E+01    4.7357135877777679E-01
N    1.6053913855254209E+00    1.0184705049472608E+01    2.3913183014112938E+00
Ga    1.6049805078228627E+00    8.3328647621391614E+00    3.1193739276434895E+00
N    1.6051802737585092E+00    8.3331204545829074E+00    5.0406484764218940E+00
Ga    1.6057275078167859E+00    1.0185209670265522E+01    5.7575027381688768E+00
N    1.6062639874153735E+00    1.0186735350295052E+01    7.6812209504434854E+00
Ga    1.6065390145270093E+00    8.3348223594822581E+00    8.3929442996843289E+00
N    1.6075640264690814E+00    8.3375301080858399E+00    1.0316906736661124E+01
Ga    1.6069861696948622E+00    1.0189196860048511E+01    1.1030876249150412E+01
N    1.6071339606263870E+00    1.0191388423131496E+01    1.2956338522166666E+01
Ga    1.6076047852638904E+00    8.3389787142891869E+00    1.3675390705025569E+01
N    1.6123019546719348E+00    8.3383123328720323E+00    1.5599763343656454E+01
Ga    1.5999892089581711E+00    1.0177172778795104E+01    1.6604527327408263E+01
N    3.1910582161797669E+00    9.2607437087209021E+00    1.7529102269945266E+01
N    9.6236622422859597E+00   -2.2665161526936380E-04   -2.0863418324549160E-01
Ga    9.6240287698207805E+00    1.8517024460369760E+00    4.7355981843530681E-01
N    9.6240665962820291E+00    1.8520578481119343E+00    2.3913114831969797E+00
Ga    9.6237828143581599E+00    2.1417172581609443E-04    3.1192872637603020E+00
N    9.6239207911757116E+00    5.0663175525230677E-04    5.0405702026963146E+00
Ga    9.6244391522297121E+00    1.8523013519108673E+00    5.7578159389349226E+00
N    9.6248205934744604E+00    1.8538409399376765E+00    7.6815796848283640E+00
Ga    9.6247288370052342E+00    2.0999856090078272E-03    8.3944898039304991E+00
N    9.6253895055655168E+00    5.0445086083971049E-03    1.0318568248522711E+01
Ga    9.6259556179133501E+00    1.8581836773753420E+00    1.1028567974625890E+01
N    9.6274839790874012E+00    1.8613918411684318E+00    1.2953840986075019E+01
Ga    9.6282355698707516E+00    9.1646908543287480E-03    1.3666686620906281E+01
N    9.6200985205809921E+00   -7.0587926382292571E-03    1.5583130357907695E+01
Ga    9.6121707516156718E+00    1.8287504698799844E+00    1.6625317074116943E+01
N    1.1213532068898711E+01    9.1692201107844185E-01    1.7527136632203135E+01
N    8.0200876613488621E+00    2.7773171460073822E+00   -2.0854793473411798E-01
Ga    8.0205039125324760E+00    4.6292005670325889E+00    4.7362624836306844E-01
N    8.0206708003765819E+00    4.6294249470015467E+00    2.3914056019281942E+00
Ga    8.0203285585478472E+00    2.7776949994515037E+00    3.1197613879224395E+00
N    8.0205779845249090E+00    2.7778765261223417E+00    5.0410989937283874E+00
Ga    8.0211259797151637E+00    4.6297306731252474E+00    5.7578952943592814E+00
N    8.0217886126686082E+00    4.6312093510196357E+00    7.6815709272070878E+00
Ga    8.0208258951606286E+00    2.7797016800395009E+00    8.3948710642430218E+00
N    8.0210141187355148E+00    2.7823846251996791E+00    1.0318882511604230E+01
Ga    8.0217248056567474E+00    4.6347107780168928E+00    1.1030892410210178E+01
N    8.0226347590183700E+00    4.6368851913455442E+00    1.2956143907449599E+01
Ga    8.0243234545376900E+00    2.7858904453861615E+00    1.3676871791080586E+01
N    8.0093909667239824E+00    2.7724107245429774E+00    1.5598417814434280E+01
Ga    8.0034336123919001E+00    4.6273528936890731E+00    1.6630093532171447E+01
N    9.6003157718164438E+00    3.6625163260992335E+00    1.7508093060659306E+01
N    6.4165151460349170E+00    5.5548054125079993E+00   -2.0855010044122399E-01
Ga    6.4168871023737424E+00    7.4067131660451677E+00    4.7354284863823498E-01
N    6.4170476893909552E+00    7.4068691058626959E+00    2.3912971102503784E+00
Ga    6.4167517368961100E+00    5.5549430322806268E+00    3.1194028168777517E+00
N    6.4169956385440674E+00    5.5548522265121090E+00    5.0406932866641254E+00
Ga    6.4173139113648388E+00    7.4070230611143861E+00    5.7564105185141621E+00
N    6.4177861299026207E+00    7.4083124035707453E+00    7.6799005996747507E+00
Ga    6.4175066326628691E+00    5.5568841837836942E+00    8.3935080550124024E+00
N    6.4177453058384204E+00    5.5592060946433364E+00    1.0317386364511666E+01
Ga    6.4177104746377092E+00    7.4115835703283963E+00    1.1029460894811427E+01
N    6.4185050135888275E+00    7.4138307208797647E+00    1.2954970270550387E+01
Ga    6.4159171173928584E+00    5.5617707177205151E+00    1.3670707900220888E+01
N    6.4041796834101223E+00    5.5461712554627214E+00    1.5589120457031891E+01
Ga    6.4172992989952569E+00    7.4102664253582882E+00    1.6659818032426831E+01
N    7.9993393946545934E+00    6.4596869092647946E+00    1.7518531185145836E+01
N    4.8128361492883869E+00    8.3323589912534342E+00   -2.0846234588326312E-01
Ga    4.8131301712583348E+00    1.0184388590696006E+01    4.7337023913041648E-01
N    4.8131536731964584E+00    1.0184672211810526E+01    2.3911209740663573E+00
Ga    4.8130135547340185E+00    8.3326863202728418E+00    3.1188836012383039E+00
N    4.8131994352056040E+00    8.3327029018812109E+00    5.0400749347999589E+00
Ga    4.8132884790954238E+00    1.0184819988207925E+01    5.7565651514455025E+00
N    4.8135412591471267E+00    1.0186094709762571E+01    7.6801703379991357E+00
Ga    4.8135744045747577E+00    8.3339496109342388E+00    8.3918765924519896E+00
N    4.8139841613144556E+00    8.3359885903295083E+00    1.0315757007598297E+01
Ga    4.8152677837782010E+00    1.0187495528019417E+01    1.1028019113885428E+01
N    4.8159470906886428E+00    1.0189425163851318E+01    1.2952375649796787E+01
Ga    4.8172331981544003E+00    8.3395455030030714E+00    1.3679161872357907E+01
N    4.8092827389443578E+00    8.3381573463942633E+00    1.5602881490625874E+01
Ga    4.7990635046141588E+00    1.0185099037440809E+01    1.6616703328145103E+01
N    6.4000230035225574E+00    9.2678997644333254E+00    1.7520475957954044E+01
H    2.8702661150422401E-04   -1.6336884377509683E-04   -1.2359248338833941E+00
H   -1.6034230290120126E+00    2.7774283392016161E+00   -1.2358201476363948E+00
H   -3.2070217992515682E+00    5.5549139948942594E+00   -1.2358050893525270E+00
H   -4.8105903685102840E+00    8.3323552542104018E+00   -1.2358550388596015E+00
H    3.2081455818619125E+00   -2.6706509938330023E-04   -1.2358825652293552E+00
H    1.6044137456146781E+00    2.7772968631951582E+00   -1.2357303114236615E+00
H    6.8078462377268805E-04    5.5549239510836390E+00   -1.2359478161263866E+00
H   -1.6028780897688195E+00    8.3325009945800605E+00   -1.2359156210656033E+00
H    6.4158247294912591E+00   -1.7790383666421711E-04   -1.2358152730233252E+00
H    4.8123163332840946E+00    2.7772933089969256E+00   -1.2358620132054361E+00
H    3.2086372767489983E+00    5.5549224309137539E+00   -1.2358688362824362E+00
H    1.6049655469018447E+00    8.3324883755176700E+00   -1.2358259715899405E+00
H    9.6235506099879817E+00   -1.6315758656627457E-04   -1.2359469157394487E+00
H    8.0200093607187970E+00    2.7773751666805349E+00   -1.2358571311281839E+00
H    6.4164945570598251E+00    5.5548564785700876E+00   -1.2358608868395198E+00
H    4.8127828342129453E+00    8.3323052174618422E+00   -1.2357732590558319E+00
     &END COORD
     &KIND H
       BASIS_SET DZVP-MOLOPT-SR-GTH-q1
       POTENTIAL GTH-PBE-q1
       &POTENTIAL
 1
  0.2000000000000000E+00 2 -0.4178900440000000E+01  0.7244633100000000E+00
 0
         # Potential name:  GTH-PBE-Q1  for symbol:  H
         # Potential read from the potential filename: GTH_POTENTIALS
       &END POTENTIAL
     &END KIND
     &KIND N
       BASIS_SET DZVP-MOLOPT-SR-GTH
       POTENTIAL GTH-PBE-q5
       &POTENTIAL
 2 3
  0.2837905100000000E+00 2 -0.1241522559000000E+02  0.1868095920000000E+01
 2
  0.2554050000000000E+00 1  0.1363026257000000E+02
  0.2454945300000000E+00 0
         # Potential name:  GTH-PBE-Q5  for symbol:  N
         # Potential read from the potential filename: GTH_POTENTIALS
       &END POTENTIAL
     &END KIND
     &KIND Ga
       BASIS_SET DZVP-MOLOPT-SR-GTH
       POTENTIAL GTH-PBE-q13
       &POTENTIAL
 2 1 10
  0.4900000000000000E+00 0
 3
  0.4167772300000000E+00 3  0.1047568975000000E+02 -0.4921768140000000E+01  0.8707055900000000E+00
  0.7770178090000000E+01 -0.2248152160000000E+01
  0.1784415450000000E+01
  0.5696265200000000E+00 2  0.1777985340000000E+01  0.1958597600000000E+00
 -0.2317443900000000E+00
  0.2381265000000000E+00 1 -0.1624868022000000E+02
         # Potential name:  GTH-PBE-Q13  for symbol:  GA
         # Potential read from the potential filename: GTH_POTENTIALS
       &END POTENTIAL
     &END KIND
     &TOPOLOGY
       NUMBER_OF_ATOMS  256
       MULTIPLE_UNIT_CELL  1 1 1
     &END TOPOLOGY
   &END SUBSYS
 &END FORCE_EVAL
