 # Version information for this restart file 
 # current date 2019-06-09 06:41:26.134
 # current working dir /lustre03/project/6037349/rzk/GaN-carbene/444-addat/00-Surface/UKS_SYMM
 # Program compiled at                              Sun Apr  7 00:48:11 EDT 2019
 # Program compiled on                          beluga2.int.ets1.calculquebec.ca
 # Program compiled for                        Beluga-Linux-x86-64-intel-openmpi
 # Source code revision number                                         svn:18619
 &GLOBAL
   PRINT_LEVEL  MEDIUM
   PROJECT_NAME TEST
   RUN_TYPE  CELL_OPT
 &END GLOBAL
 &MOTION
   &CELL_OPT
     MAX_ITER  300
     STEP_START_VAL  39
     EXTERNAL_PRESSURE     1.0000000000000000E+00
     KEEP_ANGLES  T
     KEEP_SYMMETRY  T
     CONSTRAINT  Z
     PRESSURE_TOLERANCE     5.0000000000000000E+02
   &END CELL_OPT
 &END MOTION
 &FORCE_EVAL
   METHOD  QS
   STRESS_TENSOR  ANALYTICAL
   &DFT
     BASIS_SET_FILE_NAME BASIS_MOLOPT
     POTENTIAL_FILE_NAME GTH_POTENTIALS
     UKS  T
     SURFACE_DIPOLE_CORRECTION  T
     SURF_DIP_DIR  Z
     &SCF
       MAX_SCF  100
       EPS_SCF     5.0000000000000004E-06
       &OT  T
         PRECONDITIONER  FULL_ALL
       &END OT
       &OUTER_SCF  T
         OPTIMIZER  NONE
         EPS_SCF     5.0000000000000004E-06
         MAX_SCF  4
       &END OUTER_SCF
       &PRINT
         &RESTART  OFF
           BACKUP_COPIES  1
           &EACH
             JUST_ENERGY  0
             QS_SCF  0
             MD  20
           &END EACH
         &END RESTART
       &END PRINT
     &END SCF
     &QS
       EPS_DEFAULT     1.0000000000000000E-14
       METHOD  GPW
     &END QS
     &MGRID
       NGRIDS  5
       CUTOFF     1.2000000000000000E+03
     &END MGRID
     &XC
       DENSITY_CUTOFF     1.0000000000000000E-10
       GRADIENT_CUTOFF     1.0000000000000000E-10
       TAU_CUTOFF     1.0000000000000000E-10
       &XC_FUNCTIONAL  NO_SHORTCUT
         &PBE  T
         &END PBE
       &END XC_FUNCTIONAL
       &VDW_POTENTIAL
         POTENTIAL_TYPE  PAIR_POTENTIAL
         &PAIR_POTENTIAL
           R_CUTOFF     1.0000000000000004E+01
           TYPE  DFTD3
           PARAMETER_FILE_NAME dftd3.dat
           REFERENCE_FUNCTIONAL PBE
           EPS_CN     9.9999999999999995E-07
           CALCULATE_C9_TERM  T
           REFERENCE_C9_TERM  T
           LONG_RANGE_CORRECTION  F
           VERBOSE_OUTPUT  F
         &END PAIR_POTENTIAL
       &END VDW_POTENTIAL
     &END XC
   &END DFT
   &SUBSYS
     &CELL
       A     1.2833510262771808E+01    0.0000000000000000E+00    0.0000000000000000E+00
       B    -6.4155340595997172E+00    1.1112030948915386E+01    0.0000000000000000E+00
       C     0.0000000000000000E+00    0.0000000000000000E+00    3.2000000000000000E+01
       MULTIPLE_UNIT_CELL  1 1 1
       &CELL_REF
         A     1.2982353780853531E+01    0.0000000000000000E+00    0.0000000000000000E+00
         B    -6.4911768904267628E+00    1.1243048175136114E+01    0.0000000000000000E+00
         C     0.0000000000000000E+00    0.0000000000000000E+00    3.2000000000000000E+01
         MULTIPLE_UNIT_CELL  1 1 1
       &END CELL_REF
     &END CELL
     &COORD
N    4.0672044355918006E-04   -1.0411207369554157E-04   -2.1052657699649865E-01
Ga    5.1895530925610703E-04    1.8518063837150456E+00    4.7038377659147712E-01
N    5.9847044336982375E-04    1.8521414157968190E+00    2.3875140474092462E+00
Ga    5.1276771105128363E-04    4.5993626311398603E-05    3.1175605429928268E+00
N    7.5480402753592523E-04    1.2450114135716250E-04    5.0397525397717597E+00
Ga    8.9457961124441180E-04    1.8522374131084269E+00    5.7564004822587611E+00
N    1.3791660415982431E-03    1.8534211655896067E+00    7.6800003342876897E+00
Ga    1.2661603685835915E-03    1.8734788921769665E-03    8.3943455894275782E+00
N    1.7055495468173516E-03    4.3892970151218520E-03    1.0318594657329946E+01
Ga    2.8163190679541968E-03    1.8565338611494715E+00    1.1032608226796032E+01
N    4.0973141985320800E-03    1.8605579692701268E+00    1.2959212206943215E+01
Ga    1.9918510026334935E-03    6.3478018983759155E-03    1.3672005384375607E+01
N   -6.3838052871431419E-03    3.5529777983033849E-03    1.5589358501062280E+01
Ga   -2.0441806042968145E-03    1.8510176430701524E+00    1.6656005384329735E+01
N    1.5951183288268058E+00    9.2014177644787420E-01    1.7529932100783505E+01
N   -1.6035229806972555E+00    2.7779329179266474E+00   -2.1040109743854540E-01
Ga   -1.6033085078626854E+00    4.6298548695509600E+00    4.7045921380907718E-01
N   -1.6031516788832540E+00    4.6302021203294341E+00    2.3876200535645453E+00
Ga   -1.6034964397039715E+00    2.7781976667315726E+00    3.1178751637622586E+00
N   -1.6032845874831831E+00    2.7784246764495175E+00    5.0401388403098126E+00
Ga   -1.6028751599508821E+00    4.6304918977028766E+00    5.7572452727883139E+00
N   -1.6023061010474151E+00    4.6319279552080586E+00    7.6810218314277732E+00
Ga   -1.6020349230911040E+00    2.7800705129473955E+00    8.3950210851548324E+00
N   -1.6009450630418012E+00    2.7825795160829490E+00    1.0319328755339539E+01
Ga   -1.6017080453317034E+00    4.6346455314099035E+00    1.1032951894452530E+01
N   -1.6015616279420397E+00    4.6362434691675372E+00    1.2958887984445905E+01
Ga   -1.6012226085913195E+00    2.7841175006605825E+00    1.3678092509255720E+01
N   -1.5949146706783743E+00    2.7846771310057217E+00    1.5602206281583232E+01
Ga   -1.6059985607138978E+00    4.6263629623944684E+00    1.6609205668593482E+01
N   -1.7966924375138551E-02    3.7055873084661961E+00    1.7531438343920865E+01
N   -3.2073707477193776E+00    5.5559111362099465E+00   -2.1037318548983652E-01
Ga   -3.2071197164117584E+00    7.4078098255354972E+00    4.7051792952473770E-01
N   -3.2069135376342475E+00    7.4081423509358357E+00    2.3876423168837282E+00
Ga   -3.2072070227016454E+00    5.5561704099177254E+00    3.1180895796843733E+00
N   -3.2069183562985755E+00    5.5564442321780358E+00    5.0403184137650596E+00
Ga   -3.2064580823869444E+00    7.4084800843780725E+00    5.7571642652835822E+00
N   -3.2058423459385881E+00    7.4099764048213732E+00    7.6808437638044404E+00
Ga   -3.2061967282898363E+00    5.5582729102943018E+00    8.3958128540323322E+00
N   -3.2058663622414674E+00    5.5604498916251242E+00    1.0320232822499827E+01
Ga   -3.2054406103575181E+00    7.4127686984611421E+00    1.1032671779843771E+01
N   -3.2051957449085333E+00    7.4160460729907092E+00    1.2958476096728704E+01
Ga   -3.2059679553166767E+00    5.5655775375713779E+00    1.3679976700982770E+01
N   -3.2104810251686264E+00    5.5429832739714389E+00    1.5599085315918289E+01
Ga   -3.2310099145860010E+00    7.4048206729402040E+00    1.6636817590210807E+01
N   -1.6244677636142113E+00    6.4710708807163355E+00    1.7521007676559915E+01
N   -4.8111949736518520E+00    8.3338357867518198E+00   -2.1043077715869682E-01
Ga   -4.8110477040853716E+00    1.0185803572332098E+01    4.7027063924057216E-01
N   -4.8108917796536925E+00    1.0186100374679794E+01    2.3874070125412850E+00
Ga   -4.8109931404492130E+00    8.3340922028534088E+00    3.1177366379538225E+00
N   -4.8106406901534822E+00    8.3342501957182282E+00    5.0399638259791422E+00
Ga   -4.8105250798933179E+00    1.0186436792961777E+01    5.7566918373401741E+00
N   -4.8099437581926416E+00    1.0187781344982088E+01    7.6805037898270037E+00
Ga   -4.8101910488699930E+00    8.3357884010022492E+00    8.3946273093740071E+00
N   -4.8099890870551363E+00    8.3373055437467372E+00    1.0318831024101893E+01
Ga   -4.8097714801637217E+00    1.0189969537192114E+01    1.1029280877092335E+01
N   -4.8104248322261567E+00    1.0192262692780744E+01    1.2952739130738909E+01
Ga   -4.8099846351729107E+00    8.3434111098395753E+00    1.3676504190162694E+01
N   -4.8163590132241065E+00    8.3427965855018709E+00    1.5594793598251499E+01
Ga   -4.8225168704509578E+00    1.0193841352205050E+01    1.6617482326904110E+01
N   -3.2317917245588812E+00    9.2514653497460255E+00    1.7516316875857942E+01
N    3.2088234791982844E+00   -1.4205219335682522E-04   -2.1045557595130343E-01
Ga    3.2090123637598671E+00    1.8517854146730879E+00    4.7032828648615721E-01
N    3.2091821371104294E+00    1.8521198766808811E+00    2.3874685240010249E+00
Ga    3.2089646631085116E+00    5.1011864544269985E-05    3.1177181651845598E+00
N    3.2093640661513159E+00    1.6333020379626870E-04    5.0399803544042978E+00
Ga    3.2095520929559118E+00    1.8522818922040383E+00    5.7565591699942598E+00
N    3.2101412174321799E+00    1.8534502374008162E+00    7.6802497356593404E+00
Ga    3.2100545539297074E+00    1.9099331814188209E-03    8.3950693241761041E+00
N    3.2106718549512747E+00    4.0419998206153553E-03    1.0319383237824198E+01
Ga    3.2102749492297975E+00    1.8560436295469513E+00    1.1032602342676427E+01
N    3.2109939785586379E+00    1.8589861580230951E+00    1.2958773720187846E+01
Ga    3.2082437769931178E+00    6.0331800430850901E-03    1.3673602575909618E+01
N    3.1948220168674673E+00   -6.1605256288384015E-03    1.5591871715923894E+01
Ga    3.2083362986184532E+00    1.8573935042307663E+00    1.6662170173303771E+01
N    4.7897556582051548E+00    9.0823235034205330E-01    1.7522092764717030E+01
N    1.6048792840799317E+00    2.7778629150176863E+00   -2.1037719337898642E-01
Ga    1.6049940163465959E+00    4.6298456573280804E+00    4.7028591762753957E-01
N    1.6050599232897877E+00    4.6301612281604836E+00    2.3874357793240217E+00
Ga    1.6049886457746996E+00    2.7780996358120649E+00    3.1175743018814561E+00
N    1.6052524544217690E+00    2.7781814126150519E+00    5.0397939428964218E+00
Ga    1.6054272116889017E+00    4.6302239728626864E+00    5.7567575867496501E+00
N    1.6058247567600645E+00    4.6312649570305711E+00    7.6804320747570909E+00
Ga    1.6058759869616184E+00    2.7790825969114010E+00    8.3942421419057460E+00
N    1.6067892461479265E+00    2.7810832885188232E+00    1.0318507683728209E+01
Ga    1.6069670882366940E+00    4.6326823236357564E+00    1.1030299176927265E+01
N    1.6072358486357932E+00    4.6343188351161748E+00    1.2955832300753613E+01
Ga    1.6092061044636536E+00    2.7845089306351438E+00    1.3682561647476676E+01
N    1.5999794854642606E+00    2.7828291566818910E+00    1.5606182486977950E+01
Ga    1.5906577398041186E+00    4.6326396061415469E+00    1.6621164186015289E+01
N    3.1910611224613890E+00    3.7145866871997266E+00    1.7523732243143268E+01
N    9.4463719920226646E-04    5.5559324085826507E+00   -2.1049086210890366E-01
Ga    1.1499055945018151E-03    7.4078273584949654E+00    4.7043750912407090E-01
N    1.2915044158894305E-03    7.4081703086410950E+00    2.3876281292041992E+00
Ga    1.0609582257265929E-03    5.5561828085054188E+00    3.1179847702732832E+00
N    1.3398358425278098E-03    5.5564270417170158E+00    5.0402509251490297E+00
Ga    1.7077463252331017E-03    7.4086165220501776E+00    5.7569360561384242E+00
N    2.3641415973769319E-03    7.4100178183818963E+00    7.6807314190352605E+00
Ga    2.1100145468931088E-03    5.5580469788196352E+00    8.3949657496152028E+00
N    3.0344584240829388E-03    5.5603402180174468E+00    1.0319678736683493E+01
Ga    3.6441286062153695E-03    7.4135697633021280E+00    1.1030217968453830E+01
N    4.5971079279906900E-03    7.4159320172868455E+00    1.2955854351290906E+01
Ga    4.6004817843693629E-03    5.5646566877230565E+00    1.3670157484896951E+01
N   -2.3273389157161687E-03    5.5514267669940560E+00    1.5587161886340796E+01
Ga   -1.1401869863877673E-02    7.3891159605356291E+00    1.6628096185588287E+01
N    1.5904088272615020E+00    6.4757996925412993E+00    1.7528545590823814E+01
N   -1.6028890169291028E+00    8.3339100065667502E+00   -2.1042934023281809E-01
Ga   -1.6026501807962383E+00    1.0185815873601323E+01    4.7041319521459413E-01
N   -1.6024448426984146E+00    1.0186161837287312E+01    2.3875684555500216E+00
Ga   -1.6027228928836832E+00    8.3342209982867619E+00    3.1180393768327122E+00
N   -1.6024119296100903E+00    8.3345849469831546E+00    5.0403136251228551E+00
Ga   -1.6018875606957181E+00    1.0186684578142357E+01    5.7573546259480439E+00
N   -1.6011795342456823E+00    1.0188171129506891E+01    7.6811222150440583E+00
Ga   -1.6016455128056588E+00    8.3363950617474725E+00    8.3951002970591144E+00
N   -1.6012418367516976E+00    8.3384993718179583E+00    1.0319593652198801E+01
Ga   -1.6007564268977752E+00    1.0190733712192406E+01    1.1032954317965972E+01
N   -1.6004467054922815E+00    1.0192939531860706E+01    1.2958485875144044E+01
Ga   -1.5991346623176883E+00    8.3417143274294165E+00    1.3677431758516754E+01
N   -1.6163679166799898E+00    8.3327173756595627E+00    1.5598425718387764E+01
Ga   -1.6206881804128221E+00    1.0187590351333029E+01    1.6632130749932838E+01
N   -2.6002912397367038E-02    9.2223180014229822E+00    1.7509386713126780E+01
N    6.4171354403666108E+00   -7.2089299261660788E-05   -2.1038306842017382E-01
Ga    6.4173944079642657E+00    1.8518418438293125E+00    4.7050373507499493E-01
N    6.4176063688343001E+00    1.8522264361187228E+00    2.3876623055970092E+00
Ga    6.4173197779845914E+00    2.1460150257819309E-04    3.1179484488460583E+00
N    6.4176482923854579E+00    5.0539308740183732E-04    5.0402222420054823E+00
Ga    6.4179345710945768E+00    1.8524736592667466E+00    5.7573619570666406E+00
N    6.4184506091938918E+00    1.8539473768828210E+00    7.6811644112859225E+00
Ga    6.4184337265636140E+00    2.4771769462152162E-03    8.3961605657586631E+00
N    6.4188492644726178E+00    4.7050480783709346E-03    1.0320670160183633E+01
Ga    6.4187656023788131E+00    1.8570990117058004E+00    1.1033584383195722E+01
N    6.4194730768554322E+00    1.8605724801469850E+00    1.2959611220952072E+01
Ga    6.4188021849175287E+00    9.9093436882600767E-03    1.3680426078652491E+01
N    6.4128542740874570E+00   -1.0930175395248945E-02    1.5600491790041742E+01
Ga    6.3956536237650772E+00    1.8473133708547134E+00    1.6638891387303463E+01
N    8.0019338272864289E+00    9.1287099940579886E-01    1.7522045434600688E+01
N    4.8133144768153198E+00    2.7778471122321351E+00   -2.1044556161922254E-01
Ga    4.8134828144418584E+00    4.6297699117485722E+00    4.7030888247659164E-01
N    4.8136392049440202E+00    4.6300566089652913E+00    2.3874418839497986E+00
Ga    4.8134818492075047E+00    2.7780895570962985E+00    3.1178725484356145E+00
N    4.8137919386368857E+00    2.7782037966810122E+00    5.0400749745580278E+00
Ga    4.8139362479491856E+00    4.6301808857784446E+00    5.7569099923211384E+00
N    4.8143721329733324E+00    4.6314105595748591E+00    7.6807361051611025E+00
Ga    4.8141580489744777E+00    2.7794451512571499E+00    8.3952821880968855E+00
N    4.8142011106747233E+00    2.7814254285329967E+00    1.0319503527226702E+01
Ga    4.8145891320474128E+00    4.6340422032607256E+00    1.1029242258082791E+01
N    4.8137311643604592E+00    4.6361230534198414E+00    1.2953172352268291E+01
Ga    4.8147014831464849E+00    2.7873633868348699E+00    1.3678273373920568E+01
N    4.8095561146015857E+00    2.7868862749801262E+00    1.5597346786577850E+01
Ga    4.8039473572337847E+00    4.6364968646495059E+00    1.6618889025088539E+01
N    6.3963320832769091E+00    3.6935518285581810E+00    1.7517037288782042E+01
N    3.2093797991047031E+00    5.5558684826848204E+00   -2.1045746353696851E-01
Ga    3.2094839975543543E+00    7.4078003505375287E+00    4.7038163783060366E-01
N    3.2095544476237761E+00    7.4081027953106835E+00    2.3874889709196325E+00
Ga    3.2094804220574251E+00    5.5559770741064769E+00    3.1176248619751492E+00
N    3.2097220659426067E+00    5.5560720321871973E+00    5.0398404410161382E+00
Ga    3.2099163784744507E+00    7.4083305298321989E+00    5.7561967094091520E+00
N    3.2103492654606924E+00    7.4095975640964609E+00    7.6797397010714183E+00
Ga    3.2100487064610492E+00    5.5578662771485163E+00    8.3941870239685379E+00
N    3.2103307410440860E+00    5.5603211056043538E+00    1.0318403173374293E+01
Ga    3.2117693386033288E+00    7.4128361070885003E+00    1.1031550108433667E+01
N    3.2130688924334141E+00    7.4159311522754425E+00    1.2958631885070803E+01
Ga    3.2112871462934156E+00    5.5624910804111787E+00    1.3671533300882867E+01
N    3.2024034756364981E+00    5.5583631981485322E+00    1.5589625507169176E+01
Ga    3.2077033623391054E+00    7.4054249515845481E+00    1.6654814620967478E+01
N    4.8056706915048579E+00    6.4744822940673972E+00    1.7527556618287385E+01
N    1.6054453268089224E+00    8.3339229219247315E+00   -2.1040540240983505E-01
Ga    1.6056619416281877E+00    1.0185869231030686E+01    4.7039716629491207E-01
N    1.6058188164626708E+00    1.0186237130508625E+01    2.3875337864469866E+00
Ga    1.6055275042247130E+00    8.3342930693582691E+00    3.1178286989444191E+00
N    1.6058147965888601E+00    8.3346948097690099E+00    5.0400837655463029E+00
Ga    1.6061419371435532E+00    1.0186812087638573E+01    5.7572960324816576E+00
N    1.6066512965639264E+00    1.0188321440219250E+01    7.6810508206194568E+00
Ga    1.6068703320558406E+00    8.3363800942854223E+00    8.3944831054216476E+00
N    1.6079803570391800E+00    8.3386621235844540E+00    1.0318915272291015E+01
Ga    1.6072871682087164E+00    1.0190652790890574E+01    1.1032671132422458E+01
N    1.6070424178300249E+00    1.0191942789443150E+01    1.2958720131776102E+01
Ga    1.6075365815989486E+00    8.3396763450032410E+00    1.3677632726210360E+01
N    1.6131807301331784E+00    8.3402658647179440E+00    1.5601343492109130E+01
Ga    1.6017433860432480E+00    1.0180551616977713E+01    1.6608401381371735E+01
N    3.1919072973543634E+00    9.2600937320173387E+00    1.7530307979185913E+01
N    9.6254574425077202E+00   -6.2041709019088176E-05   -2.1049407804526546E-01
Ga    9.6256641890461179E+00    1.8518564962211155E+00    4.7039806801927792E-01
N    9.6257629223442613E+00    1.8522285661170264E+00    2.3875367195814530E+00
Ga    9.6255774187219458E+00    2.7744280972555010E-04    3.1178071667430474E+00
N    9.6257564174260981E+00    5.9523988044127610E-04    5.0401150645434960E+00
Ga    9.6261551188257659E+00    1.8525782227435164E+00    5.7574857042855960E+00
N    9.6265426306075863E+00    1.8541739316009047E+00    7.6812699604147081E+00
Ga    9.6265646962523643E+00    2.2846931099292297E-03    8.3953436588412469E+00
N    9.6271620137531357E+00    4.7811074309659840E-03    1.0319814761164208E+01
Ga    9.6280697143647842E+00    1.8580536499380604E+00    1.1030364893611576E+01
N    9.6288813693242332E+00    1.8601645295125897E+00    1.2956341158768947E+01
Ga    9.6296451771253242E+00    7.9650156597606027E-03    1.3669761409392695E+01
N    9.6217397402920639E+00   -5.8941111850689199E-03    1.5585985976976337E+01
Ga    9.6140984629502473E+00    1.8298805490963541E+00    1.6626655999235307E+01
N    1.1215329327518361E+01    9.1767871778215848E-01    1.7529289493167500E+01
N    8.0216287273868279E+00    2.7779139586473272E+00   -2.1043582332275118E-01
Ga    8.0218861327241484E+00    4.6297817521166120E+00    4.7050189572252399E-01
N    8.0220767754655125E+00    4.6300880051885320E+00    2.3876534175780550E+00
Ga    8.0218483811795878E+00    2.7781951850036322E+00    3.1182580797098876E+00
N    8.0220931806138438E+00    2.7784347097950959E+00    5.0405079321590813E+00
Ga    8.0225143513939585E+00    4.6305102709395731E+00    5.7573508726688107E+00
N    8.0229892559944176E+00    4.6320416849040686E+00    7.6810467097140558E+00
Ga    8.0224366748010318E+00    2.7804572444401310E+00    8.3959914624173688E+00
N    8.0229022362344597E+00    2.7828896302001911E+00    1.0320112915503005E+01
Ga    8.0233074330824081E+00    4.6351726977582706E+00    1.1032767179119023E+01
N    8.0237618859529647E+00    4.6363519245348881E+00    1.2958410290274466E+01
Ga    8.0256352015409043E+00    2.7855380478060052E+00    1.3678415849432858E+01
N    8.0107514949289182E+00    2.7754379225442940E+00    1.5598943769828090E+01
Ga    8.0059009942839658E+00    4.6300061567470552E+00    1.6630469105997353E+01
N    9.6019663423822514E+00    3.6638622171564310E+00    1.7510530359273631E+01
N    6.4178123734348835E+00    5.5558319825851381E+00   -2.1045267495845871E-01
Ga    6.4180113365986875E+00    7.4077529250606311E+00    4.7036651789943784E-01
N    6.4181713758708874E+00    7.4080464484655524E+00    2.3874860870104060E+00
Ga    6.4179587779504761E+00    5.5559812998515792E+00    3.1179376474682301E+00
N    6.4181930759048011E+00    5.5561038014452553E+00    5.0401529111432195E+00
Ga    6.4184430774774981E+00    7.4083893406310111E+00    5.7562924647863341E+00
N    6.4189366094268605E+00    7.4097653565379966E+00    7.6799346104211867E+00
Ga    6.4188105537349225E+00    5.5581697842761812E+00    8.3948442235164400E+00
N    6.4190721523222356E+00    5.5604620721997735E+00    1.0319025313212173E+01
Ga    6.4191588796176422E+00    7.4126704641050329E+00    1.1031546311067357E+01
N    6.4197965543393813E+00    7.4143476173231999E+00    1.2957439338297123E+01
Ga    6.4172784825839333E+00    5.5626033059808062E+00    1.3672689983939783E+01
N    6.4046474539914957E+00    5.5467827908819833E+00    1.5591460124910267E+01
Ga    6.4180265902437892E+00    7.4109017316313244E+00    1.6660180346385300E+01
N    8.0000210179806448E+00    6.4602814709192407E+00    1.7519109253148919E+01
N    4.8138704503924652E+00    8.3338375517550354E+00   -2.1038511645132318E-01
Ga    4.8140116413744716E+00    1.0185874809331711E+01    4.7018060570562215E-01
N    4.8140812391068479E+00    1.0186214820228569E+01    2.3873491108665572E+00
Ga    4.8139717278348364E+00    8.3341229084565107E+00    3.1174470180008100E+00
N    4.8141681092304296E+00    8.3343194465469246E+00    5.0396497791491726E+00
Ga    4.8143600391181511E+00    1.0186494593513762E+01    5.7565911109930408E+00
N    4.8147437426332305E+00    1.0187820097151945E+01    7.6803688817998435E+00
Ga    4.8147569013732063E+00    8.3357401392216808E+00    8.3936284970103099E+00
N    4.8155347988221475E+00    8.3373209883152146E+00    1.0317975955226192E+01
Ga    4.8161440660922805E+00    1.0189247750164572E+01    1.1030237524568504E+01
N    4.8162961075345736E+00    1.0190269840040065E+01    1.2954912498993592E+01
Ga    4.8184567228330648E+00    8.3407599622675814E+00    1.3681153534003938E+01
N    4.8096202436091824E+00    8.3380109980524431E+00    1.5604562801576760E+01
Ga    4.7997252215214044E+00    1.0186505022679793E+01    1.6618840502636562E+01
N    6.3993672298269644E+00    9.2689193545169690E+00    1.7522304139954436E+01
H    2.9607225005380750E-04   -1.5749725917155283E-04   -1.2379043801816054E+00
H   -1.6036645440901640E+00    2.7778765113053594E+00   -1.2377819564873636E+00
H   -3.2075009765813443E+00    5.5557980832173826E+00   -1.2377460239203550E+00
H   -4.8112996412929396E+00    8.3336302721992368E+00   -1.2378104914946120E+00
H    3.2087713559277775E+00   -2.7109659198123521E-04   -1.2378360896204468E+00
H    1.6047451318785539E+00    2.7777123631029905E+00   -1.2377557747062451E+00
H    7.2350631738855821E-04    5.5557996789068902E+00   -1.2378718502567769E+00
H   -1.6030819243095880E+00    8.3338240150311407E+00   -1.2378175741852120E+00
H    6.4169506382303352E+00   -1.7731085541921517E-04   -1.2377582152686484E+00
H    4.8132133800296870E+00    2.7776978518918258E+00   -1.2378256701562071E+00
H    3.2092646216123164E+00    5.5558009960293582E+00   -1.2378342528142079E+00
H    1.6053334906300476E+00    8.3338090095005164E+00   -1.2377847053109177E+00
H    9.6252298664263503E+00   -1.5200187389752850E-04   -1.2378777094106677E+00
H    8.0214431508906046E+00    2.7778130887561545E+00   -1.2378142420791993E+00
H    6.4177088705946597E+00    5.5557147205786599E+00   -1.2378260798824470E+00
H    4.8137152396106231E+00    8.3336050399665087E+00   -1.2377560166898200E+00
     &END COORD
     &KIND H
       BASIS_SET DZVP-MOLOPT-SR-GTH-q1
       POTENTIAL GTH-PBE-q1
       &POTENTIAL
 1
  0.2000000000000000E+00 2 -0.4178900440000000E+01  0.7244633100000000E+00
 0
         # Potential name:  GTH-PBE-Q1  for symbol:  H
         # Potential read from the potential filename: GTH_POTENTIALS
       &END POTENTIAL
     &END KIND
     &KIND N
       BASIS_SET DZVP-MOLOPT-SR-GTH
       POTENTIAL GTH-PBE-q5
       &POTENTIAL
 2 3
  0.2837905100000000E+00 2 -0.1241522559000000E+02  0.1868095920000000E+01
 2
  0.2554050000000000E+00 1  0.1363026257000000E+02
  0.2454945300000000E+00 0
         # Potential name:  GTH-PBE-Q5  for symbol:  N
         # Potential read from the potential filename: GTH_POTENTIALS
       &END POTENTIAL
     &END KIND
     &KIND Ga
       BASIS_SET DZVP-MOLOPT-SR-GTH
       POTENTIAL GTH-PBE-q13
       &POTENTIAL
 2 1 10
  0.4900000000000000E+00 0
 3
  0.4167772300000000E+00 3  0.1047568975000000E+02 -0.4921768140000000E+01  0.8707055900000000E+00
  0.7770178090000000E+01 -0.2248152160000000E+01
  0.1784415450000000E+01
  0.5696265200000000E+00 2  0.1777985340000000E+01  0.1958597600000000E+00
 -0.2317443900000000E+00
  0.2381265000000000E+00 1 -0.1624868022000000E+02
         # Potential name:  GTH-PBE-Q13  for symbol:  GA
         # Potential read from the potential filename: GTH_POTENTIALS
       &END POTENTIAL
     &END KIND
     &TOPOLOGY
       NUMBER_OF_ATOMS  256
       MULTIPLE_UNIT_CELL  1 1 1
     &END TOPOLOGY
   &END SUBSYS
 &END FORCE_EVAL
