 # Version information for this restart file 
 # current date 2019-06-09 02:52:03.175
 # current working dir /lustre03/project/6037349/rzk/GaN-carbene/444-addat/00-Surface/UKS_SYMM
 # Program compiled at                              Sun Apr  7 00:48:11 EDT 2019
 # Program compiled on                          beluga2.int.ets1.calculquebec.ca
 # Program compiled for                        Beluga-Linux-x86-64-intel-openmpi
 # Source code revision number                                         svn:18619
 &GLOBAL
   PRINT_LEVEL  MEDIUM
   PROJECT_NAME TEST
   RUN_TYPE  CELL_OPT
 &END GLOBAL
 &MOTION
   &CELL_OPT
     MAX_ITER  300
     STEP_START_VAL  3
     EXTERNAL_PRESSURE     1.0000000000000000E+00
     KEEP_ANGLES  T
     KEEP_SYMMETRY  T
     CONSTRAINT  Z
     PRESSURE_TOLERANCE     5.0000000000000000E+02
   &END CELL_OPT
 &END MOTION
 &FORCE_EVAL
   METHOD  QS
   STRESS_TENSOR  ANALYTICAL
   &DFT
     BASIS_SET_FILE_NAME BASIS_MOLOPT
     POTENTIAL_FILE_NAME GTH_POTENTIALS
     UKS  T
     SURFACE_DIPOLE_CORRECTION  T
     SURF_DIP_DIR  Z
     &SCF
       MAX_SCF  100
       EPS_SCF     5.0000000000000004E-06
       &OT  T
         PRECONDITIONER  FULL_ALL
       &END OT
       &OUTER_SCF  T
         OPTIMIZER  NONE
         EPS_SCF     5.0000000000000004E-06
         MAX_SCF  4
       &END OUTER_SCF
       &PRINT
         &RESTART  OFF
           BACKUP_COPIES  1
           &EACH
             JUST_ENERGY  0
             QS_SCF  0
             MD  20
           &END EACH
         &END RESTART
       &END PRINT
     &END SCF
     &QS
       EPS_DEFAULT     1.0000000000000000E-14
       METHOD  GPW
     &END QS
     &MGRID
       NGRIDS  5
       CUTOFF     1.2000000000000000E+03
     &END MGRID
     &XC
       DENSITY_CUTOFF     1.0000000000000000E-10
       GRADIENT_CUTOFF     1.0000000000000000E-10
       TAU_CUTOFF     1.0000000000000000E-10
       &XC_FUNCTIONAL  NO_SHORTCUT
         &PBE  T
         &END PBE
       &END XC_FUNCTIONAL
       &VDW_POTENTIAL
         POTENTIAL_TYPE  PAIR_POTENTIAL
         &PAIR_POTENTIAL
           R_CUTOFF     1.0000000000000004E+01
           TYPE  DFTD3
           PARAMETER_FILE_NAME dftd3.dat
           REFERENCE_FUNCTIONAL PBE
           EPS_CN     9.9999999999999995E-07
           CALCULATE_C9_TERM  T
           REFERENCE_C9_TERM  T
           LONG_RANGE_CORRECTION  F
           VERBOSE_OUTPUT  F
         &END PAIR_POTENTIAL
       &END VDW_POTENTIAL
     &END XC
   &END DFT
   &SUBSYS
     &CELL
       A     1.3098033971485249E+01    0.0000000000000000E+00    0.0000000000000000E+00
       B    -6.5398017212354418E+00    1.1327268852606190E+01    0.0000000000000000E+00
       C     0.0000000000000000E+00    0.0000000000000000E+00    3.2000000000000000E+01
       MULTIPLE_UNIT_CELL  1 1 1
       &CELL_REF
         A     1.2982353780853531E+01    0.0000000000000000E+00    0.0000000000000000E+00
         B    -6.4911768904267628E+00    1.1243048175136114E+01    0.0000000000000000E+00
         C     0.0000000000000000E+00    0.0000000000000000E+00    3.2000000000000000E+01
         MULTIPLE_UNIT_CELL  1 1 1
       &END CELL_REF
     &END CELL
     &COORD
N   -1.2239300456503538E-04   -1.4863481326450308E-04    5.9697990365849586E-03
Ga    1.6601502332566586E-03    1.8880617404748712E+00    6.5327984846889176E-01
N    1.6214200314670468E-03    1.8880665349841064E+00    2.5488732833964445E+00
Ga   -1.0421807016007932E-04   -1.1262193025111501E-04    3.2484345291636232E+00
N   -1.1810410982502332E-04   -1.6901236214176462E-04    5.1581648045010322E+00
Ga    1.6349251346210378E-03    1.8880385591651949E+00    5.8335874997924684E+00
N    1.5813373089107071E-03    1.8880457251183547E+00    7.7549465955167189E+00
Ga   -1.0783970892938805E-04   -9.1675402382927087E-05    8.4226778485724196E+00
N   -1.1839092835643489E-04   -3.1237586149462563E-04    1.0348732334966741E+01
Ga    1.8082813861524040E-03    1.8877384808341917E+00    1.1010761534527827E+01
N    1.9908015684562681E-03    1.8861526828443009E+00    1.2932471877256379E+01
Ga    2.5504468484632563E-03   -8.3159448148913373E-05    1.3556633429448214E+01
N    1.8582799935659303E-03   -8.5088041385966463E-03    1.5388476610079001E+01
Ga   -4.3236768049548227E-03    1.9046862616442708E+00    1.6246815641589521E+01
N    1.6198379711249169E+00    9.3666819001247736E-01    1.7032949745172854E+01
N   -1.6350504915734152E+00    2.8316700536429105E+00    5.9787280280414511E-03
Ga   -1.6333127483952188E+00    4.7198888774554018E+00    6.5327764540951228E-01
N   -1.6333365692928374E+00    4.7199316416704269E+00    2.5488612285149923E+00
Ga   -1.6350534376691703E+00    2.8317149925403999E+00    3.2484363956825559E+00
N   -1.6350616924872712E+00    2.8316791656286702E+00    5.1581640296008109E+00
Ga   -1.6333207307507078E+00    4.7198328498477871E+00    5.8335975499018957E+00
N   -1.6333331732024947E+00    4.7199311191686970E+00    7.7548463235807645E+00
Ga   -1.6349616319845075E+00    2.8317433385840474E+00    8.4227319228696000E+00
N   -1.6347862556222776E+00    2.8320911661112489E+00    1.0349064078386094E+01
Ga   -1.6332084336102366E+00    4.7203570682838496E+00    1.1010505304608960E+01
N   -1.6318668728260048E+00    4.7209185711565809E+00    1.2934194857613965E+01
Ga   -1.6362321033275999E+00    2.8300597973493216E+00    1.3560824564281450E+01
N   -1.6342646252576800E+00    2.8359194208376306E+00    1.5380741978929031E+01
Ga   -1.6390245745304137E+00    4.7233178433590375E+00    1.6247699936238384E+01
N   -2.2344095732370790E-02    3.7881063176444933E+00    1.7038228475711811E+01
N   -3.2700144015939174E+00    5.6634852424692852E+00    5.9727995671168266E-03
Ga   -3.2682654549196695E+00    7.5517133453641421E+00    6.5324756010620810E-01
N   -3.2683066707835451E+00    7.5517306963079944E+00    2.5488762154261253E+00
Ga   -3.2699976999355922E+00    5.6635257426410082E+00    3.2484187613728279E+00
N   -3.2700091198993095E+00    5.6635075041756426E+00    5.1581646071708587E+00
Ga   -3.2683079949766727E+00    7.5516722278266029E+00    5.8335728680446959E+00
N   -3.2682114716876596E+00    7.5517708876783303E+00    7.7549247661000562E+00
Ga   -3.2700219167510371E+00    5.6634950763177256E+00    8.4227820378328744E+00
N   -3.2697866224529291E+00    5.6635815823718509E+00    1.0348773310809740E+01
Ga   -3.2684645780029804E+00    7.5518079276735550E+00    1.1011035839743995E+01
N   -3.2670684820099334E+00    7.5528128805513566E+00    1.2930916189264959E+01
Ga   -3.2711182644768879E+00    5.6656396872687056E+00    1.3561451796765288E+01
N   -3.2692233315197723E+00    5.6624860064645945E+00    1.5382297929126977E+01
Ga   -3.2770715005524171E+00    7.5738233669888801E+00    1.6250961890638521E+01
N   -1.6480634382685746E+00    6.6189550853785430E+00    1.7038816886833676E+01
N   -4.9049713768962659E+00    8.4953244730844073E+00    5.9794046329903856E-03
Ga   -4.9032104883783818E+00    1.0383525463291869E+01    6.5326078288328215E-01
N   -4.9032015297817413E+00    1.0383527916915300E+01    2.5488554547932183E+00
Ga   -4.9049993567340140E+00    8.4953592307421975E+00    3.2484933004336130E+00
N   -4.9050081531624796E+00    8.4953382430700604E+00    5.1582010146589958E+00
Ga   -4.9032406839032081E+00    1.0383422833757198E+01    5.8335511815900096E+00
N   -4.9032432080642474E+00    1.0383590548365218E+01    7.7548132875984148E+00
Ga   -4.9050041980328007E+00    8.4953750603367038E+00    8.4228168404072985E+00
N   -4.9049061656860999E+00    8.4955338585235456E+00    1.0348541513275491E+01
Ga   -4.9033120675200150E+00    1.0383399223221829E+01    1.1010687837308051E+01
N   -4.9043455535384997E+00    1.0383502724301604E+01    1.2932458505707849E+01
Ga   -4.9062315888566088E+00    8.4929774282375892E+00    1.3561419221702787E+01
N   -4.9065102022327611E+00    8.4886836375718353E+00    1.5377717606382101E+01
Ga   -4.9070643834172181E+00    1.0381192895299941E+01    1.6258089522333098E+01
N   -3.2799978465263226E+00    9.4485485860702543E+00    1.7043409751031302E+01
N    3.2743808289200120E+00   -1.6004757012987682E-04    5.9802936131003893E-03
Ga    3.2761705055823551E+00    1.8880526267621729E+00    6.5326981171383636E-01
N    3.2761699561269126E+00    1.8880527430292773E+00    2.5488530466275288E+00
Ga    3.2744065435096004E+00   -9.5385877420659670E-05    3.2484245532175233E+00
N    3.2743780139908876E+00   -1.7945051299973164E-04    5.1582065420102854E+00
Ga    3.2761343284996078E+00    1.8879860601399414E+00    5.8336015690249905E+00
N    3.2761794398774238E+00    1.8880469274291263E+00    7.7548085078049800E+00
Ga    3.2743310728465649E+00   -8.8746374363347268E-05    8.4227232774998111E+00
N    3.2743794028595836E+00   -3.8968978790989990E-04    1.0348614304413475E+01
Ga    3.2765285737664049E+00    1.8882618329617735E+00    1.1011256386153615E+01
N    3.2775676361001014E+00    1.8883210908050811E+00    1.2929000722720234E+01
Ga    3.2730700917109741E+00    2.9171873806224961E-03    1.3558909702891947E+01
N    3.2672669001899846E+00    1.4434377531349187E-03    1.5379368443446799E+01
Ga    3.2704228572523575E+00    1.9055301282891919E+00    1.6251000247304706E+01
N    4.8987927746243782E+00    9.4983771753715829E-01    1.7031386921332778E+01
N    1.6394497850883789E+00    2.8316594660639316E+00    5.9828543057865212E-03
Ga    1.6412081153211096E+00    4.7198748822036132E+00    6.5326972459123955E-01
N    1.6411842982739144E+00    4.7199046295388536E+00    2.5488473964960789E+00
Ga    1.6394881822378096E+00    2.8317002052871323E+00    3.2484280467688214E+00
N    1.6394585289968271E+00    2.8316470416174124E+00    5.1581834139757294E+00
Ga    1.6412028651979962E+00    4.7198357264354858E+00    5.8336205268681107E+00
N    1.6411849393295612E+00    4.7199427605951270E+00    7.7548203762705290E+00
Ga    1.6394447521832320E+00    2.8316515879535951E+00    8.4228957889120082E+00
N    1.6392938511527266E+00    2.8315078384063375E+00    1.0348585172332648E+01
Ga    1.6412394623118400E+00    4.7194591427711323E+00    1.1011324636109602E+01
N    1.6402575989384829E+00    4.7191949018629566E+00    1.2929445005324176E+01
Ga    1.6426182671971852E+00    2.8323605315304263E+00    1.3559936617546006E+01
N    1.6407682558656336E+00    2.8284600487550144E+00    1.5375524477270401E+01
Ga    1.6355120616365972E+00    4.7244458872139781E+00    1.6251579097011529E+01
N    3.2570421836485663E+00    3.7877818725873502E+00    1.7035285940124815E+01
N    4.4918621679604174E-03    5.6634672632622438E+00    5.9752662669395155E-03
Ga    6.2674764056666844E-03    7.5516985971206090E+00    6.5324116831392098E-01
N    6.2331745361613455E-03    7.5517304504872662E+00    2.5488681488890008E+00
Ga    4.5236269919784657E-03    5.6635284548249230E+00    3.2484185323178481E+00
N    4.4687096276124858E-03    5.6634824141683566E+00    5.1581996427245516E+00
Ga    6.2720791121202487E-03    7.5516578649377593E+00    5.8335189405050114E+00
N    6.2624818545175152E-03    7.5518137549284852E+00    7.7550304536643839E+00
Ga    4.5220790272493764E-03    5.6634341762239373E+00    8.4227522775373789E+00
N    4.3674448489694059E-03    5.6636435078804306E+00    1.0348496087496665E+01
Ga    6.5138889510914779E-03    7.5511127696581424E+00    1.1010423176258541E+01
N    6.8531018345638663E-03    7.5512053306098261E+00    1.2932633567610885E+01
Ga    8.7740238295269564E-03    5.6623481511532381E+00    1.3558318960059163E+01
N    6.7807824981342820E-03    5.6620765881542283E+00    1.5379497495890483E+01
Ga   -4.4172554722142872E-04    7.5546602100059923E+00    1.6249422296270858E+01
N    1.6180676097890863E+00    6.6022166577467232E+00    1.7038197612238697E+01
N   -1.6304532743379843E+00    8.4952975441595200E+00    6.0072385721952233E-03
Ga   -1.6286965800344952E+00    1.0383521452366661E+01    6.5324150442321915E-01
N   -1.6287103814395856E+00    1.0383542893117987E+01    2.5488784844230108E+00
Ga   -1.6304287640445094E+00    8.4953405905647337E+00    3.2484013467470039E+00
N   -1.6304705853402761E+00    8.4952994238399970E+00    5.1582186320824235E+00
Ga   -1.6287474859105189E+00    1.0383519513489075E+01    5.8335318157738500E+00
N   -1.6286693481696335E+00    1.0383547567092647E+01    7.7549697633384111E+00
Ga   -1.6304562473320552E+00    8.4953724872303251E+00    8.4226078298958615E+00
N   -1.6302327575653504E+00    8.4954890209272129E+00    1.0349201455839857E+01
Ga   -1.6290584008269648E+00    1.0383772618686580E+01    1.1010372163116255E+01
N   -1.6288244612963831E+00    1.0383035191513454E+01    1.2933330722550060E+01
Ga   -1.6278223952100672E+00    8.4942226135945322E+00    1.3559017871140297E+01
N   -1.6231420652770019E+00    8.4924415396722761E+00    1.5382266437457623E+01
Ga   -1.6459836659820959E+00    1.0395759651273497E+01    1.6252453625381364E+01
N   -1.1788816936635138E-02    9.4155134878255407E+00    1.7036912376870458E+01
N    6.5489135682696249E+00   -1.5584442831725697E-04    5.9815415116972427E-03
Ga    6.5506926857529582E+00    1.8880661855418597E+00    6.5325824369052721E-01
N    6.5506536703590248E+00    1.8880746685511109E+00    2.5488612352361750E+00
Ga    6.5489349912570338E+00   -9.9418745344975778E-05    3.2484149181519193E+00
N    6.5488966486017546E+00   -1.7716891966035537E-04    5.1581841153275239E+00
Ga    6.5506715765225261E+00    1.8880586521088687E+00    5.8335919760226034E+00
N    6.5506256575591992E+00    1.8879523894702235E+00    7.7548499530266302E+00
Ga    6.5489421829447574E+00   -1.1415890960773602E-04    8.4226005778747162E+00
N    6.5488786284580103E+00   -4.2692515983483171E-04    1.0349188640744106E+01
Ga    6.5508950001274879E+00    1.8886331414788509E+00    1.1010880526384284E+01
N    6.5510720187898031E+00    1.8883566552697946E+00    1.2930035672899731E+01
Ga    6.5497445539030279E+00    2.6765647852581569E-03    1.3560709794843024E+01
N    6.5494428628026169E+00   -6.3042222021831877E-03    1.5385479672482852E+01
Ga    6.5464853365639186E+00    1.8986300522146662E+00    1.6244602250889844E+01
N    8.1672244662068998E+00    9.5148127241945313E-01    1.7038740187776504E+01
N    4.9139660810536085E+00    2.8316635881253918E+00    5.9802664216845394E-03
Ga    4.9157285710175307E+00    4.7198833320912472E+00    6.5326525703190474E-01
N    4.9157034886623094E+00    4.7198958156989645E+00    2.5488810940808602E+00
Ga    4.9139802209485177E+00    2.8316851481702736E+00    3.2484300951104563E+00
N    4.9139743289966242E+00    2.8316409116125092E+00    5.1581717879635587E+00
Ga    4.9157055891146211E+00    4.7198773601371862E+00    5.8336296743055565E+00
N    4.9156609443037533E+00    4.7199344034043147E+00    7.7548213636033037E+00
Ga    4.9139855907522758E+00    2.8318323114266279E+00    8.4228589913813732E+00
N    4.9140612758459463E+00    2.8317943488476915E+00    1.0348497944160661E+01
Ga    4.9158480569995051E+00    4.7202593370813606E+00    1.1011131626091425E+01
N    4.9149077541038757E+00    4.7204508483263456E+00    1.2931627458244742E+01
Ga    4.9165907940233469E+00    2.8310426593469291E+00    1.3558858713016985E+01
N    4.9193044543505478E+00    2.8269217152499633E+00    1.5381357535912244E+01
Ga    4.9046165627482745E+00    4.7331042944441988E+00    1.6258365666261476E+01
N    6.5194294523604350E+00    3.7979144458414553E+00    1.7029892080266638E+01
N    3.2789973999371083E+00    5.6634882227956247E+00    5.9772052416039627E-03
Ga    3.2807892130369818E+00    7.5517128582578525E+00    6.5325361225072365E-01
N    3.2807610632317861E+00    7.5517309790964262E+00    2.5488480921648491E+00
Ga    3.2790057095832710E+00    5.6635408490530015E+00    3.2484427152127702E+00
N    3.2789896255367061E+00    5.6634914391350355E+00    5.1581672859689123E+00
Ga    3.2807861894693948E+00    7.5516560580169001E+00    5.8335684907062211E+00
N    3.2806819496599875E+00    7.5518045000817855E+00    7.7548748735980819E+00
Ga    3.2790357392723246E+00    5.6634979994691017E+00    8.4227835456417104E+00
N    3.2788562881357564E+00    5.6637734597387066E+00    1.0348604029408666E+01
Ga    3.2810511423290794E+00    7.5513477180075768E+00    1.1010465608491208E+01
N    3.2804755104883134E+00    7.5523935156787463E+00    1.2933255539877955E+01
Ga    3.2776475942292813E+00    5.6605479093930073E+00    1.3558928257357122E+01
N    3.2750243352320658E+00    5.6582718583471792E+00    1.5377193181487947E+01
Ga    3.2851815078579567E+00    7.5648254997430930E+00    1.6255212575920101E+01
N    4.8961803628521086E+00    6.6275478636652734E+00    1.7044606519311696E+01
N    1.6440659615594431E+00    8.4953111132793726E+00    5.9884499652381497E-03
Ga    1.6458221719608337E+00    1.0383525836532550E+01    6.5325532931076369E-01
N    1.6457636278065233E+00    1.0383536137213138E+01    2.5488671728227401E+00
Ga    1.6440835188898677E+00    8.4953366597028701E+00    3.2484252226936130E+00
N    1.6440415467503371E+00    8.4953193639455051E+00    5.1582078833992577E+00
Ga    1.6458314105694596E+00    1.0383503137204050E+01    5.8335355340182682E+00
N    1.6457532396852019E+00    1.0383544547923705E+01    7.7549804383346741E+00
Ga    1.6441410133712393E+00    8.4953680311485922E+00    8.4225592812865155E+00
N    1.6441141892176114E+00    8.4954360887854783E+00    1.0349243360156052E+01
Ga    1.6462261986799147E+00    1.0383918805503029E+01    1.1010369661580695E+01
N    1.6464173265783193E+00    1.0382993848178652E+01    1.2933443128513161E+01
Ga    1.6440873538252070E+00    8.4951202648901649E+00    1.3559664879299067E+01
N    1.6431097697226906E+00    8.5003456994853934E+00    1.5387244178060728E+01
Ga    1.6520504210231663E+00    1.0395175426608187E+01    1.6242882504723152E+01
N    3.2519892945034683E+00    9.4484087834493593E+00    1.7045547566626997E+01
N    9.8234348689569391E+00   -1.6613998473440639E-04    5.9802213716298154E-03
Ga    9.8252020624996010E+00    1.8880507952967416E+00    6.5327307872361928E-01
N    9.8251647485229014E+00    1.8880571613841397E+00    2.5488587794030639E+00
Ga    9.8234493036907562E+00   -1.1502088530573339E-04    3.2484293548150487E+00
N    9.8234059432200027E+00   -1.9425930281684553E-04    5.1581945109574106E+00
Ga    9.8252190366265442E+00    1.8880258114529140E+00    5.8335931310157276E+00
N    9.8252621741657329E+00    1.8880509854219727E+00    7.7548967385448222E+00
Ga    9.8235283178678099E+00   -1.0967245301382649E-04    8.4227536652138202E+00
N    9.8234538203933717E+00   -5.0857254729380521E-04    1.0348691676055086E+01
Ga    9.8252145209995145E+00    1.8881580208396811E+00    1.1011555373225599E+01
N    9.8256599610708175E+00    1.8879532385691873E+00    1.2928949997673714E+01
Ga    9.8260657429846692E+00    2.5219311585562617E-03    1.3560230210223452E+01
N    9.8240527396853903E+00    6.4680508531148196E-03    1.5375393173666859E+01
Ga    9.8208442475117774E+00    1.8944076095081546E+00    1.6248460133944892E+01
N    1.1440245565701115E+01    9.4536905027589180E-01    1.7035334091997164E+01
N    8.1884987505231255E+00    2.8316522319788433E+00    5.9819963042481526E-03
Ga    8.1902431262200341E+00    4.7198720252705160E+00    6.5326639690069943E-01
N    8.1902095070646155E+00    4.7198932979084756E+00    2.5488649446592428E+00
Ga    8.1885251732376929E+00    2.8316838736115355E+00    3.2484193601676337E+00
N    8.1884578704185351E+00    2.8316362084301474E+00    5.1581930307385502E+00
Ga    8.1902152613107777E+00    4.7198500511905648E+00    5.8336305753628652E+00
N    8.1902831110646872E+00    4.7199552529254651E+00    7.7547782981322930E+00
Ga    8.1885230626352747E+00    2.8317167592929828E+00    8.4229393226081886E+00
N    8.1884491209623249E+00    2.8314137464401967E+00    1.0348134946063881E+01
Ga    8.1901327433950453E+00    4.7193741721117508E+00    1.1011342606045043E+01
N    8.1916430685668171E+00    4.7184076196310212E+00    1.2929100015944622E+01
Ga    8.1914843126134524E+00    2.8307384393025585E+00    1.3558751583775862E+01
N    8.1946199246461635E+00    2.8253821189687547E+00    1.5377930270807873E+01
Ga    8.1929915130856692E+00    4.7252337965321987E+00    1.6247615869096993E+01
N    9.7982173836104867E+00    3.7773636831740491E+00    1.7038748740699653E+01
N    6.5535266922792994E+00    5.6634780426197926E+00    5.9848841899394160E-03
Ga    6.5552885174085276E+00    7.5516961265431419E+00    6.5328564177020476E-01
N    6.5552808118514516E+00    7.5517073685959621E+00    2.5488386077714020E+00
Ga    6.5535502781951864E+00    5.6635531161221921E+00    3.2484268772766614E+00
N    6.5535227039730497E+00    5.6634789429557735E+00    5.1581613223059444E+00
Ga    6.5553487916212250E+00    7.5517333103685216E+00    5.8335688028517900E+00
N    6.5552433832191559E+00    7.5517798084621255E+00    7.7547911295446612E+00
Ga    6.5535251218358619E+00    5.6634717226590894E+00    8.4229023753865686E+00
N    6.5535681432468360E+00    5.6634467685338210E+00    1.0348264301370916E+01
Ga    6.5555402743351481E+00    7.5510689666996065E+00    1.1011408410019962E+01
N    6.5552037375034882E+00    7.5502154186257018E+00    1.2929357074356453E+01
Ga    6.5580746623512116E+00    5.6582911672752836E+00    1.3558993800373194E+01
N    6.5558465544484017E+00    5.6545502457805839E+00    1.5379632209975041E+01
Ga    6.5451146439616528E+00    7.5536443641671367E+00    1.6249588922363813E+01
N    8.1694998469386508E+00    6.6165461097309590E+00    1.7033762030446475E+01
N    4.9185746151194758E+00    8.4953062492321827E+00    5.9806621941261920E-03
Ga    4.9203451528027005E+00    1.0383507451307162E+01    6.5328101331864552E-01
N    4.9203048570679764E+00    1.0383528363880687E+01    2.5488496718214795E+00
Ga    4.9185974474694714E+00    8.4953485301878526E+00    3.2484432033466053E+00
N    4.9185685471635274E+00    8.4952778915463885E+00    5.1581908989728671E+00
Ga    4.9203348850783462E+00    1.0383487908366750E+01    5.8335829349602841E+00
N    4.9203332868517808E+00    1.0383540831164535E+01    7.7548614580778752E+00
Ga    4.9186092136595736E+00    8.4953434079092425E+00    8.4227434640235241E+00
N    4.9183203957050976E+00    8.4954920182142732E+00    1.0348838098206025E+01
Ga    4.9207024180582408E+00    1.0383579171379877E+01    1.1010534582164677E+01
N    4.9219559496904726E+00    1.0383154646893555E+01    1.2933170728254558E+01
Ga    4.9237280433360588E+00    8.4938731991474690E+00    1.3559977176132753E+01
N    4.9245355665380197E+00    8.4932223611509663E+00    1.5377353959250499E+01
Ga    4.9090018933824311E+00    1.0389890298677944E+01    1.6253893770068668E+01
N    6.5223655661727191E+00    9.4587900146519459E+00    1.7053800904008039E+01
H   -9.7802017653447707E-06   -1.3477860155311345E-05   -1.0302485175673575E+00
H   -1.6349648343031840E+00    2.8318138479039350E+00   -1.0302457775587699E+00
H   -3.2699246856509121E+00    5.6636442206840378E+00   -1.0302427897767843E+00
H   -4.9048748433700391E+00    8.4954670495583056E+00   -1.0302305569341421E+00
H    3.2745121511381501E+00   -2.0119088502445252E-05   -1.0302342229801307E+00
H    1.6395539151222449E+00    2.8318084658603997E+00   -1.0302364511352964E+00
H    4.5943701781565515E-03    5.6636436093938975E+00   -1.0302347977461139E+00
H   -1.6303621571272706E+00    8.4954697083370228E+00   -1.0302087081000866E+00
H    6.5490253401981562E+00   -1.4709194189186957E-05   -1.0302255078056697E+00
H    4.9140781838747634E+00    2.8318171800517833E+00   -1.0302273249273943E+00
H    3.2791232222283466E+00    5.6636388138754379E+00   -1.0302353928144583E+00
H    1.6441571864841875E+00    8.4954703517242844E+00   -1.0302183337807171E+00
H    9.8235433592867754E+00   -1.6476552260335254E-05   -1.0302339093120978E+00
H    8.1885879700727617E+00    2.8318116916155294E+00   -1.0302290412397026E+00
H    6.5536329385119787E+00    5.6636370641988671E+00   -1.0302292647405547E+00
H    4.9186830929729712E+00    8.4954635319616987E+00   -1.0302220613012814E+00
     &END COORD
     &KIND H
       BASIS_SET DZVP-MOLOPT-SR-GTH-q1
       POTENTIAL GTH-PBE-q1
       &POTENTIAL
 1
  0.2000000000000000E+00 2 -0.4178900440000000E+01  0.7244633100000000E+00
 0
         # Potential name:  GTH-PBE-Q1  for symbol:  H
         # Potential read from the potential filename: GTH_POTENTIALS
       &END POTENTIAL
     &END KIND
     &KIND N
       BASIS_SET DZVP-MOLOPT-SR-GTH
       POTENTIAL GTH-PBE-q5
       &POTENTIAL
 2 3
  0.2837905100000000E+00 2 -0.1241522559000000E+02  0.1868095920000000E+01
 2
  0.2554050000000000E+00 1  0.1363026257000000E+02
  0.2454945300000000E+00 0
         # Potential name:  GTH-PBE-Q5  for symbol:  N
         # Potential read from the potential filename: GTH_POTENTIALS
       &END POTENTIAL
     &END KIND
     &KIND Ga
       BASIS_SET DZVP-MOLOPT-SR-GTH
       POTENTIAL GTH-PBE-q13
       &POTENTIAL
 2 1 10
  0.4900000000000000E+00 0
 3
  0.4167772300000000E+00 3  0.1047568975000000E+02 -0.4921768140000000E+01  0.8707055900000000E+00
  0.7770178090000000E+01 -0.2248152160000000E+01
  0.1784415450000000E+01
  0.5696265200000000E+00 2  0.1777985340000000E+01  0.1958597600000000E+00
 -0.2317443900000000E+00
  0.2381265000000000E+00 1 -0.1624868022000000E+02
         # Potential name:  GTH-PBE-Q13  for symbol:  GA
         # Potential read from the potential filename: GTH_POTENTIALS
       &END POTENTIAL
     &END KIND
     &TOPOLOGY
       NUMBER_OF_ATOMS  256
       MULTIPLE_UNIT_CELL  1 1 1
     &END TOPOLOGY
   &END SUBSYS
 &END FORCE_EVAL
