 # Version information for this restart file 
 # current date 2019-06-09 05:38:07.054
 # current working dir /lustre03/project/6037349/rzk/GaN-carbene/444-addat/00-Surface/UKS_SYMM
 # Program compiled at                              Sun Apr  7 00:48:11 EDT 2019
 # Program compiled on                          beluga2.int.ets1.calculquebec.ca
 # Program compiled for                        Beluga-Linux-x86-64-intel-openmpi
 # Source code revision number                                         svn:18619
 &GLOBAL
   PRINT_LEVEL  MEDIUM
   PROJECT_NAME TEST
   RUN_TYPE  CELL_OPT
 &END GLOBAL
 &MOTION
   &CELL_OPT
     MAX_ITER  300
     STEP_START_VAL  27
     EXTERNAL_PRESSURE     1.0000000000000000E+00
     KEEP_ANGLES  T
     KEEP_SYMMETRY  T
     CONSTRAINT  Z
     PRESSURE_TOLERANCE     5.0000000000000000E+02
   &END CELL_OPT
 &END MOTION
 &FORCE_EVAL
   METHOD  QS
   STRESS_TENSOR  ANALYTICAL
   &DFT
     BASIS_SET_FILE_NAME BASIS_MOLOPT
     POTENTIAL_FILE_NAME GTH_POTENTIALS
     UKS  T
     SURFACE_DIPOLE_CORRECTION  T
     SURF_DIP_DIR  Z
     &SCF
       MAX_SCF  100
       EPS_SCF     5.0000000000000004E-06
       &OT  T
         PRECONDITIONER  FULL_ALL
       &END OT
       &OUTER_SCF  T
         OPTIMIZER  NONE
         EPS_SCF     5.0000000000000004E-06
         MAX_SCF  4
       &END OUTER_SCF
       &PRINT
         &RESTART  OFF
           BACKUP_COPIES  1
           &EACH
             JUST_ENERGY  0
             QS_SCF  0
             MD  20
           &END EACH
         &END RESTART
       &END PRINT
     &END SCF
     &QS
       EPS_DEFAULT     1.0000000000000000E-14
       METHOD  GPW
     &END QS
     &MGRID
       NGRIDS  5
       CUTOFF     1.2000000000000000E+03
     &END MGRID
     &XC
       DENSITY_CUTOFF     1.0000000000000000E-10
       GRADIENT_CUTOFF     1.0000000000000000E-10
       TAU_CUTOFF     1.0000000000000000E-10
       &XC_FUNCTIONAL  NO_SHORTCUT
         &PBE  T
         &END PBE
       &END XC_FUNCTIONAL
       &VDW_POTENTIAL
         POTENTIAL_TYPE  PAIR_POTENTIAL
         &PAIR_POTENTIAL
           R_CUTOFF     1.0000000000000004E+01
           TYPE  DFTD3
           PARAMETER_FILE_NAME dftd3.dat
           REFERENCE_FUNCTIONAL PBE
           EPS_CN     9.9999999999999995E-07
           CALCULATE_C9_TERM  T
           REFERENCE_C9_TERM  T
           LONG_RANGE_CORRECTION  F
           VERBOSE_OUTPUT  F
         &END PAIR_POTENTIAL
       &END VDW_POTENTIAL
     &END XC
   &END DFT
   &SUBSYS
     &CELL
       A     1.2841419175237519E+01    0.0000000000000000E+00    0.0000000000000000E+00
       B    -6.4183821912767884E+00    1.1116964057686708E+01    0.0000000000000000E+00
       C     0.0000000000000000E+00    0.0000000000000000E+00    3.2000000000000000E+01
       MULTIPLE_UNIT_CELL  1 1 1
       &CELL_REF
         A     1.2982353780853531E+01    0.0000000000000000E+00    0.0000000000000000E+00
         B    -6.4911768904267628E+00    1.1243048175136114E+01    0.0000000000000000E+00
         C     0.0000000000000000E+00    0.0000000000000000E+00    3.2000000000000000E+01
         MULTIPLE_UNIT_CELL  1 1 1
       &END CELL_REF
     &END CELL
     &COORD
N    3.3278561561578046E-04   -5.6642403136138123E-05   -1.9348957296248190E-01
Ga    5.2826728437250137E-04    1.8525492047302110E+00    4.7484329290657890E-01
N    5.8003722537582373E-04    1.8530337853587897E+00    2.3885066317525783E+00
Ga    4.6960842880414946E-04   -7.7795824388089121E-05    3.1185909274326935E+00
N    7.3565443969818940E-04   -2.8011601473661461E-04    5.0415824694795921E+00
Ga    6.8225133424578181E-04    1.8531476756601704E+00    5.7538038331685524E+00
N    8.7151559647469332E-04    1.8542506378486066E+00    7.6753570169970402E+00
Ga    6.4034137028707368E-04    1.3387893822665907E-03    8.3835439481754381E+00
N    1.3402291696624886E-03    3.2486941638050892E-03    1.0309789605236059E+01
Ga    1.9760482320413265E-03    1.8552762727772982E+00    1.1027349903149393E+01
N    3.4321974153764161E-03    1.8620150581236261E+00    1.2954359296444236E+01
Ga    3.5465540377958835E-03    6.0451798956954045E-03    1.3664455993324456E+01
N   -6.2922324569069255E-03    1.0141611430759733E-02    1.5582175183486708E+01
Ga   -2.2280000412507205E-04    1.8582996439761694E+00    1.6671301685266709E+01
N    1.5961528235581792E+00    9.2386145594974844E-01    1.7532422554147441E+01
N   -1.6042617747068713E+00    2.7792332860827225E+00   -1.9343336222734084E-01
Ga   -1.6039602793108392E+00    4.6318842187549336E+00    4.7484587903743641E-01
N   -1.6038363109652272E+00    4.6324482556231423E+00    2.3885846111161952E+00
Ga   -1.6044293835708174E+00    2.7795738015778957E+00    3.1190304546211660E+00
N   -1.6044692239525666E+00    2.7797002806817086E+00    5.0420550995891542E+00
Ga   -1.6037178222080888E+00    4.6325301633324152E+00    5.7561907976254227E+00
N   -1.6031044372844510E+00    4.6333656010459672E+00    7.6783982612423047E+00
Ga   -1.6030203880229839E+00    2.7806771317974324E+00    8.3877450641461113E+00
N   -1.6023177460128095E+00    2.7825506299885898E+00    1.0313834343481377E+01
Ga   -1.6021275756548781E+00    4.6354431362320128E+00    1.1028629727281619E+01
N   -1.6000333047878654E+00    4.6395439158897265E+00    1.2952004157441316E+01
Ga   -1.6003003129941342E+00    2.7880011544294923E+00    1.3669371075347177E+01
N   -1.5984436203799361E+00    2.7886255082727045E+00    1.5594604347495419E+01
Ga   -1.6085188003232103E+00    4.6247789415557712E+00    1.6599284586718323E+01
N   -2.0765014591882524E-02    3.7126821098811633E+00    1.7533615839408274E+01
N   -3.2088314169434944E+00    5.5584214714787699E+00   -1.9341742863367678E-01
Ga   -3.2084607066860658E+00    7.4110578959071205E+00    4.7485424171924978E-01
N   -3.2081233176993722E+00    7.4114187331572543E+00    2.3885773070346650E+00
Ga   -3.2088622098251536E+00    5.5584861529035878E+00    3.1194352963367562E+00
N   -3.2088497994499781E+00    5.5581870965151179E+00    5.0424690964633161E+00
Ga   -3.2076600008354630E+00    7.4110092374610943E+00    5.7553515762373575E+00
N   -3.2066769903663248E+00    7.4119447588387928E+00    7.6771092054715071E+00
Ga   -3.2071675500269672E+00    5.5601226674228039E+00    8.3896174291584362E+00
N   -3.2068663438389877E+00    5.5628918109306582E+00    1.0315794409609159E+01
Ga   -3.2053577236753790E+00    7.4164554788223382E+00    1.1028191054330229E+01
N   -3.2048786730047936E+00    7.4227791048976073E+00    1.2954429604226776E+01
Ga   -3.2042210665353865E+00    5.5709875462011764E+00    1.3672722158298564E+01
N   -3.2165012194233893E+00    5.5421046663515554E+00    1.5590104570866989E+01
Ga   -3.2337652040759912E+00    7.4049133552487794E+00    1.6642773537542404E+01
N   -1.6279108786868923E+00    6.4668436079226659E+00    1.7519201945966941E+01
N   -4.8134319480873895E+00    8.3375864973372380E+00   -1.9353882947289727E-01
Ga   -4.8131152689947330E+00    1.0190311140073861E+01    4.7463897920878673E-01
N   -4.8128790390733380E+00    1.0190745765853917E+01    2.3883071131460705E+00
Ga   -4.8130844839731006E+00    8.3377232212394272E+00    3.1184349076080191E+00
N   -4.8128448381643585E+00    8.3373408757333820E+00    5.0417502131808449E+00
Ga   -4.8124769387547257E+00    1.0190629676223111E+01    5.7554944363222820E+00
N   -4.8114073847022407E+00    1.0191674020404648E+01    7.6773807976008657E+00
Ga   -4.8120559865033323E+00    8.3376952153088784E+00    8.3850051972267750E+00
N   -4.8118874884027809E+00    8.3390069371908666E+00    1.0312099814887040E+01
Ga   -4.8111782982944789E+00    1.0194402840108570E+01    1.1020451582913481E+01
N   -4.8093258324081196E+00    1.0197470548208093E+01    1.2945319078727948E+01
Ga   -4.8122338109429865E+00    8.3485673382098575E+00    1.3667238599100491E+01
N   -4.8174034582996432E+00    8.3448402770808006E+00    1.5588937715775113E+01
Ga   -4.8221521195014683E+00    1.0204898512699378E+01    1.6615906599362649E+01
N   -3.2353094227141650E+00    9.2530340457426714E+00    1.7521037078059766E+01
N    3.2107240511958719E+00   -9.3150497266196347E-05   -1.9355202801827884E-01
Ga    3.2110880123209555E+00    1.8524864931664511E+00    4.7479370898418122E-01
N    3.2115033314382053E+00    1.8529525391880204E+00    2.3885912761995054E+00
Ga    3.2107929894983327E+00   -2.4808611611261741E-04    3.1188894907488391E+00
N    3.2109865118789020E+00   -3.1885637578657868E-04    5.0419383303968539E+00
Ga    3.2116195765727977E+00    1.8528553003490016E+00    5.7540918448869158E+00
N    3.2122106609276950E+00    1.8538455968463945E+00    7.6763768062771209E+00
Ga    3.2124167596522715E+00    1.5386683000038557E-03    8.3869288154332313E+00
N    3.2140685068601185E+00    4.3493034555797516E-03    1.0313622877668031E+01
Ga    3.2125260420308992E+00    1.8565549860768809E+00    1.1024724118319455E+01
N    3.2134066275120055E+00    1.8614073850841866E+00    1.2954650427129378E+01
Ga    3.2113505773146942E+00    6.5126211998061566E-03    1.3665781543072653E+01
N    3.1984020951499708E+00   -4.5380591733986198E-03    1.5585477234698329E+01
Ga    3.2104647629511809E+00    1.8576160168108227E+00    1.6667354825440988E+01
N    4.7925410721164035E+00    9.0856755200862926E-01    1.7526224379351081E+01
N    1.6060938476192557E+00    2.7791767665110951E+00   -1.9334215079892378E-01
Ga    1.6063349943967689E+00    4.6319566430579622E+00    4.7471248558512558E-01
N    1.6065288467390608E+00    4.6325662203892692E+00    2.3884491543559023E+00
Ga    1.6060661896629032E+00    2.7793072446650098E+00    3.1181011881367957E+00
N    1.6063408592161943E+00    2.7792330504382714E+00    5.0413055053653597E+00
Ga    1.6062650297836971E+00    4.6320714218475327E+00    5.7549307356722759E+00
N    1.6070185054190900E+00    4.6327690981015852E+00    7.6771316527503703E+00
Ga    1.6064817751952090E+00    2.7789461654397978E+00    8.3843114888054586E+00
N    1.6075483768070713E+00    2.7800372058354688E+00    1.0311149294817232E+01
Ga    1.6072080754766507E+00    4.6312699620009212E+00    1.1019604442084027E+01
N    1.6086985560790583E+00    4.6336599971220824E+00    1.2947241733374906E+01
Ga    1.6094638862243025E+00    2.7843766570206920E+00    1.3674685903153279E+01
N    1.6053747328139560E+00    2.7929302904541569E+00    1.5600944240839723E+01
Ga    1.5923909662651443E+00    4.6362441646151415E+00    1.6621703018204517E+01
N    3.1995574184607589E+00    3.7204276130945595E+00    1.7527640330738915E+01
N    1.4560115171166781E-03    5.5584404215218166E+00   -1.9362860010318125E-01
Ga    1.7398082583562112E-03    7.4110783416121944E+00    4.7463352945182785E-01
N    1.8399435290958094E-03    7.4115686045272735E+00    2.3883665756415260E+00
Ga    1.2726531138834865E-03    5.5586884522575106E+00    3.1188986464944373E+00
N    1.4057767230251659E-03    5.5584623032301206E+00    5.0421858741411336E+00
Ga    1.8439096908545556E-03    7.4112847893081630E+00    5.7564006495096773E+00
N    2.6473192720832101E-03    7.4123562092258837E+00    7.6786563253062310E+00
Ga    2.0036387266501709E-03    5.5590889423044167E+00    8.3876134061209626E+00
N    4.0615118044838357E-03    5.5613851268434180E+00    1.0314823109859516E+01
Ga    5.1702685140044505E-03    7.4174116774862746E+00    1.1022489266333743E+01
N    8.8149865920739649E-03    7.4212837778364777E+00    1.2948373489693600E+01
Ga    7.3589150271963881E-03    5.5689153625305039E+00    1.3653208987744007E+01
N    7.0501004225775350E-05    5.5547817223316907E+00    1.5576804358882987E+01
Ga   -7.3605010587768022E-03    7.3885365621131767E+00    1.6631201386142283E+01
N    1.5969865517083808E+00    6.4761595824337617E+00    1.7528430914937726E+01
N   -1.6030968884171635E+00    8.3376477446851762E+00   -1.9365375088332656E-01
Ga   -1.6027630206117163E+00    1.0190279690830204E+01    4.7481810940727581E-01
N   -1.6024243779538190E+00    1.0190778702269069E+01    2.3886060140436456E+00
Ga   -1.6030143239070753E+00    8.3377873631624642E+00    3.1192692837227423E+00
N   -1.6029077055085850E+00    8.3377650956668568E+00    5.0424679982041178E+00
Ga   -1.6020914570028939E+00    1.0190971618994928E+01    5.7556189764712880E+00
N   -1.6011386868780921E+00    1.0192622658465060E+01    7.6775705574257280E+00
Ga   -1.6026659914429136E+00    8.3398878223671264E+00    8.3873433796925401E+00
N   -1.6015097886904135E+00    8.3425965232644916E+00    1.0313937578776331E+01
Ga   -1.5998934812079064E+00    1.0195620753274650E+01    1.1029000534363959E+01
N   -1.5995901082132613E+00    1.0199013192626516E+01    1.2954138644642871E+01
Ga   -1.5965573017617096E+00    8.3468177280836215E+00    1.3671167995559328E+01
N   -1.6188778857689199E+00    8.3314641347879892E+00    1.5593863597210087E+01
Ga   -1.6275185763565758E+00    1.0195024247311919E+01    1.6633293233666439E+01
N   -3.2585094590114702E-02    9.2242345997852251E+00    1.7509836944556575E+01
N    6.4210431273025277E+00   -5.1312260887955064E-05   -1.9344547380761204E-01
Ga    6.4213469098684746E+00    1.8525309162634174E+00    4.7472752152338182E-01
N    6.4215898858051554E+00    1.8530511336884872E+00    2.3885508479464117E+00
Ga    6.4209714518448129E+00    1.5353492546737969E-04    3.1192985188634634E+00
N    6.4211564319178036E+00    4.4414946001294345E-04    5.0423119732070356E+00
Ga    6.4221075736391535E+00    1.8532157935715596E+00    5.7556780936005101E+00
N    6.4227483758337449E+00    1.8544154235290828E+00    7.6778740141735371E+00
Ga    6.4221737967926433E+00    1.8389655335724893E-03    8.3886306945185272E+00
N    6.4230586148564051E+00    4.8183646122767218E-03    1.0315690503971389E+01
Ga    6.4228050731566260E+00    1.8572610818914943E+00    1.1031319529868295E+01
N    6.4242696834250648E+00    1.8629834475769083E+00    1.2958880621260079E+01
Ga    6.4225224487026944E+00    1.0122610219178355E-02    1.3672792917739509E+01
N    6.4108366822928033E+00   -2.3270656977333812E-02    1.5594604983482567E+01
Ga    6.4008753350983678E+00    1.8469225430840102E+00    1.6648143309933133E+01
N    8.0060598072150864E+00    9.0122636473618944E-01    1.7519958633103489E+01
N    4.8164798407884799E+00    2.7791842993381635E+00   -1.9346101177353867E-01
Ga    4.8167230097650355E+00    4.6318184581743571E+00    4.7463562403197551E-01
N    4.8170033433825070E+00    4.6322280966082419E+00    2.3883947161718928E+00
Ga    4.8167162962188286E+00    2.7793117208734901E+00    3.1188767522993750E+00
N    4.8169755516180812E+00    2.7791938194687962E+00    5.0420714993751261E+00
Ga    4.8174834264081445E+00    4.6318614190654879E+00    5.7551653853890965E+00
N    4.8177855910180725E+00    4.6330853819064313E+00    7.6777865027540679E+00
Ga    4.8172164712381393E+00    2.7795498024942842E+00    8.3861424248783383E+00
N    4.8175490968184027E+00    2.7811732144746739E+00    1.0313579576765207E+01
Ga    4.8178010177951798E+00    4.6340673358048470E+00    1.1019534263349005E+01
N    4.8170549160696643E+00    4.6372094781061595E+00    1.2947486138400821E+01
Ga    4.8168008535958124E+00    2.7884476135012841E+00    1.3670070912608990E+01
N    4.8116550184930551E+00    2.7884315128157580E+00    1.5594147240152912E+01
Ga    4.8090782746757101E+00    4.6442570669499341E+00    1.6621571284383148E+01
N    6.3979072009724112E+00    3.6970095759728827E+00    1.7516240442837308E+01
N    3.2118603760442204E+00    5.5584260420333891E+00   -1.9346652241987303E-01
Ga    3.2120603513925667E+00    7.4110374805959669E+00    4.7489175559057645E-01
N    3.2121711508232140E+00    7.4114080417975217E+00    2.3886451623616973E+00
Ga    3.2119428372754006E+00    5.5581927772062203E+00    3.1187353584572870E+00
N    3.2121443244880132E+00    5.5575580575387065E+00    5.0419042368560643E+00
Ga    3.2122720896463219E+00    7.4111037804004969E+00    5.7531300252821902E+00
N    3.2128816376099105E+00    7.4113671639471317E+00    7.6749276023307562E+00
Ga    3.2119248865122434E+00    5.5592881175680882E+00    8.3855837898503758E+00
N    3.2115097865448425E+00    5.5611694509379079E+00    1.0312643876012027E+01
Ga    3.2131688484197478E+00    7.4161082266787393E+00    1.1024513736453363E+01
N    3.2143277119879152E+00    7.4200221639775226E+00    1.2953512686122179E+01
Ga    3.2118847535680151E+00    5.5643805176013776E+00    1.3658153695775141E+01
N    3.2047378098434089E+00    5.5659977337569533E+00    1.5581103172041290E+01
Ga    3.2127106801058720E+00    7.4119782852225811E+00    1.6666140563918507E+01
N    4.8089361640537831E+00    6.4848725311120869E+00    1.7529566160289761E+01
N    1.6072475412378142E+00    8.3376461837989346E+00   -1.9349281593279777E-01
Ga    1.6075243485764472E+00    1.0190350899166736E+01    4.7477369906772515E-01
N    1.6076202955255201E+00    1.0190892488506373E+01    2.3885355640554766E+00
Ga    1.6068079134903812E+00    8.3378454672102400E+00    3.1186492501785148E+00
N    1.6069046108757745E+00    8.3377841271513304E+00    5.0418777708959892E+00
Ga    1.6077253392131050E+00    1.0191164973153846E+01    5.7554329499562771E+00
N    1.6084913813191042E+00    1.0192661234122809E+01    7.6774187416941526E+00
Ga    1.6088380782331959E+00    8.3394391229799378E+00    8.3849612927405932E+00
N    1.6104951423950549E+00    8.3425603973371611E+00    1.0311920974535029E+01
Ga    1.6088341038872265E+00    1.0195246246967740E+01    1.1027456580450178E+01
N    1.6096596350803445E+00    1.0200176776103138E+01    1.2953575521647313E+01
Ga    1.6096102179925964E+00    8.3466060973767835E+00    1.3670125666384402E+01
N    1.6126302840905822E+00    8.3429380975881493E+00    1.5594418151720300E+01
Ga    1.6003694810157501E+00    1.0179845536016204E+01    1.6597709373232068E+01
N    3.1894124905070953E+00    9.2707104580819077E+00    1.7533926233910773E+01
N    9.6313575578441402E+00   -6.3146147407975578E-05   -1.9366950632144481E-01
Ga    9.6317249439118910E+00    1.8525612391126800E+00    4.7477039079029354E-01
N    9.6318532589061405E+00    1.8531589904103416E+00    2.3884287245278486E+00
Ga    9.6312269708099141E+00    2.0296952120064276E-04    3.1186516348216000E+00
N    9.6311985347854101E+00    3.8144089692669018E-04    5.0418219356120400E+00
Ga    9.6319851072045903E+00    1.8535207816493342E+00    5.7559283722960535E+00
N    9.6328173047216161E+00    1.8548556482913048E+00    7.6779955883217674E+00
Ga    9.6321033898761286E+00    1.9313847928236173E-03    8.3874161736559092E+00
N    9.6323076891164572E+00    5.7514786977108266E-03    1.0314965443965050E+01
Ga    9.6335197832252835E+00    1.8605169724321149E+00    1.1022472076591754E+01
N    9.6341187363921108E+00    1.8674681667691972E+00    1.2952529144287830E+01
Ga    9.6378457355147091E+00    1.2439976938368465E-02    1.3654943289269076E+01
N    9.6306064079987248E+00   -8.9203755297875848E-03    1.5572897711210254E+01
Ga    9.6257200768693121E+00    1.8239193206305009E+00    1.6624994630169319E+01
N    1.1223638210627286E+01    9.1597318752245349E-01    1.7528797728177903E+01
N    8.0267834128038427E+00    2.7792113757438450E+00   -1.9349552772432363E-01
Ga    8.0271882023236731E+00    4.6318689611909010E+00    4.7479430052542199E-01
N    8.0274334083517438E+00    4.6323596222803172E+00    2.3884714568760108E+00
Ga    8.0268134171693735E+00    2.7794518807972399E+00    3.1188785586743655E+00
N    8.0268967543961782E+00    2.7796317979690963E+00    5.0422344113407744E+00
Ga    8.0280128247133344E+00    4.6322619456818623E+00    5.7564044967674031E+00
N    8.0287201669796051E+00    4.6341133840871898E+00    7.6785671833846587E+00
Ga    8.0276243764763446E+00    2.7810984252670563E+00    8.3883451080462486E+00
N    8.0270958579220970E+00    2.7844349790139122E+00    1.0314721292421867E+01
Ga    8.0294332268654749E+00    4.6378850449765983E+00    1.1025629298174348E+01
N    8.0297338082948500E+00    4.6423313651026703E+00    1.2952430397820061E+01
Ga    8.0297481085023463E+00    2.7923106528985806E+00    1.3673193390140991E+01
N    8.0174392573164948E+00    2.7679292550836485E+00    1.5590887980512516E+01
Ga    8.0120706357640756E+00    4.6309553581716241E+00    1.6635982862244010E+01
N    9.6035607524163638E+00    3.6613294094016893E+00    1.7510108685080958E+01
N    6.4222231577504791E+00    5.5583926205767389E+00   -1.9343485255200488E-01
Ga    6.4225785060305292E+00    7.4110305694731560E+00    4.7480820809954316E-01
N    6.4228419253570497E+00    7.4112768595051524E+00    2.3885840010451878E+00
Ga    6.4223953056104666E+00    5.5580644618065254E+00    3.1189273735563581E+00
N    6.4226780630186919E+00    5.5575347267810509E+00    5.0421461298454622E+00
Ga    6.4232200943292410E+00    7.4107212154647684E+00    5.7538769527168974E+00
N    6.4235287705118633E+00    7.4115095543914320E+00    7.6760403428294017E+00
Ga    6.4233524051204753E+00    5.5595060974884509E+00    8.3873963653748156E+00
N    6.4229748783869081E+00    5.5624576366568892E+00    1.0314021204381282E+01
Ga    6.4226915082291161E+00    7.4166173491800622E+00    1.1020278396953941E+01
N    6.4224278799702130E+00    7.4189326902133175E+00    1.2950808293360710E+01
Ga    6.4207960123058303E+00    5.5680347368785803E+00    1.3659451638001531E+01
N    6.4115736366978675E+00    5.5478437338696640E+00    1.5585657369529759E+01
Ga    6.4213797404117052E+00    7.4136646269297399E+00    1.6665622609552429E+01
N    8.0042967010175943E+00    6.4629424384909262E+00    1.7520601173838266E+01
N    4.8176084313749410E+00    8.3375793812064458E+00   -1.9341406524122529E-01
Ga    4.8178568506058097E+00    1.0190366107188735E+01    4.7458558988946042E-01
N    4.8180101329902518E+00    1.0190801142925560E+01    2.3883712798908157E+00
Ga    4.8176581566303174E+00    8.3377028993346247E+00    3.1182063868933980E+00
N    4.8179224683310453E+00    8.3372231204698757E+00    5.0412664560971940E+00
Ga    4.8180680346567337E+00    1.0190767773040850E+01    5.7542630140333095E+00
N    4.8180936315353957E+00    1.0191343038670556E+01    7.6762859162179584E+00
Ga    4.8179800550213763E+00    8.3379980835973786E+00    8.3828407415814894E+00
N    4.8178101133829694E+00    8.3390258279105858E+00    1.0310140725242970E+01
Ga    4.8204032232635630E+00    1.0192874142893341E+01    1.1023230906693623E+01
N    4.8209156922273424E+00    1.0195692715242648E+01    1.2947273878441070E+01
Ga    4.8199760237476186E+00    8.3460227747418543E+00    1.3671890805030879E+01
N    4.8156431858684057E+00    8.3420785682406091E+00    1.5599161196983600E+01
Ga    4.8058572235468953E+00    1.0192536682956263E+01    1.6615282328346336E+01
N    6.4097724891466443E+00    9.2748445515188980E+00    1.7524864933709303E+01
H    2.4852886801828694E-04   -2.5022053462326829E-04   -1.2186147602613380E+00
H   -1.6044758272954265E+00    2.7790135627041641E+00   -1.2185535285302882E+00
H   -3.2090605047117937E+00    5.5581812293887625E+00   -1.2185364941267547E+00
H   -4.8136192407285323E+00    8.3374232635889776E+00   -1.2186796064833303E+00
H    3.2104891675046616E+00   -3.2169427767717978E-04   -1.2186922509986498E+00
H    1.6058924270646115E+00    2.7789750200437791E+00   -1.2184839585832006E+00
H    1.2710288061891133E-03    5.5582566401598861E+00   -1.2187573790934991E+00
H   -1.6032365419288057E+00    8.3374203405271512E+00   -1.2187888506013593E+00
H    6.4208461146829832E+00   -1.9604736145357386E-04   -1.2185609607638213E+00
H    4.8163508342027592E+00    2.7789805677329658E+00   -1.2185722963926597E+00
H    3.2117062439097004E+00    5.5581587300589037E+00   -1.2185835634824873E+00
H    1.6070026443198207E+00    8.3374424832047893E+00   -1.2186217610414423E+00
H    9.6311159013727554E+00   -2.1536726294234750E-04   -1.2188131748709052E+00
H    8.0265756648296467E+00    2.7789846255304789E+00   -1.2186216263785670E+00
H    6.4220344216632457E+00    5.5581618393279806E+00   -1.2185536207194501E+00
H    4.8174304800825780E+00    8.3373373512325308E+00   -1.2185497610953961E+00
     &END COORD
     &KIND H
       BASIS_SET DZVP-MOLOPT-SR-GTH-q1
       POTENTIAL GTH-PBE-q1
       &POTENTIAL
 1
  0.2000000000000000E+00 2 -0.4178900440000000E+01  0.7244633100000000E+00
 0
         # Potential name:  GTH-PBE-Q1  for symbol:  H
         # Potential read from the potential filename: GTH_POTENTIALS
       &END POTENTIAL
     &END KIND
     &KIND N
       BASIS_SET DZVP-MOLOPT-SR-GTH
       POTENTIAL GTH-PBE-q5
       &POTENTIAL
 2 3
  0.2837905100000000E+00 2 -0.1241522559000000E+02  0.1868095920000000E+01
 2
  0.2554050000000000E+00 1  0.1363026257000000E+02
  0.2454945300000000E+00 0
         # Potential name:  GTH-PBE-Q5  for symbol:  N
         # Potential read from the potential filename: GTH_POTENTIALS
       &END POTENTIAL
     &END KIND
     &KIND Ga
       BASIS_SET DZVP-MOLOPT-SR-GTH
       POTENTIAL GTH-PBE-q13
       &POTENTIAL
 2 1 10
  0.4900000000000000E+00 0
 3
  0.4167772300000000E+00 3  0.1047568975000000E+02 -0.4921768140000000E+01  0.8707055900000000E+00
  0.7770178090000000E+01 -0.2248152160000000E+01
  0.1784415450000000E+01
  0.5696265200000000E+00 2  0.1777985340000000E+01  0.1958597600000000E+00
 -0.2317443900000000E+00
  0.2381265000000000E+00 1 -0.1624868022000000E+02
         # Potential name:  GTH-PBE-Q13  for symbol:  GA
         # Potential read from the potential filename: GTH_POTENTIALS
       &END POTENTIAL
     &END KIND
     &TOPOLOGY
       NUMBER_OF_ATOMS  256
       MULTIPLE_UNIT_CELL  1 1 1
     &END TOPOLOGY
   &END SUBSYS
 &END FORCE_EVAL
