 # Version information for this restart file 
 # current date 2019-06-09 03:54:05.399
 # current working dir /lustre03/project/6037349/rzk/GaN-carbene/444-addat/00-Surface/UKS_SYMM
 # Program compiled at                              Sun Apr  7 00:48:11 EDT 2019
 # Program compiled on                          beluga2.int.ets1.calculquebec.ca
 # Program compiled for                        Beluga-Linux-x86-64-intel-openmpi
 # Source code revision number                                         svn:18619
 &GLOBAL
   PRINT_LEVEL  MEDIUM
   PROJECT_NAME TEST
   RUN_TYPE  CELL_OPT
 &END GLOBAL
 &MOTION
   &CELL_OPT
     MAX_ITER  300
     STEP_START_VAL  8
     EXTERNAL_PRESSURE     1.0000000000000000E+00
     KEEP_ANGLES  T
     KEEP_SYMMETRY  T
     CONSTRAINT  Z
     PRESSURE_TOLERANCE     5.0000000000000000E+02
   &END CELL_OPT
 &END MOTION
 &FORCE_EVAL
   METHOD  QS
   STRESS_TENSOR  ANALYTICAL
   &DFT
     BASIS_SET_FILE_NAME BASIS_MOLOPT
     POTENTIAL_FILE_NAME GTH_POTENTIALS
     UKS  T
     SURFACE_DIPOLE_CORRECTION  T
     SURF_DIP_DIR  Z
     &SCF
       MAX_SCF  100
       EPS_SCF     5.0000000000000004E-06
       &OT  T
         PRECONDITIONER  FULL_ALL
       &END OT
       &OUTER_SCF  T
         OPTIMIZER  NONE
         EPS_SCF     5.0000000000000004E-06
         MAX_SCF  4
       &END OUTER_SCF
       &PRINT
         &RESTART  OFF
           BACKUP_COPIES  1
           &EACH
             JUST_ENERGY  0
             QS_SCF  0
             MD  20
           &END EACH
         &END RESTART
       &END PRINT
     &END SCF
     &QS
       EPS_DEFAULT     1.0000000000000000E-14
       METHOD  GPW
     &END QS
     &MGRID
       NGRIDS  5
       CUTOFF     1.2000000000000000E+03
     &END MGRID
     &XC
       DENSITY_CUTOFF     1.0000000000000000E-10
       GRADIENT_CUTOFF     1.0000000000000000E-10
       TAU_CUTOFF     1.0000000000000000E-10
       &XC_FUNCTIONAL  NO_SHORTCUT
         &PBE  T
         &END PBE
       &END XC_FUNCTIONAL
       &VDW_POTENTIAL
         POTENTIAL_TYPE  PAIR_POTENTIAL
         &PAIR_POTENTIAL
           R_CUTOFF     1.0000000000000004E+01
           TYPE  DFTD3
           PARAMETER_FILE_NAME dftd3.dat
           REFERENCE_FUNCTIONAL PBE
           EPS_CN     9.9999999999999995E-07
           CALCULATE_C9_TERM  T
           REFERENCE_C9_TERM  T
           LONG_RANGE_CORRECTION  F
           VERBOSE_OUTPUT  F
         &END PAIR_POTENTIAL
       &END VDW_POTENTIAL
     &END XC
   &END DFT
   &SUBSYS
     &CELL
       A     1.2911554023421974E+01    0.0000000000000000E+00    0.0000000000000000E+00
       B    -6.4577512221727753E+00    1.1185153219443276E+01    0.0000000000000000E+00
       C     0.0000000000000000E+00    0.0000000000000000E+00    3.2000000000000000E+01
       MULTIPLE_UNIT_CELL  1 1 1
       &CELL_REF
         A     1.2982353780853531E+01    0.0000000000000000E+00    0.0000000000000000E+00
         B    -6.4911768904267628E+00    1.1243048175136114E+01    0.0000000000000000E+00
         C     0.0000000000000000E+00    0.0000000000000000E+00    3.2000000000000000E+01
         MULTIPLE_UNIT_CELL  1 1 1
       &END CELL_REF
     &END CELL
     &COORD
N    1.6158582192256108E-04    1.6099642099760470E-04   -2.8308789590852097E-02
Ga   -3.4231508111116189E-04    1.8640555651865134E+00    6.3114400539859750E-01
N   -3.1225679697792735E-04    1.8643059262581207E+00    2.5506370164497718E+00
Ga    1.1926775445837760E-04    2.4703410045834383E-04    3.2427468187923041E+00
N    4.8476019106034369E-05   -4.3181800563447211E-05    5.1613234502180170E+00
Ga   -3.9069094888935187E-04    1.8639893492925426E+00    5.8344494758477534E+00
N   -3.8539286363292372E-04    1.8643058503383119E+00    7.7525599464592139E+00
Ga    1.0543564528063570E-04    3.1211674978448307E-04    8.4105097786527665E+00
N    1.3479432063934294E-04    4.4410808321820205E-04    1.0313919175164928E+01
Ga   -6.2612847408514407E-04    1.8629545026193233E+00    1.0934463771453458E+01
N    1.1546512466640067E-03    1.8653547446048719E+00    1.2824464223477698E+01
Ga    1.8088076360885548E-03   -2.7421170136737705E-03    1.3488602533922796E+01
N   -1.0899813787080190E-02   -2.8688247572802384E-03    1.5395938447382507E+01
Ga   -1.1353399484394970E-03    1.8673791988117627E+00    1.6371285769152863E+01
N    1.6033682214362945E+00    9.2134538014289014E-01    1.7297270405507458E+01
N   -1.6142792214094204E+00    2.7964256315452762E+00   -2.8266695063774307E-02
Ga   -1.6147745688642312E+00    4.6603674484688904E+00    6.3112576547673827E-01
N   -1.6147445169904504E+00    4.6605775513020165E+00    2.5507210004343959E+00
Ga   -1.6143104938030763E+00    2.7964371716090377E+00    3.2427629274630938E+00
N   -1.6144267697150223E+00    2.7962564256961024E+00    5.1613562744677219E+00
Ga   -1.6148340712417573E+00    4.6602752689177063E+00    5.8344904158907980E+00
N   -1.6147987988961046E+00    4.6605450035725910E+00    7.7529487615006891E+00
Ga   -1.6136646134827040E+00    2.7969494085565296E+00    8.4109218942195234E+00
N   -1.6131187272428686E+00    2.7972743812769920E+00    1.0314491500916468E+01
Ga   -1.6147107353987271E+00    4.6606937161933084E+00    1.0935815580105830E+01
N   -1.6136236836781384E+00    4.6604150648652256E+00    1.2824469317099107E+01
Ga   -1.6144686155128281E+00    2.7965594388755983E+00    1.3486668650624882E+01
N   -1.6165350644983014E+00    2.8163036100292445E+00    1.5403975186063391E+01
Ga   -1.6078684785697595E+00    4.6760199048991522E+00    1.6338691030521218E+01
N   -2.6498902997117848E-02    3.7348617482364430E+00    1.7313801423580216E+01
N   -3.2287302137541567E+00    5.5927363311231346E+00   -2.8280278215311191E-02
Ga   -3.2292165915965985E+00    7.4566517766208138E+00    6.3116034198584114E-01
N   -3.2291889421265254E+00    7.4568290720272969E+00    2.5507097103550862E+00
Ga   -3.2287716781585325E+00    5.5927937228613711E+00    3.2427235688445641E+00
N   -3.2288891793581977E+00    5.5925985352592038E+00    5.1613635701992377E+00
Ga   -3.2291166640307938E+00    7.4566119918449765E+00    5.8346446433915062E+00
N   -3.2291459138264029E+00    7.4568693474200227E+00    7.7529891142491900E+00
Ga   -3.2282224312310728E+00    5.5930348194663644E+00    8.4109964224220928E+00
N   -3.2282526814430104E+00    5.5931700190120273E+00    1.0315043524746057E+01
Ga   -3.2286234069334814E+00    7.4571783149433406E+00    1.0933326294851435E+01
N   -3.2254976452885153E+00    7.4604580859137108E+00    1.2825193588246817E+01
Ga   -3.2250910240690875E+00    5.5979336605303827E+00    1.3495516214232039E+01
N   -3.2267255889959685E+00    5.5863607150317458E+00    1.5409814026303053E+01
Ga   -3.2392511762224472E+00    7.4821830910773368E+00    1.6366883422148899E+01
N   -1.6373575361421182E+00    6.5259660699472954E+00    1.7301878204862799E+01
N   -4.8431698176956095E+00    8.3890126907714926E+00   -2.8275428817531777E-02
Ga   -4.8436471531543033E+00    1.0252949048813665E+01    6.3113810223557421E-01
N   -4.8436718634637810E+00    1.0253114200685937E+01    2.5507092063203767E+00
Ga   -4.8431277139984958E+00    8.3890838479783287E+00    3.2426617659629704E+00
N   -4.8432083208370758E+00    8.3887444218620875E+00    5.1613714152617041E+00
Ga   -4.8437450788818230E+00    1.0253004346092728E+01    5.8345075745366577E+00
N   -4.8436703338901204E+00    1.0253005821347344E+01    7.7527298392697999E+00
Ga   -4.8429721585217056E+00    8.3893339042344923E+00    8.4103910658855927E+00
N   -4.8429059626378503E+00    8.3885948321795905E+00    1.0314463048779425E+01
Ga   -4.8444706808498035E+00    1.0253149625643195E+01    1.0931442750384557E+01
N   -4.8426492087186617E+00    1.0251267578538089E+01    1.2818092608002921E+01
Ga   -4.8432636112846064E+00    8.3912702187353556E+00    1.3487910766101052E+01
N   -4.8491594715909949E+00    8.4001133672747343E+00    1.5396069075032514E+01
Ga   -4.8477607663251598E+00    1.0252030948612907E+01    1.6366621374554857E+01
N   -3.2313058453541639E+00    9.3219561500117436E+00    1.7310248469472235E+01
N    3.2280542076165362E+00    1.4787699216842293E-04   -2.8293645121973816E-02
Ga    3.2275729674423923E+00    1.8640482843263884E+00    6.3113745597985516E-01
N    3.2276569037730516E+00    1.8642967495019767E+00    2.5507220994011144E+00
Ga    3.2279889913399686E+00    1.4350503313213358E-04    3.2427828974557218E+00
N    3.2279842131169971E+00   -2.9454383794007750E-05    5.1613763855547177E+00
Ga    3.2274455568652995E+00    1.8639796514545395E+00    5.8344303119283047E+00
N    3.2276626477672719E+00    1.8643390904642090E+00    7.7530405108789751E+00
Ga    3.2280419659690196E+00   -1.4772374469578111E-04    8.4106136408633052E+00
N    3.2282357615171162E+00   -3.7825526100697409E-04    1.0314336012441757E+01
Ga    3.2282313816689547E+00    1.8639647730046687E+00    1.0926597902048723E+01
N    3.2304574866676381E+00    1.8659681798293759E+00    1.2817583416742465E+01
Ga    3.2249522248888960E+00    2.3135156661242252E-03    1.3483057789486235E+01
N    3.2121028080842939E+00   -7.6517273240610320E-03    1.5392215557111006E+01
Ga    3.2270262843210684E+00    1.8819168025320325E+00    1.6372458252610016E+01
N    4.8247198331521428E+00    9.2463778007429043E-01    1.7289533496983609E+01
N    1.6135960124740085E+00    2.7964352708007532E+00   -2.8272943087658969E-02
Ga    1.6131255834856386E+00    4.6603743896881618E+00    6.3114759312226054E-01
N    1.6131990073568028E+00    4.6605904445456430E+00    2.5507123885958660E+00
Ga    1.6135012223214384E+00    2.7964429542002271E+00    3.2427680507378422E+00
N    1.6135511588883653E+00    2.7962937644958572E+00    5.1613888414697788E+00
Ga    1.6130304185585818E+00    4.6602124714741100E+00    5.8343884406740658E+00
N    1.6132340151635125E+00    4.6604751573831047E+00    7.7530790090600403E+00
Ga    1.6131204629719909E+00    2.7961194013064921E+00    8.4100307841383728E+00
N    1.6132872104648950E+00    2.7955381953484442E+00    1.0313651188786368E+01
Ga    1.6128474490180769E+00    4.6595435193119936E+00    1.0927102356445131E+01
N    1.6157528577392211E+00    4.6586078277359091E+00    1.2818124911363832E+01
Ga    1.6163632742862346E+00    2.7951291060327081E+00    1.3484671823903305E+01
N    1.6026943419856743E+00    2.8054672446074287E+00    1.5398044564887726E+01
Ga    1.6003148542101766E+00    4.6585339018475320E+00    1.6352478952861034E+01
N    3.2108357392152547E+00    3.7312942539597875E+00    1.7301972559242287E+01
N   -8.3214438665437512E-04    5.5927303713062386E+00   -2.8282728245040332E-02
Ga   -1.3129674290372928E-03    7.4566475434512380E+00    6.3109953583419920E-01
N   -1.2877491742079635E-03    7.4568581302927930E+00    2.5507040992747614E+00
Ga   -8.7895822169361030E-04    5.5927658223985510E+00    3.2427964271798166E+00
N   -8.8332165647711416E-04    5.5925986201565525E+00    5.1614247964536011E+00
Ga   -1.3998278419625580E-03    7.4566721317443241E+00    5.8345557637634213E+00
N   -1.1692622601602698E-03    7.4568778412216110E+00    7.7531807766447907E+00
Ga   -1.2674136070684645E-03    5.5929533948722145E+00    8.4102414425300722E+00
N   -9.2925461546414332E-04    5.5927683662856307E+00    1.0314974065465698E+01
Ga    7.4067077378774579E-05    7.4574352078884445E+00    1.0930827795093460E+01
N    3.9033913866028088E-03    7.4573709926920531E+00    1.2820305262581957E+01
Ga    2.8146351025676738E-03    5.5942333810443872E+00    1.3481451128006064E+01
N   -8.4245920380379546E-03    5.5886621789083204E+00    1.5391858818447231E+01
Ga   -3.0832635434227848E-03    7.4311552117596680E+00    1.6341948539866451E+01
N    1.6096393268104019E+00    6.5163476896687680E+00    1.7302306470820781E+01
N   -1.6152795010856322E+00    8.3890166255651248E+00   -2.8267170421976406E-02
Ga   -1.6157632762447132E+00    1.0252943382519931E+01    6.3114915441514419E-01
N   -1.6157056918035986E+00    1.0253158610196722E+01    2.5506901801051769E+00
Ga   -1.6153606576090522E+00    8.3890777695988046E+00    3.2428220979525926E+00
N   -1.6153721651266708E+00    8.3888638983247219E+00    5.1613865471355931E+00
Ga   -1.6157661870695315E+00    1.0252809551748836E+01    5.8346679685680787E+00
N   -1.6156847459235983E+00    1.0253119824430671E+01    7.7529107811843101E+00
Ga   -1.6151134434892573E+00    8.3893064428988655E+00    8.4113458068048672E+00
N   -1.6147643318554072E+00    8.3893183319262885E+00    1.0315588076145955E+01
Ga   -1.6154316315087272E+00    1.0253505591499612E+01    1.0935955093735112E+01
N   -1.6141468988604333E+00    1.0256299096936040E+01    1.2825443283239917E+01
Ga   -1.6086371279221068E+00    8.3927585592839478E+00    1.3489366862593663E+01
N   -1.6186183634321372E+00    8.4012355010124278E+00    1.5401807045797174E+01
Ga   -1.6391856250162702E+00    1.0273366894459921E+01    1.6359162109312280E+01
N   -3.0508699652042785E-02    9.2667114049037096E+00    1.7302273412687121E+01
N    6.4559274514786162E+00    1.4162882680028140E-04   -2.8284352140754813E-02
Ga    6.4554407349457641E+00    1.8640412886756499E+00    6.3103782340748715E-01
N    6.4554945871290581E+00    1.8642877823329733E+00    2.5507589514836804E+00
Ga    6.4558181494727123E+00    1.0302591915151805E-04    3.2427461881968620E+00
N    6.4558287645324643E+00    1.6994435802179468E-06    5.1613551997981855E+00
Ga    6.4553813084703053E+00    1.8638612810345720E+00    5.8343347919766986E+00
N    6.4554359862051927E+00    1.8641970418980649E+00    7.7530380795759815E+00
Ga    6.4559285501597303E+00   -1.0289573125848090E-04    8.4114046785464271E+00
N    6.4560232990990292E+00   -1.1793204720839409E-04    1.0315547965566688E+01
Ga    6.4557658492790386E+00    1.8632052144620308E+00    1.0931681222630063E+01
N    6.4605013131154099E+00    1.8663271263961998E+00    1.2822658949947739E+01
Ga    6.4563229964632534E+00    4.8562697045022247E-03    1.3497102274470954E+01
N    6.4578412854848528E+00   -2.0654602867667442E-02    1.5413910835034004E+01
Ga    6.4424024443105559E+00    1.8941919368302014E+00    1.6362779923610113E+01
N    8.0513841820995715E+00    9.3715048392397327E-01    1.7302922130346833E+01
N    4.8414925592649105E+00    2.7964393655029065E+00   -2.8279191237552900E-02
Ga    4.8409771532185495E+00    4.6603620913897394E+00    6.3107815884872720E-01
N    4.8410263978280597E+00    4.6605853530553212E+00    2.5507410922573368E+00
Ga    4.8414101460689745E+00    2.7964591739816553E+00    3.2427351793160271E+00
N    4.8414127876529047E+00    2.7963277202754568E+00    5.1614128641087369E+00
Ga    4.8408926956916485E+00    4.6602946981436455E+00    5.8342857256228156E+00
N    4.8409102774821937E+00    4.6606312181344682E+00    7.7527703881293322E+00
Ga    4.8416686260460988E+00    2.7965375987449743E+00    8.4094246388877334E+00
N    4.8422740483721540E+00    2.7971889374034360E+00    1.0313941105269530E+01
Ga    4.8408675931339173E+00    4.6604173565497788E+00    1.0928180722563468E+01
N    4.8416135980308601E+00    4.6609813228901746E+00    1.2818297707268473E+01
Ga    4.8436268998454262E+00    2.7997424009278449E+00    1.3482302523349674E+01
N    4.8377740141825205E+00    2.8102496057017352E+00    1.5392349170730490E+01
Ga    4.8272060129004695E+00    4.6815361588011450E+00    1.6364452451359227E+01
N    6.4421786689309259E+00    3.7375203436088071E+00    1.7290473575084228E+01
N    3.2270631420479079E+00    5.5927206442273505E+00   -2.8275655071284440E-02
Ga    3.2265421098383467E+00    7.4566274271997193E+00    6.3108223765246940E-01
N    3.2265972204867901E+00    7.4568169645547826E+00    2.5506990844115842E+00
Ga    3.2269302193291272E+00    5.5927610378488550E+00    3.2426602201928847E+00
N    3.2269997589102921E+00    5.5925791171347363E+00    5.1613854917048814E+00
Ga    3.2264643112952731E+00    7.4566554643391418E+00    5.8344740737553504E+00
N    3.2265964057384804E+00    7.4568273655932167E+00    7.7528105508386904E+00
Ga    3.2270079321574792E+00    5.5933210966039910E+00    8.4103071171520227E+00
N    3.2273688111974668E+00    5.5933813912741206E+00    1.0314556113438931E+01
Ga    3.2257292411401237E+00    7.4576328942531172E+00    1.0934741787639524E+01
N    3.2269705529878649E+00    7.4568290981386491E+00    1.2826865872320907E+01
Ga    3.2278434234782107E+00    5.5920198871607703E+00    1.3483923826242965E+01
N    3.2177499418767441E+00    5.5958748070388600E+00    1.5395387330107834E+01
Ga    3.2203410432658770E+00    7.4722435061716084E+00    1.6384020628766347E+01
N    4.8287966569302876E+00    6.5317312431085028E+00    1.7310077848497240E+01
N    1.6126205433474456E+00    8.3890036801271783E+00   -2.8290616062252850E-02
Ga    1.6121227725168414E+00    1.0252933770352374E+01    6.3109313576190296E-01
N    1.6121782893882983E+00    1.0253135412630863E+01    2.5507371691895879E+00
Ga    1.6125251946536241E+00    8.3890295099059635E+00    3.2427778150914834E+00
N    1.6125807177440954E+00    8.3888410347560978E+00    5.1613683337937974E+00
Ga    1.6120354354528867E+00    1.0252838953858319E+01    5.8346719290756539E+00
N    1.6121527381788034E+00    1.0253147616009937E+01    7.7530344380436969E+00
Ga    1.6127401599174351E+00    8.3893611214302553E+00    8.4110644696013690E+00
N    1.6135651628060748E+00    8.3895177077259380E+00    1.0315146938306361E+01
Ga    1.6117665732431723E+00    1.0252876563589961E+01    1.0936692649559136E+01
N    1.6136524906565739E+00    1.0254412186806016E+01    1.2826490684868885E+01
Ga    1.6121260407434757E+00    8.3906150891677651E+00    1.3493506127826269E+01
N    1.6159314321106801E+00    8.4110462818422356E+00    1.5409497950780590E+01
Ga    1.6282501458191996E+00    1.0276140306973696E+01    1.6329895495456881E+01
N    3.1928244583454366E+00    9.3254156349768298E+00    1.7317699854843443E+01
N    9.6838338712815606E+00    1.5784558958150825E-04   -2.8281380593367548E-02
Ga    9.6833505771585973E+00    1.8640389611485675E+00    6.3115306670687521E-01
N    9.6833155392257382E+00    1.8642567788591002E+00    2.5506846538424774E+00
Ga    9.6837850726625803E+00    1.9462009615837125E-04    3.2427547254134317E+00
N    9.6836866524748491E+00    3.9647147852060593E-05    5.1614096991699752E+00
Ga    9.6834497337434779E+00    1.8639775000243781E+00    5.8346118198439223E+00
N    9.6836039555476781E+00    1.8642338389413498E+00    7.7529809511966441E+00
Ga    9.6838758108097007E+00   -2.9970046292490004E-04    8.4108719087636263E+00
N    9.6841124258667204E+00   -2.0900432304203498E-04    1.0315017478472955E+01
Ga    9.6847940025561847E+00    1.8644118130372092E+00    1.0925081054315489E+01
N    9.6886676125776638E+00    1.8648460921628502E+00    1.2816286428560655E+01
Ga    9.6911534697501427E+00    2.5087265210278851E-03    1.3480477256107815E+01
N    9.6802353800920748E+00    2.3703472018395426E-03    1.5385734341865566E+01
Ga    9.6808756870640664E+00    1.8592351558212843E+00    1.6350222028743850E+01
N    1.1293676947169686E+01    9.3675392274131175E-01    1.7299989054911237E+01
N    8.0694067357628665E+00    2.7964387465665927E+00   -2.8283914626555318E-02
Ga    8.0689040313939948E+00    4.6603585520405399E+00    6.3109568573099728E-01
N    8.0688739050853258E+00    4.6605520633598774E+00    2.5507142860223464E+00
Ga    8.0693643112603120E+00    2.7964831992202122E+00    3.2427451420635474E+00
N    8.0693267897328642E+00    2.7962840436338703E+00    5.1614524329522640E+00
Ga    8.0689751527905127E+00    4.6603114654827680E+00    5.8343788090056110E+00
N    8.0690189106487047E+00    4.6605538076280535E+00    7.7528280608043589E+00
Ga    8.0693138768660368E+00    2.7963365927512061E+00    8.4095416642740144E+00
N    8.0698039610798613E+00    2.7962608270395783E+00    1.0313439759071585E+01
Ga    8.0704827618543558E+00    4.6601901035279507E+00    1.0930444229542360E+01
N    8.0755239992604011E+00    4.6595590563960192E+00    1.2822304573642167E+01
Ga    8.0771289018270362E+00    2.7958226179588892E+00    1.3486841935257534E+01
N    8.0681185824482604E+00    2.8010613530992532E+00    1.5396339721151584E+01
Ga    8.0487858924181008E+00    4.6765175586573537E+00    1.6356906506917301E+01
N    9.6503593540610861E+00    3.6985995569932872E+00    1.7300883085719708E+01
N    6.4549542633093075E+00    5.5927139876981027E+00   -2.8267607630625961E-02
Ga    6.4544718060937276E+00    7.4566353002036276E+00    6.3108133200011440E-01
N    6.4544508019693172E+00    7.4568272913981506E+00    2.5507988633288767E+00
Ga    6.4549078613349105E+00    5.5926965395701549E+00    3.2426938429717502E+00
N    6.4548532175103714E+00    5.5925701594369794E+00    5.1614395698856050E+00
Ga    6.4543283205914284E+00    7.4566042843802549E+00    5.8345262982470425E+00
N    6.4543895512849234E+00    7.4567945014397878E+00    7.7531392765307876E+00
Ga    6.4549680292705789E+00    5.5926793778396515E+00    8.4095588241230068E+00
N    6.4553002457023956E+00    5.5913287209880567E+00    1.0313688813783862E+01
Ga    6.4548658632377238E+00    7.4557803000331058E+00    1.0927905976126260E+01
N    6.4574646219903649E+00    7.4498090590985893E+00    1.2819639174600379E+01
Ga    6.4557262915764042E+00    5.5892635150540482E+00    1.3480436482485477E+01
N    6.4422317593351321E+00    5.5880229425560071E+00    1.5393041032855425E+01
Ga    6.4470737948307306E+00    7.4802856352219669E+00    1.6376707055241862E+01
N    8.0410282811678702E+00    6.5185129531565726E+00    1.7295382988640352E+01
N    4.8405154141193032E+00    8.3890091250097303E+00   -2.8282661418942624E-02
Ga    4.8400119643428541E+00    1.0252952880333330E+01    6.3108830599057097E-01
N    4.8400315269731076E+00    1.0253081475967059E+01    2.5507357033517253E+00
Ga    4.8404063042293126E+00    8.3890553684598181E+00    3.2426754857066138E+00
N    4.8404200724742728E+00    8.3887925555439491E+00    5.1613404092745512E+00
Ga    4.8400201541470729E+00    1.0252856887633428E+01    5.8344348655091371E+00
N    4.8399803229480778E+00    1.0252907212157014E+01    7.7529135652197656E+00
Ga    4.8401510029809423E+00    8.3892542369384859E+00    8.4106678684148495E+00
N    4.8401695044085207E+00    8.3880456601748676E+00    1.0315305944098439E+01
Ga    4.8414360861794048E+00    1.0252673562550754E+01    1.0933142509759639E+01
N    4.8430636658031707E+00    1.0250474569613512E+01    1.2819161944715335E+01
Ga    4.8445797107780812E+00    8.3877947879491561E+00    1.3488562301313928E+01
N    4.8316287723696991E+00    8.4019863062107358E+00    1.5401539042404687E+01
Ga    4.8209427934337734E+00    1.0258037529769931E+01    1.6353335092546146E+01
N    6.4352059879463637E+00    9.3268375659812914E+00    1.7301637273369408E+01
H   -8.5805525615415297E-05   -1.3977416261223141E-04   -1.0531795303181455E+00
H   -1.6145226562975863E+00    2.7961597963426499E+00   -1.0531641376663501E+00
H   -3.2289641498768455E+00    5.5924506751075675E+00   -1.0531553010648427E+00
H   -4.8434132256814690E+00    8.3887388617569609E+00   -1.0531539312011713E+00
H    3.2278056497936913E+00   -1.4195928333090172E-04   -1.0531540330495268E+00
H    1.6133781867649533E+00    2.7961448088265950E+00   -1.0531613800840598E+00
H   -1.0775442296408560E-03    5.5924344375983646E+00   -1.0531664768037721E+00
H   -1.6155222946785195E+00    8.3887380365710769E+00   -1.0531639526490997E+00
H    6.4557014631544893E+00   -1.4343375174299735E-04   -1.0531459910997039E+00
H    4.8412683971118744E+00    2.7961566918356953E+00   -1.0531450802269606E+00
H    3.2268257671578930E+00    5.5924350141466466E+00   -1.0531419873253476E+00
H    1.6123803014169069E+00    8.3887486210693218E+00   -1.0531622434405039E+00
H    9.6835959157512121E+00   -1.4713053651936735E-04   -1.0531443168318815E+00
H    8.0691652497109718E+00    2.7961445964395271E+00   -1.0531717387412940E+00
H    6.4547120187672338E+00    5.5924430408450885E+00   -1.0531358693604980E+00
H    4.8402967170107551E+00    8.3887298770773384E+00   -1.0531564701941063E+00
     &END COORD
     &KIND H
       BASIS_SET DZVP-MOLOPT-SR-GTH-q1
       POTENTIAL GTH-PBE-q1
       &POTENTIAL
 1
  0.2000000000000000E+00 2 -0.4178900440000000E+01  0.7244633100000000E+00
 0
         # Potential name:  GTH-PBE-Q1  for symbol:  H
         # Potential read from the potential filename: GTH_POTENTIALS
       &END POTENTIAL
     &END KIND
     &KIND N
       BASIS_SET DZVP-MOLOPT-SR-GTH
       POTENTIAL GTH-PBE-q5
       &POTENTIAL
 2 3
  0.2837905100000000E+00 2 -0.1241522559000000E+02  0.1868095920000000E+01
 2
  0.2554050000000000E+00 1  0.1363026257000000E+02
  0.2454945300000000E+00 0
         # Potential name:  GTH-PBE-Q5  for symbol:  N
         # Potential read from the potential filename: GTH_POTENTIALS
       &END POTENTIAL
     &END KIND
     &KIND Ga
       BASIS_SET DZVP-MOLOPT-SR-GTH
       POTENTIAL GTH-PBE-q13
       &POTENTIAL
 2 1 10
  0.4900000000000000E+00 0
 3
  0.4167772300000000E+00 3  0.1047568975000000E+02 -0.4921768140000000E+01  0.8707055900000000E+00
  0.7770178090000000E+01 -0.2248152160000000E+01
  0.1784415450000000E+01
  0.5696265200000000E+00 2  0.1777985340000000E+01  0.1958597600000000E+00
 -0.2317443900000000E+00
  0.2381265000000000E+00 1 -0.1624868022000000E+02
         # Potential name:  GTH-PBE-Q13  for symbol:  GA
         # Potential read from the potential filename: GTH_POTENTIALS
       &END POTENTIAL
     &END KIND
     &TOPOLOGY
       NUMBER_OF_ATOMS  256
       MULTIPLE_UNIT_CELL  1 1 1
     &END TOPOLOGY
   &END SUBSYS
 &END FORCE_EVAL
