 # Version information for this restart file 
 # current date 2019-06-09 05:57:46.411
 # current working dir /lustre03/project/6037349/rzk/GaN-carbene/444-addat/00-Surface/UKS_SYMM
 # Program compiled at                              Sun Apr  7 00:48:11 EDT 2019
 # Program compiled on                          beluga2.int.ets1.calculquebec.ca
 # Program compiled for                        Beluga-Linux-x86-64-intel-openmpi
 # Source code revision number                                         svn:18619
 &GLOBAL
   PRINT_LEVEL  MEDIUM
   PROJECT_NAME TEST
   RUN_TYPE  CELL_OPT
 &END GLOBAL
 &MOTION
   &CELL_OPT
     MAX_ITER  300
     STEP_START_VAL  31
     EXTERNAL_PRESSURE     1.0000000000000000E+00
     KEEP_ANGLES  T
     KEEP_SYMMETRY  T
     CONSTRAINT  Z
     PRESSURE_TOLERANCE     5.0000000000000000E+02
   &END CELL_OPT
 &END MOTION
 &FORCE_EVAL
   METHOD  QS
   STRESS_TENSOR  ANALYTICAL
   &DFT
     BASIS_SET_FILE_NAME BASIS_MOLOPT
     POTENTIAL_FILE_NAME GTH_POTENTIALS
     UKS  T
     SURFACE_DIPOLE_CORRECTION  T
     SURF_DIP_DIR  Z
     &SCF
       MAX_SCF  100
       EPS_SCF     5.0000000000000004E-06
       &OT  T
         PRECONDITIONER  FULL_ALL
       &END OT
       &OUTER_SCF  T
         OPTIMIZER  NONE
         EPS_SCF     5.0000000000000004E-06
         MAX_SCF  4
       &END OUTER_SCF
       &PRINT
         &RESTART  OFF
           BACKUP_COPIES  1
           &EACH
             JUST_ENERGY  0
             QS_SCF  0
             MD  20
           &END EACH
         &END RESTART
       &END PRINT
     &END SCF
     &QS
       EPS_DEFAULT     1.0000000000000000E-14
       METHOD  GPW
     &END QS
     &MGRID
       NGRIDS  5
       CUTOFF     1.2000000000000000E+03
     &END MGRID
     &XC
       DENSITY_CUTOFF     1.0000000000000000E-10
       GRADIENT_CUTOFF     1.0000000000000000E-10
       TAU_CUTOFF     1.0000000000000000E-10
       &XC_FUNCTIONAL  NO_SHORTCUT
         &PBE  T
         &END PBE
       &END XC_FUNCTIONAL
       &VDW_POTENTIAL
         POTENTIAL_TYPE  PAIR_POTENTIAL
         &PAIR_POTENTIAL
           R_CUTOFF     1.0000000000000004E+01
           TYPE  DFTD3
           PARAMETER_FILE_NAME dftd3.dat
           REFERENCE_FUNCTIONAL PBE
           EPS_CN     9.9999999999999995E-07
           CALCULATE_C9_TERM  T
           REFERENCE_C9_TERM  T
           LONG_RANGE_CORRECTION  F
           VERBOSE_OUTPUT  F
         &END PAIR_POTENTIAL
       &END VDW_POTENTIAL
     &END XC
   &END DFT
   &SUBSYS
     &CELL
       A     1.2833933768197108E+01    0.0000000000000000E+00    0.0000000000000000E+00
       B    -6.4149196765760159E+00    1.1110966806303029E+01    0.0000000000000000E+00
       C     0.0000000000000000E+00    0.0000000000000000E+00    3.2000000000000000E+01
       MULTIPLE_UNIT_CELL  1 1 1
       &CELL_REF
         A     1.2982353780853531E+01    0.0000000000000000E+00    0.0000000000000000E+00
         B    -6.4911768904267628E+00    1.1243048175136114E+01    0.0000000000000000E+00
         C     0.0000000000000000E+00    0.0000000000000000E+00    3.2000000000000000E+01
         MULTIPLE_UNIT_CELL  1 1 1
       &END CELL_REF
     &END CELL
     &COORD
N    2.1047947266838776E-04   -3.2657620840360744E-04   -2.0586185379042815E-01
Ga    6.7620469730439317E-04    1.8518346571858102E+00    4.7513406945191855E-01
N    6.2156182981898238E-04    1.8520920472228861E+00    2.3932920774655915E+00
Ga    4.3212364071833204E-04   -1.1968770136540306E-04    3.1200362957188505E+00
N    6.5241951449275287E-04   -1.8144264840658263E-04    5.0427417947158464E+00
Ga    8.1237896230963605E-04    1.8523181081251259E+00    5.7553086572220788E+00
N    9.4376228791748077E-04    1.8532403049752033E+00    7.6795811444501689E+00
Ga    8.9627495552043791E-04    1.3152384663333587E-03    8.3902637174310595E+00
N    1.5756198260527159E-03    3.5625515026091073E-03    1.0315605743523282E+01
Ga    2.8441443591863229E-03    1.8549831485277026E+00    1.1028042500454902E+01
N    4.4225340722876677E-03    1.8603771255072699E+00    1.2956836693085201E+01
Ga    3.2330049805025995E-03    6.6353274925402047E-03    1.3668055495248975E+01
N   -6.4806432261087692E-03    7.4931556252231801E-03    1.5587575044871286E+01
Ga   -1.9149516975691925E-03    1.8525375804052897E+00    1.6659721146509359E+01
N    1.5966903367785479E+00    9.2253715066039788E-01    1.7526187304621953E+01
N   -1.6035548519945444E+00    2.7774733430047718E+00   -2.0577933877764903E-01
Ga   -1.6029865033712292E+00    4.6296158759385220E+00    4.7524140884244287E-01
N   -1.6030109528149681E+00    4.6299290859019591E+00    2.3933850758753881E+00
Ga   -1.6035651686590517E+00    2.7779762682532150E+00    3.1204090637050679E+00
N   -1.6035064002587305E+00    2.7781481868212898E+00    5.0430745436695634E+00
Ga   -1.6027459327284714E+00    4.6299441207527314E+00    5.7573136195700449E+00
N   -1.6022298781147115E+00    4.6309518468212278E+00    7.6818420219742212E+00
Ga   -1.6020393932149999E+00    2.7791722776165884E+00    8.3929645339843493E+00
N   -1.6008144268390492E+00    2.7818448040321653E+00    1.0318064435193474E+01
Ga   -1.6009163732425862E+00    4.6337269876126541E+00    1.1027480930658220E+01
N   -1.6002581153554980E+00    4.6374923918669051E+00    1.2955589210673399E+01
Ga   -1.6006059294376571E+00    2.7851951369199091E+00    1.3673274957595300E+01
N   -1.5969113788382194E+00    2.7843835160419963E+00    1.5598585049193021E+01
Ga   -1.6094231215671289E+00    4.6225098387722952E+00    1.6602968321251922E+01
N   -1.7850189280262347E-02    3.7076557776135348E+00    1.7528126516864877E+01
N   -3.2072363866862839E+00    5.5551618498870576E+00   -2.0577381866212083E-01
Ga   -3.2066029286588433E+00    7.4072660035256535E+00    4.7522584032425336E-01
N   -3.2063995332878372E+00    7.4073907252250137E+00    2.3934406940036346E+00
Ga   -3.2071185689613051E+00    5.5553909305661753E+00    3.1207353906715398E+00
N   -3.2068005338816663E+00    5.5553060945550659E+00    5.0434657306477444E+00
Ga   -3.2060677774034581E+00    7.4073615150804226E+00    5.7565516412528694E+00
N   -3.2050355267069324E+00    7.4085209433380159E+00    7.6810874906976530E+00
Ga   -3.2055746380428567E+00    5.5573138644406139E+00    8.3943760449764806E+00
N   -3.2046939091050524E+00    5.5599417233141564E+00    1.0319424437264878E+01
Ga   -3.2045122061170361E+00    7.4128859804348162E+00    1.1028430193998316E+01
N   -3.2034200690146810E+00    7.4169751292714476E+00    1.2955747244800358E+01
Ga   -3.2046870153555242E+00    5.5662149431922625E+00    1.3673987129916528E+01
N   -3.2142133963642450E+00    5.5420672354324321E+00    1.5595777058972741E+01
Ga   -3.2324166896694568E+00    7.4006017130421649E+00    1.6635798376798594E+01
N   -1.6247504068536076E+00    6.4664340023096063E+00    1.7513786379582861E+01
N   -4.8109370047626090E+00    8.3328361068175703E+00   -2.0583982732953535E-01
Ga   -4.8103952758706754E+00    1.0185015894165801E+01    4.7495741881220144E-01
N   -4.8102575623575374E+00    1.0185225959363361E+01    2.3930956225489930E+00
Ga   -4.8106271060896892E+00    8.3331328303444092E+00    3.1202446388270602E+00
N   -4.8103040823129950E+00    8.3330246548690887E+00    5.0428744077755834E+00
Ga   -4.8097420524743288E+00    1.0185179583129230E+01    5.7562627821179539E+00
N   -4.8089345953577141E+00    1.0186376723709341E+01    7.6807446680993356E+00
Ga   -4.8097378785033573E+00    8.3339134265445320E+00    8.3913228573501399E+00
N   -4.8091368873093812E+00    8.3362292591103859E+00    1.0316053996415389E+01
Ga   -4.8083685921918988E+00    1.0188912096496285E+01    1.1024646361783587E+01
N   -4.8088563126587385E+00    1.0192285610341278E+01    1.2950146609055286E+01
Ga   -4.8099026714357871E+00    8.3425162247710620E+00    1.3672725154688600E+01
N   -4.8151137912685007E+00    8.3424191897581839E+00    1.5593508079835537E+01
Ga   -4.8217064109945467E+00    1.0196078713147699E+01    1.6613606485375215E+01
N   -3.2327622832233023E+00    9.2487563009804425E+00    1.7514833140576872E+01
N    3.2087425498330000E+00   -3.7034387840509424E-04   -2.0586738810959540E-01
Ga    3.2093203983617644E+00    1.8517750023044495E+00    4.7518476732183074E-01
N    3.2094591358480518E+00    1.8519783039020292E+00    2.3932929142572865E+00
Ga    3.2089502309043634E+00   -1.4015053860079885E-04    3.1202586847783009E+00
N    3.2092302574890250E+00   -1.6611255294821599E-04    5.0428595935309559E+00
Ga    3.2096887831945873E+00    1.8520358630931879E+00    5.7558704076394243E+00
N    3.2102535552022888E+00    1.8529559641085853E+00    7.6799932944414131E+00
Ga    3.2104620869564564E+00    1.7096881296066165E-03    8.3927369026587755E+00
N    3.2114748108314437E+00    3.7425842693372202E-03    1.0317481700020419E+01
Ga    3.2107418642686114E+00    1.8557619742641887E+00    1.1029017545300382E+01
N    3.2109171388707978E+00    1.8580824944880707E+00    1.2955856236046737E+01
Ga    3.2094751533635519E+00    6.2696720275539674E-03    1.3671029139237676E+01
N    3.1954544485331606E+00   -4.6612475962235335E-03    1.5590185979233135E+01
Ga    3.2088290190347482E+00    1.8565018712295798E+00    1.6661353220702708E+01
N    4.7922105376833688E+00    9.0850838180264348E-01    1.7520160631558614E+01
N    1.6049610081033658E+00    2.7773965976074764E+00   -2.0564701486234477E-01
Ga    1.6054438742998169E+00    4.6296435955904416E+00    4.7506010038705038E-01
N    1.6053993032774010E+00    4.6299041649096901E+00    2.3931653527840533E+00
Ga    1.6051415444713799E+00    2.7777727361363223E+00    3.1199202824039562E+00
N    1.6052964052667289E+00    2.7776538895538603E+00    5.0424714983144971E+00
Ga    1.6056302075629336E+00    4.6296352329827517E+00    5.7563330063702320E+00
N    1.6058471795165534E+00    4.6302516450547166E+00    7.6806954747255061E+00
Ga    1.6057453369331465E+00    2.7776814889126928E+00    8.3908357326216798E+00
N    1.6061450199619940E+00    2.7783578696698457E+00    1.0315587236135283E+01
Ga    1.6069946445414860E+00    4.6303347015180707E+00    1.1024436998296032E+01
N    1.6076507287446722E+00    4.6331659828566343E+00    1.2949735334345970E+01
Ga    1.6096364713506248E+00    2.7848437834392796E+00    1.3678486478103389E+01
N    1.6029527557867271E+00    2.7880063716960621E+00    1.5604363086863938E+01
Ga    1.5919412269199158E+00    4.6320513778043910E+00    1.6618592247543258E+01
N    3.1950097788070084E+00    3.7151271659927647E+00    1.7520707916950588E+01
N    1.1613860538767600E-03    5.5551735420438781E+00   -2.0595548021868648E-01
Ga    1.7119019705981132E-03    7.4073111655227128E+00    4.7505089221890573E-01
N    1.6758967511739204E-03    7.4075365667187105E+00    2.3932439875828830E+00
Ga    1.2296804047503840E-03    5.5555691081631720E+00    3.1205101226398444E+00
N    1.2808143648065291E-03    5.5555361486371151E+00    5.0433004837446767E+00
Ga    2.0009972454913968E-03    7.4075556442377959E+00    5.7571627581625888E+00
N    2.6197132446449801E-03    7.4088258512779213E+00    7.6816380013076051E+00
Ga    2.1938308685593450E-03    5.5566896156170271E+00    8.3928696554933584E+00
N    2.6322386704851356E-03    5.5595028060652769E+00    1.0317542787848948E+01
Ga    4.9982177611038190E-03    7.4132316854320450E+00    1.1025019540912794E+01
N    6.3083636816879561E-03    7.4174522462752170E+00    1.2951932893722546E+01
Ga    7.3338093173711235E-03    5.5650067262791207E+00    1.3664843470125660E+01
N   -3.1701908127741481E-03    5.5515201551701630E+00    1.5581759673834620E+01
Ga   -1.1128839800268202E-02    7.3877897867962936E+00    1.6628795520630796E+01
N    1.5923183121873050E+00    6.4738948189874757E+00    1.7523542306917850E+01
N   -1.6025195169393573E+00    8.3329184593063204E+00   -2.0594692933493983E-01
Ga   -1.6018920436906507E+00    1.0184998366949227E+01    4.7524421854308319E-01
N   -1.6017316511664992E+00    1.0185240249467105E+01    2.3934207114905037E+00
Ga   -1.6022683938506130E+00    8.3332715885599331E+00    3.1207039468031290E+00
N   -1.6020074433739271E+00    8.3334031482861732E+00    5.0434549633010421E+00
Ga   -1.6013444626287368E+00    1.0185676932315525E+01    5.7568265349855290E+00
N   -1.6003266551776338E+00    1.0187116947596751E+01    7.6813944116785011E+00
Ga   -1.6014006719399179E+00    8.3354800698565636E+00    8.3929115173537294E+00
N   -1.6002254677944190E+00    8.3380075410953385E+00    1.0318000469391691E+01
Ga   -1.5998209384843052E+00    1.0189838524541544E+01    1.1029030708003193E+01
N   -1.5993135503965039E+00    1.0192465329017763E+01    1.2956297495264607E+01
Ga   -1.5971249942147938E+00    8.3410201596780436E+00    1.3674413380217214E+01
N   -1.6179029767203483E+00    8.3291063905118534E+00    1.5598152035464388E+01
Ga   -1.6253282001612415E+00    1.0187259957228918E+01    1.6631065043910670E+01
N   -2.7501146023546138E-02    9.2238978171643211E+00    1.7501518904102795E+01
N    6.4171417935370254E+00   -3.2139735240744211E-04   -2.0578965277451103E-01
Ga    6.4177701206200313E+00    1.8518216527825779E+00    4.7522522568010794E-01
N    6.4179337105377856E+00    1.8520805160819163E+00    2.3933560873942179E+00
Ga    6.4173207650202455E+00    1.8749655618955147E-04    3.1206046415201762E+00
N    6.4175281040076992E+00    3.4518743524763974E-04    5.0432695667684637E+00
Ga    6.4183491445685128E+00    1.8523327261665403E+00    5.7570412011583878E+00
N    6.4190134631259532E+00    1.8533444441857183E+00    7.6814254195579341E+00
Ga    6.4185087149505557E+00    2.1520180919287245E-03    8.3946171085630716E+00
N    6.4190480247885269E+00    4.9474912996219107E-03    1.0319927200295417E+01
Ga    6.4191710940746516E+00    1.8568804476921779E+00    1.1031495936207447E+01
N    6.4199880495226900E+00    1.8607102279940384E+00    1.2959082980798803E+01
Ga    6.4186773028270068E+00    9.3301349705099245E-03    1.3676726115506733E+01
N    6.4090207893398423E+00   -1.4295490189789099E-02    1.5596902813818383E+01
Ga    6.3959552353692732E+00    1.8440787843819615E+00    1.6641195823097963E+01
N    8.0041566504609758E+00    9.0469963940892639E-01    1.7514843534608943E+01
N    4.8134726273925903E+00    2.7773853918873366E+00   -2.0582621894589856E-01
Ga    4.8140243608308131E+00    4.6295420610870570E+00    4.7507793706326990E-01
N    4.8141822602404076E+00    4.6296890657747873E+00    2.3931872652358845E+00
Ga    4.8138042153636436E+00    2.7777129137458885E+00    3.1203830219984066E+00
N    4.8140637001153479E+00    2.7775718707795423E+00    5.0430057180934051E+00
Ga    4.8144681293410443E+00    4.6296156370626962E+00    5.7567565310779463E+00
N    4.8148592461862547E+00    4.6306320513310739E+00    7.6810957676303850E+00
Ga    4.8145645736595934E+00    2.7784520898251457E+00    8.3925359334795235E+00
N    4.8152058282535615E+00    2.7796693335317002E+00    1.0317393391905886E+01
Ga    4.8147609092149288E+00    4.6327225475668152E+00    1.1025389058992689E+01
N    4.8146742546811101E+00    4.6357317699303593E+00    1.2949335562567741E+01
Ga    4.8142702155998522E+00    2.7875560233395711E+00    1.3676175085186365E+01
N    4.8089523823292373E+00    2.7874112150614221E+00    1.5595702181075621E+01
Ga    4.8040244903989944E+00    4.6403436802827347E+00    1.6618519466717892E+01
N    6.3963225731426103E+00    3.6924746922625937E+00    1.7511704246586131E+01
N    3.2097073367987523E+00    5.5551529862160436E+00   -2.0582819344065109E-01
Ga    3.2101943110486020E+00    7.4072780312046458E+00    4.7523222720244829E-01
N    3.2101242139221466E+00    7.4074391909514601E+00    2.3933461764699087E+00
Ga    3.2099112138129287E+00    5.5551785028834662E+00    3.1201747318111197E+00
N    3.2100154309906870E+00    5.5548306965783656E+00    5.0426692811553471E+00
Ga    3.2104337197489352E+00    7.4071614432731741E+00    5.7550283654647183E+00
N    3.2107409030539897E+00    7.4081215740379962E+00    7.6791658604993547E+00
Ga    3.2102474538560872E+00    5.5566397505563367E+00    8.3918510653423741E+00
N    3.2101134173580190E+00    5.5591504432872840E+00    1.0316373709523630E+01
Ga    3.2116694496862448E+00    7.4117380596981164E+00    1.1026964797889297E+01
N    3.2132134496858469E+00    7.4164026291522660E+00    1.2954895900342260E+01
Ga    3.2107591292511319E+00    5.5611950608728309E+00    1.3666362940037738E+01
N    3.2037955183444571E+00    5.5613081058320297E+00    1.5585168438239426E+01
Ga    3.2085513004715400E+00    7.4068628748629486E+00    1.6655718567072878E+01
N    4.8069891284311783E+00    6.4792580035908962E+00    1.7524054024671941E+01
N    1.6059473641041242E+00    8.3329124615432502E+00   -2.0580214382211259E-01
Ga    1.6064869972387359E+00    1.0185074684511777E+01    4.7516156384007951E-01
N    1.6064236052154899E+00    1.0185389133327083E+01    2.3932969618698503E+00
Ga    1.6058394335055881E+00    8.3333178262352607E+00    3.1203316592147030E+00
N    1.6058874571921660E+00    8.3334586390006429E+00    5.0430423123086818E+00
Ga    1.6068084076385063E+00    1.0185801150122600E+01    5.7566421036133182E+00
N    1.6073962830577486E+00    1.0187348468547922E+01    7.6812938020364934E+00
Ga    1.6077613124133991E+00    8.3350718999369668E+00    8.3911940588243326E+00
N    1.6084954373676850E+00    8.3385427540144210E+00    1.0316121098677616E+01
Ga    1.6081458632022745E+00    1.0189976425867624E+01    1.1028251360523058E+01
N    1.6085149905034184E+00    1.0193165154099171E+01    1.2955807197155918E+01
Ga    1.6091011674041076E+00    8.3404938417146948E+00    1.3672673718483376E+01
N    1.6124945983910648E+00    8.3371696170441183E+00    1.5598765947973835E+01
Ga    1.5977801654083779E+00    1.0174524303908155E+01    1.6601562189111245E+01
N    3.1914127890353132E+00    9.2638894635588187E+00    1.7527473021645427E+01
N    9.6255901341530823E+00   -3.0415296444834418E-04   -2.0595761463079310E-01
Ga    9.6261812861011773E+00    1.8518630224768728E+00    4.7511299715918082E-01
N    9.6262193542925640E+00    1.8522389591507202E+00    2.3933032345014844E+00
Ga    9.6256561365666524E+00    1.8889102909391736E-04    3.1202229637852259E+00
N    9.6258003489810093E+00    4.8894006888206215E-04    5.0429042297830051E+00
Ga    9.6265002494213139E+00    1.8524877100343429E+00    5.7570907058825949E+00
N    9.6271084794570179E+00    1.8538893229051685E+00    7.6818902307890102E+00
Ga    9.6266165851486001E+00    1.9856287660975011E-03    8.3935621904803099E+00
N    9.6271992289515644E+00    5.2000256531560792E-03    1.0318691014260217E+01
Ga    9.6274211206968232E+00    1.8589382925846598E+00    1.1027185731827112E+01
N    9.6298558134598586E+00    1.8635325976454860E+00    1.2952262627627951E+01
Ga    9.6306478925991144E+00    1.1202851735414852E-02    1.3663352692784549E+01
N    9.6225873687490715E+00   -9.1214845399907804E-03    1.5580759355284458E+01
Ga    9.6152396033556418E+00    1.8282588555170090E+00    1.6624054503642022E+01
N    1.1215169238308334E+01    9.1655505471364318E-01    1.7523534039194974E+01
N    8.0219114251190629E+00    2.7774361840535402E+00   -2.0583160619013005E-01
Ga    8.0225389516909491E+00    4.6295727579554651E+00    4.7516835354724446E-01
N    8.0227356753631049E+00    4.6297982866019609E+00    2.3933340590291454E+00
Ga    8.0220976699829230E+00    2.7778806424091700E+00    3.1206646094693742E+00
N    8.0223800670628815E+00    2.7780460028237282E+00    5.0434673935733523E+00
Ga    8.0231291874739785E+00    4.6299311522405162E+00    5.7575881501402462E+00
N    8.0240534159276464E+00    4.6315206658087886E+00    7.6821426584783108E+00
Ga    8.0225522993484653E+00    2.7796548212718144E+00    8.3934951811339431E+00
N    8.0221287051158221E+00    2.7825594850801463E+00    1.0318769312751648E+01
Ga    8.0238370644709018E+00    4.6351513047059800E+00    1.1028213633397117E+01
N    8.0252518025047657E+00    4.6386141539381933E+00    1.2955005057439390E+01
Ga    8.0263492533569298E+00    2.7878372144031669E+00    1.3673798953123093E+01
N    8.0122509705523406E+00    2.7679448019469479E+00    1.5599217770213647E+01
Ga    8.0051017383620113E+00    4.6269705599470496E+00    1.6631427458447192E+01
N    9.6025074338651173E+00    3.6638302287053559E+00    1.7503861103196364E+01
N    6.4182284674244148E+00    5.5551126093902043E+00   -2.0581460450642164E-01
Ga    6.4188019054870953E+00    7.4072176672092693E+00    4.7518593913110951E-01
N    6.4189817266696991E+00    7.4072811867599135E+00    2.3932788162062750E+00
Ga    6.4185250722995137E+00    5.5551397331919548E+00    3.1204097272076838E+00
N    6.4188625995105841E+00    5.5548708483226070E+00    5.0430176733531304E+00
Ga    6.4192834115062452E+00    7.4070917602895152E+00    5.7556378506772212E+00
N    6.4196802164791693E+00    7.4083514445794680E+00    7.6797633708902948E+00
Ga    6.4191961480972850E+00    5.5567700553828177E+00    8.3924597163091406E+00
N    6.4194977210648272E+00    5.5593899889438978E+00    1.0316833308433065E+01
Ga    6.4192559801947313E+00    7.4121126072136772E+00    1.1026274979613916E+01
N    6.4198508075360019E+00    7.4150169526406620E+00    1.2952937623707768E+01
Ga    6.4176204624499382E+00    5.5623098123429573E+00    1.3669662633493328E+01
N    6.4075600267700432E+00    5.5463892338640592E+00    1.5587772484029383E+01
Ga    6.4190879794791407E+00    7.4098938006530428E+00    1.6659950755018247E+01
N    8.0019695350555367E+00    6.4604496934772575E+00    1.7515725302049834E+01
N    4.8144552189096039E+00    8.3328222022207949E+00   -2.0572397807521864E-01
Ga    4.8149634738665776E+00    1.0185046767709142E+01    4.7497971817037665E-01
N    4.8149960741883664E+00    1.0185337112076063E+01    2.3931055765838982E+00
Ga    4.8146830955834794E+00    8.3331219562653729E+00    3.1198036929310926E+00
N    4.8149244033987939E+00    8.3330372047079386E+00    5.0423202802941613E+00
Ga    4.8149647023229170E+00    1.0185326286739976E+01    5.7555677479003897E+00
N    4.8150575477200617E+00    1.0186451682929007E+01    7.6799675606787057E+00
Ga    4.8149900662115961E+00    8.3339799950543476E+00    8.3899191123565462E+00
N    4.8149393413282775E+00    8.3366681249830599E+00    1.0314569780628155E+01
Ga    4.8170917847924475E+00    1.0188025978023912E+01    1.1024822370668858E+01
N    4.8184450808846320E+00    1.0190619626824748E+01    1.2951683606920668E+01
Ga    4.8182316388036828E+00    8.3402072255671005E+00    1.3676660129975808E+01
N    4.8119971286107450E+00    8.3392744023029035E+00    1.5602109038893714E+01
Ga    4.8021540197662569E+00    1.0186469019542015E+01    1.6613190028247459E+01
N    6.4041657292128589E+00    9.2691386813161412E+00    1.7518461429878300E+01
H    2.8768497863457487E-04   -1.7031218936275968E-04   -1.2333129826780089E+00
H   -1.6035358590402391E+00    2.7775835044975641E+00   -1.2332367098447865E+00
H   -3.2072589685274693E+00    5.5552583013715076E+00   -1.2332267581850656E+00
H   -4.8109421659016673E+00    8.3329367148329201E+00   -1.2333071037645851E+00
H    3.2087262571363482E+00   -2.6599393851685935E-04   -1.2333287542259055E+00
H    1.6049417572352880E+00    2.7774988984172775E+00   -1.2331001140514881E+00
H    1.1581704059962178E-03    5.5552912698340045E+00   -1.2334221976695094E+00
H   -1.6025027926034094E+00    8.3330082818736919E+00   -1.2334187857249466E+00
H    6.4171488714622527E+00   -1.6953540563222714E-04   -1.2332467745859561E+00
H    4.8135141145343461E+00    2.7775081899341130E+00   -1.2332893179883531E+00
H    3.2097436255166114E+00    5.5552621339264503E+00   -1.2332860440886746E+00
H    1.6059585870144470E+00    8.3330103924451677E+00   -1.2332645376510205E+00
H    9.6255353033474158E+00   -1.6851705922391288E-04   -1.2334259213379393E+00
H    8.0218845737953952E+00    2.7775506690791563E+00   -1.2332958471562667E+00
H    6.4182324283058030E+00    5.5552209866181563E+00   -1.2332699378305878E+00
H    4.8144493322934592E+00    8.3328593653827312E+00   -1.2331830999403959E+00
     &END COORD
     &KIND H
       BASIS_SET DZVP-MOLOPT-SR-GTH-q1
       POTENTIAL GTH-PBE-q1
       &POTENTIAL
 1
  0.2000000000000000E+00 2 -0.4178900440000000E+01  0.7244633100000000E+00
 0
         # Potential name:  GTH-PBE-Q1  for symbol:  H
         # Potential read from the potential filename: GTH_POTENTIALS
       &END POTENTIAL
     &END KIND
     &KIND N
       BASIS_SET DZVP-MOLOPT-SR-GTH
       POTENTIAL GTH-PBE-q5
       &POTENTIAL
 2 3
  0.2837905100000000E+00 2 -0.1241522559000000E+02  0.1868095920000000E+01
 2
  0.2554050000000000E+00 1  0.1363026257000000E+02
  0.2454945300000000E+00 0
         # Potential name:  GTH-PBE-Q5  for symbol:  N
         # Potential read from the potential filename: GTH_POTENTIALS
       &END POTENTIAL
     &END KIND
     &KIND Ga
       BASIS_SET DZVP-MOLOPT-SR-GTH
       POTENTIAL GTH-PBE-q13
       &POTENTIAL
 2 1 10
  0.4900000000000000E+00 0
 3
  0.4167772300000000E+00 3  0.1047568975000000E+02 -0.4921768140000000E+01  0.8707055900000000E+00
  0.7770178090000000E+01 -0.2248152160000000E+01
  0.1784415450000000E+01
  0.5696265200000000E+00 2  0.1777985340000000E+01  0.1958597600000000E+00
 -0.2317443900000000E+00
  0.2381265000000000E+00 1 -0.1624868022000000E+02
         # Potential name:  GTH-PBE-Q13  for symbol:  GA
         # Potential read from the potential filename: GTH_POTENTIALS
       &END POTENTIAL
     &END KIND
     &TOPOLOGY
       NUMBER_OF_ATOMS  256
       MULTIPLE_UNIT_CELL  1 1 1
     &END TOPOLOGY
   &END SUBSYS
 &END FORCE_EVAL
