 # Version information for this restart file 
 # current date 2019-06-09 05:15:56.577
 # current working dir /lustre03/project/6037349/rzk/GaN-carbene/444-addat/00-Surface/UKS_SYMM
 # Program compiled at                              Sun Apr  7 00:48:11 EDT 2019
 # Program compiled on                          beluga2.int.ets1.calculquebec.ca
 # Program compiled for                        Beluga-Linux-x86-64-intel-openmpi
 # Source code revision number                                         svn:18619
 &GLOBAL
   PRINT_LEVEL  MEDIUM
   PROJECT_NAME TEST
   RUN_TYPE  CELL_OPT
 &END GLOBAL
 &MOTION
   &CELL_OPT
     MAX_ITER  300
     STEP_START_VAL  23
     EXTERNAL_PRESSURE     1.0000000000000000E+00
     KEEP_ANGLES  T
     KEEP_SYMMETRY  T
     CONSTRAINT  Z
     PRESSURE_TOLERANCE     5.0000000000000000E+02
   &END CELL_OPT
 &END MOTION
 &FORCE_EVAL
   METHOD  QS
   STRESS_TENSOR  ANALYTICAL
   &DFT
     BASIS_SET_FILE_NAME BASIS_MOLOPT
     POTENTIAL_FILE_NAME GTH_POTENTIALS
     UKS  T
     SURFACE_DIPOLE_CORRECTION  T
     SURF_DIP_DIR  Z
     &SCF
       MAX_SCF  100
       EPS_SCF     5.0000000000000004E-06
       &OT  T
         PRECONDITIONER  FULL_ALL
       &END OT
       &OUTER_SCF  T
         OPTIMIZER  NONE
         EPS_SCF     5.0000000000000004E-06
         MAX_SCF  4
       &END OUTER_SCF
       &PRINT
         &RESTART  OFF
           BACKUP_COPIES  1
           &EACH
             JUST_ENERGY  0
             QS_SCF  0
             MD  20
           &END EACH
         &END RESTART
       &END PRINT
     &END SCF
     &QS
       EPS_DEFAULT     1.0000000000000000E-14
       METHOD  GPW
     &END QS
     &MGRID
       NGRIDS  5
       CUTOFF     1.2000000000000000E+03
     &END MGRID
     &XC
       DENSITY_CUTOFF     1.0000000000000000E-10
       GRADIENT_CUTOFF     1.0000000000000000E-10
       TAU_CUTOFF     1.0000000000000000E-10
       &XC_FUNCTIONAL  NO_SHORTCUT
         &PBE  T
         &END PBE
       &END XC_FUNCTIONAL
       &VDW_POTENTIAL
         POTENTIAL_TYPE  PAIR_POTENTIAL
         &PAIR_POTENTIAL
           R_CUTOFF     1.0000000000000004E+01
           TYPE  DFTD3
           PARAMETER_FILE_NAME dftd3.dat
           REFERENCE_FUNCTIONAL PBE
           EPS_CN     9.9999999999999995E-07
           CALCULATE_C9_TERM  T
           REFERENCE_C9_TERM  T
           LONG_RANGE_CORRECTION  F
           VERBOSE_OUTPUT  F
         &END PAIR_POTENTIAL
       &END VDW_POTENTIAL
     &END XC
   &END DFT
   &SUBSYS
     &CELL
       A     1.2841158721587115E+01    0.0000000000000000E+00    0.0000000000000000E+00
       B    -6.4234918505681415E+00    1.1125814247188684E+01    0.0000000000000000E+00
       C     0.0000000000000000E+00    0.0000000000000000E+00    3.2000000000000000E+01
       MULTIPLE_UNIT_CELL  1 1 1
       &CELL_REF
         A     1.2982353780853531E+01    0.0000000000000000E+00    0.0000000000000000E+00
         B    -6.4911768904267628E+00    1.1243048175136114E+01    0.0000000000000000E+00
         C     0.0000000000000000E+00    0.0000000000000000E+00    3.2000000000000000E+01
         MULTIPLE_UNIT_CELL  1 1 1
       &END CELL_REF
     &END CELL
     &COORD
N    9.5626740158574413E-05   -3.7035727409099706E-04   -1.4039136929403492E-01
Ga   -1.0150319088873564E-04    1.8544604341464239E+00    5.1609060656626204E-01
N   -3.3658204004624864E-04    1.8544207209501478E+00    2.4217034175705749E+00
Ga    3.3295965922071672E-04   -1.1216528530145283E-04    3.1249051476863423E+00
N    3.7134097886209111E-04   -7.0070759732471374E-04    5.0370653961598579E+00
Ga   -2.3096773304183548E-04    1.8543851373111218E+00    5.7492104012109921E+00
N   -1.0883545093564813E-04    1.8550979976649205E+00    7.6705124960703861E+00
Ga    3.6605353930663172E-04    1.5989606784262177E-03    8.3730138588223628E+00
N    2.6435788790666345E-04    3.1584236628479697E-03    1.0291853151231416E+01
Ga    1.0216407922591980E-03    1.8567280888091235E+00    1.1007656088075741E+01
N    8.3092485101729323E-04    1.8597095649501694E+00    1.2932381873623191E+01
Ga    2.7274944034690919E-03    2.4723576027194374E-03    1.3644104318758183E+01
N   -3.3878007734658135E-04    6.8236296393846410E-03    1.5562095475044158E+01
Ga    6.9350877913449771E-04    1.8649711147570671E+00    1.6642939451835296E+01
N    1.5945991659456977E+00    9.2388241145816097E-01    1.7495103139706483E+01
N   -1.6058300511635331E+00    2.7811020971185516E+00   -1.4032729755291989E-01
Ga   -1.6059047849034538E+00    4.6359592670947958E+00    5.1601964544870416E-01
N   -1.6059546821937207E+00    4.6361231159511398E+00    2.4215937454829772E+00
Ga   -1.6058390366284880E+00    2.7818347882013112E+00    3.1250046472580699E+00
N   -1.6061454734914864E+00    2.7817566011466259E+00    5.0373275329015632E+00
Ga   -1.6059513637877665E+00    4.6363331884170478E+00    5.7518106136187273E+00
N   -1.6055215593666698E+00    4.6373989565353222E+00    7.6737379005659854E+00
Ga   -1.6043786367577322E+00    2.7827927932823022E+00    8.3745312003820391E+00
N   -1.6027530654286120E+00    2.7845377910503535E+00    1.0295155306848521E+01
Ga   -1.6056939901484575E+00    4.6377100608739061E+00    1.1009983940348969E+01
N   -1.6055546398043712E+00    4.6432728511784704E+00    1.2932993608161251E+01
Ga   -1.6038586139420312E+00    2.7881656350072475E+00    1.3657480988467832E+01
N   -1.5938931121947770E+00    2.7972105703442955E+00    1.5581123672922120E+01
Ga   -1.6005435030164266E+00    4.6393890820066224E+00    1.6546874962697437E+01
N   -2.9137938160336163E-02    3.7335868876140621E+00    1.7496042543300717E+01
N   -3.2116706648174946E+00    5.5625668925379781E+00   -1.4036000304248561E-01
Ga   -3.2117509913622775E+00    7.4174343969780603E+00    5.1592219320180710E-01
N   -3.2116997394255726E+00    7.4175841261222075E+00    2.4216254322139315E+00
Ga   -3.2113532442901738E+00    5.5631735522732377E+00    3.1250159192927813E+00
N   -3.2115118670680758E+00    5.5627279002596177E+00    5.0374786626139221E+00
Ga   -3.2113722004414575E+00    7.4170468158308793E+00    5.7513329823567876E+00
N   -3.2104051911396345E+00    7.4175394019956551E+00    7.6729548882176219E+00
Ga   -3.2105176552437906E+00    5.5642373136916330E+00    8.3772620976620935E+00
N   -3.2092983919161395E+00    5.5662433285708000E+00    1.0298052850976168E+01
Ga   -3.2089630319290432E+00    7.4201474771761866E+00    1.1013229262876573E+01
N   -3.2064030565477131E+00    7.4267011059750274E+00    1.2936715385066780E+01
Ga   -3.2082506280838250E+00    5.5760246020770445E+00    1.3660483336650131E+01
N   -3.2094131473839864E+00    5.5441628538797545E+00    1.5579940252648667E+01
Ga   -3.2343537763282293E+00    7.4177481258860940E+00    1.6614196238956310E+01
N   -1.6303138592982780E+00    6.4731815736752072E+00    1.7483770012000747E+01
N   -4.8175153381721438E+00    8.3440039175838763E+00   -1.4042948269722047E-01
Ga   -4.8176480538694992E+00    1.0198803081290418E+01    5.1587285820588147E-01
N   -4.8177021400155740E+00    1.0198780307374621E+01    2.4215404613439029E+00
Ga   -4.8170705423101827E+00    8.3445559222571379E+00    3.1249231917884308E+00
N   -4.8168286086405603E+00    8.3439335458281896E+00    5.0371313574397414E+00
Ga   -4.8175058415377787E+00    1.0198113766019508E+01    5.7514513859174832E+00
N   -4.8170283549449291E+00    1.0198785116097538E+01    7.6732622229033272E+00
Ga   -4.8157624984803977E+00    8.3433293275397364E+00    8.3745766974399150E+00
N   -4.8142610164657720E+00    8.3435632350158606E+00    1.0294409728384858E+01
Ga   -4.8168364105430763E+00    1.0199871651511680E+01    1.0997516360399878E+01
N   -4.8175745686803788E+00    1.0205893812769627E+01    1.2917403532914706E+01
Ga   -4.8167142557645271E+00    8.3559962100618090E+00    1.3651990947405483E+01
N   -4.8219363330180824E+00    8.3514769160060407E+00    1.5569031373866004E+01
Ga   -4.8252688548238627E+00    1.0213079499860696E+01    1.6584359981292977E+01
N   -3.2397691987062722E+00    9.2664902905496316E+00    1.7478744663830216E+01
N    3.2103660864123129E+00   -3.9354411234294290E-04   -1.4048788256601619E-01
Ga    3.2102539959911729E+00    1.8544061075726630E+00    5.1596598520200132E-01
N    3.2103040050372851E+00    1.8543021185055923E+00    2.4216334390787688E+00
Ga    3.2106633180807829E+00   -1.1077652126713341E-04    3.1252517764823526E+00
N    3.2107135145998136E+00   -8.2214796177379631E-04    5.0374622023335984E+00
Ga    3.2105076451065595E+00    1.8541769254937797E+00    5.7499357068775359E+00
N    3.2111340254783243E+00    1.8548894039594455E+00    7.6714017985051504E+00
Ga    3.2121713834604795E+00    1.1351683032162826E-03    8.3752248143930768E+00
N    3.2134955594533614E+00    2.3550013291313873E-03    1.0295179467898032E+01
Ga    3.2099503432415513E+00    1.8577912217317272E+00    1.1006716501732143E+01
N    3.2110594858197650E+00    1.8634469813020889E+00    1.2929111241046533E+01
Ga    3.2090781713924921E+00    8.6003689999165269E-03    1.3642657485951217E+01
N    3.1963922608893141E+00   -7.8543331758402484E-03    1.5560080597181672E+01
Ga    3.2073310344356796E+00    1.8693534733519144E+00    1.6637161384801828E+01
N    4.7863895284286899E+00    9.0849834269302943E-01    1.7484526012142819E+01
N    1.6044864326498005E+00    2.7811102730710222E+00   -1.4037886233894539E-01
Ga    1.6043140068502217E+00    4.6359916105784524E+00    5.1595529467227452E-01
N    1.6041269094273238E+00    4.6362558577297195E+00    2.4215568234500564E+00
Ga    1.6047870339585093E+00    2.7817477840681271E+00    3.1243418483852818E+00
N    1.6047264140749753E+00    2.7813025555112532E+00    5.0364517815132217E+00
Ga    1.6037856417664962E+00    4.6359076041180618E+00    5.7506177228552762E+00
N    1.6037440863145669E+00    4.6364692731500332E+00    7.6725124879113933E+00
Ga    1.6050157326184069E+00    2.7813081420952512E+00    8.3724861275193057E+00
N    1.6041926955265691E+00    2.7802639213279563E+00    1.0292465183399498E+01
Ga    1.6071964897957316E+00    4.6334137149324972E+00    1.1004420941768984E+01
N    1.6069647465159465E+00    4.6329676127534842E+00    1.2924464220847604E+01
Ga    1.6067129752547127E+00    2.7835137689876666E+00    1.3664193796566853E+01
N    1.6011550733854194E+00    2.7930430528629411E+00    1.5586761674827059E+01
Ga    1.5926300690601720E+00    4.6423853840750224E+00    1.6586352675484694E+01
N    3.1956612959933093E+00    3.7330421286493030E+00    1.7489471869299145E+01
N   -1.3868724111432602E-03    5.5625831174034142E+00   -1.4040310905466982E-01
Ga   -1.5735639286086323E-03    7.4173991349863488E+00    5.1588763355349865E-01
N   -1.7691077378890882E-03    7.4175050401699263E+00    2.4214493696319388E+00
Ga   -1.2556872005789021E-03    5.5633725233619149E+00    3.1252934742650522E+00
N   -1.6163375532987337E-03    5.5631810054788300E+00    5.0375070344536912E+00
Ga   -1.7708486168264703E-03    7.4171462188263728E+00    5.7525198796306185E+00
N   -1.4864894732709005E-03    7.4179395677228612E+00    7.6745735561898272E+00
Ga   -7.5368958258041846E-04    5.5634277616236956E+00    8.3781369372568495E+00
N   -4.9289892576067393E-04    5.5642748056431355E+00    1.0298485765676572E+01
Ga    1.0049556893522858E-03    7.4225319338935138E+00    1.1002515671541360E+01
N    2.7922210345656955E-03    7.4286761696201502E+00    1.2925174894606448E+01
Ga    8.1464243674546372E-03    5.5717559734022490E+00    1.3633930470111640E+01
N    6.5210255645786171E-03    5.5627305061985162E+00    1.5545784016412618E+01
Ga   -4.5369716655399269E-03    7.3801283521187431E+00    1.6584231572693632E+01
N    1.5981665848912738E+00    6.4819135001463870E+00    1.7495996989313024E+01
N   -1.6072334833013213E+00    8.3439947603661473E+00   -1.4045584905411984E-01
Ga   -1.6074123245736656E+00    1.0198770508319972E+01    5.1589016260446796E-01
N   -1.6074797542570647E+00    1.0198686609660687E+01    2.4215695846624112E+00
Ga   -1.6068313807416714E+00    8.3445214121721349E+00    3.1253276647118220E+00
N   -1.6068736176373548E+00    8.3440608478298568E+00    5.0376622850642603E+00
Ga   -1.6070438042756356E+00    1.0198435320283414E+01    5.7516335092395066E+00
N   -1.6060746974553479E+00    1.0199551867022807E+01    7.6733620236908191E+00
Ga   -1.6070910273001473E+00    8.3458282907827748E+00    8.3770006686174181E+00
N   -1.6068287250879094E+00    8.3483480261090364E+00    1.0297205257129225E+01
Ga   -1.6044297642566725E+00    1.0202789608214831E+01    1.1010151461830544E+01
N   -1.6012422301237172E+00    1.0208459894457500E+01    1.2933471288868336E+01
Ga   -1.5978065873207412E+00    8.3547214387126090E+00    1.3657104932178239E+01
N   -1.6169905725514855E+00    8.3384842184598043E+00    1.5579531965167071E+01
Ga   -1.6254044504722180E+00    1.0199656282012796E+01    1.6594786454128517E+01
N   -5.4717175028622236E-02    9.2056154076524415E+00    1.7493365943282328E+01
N    6.4206541061700824E+00   -3.5493147930155998E-04   -1.4040118058652051E-01
Ga    6.4205409656953210E+00    1.8544787808654490E+00    5.1598436810162440E-01
N    6.4205423490289659E+00    1.8545041175564052E+00    2.4216398307263418E+00
Ga    6.4208413046240773E+00    1.3398763102739431E-04    3.1250358894193240E+00
N    6.4207899257578296E+00   -5.2932769216488439E-05    5.0374190244416974E+00
Ga    6.4209890817042856E+00    1.8544878059828023E+00    5.7513077988397248E+00
N    6.4220133548103115E+00    1.8557598812538059E+00    7.6731557967911668E+00
Ga    6.4218401000858316E+00    1.8058147651909523E-03    8.3762973685897322E+00
N    6.4229518488586006E+00    3.8603404117241581E-03    1.0296696116093903E+01
Ga    6.4220342520816400E+00    1.8578686744564483E+00    1.1010826294316093E+01
N    6.4231736183518082E+00    1.8644008857661061E+00    1.2936401837125434E+01
Ga    6.4251210492934598E+00    1.2089653995794199E-02    1.3664040694507914E+01
N    6.4164058884211030E+00   -2.9804979352768855E-02    1.5582807967457606E+01
Ga    6.3957514039058960E+00    1.8553904475165204E+00    1.6618499409058185E+01
N    7.9989245606641468E+00    9.0724100575213551E-01    1.7479686183533328E+01
N    4.8148109647936987E+00    2.7811106541798298E+00   -1.4032379269591538E-01
Ga    4.8146240073574935E+00    4.6359391528889367E+00    5.1596710556436154E-01
N    4.8145420519035671E+00    4.6360158026318974E+00    2.4216057604203436E+00
Ga    4.8152063417442665E+00    2.7817051196304527E+00    3.1250540177917849E+00
N    4.8155146565958429E+00    2.7812781729987957E+00    5.0372940466140985E+00
Ga    4.8148915060838418E+00    4.6354434462205960E+00    5.7519336973895898E+00
N    4.8156363447215123E+00    4.6359166676097168E+00    7.6735890662066542E+00
Ga    4.8158256198339622E+00    2.7811381986504631E+00    8.3750998383043154E+00
N    4.8163944179269054E+00    2.7817409728668823E+00    1.0295155047331946E+01
Ga    4.8142034803617664E+00    4.6370570079179840E+00    1.1001093699594788E+01
N    4.8126021848007152E+00    4.6417247220978419E+00    1.2920221531553450E+01
Ga    4.8148117098877687E+00    2.7923900616983013E+00    1.3657414285006231E+01
N    4.8118346364233364E+00    2.7891596049648828E+00    1.5573212855443852E+01
Ga    4.8094378572134362E+00    4.6461206371574368E+00    1.6581746699149420E+01
N    6.3996417839228217E+00    3.7085144368384113E+00    1.7481314800561137E+01
N    3.2089055914318716E+00    5.5625373331967696E+00   -1.4035953427277048E-01
Ga    3.2087078399505438E+00    7.4173530389237223E+00    5.1601286389561052E-01
N    3.2084646862784139E+00    7.4174177563454942E+00    2.4217714986533441E+00
Ga    3.2092124322393709E+00    5.5629088471557795E+00    3.1250923392367702E+00
N    3.2093239195633312E+00    5.5621420971388531E+00    5.0373534423931501E+00
Ga    3.2081555307529386E+00    7.4170539290211055E+00    5.7491053521044364E+00
N    3.2083036955595192E+00    7.4176078362053035E+00    7.6702356657223065E+00
Ga    3.2092216106469964E+00    5.5638584092455012E+00    8.3728927498087131E+00
N    3.2091448401139493E+00    5.5654027041974290E+00    1.0293227894073828E+01
Ga    3.2097645576158422E+00    7.4190064818095856E+00    1.1008193925892581E+01
N    3.2084139002320975E+00    7.4254497305690688E+00    1.2931724367177642E+01
Ga    3.2080088475608766E+00    5.5667868598469141E+00    1.3642287565615806E+01
N    3.2036746435185166E+00    5.5694091300260613E+00    1.5559254908897609E+01
Ga    3.2087935376381291E+00    7.4226001259383745E+00    1.6638407866453147E+01
N    4.8037267386830225E+00    6.4813608499252418E+00    1.7496865731154571E+01
N    1.6030060129374386E+00    8.3440192459977105E+00   -1.4042041649889517E-01
Ga    1.6029254277545155E+00    1.0198840833919711E+01    5.1593908604952088E-01
N    1.6028672570023499E+00    1.0198916856546621E+01    2.4216179924599963E+00
Ga    1.6028549690379794E+00    8.3446022462397753E+00    3.1249052411255756E+00
N    1.6023711008208561E+00    8.3443017501776193E+00    5.0371283700472018E+00
Ga    1.6026438364574529E+00    1.0198702098212507E+01    5.7512089364491974E+00
N    1.6031601547850121E+00    1.0199808904519047E+01    7.6729470626291576E+00
Ga    1.6045625948259195E+00    8.3454358570000071E+00    8.3746063243159945E+00
N    1.6065314565162723E+00    8.3476793970372132E+00    1.0294335543347836E+01
Ga    1.6035295380392951E+00    1.0201334431063547E+01    1.1008618154834116E+01
N    1.6038241319631872E+00    1.0207344268684926E+01    1.2931604679525439E+01
Ga    1.6049294491308341E+00    8.3529639709179389E+00    1.3657613568622050E+01
N    1.6095784186135689E+00    8.3595923725703667E+00    1.5582471698368851E+01
Ga    1.6084268770108960E+00    1.0199693470175172E+01    1.6544970199347937E+01
N    3.1792370239546868E+00    9.2814886504853025E+00    1.7491744165394557E+01
N    9.6309059113099948E+00   -3.3200925151416228E-04   -1.4053983564021574E-01
Ga    9.6307926109863473E+00    1.8544293264995491E+00    5.1587350025796308E-01
N    9.6306637621939402E+00    1.8544107222842363E+00    2.4215497149670631E+00
Ga    9.6311085985786669E+00    2.0299914462673185E-04    3.1252145152439237E+00
N    9.6307855546795818E+00   -5.8484250630155265E-05    5.0374338426301906E+00
Ga    9.6303825882688141E+00    1.8545603178335088E+00    5.7514522767623699E+00
N    9.6308206430493684E+00    1.8558735974920959E+00    7.6736636732239081E+00
Ga    9.6313639273031253E+00    1.2225476082339242E-03    8.3754212662203606E+00
N    9.6321426004756869E+00    3.2711771991345722E-03    1.0296280897910210E+01
Ga    9.6329621733425661E+00    1.8601762496196608E+00    1.1005566757003166E+01
N    9.6315407450319075E+00    1.8701679270679585E+00    1.2927449863840163E+01
Ga    9.6385652628676652E+00    1.2624495208000049E-02    1.3633795356213332E+01
N    9.6387961654443384E+00   -2.7876820326556643E-03    1.5546824605426067E+01
Ga    9.6295201895448042E+00    1.8144639916485277E+00    1.6582050748295966E+01
N    1.1236062274792465E+01    9.1342654450152927E-01    1.7492458040996269E+01
N    8.0250955263230868E+00    2.7810877027738750E+00   -1.4031332740098820E-01
Ga    8.0249490103677310E+00    4.6359151904936775E+00    5.1600437901796681E-01
N    8.0249243596598436E+00    4.6359723965985715E+00    2.4216705606469349E+00
Ga    8.0253841807689064E+00    2.7816071572756789E+00    3.1248791183721032E+00
N    8.0252833097825320E+00    2.7814060709469395E+00    5.0372407584208450E+00
Ga    8.0253633623259546E+00    4.6355770379301280E+00    5.7518434019575873E+00
N    8.0264765171984322E+00    4.6366012967561057E+00    7.6739549684022412E+00
Ga    8.0258202211768772E+00    2.7832695263395664E+00    8.3771149993533580E+00
N    8.0260791367008384E+00    2.7859209752787879E+00    1.0298383169715128E+01
Ga    8.0269524651281738E+00    4.6407607697742197E+00    1.1010078569958770E+01
N    8.0282801838059541E+00    4.6496491196605465E+00    1.2932244501777589E+01
Ga    8.0283889407243816E+00    2.7968770811914778E+00    1.3658711317186464E+01
N    8.0108259844399772E+00    2.7827234544191692E+00    1.5580173350234888E+01
Ga    8.0115863498803144E+00    4.6358270053178270E+00    1.6593495679659721E+01
N    9.5868379238688100E+00    3.6393733461258098E+00    1.7477793543148170E+01
N    6.4192014619223858E+00    5.5625268783245563E+00   -1.4029942599592318E-01
Ga    6.4191115038147917E+00    7.4173692444137442E+00    5.1594488713919751E-01
N    6.4191722324185747E+00    7.4173701013169628E+00    2.4217225504775732E+00
Ga    6.4194004498308708E+00    5.5628644983996089E+00    3.1249977875312758E+00
N    6.4196016404157294E+00    5.5618745533101315E+00    5.0373650793507156E+00
Ga    6.4196795116896537E+00    7.4166367645088407E+00    5.7498654720536511E+00
N    6.4205982950820450E+00    7.4170293902250215E+00    7.6712466844188674E+00
Ga    6.4208118945321164E+00    5.5633890391996061E+00    8.3756419855637336E+00
N    6.4212585237601107E+00    5.5648422885600635E+00    1.0296293307669426E+01
Ga    6.4190517036603971E+00    7.4214456646509808E+00    1.1005649905015757E+01
N    6.4182852733461235E+00    7.4306487573674351E+00    1.2926277046141662E+01
Ga    6.4148570170447847E+00    5.5743893379907226E+00    1.3638025832664914E+01
N    6.4033743600892850E+00    5.5545776709385164E+00    1.5554300697517286E+01
Ga    6.4179209106262327E+00    7.4302192569305872E+00    1.6628913519830210E+01
N    7.9914695632050083E+00    6.4715266806674210E+00    1.7484901818868888E+01
N    4.8133147865130050E+00    8.3439912956260684E+00   -1.4039970432786544E-01
Ga    4.8131249141667878E+00    1.0198881212157454E+01    5.1580059513383503E-01
N    4.8129335844887997E+00    1.0198992051097861E+01    2.4214855771709027E+00
Ga    4.8135618044498454E+00    8.3445935011644838E+00    3.1246000816610207E+00
N    4.8136022168137522E+00    8.3439270701038861E+00    5.0367562296197335E+00
Ga    4.8128743484364058E+00    1.0198591886153961E+01    5.7502831491571795E+00
N    4.8132062786348753E+00    1.0199196737093098E+01    7.6718578067504088E+00
Ga    4.8138109015555122E+00    8.3429809087035540E+00    8.3715539258192528E+00
N    4.8130268968336756E+00    8.3435667604023749E+00    1.0290803824495759E+01
Ga    4.8151967787563770E+00    1.0196797640310551E+01    1.0999584385295339E+01
N    4.8164396693324107E+00    1.0200727920838727E+01    1.2921433022886744E+01
Ga    4.8144783360159211E+00    8.3504050134855188E+00    1.3661306524191277E+01
N    4.8080383258060069E+00    8.3484192343222805E+00    1.5583456581239092E+01
Ga    4.7998631790346176E+00    1.0200309413341497E+01    1.6586420207920639E+01
N    6.4019447210285190E+00    9.2838979727685835E+00    1.7484117031222130E+01
H    9.7063259230923947E-05   -3.6236862070736453E-04   -1.1638447250505981E+00
H   -1.6059220208388216E+00    2.7811516050559182E+00   -1.1637948773324853E+00
H   -3.2117251429179525E+00    5.5625084802066054E+00   -1.1638211612527323E+00
H   -4.8176021941525287E+00    8.3440076480127559E+00   -1.1638803099458221E+00
H    3.2102751570047832E+00   -3.7559643187896365E-04   -1.1639335082345039E+00
H    1.6044558569775624E+00    2.7811543778387584E+00   -1.1638628444471173E+00
H   -1.4515889680122374E-03    5.5626016290319713E+00   -1.1638562687808403E+00
H   -1.6072337222718680E+00    8.3439655443490857E+00   -1.1639070143231469E+00
H    6.4205876264443162E+00   -2.5428074480793951E-04   -1.1638666885566731E+00
H    4.8148141646582845E+00    2.7811227580860725E+00   -1.1637836021052097E+00
H    3.2088756875759059E+00    5.5624499432564400E+00   -1.1638178217737711E+00
H    1.6028653387565079E+00    8.3439884095729084E+00   -1.1638868221897514E+00
H    9.6308504749864952E+00   -2.7434490720313628E-04   -1.1639854765025879E+00
H    8.0249901049427645E+00    2.7810953292625666E+00   -1.1637676856079950E+00
H    6.4191386613317851E+00    5.5625229943433387E+00   -1.1637473373186291E+00
H    4.8133181594038819E+00    8.3439625723430311E+00   -1.1638737306512021E+00
     &END COORD
     &KIND H
       BASIS_SET DZVP-MOLOPT-SR-GTH-q1
       POTENTIAL GTH-PBE-q1
       &POTENTIAL
 1
  0.2000000000000000E+00 2 -0.4178900440000000E+01  0.7244633100000000E+00
 0
         # Potential name:  GTH-PBE-Q1  for symbol:  H
         # Potential read from the potential filename: GTH_POTENTIALS
       &END POTENTIAL
     &END KIND
     &KIND N
       BASIS_SET DZVP-MOLOPT-SR-GTH
       POTENTIAL GTH-PBE-q5
       &POTENTIAL
 2 3
  0.2837905100000000E+00 2 -0.1241522559000000E+02  0.1868095920000000E+01
 2
  0.2554050000000000E+00 1  0.1363026257000000E+02
  0.2454945300000000E+00 0
         # Potential name:  GTH-PBE-Q5  for symbol:  N
         # Potential read from the potential filename: GTH_POTENTIALS
       &END POTENTIAL
     &END KIND
     &KIND Ga
       BASIS_SET DZVP-MOLOPT-SR-GTH
       POTENTIAL GTH-PBE-q13
       &POTENTIAL
 2 1 10
  0.4900000000000000E+00 0
 3
  0.4167772300000000E+00 3  0.1047568975000000E+02 -0.4921768140000000E+01  0.8707055900000000E+00
  0.7770178090000000E+01 -0.2248152160000000E+01
  0.1784415450000000E+01
  0.5696265200000000E+00 2  0.1777985340000000E+01  0.1958597600000000E+00
 -0.2317443900000000E+00
  0.2381265000000000E+00 1 -0.1624868022000000E+02
         # Potential name:  GTH-PBE-Q13  for symbol:  GA
         # Potential read from the potential filename: GTH_POTENTIALS
       &END POTENTIAL
     &END KIND
     &TOPOLOGY
       NUMBER_OF_ATOMS  256
       MULTIPLE_UNIT_CELL  1 1 1
     &END TOPOLOGY
   &END SUBSYS
 &END FORCE_EVAL
