 # Version information for this restart file 
 # current date 2019-06-09 07:05:48.278
 # current working dir /lustre03/project/6037349/rzk/GaN-carbene/444-addat/00-Surface/UKS_SYMM
 # Program compiled at                              Sun Apr  7 00:48:11 EDT 2019
 # Program compiled on                          beluga2.int.ets1.calculquebec.ca
 # Program compiled for                        Beluga-Linux-x86-64-intel-openmpi
 # Source code revision number                                         svn:18619
 &GLOBAL
   PRINT_LEVEL  MEDIUM
   PROJECT_NAME TEST
   RUN_TYPE  CELL_OPT
 &END GLOBAL
 &MOTION
   &CELL_OPT
     MAX_ITER  300
     STEP_START_VAL  43
     EXTERNAL_PRESSURE     1.0000000000000000E+00
     KEEP_ANGLES  T
     KEEP_SYMMETRY  T
     CONSTRAINT  Z
     PRESSURE_TOLERANCE     5.0000000000000000E+02
   &END CELL_OPT
 &END MOTION
 &FORCE_EVAL
   METHOD  QS
   STRESS_TENSOR  ANALYTICAL
   &DFT
     BASIS_SET_FILE_NAME BASIS_MOLOPT
     POTENTIAL_FILE_NAME GTH_POTENTIALS
     UKS  T
     SURFACE_DIPOLE_CORRECTION  T
     SURF_DIP_DIR  Z
     &SCF
       MAX_SCF  100
       EPS_SCF     5.0000000000000004E-06
       &OT  T
         PRECONDITIONER  FULL_ALL
       &END OT
       &OUTER_SCF  T
         OPTIMIZER  NONE
         EPS_SCF     5.0000000000000004E-06
         MAX_SCF  4
       &END OUTER_SCF
       &PRINT
         &RESTART  OFF
           BACKUP_COPIES  1
           &EACH
             JUST_ENERGY  0
             QS_SCF  0
             MD  20
           &END EACH
         &END RESTART
       &END PRINT
     &END SCF
     &QS
       EPS_DEFAULT     1.0000000000000000E-14
       METHOD  GPW
     &END QS
     &MGRID
       NGRIDS  5
       CUTOFF     1.2000000000000000E+03
     &END MGRID
     &XC
       DENSITY_CUTOFF     1.0000000000000000E-10
       GRADIENT_CUTOFF     1.0000000000000000E-10
       TAU_CUTOFF     1.0000000000000000E-10
       &XC_FUNCTIONAL  NO_SHORTCUT
         &PBE  T
         &END PBE
       &END XC_FUNCTIONAL
       &VDW_POTENTIAL
         POTENTIAL_TYPE  PAIR_POTENTIAL
         &PAIR_POTENTIAL
           R_CUTOFF     1.0000000000000004E+01
           TYPE  DFTD3
           PARAMETER_FILE_NAME dftd3.dat
           REFERENCE_FUNCTIONAL PBE
           EPS_CN     9.9999999999999995E-07
           CALCULATE_C9_TERM  T
           REFERENCE_C9_TERM  T
           LONG_RANGE_CORRECTION  F
           VERBOSE_OUTPUT  F
         &END PAIR_POTENTIAL
       &END VDW_POTENTIAL
     &END XC
   &END DFT
   &SUBSYS
     &CELL
       A     1.2955631150760032E+01    0.0000000000000000E+00    0.0000000000000000E+00
       B    -6.4537309042189230E+00    1.1178189824484610E+01    0.0000000000000000E+00
       C     0.0000000000000000E+00    0.0000000000000000E+00    3.2000000000000000E+01
       MULTIPLE_UNIT_CELL  1 1 1
       &CELL_REF
         A     1.2982353780853531E+01    0.0000000000000000E+00    0.0000000000000000E+00
         B    -6.4911768904267628E+00    1.1243048175136114E+01    0.0000000000000000E+00
         C     0.0000000000000000E+00    0.0000000000000000E+00    3.2000000000000000E+01
         MULTIPLE_UNIT_CELL  1 1 1
       &END CELL_REF
     &END CELL
     &COORD
N    3.4182199046646666E-03    2.3704299827993500E-03   -2.5431641032958768E-01
Ga    5.1916229703764119E-03    1.8606496402970192E+00    4.3439782927196074E-01
N    6.5441131128762100E-03    1.8603548912981047E+00    2.3287060971277587E+00
Ga    2.1691562192398648E-03    2.8725021760827229E-03    3.0956776632765632E+00
N    3.4712943904264219E-03    7.3860701230923139E-03    5.0082573901276497E+00
Ga    1.0368997522036322E-02    1.8620636852101657E+00    5.7375320465474493E+00
N    1.5001268117656954E-02    1.8707647182392200E+00    7.6618180551291193E+00
Ga    6.8323697941430209E-03    1.6913279424465300E-02    8.4242067992166891E+00
N   -9.2995453705962397E-04    2.3132850682436933E-02    1.0338596813774698E+01
Ga    1.0309340581644167E-02    1.8962854879712168E+00    1.1037191356868572E+01
N   -6.8141684677633920E-03    1.8591280531042265E+00    1.2986624340000692E+01
Ga   -2.2694301135886136E-02   -8.2228311256825042E-03    1.3738096535394709E+01
N   -1.8500195248633947E-02   -7.8890555987251171E-02    1.5653564058169716E+01
Ga    1.4894637171167112E-02    1.8178092604503899E+00    1.6589645533306864E+01
N    1.5927174292416786E+00    8.6382740808345648E-01    1.7586642685923167E+01
N   -1.6102008400743180E+00    2.7966758422974367E+00   -2.5343327399093435E-01
Ga   -1.6086351877109968E+00    4.6548449542268457E+00    4.3530592938992702E-01
N   -1.6069729539715394E+00    4.6548784734305952E+00    2.3294202020501236E+00
Ga   -1.6080899064062699E+00    2.7942005729504951E+00    3.0957971897572207E+00
N   -1.6045317452630261E+00    2.7969506850181483E+00    5.0084833432982894E+00
Ga   -1.6046896900506085E+00    4.6615115428672453E+00    5.7176622808792379E+00
N   -1.6050428174330988E+00    4.6704494362833122E+00    7.6383643699399668E+00
Ga   -1.6077466173562580E+00    2.8109994402059577E+00    8.3911702803244399E+00
N   -1.6072676335656364E+00    2.8123539856115634E+00    1.0307552195142481E+01
Ga   -1.6191237735120887E+00    4.6653944452919971E+00    1.1040351251477825E+01
N   -1.6342529774644119E+00    4.6303597048076819E+00    1.3004793257851833E+01
Ga   -1.6275314281050302E+00    2.7635813735017356E+00    1.3777579122583290E+01
N   -1.5707966548447809E+00    2.8219139107848425E+00    1.5701006341107229E+01
Ga   -1.5403897456753124E+00    4.7280280084431503E+00    1.6684726092850319E+01
N   -9.8499049396560713E-03    3.6927241191929534E+00    1.7600972113317354E+01
N   -3.2237242949377345E+00    5.5913889874273490E+00   -2.5269433859208662E-01
Ga   -3.2228405246274776E+00    7.4501284991118792E+00    4.3547920169348475E-01
N   -3.2228678620145046E+00    7.4526962628951914E+00    2.3284558276299672E+00
Ga   -3.2223466988422440E+00    5.5937599195831735E+00    3.0921163640104572E+00
N   -3.2210413494103416E+00    5.6015969915346524E+00    5.0033670618017654E+00
Ga   -3.2221064018844308E+00    7.4613833830140406E+00    5.7276906717547762E+00
N   -3.2276552898261657E+00    7.4664884569324519E+00    7.6498694956580806E+00
Ga   -3.2307525999089881E+00    5.5989946039211738E+00    8.3844505625719261E+00
N   -3.2307042254130898E+00    5.5919588625668553E+00    1.0303026988584442E+01
Ga   -3.2319467620365949E+00    7.4364219645886047E+00    1.1039649123713293E+01
N   -3.2349483057128903E+00    7.4296341295102346E+00    1.2989779314441085E+01
Ga   -3.2414849427235763E+00    5.5700406047763922E+00    1.3794783498950979E+01
N   -3.1505770443304888E+00    5.5912231293404551E+00    1.5718035020687189E+01
Ga   -3.2234043163593036E+00    7.5085266879127071E+00    1.6650065527329140E+01
N   -1.6125611187125539E+00    6.5922973688820825E+00    1.7643536514008289E+01
N   -4.8368226306700493E+00    8.3859205705747382E+00   -2.5302152549963869E-01
Ga   -4.8359145393431175E+00    1.0244481229916591E+01    4.3599755161689124E-01
N   -4.8360092506854748E+00    1.0245954562388135E+01    2.3304442378151826E+00
Ga   -4.8385686170997761E+00    8.3873888993162868E+00    3.0968020714423234E+00
N   -4.8371633574918134E+00    8.3944732574043552E+00    5.0083263323172487E+00
Ga   -4.8372735126599196E+00    1.0252129346841386E+01    5.7280018986182757E+00
N   -4.8419477300540299E+00    1.0256116190583830E+01    7.6538711122712018E+00
Ga   -4.8391629742127389E+00    8.4020969307760538E+00    8.4167649001661253E+00
N   -4.8393441390559930E+00    8.3919173974982169E+00    1.0326292963044118E+01
Ga   -4.8468364582730379E+00    1.0248981273689491E+01    1.1025288000365515E+01
N   -4.8567507041428231E+00    1.0238031009605050E+01    1.2970216681489765E+01
Ga   -4.8353642880565477E+00    8.3871590762132477E+00    1.3756113856934613E+01
N   -4.8494284507822893E+00    8.3916745475477192E+00    1.5653704793300864E+01
Ga   -4.8575097138676595E+00    1.0210525578868223E+01    1.6653312051190724E+01
N   -3.1936163000020343E+00    9.3433508469962572E+00    1.7531284458724748E+01
N    3.2420408999337513E+00    2.3822541044911777E-03   -2.5313038847507413E-01
Ga    3.2431015559114500E+00    1.8613759528218592E+00    4.3388263866673576E-01
N    3.2426079210374503E+00    1.8619330423182929E+00    2.3284113659720140E+00
Ga    3.2420590054711544E+00    3.8018072928757032E-03    3.0963017588021562E+00
N    3.2437959988717995E+00    7.4270467599587614E-03    5.0096060629832495E+00
Ga    3.2453444277471539E+00    1.8662394221626704E+00    5.7337918219136839E+00
N    3.2429509871134732E+00    1.8708250896659906E+00    7.6569313259670260E+00
Ga    3.2368973806797836E+00    8.5251359468867631E-03    8.3992076738717376E+00
N    3.2320885163816180E+00    6.6340930025742895E-03    1.0312746348595809E+01
Ga    3.2393333265409878E+00    1.8744292933485416E+00    1.1036185863508866E+01
N    3.2397920577522523E+00    1.8650232062424295E+00    1.2965281287363624E+01
Ga    3.2172539302894210E+00    1.0958163563626118E-02    1.3728333577095230E+01
N    3.2168368274052606E+00   -5.3970786618551370E-02    1.5634551371359263E+01
Ga    3.2264118371573378E+00    1.8651500919443718E+00    1.6657680455603320E+01
N    4.7828327356849183E+00    8.8711689538582439E-01    1.7531240682623437E+01
N    1.6284423614729213E+00    2.7966335958883568E+00   -2.5586693544003758E-01
Ga    1.6304378901185466E+00    4.6541673783780304E+00    4.3523842492029663E-01
N    1.6318136638346816E+00    4.6544904280360218E+00    2.3295577761799535E+00
Ga    1.6286538699324418E+00    2.7962638089165823E+00    3.0999948595767850E+00
N    1.6307736439129059E+00    2.8005598205153865E+00    5.0122675095808233E+00
Ga    1.6351738621267782E+00    4.6620788270873543E+00    5.7275130863437642E+00
N    1.6352170100483423E+00    4.6714924185147604E+00    7.6479660750400704E+00
Ga    1.6351097196423241E+00    2.8205276463551634E+00    8.4201119597117238E+00
N    1.6354597114095764E+00    2.8370764278704685E+00    1.0329388872738697E+01
Ga    1.6443407807139527E+00    4.6919938683108064E+00    1.1080366712034795E+01
N    1.6241457930442409E+00    4.6669177411570457E+00    1.3020604100793264E+01
Ga    1.6277967006689815E+00    2.7847783262227903E+00    1.3770047874153722E+01
N    1.5729519484161272E+00    2.7133799485598167E+00    1.5671965156880413E+01
Ga    1.6062361774393308E+00    4.6594655238035774E+00    1.6633562050121757E+01
N    3.1604942097606417E+00    3.7128022356030019E+00    1.7575198580912232E+01
N    1.5305869212937607E-02    5.5915781599949144E+00   -2.5172846334391613E-01
Ga    1.7564127894820217E-02    7.4499653195043374E+00    4.3781716116688474E-01
N    1.9534966215400271E-02    7.4514458275841617E+00    2.3320221054316268E+00
Ga    1.8184602185572916E-02    5.5907703723854478E+00    3.0940155558303841E+00
N    2.1311787639230952E-02    5.5981709210805102E+00    5.0044596293621346E+00
Ga    2.2704490646826253E-02    7.4593747837627777E+00    5.7175890328886183E+00
N    2.1264198747624814E-02    7.4630351998505384E+00    7.6423594235118566E+00
Ga    1.9684449221206123E-02    5.6060407934137357E+00    8.4032681196929069E+00
N    1.5473064259275511E-02    5.5992474767277729E+00    1.0322934933170718E+01
Ga    6.9015884562703108E-03    7.4477199378875465E+00    1.1048846438725933E+01
N   -7.7533921750703597E-03    7.4263573526029800E+00    1.2999814233483056E+01
Ga   -1.2094439268856633E-02    5.5672281419782852E+00    1.3777236860591589E+01
N    3.9144964237044465E-02    5.5900472063595386E+00    1.5678421077499753E+01
Ga    2.1884527929769242E-02    7.4427086989559976E+00    1.6590039502668009E+01
N    1.6072101513688037E+00    6.5281305811033574E+00    1.7620875727216948E+01
N   -1.5979563799844909E+00    8.3857075288322349E+00   -2.5075095709257239E-01
Ga   -1.5966875058420626E+00    1.0245287614766955E+01    4.3426672447159315E-01
N   -1.5964163155225879E+00    1.0246209285352371E+01    2.3278634050433666E+00
Ga   -1.5982828701857343E+00    8.3875292466367029E+00    3.0923693372559558E+00
N   -1.5960380068241478E+00    8.3919382626819079E+00    5.0041369546835650E+00
Ga   -1.5945061707209347E+00    1.0248437182008171E+01    5.7260389467729826E+00
N   -1.6000966224917768E+00    1.0249172785741576E+01    7.6471257779059663E+00
Ga   -1.5957244215777602E+00    8.3882527950242913E+00    8.3981845551456420E+00
N   -1.6058990263763853E+00    8.3841151812871715E+00    1.0318549223366418E+01
Ga   -1.5992058755802119E+00    1.0249817860165310E+01    1.1019740199549759E+01
N   -1.5969280273670365E+00    1.0254039008583666E+01    1.2980445044874449E+01
Ga   -1.6190709690171834E+00    8.3861001952065859E+00    1.3732970361677568E+01
N   -1.5619082109585312E+00    8.4335767367355530E+00    1.5644124359105172E+01
Ga   -1.5308778952662143E+00    1.0262874524439386E+01    1.6624225329258213E+01
N    5.3665380125790293E-02    9.2110282666430496E+00    1.7652063418862092E+01
N    6.4813886105953076E+00    2.8210822155592193E-03   -2.5302584840282899E-01
Ga    6.4826306165615328E+00    1.8611956725957834E+00    4.3665239632001673E-01
N    6.4825967729494200E+00    1.8611166220536490E+00    2.3299832527005813E+00
Ga    6.4827327745948775E+00    1.3314365522975064E-03    3.0931690027636094E+00
N    6.4844591650782517E+00    4.4112675818640586E-03    5.0066331909937309E+00
Ga    6.4820740409363022E+00    1.8651749764981813E+00    5.7255451698972362E+00
N    6.4807153887512827E+00    1.8718007690454317E+00    7.6474303962441406E+00
Ga    6.4812576655438328E+00    8.9521155049344606E-03    8.3835399370985488E+00
N    6.4803139261377520E+00   -1.9451041257493276E-03    1.0298726496825051E+01
Ga    6.4867670842028913E+00    1.8647624337611657E+00    1.1000887639056875E+01
N    6.4854232333725310E+00    1.8470775860801396E+00    1.2952268844056784E+01
Ga    6.4878629592313537E+00    1.1968518727739736E-02    1.3760517100505474E+01
N    6.5667799193681935E+00    4.2462892501366402E-02    1.5702348495604856E+01
Ga    6.4454091117808128E+00    1.9414924755314062E+00    1.6594718583349337E+01
N    8.0403438704565513E+00    1.0806148237079649E+00    1.7638136052879062E+01
N    4.8679480384014520E+00    2.7965257335456339E+00   -2.5358843106722045E-01
Ga    4.8691093989413003E+00    4.6552245091189777E+00    4.3557271799384423E-01
N    4.8682785775919690E+00    4.6568319539253409E+00    2.3295249183929574E+00
Ga    4.8663119878431562E+00    2.7973856598838802E+00    3.0952044697670806E+00
N    4.8673531700833630E+00    2.8016718020750306E+00    5.0070910640286117E+00
Ga    4.8695419087589542E+00    4.6634624453254991E+00    5.7253560082124215E+00
N    4.8712199481734615E+00    4.6692958243297031E+00    7.6465367183485311E+00
Ga    4.8659894828158130E+00    2.8121394625032314E+00    8.4033240375138885E+00
N    4.8659303979213968E+00    2.8135176145273388E+00    1.0310582984822407E+01
Ga    4.8720751732218011E+00    4.6768573085056007E+00    1.1037120613045415E+01
N    4.8638128150331106E+00    4.6653048148651104E+00    1.2968331563730837E+01
Ga    4.8750793198081031E+00    2.8006849014928945E+00    1.3731150400533410E+01
N    4.8703815629264975E+00    2.7954487166262809E+00    1.5628661670806441E+01
Ga    4.8663010059247229E+00    4.5910412231304649E+00    1.6588527688455986E+01
N    6.4929024342954209E+00    3.7313410094220969E+00    1.7606850152982101E+01
N    3.2540481433104338E+00    5.5909218887757186E+00   -2.5370906246205466E-01
Ga    3.2560064606993011E+00    7.4499238601885462E+00    4.3364493412807348E-01
N    3.2575235890133487E+00    7.4518785980428079E+00    2.3273287866996051E+00
Ga    3.2536355243076569E+00    5.5948241450209313E+00    3.0968279066950890E+00
N    3.2553558464850512E+00    5.6041343591363670E+00    5.0092105965535181E+00
Ga    3.2596757506610676E+00    7.4619307161459076E+00    5.7410322797168156E+00
N    3.2611775732744657E+00    7.4715840411300176E+00    7.6641649950306512E+00
Ga    3.2583162728279595E+00    5.6081410172668438E+00    8.4042725378457739E+00
N    3.2616118460189809E+00    5.6123681947402630E+00    1.0314595703599799E+01
Ga    3.2706249683674140E+00    7.4570448589483149E+00    1.1055827692382159E+01
N    3.2605834692069862E+00    7.4482679315362974E+00    1.3002314070881923E+01
Ga    3.2630945232515378E+00    5.5938550061124728E+00    1.3793165170470909E+01
N    3.2261499500073678E+00    5.5308604798030991E+00    1.5685618483146470E+01
Ga    3.2503849025334328E+00    7.3967347075434668E+00    1.6628160023108425E+01
N    4.8557501734945312E+00    6.4013405907353595E+00    1.7583565821676984E+01
N    1.6404709650928315E+00    8.3860123443287478E+00   -2.5322575688916810E-01
Ga    1.6427128287928259E+00    1.0244536045042832E+01    4.3530114090347061E-01
N    1.6449084531652021E+00    1.0245052378015529E+01    2.3290228325367006E+00
Ga    1.6458206744114805E+00    8.3871404044868054E+00    3.0956679209989826E+00
N    1.6482064743386149E+00    8.3928490842221599E+00    5.0067668927684288E+00
Ga    1.6457931924465397E+00    1.0247567964185954E+01    5.7274440594224441E+00
N    1.6438241802565787E+00    1.0247962948876541E+01    7.6479703100048821E+00
Ga    1.6384155885224840E+00    8.3934949716170841E+00    8.4191764850605360E+00
N    1.6385481464295755E+00    8.3806129444813706E+00    1.0334162928214816E+01
Ga    1.6404305221633804E+00    1.0241951754868129E+01    1.1033857412701158E+01
N    1.6257944463805323E+00    1.0214094593202841E+01    1.2997737786492493E+01
Ga    1.6241966905808991E+00    8.3518041469210118E+00    1.3776690687924882E+01
N    1.6621014954285067E+00    8.4477572592576919E+00    1.5688303008340116E+01
Ga    1.7267735829334816E+00    1.0336698219350948E+01    1.6704911592437195E+01
N    3.2514192031624201E+00    9.2503418358915024E+00    1.7589721693097463E+01
N    9.7199957269243669E+00    2.8065471702462159E-03   -2.5223748960085285E-01
Ga    9.7212630417431871E+00    1.8608832416437633E+00    4.3595314013810788E-01
N    9.7224759862832126E+00    1.8597635172667542E+00    2.3300400783823516E+00
Ga    9.7222613356512788E+00    1.4805732618669387E-03    3.0985732960065726E+00
N    9.7246256672373921E+00    3.4921288229983597E-03    5.0117640683899944E+00
Ga    9.7241447302106412E+00    1.8636730999515057E+00    5.7231297976169966E+00
N    9.7239987521534292E+00    1.8677422400104635E+00    7.6440537653697591E+00
Ga    9.7228392491989659E+00    7.5658117736984469E-03    8.3914580534166490E+00
N    9.7221842401398195E+00   -1.1348068598093796E-02    1.0305179876570625E+01
Ga    9.7396577500264438E+00    1.8454558681409361E+00    1.1037949212334750E+01
N    9.7235104753986352E+00    1.8032056382539479E+00    1.2986914119782808E+01
Ga    9.7050016537276989E+00   -4.5852187943739540E-02    1.3783241954012073E+01
N    9.7215464700615506E+00    5.2532979326163437E-02    1.5705185308091581E+01
Ga    9.7187636713420993E+00    1.8797286745265456E+00    1.6652119434958401E+01
N    1.1340522431747745E+01    9.3030153862248388E-01    1.7626048553986692E+01
N    8.1065965148712742E+00    2.7969396855513224E+00   -2.5298770978499524E-01
Ga    8.1076851303960797E+00    4.6549317804640991E+00    4.3724915985154034E-01
N    8.1075458711326878E+00    4.6563267438457432E+00    2.3311558795737790E+00
Ga    8.1074048826193135E+00    2.7957485492152720E+00    3.0962884360616272E+00
N    8.1080357044312965E+00    2.7984948985050311E+00    5.0058263642299066E+00
Ga    8.1066459211398350E+00    4.6623531836320486E+00    5.7139542572840485E+00
N    8.1022455907712612E+00    4.6637839944589397E+00    7.6347348081054323E+00
Ga    8.1110129420152273E+00    2.8083832448314654E+00    8.3974994905209144E+00
N    8.1235710957230971E+00    2.7950468078341779E+00    1.0305878218653563E+01
Ga    8.1123369542354808E+00    4.6509195208677721E+00    1.1045062104813614E+01
N    8.1048964067630980E+00    4.6329029064617728E+00    1.2993027952382270E+01
Ga    8.1068162322155928E+00    2.7674906962122963E+00    1.3729509637418102E+01
N    8.0808254815579552E+00    2.9217619232944010E+00    1.5655423041796068E+01
Ga    8.0906195206653173E+00    4.7503620016767396E+00    1.6593862375949179E+01
N    9.7010863746437543E+00    3.6474000012629437E+00    1.7616586860623777E+01
N    6.4936007672838016E+00    5.5910517283634595E+00   -2.5346997189304715E-01
Ga    6.4941747640236098E+00    7.4500569758563016E+00    4.3492566108722558E-01
N    6.4932661699840661E+00    7.4535673157776472E+00    2.3285154381857307E+00
Ga    6.4913415082017938E+00    5.5955752849588647E+00    3.0963269422951938E+00
N    6.4914076999082475E+00    5.6044467216547877E+00    5.0069985192086008E+00
Ga    6.4938255308594863E+00    7.4631858423887794E+00    5.7342209612091253E+00
N    6.4963433464557845E+00    7.4677794334763004E+00    7.6560121187979275E+00
Ga    6.4967154089147661E+00    5.6064827814205449E+00    8.4032646454603519E+00
N    6.5040683482640080E+00    5.6007832629513183E+00    1.0314147766776903E+01
Ga    6.5071802920633095E+00    7.4476869840299544E+00    1.1062311768844916E+01
N    6.5041121151079642E+00    7.4477277270275648E+00    1.2994377827199171E+01
Ga    6.4866360626691160E+00    5.5839626992581959E+00    1.3766296010463202E+01
N    6.4353210615153884E+00    5.5885157446312865E+00    1.5649833190151567E+01
Ga    6.4900229513076759E+00    7.4496510904439273E+00    1.6647643162845412E+01
N    8.0554546640733999E+00    6.5060656250160163E+00    1.7549656253149873E+01
N    4.8797690142560901E+00    8.3861303714885977E+00   -2.5457241117257934E-01
Ga    4.8812209168847298E+00    1.0244556051055818E+01    4.3495594792207504E-01
N    4.8816070760857588E+00    1.0245132290138342E+01    2.3292065887944289E+00
Ga    4.8787720348195913E+00    8.3879959858449382E+00    3.0995982231784058E+00
N    4.8797037940790977E+00    8.3957953359181250E+00    5.0126372126248686E+00
Ga    4.8870791735263843E+00    1.0250321355281459E+01    5.7384801277934319E+00
N    4.8919528083896484E+00    1.0255240759439811E+01    7.6611900104170303E+00
Ga    4.8880137443291840E+00    8.4003015369506784E+00    8.4269212601687578E+00
N    4.8995502131020094E+00    8.3902381702293614E+00    1.0336721934415445E+01
Ga    4.8790770056498127E+00    1.0246791037624281E+01    1.1040892629870303E+01
N    4.8620687525885593E+00    1.0218310710688266E+01    1.2995556493025013E+01
Ga    4.8890896851299361E+00    8.3666634051821500E+00    1.3776188789680058E+01
N    4.8269126344106938E+00    8.3531831826029794E+00    1.5688207905745667E+01
Ga    4.8532462160408816E+00    1.0239955948450495E+01    1.6694072129507266E+01
N    6.4066950638428857E+00    9.2926743130374394E+00    1.7594280995048731E+01
H    1.0161571741802886E-03    5.1456170765678611E-04   -1.2832155419784399E+00
H   -1.6123766168204341E+00    2.7951840239294632E+00   -1.2822758974045605E+00
H   -3.2250949813182563E+00    5.5895070156790982E+00   -1.2816590531918837E+00
H   -4.8374093718441946E+00    8.3819640903604142E+00   -1.2818197369180382E+00
H    3.2423060157768484E+00    1.0354594809203660E-04   -1.2819019741201116E+00
H    1.6272326310140073E+00    2.7937658422497651E+00   -1.2848480344416335E+00
H    1.2339472432478491E-02    5.5892975221695709E+00   -1.2803882259498887E+00
H   -1.6006657480212485E+00    8.3838571581550489E+00   -1.2794291124162147E+00
H    6.4790034649648511E+00    4.3415450205909446E-04   -1.2817307283723167E+00
H    4.8666439682201013E+00    2.7932218702879608E+00   -1.2822255255312285E+00
H    3.2523660322844972E+00    5.5892286916494420E+00   -1.2827591381632197E+00
H    1.6386368336006565E+00    8.3838927475059233E+00   -1.2819903231852663E+00
H    9.7175652295609165E+00    8.4050153093574958E-04   -1.2808366478689930E+00
H    8.1045474497838175E+00    2.7947909383731622E+00   -1.2817030733859800E+00
H    6.4927808607871995E+00    5.5883414417934132E+00   -1.2826340371412484E+00
H    4.8780541424389137E+00    8.3830020627346542E+00   -1.2834592120909469E+00
     &END COORD
     &KIND H
       BASIS_SET DZVP-MOLOPT-SR-GTH-q1
       POTENTIAL GTH-PBE-q1
       &POTENTIAL
 1
  0.2000000000000000E+00 2 -0.4178900440000000E+01  0.7244633100000000E+00
 0
         # Potential name:  GTH-PBE-Q1  for symbol:  H
         # Potential read from the potential filename: GTH_POTENTIALS
       &END POTENTIAL
     &END KIND
     &KIND N
       BASIS_SET DZVP-MOLOPT-SR-GTH
       POTENTIAL GTH-PBE-q5
       &POTENTIAL
 2 3
  0.2837905100000000E+00 2 -0.1241522559000000E+02  0.1868095920000000E+01
 2
  0.2554050000000000E+00 1  0.1363026257000000E+02
  0.2454945300000000E+00 0
         # Potential name:  GTH-PBE-Q5  for symbol:  N
         # Potential read from the potential filename: GTH_POTENTIALS
       &END POTENTIAL
     &END KIND
     &KIND Ga
       BASIS_SET DZVP-MOLOPT-SR-GTH
       POTENTIAL GTH-PBE-q13
       &POTENTIAL
 2 1 10
  0.4900000000000000E+00 0
 3
  0.4167772300000000E+00 3  0.1047568975000000E+02 -0.4921768140000000E+01  0.8707055900000000E+00
  0.7770178090000000E+01 -0.2248152160000000E+01
  0.1784415450000000E+01
  0.5696265200000000E+00 2  0.1777985340000000E+01  0.1958597600000000E+00
 -0.2317443900000000E+00
  0.2381265000000000E+00 1 -0.1624868022000000E+02
         # Potential name:  GTH-PBE-Q13  for symbol:  GA
         # Potential read from the potential filename: GTH_POTENTIALS
       &END POTENTIAL
     &END KIND
     &TOPOLOGY
       NUMBER_OF_ATOMS  256
       MULTIPLE_UNIT_CELL  1 1 1
     &END TOPOLOGY
   &END SUBSYS
 &END FORCE_EVAL
