 # Version information for this restart file 
 # current date 2019-06-09 04:32:30.328
 # current working dir /lustre03/project/6037349/rzk/GaN-carbene/444-addat/00-Surface/UKS_SYMM
 # Program compiled at                              Sun Apr  7 00:48:11 EDT 2019
 # Program compiled on                          beluga2.int.ets1.calculquebec.ca
 # Program compiled for                        Beluga-Linux-x86-64-intel-openmpi
 # Source code revision number                                         svn:18619
 &GLOBAL
   PRINT_LEVEL  MEDIUM
   PROJECT_NAME TEST
   RUN_TYPE  CELL_OPT
 &END GLOBAL
 &MOTION
   &CELL_OPT
     MAX_ITER  300
     STEP_START_VAL  13
     EXTERNAL_PRESSURE     1.0000000000000000E+00
     KEEP_ANGLES  T
     KEEP_SYMMETRY  T
     CONSTRAINT  Z
     PRESSURE_TOLERANCE     5.0000000000000000E+02
   &END CELL_OPT
 &END MOTION
 &FORCE_EVAL
   METHOD  QS
   STRESS_TENSOR  ANALYTICAL
   &DFT
     BASIS_SET_FILE_NAME BASIS_MOLOPT
     POTENTIAL_FILE_NAME GTH_POTENTIALS
     UKS  T
     SURFACE_DIPOLE_CORRECTION  T
     SURF_DIP_DIR  Z
     &SCF
       MAX_SCF  100
       EPS_SCF     5.0000000000000004E-06
       &OT  T
         PRECONDITIONER  FULL_ALL
       &END OT
       &OUTER_SCF  T
         OPTIMIZER  NONE
         EPS_SCF     5.0000000000000004E-06
         MAX_SCF  4
       &END OUTER_SCF
       &PRINT
         &RESTART  OFF
           BACKUP_COPIES  1
           &EACH
             JUST_ENERGY  0
             QS_SCF  0
             MD  20
           &END EACH
         &END RESTART
       &END PRINT
     &END SCF
     &QS
       EPS_DEFAULT     1.0000000000000000E-14
       METHOD  GPW
     &END QS
     &MGRID
       NGRIDS  5
       CUTOFF     1.2000000000000000E+03
     &END MGRID
     &XC
       DENSITY_CUTOFF     1.0000000000000000E-10
       GRADIENT_CUTOFF     1.0000000000000000E-10
       TAU_CUTOFF     1.0000000000000000E-10
       &XC_FUNCTIONAL  NO_SHORTCUT
         &PBE  T
         &END PBE
       &END XC_FUNCTIONAL
       &VDW_POTENTIAL
         POTENTIAL_TYPE  PAIR_POTENTIAL
         &PAIR_POTENTIAL
           R_CUTOFF     1.0000000000000004E+01
           TYPE  DFTD3
           PARAMETER_FILE_NAME dftd3.dat
           REFERENCE_FUNCTIONAL PBE
           EPS_CN     9.9999999999999995E-07
           CALCULATE_C9_TERM  T
           REFERENCE_C9_TERM  T
           LONG_RANGE_CORRECTION  F
           VERBOSE_OUTPUT  F
         &END PAIR_POTENTIAL
       &END VDW_POTENTIAL
     &END XC
   &END DFT
   &SUBSYS
     &CELL
       A     1.2875938740751653E+01    0.0000000000000000E+00    0.0000000000000000E+00
       B    -6.4304270008992770E+00    1.1137826279920324E+01    0.0000000000000000E+00
       C     0.0000000000000000E+00    0.0000000000000000E+00    3.2000000000000000E+01
       MULTIPLE_UNIT_CELL  1 1 1
       &CELL_REF
         A     1.2982353780853531E+01    0.0000000000000000E+00    0.0000000000000000E+00
         B    -6.4911768904267628E+00    1.1243048175136114E+01    0.0000000000000000E+00
         C     0.0000000000000000E+00    0.0000000000000000E+00    3.2000000000000000E+01
         MULTIPLE_UNIT_CELL  1 1 1
       &END CELL_REF
     &END CELL
     &COORD
N   -1.8544996869388912E-04   -5.1161957060639118E-04   -5.2841445896266985E-02
Ga    1.6456753746909233E-03    1.8567231413007643E+00    6.1488915265238486E-01
N    1.4727053125477897E-03    1.8567712827739451E+00    2.5240701498426508E+00
Ga   -1.3472539604918174E-04   -2.0436890092867169E-04    3.2333322336299162E+00
N   -2.3940712833897057E-04   -5.1973579894807546E-04    5.1409438114961699E+00
Ga    1.4304868766785450E-03    1.8564687946673795E+00    5.8163710365398185E+00
N    1.2017173550215791E-03    1.8565892025638191E+00    7.7088205761209485E+00
Ga   -3.9610652656930760E-04    3.2343301198236039E-04    8.3588602742653997E+00
N   -5.6083331749565526E-04    1.0109784441352330E-03    1.0250420900645391E+01
Ga    1.9409220527356597E-03    1.8575694670554861E+00    1.0939804659524372E+01
N    9.8547181513613559E-04    1.8578427923983953E+00    1.2860289005297089E+01
Ga   -5.8590813599930904E-04   -2.7563810831177883E-03    1.3545079399856036E+01
N   -9.3061329336812382E-03   -4.5274470702329969E-03    1.5453169108230187E+01
Ga    2.7324581877458329E-03    1.8485855282550165E+00    1.6449896343161814E+01
N    1.6075531079721181E+00    9.2329727091445324E-01    1.7366410434212543E+01
N   -1.6077929693410324E+00    2.7839636868622382E+00   -5.2798323051408226E-02
Ga   -1.6059856576693763E+00    4.6411592758436546E+00    6.1498941506771010E-01
N   -1.6061603837311582E+00    4.6411509813267298E+00    2.5240982378506907E+00
Ga   -1.6077461031490086E+00    2.7843396978813200E+00    3.2333489336221035E+00
N   -1.6078049852589023E+00    2.7841160848504249E+00    5.1409439360719196E+00
Ga   -1.6061001444081759E+00    4.6411288844465446E+00    5.8169214591114118E+00
N   -1.6060829382825523E+00    4.6417313161959388E+00    7.7096713308037446E+00
Ga   -1.6066472421601690E+00    2.7847729697854788E+00    8.3587959314971414E+00
N   -1.6052543298642954E+00    2.7858868751090360E+00    1.0251013752983857E+01
Ga   -1.6066247889840919E+00    4.6418922043471955E+00    1.0938745208772996E+01
N   -1.6068929694641980E+00    4.6441508244347363E+00    1.2860564891410080E+01
Ga   -1.6081460315979803E+00    2.7855521502322276E+00    1.3557004284621334E+01
N   -1.6022054322329971E+00    2.8061537789939432E+00    1.5472666679560829E+01
Ga   -1.5874588733675503E+00    4.6507960331963281E+00    1.6383286874482227E+01
N   -2.4991338934014205E-02    3.7402931381658342E+00    1.7382438193579443E+01
N   -3.2153873119643404E+00    5.5684244714059909E+00   -5.2813028272698986E-02
Ga   -3.2135677917146013E+00    7.4256073042821251E+00    6.1489672219389280E-01
N   -3.2136479815231267E+00    7.4255223830283921E+00    2.5240346840378542E+00
Ga   -3.2153000913772272E+00    5.5687751436026494E+00    3.2333985562398571E+00
N   -3.2151833122270728E+00    5.5685947329924099E+00    5.1409467284298058E+00
Ga   -3.2134629304687343E+00    7.4255545902849507E+00    5.8173620936315542E+00
N   -3.2126809160603544E+00    7.4259299152907490E+00    7.7102472356649283E+00
Ga   -3.2150282135115145E+00    5.5692949981871767E+00    8.3603351028344921E+00
N   -3.2137420218208406E+00    5.5699242737035686E+00    1.0252761391885588E+01
Ga   -3.2121961741237999E+00    7.4260592913835897E+00    1.0943877475460681E+01
N   -3.2080154775109699E+00    7.4281509505231584E+00    1.2864153005735124E+01
Ga   -3.2125440089498101E+00    5.5756405294624551E+00    1.3561283516944536E+01
N   -3.2195992203043398E+00    5.5612902617810400E+00    1.5482136064175712E+01
Ga   -3.2262645168085693E+00    7.4460341273819468E+00    1.6440910555462473E+01
N   -1.6289141338160031E+00    6.5002785493244861E+00    1.7374586191158851E+01
N   -4.8229934512883661E+00    8.3529003147140131E+00   -5.2784809523791186E-02
Ga   -4.8211718484695485E+00    1.0210072323490115E+01    6.1494870140275881E-01
N   -4.8212630532503820E+00    1.0210065461049711E+01    2.5240740742255907E+00
Ga   -4.8229016349971898E+00    8.3531294959182496E+00    3.2335939032068088E+00
N   -4.8229062615277236E+00    8.3528793144235891E+00    5.1411948875461322E+00
Ga   -4.8212434720922559E+00    1.0209797605616844E+01    5.8170954182994592E+00
N   -4.8212958931082488E+00    1.0210298582376669E+01    7.7102129049973405E+00
Ga   -4.8223607682207765E+00    8.3524377326439954E+00    8.3596943056132069E+00
N   -4.8210535138144781E+00    8.3514464590940172E+00    1.0251606544101069E+01
Ga   -4.8210875127342634E+00    1.0209434813196017E+01    1.0934441390569535E+01
N   -4.8230124941059946E+00    1.0212267041043861E+01    1.2850117709225668E+01
Ga   -4.8233404980949572E+00    8.3571754884089788E+00    1.3554135684105757E+01
N   -4.8204224159149520E+00    8.3655044935811738E+00    1.5461581673625840E+01
Ga   -4.8258478403989438E+00    1.0223318026841776E+01    1.6428428249050960E+01
N   -3.2195455348374051E+00    9.2791688715274940E+00    1.7360635245310842E+01
N    3.2187969988097711E+00   -5.0171622668109764E-04   -5.2841883026839620E-02
Ga    3.2206072079571162E+00    1.8566903708792841E+00    6.1496051809329821E-01
N    3.2204342842735749E+00    1.8566571020965932E+00    2.5240506163261776E+00
Ga    3.2189379778178169E+00   -1.7104980586368784E-04    3.2334899456702351E+00
N    3.2189391590935892E+00   -5.5262417723057498E-04    5.1411467498206544E+00
Ga    3.2205440894025252E+00    1.8563839835712965E+00    5.8172200689730049E+00
N    3.2206217721325494E+00    1.8563521340060294E+00    7.7096651543881576E+00
Ga    3.2196235135195814E+00   -8.7472487908530434E-04    8.3593589395311945E+00
N    3.2205792339272588E+00   -1.5262842441195884E-03    1.0250976167809871E+01
Ga    3.2203358158182698E+00    1.8568849933285752E+00    1.0937358733237470E+01
N    3.2199911483815487E+00    1.8576530836804348E+00    1.2852962153224667E+01
Ga    3.2152271321512940E+00    3.5869505126669009E-03    1.3546091392938777E+01
N    3.2018687034818560E+00   -1.2644527882287643E-02    1.5449770424806722E+01
Ga    3.2228273694937308E+00    1.8660249655948451E+00    1.6456894105499462E+01
N    4.7948619344172112E+00    9.0842544802861713E-01    1.7349032035695828E+01
N    1.6112171580359889E+00    2.7839395084907745E+00   -5.2806569229811424E-02
Ga    1.6130092312693622E+00    4.6411387113165468E+00    6.1495996523917906E-01
N    1.6128232806229039E+00    4.6411279415404509E+00    2.5240848580680999E+00
Ga    1.6113676299285131E+00    2.7843101743721643E+00    3.2334134166103148E+00
N    1.6112073440296129E+00    2.7839820551013195E+00    5.1410054723150074E+00
Ga    1.6129122517825076E+00    4.6411522833342502E+00    5.8174683473489335E+00
N    1.6125754843850884E+00    4.6416083647557294E+00    7.7102172612657931E+00
Ga    1.6106698438182276E+00    2.7836733221002272E+00    8.3580067758948520E+00
N    1.6101180902645194E+00    2.7827206410432224E+00    1.0249764135191777E+01
Ga    1.6147484126350247E+00    4.6399666353508096E+00    1.0937787025988992E+01
N    1.6148752343754791E+00    4.6398452391979825E+00    1.2852290053810025E+01
Ga    1.6145085232642071E+00    2.7855179636762530E+00    1.3557329233721360E+01
N    1.5955721230353672E+00    2.7906580066057654E+00    1.5471004863353132E+01
Ga    1.6065711476042683E+00    4.6414305649034562E+00    1.6413037376479512E+01
N    3.2004067834596630E+00    3.7261747764206095E+00    1.7368749434054784E+01
N    3.5829718794624901E-03    5.5684064173261385E+00   -5.2765206995242210E-02
Ga    5.3873395400438574E-03    7.4256337794521663E+00    6.1498931107845256E-01
N    5.2435597299504456E-03    7.4255721195716422E+00    2.5241142586738419E+00
Ga    3.6849004436550889E-03    5.5687667057309715E+00    3.2335310390763792E+00
N    3.5212331091827678E-03    5.5685557143764655E+00    5.1411980144502927E+00
Ga    5.3943963018465851E-03    7.4256440832385557E+00    5.8179085336492458E+00
N    5.4714941382488121E-03    7.4263249871379964E+00    7.7111931417737516E+00
Ga    3.3035746298055537E-03    5.5688391359316300E+00    8.3604849853935050E+00
N    2.6930039108689174E-03    5.5691913961999813E+00    1.0252710621620974E+01
Ga    7.1348542112973706E-03    7.4277505753143007E+00    1.0938697859119118E+01
N    8.0906326187077642E-03    7.4307120027887361E+00    1.2857313804900617E+01
Ga    1.1289965061774690E-02    5.5708470547472988E+00    1.3541452572155833E+01
N    6.7585405776871632E-03    5.5649535403715378E+00    1.5440852585645345E+01
Ga    8.3138437255256790E-03    7.3971648167678339E+00    1.6402989638996491E+01
N    1.6080978086816948E+00    6.4933095258535429E+00    1.7376101275998536E+01
N   -1.6040382456084872E+00    8.3529004049265421E+00   -5.2804946086813777E-02
Ga   -1.6022010724321265E+00    1.0210070791507984E+01    6.1492782700426307E-01
N   -1.6023668191293685E+00    1.0210047461106457E+01    2.5240300868779397E+00
Ga   -1.6039095354097530E+00    8.3532398768164704E+00    3.2334793515872535E+00
N   -1.6039260256030086E+00    8.3529182778552062E+00    5.1411616578154424E+00
Ga   -1.6021003626249899E+00    1.0209863256495455E+01    5.8173097127929934E+00
N   -1.6015170795572884E+00    1.0209980190728521E+01    7.7102834715274557E+00
Ga   -1.6040922268927966E+00    8.3536281378673820E+00    8.3614406546141655E+00
N   -1.6038524612275669E+00    8.3545402051573063E+00    1.0254254384294635E+01
Ga   -1.6008609685405497E+00    1.0211690734573764E+01    1.0940317134354030E+01
N   -1.5970676213480355E+00    1.0217067220159951E+01    1.2860141911871956E+01
Ga   -1.5959433355730310E+00    8.3617648473751043E+00    1.3555301494472724E+01
N   -1.6085731022652825E+00    8.3607249110548327E+00    1.5469432720092607E+01
Ga   -1.6263133284974254E+00    1.0229938899894838E+01    1.6427233341935690E+01
N   -3.4570298129558238E-02    9.1994547525498902E+00    1.7380112731055263E+01
N    6.4377868713293385E+00   -5.2595142964638486E-04   -5.2830196851334936E-02
Ga    6.4396200933584646E+00    1.8566956200171365E+00    6.1506112600357998E-01
N    6.4394887293061736E+00    1.8566878041195805E+00    2.5241179210179743E+00
Ga    6.4379292469141616E+00   -2.1900730078250731E-04    3.2334202210854408E+00
N    6.4378104336688722E+00   -6.8180613823709188E-04    5.1409638486420679E+00
Ga    6.4396085087021406E+00    1.8561881704105212E+00    5.8169617789523409E+00
N    6.4399898489466700E+00    1.8558192827939597E+00    7.7095177191858051E+00
Ga    6.4380997917560094E+00   -6.7428470021957236E-04    8.3610469999731993E+00
N    6.4388513885750491E+00   -8.1331582397967160E-04    1.0253201368492038E+01
Ga    6.4414908445514651E+00    1.8560488391734189E+00    1.0942040777336514E+01
N    6.4438950524670604E+00    1.8587553884972070E+00    1.2862050308819244E+01
Ga    6.4420196688755507E+00    6.8624068672892800E-03    1.3563015168713234E+01
N    6.4422858816542723E+00   -1.1132826752308676E-02    1.5477848143891871E+01
Ga    6.4173666411256951E+00    1.8737817923105307E+00    1.6440516860365474E+01
N    8.0269294625023608E+00    9.3056037822822102E-01    1.7361281002094529E+01
N    4.8301673481502654E+00    2.7839333327830338E+00   -5.2777602465550459E-02
Ga    4.8320111212435606E+00    4.6411571373456226E+00    6.1499139930666136E-01
N    4.8318699674854715E+00    4.6411410999209579E+00    2.5240917515769170E+00
Ga    4.8302755201221759E+00    2.7842623904618500E+00    3.2334521837303751E+00
N    4.8302153906071972E+00    2.7838748272406750E+00    5.1410221329552011E+00
Ga    4.8317711671496060E+00    4.6411135690924317E+00    5.8167289964295792E+00
N    4.8317236660425840E+00    4.6415488365437056E+00    7.7095476794298774E+00
Ga    4.8309101341845455E+00    2.7838103113821187E+00    8.3586751132540620E+00
N    4.8321811056462085E+00    2.7819869054588966E+00    1.0250321370401039E+01
Ga    4.8317420788901382E+00    4.6418650626768043E+00    1.0934022565138418E+01
N    4.8309962055940963E+00    4.6445325148370227E+00    1.2846661676711463E+01
Ga    4.8291904254515465E+00    2.7901654991919442E+00    1.3549623650039303E+01
N    4.8257163319005594E+00    2.8112162609223939E+00    1.5453057181648505E+01
Ga    4.8291944784731218E+00    4.6431341905926180E+00    1.6415192409341454E+01
N    6.4317825860714359E+00    3.7229389691628136E+00    1.7366827706383383E+01
N    3.2225570898862110E+00    5.5684134104411589E+00   -5.2817164386392987E-02
Ga    3.2243957104448877E+00    7.4256218339947155E+00    6.1490041865289202E-01
N    3.2241768104738533E+00    7.4255328235998697E+00    2.5239958235879056E+00
Ga    3.2226676428474135E+00    5.5687817260909229E+00    3.2334231728646805E+00
N    3.2224101322326688E+00    5.5685393058915427E+00    5.1409160128656834E+00
Ga    3.2242459118793634E+00    7.4256590558737887E+00    5.8168860909078255E+00
N    3.2239856401723603E+00    7.4265177935323026E+00    7.7093331708492165E+00
Ga    3.2223496394505449E+00    5.5699565622820630E+00    8.3589409846849225E+00
N    3.2217797707593006E+00    5.5711792069901565E+00    1.0250214735565196E+01
Ga    3.2246045850248795E+00    7.4264118662659735E+00    1.0942151391113439E+01
N    3.2241367761201549E+00    7.4299640364736081E+00    1.2860874935953808E+01
Ga    3.2236423871284337E+00    5.5680653306404544E+00    1.3550694639865934E+01
N    3.2154926049527988E+00    5.5774990859172631E+00    1.5458193813441220E+01
Ga    3.2205313942134968E+00    7.4327500988655624E+00    1.6456202835517505E+01
N    4.8275843995193188E+00    6.4941796142530466E+00    1.7373757405705316E+01
N    1.6149587092859505E+00    8.3529084476670583E+00   -5.2817585318803456E-02
Ga    1.6167930666967176E+00    1.0210072292152498E+01    6.1497427621922129E-01
N    1.6166171296441374E+00    1.0210100700956566E+01    2.5239975747834080E+00
Ga    1.6150916037494714E+00    8.3532878003152362E+00    3.2334732738993517E+00
N    1.6148161589012460E+00    8.3530278111457914E+00    5.1410845461192540E+00
Ga    1.6166134016688287E+00    1.0209964520300401E+01    5.8173349535322467E+00
N    1.6164393846291192E+00    1.0210241049353002E+01    7.7101062996825940E+00
Ga    1.6158029110890737E+00    8.3536059074023061E+00    8.3604770611920802E+00
N    1.6165298604365792E+00    8.3550310070840439E+00    1.0252596008244128E+01
Ga    1.6163165424803656E+00    1.0210602917087682E+01    1.0941545990603560E+01
N    1.6164310991163504E+00    1.0212910816975279E+01    1.2861197982595771E+01
Ga    1.6170942336598488E+00    8.3565487248243997E+00    1.3556429285535243E+01
N    1.6152654536002751E+00    8.3741722847799593E+00    1.5473923784055035E+01
Ga    1.6429724910463632E+00    1.0227038688510509E+01    1.6388775838711805E+01
N    3.1894096685178734E+00    9.2958065559161440E+00    1.7377553336855613E+01
N    9.6567555290027141E+00   -5.2253599754839336E-04   -5.2829698287149250E-02
Ga    9.6585904328984977E+00    1.8566979296305022E+00    6.1493829427097935E-01
N    9.6585116806803111E+00    1.8566944344214968E+00    2.5241199339850908E+00
Ga    9.6568341501561683E+00   -2.3708071317365362E-04    3.2335343643443046E+00
N    9.6567293504475149E+00   -5.2657599483900636E-04    5.1411899777548022E+00
Ga    9.6587079292068250E+00    1.8563629386504132E+00    5.8176262802465413E+00
N    9.6593346426600970E+00    1.8565903994252984E+00    7.7109146000430924E+00
Ga    9.6563847510653904E+00   -1.1030066737940636E-03    8.3600784359712978E+00
N    9.6562120863513794E+00   -1.9019854729531167E-03    1.0252172521265388E+01
Ga    9.6605375515415073E+00    1.8577633755697369E+00    1.0935681040387111E+01
N    9.6639173810958354E+00    1.8590955892922598E+00    1.2850632065370172E+01
Ga    9.6645662662321090E+00    3.3764492736515200E-03    1.3539839559567197E+01
N    9.6627522387523683E+00    6.2345883298508941E-03    1.5442081769185050E+01
Ga    9.6599355582727569E+00    1.8350450441498236E+00    1.6415902596873437E+01
N    1.1268165172413937E+01    9.2662203904724716E-01    1.7366387532813921E+01
N    8.0491654646829947E+00    2.7839359756513313E+00   -5.2777386530228322E-02
Ga    8.0509963162543006E+00    4.6411588664199419E+00    6.1495380643986863E-01
N    8.0509135111854455E+00    4.6411622000964528E+00    2.5240895671203267E+00
Ga    8.0493032983224673E+00    2.7842711621062723E+00    3.2335296983691642E+00
N    8.0493198439313556E+00    2.7839057216283640E+00    5.1411885050204651E+00
Ga    8.0512009072047608E+00    4.6411287871394205E+00    5.8168512453007901E+00
N    8.0521898826738383E+00    4.6415824551896012E+00    7.7095111320511922E+00
Ga    8.0489606761289068E+00    2.7844576372226570E+00    8.3587414068586376E+00
N    8.0493288462372430E+00    2.7848683887690711E+00    1.0251808334361913E+01
Ga    8.0532631539653288E+00    4.6420041816799174E+00    1.0941608192908044E+01
N    8.0563117720324122E+00    4.6469597647102283E+00    1.2860565684266614E+01
Ga    8.0601612033536369E+00    2.7874665763632436E+00    1.3549060657112786E+01
N    8.0397582603530839E+00    2.7995837134764323E+00    1.5465562717770210E+01
Ga    8.0210444452886769E+00    4.6549102296577090E+00    1.6410867799326290E+01
N    9.6203497931041024E+00    3.6453983381486865E+00    1.7362348350951528E+01
N    6.4415490100335102E+00    5.5684184294117154E+00   -5.2775820581464863E-02
Ga    6.4433686137651422E+00    7.4256177452724996E+00    6.1500902139243496E-01
N    6.4432822054299006E+00    7.4255745858997511E+00    2.5240400167313140E+00
Ga    6.4416745457564755E+00    5.5688289712571919E+00    3.2335002715390395E+00
N    6.4416622966853705E+00    5.5684422251425936E+00    5.1410600718418866E+00
Ga    6.4432722792766350E+00    7.4256986275804904E+00    5.8174537900990293E+00
N    6.4433142531552221E+00    7.4260780715948567E+00    7.7100855708166440E+00
Ga    6.4424672495276711E+00    5.5683869810495006E+00    8.3586731697294887E+00
N    6.4445826632551606E+00    5.5674179552249754E+00    1.0250423974684438E+01
Ga    6.4436652119593871E+00    7.4250491541523775E+00    1.0939788602345839E+01
N    6.4439816531033900E+00    7.4307882220684656E+00    1.2854475707329861E+01
Ga    6.4390757150503113E+00    5.5718743320432527E+00    1.3546715651246780E+01
N    6.4200881296177048E+00    5.5764477460200048E+00    1.5448923717729150E+01
Ga    6.4369199682077634E+00    7.4458513280112575E+00    1.6446184859679455E+01
N    8.0211449462869346E+00    6.4944952324152245E+00    1.7360384270738983E+01
N    4.8339476897011053E+00    8.3528863054181830E+00   -5.2802659445449339E-02
Ga    4.8357675049896471E+00    1.0210060585081385E+01    6.1497668699504326E-01
N    4.8356162042861408E+00    1.0210130096305042E+01    2.5240062327864958E+00
Ga    4.8340198162940524E+00    8.3531947638969157E+00    3.2334493447819348E+00
N    4.8339440676200525E+00    8.3529258793910497E+00    5.1409407231588267E+00
Ga    4.8356020857511783E+00    1.0209781892131014E+01    5.8173027565810997E+00
N    4.8357648642865909E+00    1.0209990185549049E+01    7.7102058250345271E+00
Ga    4.8334866280874138E+00    8.3523359390675047E+00    8.3601232643882799E+00
N    4.8334923599111281E+00    8.3511925781903642E+00    1.0250981751368338E+01
Ga    4.8368510407852749E+00    1.0207258419212394E+01    1.0934337632294444E+01
N    4.8378200319360323E+00    1.0205388688834516E+01    1.2851780566218100E+01
Ga    4.8377824947966150E+00    8.3518234574539587E+00    1.3559614525320512E+01
N    4.8161099651037622E+00    8.3620134601804832E+00    1.5471170984263365E+01
Ga    4.8246738295927170E+00    1.0219380294865056E+01    1.6421377471067796E+01
N    6.4207325833440869E+00    9.2855355571545495E+00    1.7366703297882015E+01
H    1.3781561128260602E-06   -6.4652932564718106E-05   -1.0794367678358161E+00
H   -1.6076291733466554E+00    2.7844036787668620E+00   -1.0793955654394494E+00
H   -3.2152139204287415E+00    5.5688460492476866E+00   -1.0794003859743144E+00
H   -4.8228362553753712E+00    8.3532898104871158E+00   -1.0793748290399816E+00
H    3.2189775716300564E+00   -6.3741273595899434E-05   -1.0794147969605574E+00
H    1.6113897668460702E+00    2.7844015168846337E+00   -1.0793934107345864E+00
H    3.7662416467487106E-03    5.5688300878026507E+00   -1.0793650605467364E+00
H   -1.6038491395815866E+00    8.3532928726037472E+00   -1.0793997536784490E+00
H    6.4379614169347867E+00   -6.4750788230893454E-05   -1.0794285847954324E+00
H    4.8303673078988858E+00    2.7843986891187842E+00   -1.0793873131384883E+00
H    3.2227480511124176E+00    5.5688108171093793E+00   -1.0794109448722105E+00
H    1.6151295250190028E+00    8.3532994958305604E+00   -1.0794218532448356E+00
H    9.6569527206394685E+00   -5.4603195984907738E-05   -1.0794148870839546E+00
H    8.0493646360465689E+00    2.7843802504616866E+00   -1.0793873960063916E+00
H    6.4417323369633932E+00    5.5688361266081774E+00   -1.0793737034492370E+00
H    4.8341581786272467E+00    8.3532848342016806E+00   -1.0794030851054588E+00
     &END COORD
     &KIND H
       BASIS_SET DZVP-MOLOPT-SR-GTH-q1
       POTENTIAL GTH-PBE-q1
       &POTENTIAL
 1
  0.2000000000000000E+00 2 -0.4178900440000000E+01  0.7244633100000000E+00
 0
         # Potential name:  GTH-PBE-Q1  for symbol:  H
         # Potential read from the potential filename: GTH_POTENTIALS
       &END POTENTIAL
     &END KIND
     &KIND N
       BASIS_SET DZVP-MOLOPT-SR-GTH
       POTENTIAL GTH-PBE-q5
       &POTENTIAL
 2 3
  0.2837905100000000E+00 2 -0.1241522559000000E+02  0.1868095920000000E+01
 2
  0.2554050000000000E+00 1  0.1363026257000000E+02
  0.2454945300000000E+00 0
         # Potential name:  GTH-PBE-Q5  for symbol:  N
         # Potential read from the potential filename: GTH_POTENTIALS
       &END POTENTIAL
     &END KIND
     &KIND Ga
       BASIS_SET DZVP-MOLOPT-SR-GTH
       POTENTIAL GTH-PBE-q13
       &POTENTIAL
 2 1 10
  0.4900000000000000E+00 0
 3
  0.4167772300000000E+00 3  0.1047568975000000E+02 -0.4921768140000000E+01  0.8707055900000000E+00
  0.7770178090000000E+01 -0.2248152160000000E+01
  0.1784415450000000E+01
  0.5696265200000000E+00 2  0.1777985340000000E+01  0.1958597600000000E+00
 -0.2317443900000000E+00
  0.2381265000000000E+00 1 -0.1624868022000000E+02
         # Potential name:  GTH-PBE-Q13  for symbol:  GA
         # Potential read from the potential filename: GTH_POTENTIALS
       &END POTENTIAL
     &END KIND
     &TOPOLOGY
       NUMBER_OF_ATOMS  256
       MULTIPLE_UNIT_CELL  1 1 1
     &END TOPOLOGY
   &END SUBSYS
 &END FORCE_EVAL
