 # Version information for this restart file 
 # current date 2019-06-09 07:59:13.454
 # current working dir /lustre03/project/6037349/rzk/GaN-carbene/444-addat/00-Surface/UKS_SYMM
 # Program compiled at                              Sun Apr  7 00:48:11 EDT 2019
 # Program compiled on                          beluga2.int.ets1.calculquebec.ca
 # Program compiled for                        Beluga-Linux-x86-64-intel-openmpi
 # Source code revision number                                         svn:18619
 &GLOBAL
   PRINT_LEVEL  MEDIUM
   PROJECT_NAME TEST
   RUN_TYPE  CELL_OPT
 &END GLOBAL
 &MOTION
   &CELL_OPT
     MAX_ITER  300
     STEP_START_VAL  47
     EXTERNAL_PRESSURE     1.0000000000000000E+00
     KEEP_ANGLES  T
     KEEP_SYMMETRY  T
     CONSTRAINT  Z
     PRESSURE_TOLERANCE     5.0000000000000000E+02
   &END CELL_OPT
 &END MOTION
 &FORCE_EVAL
   METHOD  QS
   STRESS_TENSOR  ANALYTICAL
   &DFT
     BASIS_SET_FILE_NAME BASIS_MOLOPT
     POTENTIAL_FILE_NAME GTH_POTENTIALS
     UKS  T
     SURFACE_DIPOLE_CORRECTION  T
     SURF_DIP_DIR  Z
     &SCF
       MAX_SCF  100
       EPS_SCF     5.0000000000000004E-06
       &OT  T
         PRECONDITIONER  FULL_ALL
       &END OT
       &OUTER_SCF  T
         OPTIMIZER  NONE
         EPS_SCF     5.0000000000000004E-06
         MAX_SCF  4
       &END OUTER_SCF
       &PRINT
         &RESTART  OFF
           BACKUP_COPIES  1
           &EACH
             JUST_ENERGY  0
             QS_SCF  0
             MD  20
           &END EACH
         &END RESTART
       &END PRINT
     &END SCF
     &QS
       EPS_DEFAULT     1.0000000000000000E-14
       METHOD  GPW
     &END QS
     &MGRID
       NGRIDS  5
       CUTOFF     1.2000000000000000E+03
     &END MGRID
     &XC
       DENSITY_CUTOFF     1.0000000000000000E-10
       GRADIENT_CUTOFF     1.0000000000000000E-10
       TAU_CUTOFF     1.0000000000000000E-10
       &XC_FUNCTIONAL  NO_SHORTCUT
         &PBE  T
         &END PBE
       &END XC_FUNCTIONAL
       &VDW_POTENTIAL
         POTENTIAL_TYPE  PAIR_POTENTIAL
         &PAIR_POTENTIAL
           R_CUTOFF     1.0000000000000004E+01
           TYPE  DFTD3
           PARAMETER_FILE_NAME dftd3.dat
           REFERENCE_FUNCTIONAL PBE
           EPS_CN     9.9999999999999995E-07
           CALCULATE_C9_TERM  T
           REFERENCE_C9_TERM  T
           LONG_RANGE_CORRECTION  F
           VERBOSE_OUTPUT  F
         &END PAIR_POTENTIAL
       &END VDW_POTENTIAL
     &END XC
   &END DFT
   &SUBSYS
     &CELL
       A     1.2830855524523381E+01    0.0000000000000000E+00    0.0000000000000000E+00
       B    -6.4137600884612045E+00    1.1108958340772320E+01    0.0000000000000000E+00
       C     0.0000000000000000E+00    0.0000000000000000E+00    3.2000000000000000E+01
       MULTIPLE_UNIT_CELL  1 1 1
       &CELL_REF
         A     1.2982353780853531E+01    0.0000000000000000E+00    0.0000000000000000E+00
         B    -6.4911768904267628E+00    1.1243048175136114E+01    0.0000000000000000E+00
         C     0.0000000000000000E+00    0.0000000000000000E+00    3.2000000000000000E+01
         MULTIPLE_UNIT_CELL  1 1 1
       &END CELL_REF
     &END CELL
     &COORD
N    3.6032232724031720E-04   -2.2346962756580952E-04   -2.0669310556751580E-01
Ga    7.0264132316692285E-04    1.8513951786518483E+00    4.7351723692423775E-01
N    7.5365647723439036E-04    1.8516854320894607E+00    2.3904598544011599E+00
Ga    5.0545024442217971E-04   -1.1502072595323896E-06    3.1191453811637291E+00
N    7.8457697005855566E-04    1.9518717812534454E-04    5.0404613757740195E+00
Ga    1.1487702858935661E-03    1.8519775604025290E+00    5.7559337771125900E+00
N    1.5642222519426190E-03    1.8534279754750143E+00    7.6788255765553082E+00
Ga    1.1363845284940949E-03    2.2185455935629763E-03    8.3918683480010063E+00
N    1.3640973085175677E-03    4.5625395120171726E-03    1.0315989062707800E+01
Ga    2.8698307067872844E-03    1.8563266835229524E+00    1.1030367168675687E+01
N    3.6222707570956569E-03    1.8593748814568687E+00    1.2957318502602099E+01
Ga    1.7321225651983887E-03    5.4094392995392270E-03    1.3669038341955059E+01
N   -7.1284229791030822E-03    2.5617314862972120E-03    1.5587118266898539E+01
Ga   -1.3811570271512865E-03    1.8499862231557824E+00    1.6655547051994205E+01
N    1.5953786103795242E+00    9.1803924498149903E-01    1.7529862105018960E+01
N   -1.6031147255474556E+00    2.7770621673692140E+00   -2.0656001802880333E-01
Ga   -1.6026964656027018E+00    4.6286773358417275E+00    4.7362350828511190E-01
N   -1.6025887719505234E+00    4.6289990650390402E+00    2.3905856735772679E+00
Ga   -1.6029826044281332E+00    2.7773923039226309E+00    3.1194674335030848E+00
N   -1.6027528245969831E+00    2.7777225642764738E+00    5.0407662360017618E+00
Ga   -1.6022221844262583E+00    4.6294471707295264E+00    5.7566789195610797E+00
N   -1.6017328058098341E+00    4.6309118410709509E+00    7.6797637039990496E+00
Ga   -1.6015920552762650E+00    2.7795137194446702E+00    8.3926682295310879E+00
N   -1.6006311916034595E+00    2.7817018429761364E+00    1.0316859565534306E+01
Ga   -1.6012389135747840E+00    4.6330854302966769E+00    1.1030633607404681E+01
N   -1.6012296289773318E+00    4.6344877007675240E+00    1.2956690898260259E+01
Ga   -1.6013108542916401E+00    2.7826429601551403E+00    1.3675419605647367E+01
N   -1.5951513204371472E+00    2.7857161307703597E+00    1.5600771441070655E+01
Ga   -1.6047237478653764E+00    4.6261132622446226E+00    1.6606231124901452E+01
N   -1.7916141964490914E-02    3.7049523954616830E+00    1.7533033523404054E+01
N   -3.2065224561170003E+00    5.5542568832423331E+00   -2.0651137018912274E-01
Ga   -3.2060865488448318E+00    7.4058890532463639E+00    4.7363882076284697E-01
N   -3.2059050797686406E+00    7.4061957010731296E+00    2.3905852078353376E+00
Ga   -3.2063168202690142E+00    5.5546266170049661E+00    3.1195803056275127E+00
N   -3.2060390792517763E+00    5.5549358557940796E+00    5.0408589613409793E+00
Ga   -3.2055103850122482E+00    7.4066046096503699E+00    5.7565362212045432E+00
N   -3.2048527460359733E+00    7.4079609182993549E+00    7.6795828972556883E+00
Ga   -3.2052723164411216E+00    5.5567145422427240E+00    8.3935261402551706E+00
N   -3.2047767904416773E+00    5.5587002530341536E+00    1.0317786115432462E+01
Ga   -3.2043947690349199E+00    7.4104534489741347E+00    1.1030580326363497E+01
N   -3.2039078483859731E+00    7.4139287868059851E+00    1.2956577833927025E+01
Ga   -3.2046163371039862E+00    5.5636601206131449E+00    1.3677792264834894E+01
N   -3.2088089340332884E+00    5.5421495141150077E+00    1.5598362678205351E+01
Ga   -3.2305059926005515E+00    7.4034916194326170E+00    1.6635942765568618E+01
N   -1.6233541237662104E+00    6.4703212671105250E+00    1.7521875528151035E+01
N   -4.8099270481391967E+00    8.3314274386464415E+00   -2.0660692344373899E-01
Ga   -4.8095573006985903E+00    1.0183112103469968E+01    4.7344344304362201E-01
N   -4.8094168520046132E+00    1.0183406922299527E+01    2.3903711823628337E+00
Ga   -4.8097249248896761E+00    8.3318057547476396E+00    3.1193036443210143E+00
N   -4.8093846502443425E+00    8.3320430844662248E+00    5.0406020149854243E+00
Ga   -4.8090560398963271E+00    1.0183752939773273E+01    5.7563702082024717E+00
N   -4.8085198535389742E+00    1.0185102221341461E+01    7.6795083308017569E+00
Ga   -4.8088709086591646E+00    8.3332754237832773E+00    8.3921903487041352E+00
N   -4.8085027837257250E+00    8.3346998418576614E+00    1.0316197777335594E+01
Ga   -4.8082766763829206E+00    1.0187161751343186E+01    1.1026308156277317E+01
N   -4.8091040749583804E+00    1.0189384449591172E+01    1.2949914457645555E+01
Ga   -4.8087911419131641E+00    8.3407948854007437E+00    1.3673579743014807E+01
N   -4.8147828675666267E+00    8.3405888832599064E+00    1.5593014688351650E+01
Ga   -4.8216405332868764E+00    1.0191401712772436E+01    1.6615396536916531E+01
N   -3.2288681692588201E+00    9.2493133047341907E+00    1.7516748630471774E+01
N    3.2081062989698417E+00   -2.5263852515894787E-04   -2.0663304107671451E-01
Ga    3.2084937271374669E+00    1.8513794457878920E+00    4.7350836242446442E-01
N    3.2086396710515013E+00    1.8516767917586479E+00    2.3904703899775788E+00
Ga    3.2082831474264188E+00    2.5908823831617928E-05    3.1193324965533500E+00
N    3.2086147591576260E+00    2.1425502996755716E-04    5.0406668013162825E+00
Ga    3.2089728489048728E+00    1.8519730771709657E+00    5.7561011017716828E+00
N    3.2094275451515393E+00    1.8532079638369761E+00    7.6790760866117749E+00
Ga    3.2094270695921630E+00    2.0580192222336966E-03    8.3926427295478376E+00
N    3.2100912944582252E+00    4.0208317640684317E-03    1.0316698984430296E+01
Ga    3.2096362565240564E+00    1.8557217021617283E+00    1.1029922353190198E+01
N    3.2101013404171939E+00    1.8582214180599814E+00    1.2955813931216902E+01
Ga    3.2073084268479524E+00    6.1245131592445627E-03    1.3670401301149871E+01
N    3.1939098994996811E+00   -7.5202981184786452E-03    1.5588906099749954E+01
Ga    3.2067915888238625E+00    1.8554863444671910E+00    1.6660581697360936E+01
N    4.7890010129262679E+00    9.0700206528389438E-01    1.7520714038507492E+01
N    1.6046183027269354E+00    2.7769953994378391E+00   -2.0659107944000565E-01
Ga    1.6049691051835826E+00    4.6286636831941470E+00    4.7346173455775414E-01
N    1.6050571986825597E+00    4.6289688621656806E+00    2.3904148310362174E+00
Ga    1.6047739891915767E+00    2.7773026668448391E+00    3.1191870581140169E+00
N    1.6050612844421344E+00    2.7774828674399594E+00    5.0404397942769243E+00
Ga    1.6053686581298954E+00    4.6291551170132310E+00    5.7562877783548352E+00
N    1.6057074611915618E+00    4.6303643347216479E+00    7.6793015305542207E+00
Ga    1.6056562262397742E+00    2.7786851832034301E+00    8.3919712065651986E+00
N    1.6062760318062264E+00    2.7803057078111615E+00    1.0316020272052182E+01
Ga    1.6068332855238079E+00    4.6314091681353755E+00    1.1028204677196559E+01
N    1.6068433236720674E+00    4.6323711283412452E+00    1.2953062674970804E+01
Ga    1.6087912891674316E+00    2.7830373787961080E+00    1.3679837282513255E+01
N    1.5996519456097003E+00    2.7829402305555520E+00    1.5604097583749347E+01
Ga    1.5903763109720688E+00    4.6307603486466569E+00    1.6618686333275733E+01
N    3.1905621670086890E+00    3.7130834536891411E+00    1.7524560848402079E+01
N    1.1344931113497284E-03    5.5542803607216662E+00   -2.0661681958576483E-01
Ga    1.5591532592693679E-03    7.4059066189134315E+00    4.7360560843649246E-01
N    1.6762869284820802E-03    7.4062332246952849E+00    2.3905752430509710E+00
Ga    1.3348422553322093E-03    5.5546133790694805E+00    3.1194529510761830E+00
N    1.5893861620953575E-03    5.5549565324767656E+00    5.0407718300681834E+00
Ga    2.1023455407737177E-03    7.4066481997108848E+00    5.7566317965419733E+00
N    2.6810656969958420E-03    7.4080607234785942E+00    7.6798027251004140E+00
Ga    2.2760392418054221E-03    5.5564382003119652E+00    8.3931359146754421E+00
N    2.8853265497881279E-03    5.5585423251350994E+00    1.0317459840132315E+01
Ga    4.0014013772389657E-03    7.4113365830005282E+00    1.1027926360009953E+01
N    4.9221957141659970E-03    7.4137207963950553E+00    1.2953345319204297E+01
Ga    5.1993866017440065E-03    5.5622410782643845E+00    1.3666471355888437E+01
N   -1.5397858902280663E-03    5.5508187116851255E+00    1.5584359975610003E+01
Ga   -1.0145432014532453E-02    7.3866416834305184E+00    1.6625421047125648E+01
N    1.5912577572963433E+00    6.4731364276405978E+00    1.7529902088928548E+01
N   -1.6022561729100928E+00    8.3314953274513890E+00   -2.0656321560874732E-01
Ga   -1.6018230539499574E+00    1.0183136054348235E+01    4.7357168055406573E-01
N   -1.6016346846400047E+00    1.0183461787263651E+01    2.3905471512178189E+00
Ga   -1.6020463137745866E+00    8.3319112611958488E+00    3.1195403327629330E+00
N   -1.6017148654119002E+00    8.3322508925924570E+00    5.0408948754659262E+00
Ga   -1.6011934329334514E+00    1.0183964300963353E+01    5.7566489668235343E+00
N   -1.6005075662513095E+00    1.0185409346430601E+01    7.6797692800402144E+00
Ga   -1.6011621771914044E+00    8.3339956594230422E+00    8.3930174696965576E+00
N   -1.6006764669667082E+00    8.3360952411779046E+00    1.0317339613826853E+01
Ga   -1.5999879110321735E+00    1.0187959242670166E+01    1.1030555557443950E+01
N   -1.5993843158910750E+00    1.0190650921322506E+01    1.2956266281040065E+01
Ga   -1.5981630500898145E+00    8.3393645025119465E+00    1.3674440072383087E+01
N   -1.6142907294701145E+00    8.3306831435008579E+00    1.5596931102682882E+01
Ga   -1.6207950920568854E+00    1.0186933195861881E+01    1.6629737723046915E+01
N   -2.4108476689007636E-02    9.2177629845511646E+00    1.7511215957717415E+01
N    6.4157783253167810E+00   -1.8309816885816730E-04   -2.0654702098681485E-01
Ga    6.4162141205557415E+00    1.8514231742807739E+00    4.7364584200130744E-01
N    6.4163785846512607E+00    1.8517369407129038E+00    2.3906051849702310E+00
Ga    6.4159847550606255E+00    1.7497308992552707E-04    3.1194952031788001E+00
N    6.4162854428352372E+00    5.4560726170453373E-04    5.0408531414671041E+00
Ga    6.4167275995632531E+00    1.8521944008211388E+00    5.7567374419994817E+00
N    6.4173091323571816E+00    1.8535804065426147E+00    7.6798076503756176E+00
Ga    6.4170187118783497E+00    2.3966690853237048E-03    8.3936240413756860E+00
N    6.4175593428133970E+00    4.4467290614057329E-03    1.0317966055191663E+01
Ga    6.4176920346905817E+00    1.8562086211495277E+00    1.1031086915553045E+01
N    6.4184535761118262E+00    1.8593564853512528E+00    1.2957667633177516E+01
Ga    6.4173499502175533E+00    9.0527012773661229E-03    1.3677929420168534E+01
N    6.4131048080600301E+00   -1.1890672237975809E-02    1.5599334508327631E+01
Ga    6.3927815874698952E+00    1.8481699167712937E+00    1.6638009357388952E+01
N    8.0002537203608632E+00    9.1353904995648705E-01    1.7522488450345037E+01
N    4.8123875349958967E+00    2.7769868639587103E+00   -2.0660084840035983E-01
Ga    4.8127525013264520E+00    4.6286279828030494E+00    4.7348618076427273E-01
N    4.8128660239199021E+00    4.6289065952046489E+00    2.3904388027879224E+00
Ga    4.8125753535110265E+00    2.7773216722536804E+00    3.1193856149627162E+00
N    4.8128844766562260E+00    2.7775072113957764E+00    5.0407029284128688E+00
Ga    4.8132159307234552E+00    4.6292059456384616E+00    5.7564556523418249E+00
N    4.8136246429894660E+00    4.6305442355726436E+00    7.6796026138289193E+00
Ga    4.8132330332968465E+00    2.7788426715529204E+00    8.3925813827135354E+00
N    4.8136981850286400E+00    2.7802268346502843E+00    1.0316723842227097E+01
Ga    4.8137429439920556E+00    4.6327237702467992E+00    1.1026480515450267E+01
N    4.8128779699502147E+00    4.6348555288572406E+00    1.2950010012520060E+01
Ga    4.8133895854879611E+00    2.7864280861047397E+00    1.3674794542275260E+01
N    4.8079583523930793E+00    2.7865970471330770E+00    1.5594050800909432E+01
Ga    4.8025322297375439E+00    4.6350265026044646E+00    1.6615939737841156E+01
N    6.3963123468599594E+00    3.6942282704769531E+00    1.7517493656606074E+01
N    3.2088963465904121E+00    5.5542296795567943E+00   -2.0663190507987683E-01
Ga    3.2092446218624842E+00    7.4058739647700511E+00    4.7353907686957430E-01
N    3.2093118162097669E+00    7.4061607995035112E+00    2.3904692225016020E+00
Ga    3.2090545398897081E+00    5.5544763885670845E+00    3.1192799369102224E+00
N    3.2092832321466789E+00    5.5546478219668884E+00    5.0405389141186783E+00
Ga    3.2097032195749686E+00    7.4064964511510594E+00    5.7557820259823664E+00
N    3.2100791682011893E+00    7.4078437173797811E+00    7.6786368046200781E+00
Ga    3.2095329904474843E+00    5.5565625538073595E+00    8.3920045498290019E+00
N    3.2096159666370485E+00    5.5589681789255234E+00    1.0316038497336367E+01
Ga    3.2112569854550683E+00    7.4107092107801202E+00    1.1029851106675132E+01
N    3.2122114103997950E+00    7.4138439978250252E+00    1.2956896201562044E+01
Ga    3.2100947686418899E+00    5.5598498812729060E+00    1.3668898870234990E+01
N    3.2017395416996801E+00    5.5569243142609492E+00    1.5587451722867005E+01
Ga    3.2074043006435820E+00    7.4029390966696509E+00    1.6654112943213484E+01
N    4.8048718025224071E+00    6.4719962389521379E+00    1.7528485717759079E+01
N    1.6054253310488644E+00    8.3315054867492453E+00   -2.0657433964039554E-01
Ga    1.6058383216432104E+00    1.0183163107189664E+01    4.7354817825366174E-01
N    1.6059497754197685E+00    1.0183515431586098E+01    2.3905186106371943E+00
Ga    1.6055873668859826E+00    8.3319333048968094E+00    3.1193302856793150E+00
N    1.6058083513781480E+00    8.3323245049858308E+00    5.0406643443184773E+00
Ga    1.6063208851059028E+00    1.0184026045164844E+01    5.7565991786338371E+00
N    1.6067877910308539E+00    1.0185514333166678E+01    7.6797391860807425E+00
Ga    1.6069269181484984E+00    8.3339527597861167E+00    8.3924019187738939E+00
N    1.6078941166052858E+00    8.3362280762858951E+00    1.0316642094421981E+01
Ga    1.6071764879197101E+00    1.0187545362192134E+01    1.1030550483506948E+01
N    1.6069676432568833E+00    1.0189075856017874E+01    1.2956847748169407E+01
Ga    1.6069047464447055E+00    8.3369304222624354E+00    1.3675024289168077E+01
N    1.6128047701186135E+00    8.3396521633778278E+00    1.5600532000090981E+01
Ga    1.6027353480740418E+00    1.0179172200551296E+01    1.6606095891991174E+01
N    3.1906942117563348E+00    9.2578880536263846E+00    1.7531956615116659E+01
N    9.6234419804242712E+00   -1.7910918867163265E-04   -2.0665959567298092E-01
Ga    9.6238590605266250E+00    1.8514383991061081E+00    4.7355719354053716E-01
N    9.6239632206335379E+00    1.8517718617340322E+00    2.3905471878351459E+00
Ga    9.6236385381496419E+00    1.8529258559334998E-04    3.1194027084204063E+00
N    9.6238595549997772E+00    5.6321058421533461E-04    5.0407775501148100E+00
Ga    9.6243582984721474E+00    1.8522704257624227E+00    5.7567875018704067E+00
N    9.6248568796416709E+00    1.8538052761534740E+00    7.6800267638577830E+00
Ga    9.6245233652962945E+00    2.2636004737295740E-03    8.3930362343149341E+00
N    9.6249417065368128E+00    4.3354795721730691E-03    1.0317484286139779E+01
Ga    9.6262680584454543E+00    1.8572615763041218E+00    1.1028079483358601E+01
N    9.6270590332316619E+00    1.8594582007144587E+00    1.2953795451780502E+01
Ga    9.6275794586766388E+00    7.6472441934897885E-03    1.3666416631278315E+01
N    9.6206175337021378E+00   -5.3788134518660139E-03    1.5583881406816607E+01
Ga    9.6138625943331846E+00    1.8299098006905392E+00    1.6624736675139612E+01
N    1.1213889403779895E+01    9.1656696315714992E-01    1.7529731568227493E+01
N    8.0200414642449829E+00    2.7770497560250047E+00   -2.0656744138458358E-01
Ga    8.0204848655100385E+00    4.6286423577950924E+00    4.7366780749045084E-01
N    8.0206433801508599E+00    4.6289566788641823E+00    2.3906282705927584E+00
Ga    8.0202624903084523E+00    2.7773872815304133E+00    3.1196230425077456E+00
N    8.0205014416742024E+00    2.7777216952959729E+00    5.0409931269363755E+00
Ga    8.0210375161567509E+00    4.6294654149885570E+00    5.7567133111105901E+00
N    8.0216134325902271E+00    4.6309928021419369E+00    7.6797829969296956E+00
Ga    8.0209815501344046E+00    2.7797428838215805E+00    8.3933004846551960E+00
N    8.0213485913134139E+00    2.7816923139745651E+00    1.0317615988836808E+01
Ga    8.0220842250112856E+00    4.6337271337811750E+00    1.1030256478003578E+01
N    8.0226870417668437E+00    4.6359411554162246E+00    1.2955879176518597E+01
Ga    8.0243560791019508E+00    2.7851415301465656E+00    1.3674532219454496E+01
N    8.0096478803333504E+00    2.7752632173409890E+00    1.5597120819890238E+01
Ga    8.0034091168179504E+00    4.6313112818255631E+00    1.6628571657407754E+01
N    9.5999647221516771E+00    3.6611420236056356E+00    1.7511307441135585E+01
N    6.4166644924888683E+00    5.5542034963238169E+00   -2.0660142318569838E-01
Ga    6.4170396985609690E+00    7.4058406142376469E+00    4.7355500042507320E-01
N    6.4171626619818909E+00    7.4061193361617610E+00    2.3904739802081258E+00
Ga    6.4167950540007856E+00    5.5544947636224791E+00    3.1194400624947853E+00
N    6.4170781044633003E+00    5.5546872577601052E+00    5.0407041854736825E+00
Ga    6.4174930943199371E+00    7.4064937675914910E+00    5.7559164192799352E+00
N    6.4179648176142390E+00    7.4078308982167087E+00    7.6787951709877422E+00
Ga    6.4177490390956979E+00    5.5566398651553763E+00    8.3925179522695750E+00
N    6.4182776321334085E+00    5.5586574255788408E+00    1.0316511124586500E+01
Ga    6.4181365696760482E+00    7.4104042158396162E+00    1.1028866973659996E+01
N    6.4184319343030154E+00    7.4125645803365421E+00    1.2954855865740441E+01
Ga    6.4156008231082309E+00    5.5606721900932738E+00    1.3669605829441393E+01
N    6.4033301276837902E+00    5.5458055633597647E+00    1.5588683421519173E+01
Ga    6.4161401212966380E+00    7.4083027979912801E+00    1.6658611658879487E+01
N    7.9979341198498553E+00    6.4605623066526849E+00    1.7518458521720582E+01
N    4.8131739229352322E+00    8.3314272805778415E+00   -2.0660049314782547E-01
Ga    4.8135276719081599E+00    1.0183146395316200E+01    4.7337835246981130E-01
N    4.8135801693851112E+00    1.0183460694723074E+01    2.3903368723183402E+00
Ga    4.8133277792884961E+00    8.3318211058785057E+00    3.1191030599584590E+00
N    4.8135795978830984E+00    8.3320815723145500E+00    5.0403429612491850E+00
Ga    4.8139442669033548E+00    1.0183780409760958E+01    5.7561804398128320E+00
N    4.8142293652744117E+00    1.0185081861028305E+01    7.6792468462913055E+00
Ga    4.8141181250303866E+00    8.3332888595070091E+00    8.3914430787084022E+00
N    4.8146489924069140E+00    8.3348146596138868E+00    1.0315473192136439E+01
Ga    4.8154451692805145E+00    1.0186110429192523E+01    1.1027793149099201E+01
N    4.8155415005050983E+00    1.0186756200030308E+01    1.2952704500192571E+01
Ga    4.8172572973680241E+00    8.3376203597678593E+00    1.3678552631942049E+01
N    4.8081017171975731E+00    8.3355636460412921E+00    1.5603196999477531E+01
Ga    4.7992711702977351E+00    1.0184279811975156E+01    1.6617391674856570E+01
N    6.3984654600229725E+00    9.2657211838374813E+00    1.7523360670176750E+01
H    3.2807897053023077E-04   -1.4207967083959739E-04   -1.2334745669186848E+00
H   -1.6032031421580737E+00    2.7771192972381149E+00   -1.2333654796846734E+00
H   -3.2065937348206450E+00    5.5542812458632254E+00   -1.2333173254933079E+00
H   -4.8099250133523395E+00    8.3313524860997337E+00   -1.2333954957775495E+00
H    3.2081314911334218E+00   -2.5014353490677586E-04   -1.2334203684795702E+00
H    1.6045517766604149E+00    2.7769635145086551E+00   -1.2333806924609536E+00
H    9.7989539470001957E-04    5.5543105301985678E+00   -1.2334304379678473E+00
H   -1.6023644125006535E+00    8.3315186496697446E+00   -1.2333718853908051E+00
H    6.4156701936732645E+00   -1.3551859063523731E-04   -1.2333412629713021E+00
H    4.8123824305890626E+00    2.7769387599590232E+00   -1.2334060975253116E+00
H    3.2088504756806375E+00    5.5542667398471686E+00   -1.2334194054661758E+00
H    1.6053322810044179E+00    8.3315272446810287E+00   -1.2333724994685082E+00
H    9.6232722452542188E+00   -1.1311225523270860E-04   -1.2334593199090558E+00
H    8.0199277008138896E+00    2.7770676143429731E+00   -1.2333882416867592E+00
H    6.4166571907022050E+00    5.5541811711496107E+00   -1.2333921550869444E+00
H    4.8130959281654251E+00    8.3313415080095972E+00   -1.2333694358812712E+00
     &END COORD
     &KIND H
       BASIS_SET DZVP-MOLOPT-SR-GTH-q1
       POTENTIAL GTH-PBE-q1
       &POTENTIAL
 1
  0.2000000000000000E+00 2 -0.4178900440000000E+01  0.7244633100000000E+00
 0
         # Potential name:  GTH-PBE-Q1  for symbol:  H
         # Potential read from the potential filename: GTH_POTENTIALS
       &END POTENTIAL
     &END KIND
     &KIND N
       BASIS_SET DZVP-MOLOPT-SR-GTH
       POTENTIAL GTH-PBE-q5
       &POTENTIAL
 2 3
  0.2837905100000000E+00 2 -0.1241522559000000E+02  0.1868095920000000E+01
 2
  0.2554050000000000E+00 1  0.1363026257000000E+02
  0.2454945300000000E+00 0
         # Potential name:  GTH-PBE-Q5  for symbol:  N
         # Potential read from the potential filename: GTH_POTENTIALS
       &END POTENTIAL
     &END KIND
     &KIND Ga
       BASIS_SET DZVP-MOLOPT-SR-GTH
       POTENTIAL GTH-PBE-q13
       &POTENTIAL
 2 1 10
  0.4900000000000000E+00 0
 3
  0.4167772300000000E+00 3  0.1047568975000000E+02 -0.4921768140000000E+01  0.8707055900000000E+00
  0.7770178090000000E+01 -0.2248152160000000E+01
  0.1784415450000000E+01
  0.5696265200000000E+00 2  0.1777985340000000E+01  0.1958597600000000E+00
 -0.2317443900000000E+00
  0.2381265000000000E+00 1 -0.1624868022000000E+02
         # Potential name:  GTH-PBE-Q13  for symbol:  GA
         # Potential read from the potential filename: GTH_POTENTIALS
       &END POTENTIAL
     &END KIND
     &TOPOLOGY
       NUMBER_OF_ATOMS  256
       MULTIPLE_UNIT_CELL  1 1 1
     &END TOPOLOGY
   &END SUBSYS
 &END FORCE_EVAL
