 # Version information for this restart file 
 # current date 2019-06-09 03:03:31.015
 # current working dir /lustre03/project/6037349/rzk/GaN-carbene/444-addat/00-Surface/UKS_SYMM
 # Program compiled at                              Sun Apr  7 00:48:11 EDT 2019
 # Program compiled on                          beluga2.int.ets1.calculquebec.ca
 # Program compiled for                        Beluga-Linux-x86-64-intel-openmpi
 # Source code revision number                                         svn:18619
 &GLOBAL
   PRINT_LEVEL  MEDIUM
   PROJECT_NAME TEST
   RUN_TYPE  CELL_OPT
 &END GLOBAL
 &MOTION
   &CELL_OPT
     MAX_ITER  300
     STEP_START_VAL  4
     EXTERNAL_PRESSURE     1.0000000000000000E+00
     KEEP_ANGLES  T
     KEEP_SYMMETRY  T
     CONSTRAINT  Z
     PRESSURE_TOLERANCE     5.0000000000000000E+02
   &END CELL_OPT
 &END MOTION
 &FORCE_EVAL
   METHOD  QS
   STRESS_TENSOR  ANALYTICAL
   &DFT
     BASIS_SET_FILE_NAME BASIS_MOLOPT
     POTENTIAL_FILE_NAME GTH_POTENTIALS
     UKS  T
     SURFACE_DIPOLE_CORRECTION  T
     SURF_DIP_DIR  Z
     &SCF
       MAX_SCF  100
       EPS_SCF     5.0000000000000004E-06
       &OT  T
         PRECONDITIONER  FULL_ALL
       &END OT
       &OUTER_SCF  T
         OPTIMIZER  NONE
         EPS_SCF     5.0000000000000004E-06
         MAX_SCF  4
       &END OUTER_SCF
       &PRINT
         &RESTART  OFF
           BACKUP_COPIES  1
           &EACH
             JUST_ENERGY  0
             QS_SCF  0
             MD  20
           &END EACH
         &END RESTART
       &END PRINT
     &END SCF
     &QS
       EPS_DEFAULT     1.0000000000000000E-14
       METHOD  GPW
     &END QS
     &MGRID
       NGRIDS  5
       CUTOFF     1.2000000000000000E+03
     &END MGRID
     &XC
       DENSITY_CUTOFF     1.0000000000000000E-10
       GRADIENT_CUTOFF     1.0000000000000000E-10
       TAU_CUTOFF     1.0000000000000000E-10
       &XC_FUNCTIONAL  NO_SHORTCUT
         &PBE  T
         &END PBE
       &END XC_FUNCTIONAL
       &VDW_POTENTIAL
         POTENTIAL_TYPE  PAIR_POTENTIAL
         &PAIR_POTENTIAL
           R_CUTOFF     1.0000000000000004E+01
           TYPE  DFTD3
           PARAMETER_FILE_NAME dftd3.dat
           REFERENCE_FUNCTIONAL PBE
           EPS_CN     9.9999999999999995E-07
           CALCULATE_C9_TERM  T
           REFERENCE_C9_TERM  T
           LONG_RANGE_CORRECTION  F
           VERBOSE_OUTPUT  F
         &END PAIR_POTENTIAL
       &END VDW_POTENTIAL
     &END XC
   &END DFT
   &SUBSYS
     &CELL
       A     1.2882975397734279E+01    0.0000000000000000E+00    0.0000000000000000E+00
       B    -6.4363259118002443E+00    1.1148043493310118E+01    0.0000000000000000E+00
       C     0.0000000000000000E+00    0.0000000000000000E+00    3.2000000000000000E+01
       MULTIPLE_UNIT_CELL  1 1 1
       &CELL_REF
         A     1.2982353780853531E+01    0.0000000000000000E+00    0.0000000000000000E+00
         B    -6.4911768904267628E+00    1.1243048175136114E+01    0.0000000000000000E+00
         C     0.0000000000000000E+00    0.0000000000000000E+00    3.2000000000000000E+01
         MULTIPLE_UNIT_CELL  1 1 1
       &END CELL_REF
     &END CELL
     &COORD
N   -3.0078750277678153E-04   -4.7440187573741618E-04   -1.0067171681896621E-02
Ga    1.2117075510721038E-03    1.8585093307138150E+00    6.5010412609742985E-01
N    1.1672482722557902E-03    1.8585245462514679E+00    2.5472328189531299E+00
Ga   -2.5638542631741782E-04   -3.6172077751128246E-04    3.2538307742696095E+00
N   -3.1204816695002986E-04   -4.8133504807063666E-04    5.1530513985369479E+00
Ga    1.1428307823892671E-03    1.8583743865500251E+00    5.8450569408995401E+00
N    1.1267722732321082E-03    1.8585708849448297E+00    7.7444992959454844E+00
Ga   -3.0555971456816864E-04   -3.3880877127593652E-04    8.4344127256411277E+00
N   -2.5813636199312418E-04   -4.9532897180374019E-04    1.0332987070989237E+01
Ga    1.5263699019232937E-03    1.8581133011661191E+00    1.1014255990289360E+01
N    2.0291229637633998E-03    1.8565119170765840E+00    1.2892556057388497E+01
Ga    3.8012593651083567E-03   -1.5105191693026278E-03    1.3479001080194912E+01
N   -1.7336563957700702E-03   -1.0105874361024395E-02    1.5332067078694358E+01
Ga   -6.5244545773736106E-03    1.8876606460932490E+00    1.6307839263355323E+01
N    1.5966467336734522E+00    9.1052372389442859E-01    1.7169069862843621E+01
N   -1.6093524824903909E+00    2.7865485276440882E+00   -1.0056082699544781E-02
Ga   -1.6078811216035618E+00    4.6454994808279304E+00    6.5009781527518662E-01
N   -1.6078956117932273E+00    4.6455533224269701E+00    2.5472038631041465E+00
Ga   -1.6093121463144078E+00    2.7867093727633878E+00    3.2538133790684927E+00
N   -1.6093381991597964E+00    2.7865587836264902E+00    5.1530537265084577E+00
Ga   -1.6079838704730345E+00    4.6453977234048383E+00    5.8449858868577467E+00
N   -1.6079269109033330E+00    4.6456214913232152E+00    7.7445152836340609E+00
Ga   -1.6092089800737892E+00    2.7866637083452623E+00    8.4346580075971893E+00
N   -1.6086344318394454E+00    2.7872237264819200E+00    1.0333835404360411E+01
Ga   -1.6075838182576359E+00    4.6460495398903641E+00    1.1015375381654122E+01
N   -1.6061868137824831E+00    4.6462245189341838E+00    1.2894240696188168E+01
Ga   -1.6113864259181434E+00    2.7842491736008750E+00    1.3476187229935727E+01
N   -1.6114063214687591E+00    2.7954369324285726E+00    1.5331238856951776E+01
Ga   -1.6101443454665216E+00    4.6545601102513663E+00    1.6299742600164603E+01
N   -2.3816511456853894E-02    3.7201681903798272E+00    1.7180499243031392E+01
N   -3.2184502250472540E+00    5.5735576875875665E+00   -1.0055901725949917E-02
Ga   -3.2169801269631666E+00    7.4325334471451656E+00    6.5010359053196975E-01
N   -3.2170289637150979E+00    7.4325934025587292E+00    2.5472086199289996E+00
Ga   -3.2184072903008194E+00    5.5737141211996555E+00    3.2538338191383591E+00
N   -3.2184296551634581E+00    5.5735212783907961E+00    5.1530627067282433E+00
Ga   -3.2170947426611121E+00    7.4324209039185831E+00    5.8449935928344372E+00
N   -3.2168509105533989E+00    7.4326185317916744E+00    7.7446965418436307E+00
Ga   -3.2185136359113828E+00    5.5736628853057955E+00    8.4344184187047375E+00
N   -3.2182338980396161E+00    5.5736273665006992E+00    1.0333854063243919E+01
Ga   -3.2173487474440532E+00    7.4329875595802015E+00    1.1014102229271529E+01
N   -3.2145354348920820E+00    7.4342930493410719E+00    1.2891012249909924E+01
Ga   -3.2180200010016478E+00    5.5782611915991041E+00    1.3478073362902773E+01
N   -3.2147222416238734E+00    5.5708368782309563E+00    1.5336782193414232E+01
Ga   -3.2328533236013528E+00    7.4695214857287642E+00    1.6310945557620894E+01
N   -1.6206691530185877E+00    6.5093647305853635E+00    1.7176440735211671E+01
N   -4.8275352226366435E+00    8.3605836803187987E+00   -1.0039569206231941E-02
Ga   -4.8260599167776190E+00    1.0219522662686257E+01    6.5010493749416998E-01
N   -4.8260343726674524E+00    1.0219585991548094E+01    2.5471827574128656E+00
Ga   -4.8275670662611505E+00    8.3607098073910713E+00    3.2539593608687030E+00
N   -4.8275789923655950E+00    8.3605985489515238E+00    5.1531051195615367E+00
Ga   -4.8261220891358008E+00    1.0219260961235978E+01    5.8449486192028282E+00
N   -4.8260814558601464E+00    1.0219689989853789E+01    7.7444411434797962E+00
Ga   -4.8275912796727090E+00    8.3606988196979390E+00    8.4345570317815657E+00
N   -4.8272752354101165E+00    8.3608777391737075E+00    1.0333245287255370E+01
Ga   -4.8262129400418052E+00    1.0219166047719231E+01    1.1014778708374795E+01
N   -4.8275638354805768E+00    1.0219063105053234E+01    1.2890604211580674E+01
Ga   -4.8305467725145075E+00    8.3583391570650534E+00    1.3475501296216796E+01
N   -4.8320754516076745E+00    8.3559246497820467E+00    1.5328701572289066E+01
Ga   -4.8314988266683603E+00    1.0211976432211516E+01    1.6321747276796224E+01
N   -3.2200601591471765E+00    9.2943566707510765E+00    1.7185994211665182E+01
N    3.2204435641824682E+00   -4.7965829377817897E-04   -1.0020585333278782E-02
Ga    3.2219274130806572E+00    1.8585186381580976E+00    6.5010285359145248E-01
N    3.2218645565342849E+00    1.8585229352750390E+00    2.5472023667046875E+00
Ga    3.2205232019873065E+00   -3.1180939072109634E-04    3.2538551202050923E+00
N    3.2203781248248133E+00   -5.2920337485783423E-04    5.1530976588225350E+00
Ga    3.2219275994454573E+00    1.8583391645789120E+00    5.8450722391818362E+00
N    3.2218528077091468E+00    1.8585347307755689E+00    7.7444599844653537E+00
Ga    3.2203834301246572E+00   -3.1795070490900541E-04    8.4344388153904166E+00
N    3.2202753557226909E+00   -8.1076081740685802E-04    1.0333228727759719E+01
Ga    3.2226180451646842E+00    1.8588584534074453E+00    1.1014003043115860E+01
N    3.2247091624645923E+00    1.8591597233574477E+00    1.2885703853631558E+01
Ga    3.2175891580452687E+00    5.0875477650060598E-03    1.3474226424082277E+01
N    3.2091923523786043E+00    1.2144818174260553E-03    1.5325965043883906E+01
Ga    3.2139146217380952E+00    1.8893358363070099E+00    1.6310216812438178E+01
N    4.8219771323661407E+00    9.2454706699678957E-01    1.7166457426166964E+01
N    1.6113916957270036E+00    2.7865293524295520E+00   -1.0042445244118244E-02
Ga    1.6128389244301726E+00    4.6454800137240522E+00    6.5008859212146475E-01
N    1.6127174052342916E+00    4.6454914794285029E+00    2.5472155210892131E+00
Ga    1.6114703650416162E+00    2.7866718013773295E+00    3.2538298097270197E+00
N    1.6113423414162591E+00    2.7864654827847759E+00    5.1530472202643161E+00
Ga    1.6128889430325406E+00    4.6454160679020937E+00    5.8450707160530309E+00
N    1.6127423793070343E+00    4.6455483389267416E+00    7.7445304232017609E+00
Ga    1.6114419488763845E+00    2.7865956051102594E+00    8.4346151724697513E+00
N    1.6109790205206345E+00    2.7860692296164724E+00    1.0333237240474492E+01
Ga    1.6131092191187244E+00    4.6446918328342086E+00    1.1013951534137219E+01
N    1.6115732268645548E+00    4.6433229265640641E+00    1.2886505935858267E+01
Ga    1.6173326393260099E+00    2.7875692230624654E+00    1.3472714442638111E+01
N    1.6099332896005516E+00    2.7851020859645210E+00    1.5325973890237751E+01
Ga    1.5994796506920197E+00    4.6507786774603845E+00    1.6308550025171851E+01
N    3.2069715745269023E+00    3.7201547547068241E+00    1.7173438001345563E+01
N    2.2928726227943166E-03    5.5735517286756808E+00   -1.0064183033685250E-02
Ga    3.7778242047730418E-03    7.4325106197644013E+00    6.5010339768832448E-01
N    3.7066901864964853E-03    7.4325256543051603E+00    2.5471622819506745E+00
Ga    2.3554193318825402E-03    5.5737477380914422E+00    3.2538258151741362E+00
N    2.2079585868271176E-03    5.5735214068077923E+00    5.1531023799334204E+00
Ga    3.7677538627664117E-03    7.4324553680037253E+00    5.8450657252313878E+00
N    3.7144856964313184E-03    7.4326851036218082E+00    7.7445260432766965E+00
Ga    2.4858159714508691E-03    5.5735462231905935E+00    8.4343944127482882E+00
N    2.0157457331454031E-03    5.5737565111291616E+00    1.0332912632851897E+01
Ga    4.5618833037720250E-03    7.4319226639342988E+00    1.1014327684690247E+01
N    5.5782384789025393E-03    7.4318411068885757E+00    1.2890591995432786E+01
Ga    8.1087242140561212E-03    5.5740655716878980E+00    1.3475882884004383E+01
N    1.9965053815795201E-03    5.5715883958351675E+00    1.5323945865302811E+01
Ga   -3.4323731949368855E-03    7.4290989171662831E+00    1.6303329474954676E+01
N    1.5959662647148909E+00    6.4904998046890521E+00    1.7176279424854979E+01
N   -1.6067712749147969E+00    8.3605570101670459E+00   -1.0036579815717985E-02
Ga   -1.6053099004754057E+00    1.0219508602744312E+01    6.5012257884485691E-01
N   -1.6054020535078335E+00    1.0219530621281084E+01    2.5472082918210579E+00
Ga   -1.6066973971980663E+00    8.3606921967424270E+00    3.2538377293554444E+00
N   -1.6068062820299909E+00    8.3605089881980010E+00    5.1531205732109315E+00
Ga   -1.6053652238937937E+00    1.0219475994587716E+01    5.8450218530169833E+00
N   -1.6053002651605965E+00    1.0219596589529766E+01    7.7446823868824906E+00
Ga   -1.6067673091365375E+00    8.3607750117503628E+00    8.4345505013212634E+00
N   -1.6063958452079732E+00    8.3605544059416435E+00    1.0334060498799762E+01
Ga   -1.6059654264533856E+00    1.0219882174052865E+01    1.1014922390977111E+01
N   -1.6049284659519529E+00    1.0219303794732797E+01    1.2893673100098267E+01
Ga   -1.6008373494744279E+00    8.3594841594381375E+00    1.3475859445793915E+01
N   -1.5979664788691381E+00    8.3608195951133375E+00    1.5332652301861463E+01
Ga   -1.6347532574348156E+00    1.0239859617204342E+01    1.6312148491490952E+01
N   -1.7133437944464255E-02    9.2402480121501078E+00    1.7174514741215745E+01
N    6.4412067618149687E+00   -4.6786393952789933E-04   -1.0058318247044094E-02
Ga    6.4427148327940147E+00    1.8585340121766487E+00    6.5014574002471071E-01
N    6.4426431884283097E+00    1.8585214468197959E+00    2.5471159701002271E+00
Ga    6.4412875987025506E+00   -2.6616223175372772E-04    3.2538558269749718E+00
N    6.4411522973861128E+00   -5.1737970354878671E-04    5.1530858253292573E+00
Ga    6.4426384544342259E+00    1.8584030815786245E+00    5.8450787874005341E+00
N    6.4427085476294987E+00    1.8584449335310389E+00    7.7443628433953648E+00
Ga    6.4412685540696115E+00   -3.1069491121611431E-04    8.4345711116434963E+00
N    6.4410845350295522E+00   -5.1262312190435816E-04    1.0333972467609893E+01
Ga    6.4427659547586984E+00    1.8593927397892542E+00    1.1013063867222984E+01
N    6.4450506756258132E+00    1.8595053655328018E+00    1.2889272926048745E+01
Ga    6.4420399245436588E+00    4.7396497776597945E-03    1.3480686510454481E+01
N    6.4421792987860265E+00   -1.4514182860683972E-02    1.5339038472709797E+01
Ga    6.4343352515570595E+00    1.8842339996713617E+00    1.6301563325281371E+01
N    8.0363149622218994E+00    9.3216189258628790E-01    1.7178285483216371E+01
N    4.8321392932916041E+00    2.7865339987859561E+00   -1.0068349470795003E-02
Ga    4.8336300102861669E+00    4.6454931830143504E+00    6.5015585927894781E-01
N    4.8335425030620280E+00    4.6454968103728103E+00    2.5471669554798022E+00
Ga    4.8322723126579268E+00    2.7866873092677964E+00    3.2538735018139482E+00
N    4.8320925639970413E+00    2.7864459153412877E+00    5.1530770792100524E+00
Ga    4.8335598379083136E+00    4.6454490094660921E+00    5.8450714876321186E+00
N    4.8335464539249271E+00    4.6456380792113858E+00    7.7444289031218334E+00
Ga    4.8321929219397965E+00    2.7868396089022842E+00    8.4348331922570523E+00
N    4.8325159316836537E+00    2.7865118156316910E+00    1.0332547951602182E+01
Ga    4.8337131142179226E+00    4.6459324889816696E+00    1.1015850327646037E+01
N    4.8332672154809853E+00    4.6447595914029662E+00    1.2888017131452074E+01
Ga    4.8342005080993582E+00    2.7878897480550831E+00    1.3477474943926369E+01
N    4.8372334067216212E+00    2.7829025255306536E+00    1.5323485201425200E+01
Ga    4.8156283100653372E+00    4.6675497581449834E+00    1.6320725616775757E+01
N    6.4157389964174545E+00    3.7384059723633691E+00    1.7164372068162638E+01
N    3.2230366516831856E+00    5.5735624152886558E+00   -1.0049757142162602E-02
Ga    3.2245561894608716E+00    7.4325429282272815E+00    6.5012236329399031E-01
N    3.2244663025551410E+00    7.4325943573057227E+00    2.5471489420927234E+00
Ga    3.2231408881154873E+00    5.5737509777526846E+00    3.2538902249351866E+00
N    3.2229518320649251E+00    5.5734908271796639E+00    5.1530411350991665E+00
Ga    3.2245370590682123E+00    7.4323846369587541E+00    5.8450336941171157E+00
N    3.2244050977435634E+00    7.4327037056170226E+00    7.7444961784880695E+00
Ga    3.2231127948117053E+00    5.5737118597095865E+00    8.4346607004722696E+00
N    3.2225946182567204E+00    5.5737042291500911E+00    1.0333122944321545E+01
Ga    3.2248795857193553E+00    7.4321930707457637E+00    1.1015575639257875E+01
N    3.2243954273547688E+00    7.4339267141724079E+00    1.2892772630953914E+01
Ga    3.2226202130211625E+00    5.5692663141548815E+00    1.3472958625463685E+01
N    3.2164667562245781E+00    5.5690005457652720E+00    1.5326299117744112E+01
Ga    3.2265523132589595E+00    7.4524163978485900E+00    1.6320584530593454E+01
N    4.8166394257105551E+00    6.5218941967167279E+00    1.7187105599718191E+01
N    1.6139648483963667E+00    8.3605718089278209E+00   -1.0064726596066468E-02
Ga    1.6154596331467237E+00    1.0219511988401409E+01    6.5014601465797173E-01
N    1.6153776894971394E+00    1.0219541481261370E+01    2.5471705040948720E+00
Ga    1.6140481270545979E+00    8.3607110424230324E+00    3.2538588774692307E+00
N    1.6138605123569547E+00    8.3605226555885093E+00    5.1531042499062805E+00
Ga    1.6153959640054771E+00    1.0219439158508777E+01    5.8450256858166130E+00
N    1.6154062050949844E+00    1.0219649185888356E+01    7.7446445040077130E+00
Ga    1.6142011424739229E+00    8.3607353770381483E+00    8.4347201965662499E+00
N    1.6137743498721004E+00    8.3607274183703719E+00    1.0333654127084767E+01
Ga    1.6160528387627486E+00    1.0219827961663119E+01    1.1015004433567267E+01
N    1.6162524435593097E+00    1.0219362871676855E+01    1.2893915631030922E+01
Ga    1.6133270711326542E+00    8.3598222952870369E+00    1.3480324451604508E+01
N    1.6137046925634475E+00    8.3727384058689918E+00    1.5339686604050572E+01
Ga    1.6294955879725614E+00    1.0241342038735016E+01    1.6291145584982178E+01
N    3.1903321390003905E+00    9.2931414415835381E+00    1.7190440790488921E+01
N    9.6619495495435022E+00   -5.0384268972551087E-04   -1.0032864589847430E-02
Ga    9.6634290952428845E+00    1.8585082019385049E+00    6.5010076962332630E-01
N    9.6634029388793401E+00    1.8585501697444815E+00    2.5472381957148733E+00
Ga    9.6619844779313819E+00   -3.8773994409645483E-04    3.2538651942015484E+00
N    9.6619320353395235E+00   -5.5847194657606162E-04    5.1530835941059934E+00
Ga    9.6633453972113568E+00    1.8583729681868300E+00    5.8450306511112640E+00
N    9.6635613432966974E+00    1.8585960750985329E+00    7.7447653956201234E+00
Ga    9.6621215833292986E+00   -3.7492065158282231E-04    8.4345217404702861E+00
N    9.6622098227504161E+00   -8.7613461824209075E-04    1.0333437866083528E+01
Ga    9.6638056489009099E+00    1.8586687187476414E+00    1.1014268567509459E+01
N    9.6648675241787316E+00    1.8590750998673120E+00    1.2885475066460176E+01
Ga    9.6671764070875685E+00    4.6218689239281713E-03    1.3473313457891141E+01
N    9.6608299162062714E+00    7.4028409752200878E-03    1.5323424278615709E+01
Ga    9.6581914427161522E+00    1.8666430841626813E+00    1.6302320316780950E+01
N    1.1258353802570490E+01    9.2594657140637149E-01    1.7172715865956032E+01
N    8.0528763915806110E+00    2.7865159205031844E+00   -1.0069635071879973E-02
Ga    8.0543437024227984E+00    4.6454726069135992E+00    6.5012315948455712E-01
N    8.0543668410095339E+00    4.6455270179209593E+00    2.5471762961397437E+00
Ga    8.0528693200629728E+00    2.7866593404307212E+00    3.2538687308932301E+00
N    8.0528282453689126E+00    2.7864618721818997E+00    5.1530834143670710E+00
Ga    8.0542448393940393E+00    4.6453968838490765E+00    5.8450057520721828E+00
N    8.0544803300328791E+00    4.6456048607493505E+00    7.7445241887767002E+00
Ga    8.0529394096182170E+00    2.7866461109542753E+00    8.4343713935750397E+00
N    8.0527102183606498E+00    2.7862608609929125E+00    1.0332955818165306E+01
Ga    8.0541856053603560E+00    4.6447431243028552E+00    1.1012837048768930E+01
N    8.0583540218963190E+00    4.6424007422312883E+00    1.2888537058261823E+01
Ga    8.0591883193681770E+00    2.7848500935751832E+00    1.3471632743116146E+01
N    8.0610039026199924E+00    2.7794997624284887E+00    1.5330416705969336E+01
Ga    8.0476700143600741E+00    4.6563241070758838E+00    1.6307283292782973E+01
N    9.6315158604047841E+00    3.7032715593951457E+00    1.7178052392299879E+01
N    6.4437847811518338E+00    5.5735433721470304E+00   -1.0045120754503561E-02
Ga    6.4452410095289920E+00    7.4325103641828028E+00    6.5014089325931745E-01
N    6.4452559884084479E+00    7.4325446706933471E+00    2.5471373682907110E+00
Ga    6.4438256513262928E+00    5.5737067229490362E+00    3.2538972542099933E+00
N    6.4437804002308967E+00    5.5735092910364123E+00    5.1530548529292934E+00
Ga    6.4452799480684728E+00    7.4324932046518706E+00    5.8449730226744032E+00
N    6.4452573901722809E+00    7.4326785532873680E+00    7.7444891317232338E+00
Ga    6.4438115021345430E+00    5.5736539258003654E+00    8.4346732982058068E+00
N    6.4443030050499726E+00    5.5731175496660095E+00    1.0332665604662422E+01
Ga    6.4453215805337134E+00    7.4315309829848477E+00    1.1014545317348066E+01
N    6.4468702428131222E+00    7.4285540474694107E+00    1.2886422412374802E+01
Ga    6.4478321042520657E+00    5.5667808896791655E+00    1.3475526955823144E+01
N    6.4443290185578705E+00    5.5625350194953116E+00    1.5323850002529609E+01
Ga    6.4285398151013897E+00    7.4427031094414451E+00    1.6310616528136531E+01
N    8.0339550063231346E+00    6.5018485975683218E+00    1.7170797738440285E+01
N    4.8347042979338006E+00    8.3605629220036395E+00   -1.0055884865700238E-02
Ga    4.8362074063870688E+00    1.0219490232286896E+01    6.5013781809484672E-01
N    4.8361754630454437E+00    1.0219595094467866E+01    2.5471460662934535E+00
Ga    4.8347597818038253E+00    8.3607018547473029E+00    3.2539263190732575E+00
N    4.8346858236162040E+00    8.3605241516794280E+00    5.1530599748542469E+00
Ga    4.8361239058273355E+00    1.0219346393535025E+01    5.8450480629021486E+00
N    4.8362215132953539E+00    1.0219647419641811E+01    7.7443970870580392E+00
Ga    4.8347280604974792E+00    8.3606381003619727E+00    8.4347860730435649E+00
N    4.8345494467235337E+00    8.3608917561115899E+00    1.0333253619491405E+01
Ga    4.8366614929020075E+00    1.0219171438131276E+01    1.1014903020502032E+01
N    4.8395916600972173E+00    1.0219041083160684E+01    1.2892285660212936E+01
Ga    4.8420841357406825E+00    8.3583477089009968E+00    1.3474091234809254E+01
N    4.8405708199718491E+00    8.3621826397243506E+00    1.5327893217022229E+01
Ga    4.8143930051078234E+00    1.0228399813334791E+01    1.6310010658614988E+01
N    6.4234866580678682E+00    9.3120698479352555E+00    1.7183101382837595E+01
H   -3.6336273168484285E-05   -5.2662836052494499E-05   -1.0314116649013583E+00
H   -1.6091225738996651E+00    2.7869602999622569E+00   -1.0313640234218204E+00
H   -3.2182126782168057E+00    5.5739859009690464E+00   -1.0313965486839309E+00
H   -4.8272919970036714E+00    8.3610021021797074E+00   -1.0313911595106176E+00
H    3.2207139236481876E+00   -6.7062158522878963E-05   -1.0314165431442033E+00
H    1.6116262793604961E+00    2.7869532886173243E+00   -1.0313665284012423E+00
H    2.5364799418582458E-03    5.5739746546376958E+00   -1.0313804877284838E+00
H   -1.6065559853918776E+00    8.3610015541346030E+00   -1.0313349140752937E+00
H    6.4414573310423000E+00   -6.5706994435944544E-05   -1.0314031387558902E+00
H    4.8323799027077099E+00    2.7869645304436252E+00   -1.0313891616231377E+00
H    3.2232949756004965E+00    5.5739732658592338E+00   -1.0313884354786447E+00
H    1.6142028795537473E+00    8.3610024999738197E+00   -1.0313729838380419E+00
H    9.6622157867852874E+00   -5.4498379876103100E-05   -1.0314058923900484E+00
H    8.0531416690578830E+00    2.7869578794000551E+00   -1.0313642869683779E+00
H    6.4440464386044933E+00    5.5739749048495559E+00   -1.0313861410535867E+00
H    4.8349698012528233E+00    8.3609919966989690E+00   -1.0313764254164961E+00
     &END COORD
     &KIND H
       BASIS_SET DZVP-MOLOPT-SR-GTH-q1
       POTENTIAL GTH-PBE-q1
       &POTENTIAL
 1
  0.2000000000000000E+00 2 -0.4178900440000000E+01  0.7244633100000000E+00
 0
         # Potential name:  GTH-PBE-Q1  for symbol:  H
         # Potential read from the potential filename: GTH_POTENTIALS
       &END POTENTIAL
     &END KIND
     &KIND N
       BASIS_SET DZVP-MOLOPT-SR-GTH
       POTENTIAL GTH-PBE-q5
       &POTENTIAL
 2 3
  0.2837905100000000E+00 2 -0.1241522559000000E+02  0.1868095920000000E+01
 2
  0.2554050000000000E+00 1  0.1363026257000000E+02
  0.2454945300000000E+00 0
         # Potential name:  GTH-PBE-Q5  for symbol:  N
         # Potential read from the potential filename: GTH_POTENTIALS
       &END POTENTIAL
     &END KIND
     &KIND Ga
       BASIS_SET DZVP-MOLOPT-SR-GTH
       POTENTIAL GTH-PBE-q13
       &POTENTIAL
 2 1 10
  0.4900000000000000E+00 0
 3
  0.4167772300000000E+00 3  0.1047568975000000E+02 -0.4921768140000000E+01  0.8707055900000000E+00
  0.7770178090000000E+01 -0.2248152160000000E+01
  0.1784415450000000E+01
  0.5696265200000000E+00 2  0.1777985340000000E+01  0.1958597600000000E+00
 -0.2317443900000000E+00
  0.2381265000000000E+00 1 -0.1624868022000000E+02
         # Potential name:  GTH-PBE-Q13  for symbol:  GA
         # Potential read from the potential filename: GTH_POTENTIALS
       &END POTENTIAL
     &END KIND
     &TOPOLOGY
       NUMBER_OF_ATOMS  256
       MULTIPLE_UNIT_CELL  1 1 1
     &END TOPOLOGY
   &END SUBSYS
 &END FORCE_EVAL
