 # Version information for this restart file 
 # current date 2019-06-09 05:25:50.510
 # current working dir /lustre03/project/6037349/rzk/GaN-carbene/444-addat/00-Surface/UKS_SYMM
 # Program compiled at                              Sun Apr  7 00:48:11 EDT 2019
 # Program compiled on                          beluga2.int.ets1.calculquebec.ca
 # Program compiled for                        Beluga-Linux-x86-64-intel-openmpi
 # Source code revision number                                         svn:18619
 &GLOBAL
   PRINT_LEVEL  MEDIUM
   PROJECT_NAME TEST
   RUN_TYPE  CELL_OPT
 &END GLOBAL
 &MOTION
   &CELL_OPT
     MAX_ITER  300
     STEP_START_VAL  25
     EXTERNAL_PRESSURE     1.0000000000000000E+00
     KEEP_ANGLES  T
     KEEP_SYMMETRY  T
     CONSTRAINT  Z
     PRESSURE_TOLERANCE     5.0000000000000000E+02
   &END CELL_OPT
 &END MOTION
 &FORCE_EVAL
   METHOD  QS
   STRESS_TENSOR  ANALYTICAL
   &DFT
     BASIS_SET_FILE_NAME BASIS_MOLOPT
     POTENTIAL_FILE_NAME GTH_POTENTIALS
     UKS  T
     SURFACE_DIPOLE_CORRECTION  T
     SURF_DIP_DIR  Z
     &SCF
       MAX_SCF  100
       EPS_SCF     5.0000000000000004E-06
       &OT  T
         PRECONDITIONER  FULL_ALL
       &END OT
       &OUTER_SCF  T
         OPTIMIZER  NONE
         EPS_SCF     5.0000000000000004E-06
         MAX_SCF  4
       &END OUTER_SCF
       &PRINT
         &RESTART  OFF
           BACKUP_COPIES  1
           &EACH
             JUST_ENERGY  0
             QS_SCF  0
             MD  20
           &END EACH
         &END RESTART
       &END PRINT
     &END SCF
     &QS
       EPS_DEFAULT     1.0000000000000000E-14
       METHOD  GPW
     &END QS
     &MGRID
       NGRIDS  5
       CUTOFF     1.2000000000000000E+03
     &END MGRID
     &XC
       DENSITY_CUTOFF     1.0000000000000000E-10
       GRADIENT_CUTOFF     1.0000000000000000E-10
       TAU_CUTOFF     1.0000000000000000E-10
       &XC_FUNCTIONAL  NO_SHORTCUT
         &PBE  T
         &END PBE
       &END XC_FUNCTIONAL
       &VDW_POTENTIAL
         POTENTIAL_TYPE  PAIR_POTENTIAL
         &PAIR_POTENTIAL
           R_CUTOFF     1.0000000000000004E+01
           TYPE  DFTD3
           PARAMETER_FILE_NAME dftd3.dat
           REFERENCE_FUNCTIONAL PBE
           EPS_CN     9.9999999999999995E-07
           CALCULATE_C9_TERM  T
           REFERENCE_C9_TERM  T
           LONG_RANGE_CORRECTION  F
           VERBOSE_OUTPUT  F
         &END PAIR_POTENTIAL
       &END VDW_POTENTIAL
     &END XC
   &END DFT
   &SUBSYS
     &CELL
       A     1.2838051089085511E+01    0.0000000000000000E+00    0.0000000000000000E+00
       B    -6.4233575318801286E+00    1.1125581600396647E+01    0.0000000000000000E+00
       C     0.0000000000000000E+00    0.0000000000000000E+00    3.2000000000000000E+01
       MULTIPLE_UNIT_CELL  1 1 1
       &CELL_REF
         A     1.2982353780853531E+01    0.0000000000000000E+00    0.0000000000000000E+00
         B    -6.4911768904267628E+00    1.1243048175136114E+01    0.0000000000000000E+00
         C     0.0000000000000000E+00    0.0000000000000000E+00    3.2000000000000000E+01
         MULTIPLE_UNIT_CELL  1 1 1
       &END CELL_REF
     &END CELL
     &COORD
N    1.1306638623366719E-04   -3.7228046260054582E-04   -1.6769128669686692E-01
Ga   -3.7537927430073584E-04    1.8543389309957723E+00    4.8898977372326663E-01
N   -4.6989024564367336E-04    1.8545838716447740E+00    2.4029719444136428E+00
Ga    3.4100947634633664E-04   -2.0167836843129838E-04    3.1175669503397261E+00
N    4.5327129504323826E-04   -7.2717203404004324E-04    5.0368355966250649E+00
Ga   -3.3630587879478072E-04    1.8546048352229028E+00    5.7511209352754893E+00
N   -1.6652444551681065E-04    1.8555903274653218E+00    7.6728450895216129E+00
Ga    4.3802971584082075E-04    1.3183356026727100E-03    8.3761639460648016E+00
N    6.7389124847670918E-04    3.0911169743353456E-03    1.0301548776781784E+01
Ga    7.3109728483960427E-04    1.8567468696130505E+00    1.1022246677247542E+01
N    1.4177575155097466E-03    1.8624562857885256E+00    1.2941968192217596E+01
Ga    3.2036438586079035E-03    3.9979879197531007E-03    1.3656903529481157E+01
N   -3.2501707875354719E-03    9.4778730203372123E-03    1.5572676266344995E+01
Ga   -2.6338077598509651E-04    1.8636971417652812E+00    1.6664372014956868E+01
N    1.5940641653421936E+00    9.2429498001659083E-01    1.7519600900282192E+01
N   -1.6057410218020167E+00    2.7810560892457632E+00   -1.6763810713258573E-01
Ga   -1.6061135871088899E+00    4.6358269295123424E+00    4.8889674771010583E-01
N   -1.6060756354105259E+00    4.6362113720448370E+00    2.4029674880121532E+00
Ga   -1.6057755685959287E+00    2.7816384820878524E+00    3.1178210804039561E+00
N   -1.6060646246462738E+00    2.7815868815170774E+00    5.0372809082866992E+00
Ga   -1.6059690702516087E+00    4.6364105355871308E+00    5.7536408920397264E+00
N   -1.6055104124669297E+00    4.6373741717208130E+00    7.6761971743430371E+00
Ga   -1.6044863309484616E+00    2.7825651277012993E+00    8.3792618204478604E+00
N   -1.6038105074084821E+00    2.7839715662330211E+00    1.0306025614974056E+01
Ga   -1.6047967374732766E+00    4.6384825315755398E+00    1.1025332031078785E+01
N   -1.6036563650440101E+00    4.6431293995584921E+00    1.2940234819336650E+01
Ga   -1.6020203925071732E+00    2.7896177079607662E+00    1.3664892066667408E+01
N   -1.5970902136838101E+00    2.7942509464815943E+00    1.5589043224922863E+01
Ga   -1.6052557540445913E+00    4.6335934428038179E+00    1.6577757394191291E+01
N   -2.6776546702477304E-02    3.7242805583420169E+00    1.7519976611827943E+01
N   -3.2115572413924935E+00    5.5624202421682698E+00   -1.6764069760521780E-01
Ga   -3.2119042401195781E+00    7.4172128548565395E+00    4.8884589682801105E-01
N   -3.2117264033404829E+00    7.4174910291184011E+00    2.4029980620839422E+00
Ga   -3.2113639834540342E+00    5.5627952415420658E+00    3.1180413177269637E+00
N   -3.2116583851496725E+00    5.5623109824502386E+00    5.0376126230989957E+00
Ga   -3.2111977818024924E+00    7.4169358151188822E+00    5.7530507225122474E+00
N   -3.2103307970157937E+00    7.4175820162199519E+00    7.6749506612449725E+00
Ga   -3.2100875020714703E+00    5.5641333854523980E+00    8.3815009210593505E+00
N   -3.2099563847489074E+00    5.5663993298101992E+00    1.0308445857084767E+01
Ga   -3.2086142945522478E+00    7.4215498932182884E+00    1.1025127739093209E+01
N   -3.2077530141694592E+00    7.4281121323705896E+00    1.2944457915605646E+01
Ga   -3.2065501424651539E+00    5.5760865628553606E+00    1.3669720194201206E+01
N   -3.2143877178478264E+00    5.5444840655540863E+00    1.5584178388033754E+01
Ga   -3.2361697310777826E+00    7.4137085757258374E+00    1.6634586181779657E+01
N   -1.6315422895753859E+00    6.4712952394898773E+00    1.7506727763005351E+01
N   -4.8173972405577823E+00    8.3437602633106778E+00   -1.6774666083699238E-01
Ga   -4.8177722203531825E+00    1.0198559631058547E+01    4.8869671844987628E-01
N   -4.8176921475494243E+00    1.0198753563006314E+01    2.4028418235048590E+00
Ga   -4.8169059240746988E+00    8.3441647505354926E+00    3.1172913809449803E+00
N   -4.8167600729872184E+00    8.3434911452252631E+00    5.0369963423716806E+00
Ga   -4.8174106173826647E+00    1.0198447840629679E+01    5.7533237892626996E+00
N   -4.8165711203372918E+00    1.0199270334193900E+01    7.6753211088821685E+00
Ga   -4.8157947847225966E+00    8.3434049780235924E+00    8.3773805597155313E+00
N   -4.8152114350657946E+00    8.3437030688354437E+00    1.0305082323434741E+01
Ga   -4.8163542872855203E+00    1.0201281444725080E+01    1.1013018706497016E+01
N   -4.8149787839504876E+00    1.0205613049241503E+01    1.2929409315467328E+01
Ga   -4.8162013318115493E+00    8.3559714974155614E+00    1.3660954361447700E+01
N   -4.8217779358430164E+00    8.3507785080380827E+00    1.5579793987657130E+01
Ga   -4.8257766267136200E+00    1.0213220587487720E+01    1.6604793623106321E+01
N   -3.2404848287007253E+00    9.2630870398906691E+00    1.7505965337907561E+01
N    3.2096442876076350E+00   -3.9306228114699778E-04   -1.6777709938353608E-01
Ga    3.2092781511691610E+00    1.8542747367541044E+00    4.8881051433124684E-01
N    3.2095966918882084E+00    1.8545080351335410E+00    2.4030378176905156E+00
Ga    3.2098389011330180E+00   -3.4957239800534296E-04    3.1178981866581421E+00
N    3.2099274078530269E+00   -8.1014374884135984E-04    5.0372709197393783E+00
Ga    3.2096663475102849E+00    1.8543614427743211E+00    5.7514501234484339E+00
N    3.2104339212076587E+00    1.8553424496386486E+00    7.6740740050402811E+00
Ga    3.2113679324837063E+00    1.2585204610275156E-03    8.3790043207115676E+00
N    3.2130050963045154E+00    3.6661330796368325E-03    1.0306104895178629E+01
Ga    3.2099389215376877E+00    1.8578690889063205E+00    1.1018033807920366E+01
N    3.2114625324529933E+00    1.8646310355629847E+00    1.2942258959178945E+01
Ga    3.2093041604915231E+00    7.0292376610469297E-03    1.3655557567312554E+01
N    3.1970049298831440E+00   -5.8369895214760636E-03    1.5574431942067209E+01
Ga    3.2072954428953939E+00    1.8637929294586106E+00    1.6658016631586733E+01
N    4.7877612080276943E+00    9.0903495381538235E-01    1.7511410844502944E+01
N    1.6037873640612317E+00    2.7810372260417493E+00   -1.6762673756635399E-01
Ga    1.6033264795452842E+00    4.6358891765382406E+00    4.8879196508780220E-01
N    1.6034064212822696E+00    4.6363934721517133E+00    2.4029181991870776E+00
Ga    1.6038884420543540E+00    2.7814275627238629E+00    3.1169006805050046E+00
N    1.6040371429318900E+00    2.7811409409785570E+00    5.0364473920818069E+00
Ga    1.6028970524311625E+00    4.6358855860357515E+00    5.7522764790011953E+00
N    1.6035633192295138E+00    4.6366456894347996E+00    7.6750548073108158E+00
Ga    1.6042963912479014E+00    2.7809912603856910E+00    8.3759516302459325E+00
N    1.6047597791221273E+00    2.7813877751672740E+00    1.0303628031093719E+01
Ga    1.6046597141184584E+00    4.6340329753614640E+00    1.1014417196396648E+01
N    1.6061384427304199E+00    4.6349586597502128E+00    1.2935625247251993E+01
Ga    1.6061989193527617E+00    2.7843314211381349E+00    1.3671030542347015E+01
N    1.6025232925054584E+00    2.7950036440416999E+00    1.5594762931263933E+01
Ga    1.5896494874047911E+00    4.6414858830678458E+00    1.6609442883292484E+01
N    3.1963846587452007E+00    3.7287584353361987E+00    1.7514423720623903E+01
N   -2.0713870218865981E-03    5.5624462818702076E+00   -1.6777878841353255E-01
Ga   -2.5199711145420947E-03    7.4171877121468661E+00    4.8870787606145577E-01
N   -2.5280745073569628E-03    7.4175369094156913E+00    2.4027665329402303E+00
Ga   -2.1210181669017955E-03    5.5629868155002784E+00    3.1178995833579783E+00
N   -2.2221774246533031E-03    5.5626735488824721E+00    5.0373965504511551E+00
Ga   -2.6397094199093114E-03    7.4170903174891958E+00    5.7542303420271486E+00
N   -1.9584798346555113E-03    7.4180666499775363E+00    7.6767497723804734E+00
Ga   -1.4526223892432967E-03    5.5631316963250645E+00    8.3806384912333396E+00
N    4.1004863607536815E-04    5.5644147837709355E+00    1.0308710558335569E+01
Ga    3.7600066726915565E-04    7.4230039383827213E+00    1.1016585287479369E+01
N    3.9779529492702708E-03    7.4275426981228634E+00    1.2935260065156285E+01
Ga    5.2471021301267956E-03    5.5729051655294350E+00    1.3642382157119799E+01
N    1.6474106682904037E-03    5.5606813601568996E+00    1.5564442278554839E+01
Ga   -8.1713293873451054E-03    7.3863728228231622E+00    1.6613240325427217E+01
N    1.5955492267145983E+00    6.4808367292075610E+00    1.7517296351408142E+01
N   -1.6078740702393759E+00    8.3437923816021904E+00   -1.6782160912166166E-01
Ga   -1.6083104389712422E+00    1.0198525968632088E+01    4.8879204244325736E-01
N   -1.6081233008592126E+00    1.0198782376486090E+01    2.4029635890168857E+00
Ga   -1.6076246573757993E+00    8.3441442379604052E+00    3.1181295874066186E+00
N   -1.6077147485562540E+00    8.3438549455357229E+00    5.0376366257472176E+00
Ga   -1.6077768287619358E+00    1.0198670121418834E+01    5.7533067481426166E+00
N   -1.6067435705454092E+00    1.0200255842784392E+01    7.6754151235352337E+00
Ga   -1.6076284821975440E+00    8.3458162641238491E+00    8.3802129448980374E+00
N   -1.6071367227613724E+00    8.3484327437051959E+00    1.0306814206835005E+01
Ga   -1.6053300586775725E+00    1.0203274608124765E+01    1.1024668528567476E+01
N   -1.6036232925242424E+00    1.0208166240846223E+01    1.2942460129543516E+01
Ga   -1.5996298383898284E+00    8.3541029316701394E+00    1.3666101703696773E+01
N   -1.6209486557192705E+00    8.3375927337057227E+00    1.5587489228933041E+01
Ga   -1.6301310368089752E+00    1.0201381964639992E+01    1.6619047108912429E+01
N   -4.7934889008807928E-02    9.2186952592191478E+00    1.7507253974618060E+01
N    6.4191551289262145E+00   -3.4676717303748988E-04   -1.6767503945496898E-01
Ga    6.4187246054144866E+00    1.8543357140690813E+00    4.8871159004310927E-01
N    6.4188771784736414E+00    1.8546667690471874E+00    2.4030458653347906E+00
Ga    6.4191616271594576E+00   -2.8263154521279669E-05    3.1180049653594066E+00
N    6.4192620469719630E+00    9.3134339232020736E-05    5.0374769109604376E+00
Ga    6.4193391577434760E+00    1.8546939199263655E+00    5.7529786502257583E+00
N    6.4202462591912726E+00    1.8561371240209767E+00    7.6757133400169488E+00
Ga    6.4202803622707938E+00    1.5784170300032442E-03    8.3803665161722201E+00
N    6.4215012513176717E+00    4.4158982549928998E-03    1.0307493377866535E+01
Ga    6.4197752010123201E+00    1.8582429226387374E+00    1.1025209393381104E+01
N    6.4216509595313287E+00    1.8654269301307649E+00    1.2947022725792317E+01
Ga    6.4220309587486817E+00    1.0640692584916449E-02    1.3669694362940641E+01
N    6.4112659175721749E+00   -2.8528572439205313E-02    1.5590310828764339E+01
Ga    6.3961180986530906E+00    1.8516857749738111E+00    1.6639345803280239E+01
N    7.9996543215066920E+00    9.0310355295144196E-01    1.7505760475147561E+01
N    4.8133437623439832E+00    2.7810491361009455E+00   -1.6764071137297701E-01
Ga    4.8128395617433517E+00    4.6357794852649334E+00    4.8867714669866963E-01
N    4.8129816431161156E+00    4.6360751326532741E+00    2.4029552608291733E+00
Ga    4.8136465767848149E+00    2.7814137204241622E+00    3.1177243079830377E+00
N    4.8139893601513908E+00    2.7811740538932161E+00    5.0373418907815237E+00
Ga    4.8133812370152054E+00    4.6354824326122968E+00    5.7529819909315121E+00
N    4.8139715760126727E+00    4.6364899044911692E+00    7.6759522609171453E+00
Ga    4.8139900698935643E+00    2.7811534989066273E+00    8.3781699887197494E+00
N    4.8143640958807907E+00    2.7827314526469009E+00    1.0306612558616450E+01
Ga    4.8134052311280193E+00    4.6371680457270585E+00    1.1012109805313111E+01
N    4.8120559945463857E+00    4.6411069833090650E+00    1.2934305937301115E+01
Ga    4.8132621157529103E+00    2.7910069092980612E+00    1.3663995121809291E+01
N    4.8094021912484202E+00    2.7893325667668631E+00    1.5586341315101347E+01
Ga    4.8066511727432060E+00    4.6474703711070919E+00    1.6607154509487561E+01
N    6.3949236845849864E+00    3.7043059535259211E+00    1.7503794926658415E+01
N    3.2074778931733965E+00    5.5624199174209439E+00   -1.6766274802379427E-01
Ga    3.2069498772216702E+00    7.4171336806897212E+00    4.8887167086353878E-01
N    3.2069479798145561E+00    7.4173803328286576E+00    2.4031769786240731E+00
Ga    3.2076446665722718E+00    5.5624760990090225E+00    3.1176044582568387E+00
N    3.2079196216514316E+00    5.5616947938008670E+00    5.0373679245231049E+00
Ga    3.2067452071647544E+00    7.4170424441637319E+00    5.7505382619879564E+00
N    3.2073182482225064E+00    7.4172721712224741E+00    7.6725590789165272E+00
Ga    3.2075509224520045E+00    5.5633534966795457E+00    8.3766443655492715E+00
N    3.2073746309461266E+00    5.5648589323179820E+00    1.0305109173942020E+01
Ga    3.2079380376611377E+00    7.4209688088152195E+00    1.1019751798960316E+01
N    3.2079609292727738E+00    7.4251570100306221E+00    1.2942040963247280E+01
Ga    3.2067362805356012E+00    5.5679667060680886E+00    1.3650084124125923E+01
N    3.2010295392828119E+00    5.5699064158768801E+00    1.5571916223308948E+01
Ga    3.2078561545467892E+00    7.4200071312514231E+00    1.6658959297677551E+01
N    4.8023948869274964E+00    6.4860714147449174E+00    1.7518539724828834E+01
N    1.6016160553254633E+00    8.3438094822249624E+00   -1.6771734106917088E-01
Ga    1.6012054921520520E+00    1.0198595643781152E+01    4.8875953315457443E-01
N    1.6012779950091030E+00    1.0198942290129176E+01    2.4030205857652502E+00
Ga    1.6012542554930274E+00    8.3442078935093953E+00    3.1175122637252786E+00
N    1.6011638267586419E+00    8.3439789744039103E+00    5.0370342285340808E+00
Ga    1.6011233515574712E+00    1.0198927942454523E+01    5.7530161417148236E+00
N    1.6018634231888835E+00    1.0200342470142711E+01    7.6751807613195036E+00
Ga    1.6030699326856377E+00    8.3453876113537788E+00    8.3774647768905552E+00
N    1.6054430197902900E+00    8.3479004427052335E+00    1.0304642297358079E+01
Ga    1.6020452153114288E+00    1.0202210212480491E+01    1.1022777497882771E+01
N    1.6028039165201136E+00    1.0208583391306377E+01    1.2941210663871333E+01
Ga    1.6033655162628262E+00    8.3532837079712969E+00    1.3666229380089918E+01
N    1.6076485688980562E+00    8.3544071886528570E+00    1.5589094654222889E+01
Ga    1.6000645808012488E+00    1.0193339331717635E+01    1.6575330484135193E+01
N    3.1797221871485353E+00    9.2797377517127320E+00    1.7518830559079568E+01
N    9.6286210621803772E+00   -3.5897338810623308E-04   -1.6786934684715729E-01
Ga    9.6282637495260470E+00    1.8543243919389707E+00    4.8877528014618360E-01
N    9.6282294785440499E+00    1.8546321015019862E+00    2.4028687837443652E+00
Ga    9.6286581104962430E+00    5.2062851539398114E-05    3.1176667200709400E+00
N    9.6283842932919406E+00   -5.5246518035929440E-05    5.0371650555548806E+00
Ga    9.6281862829542000E+00    1.8549363661884322E+00    5.7534169942631523E+00
N    9.6287676757406331E+00    1.8563412139441491E+00    7.6758493701539043E+00
Ga    9.6292126567799325E+00    1.5637009238549612E-03    8.3790173655758462E+00
N    9.6295305255558983E+00    5.0762502956881268E-03    1.0307445450733882E+01
Ga    9.6306668206660397E+00    1.8613243696079473E+00    1.1015586453122117E+01
N    9.6291990341677671E+00    1.8706665030764043E+00    1.2940830680641328E+01
Ga    9.6360827728456773E+00    1.2065900169848365E-02    1.3645352484865910E+01
N    9.6323567562364438E+00   -5.9955533360724397E-03    1.5560666304108469E+01
Ga    9.6255775540528372E+00    1.8184332642691898E+00    1.6608342686938212E+01
N    1.1226707080543834E+01    9.1478563282754910E-01    1.7516293201000988E+01
N    8.0228097363400046E+00    2.7810460320260617E+00   -1.6766292702686580E-01
Ga    8.0224613831227600E+00    4.6358024224353231E+00    4.8883086068014409E-01
N    8.0225339218603775E+00    4.6360960488884109E+00    2.4029859780788079E+00
Ga    8.0229782125620730E+00    2.7814511407059386E+00    3.1175398340986908E+00
N    8.0228554579013789E+00    2.7814289392988805E+00    5.0373263934477865E+00
Ga    8.0231719219659112E+00    4.6358183428530051E+00    5.7537078184737638E+00
N    8.0239676481239322E+00    4.6373461443453685E+00    7.6764292258901454E+00
Ga    8.0238190584296412E+00    2.7830261141784107E+00    8.3805609824508540E+00
N    8.0238296885358409E+00    2.7862728175955622E+00    1.0308484599717463E+01
Ga    8.0246283620605272E+00    4.6416216810036337E+00    1.1021008635642470E+01
N    8.0249493693886329E+00    4.6480765529398989E+00    1.2941225992929848E+01
Ga    8.0253553843358105E+00    2.7959208113639589E+00    1.3670721519870368E+01
N    8.0112986087551317E+00    2.7756173902783887E+00    1.5583166715348941E+01
Ga    8.0087735535139863E+00    4.6352538853470424E+00    1.6621050087428127E+01
N    9.5908579942228780E+00    3.6518925192038685E+00    1.7499916766417066E+01
N    6.4169827712845109E+00    5.5623982193902366E+00   -1.6761290599530540E-01
Ga    6.4166436612988837E+00    7.4171658625768773E+00    4.8873539985912495E-01
N    6.4167933447670613E+00    7.4172908596113398E+00    2.4031726711161912E+00
Ga    6.4171774594562514E+00    5.5623630755624163E+00    3.1176388702173261E+00
N    6.4173799504361240E+00    5.5615026533810372E+00    5.0374630162535761E+00
Ga    6.4172541471713416E+00    7.4166118498158689E+00    5.7513606300093336E+00
N    6.4178592983272527E+00    7.4170545159416523E+00    7.6737185319884311E+00
Ga    6.4183537775774413E+00    5.5634593884938885E+00    8.3792841985815194E+00
N    6.4182092764115737E+00    5.5656291405339289E+00    1.0307731617802935E+01
Ga    6.4165812387303198E+00    7.4223672671628789E+00    1.1014887781530538E+01
N    6.4159055557266864E+00    7.4268916992135141E+00    1.2938591276179199E+01
Ga    6.4139464816593792E+00    5.5743065391849500E+00    1.3647630450124128E+01
N    6.4041189242956786E+00    5.5521299664581134E+00    1.5573221211488375E+01
Ga    6.4148787961336078E+00    7.4244150867242587E+00    1.6653329461130646E+01
N    7.9933677229041047E+00    6.4689503603506608E+00    1.7508268365181465E+01
N    4.8111357346216916E+00    8.3437612191967290E+00   -1.6766737773403298E-01
Ga    4.8106618395403711E+00    1.0198648040745686E+01    4.8858510978448833E-01
N    4.8106327276849052E+00    1.0198891384055253E+01    2.4028795830963734E+00
Ga    4.8112580635894311E+00    8.3441679746053179E+00    3.1170923922918243E+00
N    4.8114051995023654E+00    8.3434056974068582E+00    5.0366089453639020E+00
Ga    4.8107178543184181E+00    1.0198729904864384E+01    5.7518721085191507E+00
N    4.8108641371172105E+00    1.0199227279496203E+01    7.6741318123494748E+00
Ga    4.8116514691835430E+00    8.3433783548158260E+00    8.3745273263988924E+00
N    4.8111398906548279E+00    8.3435246396677325E+00    1.0302239938009036E+01
Ga    4.8131340507832601E+00    1.0198827786379262E+01    1.1016649753082772E+01
N    4.8134497999453059E+00    1.0202500504050221E+01    1.2932041503087278E+01
Ga    4.8127254108500406E+00    8.3519717612673432E+00    1.3667932883601372E+01
N    4.8081596011449497E+00    8.3480333137671856E+00    1.5592678763472296E+01
Ga    4.7978034742218014E+00    1.0199972335549433E+01    1.6605500264378009E+01
N    6.4016000420595311E+00    9.2830691999393782E+00    1.7510344155676325E+01
H    1.6962353072215764E-04   -3.3143523389678870E-04   -1.1906633169985175E+00
H   -1.6058180281256254E+00    2.7811127575189545E+00   -1.1906126783414799E+00
H   -3.2116139826103107E+00    5.5624201790092869E+00   -1.1906128656321115E+00
H   -4.8174378952936232E+00    8.3438481731080021E+00   -1.1907176690692578E+00
H    3.2095582008734045E+00   -3.6832464113775758E-04   -1.1907543472900806E+00
H    1.6037546627837878E+00    2.7811005137538545E+00   -1.1906299656302881E+00
H   -2.1146886795902920E-03    5.5625144054901083E+00   -1.1907507842977278E+00
H   -1.6078583984609380E+00    8.3438156940294110E+00   -1.1907912353453247E+00
H    6.4190916499472594E+00   -2.3461889647123126E-04   -1.1906366186630741E+00
H    4.8133580545614727E+00    2.7810861049123314E+00   -1.1905977649318551E+00
H    3.2074587206697749E+00    5.5623752118089982E+00   -1.1906243094702846E+00
H    1.6014831249924062E+00    8.3438419404348458E+00   -1.1906899229899863E+00
H    9.6285483201132838E+00   -2.6043913529056099E-04   -1.1908408058798190E+00
H    8.0227382077759550E+00    2.7810683062150638E+00   -1.1906258380984061E+00
H    6.4169365511102621E+00    5.5624211350964270E+00   -1.1905714053144527E+00
H    4.8111279110497831E+00    8.3437801675361332E+00   -1.1906478821774815E+00
     &END COORD
     &KIND H
       BASIS_SET DZVP-MOLOPT-SR-GTH-q1
       POTENTIAL GTH-PBE-q1
       &POTENTIAL
 1
  0.2000000000000000E+00 2 -0.4178900440000000E+01  0.7244633100000000E+00
 0
         # Potential name:  GTH-PBE-Q1  for symbol:  H
         # Potential read from the potential filename: GTH_POTENTIALS
       &END POTENTIAL
     &END KIND
     &KIND N
       BASIS_SET DZVP-MOLOPT-SR-GTH
       POTENTIAL GTH-PBE-q5
       &POTENTIAL
 2 3
  0.2837905100000000E+00 2 -0.1241522559000000E+02  0.1868095920000000E+01
 2
  0.2554050000000000E+00 1  0.1363026257000000E+02
  0.2454945300000000E+00 0
         # Potential name:  GTH-PBE-Q5  for symbol:  N
         # Potential read from the potential filename: GTH_POTENTIALS
       &END POTENTIAL
     &END KIND
     &KIND Ga
       BASIS_SET DZVP-MOLOPT-SR-GTH
       POTENTIAL GTH-PBE-q13
       &POTENTIAL
 2 1 10
  0.4900000000000000E+00 0
 3
  0.4167772300000000E+00 3  0.1047568975000000E+02 -0.4921768140000000E+01  0.8707055900000000E+00
  0.7770178090000000E+01 -0.2248152160000000E+01
  0.1784415450000000E+01
  0.5696265200000000E+00 2  0.1777985340000000E+01  0.1958597600000000E+00
 -0.2317443900000000E+00
  0.2381265000000000E+00 1 -0.1624868022000000E+02
         # Potential name:  GTH-PBE-Q13  for symbol:  GA
         # Potential read from the potential filename: GTH_POTENTIALS
       &END POTENTIAL
     &END KIND
     &TOPOLOGY
       NUMBER_OF_ATOMS  256
       MULTIPLE_UNIT_CELL  1 1 1
     &END TOPOLOGY
   &END SUBSYS
 &END FORCE_EVAL
