 # Version information for this restart file 
 # current date 2019-06-09 02:26:24.607
 # current working dir /lustre03/project/6037349/rzk/GaN-carbene/444-addat/00-Surface/UKS_SYMM
 # Program compiled at                              Sun Apr  7 00:48:11 EDT 2019
 # Program compiled on                          beluga2.int.ets1.calculquebec.ca
 # Program compiled for                        Beluga-Linux-x86-64-intel-openmpi
 # Source code revision number                                         svn:18619
 &GLOBAL
   PRINT_LEVEL  MEDIUM
   PROJECT_NAME TEST
   RUN_TYPE  CELL_OPT
 &END GLOBAL
 &MOTION
   &CELL_OPT
     MAX_ITER  300
     STEP_START_VAL  1
     EXTERNAL_PRESSURE     1.0000000000000000E+00
     KEEP_ANGLES  T
     KEEP_SYMMETRY  T
     CONSTRAINT  Z
     PRESSURE_TOLERANCE     5.0000000000000000E+02
   &END CELL_OPT
 &END MOTION
 &FORCE_EVAL
   METHOD  QS
   STRESS_TENSOR  ANALYTICAL
   &DFT
     BASIS_SET_FILE_NAME BASIS_MOLOPT
     POTENTIAL_FILE_NAME GTH_POTENTIALS
     UKS  T
     SURFACE_DIPOLE_CORRECTION  T
     SURF_DIP_DIR  Z
     &SCF
       MAX_SCF  100
       EPS_SCF     5.0000000000000004E-06
       &OT  T
         PRECONDITIONER  FULL_ALL
       &END OT
       &OUTER_SCF  T
         OPTIMIZER  NONE
         EPS_SCF     5.0000000000000004E-06
         MAX_SCF  4
       &END OUTER_SCF
       &PRINT
         &RESTART  OFF
           BACKUP_COPIES  1
           &EACH
             JUST_ENERGY  0
             QS_SCF  0
             MD  20
           &END EACH
         &END RESTART
       &END PRINT
     &END SCF
     &QS
       EPS_DEFAULT     1.0000000000000000E-14
       METHOD  GPW
     &END QS
     &MGRID
       NGRIDS  5
       CUTOFF     1.2000000000000000E+03
     &END MGRID
     &XC
       DENSITY_CUTOFF     1.0000000000000000E-10
       GRADIENT_CUTOFF     1.0000000000000000E-10
       TAU_CUTOFF     1.0000000000000000E-10
       &XC_FUNCTIONAL  NO_SHORTCUT
         &PBE  T
         &END PBE
       &END XC_FUNCTIONAL
       &VDW_POTENTIAL
         POTENTIAL_TYPE  PAIR_POTENTIAL
         &PAIR_POTENTIAL
           R_CUTOFF     1.0000000000000004E+01
           TYPE  DFTD3
           PARAMETER_FILE_NAME dftd3.dat
           REFERENCE_FUNCTIONAL PBE
           EPS_CN     9.9999999999999995E-07
           CALCULATE_C9_TERM  T
           REFERENCE_C9_TERM  T
           LONG_RANGE_CORRECTION  F
           VERBOSE_OUTPUT  F
         &END PAIR_POTENTIAL
       &END VDW_POTENTIAL
     &END XC
   &END DFT
   &SUBSYS
     &CELL
       A     1.3053419845870613E+01    0.0000000000000000E+00    0.0000000000000000E+00
       B    -6.5239103335507282E+00    1.1299744161733489E+01    0.0000000000000000E+00
       C     0.0000000000000000E+00    0.0000000000000000E+00    3.2000000000000000E+01
       MULTIPLE_UNIT_CELL  1 1 1
       &CELL_REF
         A     1.2982353780853531E+01    0.0000000000000000E+00    0.0000000000000000E+00
         B    -6.4911768904267628E+00    1.1243048175136114E+01    0.0000000000000000E+00
         C     0.0000000000000000E+00    0.0000000000000000E+00    3.2000000000000000E+01
         MULTIPLE_UNIT_CELL  1 1 1
       &END CELL_REF
     &END CELL
     &COORD
N   -6.7994472384133801E-06    5.5075991375565533E-06    6.7817551636024246E-03
Ga    4.3907443492724983E-04    1.8833048310286469E+00    6.2888547868270051E-01
N    4.3033426707902848E-04    1.8832970287254298E+00    2.5808052947131297E+00
Ga   -7.1096319039741648E-06    1.1503355185780674E-05    3.2217579645527388E+00
N   -1.2407646400897074E-05    1.5070337233974744E-05    5.1789947603946205E+00
Ga    4.3448690037751331E-04    1.8832995892029472E+00    5.8118438551744500E+00
N    4.2015575443939715E-04    1.8832918479886462E+00    7.7738035771968130E+00
Ga    1.8233095564135686E-06   -2.3503336406166169E-06    8.4033122401204636E+00
N    3.1542674293102346E-06    7.5249614820804942E-06    1.0367654027619793E+01
Ga    4.2452343193268217E-04    1.8832268593906021E+00    1.0995090089322977E+01
N    3.5667276200077963E-04    1.8827789275958555E+00    1.2959973387373223E+01
Ga    3.6881356322182037E-04    6.2088670716243483E-05    1.3584332431824489E+01
N    1.2856304993046610E-03   -1.9893099689440824E-03    1.5518097144222821E+01
Ga   -9.9853130410566034E-04    1.8861208840092523E+00    1.6190758799676633E+01
N    1.6098158228072443E+00    9.5069552168884797E-01    1.6903286558751596E+01
N   -1.6309824561777782E+00    2.8249512759960553E+00    6.7718254816143643E-03
Ga   -1.6305692682096948E+00    4.7082650234537180E+00    6.2888505644580017E-01
N   -1.6305703455222536E+00    4.7082787687535559E+00    2.5808027914616232E+00
Ga   -1.6309945676861592E+00    2.8249480712396826E+00    3.2217540882716698E+00
N   -1.6309809335132051E+00    2.8249521938126971E+00    5.1789932681505570E+00
Ga   -1.6305648429825503E+00    4.7082689756771430E+00    5.8118548525299767E+00
N   -1.6305755097233954E+00    4.7082715918598126E+00    7.7737847763497134E+00
Ga   -1.6309760900070389E+00    2.8249636284943618E+00    8.4033114708920333E+00
N   -1.6309105839909368E+00    2.8250122119728154E+00    1.0367671046233593E+01
Ga   -1.6305418628996144E+00    4.7083902270562277E+00    1.0995083658972877E+01
N   -1.6302237994068796E+00    4.7084426207287846E+00    1.2960104456911251E+01
Ga   -1.6313536504969690E+00    2.8246907663563960E+00    1.3585802923418822E+01
N   -1.6309432892065461E+00    2.8264786954582135E+00    1.5516086407576458E+01
Ga   -1.6310303763775333E+00    4.7096290278050397E+00    1.6190437153847885E+01
N   -2.2472017571690917E-02    3.7810561900503954E+00    1.6904423044592569E+01
N   -3.2619667445860361E+00    5.6498950634706295E+00    6.7783602014041154E-03
Ga   -3.2615278610265257E+00    7.5331903920777998E+00    6.2886306941469639E-01
N   -3.2615352949740388E+00    7.5331911628736359E+00    2.5807961176344811E+00
Ga   -3.2619701587646994E+00    5.6498946865436821E+00    3.2217557254418727E+00
N   -3.2619635162153693E+00    5.6498981740388956E+00    5.1789934383198117E+00
Ga   -3.2615526337128053E+00    7.5331920820699070E+00    5.8118425960856008E+00
N   -3.2615242457701732E+00    7.5331931337613414E+00    7.7737983266653528E+00
Ga   -3.2619682148710427E+00    5.6498932907964523E+00    8.4033541964209473E+00
N   -3.2619047901407954E+00    5.6498904988836403E+00    1.0367591694103893E+01
Ga   -3.2615620929073872E+00    7.5332109229568580E+00    1.0995429167183397E+01
N   -3.2612624028709258E+00    7.5333940895133322E+00    1.2959199790987300E+01
Ga   -3.2623238799454528E+00    5.6502675633078994E+00    1.3585996348172213E+01
N   -3.2615586858963894E+00    5.6495465589580034E+00    1.5516160460251852E+01
Ga   -3.2639306491633864E+00    7.5376655846711227E+00    1.6191799364623140E+01
N   -1.6512603247513040E+00    6.6050929492993298E+00    1.6904474865891157E+01
N   -4.8929479554433559E+00    8.4748485088380185E+00    6.7844549051357499E-03
Ga   -4.8925364727722256E+00    1.0358162794668273E+01    6.2886911420659819E-01
N   -4.8925301671373527E+00    1.0358163288087471E+01    2.5807880729181023E+00
Ga   -4.8929767637445405E+00    8.4748384472531360E+00    3.2218401544546618E+00
N   -4.8930100730196022E+00    8.4748698781977563E+00    5.1790069095198845E+00
Ga   -4.8925156098614462E+00    1.0358074474080308E+01    5.8118010128927278E+00
N   -4.8925464970347115E+00    1.0358179586281581E+01    7.7737814838416845E+00
Ga   -4.8929597869077819E+00    8.4748498388839799E+00    8.4033553431380934E+00
N   -4.8929428782895243E+00    8.4749166885462532E+00    1.0367556729678228E+01
Ga   -4.8925066847966665E+00    1.0358136199692662E+01    1.0995088352900401E+01
N   -4.8928367872677843E+00    1.0358320761479126E+01    1.2959980893151901E+01
Ga   -4.8932573024726072E+00    8.4740955886309681E+00    1.3586544884531937E+01
N   -4.8930080679435530E+00    8.4724384334877456E+00    1.5514875008124703E+01
Ga   -4.8940108186868638E+00    1.0358430444996422E+01    1.6193510034646494E+01
N   -3.2818590355476265E+00    9.4297231230977996E+00    1.6905692975431364E+01
N    3.2633568934585222E+00    1.5171454365567094E-06    6.7896543625757706E-03
Ga    3.2638268681166860E+00    1.8833071354040913E+00    6.2887478323421320E-01
N    3.2638352828489010E+00    1.8832969642362878E+00    2.5808003676637647E+00
Ga    3.2633646582062195E+00    7.6543020765126193E-06    3.2217709292461043E+00
N    3.2633556754828508E+00    2.6512165803569980E-05    5.1790223241151061E+00
Ga    3.2638305091226827E+00    1.8832402701731457E+00    5.8118301727265518E+00
N    3.2638288488325884E+00    1.8832995385046569E+00    7.7737849378578403E+00
Ga    3.2633525112225250E+00    2.0636284532290129E-06    8.4033503022567899E+00
N    3.2633348880022233E+00   -5.1032085314306647E-05    1.0367556994019358E+01
Ga    3.2639386741668504E+00    1.8833108276203496E+00    1.0995475695590994E+01
N    3.2639901607191395E+00    1.8832834208841955E+00    1.2959011536758531E+01
Ga    3.2633849848151821E+00    6.0554211724387079E-04    1.3585561135839463E+01
N    3.2619642886799323E+00    5.1702182873322733E-04    1.5516107695190277E+01
Ga    3.2622491334319479E+00    1.8870038326971839E+00    1.6192140773695094E+01
N    4.8740758890365008E+00    9.5392973770535083E-01    1.6902965846938088E+01
N    1.6323782659005983E+00    2.8249492157067895E+00    6.7797777231880015E-03
Ga    1.6328337614231923E+00    4.7082612336712888E+00    6.2887371900767952E-01
N    1.6328330519202858E+00    4.7082729246994610E+00    2.5807995457322361E+00
Ga    1.6323823520808756E+00    2.8249441585717756E+00    3.2217500393562797E+00
N    1.6323784721840238E+00    2.8249498354541109E+00    5.1789993136711043E+00
Ga    1.6328321352107666E+00    4.7082766708461596E+00    5.8118570149426532E+00
N    1.6328288113833995E+00    4.7082722655087981E+00    7.7737796623333626E+00
Ga    1.6323811761002445E+00    2.8249421117122235E+00    8.4033478820224534E+00
N    1.6322995840626824E+00    2.8249129301141274E+00    1.0367604455635389E+01
Ga    1.6328511563866099E+00    4.7082492752590390E+00    1.0995434033484885E+01
N    1.6325728255814158E+00    4.7082339893888507E+00    1.2959203034602771E+01
Ga    1.6329858824508303E+00    2.8250467803063817E+00    1.3586215571657412E+01
N    1.6327460429661955E+00    2.8241436961857787E+00    1.5514509386874932E+01
Ga    1.6319378641948421E+00    4.7095487584020832E+00    1.6192196166216494E+01
N    3.2413978490054340E+00    3.7794874926396336E+00    1.6903848809825302E+01
N    1.3957478692620570E-03    5.6498920495028475E+00    6.7787447831130993E-03
Ga    1.8685820206377558E-03    7.5331891664298283E+00    6.2885896848900802E-01
N    1.8634186195168620E-03    7.5331896306860822E+00    2.5808027609209434E+00
Ga    1.3988651540764829E-03    5.6499047463951388E+00    3.2217583005186499E+00
N    1.3895660021017212E-03    5.6498887532867919E+00    5.1789985640172604E+00
Ga    1.8770016883877393E-03    7.5331826180003878E+00    5.8118286591683868E+00
N    1.8687363176023736E-03    7.5332043509855335E+00    7.7738163594643659E+00
Ga    1.3954575528444381E-03    5.6498897805762320E+00    8.4033477587716163E+00
N    1.3618860670207653E-03    5.6499230538447049E+00    1.0367564897752489E+01
Ga    1.8889110176033537E-03    7.5330728527158763E+00    1.0995122655088652E+01
N    1.8852139491302156E-03    7.5330685484324178E+00    1.2959924579960411E+01
Ga    2.2675950588776830E-03    5.6495510694621656E+00    1.3585257118546107E+01
N    1.9571517437042825E-03    5.6489126188532692E+00    1.5515890877153888E+01
Ga   -1.1806338443196191E-05    7.5345376916351272E+00    1.6191969371443733E+01
N    1.6096858879231193E+00    6.6011482283519287E+00    1.6904695820271858E+01
N   -1.6295841136383420E+00    8.4748378127819617E+00    6.7867100678275444E-03
Ga   -1.6291304438409995E+00    1.0358153468495066E+01    6.2886260255299919E-01
N   -1.6291371748570371E+00    1.0358164188301474E+01    2.5807998583858462E+00
Ga   -1.6295786090204609E+00    8.4748442236157562E+00    3.2217589893437366E+00
N   -1.6295852831974791E+00    8.4748338733696755E+00    5.1790073166365387E+00
Ga   -1.6291583126718399E+00    1.0358178680238654E+01    5.8118320016938254E+00
N   -1.6291271656458162E+00    1.0358161762302965E+01    7.7737979260878456E+00
Ga   -1.6295848120807233E+00    8.4748488683917937E+00    8.4033252718253628E+00
N   -1.6295295505067533E+00    8.4748800277905403E+00    1.0367648252385649E+01
Ga   -1.6291850168922422E+00    1.0358199310965993E+01    1.0995180439099626E+01
N   -1.6292232093320620E+00    1.0357997321564040E+01    1.2959760060267714E+01
Ga   -1.6292780161638276E+00    8.4745623504325973E+00    1.3585414944483729E+01
N   -1.6279028640100763E+00    8.4733673061495853E+00    1.5516452012290594E+01
Ga   -1.6326767820217090E+00    1.0360456950873719E+01    1.6192198158692072E+01
N   -1.9785290633455063E-02    9.4227002546324528E+00    1.6904401739933647E+01
N    6.5267290404621017E+00    1.1749270441151222E-06    6.7863211673563186E-03
Ga    6.5271744182153446E+00    1.8833097599210322E+00    6.2887025187097245E-01
N    6.5271579097409074E+00    1.8833009955696927E+00    2.5808071487504520E+00
Ga    6.5267289261357870E+00    4.5400515657373239E-06    3.2217613994679049E+00
N    6.5267265672378656E+00    2.9516319191514720E-06    5.1789963816907170E+00
Ga    6.5271722091142292E+00    1.8833047417098465E+00    5.8118434615749965E+00
N    6.5271539102554561E+00    1.8832782851201078E+00    7.7737842018423784E+00
Ga    6.5267286824372546E+00    5.0440053944795945E-06    8.4033267811123427E+00
N    6.5267206858160920E+00   -5.4349769041445621E-05    1.0367663988002347E+01
Ga    6.5272204710100219E+00    1.8834188005207604E+00    1.0995393225088044E+01
N    6.5272852772464933E+00    1.8834217141772744E+00    1.2959251951056766E+01
Ga    6.5268561629221198E+00    4.8718641744056624E-04    1.3585967698351165E+01
N    6.5272266526883760E+00   -7.6967907641579600E-04    1.5516238553206600E+01
Ga    6.5257490798306685E+00    1.8849274663350548E+00    1.6190354255340793E+01
N    8.1367078226956053E+00    9.5396810689442491E-01    1.6904587244626796E+01
N    4.8957442906538891E+00    2.8249509538169133E+00    6.7878887350354446E-03
Ga    4.8961700206099321E+00    4.7082709264737206E+00    6.2886174976071663E-01
N    4.8961585986063865E+00    4.7082754380847849E+00    2.5808106792605332E+00
Ga    4.8957489826343474E+00    2.8249406280995655E+00    3.2217575003882515E+00
N    4.8957479168547913E+00    2.8249553864079200E+00    5.1789946089076748E+00
Ga    4.8961749899622173E+00    4.7082807809227409E+00    5.8118583897542200E+00
N    4.8961480059199562E+00    4.7082767653883462E+00    7.7737634874374910E+00
Ga    4.8957528392681686E+00    2.8249747253909021E+00    8.4033770558810001E+00
N    4.8957490476958965E+00    2.8249790482865915E+00    1.0367554041428868E+01
Ga    4.8962220756956372E+00    4.7083367666852132E+00    1.0995287047798728E+01
N    4.8959681651613360E+00    4.7084594025319255E+00    1.2959642844995297E+01
Ga    4.8963137135725532E+00    2.8246330532790487E+00    1.3585451632951917E+01
N    4.8975591017718427E+00    2.8233269210568577E+00    1.5516405247319463E+01
Ga    4.8937978022560067E+00    4.7106039036818457E+00    1.6193524715228076E+01
N    6.5018870018824488E+00    3.7828214794205297E+00    1.6903118375915287E+01
N    3.2647568386314343E+00    5.6498978120696393E+00    6.7812811453883109E-03
Ga    3.2652110036824582E+00    7.5331903126485997E+00    6.2886269401997441E-01
N    3.2652002842604948E+00    7.5331934297245038E+00    2.5807977118165062E+00
Ga    3.2647584587495455E+00    5.6499040511435279E+00    3.2217649513130899E+00
N    3.2647583761332197E+00    5.6498947719339450E+00    5.1789934730185854E+00
Ga    3.2652063231834942E+00    7.5331782577022981E+00    5.8118404989123968E+00
N    3.2651867786024713E+00    7.5332070010705907E+00    7.7737876256644380E+00
Ga    3.2647701736253469E+00    5.6498900403509218E+00    8.4033625416986180E+00
N    3.2647370901283068E+00    5.6499526533970768E+00    1.0367549797620436E+01
Ga    3.2652552443606115E+00    7.5331155189175734E+00    1.0995203658204041E+01
N    3.2651070482262226E+00    7.5333553967673677E+00    1.2959692310070080E+01
Ga    3.2644977007208174E+00    5.6494355914391985E+00    1.3585845119809996E+01
N    3.2639927036885035E+00    5.6482370465792480E+00    1.5514991177480493E+01
Ga    3.2657666472165108E+00    7.5361688359011882E+00    1.6192395559154235E+01
N    4.8739431276901986E+00    6.6060511195205240E+00    1.6905750072608093E+01
N    1.6337810477225019E+00    8.4748440888182639E+00    6.7864537449461616E-03
Ga    1.6341986314466219E+00    1.0358159113803630E+01    6.2887344676598667E-01
N    1.6341967556216206E+00    1.0358164839683280E+01    2.5807996444642476E+00
Ga    1.6337745096521972E+00    8.4748376019312470E+00    3.2217657105773831E+00
N    1.6337790582938898E+00    8.4748486690744933E+00    5.1790038914023828E+00
Ga    1.6342048427125635E+00    1.0358166223230922E+01    5.8118331928082476E+00
N    1.6341900328656158E+00    1.0358164208590800E+01    7.7738043288317709E+00
Ga    1.6337844332049787E+00    8.4748405317231157E+00    8.4033051584532306E+00
N    1.6337794498408014E+00    8.4748621034906559E+00    1.0367676350802137E+01
Ga    1.6342574344220993E+00    1.0358233677108398E+01    1.0995181293630552E+01
N    1.6343631490000126E+00    1.0358003172868653E+01    1.2959778931887882E+01
Ga    1.6338748843422821E+00    8.4747447754951679E+00    1.3585514861809628E+01
N    1.6337241768994895E+00    8.4753739303020623E+00    1.5516969688976822E+01
Ga    1.6341229753706925E+00    1.0360156151458606E+01    1.6190491523643047E+01
N    3.2418940829652430E+00    9.4288427953081069E+00    1.6905890064862028E+01
N    9.7900911243677502E+00    4.2558830831716984E-07    6.7863329110793690E-03
Ga    9.7905653355575026E+00    1.8833076016971317E+00    6.2888513793922496E-01
N    9.7905652193472843E+00    1.8832952285658879E+00    2.5808016410878558E+00
Ga    9.7900831188528148E+00    8.8970756569682015E-06    3.2217584544921416E+00
N    9.7900897385771515E+00   -3.0375304420251338E-06    5.1789995019398471E+00
Ga    9.7905728580986100E+00    1.8832996150990176E+00    5.8118501726120240E+00
N    9.7905816989126855E+00    1.8832914960030867E+00    7.7737821227763249E+00
Ga    9.7901012118190209E+00    5.8219391990792870E-08    8.4033435707053883E+00
N    9.7901167445178743E+00   -6.0717135237932942E-05    1.0367592081429988E+01
Ga    9.7905196184687622E+00    1.8833080559988318E+00    1.0995448056181621E+01
N    9.7906777917551722E+00    1.8832664009086746E+00    1.2959151727531763E+01
Ga    9.7902731266597343E+00    3.5923742822181802E-04    1.3585907117543846E+01
N    9.7906796781131575E+00    1.6667806996363166E-03    1.5515289663213936E+01
Ga    9.7892256463962148E+00    1.8843205836552601E+00    1.6191733498457431E+01
N    1.1398818836024537E+01    9.5196752338839385E-01    1.6903798674635514E+01
N    8.1591171864267675E+00    2.8249455137256718E+00    6.7797584942170695E-03
Ga    8.1595640423716400E+00    4.7082624062705909E+00    6.2887426070244601E-01
N    8.1595572792699418E+00    4.7082763696723164E+00    2.5808041103794057E+00
Ga    8.1591176137335459E+00    2.8249391698200577E+00    3.2217489679252092E+00
N    8.1591066895657942E+00    2.8249453441901626E+00    5.1790012978159128E+00
Ga    8.1595670237851401E+00    4.7082753932797816E+00    5.8118640074039050E+00
N    8.1595688772151345E+00    4.7082826857569167E+00    7.7737546563279283E+00
Ga    8.1591083014968113E+00    2.8249551101992711E+00    8.4034070343484935E+00
N    8.1591425286363730E+00    2.8249045437376696E+00    1.0367451012121050E+01
Ga    8.1595182804414712E+00    4.7081950699069619E+00    1.0995470916297792E+01
N    8.1597379473143139E+00    4.7080204461698347E+00    1.2959090334288028E+01
Ga    8.1596354133204603E+00    2.8248235453567285E+00    1.3585474285160826E+01
N    8.1609725648975040E+00    2.8238114413448105E+00    1.5515536675822485E+01
Ga    8.1589962416201995E+00    4.7104018711371447E+00    1.6190182897108581E+01
N    9.7670746651415072E+00    3.7749611549110460E+00    1.6904270523364698E+01
N    6.5281276267023713E+00    5.6498921229800754E+00    6.7909007848246461E-03
Ga    6.5285897177291128E+00    7.5331812605672841E+00    6.2889191896542307E-01
N    6.5286060233839267E+00    7.5331844645869719E+00    2.5807767563493336E+00
Ga    6.5281288844026708E+00    5.6499114346169019E+00    3.2217584209562187E+00
N    6.5281146839434312E+00    5.6498815496828856E+00    5.1789943893852710E+00
Ga    6.5286953274202650E+00    7.5332525968942345E+00    5.8118013380234643E+00
N    6.5285759225598303E+00    7.5331956602347203E+00    7.7737792209033181E+00
Ga    6.5281245711823583E+00    5.6498830553301786E+00    8.4034000712081163E+00
N    6.5281203893902058E+00    5.6498921146730883E+00    1.0367474124510636E+01
Ga    6.5286541701560186E+00    7.5330424825174234E+00    1.0995482547510827E+01
N    6.5284495126930695E+00    7.5330047962605091E+00    1.2959053281855995E+01
Ga    6.5290902540400069E+00    5.6489061413241801E+00    1.3585466170668330E+01
N    6.5289492896911847E+00    5.6477205027535584E+00    1.5516218099900748E+01
Ga    6.5266860987960831E+00    7.5333011842203206E+00    1.6191284009556263E+01
N    8.1373088580816990E+00    6.6048937716498468E+00    1.6903150413704811E+01
N    4.8971400517392203E+00    8.4748426824712180E+00    6.7866342327471893E-03
Ga    4.8976087509119388E+00    1.0358152842792125E+01    6.2888178801768013E-01
N    4.8975981508159450E+00    1.0358161910183881E+01    2.5807997591241665E+00
Ga    4.8971400148607076E+00    8.4748357303671966E+00    3.2217730468457297E+00
N    4.8971378778290200E+00    8.4748316692181849E+00    5.1789985087087906E+00
Ga    4.8976100051989313E+00    1.0358165734107779E+01    5.8118489000232536E+00
N    4.8975977849365151E+00    1.0358162199175663E+01    7.7737867644188370E+00
Ga    4.8971606646849146E+00    8.4748422850135832E+00    8.4033296824949133E+00
N    4.8970913104267799E+00    8.4749163023506302E+00    1.0367626949119041E+01
Ga    4.8976637950699242E+00    1.0358193701871103E+01    1.0995098439930400E+01
N    4.8979959833438436E+00    1.0358269395079031E+01    1.2959985776655415E+01
Ga    4.8980828937211172E+00    8.4744277740487632E+00    1.3586098628477091E+01
N    4.8986150014401098E+00    8.4739774327752446E+00    1.5514829098101288E+01
Ga    4.8953954073513364E+00    1.0359873295311658E+01    1.6192872769533071E+01
N    6.4878611415622585E+00    9.4204152514661548E+00    1.6927903358407267E+01
H    1.6939383631204313E-07   -6.0214083152852687E-07   -1.0119407678094425E+00
H   -1.6309836311349108E+00    2.8249468658385006E+00   -1.0119295283262728E+00
H   -3.2619679357698925E+00    5.6498942173587894E+00   -1.0119337000330455E+00
H   -4.8929490830203495E+00    8.4748382465281278E+00   -1.0119296762386960E+00
H    3.2633674342018772E+00   -1.2603804800271772E-06   -1.0119374286459353E+00
H    1.6323845095823126E+00    2.8249458397402103E+00   -1.0119272243621917E+00
H    1.3997982105277698E-03    5.6498940785327987E+00   -1.0119274255847450E+00
H   -1.6295849542611109E+00    8.4748393772848907E+00   -1.0119199046412393E+00
H    6.5267312250412077E+00    8.0421136179329738E-07   -1.0119343918524775E+00
H    4.8957512916294812E+00    2.8249474180373193E+00   -1.0119327261574262E+00
H    3.2647677583280688E+00    5.6498922301436760E+00   -1.0119276025497592E+00
H    1.6337810689960464E+00    8.4748384286556391E+00   -1.0119270487021019E+00
H    9.7900982147724189E+00   -1.6733956553144184E-07   -1.0119394008524760E+00
H    8.1591129649416718E+00    2.8249459487764526E+00   -1.0119268339656293E+00
H    6.5281309883225376E+00    5.6498919667579894E+00   -1.0119355576544877E+00
H    4.8971497944469347E+00    8.4748366348050297E+00   -1.0119265451867481E+00
     &END COORD
     &KIND H
       BASIS_SET DZVP-MOLOPT-SR-GTH-q1
       POTENTIAL GTH-PBE-q1
       &POTENTIAL
 1
  0.2000000000000000E+00 2 -0.4178900440000000E+01  0.7244633100000000E+00
 0
         # Potential name:  GTH-PBE-Q1  for symbol:  H
         # Potential read from the potential filename: GTH_POTENTIALS
       &END POTENTIAL
     &END KIND
     &KIND N
       BASIS_SET DZVP-MOLOPT-SR-GTH
       POTENTIAL GTH-PBE-q5
       &POTENTIAL
 2 3
  0.2837905100000000E+00 2 -0.1241522559000000E+02  0.1868095920000000E+01
 2
  0.2554050000000000E+00 1  0.1363026257000000E+02
  0.2454945300000000E+00 0
         # Potential name:  GTH-PBE-Q5  for symbol:  N
         # Potential read from the potential filename: GTH_POTENTIALS
       &END POTENTIAL
     &END KIND
     &KIND Ga
       BASIS_SET DZVP-MOLOPT-SR-GTH
       POTENTIAL GTH-PBE-q13
       &POTENTIAL
 2 1 10
  0.4900000000000000E+00 0
 3
  0.4167772300000000E+00 3  0.1047568975000000E+02 -0.4921768140000000E+01  0.8707055900000000E+00
  0.7770178090000000E+01 -0.2248152160000000E+01
  0.1784415450000000E+01
  0.5696265200000000E+00 2  0.1777985340000000E+01  0.1958597600000000E+00
 -0.2317443900000000E+00
  0.2381265000000000E+00 1 -0.1624868022000000E+02
         # Potential name:  GTH-PBE-Q13  for symbol:  GA
         # Potential read from the potential filename: GTH_POTENTIALS
       &END POTENTIAL
     &END KIND
     &TOPOLOGY
       NUMBER_OF_ATOMS  256
       MULTIPLE_UNIT_CELL  1 1 1
     &END TOPOLOGY
   &END SUBSYS
 &END FORCE_EVAL
