 # Version information for this restart file 
 # current date 2019-06-09 07:36:37.881
 # current working dir /lustre03/project/6037349/rzk/GaN-carbene/444-addat/00-Surface/UKS_SYMM
 # Program compiled at                              Sun Apr  7 00:48:11 EDT 2019
 # Program compiled on                          beluga2.int.ets1.calculquebec.ca
 # Program compiled for                        Beluga-Linux-x86-64-intel-openmpi
 # Source code revision number                                         svn:18619
 &GLOBAL
   PRINT_LEVEL  MEDIUM
   PROJECT_NAME TEST
   RUN_TYPE  CELL_OPT
 &END GLOBAL
 &MOTION
   &CELL_OPT
     MAX_ITER  300
     STEP_START_VAL  45
     EXTERNAL_PRESSURE     1.0000000000000000E+00
     KEEP_ANGLES  T
     KEEP_SYMMETRY  T
     CONSTRAINT  Z
     PRESSURE_TOLERANCE     5.0000000000000000E+02
   &END CELL_OPT
 &END MOTION
 &FORCE_EVAL
   METHOD  QS
   STRESS_TENSOR  ANALYTICAL
   &DFT
     BASIS_SET_FILE_NAME BASIS_MOLOPT
     POTENTIAL_FILE_NAME GTH_POTENTIALS
     UKS  T
     SURFACE_DIPOLE_CORRECTION  T
     SURF_DIP_DIR  Z
     &SCF
       MAX_SCF  100
       EPS_SCF     5.0000000000000004E-06
       &OT  T
         PRECONDITIONER  FULL_ALL
       &END OT
       &OUTER_SCF  T
         OPTIMIZER  NONE
         EPS_SCF     5.0000000000000004E-06
         MAX_SCF  4
       &END OUTER_SCF
       &PRINT
         &RESTART  OFF
           BACKUP_COPIES  1
           &EACH
             JUST_ENERGY  0
             QS_SCF  0
             MD  20
           &END EACH
         &END RESTART
       &END PRINT
     &END SCF
     &QS
       EPS_DEFAULT     1.0000000000000000E-14
       METHOD  GPW
     &END QS
     &MGRID
       NGRIDS  5
       CUTOFF     1.2000000000000000E+03
     &END MGRID
     &XC
       DENSITY_CUTOFF     1.0000000000000000E-10
       GRADIENT_CUTOFF     1.0000000000000000E-10
       TAU_CUTOFF     1.0000000000000000E-10
       &XC_FUNCTIONAL  NO_SHORTCUT
         &PBE  T
         &END PBE
       &END XC_FUNCTIONAL
       &VDW_POTENTIAL
         POTENTIAL_TYPE  PAIR_POTENTIAL
         &PAIR_POTENTIAL
           R_CUTOFF     1.0000000000000004E+01
           TYPE  DFTD3
           PARAMETER_FILE_NAME dftd3.dat
           REFERENCE_FUNCTIONAL PBE
           EPS_CN     9.9999999999999995E-07
           CALCULATE_C9_TERM  T
           REFERENCE_C9_TERM  T
           LONG_RANGE_CORRECTION  F
           VERBOSE_OUTPUT  F
         &END PAIR_POTENTIAL
       &END VDW_POTENTIAL
     &END XC
   &END DFT
   &SUBSYS
     &CELL
       A     1.2831676553848213E+01    0.0000000000000000E+00    0.0000000000000000E+00
       B    -6.4145085155593327E+00    1.1110254654532042E+01    0.0000000000000000E+00
       C     0.0000000000000000E+00    0.0000000000000000E+00    3.2000000000000000E+01
       MULTIPLE_UNIT_CELL  1 1 1
       &CELL_REF
         A     1.2982353780853531E+01    0.0000000000000000E+00    0.0000000000000000E+00
         B    -6.4911768904267628E+00    1.1243048175136114E+01    0.0000000000000000E+00
         C     0.0000000000000000E+00    0.0000000000000000E+00    3.2000000000000000E+01
         MULTIPLE_UNIT_CELL  1 1 1
       &END CELL_REF
     &END CELL
     &COORD
N    3.5868230822660047E-04   -2.1447781747228209E-04   -2.0809624124562287E-01
Ga    6.3666659698555803E-04    1.8516251408043030E+00    4.7355729820596532E-01
N    6.8090387659943395E-04    1.8518741524843669E+00    2.3909538506379695E+00
Ga    4.9100132968309649E-04    2.4478273038998639E-05    3.1191965877507037E+00
N    7.3328842031178518E-04    1.6427414168062435E-04    5.0402616918863608E+00
Ga    1.0562515848352033E-03    1.8520691810742873E+00    5.7568902098057677E+00
N    1.5310532859409965E-03    1.8533612870268248E+00    7.6799916340910412E+00
Ga    1.2651523380065406E-03    2.0761358540021015E-03    8.3936268102089997E+00
N    1.5093185580247997E-03    4.5938491181023991E-03    1.0317103809396166E+01
Ga    2.9529079516418498E-03    1.8566517993803566E+00    1.1030838452452695E+01
N    3.8504948311938363E-03    1.8596877224852448E+00    1.2957020364347317E+01
Ga    1.6647101196014338E-03    5.8008915755880623E-03    1.3669649800448967E+01
N   -6.5929550626647763E-03    1.9928145109955717E-03    1.5587256790870750E+01
Ga   -1.9361490051105189E-03    1.8502104387133040E+00    1.6652273648869517E+01
N    1.5952666874526484E+00    9.1848774227695085E-01    1.7528559560784821E+01
N   -1.6033164980071091E+00    2.7773822897382598E+00   -2.0796466917196382E-01
Ga   -1.6029480949463606E+00    4.6292155436175060E+00    4.7366638836703201E-01
N   -1.6028449384754013E+00    4.6294887650090093E+00    2.3910701149770248E+00
Ga   -1.6031950013471197E+00    2.7777051565368129E+00    3.1194810360431449E+00
N   -1.6029666860932648E+00    2.7779699684613974E+00    5.0405953846764397E+00
Ga   -1.6024795031454206E+00    4.6298878605930875E+00    5.7574899067983978E+00
N   -1.6020047523003580E+00    4.6314168470679382E+00    7.6807181516989784E+00
Ga   -1.6017816140999277E+00    2.7797389662733409E+00    8.3937958379481614E+00
N   -1.6006905719196611E+00    2.7821883891585344E+00    1.0317511535870048E+01
Ga   -1.6014805640639118E+00    4.6338604293982533E+00    1.1031130717396634E+01
N   -1.6018463545193782E+00    4.6351577478456116E+00    1.2956854235097525E+01
Ga   -1.6015382177938784E+00    2.7828198769977210E+00    1.3676510150593252E+01
N   -1.5944790432057756E+00    2.7850457959648902E+00    1.5600860739038103E+01
Ga   -1.6045601230197213E+00    4.6271812938067152E+00    1.6606272648423658E+01
N   -1.7842178879599664E-02    3.7052247107360272E+00    1.7530971880961765E+01
N   -3.2069055180733157E+00    5.5549106130476336E+00   -2.0792221574910291E-01
Ga   -3.2065188837396108E+00    7.4067409384440177E+00    4.7369046415655586E-01
N   -3.2063646368146936E+00    7.4070252416912643E+00    2.3910879575033652E+00
Ga   -3.2066726192625614E+00    5.5552825818950629E+00    3.1195997184437365E+00
N   -3.2063776460659152E+00    5.5556292231930495E+00    5.0406945814181281E+00
Ga   -3.2059277427730253E+00    7.4075056679159319E+00    5.7575006875028523E+00
N   -3.2053690928288181E+00    7.4089614659130456E+00    7.6807138345747212E+00
Ga   -3.2057890649139460E+00    5.5574122623323801E+00    8.3945099635786669E+00
N   -3.2053479000795013E+00    5.5593888099469515E+00    1.0318357296013346E+01
Ga   -3.2050513100525460E+00    7.4113421607341170E+00    1.1031004628233649E+01
N   -3.2045576184965863E+00    7.4143110086644457E+00    1.2956460254529786E+01
Ga   -3.2057167034931888E+00    5.5640255242537391E+00    1.3678526056709874E+01
N   -3.2086682528914325E+00    5.5428424164147065E+00    1.5598576990564222E+01
Ga   -3.2303829797558530E+00    7.4048340568690039E+00    1.6634116093490103E+01
N   -1.6235587366868127E+00    6.4714264167809468E+00    1.7520676169376884E+01
N   -4.8104763731989433E+00    8.3324020493984552E+00   -2.0798656038078830E-01
Ga   -4.8101801258818657E+00    1.0184283293039975E+01    4.7345851152402335E-01
N   -4.8100638941597262E+00    1.0184526889911906E+01    2.3908788859024388E+00
Ga   -4.8102739742894860E+00    8.3327655185431126E+00    3.1194036954273154E+00
N   -4.8099264530548886E+00    8.3330061319083875E+00    5.0404488478436269E+00
Ga   -4.8096945205382218E+00    1.0184909525567004E+01    5.7571181045376987E+00
N   -4.8092336389910457E+00    1.0186258826275054E+01    7.6804303227860391E+00
Ga   -4.8094991550229356E+00    8.3345063918945357E+00    8.3937410975797171E+00
N   -4.8091067832544923E+00    8.3359220303906199E+00    1.0317177930446702E+01
Ga   -4.8090116635571896E+00    1.0188225369074933E+01    1.1027426997314899E+01
N   -4.8101852934540332E+00    1.0190565201953905E+01    1.2950177474411669E+01
Ga   -4.8093096585843673E+00    8.3417346158699228E+00    1.3674724791446728E+01
N   -4.8155818009893157E+00    8.3417297182205630E+00    1.5592834130703784E+01
Ga   -4.8221778103792392E+00    1.0191847464884919E+01    1.6614984206324689E+01
N   -3.2297659949838917E+00    9.2506006617542589E+00    1.7514766468678829E+01
N    3.2083156502279371E+00   -2.4899234847610048E-04   -2.0801595565314296E-01
Ga    3.2086370906068566E+00    1.8516111256797427E+00    4.7351659681002894E-01
N    3.2087435098248038E+00    1.8518622167512864E+00    2.3909246029863551E+00
Ga    3.2085103403798554E+00    6.3202339505871911E-05    3.1193697501545552E+00
N    3.2088873644293980E+00    2.0131410043226563E-04    5.0404636676815127E+00
Ga    3.2091207222664595E+00    1.8521131553299079E+00    5.7570639368094039E+00
N    3.2096536722829772E+00    1.8533227708026574E+00    7.6801682032243299E+00
Ga    3.2095385922152193E+00    1.9850534810072883E-03    8.3939994944630296E+00
N    3.2100573566815194E+00    3.8607102750253964E-03    1.0317519178990212E+01
Ga    3.2097740112544160E+00    1.8558815544994078E+00    1.1030964932585389E+01
N    3.2103627491765221E+00    1.8583192227426251E+00    1.2955853452154320E+01
Ga    3.2073580194617670E+00    6.1474952507469711E-03    1.3671144749507032E+01
N    3.1941083269415671E+00   -7.1851716386053237E-03    1.5589113359578507E+01
Ga    3.2072519817682110E+00    1.8573001557567781E+00    1.6658871791569908E+01
N    4.7889208686153149E+00    9.0723572138627673E-01    1.7519622597129622E+01
N    1.6046294456256338E+00    2.7773132800590301E+00   -2.0797717119172593E-01
Ga    1.6049085197614010E+00    4.6291937937471657E+00    4.7348650495440137E-01
N    1.6049456303905372E+00    4.6294354676076859E+00    2.3908910224415636E+00
Ga    1.6048002230414276E+00    2.7776404149988045E+00    3.1192798619796385E+00
N    1.6050585120888685E+00    2.7777499452600223E+00    5.0403135673310739E+00
Ga    1.6053481166980532E+00    4.6296347852363420E+00    5.7571354755585871E+00
N    1.6056567504570409E+00    4.6307781759710647E+00    7.6803128973782933E+00
Ga    1.6057491207478172E+00    2.7789382960485516E+00    8.3934186078910979E+00
N    1.6063915864737921E+00    2.7807950537680686E+00    1.0316915373004949E+01
Ga    1.6070416403503227E+00    4.6323020902809597E+00    1.1029420380640607E+01
N    1.6069716321970360E+00    4.6334572078438541E+00    1.2953662790164627E+01
Ga    1.6089903934459822E+00    2.7837161110368771E+00    1.3680837867971404E+01
N    1.5990724459570536E+00    2.7816464925102236E+00    1.5604159665240143E+01
Ga    1.5903470842165750E+00    4.6316830007065546E+00    1.6617931370613498E+01
N    3.1898196180544178E+00    3.7134884406479243E+00    1.7522635859786043E+01
N    9.5322945288544203E-04    5.5549346539093731E+00   -2.0802377761188828E-01
Ga    1.3189768283227545E-03    7.4067572681015754E+00    4.7366653027675609E-01
N    1.4246551308487075E-03    7.4070466259192926E+00    2.3910976318699437E+00
Ga    1.1748348045478901E-03    5.5552641529684292E+00    3.1195812770015920E+00
N    1.4255589460394620E-03    5.5556007965840717E+00    5.0406452246447566E+00
Ga    1.9065278928329234E-03    7.4075668988424850E+00    5.7572823425657198E+00
N    2.4755838457601390E-03    7.4090021895986888E+00    7.6805627174492281E+00
Ga    2.2076582084735357E-03    5.5572869897794810E+00    8.3941236158029273E+00
N    2.7253234513125442E-03    5.5594108867979966E+00    1.0318015574912126E+01
Ga    3.6254289660255404E-03    7.4121614104570543E+00    1.1028744700058690E+01
N    4.0726531084179160E-03    7.4145248194953979E+00    1.2953656606587531E+01
Ga    4.7458736367054187E-03    5.5630141178517016E+00    1.3668722773050339E+01
N   -1.9589084934630414E-03    5.5509729249619131E+00    1.5584817166289142E+01
Ga   -1.0939912351256352E-02    7.3876231349459580E+00    1.6623895144379180E+01
N    1.5903498722842859E+00    6.4745613791883887E+00    1.7528346214586875E+01
N   -1.6026208326420477E+00    8.3324734658092758E+00   -2.0795633716942169E-01
Ga   -1.6022390097373096E+00    1.0184307911771421E+01    4.7360629179391778E-01
N   -1.6020818819506204E+00    1.0184588985628826E+01    2.3910066127019172E+00
Ga   -1.6023953783129947E+00    8.3328930416093421E+00    3.1196108487685907E+00
N   -1.6020747576458192E+00    8.3332694043961038E+00    5.0407078863293577E+00
Ga   -1.6015483966256097E+00    1.0185119462961906E+01    5.7576467243152925E+00
N   -1.6008846610417182E+00    1.0186553478926022E+01    7.6809038991862275E+00
Ga   -1.6013416603750579E+00    8.3349896631582752E+00    8.3941842206010975E+00
N   -1.6010707618520519E+00    8.3370008106201716E+00    1.0317980579486798E+01
Ga   -1.6005383151565804E+00    1.0189048637794780E+01    1.1030928963967382E+01
N   -1.5998977832926435E+00    1.0191502079284948E+01    1.2956189811841652E+01
Ga   -1.5988623094737755E+00    8.3401463457332312E+00    1.3675181077908958E+01
N   -1.6148727486344203E+00    8.3322324975346813E+00    1.5596699548218218E+01
Ga   -1.6199534703151259E+00    1.0186835097390528E+01    1.6628733103677327E+01
N   -2.5037145027843384E-02    9.2185737967227563E+00    1.7510077039023326E+01
N    6.4161775267622385E+00   -1.7473020057077156E-04   -2.0794264396881160E-01
Ga    6.4165778700932998E+00    1.8516589634180651E+00    4.7371266156964364E-01
N    6.4167468596122514E+00    1.8519479008009494E+00    2.3911229366579190E+00
Ga    6.4164220215739043E+00    1.8432662234445200E-04    3.1195214786099346E+00
N    6.4167419173347087E+00    4.9923559860777489E-04    5.0406512630373337E+00
Ga    6.4170618211919237E+00    1.8522874814921579E+00    5.7576644015394960E+00
N    6.4176067677952222E+00    1.8537674675281153E+00    7.6809122924340718E+00
Ga    6.4174683185653709E+00    2.4600449235794297E-03    8.3949276511827371E+00
N    6.4179176720771389E+00    4.5117607824994533E-03    1.0318670931949473E+01
Ga    6.4179274236594566E+00    1.8566569237723451E+00    1.1031329482948266E+01
N    6.4187021403211384E+00    1.8596591010021093E+00    1.2956882982572051E+01
Ga    6.4179857177490964E+00    9.5463612425073195E-03    1.3678892064482651E+01
N    6.4136829858187765E+00   -1.0097543628107233E-02    1.5599263062221940E+01
Ga    6.3935986163114578E+00    1.8487041032779619E+00    1.6635531515147068E+01
N    8.0005918987198097E+00    9.1481347653882039E-01    1.7521382993197712E+01
N    4.8126119431848755E+00    2.7772964152745327E+00   -2.0800888523420905E-01
Ga    4.8129231216581658E+00    4.6291498741820609E+00    4.7351726268018418E-01
N    4.8130271966680107E+00    4.6293847261021268E+00    2.3909270593521934E+00
Ga    4.8127985713740076E+00    2.7776343397707777E+00    3.1194593290185426E+00
N    4.8131213102622326E+00    2.7777850003322073E+00    5.0405268498405116E+00
Ga    4.8133088316809074E+00    4.6296450336988144E+00    5.7573350759659405E+00
N    4.8137906280278528E+00    4.6309028483418233E+00    7.6805690614703339E+00
Ga    4.8134600328751596E+00    2.7791462462249936E+00    8.3941989536910153E+00
N    4.8137586928215521E+00    2.7808400520776768E+00    1.0317612420548276E+01
Ga    4.8139156777348298E+00    4.6334623492393376E+00    1.1027731710530119E+01
N    4.8131149885405788E+00    4.6355729718762246E+00    1.2950275850147955E+01
Ga    4.8138861730363036E+00    2.7869510068460679E+00    1.3676111185814957E+01
N    4.8088185013432216E+00    2.7866107653410275E+00    1.5594183932069514E+01
Ga    4.8029142083671124E+00    4.6350316375404264E+00    1.6615050462495574E+01
N    6.3966812803953319E+00    3.6937342430184708E+00    1.7516531127313929E+01
N    3.2089263256452965E+00    5.5548711060587097E+00   -2.0802605318116332E-01
Ga    3.2092004339639235E+00    7.4067270139322616E+00    4.7354426470645644E-01
N    3.2092406429572216E+00    7.4069842052842905E+00    2.3909343501882203E+00
Ga    3.2090687747208193E+00    5.5551267307171486E+00    3.1192577058350084E+00
N    3.2093170794267292E+00    5.5553341130113827E+00    5.0403329971295809E+00
Ga    3.2096203456468690E+00    7.4073413052882628E+00    5.7567774320523641E+00
N    3.2100131883901617E+00    7.4087758577145246E+00    7.6798306026390408E+00
Ga    3.2096686489324564E+00    5.5572108770710047E+00    8.3932016721789875E+00
N    3.2099566820931815E+00    5.5596967066151750E+00    1.0316677636250144E+01
Ga    3.2115180558221939E+00    7.4114818573349908E+00    1.1030414876945017E+01
N    3.2125826521004255E+00    7.4146643931502938E+00    1.2956535689678132E+01
Ga    3.2107227108204830E+00    5.5609969220791422E+00    1.3670411120556494E+01
N    3.2019370658567388E+00    5.5567571645599214E+00    1.5587640947453128E+01
Ga    3.2070109179976312E+00    7.4040121368520833E+00    1.6651606961913803E+01
N    4.8050591470766966E+00    6.4716893268970583E+00    1.7526936076472477E+01
N    1.6052538860773768E+00    8.3324892306631408E+00   -2.0796610439175273E-01
Ga    1.6056234169192836E+00    1.0184346081031999E+01    4.7358516621072222E-01
N    1.6057425228701623E+00    1.0184660608030111E+01    2.3909909183755076E+00
Ga    1.6054572890925272E+00    8.3329375735624236E+00    3.1194605717671573E+00
N    1.6057164205971699E+00    8.3333835322374430E+00    5.0405212558090566E+00
Ga    1.6061055923572827E+00    1.0185213445366092E+01    5.7576021210212236E+00
N    1.6065508848098524E+00    1.0186706295575203E+01    7.6808610981431542E+00
Ga    1.6066986560208183E+00    8.3350063625691089E+00    8.3937573165441464E+00
N    1.6076838405300815E+00    8.3371918813708383E+00    1.0317424502445652E+01
Ga    1.6071093080977517E+00    1.0188802285103224E+01    1.1030952679967475E+01
N    1.6067008203162276E+00    1.0189948357675663E+01    1.2956643703698147E+01
Ga    1.6070604373115678E+00    8.3375597746518508E+00    1.3675991110770951E+01
N    1.6130231484806916E+00    8.3404008239231597E+00    1.5600167368943355E+01
Ga    1.6032942326211062E+00    1.0180977167343988E+01    1.6605867061345577E+01
N    3.1913244116097581E+00    9.2581499099263258E+00    1.7529511636321221E+01
N    9.6240396842003264E+00   -1.6396738735337591E-04   -2.0804143386463420E-01
Ga    9.6243930073010979E+00    1.8516710283860458E+00    4.7359507904684095E-01
N    9.6244627615767708E+00    1.8519541889974804E+00    2.3910247104351483E+00
Ga    9.6242494270513870E+00    2.2366835524335730E-04    3.1194918839100092E+00
N    9.6244620753113459E+00    5.6806455963881106E-04    5.0406250584137284E+00
Ga    9.6248770194548374E+00    1.8523533974118653E+00    5.7577607593834905E+00
N    9.6252521903532990E+00    1.8539626099055171E+00    7.6810932007700927E+00
Ga    9.6251626700456328E+00    2.2623261749301874E-03    8.3942392977010645E+00
N    9.6257427957276072E+00    4.3544667092857382E-03    1.0318036893098807E+01
Ga    9.6268713701894573E+00    1.8572952751360157E+00    1.1028861855411447E+01
N    9.6277151133015106E+00    1.8589892091351625E+00    1.2953644950768743E+01
Ga    9.6279411149970233E+00    7.2613202753870334E-03    1.3668102517755042E+01
N    9.6208328890534673E+00   -4.9170321765002025E-03    1.5584491217589830E+01
Ga    9.6131174531287673E+00    1.8306797282037102E+00    1.6623625363983475E+01
N    1.1214624074363590E+01    9.1713414200477006E-01    1.7528486686985858E+01
N    8.0204661925699519E+00    2.7773649474005131E+00   -2.0798195233628616E-01
Ga    8.0208551438792028E+00    4.6291562486942315E+00    4.7371220405021441E-01
N    8.0210040083205776E+00    4.6294083599960638E+00    2.3911436530706180E+00
Ga    8.0207260193124679E+00    2.7777084022808740E+00    3.1198226793071648E+00
N    8.0209745801255714E+00    2.7779772761544255E+00    5.0409132879548775E+00
Ga    8.0214008849846508E+00    4.6299160954103478E+00    5.7575279116419615E+00
N    8.0219083495121151E+00    4.6313884974093327E+00    7.6807596927927522E+00
Ga    8.0213488266090831E+00    2.7800573570349258E+00    8.3946784583109864E+00
N    8.0219223005319691E+00    2.7821326815893697E+00    1.0318386233422878E+01
Ga    8.0221804625264372E+00    4.6342274754142583E+00    1.1031212575294626E+01
N    8.0228748199822615E+00    4.6357799886964273E+00    1.2956183203729010E+01
Ga    8.0247477639278966E+00    2.7845665207563344E+00    1.3675737347779238E+01
N    8.0095292416999762E+00    2.7769178136037920E+00    1.5597458893288010E+01
Ga    8.0038840408592211E+00    4.6306808597042997E+00    1.6626441272425584E+01
N    9.6005429929734962E+00    3.6616327264104394E+00    1.7509963283721980E+01
N    6.4169088539877244E+00    5.5548382905016576E+00   -2.0800750512229638E-01
Ga    6.4172334364060317E+00    7.4066838184950692E+00    4.7354838234953162E-01
N    6.4173480277655379E+00    7.4069440720510684E+00    2.3909543946467116E+00
Ga    6.4170570877409503E+00    5.5551506294410693E+00    3.1195008494570828E+00
N    6.4173065974279115E+00    5.5553648949290668E+00    5.0405714320307116E+00
Ga    6.4176348347649155E+00    7.4074235806310007E+00    5.7568481398550650E+00
N    6.4181712933378661E+00    7.4088286191711976E+00    7.6798873225978044E+00
Ga    6.4179535562442744E+00    5.5573875177876415E+00    8.3937082102080645E+00
N    6.4185217760620104E+00    5.5593620085080424E+00    1.0317232494880898E+01
Ga    6.4184646316531904E+00    7.4112141804418554E+00    1.1030342694214953E+01
N    6.4190811744643828E+00    7.4133200971486160E+00    1.2955106031176600E+01
Ga    6.4160853220214982E+00    5.5611001485818745E+00    1.3671073740443667E+01
N    6.4031997662895010E+00    5.5464637648301283E+00    1.5588295599923146E+01
Ga    6.4167855096502695E+00    7.4103152931052483E+00    1.6656696445317522E+01
N    7.9985950153175498E+00    6.4603558424725716E+00    1.7517547034690736E+01
N    4.8132196890219445E+00    8.3324057139856773E+00   -2.0796730988280096E-01
Ga    4.8135115862480005E+00    1.0184341033570810E+01    4.7338711144809298E-01
N    4.8135373959448353E+00    1.0184628633861722E+01    2.3908082504596342E+00
Ga    4.8133648427509383E+00    8.3328032803292764E+00    3.1191431969082601E+00
N    4.8135790867164046E+00    8.3330973818392593E+00    5.0401900473353818E+00
Ga    4.8138671074651755E+00    1.0184952483673424E+01    5.7571109663903579E+00
N    4.8142754033397903E+00    1.0186349195524233E+01    7.6803339455325395E+00
Ga    4.8142189073803348E+00    8.3343993724307222E+00    8.3930029573683562E+00
N    4.8149736702001009E+00    8.3360304168068442E+00    1.0316430796887442E+01
Ga    4.8154421731428858E+00    1.0187364817712595E+01    1.1028404732461095E+01
N    4.8156090143418613E+00    1.0188111976757350E+01    1.2952744972477920E+01
Ga    4.8177542068308412E+00    8.3385538635199570E+00    1.3679619128852028E+01
N    4.8081220179737798E+00    8.3366906248238379E+00    1.5602846494055314E+01
Ga    4.7986852890525071E+00    1.0185186267045831E+01    1.6616901946765719E+01
N    6.3978921327572396E+00    9.2666842729535208E+00    1.7521260001360869E+01
H    3.1212866183081661E-04   -1.3947563298175438E-04   -1.2354333087931304E+00
H   -1.6033931719866159E+00    2.7774498921725490E+00   -1.2353011916228338E+00
H   -3.2069668589723190E+00    5.5549306236211784E+00   -1.2352620755919723E+00
H   -4.8104934366424734E+00    8.3323019815480066E+00   -1.2353196238261572E+00
H    3.2083480300616589E+00   -2.5294096358406269E-04   -1.2353514533025627E+00
H    1.6045664813476486E+00    2.7772767394336211E+00   -1.2353106924204846E+00
H    7.9118222838991622E-04    5.5549357135438298E+00   -1.2353584843852370E+00
H   -1.6027525173524111E+00    8.3325033434365672E+00   -1.2352912853532310E+00
H    6.4160586089361500E+00   -1.5338531481703230E-04   -1.2352799178828437E+00
H    4.8125851023873363E+00    2.7772539724108531E+00   -1.2353451094824792E+00
H    3.2088782754123151E+00    5.5549259930716701E+00   -1.2353632975182576E+00
H    1.6051959731507566E+00    8.3324955627368116E+00   -1.2353003054203748E+00
H    9.6238737159734669E+00   -1.2493151417628052E-04   -1.2353746518984758E+00
H    8.0203455669052630E+00    2.7773875185644346E+00   -1.2353180666450538E+00
H    6.4168870532841451E+00    5.5548325302989561E+00   -1.2353478225345567E+00
H    4.8131354582353429E+00    8.3322913414907376E+00   -1.2353013735437428E+00
     &END COORD
     &KIND H
       BASIS_SET DZVP-MOLOPT-SR-GTH-q1
       POTENTIAL GTH-PBE-q1
       &POTENTIAL
 1
  0.2000000000000000E+00 2 -0.4178900440000000E+01  0.7244633100000000E+00
 0
         # Potential name:  GTH-PBE-Q1  for symbol:  H
         # Potential read from the potential filename: GTH_POTENTIALS
       &END POTENTIAL
     &END KIND
     &KIND N
       BASIS_SET DZVP-MOLOPT-SR-GTH
       POTENTIAL GTH-PBE-q5
       &POTENTIAL
 2 3
  0.2837905100000000E+00 2 -0.1241522559000000E+02  0.1868095920000000E+01
 2
  0.2554050000000000E+00 1  0.1363026257000000E+02
  0.2454945300000000E+00 0
         # Potential name:  GTH-PBE-Q5  for symbol:  N
         # Potential read from the potential filename: GTH_POTENTIALS
       &END POTENTIAL
     &END KIND
     &KIND Ga
       BASIS_SET DZVP-MOLOPT-SR-GTH
       POTENTIAL GTH-PBE-q13
       &POTENTIAL
 2 1 10
  0.4900000000000000E+00 0
 3
  0.4167772300000000E+00 3  0.1047568975000000E+02 -0.4921768140000000E+01  0.8707055900000000E+00
  0.7770178090000000E+01 -0.2248152160000000E+01
  0.1784415450000000E+01
  0.5696265200000000E+00 2  0.1777985340000000E+01  0.1958597600000000E+00
 -0.2317443900000000E+00
  0.2381265000000000E+00 1 -0.1624868022000000E+02
         # Potential name:  GTH-PBE-Q13  for symbol:  GA
         # Potential read from the potential filename: GTH_POTENTIALS
       &END POTENTIAL
     &END KIND
     &TOPOLOGY
       NUMBER_OF_ATOMS  256
       MULTIPLE_UNIT_CELL  1 1 1
     &END TOPOLOGY
   &END SUBSYS
 &END FORCE_EVAL
