 # Version information for this restart file 
 # current date 2019-06-09 06:11:17.228
 # current working dir /lustre03/project/6037349/rzk/GaN-carbene/444-addat/00-Surface/UKS_SYMM
 # Program compiled at                              Sun Apr  7 00:48:11 EDT 2019
 # Program compiled on                          beluga2.int.ets1.calculquebec.ca
 # Program compiled for                        Beluga-Linux-x86-64-intel-openmpi
 # Source code revision number                                         svn:18619
 &GLOBAL
   PRINT_LEVEL  MEDIUM
   PROJECT_NAME TEST
   RUN_TYPE  CELL_OPT
 &END GLOBAL
 &MOTION
   &CELL_OPT
     MAX_ITER  300
     STEP_START_VAL  34
     EXTERNAL_PRESSURE     1.0000000000000000E+00
     KEEP_ANGLES  T
     KEEP_SYMMETRY  T
     CONSTRAINT  Z
     PRESSURE_TOLERANCE     5.0000000000000000E+02
   &END CELL_OPT
 &END MOTION
 &FORCE_EVAL
   METHOD  QS
   STRESS_TENSOR  ANALYTICAL
   &DFT
     BASIS_SET_FILE_NAME BASIS_MOLOPT
     POTENTIAL_FILE_NAME GTH_POTENTIALS
     UKS  T
     SURFACE_DIPOLE_CORRECTION  T
     SURF_DIP_DIR  Z
     &SCF
       MAX_SCF  100
       EPS_SCF     5.0000000000000004E-06
       &OT  T
         PRECONDITIONER  FULL_ALL
       &END OT
       &OUTER_SCF  T
         OPTIMIZER  NONE
         EPS_SCF     5.0000000000000004E-06
         MAX_SCF  4
       &END OUTER_SCF
       &PRINT
         &RESTART  OFF
           BACKUP_COPIES  1
           &EACH
             JUST_ENERGY  0
             QS_SCF  0
             MD  20
           &END EACH
         &END RESTART
       &END PRINT
     &END SCF
     &QS
       EPS_DEFAULT     1.0000000000000000E-14
       METHOD  GPW
     &END QS
     &MGRID
       NGRIDS  5
       CUTOFF     1.2000000000000000E+03
     &END MGRID
     &XC
       DENSITY_CUTOFF     1.0000000000000000E-10
       GRADIENT_CUTOFF     1.0000000000000000E-10
       TAU_CUTOFF     1.0000000000000000E-10
       &XC_FUNCTIONAL  NO_SHORTCUT
         &PBE  T
         &END PBE
       &END XC_FUNCTIONAL
       &VDW_POTENTIAL
         POTENTIAL_TYPE  PAIR_POTENTIAL
         &PAIR_POTENTIAL
           R_CUTOFF     1.0000000000000004E+01
           TYPE  DFTD3
           PARAMETER_FILE_NAME dftd3.dat
           REFERENCE_FUNCTIONAL PBE
           EPS_CN     9.9999999999999995E-07
           CALCULATE_C9_TERM  T
           REFERENCE_C9_TERM  T
           LONG_RANGE_CORRECTION  F
           VERBOSE_OUTPUT  F
         &END PAIR_POTENTIAL
       &END VDW_POTENTIAL
     &END XC
   &END DFT
   &SUBSYS
     &CELL
       A     1.2834766217391149E+01    0.0000000000000000E+00    0.0000000000000000E+00
       B    -6.4154211503421639E+00    1.1111835384344660E+01    0.0000000000000000E+00
       C     0.0000000000000000E+00    0.0000000000000000E+00    3.2000000000000000E+01
       MULTIPLE_UNIT_CELL  1 1 1
       &CELL_REF
         A     1.2982353780853531E+01    0.0000000000000000E+00    0.0000000000000000E+00
         B    -6.4911768904267628E+00    1.1243048175136114E+01    0.0000000000000000E+00
         C     0.0000000000000000E+00    0.0000000000000000E+00    3.2000000000000000E+01
         MULTIPLE_UNIT_CELL  1 1 1
       &END CELL_REF
     &END CELL
     &COORD
N    2.4782137462680892E-04   -2.8187956556331657E-04   -2.0761200216004688E-01
Ga    6.6826865038184177E-04    1.8519364831806442E+00    4.7388559502871264E-01
N    6.6656986371959161E-04    1.8522308390678353E+00    2.3909680516429663E+00
Ga    4.3860129034771353E-04   -7.9442356781543101E-05    3.1188260130022720E+00
N    6.5451335658192557E-04   -1.3658910696151029E-04    5.0392928571960862E+00
Ga    8.5441255179822433E-04    1.8523501722437092E+00    5.7555898093881632E+00
N    1.1558903243840562E-03    1.8533298175172606E+00    7.6784757510273378E+00
Ga    1.0345038020708125E-03    1.4153639125868368E-03    8.3915802144259040E+00
N    1.6780111070918301E-03    3.8049834684213920E-03    1.0315188617455105E+01
Ga    2.8057317626269244E-03    1.8555356895664112E+00    1.1030807585377310E+01
N    4.5092581441048933E-03    1.8606228750856659E+00    1.2957395285501288E+01
Ga    2.7187129624933479E-03    6.5666522008032292E-03    1.3670365230993877E+01
N   -5.8426283831538341E-03    6.0400560704197389E-03    1.5587477097789451E+01
Ga   -2.0764329814783734E-03    1.8521954634861273E+00    1.6660873905820083E+01
N    1.5964840093926589E+00    9.2168273518441435E-01    1.7529684201553344E+01
N   -1.6036451301230146E+00    2.7777233450755823E+00   -2.0751854901354494E-01
Ga   -1.6031194703029896E+00    4.6299406100541907E+00    4.7395033234929229E-01
N   -1.6030826234968001E+00    4.6302521881099068E+00    2.3910622876276491E+00
Ga   -1.6036374410229517E+00    2.7781635430218574E+00    3.1191095635550825E+00
N   -1.6035602294422080E+00    2.7783421155296644E+00    5.0396541505969950E+00
Ga   -1.6028162069226006E+00    4.6303494147167070E+00    5.7572661360303696E+00
N   -1.6022734033820116E+00    4.6315337590311554E+00    7.6804458714146921E+00
Ga   -1.6021758068977168E+00    2.7795090313574988E+00    8.3934394095513483E+00
N   -1.6010098353672704E+00    2.7820177167377809E+00    1.0317190683772056E+01
Ga   -1.6011334814528753E+00    4.6342867079883536E+00    1.1030941956507860E+01
N   -1.6007126575260993E+00    4.6374973810635804E+00    1.2956287624627549E+01
Ga   -1.6008915244129205E+00    2.7851183990964210E+00    1.3675900024577599E+01
N   -1.5959357975292177E+00    2.7846881184196906E+00    1.5599947427106274E+01
Ga   -1.6076369748334958E+00    4.6243631643616467E+00    1.6605832416819315E+01
N   -1.8025501366275693E-02    3.7083588255574349E+00    1.7531708362508571E+01
N   -3.2074576946423741E+00    5.5556339095614646E+00   -2.0750841775941370E-01
Ga   -3.2068768118765112E+00    7.4078262856804997E+00    4.7397558659918287E-01
N   -3.2067005079588604E+00    7.4080104470209394E+00    2.3911150084789643E+00
Ga   -3.2072950741859541E+00    5.5558987876763615E+00    3.1194167036529876E+00
N   -3.2070341108066782E+00    5.5558951219115338E+00    5.0399929454480450E+00
Ga   -3.2062659556006392E+00    7.4080946420159552E+00    5.7567561372327614E+00
N   -3.2054123281789146E+00    7.4093581182922845E+00    7.6798640347788671E+00
Ga   -3.2059447318441503E+00    5.5578813383442398E+00    8.3946298176626026E+00
N   -3.2054438893148558E+00    5.5603989941396721E+00    1.0318383840682168E+01
Ga   -3.2048762527476349E+00    7.4132518048680671E+00    1.1030940915324733E+01
N   -3.2040619339535099E+00    7.4169969691945319E+00    1.2956806690779008E+01
Ga   -3.2053830672908061E+00    5.5663280837993909E+00    1.3677283493535477E+01
N   -3.2127937324618676E+00    5.5427334568328757E+00    1.5596361714935311E+01
Ga   -3.2319871921040626E+00    7.4026209067748114E+00    1.6638375639904105E+01
N   -1.6245238642304440E+00    6.4680405786485125E+00    1.7518658672625687E+01
N   -4.8112734684412999E+00    8.3335183381089752E+00   -2.0756224099191842E-01
Ga   -4.8107832050040082E+00    1.0185770699462733E+01    4.7370310254040399E-01
N   -4.8106494681426808E+00    1.0185970655242985E+01    2.3908065663953142E+00
Ga   -4.8109762967667775E+00    8.3338251159728269E+00    3.1189703443039081E+00
N   -4.8106736522128202E+00    8.3337303083094909E+00    5.0395020833839501E+00
Ga   -4.8101956079709520E+00    1.0186065391900121E+01    5.7563529825537803E+00
N   -4.8094570475162230E+00    1.0187268030885114E+01    7.6794529597914254E+00
Ga   -4.8101127079566561E+00    8.3349107301647276E+00    8.3921131507433664E+00
N   -4.8096244370860308E+00    8.3368796374127232E+00    1.0315945596544800E+01
Ga   -4.8090492801451639E+00    1.0189689361139305E+01    1.1027335206950628E+01
N   -4.8096434634526108E+00    1.0192869830579575E+01    1.2950717375026576E+01
Ga   -4.8101367707744540E+00    8.3433590310635921E+00    1.3675224153955877E+01
N   -4.8159642276496175E+00    8.3430263720513427E+00    1.5593528920636020E+01
Ga   -4.8222583012625657E+00    1.0196106122333189E+01    1.6617341389949356E+01
N   -3.2329627534471279E+00    9.2498023322722300E+00    1.7517421828171965E+01
N    3.2089954150515778E+00   -3.1882866625840679E-04   -2.0758930390865610E-01
Ga    3.2095003339760804E+00    1.8518837258879948E+00    4.7386060036692135E-01
N    3.2096450844447029E+00    1.8521390985171162E+00    2.3909655251251509E+00
Ga    3.2091913236941152E+00   -9.2694412527097826E-05    3.1189755475944887E+00
N    3.2095088399232461E+00   -9.0669899795992661E-05    5.0394662674499937E+00
Ga    3.2099127876159290E+00    1.8521734998440367E+00    5.7559332531371465E+00
N    3.2105981308857494E+00    1.8532527057757913E+00    7.6789768017928166E+00
Ga    3.2105282917521705E+00    1.7163091053319026E-03    8.3932259395422211E+00
N    3.2114065858394980E+00    3.8299535557420319E-03    1.0316975629493372E+01
Ga    3.2108526019771011E+00    1.8558190655401203E+00    1.1031089714996966E+01
N    3.2113792984010896E+00    1.8588285940899167E+00    1.2957099173550999E+01
Ga    3.2091953015421346E+00    6.1846536808730897E-03    1.3672514348906271E+01
N    3.1953071876994081E+00   -5.2132713501730618E-03    1.5590238638436430E+01
Ga    3.2089498737549893E+00    1.8575743677017504E+00    1.6664404144636187E+01
N    4.7920812405072590E+00    9.0814854165418368E-01    1.7522854589613353E+01
N    1.6050847200531273E+00    2.7776540457940539E+00   -2.0741305672046845E-01
Ga    1.6055008390592025E+00    4.6299546713414985E+00    4.7375913502559969E-01
N    1.6054885997009156E+00    4.6302158381660208E+00    2.3908758712292340E+00
Ga    1.6052387343195520E+00    2.7779968187767450E+00    3.1186633669674437E+00
N    1.6054419375393032E+00    2.7779396570036043E+00    5.0391640901772874E+00
Ga    1.6057174437020336E+00    4.6300556331289320E+00    5.7563518130817837E+00
N    1.6060643467666726E+00    4.6308007972746177E+00    7.6795531454753867E+00
Ga    1.6059283114679548E+00    2.7781725673667541E+00    8.3916072785273812E+00
N    1.6066155854920896E+00    2.7793682539971143E+00    1.0315390724303716E+01
Ga    1.6071250867571945E+00    4.6312877326475652E+00    1.1027151231848160E+01
N    1.6079960356581038E+00    4.6337983525573954E+00    1.2951987652817428E+01
Ga    1.6095824106149683E+00    2.7848207221363634E+00    1.3681295426485404E+01
N    1.6020103751726449E+00    2.7865587045518829E+00    1.5604850504732150E+01
Ga    1.5919588001709486E+00    4.6326202835301036E+00    1.6621461206310165E+01
N    3.1940825030103488E+00    3.7156882729009797E+00    1.7524129574306169E+01
N    1.1652103606916760E-03    5.5556505322875056E+00   -2.0766217890749880E-01
Ga    1.6572715518906418E-03    7.4078521824315322E+00    4.7382379215935017E-01
N    1.6777539053969294E-03    7.4080925781494384E+00    2.3909660387570799E+00
Ga    1.2457571498351988E-03    5.5560352850233672E+00    3.1192873916595012E+00
N    1.3804658386543992E-03    5.5560418770699593E+00    5.0398957687670620E+00
Ga    2.0157182636943139E-03    7.4082667555836617E+00    5.7570432034214418E+00
N    2.6912243050615458E-03    7.4095646039725462E+00    7.6801975067060289E+00
Ga    2.2432481829175719E-03    5.5574216093808255E+00    8.3932343664854301E+00
N    3.0781386934964918E-03    5.5600154256069567E+00    1.0317168450459613E+01
Ga    4.6227500143592309E-03    7.4137135495627380E+00    1.1027846184858236E+01
N    5.7347357833849527E-03    7.4174108767232108E+00    1.2953088223994033E+01
Ga    6.6483670266965595E-03    5.5653635390912690E+00    1.3667125674848331E+01
N   -2.8931788413129661E-03    5.5519033940084732E+00    1.5583748183660521E+01
Ga   -1.1006390067181017E-02    7.3874095384068381E+00    1.6630006913914226E+01
N    1.5914987014223507E+00    6.4746642596098436E+00    1.7527943683163457E+01
N   -1.6026424352127271E+00    8.3336056719591998E+00   -2.0764279764918864E-01
Ga   -1.6020853775738586E+00    1.0185759958691898E+01    4.7394754035018088E-01
N   -1.6019235043313209E+00    1.0186026198937871E+01    2.3910555651848675E+00
Ga   -1.6023948542390001E+00    8.3339514034854361E+00    3.1194126562165043E+00
N   -1.6021506226995632E+00    8.3341278589093939E+00    5.0399897503538300E+00
Ga   -1.6014468173624330E+00    1.0186458174480178E+01    5.7569929221975986E+00
N   -1.6004779333797474E+00    1.0187950725214058E+01    7.6802117419074225E+00
Ga   -1.6014280371950853E+00    8.3361229466747382E+00    8.3935062392743163E+00
N   -1.6006205666008384E+00    8.3385163802188309E+00    1.0317262820859799E+01
Ga   -1.6000646925303645E+00    1.0190620658884479E+01    1.1031619179064977E+01
N   -1.5995133056958020E+00    1.0193048961510899E+01    1.2956852317361662E+01
Ga   -1.5977089473888120E+00    8.3417037065165349E+00    1.3676742400347491E+01
N   -1.6174356110790582E+00    8.3305867504261837E+00    1.5598119648707875E+01
Ga   -1.6235157808898431E+00    1.0187502942102968E+01    1.6633597785295056E+01
N   -2.8171273708982928E-02    9.2224944342434032E+00    1.7507490229877067E+01
N    6.4176027351820482E+00   -2.6314568588282704E-04   -2.0751867711084407E-01
Ga    6.4181825991984960E+00    1.8519395491013912E+00    4.7393953232739877E-01
N    6.4183614591715221E+00    1.8522623925401871E+00    2.3910803975826296E+00
Ga    6.4177847625451534E+00    1.6632513891491030E-04    3.1192840312530694E+00
N    6.4180406215729020E+00    3.7457303760494418E-04    5.0398030430696847E+00
Ga    6.4187469114722724E+00    1.8524160745735507E+00    5.7570029648011340E+00
N    6.4193610468477216E+00    1.8536752349224241E+00    7.6802325863819672E+00
Ga    6.4189896645238198E+00    2.2090919588429567E-03    8.3949749085890453E+00
N    6.4195013381356025E+00    4.9217367446392031E-03    1.0318891684927650E+01
Ga    6.4194344921799322E+00    1.8570579933566704E+00    1.1033329488148865E+01
N    6.4203284650438750E+00    1.8610818276798944E+00    1.2959073338285261E+01
Ga    6.4193534954461500E+00    9.7122870391600172E-03    1.3679201097100741E+01
N    6.4107951020326635E+00   -1.2966456096710995E-02    1.5598022388734002E+01
Ga    6.3953726989734649E+00    1.8447426378378153E+00    1.6642792092820123E+01
N    8.0040440186031621E+00    9.0658718304220576E-01    1.7519323649626319E+01
N    4.8138123301970506E+00    2.7776415955060996E+00   -2.0755936325258101E-01
Ga    4.8142998947139004E+00    4.6298558483431727E+00    4.7378498875365777E-01
N    4.8144539442306531E+00    4.6300445949659599E+00    2.3909005124852927E+00
Ga    4.8140925891246837E+00    2.7779368661885582E+00    3.1191075263531021E+00
N    4.8143742158710845E+00    2.7779131533484449E+00    5.0396554360231738E+00
Ga    4.8147222671485759E+00    4.6299897079507106E+00    5.7566786753008321E+00
N    4.8151304047018648E+00    4.6310315897935386E+00    7.6799369745785162E+00
Ga    4.8148169260122771E+00    2.7787795980115035E+00    8.3932656521967441E+00
N    4.8151225506565920E+00    2.7805163302400731E+00    1.0317118163717181E+01
Ga    4.8152280604925553E+00    4.6333153412275134E+00    1.1027275981734896E+01
N    4.8147359662726741E+00    4.6363106797999700E+00    1.2950952079542089E+01
Ga    4.8146444112700664E+00    2.7876529393860903E+00    1.3677711603947426E+01
N    4.8097062335849401E+00    2.7875150052300390E+00    1.5596562166959780E+01
Ga    4.8043190250264187E+00    4.6390774193225788E+00    1.6620311376974612E+01
N    6.3971870796297239E+00    3.6932668598576188E+00    1.7516337749113870E+01
N    3.2099191152351558E+00    5.5556163822289450E+00   -2.0756294234950265E-01
Ga    3.2103282164194811E+00    7.4078208112578814E+00    4.7391038411926895E-01
N    3.2103057298564006E+00    7.4079996313662564E+00    2.3910191978545989E+00
Ga    3.2100806016158323E+00    5.5556866336789144E+00    3.1188076146776700E+00
N    3.2102674508447508E+00    5.5554403781541124E+00    5.0393624109362110E+00
Ga    3.2105978321028852E+00    7.4079218110724847E+00    5.7552808552234396E+00
N    3.2109426238345073E+00    7.4088912887389560E+00    7.6782146422577204E+00
Ga    3.2104738444013621E+00    5.5572566828591805E+00    8.3921311542220032E+00
N    3.2106132825734699E+00    5.5596541840142750E+00    1.0315903767389218E+01
Ga    3.2121233946427008E+00    7.4125136852279807E+00    1.1029454253313794E+01
N    3.2135594345461036E+00    7.4163673534128680E+00    1.2956004960304860E+01
Ga    3.2112803434945620E+00    5.5619949628229461E+00    1.3668672619234851E+01
N    3.2039088002848213E+00    5.5606328598858576E+00    1.5586329809283319E+01
Ga    3.2085537033341369E+00    7.4070972124517933E+00    1.6657777902149199E+01
N    4.8069632329516745E+00    6.4774122384128701E+00    1.7527981546546183E+01
N    1.6060257105915692E+00    8.3336041386505020E+00   -2.0752982893939192E-01
Ga    1.6065229860849397E+00    1.0185838424937099E+01    4.7387641397090718E-01
N    1.6065436335684666E+00    1.0186156612618692E+01    2.3909855764857264E+00
Ga    1.6059596909428671E+00    8.3340159258968143E+00    3.1190853880786866E+00
N    1.6061174822647091E+00    8.3341956732976037E+00    5.0396499600310731E+00
Ga    1.6068812470856728E+00    1.0186620120583678E+01    5.7568648636212387E+00
N    1.6074390404973291E+00    1.0188153331308202E+01    7.6801193330300093E+00
Ga    1.6076458554200628E+00    8.3359030836883843E+00    8.3920059128753142E+00
N    1.6086865222162161E+00    8.3388353859690252E+00    1.0315818097030002E+01
Ga    1.6081991781117415E+00    1.0190701865642012E+01    1.1030943834579551E+01
N    1.6084428897902630E+00    1.0193447868544174E+01    1.2956468616896275E+01
Ga    1.6088285742181223E+00    8.3406787674512994E+00    1.3675661442800271E+01
N    1.6131497877252907E+00    8.3389934278836044E+00    1.5599425074598766E+01
Ga    1.6002919205940287E+00    1.0177621636615438E+01    1.6604750796466760E+01
N    3.1920778267953960E+00    9.2630512293362166E+00    1.7530366698765665E+01
N    9.6262528065910420E+00   -2.5247805635817598E-04   -2.0766414231677960E-01
Ga    9.6267824129909858E+00    1.8519682586923738E+00    4.7386011463070477E-01
N    9.6268067626347840E+00    1.8523389902385579E+00    2.3909676631250552E+00
Ga    9.6263531369808568E+00    2.0472953529147010E-04    3.1189871175101018E+00
N    9.6264635441661817E+00    4.9004996545674786E-04    5.0395324043708047E+00
Ga    9.6271528469651226E+00    1.8525680776179771E+00    5.7572465250453222E+00
N    9.6275704967042941E+00    1.8540732371964623E+00    7.6805682269308839E+00
Ga    9.6272860776145546E+00    2.0750513587049985E-03    8.3938983290877243E+00
N    9.6279175149702052E+00    5.2533630457975641E-03    1.0317918095951526E+01
Ga    9.6285229382067055E+00    1.8587236513479208E+00    1.1028565091471412E+01
N    9.6302214232134524E+00    1.8627502152478523E+00    1.2954070799636677E+01
Ga    9.6311295669790287E+00    1.0014557666256307E-02    1.3666220194991270E+01
N    9.6230808980551501E+00   -7.7675016218127085E-03    1.5582011704396265E+01
Ga    9.6155039595620106E+00    1.8282185475607327E+00    1.6626823735932728E+01
N    1.1216610732408197E+01    9.1624581809287220E-01    1.7527704610107612E+01
N    8.0224484550082096E+00    2.7776933296571973E+00   -2.0756173235216660E-01
Ga    8.0230261839708916E+00    4.6298784189598976E+00    4.7391356102513427E-01
N    8.0231939456639445E+00    4.6301020196631475E+00    2.3910414947576535E+00
Ga    8.0226744081607055E+00    2.7780961735066549E+00    3.1194452056596589E+00
N    8.0229152317679038E+00    2.7782664326068915E+00    5.0400961716749944E+00
Ga    8.0236649878174369E+00    4.6303291417500372E+00    5.7574465282272200E+00
N    8.0244026692139521E+00    4.6318345320953878E+00    7.6806779214320304E+00
Ga    8.0231936434953983E+00    2.7799865394541312E+00    8.3942501126241176E+00
N    8.0231764207012848E+00    2.7828559199935166E+00    1.0318168731501729E+01
Ga    8.0242677207133521E+00    4.6355034585216437E+00    1.1030805744914339E+01
N    8.0252769728453242E+00    4.6383639361912365E+00    1.2956267457071963E+01
Ga    8.0266335629564800E+00    2.7870527258366065E+00    1.3677662971609335E+01
N    8.0120087723378788E+00    2.7711506937423245E+00    1.5598306186707250E+01
Ga    8.0058201168192014E+00    4.6272754319427438E+00    1.6632570450725616E+01
N    9.6027367241408932E+00    3.6622720914467073E+00    1.7508554383855188E+01
N    6.4186454008975531E+00    5.5555771752955492E+00   -2.0755368306920652E-01
Ga    6.4191808325006745E+00    7.4077705377843914E+00    4.7385471833981729E-01
N    6.4193522464017869E+00    7.4078844466888354E+00    2.3909782966681004E+00
Ga    6.4189113229585510E+00    5.5556645525301596E+00    3.1191036558835226E+00
N    6.4191674560691556E+00    5.5554682119743557E+00    5.0397061185750154E+00
Ga    6.4196349609799297E+00    7.4079111608873571E+00    5.7557023564017724E+00
N    6.4200905635365091E+00    7.4091204963614974E+00    7.6787176538020478E+00
Ga    6.4196575702309024E+00    5.5574921722980921E+00    8.3928283836960329E+00
N    6.4198440183915766E+00    5.5599039777393928E+00    1.0316589113567757E+01
Ga    6.4198193037031022E+00    7.4127379621233631E+00    1.1029018242303522E+01
N    6.4205362977327729E+00    7.4152467851329504E+00    1.2954864199759513E+01
Ga    6.4179565069555569E+00    5.5629220062831948E+00    1.3670601440518269E+01
N    6.4068652462604154E+00    5.5469362221321532E+00    1.5588783715234159E+01
Ga    6.4196754255351260E+00    7.4110701283670117E+00    1.6662104707244950E+01
N    8.0017659969731927E+00    6.4607386755577831E+00    1.7519744000480987E+01
N    4.8147451249492548E+00    8.3335122943504185E+00   -2.0746543880042484E-01
Ga    4.8151950851282201E+00    1.0185833509558821E+01    4.7368313253958821E-01
N    4.8152168937628206E+00    1.0186112851932547E+01    2.3907847829547850E+00
Ga    4.8149387332355538E+00    8.3338391690065574E+00    3.1185583943076627E+00
N    4.8151376684746729E+00    8.3337513200733486E+00    5.0390233085095035E+00
Ga    4.8152887863268274E+00    1.0186199791631726E+01    5.7558267394969826E+00
N    4.8154698717524731E+00    1.0187397027197836E+01    7.6789226932308532E+00
Ga    4.8154126682030816E+00    8.3348914284329840E+00    8.3907579369181438E+00
N    4.8156136977952011E+00    8.3370414850967407E+00    1.0314494109440689E+01
Ga    4.8173541063152756E+00    1.0188806861834802E+01    1.1027872370889561E+01
N    4.8182586071238376E+00    1.0191170186136752E+01    1.2952203914850037E+01
Ga    4.8188797434292123E+00    8.3409513138606695E+00    1.3679423298965643E+01
N    4.8117714738018904E+00    8.3396261477059053E+00    1.5602739362490741E+01
Ga    4.8015324459708992E+00    1.0187058570028915E+01    1.6617593642727002E+01
N    6.4033768220385880E+00    9.2695974325204933E+00    1.7521648952705892E+01
H    2.8507160779184086E-04   -1.7240433582768548E-04   -1.2350485932565975E+00
H   -1.6036583988573578E+00    2.7778096316107175E+00   -1.2349523276030565E+00
H   -3.2074903767705782E+00    5.5556895161688047E+00   -1.2349437442332218E+00
H   -4.8112944326843001E+00    8.3335513751199493E+00   -1.2349973901375662E+00
H    3.2089781587522435E+00   -2.6979141512225419E-04   -1.2350287307413332E+00
H    1.6050440898782659E+00    2.7776981629074440E+00   -1.2348432204645017E+00
H    1.1041932663917557E-03    5.5557093869172265E+00   -1.2351038098360148E+00
H   -1.6026810222432797E+00    8.3336656289326481E+00   -1.2350846564224816E+00
H    6.4175624511196832E+00   -1.7748690076394792E-04   -1.2349574482265562E+00
H    4.8138175727923906E+00    2.7776987804303936E+00   -1.2349921872857610E+00
H    3.2099170441550773E+00    5.5556958942570915E+00   -1.2350014285550990E+00
H    1.6060134824456729E+00    8.3336581336636186E+00   -1.2349684270394607E+00
H    9.6261598426137738E+00   -1.6977043738905862E-04   -1.2351044251819197E+00
H    8.0223870588911410E+00    2.7777621851736449E+00   -1.2349914545409335E+00
H    6.4186294133497803E+00    5.5556435631583190E+00   -1.2349877138813088E+00
H    4.8147077791831414E+00    8.3334890687179808E+00   -1.2349019655978433E+00
     &END COORD
     &KIND H
       BASIS_SET DZVP-MOLOPT-SR-GTH-q1
       POTENTIAL GTH-PBE-q1
       &POTENTIAL
 1
  0.2000000000000000E+00 2 -0.4178900440000000E+01  0.7244633100000000E+00
 0
         # Potential name:  GTH-PBE-Q1  for symbol:  H
         # Potential read from the potential filename: GTH_POTENTIALS
       &END POTENTIAL
     &END KIND
     &KIND N
       BASIS_SET DZVP-MOLOPT-SR-GTH
       POTENTIAL GTH-PBE-q5
       &POTENTIAL
 2 3
  0.2837905100000000E+00 2 -0.1241522559000000E+02  0.1868095920000000E+01
 2
  0.2554050000000000E+00 1  0.1363026257000000E+02
  0.2454945300000000E+00 0
         # Potential name:  GTH-PBE-Q5  for symbol:  N
         # Potential read from the potential filename: GTH_POTENTIALS
       &END POTENTIAL
     &END KIND
     &KIND Ga
       BASIS_SET DZVP-MOLOPT-SR-GTH
       POTENTIAL GTH-PBE-q13
       &POTENTIAL
 2 1 10
  0.4900000000000000E+00 0
 3
  0.4167772300000000E+00 3  0.1047568975000000E+02 -0.4921768140000000E+01  0.8707055900000000E+00
  0.7770178090000000E+01 -0.2248152160000000E+01
  0.1784415450000000E+01
  0.5696265200000000E+00 2  0.1777985340000000E+01  0.1958597600000000E+00
 -0.2317443900000000E+00
  0.2381265000000000E+00 1 -0.1624868022000000E+02
         # Potential name:  GTH-PBE-Q13  for symbol:  GA
         # Potential read from the potential filename: GTH_POTENTIALS
       &END POTENTIAL
     &END KIND
     &TOPOLOGY
       NUMBER_OF_ATOMS  256
       MULTIPLE_UNIT_CELL  1 1 1
     &END TOPOLOGY
   &END SUBSYS
 &END FORCE_EVAL
