 # Version information for this restart file 
 # current date 2019-06-09 06:52:16.854
 # current working dir /lustre03/project/6037349/rzk/GaN-carbene/444-addat/00-Surface/UKS_SYMM
 # Program compiled at                              Sun Apr  7 00:48:11 EDT 2019
 # Program compiled on                          beluga2.int.ets1.calculquebec.ca
 # Program compiled for                        Beluga-Linux-x86-64-intel-openmpi
 # Source code revision number                                         svn:18619
 &GLOBAL
   PRINT_LEVEL  MEDIUM
   PROJECT_NAME TEST
   RUN_TYPE  CELL_OPT
 &END GLOBAL
 &MOTION
   &CELL_OPT
     MAX_ITER  300
     STEP_START_VAL  41
     EXTERNAL_PRESSURE     1.0000000000000000E+00
     KEEP_ANGLES  T
     KEEP_SYMMETRY  T
     CONSTRAINT  Z
     PRESSURE_TOLERANCE     5.0000000000000000E+02
   &END CELL_OPT
 &END MOTION
 &FORCE_EVAL
   METHOD  QS
   STRESS_TENSOR  ANALYTICAL
   &DFT
     BASIS_SET_FILE_NAME BASIS_MOLOPT
     POTENTIAL_FILE_NAME GTH_POTENTIALS
     UKS  T
     SURFACE_DIPOLE_CORRECTION  T
     SURF_DIP_DIR  Z
     &SCF
       MAX_SCF  100
       EPS_SCF     5.0000000000000004E-06
       &OT  T
         PRECONDITIONER  FULL_ALL
       &END OT
       &OUTER_SCF  T
         OPTIMIZER  NONE
         EPS_SCF     5.0000000000000004E-06
         MAX_SCF  4
       &END OUTER_SCF
       &PRINT
         &RESTART  OFF
           BACKUP_COPIES  1
           &EACH
             JUST_ENERGY  0
             QS_SCF  0
             MD  20
           &END EACH
         &END RESTART
       &END PRINT
     &END SCF
     &QS
       EPS_DEFAULT     1.0000000000000000E-14
       METHOD  GPW
     &END QS
     &MGRID
       NGRIDS  5
       CUTOFF     1.2000000000000000E+03
     &END MGRID
     &XC
       DENSITY_CUTOFF     1.0000000000000000E-10
       GRADIENT_CUTOFF     1.0000000000000000E-10
       TAU_CUTOFF     1.0000000000000000E-10
       &XC_FUNCTIONAL  NO_SHORTCUT
         &PBE  T
         &END PBE
       &END XC_FUNCTIONAL
       &VDW_POTENTIAL
         POTENTIAL_TYPE  PAIR_POTENTIAL
         &PAIR_POTENTIAL
           R_CUTOFF     1.0000000000000004E+01
           TYPE  DFTD3
           PARAMETER_FILE_NAME dftd3.dat
           REFERENCE_FUNCTIONAL PBE
           EPS_CN     9.9999999999999995E-07
           CALCULATE_C9_TERM  T
           REFERENCE_C9_TERM  T
           LONG_RANGE_CORRECTION  F
           VERBOSE_OUTPUT  F
         &END PAIR_POTENTIAL
       &END VDW_POTENTIAL
     &END XC
   &END DFT
   &SUBSYS
     &CELL
       A     1.2831084136673267E+01    0.0000000000000000E+00    0.0000000000000000E+00
       B    -6.4144313389502550E+00    1.1110120980723963E+01    0.0000000000000000E+00
       C     0.0000000000000000E+00    0.0000000000000000E+00    3.2000000000000000E+01
       MULTIPLE_UNIT_CELL  1 1 1
       &CELL_REF
         A     1.2982353780853531E+01    0.0000000000000000E+00    0.0000000000000000E+00
         B    -6.4911768904267628E+00    1.1243048175136114E+01    0.0000000000000000E+00
         C     0.0000000000000000E+00    0.0000000000000000E+00    3.2000000000000000E+01
         MULTIPLE_UNIT_CELL  1 1 1
       &END CELL_REF
     &END CELL
     &COORD
N    3.2996332613795753E-04   -2.1539626777830487E-04   -2.0812653121729721E-01
Ga    5.5634911386213688E-04    1.8515999206417826E+00    4.7323950942113652E-01
N    5.9022140420150044E-04    1.8518759673423462E+00    2.3909352958306869E+00
Ga    4.7077699176190649E-04   -8.4792684662544284E-06    3.1188714085623364E+00
N    6.9344010344814103E-04    3.6622917871657968E-05    5.0402913154642830E+00
Ga    8.9053837705750606E-04    1.8520108200407839E+00    5.7566401010637485E+00
N    1.3077629863935654E-03    1.8531456888466875E+00    7.6798825570881961E+00
Ga    1.1932499110285436E-03    1.7876526678082339E-03    8.3930386014257277E+00
N    1.6066225326041097E-03    4.2691605322963695E-03    1.0317070598447783E+01
Ga    2.8439200145700901E-03    1.8561074444314185E+00    1.1031137164493758E+01
N    4.0995200911904143E-03    1.8600421167583325E+00    1.2957238342889013E+01
Ga    2.1110051689183988E-03    6.1463114211162450E-03    1.3669564866093170E+01
N   -6.2383259610781132E-03    3.6380573731334470E-03    1.5587175337250653E+01
Ga   -2.2036347422287267E-03    1.8509961203288257E+00    1.6654936679138725E+01
N    1.5954274683940328E+00    9.1989758990534010E-01    1.7528671118498860E+01
N   -1.6033245434992087E+00    2.7773496790621430E+00   -2.0800763411624129E-01
Ga   -1.6029989392648216E+00    4.6291661529320312E+00    4.7332490010938477E-01
N   -1.6029037145417311E+00    4.6294644757023029E+00    2.3910386597780682E+00
Ga   -1.6032634308103013E+00    2.7776946664367257E+00    3.1191674381967887E+00
N   -1.6030938211394810E+00    2.7779066633531158E+00    5.0406495280919321E+00
Ga   -1.6025924348217342E+00    4.6297299193442614E+00    5.7576240044826656E+00
N   -1.6020813591641563E+00    4.6311306359417230E+00    7.6810523436823299E+00
Ga   -1.6018159418027833E+00    2.7794530806815958E+00    8.3938002894872792E+00
N   -1.6006946042052228E+00    2.7819637964547512E+00    1.0318009255603348E+01
Ga   -1.6013159098614411E+00    4.6337779110624151E+00    1.1031444557888282E+01
N   -1.6013672468408713E+00    4.6357072892945528E+00    1.2956760250517167E+01
Ga   -1.6011241947863126E+00    2.7836058813341760E+00    1.3675793254585333E+01
N   -1.5948536312940689E+00    2.7844730902135812E+00    1.5600215839593259E+01
Ga   -1.6058748766609419E+00    4.6257531078621232E+00    1.6606265194556943E+01
N   -1.7933867466483417E-02    3.7058275390978590E+00    1.7530601647364424E+01
N   -3.2068929951698268E+00    5.5548445320391906E+00   -2.0797944951154584E-01
Ga   -3.2065334618054955E+00    7.4066419773461121E+00    4.7335618092386478E-01
N   -3.2063629320762668E+00    7.4069054216398662E+00    2.3910743641253820E+00
Ga   -3.2066961517540475E+00    5.5551516756124739E+00    3.1193671689040641E+00
N   -3.2064150096551614E+00    5.5553700943005477E+00    5.0408490162344215E+00
Ga   -3.2059232522111252E+00    7.4072263018002857E+00    5.7574703058153931E+00
N   -3.2052578550122828E+00    7.4086416944293800E+00    7.6808447238688640E+00
Ga   -3.2056553526295284E+00    5.5572292976236017E+00    8.3946554021394970E+00
N   -3.2052340888764674E+00    5.5594046906641186E+00    1.0318971606755154E+01
Ga   -3.2048508330555947E+00    7.4116127711000139E+00    1.1031317136660032E+01
N   -3.2043696770233816E+00    7.4148261884047120E+00    1.2956591819652930E+01
Ga   -3.2054311610448143E+00    5.5645573997005249E+00    1.3677631255870574E+01
N   -3.2100110775996171E+00    5.5423139119333547E+00    1.5597330906770514E+01
Ga   -3.2308289949508624E+00    7.4034368038582254E+00    1.6635313428588251E+01
N   -1.6240209336724256E+00    6.4696538381132660E+00    1.7519517568398609E+01
N   -4.8104461059755774E+00    8.3322978998197197E+00   -2.0803564125326285E-01
Ga   -4.8101841176853704E+00    1.0184154787286012E+01    4.7310899470603296E-01
N   -4.8100571513998052E+00    1.0184392222281309E+01    2.3908280087504998E+00
Ga   -4.8102160962166618E+00    8.3326109335204563E+00    3.1190685730909347E+00
N   -4.8098800344107167E+00    8.3327221101781692E+00    5.0404925141388510E+00
Ga   -4.8096609233310055E+00    1.0184668510795525E+01    5.7570316593501882E+00
N   -4.8090976982361662E+00    1.0185972867857647E+01    7.6804713892516672E+00
Ga   -4.8094169396749065E+00    8.3341422743239164E+00    8.3933195944091015E+00
N   -4.8090571756001070E+00    8.3357517155369969E+00    1.0317395903066583E+01
Ga   -4.8088136594335635E+00    1.0188113688674749E+01    1.1027919066608703E+01
N   -4.8097339287682086E+00    1.0190696785908241E+01    1.2950545181341830E+01
Ga   -4.8092403386216267E+00    8.3419134060710558E+00    1.3674360229437172E+01
N   -4.8154888780492540E+00    8.3416104143409537E+00    1.5592822288535825E+01
Ga   -4.8218756276299475E+00    1.0192571149335283E+01    1.6615650320727866E+01
N   -3.2310711975041437E+00    9.2498891921029855E+00    1.7515427846973743E+01
N    3.2081433348825286E+00   -2.5255983839817832E-04   -2.0806465556557660E-01
Ga    3.2084348932249775E+00    1.8515733598868753E+00    4.7319707007087913E-01
N    3.2085651575576608E+00    1.8518404555719574E+00    2.3909030293180176E+00
Ga    3.2083263738873034E+00    7.8237580325632597E-06    3.1190394978884002E+00
N    3.2086949115845997E+00    7.5068020895512554E-05    5.0404873198049556E+00
Ga    3.2089056135290339E+00    1.8519956220570155E+00    5.7568812484714744E+00
N    3.2095107031221266E+00    1.8531383611486043E+00    7.6801632960518669E+00
Ga    3.2094584640882071E+00    1.8621497261933390E-03    8.3938699651552540E+00
N    3.2100808866093415E+00    3.8511749175822708E-03    1.0317972625608117E+01
Ga    3.2096620212065470E+00    1.8557056780832024E+00    1.1031328680904592E+01
N    3.2102909846618735E+00    1.8584907778091335E+00    1.2956579179936792E+01
Ga    3.2076095591002671E+00    6.0351919743784448E-03    1.3671261040237113E+01
N    3.1941408947994874E+00   -6.1730661747317773E-03    1.5589515254877794E+01
Ga    3.2074472775271667E+00    1.8573396386480832E+00    1.6660605696123440E+01
N    4.7893281645440693E+00    9.0776029639924116E-01    1.7520695633906403E+01
N    1.6044765275806336E+00    2.7772797187821960E+00   -2.0797333016234246E-01
Ga    1.6047017532917811E+00    4.6291569047788812E+00    4.7314616232077938E-01
N    1.6047226711173568E+00    4.6294182878903003E+00    2.3908537061307622E+00
Ga    1.6046281906066941E+00    2.7775924852630425E+00    3.1188805462332621E+00
N    1.6048593419342054E+00    2.7776255090313562E+00    5.0402877138294233E+00
Ga    1.6050754451614193E+00    4.6294611210312180E+00    5.7570794566499925E+00
N    1.6054058855486286E+00    4.6304464983065001E+00    7.6804442689937797E+00
Ga    1.6054888675024033E+00    2.7784400336537716E+00    8.3929010519074971E+00
N    1.6061999690717212E+00    2.7801312109553531E+00    1.0317028544953114E+01
Ga    1.6066631046425330E+00    4.6316646159109194E+00    1.1028903966341430E+01
N    1.6069749926673071E+00    4.6333647151209458E+00    1.2953301425462335E+01
Ga    1.6089125087867944E+00    2.7840484638531691E+00    1.3680462412457658E+01
N    1.5997941389574337E+00    2.7829770140261760E+00    1.5604180039465039E+01
Ga    1.5903757367889184E+00    4.6318973523515528E+00    1.6619208289009730E+01
N    3.1907967502684977E+00    3.7141145369989652E+00    1.7522665582696700E+01
N    8.1381288601597589E-04    5.5548650612380097E+00   -2.0810119695356344E-01
Ga    1.1248375957041902E-03    7.4066613007106215E+00    4.7328297701643912E-01
N    1.2133432665996301E-03    7.4069459659056971E+00    2.3910265972799105E+00
Ga    9.6696722656270653E-04    5.5551851379807671E+00    3.1193139697837959E+00
N    1.1795882754971183E-03    5.5553933695663300E+00    5.0407829544520899E+00
Ga    1.6370873824405848E-03    7.4073381610746782E+00    5.7573778350856371E+00
N    2.2599120091545831E-03    7.4087357960468259E+00    7.6807990453553376E+00
Ga    2.0061906506494993E-03    5.5569784761552548E+00    8.3938725998784474E+00
N    2.7018286833546839E-03    5.5592895965492310E+00    1.0318281688752110E+01
Ga    3.6665493191492941E-03    7.4122881992681098E+00    1.1028815925036055E+01
N    4.4552328174848497E-03    7.4150564614703667E+00    1.2953602973075919E+01
Ga    5.0798292919315190E-03    5.5636448507517056E+00    1.3667807113691721E+01
N   -2.4826283180209132E-03    5.5507533443703583E+00    1.5584300761245775E+01
Ga   -1.1437737414573086E-02    7.3873441970565299E+00    1.6626035986681345E+01
N    1.5903077573945021E+00    6.4743051693547242E+00    1.7527627321657612E+01
N   -1.6027432593884074E+00    8.3323741227357484E+00   -2.0804915071082963E-01
Ga   -1.6023958930103486E+00    1.0184164841337234E+01    4.7328321647457200E-01
N   -1.6022280307787440E+00    1.0184451479596389E+01    2.3909962774081648E+00
Ga   -1.6025262994690435E+00    8.3327414766196206E+00    3.1193681207203907E+00
N   -1.6022367572817888E+00    8.3330538214596253E+00    5.0408463232521292E+00
Ga   -1.6017041379790589E+00    1.0184947376721485E+01    5.7576589377562764E+00
N   -1.6009245143390138E+00    1.0186406787400104E+01    7.6811047079629455E+00
Ga   -1.6014797753870109E+00    8.3348685214004163E+00    8.3940430682837217E+00
N   -1.6010318966909212E+00    8.3370073669450324E+00    1.0318294224529893E+01
Ga   -1.6005707412226196E+00    1.0188947604321966E+01    1.1031598612611122E+01
N   -1.6000024899632204E+00    1.0191347729712982E+01    1.2956513011732573E+01
Ga   -1.5986152978900499E+00    8.3402452711717547E+00    1.3675346134057666E+01
N   -1.6161004555353415E+00    8.3310765276241554E+00    1.5596833578989777E+01
Ga   -1.6213180253416530E+00    1.0186134602664387E+01    1.6630294616530087E+01
N   -2.6507437807465742E-02    9.2196354247940917E+00    1.7508521167435781E+01
N    6.4158458585744071E+00   -1.8450596494946117E-04   -2.0799328065267012E-01
Ga    6.4162142585106734E+00    1.8516267670223094E+00    4.7335398012292584E-01
N    6.4164005440231060E+00    1.8519460859701873E+00    2.3910854850006631E+00
Ga    6.4160572710667862E+00    1.7786739963219237E-04    3.1192516762502454E+00
N    6.4163606822272650E+00    4.3381600462741933E-04    5.0407377860578881E+00
Ga    6.4167286696273731E+00    1.8521927260961162E+00    5.7576717241239370E+00
N    6.4172988980704613E+00    1.8535971582779316E+00    7.6811228988322737E+00
Ga    6.4171656954511906E+00    2.3839932967565669E-03    8.3950924966432900E+00
N    6.4176288799521615E+00    4.6793833392524686E-03    1.0319380557006728E+01
Ga    6.4175210692790383E+00    1.8567416349497263E+00    1.1032342050843152E+01
N    6.4183185033824328E+00    1.8602080202107971E+00    1.2957741612982078E+01
Ga    6.4175709670620860E+00    9.6498835388062060E-03    1.3678482766029205E+01
N    6.4116386617529750E+00   -1.0950861593181352E-02    1.5598484634788086E+01
Ga    6.3937112628110588E+00    1.8469270655019365E+00    1.6637775718959841E+01
N    8.0007317703450092E+00    9.1187683317881951E-01    1.7520367568506853E+01
N    4.8123023756620844E+00    2.7772639233537095E+00   -2.0805097914038095E-01
Ga    4.8125794474761587E+00    4.6290872149252102E+00    4.7317009087190764E-01
N    4.8127121714212322E+00    4.6293159536063673E+00    2.3908851772549444E+00
Ga    4.8125093168720969E+00    2.7775642253412860E+00    3.1191632898595421E+00
N    4.8128197369505479E+00    2.7776379222051535E+00    5.0405964735086597E+00
Ga    4.8129772195515210E+00    4.6294316293669455E+00    5.7573165770354198E+00
N    4.8134381654031868E+00    4.6306007280658275E+00    7.6807484373155788E+00
Ga    4.8131893016391212E+00    2.7788193781372654E+00    8.3940381622602693E+00
N    4.8134151776142335E+00    2.7806150850567803E+00    1.0318129961610534E+01
Ga    4.8135652350984630E+00    4.6331328035934671E+00    1.1027962414411034E+01
N    4.8128779631936576E+00    4.6354953965076504E+00    1.2950813019087040E+01
Ga    4.8135031517929807E+00    2.7870441325364927E+00    1.3676261677578815E+01
N    4.8085162947728666E+00    2.7866480392198478E+00    1.5594963264972357E+01
Ga    4.8026151798437100E+00    4.6362811969871389E+00    1.6617096428382148E+01
N    6.3955702579539384E+00    3.6931771008869765E+00    1.7515949383678560E+01
N    3.2086437119058413E+00    5.5548090809561286E+00   -2.0806359839156879E-01
Ga    3.2088622410924406E+00    7.4066322236049826E+00    4.7323611220057388E-01
N    3.2088860609918242E+00    7.4068772301389467E+00    2.3909329858440302E+00
Ga    3.2087779188363164E+00    5.5549656778913405E+00    3.1189167723697819E+00
N    3.2090039545709725E+00    5.5550067253674307E+00    5.0403582243361695E+00
Ga    3.2092301960747784E+00    7.4070475245796157E+00    5.7564585842287324E+00
N    3.2096148068408450E+00    7.4083225454801189E+00    7.6796602896866935E+00
Ga    3.2093172333947657E+00    5.5568221776113305E+00    8.3929355393331733E+00
N    3.2095762154080147E+00    5.5592910410207459E+00    1.0317015615504685E+01
Ga    3.2110128272554506E+00    7.4114106938022219E+00    1.1030278732222794E+01
N    3.2123209619304642E+00    7.4147929978612233E+00    1.2956457647121384E+01
Ga    3.2103911412938357E+00    5.5611571855863282E+00    1.3669291814134390E+01
N    3.2020258508496169E+00    5.5577550537291334E+00    1.5587049891417454E+01
Ga    3.2067905654740234E+00    7.4046521795026727E+00    1.6653439373715969E+01
N    4.8049626079274388E+00    6.4735087831588976E+00    1.7526772563517650E+01
N    1.6049889869950023E+00    8.3323850786384028E+00   -2.0801165926065213E-01
Ga    1.6053071851646710E+00    1.0184219636562243E+01    4.7324674044400278E-01
N    1.6054074335577457E+00    1.0184543849199665E+01    2.3909614278399585E+00
Ga    1.6050825665456347E+00    8.3328013081869727E+00    3.1191535416139362E+00
N    1.6053168484319849E+00    8.3331598952834991E+00    5.0406047351526260E+00
Ga    1.6057486489110639E+00    1.0185070099245696E+01    5.7575822452832357E+00
N    1.6062440835836003E+00    1.0186584435227326E+01    7.6810391875910673E+00
Ga    1.6064756332864978E+00    8.3348021042285367E+00    8.3932401982887246E+00
N    1.6075149100320436E+00    8.3372423499223576E+00    1.0317454126622723E+01
Ga    1.6069015099775932E+00    1.0188862415986328E+01    1.1031294322528350E+01
N    1.6067281834982849E+00    1.0190504700895332E+01    1.2956624548449019E+01
Ga    1.6071599589476298E+00    8.3382346275353871E+00    1.3675304494526419E+01
N    1.6125215249927711E+00    8.3390996487488369E+00    1.5599575055205001E+01
Ga    1.6012130354759935E+00    1.0178886838196648E+01    1.6605463907089110E+01
N    3.1909576975568883E+00    9.2592442295789557E+00    1.7529357611963025E+01
N    9.6235643301733074E+00   -1.7291668269801312E-04   -2.0810782959296736E-01
Ga    9.6238800246961027E+00    1.8516441305170814E+00    4.7324331638834111E-01
N    9.6239391937031371E+00    1.8519690879496598E+00    2.3909727394461275E+00
Ga    9.6237170585880971E+00    2.2443804149017811E-04    3.1191236195054559E+00
N    9.6238857492834473E+00    5.3036601190045512E-04    5.0406193919492912E+00
Ga    9.6243249102557105E+00    1.8522895145343394E+00    5.7578228912681775E+00
N    9.6247002606585816E+00    1.8538624388795637E+00    7.6813335569905217E+00
Ga    9.6246551297218232E+00    2.1910384940236533E-03    8.3942186343318266E+00
N    9.6252782537814809E+00    4.7086249315650280E-03    1.0318569752848457E+01
Ga    9.6261211878706643E+00    1.8577415599128901E+00    1.1029096856676452E+01
N    9.6272130729735466E+00    1.8602341775240974E+00    1.2953945697286843E+01
Ga    9.6278509621095711E+00    8.2264582519557747E-03    1.3667097116223079E+01
N    9.6202192454448969E+00   -5.9420875176847566E-03    1.5583387162532174E+01
Ga    9.6123933220492273E+00    1.8295360948495567E+00    1.6624500615241089E+01
N    1.1213744065349671E+01    9.1703279375122182E-01    1.7527876566212846E+01
N    8.0200114685857216E+00    2.7773274120118696E+00   -2.0803715166887188E-01
Ga    8.0203712680704733E+00    4.6290989587677203E+00    4.7334127911312984E-01
N    8.0205368814555786E+00    4.6293478534666468E+00    2.3910808711439282E+00
Ga    8.0202528459703970E+00    2.7776726019166884E+00    3.1195345203714999E+00
N    8.0204995046543672E+00    2.7778897486863636E+00    5.0410310488590122E+00
Ga    8.0209619946356678E+00    4.6297394707705424E+00    5.7577351607647040E+00
N    8.0215380288886511E+00    4.6312215431581079E+00    7.6811479545488970E+00
Ga    8.0208101861931222E+00    2.7798451992568669E+00    8.3946779688561630E+00
N    8.0212008085395681E+00    2.7822719367803050E+00    1.0318947936413254E+01
Ga    8.0216616268378189E+00    4.6344084019488809E+00    1.1031457355938668E+01
N    8.0223948064558073E+00    4.6361719265260923E+00    1.2956355115710817E+01
Ga    8.0242624203272470E+00    2.7852228344625973E+00    1.3676126003933403E+01
N    8.0091472488512370E+00    2.7745820744331322E+00    1.5597386552709805E+01
Ga    8.0035927965258722E+00    4.6289198456911036E+00    1.6628544460520850E+01
N    9.5999960377722324E+00    3.6621085277054388E+00    1.7509135177818820E+01
N    6.4164679141177530E+00    5.5547726450431893E+00   -2.0805148942651572E-01
Ga    6.4167720782413538E+00    7.4065841920272542E+00    4.7321373152100227E-01
N    6.4169148825007678E+00    7.4068064232785611E+00    2.3909315040002883E+00
Ga    6.4166504890954661E+00    5.5549732384216952E+00    3.1191987088674771E+00
N    6.4168982670930657E+00    5.5550340139321470E+00    5.0406578780121638E+00
Ga    6.4171898967170726E+00    7.4071113694218731E+00    5.7566466948245925E+00
N    6.4176962314629504E+00    7.4084630452138942E+00    7.6798750078120328E+00
Ga    6.4174719071958286E+00    5.5570716448906197E+00    8.3935278037369780E+00
N    6.4178605698030573E+00    5.5592653510851679E+00    1.0317647758383170E+01
Ga    6.4178198785461200E+00    7.4113339851080218E+00    1.1030190200749114E+01
N    6.4184963054788149E+00    7.4134209429321523E+00    1.2955241843017012E+01
Ga    6.4157669465532425E+00    5.5614620565918100E+00    1.3670369340012675E+01
N    6.4034679738807450E+00    5.5461435916882174E+00    1.5588503386394171E+01
Ga    6.4165406882236420E+00    7.4102118648156701E+00    1.6658424910950231E+01
N    7.9986760953325815E+00    6.4597133640705566E+00    1.7518015616570676E+01
N    4.8128032671246492E+00    8.3322980458959446E+00   -2.0798424569557575E-01
Ga    4.8130532889474820E+00    1.0184217954997431E+01    4.7304548277751129E-01
N    4.8130857092925909E+00    1.0184515672413156E+01    2.3907738993284102E+00
Ga    4.8129487334409724E+00    8.3326409054584225E+00    3.1187449089122254E+00
N    4.8131465031074496E+00    8.3327954511430278E+00    5.0401486751826736E+00
Ga    4.8133163252298727E+00    1.0184744044660038E+01    5.7568532550094282E+00
N    4.8136590466903106E+00    1.0186075038364546E+01    7.6802619876293523E+00
Ga    4.8136688768950187E+00    8.3340627300280730E+00    8.3923130570334301E+00
N    4.8142907622215638E+00    8.3358567205520533E+00    1.0316407500117545E+01
Ga    4.8151041861336594E+00    1.0187305558831435E+01    1.1028607641030662E+01
N    4.8155142110534852E+00    1.0188609344190914E+01    1.2952651853756569E+01
Ga    4.8172796302284349E+00    8.3390763437673670E+00    1.3679033789669070E+01
N    4.8085959711558974E+00    8.3371230386017192E+00    1.5602457660615739E+01
Ga    4.7986597766913031E+00    1.0185098949241581E+01    1.6616894000435206E+01
N    6.3985850730466840E+00    9.2673328692331864E+00    1.7520957638053112E+01
H    2.9405477560189757E-04   -1.5604588158781306E-04   -1.2353894467526685E+00
H   -1.6033929386642232E+00    2.7773992971626278E+00   -1.2352720032618942E+00
H   -3.2069577433374623E+00    5.5548470242257961E+00   -1.2352462575883894E+00
H   -4.8104859721377426E+00    8.3322166667854702E+00   -1.2352987602840595E+00
H    3.2081444678971320E+00   -2.6497914989134200E-04   -1.2353285548506447E+00
H    1.6044073715531331E+00    2.7772464356371573E+00   -1.2352316274006516E+00
H    6.7225609606176887E-04    5.5548523384496855E+00   -1.2353676880405684E+00
H   -1.6028598848728441E+00    8.3323930640491994E+00   -1.2353162909592539E+00
H    6.4157373280493530E+00   -1.7185327367990184E-04   -1.2352580316202770E+00
H    4.8122672658247012E+00    2.7772336887437845E+00   -1.2353160059058963E+00
H    3.2085964882622973E+00    5.5548490099620027E+00   -1.2353250299986933E+00
H    1.6049407513902061E+00    8.3323813153163311E+00   -1.2352757071075673E+00
H    9.6234103922509249E+00   -1.4943417204260455E-04   -1.2353711855230309E+00
H    8.0198964623456828E+00    2.7773400120540002E+00   -1.2353020148756988E+00
H    6.4164284222849313E+00    5.5547697102973714E+00   -1.2353156059900163E+00
H    4.8127184072173712E+00    8.3321862736609020E+00   -1.2352455343848379E+00
     &END COORD
     &KIND H
       BASIS_SET DZVP-MOLOPT-SR-GTH-q1
       POTENTIAL GTH-PBE-q1
       &POTENTIAL
 1
  0.2000000000000000E+00 2 -0.4178900440000000E+01  0.7244633100000000E+00
 0
         # Potential name:  GTH-PBE-Q1  for symbol:  H
         # Potential read from the potential filename: GTH_POTENTIALS
       &END POTENTIAL
     &END KIND
     &KIND N
       BASIS_SET DZVP-MOLOPT-SR-GTH
       POTENTIAL GTH-PBE-q5
       &POTENTIAL
 2 3
  0.2837905100000000E+00 2 -0.1241522559000000E+02  0.1868095920000000E+01
 2
  0.2554050000000000E+00 1  0.1363026257000000E+02
  0.2454945300000000E+00 0
         # Potential name:  GTH-PBE-Q5  for symbol:  N
         # Potential read from the potential filename: GTH_POTENTIALS
       &END POTENTIAL
     &END KIND
     &KIND Ga
       BASIS_SET DZVP-MOLOPT-SR-GTH
       POTENTIAL GTH-PBE-q13
       &POTENTIAL
 2 1 10
  0.4900000000000000E+00 0
 3
  0.4167772300000000E+00 3  0.1047568975000000E+02 -0.4921768140000000E+01  0.8707055900000000E+00
  0.7770178090000000E+01 -0.2248152160000000E+01
  0.1784415450000000E+01
  0.5696265200000000E+00 2  0.1777985340000000E+01  0.1958597600000000E+00
 -0.2317443900000000E+00
  0.2381265000000000E+00 1 -0.1624868022000000E+02
         # Potential name:  GTH-PBE-Q13  for symbol:  GA
         # Potential read from the potential filename: GTH_POTENTIALS
       &END POTENTIAL
     &END KIND
     &TOPOLOGY
       NUMBER_OF_ATOMS  256
       MULTIPLE_UNIT_CELL  1 1 1
     &END TOPOLOGY
   &END SUBSYS
 &END FORCE_EVAL
