 # Version information for this restart file 
 # current date 2019-06-09 05:19:27.593
 # current working dir /lustre03/project/6037349/rzk/GaN-carbene/444-addat/00-Surface/UKS_SYMM
 # Program compiled at                              Sun Apr  7 00:48:11 EDT 2019
 # Program compiled on                          beluga2.int.ets1.calculquebec.ca
 # Program compiled for                        Beluga-Linux-x86-64-intel-openmpi
 # Source code revision number                                         svn:18619
 &GLOBAL
   PRINT_LEVEL  MEDIUM
   PROJECT_NAME TEST
   RUN_TYPE  CELL_OPT
 &END GLOBAL
 &MOTION
   &CELL_OPT
     MAX_ITER  300
     STEP_START_VAL  24
     EXTERNAL_PRESSURE     1.0000000000000000E+00
     KEEP_ANGLES  T
     KEEP_SYMMETRY  T
     CONSTRAINT  Z
     PRESSURE_TOLERANCE     5.0000000000000000E+02
   &END CELL_OPT
 &END MOTION
 &FORCE_EVAL
   METHOD  QS
   STRESS_TENSOR  ANALYTICAL
   &DFT
     BASIS_SET_FILE_NAME BASIS_MOLOPT
     POTENTIAL_FILE_NAME GTH_POTENTIALS
     UKS  T
     SURFACE_DIPOLE_CORRECTION  T
     SURF_DIP_DIR  Z
     &SCF
       MAX_SCF  100
       EPS_SCF     5.0000000000000004E-06
       &OT  T
         PRECONDITIONER  FULL_ALL
       &END OT
       &OUTER_SCF  T
         OPTIMIZER  NONE
         EPS_SCF     5.0000000000000004E-06
         MAX_SCF  4
       &END OUTER_SCF
       &PRINT
         &RESTART  OFF
           BACKUP_COPIES  1
           &EACH
             JUST_ENERGY  0
             QS_SCF  0
             MD  20
           &END EACH
         &END RESTART
       &END PRINT
     &END SCF
     &QS
       EPS_DEFAULT     1.0000000000000000E-14
       METHOD  GPW
     &END QS
     &MGRID
       NGRIDS  5
       CUTOFF     1.2000000000000000E+03
     &END MGRID
     &XC
       DENSITY_CUTOFF     1.0000000000000000E-10
       GRADIENT_CUTOFF     1.0000000000000000E-10
       TAU_CUTOFF     1.0000000000000000E-10
       &XC_FUNCTIONAL  NO_SHORTCUT
         &PBE  T
         &END PBE
       &END XC_FUNCTIONAL
       &VDW_POTENTIAL
         POTENTIAL_TYPE  PAIR_POTENTIAL
         &PAIR_POTENTIAL
           R_CUTOFF     1.0000000000000004E+01
           TYPE  DFTD3
           PARAMETER_FILE_NAME dftd3.dat
           REFERENCE_FUNCTIONAL PBE
           EPS_CN     9.9999999999999995E-07
           CALCULATE_C9_TERM  T
           REFERENCE_C9_TERM  T
           LONG_RANGE_CORRECTION  F
           VERBOSE_OUTPUT  F
         &END PAIR_POTENTIAL
       &END VDW_POTENTIAL
     &END XC
   &END DFT
   &SUBSYS
     &CELL
       A     1.2838203751042565E+01    0.0000000000000000E+00    0.0000000000000000E+00
       B    -6.4241143208846081E+00    1.1126892397403010E+01    0.0000000000000000E+00
       C     0.0000000000000000E+00    0.0000000000000000E+00    3.2000000000000000E+01
       MULTIPLE_UNIT_CELL  1 1 1
       &CELL_REF
         A     1.2982353780853531E+01    0.0000000000000000E+00    0.0000000000000000E+00
         B    -6.4911768904267628E+00    1.1243048175136114E+01    0.0000000000000000E+00
         C     0.0000000000000000E+00    0.0000000000000000E+00    3.2000000000000000E+01
         MULTIPLE_UNIT_CELL  1 1 1
       &END CELL_REF
     &END CELL
     &COORD
N    4.8242494762723490E-05   -4.6188464941106233E-04   -1.5295199517738833E-01
Ga   -4.1480784808270151E-04    1.8546888282103973E+00    5.0205194765555561E-01
N   -6.1430955300255071E-04    1.8547392654672257E+00    2.4121561396223909E+00
Ga    3.1147451589668399E-04   -1.9269463603825885E-04    3.1198155535949534E+00
N    3.6986273331555969E-04   -7.8808905851471386E-04    5.0354072253893722E+00
Ga   -4.7426970852630965E-04    1.8547414614630160E+00    5.7505546019609790E+00
N   -3.4652227623586913E-04    1.8555648899772192E+00    7.6719367731724484E+00
Ga    3.7888356932966647E-04    1.4370449193134062E-03    8.3743731940340940E+00
N    4.0076745193604881E-04    3.1365782242014505E-03    1.0295971460941143E+01
Ga    6.8633071113453317E-04    1.8569918500442348E+00    1.1016424907708400E+01
N    8.3918822346587324E-04    1.8612046391860857E+00    1.2936992279994186E+01
Ga    3.0441657922847336E-03    3.0984275558920828E-03    1.3651957781078787E+01
N   -1.5277569687231600E-03    8.4021134460836901E-03    1.5567478116944010E+01
Ga    3.3976439611495977E-05    1.8646581006538323E+00    1.6654189070515411E+01
N    1.5937057982714058E+00    9.2420799872959258E-01    1.7505723372805196E+01
N   -1.6060155060988870E+00    2.7812868709089438E+00   -1.5289209327695261E-01
Ga   -1.6063579410899644E+00    4.6364800618134412E+00    5.0195516809236029E-01
N   -1.6063918496082645E+00    4.6367113120946204E+00    2.4120913311250862E+00
Ga   -1.6059981772105647E+00    2.7820056970525719E+00    3.1199741667063567E+00
N   -1.6063282379465151E+00    2.7819160818913309E+00    5.0357685294994328E+00
Ga   -1.6063218485121480E+00    4.6369377340123554E+00    5.7531297914063755E+00
N   -1.6059047317530608E+00    4.6379709669584015E+00    7.6752605149005424E+00
Ga   -1.6046386042490299E+00    2.7829144020123500E+00    8.3765764787146182E+00
N   -1.6034926588146852E+00    2.7844562410334719E+00    1.0300020555391061E+01
Ga   -1.6055786062342456E+00    4.6386257006271236E+00    1.1019396057593736E+01
N   -1.6050778266270913E+00    4.6438330286003362E+00    1.2936457896128095E+01
Ga   -1.6031412905489919E+00    2.7891916167845667E+00    1.3662778462593305E+01
N   -1.5955052386013902E+00    2.7963339879678775E+00    1.5585330155698705E+01
Ga   -1.6029686342293601E+00    4.6369616307996981E+00    1.6561818029402406E+01
N   -2.8725348274870541E-02    3.7299362647168599E+00    1.7506216319898982E+01
N   -3.2120153919469785E+00    5.5630013785485657E+00   -1.5291143831436468E-01
Ga   -3.2123522497086805E+00    7.4182161079786555E+00    5.0186711016472907E-01
N   -3.2122672596305333E+00    7.4183956924640295E+00    2.4121331660977545E+00
Ga   -3.2117142903280422E+00    5.5635487098225749E+00    3.1200745304528801E+00
N   -3.2119902456512488E+00    5.5630488844728401E+00    5.0360182767520403E+00
Ga   -3.2118294627936224E+00    7.4178346245963702E+00    5.7526141831255257E+00
N   -3.2109142698730571E+00    7.4183736827830211E+00    7.6742305647340494E+00
Ga   -3.2107023226877218E+00    5.5647240710960926E+00    8.3790726510446696E+00
N   -3.2100460403588200E+00    5.5668213601355356E+00    1.0302676894611313E+01
Ga   -3.2092979593061912E+00    7.4217182431342668E+00    1.1020882544985138E+01
N   -3.2075865178231786E+00    7.4281377281834340E+00    1.2940582352710740E+01
Ga   -3.2077213523271753E+00    5.5767545169473598E+00    1.3666603856720208E+01
N   -3.2120597720943933E+00    5.5447395264818997E+00    1.5581924020302091E+01
Ga   -3.2355786089116805E+00    7.4166156221472281E+00    1.6624711933482093E+01
N   -1.6316774625493837E+00    6.4728086867419350E+00    1.7493553232301991E+01
N   -4.8180296572532457E+00    8.3446898005635770E+00   -1.5300022943514499E-01
Ga   -4.8184047190340564E+00    1.0199864418302706E+01    5.0176703551212365E-01
N   -4.8184212510088642E+00    1.0199899878985841E+01    2.4120189670741916E+00
Ga   -4.8175241985693988E+00    8.3452270967761581E+00    3.1196564172734953E+00
N   -4.8173438964135489E+00    8.3445390316598100E+00    5.0355154152027177E+00
Ga   -4.8181827525701300E+00    1.0199402476036973E+01    5.7528209547161460E+00
N   -4.8175521836133308E+00    1.0200164296655077E+01    7.6745663682306935E+00
Ga   -4.8163172251687287E+00    8.3441636286640755E+00    8.3756634523294604E+00
N   -4.8152148898102407E+00    8.3443756084595542E+00    1.0299179502419081E+01
Ga   -4.8172997644983182E+00    1.0201660690641097E+01    1.1006580577810890E+01
N   -4.8170706482267294E+00    1.0207070632852242E+01    1.2922994556658390E+01
Ga   -4.8171182361855021E+00    8.3568492834331938E+00    1.3657907202903225E+01
N   -4.8224358757511823E+00    8.3518170537546297E+00    1.5574427923035104E+01
Ga   -4.8260326191220280E+00    1.0214345123086341E+01    1.6594604493039718E+01
N   -3.2413032569605473E+00    9.2657804497798892E+00    1.7490641000846672E+01
N    3.2095985816530637E+00   -4.8198401137624838E-04   -1.5304627270238030E-01
Ga    3.2092332421166052E+00    1.8546285943072129E+00    5.0187963226574472E-01
N    3.2093999264285196E+00    1.8546417747551232E+00    2.4121558902825360E+00
Ga    3.2098779109596332E+00   -2.6669274376543863E-04    3.1201593277737665E+00
N    3.2099318790458424E+00   -9.0349988029301957E-04    5.0358283932779164E+00
Ga    3.2095328312544757E+00    1.8545189820026375E+00    5.7510744335960737E+00
N    3.2102625923975761E+00    1.8553685903845727E+00    7.6730007034578893E+00
Ga    3.2113931870234254E+00    1.1738433855486075E-03    8.3768623611137851E+00
N    3.2128910726687923E+00    2.9607256479460310E-03    1.0300078675421656E+01
Ga    3.2093559020207310E+00    1.8580953362583845E+00    1.1013724664958730E+01
N    3.2107759111861300E+00    1.8644748552158874E+00    1.2935665156884534E+01
Ga    3.2088073148127596E+00    7.8968156158631883E-03    1.3650348710455933E+01
N    3.1963792225616414E+00   -6.8203199088782930E-03    1.5567333224441420E+01
Ga    3.2065871397592187E+00    1.8668400907066056E+00    1.6647743874274148E+01
N    4.7864750614291625E+00    9.0912009540694427E-01    1.7496429308914955E+01
N    1.6035596499710114E+00    2.7812848231248499E+00   -1.5291897059801851E-01
Ga    1.6031201343281074E+00    4.6365271631032847E+00    5.0186923275966600E-01
N    1.6030433556030983E+00    4.6368814083987200E+00    2.4120557805975942E+00
Ga    1.6037916945479900E+00    2.7818555410185173E+00    3.1191657991953954E+00
N    1.6038127432844616E+00    2.7814496610660040E+00    5.0348862433608996E+00
Ga    1.6025990207878853E+00    4.6364505591330643E+00    5.7518225891330426E+00
N    1.6029095751657678E+00    4.6371338836703115E+00    7.6740870995685686E+00
Ga    1.6041244381221935E+00    2.7814102724302834E+00    8.3738423957848696E+00
N    1.6038436780569043E+00    2.7809996801591836E+00    1.0297489435436420E+01
Ga    1.6052498988176052E+00    4.6342097845860035E+00    1.1010975292934575E+01
N    1.6058017959173492E+00    4.6343624297367771E+00    1.2930023271936566E+01
Ga    1.6058649329936361E+00    2.7841411618301137E+00    1.3669243185281225E+01
N    1.6015224211053751E+00    2.7945551944473266E+00    1.5590898023494134E+01
Ga    1.5903312768836584E+00    4.6423649013047106E+00    1.6597876410897726E+01
N    3.1953064423229396E+00    3.7318264362385500E+00    1.7500450424221228E+01
N   -2.4773235415038852E-03    5.5630230158374028E+00   -1.5299953555030010E-01
Ga   -2.9225301027009155E-03    7.4181811001548246E+00    5.0178816764533762E-01
N   -3.0507911650183971E-03    7.4183732136136209E+00    2.4119158647813186E+00
Ga   -2.4055672305381957E-03    5.5637456779783721E+00    3.1201806093311606E+00
N   -2.6765055310683118E-03    5.5634670659629517E+00    5.0359032342223360E+00
Ga   -3.1078256475464213E-03    7.4179433380703754E+00    5.7537999624175615E+00
N   -2.6371412381473876E-03    7.4188364569322953E+00    7.6759460791867147E+00
Ga   -1.7976628402339276E-03    5.5638038866084605E+00    8.3791866715312135E+00
N   -8.0249662718522767E-04    5.5647718581120769E+00    1.0303118103189009E+01
Ga   -2.2657544252628202E-04    7.4235915490520252E+00    1.1010911683177268E+01
N    2.3814664418243224E-03    7.4289977762112160E+00    1.2930027689374722E+01
Ga    6.1318351333968209E-03    5.5728610597553470E+00    1.3639343201792084E+01
N    3.7299014581730671E-03    5.5623185606711987E+00    1.5555091640065800E+01
Ga   -7.0856734078618630E-03    7.3835451248393431E+00    1.6598584061405905E+01
N    1.5960437579734299E+00    6.4821022600913230E+00    1.7505070681395118E+01
N   -1.6084745592530010E+00    8.3446990283783027E+00   -1.5304669726954440E-01
Ga   -1.6089122102173812E+00    1.0199829725728257E+01    5.0182274697632578E-01
N   -1.6088797952370504E+00    1.0199867249063391E+01    2.4120777392884518E+00
Ga   -1.6081094812525047E+00    8.3451914772467735E+00    3.1202973580665172E+00
N   -1.6082154850523112E+00    8.3447851981418104E+00    5.0361029710353451E+00
Ga   -1.6084884996342845E+00    1.0199676256292085E+01    5.7528880189232279E+00
N   -1.6074649157759000E+00    1.0201045676069885E+01    7.6746627639545570E+00
Ga   -1.6082762566191229E+00    8.3466619867417169E+00    8.3783687697477536E+00
N   -1.6079901819316582E+00    8.3492517181983459E+00    1.0301386898270945E+01
Ga   -1.6059616882198389E+00    1.0204156037124671E+01    1.1019033019539833E+01
N   -1.6033913997125171E+00    1.0209555508436708E+01    1.2937884132822601E+01
Ga   -1.5993962590275648E+00    8.3552996307871847E+00    1.3663046727582177E+01
N   -1.6198505499833418E+00    8.3388258312890216E+00    1.5583799604741749E+01
Ga   -1.6283684752153122E+00    1.0201255097600891E+01    1.6606785763221545E+01
N   -5.3418316243053286E-02    9.2130678373459638E+00    1.7499207728182704E+01
N    6.4191522650794344E+00   -4.3868407455238006E-04   -1.5294977072380656E-01
Ga    6.4187530696468160E+00    1.8546987187747856E+00    5.0182789819082496E-01
N    6.4188101919663518E+00    1.8548334496727448E+00    2.4121705678337748E+00
Ga    6.4192758512923147E+00    1.2393705240676983E-05    3.1200809414800492E+00
N    6.4192894395089963E+00   -3.3683843854282399E-05    5.0359139936140469E+00
Ga    6.4192591216637656E+00    1.8548466198265039E+00    5.7525326648808850E+00
N    6.4202620089327089E+00    1.8562407419410381E+00    7.6747359943161202E+00
Ga    6.4203211836456644E+00    1.6497499746991496E-03    8.3780335901995002E+00
N    6.4215289601752277E+00    4.1079123840185583E-03    1.0301423201545669E+01
Ga    6.4199248430045115E+00    1.8582988959094300E+00    1.1019392125668061E+01
N    6.4214662753522722E+00    1.8652677497825292E+00    1.2941655964014590E+01
Ga    6.4229690465686211E+00    1.1280361046021127E-02    1.3668541555568032E+01
N    6.4129389674111694E+00   -2.9717691338708933E-02    1.5586744531949156E+01
Ga    6.3950410639047996E+00    1.8533612850708026E+00    1.6629189878990903E+01
N    7.9978960364169573E+00    9.0506304231246859E-01    1.7491126292471623E+01
N    4.8131522068993506E+00    2.7812924474116807E+00   -1.5289122979746342E-01
Ga    4.8126772123968555E+00    4.6364486135876524E+00    5.0180494088686589E-01
N    4.8126829109908495E+00    4.6366007135862137E+00    2.4121133711317024E+00
Ga    4.8135297826511483E+00    2.7818286691982221E+00    3.1199539184459155E+00
N    4.8138715403795773E+00    2.7814777285533947E+00    5.0357833439443098E+00
Ga    4.8130476984550636E+00    4.6359946686128550E+00    5.7528978179152634E+00
N    4.8137571012289913E+00    4.6367279514129853E+00    7.6750847011149288E+00
Ga    4.8139656829172743E+00    2.7813961499611595E+00    8.3763253692700594E+00
N    4.8144733567502573E+00    2.7825021260320724E+00    1.0300391348725086E+01
Ga    4.8126839567811697E+00    4.6376367992304939E+00    1.1007926485861516E+01
N    4.8111657181756584E+00    4.6419572798878868E+00    1.2927201231602989E+01
Ga    4.8130938522475750E+00    2.7919543979301142E+00    1.3662367568639498E+01
N    4.8097589732450459E+00    2.7893599496080412E+00    1.5580056891693067E+01
Ga    4.8072097390370514E+00    4.6469415706431034E+00    1.6594219809952090E+01
N    6.3957857263726918E+00    3.7072364200648220E+00    1.7490931266465722E+01
N    3.2070930961273629E+00    5.5629872518433148E+00   -1.5292025188050068E-01
Ga    3.2066034981761735E+00    7.4181270945057731E+00    5.0192823269563069E-01
N    3.2064541792352395E+00    7.4182446522144190E+00    2.4123107274673705E+00
Ga    3.2073618963527224E+00    5.5632534908312063E+00    3.1199133060568607E+00
N    3.2075711526781654E+00    5.5624486729494214E+00    5.0358487652187049E+00
Ga    3.2061733846562794E+00    7.4178776431001836E+00    5.7501961111743007E+00
N    3.2065445128087799E+00    7.4182784329203999E+00    7.6716442981952646E+00
Ga    3.2073272268524913E+00    5.5641231661204245E+00    8.3743557878440154E+00
N    3.2072121512410776E+00    5.5656524668799223E+00    1.0298650973362601E+01
Ga    3.2076240212107168E+00    7.4207537316651049E+00    1.1015470719707155E+01
N    3.2068123913070168E+00    7.4261427620567426E+00    1.2936747613082039E+01
Ga    3.2061781274637071E+00    5.5678785863403286E+00    1.3647316931839416E+01
N    3.2012834674959891E+00    5.5702326302188423E+00    1.5565613424143967E+01
Ga    3.2072059069618937E+00    7.4223115072307140E+00    1.6649076122603812E+01
N    4.8013518329689120E+00    6.4844814525745846E+00    1.7506324096248001E+01
N    1.6010403024315942E+00    8.3447234368047329E+00   -1.5298103802364901E-01
Ga    1.6006718703031535E+00    1.0199901349015507E+01    5.0183154338577329E-01
N    1.6006635303656600E+00    1.0200072093677742E+01    2.4121469516194627E+00
Ga    1.6008074701450501E+00    8.3452628704051079E+00    3.1197699722631360E+00
N    1.6005021676906332E+00    8.3449809046976267E+00    5.0355246900152322E+00
Ga    1.6004550715433679E+00    1.0199940032826824E+01    5.7525237046984898E+00
N    1.6010904596405240E+00    1.0201223800288426E+01    7.6743357715535669E+00
Ga    1.6025738409380785E+00    8.3462253397128272E+00    8.3757411249123948E+00
N    1.6048414834433375E+00    8.3486107380401879E+00    1.0298862846915229E+01
Ga    1.6013642202213547E+00    1.0202859742791073E+01    1.1017303050785491E+01
N    1.6017971746992099E+00    1.0209257503428828E+01    1.2936219319089421E+01
Ga    1.6028897982594128E+00    8.3541239005238879E+00    1.3663537137036498E+01
N    1.6075333757344721E+00    8.3581307134786051E+00    1.5586097670618658E+01
Ga    1.6031308694281414E+00    1.0197690351459947E+01    1.6559352086176240E+01
N    3.1777901582119483E+00    9.2815702661344517E+00    1.7503436283297351E+01
N    9.6286577735323586E+00   -4.3329330715643002E-04   -1.5311704864674636E-01
Ga    9.6282984423583535E+00    1.8546640963217282E+00    5.0180373993089555E-01
N    9.6281851143938972E+00    1.8547559002177434E+00    2.4120299100095655E+00
Ga    9.6288142000564800E+00    8.4535122514584513E-05    3.1200150645614757E+00
N    9.6284803716245086E+00   -1.3113667245648065E-04    5.0357582093120534E+00
Ga    9.6280090242900656E+00    1.8549943310575534E+00    5.7528230598375201E+00
N    9.6285077405892707E+00    1.8563826604130325E+00    7.6750504074591106E+00
Ga    9.6291980765937737E+00    1.3623493051395093E-03    8.3768739744282641E+00
N    9.6297350864505216E+00    4.1684994794578510E-03    1.0301299818915931E+01
Ga    9.6306119931163590E+00    1.8609717014952991E+00    1.1011920933686241E+01
N    9.6288672787772995E+00    1.8709815329953587E+00    1.2934182515378634E+01
Ga    9.6362175479005696E+00    1.2336301549271145E-02    1.3640941272434050E+01
N    9.6347887721322749E+00   -4.3194025717582067E-03    1.5553707251342606E+01
Ga    9.6266201890766823E+00    1.8159716174559937E+00    1.6594928640701372E+01
N    1.1230336349521819E+01    9.1410296471409214E-01    1.7502763813617594E+01
N    8.0226770783921406E+00    2.7812753944000552E+00   -1.5289551276732466E-01
Ga    8.0223010655221838E+00    4.6364452480239287E+00    5.0190423281690555E-01
N    8.0222947286650985E+00    4.6365774642296724E+00    2.4121581855226624E+00
Ga    8.0229340007714463E+00    2.7817879005533430E+00    3.1197393518714480E+00
N    8.0227882446177645E+00    2.7816591281456189E+00    5.0357324163149144E+00
Ga    8.0228441909717869E+00    4.6362303671638339E+00    5.7531835454442355E+00
N    8.0238273053582194E+00    4.6374991373864489E+00    7.6755218147182873E+00
Ga    8.0235926661755883E+00    2.7834105569333816E+00    8.3784911990011679E+00
N    8.0237573123572243E+00    2.7863960072741336E+00    1.0303006552950256E+01
Ga    8.0243043179978244E+00    4.6418131532689486E+00    1.1017073438022758E+01
N    8.0251709914561058E+00    4.6496219897582263E+00    1.2936631299065226E+01
Ga    8.0255635018544620E+00    2.7968273392097029E+00    1.3666637574653345E+01
N    8.0097298355324220E+00    2.7798189578939883E+00    1.5581775051698456E+01
Ga    8.0094772836340926E+00    4.6352766392855296E+00    1.6607202276802251E+01
N    9.5865907808207727E+00    3.6458189437038353E+00    1.7487348098011683E+01
N    6.4166411281816007E+00    5.5629706598208637E+00   -1.5286460085305145E-01
Ga    6.4163055872212169E+00    7.4181558826523739E+00    5.0181157163447176E-01
N    6.4163909423944139E+00    7.4181771140186346E+00    2.4122933886552302E+00
Ga    6.4168570242358003E+00    5.5631731398727684E+00    3.1198557714742838E+00
N    6.4170553682072873E+00    5.5621892352011884E+00    5.0358871404850412E+00
Ga    6.4168936888063932E+00    7.4174629903698568E+00    5.7509994252232159E+00
N    6.4176848252674166E+00    7.4178656660716618E+00    7.6727232349466234E+00
Ga    6.4181393979462369E+00    5.5639627540785783E+00    8.3771361593738849E+00
N    6.4183423374580180E+00    5.5656879083003412E+00    1.0301617679801423E+01
Ga    6.4161845587733843E+00    7.4227924665359017E+00    1.1011772416084433E+01
N    6.4154243441919858E+00    7.4298900999179986E+00    1.2932286018746808E+01
Ga    6.4129427109810031E+00    5.5750579170776913E+00    1.3643871642817540E+01
N    6.4023079074260654E+00    5.5537187875026017E+00    1.5563717234690010E+01
Ga    6.4148205464926873E+00    7.4283632001380342E+00    1.6641133079178463E+01
N    7.9903718776413735E+00    6.4712090517767358E+00    1.7495294599455093E+01
N    4.8106027633672328E+00    8.3446851707034178E+00   -1.5294776744486682E-01
Ga    4.8101461795621647E+00    1.0199952083777323E+01    5.0167073462725909E-01
N    4.8100024637763878E+00    1.0200088221626423E+01    2.4120112837311685E+00
Ga    4.8108119741708180E+00    8.3452476781757632E+00    3.1194034477910404E+00
N    4.8108920269548774E+00    8.3444916984070474E+00    5.0351435760756047E+00
Ga    4.8100265199249304E+00    1.0199806492105500E+01    5.7514562727247780E+00
N    4.8102986560357266E+00    1.0200384879800509E+01    7.6732471232842707E+00
Ga    4.8111393982889075E+00    8.3439329051016262E+00    8.3727017737525919E+00
N    4.8104195997828558E+00    8.3443000700260885E+00    1.0295879785900999E+01
Ga    4.8124051516306139E+00    1.0198820881438184E+01    1.1009551748130697E+01
N    4.8132294784046437E+00    1.0202832040321997E+01    1.2926344545001394E+01
Ga    4.8120051569350988E+00    8.3520360438251924E+00    1.3666242468810150E+01
N    4.8067288100175478E+00    8.3490018503931402E+00    1.5588250837969092E+01
Ga    4.7969373884691908E+00    1.0201080597497729E+01    1.6596011336715414E+01
N    6.3998687749910177E+00    9.2844501359831320E+00    1.7495708443483625E+01
H    1.3061340391081500E-04   -3.5489930020370943E-04   -1.1758361236549681E+00
H   -1.6060489551534958E+00    2.7814255242075161E+00   -1.1757892054625840E+00
H   -3.2120183235794775E+00    5.5630553297565042E+00   -1.1758015008411473E+00
H   -4.8180418456142293E+00    8.3448203073574270E+00   -1.1758806712744003E+00
H    3.2095611087661569E+00   -3.7777256388966734E-04   -1.1759266776735977E+00
H    1.6035804265555043E+00    2.7814231440329737E+00   -1.1758393193354919E+00
H   -2.4807451682113445E-03    5.5631520675907966E+00   -1.1758864471320010E+00
H   -1.6084144189662790E+00    8.3447801214773385E+00   -1.1759299934225267E+00
H    6.4191352695206918E+00   -2.4734253896299674E-04   -1.1758362579436674E+00
H    4.8132114349702766E+00    2.7813985088558417E+00   -1.1757721881078531E+00
H    3.2071188207401047E+00    5.5630014607193363E+00   -1.1758028676761350E+00
H    1.6009491248914141E+00    8.3448049218167633E+00   -1.1758739711458357E+00
H    9.6286468551747380E+00   -2.7102447437691814E-04   -1.1759961831294663E+00
H    8.0226370932127740E+00    2.7813742516049773E+00   -1.1757772867922158E+00
H    6.4166377213020702E+00    5.5630645170091171E+00   -1.1757382668115652E+00
H    4.8106537087269698E+00    8.3447641983782255E+00   -1.1758480506598721E+00
     &END COORD
     &KIND H
       BASIS_SET DZVP-MOLOPT-SR-GTH-q1
       POTENTIAL GTH-PBE-q1
       &POTENTIAL
 1
  0.2000000000000000E+00 2 -0.4178900440000000E+01  0.7244633100000000E+00
 0
         # Potential name:  GTH-PBE-Q1  for symbol:  H
         # Potential read from the potential filename: GTH_POTENTIALS
       &END POTENTIAL
     &END KIND
     &KIND N
       BASIS_SET DZVP-MOLOPT-SR-GTH
       POTENTIAL GTH-PBE-q5
       &POTENTIAL
 2 3
  0.2837905100000000E+00 2 -0.1241522559000000E+02  0.1868095920000000E+01
 2
  0.2554050000000000E+00 1  0.1363026257000000E+02
  0.2454945300000000E+00 0
         # Potential name:  GTH-PBE-Q5  for symbol:  N
         # Potential read from the potential filename: GTH_POTENTIALS
       &END POTENTIAL
     &END KIND
     &KIND Ga
       BASIS_SET DZVP-MOLOPT-SR-GTH
       POTENTIAL GTH-PBE-q13
       &POTENTIAL
 2 1 10
  0.4900000000000000E+00 0
 3
  0.4167772300000000E+00 3  0.1047568975000000E+02 -0.4921768140000000E+01  0.8707055900000000E+00
  0.7770178090000000E+01 -0.2248152160000000E+01
  0.1784415450000000E+01
  0.5696265200000000E+00 2  0.1777985340000000E+01  0.1958597600000000E+00
 -0.2317443900000000E+00
  0.2381265000000000E+00 1 -0.1624868022000000E+02
         # Potential name:  GTH-PBE-Q13  for symbol:  GA
         # Potential read from the potential filename: GTH_POTENTIALS
       &END POTENTIAL
     &END KIND
     &TOPOLOGY
       NUMBER_OF_ATOMS  256
       MULTIPLE_UNIT_CELL  1 1 1
     &END TOPOLOGY
   &END SUBSYS
 &END FORCE_EVAL
