 # Version information for this restart file 
 # current date 2019-06-09 06:07:16.254
 # current working dir /lustre03/project/6037349/rzk/GaN-carbene/444-addat/00-Surface/UKS_SYMM
 # Program compiled at                              Sun Apr  7 00:48:11 EDT 2019
 # Program compiled on                          beluga2.int.ets1.calculquebec.ca
 # Program compiled for                        Beluga-Linux-x86-64-intel-openmpi
 # Source code revision number                                         svn:18619
 &GLOBAL
   PRINT_LEVEL  MEDIUM
   PROJECT_NAME TEST
   RUN_TYPE  CELL_OPT
 &END GLOBAL
 &MOTION
   &CELL_OPT
     MAX_ITER  300
     STEP_START_VAL  33
     EXTERNAL_PRESSURE     1.0000000000000000E+00
     KEEP_ANGLES  T
     KEEP_SYMMETRY  T
     CONSTRAINT  Z
     PRESSURE_TOLERANCE     5.0000000000000000E+02
   &END CELL_OPT
 &END MOTION
 &FORCE_EVAL
   METHOD  QS
   STRESS_TENSOR  ANALYTICAL
   &DFT
     BASIS_SET_FILE_NAME BASIS_MOLOPT
     POTENTIAL_FILE_NAME GTH_POTENTIALS
     UKS  T
     SURFACE_DIPOLE_CORRECTION  T
     SURF_DIP_DIR  Z
     &SCF
       MAX_SCF  100
       EPS_SCF     5.0000000000000004E-06
       &OT  T
         PRECONDITIONER  FULL_ALL
       &END OT
       &OUTER_SCF  T
         OPTIMIZER  NONE
         EPS_SCF     5.0000000000000004E-06
         MAX_SCF  4
       &END OUTER_SCF
       &PRINT
         &RESTART  OFF
           BACKUP_COPIES  1
           &EACH
             JUST_ENERGY  0
             QS_SCF  0
             MD  20
           &END EACH
         &END RESTART
       &END PRINT
     &END SCF
     &QS
       EPS_DEFAULT     1.0000000000000000E-14
       METHOD  GPW
     &END QS
     &MGRID
       NGRIDS  5
       CUTOFF     1.2000000000000000E+03
     &END MGRID
     &XC
       DENSITY_CUTOFF     1.0000000000000000E-10
       GRADIENT_CUTOFF     1.0000000000000000E-10
       TAU_CUTOFF     1.0000000000000000E-10
       &XC_FUNCTIONAL  NO_SHORTCUT
         &PBE  T
         &END PBE
       &END XC_FUNCTIONAL
       &VDW_POTENTIAL
         POTENTIAL_TYPE  PAIR_POTENTIAL
         &PAIR_POTENTIAL
           R_CUTOFF     1.0000000000000004E+01
           TYPE  DFTD3
           PARAMETER_FILE_NAME dftd3.dat
           REFERENCE_FUNCTIONAL PBE
           EPS_CN     9.9999999999999995E-07
           CALCULATE_C9_TERM  T
           REFERENCE_C9_TERM  T
           LONG_RANGE_CORRECTION  F
           VERBOSE_OUTPUT  F
         &END PAIR_POTENTIAL
       &END VDW_POTENTIAL
     &END XC
   &END DFT
   &SUBSYS
     &CELL
       A     1.2832492282557860E+01    0.0000000000000000E+00    0.0000000000000000E+00
       B    -6.4151660709030995E+00    1.1111393573796235E+01    0.0000000000000000E+00
       C     0.0000000000000000E+00    0.0000000000000000E+00    3.2000000000000000E+01
       MULTIPLE_UNIT_CELL  1 1 1
       &CELL_REF
         A     1.2982353780853531E+01    0.0000000000000000E+00    0.0000000000000000E+00
         B    -6.4911768904267628E+00    1.1243048175136114E+01    0.0000000000000000E+00
         C     0.0000000000000000E+00    0.0000000000000000E+00    3.2000000000000000E+01
         MULTIPLE_UNIT_CELL  1 1 1
       &END CELL_REF
     &END CELL
     &COORD
N    1.8079808349011795E-04   -3.8351881891691964E-04   -2.0612314136966001E-01
Ga    5.7178514056176590E-04    1.8519635434868933E+00    4.7556846476623876E-01
N    5.3095277177114559E-04    1.8522134036689384E+00    2.3939408166878446E+00
Ga    4.0150013105322378E-04   -1.3154429321224448E-04    3.1202303708485233E+00
N    5.9228441024536491E-04   -2.2108970747985378E-04    5.0407161044567257E+00
Ga    7.3311730244939586E-04    1.8523663528838064E+00    5.7560276997328401E+00
N    9.6380225126905649E-04    1.8533051691147944E+00    7.6789411648731063E+00
Ga    9.7816892606417843E-04    1.3182398856342969E-03    8.3901911795418531E+00
N    1.5931966257697577E-03    3.6897405482376562E-03    1.0314505318215041E+01
Ga    2.7371822962782275E-03    1.8554031602119203E+00    1.1029596377897640E+01
N    4.3965495056132653E-03    1.8605191099279978E+00    1.2955709992830132E+01
Ga    2.8039672897435205E-03    6.4252358267986674E-03    1.3668620467227147E+01
N   -5.9277675301916142E-03    6.1432444450843391E-03    1.5585999287622991E+01
Ga   -2.4428397407168468E-03    1.8521929375274113E+00    1.6659100979890844E+01
N    1.5966487869181627E+00    9.2173231023850077E-01    1.7528414574799839E+01
N   -1.6036496222346233E+00    2.7775168256199954E+00   -2.0603072977158757E-01
Ga   -1.6031552891384302E+00    4.6298529378865307E+00    4.7564460038769768E-01
N   -1.6031684359399945E+00    4.6301302370409880E+00    2.3940359980799060E+00
Ga   -1.6036091112379913E+00    2.7780177779208870E+00    3.1205130813575268E+00
N   -1.6035705329718373E+00    2.7781703091856444E+00    5.0410583232786639E+00
Ga   -1.6028671990498320E+00    4.6302033112225711E+00    5.7577869719965928E+00
N   -1.6023816242625073E+00    4.6313485216589996E+00    7.6809940082777333E+00
Ga   -1.6021638887552045E+00    2.7792580081648568E+00    8.3921436679569954E+00
N   -1.6010137408555947E+00    2.7818003532801940E+00    1.0316671369795833E+01
Ga   -1.6010529665269499E+00    4.6341063464508210E+00    1.1029615755150070E+01
N   -1.6008219925163580E+00    4.6374906480942082E+00    1.2954480048431044E+01
Ga   -1.6007982484935885E+00    2.7850210250365279E+00    1.3674124368926284E+01
N   -1.5962989722633785E+00    2.7845054861244369E+00    1.5598304535392357E+01
Ga   -1.6080031290833590E+00    4.6239836638873504E+00    1.6603460404962398E+01
N   -1.8036393943305171E-02    3.7084435330300480E+00    1.7530518169571589E+01
N   -3.2073952752420487E+00    5.5553118363339697E+00   -2.0602380979764517E-01
Ga   -3.2068475500419589E+00    7.4076241533703024E+00    4.7564615248045067E-01
N   -3.2066938784961194E+00    7.4077553226521262E+00    2.3941043493625473E+00
Ga   -3.2072099893222514E+00    5.5556046335132860E+00    3.1208103651081247E+00
N   -3.2069557504933264E+00    5.5555600593833283E+00    5.0414206005241464E+00
Ga   -3.2062716011059318E+00    7.4078305859664431E+00    5.7572314666419429E+00
N   -3.2053778801606310E+00    7.4090378977651348E+00    7.6803976150797384E+00
Ga   -3.2058314028515018E+00    5.5575844826581751E+00    8.3933496004357764E+00
N   -3.2052905983675659E+00    5.5600408688296783E+00    1.0317886180973685E+01
Ga   -3.2048468129180834E+00    7.4131418829681035E+00    1.1029833194089319E+01
N   -3.2039493086611781E+00    7.4167074309060341E+00    1.2955005272076590E+01
Ga   -3.2051610850901939E+00    5.5660974097122038E+00    1.3675423332418635E+01
N   -3.2130399173322632E+00    5.5427788996873870E+00    1.5594979068136471E+01
Ga   -3.2323934020261613E+00    7.4019476540634903E+00    1.6636461820716356E+01
N   -1.6245339278105204E+00    6.4677215995825810E+00    1.7517080332627202E+01
N   -4.8111501061067301E+00    8.3330894305455132E+00   -2.0607219613331443E-01
Ga   -4.8106889488766926E+00    1.0185460323270542E+01    4.7537068405904881E-01
N   -4.8105744459791788E+00    1.0185619425923759E+01    2.3937846927485977E+00
Ga   -4.8108301419707455E+00    8.3334335130812871E+00    3.1203963093821105E+00
N   -4.8105431874896443E+00    8.3333091341480241E+00    5.0409103796525043E+00
Ga   -4.8100979144190319E+00    1.0185679523622623E+01    5.7568587889473086E+00
N   -4.8093691894079909E+00    1.0186862104487846E+01    7.6799417525029536E+00
Ga   -4.8099917390957723E+00    8.3344243118783083E+00    8.3907556336482383E+00
N   -4.8094341495217190E+00    8.3364559958326296E+00    1.0315286100817215E+01
Ga   -4.8088482362360718E+00    1.0189259903109285E+01    1.1026367509012397E+01
N   -4.8096292936371379E+00    1.0192567903305697E+01    1.2948954401712218E+01
Ga   -4.8099337692390272E+00    8.3429647972245071E+00    1.3673448227398479E+01
N   -4.8157307710367530E+00    8.3427892815638742E+00    1.5592247765199348E+01
Ga   -4.8222899523143923E+00    1.0196013353910493E+01    1.6615074523456627E+01
N   -3.2328787058388615E+00    9.2497323115337409E+00    1.7516455839406202E+01
N    3.2083614584901254E+00   -4.1996447661317112E-04   -2.0610377575535235E-01
Ga    3.2088313490592020E+00    1.8519063690695654E+00    4.7555449171311814E-01
N    3.2089493428478950E+00    1.8521133722364942E+00    2.3939462533188127E+00
Ga    3.2085872152546440E+00   -1.4135592026042254E-04    3.1203957112539222E+00
N    3.2088853985883814E+00   -1.7783002597998026E-04    5.0408536585238215E+00
Ga    3.2091901419134303E+00    1.8521529594311663E+00    5.7564563219701821E+00
N    3.2098771371396224E+00    1.8531876460582339E+00    7.6794382132822960E+00
Ga    3.2099497343040508E+00    1.6732643470656267E-03    8.3919669879709442E+00
N    3.2108285819033400E+00    3.6951555969350581E-03    1.0316339392461879E+01
Ga    3.2101877682775748E+00    1.8557392094652214E+00    1.1029931628166217E+01
N    3.2106084018578089E+00    1.8586067923588945E+00    1.2955380580821323E+01
Ga    3.2086632615916977E+00    6.0005927539468970E-03    1.3670923207298820E+01
N    3.1947350227764697E+00   -5.1332575313873295E-03    1.5588772015097879E+01
Ga    3.2081312387285883E+00    1.8574085347687552E+00    1.6662345157957276E+01
N    4.7914326345813700E+00    9.0802472775864906E-01    1.7521565160383439E+01
N    1.6045162521554921E+00    2.7774447346774549E+00   -2.0591481747069704E-01
Ga    1.6049004920960566E+00    4.6298671210559164E+00    4.7545090133899465E-01
N    1.6048568745789515E+00    4.6300900154311124E+00    2.3938439895708750E+00
Ga    1.6046987508164106E+00    2.7778419523402014E+00    3.1200911939098743E+00
N    1.6048737633938368E+00    2.7777388461922050E+00    5.0405547647239795E+00
Ga    1.6050852079786311E+00    4.6299042194811850E+00    5.7568594957021109E+00
N    1.6053771743093630E+00    4.6306147295990128E+00    7.6800921976740835E+00
Ga    1.6053898742200383E+00    2.7779167037460639E+00    8.3902358895683165E+00
N    1.6059313389444143E+00    2.7788983543410435E+00    1.0314753248410078E+01
Ga    1.6064717006277427E+00    4.6310019542282834E+00    1.1025968109983904E+01
N    1.6073977186656017E+00    4.6336097799996274E+00    1.2949902337467702E+01
Ga    1.6090864736016284E+00    2.7847709279979820E+00    1.3679479545819049E+01
N    1.6015831778754315E+00    2.7868030077852315E+00    1.5603300706943607E+01
Ga    1.5912544723371467E+00    4.6324162185592117E+00    1.6619555314065828E+01
N    3.1935685765008062E+00    3.7154525575262265E+00    1.7522788292762488E+01
N    6.5523114451582773E-04    5.5553282428089164E+00   -2.0618157750373328E-01
Ga    1.1159117535315549E-03    7.4076534006704566E+00    4.7550043932945418E-01
N    1.1011739204892278E-03    7.4078567544670122E+00    2.3939278644282029E+00
Ga    7.6321386013949750E-04    5.5557523651288454E+00    3.1207162238000175E+00
N    8.4585555312937863E-04    5.5557348641924360E+00    5.0413102439185558E+00
Ga    1.4413256674353754E-03    7.4079818821051360E+00    5.7576186286402189E+00
N    2.0986975927971951E-03    7.4092960316342014E+00    7.6807513105842755E+00
Ga    1.7752122335084480E-03    5.5571026199922331E+00    8.3919749960599255E+00
N    2.4069241316291450E-03    5.5597178379481385E+00    1.0316502185063790E+01
Ga    4.1189926997065749E-03    7.4134385605960258E+00    1.1026766663338210E+01
N    5.2070913181429214E-03    7.4173453508841671E+00    1.2951265788300667E+01
Ga    6.5016890671334721E-03    5.5651112577853823E+00    1.3665214687283182E+01
N   -3.5422405847787123E-03    5.5518463849893944E+00    1.5581845138324107E+01
Ga   -1.1780917824813709E-02    7.3872606846375470E+00    1.6628167352174913E+01
N    1.5909779765131968E+00    6.4742513264097497E+00    1.7526624617287204E+01
N   -1.6030871341837816E+00    8.3331787394237029E+00   -2.0616513148112867E-01
Ga   -1.6025604022563524E+00    1.0185448760572477E+01    4.7564266300338903E-01
N   -1.6024212532225846E+00    1.0185675420648359E+01    2.3940417481745664E+00
Ga   -1.6028068091801158E+00    8.3335636113938900E+00    3.1208429479390887E+00
N   -1.6025775484678948E+00    8.3337134953219358E+00    5.0414064898237605E+00
Ga   -1.6019771271288628E+00    1.0186090891420442E+01    5.7574695369081050E+00
N   -1.6009503139518169E+00    1.0187567734147279E+01    7.6807102125175790E+00
Ga   -1.6018442120314338E+00    8.3357068734623212E+00    8.3923089255913190E+00
N   -1.6009792866770871E+00    8.3381146379803486E+00    1.0316689627312286E+01
Ga   -1.6006126596276731E+00    1.0190202618627193E+01    1.1030518492758633E+01
N   -1.5999012213487198E+00    1.0192792999784423E+01    1.2955090904222692E+01
Ga   -1.5979485153805371E+00    8.3413673987755743E+00    1.3675072338859582E+01
N   -1.6179624401028725E+00    8.3300101756624674E+00    1.5596744470055732E+01
Ga   -1.6247488947833462E+00    1.0187228519961353E+01    1.6631537377368609E+01
N   -2.8413686259317301E-02    9.2220557109211327E+00    1.7505830543547596E+01
N    6.4163989726456219E+00   -3.6475404526060241E-04   -2.0603534014380198E-01
Ga    6.4169433704290242E+00    1.8519591918511829E+00    4.7561568597348042E-01
N    6.4171109423195416E+00    1.8522319695766130E+00    2.3940624299927000E+00
Ga    6.4165979110564164E+00    1.2204220204571228E-04    3.1206940522151316E+00
N    6.4168430749270433E+00    3.0021970545924035E-04    5.0412173728684033E+00
Ga    6.4174819958618237E+00    1.8523923476249362E+00    5.7574899081725510E+00
N    6.4181469017632047E+00    1.8535769121845560E+00    7.6807316425167178E+00
Ga    6.4177968919305668E+00    2.1179364613546597E-03    8.3938099409557694E+00
N    6.4183530412243739E+00    4.8878435924668189E-03    1.0318388460955539E+01
Ga    6.4181209977586082E+00    1.8569694356552222E+00    1.1032269819290004E+01
N    6.4191069787180730E+00    1.8609951004025287E+00    1.2957455908576655E+01
Ga    6.4181210051355171E+00    9.3838091994796393E-03    1.3677538080417253E+01
N    6.4096162173600559E+00   -1.2760533981149749E-02    1.5596478872135689E+01
Ga    6.3940117359348676E+00    1.8445426777976663E+00    1.6641112319677688E+01
N    8.0029376981973357E+00    9.0618974416093312E-01    1.7517681091795684E+01
N    4.8126740130740941E+00    2.7774322823262882E+00   -2.0607114725695613E-01
Ga    4.8131274427388524E+00    4.6297710786543220E+00    4.7546740401642723E-01
N    4.8132719661834331E+00    4.6299182345561753E+00    2.3938935515279947E+00
Ga    4.8129784813083285E+00    2.7777689409066415E+00    3.1205136971428082E+00
N    4.8132665373870145E+00    2.7777023538788193E+00    5.0410561427834519E+00
Ga    4.8135001599110181E+00    4.6298552651299500E+00    5.7572243916862362E+00
N    4.8139380771141713E+00    4.6308744694509025E+00    7.6804469706283260E+00
Ga    4.8136910066267351E+00    2.7785597451620867E+00    8.3919322230212945E+00
N    4.8141552963692398E+00    2.7801162594014173E+00    1.0316560960462901E+01
Ga    4.8139842285404217E+00    4.6330897124070107E+00    1.1026203335296875E+01
N    4.8136662061712530E+00    4.6362093853280983E+00    1.2949034338908493E+01
Ga    4.8134214238944679E+00    2.7876078296787794E+00    1.3676013658095011E+01
N    4.8084195688707911E+00    2.7876876582004888E+00    1.5594708394639470E+01
Ga    4.8027050882625764E+00    4.6393381452676872E+00    1.6618596171913886E+01
N    6.3961184498005537E+00    3.6931318132192819E+00    1.7515013485580901E+01
N    3.2088445528524630E+00    5.5553000511801391E+00   -2.0607765350030563E-01
Ga    3.2092232606067630E+00    7.4076203228337825E+00    4.7559354774092288E-01
N    3.2091700401526606E+00    7.4077658859932320E+00    2.3940092836189524E+00
Ga    3.2090258841315888E+00    5.5553978007757552E+00    3.1202129219697841E+00
N    3.2091998706447002E+00    5.5551234195264039E+00    5.0407515061473989E+00
Ga    3.2094557085438926E+00    7.4076265824285272E+00    5.7557453174524600E+00
N    3.2097736934558188E+00    7.4086303570338208E+00    7.6786880858856046E+00
Ga    3.2094028459538553E+00    5.5569333701981840E+00    8.3908415563569907E+00
N    3.2095029564311872E+00    5.5593805377928707E+00    1.0315342648541826E+01
Ga    3.2109076868279933E+00    7.4121690763064096E+00    1.1028304257680693E+01
N    3.2124332846874966E+00    7.4162074276619796E+00    1.2954205467242485E+01
Ga    3.2101122986676534E+00    5.5615321693320627E+00    1.3667038936886787E+01
N    3.2031096923702278E+00    5.5606851777277289E+00    1.5584522503438173E+01
Ga    3.2070702976674839E+00    7.4069165763130691E+00    1.6655725989872142E+01
N    4.8060600807985647E+00    6.4775802420275177E+00    1.7526766690575204E+01
N    1.6050164148530941E+00    8.3331766798201006E+00   -2.0604436704358564E-01
Ga    1.6054735484008487E+00    1.0185524961725910E+01    4.7555113583687347E-01
N    1.6054517565627666E+00    1.0185816137199540E+01    2.3939691785077617E+00
Ga    1.6049623661108094E+00    8.3336162927758135E+00    3.1205116946665417E+00
N    1.6050889779046127E+00    8.3337815407891576E+00    5.0410599899517958E+00
Ga    1.6058077550429015E+00    1.0186244776815453E+01    5.7573286113574182E+00
N    1.6063603238007600E+00    1.0187792459630273E+01    7.6806288384443802E+00
Ga    1.6066826724027705E+00    8.3354382883144389E+00    8.3906901105319669E+00
N    1.6076573938586205E+00    8.3385273248542120E+00    1.0315155500898783E+01
Ga    1.6071316341399589E+00    1.0190292113431559E+01    1.1029789747862813E+01
N    1.6074323424911305E+00    1.0193235871637324E+01    1.2954701471739565E+01
Ga    1.6078638881739724E+00    8.3403216262695405E+00    1.3673729177009184E+01
N    1.6120135516207057E+00    8.3385495431961445E+00    1.5597947145869833E+01
Ga    1.5983178219694687E+00    1.0176833911336123E+01    1.6602659298597523E+01
N    3.1907452396171596E+00    9.2633536091134214E+00    1.7529426332994625E+01
N    9.6244820448898274E+00   -3.5342972024740137E-04   -2.0618026919993412E-01
Ga    9.6249789074160983E+00    1.8519919486053031E+00    4.7553021879237029E-01
N    9.6249779112065816E+00    1.8523293187248864E+00    2.3939619469353355E+00
Ga    9.6246007327619409E+00    1.4583707110399894E-04    3.1203964166570941E+00
N    9.6247096235804506E+00    4.2319056856988789E-04    5.0409248868070629E+00
Ga    9.6253274389316275E+00    1.8525407085882013E+00    5.7577533252703317E+00
N    9.6257464299327538E+00    1.8540241771999688E+00    7.6811566699673923E+00
Ga    9.6255130299841589E+00    1.9992721397555598E-03    8.3926624562190213E+00
N    9.6261322392353605E+00    5.1933689494466466E-03    1.0317433201778696E+01
Ga    9.6266212580019541E+00    1.8586782620938267E+00    1.1027451304084067E+01
N    9.6285317082029369E+00    1.8628777274375268E+00    1.2952035728457808E+01
Ga    9.6294528029239164E+00    1.0085270490344170E-02    1.3664279668396839E+01
N    9.6214812231604974E+00   -7.9715604769803432E-03    1.5580223072978365E+01
Ga    9.6137073251514735E+00    1.8283829187813687E+00    1.6624653129985493E+01
N    1.1214674639401169E+01    9.1613879255151487E-01    1.7526240386727668E+01
N    8.0207410361536802E+00    2.7774841663566776E+00   -2.0607178924821046E-01
Ga    8.0212818943486806E+00    4.6297953050198108E+00    4.7558242742371304E-01
N    8.0214360477728164E+00    4.6299805736995818E+00    2.3940253616773619E+00
Ga    8.0209782404113170E+00    2.7779372553923944E+00    3.1208393890063162E+00
N    8.0212252390400689E+00    2.7780844456027798E+00    5.0415184707728091E+00
Ga    8.0218952787418800E+00    4.6301870499266444E+00    5.7579790289059245E+00
N    8.0227093861298062E+00    4.6316697031004841E+00    7.6812756970114950E+00
Ga    8.0214789370999355E+00    2.7797432262418100E+00    8.3928091063048242E+00
N    8.0213907552701524E+00    2.7826246223063502E+00    1.0317742024033382E+01
Ga    8.0224284935749886E+00    4.6353831031797208E+00    1.1029531483064007E+01
N    8.0236300120050181E+00    4.6384957760165104E+00    1.2954520512356638E+01
Ga    8.0251357817412039E+00    2.7869136323899966E+00    1.3675828991366862E+01
N    8.0104044583087077E+00    2.7705030536088895E+00    1.5597037967796057E+01
Ga    8.0032475173572735E+00    4.6270522696385594E+00    1.6630559945826963E+01
N    9.6009463700032551E+00    3.6619246605155964E+00    1.7507144022140071E+01
N    6.4170024297153558E+00    5.5552605011906042E+00   -2.0606531264238265E-01
Ga    6.4174991939645238E+00    7.4075683820762661E+00    4.7552890010220983E-01
N    6.4176556998679981E+00    7.4076331598285039E+00    2.3939748929374307E+00
Ga    6.4172960603023093E+00    5.5553757655453975E+00    3.1204851982212838E+00
N    6.4175712890070367E+00    5.5551461063399277E+00    5.0410966521257654E+00
Ga    6.4179338990943107E+00    7.4076318486294266E+00    5.7562564345755085E+00
N    6.4183864525861116E+00    7.4088437420241240E+00    7.6791942249188310E+00
Ga    6.4179931556461014E+00    5.5571534871648689E+00    8.3914560290401621E+00
N    6.4183215348693574E+00    5.5595083423787512E+00    1.0315994552874706E+01
Ga    6.4180883574900109E+00    7.4124235764780160E+00    1.1027792953462532E+01
N    6.4188139450811361E+00    7.4150372997571745E+00    1.2953051181879573E+01
Ga    6.4162125145328659E+00    5.5625560582509523E+00    1.3669053958730430E+01
N    6.4054799184342626E+00    5.5469596379454211E+00    1.5586872895264518E+01
Ga    6.4175217185282571E+00    7.4109568236311301E+00    1.6660009136190126E+01
N    8.0004769006099252E+00    6.4609150571583207E+00    1.7518353021413930E+01
N    4.8131664809459354E+00    8.3330826539451124E+00   -2.0597401974898119E-01
Ga    4.8135823633438068E+00    1.0185514296048156E+01    4.7536653646687588E-01
N    4.8135807525568950E+00    1.0185764724803162E+01    2.3937712979075627E+00
Ga    4.8133866683473672E+00    8.3334421121647910E+00    3.1199612393745983E+00
N    4.8135910019724593E+00    8.3333403892312266E+00    5.0404080122947530E+00
Ga    4.8136210585150376E+00    1.0185815022907446E+01    5.7562774947039292E+00
N    4.8137608946219643E+00    1.0187016140612423E+01    7.6793849369811245E+00
Ga    4.8138227807511900E+00    8.3343832836564733E+00    8.3894148115723528E+00
N    4.8139129163606595E+00    8.3366991191591140E+00    1.0313807127370993E+01
Ga    4.8156936382676427E+00    1.0188355906224420E+01    1.1026704380831369E+01
N    4.8167218209960732E+00    1.0190816570571192E+01    1.2950330139657344E+01
Ga    4.8172397437363506E+00    8.3404884256784051E+00    1.3677663903579441E+01
N    4.8101412039722442E+00    8.3395657650401098E+00    1.5601118450895664E+01
Ga    4.8001406673403633E+00    1.0186911126339400E+01    1.6615253909074870E+01
N    6.4018245508862721E+00    9.2693578348730821E+00    1.7520385424689330E+01
H    2.8390295313194706E-04   -1.6855161403657269E-04   -1.2336618992671977E+00
H   -1.6035957723942382E+00    2.7777004395127038E+00   -1.2335741256769224E+00
H   -3.2073682160210799E+00    5.5554743121689896E+00   -1.2335692637966329E+00
H   -4.8111119425422011E+00    8.3332348051321397E+00   -1.2336186565182803E+00
H    3.2083963617979787E+00   -2.6384889961260068E-04   -1.2336499268901264E+00
H    1.6045342237539146E+00    2.7775968490731899E+00   -1.2334511345163577E+00
H    6.6657086293347512E-04    5.5554951987497088E+00   -1.2337308238038354E+00
H   -1.6030578355130545E+00    8.3333379734721316E+00   -1.2337154787452238E+00
H    6.4164258638252125E+00   -1.7312187311248204E-04   -1.2335803875148885E+00
H    4.8127378418163547E+00    2.7775999368476620E+00   -1.2336160383530552E+00
H    3.2089039406003641E+00    5.5554807778755011E+00   -1.2336209993153833E+00
H    1.6050657780349733E+00    8.3333324894171952E+00   -1.2335870400528604E+00
H    9.6244544948473703E+00   -1.6690903168050145E-04   -1.2337274523566746E+00
H    8.0207445075757313E+00    2.7776566472926567E+00   -1.2336145029229388E+00
H    6.4170430583244507E+00    5.5554320513290909E+00   -1.2336079909569699E+00
H    4.8131900811518227E+00    8.3331684044930761E+00   -1.2335165572241287E+00
     &END COORD
     &KIND H
       BASIS_SET DZVP-MOLOPT-SR-GTH-q1
       POTENTIAL GTH-PBE-q1
       &POTENTIAL
 1
  0.2000000000000000E+00 2 -0.4178900440000000E+01  0.7244633100000000E+00
 0
         # Potential name:  GTH-PBE-Q1  for symbol:  H
         # Potential read from the potential filename: GTH_POTENTIALS
       &END POTENTIAL
     &END KIND
     &KIND N
       BASIS_SET DZVP-MOLOPT-SR-GTH
       POTENTIAL GTH-PBE-q5
       &POTENTIAL
 2 3
  0.2837905100000000E+00 2 -0.1241522559000000E+02  0.1868095920000000E+01
 2
  0.2554050000000000E+00 1  0.1363026257000000E+02
  0.2454945300000000E+00 0
         # Potential name:  GTH-PBE-Q5  for symbol:  N
         # Potential read from the potential filename: GTH_POTENTIALS
       &END POTENTIAL
     &END KIND
     &KIND Ga
       BASIS_SET DZVP-MOLOPT-SR-GTH
       POTENTIAL GTH-PBE-q13
       &POTENTIAL
 2 1 10
  0.4900000000000000E+00 0
 3
  0.4167772300000000E+00 3  0.1047568975000000E+02 -0.4921768140000000E+01  0.8707055900000000E+00
  0.7770178090000000E+01 -0.2248152160000000E+01
  0.1784415450000000E+01
  0.5696265200000000E+00 2  0.1777985340000000E+01  0.1958597600000000E+00
 -0.2317443900000000E+00
  0.2381265000000000E+00 1 -0.1624868022000000E+02
         # Potential name:  GTH-PBE-Q13  for symbol:  GA
         # Potential read from the potential filename: GTH_POTENTIALS
       &END POTENTIAL
     &END KIND
     &TOPOLOGY
       NUMBER_OF_ATOMS  256
       MULTIPLE_UNIT_CELL  1 1 1
     &END TOPOLOGY
   &END SUBSYS
 &END FORCE_EVAL
