 # Version information for this restart file 
 # current date 2019-06-09 06:35:00.403
 # current working dir /lustre03/project/6037349/rzk/GaN-carbene/444-addat/00-Surface/UKS_SYMM
 # Program compiled at                              Sun Apr  7 00:48:11 EDT 2019
 # Program compiled on                          beluga2.int.ets1.calculquebec.ca
 # Program compiled for                        Beluga-Linux-x86-64-intel-openmpi
 # Source code revision number                                         svn:18619
 &GLOBAL
   PRINT_LEVEL  MEDIUM
   PROJECT_NAME TEST
   RUN_TYPE  CELL_OPT
 &END GLOBAL
 &MOTION
   &CELL_OPT
     MAX_ITER  300
     STEP_START_VAL  38
     EXTERNAL_PRESSURE     1.0000000000000000E+00
     KEEP_ANGLES  T
     KEEP_SYMMETRY  T
     CONSTRAINT  Z
     PRESSURE_TOLERANCE     5.0000000000000000E+02
   &END CELL_OPT
 &END MOTION
 &FORCE_EVAL
   METHOD  QS
   STRESS_TENSOR  ANALYTICAL
   &DFT
     BASIS_SET_FILE_NAME BASIS_MOLOPT
     POTENTIAL_FILE_NAME GTH_POTENTIALS
     UKS  T
     SURFACE_DIPOLE_CORRECTION  T
     SURF_DIP_DIR  Z
     &SCF
       MAX_SCF  100
       EPS_SCF     5.0000000000000004E-06
       &OT  T
         PRECONDITIONER  FULL_ALL
       &END OT
       &OUTER_SCF  T
         OPTIMIZER  NONE
         EPS_SCF     5.0000000000000004E-06
         MAX_SCF  4
       &END OUTER_SCF
       &PRINT
         &RESTART  OFF
           BACKUP_COPIES  1
           &EACH
             JUST_ENERGY  0
             QS_SCF  0
             MD  20
           &END EACH
         &END RESTART
       &END PRINT
     &END SCF
     &QS
       EPS_DEFAULT     1.0000000000000000E-14
       METHOD  GPW
     &END QS
     &MGRID
       NGRIDS  5
       CUTOFF     1.2000000000000000E+03
     &END MGRID
     &XC
       DENSITY_CUTOFF     1.0000000000000000E-10
       GRADIENT_CUTOFF     1.0000000000000000E-10
       TAU_CUTOFF     1.0000000000000000E-10
       &XC_FUNCTIONAL  NO_SHORTCUT
         &PBE  T
         &END PBE
       &END XC_FUNCTIONAL
       &VDW_POTENTIAL
         POTENTIAL_TYPE  PAIR_POTENTIAL
         &PAIR_POTENTIAL
           R_CUTOFF     1.0000000000000004E+01
           TYPE  DFTD3
           PARAMETER_FILE_NAME dftd3.dat
           REFERENCE_FUNCTIONAL PBE
           EPS_CN     9.9999999999999995E-07
           CALCULATE_C9_TERM  T
           REFERENCE_C9_TERM  T
           LONG_RANGE_CORRECTION  F
           VERBOSE_OUTPUT  F
         &END PAIR_POTENTIAL
       &END VDW_POTENTIAL
     &END XC
   &END DFT
   &SUBSYS
     &CELL
       A     1.2831352478514855E+01    0.0000000000000000E+00    0.0000000000000000E+00
       B    -6.4146615826825082E+00    1.1110519774566349E+01    0.0000000000000000E+00
       C     0.0000000000000000E+00    0.0000000000000000E+00    3.2000000000000000E+01
       MULTIPLE_UNIT_CELL  1 1 1
       &CELL_REF
         A     1.2982353780853531E+01    0.0000000000000000E+00    0.0000000000000000E+00
         B    -6.4911768904267628E+00    1.1243048175136114E+01    0.0000000000000000E+00
         C     0.0000000000000000E+00    0.0000000000000000E+00    3.2000000000000000E+01
         MULTIPLE_UNIT_CELL  1 1 1
       &END CELL_REF
     &END CELL
     &COORD
N    3.0966538755650299E-04   -2.2362386913520253E-04   -2.0914436576328685E-01
Ga    5.1720955861986263E-04    1.8516689856456299E+00    4.7280728777402919E-01
N    5.5233883506062859E-04    1.8519768294379158E+00    2.3903692318324321E+00
Ga    4.6239091441500332E-04   -3.1173272551078082E-05    3.1188412681868938E+00
N    6.8002410522844346E-04   -2.4215817637200195E-05    5.0401471995070715E+00
Ga    7.9486170430188017E-04    1.8520664367993838E+00    5.7564400248094270E+00
N    1.1899041942898970E-03    1.8531293353225160E+00    7.6797315160805368E+00
Ga    1.1561630764773021E-03    1.6127401850125906E-03    8.3930451276544833E+00
N    1.6890529401737803E-03    4.0787376025727354E-03    1.0316837026605265E+01
Ga    2.7658495260024550E-03    1.8558396647858875E+00    1.1031258995826041E+01
N    4.3109096773188242E-03    1.8603381428151176E+00    1.2957632262078263E+01
Ga    2.2764692408822188E-03    6.4261157533909005E-03    1.3670586359911324E+01
N   -6.0636276674332938E-03    4.6654931264916953E-03    1.5588122183256177E+01
Ga   -2.2958516339980019E-03    1.8511393421862934E+00    1.6656653773097805E+01
N    1.5956075536474599E+00    9.2086343575165097E-01    1.7529158147828884E+01
N   -1.6034005411873316E+00    2.7774431242053006E+00   -2.0903354592784065E-01
Ga   -1.6030886901884587E+00    4.6293385374342479E+00    4.7287708357489150E-01
N   -1.6029955799200315E+00    4.6296482482685271E+00    2.3904687638659170E+00
Ga   -1.6033751561441392E+00    2.7778029385451104E+00    3.1191247419402295E+00
N   -1.6032310322793284E+00    2.7779965817485008E+00    5.0405130976004680E+00
Ga   -1.6027223931157497E+00    4.6298410033898802E+00    5.7576588593507774E+00
N   -1.6021695540576286E+00    4.6311630894885907E+00    7.6811727245271353E+00
Ga   -1.6019041150178654E+00    2.7794147946668692E+00    8.3941703303386834E+00
N   -1.6007709018834817E+00    2.7819320825157932E+00    1.0318080718151409E+01
Ga   -1.6012960199909758E+00    4.6339485980385824E+00    1.1031440111163279E+01
N   -1.6010832350166249E+00    4.6362679615154070E+00    1.2956966893004312E+01
Ga   -1.6009314965330108E+00    2.7841684303676586E+00    1.3676474716866068E+01
N   -1.5950954104783741E+00    2.7841951304329422E+00    1.5600898056518345E+01
Ga   -1.6066840969188527E+00    4.6249724985811582E+00    1.6606672997982940E+01
N   -1.7962456060798826E-02    3.7063579700956995E+00    1.7530852805678233E+01
N   -3.2070254852815423E+00    5.5550362799768420E+00   -2.0901358570077791E-01
Ga   -3.2066688025176533E+00    7.4069055205270775E+00    4.7292144149622584E-01
N   -3.2064904872651185E+00    7.4071538358572502E+00    2.3905087068926396E+00
Ga   -3.2068488903303285E+00    5.5553129201475659E+00    3.1193869432538706E+00
N   -3.2065675256976034E+00    5.5554537077024237E+00    5.0407694523847235E+00
Ga   -3.2060438809399772E+00    7.4073821008294400E+00    5.7573953008035295E+00
N   -3.2053161407208499E+00    7.4087840485817074E+00    7.6808239306254968E+00
Ga   -3.2056960993726431E+00    5.5573635515946984E+00    8.3951194495921051E+00
N   -3.2052827863803395E+00    5.5596881541393399E+00    1.0319080779832934E+01
Ga   -3.2048796415065328E+00    7.4120909404780724E+00    1.1031306369210490E+01
N   -3.2043548294551374E+00    7.4154404618455043E+00    1.2956977331716024E+01
Ga   -3.2054339079363738E+00    5.5651496556946300E+00    1.3678057254850680E+01
N   -3.2111100238065124E+00    5.5423050502429616E+00    1.5597694668310092E+01
Ga   -3.2311460350657968E+00    7.4028151372588447E+00    1.6636202718442718E+01
N   -1.6242740510054419E+00    6.4690192203895300E+00    1.7519265471095032E+01
N   -4.8106380973563283E+00    8.3325875305145445E+00   -2.0906514172838270E-01
Ga   -4.8103816156770813E+00    1.0184519053736350E+01    4.7266012187844059E-01
N   -4.8102444117166687E+00    1.0184749339699005E+01    2.3902351794299821E+00
Ga   -4.8103900503210699E+00    8.3328769323508780E+00    3.1190155271843851E+00
N   -4.8100636017104685E+00    8.3329138164065704E+00    5.0403603857359931E+00
Ga   -4.8098372324215335E+00    1.0184977783518423E+01    5.7569192649623133E+00
N   -4.8091979185505682E+00    1.0186255058463509E+01    7.6804020465385019E+00
Ga   -4.8095684333065423E+00    8.3343254971265637E+00    8.3933978197118115E+00
N   -4.8092153438334524E+00    8.3360715380827486E+00    1.0317250966582838E+01
Ga   -4.8088972264395169E+00    1.0188531797155502E+01    1.1028074981617188E+01
N   -4.8096681738257887E+00    1.0191260856250734E+01    1.2951168257429138E+01
Ga   -4.8094309187410680E+00    8.3422462329314460E+00    1.3675398589541155E+01
N   -4.8155837576477474E+00    8.3420887534791319E+00    1.5593827272324509E+01
Ga   -4.8220502931778055E+00    1.0193257982674035E+01    1.6616425101948131E+01
N   -3.2319396651191648E+00    9.2496865559372612E+00    1.7516066486473651E+01
N    3.2081962246866089E+00   -2.6014868155032820E-04   -2.0909443947419662E-01
Ga    3.2084802464194651E+00    1.8516327182867733E+00    4.7276883388624319E-01
N    3.2086201747306946E+00    1.8519160720216949E+00    2.3903338327275745E+00
Ga    3.2083719106565476E+00   -2.4162863623885242E-05    3.1189828278208869E+00
N    3.2087339443455778E+00    2.4065411367348728E-05    5.0403347071704614E+00
Ga    3.2089475809861470E+00    1.8520125292216232E+00    5.7567009860351579E+00
N    3.2095907996389506E+00    1.8531362255214974E+00    7.6800724418586697E+00
Ga    3.2095685212039409E+00    1.7837787715291847E-03    8.3941244488691922E+00
N    3.2102540518283513E+00    3.8675301308080182E-03    1.0318013247443536E+01
Ga    3.2097783699503832E+00    1.8556788652857117E+00    1.1031463271469930E+01
N    3.2103914481420608E+00    1.8586262010007812E+00    1.2957297517965463E+01
Ga    3.2079729630873643E+00    5.9824584992029866E-03    1.3672482665219146E+01
N    3.1942626422460187E+00   -5.6363406238709212E-03    1.5590817087198525E+01
Ga    3.2079967018736428E+00    1.8573394875494673E+00    1.6661969628834786E+01
N    4.7898689151583689E+00    9.0817741045486533E-01    1.7521691298320039E+01
N    1.6044725245607894E+00    2.7773732284334427E+00   -2.0896776677265080E-01
Ga    1.6046746667066603E+00    4.6293374721911089E+00    4.7269470366717753E-01
N    1.6046861753182369E+00    4.6296029795139093E+00    2.3902788323177724E+00
Ga    1.6046171524718027E+00    2.7776771748860942E+00    3.1187842807402566E+00
N    1.6048371700458810E+00    2.7776805927505634E+00    5.0401127399059691E+00
Ga    1.6050118125906279E+00    4.6295703286742285E+00    5.7569906341337234E+00
N    1.6053623110236217E+00    4.6304590317245218E+00    7.6804507623671823E+00
Ga    1.6054054288052619E+00    2.7782680073819126E+00    8.3929460401594440E+00
N    1.6062000458948276E+00    2.7798659292782926E+00    1.0316838419566068E+01
Ga    1.6064992270516789E+00    4.6315312554720309E+00    1.1028412554014714E+01
N    1.6070971499356312E+00    4.6335550762447868E+00    1.2953400825083456E+01
Ga    1.6089285021363546E+00    2.7844140895754217E+00    1.3681313429539269E+01
N    1.6001824678532328E+00    2.7839031045760301E+00    1.5605281427617612E+01
Ga    1.5907783101994759E+00    4.6319655799292629E+00    1.6620158701846709E+01
N    3.1914548540348706E+00    3.7145665178720710E+00    1.7523119456654669E+01
N    7.4789409893565495E-04    5.5550545579187691E+00   -2.0914808196906051E-01
Ga    1.0349778894655965E-03    7.4069266023391895E+00    4.7281054912529247E-01
N    1.1108787132783986E-03    7.4072022420782302E+00    2.3904292372844886E+00
Ga    8.5975370479404777E-04    5.5553828203569404E+00    3.1192966898919061E+00
N    1.0643385203090744E-03    5.5555070806296234E+00    5.0407008916721034E+00
Ga    1.5050522722452799E-03    7.4075337972315811E+00    5.7573766567652687E+00
N    2.1666851591542998E-03    7.4088958469928503E+00    7.6808611891834966E+00
Ga    1.8929299737119143E-03    5.5570499486114704E+00    8.3940247416530376E+00
N    2.7221931455463548E-03    5.5594923678563681E+00    1.0318179410125717E+01
Ga    3.7334320491471018E-03    7.4126956074828083E+00    1.1028690049405453E+01
N    4.6421412585002540E-03    7.4156851627137961E+00    1.2953907658065786E+01
Ga    5.2545894736864777E-03    5.5642705753476465E+00    1.3668458692933321E+01
N   -3.0596384696191269E-03    5.5507907324927253E+00    1.5585290564243397E+01
Ga   -1.1740552223195814E-02    7.3873701458961838E+00    1.6627688337972735E+01
N    1.5901214162631687E+00    6.4745916516510400E+00    1.7527661308525712E+01
N   -1.6028694621458175E+00    8.3326693995575116E+00   -2.0910626337524590E-01
Ga   -1.6025307273213472E+00    1.0184520301260106E+01    4.7285384864751567E-01
N   -1.6023601354754533E+00    1.0184809307380839E+01    2.3904381157662327E+00
Ga   -1.6026525976040269E+00    8.3330062049751898E+00    3.1193674041823320E+00
N   -1.6023754179095215E+00    8.3332806883021497E+00    5.0407635411793965E+00
Ga   -1.6018314624612535E+00    1.0185299211710520E+01    5.7576056557727746E+00
N   -1.6009899824679059E+00    1.0186770266187587E+01    7.6811435286425889E+00
Ga   -1.6015959087782750E+00    8.3351827606284150E+00    8.3942852659098790E+00
N   -1.6010291725465273E+00    8.3373769740080377E+00    1.0318242498099583E+01
Ga   -1.6006277238637674E+00    1.0189365985010362E+01    1.1031826414286790E+01
N   -1.6001753624267667E+00    1.0191633818410255E+01    1.2956949886121301E+01
Ga   -1.5986010697901731E+00    8.3406134996459755E+00    1.3676483864881810E+01
N   -1.6169129061202756E+00    8.3309055209845351E+00    1.5598076868813326E+01
Ga   -1.6222162792419277E+00    1.0186102400726639E+01    1.6631686185345551E+01
N   -2.7475606208634484E-02    9.2210213152881479E+00    1.7507926789240535E+01
N    6.4159569271011820E+00   -1.9728780867276296E-04   -2.0902385274851720E-01
Ga    6.4163196767267010E+00    1.8516906583717971E+00    4.7290141006134906E-01
N    6.4165115915248165E+00    1.8520385897650529E+00    2.3905014381650602E+00
Ga    6.4161548224128220E+00    1.7441729894939213E-04    3.1192481897683395E+00
N    6.4164486125899369E+00    4.0820174690416576E-04    5.0406216116452072E+00
Ga    6.4168526305226576E+00    1.8522158417946559E+00    5.7576019203342970E+00
N    6.4174247886018181E+00    1.8535841996168840E+00    7.6811425430366853E+00
Ga    6.4173064551679619E+00    2.3266865591024164E-03    8.3955655323756471E+00
N    6.4177598051492852E+00    4.7802153894154807E-03    1.0319603454695608E+01
Ga    6.4176081788784902E+00    1.8568630645777091E+00    1.1032917793098806E+01
N    6.4183777054928530E+00    1.8605889314378794E+00    1.2958500214066108E+01
Ga    6.4176695862990085E+00    9.7823085706111763E-03    1.3679315088547259E+01
N    6.4106489273596257E+00   -1.1307500245747171E-02    1.5599001243776819E+01
Ga    6.3938598645443738E+00    1.8458321259017605E+00    1.6639383104667047E+01
N    8.0014809954465438E+00    9.1014341123419873E-01    1.7520080661402073E+01
N    4.8123566928586978E+00    2.7773578039608333E+00   -2.0907761327238938E-01
Ga    4.8126269898444525E+00    4.6292504010484814E+00    4.7272415076729513E-01
N    4.8127759293343733E+00    4.6294754036932249E+00    2.3902992051345073E+00
Ga    4.8125791889293499E+00    2.7776368639125835E+00    3.1191393576494240E+00
N    4.8128762736017929E+00    2.7776805505021032E+00    5.0404843184436166E+00
Ga    4.8130364967488903E+00    4.6295186360920555E+00    5.7572219730943432E+00
N    4.8134650873814371E+00    4.6306410031027010E+00    7.6807661150609627E+00
Ga    4.8132970727916788E+00    2.7787523738919897E+00    8.3943093654717327E+00
N    4.8134442002223974E+00    2.7806188582857065E+00    1.0318160333273857E+01
Ga    4.8136334929519640E+00    4.6331741671164508E+00    1.1027967912970100E+01
N    4.8129434460967060E+00    4.6356525568070470E+00    1.2951456355674580E+01
Ga    4.8135207580343060E+00    2.7871679569822669E+00    1.3677436455960425E+01
N    4.8084644160340906E+00    2.7869111972156473E+00    1.5596517812923494E+01
Ga    4.8027292780842856E+00    4.6370473208351468E+00    1.6618399170989811E+01
N    6.3954474450529508E+00    3.6928668825589899E+00    1.7516101039027291E+01
N    3.2086467034242734E+00    5.5550037609385079E+00   -2.0908465764036058E-01
Ga    3.2088419462571425E+00    7.4068978295803252E+00    4.7281454549851398E-01
N    3.2088587815324474E+00    7.4071257677678393E+00    2.3903765533285304E+00
Ga    3.2087819723535129E+00    5.5551093748494234E+00    3.1188543059614471E+00
N    3.2089923930383928E+00    5.5550493378877253E+00    5.0402078541390241E+00
Ga    3.2091903741125267E+00    7.4072067231603764E+00    5.7562087098116361E+00
N    3.2095637984429186E+00    7.4083665258379927E+00    7.6794862136526971E+00
Ga    3.2092799826036118E+00    5.5568571735865584E+00    8.3931379425460833E+00
N    3.2095245018454137E+00    5.5592869547837447E+00    1.0316989910828031E+01
Ga    3.2109093188593940E+00    7.4117233240754494E+00    1.1030104291273753E+01
N    3.2123166809900363E+00    7.4151490763595902E+00    1.2956637020808973E+01
Ga    3.2103795845710588E+00    5.5615403006002948E+00    1.3669767832784055E+01
N    3.2022248597826946E+00    5.5586632659736530E+00    1.5587818761289316E+01
Ga    3.2068828941666321E+00    7.4052339507060445E+00    1.6654677477395321E+01
N    4.8050370406445673E+00    6.4748685733223992E+00    1.7527126753444989E+01
N    1.6049345406251190E+00    8.3326755820056029E+00   -2.0903988156092421E-01
Ga    1.6052327394089791E+00    1.0184587608575582E+01    4.7280972824465672E-01
N    1.6053217577847925E+00    1.0184915147146173E+01    2.3903843763179866E+00
Ga    1.6049616411797973E+00    8.3330787247058744E+00    3.1191155992784942E+00
N    1.6051873310092919E+00    8.3333762681450541E+00    5.0404964968864050E+00
Ga    1.6056527874033570E+00    1.0185440290318388E+01    5.7575162533407687E+00
N    1.6061798750087322E+00    1.0186961311994487E+01    7.6810607751552782E+00
Ga    1.6064524150582629E+00    8.3350744646048138E+00    8.3932661796248915E+00
N    1.6075047537626117E+00    8.3376500381677570E+00    1.0317234479467718E+01
Ga    1.6068779492019887E+00    1.0189380045681217E+01    1.1031371073791755E+01
N    1.6069192277854194E+00    1.0191296312549841E+01    1.2956897553882420E+01
Ga    1.6074150650712133E+00    8.3389661646304774E+00    1.3676077796804671E+01
N    1.6123876358789739E+00    8.3386876312240936E+00    1.5600189497532030E+01
Ga    1.6003617818443301E+00    1.0177917045558765E+01    1.6605607547247441E+01
N    3.1910444521726724E+00    9.2603248672771894E+00    1.7529521097359854E+01
N    9.6237463769746974E+00   -1.8543787414457586E-04   -2.0914700100234329E-01
Ga    9.6240508794933834E+00    1.8517110011715407E+00    4.7280220607604945E-01
N    9.6241049316880840E+00    1.8520700991847958E+00    2.3903806242712311E+00
Ga    9.6238679135847196E+00    2.2765664529964840E-04    3.1190454490782771E+00
N    9.6240163119626896E+00    5.2507078675299553E-04    5.0404474057768720E+00
Ga    9.6244853061150391E+00    1.8523392361957309E+00    5.7577951017744873E+00
N    9.6248616960136140E+00    1.8538951821154064E+00    7.6813784694462957E+00
Ga    9.6248226289357870E+00    2.1430075486216517E-03    8.3946054217653465E+00
N    9.6254686723630911E+00    4.9591809643512079E-03    1.0318666842844419E+01
Ga    9.6261257667200262E+00    1.8580998397895638E+00    1.1029043182328378E+01
N    9.6274475337380085E+00    1.8609628887813314E+00    1.2954441829229474E+01
Ga    9.6282132953267734E+00    8.7878687146754429E-03    1.3667637541882163E+01
N    9.6201461362136147E+00   -6.6784486430528254E-03    1.5583906129134299E+01
Ga    9.6122385804468173E+00    1.8290256759612884E+00    1.6625623853906344E+01
N    1.1213580956991736E+01    9.1712604879750304E-01    1.7527872802543836E+01
N    8.0201357566345255E+00    2.7774181066132644E+00   -2.0907020983378183E-01
Ga    8.0204910452793552E+00    4.6292660271228945E+00    4.7287957096684596E-01
N    8.0206637909811622E+00    4.6295110610569763E+00    2.3904818720895267E+00
Ga    8.0203729821386816E+00    2.7777693264333090E+00    3.1195169228556634E+00
N    8.0206211916296368E+00    2.7779631791168802E+00    5.0409419269759219E+00
Ga    8.0211159451538698E+00    4.6298534160864202E+00    5.7578039001343893E+00
N    8.0217241113835573E+00    4.6313399888134565E+00    7.6812982931142786E+00
Ga    8.0208901026498847E+00    2.7798474168143419E+00    8.3950646897956140E+00
N    8.0211718454347771E+00    2.7824585003118965E+00    1.0318990846175607E+01
Ga    8.0217670225176736E+00    4.6347442879924712E+00    1.1031419033382145E+01
N    8.0225323722228197E+00    4.6366166173467951E+00    1.2956714514463508E+01
Ga    8.0243268074248313E+00    2.7856585551612669E+00    1.3677404361117025E+01
N    8.0093449508981962E+00    2.7732944176914947E+00    1.5598493044359211E+01
Ga    8.0036337867089280E+00    4.6279936793768108E+00    1.6630074510532779E+01
N    9.6003557139434204E+00    3.6626821680516564E+00    1.7508949638242729E+01
N    6.4165302747472746E+00    5.5549659982303847E+00   -2.0907767537192620E-01
Ga    6.4168375611125317E+00    7.4068474182855510E+00    4.7277985771141146E-01
N    6.4169974429879009E+00    7.4070422227530148E+00    2.3903556262522159E+00
Ga    6.4167414256699322E+00    5.5551107676694986E+00    3.1191655483548799E+00
N    6.4169800707874280E+00    5.5550804682715311E+00    5.0405473799942300E+00
Ga    6.4172626636813872E+00    7.4072560487551415E+00    5.7564479442738588E+00
N    6.4177418052428745E+00    7.4085714103769433E+00    7.6798009402655181E+00
Ga    6.4175230224628210E+00    5.5571226830482710E+00    8.3937470311158311E+00
N    6.4177732407501438E+00    5.5594247194348245E+00    1.0317607338625258E+01
Ga    6.4177601799439428E+00    7.4117233625299006E+00    1.1030078086345373E+01
N    6.4185144823620028E+00    7.4138204757562649E+00    1.2955596148917179E+01
Ga    6.4159451983758640E+00    5.5619014338727419E+00    1.3671291965954554E+01
N    6.4038968430329648E+00    5.5462549859811192E+00    1.5589756052817277E+01
Ga    6.4171575083692129E+00    7.4103508905898545E+00    1.6659852602427204E+01
N    7.9990910150481591E+00    6.4597159678116531E+00    1.7518839851552546E+01
N    4.8128127499748317E+00    8.3325858466699643E+00   -2.0899441120063747E-01
Ga    4.8130473736361159E+00    1.0184587768991635E+01    4.7260407606146088E-01
N    4.8130821673424267E+00    1.0184886293577883E+01    2.3901903692491002E+00
Ga    4.8129685143427592E+00    8.3329013400765461E+00    3.1186547329438694E+00
N    4.8131541566612128E+00    8.3329694164526220E+00    5.0399620056051235E+00
Ga    4.8132594778876854E+00    1.0185071214581402E+01    5.7566442367700015E+00
N    4.8135503620942384E+00    1.0186365557424962E+01    7.6801165784341858E+00
Ga    4.8135934240753260E+00    8.3342677070549520E+00    8.3922621125757111E+00
N    4.8141146045748275E+00    8.3361667586850050E+00    1.0316151208077857E+01
Ga    4.8151821072134826E+00    1.0187761468660003E+01    1.1028638833184909E+01
N    4.8157020774350139E+00    1.0189424479634155E+01    1.2952974379309236E+01
Ga    4.8172807086826968E+00    8.3396977614429115E+00    1.3679796901546784E+01
N    4.8090011708051401E+00    8.3379057175081126E+00    1.5603334041535968E+01
Ga    4.7989479000103943E+00    1.0185305262529436E+01    1.6617309464709734E+01
N    6.3993937483172685E+00    9.2679973637100961E+00    1.7521048139087380E+01
H    2.8881813603215558E-04   -1.6155731290331036E-04   -1.2365155926370766E+00
H   -1.6034557270349881E+00    2.7774935420799349E+00   -1.2364053495246086E+00
H   -3.2070855539239438E+00    5.5550402373607763E+00   -1.2363845011892665E+00
H   -4.8106838386437092E+00    8.3325290608482518E+00   -1.2364376119120886E+00
H    3.2081833193748373E+00   -2.6813217809142580E-04   -1.2364645045171105E+00
H    1.6044032612997707E+00    2.7773520951367936E+00   -1.2363326242666928E+00
H    6.2369201366378518E-04    5.5550468454166797E+00   -1.2365213136833726E+00
H   -1.6029695847898171E+00    8.3326899565031507E+00   -1.2364831026297292E+00
H    6.4158624702740186E+00   -1.7845987377187994E-04   -1.2363950240551733E+00
H    4.8123251060235859E+00    2.7773453915144919E+00   -1.2364472792738253E+00
H    3.2086058535380855E+00    5.5550475372293988E+00   -1.2364544178743426E+00
H    1.6048975622000352E+00    8.3326760515141380E+00   -1.2364094651045119E+00
H    9.6236051588514577E+00   -1.6029581726187623E-04   -1.2365220306579880E+00
H    8.0200304823800703E+00    2.7774369931803164E+00   -1.2364402712914120E+00
H    6.4164893474923712E+00    5.5549755025004766E+00   -1.2364465169913197E+00
H    4.8127334484757087E+00    8.3324863597706784E+00   -1.2363631040420107E+00
     &END COORD
     &KIND H
       BASIS_SET DZVP-MOLOPT-SR-GTH-q1
       POTENTIAL GTH-PBE-q1
       &POTENTIAL
 1
  0.2000000000000000E+00 2 -0.4178900440000000E+01  0.7244633100000000E+00
 0
         # Potential name:  GTH-PBE-Q1  for symbol:  H
         # Potential read from the potential filename: GTH_POTENTIALS
       &END POTENTIAL
     &END KIND
     &KIND N
       BASIS_SET DZVP-MOLOPT-SR-GTH
       POTENTIAL GTH-PBE-q5
       &POTENTIAL
 2 3
  0.2837905100000000E+00 2 -0.1241522559000000E+02  0.1868095920000000E+01
 2
  0.2554050000000000E+00 1  0.1363026257000000E+02
  0.2454945300000000E+00 0
         # Potential name:  GTH-PBE-Q5  for symbol:  N
         # Potential read from the potential filename: GTH_POTENTIALS
       &END POTENTIAL
     &END KIND
     &KIND Ga
       BASIS_SET DZVP-MOLOPT-SR-GTH
       POTENTIAL GTH-PBE-q13
       &POTENTIAL
 2 1 10
  0.4900000000000000E+00 0
 3
  0.4167772300000000E+00 3  0.1047568975000000E+02 -0.4921768140000000E+01  0.8707055900000000E+00
  0.7770178090000000E+01 -0.2248152160000000E+01
  0.1784415450000000E+01
  0.5696265200000000E+00 2  0.1777985340000000E+01  0.1958597600000000E+00
 -0.2317443900000000E+00
  0.2381265000000000E+00 1 -0.1624868022000000E+02
         # Potential name:  GTH-PBE-Q13  for symbol:  GA
         # Potential read from the potential filename: GTH_POTENTIALS
       &END POTENTIAL
     &END KIND
     &TOPOLOGY
       NUMBER_OF_ATOMS  256
       MULTIPLE_UNIT_CELL  1 1 1
     &END TOPOLOGY
   &END SUBSYS
 &END FORCE_EVAL
