 # Version information for this restart file 
 # current date 2019-06-09 05:08:30.844
 # current working dir /lustre03/project/6037349/rzk/GaN-carbene/444-addat/00-Surface/UKS_SYMM
 # Program compiled at                              Sun Apr  7 00:48:11 EDT 2019
 # Program compiled on                          beluga2.int.ets1.calculquebec.ca
 # Program compiled for                        Beluga-Linux-x86-64-intel-openmpi
 # Source code revision number                                         svn:18619
 &GLOBAL
   PRINT_LEVEL  MEDIUM
   PROJECT_NAME TEST
   RUN_TYPE  CELL_OPT
 &END GLOBAL
 &MOTION
   &CELL_OPT
     MAX_ITER  300
     STEP_START_VAL  21
     EXTERNAL_PRESSURE     1.0000000000000000E+00
     KEEP_ANGLES  T
     KEEP_SYMMETRY  T
     CONSTRAINT  Z
     PRESSURE_TOLERANCE     5.0000000000000000E+02
   &END CELL_OPT
 &END MOTION
 &FORCE_EVAL
   METHOD  QS
   STRESS_TENSOR  ANALYTICAL
   &DFT
     BASIS_SET_FILE_NAME BASIS_MOLOPT
     POTENTIAL_FILE_NAME GTH_POTENTIALS
     UKS  T
     SURFACE_DIPOLE_CORRECTION  T
     SURF_DIP_DIR  Z
     &SCF
       MAX_SCF  100
       EPS_SCF     5.0000000000000004E-06
       &OT  T
         PRECONDITIONER  FULL_ALL
       &END OT
       &OUTER_SCF  T
         OPTIMIZER  NONE
         EPS_SCF     5.0000000000000004E-06
         MAX_SCF  4
       &END OUTER_SCF
       &PRINT
         &RESTART  OFF
           BACKUP_COPIES  1
           &EACH
             JUST_ENERGY  0
             QS_SCF  0
             MD  20
           &END EACH
         &END RESTART
       &END PRINT
     &END SCF
     &QS
       EPS_DEFAULT     1.0000000000000000E-14
       METHOD  GPW
     &END QS
     &MGRID
       NGRIDS  5
       CUTOFF     1.2000000000000000E+03
     &END MGRID
     &XC
       DENSITY_CUTOFF     1.0000000000000000E-10
       GRADIENT_CUTOFF     1.0000000000000000E-10
       TAU_CUTOFF     1.0000000000000000E-10
       &XC_FUNCTIONAL  NO_SHORTCUT
         &PBE  T
         &END PBE
       &END XC_FUNCTIONAL
       &VDW_POTENTIAL
         POTENTIAL_TYPE  PAIR_POTENTIAL
         &PAIR_POTENTIAL
           R_CUTOFF     1.0000000000000004E+01
           TYPE  DFTD3
           PARAMETER_FILE_NAME dftd3.dat
           REFERENCE_FUNCTIONAL PBE
           EPS_CN     9.9999999999999995E-07
           CALCULATE_C9_TERM  T
           REFERENCE_C9_TERM  T
           LONG_RANGE_CORRECTION  F
           VERBOSE_OUTPUT  F
         &END PAIR_POTENTIAL
       &END VDW_POTENTIAL
     &END XC
   &END DFT
   &SUBSYS
     &CELL
       A     1.2849660177505813E+01    0.0000000000000000E+00    0.0000000000000000E+00
       B    -6.4190651957067058E+00    1.1118147056061103E+01    0.0000000000000000E+00
       C     0.0000000000000000E+00    0.0000000000000000E+00    3.2000000000000000E+01
       MULTIPLE_UNIT_CELL  1 1 1
       &CELL_REF
         A     1.2982353780853531E+01    0.0000000000000000E+00    0.0000000000000000E+00
         B    -6.4911768904267628E+00    1.1243048175136114E+01    0.0000000000000000E+00
         C     0.0000000000000000E+00    0.0000000000000000E+00    3.2000000000000000E+01
         MULTIPLE_UNIT_CELL  1 1 1
       &END CELL_REF
     &END CELL
     &COORD
N    3.8276735802262560E-04    1.1818469133556203E-04   -1.2419711120316786E-01
Ga    1.0855778257118586E-03    1.8527632927083826E+00    5.4025213063203847E-01
N    9.3920334723301784E-04    1.8527976426695363E+00    2.4356836008292957E+00
Ga    4.5563208499590905E-04    1.2036823323524856E-04    3.1365438234721017E+00
N    5.1162347818433155E-04   -3.6387296434748295E-04    5.0402870571100964E+00
Ga    8.8679267168243077E-04    1.8526219960012478E+00    5.7415575847982421E+00
N    1.1348023752541475E-03    1.8533364757350175E+00    7.6610360482388025E+00
Ga    3.9934626648874678E-04    1.9473022985123183E-03    8.3701252138870981E+00
N    2.5045857553220832E-04    3.1044298867525205E-03    1.0286786375330536E+01
Ga    2.2485565542204799E-03    1.8552267462211047E+00    1.0991638185475551E+01
N    1.7957448421364415E-03    1.8568473053796060E+00    1.2927040362432036E+01
Ga    1.7408416369310276E-03    1.8457125803990439E-03    1.3627341443656299E+01
N    1.6943534609746330E-03    2.8426178204121011E-03    1.5552798906647643E+01
Ga    2.8117164463173781E-03    1.8666526487552735E+00    1.6632298950871828E+01
N    1.5983982224205808E+00    9.2244234783813217E-01    1.7491415616165625E+01
N   -1.6044592153479116E+00    2.7796648966250257E+00   -1.2413430108116930E-01
Ga   -1.6036342762796085E+00    4.6323182856954297E+00    5.4024399541813228E-01
N   -1.6035781402278617E+00    4.6325631702697310E+00    2.4355182959359185E+00
Ga   -1.6046770877487495E+00    2.7801796331742992E+00    3.1365961771824833E+00
N   -1.6048605459531293E+00    2.7802054405696959E+00    5.0403636910246616E+00
Ga   -1.6037628569773348E+00    4.6326861975053983E+00    5.7442287342620526E+00
N   -1.6031899406221426E+00    4.6337848242846826E+00    7.6641490931767029E+00
Ga   -1.6030401622006081E+00    2.7813245023789093E+00    8.3709056123911800E+00
N   -1.6007017672468451E+00    2.7834401018051174E+00    1.0288350832087730E+01
Ga   -1.6044903244254132E+00    4.6335908031566602E+00    1.0992524011512344E+01
N   -1.6044765649717045E+00    4.6394349960268810E+00    1.2929158997764038E+01
Ga   -1.6038648048019677E+00    2.7852264964263349E+00    1.3645149188238808E+01
N   -1.5901583091969500E+00    2.7958282075089800E+00    1.5574345699149228E+01
Ga   -1.5948878259920407E+00    4.6426638811929806E+00    1.6529538487807358E+01
N   -2.7697080450671003E-02    3.7366886542660458E+00    1.7492877488749937E+01
N   -3.2091928273499666E+00    5.5592363579045925E+00   -1.2418388192208546E-01
Ga   -3.2083817118924931E+00    7.4118732771728046E+00    5.4019180569170855E-01
N   -3.2082726732315145E+00    7.4121491010300407E+00    2.4354896706289106E+00
Ga   -3.2090114141365800E+00    5.5597422691899627E+00    3.1365048114442384E+00
N   -3.2088326717240117E+00    5.5595023361510787E+00    5.0403045415826471E+00
Ga   -3.2081170741045386E+00    7.4116632539037575E+00    5.7437734737703767E+00
N   -3.2070784583195882E+00    7.4121814533033481E+00    7.6637814888266496E+00
Ga   -3.2083398149634195E+00    5.5607069951629295E+00    8.3741276686850057E+00
N   -3.2062892485612817E+00    5.5627070098468794E+00    1.0291866307088668E+01
Ga   -3.2059368818394098E+00    7.4133066182640981E+00    1.0998513293298426E+01
N   -3.2021503968072129E+00    7.4211077307499913E+00    1.2932329335633481E+01
Ga   -3.2073178856825306E+00    5.5720720349643384E+00    1.3648293376749988E+01
N   -3.2031971177799852E+00    5.5398494098809570E+00    1.5577808384623852E+01
Ga   -3.2319645162808808E+00    7.4155770437763708E+00    1.6605034621109684E+01
N   -1.6248401540115482E+00    6.4697693834105587E+00    1.7481146415374447E+01
N   -4.8139121682074659E+00    8.3387818224305921E+00   -1.2421517462606155E-01
Ga   -4.8131749096759293E+00    1.0191328928943548E+01    5.4022630675549044E-01
N   -4.8131706089493012E+00    1.0191414071210708E+01    2.4354472984450859E+00
Ga   -4.8136984677972601E+00    8.3391336901919608E+00    3.1369547570517593E+00
N   -4.8133135831485436E+00    8.3387270012227663E+00    5.0403319983783321E+00
Ga   -4.8130691433833750E+00    1.0190470624994433E+01    5.7437742122976321E+00
N   -4.8126990072203091E+00    1.0190884776675114E+01    7.6641131131241211E+00
Ga   -4.8121755417981964E+00    8.3377655938114277E+00    8.3726464754555625E+00
N   -4.8102610364147420E+00    8.3380415534970886E+00    1.0288054300683486E+01
Ga   -4.8128523151318747E+00    1.0191427121545043E+01    1.0980641072488398E+01
N   -4.8147742297403360E+00    1.0197786627996654E+01    1.2910598423775253E+01
Ga   -4.8128038249028311E+00    8.3508749254131498E+00    1.3639041473660109E+01
N   -4.8184890538652763E+00    8.3470133898188781E+00    1.5560313227980066E+01
Ga   -4.8216989074340715E+00    1.0205253405997443E+01    1.6574925231935296E+01
N   -3.2330503339973125E+00    9.2631414144884747E+00    1.7471954096133135E+01
N    3.2127478597978265E+00    8.6995903181097230E-05   -1.2428841382014444E-01
Ga    3.2135317903869791E+00    1.8527208935753461E+00    5.4024636405275461E-01
N    3.2134795512256851E+00    1.8526532721899784E+00    2.4354915729881732E+00
Ga    3.2129424863414369E+00    2.5018143401109912E-04    3.1368940453001684E+00
N    3.2130401805266735E+00   -4.2963707215841408E-04    5.0406616243000579E+00
Ga    3.2138023059785499E+00    1.8524230972314479E+00    5.7426464185943198E+00
N    3.2141814869489975E+00    1.8529772228517352E+00    7.6617457654866108E+00
Ga    3.2144570340874110E+00    1.1421103752854193E-03    8.3720061561211168E+00
N    3.2154194187060523E+00    1.6606042827779319E-03    1.0288414360139269E+01
Ga    3.2126337489424670E+00    1.8560640988069232E+00    1.0993508958358481E+01
N    3.2128945966973657E+00    1.8606460651682979E+00    1.2920416741579643E+01
Ga    3.2102920988489174E+00    9.5832991845290500E-03    1.3626240539930913E+01
N    3.1969393452129005E+00   -9.5248162583917908E-03    1.5547635062067274E+01
Ga    3.2105037511601879E+00    1.8737637553711448E+00    1.6628267353029930E+01
N    4.7867637368757716E+00    9.0514093566310694E-01    1.7478026811488061E+01
N    1.6079785473459505E+00    2.7796823957213452E+00   -1.2420942083796668E-01
Ga    1.6087072138921752E+00    4.6323251720078549E+00    5.4021898073825758E-01
N    1.6084432174450427E+00    4.6325916560083664E+00    2.4354717321388883E+00
Ga    1.6082598519129081E+00    2.7802035293826437E+00    3.1362047011608709E+00
N    1.6081770481312567E+00    2.7798574481566067E+00    5.0396075485049048E+00
Ga    1.6082587612259960E+00    4.6323784807883532E+00    5.7432865466780347E+00
N    1.6077126586845307E+00    4.6326766523584890E+00    7.6627822639939112E+00
Ga    1.6083001348719299E+00    2.7797867181346376E+00    8.3701941654327872E+00
N    1.6070869675629642E+00    2.7781279143053799E+00    1.0285462705910335E+01
Ga    1.6128115081224561E+00    4.6294880281361737E+00    1.0991096326480013E+01
N    1.6117866288432747E+00    4.6281202668162553E+00    1.2917146452287902E+01
Ga    1.6098515171848826E+00    2.7809432532078895E+00    1.3652931798462026E+01
N    1.6018016918303459E+00    2.7875600455457930E+00    1.5580788841471040E+01
Ga    1.5990337892236479E+00    4.6417432010814785E+00    1.6575077623990225E+01
N    3.1986628355451359E+00    3.7324195990130229E+00    1.7484056914885318E+01
N    3.2214691258070187E-03    5.5592480081312559E+00   -1.2415202941618760E-01
Ga    3.9436972700199061E-03    7.4118453500656862E+00    5.4019624982954006E-01
N    3.7605610979552298E-03    7.4119750975093597E+00    2.4354354170648640E+00
Ga    3.3144237843002562E-03    5.5599422422315623E+00    3.1369721792107876E+00
N    2.9714971835923670E-03    5.5599970858901049E+00    5.0406892383777313E+00
Ga    3.7928625694983475E-03    7.4118116802799214E+00    5.7450415807679178E+00
N    3.8566537789066872E-03    7.4124150220903324E+00    7.6653497891186415E+00
Ga    3.5656632092026853E-03    5.5601463453890974E+00    8.3759464651080489E+00
N    3.1468527923259192E-03    5.5611079218965012E+00    1.0292198094064767E+01
Ga    6.4019394464296551E-03    7.4169050771897496E+00    1.0987236854427563E+01
N    7.4072640765252828E-03    7.4241965922201167E+00    1.2919172527525591E+01
Ga    1.3693518831249673E-02    5.5675771188051355E+00    1.3621204597392248E+01
N    1.4146063519948160E-02    5.5608478924731637E+00    1.5530087993162589E+01
Ga    2.6453239709577892E-03    7.3712164509084861E+00    1.6568215283918452E+01
N    1.6046054959813134E+00    6.4774322692392934E+00    1.7494957093331742E+01
N   -1.6015231391978195E+00    8.3387490631390229E+00   -1.2422498724966613E-01
Ga   -1.6007953000135819E+00    1.0191306184664716E+01    5.4016465667894120E-01
N   -1.6009077569713344E+00    1.0191231784665879E+01    2.4354706910609853E+00
Ga   -1.6012092317792157E+00    8.3391100558895044E+00    3.1369268612964269E+00
N   -1.6009993116878354E+00    8.3386595845413041E+00    5.0407579828658724E+00
Ga   -1.6003805844771704E+00    1.0190826868676114E+01    5.7441420041348845E+00
N   -1.5995499099325814E+00    1.0191511154115309E+01    7.6642015541395558E+00
Ga   -1.6015382560109221E+00    8.3401680364849931E+00    8.3744366074973993E+00
N   -1.6010125197188052E+00    8.3424803772063907E+00    1.0291946625399246E+01
Ga   -1.5974773210031490E+00    1.0195124870769993E+01    1.0993499752375017E+01
N   -1.5936859077316976E+00    1.0201069638170814E+01    1.2928020482564831E+01
Ga   -1.5922490318847131E+00    8.3496826824109025E+00    1.3644634041700977E+01
N   -1.6078684703517094E+00    8.3328683527801797E+00    1.5572276336707594E+01
Ga   -1.6180040148959480E+00    1.0192464871195225E+01    1.6583328602710168E+01
N   -5.1314421696575990E-02    9.1847278683869007E+00    1.7496942415523332E+01
N    6.4251428253598597E+00    1.1952682854673078E-04   -1.2422741070766991E-01
Ga    6.4259794592413186E+00    1.8527893378295557E+00    5.4042487759380375E-01
N    6.4259789444184472E+00    1.8528319402192854E+00    2.4354551729895988E+00
Ga    6.4253078307886744E+00    4.5127542824966767E-04    3.1364974852528977E+00
N    6.4251991067568257E+00    8.2086419896034690E-05    5.0403495171781181E+00
Ga    6.4264591472164190E+00    1.8526802557097313E+00    5.7438753711241795E+00
N    6.4274362536041414E+00    1.8537350679896845E+00    7.6634156255990948E+00
Ga    6.4263268611351263E+00    2.2393883273927229E-03    8.3730790155973018E+00
N    6.4272113471340484E+00    3.7510149912050703E-03    1.0290529074331044E+01
Ga    6.4283668632793303E+00    1.8560611119086754E+00    1.0995436398149138E+01
N    6.4287224163375392E+00    1.8622120006260932E+00    1.2929793182445897E+01
Ga    6.4304111980691916E+00    1.4168691928478711E-02    1.3652940857409455E+01
N    6.4250135368538341E+00   -2.8935893994218465E-02    1.5576859558690025E+01
Ga    6.3984150669308866E+00    1.8591388702420653E+00    1.6609166338225911E+01
N    8.0041044041932121E+00    9.1053215888953543E-01    1.7473679810995346E+01
N    4.8204115608151419E+00    2.7796652035043126E+00   -1.2412267103743715E-01
Ga    4.8211821972623019E+00    4.6323043602567076E+00    5.4040603726373071E-01
N    4.8210579885189278E+00    4.6324202160303365E+00    2.4354541360278912E+00
Ga    4.8207141948312513E+00    2.7801174243844637E+00    3.1367466919204521E+00
N    4.8209183997189573E+00    2.7796366847723921E+00    5.0402817726874281E+00
Ga    4.8214275240206792E+00    4.6319398410172941E+00    5.7448005143054415E+00
N    4.8221247720120806E+00    4.6320224029312298E+00    7.6640673172935232E+00
Ga    4.8217985450295959E+00    2.7792439628682475E+00    8.3728960852137071E+00
N    4.8222313573937576E+00    2.7790671689594264E+00    1.0287774943272465E+01
Ga    4.8203780723338596E+00    4.6334596336336666E+00    1.0987622727055625E+01
N    4.8185248967842025E+00    4.6389166264437618E+00    1.2910599967570061E+01
Ga    4.8203119655928903E+00    2.7921251892669003E+00    1.3644886152106805E+01
N    4.8182516288611339E+00    2.7871290482163635E+00    1.5562004344010038E+01
Ga    4.8159130479512697E+00    4.6443979141465368E+00    1.6568979309696136E+01
N    6.4106015617596421E+00    3.7072979236046395E+00    1.7479102662947462E+01
N    3.2156131825159582E+00    5.5591797951734172E+00   -1.2417280582623003E-01
Ga    3.2163674314260731E+00    7.4118304434467523E+00    5.4032164893975176E-01
N    3.2160961111157733E+00    7.4119923115464159E+00    2.4355468463194314E+00
Ga    3.2158351439956521E+00    5.5595207244007154E+00    3.1369056402615096E+00
N    3.2157463107291067E+00    5.5589155019660126E+00    5.0402744794926972E+00
Ga    3.2157635178409962E+00    7.4117048119488489E+00    5.7419157391099001E+00
N    3.2155352043186767E+00    7.4124243903500506E+00    7.6608945927351444E+00
Ga    3.2158216388989906E+00    5.5607510519922903E+00    8.3704032902790431E+00
N    3.2158286463527439E+00    5.5621873824117731E+00    1.0285399734178769E+01
Ga    3.2175605504330518E+00    7.4123655623320301E+00    1.0994190017458930E+01
N    3.2157953347025270E+00    7.4201997334182490E+00    1.2925750512678285E+01
Ga    3.2149644132134534E+00    5.5625555908876780E+00    1.3631198690508903E+01
N    3.2115910301778219E+00    5.5648058747921851E+00    1.5549002123425094E+01
Ga    3.2158207714677789E+00    7.4181497895562902E+00    1.6628311254695305E+01
N    4.8134122358695253E+00    6.4710311574741572E+00    1.7494000449205842E+01
N    1.6108110733363041E+00    8.3387613465577424E+00   -1.2422534696146632E-01
Ga    1.6116755084132075E+00    1.0191368301325838E+01    5.4027883888129269E-01
N    1.6116236432411397E+00    1.0191464081980046E+01    2.4354370014125424E+00
Ga    1.6106656511153290E+00    8.3392195361491197E+00    3.1366745119972381E+00
N    1.6099520361789617E+00    8.3389332884872509E+00    5.0403273107035780E+00
Ga    1.6113901029061941E+00    1.0191127505328932E+01    5.7436191864465753E+00
N    1.6117095932403955E+00    1.0191864154325698E+01    7.6636179568392082E+00
Ga    1.6122121913411354E+00    8.3399927888293863E+00    8.3724769137757740E+00
N    1.6134655249111016E+00    8.3417820467749735E+00    1.0288472687970781E+01
Ga    1.6122209518527613E+00    1.0193388427408891E+01    1.0992031410508378E+01
N    1.6127895273389947E+00    1.0198301440316767E+01    1.2926004589567052E+01
Ga    1.6125640731991513E+00    8.3463648253139198E+00    1.3644372644762205E+01
N    1.6168526404025287E+00    8.3569319869374272E+00    1.5576142252269022E+01
Ga    1.6216903504910343E+00    1.0198156363935853E+01    1.6529762991941350E+01
N    3.1870603101684072E+00    9.2773371248566452E+00    1.7486461272128007E+01
N    9.6375436445217648E+00    1.6359255510796280E-04   -1.2430966706252533E-01
Ga    9.6383056320024636E+00    1.8527248010300392E+00    5.4017466438408768E-01
N    9.6382700487136557E+00    1.8527387216554188E+00    2.4354650763607029E+00
Ga    9.6376746980232220E+00    5.3769759088182064E-04    3.1370744778758599E+00
N    9.6374821978624787E+00    2.8813051177617612E-04    5.0407131634143960E+00
Ga    9.6378355468616146E+00    1.8526780765897783E+00    5.7439100463364348E+00
N    9.6381541655937024E+00    1.8538123641807647E+00    7.6642652912507607E+00
Ga    9.6377619679287250E+00    1.1275522816918916E-03    8.3728274647328345E+00
N    9.6390526664586744E+00    1.9557844485630130E-03    1.0289350859900200E+01
Ga    9.6403743705057874E+00    1.8578782648989061E+00    1.0993155916714311E+01
N    9.6400753704230659E+00    1.8672083569904168E+00    1.2918438597011503E+01
Ga    9.6457219577950202E+00    1.3237904446950737E-02    1.3617860026924447E+01
N    9.6484623900546893E+00   -5.1786776684289449E-05    1.5535054598918650E+01
Ga    9.6373062925124948E+00    1.8111777501317115E+00    1.6568700759921946E+01
N    1.1248688372141475E+01    9.1064855362137775E-01    1.7489254055320750E+01
N    8.0328480600009886E+00    2.7796443236482697E+00   -1.2409145890907755E-01
Ga    8.0335723311728273E+00    4.6322574891235844E+00    5.4033943390417860E-01
N    8.0336319488609913E+00    4.6323765534445771E+00    2.4355469668824230E+00
Ga    8.0330853426475688E+00    2.7799593118066475E+00    3.1367623477263824E+00
N    8.0331714525439928E+00    2.7796847264953359E+00    5.0402530677266721E+00
Ga    8.0338862003958127E+00    4.6318994622519591E+00    5.7441565875875416E+00
N    8.0350747125831230E+00    4.6325372768401616E+00    7.6641207575304398E+00
Ga    8.0331350111604998E+00    2.7816833633963873E+00    8.3750738475851492E+00
N    8.0335392927288325E+00    2.7837499042602034E+00    1.0291909895589725E+01
Ga    8.0359624848478859E+00    4.6362935151471305E+00    1.0996553339961267E+01
N    8.0374699679528874E+00    4.6468860474126901E+00    1.2927326114568682E+01
Ga    8.0365218754563479E+00    2.7957280454822837E+00    1.3641589007394650E+01
N    8.0161022763763388E+00    2.7848579315845714E+00    1.5577320386924615E+01
Ga    8.0166915077341123E+00    4.6391918602813460E+00    1.6578957127536263E+01
N    9.5927793025722021E+00    3.6237033193056361E+00    1.7475488797029715E+01
N    6.4280512039399964E+00    5.5591848657625142E+00   -1.2410182022010560E-01
Ga    6.4288342545723225E+00    7.4118158834975505E+00    5.4037652226106814E-01
N    6.4289313064905818E+00    7.4119750715132433E+00    2.4354137764120387E+00
Ga    6.4281401988036500E+00    5.5595423945800917E+00    3.1368591749006711E+00
N    6.4283431806715647E+00    5.5587457389233723E+00    5.0402790109138724E+00
Ga    6.4293926189590600E+00    7.4112003917425131E+00    5.7425955566891149E+00
N    6.4304712101899746E+00    7.4115465523642010E+00    7.6618793949454851E+00
Ga    6.4299335030459757E+00    5.5597247689184792E+00    8.3731210639160061E+00
N    6.4304947258406102E+00    5.5611470213708936E+00    1.0288516328544596E+01
Ga    6.4291346626177130E+00    7.4151766619573181E+00    1.0993231034140219E+01
N    6.4283114656905234E+00    7.4273175883570151E+00    1.2918888880740443E+01
Ga    6.4221071316329184E+00    5.5710411536845124E+00    1.3625218338689075E+01
N    6.4094115976317036E+00    5.5536844663883018E+00    1.5538897845996605E+01
Ga    6.4283187519022826E+00    7.4282242253962218E+00    1.6616553378046270E+01
N    7.9991359893514336E+00    6.4664519236245939E+00    1.7479287769866342E+01
N    4.8232652405765277E+00    8.3387544238635467E+00   -1.2421926308026679E-01
Ga    4.8239847672051255E+00    1.0191383985677724E+01    5.4018231756778512E-01
N    4.8238422592253238E+00    1.0191619102916540E+01    2.4353074042571210E+00
Ga    4.8234686071224031E+00    8.3392084302208147E+00    3.1364710218993337E+00
N    4.8234924473114527E+00    8.3387947343954174E+00    5.0399179362172761E+00
Ga    4.8235983969285252E+00    1.0190999253643946E+01    5.7430840088697988E+00
N    4.8238855627309514E+00    1.0191486050152733E+01    7.6626330233725399E+00
Ga    4.8236413491409378E+00    8.3373707358561688E+00    8.3692313593048109E+00
N    4.8230564530943534E+00    8.3380218788930218E+00    1.0283891552209264E+01
Ga    4.8258215708988317E+00    1.0188046670262265E+01    1.0981148504605068E+01
N    4.8274097372037090E+00    1.0191297161430533E+01    1.2915677106513652E+01
Ga    4.8236866152397466E+00    8.3438352907824811E+00    1.3649698309223943E+01
N    4.8149873588875298E+00    8.3429107064240444E+00    1.5576082592743518E+01
Ga    4.8113251920083853E+00    1.0194425184124929E+01    1.6578518816749071E+01
N    6.4118617562037885E+00    9.2795366332095099E+00    1.7477415646162758E+01
H    4.3199757572864403E-05   -3.6661651900694056E-04   -1.1492475448909503E+00
H   -1.6048529933150599E+00    2.7792308164106641E+00   -1.1491789342260281E+00
H   -3.2095340012305971E+00    5.5586622591154145E+00   -1.1492395841024154E+00
H   -4.8143212330798315E+00    8.3382466956273866E+00   -1.1492699485483002E+00
H    3.2123672944276924E+00   -3.6716267536619838E-04   -1.1493384851307888E+00
H    1.6076587175696977E+00    2.7792363926990959E+00   -1.1492627481583275E+00
H    2.8541717007003189E-03    5.5587428454099550E+00   -1.1491799960333748E+00
H   -1.6018303803719331E+00    8.3382080572645787E+00   -1.1492560056284982E+00
H    6.4248014625003860E+00   -2.6831491796914917E-04   -1.1492996500028969E+00
H    4.8201208526324235E+00    2.7791948905009365E+00   -1.1491844430108153E+00
H    3.2152882105166487E+00    5.5585997038521295E+00   -1.1492301682116364E+00
H    1.6104002354038409E+00    8.3382280306053431E+00   -1.1492859857916229E+00
H    9.6372045745133601E+00   -2.8121486869641586E-04   -1.1493566617124071E+00
H    8.0324453137728042E+00    2.7791648279423478E+00   -1.1491362126604872E+00
H    6.4276880458929648E+00    5.5586842299505328E+00   -1.1491585053328435E+00
H    4.8229830331018375E+00    8.3382200205772943E+00   -1.1492916699344409E+00
     &END COORD
     &KIND H
       BASIS_SET DZVP-MOLOPT-SR-GTH-q1
       POTENTIAL GTH-PBE-q1
       &POTENTIAL
 1
  0.2000000000000000E+00 2 -0.4178900440000000E+01  0.7244633100000000E+00
 0
         # Potential name:  GTH-PBE-Q1  for symbol:  H
         # Potential read from the potential filename: GTH_POTENTIALS
       &END POTENTIAL
     &END KIND
     &KIND N
       BASIS_SET DZVP-MOLOPT-SR-GTH
       POTENTIAL GTH-PBE-q5
       &POTENTIAL
 2 3
  0.2837905100000000E+00 2 -0.1241522559000000E+02  0.1868095920000000E+01
 2
  0.2554050000000000E+00 1  0.1363026257000000E+02
  0.2454945300000000E+00 0
         # Potential name:  GTH-PBE-Q5  for symbol:  N
         # Potential read from the potential filename: GTH_POTENTIALS
       &END POTENTIAL
     &END KIND
     &KIND Ga
       BASIS_SET DZVP-MOLOPT-SR-GTH
       POTENTIAL GTH-PBE-q13
       &POTENTIAL
 2 1 10
  0.4900000000000000E+00 0
 3
  0.4167772300000000E+00 3  0.1047568975000000E+02 -0.4921768140000000E+01  0.8707055900000000E+00
  0.7770178090000000E+01 -0.2248152160000000E+01
  0.1784415450000000E+01
  0.5696265200000000E+00 2  0.1777985340000000E+01  0.1958597600000000E+00
 -0.2317443900000000E+00
  0.2381265000000000E+00 1 -0.1624868022000000E+02
         # Potential name:  GTH-PBE-Q13  for symbol:  GA
         # Potential read from the potential filename: GTH_POTENTIALS
       &END POTENTIAL
     &END KIND
     &TOPOLOGY
       NUMBER_OF_ATOMS  256
       MULTIPLE_UNIT_CELL  1 1 1
     &END TOPOLOGY
   &END SUBSYS
 &END FORCE_EVAL
