 # Version information for this restart file 
 # current date 2019-06-09 06:46:52.980
 # current working dir /lustre03/project/6037349/rzk/GaN-carbene/444-addat/00-Surface/UKS_SYMM
 # Program compiled at                              Sun Apr  7 00:48:11 EDT 2019
 # Program compiled on                          beluga2.int.ets1.calculquebec.ca
 # Program compiled for                        Beluga-Linux-x86-64-intel-openmpi
 # Source code revision number                                         svn:18619
 &GLOBAL
   PRINT_LEVEL  MEDIUM
   PROJECT_NAME TEST
   RUN_TYPE  CELL_OPT
 &END GLOBAL
 &MOTION
   &CELL_OPT
     MAX_ITER  300
     STEP_START_VAL  40
     EXTERNAL_PRESSURE     1.0000000000000000E+00
     KEEP_ANGLES  T
     KEEP_SYMMETRY  T
     CONSTRAINT  Z
     PRESSURE_TOLERANCE     5.0000000000000000E+02
   &END CELL_OPT
 &END MOTION
 &FORCE_EVAL
   METHOD  QS
   STRESS_TENSOR  ANALYTICAL
   &DFT
     BASIS_SET_FILE_NAME BASIS_MOLOPT
     POTENTIAL_FILE_NAME GTH_POTENTIALS
     UKS  T
     SURFACE_DIPOLE_CORRECTION  T
     SURF_DIP_DIR  Z
     &SCF
       MAX_SCF  100
       EPS_SCF     5.0000000000000004E-06
       &OT  T
         PRECONDITIONER  FULL_ALL
       &END OT
       &OUTER_SCF  T
         OPTIMIZER  NONE
         EPS_SCF     5.0000000000000004E-06
         MAX_SCF  4
       &END OUTER_SCF
       &PRINT
         &RESTART  OFF
           BACKUP_COPIES  1
           &EACH
             JUST_ENERGY  0
             QS_SCF  0
             MD  20
           &END EACH
         &END RESTART
       &END PRINT
     &END SCF
     &QS
       EPS_DEFAULT     1.0000000000000000E-14
       METHOD  GPW
     &END QS
     &MGRID
       NGRIDS  5
       CUTOFF     1.2000000000000000E+03
     &END MGRID
     &XC
       DENSITY_CUTOFF     1.0000000000000000E-10
       GRADIENT_CUTOFF     1.0000000000000000E-10
       TAU_CUTOFF     1.0000000000000000E-10
       &XC_FUNCTIONAL  NO_SHORTCUT
         &PBE  T
         &END PBE
       &END XC_FUNCTIONAL
       &VDW_POTENTIAL
         POTENTIAL_TYPE  PAIR_POTENTIAL
         &PAIR_POTENTIAL
           R_CUTOFF     1.0000000000000004E+01
           TYPE  DFTD3
           PARAMETER_FILE_NAME dftd3.dat
           REFERENCE_FUNCTIONAL PBE
           EPS_CN     9.9999999999999995E-07
           CALCULATE_C9_TERM  T
           REFERENCE_C9_TERM  T
           LONG_RANGE_CORRECTION  F
           VERBOSE_OUTPUT  F
         &END PAIR_POTENTIAL
       &END VDW_POTENTIAL
     &END XC
   &END DFT
   &SUBSYS
     &CELL
       A     1.2832698427579476E+01    0.0000000000000000E+00    0.0000000000000000E+00
       B    -6.4151979493223799E+00    1.1111448788838093E+01    0.0000000000000000E+00
       C     0.0000000000000000E+00    0.0000000000000000E+00    3.2000000000000000E+01
       MULTIPLE_UNIT_CELL  1 1 1
       &CELL_REF
         A     1.2982353780853531E+01    0.0000000000000000E+00    0.0000000000000000E+00
         B    -6.4911768904267628E+00    1.1243048175136114E+01    0.0000000000000000E+00
         C     0.0000000000000000E+00    0.0000000000000000E+00    3.2000000000000000E+01
         MULTIPLE_UNIT_CELL  1 1 1
       &END CELL_REF
     &END CELL
     &COORD
N    3.5738935509791608E-04   -1.7155674068056870E-04   -2.0938414182945664E-01
Ga    5.3456881792088176E-04    1.8517744170094150E+00    4.7187313707201239E-01
N    5.8694968441766113E-04    1.8520821134409766E+00    2.3893121756324534E+00
Ga    4.8729091593243946E-04    8.7375106635622088E-06    3.1181674522203515E+00
N    7.1592763736044566E-04    5.6683851591720853E-05    5.0398405983977037E+00
Ga    8.7262160788991621E-04    1.8521912819861499E+00    5.7561279237612331E+00
N    1.3118032572207177E-03    1.8533322790386446E+00    7.6795946803672495E+00
Ga    1.2142877648814660E-03    1.7864793742339263E-03    8.3933085261736107E+00
N    1.6636146451781525E-03    4.2804884029517638E-03    1.0317562233471868E+01
Ga    2.8187141364366722E-03    1.8563088179118958E+00    1.1031674895864770E+01
N    4.1287687990048663E-03    1.8604096731529127E+00    1.2958199415639239E+01
Ga    2.0800523100544623E-03    6.2957031067484058E-03    1.3671067933996230E+01
N   -6.2365333098413772E-03    3.8217923381626351E-03    1.5588650829502162E+01
Ga   -2.0955032109544907E-03    1.8511348367991671E+00    1.6656356444182151E+01
N    1.5954087456693284E+00    9.2028868367084327E-01    1.7529831693269429E+01
N   -1.6034884419214959E+00    2.7777238936740529E+00   -2.0926442011396881E-01
Ga   -1.6032093280279376E+00    4.6296758528633273E+00    4.7195050427933438E-01
N   -1.6030895689480840E+00    4.6299984603841784E+00    2.3894158689701879E+00
Ga   -1.6034490868702398E+00    2.7780405551227658E+00    3.1184691900108015E+00
N   -1.6032706141467230E+00    2.7782543182817552E+00    5.0402120574030258E+00
Ga   -1.6028010762915492E+00    4.6302576761708556E+00    5.7571158323052831E+00
N   -1.6022577082009046E+00    4.6316555018376384E+00    7.6807705728443967E+00
Ga   -1.6019911096934676E+00    2.7798138899487070E+00    8.3941184529523998E+00
N   -1.6008801498571354E+00    2.7823227656316347E+00    1.0318490284310307E+01
Ga   -1.6015426103231627E+00    4.6343547704229771E+00    1.1031964890669531E+01
N   -1.6014637267685978E+00    4.6362478009999784E+00    1.2957747775770788E+01
Ga   -1.6011517516191145E+00    2.7840762632180907E+00    1.3677210750832844E+01
N   -1.5949540309665851E+00    2.7846078694956731E+00    1.5601634747222480E+01
Ga   -1.6060679956385422E+00    4.6260723582672831E+00    1.6607823446496543E+01
N   -1.8016518742599824E-02    3.7061353203586154E+00    1.7531518179280614E+01
N   -3.2072496982595533E+00    5.5555525780092827E+00   -2.0923854251493346E-01
Ga   -3.2069334547324164E+00    7.4074820870080744E+00    4.7199600998859881E-01
N   -3.2067456437305601E+00    7.4077712970671739E+00    2.3894465486695018E+00
Ga   -3.2070709516047660E+00    5.5558345879572162E+00    3.1186867609421403E+00
N   -3.2067862472657276E+00    5.5560580542500206E+00    5.0404144097301593E+00
Ga   -3.2062972979295616E+00    7.4080775874342564E+00    5.7569675469795358E+00
N   -3.2056377109087628E+00    7.4095207056471892E+00    7.6805454219111535E+00
Ga   -3.2060159357322342E+00    5.5579182964850222E+00    8.3949848667098994E+00
N   -3.2056379971744735E+00    5.5601252667002861E+00    1.0319452350850417E+01
Ga   -3.2052226163244004E+00    7.4124885996284782E+00    1.1031812838244505E+01
N   -3.2048279160060029E+00    7.4157843073435190E+00    1.2957533689733896E+01
Ga   -3.2057599665865966E+00    5.5653761664085284E+00    1.3679049327778637E+01
N   -3.2105746325583930E+00    5.5427634323823227E+00    1.5598573854975607E+01
Ga   -3.2311228942881205E+00    7.4041197109678274E+00    1.6636665845945931E+01
N   -1.6243518253116567E+00    6.4703225480928408E+00    1.7520577897649865E+01
N   -4.8109931190799395E+00    8.3333350361728371E+00   -2.0929426142791691E-01
Ga   -4.8107772272293410E+00    1.0185329034400320E+01    4.7174636703213868E-01
N   -4.8106355735265893E+00    1.0185589791326029E+01    2.3891995782158628E+00
Ga   -4.8107697527539974E+00    8.3336208411989556E+00    3.1183513560252991E+00
N   -4.8104285616752929E+00    8.3337337353105685E+00    5.0400487404616401E+00
Ga   -4.8102501474398744E+00    1.0185876653366188E+01    5.7565109239535621E+00
N   -4.8096605414094631E+00    1.0187188273045805E+01    7.6801810075781081E+00
Ga   -4.8099619940727782E+00    8.3351930377221262E+00    8.3936184053513117E+00
N   -4.8096651050326127E+00    8.3367859463451914E+00    1.0317885212930733E+01
Ga   -4.8094182971315309E+00    1.0189374800824432E+01    1.1028357085149270E+01
N   -4.8101883036518789E+00    1.0191893728536577E+01    1.2951588088230842E+01
Ga   -4.8097679910918147E+00    8.3429718015767822E+00    1.3675775527290517E+01
N   -4.8160531462780529E+00    8.3425311199957903E+00    1.5594291121426393E+01
Ga   -4.8223595500741752E+00    1.0193732817463607E+01    1.6616987118143729E+01
N   -3.2317649114097367E+00    9.2508979001655902E+00    1.7516379138200190E+01
N    3.2085744127882494E+00   -2.0868465989650332E-04   -2.0932191002173872E-01
Ga    3.2088240334819234E+00    1.8517478684301709E+00    4.7182507640355797E-01
N    3.2089731906154624E+00    1.8520464328006565E+00    2.3892742401498421E+00
Ga    3.2087388372957428E+00    1.8079463804239329E-05    3.1183271358105014E+00
N    3.2091192086444016E+00    9.7980067104875971E-05    5.0400488875921035E+00
Ga    3.2093215860060904E+00    1.8521912648762902E+00    5.7563446548600989E+00
N    3.2099296097556484E+00    1.8533376457836761E+00    7.6798819898663426E+00
Ga    3.2098701987578817E+00    1.8668154993505973E-03    8.3941569381936070E+00
N    3.2105096870150520E+00    3.9384916299935718E-03    1.0318486443091791E+01
Ga    3.2100729567323021E+00    1.8559195247638807E+00    1.1031776147207699E+01
N    3.2107252361382019E+00    1.8588094396708286E+00    1.2957712856782846E+01
Ga    3.2080936467094410E+00    6.0485291361932316E-03    1.3672748198422918E+01
N    3.1945818273370659E+00   -6.0777732484194229E-03    1.5591119489650339E+01
Ga    3.2080713708753743E+00    1.8574946513096655E+00    1.6662107864145582E+01
N    4.7897112907013986E+00    9.0803269858369429E-01    1.7521996124338571E+01
N    1.6047155045708077E+00    2.7776538839941622E+00   -2.0922799785335397E-01
Ga    1.6048919827516790E+00    4.6296685336396752E+00    4.7177337425757893E-01
N    1.6049294792713995E+00    4.6299544347877433E+00    2.3892307618143369E+00
Ga    1.6048479998714800E+00    2.7779345791078196E+00    3.1181639129756764E+00
N    1.6050916740575545E+00    2.7779811409338868E+00    5.0398474433121034E+00
Ga    1.6052790521672442E+00    4.6299872196501290E+00    5.7565651124460251E+00
N    1.6056405441655150E+00    4.6309739282531011E+00    7.6801458394331830E+00
Ga    1.6057073141754927E+00    2.7787810031923041E+00    8.3931998184812819E+00
N    1.6065169138043938E+00    2.7805699008438802E+00    1.0317508045933076E+01
Ga    1.6068359100368403E+00    4.6322228414579518E+00    1.1029265109479853E+01
N    1.6071958779936208E+00    4.6339696853230654E+00    1.2954410873616736E+01
Ga    1.6090896070477072E+00    2.7844096215462484E+00    1.3681904090068739E+01
N    1.6000407333055200E+00    2.7832513220727404E+00    1.5605721047526417E+01
Ga    1.5907163551234031E+00    4.6324428876410906E+00    1.6620652451406702E+01
N    3.1912078302029174E+00    3.7146389570653580E+00    1.7523696811523475E+01
N    8.6142367779695891E-04    5.5555733846786417E+00   -2.0936106324077447E-01
Ga    1.1261915868159829E-03    7.4075011751394193E+00    4.7191178322042387E-01
N    1.2335367391184422E-03    7.4078089238348825E+00    2.3894059256553137E+00
Ga    9.9061251617709747E-04    5.5558678196910893E+00    3.1186061064559265E+00
N    1.2276821878871413E-03    5.5560744122191652E+00    5.0403481910157613E+00
Ga    1.6447776315417573E-03    7.4082079931024731E+00    5.7568434770232750E+00
N    2.2898842910903270E-03    7.4095994744657974E+00    7.6805010477910542E+00
Ga    2.0326811881778385E-03    5.5576633446421466E+00    8.3941079512380874E+00
N    2.8546418392786490E-03    5.5599955825661809E+00    1.0318785807237930E+01
Ga    3.6848629170715959E-03    7.4132180243896961E+00    1.1029251078805423E+01
N    4.5837246572920003E-03    7.4158866395049321E+00    1.2954645097843922E+01
Ga    4.9600735139191847E-03    5.5644370252561215E+00    1.3669098251779468E+01
N   -2.4532291216856458E-03    5.5513445232564482E+00    1.5586027262796552E+01
Ga   -1.1426259626060213E-02    7.3882625085172373E+00    1.6627662495344477E+01
N    1.5904103366816282E+00    6.4752494569318877E+00    1.7528539857664011E+01
N   -1.6028878808313347E+00    8.3334117315729319E+00   -2.0930790988441886E-01
Ga   -1.6025854355692579E+00    1.0185338207695102E+01    4.7191111841772043E-01
N   -1.6024011670080152E+00    1.0185650458126338E+01    2.3893717472002818E+00
Ga   -1.6026915119521397E+00    8.3337501305059867E+00    3.1186644195872915E+00
N   -1.6023939846064492E+00    8.3340744439287775E+00    5.0404123896844242E+00
Ga   -1.6018630585255107E+00    1.0186149939911328E+01    5.7571621091611371E+00
N   -1.6010955410098080E+00    1.0187626039892633E+01    7.6808253314025370E+00
Ga   -1.6016328378815812E+00    8.3359039591105972E+00    8.3942828397960589E+00
N   -1.6011744776375132E+00    8.3380490607915547E+00    1.0318755582399685E+01
Ga   -1.6007007960773387E+00    1.0190196572625554E+01    1.1032103951065162E+01
N   -1.6002621957605738E+00    1.0192522562758493E+01    1.2957481881981399E+01
Ga   -1.5988776960344386E+00    8.3413061045066730E+00    1.3676797735659072E+01
N   -1.6164482568749698E+00    8.3319846751123734E+00    1.5598180045037068E+01
Ga   -1.6212382554400826E+00    1.0187062883726599E+01    1.6631803321334207E+01
N   -2.6646413982234243E-02    9.2212671963517625E+00    1.7509344311835903E+01
N    6.4166797114904073E+00   -1.4081671965015564E-04   -2.0924997008851820E-01
Ga    6.4170034963287108E+00    1.8518035316632808E+00    4.7198486708542314E-01
N    6.4172018933260135E+00    1.8521553389007883E+00    2.3894579116603079E+00
Ga    6.4168762217704476E+00    1.9216493090268638E-04    3.1185556625303219E+00
N    6.4171887032673078E+00    4.5689185663234537E-04    5.0403034911291904E+00
Ga    6.4175339905189945E+00    1.8523875241655183E+00    5.7571639959274279E+00
N    6.4180861769867450E+00    1.8538108250992367E+00    7.6808521653046045E+00
Ga    6.4180003969986306E+00    2.4135130795709435E-03    8.3953784262973592E+00
N    6.4184432050748690E+00    4.7224860489019534E-03    1.0319884553178300E+01
Ga    6.4183337066735451E+00    1.8569906310432520E+00    1.1032900945531305E+01
N    6.4190911837358469E+00    1.8605418448368247E+00    1.2958769647416579E+01
Ga    6.4184012017520491E+00    9.8198239052177776E-03    1.3679801599297644E+01
N    6.4122156218549309E+00   -1.1083742321767226E-02    1.5599885490685805E+01
Ga    6.3947761100013096E+00    1.8469279667477674E+00    1.6639143471128008E+01
N    8.0016665063835486E+00    9.1190403603383408E-01    1.7521450663377809E+01
N    4.8129442345082456E+00    2.7776380398038572E+00   -2.0930823447329747E-01
Ga    4.8131765839540570E+00    4.6295924707848179E+00    4.7179820642355608E-01
N    4.8133227478582628E+00    4.6298450245865315E+00    2.3892493660858012E+00
Ga    4.8131389011729908E+00    2.7779107977071704E+00    3.1184699883845495E+00
N    4.8134466443342223E+00    2.7779921374084631E+00    5.0401591638087107E+00
Ga    4.8136003325616255E+00    4.6299462832897715E+00    5.7567685377469022E+00
N    4.8140468595343400E+00    4.6311297669348095E+00    7.6804597281603568E+00
Ga    4.8138260741969940E+00    2.7791706052325020E+00    8.3943501634840256E+00
N    4.8139624127072560E+00    2.7810449141037661E+00    1.0318629035482173E+01
Ga    4.8142162023329460E+00    4.6336974219979652E+00    1.1028350064063062E+01
N    4.8134572316514772E+00    4.6360022799933347E+00    1.2951949969833448E+01
Ga    4.8141948945714885E+00    2.7873456013975875E+00    1.3677658431649414E+01
N    4.8091361796708876E+00    2.7869297726672344E+00    1.5596729952998508E+01
Ga    4.8034530042371397E+00    4.6367197171215011E+00    1.6618509010568737E+01
N    6.3961576326690626E+00    3.6934089122112503E+00    1.7516966440212776E+01
N    3.2090951118344062E+00    5.5555151001448904E+00   -2.0931945736030869E-01
Ga    3.2092628963946765E+00    7.4074730321025131E+00    4.7187255660673216E-01
N    3.2093044617981725E+00    7.4077394604581634E+00    2.3893024573683332E+00
Ga    3.2092153247129001E+00    5.5556419504902310E+00    3.1182135890301059E+00
N    3.2094439446160368E+00    5.5556819040925776E+00    5.0399162703775637E+00
Ga    3.2096508159338244E+00    7.4079130638207022E+00    5.7559287827612584E+00
N    3.2100532726339654E+00    7.4091580279476608E+00    7.6793518332639872E+00
Ga    3.2097552431434329E+00    5.5574871907324486E+00    8.3932288023799710E+00
N    3.2100203092445851E+00    5.5599480881230257E+00    1.0317497893952451E+01
Ga    3.2114505638347981E+00    7.4123661442231468E+00    1.1030659697185582E+01
N    3.2127719456350805E+00    7.4156549750157073E+00    1.2957461336022847E+01
Ga    3.2108974619262796E+00    5.5620211086926954E+00    1.3670628966333764E+01
N    3.2023883858796616E+00    5.5584593730103427E+00    1.5588657592222948E+01
Ga    3.2073403981382405E+00    7.4053172820951643E+00    1.6654832846143762E+01
N    4.8055027812761377E+00    6.4743905382698603E+00    1.7527652682618964E+01
N    1.6052467423690937E+00    8.3334224911172434E+00   -2.0926980296680511E-01
Ga    1.6055207523287012E+00    1.0185394593638533E+01    4.7188125030835798E-01
N    1.6056410410619566E+00    1.0185738577251074E+01    2.3893329730330959E+00
Ga    1.6053206264807649E+00    8.3338175157925161E+00    3.1184418394343520E+00
N    1.6055720090725085E+00    8.3341806888257679E+00    5.0401694544961160E+00
Ga    1.6059720954300347E+00    1.0186280685109757E+01    5.7570869738197477E+00
N    1.6064796022013241E+00    1.0187796122018442E+01    7.6807509074024711E+00
Ga    1.6067146641276429E+00    8.3358515459867828E+00    8.3935015094630891E+00
N    1.6077911089246613E+00    8.3382556850787797E+00    1.0317932457950473E+01
Ga    1.6071348114800479E+00    1.0190120067355872E+01    1.1031765680349004E+01
N    1.6069852240400129E+00    1.0191701594153875E+01    1.2957608776387332E+01
Ga    1.6074545216084732E+00    8.3393520436851887E+00    1.3676743713110985E+01
N    1.6128745404093536E+00    8.3398309458855966E+00    1.5600864178835163E+01
Ga    1.6013031797580213E+00    1.0179761055637064E+01    1.6607035387920263E+01
N    3.1914903581017824E+00    9.2602804224546098E+00    1.7530286129794874E+01
N    9.6248015081217986E+00   -1.2994618216756991E-04   -2.0936531559352287E-01
Ga    9.6250716683063704E+00    1.8518203352853357E+00    4.7187919537892609E-01
N    9.6251466369125591E+00    1.8521723358840387E+00    2.3893377898340074E+00
Ga    9.6249338424178656E+00    2.4674279386479670E-04    3.1184080833231755E+00
N    9.6251014064539060E+00    5.5591992251393784E-04    5.0401799799195581E+00
Ga    9.6255317544811749E+00    1.8524934974988327E+00    5.7573177274287595E+00
N    9.6259115124613448E+00    1.8540710004953675E+00    7.6810279786042281E+00
Ga    9.6258947866181614E+00    2.2209307462228074E-03    8.3945056016632815E+00
N    9.6265150885951041E+00    4.8003497750386832E-03    1.0319032920696182E+01
Ga    9.6273557869395816E+00    1.8580335269678223E+00    1.1029476654409910E+01
N    9.6283757385685185E+00    1.8604818206322988E+00    1.2955120764093762E+01
Ga    9.6291111383129433E+00    8.2538456652302399E-03    1.3668516213188511E+01
N    9.6213292568531745E+00   -6.0729867589664685E-03    1.5584902280004428E+01
Ga    9.6135570297973310E+00    1.8294944886195963E+00    1.6626044737260262E+01
N    1.1214894923037789E+01    9.1728678146888920E-01    1.7528986490830242E+01
N    8.0210566170228983E+00    2.7777025078487698E+00   -2.0929759425730704E-01
Ga    8.0213751372791595E+00    4.6296050084306151E+00    4.7197551133793003E-01
N    8.0215534347033390E+00    4.6298782777058873E+00    2.3894475344381325E+00
Ga    8.0212878760963218E+00    2.7780240423345268E+00    3.1188474595912177E+00
N    8.0215358357237569E+00    2.7782429075449415E+00    5.0405983192191783E+00
Ga    8.0219896320431410E+00    4.6302685567556585E+00    5.7572285171006339E+00
N    8.0225335023717577E+00    4.6317710947389266E+00    7.6808445470604498E+00
Ga    8.0218519127420755E+00    2.7802124703644946E+00    8.3950585712445687E+00
N    8.0222518627835822E+00    2.7826889556003072E+00    1.0319373234573614E+01
Ga    8.0227273353535331E+00    4.6349974792745661E+00    1.1031875165561349E+01
N    8.0233357507869911E+00    4.6365937522450800E+00    1.2957370353967294E+01
Ga    8.0251640049242958E+00    2.7856191931909260E+00    1.3677691906184100E+01
N    8.0101509092648264E+00    2.7747819148530648E+00    1.5598696849059627E+01
Ga    8.0048626059693024E+00    4.6294505289172339E+00    1.6630111987968800E+01
N    9.6011708462085501E+00    3.6628272679634173E+00    1.7510200294745847E+01
N    6.4173220188311708E+00    5.5554785265727302E+00   -2.0931132511855838E-01
Ga    6.4175850402668377E+00    7.4074246668480663E+00    4.7184999195683403E-01
N    6.4177387261913852E+00    7.4076716275465193E+00    2.3892968193605553E+00
Ga    6.4174963837309678E+00    5.5556457436644244E+00    3.1185154586330914E+00
N    6.4177378841414576E+00    5.5557116942696458E+00    5.0402283775526602E+00
Ga    6.4180107071843464E+00    7.4079682071182278E+00    5.7560954514293075E+00
N    6.4185093222251339E+00    7.4093185376729149E+00    7.6795873574726263E+00
Ga    6.4183276036761203E+00    5.5577610537628432E+00    8.3938641795894409E+00
N    6.4186403911365959E+00    5.5600270314695228E+00    1.0318142625380387E+01
Ga    6.4186474951807382E+00    7.4122791247186983E+00    1.1030609095709801E+01
N    6.4193094748455044E+00    7.4142354767801555E+00    1.2956284370472510E+01
Ga    6.4166581205230084E+00    5.5623323833456197E+00    1.3671800941764314E+01
N    6.4042946827115896E+00    5.5467033908458419E+00    1.5590344982197848E+01
Ga    6.4176210626245167E+00    7.4107726364182538E+00    1.6659951645380868E+01
N    7.9995764315854609E+00    6.4601754943707297E+00    1.7519113795944680E+01
N    4.8134660699939094E+00    8.3333355926759758E+00   -2.0924161689706899E-01
Ga    4.8136692542567117E+00    1.0185396666372275E+01    4.7167248697224090E-01
N    4.8137179525638834E+00    1.0185712477819751E+01    2.3891459043666559E+00
Ga    4.8135952550004095E+00    8.3336497896141264E+00    3.1180327901444187E+00
N    4.8137911446021686E+00    8.3338023114271351E+00    5.0397053622676582E+00
Ga    4.8139552374653789E+00    1.0185948799960777E+01    5.7563400883485416E+00
N    4.8142995996407301E+00    1.0187266607895445E+01    7.6799812887790448E+00
Ga    4.8143255186867737E+00    8.3351306939930137E+00    8.3925688481246610E+00
N    4.8149856339118493E+00    8.3368468658208457E+00    1.0316904073685244E+01
Ga    4.8157750838294522E+00    1.0188593623288746E+01    1.1029154226676713E+01
N    4.8160901493763850E+00    1.0189871601681928E+01    1.2953664562762658E+01
Ga    4.8179565195261782E+00    8.3402589841775931E+00    1.3680404899839299E+01
N    4.8092957342138485E+00    8.3379663030923616E+00    1.5603993909932743E+01
Ga    4.7994704737902989E+00    1.0186162186167516E+01    1.6618220211780859E+01
N    6.3993663539268182E+00    9.2685498216515274E+00    1.7522036431430564E+01
H    2.9407819114131358E-04   -1.5776026248241266E-04   -1.2367030098852465E+00
H   -1.6035840542367508E+00    2.7777301399590733E+00   -1.2365846909848401E+00
H   -3.2073401276394722E+00    5.5555079670759309E+00   -1.2365560424756814E+00
H   -4.8110609250985190E+00    8.3332081593121092E+00   -1.2366137723271562E+00
H    3.2085499034866283E+00   -2.6780854749165875E-04   -1.2366416200816481E+00
H    1.6046194052433116E+00    2.7775755866543745E+00   -1.2365438912307856E+00
H    6.9128317952014072E-04    5.5555123264679498E+00   -1.2366819248255463E+00
H   -1.6030321298414210E+00    8.3333876006157492E+00   -1.2366328653645715E+00
H    6.4165428993592126E+00   -1.7495781453615985E-04   -1.2365678147861559E+00
H    4.8128825007787919E+00    2.7775632305152227E+00   -1.2366276410919652E+00
H    3.2090209610459937E+00    5.5555110535323795E+00   -1.2366369693234207E+00
H    1.6051743613474354E+00    8.3333742641629041E+00   -1.2365884967783540E+00
H    9.6246200295734123E+00   -1.5245232666922324E-04   -1.2366866634801683E+00
H    8.0209147412106088E+00    2.7776695270968403E+00   -1.2366162253757207E+00
H    6.4172551586490441E+00    5.5554311455161542E+00   -1.2366279455539695E+00
H    4.8133533818066576E+00    8.3331772110166451E+00   -1.2365554127654110E+00
     &END COORD
     &KIND H
       BASIS_SET DZVP-MOLOPT-SR-GTH-q1
       POTENTIAL GTH-PBE-q1
       &POTENTIAL
 1
  0.2000000000000000E+00 2 -0.4178900440000000E+01  0.7244633100000000E+00
 0
         # Potential name:  GTH-PBE-Q1  for symbol:  H
         # Potential read from the potential filename: GTH_POTENTIALS
       &END POTENTIAL
     &END KIND
     &KIND N
       BASIS_SET DZVP-MOLOPT-SR-GTH
       POTENTIAL GTH-PBE-q5
       &POTENTIAL
 2 3
  0.2837905100000000E+00 2 -0.1241522559000000E+02  0.1868095920000000E+01
 2
  0.2554050000000000E+00 1  0.1363026257000000E+02
  0.2454945300000000E+00 0
         # Potential name:  GTH-PBE-Q5  for symbol:  N
         # Potential read from the potential filename: GTH_POTENTIALS
       &END POTENTIAL
     &END KIND
     &KIND Ga
       BASIS_SET DZVP-MOLOPT-SR-GTH
       POTENTIAL GTH-PBE-q13
       &POTENTIAL
 2 1 10
  0.4900000000000000E+00 0
 3
  0.4167772300000000E+00 3  0.1047568975000000E+02 -0.4921768140000000E+01  0.8707055900000000E+00
  0.7770178090000000E+01 -0.2248152160000000E+01
  0.1784415450000000E+01
  0.5696265200000000E+00 2  0.1777985340000000E+01  0.1958597600000000E+00
 -0.2317443900000000E+00
  0.2381265000000000E+00 1 -0.1624868022000000E+02
         # Potential name:  GTH-PBE-Q13  for symbol:  GA
         # Potential read from the potential filename: GTH_POTENTIALS
       &END POTENTIAL
     &END KIND
     &TOPOLOGY
       NUMBER_OF_ATOMS  256
       MULTIPLE_UNIT_CELL  1 1 1
     &END TOPOLOGY
   &END SUBSYS
 &END FORCE_EVAL
