 # Version information for this restart file 
 # current date 2019-06-09 05:12:33.249
 # current working dir /lustre03/project/6037349/rzk/GaN-carbene/444-addat/00-Surface/UKS_SYMM
 # Program compiled at                              Sun Apr  7 00:48:11 EDT 2019
 # Program compiled on                          beluga2.int.ets1.calculquebec.ca
 # Program compiled for                        Beluga-Linux-x86-64-intel-openmpi
 # Source code revision number                                         svn:18619
 &GLOBAL
   PRINT_LEVEL  MEDIUM
   PROJECT_NAME TEST
   RUN_TYPE  CELL_OPT
 &END GLOBAL
 &MOTION
   &CELL_OPT
     MAX_ITER  300
     STEP_START_VAL  22
     EXTERNAL_PRESSURE     1.0000000000000000E+00
     KEEP_ANGLES  T
     KEEP_SYMMETRY  T
     CONSTRAINT  Z
     PRESSURE_TOLERANCE     5.0000000000000000E+02
   &END CELL_OPT
 &END MOTION
 &FORCE_EVAL
   METHOD  QS
   STRESS_TENSOR  ANALYTICAL
   &DFT
     BASIS_SET_FILE_NAME BASIS_MOLOPT
     POTENTIAL_FILE_NAME GTH_POTENTIALS
     UKS  T
     SURFACE_DIPOLE_CORRECTION  T
     SURF_DIP_DIR  Z
     &SCF
       MAX_SCF  100
       EPS_SCF     5.0000000000000004E-06
       &OT  T
         PRECONDITIONER  FULL_ALL
       &END OT
       &OUTER_SCF  T
         OPTIMIZER  NONE
         EPS_SCF     5.0000000000000004E-06
         MAX_SCF  4
       &END OUTER_SCF
       &PRINT
         &RESTART  OFF
           BACKUP_COPIES  1
           &EACH
             JUST_ENERGY  0
             QS_SCF  0
             MD  20
           &END EACH
         &END RESTART
       &END PRINT
     &END SCF
     &QS
       EPS_DEFAULT     1.0000000000000000E-14
       METHOD  GPW
     &END QS
     &MGRID
       NGRIDS  5
       CUTOFF     1.2000000000000000E+03
     &END MGRID
     &XC
       DENSITY_CUTOFF     1.0000000000000000E-10
       GRADIENT_CUTOFF     1.0000000000000000E-10
       TAU_CUTOFF     1.0000000000000000E-10
       &XC_FUNCTIONAL  NO_SHORTCUT
         &PBE  T
         &END PBE
       &END XC_FUNCTIONAL
       &VDW_POTENTIAL
         POTENTIAL_TYPE  PAIR_POTENTIAL
         &PAIR_POTENTIAL
           R_CUTOFF     1.0000000000000004E+01
           TYPE  DFTD3
           PARAMETER_FILE_NAME dftd3.dat
           REFERENCE_FUNCTIONAL PBE
           EPS_CN     9.9999999999999995E-07
           CALCULATE_C9_TERM  T
           REFERENCE_C9_TERM  T
           LONG_RANGE_CORRECTION  F
           VERBOSE_OUTPUT  F
         &END PAIR_POTENTIAL
       &END VDW_POTENTIAL
     &END XC
   &END DFT
   &SUBSYS
     &CELL
       A     1.2844563508199851E+01    0.0000000000000000E+00    0.0000000000000000E+00
       B    -6.4205129457281931E+00    1.1120654632654979E+01    0.0000000000000000E+00
       C     0.0000000000000000E+00    0.0000000000000000E+00    3.2000000000000000E+01
       MULTIPLE_UNIT_CELL  1 1 1
       &CELL_REF
         A     1.2982353780853531E+01    0.0000000000000000E+00    0.0000000000000000E+00
         B    -6.4911768904267628E+00    1.1243048175136114E+01    0.0000000000000000E+00
         C     0.0000000000000000E+00    0.0000000000000000E+00    3.2000000000000000E+01
         MULTIPLE_UNIT_CELL  1 1 1
       &END CELL_REF
     &END CELL
     &COORD
N    2.3718346045183581E-04   -1.2790533593735014E-04   -1.2990203318219778E-01
Ga    5.5320670646048428E-04    1.8534011292038448E+00    5.3092616738754173E-01
N    3.4321700057429126E-04    1.8533619845163543E+00    2.4306538901287613E+00
Ga    3.9480908499388078E-04    1.6690458073471618E-05    3.1315883793223311E+00
N    4.3511284722144619E-04   -5.1916581565225150E-04    5.0391784800870409E+00
Ga    3.7123587982455699E-04    1.8532592661858316E+00    5.7454067367971513E+00
N    5.3965434912520193E-04    1.8539270147153692E+00    7.6659654177773247E+00
Ga    3.7729946675598417E-04    1.8086537939433326E-03    8.3710274919998060E+00
N    2.1465809586555058E-04    3.1521042090018338E-03    1.0287859552230652E+01
Ga    1.7161582139652205E-03    1.8557596601242339E+00    1.0997518693115568E+01
N    1.2754010098583192E-03    1.8577045096581393E+00    1.2928895803870288E+01
Ga    2.2003810819232507E-03    2.0221716048134547E-03    1.3634542481982667E+01
N    8.7173343830710716E-04    4.5873567402491032E-03    1.5557083860551804E+01
Ga    1.8669603980988865E-03    1.8653004910040238E+00    1.6635016204784247E+01
N    1.5964790855268265E+00    9.2310894984514225E-01    1.7490505294118549E+01
N   -1.6049597612486235E+00    2.7800492613982750E+00   -1.2983620795514081E-01
Ga   -1.6045210524461553E+00    4.6335894312448609E+00    5.3089010084189603E-01
N   -1.6045323396063160E+00    4.6337639582210484E+00    2.4305064695580780E+00
Ga   -1.6050683486879256E+00    2.7806932802460591E+00    3.1316510647809670E+00
N   -1.6053081627909707E+00    2.7806642890615514E+00    5.0393262942741606E+00
Ga   -1.6046309456714307E+00    4.6339335094819010E+00    5.7480479169599210E+00
N   -1.6041335796200618E+00    4.6350194455271492E+00    7.6691004175337003E+00
Ga   -1.6034857632770045E+00    2.7817556310435059E+00    8.3720053685724540E+00
N   -1.6013681560318151E+00    2.7837484302184583E+00    1.0290149936758512E+01
Ga   -1.6049636678450794E+00    4.6350166527032455E+00    1.0998923004857369E+01
N   -1.6049986696530107E+00    4.6408419630329671E+00    1.2930576249569070E+01
Ga   -1.6039028765793752E+00    2.7861883238910781E+00    1.3650760041472905E+01
N   -1.5915182384589670E+00    2.7965864877112336E+00    1.5577611914839416E+01
Ga   -1.5970488971163017E+00    4.6407950227306332E+00    1.6534796091782429E+01
N   -2.8520801381842653E-02    3.7356808484284194E+00    1.7491886921948549E+01
N   -3.2100538081072072E+00    5.5602410262247135E+00   -1.2988092068447293E-01
Ga   -3.2096270409229892E+00    7.4137749854264747E+00    5.3081067376517110E-01
N   -3.2095609992608960E+00    7.4139651778646076E+00    2.4305075665908942E+00
Ga   -3.2097917571004171E+00    5.5608225143243768E+00    3.1315916314856134E+00
N   -3.2097567282338697E+00    5.5604850440801021E+00    5.0393550158397415E+00
Ga   -3.2093469536791672E+00    7.4134660423291949E+00    5.7475874726757388E+00
N   -3.2083231670585670E+00    7.4139577277853341E+00    7.6685883465965166E+00
Ga   -3.2090801350998359E+00    5.5618105026212508E+00    8.3750335499830637E+00
N   -3.2072813273729124E+00    5.5637970430470727E+00    1.0293397810077817E+01
Ga   -3.2070795949345885E+00    7.4156803097002415E+00    1.1004019892491103E+01
N   -3.2036846315929415E+00    7.4227729314401136E+00    1.2933885114077070E+01
Ga   -3.2076125044038051E+00    5.5732965010672393E+00    1.3653406003395157E+01
N   -3.2055294830567131E+00    5.5414107761544633E+00    1.5579278490791902E+01
Ga   -3.2324375984701921E+00    7.4161137907357606E+00    1.6607109056029294E+01
N   -1.6272434571713688E+00    6.4710358968725412E+00    1.7479984163479333E+01
N   -4.8151406325616497E+00    8.3404053280814026E+00   -1.2992738015613114E-01
Ga   -4.8147818199556820E+00    1.0193853383452915E+01    5.3081465144276774E-01
N   -4.8148228953280476E+00    1.0193858288416699E+01    2.4304486525770064E+00
Ga   -4.8148181068101463E+00    8.3408740649882240E+00    3.1318401388379602E+00
N   -4.8144921789026318E+00    8.3403721148864900E+00    5.0392217381891120E+00
Ga   -4.8146759971828716E+00    1.0193018102240217E+01    5.7476179076272889E+00
N   -4.8142998112247337E+00    1.0193555501687907E+01    7.6688951792197866E+00
Ga   -4.8133787854792649E+00    8.3395379462083330E+00    8.3731066894873081E+00
N   -4.8115564740897927E+00    8.3398173987144784E+00    1.0289601923478765E+01
Ga   -4.8142622595001177E+00    1.0194275600782472E+01    1.0986958971030004E+01
N   -4.8158863246466002E+00    1.0200668237173106E+01    1.2912976167396515E+01
Ga   -4.8142632389368512E+00    8.3523656358195986E+00    1.3644791870303683E+01
N   -4.8195627058198269E+00    8.3483369598122472E+00    1.5564325989822230E+01
Ga   -4.8227783885433881E+00    1.0208049347558807E+01    1.6577222868711669E+01
N   -3.2358614219585351E+00    9.2639427143314990E+00    1.7472294101929574E+01
N    3.2113391311619375E+00   -1.5577187525587510E-04   -1.2999788641807680E-01
Ga    3.2117349048035542E+00    1.8533538637370304E+00    5.3087329985296405E-01
N    3.2116977551292178E+00    1.8532234943571171E+00    2.4305063886031251E+00
Ga    3.2115992058307929E+00    1.0016096427540525E-04    3.1319369034152089E+00
N    3.2116685244376773E+00   -6.1979949192652185E-04    5.0395566155417457E+00
Ga    3.2119845245106955E+00    1.8530583024599641E+00    5.7463666072803070E+00
N    3.2124591124767821E+00    1.8536459033223909E+00    7.6667081462067772E+00
Ga    3.2131151998430751E+00    1.1234245489267153E-03    8.3730190156637470E+00
N    3.2142325392654865E+00    1.8356603077129647E-03    1.0290163454083178E+01
Ga    3.2110373032212602E+00    1.8567080477674718E+00    1.0998513445253534E+01
N    3.2116343069450233E+00    1.8615701559174860E+00    1.2923437611207129E+01
Ga    3.2093927646546319E+00    9.2926881486785178E-03    1.3633441315252027E+01
N    3.1963149921916818E+00   -8.9863673530115942E-03    1.5553085118858212E+01
Ga    3.2087490864010269E+00    1.8716910652033314E+00    1.6630298129274262E+01
N    4.7860110422087914E+00    9.0665592032836129E-01    1.7478234445543421E+01
N    1.6062071219945779E+00    2.7800639942492289E+00   -1.2990582864391806E-01
Ga    1.6065489731986058E+00    4.6336057536284265E+00    5.3085124961961627E-01
N    1.6062884229463963E+00    4.6338377159462842E+00    2.4304626667002287E+00
Ga    1.6065246513382780E+00    2.7806744165812161E+00    3.1311554083601183E+00
N    1.6064229331776843E+00    2.7802570016215769E+00    5.0385036292926788E+00
Ga    1.6060623353553616E+00    4.6335826739657993E+00    5.7470099018203955E+00
N    1.6056734783585824E+00    4.6339848712352252E+00    7.6677953383857629E+00
Ga    1.6066289603008450E+00    2.7802448629388756E+00    8.3707727783282539E+00
N    1.6054375794723359E+00    2.7787120563948813E+00    1.0287293006008255E+01
Ga    1.6102321163039239E+00    4.6308455483163513E+00    1.0996295862713630E+01
N    1.6093405178631965E+00    4.6298401378205121E+00    1.2919735334334336E+01
Ga    1.6082986241492543E+00    2.7818809412129979E+00    1.3658002515542764E+01
N    1.6011417391184866E+00    2.7898428936634061E+00    1.5583650930674109E+01
Ga    1.5961951307112023E+00    4.6413872053646417E+00    1.6577975548745602E+01
N    3.1967974397907786E+00    3.7326584190842955E+00    1.7484027997533719E+01
N    1.0847933870492350E-03    5.5602527297233912E+00   -1.2987800280747339E-01
Ga    1.4130281991194906E-03    7.4137442626650083E+00    5.3080709683509919E-01
N    1.1980579685609703E-03    7.4138279827645297E+00    2.4303996120471139E+00
Ga    1.2203239678415562E-03    5.5610230030531786E+00    3.1320009094098977E+00
N    8.3622467753346910E-04    5.5609660324765846E+00    5.0395841694843320E+00
Ga    1.2381931014014862E-03    7.4135868461845851E+00    5.7488093037172190E+00
N    1.3603105077345497E-03    7.4142653857701264E+00    7.6701488672138831E+00
Ga    1.5753425660615457E-03    5.5611404150087935E+00    8.3765718739079134E+00
N    1.2649581857640290E-03    5.5620158837669109E+00    1.0293741513370351E+01
Ga    3.9174858497999961E-03    7.4187651437742765E+00    1.0992870597544936E+01
N    5.0485777798866876E-03    7.4256738631377486E+00    1.2921340568440407E+01
Ga    1.1357090795604170E-02    5.5688181253912052E+00    1.3627094430635500E+01
N    1.0799426631728712E-02    5.5612597243747732E+00    1.5536598452983046E+01
Ga   -4.2474446317324228E-04    7.3742064095880888E+00    1.6572945734706927E+01
N    1.6016093850151600E+00    6.4791316529736891E+00    1.7493089420058443E+01
N   -1.6040210819130951E+00    8.3403799006962416E+00   -1.2994040678674446E-01
Ga   -1.6036839975347523E+00    1.0193825565295930E+01    5.3078613497066429E-01
N   -1.6038066477500552E+00    1.0193703013294783E+01    2.4304684921693913E+00
Ga   -1.6036443288335638E+00    8.3408480323639225E+00    3.1319738864277458E+00
N   -1.6035539226257998E+00    8.3403734184170677E+00    5.0396892090389542E+00
Ga   -1.6033118507105988E+00    1.0193378440289106E+01    5.7479259185352785E+00
N   -1.6024229158553638E+00    1.0194214188172442E+01    7.6689906648108472E+00
Ga   -1.6039648595838845E+00    8.3420021744225146E+00    8.3751518868243977E+00
N   -1.6035872519375478E+00    8.3444183423954748E+00    1.0293101259281867E+01
Ga   -1.6005443109663615E+00    1.0197670910733306E+01    1.0999672914602073E+01
N   -1.5968731385143315E+00    1.0203536247208206E+01    1.2929994356707176E+01
Ga   -1.5945527558728478E+00    8.3512553616018508E+00    1.3650040434453144E+01
N   -1.6118724356722871E+00    8.3348307337118985E+00    1.5575805612710843E+01
Ga   -1.6209393408671597E+00    1.0194719242185512E+01    1.6586314057176860E+01
N   -5.3383004023691852E-02    9.1929153314661836E+00    1.7493435100834493E+01
N    6.4224684018321252E+00   -1.2195770146831561E-04   -1.2992413822144563E-01
Ga    6.4228981840342056E+00    1.8534252703289691E+00    5.3098488159269908E-01
N    6.4228779248020045E+00    1.8534183832232178E+00    2.4304905126220988E+00
Ga    6.4226703895119819E+00    3.1601676017823239E-04    3.1316026675042097E+00
N    6.4225702924632895E+00   -1.5631350919142302E-06    5.0393557513647806E+00
Ga    6.4233427802114562E+00    1.8533411511027345E+00    5.7476486318333988E+00
N    6.4243478527598237E+00    1.8544601505856035E+00    7.6684309370278338E+00
Ga    6.4236607299236281E+00    2.0483485017294403E-03    8.3740667597770369E+00
N    6.4246384368838454E+00    3.7147913984404133E-03    1.0292028241462988E+01
Ga    6.4249115308969769E+00    1.8567072324638683E+00    1.1001089314149505E+01
N    6.4255577354307807E+00    1.8628534738711773E+00    1.2932156065990753E+01
Ga    6.4274886189791047E+00    1.3275414644641560E-02    1.3658024470541875E+01
N    6.4206461841389304E+00   -2.9291817181724633E-02    1.5579681398228129E+01
Ga    6.3964951230048026E+00    1.8573594971143546E+00    1.6611327155311731E+01
N    8.0007873357508803E+00    9.0927903365215834E-01    1.7473777866387685E+01
N    4.8173724045014534E+00    2.7800543085495124E+00   -1.2982915931745723E-01
Ga    4.8177332183635970E+00    4.6335758738563015E+00    5.3096535463385697E-01
N    4.8176013242262581E+00    4.6336412629061501E+00    2.4304774258852775E+00
Ga    4.8177363879004975E+00    2.7806083712120211E+00    3.1317678276071397E+00
N    4.8179838191802000E+00    2.7801290623775419E+00    5.0392529318472592E+00
Ga    4.8179591559879009E+00    4.6331299199637339E+00    5.7484816614204961E+00
N    4.8186853791445516E+00    4.6333457253880903E+00    7.6689793442850220E+00
Ga    4.8186273973680729E+00    2.7798720968401818E+00    8.3734780060993916E+00
N    4.8191700185608912E+00    2.7799398012195620E+00    1.0289723433704587E+01
Ga    4.8170007518015714E+00    4.6347077450527276E+00    1.0992849459396876E+01
N    4.8152758022644635E+00    4.6398397923005259E+00    1.2913965691613489E+01
Ga    4.8173379010719435E+00    2.7920684933065516E+00    1.3650839268014661E+01
N    4.8148539553630743E+00    2.7880464649169530E+00    1.5566782913119209E+01
Ga    4.8126828054978397E+00    4.6442653246637970E+00    1.6572343666186669E+01
N    6.4051937691690819E+00    3.7078843465321341E+00    1.7477740218861030E+01
N    3.2122113491219473E+00    5.5601943896004471E+00   -1.2987353724831552E-01
Ga    3.2125599397254416E+00    7.4137143498043407E+00    5.3093094567086108E-01
N    3.2122691662294098E+00    7.4137993938053954E+00    2.4306017910547677E+00
Ga    3.2124981468543763E+00    5.5605882935779674E+00    3.1318857972000620E+00
N    3.2124823235451752E+00    5.5599037466182102E+00    5.0392772945885023E+00
Ga    3.2119514817805856E+00    7.4134743369858853E+00    5.7455901444703468E+00
N    3.2118542200045113E+00    7.4141574237897760E+00    7.6657485926487761E+00
Ga    3.2125137186579353E+00    5.5616946801092517E+00    8.3710810408584422E+00
N    3.2124699906419214E+00    5.5632243010930660E+00    1.0287562782933373E+01
Ga    3.2136957734728613E+00    7.4145589966479868E+00    1.0999469609958433E+01
N    3.2119840753051530E+00    7.4220240690011643E+00    1.2927775517702070E+01
Ga    3.2114544652963493E+00    5.5638223577999435E+00    1.3636297062642949E+01
N    3.2076875914492859E+00    5.5664685336392692E+00    1.5553483624701220E+01
Ga    3.2121822117703824E+00    7.4197097455042202E+00    1.6630908389134380E+01
N    4.8084637192787554E+00    6.4750052680986494E+00    1.7492965446848022E+01
N    1.6070520860293023E+00    8.3403991304676453E+00   -1.2992974499829305E-01
Ga    1.6075118664467212E+00    1.0193892182336526E+01    5.3087568762939785E-01
N    1.6074360805147760E+00    1.0193943457039056E+01    2.4304714004246382E+00
Ga    1.6069343756424799E+00    8.3409445741474944E+00    3.1316620111058260E+00
N    1.6062876656087233E+00    8.3406432704178197E+00    5.0392144165105650E+00
Ga    1.6072112693510043E+00    1.0193659103658135E+01    5.7474409030935618E+00
N    1.6075982910872508E+00    1.0194541173862678E+01    7.6684725370116826E+00
Ga    1.6085632111515455E+00    8.3417142982432058E+00    8.3730330282127952E+00
N    1.6101053084790886E+00    8.3437442278667540E+00    1.0289839390412325E+01
Ga    1.6080672609089353E+00    1.0196052498072730E+01    1.0998251791250421E+01
N    1.6084128985708663E+00    1.0201426131989630E+01    1.2928023098565621E+01
Ga    1.6089695425419619E+00    8.3486068276088492E+00    1.3650179994110131E+01
N    1.6133953863183599E+00    8.3577737085805346E+00    1.5579333355534866E+01
Ga    1.6159986818990772E+00    1.0198163286137042E+01    1.6534168856110064E+01
N    3.1830269434488416E+00    9.2784221651424872E+00    1.7486059721953975E+01
N    9.6335838321303164E+00   -8.3416313837479729E-05   -1.3002886308472886E-01
Ga    9.6339672070973350E+00    1.8533651729297176E+00    5.3077911538697742E-01
N    9.6338755474026314E+00    1.8533231796498830E+00    2.4304647398245698E+00
Ga    9.6337712441609540E+00    3.8949277321292881E-04    3.1320292692534446E+00
N    9.6335111005218348E+00    1.1908946487721224E-04    5.0395768467776678E+00
Ga    9.6334964204667628E+00    1.8533570545106790E+00    5.7476860978538378E+00
N    9.6338731644353572E+00    1.8545594074871745E+00    7.6691641487964928E+00
Ga    9.6339125792574247E+00    1.1313604403613954E-03    8.3735556092542609E+00
N    9.6349855503808364E+00    2.3753836374588028E-03    1.0291161832064088E+01
Ga    9.6360273851738363E+00    1.8586865703585704E+00    1.0997939318865914E+01
N    9.6352519068893532E+00    1.8683305663546916E+00    1.2921564747077811E+01
Ga    9.6414903993750283E+00    1.3023446847926305E-02    1.3624843831573026E+01
N    9.6433414397570232E+00   -1.1163288456355910E-03    1.5540299465141215E+01
Ga    9.6329104914269283E+00    1.8123354623502019E+00    1.6572439760605597E+01
N    1.1242340095852699E+01    9.1192927824114312E-01    1.7488153091055509E+01
N    8.0285273388660734E+00    2.7800305465947330E+00   -1.2980356722998532E-01
Ga    8.0288698415737141E+00    4.6335352815062532E+00    5.3093583637731334E-01
N    8.0288773612510980E+00    4.6335933277341246E+00    2.4305629751604299E+00
Ga    8.0288042132989048E+00    2.7804659861015395E+00    3.1316898855237656E+00
N    8.0288025988150036E+00    2.7802081836912955E+00    5.0392144709832669E+00
Ga    8.0291988545201427E+00    4.6331546527716752E+00    5.7480331406575855E+00
N    8.0303954350730287E+00    4.6339322224360338E+00    7.6691986160149082E+00
Ga    8.0289899946059347E+00    2.7821747034450253E+00    8.3754874825480243E+00
N    8.0293257482295370E+00    2.7844603993498716E+00    1.0293571541527562E+01
Ga    8.0310489997679362E+00    4.6378562259642342E+00    1.1001673658297792E+01
N    8.0326234981606319E+00    4.6478622347637719E+00    1.2929006500302018E+01
Ga    8.0321726542158220E+00    2.7960288793251413E+00    1.3648883056533140E+01
N    8.0127090886196957E+00    2.7843159991934625E+00    1.5579376742142713E+01
Ga    8.0136506008813928E+00    4.6367091089607682E+00    1.6582973993894960E+01
N    9.5887331134377245E+00    3.6298949153197060E+00    1.7474056036593240E+01
N    6.4233691534602109E+00    5.5601924553163800E+00   -1.2980619955028336E-01
Ga    6.4237735713631574E+00    7.4137118471736656E+00    5.3093482933552671E-01
N    6.4238425490777278E+00    7.4137716944741197E+00    2.4305035163682023E+00
Ga    6.4235167478338857E+00    5.5605853840927235E+00    3.1318013328696157E+00
N    6.4237204584080780E+00    5.5596764875377369E+00    5.0392803100274586E+00
Ga    6.4243342031701873E+00    7.4130218370016614E+00    5.7463015086353115E+00
N    6.4253558313319203E+00    7.4133994131989116E+00    7.6667253776433233E+00
Ga    6.4251366876554004E+00    5.5608690291502683E+00    8.3737872483506415E+00
N    6.4257316304295031E+00    5.5622268020330692E+00    1.0290660437232962E+01
Ga    6.4238924322968973E+00    7.4172854761779501E+00    1.0998069390888224E+01
N    6.4230882750000742E+00    7.4285509500197504E+00    1.2921373417585452E+01
Ga    6.4181200645914327E+00    5.5719350148693358E+00    1.3631111381714032E+01
N    6.4057602808604290E+00    5.5538308837466035E+00    1.5545232406199421E+01
Ga    6.4230231839485299E+00    7.4289416685092817E+00    1.6619974742366942E+01
N    7.9945280336386215E+00    6.4686428083814409E+00    1.7479568417342666E+01
N    4.8182230311489533E+00    8.3403830465823070E+00   -1.2991833675342643E-01
Ga    4.8185518847159035E+00    1.0193917130015302E+01    5.3076557614031272E-01
N    4.8183659947130861E+00    1.0194074712834411E+01    2.4303405612603401E+00
Ga    4.8184660301377340E+00    8.3409334254501477E+00    3.1314245261821054E+00
N    4.8184846505425636E+00    8.3404105382105929E+00    5.0388241624080612E+00
Ga    4.8182001011548943E+00    1.0193543584589884E+01    5.7467307275717072E+00
N    4.8185335955989128E+00    1.0194108889710201E+01    7.6674261879774122E+00
Ga    4.8186472840341130E+00    8.3391347603440789E+00    8.3699239066134137E+00
N    4.8179253969875075E+00    8.3398529182406538E+00    1.0285660716414021E+01
Ga    4.8204602997045205E+00    1.0190994828420058E+01    1.0987999888263570E+01
N    4.8220034386575046E+00    1.0194581991586810E+01    1.2917713103455844E+01
Ga    4.8190118150390484E+00    8.3458807014660010E+00    1.3654982346030749E+01
N    4.8110846786424233E+00    8.3447332985942388E+00    1.5579500692906917E+01
Ga    4.8056025654902683E+00    1.0196174868343391E+01    1.6580207271299006E+01
N    6.4064589512790100E+00    9.2804541568802890E+00    1.7477890956897564E+01
H    6.4962423137282922E-05   -3.6350415154293218E-04   -1.1538652995961987E+00
H   -1.6052004769998800E+00    2.7798610710445439E+00   -1.1538064434210076E+00
H   -3.2102491153040953E+00    5.5599234647484019E+00   -1.1538517133643735E+00
H   -4.8153914206352146E+00    8.3401342180818361E+00   -1.1538926752317051E+00
H    3.2111061810523429E+00   -3.6870084875655475E-04   -1.1539533164011131E+00
H    1.6060346538459096E+00    2.7798665161651352E+00   -1.1538850287414175E+00
H    8.6994119629563345E-04    5.5600096345133228E+00   -1.1538298169689833E+00
H   -1.6041729593425686E+00    8.3400933785757356E+00   -1.1538947448317538E+00
H    6.4222678031547620E+00   -2.6038669253671014E-04   -1.1539079929151501E+00
H    4.8172312010972744E+00    2.7798285656171147E+00   -1.1538052720144223E+00
H    3.2120367543927388E+00    5.5598618787714278E+00   -1.1538449392414933E+00
H    1.6067797025325996E+00    8.3401142029150055E+00   -1.1539074623383279E+00
H    9.6333921052374087E+00   -2.7581844546679561E-04   -1.1539869621752159E+00
H    8.0282725195894518E+00    2.7797992682738180E+00   -1.1537695090868674E+00
H    6.4231579345442062E+00    5.5599425696756217E+00   -1.1537733662614984E+00
H    4.8180879407961186E+00    8.3401005120949101E+00   -1.1539070088947547E+00
     &END COORD
     &KIND H
       BASIS_SET DZVP-MOLOPT-SR-GTH-q1
       POTENTIAL GTH-PBE-q1
       &POTENTIAL
 1
  0.2000000000000000E+00 2 -0.4178900440000000E+01  0.7244633100000000E+00
 0
         # Potential name:  GTH-PBE-Q1  for symbol:  H
         # Potential read from the potential filename: GTH_POTENTIALS
       &END POTENTIAL
     &END KIND
     &KIND N
       BASIS_SET DZVP-MOLOPT-SR-GTH
       POTENTIAL GTH-PBE-q5
       &POTENTIAL
 2 3
  0.2837905100000000E+00 2 -0.1241522559000000E+02  0.1868095920000000E+01
 2
  0.2554050000000000E+00 1  0.1363026257000000E+02
  0.2454945300000000E+00 0
         # Potential name:  GTH-PBE-Q5  for symbol:  N
         # Potential read from the potential filename: GTH_POTENTIALS
       &END POTENTIAL
     &END KIND
     &KIND Ga
       BASIS_SET DZVP-MOLOPT-SR-GTH
       POTENTIAL GTH-PBE-q13
       &POTENTIAL
 2 1 10
  0.4900000000000000E+00 0
 3
  0.4167772300000000E+00 3  0.1047568975000000E+02 -0.4921768140000000E+01  0.8707055900000000E+00
  0.7770178090000000E+01 -0.2248152160000000E+01
  0.1784415450000000E+01
  0.5696265200000000E+00 2  0.1777985340000000E+01  0.1958597600000000E+00
 -0.2317443900000000E+00
  0.2381265000000000E+00 1 -0.1624868022000000E+02
         # Potential name:  GTH-PBE-Q13  for symbol:  GA
         # Potential read from the potential filename: GTH_POTENTIALS
       &END POTENTIAL
     &END KIND
     &TOPOLOGY
       NUMBER_OF_ATOMS  256
       MULTIPLE_UNIT_CELL  1 1 1
     &END TOPOLOGY
   &END SUBSYS
 &END FORCE_EVAL
