 # Version information for this restart file 
 # current date 2019-06-09 03:28:43.378
 # current working dir /lustre03/project/6037349/rzk/GaN-carbene/444-addat/00-Surface/UKS_SYMM
 # Program compiled at                              Sun Apr  7 00:48:11 EDT 2019
 # Program compiled on                          beluga2.int.ets1.calculquebec.ca
 # Program compiled for                        Beluga-Linux-x86-64-intel-openmpi
 # Source code revision number                                         svn:18619
 &GLOBAL
   PRINT_LEVEL  MEDIUM
   PROJECT_NAME TEST
   RUN_TYPE  CELL_OPT
 &END GLOBAL
 &MOTION
   &CELL_OPT
     MAX_ITER  300
     STEP_START_VAL  6
     EXTERNAL_PRESSURE     1.0000000000000000E+00
     KEEP_ANGLES  T
     KEEP_SYMMETRY  T
     CONSTRAINT  Z
     PRESSURE_TOLERANCE     5.0000000000000000E+02
   &END CELL_OPT
 &END MOTION
 &FORCE_EVAL
   METHOD  QS
   STRESS_TENSOR  ANALYTICAL
   &DFT
     BASIS_SET_FILE_NAME BASIS_MOLOPT
     POTENTIAL_FILE_NAME GTH_POTENTIALS
     UKS  T
     SURFACE_DIPOLE_CORRECTION  T
     SURF_DIP_DIR  Z
     &SCF
       MAX_SCF  100
       EPS_SCF     5.0000000000000004E-06
       &OT  T
         PRECONDITIONER  FULL_ALL
       &END OT
       &OUTER_SCF  T
         OPTIMIZER  NONE
         EPS_SCF     5.0000000000000004E-06
         MAX_SCF  4
       &END OUTER_SCF
       &PRINT
         &RESTART  OFF
           BACKUP_COPIES  1
           &EACH
             JUST_ENERGY  0
             QS_SCF  0
             MD  20
           &END EACH
         &END RESTART
       &END PRINT
     &END SCF
     &QS
       EPS_DEFAULT     1.0000000000000000E-14
       METHOD  GPW
     &END QS
     &MGRID
       NGRIDS  5
       CUTOFF     1.2000000000000000E+03
     &END MGRID
     &XC
       DENSITY_CUTOFF     1.0000000000000000E-10
       GRADIENT_CUTOFF     1.0000000000000000E-10
       TAU_CUTOFF     1.0000000000000000E-10
       &XC_FUNCTIONAL  NO_SHORTCUT
         &PBE  T
         &END PBE
       &END XC_FUNCTIONAL
       &VDW_POTENTIAL
         POTENTIAL_TYPE  PAIR_POTENTIAL
         &PAIR_POTENTIAL
           R_CUTOFF     1.0000000000000004E+01
           TYPE  DFTD3
           PARAMETER_FILE_NAME dftd3.dat
           REFERENCE_FUNCTIONAL PBE
           EPS_CN     9.9999999999999995E-07
           CALCULATE_C9_TERM  T
           REFERENCE_C9_TERM  T
           LONG_RANGE_CORRECTION  F
           VERBOSE_OUTPUT  F
         &END PAIR_POTENTIAL
       &END VDW_POTENTIAL
     &END XC
   &END DFT
   &SUBSYS
     &CELL
       A     1.2911606593755360E+01    0.0000000000000000E+00    0.0000000000000000E+00
       B    -6.4571888415106438E+00    1.1184179147563267E+01    0.0000000000000000E+00
       C     0.0000000000000000E+00    0.0000000000000000E+00    3.2000000000000000E+01
       MULTIPLE_UNIT_CELL  1 1 1
       &CELL_REF
         A     1.2982353780853531E+01    0.0000000000000000E+00    0.0000000000000000E+00
         B    -6.4911768904267628E+00    1.1243048175136114E+01    0.0000000000000000E+00
         C     0.0000000000000000E+00    0.0000000000000000E+00    3.2000000000000000E+01
         MULTIPLE_UNIT_CELL  1 1 1
       &END CELL_REF
     &END CELL
     &COORD
N   -8.7330541229483247E-05   -1.8703792495424211E-04   -1.4822654973503508E-02
Ga   -5.9164273001578461E-05    1.8642420785965530E+00    6.3662364862889520E-01
N   -4.7655209545923429E-05    1.8643937834317943E+00    2.5562426771355553E+00
Ga   -7.8410914440290528E-05   -8.0182818038653742E-05    3.2434381471453237E+00
N   -1.6726168574760113E-04   -3.5209333598376836E-04    5.1618119718850934E+00
Ga   -8.6273099405205359E-05    1.8641753323609882E+00    5.8353119434398817E+00
N   -7.9005122182184312E-05    1.8644619107359710E+00    7.7543527079991197E+00
Ga   -8.6424241179102363E-05   -8.2035157871987994E-05    8.4206179881554171E+00
N   -9.7535521935390151E-05   -1.6174835176600938E-04    1.0333185729897195E+01
Ga   -1.1331526728570297E-04    1.8633840167308682E+00    1.0973105208464661E+01
N    1.2135659302356413E-03    1.8646200121946586E+00    1.2860819601322138E+01
Ga    2.5260643739501436E-03   -2.2188202643982683E-03    1.3490096921906295E+01
N   -6.0902539454725443E-03   -5.8039504058671814E-03    1.5379733707770532E+01
Ga   -3.9534201726186460E-03    1.8789381367150471E+00    1.6325631005263880E+01
N    1.6002797145720682E+00    9.1974670141063464E-01    1.7205895495758377E+01
N   -1.6143730155754619E+00    2.7958483271639385E+00   -1.4794540825694405E-02
Ga   -1.6143563338419971E+00    4.6603004433225115E+00    6.3658434443171474E-01
N   -1.6143410721726021E+00    4.6604587521177532E+00    2.5562914440029259E+00
Ga   -1.6143578169797121E+00    2.7959087053171188E+00    3.2434374256352037E+00
N   -1.6144907992196038E+00    2.7957235885065974E+00    5.1618430506498569E+00
Ga   -1.6143951785782691E+00    4.6602101195375463E+00    5.8352993010693393E+00
N   -1.6144041666680096E+00    4.6604391442030284E+00    7.7545559642826651E+00
Ga   -1.6140664746479967E+00    2.7961401545753009E+00    8.4209780565545902E+00
N   -1.6138683989555340E+00    2.7963484425517082E+00    1.0333995801039874E+01
Ga   -1.6139988618656917E+00    4.6607441427057106E+00    1.0974475820272765E+01
N   -1.6128702878165924E+00    4.6603628098512893E+00    1.2861521366264469E+01
Ga   -1.6149921544189063E+00    2.7949795337970862E+00    1.3486437013689699E+01
N   -1.6165684493451373E+00    2.8092043333915937E+00    1.5383223577229272E+01
Ga   -1.6133328804914953E+00    4.6723675804793094E+00    1.6307207089322148E+01
N   -2.5594733178891507E-02    3.7329181332816623E+00    1.7218787834007959E+01
N   -3.2286860581362671E+00    5.5919016245410109E+00   -1.4804495723549714E-02
Ga   -3.2286654373441612E+00    7.4563548498156047E+00    6.3660719353910367E-01
N   -3.2286750099852162E+00    7.4564879117390763E+00    2.5563068799541790E+00
Ga   -3.2286735492462477E+00    5.5919970893173332E+00    3.2434031125715039E+00
N   -3.2288259308672247E+00    5.5918030429375030E+00    5.1618521961414938E+00
Ga   -3.2286296095292872E+00    7.4562754521510852E+00    5.8353770712025659E+00
N   -3.2286480083992513E+00    7.4564962798100956E+00    7.7545511916243699E+00
Ga   -3.2284119403451021E+00    5.5920708121166696E+00    8.4208253414321348E+00
N   -3.2286440569922874E+00    5.5920453271259660E+00    1.0334183750393692E+01
Ga   -3.2284644191004435E+00    7.4569230363108465E+00    1.0971663520648660E+01
N   -3.2260182580804719E+00    7.4593236284460769E+00    1.2860625229007416E+01
Ga   -3.2265401785162977E+00    5.5964218907470009E+00    1.3493332147471138E+01
N   -3.2256592212208970E+00    5.5877194671940860E+00    1.5387259666101704E+01
Ga   -3.2407840112213671E+00    7.4845875294007955E+00    1.6324757576906123E+01
N   -1.6328864788631159E+00    6.5281717253396687E+00    1.7211000487016161E+01
N   -4.8429900513904522E+00    8.3879448293364476E+00   -1.4810398003713700E-02
Ga   -4.8429581445750927E+00    1.0252390863109120E+01    6.3658948997270082E-01
N   -4.8429577650875038E+00    1.0252499580078936E+01    2.5562968445768410E+00
Ga   -4.8429552702737890E+00    8.3880497694902783E+00    3.2433832341843201E+00
N   -4.8430484856554985E+00    8.3877622423636193E+00    5.1618614121037529E+00
Ga   -4.8430440563739907E+00    1.0252369937246213E+01    5.8353188448513276E+00
N   -4.8429511291294540E+00    1.0252454867982724E+01    7.7543283002644499E+00
Ga   -4.8429589001024995E+00    8.3881965405536292E+00    8.4205412207571371E+00
N   -4.8429641498041738E+00    8.3876981505657948E+00    1.0333797092781289E+01
Ga   -4.8434660316884237E+00    1.0252431208585799E+01    1.0972107106341829E+01
N   -4.8424396972219075E+00    1.0250811021733227E+01    1.2856734101803317E+01
Ga   -4.8441215108053104E+00    8.3884683902631831E+00    1.3487483855914968E+01
N   -4.8484514408006874E+00    8.3913612222972684E+00    1.5377981641516401E+01
Ga   -4.8474677795868031E+00    1.0247633882900967E+01    1.6329628591650575E+01
N   -3.2330166970878174E+00    9.3242316076368770E+00    1.7220588658363820E+01
N    3.2278198922407322E+00   -1.9475675597976086E-04   -1.4849430006184569E-02
Ga    3.2278539536640083E+00    1.8642443337132506E+00    6.3658708763596950E-01
N    3.2279151410840048E+00    1.8644014333504619E+00    2.5562972633348284E+00
Ga    3.2278152483301294E+00   -1.3643042283775300E-04    3.2434629640324961E+00
N    3.2277493764427017E+00   -3.4663295652437385E-04    5.1618465877432520E+00
Ga    3.2277546496532010E+00    1.8641523834469904E+00    5.8352653624464432E+00
N    3.2279190037050394E+00    1.8644803339543161E+00    7.7545961480448202E+00
Ga    3.2277288751497824E+00   -1.9133965033070951E-04    8.4206454053860398E+00
N    3.2277364474190398E+00   -4.2567516049014670E-04    1.0333672626313984E+01
Ga    3.2285397630076158E+00    1.8642505347448912E+00    1.0967679312979728E+01
N    3.2308395531842407E+00    1.8660171853437608E+00    1.2855399012426391E+01
Ga    3.2250096569543873E+00    2.6650329061975861E-03    1.3484210980231333E+01
N    3.2152059655502865E+00   -3.0016067437623351E-03    1.5375760749817728E+01
Ga    3.2239692301300038E+00    1.8859047173042722E+00    1.6326553567568023E+01
N    4.8284463255404679E+00    9.2846084494883208E-01    1.7201371412039830E+01
N    1.6135215743927549E+00    2.7958487024545211E+00   -1.4805460047250312E-02
Ga    1.6135432760665223E+00    4.6602976120682706E+00    6.3660097910133517E-01
N    1.6135755899498727E+00    4.6604508886632319E+00    2.5562871180549229E+00
Ga    1.6134850283644195E+00    2.7958998201519552E+00    3.2434567100433016E+00
N    1.6134838041614303E+00    2.7957398799300477E+00    5.1618566939207016E+00
Ga    1.6134712136638354E+00    4.6601550263689333E+00    5.8352430794721535E+00
N    1.6136493195985477E+00    4.6603815654053298E+00    7.7545977690543664E+00
Ga    1.6133603759232649E+00    2.7957285943247276E+00    8.4204437223550617E+00
N    1.6134499918065814E+00    2.7953572993279145E+00    1.0333475661455891E+01
Ga    1.6131558207275958E+00    4.6595825155390784E+00    1.0967888805959136E+01
N    1.6147563318067344E+00    4.6584996925314206E+00    1.2855965930287836E+01
Ga    1.6170468097094648E+00    2.7952330441657867E+00    1.3484213029628494E+01
N    1.6080493003485388E+00    2.7998945967612472E+00    1.5377656286941917E+01
Ga    1.6006449970021581E+00    4.6617038946505183E+00    1.6317009499416724E+01
N    3.2111160970873431E+00    3.7326200465059309E+00    1.7210241711148747E+01
N   -7.7681089607252408E-04    5.5918989932178214E+00   -1.4791158486137585E-02
Ga   -7.4187696263605153E-04    7.4563375316421894E+00    6.3655736761122783E-01
N   -7.3207746624838021E-04    7.4564880244462461E+00    2.5562739871919140E+00
Ga   -7.7605241912834320E-04    5.5919814826001000E+00    3.2434760873711279E+00
N   -8.3038017873941241E-04    5.5917978070636138E+00    5.1618656114731101E+00
Ga   -8.1250858776156152E-04    7.4562947182861947E+00    5.8353533498038450E+00
N   -6.6705684202146521E-04    7.4565331746559043E+00    7.7545938494572644E+00
Ga   -8.9829550157776762E-04    5.5920342586596430E+00    8.4202893154226590E+00
N   -6.7468035503676158E-04    5.5918810530934158E+00    1.0333974703692947E+01
Ga    2.1559113071905047E-04    7.4564113930861478E+00    1.0971041227509570E+01
N    2.9951187088622213E-03    7.4559827210759320E+00    1.2857813194354822E+01
Ga    3.0080223690734341E-03    5.5930666929278914E+00    1.3483325843222156E+01
N   -4.7075755856958029E-03    5.5893325092284831E+00    1.5376625044775617E+01
Ga   -5.0890869433193441E-03    7.4420781866259986E+00    1.6309791424572868E+01
N    1.6017022796526779E+00    6.5149845671717888E+00    1.7211137545989541E+01
N   -1.6150704645315201E+00    8.3879381515575577E+00   -1.4772656002278691E-02
Ga   -1.6150530706312165E+00    1.0252382241636310E+01    6.3660635694033874E-01
N   -1.6150237230813287E+00    1.0252535128584661E+01    2.5562844153551416E+00
Ga   -1.6150913425913616E+00    8.3880227814268036E+00    3.2434798181904783E+00
N   -1.6151726346172059E+00    8.3878292535081354E+00    5.1618642568831241E+00
Ga   -1.6150923853010528E+00    1.0252297595846334E+01    5.8353903561471148E+00
N   -1.6150177358483861E+00    1.0252558557289497E+01    7.7545063616138838E+00
Ga   -1.6149192733732194E+00    8.3881074297221190E+00    8.4211180345296803E+00
N   -1.6147219988621275E+00    8.3879392411950509E+00    1.0334445498442507E+01
Ga   -1.6152054795490609E+00    1.0252745605337038E+01    1.0973958561576564E+01
N   -1.6144447078090798E+00    1.0253840543211394E+01    1.2862045227971803E+01
Ga   -1.6094159935716024E+00    8.3891340937979635E+00    1.3488501570141716E+01
N   -1.6128720728825976E+00    8.3940978863288116E+00    1.5382453846265784E+01
Ga   -1.6390671470019031E+00    1.0271187469418612E+01    1.6321603652408829E+01
N   -2.5495207937511605E-02    9.2746120662179425E+00    1.7210401023566142E+01
N    6.4557266328138985E+00   -1.8924454475307013E-04   -1.4797470923012082E-02
Ga    6.4557520474864640E+00    1.8642422573389874E+00    6.3650081257856261E-01
N    6.4557765705831542E+00    1.8643984258498274E+00    2.5563177535735129E+00
Ga    6.4556714886781128E+00   -1.5515398566604523E-04    3.2434350119077493E+00
N    6.4556459544396017E+00   -2.9038931118707036E-04    5.1618415395194139E+00
Ga    6.4556807646691157E+00    1.8641180514349087E+00    5.8351985296957523E+00
N    6.4557759163641713E+00    1.8644100734057332E+00    7.7545957193943558E+00
Ga    6.4557352644697961E+00   -2.3639843523192545E-04    8.4210758563200887E+00
N    6.4557027658019210E+00   -2.3497679200498169E-04    1.0334450174386593E+01
Ga    6.4557104762265638E+00    1.8641001863115600E+00    1.0970649016860825E+01
N    6.4592795865386368E+00    1.8662303232643249E+00    1.2858314020976698E+01
Ga    6.4560508996642705E+00    4.1128844355932141E-03    1.3494206163943328E+01
N    6.4571540755762484E+00   -1.7074263490191248E-02    1.5391425453587329E+01
Ga    6.4460116718495826E+00    1.8903938967300542E+00    1.6318304227882056E+01
N    8.0520403105846619E+00    9.3703421804556553E-01    1.7213231712338910E+01
N    4.8414360460398020E+00    2.7958542110714020E+00   -1.4778280627822929E-02
Ga    4.8414342916389339E+00    4.6602908642158294E+00    6.3654639201766672E-01
N    4.8414627135279389E+00    4.6604408146643959E+00    2.5563283657330018E+00
Ga    4.8414160393315457E+00    2.7959035148169016E+00    3.2434356243810725E+00
N    4.8413849072967485E+00    2.7957667625087130E+00    5.1618711468394567E+00
Ga    4.8413626640759961E+00    4.6602136589020962E+00    5.8352295526631339E+00
N    4.8414302041213375E+00    4.6605266954703835E+00    7.7544615848155871E+00
Ga    4.8414568885575964E+00    2.7960013358942435E+00    8.4200038532169650E+00
N    4.8417852229965783E+00    2.7965158141927717E+00    1.0333578163454025E+01
Ga    4.8415033857321381E+00    4.6603845169759408E+00    1.0969186095093457E+01
N    4.8416695916284933E+00    4.6602935671478987E+00    1.2857432331922247E+01
Ga    4.8437809447983211E+00    2.7976842432668190E+00    1.3484204066173662E+01
N    4.8421995202979433E+00    2.8001238526314567E+00    1.5375818530982199E+01
Ga    4.8260485857442541E+00    4.6823017934965137E+00    1.6329021211439940E+01
N    6.4345083355497321E+00    3.7433447052362232E+00    1.7199769473570083E+01
N    3.2271356621261091E+00    5.5918996061030102E+00   -1.4801219274754914E-02
Ga    3.2271447223085215E+00    7.4563385590589890E+00    6.3654192930508402E-01
N    3.2271795542101418E+00    7.4564873129375329E+00    2.5562938555881036E+00
Ga    3.2270680295079099E+00    5.5919760357917765E+00    3.2433673101370570E+00
N    3.2270923571590271E+00    5.5917910214274906E+00    5.1618719218220690E+00
Ga    3.2270868091172660E+00    7.4562889248034283E+00    5.8352949810922459E+00
N    3.2271966392121207E+00    7.4564774947880910E+00    7.7544666989158149E+00
Ga    3.2270937654181466E+00    5.5921683529406039E+00    8.4204399305567694E+00
N    3.2272406262655582E+00    5.5920478138980068E+00    1.0334015811059585E+01
Ga    3.2267352866796291E+00    7.4568750599046343E+00    1.0972876574462965E+01
N    3.2275126794001077E+00    7.4562507537138814E+00    1.2862876468873461E+01
Ga    3.2271088602973208E+00    5.5900127500166370E+00    1.3483431193493210E+01
N    3.2198279523319902E+00    5.5909599716096521E+00    1.5377745739848528E+01
Ga    3.2250546335963577E+00    7.4727489253386752E+00    1.6337073288029838E+01
N    4.8257666856543366E+00    6.5370176599816610E+00    1.7220187688624868E+01
N    1.6128382101109566E+00    8.3879377290996491E+00   -1.4780253925083666E-02
Ga    1.6128475325720113E+00    1.0252377332472657E+01    6.3655076499055174E-01
N    1.6128729174319507E+00    1.0252516309048724E+01    2.5563219860178177E+00
Ga    1.6127963093590123E+00    8.3879918362087356E+00    3.2434591228695715E+00
N    1.6128087288524706E+00    8.3878193467961708E+00    5.1618422437011846E+00
Ga    1.6127823306978710E+00    1.0252293240013243E+01    5.8353954925309992E+00
N    1.6129033670102946E+00    1.0252586111328121E+01    7.7545938730813431E+00
Ga    1.6128793512433959E+00    8.3881346513842896E+00    8.4209585303616183E+00
N    1.6132873967534789E+00    8.3880375015912705E+00    1.0334248075368089E+01
Ga    1.6128878456515341E+00    1.0252368304324838E+01    1.0974413326267319E+01
N    1.6142997008218269E+00    1.0253109122364782E+01    1.2862445937103189E+01
Ga    1.6120042794681237E+00    8.3884312747459617E+00    1.3492576255072080E+01
N    1.6146865166329043E+00    8.4041194174078182E+00    1.5389215332572723E+01
Ga    1.6253992210030273E+00    1.0273636534186336E+01    1.6298403433128360E+01
N    3.1940729177046530E+00    9.3242883277802111E+00    1.7225606434569912E+01
N    9.6836401820059823E+00   -1.9815909873104840E-04   -1.4825697828413888E-02
Ga    9.6836635494914844E+00    1.8642337391264734E+00    6.3661167522131801E-01
N    9.6836219332044262E+00    1.8643741053371468E+00    2.5562825284824813E+00
Ga    9.6836299722746109E+00   -1.2341701873229232E-04    3.2434236921739927E+00
N    9.6835305264992577E+00   -3.0312438655847153E-04    5.1618709636986155E+00
Ga    9.6836987001707229E+00    1.8641735777311952E+00    5.8353903224948249E+00
N    9.6837822448138624E+00    1.8644176196328666E+00    7.7545580752362850E+00
Ga    9.6837469897336703E+00   -3.0710998123816333E-04    8.4207387126471698E+00
N    9.6839057413207730E+00   -2.0499304893867090E-04    1.0334080506216791E+01
Ga    9.6846664967189078E+00    1.8644234038690137E+00    1.0966770696724298E+01
N    9.6869729232968549E+00    1.8649544921966363E+00    1.2854760077517060E+01
Ga    9.6895355621158465E+00    2.5816017556669572E-03    1.3482921538111459E+01
N    9.6808762438480507E+00    4.2332256079663936E-03    1.5371348331851776E+01
Ga    9.6798864214500995E+00    1.8659470256857182E+00    1.6313147421766487E+01
N    1.1287309078677234E+01    9.3432372481468473E-01    1.7209072530885052E+01
N    8.0693464610194532E+00    2.7958470050123556E+00   -1.4783083419776069E-02
Ga    8.0693573146681370E+00    4.6602825167021935E+00    6.3655919589679888E-01
N    8.0693362311805359E+00    4.6604225766718956E+00    2.5563085863997883E+00
Ga    8.0693367167168173E+00    2.7959183339959224E+00    3.2434194136137524E+00
N    8.0692649643160159E+00    2.7957354868032391E+00    5.1619043739532398E+00
Ga    8.0693676035559712E+00    4.6602163196381117E+00    5.8352208269837629E+00
N    8.0693927126300800E+00    4.6604393769576031E+00    7.7544985705281171E+00
Ga    8.0693612015034706E+00    2.7957765240436689E+00    8.4200423188069831E+00
N    8.0696593306302145E+00    2.7955624950553912E+00    1.0333157331063344E+01
Ga    8.0700690722633759E+00    4.6599272092191937E+00    1.0969612301400065E+01
N    8.0742102767499020E+00    4.6582646045020573E+00    1.2857987206699940E+01
Ga    8.0752591157266806E+00    2.7946519876581335E+00    1.3486576425507952E+01
N    8.0725262397165860E+00    2.7942115190700050E+00    1.5377342814678105E+01
Ga    8.0573299805499552E+00    4.6738427832131517E+00    1.6319250230028299E+01
N    9.6523010010641013E+00    3.7114288676730296E+00    1.7212510122116306E+01
N    6.4550392523645863E+00    5.5918891209972577E+00   -1.4791076002448824E-02
Ga    6.4550582266723247E+00    7.4563336027535723E+00    6.3653064541410564E-01
N    6.4550521936925529E+00    7.4564654129852794E+00    2.5563661852898658E+00
Ga    6.4550350727917323E+00    5.5919266250772761E+00    3.2433759527268267E+00
N    6.4549680955143875E+00    5.5917922299773313E+00    5.1618985572608089E+00
Ga    6.4549900698834932E+00    7.4563077647288409E+00    5.8353023663631296E+00
N    6.4550300938704366E+00    7.4564492592734615E+00    7.7546003158044989E+00
Ga    6.4549917614025443E+00    5.5919466707250001E+00    8.4200785791292159E+00
N    6.4551491468525048E+00    5.5910653465757578E+00    1.0333427074900680E+01
Ga    6.4553462421532117E+00    7.4555658542525771E+00    1.0968428596805532E+01
N    6.4573969366800306E+00    7.4498684605203520E+00    1.2856694155102657E+01
Ga    6.4573460109017855E+00    5.5871534610534992E+00    1.3482565206930554E+01
N    6.4495904096292174E+00    5.5837617061589420E+00    1.5376226701668058E+01
Ga    6.4436994245647252E+00    7.4722931383211613E+00    1.6329469267633286E+01
N    8.0455081153369274E+00    6.5204951103634965E+00    1.7205742057177250E+01
N    4.8407422410088241E+00    8.3879387068731646E+00   -1.4789167010971419E-02
Ga    4.8407626758461948E+00    1.0252382822354509E+01    6.3655249809002090E-01
N    4.8407618778373926E+00    1.0252477710722445E+01    2.5563142570681743E+00
Ga    4.8406986357702388E+00    8.3880265500015980E+00    3.2433898806610357E+00
N    4.8406770683903213E+00    8.3877693509435325E+00    5.1618390458930019E+00
Ga    4.8407627411721892E+00    1.0252299179786171E+01    5.8352679014994306E+00
N    4.8407248063674642E+00    1.0252409733385004E+01    7.7544711670630049E+00
Ga    4.8406131581953309E+00    8.3881182040066964E+00    8.4206012999582676E+00
N    4.8405732060949420E+00    8.3873467717391978E+00    1.0334316862385906E+01
Ga    4.8417403594903208E+00    1.0252290397093796E+01    1.0973385732061622E+01
N    4.8434301087576062E+00    1.0251081949806599E+01    1.2857754617189814E+01
Ga    4.8456845365846357E+00    8.3868640885858223E+00    1.3486918107305677E+01
N    4.8395217648237443E+00    8.3954000872441448E+00    1.5380273115294505E+01
Ga    4.8214248209369250E+00    1.0258059241051850E+01    1.6317827099862271E+01
N    6.4327566505195257E+00    9.3330866664656007E+00    1.7216190948831798E+01
H   -6.5071337464159401E-05   -1.0198523560573258E-04   -1.0404862703972821E+00
H   -1.6143631865311656E+00    2.7959530166729718E+00   -1.0404675004607300E+00
H   -3.2286676705983934E+00    5.5920057915298829E+00   -1.0404687827297510E+00
H   -4.8429702987455094E+00    8.3880543406268675E+00   -1.0404494223655503E+00
H    3.2278427360228203E+00   -1.0783600753126240E-04   -1.0404264773883509E+00
H    1.6135482008081881E+00    2.7959407037179518E+00   -1.0404563746488755E+00
H   -7.6374631916728574E-04    5.5919945942538885E+00   -1.0404878324443647E+00
H   -1.6150679607925789E+00    8.3880537256612691E+00   -1.0404585758485405E+00
H    6.4557497532639951E+00   -1.0634600885134999E-04   -1.0404617435677572E+00
H    4.8414570410542739E+00    2.7959524162961746E+00   -1.0404808348423142E+00
H    3.2271554294732994E+00    5.5919941741527461E+00   -1.0404497437071918E+00
H    1.6128476318285674E+00    8.3880604391436737E+00   -1.0404807831699510E+00
H    9.6836594351975673E+00   -1.0754644293046268E-04   -1.0404323958811064E+00
H    8.0693659733973071E+00    2.7959432968761289E+00   -1.0404869821937097E+00
H    6.4550573894261039E+00    5.5919978210986976E+00   -1.0404509653835972E+00
H    4.8407737124544896E+00    8.3880452086946011E+00   -1.0404684493327030E+00
     &END COORD
     &KIND H
       BASIS_SET DZVP-MOLOPT-SR-GTH-q1
       POTENTIAL GTH-PBE-q1
       &POTENTIAL
 1
  0.2000000000000000E+00 2 -0.4178900440000000E+01  0.7244633100000000E+00
 0
         # Potential name:  GTH-PBE-Q1  for symbol:  H
         # Potential read from the potential filename: GTH_POTENTIALS
       &END POTENTIAL
     &END KIND
     &KIND N
       BASIS_SET DZVP-MOLOPT-SR-GTH
       POTENTIAL GTH-PBE-q5
       &POTENTIAL
 2 3
  0.2837905100000000E+00 2 -0.1241522559000000E+02  0.1868095920000000E+01
 2
  0.2554050000000000E+00 1  0.1363026257000000E+02
  0.2454945300000000E+00 0
         # Potential name:  GTH-PBE-Q5  for symbol:  N
         # Potential read from the potential filename: GTH_POTENTIALS
       &END POTENTIAL
     &END KIND
     &KIND Ga
       BASIS_SET DZVP-MOLOPT-SR-GTH
       POTENTIAL GTH-PBE-q13
       &POTENTIAL
 2 1 10
  0.4900000000000000E+00 0
 3
  0.4167772300000000E+00 3  0.1047568975000000E+02 -0.4921768140000000E+01  0.8707055900000000E+00
  0.7770178090000000E+01 -0.2248152160000000E+01
  0.1784415450000000E+01
  0.5696265200000000E+00 2  0.1777985340000000E+01  0.1958597600000000E+00
 -0.2317443900000000E+00
  0.2381265000000000E+00 1 -0.1624868022000000E+02
         # Potential name:  GTH-PBE-Q13  for symbol:  GA
         # Potential read from the potential filename: GTH_POTENTIALS
       &END POTENTIAL
     &END KIND
     &TOPOLOGY
       NUMBER_OF_ATOMS  256
       MULTIPLE_UNIT_CELL  1 1 1
     &END TOPOLOGY
   &END SUBSYS
 &END FORCE_EVAL
