 # Version information for this restart file 
 # current date 2019-05-15 22:13:41.479
 # current working dir /lustre03/project/6004141/rzk/GaN-carbene/00-Surface/00-Preoptimization/334-native/Trial3
 # Program compiled at                              Sun Apr  7 00:48:11 EDT 2019
 # Program compiled on                          beluga2.int.ets1.calculquebec.ca
 # Program compiled for                        Beluga-Linux-x86-64-intel-openmpi
 # Source code revision number                                         svn:18619
 &GLOBAL
   PRINT_LEVEL  LOW
   PROJECT_NAME TEST
   RUN_TYPE  CELL_OPT
 &END GLOBAL
 &MOTION
   &CELL_OPT
     MAX_ITER  100
     STEP_START_VAL  1
     EXTERNAL_PRESSURE     1.0000000000000000E+00
     KEEP_ANGLES  T
     KEEP_SYMMETRY  T
     CONSTRAINT  Z
     PRESSURE_TOLERANCE     1.0000000000000000E+02
   &END CELL_OPT
 &END MOTION
 &FORCE_EVAL
   METHOD  QS
   STRESS_TENSOR  ANALYTICAL
   &DFT
     BASIS_SET_FILE_NAME BASIS_MOLOPT
     POTENTIAL_FILE_NAME GTH_POTENTIALS
     &SCF
       MAX_SCF  70
       EPS_SCF     9.9999999999999995E-07
       &OT  T
         PRECONDITIONER  FULL_ALL
       &END OT
       &OUTER_SCF  T
         OPTIMIZER  NONE
         EPS_SCF     9.9999999999999995E-07
         MAX_SCF  10
       &END OUTER_SCF
       &PRINT
         &RESTART  OFF
           BACKUP_COPIES  1
           &EACH
             JUST_ENERGY  0
             QS_SCF  0
             MD  20
           &END EACH
         &END RESTART
       &END PRINT
     &END SCF
     &ALMO_SCF
       EPS_FILTER     9.9999999999999994E-12
       ALMO_SCF_GUESS  ATOMIC
       MO_OVERLAP_INV_ALG  DENSE_CHOLESKY
       ALMO_EXTRAPOLATION_ORDER  4
       XALMO_EXTRAPOLATION_ORDER  4
       ALMO_ALGORITHM  SKIP
       XALMO_TRIAL_WF  SIMPLE
       DELOCALIZE_METHOD  XALMO_SCF
       XALMO_R_CUTOFF_FACTOR     1.8000000000000000E+00
       &ALMO_OPTIMIZER_DIIS
         MAX_ITER  100
         EPS_ERROR     1.0000000000000001E-05
         N_DIIS  5
       &END ALMO_OPTIMIZER_DIIS
       &ALMO_OPTIMIZER_PCG
         MAX_ITER  50
         EPS_ERROR     1.0000000000000001E-05
         LIN_SEARCH_EPS_ERROR     5.0000000000000003E-02
         LIN_SEARCH_STEP_SIZE_GUESS     5.0000000000000001E-03
         CONJUGATOR  DAI_YUAN
         MAX_ITER_OUTER_LOOP  10
       &END ALMO_OPTIMIZER_PCG
       &XALMO_OPTIMIZER_PCG
         MAX_ITER  1000
         EPS_ERROR     1.0000000000000001E-05
         LIN_SEARCH_EPS_ERROR     1.0000000000000001E-01
         LIN_SEARCH_STEP_SIZE_GUESS     1.0000000000000000E-02
         CONJUGATOR  DAI_YUAN
         PRECOND_FILTER_THRESHOLD     1.0000000000000000E-03
         MAX_ITER_OUTER_LOOP  0
       &END XALMO_OPTIMIZER_PCG
       &MATRIX_ITERATE
         EPS_TARGET_FACTOR     1.0000000000000000E+01
       &END MATRIX_ITERATE
     &END ALMO_SCF
     &QS
       EPS_DEFAULT     1.0000000000000000E-13
       ALMO_SCF  F
       METHOD  GPW
     &END QS
     &MGRID
       NGRIDS  5
       CUTOFF     8.0000000000000000E+02
     &END MGRID
     &XC
       DENSITY_CUTOFF     1.0000000000000000E-10
       GRADIENT_CUTOFF     1.0000000000000000E-10
       TAU_CUTOFF     1.0000000000000000E-10
       &XC_FUNCTIONAL  NO_SHORTCUT
         &PBE  T
         &END PBE
       &END XC_FUNCTIONAL
       &VDW_POTENTIAL
         POTENTIAL_TYPE  PAIR_POTENTIAL
         &PAIR_POTENTIAL
           R_CUTOFF     1.0000000000000002E+01
           TYPE  DFTD3
           PARAMETER_FILE_NAME dftd3.dat
           REFERENCE_FUNCTIONAL PBE
           EPS_CN     9.9999999999999995E-07
           CALCULATE_C9_TERM  T
           REFERENCE_C9_TERM  T
           LONG_RANGE_CORRECTION  F
           VERBOSE_OUTPUT  F
         &END PAIR_POTENTIAL
       &END VDW_POTENTIAL
     &END XC
   &END DFT
   &SUBSYS
     &CELL
       A     9.6144699012766122E+00    0.0000000000000000E+00    0.0000000000000000E+00
       B    -4.8081234555521561E+00    8.3279141140799684E+00    0.0000000000000000E+00
       C     0.0000000000000000E+00    0.0000000000000000E+00    3.0744000000000000E+01
       MULTIPLE_UNIT_CELL  1 1 1
       &CELL_REF
         A     9.5580000000000016E+00    0.0000000000000000E+00    0.0000000000000000E+00
         B    -4.7790000000000008E+00    8.2774708093716640E+00    0.0000000000000000E+00
         C     0.0000000000000000E+00    0.0000000000000000E+00    3.0744000000000000E+01
         MULTIPLE_UNIT_CELL  1 1 1
       &END CELL_REF
     &END CELL
     &COORD
Ga    4.2441419354194944E-03   -5.4719021056476682E-04   -5.0945416983897603E-03
N   -3.0297060691074377E-03    1.8512023206860311E+00    6.3731198267198785E-01
Ga   -1.0807970006170462E-03    1.8511314530304745E+00    2.6018633322728948E+00
N    3.4438193800253279E-04    1.1135334479140031E-04    3.2321005862250094E+00
Ga    4.4049286301307129E-05    1.6677900758285336E-05    5.1907352557631636E+00
N   -1.3562960428823435E-04    1.8506117163738265E+00    5.8258480615760444E+00
Ga   -1.9958383872828060E-04    1.8506375209306123E+00    7.7834553989705171E+00
N    2.0842624514631830E-05   -2.6021616383177223E-06    8.4191818391778028E+00
Ga    1.0005896678620936E-05    7.4007626448107282E-06    1.0375336036643041E+01
N   -2.0344866829432437E-04    1.8506301806386125E+00    1.1012379298682662E+01
Ga   -1.9170228297565647E-04    1.8507044174831639E+00    1.2969033169222969E+01
N    5.0019866278828248E-06    6.0177113525790695E-06    1.3605374706161802E+01
Ga    1.4731920810215007E-05   -6.3331083628531638E-05    1.5561246497648568E+01
N   -1.7514608983866070E-04    1.8507697220925343E+00    1.6195213056022816E+01
Ga   -1.3065549291858036E-04    1.8508327058579561E+00    1.8166213533509460E+01
N    1.6444641394652522E-05    4.4903319561487603E-05    1.8788195347147994E+01
Ga   -1.6059499093146283E+00    2.7808577947933455E+00   -2.7265435300984986E-03
N   -1.6018213634207714E+00    4.6282325032718221E+00    6.4128752786635446E-01
Ga   -1.6024231194355849E+00    4.6269785821333898E+00    2.6009267906412008E+00
N   -1.6028212225857914E+00    2.7759530185436851E+00    3.2323864421625945E+00
Ga   -1.6026158696044779E+00    2.7760316673773442E+00    5.1905605586292429E+00
N   -1.6029815205742741E+00    4.6266192703394715E+00    5.8258462135878935E+00
Ga   -1.6028963439363486E+00    4.6266107112323036E+00    7.7834237650945806E+00
N   -1.6027039768095068E+00    2.7759584040858400E+00    8.4191699858935944E+00
Ga   -1.6027064512053444E+00    2.7759648019675205E+00    1.0375362331959508E+01
N   -1.6028975652609032E+00    4.6266200676721327E+00    1.1012374050115541E+01
Ga   -1.6029582421652777E+00    4.6265979664463162E+00    1.2969063879709864E+01
N   -1.6026976399946549E+00    2.7759744782835050E+00    1.3605298667429549E+01
Ga   -1.6027666644191763E+00    2.7760100467715687E+00    1.5561157070635343E+01
N   -1.6029342447254487E+00    4.6265735224825359E+00    1.6195185585280949E+01
Ga   -1.6031033664463696E+00    4.6266323920993191E+00    1.8166147441181575E+01
N   -1.6027475749652420E+00    2.7759528757662251E+00    1.8788210953755211E+01
Ga   -3.2027027842086939E+00    5.5460321713723504E+00   -3.5898490818630940E-03
N   -3.2065282357680833E+00    7.4014313945733106E+00    6.3762418656344144E-01
Ga   -3.2060453534299311E+00    7.4025324486037034E+00    2.6016447769122131E+00
N   -3.2059035348148464E+00    5.5518034063325734E+00    3.2318497761303084E+00
Ga   -3.2053584779043467E+00    5.5518984768446451E+00    5.1908062874181473E+00
N   -3.2055562485523792E+00    7.4025591995593691E+00    5.8257781573442111E+00
Ga   -3.2056151962078285E+00    7.4025935398797191E+00    7.7834842725870397E+00
N   -3.2054309380505193E+00    5.5519413773954795E+00    8.4191532250502323E+00
Ga   -3.2054159506660085E+00    5.5519408775466736E+00    1.0375395509641017E+01
N   -3.2056309396268543E+00    7.4025950524965189E+00    1.1012373019789212E+01
Ga   -3.2055747549719182E+00    7.4025514587881895E+00    1.2969060131062870E+01
N   -3.2054180421373459E+00    5.5519438467961688E+00    1.3605272162431477E+01
Ga   -3.2053771948043952E+00    5.5519575553557718E+00    1.5561147077016388E+01
N   -3.2056329522752960E+00    7.4025347045513259E+00    1.6195183494133303E+01
Ga   -3.2054768198848755E+00    7.4024186313667908E+00    1.8166161948978090E+01
N   -3.2054142916217083E+00    5.5519277959272317E+00    1.8788203423136981E+01
Ga    3.2071251465410331E+00    1.5286555848165731E-03   -4.9826514379431820E-03
N    3.2036985594627634E+00    1.8525472284897506E+00    6.3760548214491986E-01
Ga    3.2038619313783276E+00    1.8508761905543174E+00    2.6015346411053923E+00
N    3.2044386091206407E+00    4.0425803116397028E-04    3.2318344147637021E+00
Ga    3.2048353715240525E+00   -2.3502218007937704E-05    5.1908224799641838E+00
N    3.2047269274455554E+00    1.8506635381796726E+00    5.8256916613802199E+00
Ga    3.2046327791052667E+00    1.8506424756704729E+00    7.7835149691176939E+00
N    3.2048060348827749E+00    1.7532477431179187E-05    8.4191665860915190E+00
Ga    3.2048342884959755E+00   -1.8689581981359969E-06    1.0375392213980756E+01
N    3.2046492291809292E+00    1.8506608603539474E+00    1.1012380100443565E+01
Ga    3.2045682382171448E+00    1.8506358737354607E+00    1.2969042772784837E+01
N    3.2048118615083738E+00    1.9330396355077542E-06    1.3605290467317637E+01
Ga    3.2048643313924758E+00   -4.0506307717575076E-05    1.5561188602098824E+01
N    3.2044963480224706E+00    1.8506727973236254E+00    1.6195193608950539E+01
Ga    3.2044238648204715E+00    1.8505867972143688E+00    1.8166174681722008E+01
N    3.2048496070862238E+00   -3.7536767461632989E-06    1.8788280321427017E+01
Ga    1.6031778232128946E+00    2.7744074127558482E+00   -4.0932949900422434E-03
N    1.6011682283312298E+00    4.6258374445795774E+00    6.4057471215859396E-01
Ga    1.6008560161218073E+00    4.6271861229816293E+00    2.6012210190352332E+00
N    1.6020376819859732E+00    2.7754589861847543E+00    3.2321085919403676E+00
Ga    1.6020007661182021E+00    2.7759533093878739E+00    5.1907143316713711E+00
N    1.6020517236342107E+00    4.6265119321643615E+00    5.8259167725050833E+00
Ga    1.6019307643990419E+00    4.6266212370481057E+00    7.7833958148014899E+00
N    1.6021334686966811E+00    2.7759415110280115E+00    8.4191768068027013E+00
Ga    1.6021160211827825E+00    2.7759633057607451E+00    1.0375391730965511E+01
N    1.6019170249616272E+00    4.6266275509774912E+00    1.1012379449684392E+01
Ga    1.6019620267449550E+00    4.6265882423631606E+00    1.2969059322246986E+01
N    1.6021150536851991E+00    2.7759629725130384E+00    1.3605285097745464E+01
Ga    1.6021537700338118E+00    2.7760025682519904E+00    1.5561133964479444E+01
N    1.6019734293271313E+00    4.6265306451022346E+00    1.6195199266566107E+01
Ga    1.6020488654189420E+00    4.6264948549251725E+00    1.8166152918477405E+01
N    1.6021379615868743E+00    2.7759492970713171E+00    1.8788228812876113E+01
Ga    2.5138933021050325E-03    5.5520313492842961E+00   -1.9607531842288561E-03
N   -2.6265825533188969E-03    7.4019441532929564E+00    6.4060081376136224E-01
Ga   -9.0145367612217309E-04    7.4019374590518670E+00    2.6009832010856528E+00
N   -3.8441376422079494E-04    5.5520102409010921E+00    3.2332189995739959E+00
Ga   -4.2715403345202263E-04    5.5519364554262802E+00    5.1902228523831822E+00
N   -8.5565077762997160E-04    7.4026831673961082E+00    5.8258780644438319E+00
Ga   -7.7771945009631207E-04    7.4025913491454638E+00    7.7834144483784753E+00
N   -5.9189020079840923E-04    5.5519386756555118E+00    8.4191883097879785E+00
Ga   -5.8666154006386400E-04    5.5519491415808631E+00    1.0375353483180707E+01
N   -7.9438269002236276E-04    7.4025851288906157E+00    1.1012377434397443E+01
Ga   -7.6647489472409566E-04    7.4026453968708239E+00    1.2969049954167907E+01
N   -5.8790058525957478E-04    5.5519450322785371E+00    1.3605343719560532E+01
Ga   -6.1567055890853384E-04    5.5519604956962931E+00    1.5561258263301996E+01
N   -7.6713970052734231E-04    7.4027100543117106E+00    1.6195180437096500E+01
Ga   -7.6740975111086983E-04    7.4027817252714012E+00    1.8166129620100502E+01
N   -5.6232272943022616E-04    5.5519356236866511E+00    1.8788221528432874E+01
Ga    6.4070557368476599E+00   -2.3612739616417442E-03   -3.5975481125347739E-03
N    6.4105187317949719E+00    1.8489252731415593E+00    6.3941351669979718E-01
Ga    6.4097323261229899E+00    1.8502533896337900E+00    2.6012143169595872E+00
N    6.4095662931979520E+00   -6.6165574311186418E-05    3.2325769334584442E+00
Ga    6.4096866221821278E+00   -1.9971431069822578E-04    5.1904749340405374E+00
N    6.4093886369681767E+00    1.8506934279842897E+00    5.8257358443056235E+00
Ga    6.4094581794849610E+00    1.8506393045978562E+00    7.7834930168961183E+00
N    6.4096588585486138E+00    1.4220091032416425E-05    8.4191916357003507E+00
Ga    6.4096398723512937E+00    2.4742872641500114E-06    1.0375346960408976E+01
N    6.4094327519409378E+00    1.8506639756992573E+00    1.1012375931437239E+01
Ga    6.4095020277769601E+00    1.8506003782772373E+00    1.2969057184912584E+01
N    6.4096437616531556E+00   -5.5698427060924673E-06    1.3605260707238234E+01
Ga    6.4096163883744932E+00   -9.6175592843041477E-06    1.5561133587258917E+01
N    6.4095508169544573E+00    1.8505907801419224E+00    1.6195197527676150E+01
Ga    6.4095684517103715E+00    1.8505017533727528E+00    1.8166157662196362E+01
N    6.4096604870067599E+00   -4.5689457877018335E-06    1.8788251784424368E+01
Ga    4.8132299204442281E+00    2.7747031196966021E+00   -4.1584070727489035E-03
N    4.8035251143124391E+00    4.6281588134779339E+00    6.3638561322750320E-01
Ga    4.8059410537675120E+00    4.6272671377791008E+00    2.6018404713378089E+00
N    4.8070295207952567E+00    2.7761339138392027E+00    3.2312255489537267E+00
Ga    4.8070597190526332E+00    2.7759586198883124E+00    5.1910406218430545E+00
N    4.8067872951141606E+00    4.6265361910463625E+00    5.8256652824102266E+00
Ga    4.8067371973433373E+00    4.6266221143789101E+00    7.7835404188788511E+00
N    4.8069446935314977E+00    2.7759772564616321E+00    8.4191415686348279E+00
Ga    4.8069440781261745E+00    2.7759684680098018E+00    1.0375359026509161E+01
N    4.8067342216505642E+00    4.6265958553668272E+00    1.1012375235617956E+01
Ga    4.8067478545626985E+00    4.6266823378858533E+00    1.2969053422275694E+01
N    4.8069293677317564E+00    2.7759704331872737E+00    1.3605373953190322E+01
Ga    4.8069567001991622E+00    2.7759430739517330E+00    1.5561255531629625E+01
N    4.8067641392214746E+00    4.6266863636816344E+00    1.6195218374056349E+01
Ga    4.8068305124224215E+00    4.6268136140868847E+00    1.8166195685714566E+01
N    4.8069199891282244E+00    2.7759527888268014E+00    1.8788179010684441E+01
Ga    3.2024211057575456E+00    5.5529773639872566E+00   -3.3942120108611880E-03
N    3.2040486079219765E+00    7.4041235864140367E+00    6.3922849683557814E-01
Ga    3.2032026079335298E+00    7.4028089200154374E+00    2.6014943847214393E+00
N    3.2043825297686905E+00    5.5520485072191628E+00    3.2323131701159098E+00
Ga    3.2040871594103075E+00    5.5520764716229687E+00    5.1906238397210753E+00
N    3.2041400283378003E+00    7.4025918561216031E+00    5.8258947287205327E+00
Ga    3.2040441430523150E+00    7.4025957685062114E+00    7.7834289831227590E+00
N    3.2042681451652513E+00    5.5519307840208256E+00    8.4191785771184637E+00
Ga    3.2042350224561216E+00    5.5519380103797085E+00    1.0375360320865209E+01
N    3.2040477815862367E+00    7.4025893041766029E+00    1.1012374145868666E+01
Ga    3.2039734448276778E+00    7.4025776969032533E+00    1.2969068269572610E+01
N    3.2042446095367745E+00    5.5519299770558295E+00    1.3605302996525142E+01
Ga    3.2042075253919631E+00    5.5519602780509238E+00    1.5561162129277387E+01
N    3.2039362554471409E+00    7.4025610742110581E+00    1.6195197322325328E+01
Ga    3.2038347770093885E+00    7.4025261578686994E+00    1.8166166039284281E+01
N    3.2042474495390860E+00    5.5519332687603447E+00    1.8788203151648382E+01
     &END COORD
     &KIND N
       BASIS_SET DZVP-MOLOPT-SR-GTH
       POTENTIAL GTH-PBE-q5
       &POTENTIAL
 2 3
  0.2837905100000000E+00 2 -0.1241522559000000E+02  0.1868095920000000E+01
 2
  0.2554050000000000E+00 1  0.1363026257000000E+02
  0.2454945300000000E+00 0
         # Potential name:  GTH-PBE-Q5  for symbol:  N
         # Potential read from the potential filename: GTH_POTENTIALS
       &END POTENTIAL
     &END KIND
     &KIND Ga
       BASIS_SET DZVP-MOLOPT-SR-GTH
       POTENTIAL GTH-PBE-q13
       &POTENTIAL
 2 1 10
  0.4900000000000000E+00 0
 3
  0.4167772300000000E+00 3  0.1047568975000000E+02 -0.4921768140000000E+01  0.8707055900000000E+00
  0.7770178090000000E+01 -0.2248152160000000E+01
  0.1784415450000000E+01
  0.5696265200000000E+00 2  0.1777985340000000E+01  0.1958597600000000E+00
 -0.2317443900000000E+00
  0.2381265000000000E+00 1 -0.1624868022000000E+02
         # Potential name:  GTH-PBE-Q13  for symbol:  GA
         # Potential read from the potential filename: GTH_POTENTIALS
       &END POTENTIAL
     &END KIND
     &TOPOLOGY
       COORD_FILE_NAME 334-native.xyz
       COORD_FILE_FORMAT  XYZ
       NUMBER_OF_ATOMS  144
       MULTIPLE_UNIT_CELL  1 1 1
     &END TOPOLOGY
   &END SUBSYS
 &END FORCE_EVAL
