 # Version information for this restart file 
 # current date 2019-05-16 00:54:29.484
 # current working dir /lustre03/project/6004141/rzk/GaN-carbene/00-Surface/00-Preoptimization/334-native/Trial3
 # Program compiled at                              Sun Apr  7 00:48:11 EDT 2019
 # Program compiled on                          beluga2.int.ets1.calculquebec.ca
 # Program compiled for                        Beluga-Linux-x86-64-intel-openmpi
 # Source code revision number                                         svn:18619
 &GLOBAL
   PRINT_LEVEL  LOW
   PROJECT_NAME TEST
   RUN_TYPE  CELL_OPT
 &END GLOBAL
 &MOTION
   &CELL_OPT
     MAX_ITER  100
     STEP_START_VAL  7
     EXTERNAL_PRESSURE     1.0000000000000000E+00
     KEEP_ANGLES  T
     KEEP_SYMMETRY  T
     CONSTRAINT  Z
     PRESSURE_TOLERANCE     1.0000000000000000E+02
   &END CELL_OPT
 &END MOTION
 &FORCE_EVAL
   METHOD  QS
   STRESS_TENSOR  ANALYTICAL
   &DFT
     BASIS_SET_FILE_NAME BASIS_MOLOPT
     POTENTIAL_FILE_NAME GTH_POTENTIALS
     &SCF
       MAX_SCF  70
       EPS_SCF     9.9999999999999995E-07
       &OT  T
         PRECONDITIONER  FULL_ALL
       &END OT
       &OUTER_SCF  T
         OPTIMIZER  NONE
         EPS_SCF     9.9999999999999995E-07
         MAX_SCF  10
       &END OUTER_SCF
       &PRINT
         &RESTART  OFF
           BACKUP_COPIES  1
           &EACH
             JUST_ENERGY  0
             QS_SCF  0
             MD  20
           &END EACH
         &END RESTART
       &END PRINT
     &END SCF
     &ALMO_SCF
       EPS_FILTER     9.9999999999999994E-12
       ALMO_SCF_GUESS  ATOMIC
       MO_OVERLAP_INV_ALG  DENSE_CHOLESKY
       ALMO_EXTRAPOLATION_ORDER  4
       XALMO_EXTRAPOLATION_ORDER  4
       ALMO_ALGORITHM  SKIP
       XALMO_TRIAL_WF  SIMPLE
       DELOCALIZE_METHOD  XALMO_SCF
       XALMO_R_CUTOFF_FACTOR     1.8000000000000000E+00
       &ALMO_OPTIMIZER_DIIS
         MAX_ITER  100
         EPS_ERROR     1.0000000000000001E-05
         N_DIIS  5
       &END ALMO_OPTIMIZER_DIIS
       &ALMO_OPTIMIZER_PCG
         MAX_ITER  50
         EPS_ERROR     1.0000000000000001E-05
         LIN_SEARCH_EPS_ERROR     5.0000000000000003E-02
         LIN_SEARCH_STEP_SIZE_GUESS     5.0000000000000001E-03
         CONJUGATOR  DAI_YUAN
         MAX_ITER_OUTER_LOOP  10
       &END ALMO_OPTIMIZER_PCG
       &XALMO_OPTIMIZER_PCG
         MAX_ITER  1000
         EPS_ERROR     1.0000000000000001E-05
         LIN_SEARCH_EPS_ERROR     1.0000000000000001E-01
         LIN_SEARCH_STEP_SIZE_GUESS     1.0000000000000000E-02
         CONJUGATOR  DAI_YUAN
         PRECOND_FILTER_THRESHOLD     1.0000000000000000E-03
         MAX_ITER_OUTER_LOOP  0
       &END XALMO_OPTIMIZER_PCG
       &MATRIX_ITERATE
         EPS_TARGET_FACTOR     1.0000000000000000E+01
       &END MATRIX_ITERATE
     &END ALMO_SCF
     &QS
       EPS_DEFAULT     1.0000000000000000E-13
       ALMO_SCF  F
       METHOD  GPW
     &END QS
     &MGRID
       NGRIDS  5
       CUTOFF     8.0000000000000000E+02
     &END MGRID
     &XC
       DENSITY_CUTOFF     1.0000000000000000E-10
       GRADIENT_CUTOFF     1.0000000000000000E-10
       TAU_CUTOFF     1.0000000000000000E-10
       &XC_FUNCTIONAL  NO_SHORTCUT
         &PBE  T
         &END PBE
       &END XC_FUNCTIONAL
       &VDW_POTENTIAL
         POTENTIAL_TYPE  PAIR_POTENTIAL
         &PAIR_POTENTIAL
           R_CUTOFF     1.0000000000000002E+01
           TYPE  DFTD3
           PARAMETER_FILE_NAME dftd3.dat
           REFERENCE_FUNCTIONAL PBE
           EPS_CN     9.9999999999999995E-07
           CALCULATE_C9_TERM  T
           REFERENCE_C9_TERM  T
           LONG_RANGE_CORRECTION  F
           VERBOSE_OUTPUT  F
         &END PAIR_POTENTIAL
       &END VDW_POTENTIAL
     &END XC
   &END DFT
   &SUBSYS
     &CELL
       A     9.5981435956536654E+00    0.0000000000000000E+00    0.0000000000000000E+00
       B    -4.8166384766841768E+00    8.3426625633081386E+00    0.0000000000000000E+00
       C     0.0000000000000000E+00    0.0000000000000000E+00    3.0744000000000000E+01
       MULTIPLE_UNIT_CELL  1 1 1
       &CELL_REF
         A     9.5580000000000016E+00    0.0000000000000000E+00    0.0000000000000000E+00
         B    -4.7790000000000008E+00    8.2774708093716640E+00    0.0000000000000000E+00
         C     0.0000000000000000E+00    0.0000000000000000E+00    3.0744000000000000E+01
         MULTIPLE_UNIT_CELL  1 1 1
       &END CELL_REF
     &END CELL
     &COORD
Ga    1.1005010229679815E-01    1.0269152200402516E-01    1.0758553453938118E-01
N   -1.0961782803250683E-01    1.9202655853503683E+00    3.5913444723611648E-01
Ga   -3.3428658562716325E-02    1.8652924270077604E+00    2.5723559460821508E+00
N   -1.1647662500782650E-03    1.3459870245522022E-02    3.1955827035146340E+00
Ga    7.9159276554772052E-03    4.0190410572126020E-03    5.2834275600460394E+00
N   -7.9944994770395350E-03    1.8528865772470682E+00    5.8005146513053534E+00
Ga   -4.3830260254473646E-03    1.8531651560545397E+00    7.8125520866950238E+00
N    1.0900344903453307E-03    8.7537006066397448E-04    8.3782343591818158E+00
Ga    4.3073661772605269E-04    3.2817713355783295E-04    1.0440839631622383E+01
N   -4.6343077830469310E-03    1.8521484518155511E+00    1.0963835133293991E+01
Ga   -3.9820954540657960E-03    1.8540038740850546E+00    1.2990075886526272E+01
N   -2.4654105776038661E-04   -7.5061239389686554E-04    1.3561824859858829E+01
Ga    2.2151121877640500E-03    4.2316016663454109E-03    1.5675791157941362E+01
N   -1.5200044769168882E-02    1.8453454015775224E+00    1.6244560423817582E+01
Ga   -6.0453284075176091E-03    1.8480192985194064E+00    1.8440618921694892E+01
N    8.7778318624686172E-03    1.8744921129177684E-02    1.8483670737900155E+01
Ga   -1.8198020897294394E+00    2.9012554918389899E+00   -7.2093728467045773E-02
N   -1.4165728152584331E+00    4.7405687879380567E+00    5.9199452417658116E-01
Ga   -1.5837672080104948E+00    4.6596501786214279E+00    2.6605727294054491E+00
N   -1.6176423782619536E+00    2.7960268713118688E+00    3.2269767247273777E+00
Ga   -1.6097617298867963E+00    2.7845293558979374E+00    5.2833893518291672E+00
N   -1.6068768264475191E+00    4.6372736422073295E+00    5.7991815126714492E+00
Ga   -1.6099726593460826E+00    4.6349224236000053E+00    7.8103835820686207E+00
N   -1.6053562184415084E+00    2.7817416619825530E+00    8.3786635842266683E+00
Ga   -1.6053811858062919E+00    2.7816272218316711E+00    1.0442009928592842E+01
N   -1.6092353844636729E+00    4.6341345650632508E+00    1.0963997588170304E+01
Ga   -1.6108347929082345E+00    4.6327530188396926E+00    1.2990277188894876E+01
N   -1.6054626713544051E+00    2.7818768123341409E+00    1.3555561569632914E+01
Ga   -1.6044007703827849E+00    2.7903180975598914E+00    1.5669163328571686E+01
N   -1.6033969563863695E+00    4.6230288097687815E+00    1.6235200111576571E+01
Ga   -1.6146683995333897E+00    4.5935622472406505E+00    1.8425276849383931E+01
N   -1.6038943778427570E+00    2.8007640490451808E+00    1.8503818694390993E+01
Ga   -3.2351200634766752E+00    5.3248941430077599E+00   -3.5164964974672516E-02
N   -3.1520229534141571E+00    7.2500276634531673E+00    3.1069318982981170E-01
Ga   -3.2134811776393968E+00    7.3816721357509225E+00    2.5618622653492014E+00
N   -3.2240465466579735E+00    5.5507457945809895E+00    3.2067712467630844E+00
Ga   -3.2159673128779276E+00    5.5556041999490837E+00    5.2702053159661046E+00
N   -3.2154951220982659E+00    7.4116640386351982E+00    5.7957088738598896E+00
Ga   -3.2146376540434121E+00    7.4140772656426517E+00    7.8121831019765731E+00
N   -3.2104349847819305E+00    5.5624239344957038E+00    8.3788183250637864E+00
Ga   -3.2110292868213799E+00    5.5622226391409493E+00    1.0441902079559714E+01
N   -3.2160773324980978E+00    7.4151268786810540E+00    1.0963763826924341E+01
Ga   -3.2124005421746333E+00    7.4143402730061325E+00    1.2990708479763109E+01
N   -3.2083958776664883E+00    5.5620536605838309E+00    1.3556956372762768E+01
Ga   -3.2130752156623847E+00    5.5687682116241906E+00    1.5671034309357893E+01
N   -3.2109228444342226E+00    7.4120781555546209E+00    1.6240482805963978E+01
Ga   -3.2015650493534196E+00    7.3893052193010842E+00    1.8432722187095990E+01
N   -3.2118229445210646E+00    5.5776749158073233E+00    1.8511353801363668E+01
Ga    3.0782658628039097E+00    9.8840086718202255E-02    3.9742062506541068E-02
N    3.3422172339625709E+00    1.9407828640828750E+00    3.6666918341427657E-01
Ga    3.2132045310077677E+00    1.8782318856441744E+00    2.5758322363498198E+00
N    3.1731294460504706E+00    1.1468901796016541E-02    3.2013912885572759E+00
Ga    3.1922183252147849E+00    6.8860864415631069E-03    5.2740818149841484E+00
N    3.1977948746548455E+00    1.8557757483299671E+00    5.7942289110118459E+00
Ga    3.1964464490924867E+00    1.8539143278570951E+00    7.8099010527578443E+00
N    3.1996025560454382E+00    1.1705070806433324E-03    8.3785618516758884E+00
Ga    3.1995132740838517E+00    9.2454164273898104E-04    1.0443183907876799E+01
N    3.1957819312538653E+00    1.8535473908326674E+00    1.0963837486990043E+01
Ga    3.1941339696332967E+00    1.8505018783977734E+00    1.2991240363660308E+01
N    3.2001587364185395E+00    8.1644242461867574E-04    1.3553839897331434E+01
Ga    3.1981514163679292E+00    1.0811626838382181E-02    1.5668592962391497E+01
N    3.1920263867229619E+00    1.8401190858531000E+00    1.6236918204826125E+01
Ga    3.1831702266196098E+00    1.8132820243652197E+00    1.8427745783286074E+01
N    3.2009374524556233E+00    2.3363787632231188E-02    1.8516615860119227E+01
Ga    1.5387840929368957E+00    2.6584186076400620E+00    1.0074280097467229E-01
N    1.6281065969205901E+00    4.4881398975644169E+00    5.7144399128602341E-01
Ga    1.5949179895325469E+00    4.6046619817753918E+00    2.6631619442822418E+00
N    1.5692404656123760E+00    2.7673291444844361E+00    3.2225752843948632E+00
Ga    1.5932636045682678E+00    2.7713840630344260E+00    5.2846344471700606E+00
N    1.5921164183469048E+00    4.6281228307099624E+00    5.8012723393784320E+00
Ga    1.5909105355074364E+00    4.6324869274424341E+00    7.8129728794450006E+00
N    1.5943909771126876E+00    2.7810887844569048E+00    8.3788175673024892E+00
Ga    1.5943709474556593E+00    2.7814967531399031E+00    1.0442744963458569E+01
N    1.5891343322933118E+00    4.6340398495580493E+00    1.0963307713447428E+01
Ga    1.5921925232082972E+00    4.6331615457486173E+00    1.2990413635871377E+01
N    1.5919741073421481E+00    2.7811163043833238E+00    1.3556058341827701E+01
Ga    1.5951215342546052E+00    2.7932232461842248E+00    1.5671017817203035E+01
N    1.5974878971844082E+00    4.6200416234685093E+00    1.6240793414436119E+01
Ga    1.6041478718790649E+00    4.6090183133102327E+00    1.8432576624265817E+01
N    1.5891207885005054E+00    2.8062554721450224E+00    1.8512540419157958E+01
Ga    1.5258322018309975E-01    5.6259961161046759E+00    7.7755088163183564E-02
N   -1.0549197931833867E-01    7.4338705575877801E+00    5.2575332947800557E-01
Ga   -4.5622028172521506E-02    7.4172104206809264E+00    2.6554841286681077E+00
N    6.3890392994754401E-03    5.5729944481547937E+00    3.2698230372035573E+00
Ga   -4.6280723783571637E-03    5.5654585501362170E+00    5.3079901996541201E+00
N   -2.1047206445704784E-02    7.4181017790120878E+00    5.8000053548961406E+00
Ga   -1.7478528803743239E-02    7.4163607792300095E+00    7.8116727584821470E+00
N   -1.0298015317442169E-02    5.5626997787728705E+00    8.3773602131379832E+00
Ga   -1.0854065744466018E-02    5.5624240652920056E+00    1.0441038242941350E+01
N   -1.5693367679388392E-02    7.4143498483066477E+00    1.0963229601592674E+01
Ga   -1.7612108045670354E-02    7.4163349597956723E+00    1.2990465555265805E+01
N   -8.2685914769533783E-03    5.5635005246310563E+00    1.3561279464669139E+01
Ga   -1.3960894840005147E-02    5.5715974961093817E+00    1.5674833256797804E+01
N   -1.7807295036541666E-02    7.4142008813120484E+00    1.6243721105915316E+01
Ga   -1.6640940381399457E-02    7.4110577171211185E+00    1.8438367952673921E+01
N   -1.6438435010776388E-02    5.5889311593217226E+00    1.8487930219917878E+01
Ga    6.3666539422517907E+00   -1.3791599659338036E-01    3.2314172634679117E-02
N    6.4272560702369850E+00    1.6739585851167418E+00    6.0916144408394968E-01
Ga    6.3934537365481754E+00    1.8211811940464357E+00    2.6158949314610958E+00
N    6.3909802596990888E+00   -3.4724142826652427E-02    3.2329455446062836E+00
Ga    6.3986129509114047E+00   -6.0741431263043096E-03    5.2902832179550776E+00
N    6.3956129847095768E+00    1.8478131101324458E+00    5.7946365007982816E+00
Ga    6.3943106075803300E+00    1.8530586150998929E+00    7.8085458439078392E+00
N    6.3996727579473296E+00    1.2374401428932429E-04    8.3779021647350138E+00
Ga    6.3992628452121272E+00    4.2919319951511436E-04    1.0441805659033459E+01
N    6.3938944020794546E+00    1.8528056118567342E+00    1.0963924291601831E+01
Ga    6.3958067419316667E+00    1.8519218882146731E+00    1.2989872971476029E+01
N    6.3993303569315119E+00    3.9723560171659360E-03    1.3557179818609981E+01
Ga    6.4033453910668632E+00    3.3328721820866446E-03    1.5671819944302097E+01
N    6.3944448463414902E+00    1.8569009569622339E+00    1.6245039744055649E+01
Ga    6.4028717415552423E+00    1.8317004870173998E+00    1.8442203335497094E+01
N    6.4047143163846449E+00    2.2108674978664311E-02    1.8507169762819682E+01
Ga    4.9917595891205471E+00    2.8815220431607820E+00   -5.1799443946905756E-02
N    4.6522449701958140E+00    4.6868667449393255E+00    4.4336021755380228E-01
Ga    4.7502753682566539E+00    4.6449508038732015E+00    2.5569848946824898E+00
N    4.7929969619598589E+00    2.7938073607965870E+00    3.1988560700841462E+00
Ga    4.7983582077202298E+00    2.7865633251680455E+00    5.2555880991983219E+00
N    4.7837317162775781E+00    4.6362377468961089E+00    5.7980161888639028E+00
Ga    4.7887297993496905E+00    4.6340341640745732E+00    7.8086605041628614E+00
N    4.7945736133580699E+00    2.7816222605759986E+00    8.3779349207245968E+00
Ga    4.7936387638208338E+00    2.7819775316239155E+00    1.0440686280180003E+01
N    4.7891663873171959E+00    4.6335535576754978E+00    1.0963653905141353E+01
Ga    4.7871135712148778E+00    4.6345971183744696E+00    1.2990567567303971E+01
N    4.7921147090067571E+00    2.7845404169659487E+00    1.3561252774955870E+01
Ga    4.7901937016318943E+00    2.7901205632631081E+00    1.5675737626572902E+01
N    4.7935875769472851E+00    4.6386073404165016E+00    1.6243687386746760E+01
Ga    4.7861315936171778E+00    4.6272900735059492E+00    1.8437068177325639E+01
N    4.7909851805925285E+00    2.7963259670473963E+00    1.8485262475167875E+01
Ga    2.9948235577402658E+00    5.6547227117874570E+00    7.1668291974122153E-02
N    3.3078253703289389E+00    7.4827414685519535E+00    3.8015869837302146E-01
Ga    3.2008844589888144E+00    7.4275989096938391E+00    2.6043909171388591E+00
N    3.1503285218946755E+00    5.5883690589908896E+00    3.2301725174898523E+00
Ga    3.1864039729843694E+00    5.5664365993178171E+00    5.2870459843086852E+00
N    3.1886496362895116E+00    7.4188287163260194E+00    5.7995776775957033E+00
Ga    3.1850420564670037E+00    7.4156614636286662E+00    7.8134741246999670E+00
N    3.1879766195433481E+00    5.5635414276030604E+00    8.3787648288343419E+00
Ga    3.1881139138217480E+00    5.5623464180889242E+00    1.0442329488146363E+01
N    3.1837111330168204E+00    7.4157088883750095E+00    1.0963511179799498E+01
Ga    3.1825452307535445E+00    7.4119213994561877E+00    1.2990807763341936E+01
N    3.1881597585500563E+00    5.5628943062970251E+00    1.3553617246984535E+01
Ga    3.1880356000940671E+00    5.5731305435319207E+00    1.5668606435439086E+01
N    3.1730155509529441E+00    7.4066722578416186E+00    1.6240378595667888E+01
Ga    3.1732691514099827E+00    7.3783562685510811E+00    1.8431522994895083E+01
N    3.1861496382638927E+00    5.5823953875663506E+00    1.8503315407675061E+01
     &END COORD
     &KIND N
       BASIS_SET DZVP-MOLOPT-SR-GTH
       POTENTIAL GTH-PBE-q5
       &POTENTIAL
 2 3
  0.2837905100000000E+00 2 -0.1241522559000000E+02  0.1868095920000000E+01
 2
  0.2554050000000000E+00 1  0.1363026257000000E+02
  0.2454945300000000E+00 0
         # Potential name:  GTH-PBE-Q5  for symbol:  N
         # Potential read from the potential filename: GTH_POTENTIALS
       &END POTENTIAL
     &END KIND
     &KIND Ga
       BASIS_SET DZVP-MOLOPT-SR-GTH
       POTENTIAL GTH-PBE-q13
       &POTENTIAL
 2 1 10
  0.4900000000000000E+00 0
 3
  0.4167772300000000E+00 3  0.1047568975000000E+02 -0.4921768140000000E+01  0.8707055900000000E+00
  0.7770178090000000E+01 -0.2248152160000000E+01
  0.1784415450000000E+01
  0.5696265200000000E+00 2  0.1777985340000000E+01  0.1958597600000000E+00
 -0.2317443900000000E+00
  0.2381265000000000E+00 1 -0.1624868022000000E+02
         # Potential name:  GTH-PBE-Q13  for symbol:  GA
         # Potential read from the potential filename: GTH_POTENTIALS
       &END POTENTIAL
     &END KIND
     &TOPOLOGY
       COORD_FILE_NAME 334-native.xyz
       COORD_FILE_FORMAT  XYZ
       NUMBER_OF_ATOMS  144
       MULTIPLE_UNIT_CELL  1 1 1
     &END TOPOLOGY
   &END SUBSYS
 &END FORCE_EVAL
