 # Version information for this restart file 
 # current date 2019-05-15 22:32:39.739
 # current working dir /lustre03/project/6004141/rzk/GaN-carbene/00-Surface/00-Preoptimization/334-native/Trial3
 # Program compiled at                              Sun Apr  7 00:48:11 EDT 2019
 # Program compiled on                          beluga2.int.ets1.calculquebec.ca
 # Program compiled for                        Beluga-Linux-x86-64-intel-openmpi
 # Source code revision number                                         svn:18619
 &GLOBAL
   PRINT_LEVEL  LOW
   PROJECT_NAME TEST
   RUN_TYPE  CELL_OPT
 &END GLOBAL
 &MOTION
   &CELL_OPT
     MAX_ITER  100
     STEP_START_VAL  3
     EXTERNAL_PRESSURE     1.0000000000000000E+00
     KEEP_ANGLES  T
     KEEP_SYMMETRY  T
     CONSTRAINT  Z
     PRESSURE_TOLERANCE     1.0000000000000000E+02
   &END CELL_OPT
 &END MOTION
 &FORCE_EVAL
   METHOD  QS
   STRESS_TENSOR  ANALYTICAL
   &DFT
     BASIS_SET_FILE_NAME BASIS_MOLOPT
     POTENTIAL_FILE_NAME GTH_POTENTIALS
     &SCF
       MAX_SCF  70
       EPS_SCF     9.9999999999999995E-07
       &OT  T
         PRECONDITIONER  FULL_ALL
       &END OT
       &OUTER_SCF  T
         OPTIMIZER  NONE
         EPS_SCF     9.9999999999999995E-07
         MAX_SCF  10
       &END OUTER_SCF
       &PRINT
         &RESTART  OFF
           BACKUP_COPIES  1
           &EACH
             JUST_ENERGY  0
             QS_SCF  0
             MD  20
           &END EACH
         &END RESTART
       &END PRINT
     &END SCF
     &ALMO_SCF
       EPS_FILTER     9.9999999999999994E-12
       ALMO_SCF_GUESS  ATOMIC
       MO_OVERLAP_INV_ALG  DENSE_CHOLESKY
       ALMO_EXTRAPOLATION_ORDER  4
       XALMO_EXTRAPOLATION_ORDER  4
       ALMO_ALGORITHM  SKIP
       XALMO_TRIAL_WF  SIMPLE
       DELOCALIZE_METHOD  XALMO_SCF
       XALMO_R_CUTOFF_FACTOR     1.8000000000000000E+00
       &ALMO_OPTIMIZER_DIIS
         MAX_ITER  100
         EPS_ERROR     1.0000000000000001E-05
         N_DIIS  5
       &END ALMO_OPTIMIZER_DIIS
       &ALMO_OPTIMIZER_PCG
         MAX_ITER  50
         EPS_ERROR     1.0000000000000001E-05
         LIN_SEARCH_EPS_ERROR     5.0000000000000003E-02
         LIN_SEARCH_STEP_SIZE_GUESS     5.0000000000000001E-03
         CONJUGATOR  DAI_YUAN
         MAX_ITER_OUTER_LOOP  10
       &END ALMO_OPTIMIZER_PCG
       &XALMO_OPTIMIZER_PCG
         MAX_ITER  1000
         EPS_ERROR     1.0000000000000001E-05
         LIN_SEARCH_EPS_ERROR     1.0000000000000001E-01
         LIN_SEARCH_STEP_SIZE_GUESS     1.0000000000000000E-02
         CONJUGATOR  DAI_YUAN
         PRECOND_FILTER_THRESHOLD     1.0000000000000000E-03
         MAX_ITER_OUTER_LOOP  0
       &END XALMO_OPTIMIZER_PCG
       &MATRIX_ITERATE
         EPS_TARGET_FACTOR     1.0000000000000000E+01
       &END MATRIX_ITERATE
     &END ALMO_SCF
     &QS
       EPS_DEFAULT     1.0000000000000000E-13
       ALMO_SCF  F
       METHOD  GPW
     &END QS
     &MGRID
       NGRIDS  5
       CUTOFF     8.0000000000000000E+02
     &END MGRID
     &XC
       DENSITY_CUTOFF     1.0000000000000000E-10
       GRADIENT_CUTOFF     1.0000000000000000E-10
       TAU_CUTOFF     1.0000000000000000E-10
       &XC_FUNCTIONAL  NO_SHORTCUT
         &PBE  T
         &END PBE
       &END XC_FUNCTIONAL
       &VDW_POTENTIAL
         POTENTIAL_TYPE  PAIR_POTENTIAL
         &PAIR_POTENTIAL
           R_CUTOFF     1.0000000000000002E+01
           TYPE  DFTD3
           PARAMETER_FILE_NAME dftd3.dat
           REFERENCE_FUNCTIONAL PBE
           EPS_CN     9.9999999999999995E-07
           CALCULATE_C9_TERM  T
           REFERENCE_C9_TERM  T
           LONG_RANGE_CORRECTION  F
           VERBOSE_OUTPUT  F
         &END PAIR_POTENTIAL
       &END VDW_POTENTIAL
     &END XC
   &END DFT
   &SUBSYS
     &CELL
       A     9.7214966066483726E+00    0.0000000000000000E+00    0.0000000000000000E+00
       B    -4.8633806955066436E+00    8.4236224611671631E+00    0.0000000000000000E+00
       C     0.0000000000000000E+00    0.0000000000000000E+00    3.0744000000000000E+01
       MULTIPLE_UNIT_CELL  1 1 1
       &CELL_REF
         A     9.5580000000000016E+00    0.0000000000000000E+00    0.0000000000000000E+00
         B    -4.7790000000000008E+00    8.2774708093716640E+00    0.0000000000000000E+00
         C     0.0000000000000000E+00    0.0000000000000000E+00    3.0744000000000000E+01
         MULTIPLE_UNIT_CELL  1 1 1
       &END CELL_REF
     &END CELL
     &COORD
Ga    2.1165758161316252E-02    1.2118654506341381E-04   -1.6989756709521610E-02
N   -1.4909639566606571E-02    1.8756368249678121E+00    6.0343168150359427E-01
Ga   -5.0039322798327525E-03    1.8741025858278422E+00    2.6335232186116206E+00
N    1.3071076275492836E-03    8.8364170325118190E-04    3.2134459033443084E+00
Ga    4.3759760725839306E-04    2.2809120006082938E-04    5.2103227706496318E+00
N   -4.9547373592315810E-04    1.8716590076737554E+00    5.8082875518786778E+00
Ga   -6.2984650204922239E-04    1.8717732626860719E+00    7.8025628631343773E+00
N    1.7456998791397791E-04    7.4773983009600379E-05    8.4019499211330171E+00
Ga    5.6830714639065308E-05    8.1388977934207925E-05    1.0390912261053943E+01
N   -6.4708595452427650E-04    1.8717550444665534E+00    1.0995779545035818E+01
Ga   -6.5933935136750031E-04    1.8720096915653466E+00    1.2986138208013928E+01
N    8.8717072031320630E-05    8.4010847267341834E-05    1.3588236839407866E+01
Ga    7.6780943946484054E-05    2.4080652833604663E-05    1.5577013270879702E+01
N   -6.7374020914526267E-04    1.8720189100510609E+00    1.6173701704262484E+01
Ga   -3.5504882607022525E-04    1.8726069602534445E+00    1.8223071653550097E+01
N    1.3070900843948098E-04    2.1623350173833832E-04    1.8754698480296703E+01
Ga   -1.6415203796189561E+00    2.8332891961023119E+00   -6.9096765328871702E-03
N   -1.6113993329698439E+00    4.6896338298451159E+00    6.2668218753553018E-01
Ga   -1.6187634580690906E+00    4.6818622897700273E+00    2.6326306242547797E+00
N   -1.6222264329889600E+00    2.8087554732944446E+00    3.2148873557883548E+00
Ga   -1.6207684287235624E+00    2.8083228830881199E+00    5.2098705375527272E+00
N   -1.6219799578141911E+00    4.6797730114211227E+00    5.8080656584924748E+00
Ga   -1.6216994800330020E+00    4.6796783540279590E+00    7.8023987977934963E+00
N   -1.6210604838429066E+00    2.8079233193825544E+00    8.4019302250436265E+00
Ga   -1.6210812809442250E+00    2.8079338775213891E+00    1.0391008496889219E+01
N   -1.6217334624717241E+00    4.6796970238166873E+00    1.0995778004697748E+01
Ga   -1.6219260052999165E+00    4.6795894741776767E+00    1.2986155449598161E+01
N   -1.6210363518411508E+00    2.8079906523236811E+00    1.3587913895873690E+01
Ga   -1.6211734552774024E+00    2.8080607195720102E+00    1.5576537129740064E+01
N   -1.6218769766930456E+00    4.6794605103898634E+00    1.6173613177641172E+01
Ga   -1.6224415894752866E+00    4.6796600094601146E+00    1.8222924357045521E+01
N   -1.6211670852519027E+00    2.8079947439222264E+00    1.8755075420705381E+01
Ga   -3.2307091260192546E+00    5.5832135495844506E+00   -1.1543416408141896E-02
N   -3.2437597456634419E+00    7.4788279956260020E+00    6.0439566713205695E-01
Ga   -3.2450312984623837E+00    7.4871558736681081E+00    2.6329400914104215E+00
N   -3.2444811167368202E+00    5.6146942778146718E+00    3.2117152371583271E+00
Ga   -3.2420073628475921E+00    5.6154497456026622E+00    5.2107420096757524E+00
N   -3.2425725064520403E+00    7.4873247597084696E+00    5.8078702958016679E+00
Ga   -3.2429089529237252E+00    7.4875895688593896E+00    7.8027021496275237E+00
N   -3.2422488588702940E+00    5.6158447798270368E+00    8.4018631965299910E+00
Ga   -3.2422070138598280E+00    5.6158203547991654E+00    1.0391163923247632E+01
N   -3.2429503304383700E+00    7.4875838961362442E+00    1.0995779418129313E+01
Ga   -3.2427684033877697E+00    7.4874789504793773E+00    1.2986158825307577E+01
N   -3.2421905427014459E+00    5.6158432497641924E+00    1.3587868395243147E+01
Ga   -3.2420896707030558E+00    5.6158718181330967E+00    1.5576581550735051E+01
N   -3.2428371083593799E+00    7.4873197041976178E+00    1.6173622393440571E+01
Ga   -3.2422083967492261E+00    7.4869357759462112E+00    1.8222963057939449E+01
N   -3.2422148634314345E+00    5.6157486557162590E+00    1.8755193128080936E+01
Ga    3.2490620552918945E+00    9.5762794746941104E-03   -1.5960757890162238E-02
N    3.2389346725152048E+00    1.8815420870187580E+00    6.0448828519426956E-01
Ga    3.2360554005591062E+00    1.8734096833574838E+00    2.6328341829834390E+00
N    3.2384843945367336E+00    1.9969606817325080E-03    3.2116950583510744E+00
Ga    3.2404856646832969E+00    1.1468649395952925E-04    5.2106548784343865E+00
N    3.2404001045396402E+00    1.8719289427180266E+00    5.8074026259530243E+00
Ga    3.2399012931923421E+00    1.8718389359992280E+00    7.8027979057732608E+00
N    3.2404915174933078E+00    1.7475020261649397E-04    8.4018916846297369E+00
Ga    3.2405581140444197E+00    8.2765367328576286E-05    1.0391189954399549E+01
N    3.2399392116683865E+00    1.8718784576930387E+00    1.0995782131955588E+01
Ga    3.2396996030968026E+00    1.8717618289897138E+00    1.2986155450756382E+01
N    3.2405395436850721E+00    1.1489328739887167E-04    1.3587917824250594E+01
Ga    3.2405832379418711E+00    4.7686469475175898E-07    1.5576687341442007E+01
N    3.2395014409921332E+00    1.8718482370356224E+00    1.6173649573999196E+01
Ga    3.2390220984231131E+00    1.8715472150028638E+00    1.8222989770527779E+01
N    3.2405777696131515E+00    8.1715447862631027E-05    1.8755380484294335E+01
Ga    1.6215178182303800E+00    2.7993023216148956E+00   -1.1487936372227271E-02
N    1.6163642122847171E+00    4.6735442305720314E+00    6.2411992348239431E-01
Ga    1.6140003784026062E+00    4.6816249688737370E+00    2.6326766438811107E+00
N    1.6183119055171591E+00    2.8055951817597404E+00    3.2139218967244498E+00
Ga    1.6189112340577689E+00    2.8077096956876466E+00    5.2101122523399006E+00
N    1.6193278754308311E+00    4.6791613394343141E+00    5.8085494261977688E+00
Ga    1.6188108246312132E+00    4.6796824502645880E+00    7.8023130204316518E+00
N    1.6195186399034158E+00    2.8078269502165720E+00    8.4019526208929260E+00
Ga    1.6194224362567162E+00    2.8079255107180119E+00    1.0391131608411019E+01
N    1.6187329066985259E+00    4.6797040598514723E+00    1.0995797246236785E+01
Ga    1.6189073237615872E+00    4.6796140102868655E+00    1.2986157539122949E+01
N    1.6194334633728855E+00    2.8079569176216088E+00    1.3587881135377405E+01
Ga    1.6194646839044180E+00    2.8080528813893615E+00    1.5576561341103691E+01
N    1.6189705664310414E+00    4.6794825491436809E+00    1.6173649947804957E+01
Ga    1.6192398546187925E+00    4.6791683726394302E+00    1.8222914985805268E+01
N    1.6194759552412672E+00    2.8080034678903307E+00    1.8755334627863910E+01
Ga    1.6959557563069404E-02    5.6173709424396092E+00   -5.8346640193949616E-04
N   -1.2225770064754435E-02    7.4837814308180990E+00    6.2186520054020344E-01
Ga   -3.3948054402227553E-03    7.4844636900406405E+00    2.6326906310987170E+00
N   -9.5064276083722745E-04    5.6165995193666385E+00    3.2195959265127114E+00
Ga   -7.7081303907269123E-04    5.6158411869113785E+00    5.2087592520779671E+00
N   -2.7267255264128449E-03    7.4879592592808217E+00    5.8082250674256466E+00
Ga   -2.3190941024054620E-03    7.4875783364121817E+00    7.8023806460360499E+00
N   -1.6895102379207258E-03    5.6158512921075907E+00    8.4019651239549979E+00
Ga   -1.6898800984366010E-03    5.6158412040823613E+00    1.0391015555194398E+01
N   -2.3917899331741578E-03    7.4875562240884950E+00    1.0995778521791996E+01
Ga   -2.3225885338478479E-03    7.4877836740715136E+00    1.2986139388291226E+01
N   -1.6844676627666699E-03    5.6158810735420719E+00    1.3588176890966547E+01
Ga   -1.7373919906729476E-03    5.6158533286381047E+00    1.5577089783055222E+01
N   -2.3089571024782910E-03    7.4880398251397065E+00    1.6173609474515303E+01
Ga   -2.3619252291821112E-03    7.4883499641234401E+00    1.8222899607101958E+01
N   -1.6409889956886330E-03    5.6158911748783629E+00    1.8754911904773792E+01
Ga    6.4674234166583151E+00   -1.3429874919317315E-02   -8.7418932177072591E-03
N    6.4871200140083030E+00    1.8593954340729106E+00    6.1891627788721570E-01
Ga    6.4819199586812335E+00    1.8690508981155811E+00    2.6320400129054500E+00
N    6.4799853695784115E+00   -9.3152376213114819E-04    3.2159032432824182E+00
Ga    6.4811815316397858E+00   -9.4786998314196395E-04    5.2095541773169325E+00
N    6.4802076158942716E+00    1.8718691129563005E+00    5.8075556643091222E+00
Ga    6.4804369458913822E+00    1.8717625944699035E+00    7.8026426689389536E+00
N    6.4811001924217901E+00    1.5563967763991923E-04    8.4019805334178130E+00
Ga    6.4810741097560705E+00    9.2313388636146927E-05    1.0390956290178661E+01
N    6.4802790077560539E+00    1.8718574571564528E+00    1.0995769004083304E+01
Ga    6.4805567520389156E+00    1.8716910431744489E+00    1.2986162693918173E+01
N    6.4810290818500995E+00    9.7548646088835137E-05    1.3587853261691219E+01
Ga    6.4809933317327237E+00    6.7605774878427442E-05    1.5576468594931537E+01
N    6.4806744791165194E+00    1.8716790036108484E+00    1.6173685450742443E+01
Ga    6.4808652638425501E+00    1.8713328990792566E+00    1.8222970971901837E+01
N    6.4811368513777694E+00    4.5102665644542242E-05    1.8755213447355999E+01
Ga    4.8943486224484500E+00    2.8038228864456096E+00   -1.4304197916352530E-02
N    4.8424274262435212E+00    4.6871521379874732E+00    6.0043746068408710E-01
Ga    4.8543152085102372E+00    4.6830653978052021E+00    2.6333246410776154E+00
N    4.8604376788607935E+00    2.8090377677716982E+00    3.2085079751294172E+00
Ga    4.8606005513561401E+00    2.8079767614056315E+00    5.2113624372733920E+00
N    4.8593674617254372E+00    4.6793756520269190E+00    5.8073350031006692E+00
Ga    4.8592179725998657E+00    4.6797132744072663E+00    7.8028115804887701E+00
N    4.8599578270998505E+00    2.8079922814525267E+00    8.4017907181080549E+00
Ga    4.8599661900471380E+00    2.8079531414203589E+00    1.0391025128802971E+01
N    4.8592041318801282E+00    4.6795937348858274E+00    1.0995772581019105E+01
Ga    4.8592440317611318E+00    4.6798888901628510E+00    1.2986157904708785E+01
N    4.8598904063879242E+00    2.8079888446803389E+00    1.3588264496294814E+01
Ga    4.8599603090716910E+00    2.8078516491809786E+00    1.5577072578101948E+01
N    4.8592244768496391E+00    4.6800134424884972E+00    1.6173721717933539E+01
Ga    4.8595268002506424E+00    4.6804731421930272E+00    1.8223077796785063E+01
N    4.8598697281412626E+00    2.8078337566917400E+00    1.8754682477242277E+01
Ga    3.2246992204091329E+00    5.6232965230020531E+00   -8.3476666882764949E-03
N    3.2401355906669114E+00    7.4957539756901665E+00    6.1251642393812766E-01
Ga    3.2345105237980172E+00    7.4888733255020421E+00    2.6330565000680122E+00
N    3.2385231225160229E+00    5.6169859163059863E+00    3.2149542154927455E+00
Ga    3.2381085595933872E+00    5.6165067081723201E+00    5.2099023119516907E+00
N    3.2386401478533409E+00    7.4876491529039191E+00    5.8084648605542268E+00
Ga    3.2381841042526247E+00    7.4876093040600589E+00    7.8024849334626323E+00
N    3.2389665458588555E+00    5.6158208567270727E+00    8.4019672556250615E+00
Ga    3.2388243021919738E+00    5.6158548469960428E+00    1.0391020515659971E+01
N    3.2381366779385687E+00    7.4875696228261575E+00    1.0995780323366299E+01
Ga    3.2379282394182343E+00    7.4875254602687757E+00    1.2986157047876977E+01
N    3.2388233621843385E+00    5.6158154653644274E+00    1.3587955472651794E+01
Ga    3.2387126310748959E+00    5.6158472221182238E+00    1.5576590282921353E+01
N    3.2376977307968406E+00    7.4874200712045687E+00    1.6173701741045448E+01
Ga    3.2373271782804833E+00    7.4872826823596110E+00    1.8222995782763448E+01
N    3.2388925810899050E+00    5.6157641634992963E+00    1.8755046061809541E+01
     &END COORD
     &KIND N
       BASIS_SET DZVP-MOLOPT-SR-GTH
       POTENTIAL GTH-PBE-q5
       &POTENTIAL
 2 3
  0.2837905100000000E+00 2 -0.1241522559000000E+02  0.1868095920000000E+01
 2
  0.2554050000000000E+00 1  0.1363026257000000E+02
  0.2454945300000000E+00 0
         # Potential name:  GTH-PBE-Q5  for symbol:  N
         # Potential read from the potential filename: GTH_POTENTIALS
       &END POTENTIAL
     &END KIND
     &KIND Ga
       BASIS_SET DZVP-MOLOPT-SR-GTH
       POTENTIAL GTH-PBE-q13
       &POTENTIAL
 2 1 10
  0.4900000000000000E+00 0
 3
  0.4167772300000000E+00 3  0.1047568975000000E+02 -0.4921768140000000E+01  0.8707055900000000E+00
  0.7770178090000000E+01 -0.2248152160000000E+01
  0.1784415450000000E+01
  0.5696265200000000E+00 2  0.1777985340000000E+01  0.1958597600000000E+00
 -0.2317443900000000E+00
  0.2381265000000000E+00 1 -0.1624868022000000E+02
         # Potential name:  GTH-PBE-Q13  for symbol:  GA
         # Potential read from the potential filename: GTH_POTENTIALS
       &END POTENTIAL
     &END KIND
     &TOPOLOGY
       COORD_FILE_NAME 334-native.xyz
       COORD_FILE_FORMAT  XYZ
       NUMBER_OF_ATOMS  144
       MULTIPLE_UNIT_CELL  1 1 1
     &END TOPOLOGY
   &END SUBSYS
 &END FORCE_EVAL
