 # Version information for this restart file 
 # current date 2019-05-15 23:54:06.934
 # current working dir /lustre03/project/6004141/rzk/GaN-carbene/00-Surface/00-Preoptimization/334-native/Trial3
 # Program compiled at                              Sun Apr  7 00:48:11 EDT 2019
 # Program compiled on                          beluga2.int.ets1.calculquebec.ca
 # Program compiled for                        Beluga-Linux-x86-64-intel-openmpi
 # Source code revision number                                         svn:18619
 &GLOBAL
   PRINT_LEVEL  LOW
   PROJECT_NAME TEST
   RUN_TYPE  CELL_OPT
 &END GLOBAL
 &MOTION
   &CELL_OPT
     MAX_ITER  100
     STEP_START_VAL  6
     EXTERNAL_PRESSURE     1.0000000000000000E+00
     KEEP_ANGLES  T
     KEEP_SYMMETRY  T
     CONSTRAINT  Z
     PRESSURE_TOLERANCE     1.0000000000000000E+02
   &END CELL_OPT
 &END MOTION
 &FORCE_EVAL
   METHOD  QS
   STRESS_TENSOR  ANALYTICAL
   &DFT
     BASIS_SET_FILE_NAME BASIS_MOLOPT
     POTENTIAL_FILE_NAME GTH_POTENTIALS
     &SCF
       MAX_SCF  70
       EPS_SCF     9.9999999999999995E-07
       &OT  T
         PRECONDITIONER  FULL_ALL
       &END OT
       &OUTER_SCF  T
         OPTIMIZER  NONE
         EPS_SCF     9.9999999999999995E-07
         MAX_SCF  10
       &END OUTER_SCF
       &PRINT
         &RESTART  OFF
           BACKUP_COPIES  1
           &EACH
             JUST_ENERGY  0
             QS_SCF  0
             MD  20
           &END EACH
         &END RESTART
       &END PRINT
     &END SCF
     &ALMO_SCF
       EPS_FILTER     9.9999999999999994E-12
       ALMO_SCF_GUESS  ATOMIC
       MO_OVERLAP_INV_ALG  DENSE_CHOLESKY
       ALMO_EXTRAPOLATION_ORDER  4
       XALMO_EXTRAPOLATION_ORDER  4
       ALMO_ALGORITHM  SKIP
       XALMO_TRIAL_WF  SIMPLE
       DELOCALIZE_METHOD  XALMO_SCF
       XALMO_R_CUTOFF_FACTOR     1.8000000000000000E+00
       &ALMO_OPTIMIZER_DIIS
         MAX_ITER  100
         EPS_ERROR     1.0000000000000001E-05
         N_DIIS  5
       &END ALMO_OPTIMIZER_DIIS
       &ALMO_OPTIMIZER_PCG
         MAX_ITER  50
         EPS_ERROR     1.0000000000000001E-05
         LIN_SEARCH_EPS_ERROR     5.0000000000000003E-02
         LIN_SEARCH_STEP_SIZE_GUESS     5.0000000000000001E-03
         CONJUGATOR  DAI_YUAN
         MAX_ITER_OUTER_LOOP  10
       &END ALMO_OPTIMIZER_PCG
       &XALMO_OPTIMIZER_PCG
         MAX_ITER  1000
         EPS_ERROR     1.0000000000000001E-05
         LIN_SEARCH_EPS_ERROR     1.0000000000000001E-01
         LIN_SEARCH_STEP_SIZE_GUESS     1.0000000000000000E-02
         CONJUGATOR  DAI_YUAN
         PRECOND_FILTER_THRESHOLD     1.0000000000000000E-03
         MAX_ITER_OUTER_LOOP  0
       &END XALMO_OPTIMIZER_PCG
       &MATRIX_ITERATE
         EPS_TARGET_FACTOR     1.0000000000000000E+01
       &END MATRIX_ITERATE
     &END ALMO_SCF
     &QS
       EPS_DEFAULT     1.0000000000000000E-13
       ALMO_SCF  F
       METHOD  GPW
     &END QS
     &MGRID
       NGRIDS  5
       CUTOFF     8.0000000000000000E+02
     &END MGRID
     &XC
       DENSITY_CUTOFF     1.0000000000000000E-10
       GRADIENT_CUTOFF     1.0000000000000000E-10
       TAU_CUTOFF     1.0000000000000000E-10
       &XC_FUNCTIONAL  NO_SHORTCUT
         &PBE  T
         &END PBE
       &END XC_FUNCTIONAL
       &VDW_POTENTIAL
         POTENTIAL_TYPE  PAIR_POTENTIAL
         &PAIR_POTENTIAL
           R_CUTOFF     1.0000000000000002E+01
           TYPE  DFTD3
           PARAMETER_FILE_NAME dftd3.dat
           REFERENCE_FUNCTIONAL PBE
           EPS_CN     9.9999999999999995E-07
           CALCULATE_C9_TERM  T
           REFERENCE_C9_TERM  T
           LONG_RANGE_CORRECTION  F
           VERBOSE_OUTPUT  F
         &END PAIR_POTENTIAL
       &END VDW_POTENTIAL
     &END XC
   &END DFT
   &SUBSYS
     &CELL
       A     9.6958565234589553E+00    0.0000000000000000E+00    0.0000000000000000E+00
       B    -4.8508835283995593E+00    8.4019767327870145E+00    0.0000000000000000E+00
       C     0.0000000000000000E+00    0.0000000000000000E+00    3.0744000000000000E+01
       MULTIPLE_UNIT_CELL  1 1 1
       &CELL_REF
         A     9.5580000000000016E+00    0.0000000000000000E+00    0.0000000000000000E+00
         B    -4.7790000000000008E+00    8.2774708093716640E+00    0.0000000000000000E+00
         C     0.0000000000000000E+00    0.0000000000000000E+00    3.0744000000000000E+01
         MULTIPLE_UNIT_CELL  1 1 1
       &END CELL_REF
     &END CELL
     &COORD
Ga    3.4836182892458468E-02    1.2204314224030238E-02   -7.2732251709905354E-03
N   -2.6363934608949351E-02    1.8775679419277977E+00    5.6516430851728050E-01
Ga   -8.0962657022988823E-03    1.8703380412264945E+00    2.6376555888509823E+00
N    9.2283169192977513E-04    2.3283679271715626E-03    3.2055445649218615E+00
Ga    1.3345901610816934E-03    6.6874120207187837E-04    5.2260170346859987E+00
N   -1.0408556321971696E-03    1.8666911565916244E+00    5.8000204561579123E+00
Ga   -7.8299348910083357E-04    1.8668269096755499E+00    7.8106538738104492E+00
N    3.3746357402537761E-04    2.1119216726390384E-04    8.3920232100345160E+00
Ga    1.2747660181506830E-04    1.8103743030943302E-04    1.0403389251513479E+01
N   -8.0947460940796454E-04    1.8667095140909158E+00    1.0985259823299289E+01
Ga   -8.0822020241386780E-04    1.8671619434614271E+00    1.2992941318987286E+01
N    1.5782859519902867E-04    2.2009174122380169E-04    1.3577410275544391E+01
Ga    1.0669451964765962E-04    4.1868107557350401E-04    1.5593723338217552E+01
N   -1.0801639609670467E-03    1.8667711753241314E+00    1.6172755536567792E+01
Ga   -1.5674076446838703E-05    1.8683224712901514E+00    1.8264144351692213E+01
N    1.0240234102546612E-05    1.1453300779790316E-03    1.8714776812950159E+01
Ga   -1.6634189148195513E+00    2.8424210647002783E+00   -1.0835957423530766E-02
N   -1.5836183351500348E+00    4.6907906293666661E+00    6.1593035953025765E-01
Ga   -1.6112312051504141E+00    4.6725414143990482E+00    2.6461486903892690E+00
N   -1.6198932537038100E+00    2.8038180381326572E+00    3.2095279709879532E+00
Ga   -1.6169603917484372E+00    2.8016413258308974E+00    5.2257927686868690E+00
N   -1.6175569039005808E+00    4.6679587353797842E+00    5.7994288798138074E+00
Ga   -1.6176580760482746E+00    4.6675959782675465E+00    7.8102845413189437E+00
N   -1.6168281496959240E+00    2.8008438740299209E+00    8.3920252935154469E+00
Ga   -1.6168659507432581E+00    2.8008499894135377E+00    1.0403633764016620E+01
N   -1.6176761814142713E+00    4.6675324414095067E+00    1.0985261223937506E+01
Ga   -1.6179389366646844E+00    4.6673190517497716E+00    1.2992940964270852E+01
N   -1.6168225746199414E+00    2.8009142394549236E+00    1.3576538512290199E+01
Ga   -1.6169505160143951E+00    2.8013019546610374E+00    1.5592761398709831E+01
N   -1.6178198887504358E+00    4.6668897365508917E+00    1.6172209982327754E+01
Ga   -1.6189524465226646E+00    4.6653162340834227E+00    1.8263317360568703E+01
N   -1.6170958717449901E+00    2.8019970650484791E+00    1.8717254435255096E+01
Ga   -3.2238549941817753E+00    5.5382293876172195E+00   -1.4886090021046615E-02
N   -3.2273557886606605E+00    7.4420373701331304E+00    5.6069318982981164E-01
Ga   -3.2373585477034195E+00    7.4651572105939703E+00    2.6371512862757989E+00
N   -3.2373455090790224E+00    5.5989209098399000E+00    3.2034812673236988E+00
Ga   -3.2340538459934947E+00    5.6003417893612699E+00    5.2256526349246988E+00
N   -3.2342748929620044E+00    7.4675862185272610E+00    5.7990783873493186E+00
Ga   -3.2346833890219169E+00    7.4681289978906822E+00    7.8108091334865852E+00
N   -3.2338021509407104E+00    5.6015554045777183E+00    8.3919731761052088E+00
Ga   -3.2338200447463414E+00    5.6014706384003077E+00    1.0403806644687103E+01
N   -3.2348252440072063E+00    7.4682274566558053E+00    1.0985281763807553E+01
Ga   -3.2344001375357707E+00    7.4680413197389202E+00    1.2992976777093341E+01
N   -3.2337355963032852E+00    5.6015633103033968E+00    1.3576566480167791E+01
Ga   -3.2337035012305946E+00    5.6018958172459143E+00    1.5592883652797306E+01
N   -3.2343828494502600E+00    7.4677273975375194E+00    1.6172341316854492E+01
Ga   -3.2321889111021527E+00    7.4656952291371397E+00    1.8263446152127681E+01
N   -3.2341137970737077E+00    5.6024522466831863E+00    1.8717769231333033E+01
Ga    3.2306728790466774E+00    2.2548844063233771E-02   -1.1028033125679633E-02
N    3.2443423078479183E+00    1.8855908251677618E+00    5.6652720675400114E-01
Ga    3.2276167674155465E+00    1.8712362204322708E+00    2.6380889251128665E+00
N    3.2274219508864350E+00    3.1294824296297179E-03    3.2030733047494921E+00
Ga    3.2313158190257099E+00    8.9439274144319464E-04    5.2257561066715672E+00
N    3.2320539268861213E+00    1.8671965724056618E+00    5.7983728291079988E+00
Ga    3.2313237193142301E+00    1.8669893946055820E+00    7.8106611094503791E+00
N    3.2320090456972186E+00    3.5036025378767732E-04    8.3919690627152903E+00
Ga    3.2320539005440572E+00    2.1301053372879401E-04    1.0403992606565730E+01
N    3.2313138965273454E+00    1.8669772530966711E+00    1.0985290079213158E+01
Ga    3.2309415362157057E+00    1.8666973110838394E+00    1.2993009770345983E+01
N    3.2321068206047388E+00    2.7091343073459194E-04    1.3576548176497408E+01
Ga    3.2317601958594824E+00    6.2098458620737994E-04    1.5592956482684542E+01
N    3.2309070021172159E+00    1.8664024243549209E+00    1.6172498705407413E+01
Ga    3.2292426002145671E+00    1.8646576339346870E+00    1.8263717337413127E+01
N    3.2318213934312516E+00    1.3476626894558322E-03    1.8718030480010139E+01
Ga    1.6099682890938765E+00    2.7787694785678547E+00   -1.3051720174488889E-04
N    1.6151315667848301E+00    4.6464459667656124E+00    6.1106101910073340E-01
Ga    1.6094142903152042E+00    4.6666789359271892E+00    2.6453721538329051E+00
N    1.6110304896227581E+00    2.7972589089423190E+00    3.2086394994586800E+00
Ga    1.6144997783051447E+00    2.7996569570272203E+00    5.2256535353162166E+00
N    1.6150339628118882E+00    4.6664576182120392E+00    5.8003712630285724E+00
Ga    1.6144364826871498E+00    4.6674056783997866E+00    7.8103708016995563E+00
N    1.6152415151988913E+00    2.8006736095554459E+00    8.3920847068958011E+00
Ga    1.6151041713314471E+00    2.8008115246676577E+00    1.0403845197595619E+01
N    1.6141849359764637E+00    4.6675393967283814E+00    1.0985281709811995E+01
Ga    1.6145872203384055E+00    4.6674091799419140E+00    1.2992943466101517E+01
N    1.6150763620196544E+00    2.8008855189696171E+00    1.3576538197206665E+01
Ga    1.6148629051997143E+00    2.8013575553352683E+00    1.5592939767782592E+01
N    1.6148619012990530E+00    4.6668953997964797E+00    1.6172502143054967E+01
Ga    1.6162474179743571E+00    4.6652739710824864E+00    1.8263665810889329E+01
N    1.6147529992178280E+00    2.8019774606290371E+00    1.8717972917480054E+01
Ga    3.7533348427637309E-02    5.6098152316630854E+00    1.3425009294323409E-02
N   -2.2821656855081897E-02    7.4634806046795195E+00    6.0268909659644121E-01
Ga   -6.6919887338897721E-03    7.4644307744699745E+00    2.6459229416927439E+00
N    2.7740847199268960E-04    5.6038060257475752E+00    3.2193825343217419E+00
Ga   -4.3542843506281174E-06    5.6017763346679788E+00    5.2265599718422031E+00
N   -3.5405796505754532E-03    7.4688303934457370E+00    5.7996741312792741E+00
Ga   -2.7453337537967702E-03    7.4683053266887391E+00    7.8103895115203432E+00
N   -1.7500403631334120E-03    5.6015862844884907E+00    8.3919735348137774E+00
Ga   -1.8170076980151050E-03    5.6015146776438876E+00    1.0403580223102395E+01
N   -2.7049500800401232E-03    7.4681630385290090E+00    1.0985247370624101E+01
Ga   -2.7525477326668765E-03    7.4685140677282300E+00    1.2992914395381446E+01
N   -1.7881888577880648E-03    5.6016377473054382E+00    1.3577299423406496E+01
Ga   -2.2237609425445315E-03    5.6019476277443987E+00    1.5593781126915051E+01
N   -2.5109164336095048E-03    7.4684989160347666E+00    1.6172599760273986E+01
Ga   -2.5789327057955938E-03    7.4695087429129057E+00    1.8263895803405855E+01
N   -2.1739958417720476E-03    5.6027989833223124E+00    1.8715392540476810E+01
Ga    6.4439099288176305E+00   -2.9277792217103658E-02   -1.7238613771018677E-03
N    6.4755858003412872E+00    1.8328859223344776E+00    6.0824023363120272E-01
Ga    6.4651249520390035E+00    1.8602086313326192E+00    2.6404256245323472E+00
N    6.4613715466871753E+00   -4.5744178663952731E-03    3.2113003526891299E+00
Ga    6.4641188036190513E+00   -1.6867016895950858E-03    5.2259569610825309E+00
N    6.4631946462303853E+00    1.8663229855150516E+00    5.7984952974165882E+00
Ga    6.4632438161795829E+00    1.8667899601755651E+00    7.8103730733156684E+00
N    6.4641255110894846E+00    2.3630276889168004E-04    8.3920421508779128E+00
Ga    6.4640686393232576E+00    2.0218906922902572E-04    1.0403502753178211E+01
N    6.4629866406711631E+00    1.8668499628609181E+00    1.0985266094726063E+01
Ga    6.4634756945640319E+00    1.8667804873494169E+00    1.2992930767875919E+01
N    6.4640222370729763E+00    3.0871481238899833E-04    1.3576621012753957E+01
Ga    6.4639718637370009E+00    4.8857536593669760E-04    1.5592795474731419E+01
N    6.4634643472523834E+00    1.8665451387503811E+00    1.6172756259077826E+01
Ga    6.4649170323740641E+00    1.8647249750616721E+00    1.8264114593992794E+01
N    6.4639851439689728E+00    1.1290657242857909E-03    1.8717363754368964E+01
Ga    4.9081747436264518E+00    2.8063174586176962E+00   -1.9507186327819327E-02
N    4.8132130690173449E+00    4.6811698829738067E+00    5.6952784051720151E-01
Ga    4.8360486357254011E+00    4.6726342392794500E+00    2.6360966262098127E+00
N    4.8477539106707308E+00    2.8032707001613493E+00    3.1986712989653205E+00
Ga    4.8483529011980835E+00    2.8013643699837978E+00    5.2248780878386514E+00
N    4.8458461652753124E+00    4.6674040403991128E+00    5.7986383819926868E+00
Ga    4.8461181326262279E+00    4.6675890067508057E+00    7.8105209142551271E+00
N    4.8472010799866601E+00    2.8009045322534982E+00    8.3918316236525161E+00
Ga    4.8471384070290648E+00    2.8008833635356560E+00    1.0403552394779243E+01
N    4.8461425451148976E+00    4.6673753560767235E+00    1.0985283039308396E+01
Ga    4.8461132904332800E+00    4.6678339947725975E+00    1.2992954875734311E+01
N    4.8470388504772464E+00    2.8009729562511976E+00    1.3577418421627486E+01
Ga    4.8470054882148004E+00    2.8010969970939201E+00    1.5593847908106666E+01
N    4.8461857483658530E+00    4.6679987868595818E+00    1.6172763611723973E+01
Ga    4.8466000777476310E+00    4.6685791755982917E+00    1.8264090641273917E+01
N    4.8468089984933354E+00    2.8016262827106853E+00    1.8714857893778145E+01
Ga    3.1923107376267001E+00    5.6205482949835401E+00    9.3136056764454021E-04
N    3.2432315992832286E+00    7.4840062017908799E+00    5.7773685582459944E-01
Ga    3.2268564216642326E+00    7.4708086308738295E+00    2.6408646038706811E+00
N    3.2254741212738653E+00    5.6057176287111394E+00    3.2105104348457720E+00
Ga    3.2290982343741859E+00    5.6026581331478589E+00    5.2257173824153726E+00
N    3.2302290277607626E+00    7.4687103627293991E+00    5.8001467854558335E+00
Ga    3.2294382004782829E+00    7.4682966063020073E+00    7.8106583913683227E+00
N    3.2302953664848837E+00    5.6016239962401926E+00    8.3921433594799471E+00
Ga    3.2301402541689908E+00    5.6015419087063520E+00    1.0403598009469869E+01
N    3.2292566538688461E+00    7.4682620643128086E+00    1.0985273495762280E+01
Ga    3.2289907643546258E+00    7.4679571275626069E+00    1.2992926668627049E+01
N    3.2301115556159647E+00    5.6015759395936966E+00    1.3576589648689172E+01
Ga    3.2299498322720019E+00    5.6019032120386330E+00    1.5592774688335634E+01
N    3.2285687466267032E+00    7.4676568052316235E+00    1.6172682816987145E+01
Ga    3.2276653964034407E+00    7.4660746049703972E+00    1.8263916744320962E+01
N    3.2298403015379984E+00    5.6022775703165495E+00    1.8717236020728631E+01
     &END COORD
     &KIND N
       BASIS_SET DZVP-MOLOPT-SR-GTH
       POTENTIAL GTH-PBE-q5
       &POTENTIAL
 2 3
  0.2837905100000000E+00 2 -0.1241522559000000E+02  0.1868095920000000E+01
 2
  0.2554050000000000E+00 1  0.1363026257000000E+02
  0.2454945300000000E+00 0
         # Potential name:  GTH-PBE-Q5  for symbol:  N
         # Potential read from the potential filename: GTH_POTENTIALS
       &END POTENTIAL
     &END KIND
     &KIND Ga
       BASIS_SET DZVP-MOLOPT-SR-GTH
       POTENTIAL GTH-PBE-q13
       &POTENTIAL
 2 1 10
  0.4900000000000000E+00 0
 3
  0.4167772300000000E+00 3  0.1047568975000000E+02 -0.4921768140000000E+01  0.8707055900000000E+00
  0.7770178090000000E+01 -0.2248152160000000E+01
  0.1784415450000000E+01
  0.5696265200000000E+00 2  0.1777985340000000E+01  0.1958597600000000E+00
 -0.2317443900000000E+00
  0.2381265000000000E+00 1 -0.1624868022000000E+02
         # Potential name:  GTH-PBE-Q13  for symbol:  GA
         # Potential read from the potential filename: GTH_POTENTIALS
       &END POTENTIAL
     &END KIND
     &TOPOLOGY
       COORD_FILE_NAME 334-native.xyz
       COORD_FILE_FORMAT  XYZ
       NUMBER_OF_ATOMS  144
       MULTIPLE_UNIT_CELL  1 1 1
     &END TOPOLOGY
   &END SUBSYS
 &END FORCE_EVAL
