 # Version information for this restart file 
 # current date 2019-05-15 22:55:19.196
 # current working dir /lustre03/project/6004141/rzk/GaN-carbene/00-Surface/00-Preoptimization/334-native/Trial3
 # Program compiled at                              Sun Apr  7 00:48:11 EDT 2019
 # Program compiled on                          beluga2.int.ets1.calculquebec.ca
 # Program compiled for                        Beluga-Linux-x86-64-intel-openmpi
 # Source code revision number                                         svn:18619
 &GLOBAL
   PRINT_LEVEL  LOW
   PROJECT_NAME TEST
   RUN_TYPE  CELL_OPT
 &END GLOBAL
 &MOTION
   &CELL_OPT
     MAX_ITER  100
     STEP_START_VAL  5
     EXTERNAL_PRESSURE     1.0000000000000000E+00
     KEEP_ANGLES  T
     KEEP_SYMMETRY  T
     CONSTRAINT  Z
     PRESSURE_TOLERANCE     1.0000000000000000E+02
   &END CELL_OPT
 &END MOTION
 &FORCE_EVAL
   METHOD  QS
   STRESS_TENSOR  ANALYTICAL
   &DFT
     BASIS_SET_FILE_NAME BASIS_MOLOPT
     POTENTIAL_FILE_NAME GTH_POTENTIALS
     &SCF
       MAX_SCF  70
       EPS_SCF     9.9999999999999995E-07
       &OT  T
         PRECONDITIONER  FULL_ALL
       &END OT
       &OUTER_SCF  T
         OPTIMIZER  NONE
         EPS_SCF     9.9999999999999995E-07
         MAX_SCF  10
       &END OUTER_SCF
       &PRINT
         &RESTART  OFF
           BACKUP_COPIES  1
           &EACH
             JUST_ENERGY  0
             QS_SCF  0
             MD  20
           &END EACH
         &END RESTART
       &END PRINT
     &END SCF
     &ALMO_SCF
       EPS_FILTER     9.9999999999999994E-12
       ALMO_SCF_GUESS  ATOMIC
       MO_OVERLAP_INV_ALG  DENSE_CHOLESKY
       ALMO_EXTRAPOLATION_ORDER  4
       XALMO_EXTRAPOLATION_ORDER  4
       ALMO_ALGORITHM  SKIP
       XALMO_TRIAL_WF  SIMPLE
       DELOCALIZE_METHOD  XALMO_SCF
       XALMO_R_CUTOFF_FACTOR     1.8000000000000000E+00
       &ALMO_OPTIMIZER_DIIS
         MAX_ITER  100
         EPS_ERROR     1.0000000000000001E-05
         N_DIIS  5
       &END ALMO_OPTIMIZER_DIIS
       &ALMO_OPTIMIZER_PCG
         MAX_ITER  50
         EPS_ERROR     1.0000000000000001E-05
         LIN_SEARCH_EPS_ERROR     5.0000000000000003E-02
         LIN_SEARCH_STEP_SIZE_GUESS     5.0000000000000001E-03
         CONJUGATOR  DAI_YUAN
         MAX_ITER_OUTER_LOOP  10
       &END ALMO_OPTIMIZER_PCG
       &XALMO_OPTIMIZER_PCG
         MAX_ITER  1000
         EPS_ERROR     1.0000000000000001E-05
         LIN_SEARCH_EPS_ERROR     1.0000000000000001E-01
         LIN_SEARCH_STEP_SIZE_GUESS     1.0000000000000000E-02
         CONJUGATOR  DAI_YUAN
         PRECOND_FILTER_THRESHOLD     1.0000000000000000E-03
         MAX_ITER_OUTER_LOOP  0
       &END XALMO_OPTIMIZER_PCG
       &MATRIX_ITERATE
         EPS_TARGET_FACTOR     1.0000000000000000E+01
       &END MATRIX_ITERATE
     &END ALMO_SCF
     &QS
       EPS_DEFAULT     1.0000000000000000E-13
       ALMO_SCF  F
       METHOD  GPW
     &END QS
     &MGRID
       NGRIDS  5
       CUTOFF     8.0000000000000000E+02
     &END MGRID
     &XC
       DENSITY_CUTOFF     1.0000000000000000E-10
       GRADIENT_CUTOFF     1.0000000000000000E-10
       TAU_CUTOFF     1.0000000000000000E-10
       &XC_FUNCTIONAL  NO_SHORTCUT
         &PBE  T
         &END PBE
       &END XC_FUNCTIONAL
       &VDW_POTENTIAL
         POTENTIAL_TYPE  PAIR_POTENTIAL
         &PAIR_POTENTIAL
           R_CUTOFF     1.0000000000000002E+01
           TYPE  DFTD3
           PARAMETER_FILE_NAME dftd3.dat
           REFERENCE_FUNCTIONAL PBE
           EPS_CN     9.9999999999999995E-07
           CALCULATE_C9_TERM  T
           REFERENCE_C9_TERM  T
           LONG_RANGE_CORRECTION  F
           VERBOSE_OUTPUT  F
         &END PAIR_POTENTIAL
       &END VDW_POTENTIAL
     &END XC
   &END DFT
   &SUBSYS
     &CELL
       A     9.7013636266405801E+00    0.0000000000000000E+00    0.0000000000000000E+00
       B    -4.8534097350502572E+00    8.4063522510564397E+00    0.0000000000000000E+00
       C     0.0000000000000000E+00    0.0000000000000000E+00    3.0744000000000000E+01
       MULTIPLE_UNIT_CELL  1 1 1
       &CELL_REF
         A     9.5580000000000016E+00    0.0000000000000000E+00    0.0000000000000000E+00
         B    -4.7790000000000008E+00    8.2774708093716640E+00    0.0000000000000000E+00
         C     0.0000000000000000E+00    0.0000000000000000E+00    3.0744000000000000E+01
         MULTIPLE_UNIT_CELL  1 1 1
       &END CELL_REF
     &END CELL
     &COORD
Ga    3.2068531417113022E-02    8.5593175276157032E-03   -1.1862350969842110E-02
N   -2.3189720929618015E-02    1.8763914061760689E+00    5.7324924142722367E-01
Ga   -7.1965852477110549E-03    1.8709719626818733E+00    2.6404400257875649E+00
N    1.0807576982174928E-03    1.9337638270109892E-03    3.2057889042963832E+00
Ga    1.0745649899485288E-03    5.3994215731039807E-04    5.2237450187851708E+00
N   -8.4254459718863532E-04    1.8676927248927908E+00    5.7999418240025422E+00
Ga   -7.1238783066047918E-04    1.8678153425168311E+00    7.8107013884692948E+00
N    3.0956351817692645E-04    1.8903741511004665E-04    8.3925271285560168E+00
Ga    1.1358659224316005E-04    1.6729766223206355E-04    1.0401897060214733E+01
N   -7.3904729656911177E-04    1.8677365831516726E+00    1.0986085905932670E+01
Ga   -7.5892948999004646E-04    1.8681140893505408E+00    1.2993146507186452E+01
N    1.5902086972403111E-04    1.9859889690786059E-04    1.3578038530767943E+01
Ga    5.3522974830873494E-05    3.3088627107236244E-04    1.5590594306229665E+01
N   -9.0320316538486335E-04    1.8678532732252833E+00    1.6169807109054993E+01
Ga   -1.7643367704307161E-05    1.8691730223040164E+00    1.8257458383637687E+01
N    3.7616808567632256E-05    7.5789230064965624E-04    1.8723746369252293E+01
Ga   -1.6579566283190170E+00    2.8409379164481035E+00   -8.8781908529075339E-03
N   -1.5907012726405452E+00    4.6899581762103706E+00    6.1693248567789538E-01
Ga   -1.6128179112284948E+00    4.6742040116622618E+00    2.6456803914918665E+00
N   -1.6203654140473909E+00    2.8047771463157156E+00    3.2086818906515884E+00
Ga   -1.6176416774519633E+00    2.8029845074984361E+00    5.2235241694148877E+00
N   -1.6184596591381388E+00    4.6702907568189556E+00    5.7993796878221886E+00
Ga   -1.6184314855131112E+00    4.6700207933482565E+00    7.8104068048318283E+00
N   -1.6176743394935145E+00    2.8022793734345766E+00    8.3925174666459874E+00
Ga   -1.6177121777944379E+00    2.8022829543541494E+00    1.0402097526545367E+01
N   -1.6184726074033828E+00    4.6699848393041545E+00    1.0986083551029154E+01
Ga   -1.6187144138144540E+00    4.6698123113193146E+00    1.2993135375885544E+01
N   -1.6176623983156624E+00    2.8023546259335013E+00    1.3577374648100665E+01
Ga   -1.6177819336011832E+00    2.8025645675966553E+00    1.5589725290943443E+01
N   -1.6186142526594651E+00    4.6694378868942286E+00    1.6169552553984957E+01
Ga   -1.6196446723547622E+00    4.6689914580330552E+00    1.8257128523844887E+01
N   -1.6179087487201698E+00    2.8029663834776004E+00    1.8725320952554203E+01
Ga   -3.2240228841411449E+00    5.5477173613771900E+00   -1.4363074266885179E-02
N   -3.2313017971374838E+00    7.4515068581505970E+00    5.7072069309721118E-01
Ga   -3.2391525360283531E+00    7.4702739816777308E+00    2.6402383008700272E+00
N   -3.2386518346536231E+00    5.6021580303760716E+00    3.2032456536908489E+00
Ga   -3.2355527579610412E+00    5.6034652427341802E+00    5.2238886532925433E+00
N   -3.2358822866714303E+00    7.4715952049352214E+00    5.7991521994486988E+00
Ga   -3.2363321877590652E+00    7.4720720315096036E+00    7.8108724368484701E+00
N   -3.2355053982445288E+00    5.6044524482285878E+00    8.3924519773316497E+00
Ga   -3.2355119347474255E+00    5.6043799898099946E+00    1.0402283885682813E+01
N   -3.2364250101493832E+00    7.4721283744928888E+00    1.0986095087814943E+01
Ga   -3.2361052294043202E+00    7.4719877410274336E+00    1.2993166266814216E+01
N   -3.2354405069886081E+00    5.6044486474731130E+00    1.3577370906914149E+01
Ga   -3.2354523161245088E+00    5.6045986828295797E+00    1.5589898042858252E+01
N   -3.2360315259224239E+00    7.4717100202884552E+00    1.6169612840883268E+01
Ga   -3.2345297607172760E+00    7.4703494618452462E+00    1.8257174717213715E+01
N   -3.2357090014963266E+00    5.6048888917336956E+00    1.8725734860794542E+01
Ga    3.2367934646812615E+00    1.9366466501054350E-02   -1.2907674538390344E-02
N    3.2410433993579253E+00    1.8837780627568195E+00    5.7443443317439435E-01
Ga    3.2287183602406686E+00    1.8713727723507032E+00    2.6407078617805619E+00
N    3.2300714508237913E+00    2.8194834989760161E-03    3.2030505417037967E+00
Ga    3.2334003220061769E+00    6.5802565374040005E-04    5.2238388877954014E+00
N    3.2338783525061912E+00    1.8681042229864477E+00    5.7984801160232813E+00
Ga    3.2331739302662297E+00    1.8679555262527621E+00    7.8108104585860243E+00
N    3.2338371479820589E+00    3.1825431245861304E-04    8.3924548133804322E+00
Ga    3.2338891593418948E+00    1.8821162505663710E-04    1.0402429807452000E+01
N    3.2331869901024799E+00    1.8679565235843938E+00    1.0986101852478049E+01
Ga    3.2328795695539405E+00    1.8677434686632217E+00    1.2993184334705111E+01
N    3.2339117039449201E+00    2.5318228263668431E-04    1.3577398798310309E+01
Ga    3.2337258998628986E+00    3.2758643405512321E-04    1.5589948140340542E+01
N    3.2327518167594853E+00    1.8676728327760885E+00    1.6169691632778864E+01
Ga    3.2314672359025960E+00    1.8666698126895844E+00    1.8257289700818134E+01
N    3.2337170109808788E+00    7.3470177061781819E-04    1.8725938923171832E+01
Ga    1.6131989163135847E+00    2.7839364759167147E+00   -4.2673195511282389E-03
N    1.6146167387063712E+00    4.6537086679163311E+00    6.1252701081103833E-01
Ga    1.6100732560246405E+00    4.6703157759040099E+00    2.6448911277236586E+00
N    1.6128718817017100E+00    2.7990581062002193E+00    3.2078958679757745E+00
Ga    1.6155019651590818E+00    2.8014392367259608E+00    5.2233564870495508E+00
N    1.6160191157570203E+00    4.6690860273659736E+00    5.8002755604768037E+00
Ga    1.6154490745504022E+00    4.6699141163061419E+00    7.8103959416166973E+00
N    1.6162206533285921E+00    2.8021221355515382E+00    8.3925669526439552E+00
Ga    1.6160888250277976E+00    2.8022587806817643E+00    1.0402289924041899E+01
N    1.6152472327123044E+00    4.6699869101365703E+00    1.0986109220323080E+01
Ga    1.6155783422031338E+00    4.6698962367607546E+00    1.2993142988652881E+01
N    1.6160847357083470E+00    2.8023379246829365E+00    1.3577373637258390E+01
Ga    1.6159546944669194E+00    2.8025569080384130E+00    1.5589932169491831E+01
N    1.6157164667214670E+00    4.6696623454707975E+00    1.6169693857034094E+01
Ga    1.6166528353223251E+00    4.6683564087534029E+00    1.8257232559922656E+01
N    1.6159214513122950E+00    2.8029068187529158E+00    1.8725949555737998E+01
Ga    3.2850810105586228E-02    5.6106836516963652E+00    1.0538578134859613E-02
N   -1.9999558450809467E-02    7.4669073357804772E+00    6.0558862423103177E-01
Ga   -5.4426693825762708E-03    7.4681950412485811E+00    2.6457447542895429E+00
N   -1.5504177597494060E-04    5.6063934075509554E+00    3.2172225529228391E+00
Ga   -4.4373693118072536E-05    5.6045837118991582E+00    5.2233498979545674E+00
N   -3.1711466097790963E-03    7.4726435664255773E+00    5.7996125700623704E+00
Ga   -2.4797595771244340E-03    7.4721653822667404E+00    7.8104617924170707E+00
N   -1.6482565480070272E-03    5.6044760704150338E+00    8.3925046441592954E+00
Ga   -1.6800903298293160E-03    5.6044184644477015E+00    1.0402078870002537E+01
N   -2.5065605274757203E-03    7.4720893207949928E+00    1.0986076723778300E+01
Ga   -2.5061389991964376E-03    7.4724016564506384E+00    1.2993117204781745E+01
N   -1.6807832985144997E-03    5.6045245295619210E+00    1.3577974187384429E+01
Ga   -1.8768135181897166E-03    5.6046463327397653E+00    1.5590701022660854E+01
N   -2.4069815362401411E-03    7.4725529559823212E+00    1.6169675002617293E+01
Ga   -2.3220974312004395E-03    7.4733207891045916E+00    1.8257266406277910E+01
N   -1.8732178347969813E-03    5.6051095228040069E+00    1.8724213437382513E+01
Ga    6.4484597507759123E+00   -2.5437137100241876E-02   -2.9398662235750137E-03
N    6.4782951214178599E+00    1.8393489529594420E+00    6.0818232790598292E-01
Ga    6.4689207013977965E+00    1.8621364215311991E+00    2.6415758581529181E+00
N    6.4652776037282678E+00   -3.4059241954363466E-03    3.2103794201135458E+00
Ga    6.4678106627228553E+00   -1.5307568038220431E-03    5.2233827830264676E+00
N    6.4668841271606770E+00    1.8675208191238808E+00    5.7985942541773667E+00
Ga    6.4669803002624260E+00    1.8677820793948845E+00    7.8105657866015212E+00
N    6.4677689670286052E+00    2.4610314479612475E-04    8.3925548155945577E+00
Ga    6.4677281719672974E+00    1.8809737774195452E-04    1.0401981598250206E+01
N    6.4667361745626781E+00    1.8678635599086013E+00    1.0986081574507947E+01
Ga    6.4671562390864334E+00    1.8677651480536632E+00    1.2993138177873467E+01
N    6.4676748364373324E+00    2.5273875285876699E-04    1.3577386858306680E+01
Ga    6.4676082980672804E+00    3.5728728932792519E-04    1.5589742070844913E+01
N    6.4672391135420426E+00    1.8675821113334783E+00    1.6169800489564640E+01
Ga    6.4681912222863591E+00    1.8663558334073602E+00    1.8257392029198972E+01
N    6.4676549218350159E+00    6.3275861311136135E-04    1.8725535099389358E+01
Ga    4.9058754085276055E+00    2.8044825608825099E+00   -1.8470868196330384E-02
N    4.8200335992733292E+00    4.6822068381247917E+00    5.7474433166518069E-01
Ga    4.8400593974155672E+00    4.6748757058859161E+00    2.6393244154234012E+00
N    4.8506381306962041E+00    2.8043477547060389E+00    3.1986045603404776E+00
Ga    4.8510346057114857E+00    2.8026308146376042E+00    5.2236605958393145E+00
N    4.8489378616387526E+00    4.6697624749922610E+00    5.7986036971256265E+00
Ga    4.8490116746786915E+00    4.6700437772210517E+00    7.8107177826226142E+00
N    4.8499887867057501E+00    2.8023434118506323E+00    8.3923365068570259E+00
Ga    4.8499519473502444E+00    2.8023138699676466E+00    1.0402069512046879E+01
N    4.8490303099890166E+00    4.6698419982875299E+00    1.0986096856474255E+01
Ga    4.8490303916514605E+00    4.6702575374827884E+00    1.2993162369708834E+01
N    4.8498625701720579E+00    2.8023615678781204E+00    1.3578068491502501E+01
Ga    4.8498500923275571E+00    2.8023657939919935E+00    1.5590717908561933E+01
N    4.8490352364591995E+00    4.6703986346839539E+00    1.6169837576136192E+01
Ga    4.8496299753678942E+00    4.6710263440003015E+00    1.8257462327987117E+01
N    4.8496904868373676E+00    2.8026058017667270E+00    1.8723807624902694E+01
Ga    3.2003951691965291E+00    5.6206152725808431E+00   -2.0602363544853278E-03
N    3.2409418955413685E+00    7.4860106811566887E+00    5.8575413058193615E-01
Ga    3.2280686158250096E+00    7.4743527383585455E+00    2.6424154699723816E+00
N    3.2287643510251711E+00    5.6077299129338325E+00    3.2096021466652642E+00
Ga    3.2310889817724546E+00    5.6054539946801043E+00    5.2232928614085798E+00
N    3.2321231635144314E+00    7.4724860884945361E+00    5.8001186818593355E+00
Ga    3.2314313212977801E+00    7.4721785372023319E+00    7.8106645366165797E+00
N    3.2322836552872309E+00    5.6044809637337263E+00    8.3926240381097799E+00
Ga    3.2321166022520975E+00    5.6044453733756878E+00    1.0402062561493866E+01
N    3.2312916109745999E+00    7.4721492123215123E+00    1.0986091906081189E+01
Ga    3.2310630294319416E+00    7.4719422555730892E+00    1.2993133965475003E+01
N    3.2320880298824854E+00    5.6044541796173837E+00    1.3577435733513804E+01
Ga    3.2319578646103921E+00    5.6045854849002534E+00    1.5589769277598572E+01
N    3.2307408498448789E+00    7.4717036204382348E+00    1.6169817088214415E+01
Ga    3.2299357355002631E+00    7.4708875994328405E+00    1.8257373112477779E+01
N    3.2319704221072612E+00    5.6047737504901853E+00    1.8725300284006391E+01
     &END COORD
     &KIND N
       BASIS_SET DZVP-MOLOPT-SR-GTH
       POTENTIAL GTH-PBE-q5
       &POTENTIAL
 2 3
  0.2837905100000000E+00 2 -0.1241522559000000E+02  0.1868095920000000E+01
 2
  0.2554050000000000E+00 1  0.1363026257000000E+02
  0.2454945300000000E+00 0
         # Potential name:  GTH-PBE-Q5  for symbol:  N
         # Potential read from the potential filename: GTH_POTENTIALS
       &END POTENTIAL
     &END KIND
     &KIND Ga
       BASIS_SET DZVP-MOLOPT-SR-GTH
       POTENTIAL GTH-PBE-q13
       &POTENTIAL
 2 1 10
  0.4900000000000000E+00 0
 3
  0.4167772300000000E+00 3  0.1047568975000000E+02 -0.4921768140000000E+01  0.8707055900000000E+00
  0.7770178090000000E+01 -0.2248152160000000E+01
  0.1784415450000000E+01
  0.5696265200000000E+00 2  0.1777985340000000E+01  0.1958597600000000E+00
 -0.2317443900000000E+00
  0.2381265000000000E+00 1 -0.1624868022000000E+02
         # Potential name:  GTH-PBE-Q13  for symbol:  GA
         # Potential read from the potential filename: GTH_POTENTIALS
       &END POTENTIAL
     &END KIND
     &TOPOLOGY
       COORD_FILE_NAME 334-native.xyz
       COORD_FILE_FORMAT  XYZ
       NUMBER_OF_ATOMS  144
       MULTIPLE_UNIT_CELL  1 1 1
     &END TOPOLOGY
   &END SUBSYS
 &END FORCE_EVAL
