 # Version information for this restart file 
 # current date 2019-05-15 22:46:17.593
 # current working dir /lustre03/project/6004141/rzk/GaN-carbene/00-Surface/00-Preoptimization/334-native/Trial3
 # Program compiled at                              Sun Apr  7 00:48:11 EDT 2019
 # Program compiled on                          beluga2.int.ets1.calculquebec.ca
 # Program compiled for                        Beluga-Linux-x86-64-intel-openmpi
 # Source code revision number                                         svn:18619
 &GLOBAL
   PRINT_LEVEL  LOW
   PROJECT_NAME TEST
   RUN_TYPE  CELL_OPT
 &END GLOBAL
 &MOTION
   &CELL_OPT
     MAX_ITER  100
     STEP_START_VAL  4
     EXTERNAL_PRESSURE     1.0000000000000000E+00
     KEEP_ANGLES  T
     KEEP_SYMMETRY  T
     CONSTRAINT  Z
     PRESSURE_TOLERANCE     1.0000000000000000E+02
   &END CELL_OPT
 &END MOTION
 &FORCE_EVAL
   METHOD  QS
   STRESS_TENSOR  ANALYTICAL
   &DFT
     BASIS_SET_FILE_NAME BASIS_MOLOPT
     POTENTIAL_FILE_NAME GTH_POTENTIALS
     &SCF
       MAX_SCF  70
       EPS_SCF     9.9999999999999995E-07
       &OT  T
         PRECONDITIONER  FULL_ALL
       &END OT
       &OUTER_SCF  T
         OPTIMIZER  NONE
         EPS_SCF     9.9999999999999995E-07
         MAX_SCF  10
       &END OUTER_SCF
       &PRINT
         &RESTART  OFF
           BACKUP_COPIES  1
           &EACH
             JUST_ENERGY  0
             QS_SCF  0
             MD  20
           &END EACH
         &END RESTART
       &END PRINT
     &END SCF
     &ALMO_SCF
       EPS_FILTER     9.9999999999999994E-12
       ALMO_SCF_GUESS  ATOMIC
       MO_OVERLAP_INV_ALG  DENSE_CHOLESKY
       ALMO_EXTRAPOLATION_ORDER  4
       XALMO_EXTRAPOLATION_ORDER  4
       ALMO_ALGORITHM  SKIP
       XALMO_TRIAL_WF  SIMPLE
       DELOCALIZE_METHOD  XALMO_SCF
       XALMO_R_CUTOFF_FACTOR     1.8000000000000000E+00
       &ALMO_OPTIMIZER_DIIS
         MAX_ITER  100
         EPS_ERROR     1.0000000000000001E-05
         N_DIIS  5
       &END ALMO_OPTIMIZER_DIIS
       &ALMO_OPTIMIZER_PCG
         MAX_ITER  50
         EPS_ERROR     1.0000000000000001E-05
         LIN_SEARCH_EPS_ERROR     5.0000000000000003E-02
         LIN_SEARCH_STEP_SIZE_GUESS     5.0000000000000001E-03
         CONJUGATOR  DAI_YUAN
         MAX_ITER_OUTER_LOOP  10
       &END ALMO_OPTIMIZER_PCG
       &XALMO_OPTIMIZER_PCG
         MAX_ITER  1000
         EPS_ERROR     1.0000000000000001E-05
         LIN_SEARCH_EPS_ERROR     1.0000000000000001E-01
         LIN_SEARCH_STEP_SIZE_GUESS     1.0000000000000000E-02
         CONJUGATOR  DAI_YUAN
         PRECOND_FILTER_THRESHOLD     1.0000000000000000E-03
         MAX_ITER_OUTER_LOOP  0
       &END XALMO_OPTIMIZER_PCG
       &MATRIX_ITERATE
         EPS_TARGET_FACTOR     1.0000000000000000E+01
       &END MATRIX_ITERATE
     &END ALMO_SCF
     &QS
       EPS_DEFAULT     1.0000000000000000E-13
       ALMO_SCF  F
       METHOD  GPW
     &END QS
     &MGRID
       NGRIDS  5
       CUTOFF     8.0000000000000000E+02
     &END MGRID
     &XC
       DENSITY_CUTOFF     1.0000000000000000E-10
       GRADIENT_CUTOFF     1.0000000000000000E-10
       TAU_CUTOFF     1.0000000000000000E-10
       &XC_FUNCTIONAL  NO_SHORTCUT
         &PBE  T
         &END PBE
       &END XC_FUNCTIONAL
       &VDW_POTENTIAL
         POTENTIAL_TYPE  PAIR_POTENTIAL
         &PAIR_POTENTIAL
           R_CUTOFF     1.0000000000000002E+01
           TYPE  DFTD3
           PARAMETER_FILE_NAME dftd3.dat
           REFERENCE_FUNCTIONAL PBE
           EPS_CN     9.9999999999999995E-07
           CALCULATE_C9_TERM  T
           REFERENCE_C9_TERM  T
           LONG_RANGE_CORRECTION  F
           VERBOSE_OUTPUT  F
         &END PAIR_POTENTIAL
       &END VDW_POTENTIAL
     &END XC
   &END DFT
   &SUBSYS
     &CELL
       A     9.7132130989927266E+00    0.0000000000000000E+00    0.0000000000000000E+00
       B    -4.8592034212176873E+00    8.4163872098615400E+00    0.0000000000000000E+00
       C     0.0000000000000000E+00    0.0000000000000000E+00    3.0744000000000000E+01
       MULTIPLE_UNIT_CELL  1 1 1
       &CELL_REF
         A     9.5580000000000016E+00    0.0000000000000000E+00    0.0000000000000000E+00
         B    -4.7790000000000008E+00    8.2774708093716640E+00    0.0000000000000000E+00
         C     0.0000000000000000E+00    0.0000000000000000E+00    3.0744000000000000E+01
         MULTIPLE_UNIT_CELL  1 1 1
       &END CELL_REF
     &END CELL
     &COORD
Ga    2.7524260610572289E-02    4.0730986562602664E-03   -1.5675511710347003E-02
N   -1.9270682257315777E-02    1.8762065316213443E+00    5.8638485277426922E-01
Ga   -6.2014330731090424E-03    1.8728668591950208E+00    2.6397238578034488E+00
N    1.3255932192989125E-03    1.4471378763142809E-03    3.2081477010302697E+00
Ga    7.4782066827071508E-04    3.8922906205869802E-04    5.2183956499186452E+00
N   -6.3769324827191620E-04    1.8699736131958298E+00    5.8025249639744505E+00
Ga   -6.5527975376005365E-04    1.8700898553490974E+00    7.8083110555134345E+00
N    2.6087367071262629E-04    1.4386491978106409E-04    8.3957301217895246E+00
Ga    9.1154619271665565E-05    1.3627113836966155E-04    1.0397638851453404E+01
N   -6.7816091046826092E-04    1.8700471846939841E+00    1.0989535876826668E+01
Ga   -7.1453958573977172E-04    1.8703625652582088E+00    1.2991130933333261E+01
N    1.3422500045318989E-04    1.4704639411743800E-04    1.3581612225527680E+01
Ga    9.5169078817855003E-05    1.2086892316733740E-04    1.5584805896663944E+01
N   -7.9812559159793460E-04    1.8702889184909337E+00    1.6169609319439349E+01
Ga   -2.5874799614883603E-04    1.8713767249556399E+00    1.8244051438419742E+01
N    1.8328908933904587E-04    2.7933459125830149E-04    1.8737569824823442E+01
Ga   -1.6510759964795656E+00    2.8390436599060700E+00   -7.8004127010358106E-03
N   -1.6009594024040397E+00    4.6909674595947228E+00    6.2060879372806044E-01
Ga   -1.6158540798007999E+00    4.6788486557864459E+00    2.6414811432225416E+00
N   -1.6216438593938454E+00    2.8072980432268335E+00    3.2101637825791736E+00
Ga   -1.6194266884157429E+00    2.8061333195281257E+00    5.2180909018923529E+00
N   -1.6205083436608085E+00    4.6757843331701610E+00    5.8020889215216869E+00
Ga   -1.6203208355001222E+00    4.6756092999779275E+00    7.8080928345881881E+00
N   -1.6196267418113215E+00    2.8055803407289255E+00    8.3957087275121154E+00
Ga   -1.6196589742292635E+00    2.8055812146515038E+00    1.0397787973219650E+01
N   -1.6203640069616421E+00    4.6756094984454144E+00    1.0989531847504479E+01
Ga   -1.6205783482003502E+00    4.6754699339083796E+00    1.2991129496465835E+01
N   -1.6196061379423461E+00    2.8056512098775994E+00    1.3581136253115398E+01
Ga   -1.6197034011045264E+00    2.8057041366743602E+00    1.5584116584962674E+01
N   -1.6205204463840766E+00    4.6752575030916406E+00    1.6169478333010765E+01
Ga   -1.6213865668454086E+00    4.6754553125619323E+00    1.8243898414411905E+01
N   -1.6197232125858025E+00    2.8057287558484996E+00    1.8738427730157266E+01
Ga   -3.2268442873280683E+00    5.5646161023772169E+00   -1.3599660433151273E-02
N   -3.2382380401070718E+00    7.4668082645968106E+00    5.8586370358046413E-01
Ga   -3.2428474983964595E+00    7.4802037852094241E+00    2.6394480895224990E+00
N   -3.2421465601555619E+00    5.6093125583625154E+00    3.2056970773462168E+00
Ga   -3.2392795585972145E+00    5.6104031478658056E+00    5.2188563088042832E+00
N   -3.2397201250466114E+00    7.4806811945573326E+00    5.8019083078458822E+00
Ga   -3.2401584813242055E+00    7.4810666009612206E+00    7.8084800283211804E+00
N   -3.2394072278313009E+00    5.6110971905977145E+00    8.3956377995269698E+00
Ga   -3.2393934683095509E+00    5.6110429220694877E+00    1.0397966264358317E+01
N   -3.2402123763548563E+00    7.4810829444345561E+00    1.0989536477554369E+01
Ga   -3.2399789709546307E+00    7.4809898630397251E+00    1.2991146907446971E+01
N   -3.2393408615275940E+00    5.6110862592889479E+00    1.3581112156867791E+01
Ga   -3.2392795326730366E+00    5.6110821943248510E+00    1.5584253718846780E+01
N   -3.2399930812795623E+00    7.4807995937434750E+00    1.6169507835716910E+01
Ga   -3.2390513408909576E+00    7.4801691241936146E+00    1.8243932634567447E+01
N   -3.2393969661354602E+00    5.6110085670239762E+00    1.8738680502182802E+01
Ga    3.2444885740997593E+00    1.4683624159084838E-02   -1.4926530815017717E-02
N    3.2397802292999658E+00    1.8828778617828192E+00    5.8751053330133518E-01
Ga    3.2325401192924121E+00    1.8726613874024767E+00    2.6395430668018074E+00
N    3.2348628988037906E+00    2.4680277831925414E-03    3.2056231125620225E+00
Ga    3.2375723043919389E+00    3.7812515787918785E-04    5.2187327375012549E+00
N    3.2377750492808275E+00    1.8703034063245472E+00    5.8013157360680419E+00
Ga    3.2371378133433861E+00    1.8701997251066995E+00    7.8085071050940256E+00
N    3.2377634169702514E+00    2.6106511343054739E-04    8.3956507125500934E+00
Ga    3.2378247777646885E+00    1.4656357555436870E-04    1.0398059591635461E+01
N    3.2371657860851810E+00    1.8702158327836118E+00    1.0989542296206960E+01
Ga    3.2369066749868143E+00    1.8700639643421606E+00    1.2991154202471877E+01
N    3.2378259974372470E+00    1.9246811787780038E-04    1.3581153947888643E+01
Ga    3.2378085680865709E+00    7.4597552494287087E-05    1.5584321830601317E+01
N    3.2367028798542776E+00    1.8701404318936032E+00    1.6169545093309324E+01
Ga    3.2358019686989672E+00    1.8697394649104757E+00    1.8243963971780239E+01
N    3.2378340110457291E+00    1.4728888607921079E-04    1.8738890985231112E+01
Ga    1.6180104590195734E+00    2.7920154223316649E+00   -8.7310222085104743E-03
N    1.6153373758893066E+00    4.6646683137507612E+00    6.1700422714685321E-01
Ga    1.6120381706341416E+00    4.6770537819293407E+00    2.6410742646493901E+00
N    1.6159610417516390E+00    2.8026991696699382E+00    3.2093066210142149E+00
Ga    1.6175164942977276E+00    2.8050860275175338E+00    5.2180858114065609E+00
N    1.6180242264814975E+00    4.6748763684115033E+00    5.8028431311287534E+00
Ga    1.6174727562409887E+00    4.6755714239373320E+00    7.8080095914594301E+00
N    1.6182077140853155E+00    2.8054422051463956E+00    8.3957470367976583E+00
Ga    1.6180873108205767E+00    2.8055683588628453E+00    1.0397945060465497E+01
N    1.6173248401017730E+00    4.6756056884178427E+00    1.0989558142834216E+01
Ga    1.6175756558654713E+00    4.6755444691526220E+00    1.2991134961523425E+01
N    1.6180972893136927E+00    2.8056258862177668E+00    1.3581123662020993E+01
Ga    1.6180829342480492E+00    2.8056778520785994E+00    1.5584256929444207E+01
N    1.6176393517588141E+00    4.6754513353527054E+00    1.6169546619048820E+01
Ga    1.6181123632660885E+00    4.6747886256686462E+00    1.8243900918944739E+01
N    1.6181392232292222E+00    2.8056976843262191E+00    1.8738869652389823E+01
Ga    2.5699242568268128E-02    5.6148217028554859E+00    5.5731480676976548E-03
N   -1.6365932656785789E-02    7.4762870226767406E+00    6.1194890527626322E-01
Ga   -4.1928943088918339E-03    7.4773321228290923E+00    2.6418011415709897E+00
N   -5.5763514510608720E-04    5.6125298244771624E+00    3.2169493264753850E+00
Ga   -2.7477385891692307E-04    5.6111518950841051E+00    5.2171939062598174E+00
N   -2.8938806008724336E-03    7.4815385227644837E+00    5.8023015584251754E+00
Ga   -2.3149232920743126E-03    7.4810973436678632E+00    7.8081015857710128E+00
N   -1.6165541584641405E-03    5.6111121352943121E+00    8.3957250737551181E+00
Ga   -1.6215473564692054E-03    5.6110729145764537E+00    1.0397793633140809E+01
N   -2.3819434968788927E-03    7.4810598472687362E+00    1.0989529018468966E+01
Ga   -2.3523299572236699E-03    7.4813323352497800E+00    1.2991114957506150E+01
N   -1.6208986448111810E-03    5.6111477565167647E+00    1.3581555837247784E+01
Ga   -1.6791798417298833E-03    5.6111007047248354E+00    1.5584917573152651E+01
N   -2.3362845832539947E-03    7.4816214614917609E+00    1.6169494738005021E+01
Ga   -2.3634776766757273E-03    7.4822554631268732E+00    1.8243885910201303E+01
N   -1.5828545174516662E-03    5.6111936754279439E+00    1.8737908355652113E+01
Ga    6.4586312326357795E+00   -1.9923525278280715E-02   -5.4440086534408164E-03
N    6.4841960688100118E+00    1.8490278808904745E+00    6.1172804979663176E-01
Ga    6.4767546541700378E+00    1.8656788843623864E+00    2.6392459127406429E+00
N    6.4737021342610914E+00   -2.1061649064716371E-03    3.2116617287264644E+00
Ga    6.4757165604558571E+00   -1.2968399764934334E-03    5.2177257270979513E+00
N    6.4747386959384308E+00    1.8700341906949021E+00    5.8014493982294040E+00
Ga    6.4749161658007441E+00    1.8700689699327675E+00    7.8083053311413115E+00
N    6.4756253002967510E+00    2.2349269569120890E-04    8.3957586741350454E+00
Ga    6.4756003322591438E+00    1.5228703546378672E-04    1.0397698752478298E+01
N    6.4747068133890853E+00    1.8701603522555619E+00    1.0989526423492489E+01
Ga    6.4750498982690639E+00    1.8700432567065406E+00    1.2991137955783364E+01
N    6.4755466592147393E+00    1.7746040680479693E-04    1.3581110157977005E+01
Ga    6.4755166086912492E+00    1.4960560535496196E-04    1.5584098562851668E+01
N    6.4751605972836614E+00    1.8699831040531130E+00    1.6169598316505652E+01
Ga    6.4755839326010927E+00    1.8694225903209367E+00    1.8243968483793896E+01
N    6.4756811589107679E+00    1.0426951143470447E-04    1.8738614599015627E+01
Ga    4.9031370566364343E+00    2.8043773495656774E+00   -1.7161072890033640E-02
N    4.8314409526426836E+00    4.6858439604389250E+00    5.8534306963809002E-01
Ga    4.8478119804954556E+00    4.6799811774812614E+00    2.6389990889775965E+00
N    4.8565275999275972E+00    2.8072207090273800E+00    3.2016002920726216E+00
Ga    4.8567689254481632E+00    2.8057642032346757E+00    5.2191536048263059E+00
N    4.8551393511194831E+00    4.6752954968024811E+00    5.8013214116398713E+00
Ga    4.8550436297279687E+00    4.6756492142934398E+00    7.8084675852490237E+00
N    4.8558972707937089E+00    2.8056463783839294E+00    8.3955469411620243E+00
Ga    4.8558871123516001E+00    2.8056095568989794E+00    1.0397794555344028E+01
N    4.8550499195651371E+00    4.6754823987149878E+00    1.0989536404764628E+01
Ga    4.8550585009402889E+00    4.6758411799922044E+00    1.2991147582386038E+01
N    4.8558067907934452E+00    2.8056390201370887E+00    1.3581644327416232E+01
Ga    4.8558569569636267E+00    2.8055008845655927E+00    1.5584907408362350E+01
N    4.8550187527387578E+00    4.6760071587668586E+00    1.6169641120518065E+01
Ga    4.8554610111634400E+00    4.6767303697753633E+00    1.8244065467149547E+01
N    4.8557828261114420E+00    2.8054392791983012E+00    1.8737593291191462E+01
Ga    3.2128196658236097E+00    5.6231627281014909E+00   -5.7453040367713600E-03
N    3.2406404009433065E+00    7.4924411073338577E+00    5.9801343021841247E-01
Ga    3.2315576285407008E+00    7.4828847897727337E+00    2.6402889025245622E+00
N    3.2344124701525896E+00    5.6132583506090752E+00    3.2107932229061480E+00
Ga    3.2351948183548882E+00    5.6119639168390130E+00    5.2178790213683151E+00
N    3.2360582350041840E+00    7.4812935606225244E+00    5.8027404300120873E+00
Ga    3.2354690496645455E+00    7.4811209569914290E+00    7.8082323207365985E+00
N    3.2362952537845304E+00    5.6110879359851449E+00    8.3957923147566067E+00
Ga    3.2361300774233581E+00    5.6110960070633435E+00    1.0397769609323152E+01
N    3.2353688391328301E+00    7.4810901393217186E+00    1.0989539008716585E+01
Ga    3.2351652945409497E+00    7.4809815653595475E+00    1.2991131424301186E+01
N    3.2361135145949578E+00    5.6110719518592278E+00    1.3581192559072059E+01
Ga    3.2360227787898204E+00    5.6110542899473561E+00    1.5584173801745088E+01
N    3.2348640822705881E+00    7.4808460203642033E+00    1.6169631716771061E+01
Ga    3.2342095686854941E+00    7.4806180897416725E+00    1.8244003536391975E+01
N    3.2361982864241821E+00    5.6109756614726090E+00    1.8738401942173915E+01
     &END COORD
     &KIND N
       BASIS_SET DZVP-MOLOPT-SR-GTH
       POTENTIAL GTH-PBE-q5
       &POTENTIAL
 2 3
  0.2837905100000000E+00 2 -0.1241522559000000E+02  0.1868095920000000E+01
 2
  0.2554050000000000E+00 1  0.1363026257000000E+02
  0.2454945300000000E+00 0
         # Potential name:  GTH-PBE-Q5  for symbol:  N
         # Potential read from the potential filename: GTH_POTENTIALS
       &END POTENTIAL
     &END KIND
     &KIND Ga
       BASIS_SET DZVP-MOLOPT-SR-GTH
       POTENTIAL GTH-PBE-q13
       &POTENTIAL
 2 1 10
  0.4900000000000000E+00 0
 3
  0.4167772300000000E+00 3  0.1047568975000000E+02 -0.4921768140000000E+01  0.8707055900000000E+00
  0.7770178090000000E+01 -0.2248152160000000E+01
  0.1784415450000000E+01
  0.5696265200000000E+00 2  0.1777985340000000E+01  0.1958597600000000E+00
 -0.2317443900000000E+00
  0.2381265000000000E+00 1 -0.1624868022000000E+02
         # Potential name:  GTH-PBE-Q13  for symbol:  GA
         # Potential read from the potential filename: GTH_POTENTIALS
       &END POTENTIAL
     &END KIND
     &TOPOLOGY
       COORD_FILE_NAME 334-native.xyz
       COORD_FILE_FORMAT  XYZ
       NUMBER_OF_ATOMS  144
       MULTIPLE_UNIT_CELL  1 1 1
     &END TOPOLOGY
   &END SUBSYS
 &END FORCE_EVAL
