 # Version information for this restart file 
 # current date 2019-05-15 22:22:46.002
 # current working dir /lustre03/project/6004141/rzk/GaN-carbene/00-Surface/00-Preoptimization/334-native/Trial3
 # Program compiled at                              Sun Apr  7 00:48:11 EDT 2019
 # Program compiled on                          beluga2.int.ets1.calculquebec.ca
 # Program compiled for                        Beluga-Linux-x86-64-intel-openmpi
 # Source code revision number                                         svn:18619
 &GLOBAL
   PRINT_LEVEL  LOW
   PROJECT_NAME TEST
   RUN_TYPE  CELL_OPT
 &END GLOBAL
 &MOTION
   &CELL_OPT
     MAX_ITER  100
     STEP_START_VAL  2
     EXTERNAL_PRESSURE     1.0000000000000000E+00
     KEEP_ANGLES  T
     KEEP_SYMMETRY  T
     CONSTRAINT  Z
     PRESSURE_TOLERANCE     1.0000000000000000E+02
   &END CELL_OPT
 &END MOTION
 &FORCE_EVAL
   METHOD  QS
   STRESS_TENSOR  ANALYTICAL
   &DFT
     BASIS_SET_FILE_NAME BASIS_MOLOPT
     POTENTIAL_FILE_NAME GTH_POTENTIALS
     &SCF
       MAX_SCF  70
       EPS_SCF     9.9999999999999995E-07
       &OT  T
         PRECONDITIONER  FULL_ALL
       &END OT
       &OUTER_SCF  T
         OPTIMIZER  NONE
         EPS_SCF     9.9999999999999995E-07
         MAX_SCF  10
       &END OUTER_SCF
       &PRINT
         &RESTART  OFF
           BACKUP_COPIES  1
           &EACH
             JUST_ENERGY  0
             QS_SCF  0
             MD  20
           &END EACH
         &END RESTART
       &END PRINT
     &END SCF
     &ALMO_SCF
       EPS_FILTER     9.9999999999999994E-12
       ALMO_SCF_GUESS  ATOMIC
       MO_OVERLAP_INV_ALG  DENSE_CHOLESKY
       ALMO_EXTRAPOLATION_ORDER  4
       XALMO_EXTRAPOLATION_ORDER  4
       ALMO_ALGORITHM  SKIP
       XALMO_TRIAL_WF  SIMPLE
       DELOCALIZE_METHOD  XALMO_SCF
       XALMO_R_CUTOFF_FACTOR     1.8000000000000000E+00
       &ALMO_OPTIMIZER_DIIS
         MAX_ITER  100
         EPS_ERROR     1.0000000000000001E-05
         N_DIIS  5
       &END ALMO_OPTIMIZER_DIIS
       &ALMO_OPTIMIZER_PCG
         MAX_ITER  50
         EPS_ERROR     1.0000000000000001E-05
         LIN_SEARCH_EPS_ERROR     5.0000000000000003E-02
         LIN_SEARCH_STEP_SIZE_GUESS     5.0000000000000001E-03
         CONJUGATOR  DAI_YUAN
         MAX_ITER_OUTER_LOOP  10
       &END ALMO_OPTIMIZER_PCG
       &XALMO_OPTIMIZER_PCG
         MAX_ITER  1000
         EPS_ERROR     1.0000000000000001E-05
         LIN_SEARCH_EPS_ERROR     1.0000000000000001E-01
         LIN_SEARCH_STEP_SIZE_GUESS     1.0000000000000000E-02
         CONJUGATOR  DAI_YUAN
         PRECOND_FILTER_THRESHOLD     1.0000000000000000E-03
         MAX_ITER_OUTER_LOOP  0
       &END XALMO_OPTIMIZER_PCG
       &MATRIX_ITERATE
         EPS_TARGET_FACTOR     1.0000000000000000E+01
       &END MATRIX_ITERATE
     &END ALMO_SCF
     &QS
       EPS_DEFAULT     1.0000000000000000E-13
       ALMO_SCF  F
       METHOD  GPW
     &END QS
     &MGRID
       NGRIDS  5
       CUTOFF     8.0000000000000000E+02
     &END MGRID
     &XC
       DENSITY_CUTOFF     1.0000000000000000E-10
       GRADIENT_CUTOFF     1.0000000000000000E-10
       TAU_CUTOFF     1.0000000000000000E-10
       &XC_FUNCTIONAL  NO_SHORTCUT
         &PBE  T
         &END PBE
       &END XC_FUNCTIONAL
       &VDW_POTENTIAL
         POTENTIAL_TYPE  PAIR_POTENTIAL
         &PAIR_POTENTIAL
           R_CUTOFF     1.0000000000000002E+01
           TYPE  DFTD3
           PARAMETER_FILE_NAME dftd3.dat
           REFERENCE_FUNCTIONAL PBE
           EPS_CN     9.9999999999999995E-07
           CALCULATE_C9_TERM  T
           REFERENCE_C9_TERM  T
           LONG_RANGE_CORRECTION  F
           VERBOSE_OUTPUT  F
         &END PAIR_POTENTIAL
       &END VDW_POTENTIAL
     &END XC
   &END DFT
   &SUBSYS
     &CELL
       A     9.7074337262845471E+00    0.0000000000000000E+00    0.0000000000000000E+00
       B    -4.8560522810119418E+00    8.4109292749234150E+00    0.0000000000000000E+00
       C     0.0000000000000000E+00    0.0000000000000000E+00    3.0744000000000000E+01
       MULTIPLE_UNIT_CELL  1 1 1
       &CELL_REF
         A     9.5580000000000016E+00    0.0000000000000000E+00    0.0000000000000000E+00
         B    -4.7790000000000008E+00    8.2774708093716640E+00    0.0000000000000000E+00
         C     0.0000000000000000E+00    0.0000000000000000E+00    3.0744000000000000E+01
         MULTIPLE_UNIT_CELL  1 1 1
       &END CELL_REF
     &END CELL
     &COORD
Ga    1.5439247504622193E-02   -1.5443426925297583E-03   -1.4834698333062607E-02
N   -1.0947849276796444E-02    1.8713451601767503E+00    6.1622757682612439E-01
Ga   -3.8040994647890250E-03    1.8707412195602846E+00    2.6247696907075420E+00
N    1.0578811429298879E-03    5.6679310596007568E-04    3.2192649911873574E+00
Ga    2.4880179337365957E-04    1.1884946697935833E-04    5.2034649562341952E+00
N   -3.8111993533102012E-04    1.8689246646023818E+00    5.8141124818933330E+00
Ga   -5.4133914357393058E-04    1.8690091270439095E+00    7.7963369438323165E+00
N    1.1057284333451448E-04    3.3213360624152490E-05    8.4078820987705658E+00
Ga    3.2938171562322958E-05    4.2827944260953339E-05    1.0385248482481838E+01
N   -5.5429064005503787E-04    1.8690006501762164E+00    1.1001552872216871E+01
Ga   -5.5136745077083123E-04    1.8692111440187191E+00    1.2980647148252777E+01
N    5.5537489303307860E-05    4.3550580274040998E-05    1.3594297545980803E+01
Ga    5.6024912543581801E-05   -4.2115083998092233E-05    1.5571033531680525E+01
N   -5.3780146526504619E-04    1.8692696798170441E+00    1.6179686491270232E+01
Ga   -3.2901973793077953E-04    1.8696132176719789E+00    1.8203460378475611E+01
N    8.8047081363060297E-05    1.6008837289049798E-04    1.8767579166301314E+01
Ga   -1.6316512413074853E+00    2.8219423576635014E+00   -6.4934447723526637E-03
N   -1.6138199279742458E+00    4.6791748836753131E+00    6.3200889177134223E-01
Ga   -1.6173310752161196E+00    4.6742226090720722E+00    2.6228150078947077E+00
N   -1.6192526505743592E+00    2.8039815441311040E+00    3.2202218150576840E+00
Ga   -1.6183686984305465E+00    2.8039230031753459E+00    5.2030501604681021E+00
N   -1.6194436863821646E+00    4.6727120536139708E+00    5.8140215599008602E+00
Ga   -1.6191797221836508E+00    4.6726701235471504E+00    7.7962145143017709E+00
N   -1.6186474564853774E+00    2.8036521541233164E+00    8.4078623277747688E+00
Ga   -1.6186607901574890E+00    2.8036651398574812E+00    1.0385318172639648E+01
N   -1.6192031679630872E+00    4.6726933994746300E+00    1.1001550941080882E+01
Ga   -1.6193721721021248E+00    4.6726104121973187E+00    1.2980676731373221E+01
N   -1.6186247541175909E+00    2.8037070996704818E+00    1.3594062668997744E+01
Ga   -1.6187688425358318E+00    2.8037771023600104E+00    1.5570698398521975E+01
N   -1.6193351305106229E+00    4.6725392773825618E+00    1.6179623625821844E+01
Ga   -1.6197486907953444E+00    4.6727008712633289E+00    1.8203323169132783E+01
N   -1.6187445127382498E+00    2.8036729270995169E+00    1.8767753206832712E+01
Ga   -3.2281954488541120E+00    5.5850697269997367E+00   -9.5943610864130304E-03
N   -3.2397945966735642E+00    7.4711232937644620E+00    6.1776612082745752E-01
Ga   -3.2395016200272253E+00    7.4761016824348356E+00    2.6239812878058992E+00
N   -3.2390723188761190E+00    5.6066071385578207E+00    3.2181337062528876E+00
Ga   -3.2371549087190510E+00    5.6071216968980444E+00    5.2037577776502459E+00
N   -3.2376860165716081E+00    7.4761836896408758E+00    5.8138511384509268E+00
Ga   -3.2379250590334325E+00    7.4763592133884087E+00    7.7964321877427381E+00
N   -3.2373893881167271E+00    5.6073289186199426E+00    8.4078088852632735E+00
Ga   -3.2373419603514555E+00    5.6073229693916664E+00    1.0385441023498167E+01
N   -3.2379612592078382E+00    7.4763489205258367E+00    1.1001552079069461E+01
Ga   -3.2378090172412550E+00    7.4762422412595502E+00    1.2980672720035336E+01
N   -3.2373492680857114E+00    5.6073325031288030E+00    1.3594011834510697E+01
Ga   -3.2372295506034567E+00    5.6073739880689910E+00    1.5570700617238098E+01
N   -3.2379028470008464E+00    7.4761239914485014E+00    1.6179623214586670E+01
Ga   -3.2374456682070880E+00    7.4758501722002650E+00    1.8203358374776801E+01
N   -3.2373514120206428E+00    5.6072456786934985E+00    1.8767795933822320E+01
Ga    3.2435808682347211E+00    5.8441779648134139E-03   -1.4203173537787167E-02
N    3.2331179183639631E+00    1.8761103376692347E+00    6.1706063453702320E-01
Ga    3.2324063384048798E+00    1.8700088715758152E+00    2.6239449235511461E+00
N    3.2344212826671503E+00    1.5302209017736003E-03    3.2181523639803218E+00
Ga    3.2358485756569833E+00   -9.9983287864887216E-06    5.2037168753354281E+00
N    3.2356506851416267E+00    1.8691314830233345E+00    5.8134954471837865E+00
Ga    3.2352914583563273E+00    1.8690472491675083E+00    7.7965466672737556E+00
N    3.2357878855690361E+00    1.1013179239665264E-04    8.4078423032843261E+00
Ga    3.2358489143788844E+00    3.9649144775657120E-05    1.0385435396142359E+01
N    3.2353296678816235E+00    1.8690933887435417E+00    1.1001554310586087E+01
Ga    3.2351156819792988E+00    1.8690005377567549E+00    1.2980663187384328E+01
N    3.2358207709138362E+00    6.0447725488518814E-05    1.3594058246015493E+01
Ga    3.2358903770321934E+00   -4.0188058918974350E-05    1.5570804471669984E+01
N    3.2349374906329711E+00    1.8690752670417004E+00    1.6179643622701729E+01
Ga    3.2346466406959253E+00    1.8688566156097448E+00    1.8203387188189829E+01
N    3.2358741678162501E+00    3.6511061912854966E-05    1.8767960073511397E+01
Ga    1.6197611799389113E+00    2.7983902599462507E+00   -1.0949201952133525E-02
N    1.6144764513098002E+00    4.6691974152366287E+00    6.3014030736432536E-01
Ga    1.6128558718923309E+00    4.6745259448034178E+00    2.6231797386643514E+00
N    1.6165811620947030E+00    2.8018997745877661E+00    3.2193538691322368E+00
Ga    1.6167490469314874E+00    2.8035663903932648E+00    5.2033762305764535E+00
N    1.6170476868942287E+00    4.6722969994186165E+00    5.8143219157543093E+00
Ga    1.6166228759263734E+00    4.6726871670410359E+00    7.7961431866675337E+00
N    1.6172247867812182E+00    2.8035858704494485E+00    8.4078767621391055E+00
Ga    1.6171534816876074E+00    2.8036589172022843E+00    1.0385411994474058E+01
N    1.6165825609746747E+00    4.6727046945132269E+00    1.1001565588568369E+01
Ga    1.6167101444298633E+00    4.6726072516138295E+00    1.2980675750868341E+01
N    1.6171613476967472E+00    2.8036738255624281E+00    1.3594025945935025E+01
Ga    1.6172126172622967E+00    2.8037797016335126E+00    1.5570680291876471E+01
N    1.6167682067836975E+00    4.6724800699186444E+00    1.6179644468172377E+01
Ga    1.6169467833497362E+00    4.6723016579702668E+00    1.8203316562317440E+01
N    1.6172095957381156E+00    2.8036989583451870E+00    1.8767910139816415E+01
Ga    1.0885993669147716E-02    5.6077178389295090E+00   -3.3114889296802135E-03
N   -8.9339367909228393E-03    7.4737205225145891E+00    6.2945325707279598E-01
Ga   -2.7157166047057039E-03    7.4740210439800281E+00    2.6227625891811432E+00
N   -9.6408680062519078E-04    5.6076737950353328E+00    3.2234952476036751E+00
Ga   -9.0575284691609683E-04    5.6073231799016279E+00    5.2020339794316035E+00
N   -2.3279964312676931E-03    7.4766346396700047E+00    5.8141528548936279E+00
Ga   -2.0481725371116026E-03    7.4763361813083522E+00    7.7961799601374411E+00
N   -1.5230374938321046E-03    5.6073305689586865E+00    8.4079008722895541E+00
Ga   -1.5221878936865251E-03    5.6073391025133406E+00    1.0385315866009609E+01
N   -2.1086085160052959E-03    7.4763177251279087E+00    1.1001552736548369E+01
Ga   -2.0295670680245399E-03    7.4765095340554399E+00    1.2980661030073263E+01
N   -1.5161529997130857E-03    5.6073572088260768E+00    1.3594237966196307E+01
Ga   -1.5662571966212843E-03    5.6073428947068367E+00    1.5571082212319055E+01
N   -2.0134389178975971E-03    7.4767203230881458E+00    1.6179615919046849E+01
Ga   -2.0609903336780036E-03    7.4769032724219091E+00    1.8203298411331328E+01
N   -1.4799869533600133E-03    5.6073414180793666E+00    1.8767713553517517E+01
Ga    6.4616747783111226E+00   -8.9873236556975069E-03   -9.1470901682445937E-03
N    6.4756018995195905E+00    1.8616399027325521E+00    6.2595774343737698E-01
Ga    6.4721546634292002E+00    1.8672971863681012E+00    2.6229897923703693E+00
N    6.4711028016203915E+00   -3.7758944457039716E-04    3.2210113158410327E+00
Ga    6.4717559500564619E+00   -6.8311532117579861E-04    5.2027662237958925E+00
N    6.4709201907072949E+00    1.8691506794353638E+00    5.8136370397399588E+00
Ga    6.4711274979132192E+00    1.8690046955899062E+00    7.7964319125248887E+00
N    6.4716887563389669E+00    9.9670032147369388E-05    8.4079089594038710E+00
Ga    6.4716627939334304E+00    4.9051015902953611E-05    1.0385286422404212E+01
N    6.4710142616532700E+00    1.8690905675060452E+00    1.1001542202953722E+01
Ga    6.4712380386498456E+00    1.8689132109156419E+00    1.2980680835523273E+01
N    6.4716344519230322E+00    4.4464273602880687E-05    1.3593990301955531E+01
Ga    6.4715894643472751E+00    1.8400306276996037E-05    1.5570621843955406E+01
N    6.4713457931510474E+00    1.8689256084286294E+00    1.6179670412405816E+01
Ga    6.4714406476736519E+00    1.8686777661237746E+00    1.8203358044821211E+01
N    6.4717059786954652E+00    8.5176716716591789E-06    1.8767856959923790E+01
Ga    4.8770516257818803E+00    2.7995138258872494E+00   -1.1732830046690321E-02
N    4.8405476234431069E+00    4.6780556503538238E+00    6.1340814818315692E-01
Ga    4.8490979591230845E+00    4.6752060580233437E+00    2.6246557129296022E+00
N    4.8532861945448600E+00    2.8043660424257553E+00    3.2157480742370215E+00
Ga    4.8534318634980966E+00    2.8036519617111786E+00    5.2044163350109525E+00
N    4.8525231581992756E+00    4.6724174769333366E+00    5.8134233456442921E+00
Ga    4.8523852543445676E+00    4.6726965799063258E+00    7.7965758992806276E+00
N    4.8529832360306413E+00    2.8037100684353500E+00    8.4077521041261516E+00
Ga    4.8529963893408370E+00    2.8036768503763718E+00    1.0385329053139445E+01
N    4.8523657271627467E+00    4.6726105999367578E+00    1.1001543920468650E+01
Ga    4.8524159560508817E+00    4.6728564980866016E+00    1.2980668945549134E+01
N    4.8529309756809829E+00    2.8037084791414788E+00    1.3594318322906318E+01
Ga    4.8530084863581013E+00    2.8035901881076315E+00    1.5571068062437559E+01
N    4.8524033067910715E+00    4.6729343387666047E+00    1.6179703557445112E+01
Ga    4.8526236662026188E+00    4.6732661503752366E+00    1.8203461499601651E+01
N    4.8529203221775612E+00    2.8036021920676979E+00    1.8767547918523142E+01
Ga    3.2260816917252937E+00    5.6117191929164774E+00   -8.2573291131041691E-03
N    3.2343143453126015E+00    7.4821367778032535E+00    6.2309634770823363E-01
Ga    3.2307916186738046E+00    7.4772364681038193E+00    2.6239030829640395E+00
N    3.2345187704913121E+00    5.6079221230006757E+00    3.2201434763502439E+00
Ga    3.2337869572345288E+00    5.6078243068309783E+00    5.2031431142854681E+00
N    3.2340972118835154E+00    7.4763503549920891E+00    5.8142641943776630E+00
Ga    3.2337567299940626E+00    7.4763646431990765E+00    7.7962610108435131E+00
N    3.2344120658323350E+00    5.6073046073138340E+00    8.4078792900925645E+00
Ga    3.2343013611410543E+00    5.6073447822940343E+00    1.0385338463251307E+01
N    3.2337406540948597E+00    7.4763275498570341E+00    1.1001551406444479E+01
Ga    3.2335371687595624E+00    7.4763106387017464E+00    1.2980676159906444E+01
N    3.2343124871443663E+00    5.6073034735423173E+00    1.3594091549267054E+01
Ga    3.2341983477226188E+00    5.6073566515720694E+00    1.5570739656056883E+01
N    3.2333883060506921E+00    7.4762312860284075E+00    1.6179678801859811E+01
Ga    3.2331261458573524E+00    7.4761400023084459E+00    1.8203375566259975E+01
N    3.2343593626637643E+00    5.6072813066059712E+00    1.8767723955195414E+01
     &END COORD
     &KIND N
       BASIS_SET DZVP-MOLOPT-SR-GTH
       POTENTIAL GTH-PBE-q5
       &POTENTIAL
 2 3
  0.2837905100000000E+00 2 -0.1241522559000000E+02  0.1868095920000000E+01
 2
  0.2554050000000000E+00 1  0.1363026257000000E+02
  0.2454945300000000E+00 0
         # Potential name:  GTH-PBE-Q5  for symbol:  N
         # Potential read from the potential filename: GTH_POTENTIALS
       &END POTENTIAL
     &END KIND
     &KIND Ga
       BASIS_SET DZVP-MOLOPT-SR-GTH
       POTENTIAL GTH-PBE-q13
       &POTENTIAL
 2 1 10
  0.4900000000000000E+00 0
 3
  0.4167772300000000E+00 3  0.1047568975000000E+02 -0.4921768140000000E+01  0.8707055900000000E+00
  0.7770178090000000E+01 -0.2248152160000000E+01
  0.1784415450000000E+01
  0.5696265200000000E+00 2  0.1777985340000000E+01  0.1958597600000000E+00
 -0.2317443900000000E+00
  0.2381265000000000E+00 1 -0.1624868022000000E+02
         # Potential name:  GTH-PBE-Q13  for symbol:  GA
         # Potential read from the potential filename: GTH_POTENTIALS
       &END POTENTIAL
     &END KIND
     &TOPOLOGY
       COORD_FILE_NAME 334-native.xyz
       COORD_FILE_FORMAT  XYZ
       NUMBER_OF_ATOMS  144
       MULTIPLE_UNIT_CELL  1 1 1
     &END TOPOLOGY
   &END SUBSYS
 &END FORCE_EVAL
