 # Version information for this restart file 
 # current date 2019-06-24 14:36:04.334
 # current working dir /scratch/rzk/rzk/GaN-carbene/443-adatoms-both-2x2/02-Methanol/02-O-GaSur
 # Program compiled at                              Sun Apr  7 00:48:11 EDT 2019
 # Program compiled on                          beluga2.int.ets1.calculquebec.ca
 # Program compiled for                        Beluga-Linux-x86-64-intel-openmpi
 # Source code revision number                                         svn:18619
 &GLOBAL
   PRINT_LEVEL  MEDIUM
   PROJECT_NAME TEST
   RUN_TYPE  GEO_OPT
 &END GLOBAL
 &MOTION
   &GEO_OPT
     MAX_ITER  500
     STEP_START_VAL  52
   &END GEO_OPT
 &END MOTION
 &FORCE_EVAL
   METHOD  QS
   STRESS_TENSOR  ANALYTICAL
   &DFT
     BASIS_SET_FILE_NAME BASIS_MOLOPT
     POTENTIAL_FILE_NAME GTH_POTENTIALS
     UKS  T
     SURFACE_DIPOLE_CORRECTION  T
     SURF_DIP_DIR  Z
     &SCF
       MAX_SCF  80
       EPS_SCF     5.0000000000000004E-06
       &OT  T
         PRECONDITIONER  FULL_ALL
       &END OT
       &OUTER_SCF  T
         OPTIMIZER  NONE
         EPS_SCF     5.0000000000000004E-06
         MAX_SCF  4
       &END OUTER_SCF
       &PRINT
         &RESTART  OFF
           BACKUP_COPIES  1
           &EACH
             JUST_ENERGY  0
             QS_SCF  0
             MD  20
           &END EACH
         &END RESTART
       &END PRINT
     &END SCF
     &QS
       EPS_DEFAULT     1.0000000000000000E-14
       METHOD  GPW
     &END QS
     &MGRID
       NGRIDS  5
       CUTOFF     1.2000000000000000E+03
     &END MGRID
     &XC
       DENSITY_CUTOFF     1.0000000000000000E-10
       GRADIENT_CUTOFF     1.0000000000000000E-10
       TAU_CUTOFF     1.0000000000000000E-10
       &XC_FUNCTIONAL  NO_SHORTCUT
         &PBE  T
         &END PBE
       &END XC_FUNCTIONAL
       &VDW_POTENTIAL
         POTENTIAL_TYPE  PAIR_POTENTIAL
         &PAIR_POTENTIAL
           R_CUTOFF     1.0000000000000004E+01
           TYPE  DFTD3
           PARAMETER_FILE_NAME dftd3.dat
           REFERENCE_FUNCTIONAL PBE
           EPS_CN     9.9999999999999995E-07
           CALCULATE_C9_TERM  T
           REFERENCE_C9_TERM  T
           LONG_RANGE_CORRECTION  F
           VERBOSE_OUTPUT  F
         &END PAIR_POTENTIAL
       &END VDW_POTENTIAL
     &END XC
   &END DFT
   &SUBSYS
     &CELL
       A     1.2864472766435110E+01    0.0000000000000000E+00    0.0000000000000000E+00
       B    -6.4322363581020028E+00    1.1140960178524473E+01    0.0000000000000000E+00
       C     0.0000000000000000E+00    0.0000000000000000E+00    3.2000000000000000E+01
       MULTIPLE_UNIT_CELL  1 1 1
       &CELL_REF
         A     1.2982353780853531E+01    0.0000000000000000E+00    0.0000000000000000E+00
         B    -6.4911768904267628E+00    1.1243048175136114E+01    0.0000000000000000E+00
         C     0.0000000000000000E+00    0.0000000000000000E+00    3.2000000000000000E+01
         MULTIPLE_UNIT_CELL  1 1 1
       &END CELL_REF
     &END CELL
     &COORD
N    1.0352783740327848E-02    2.0227188280920867E+00    2.4892974966553743E+00
Ga    1.0779429493657551E-02    4.8496775671360605E-02    2.8243127887711967E+00
N    1.3549739232093226E-02    4.5782502418093264E-02    4.9798411661020747E+00
Ga    1.6979253852748125E-02    1.8766456749343008E+00    5.7586278757520803E+00
N    1.4028796209997208E-02    1.8922944559212627E+00    7.7557362653966591E+00
Ga    1.3152720062311211E-02    4.7149399091123555E-02    8.4034897194881335E+00
N    1.2968223070694562E-02    4.7778859623991608E-02    1.0378653132742818E+01
Ga    1.2251143276118166E-02    1.8886508050267889E+00    1.1027144427155527E+01
N    1.1178502606857049E-02    1.8703333746640560E+00    1.3020599831980167E+01
Ga    5.6510416014752887E-03    5.4060349626933825E-02    1.3821870654717738E+01
N    4.1098184492661290E-03    5.4500265136170845E-02    1.6030137642471011E+01
Ga    9.5939644210690875E-03    2.1108320473593598E+00    1.6459350563173725E+01
Ga   -1.6584374814867530E-02    3.7370122134105763E+00    1.4275040549777143E+00
N   -1.4915588664234030E+00    4.6235608470126737E+00    2.4885273980368385E+00
Ga   -1.6937458351012729E+00    2.7730379668935696E+00    3.2567311634504659E+00
N   -1.5970268174824900E+00    2.8295043579334469E+00    5.2168824701201411E+00
Ga   -1.6152968226370079E+00    4.7036920373559727E+00    5.7584586985652964E+00
N   -1.6043932658968301E+00    4.6955488880860123E+00    7.7554020363012395E+00
Ga   -1.5838079539519538E+00    2.8387373452064040E+00    8.3960249847248534E+00
N   -1.5846514729869943E+00    2.8395444468404363E+00    1.0389136101385594E+01
Ga   -1.6094047672279086E+00    4.6981649953956754E+00    1.1027211633537414E+01
N   -1.6272121043562409E+00    4.7082737418756828E+00    1.3020622503509983E+01
Ga   -1.5855272218065166E+00    2.8405055840984756E+00    1.3581493546682104E+01
N   -1.6135982704195333E+00    2.8250829409010643E+00    1.5540568746879373E+01
Ga   -1.4209368364273807E+00    4.5880842378790385E+00    1.6459130275789740E+01
N    1.4584638814004318E-02    3.7652274932938412E+00    1.7609636396710123E+01
N   -3.2035606965288679E+00    7.5948323225541943E+00    2.4837696302802859E+00
Ga   -3.2005587079140434E+00    5.6117630394456324E+00    2.8225241209688132E+00
N   -3.2025538696579710E+00    5.6159143630552304E+00    4.9787210819590344E+00
Ga   -3.2033410301769512E+00    7.4446192080009617E+00    5.7572524768000397E+00
N   -3.2035848143405858E+00    7.4640211227814977E+00    7.7547158687191491E+00
Ga   -3.2024317766784636E+00    5.6181116922033407E+00    8.4034095740361607E+00
N   -3.2031201030103005E+00    5.6190531149483567E+00    1.0378364505297526E+01
Ga   -3.2036529495201131E+00    7.4575723657816946E+00    1.1028533900573507E+01
N   -3.2041920574802871E+00    7.4388290562979398E+00    1.3027622493545229E+01
Ga   -3.2034290518474098E+00    5.6115454624760774E+00    1.3822165528920459E+01
N   -3.2044163015392768E+00    5.6115141704771743E+00    1.6029100845936625E+01
Ga   -3.2046154293488982E+00    7.6235445053453752E+00    1.6408464388320716E+01
Ga   -3.2028330943834664E+00    9.3318877062746761E+00    1.4611763314031903E+00
N   -4.7059117607891121E+00    1.0195732314499834E+01    2.4857703942376701E+00
Ga   -4.9173847017849326E+00    8.3393137636481480E+00    3.2445570366657570E+00
N   -4.8150453819137402E+00    8.3988511562430528E+00    5.2068330263245137E+00
Ga   -4.8363442421345813E+00    1.0271540264469539E+01    5.7585595464480237E+00
N   -4.8207122370412581E+00    1.0263824739824015E+01    7.7556849830888046E+00
Ga   -4.8016313549709455E+00    8.4081882196928088E+00    8.3978904852321250E+00
N   -4.8003874048538036E+00    8.4100838276322545E+00    1.0393165989641963E+01
Ga   -4.8268615894263904E+00    1.0269523141794163E+01    1.1028093628675071E+01
N   -4.8446317465082238E+00    1.0280386301262737E+01    1.3027253309662555E+01
Ga   -4.8011598899874812E+00    8.4114053974208325E+00    1.3576600721529339E+01
N   -4.8245561754302626E+00    8.3992556004560370E+00    1.5550534714096226E+01
Ga   -4.6855357094199004E+00    1.0189764967525294E+01    1.6408624584057446E+01
N   -3.2097207311633138E+00    9.3310525229830805E+00    1.7524254292705724E+01
N    3.2300923741385974E+00    1.9066780514557478E+00    2.5672884049122882E+00
Ga    3.2280285836512546E+00    1.6500948306858923E-01    3.2505330237823493E+00
N    3.2287733339324434E+00    4.7934615631526449E-02    5.2117412526616995E+00
Ga    3.2274418818685291E+00    1.9073601612400217E+00    5.8336218622061722E+00
N    3.2282934837715489E+00    1.9038668098918672E+00    7.8078637595759979E+00
Ga    3.2285106173023559E+00    3.6313508313509615E-02    8.3952007977967114E+00
N    3.2283687914007992E+00    3.4907854443704929E-02    1.0391000500931325E+01
Ga    3.2277476458805796E+00    1.9050017898178697E+00    1.0984659264772898E+01
N    3.2281316081323812E+00    1.9034795776278579E+00    1.2958462448759988E+01
Ga    3.2279811524957709E+00    3.7045280286858842E-02    1.3575622904353661E+01
N    3.2285777684613493E+00    6.3312080200610035E-02    1.5548642320960429E+01
Ga    3.2263243912074437E+00    1.9104489926932395E+00    1.5822429153713983E+01
N    1.5008977256355900E+00    4.6228924845382995E+00    2.4412257312179513E+00
Ga    1.7195842786629083E+00    2.7854660136334082E+00    3.2387241820593129E+00
N    1.6216638603431319E+00    2.8343991846568515E+00    5.2033873016871723E+00
Ga    1.6620998905057036E+00    4.7112094507471474E+00    5.7549477238268949E+00
N    1.6279962278656863E+00    4.6930503508945653E+00    7.7600916597074265E+00
Ga    1.6111830264996965E+00    2.8394565500798068E+00    8.3975100687629212E+00
N    1.6096605048125781E+00    2.8392096694679796E+00    1.0391522795893984E+01
Ga    1.6356993824364947E+00    4.6991700602054554E+00    1.1028596901781507E+01
N    1.6510255977903465E+00    4.7092091265325706E+00    1.3023243851761050E+01
Ga    1.6080131346828683E+00    2.8407501400331521E+00    1.3581548281056097E+01
N    1.6344348988216233E+00    2.8217310108446578E+00    1.5541246700548960E+01
Ga    1.4482895922548489E+00    4.5926309065652031E+00    1.6458485361396111E+01
N    1.9991776757905606E-02    7.4685159110710817E+00    2.5573526374137869E+00
Ga    2.1345557262262099E-02    5.7229306141894494E+00    3.2406606514225804E+00
N    1.6092654044138826E-02    5.6158181523381572E+00    5.2040831475934439E+00
Ga    1.6508743578609271E-02    7.4696243772575555E+00    5.8346529579765214E+00
N    1.2864493492499426E-02    7.4735160016949811E+00    7.8083877867874181E+00
Ga    1.4291795881166887E-02    5.6052617424951823E+00    8.3976202665694863E+00
N    1.2224161332786369E-02    5.6066158379284525E+00    1.0391645052291789E+01
Ga    1.2037569102825158E-02    7.4752557086393274E+00    1.0985349113208612E+01
N    1.0042809326444458E-02    7.4779140746189059E+00    1.2959492628390581E+01
Ga    1.1380820966382852E-02    5.6061246172984145E+00    1.3582146330741297E+01
N    7.5209143896801675E-03    5.6403397593313747E+00    1.5541871743359861E+01
Ga    1.3274467623548713E-02    7.4746722777627417E+00    1.5823889559111581E+01
N   -1.7013214401046786E+00    1.0196076021168373E+01    2.4872816364482606E+00
Ga   -1.4896199234851157E+00    8.3389057220995291E+00    3.2458785241330719E+00
N   -1.5916290983027435E+00    8.3988209680467723E+00    5.2079769182945954E+00
Ga   -1.5704578102028504E+00    1.0271580025120947E+01    5.7586522250871628E+00
N   -1.5861815469941303E+00    1.0264062818000530E+01    7.7556119962163663E+00
Ga   -1.6044278036470276E+00    8.4074768774433259E+00    8.3959240175408905E+00
N   -1.6072556730349257E+00    8.4100820669103413E+00    1.0391542633777970E+01
Ga   -1.5809852662873347E+00    1.0269272374400916E+01    1.1027068166044270E+01
N   -1.5644078481388810E+00    1.0280086197713411E+01    1.3025904985663686E+01
Ga   -1.6068286739894784E+00    8.4111827815770699E+00    1.3575975221936122E+01
N   -1.5847308034414413E+00    8.4004285165088657E+00    1.5549172996264321E+01
Ga   -1.7289982119468490E+00    1.0186774717964713E+01    1.6408615291132143E+01
N    6.4483397755623875E+00    2.0232024565877174E+00    2.4918800173189424E+00
Ga    6.4470519005451230E+00    4.6182733122481709E-02    2.8254500614857943E+00
N    6.4451339241932857E+00    4.5677855102811929E-02    4.9798385174025901E+00
Ga    6.4431370550513281E+00    1.8754859146497549E+00    5.7617239887671916E+00
N    6.4447005191948463E+00    1.8918346558178094E+00    7.7579256117729845E+00
Ga    6.4445618796244810E+00    4.6239919153676333E-02    8.4039098682008699E+00
N    6.4443866013735622E+00    4.7348329857862158E-02    1.0378875769969964E+01
Ga    6.4439138223213082E+00    1.8883617829857713E+00    1.1026566692530224E+01
N    6.4443188284051249E+00    1.8702050175776246E+00    1.3020315694920130E+01
Ga    6.4493092774713485E+00    5.2647540480485554E-02    1.3818191346538594E+01
N    6.4491043605091374E+00    5.3276827889943028E-02    1.6028466198282690E+01
Ga    6.4450586125076343E+00    2.1017735533253141E+00    1.6445340590633041E+01
Ga    6.4625904276789248E+00    3.7439242810602615E+00    1.4551504125304855E+00
N    4.9647347828406954E+00    4.6208748801910016E+00    2.4723540787388303E+00
Ga    4.7365010524679656E+00    2.7803908223404519E+00    3.2514986713042124E+00
N    4.8372911609324749E+00    2.8321020510560451E+00    5.2118003734609664E+00
Ga    4.7979854497059851E+00    4.7110904360736843E+00    5.7573131914749052E+00
N    4.8302497485221494E+00    4.6932009322963193E+00    7.7619877480501431E+00
Ga    4.8459827478040225E+00    2.8390811437680012E+00    8.3973136984641474E+00
N    4.8466195054215815E+00    2.8388462499792464E+00    1.0391715249384006E+01
Ga    4.8208561450426757E+00    4.6989004846749376E+00    1.1028653581878977E+01
N    4.8042947355079457E+00    4.7093599951008693E+00    1.3024113338428075E+01
Ga    4.8474628340312185E+00    2.8406310557048147E+00    1.3579525308881532E+01
N    4.8210404435845859E+00    2.8207286283018096E+00    1.5541782728420552E+01
Ga    4.9936640448144738E+00    4.6002949081835576E+00    1.6444695810766284E+01
N    6.4337505205022811E+00    3.7668589373127004E+00    1.7585297370526980E+01
N    3.2293236708878159E+00    7.6117495238344928E+00    2.4639034376902105E+00
Ga    3.2347310533677303E+00    5.6110324057263021E+00    2.5429834014022630E+00
N    3.2308614850795951E+00    5.6154374394159499E+00    4.9950176981327470E+00
Ga    3.2301122655193097E+00    7.4260102694436947E+00    5.7556485007474256E+00
N    3.2293661309916688E+00    7.4661295602133491E+00    7.7610457547907945E+00
Ga    3.2286560271295484E+00    5.6175658358813294E+00    8.4015537818849566E+00
N    3.2285233523836245E+00    5.6185553607319427E+00    1.0379103483309166E+01
Ga    3.2280330296154069E+00    7.4571479007881454E+00    1.1029628822907743E+01
N    3.2277561117939833E+00    7.4397142456798075E+00    1.3025466958432986E+01
Ga    3.2262890614643167E+00    5.6184049440654986E+00    1.3831955495973499E+01
N    3.2261390113944000E+00    5.6189810575794352E+00    1.6028887729512768E+01
Ga    3.2275254583232740E+00    7.6569578847847000E+00    1.6444370407230629E+01
Ga    3.2272784919098352E+00    9.3620761830746417E+00    1.4489767259907698E+00
N    1.7265496191984768E+00    1.0200249677699752E+01    2.4951850791708226E+00
Ga    1.5296821932368767E+00    8.3370123817620847E+00    3.2488671934114706E+00
N    1.6219111315947254E+00    8.3991972366088330E+00    5.2097253093716320E+00
Ga    1.5966339424322042E+00    1.0268692873171805E+01    5.7604669616322273E+00
N    1.6104218506105501E+00    1.0264158148721606E+01    7.7571354779573651E+00
Ga    1.6317066208715978E+00    8.4069138226123048E+00    8.3975892825606522E+00
N    1.6305919928761012E+00    8.4094403847334487E+00    1.0392207648741598E+01
Ga    1.6063112078268136E+00    1.0268114162080989E+01    1.1027160309443692E+01
N    1.5891810514294709E+00    1.0279674306046372E+01    1.3021340767339938E+01
Ga    1.6310471488098035E+00    8.4118599637242113E+00    1.3580841789470041E+01
N    1.5999228180582008E+00    8.4002509037151771E+00    1.5543978677752703E+01
Ga    1.7872175213465229E+00    1.0167277073223154E+01    1.6444897496169609E+01
N    3.2254682749267385E+00    9.3230978187345919E+00    1.7583891646489548E+01
N    9.6631708658088282E+00    1.9016023599099008E+00    2.5715828069673052E+00
Ga    9.6628010252676884E+00    1.6292779786336833E-01    3.2604494112603319E+00
N    9.6619446360157095E+00    4.8037283455700241E-02    5.2192400957828635E+00
Ga    9.6621267208495922E+00    1.9027989992960650E+00    5.8446349354977949E+00
N    9.6615040018431966E+00    1.9033995792184577E+00    7.8142935417287918E+00
Ga    9.6611356502492907E+00    3.3931912035797152E-02    8.3971352032625717E+00
N    9.6608354736709483E+00    3.4772868744270470E-02    1.0390182667446819E+01
Ga    9.6606751994992681E+00    1.9047754309813603E+00    1.0983261453045419E+01
N    9.6599397530418045E+00    1.9052835700024029E+00    1.2955962561573957E+01
Ga    9.6600478583349094E+00    3.6792270140954750E-02    1.3579349541494377E+01
N    9.6593667344513907E+00    6.7638588009951331E-02    1.5540721791040831E+01
Ga    9.6602199014867427E+00    1.9074030602002261E+00    1.5817107555754044E+01
N    7.9507000753879842E+00    4.6241143914324967E+00    2.4894486627023942E+00
Ga    8.1569559371373330E+00    2.7716197785378807E+00    3.2580963817021749E+00
N    8.0560857047046834E+00    2.8295789748602851E+00    5.2175911956716581E+00
Ga    8.0774702405789345E+00    4.7030584377505749E+00    5.7626461596663585E+00
N    8.0634921144799527E+00    4.6949005585964487E+00    7.7584346340619987E+00
Ga    8.0426708814084336E+00    2.8379835565768121E+00    8.3978828407536792E+00
N    8.0413836709232616E+00    2.8397028986117534E+00    1.0390427920083260E+01
Ga    8.0673711604212333E+00    4.6988607335788268E+00    1.1027142648469328E+01
N    8.0835826873260093E+00    4.7086009615793234E+00    1.3020966334788092E+01
Ga    8.0414914948049017E+00    2.8403481143252236E+00    1.3578220268154364E+01
N    8.0670907116013115E+00    2.8255232242802708E+00    1.5538867007081027E+01
Ga    7.8836545292612081E+00    4.5921456233510289E+00    1.6445935381974955E+01
N    6.4374072331536389E+00    7.4658116009416462E+00    2.5549306177237785E+00
Ga    6.4440801445493667E+00    5.7263821518861757E+00    3.2558028175108720E+00
N    6.4463209152853604E+00    5.6173047182955065E+00    5.2140042333837027E+00
Ga    6.4425784029989437E+00    7.4720184366986473E+00    5.8395461434363485E+00
N    6.4453011082563076E+00    7.4743523851561555E+00    7.8117539979551287E+00
Ga    6.4439395923007288E+00    5.6052653440414382E+00    8.3989866862389668E+00
N    6.4450052728780136E+00    5.6066615906047739E+00    1.0393098756776597E+01
Ga    6.4441679487857924E+00    7.4755370076938199E+00    1.0986203603122613E+01
N    6.4458936740156396E+00    7.4776741402862656E+00    1.2960697767825710E+01
Ga    6.4445272230744406E+00    5.6059861114424985E+00    1.3579902231824409E+01
N    6.4489189286203032E+00    5.6400020888117295E+00    1.5541868092892811E+01
Ga    6.4415333477648513E+00    7.4758550018156349E+00    1.5824106912088919E+01
N    4.7323100755653895E+00    1.0199479255434449E+01    2.4925880939558565E+00
Ga    4.9293075107389654E+00    8.3394626563444003E+00    3.2488540877880956E+00
N    4.8382779586855271E+00    8.3996266898663237E+00    5.2096471177452388E+00
Ga    4.8628781276282842E+00    1.0269364446976660E+01    5.7611089663660717E+00
N    4.8475051975480294E+00    1.0264169368351840E+01    7.7576808753498216E+00
Ga    4.8258280511528362E+00    8.4074553333654549E+00    8.3993592458209587E+00
N    4.8259923716704103E+00    8.4099269064900906E+00    1.0393598736393974E+01
Ga    4.8511573313455116E+00    1.0269041030722740E+01    1.1027797418859606E+01
N    4.8668205686203692E+00    1.0280053163465325E+01    1.3022070912965217E+01
Ga    4.8244139832798583E+00    8.4120724153382582E+00    1.3580652842460500E+01
N    4.8548403571536909E+00    8.4004574404180694E+00    1.5543492139795701E+01
Ga    4.6669030362882973E+00    1.0167272614615072E+01    1.6445805464527012E+01
O    3.2642861561411576E+00    5.5465093869624704E+00    2.1069988431344872E-01
H    2.3510475750320019E+00    5.7019287150392701E+00   -9.0559523933821384E-02
C    4.1733610364232492E+00    6.4214193412389919E+00   -4.9890006941936454E-01
H    3.7414426661498417E+00    7.4258193189903476E+00   -6.3540318050259814E-01
H    5.0741761442878666E+00    6.5197648796688465E+00    1.2206673244950898E-01
H    4.4263810720050643E+00    5.9917946498439454E+00   -1.4777565174582927E+00
     &END COORD
     &KIND C
       BASIS_SET DZVP-MOLOPT-SR-GTH-q4
       POTENTIAL GTH-PBE-q4
       &POTENTIAL
 2 2
  0.3384712400000000E+00 2 -0.8803673979999999E+01  0.1339210850000000E+01
 2
  0.3025757500000000E+00 1  0.9622486650000001E+01
  0.2915069400000000E+00 0
         # Potential name:  GTH-PBE-Q4  for symbol:  C
         # Potential read from the potential filename: GTH_POTENTIALS
       &END POTENTIAL
     &END KIND
     &KIND O
       BASIS_SET DZVP-MOLOPT-SR-GTH-q6
       POTENTIAL GTH-PBE-q6
       &POTENTIAL
 2 4
  0.2445543000000000E+00 2 -0.1666721480000000E+02  0.2487311320000000E+01
 2
  0.2209559200000000E+00 1  0.1833745811000000E+02
  0.2113324700000000E+00 0
         # Potential name:  GTH-PBE-Q6  for symbol:  O
         # Potential read from the potential filename: GTH_POTENTIALS
       &END POTENTIAL
     &END KIND
     &KIND H
       BASIS_SET DZVP-MOLOPT-SR-GTH-q1
       POTENTIAL GTH-PBE-q1
       &POTENTIAL
 1
  0.2000000000000000E+00 2 -0.4178900440000000E+01  0.7244633100000000E+00
 0
         # Potential name:  GTH-PBE-Q1  for symbol:  H
         # Potential read from the potential filename: GTH_POTENTIALS
       &END POTENTIAL
     &END KIND
     &KIND N
       BASIS_SET DZVP-MOLOPT-SR-GTH
       POTENTIAL GTH-PBE-q5
       &POTENTIAL
 2 3
  0.2837905100000000E+00 2 -0.1241522559000000E+02  0.1868095920000000E+01
 2
  0.2554050000000000E+00 1  0.1363026257000000E+02
  0.2454945300000000E+00 0
         # Potential name:  GTH-PBE-Q5  for symbol:  N
         # Potential read from the potential filename: GTH_POTENTIALS
       &END POTENTIAL
     &END KIND
     &KIND Ga
       BASIS_SET DZVP-MOLOPT-SR-GTH
       POTENTIAL GTH-PBE-q13
       &POTENTIAL
 2 1 10
  0.4900000000000000E+00 0
 3
  0.4167772300000000E+00 3  0.1047568975000000E+02 -0.4921768140000000E+01  0.8707055900000000E+00
  0.7770178090000000E+01 -0.2248152160000000E+01
  0.1784415450000000E+01
  0.5696265200000000E+00 2  0.1777985340000000E+01  0.1958597600000000E+00
 -0.2317443900000000E+00
  0.2381265000000000E+00 1 -0.1624868022000000E+02
         # Potential name:  GTH-PBE-Q13  for symbol:  GA
         # Potential read from the potential filename: GTH_POTENTIALS
       &END POTENTIAL
     &END KIND
     &TOPOLOGY
       NUMBER_OF_ATOMS  206
       MULTIPLE_UNIT_CELL  1 1 1
     &END TOPOLOGY
   &END SUBSYS
 &END FORCE_EVAL
