 # Version information for this restart file 
 # current date 2019-06-24 16:13:24.606
 # current working dir /scratch/rzk/rzk/GaN-carbene/443-adatoms-both-2x2/02-Methanol/02-O-GaSur
 # Program compiled at                              Sun Apr  7 00:48:11 EDT 2019
 # Program compiled on                          beluga2.int.ets1.calculquebec.ca
 # Program compiled for                        Beluga-Linux-x86-64-intel-openmpi
 # Source code revision number                                         svn:18619
 &GLOBAL
   PRINT_LEVEL  MEDIUM
   PROJECT_NAME TEST
   RUN_TYPE  GEO_OPT
 &END GLOBAL
 &MOTION
   &GEO_OPT
     MAX_ITER  500
     STEP_START_VAL  77
   &END GEO_OPT
 &END MOTION
 &FORCE_EVAL
   METHOD  QS
   STRESS_TENSOR  ANALYTICAL
   &DFT
     BASIS_SET_FILE_NAME BASIS_MOLOPT
     POTENTIAL_FILE_NAME GTH_POTENTIALS
     UKS  T
     SURFACE_DIPOLE_CORRECTION  T
     SURF_DIP_DIR  Z
     &SCF
       MAX_SCF  80
       EPS_SCF     5.0000000000000004E-06
       &OT  T
         PRECONDITIONER  FULL_ALL
       &END OT
       &OUTER_SCF  T
         OPTIMIZER  NONE
         EPS_SCF     5.0000000000000004E-06
         MAX_SCF  4
       &END OUTER_SCF
       &PRINT
         &RESTART  OFF
           BACKUP_COPIES  1
           &EACH
             JUST_ENERGY  0
             QS_SCF  0
             MD  20
           &END EACH
         &END RESTART
       &END PRINT
     &END SCF
     &QS
       EPS_DEFAULT     1.0000000000000000E-14
       METHOD  GPW
     &END QS
     &MGRID
       NGRIDS  5
       CUTOFF     1.2000000000000000E+03
     &END MGRID
     &XC
       DENSITY_CUTOFF     1.0000000000000000E-10
       GRADIENT_CUTOFF     1.0000000000000000E-10
       TAU_CUTOFF     1.0000000000000000E-10
       &XC_FUNCTIONAL  NO_SHORTCUT
         &PBE  T
         &END PBE
       &END XC_FUNCTIONAL
       &VDW_POTENTIAL
         POTENTIAL_TYPE  PAIR_POTENTIAL
         &PAIR_POTENTIAL
           R_CUTOFF     1.0000000000000004E+01
           TYPE  DFTD3
           PARAMETER_FILE_NAME dftd3.dat
           REFERENCE_FUNCTIONAL PBE
           EPS_CN     9.9999999999999995E-07
           CALCULATE_C9_TERM  T
           REFERENCE_C9_TERM  T
           LONG_RANGE_CORRECTION  F
           VERBOSE_OUTPUT  F
         &END PAIR_POTENTIAL
       &END VDW_POTENTIAL
     &END XC
   &END DFT
   &SUBSYS
     &CELL
       A     1.2864472766435110E+01    0.0000000000000000E+00    0.0000000000000000E+00
       B    -6.4322363581020028E+00    1.1140960178524473E+01    0.0000000000000000E+00
       C     0.0000000000000000E+00    0.0000000000000000E+00    3.2000000000000000E+01
       MULTIPLE_UNIT_CELL  1 1 1
       &CELL_REF
         A     1.2982353780853531E+01    0.0000000000000000E+00    0.0000000000000000E+00
         B    -6.4911768904267628E+00    1.1243048175136114E+01    0.0000000000000000E+00
         C     0.0000000000000000E+00    0.0000000000000000E+00    3.2000000000000000E+01
         MULTIPLE_UNIT_CELL  1 1 1
       &END CELL_REF
     &END CELL
     &COORD
N    8.1218730667508253E-03    2.0235874352321139E+00    2.4953529130018310E+00
Ga    7.1392452451877033E-03    4.6928724259876015E-02    2.8282425126422970E+00
N    1.1023161392723833E-02    4.5675082516397590E-02    4.9832685763276796E+00
Ga    1.4110932671918212E-02    1.8758067881243818E+00    5.7639564673213393E+00
N    1.1080868978572521E-02    1.8910080241977347E+00    7.7602080934081901E+00
Ga    1.0284841643835961E-02    4.5495281068198189E-02    8.4078854007543260E+00
N    1.0137526048552852E-02    4.5505030224703043E-02    1.0382069392847372E+01
Ga    9.8663264931764631E-03    1.8858793358986299E+00    1.1032344488417838E+01
N    9.5247264029243231E-03    1.8671922557716660E+00    1.3025242190542276E+01
Ga    6.4727647846540047E-03    5.0205305877473946E-02    1.3828151627477350E+01
N    4.6416330429309254E-03    5.0026196132344006E-02    1.6033888534357871E+01
Ga    9.9222081471551475E-03    2.1049702092633464E+00    1.6461732220503517E+01
Ga   -1.4614017078031156E-02    3.7391530255505261E+00    1.4462260205203894E+00
N   -1.4933707925913429E+00    4.6240595509104008E+00    2.4938937652030875E+00
Ga   -1.6987844667429988E+00    2.7721535993612085E+00    3.2628594753394813E+00
N   -1.5997395001690156E+00    2.8293994594806673E+00    5.2217862985438757E+00
Ga   -1.6187236117134289E+00    4.7036597213387772E+00    5.7635515693011596E+00
N   -1.6074847413946300E+00    4.6942752999987327E+00    7.7596850796933072E+00
Ga   -1.5868920472882966E+00    2.8373261645494097E+00    8.4014253609657690E+00
N   -1.5873068992688872E+00    2.8373042522295471E+00    1.0394037311015300E+01
Ga   -1.6123820383999707E+00    4.6961626117308288E+00    1.1032658354040613E+01
N   -1.6291305035641443E+00    4.7052994851888048E+00    1.3025517494076647E+01
Ga   -1.5873055880458034E+00    2.8373572451105624E+00    1.3585829350809512E+01
N   -1.6156994497983108E+00    2.8206343952319082E+00    1.5545285495271580E+01
Ga   -1.4232427790281024E+00    4.5869653431061383E+00    1.6461931927205910E+01
N    6.6271103423209072E-03    3.7574871947847428E+00    1.7607980392528610E+01
N   -3.2058082856697907E+00    7.5950642500245156E+00    2.4868343091474054E+00
Ga   -3.2049421926971697E+00    5.6123697395333840E+00    2.8257164640911547E+00
N   -3.2054488787911448E+00    5.6156200358728308E+00    4.9814380808874024E+00
Ga   -3.2056600235165291E+00    7.4446143434646652E+00    5.7606467363522507E+00
N   -3.2062779932273502E+00    7.4626143879491167E+00    7.7576732686094267E+00
Ga   -3.2056733656510934E+00    5.6167934922826497E+00    8.4079722426958199E+00
N   -3.2060415079280209E+00    5.6163779403708531E+00    1.0382019663950677E+01
Ga   -3.2063022784863486E+00    7.4552768752537730E+00    1.1032191735729896E+01
N   -3.2059854245545440E+00    7.4355596185391395E+00    1.3028971001836213E+01
Ga   -3.2044325627376908E+00    5.6109837081106457E+00    1.3829116445598691E+01
N   -3.2051125388654849E+00    5.6094739973014009E+00    1.6033950881427089E+01
Ga   -3.2052398291772546E+00    7.6298245297267950E+00    1.6423709436914859E+01
Ga   -3.2052064878221111E+00    9.3324395185316540E+00    1.4648216640701852E+00
N   -4.7083314730652024E+00    1.0195932530032620E+01    2.4893716400940438E+00
Ga   -4.9202336123073707E+00    8.3394300414345626E+00    3.2476667978323976E+00
N   -4.8174911928921311E+00    8.3986822662870555E+00    5.2100636597490686E+00
Ga   -4.8387634226388894E+00    1.0271226738193619E+01    5.7626252129176212E+00
N   -4.8234838887536755E+00    1.0262552678216744E+01    7.7590791650575426E+00
Ga   -4.8046674357817158E+00    8.4065464101699590E+00    8.4015808436746529E+00
N   -4.8033550374769707E+00    8.4074184066950277E+00    1.0395540909672725E+01
Ga   -4.8292488670721996E+00    1.0266929831213854E+01    1.1031594173112943E+01
N   -4.8464953720156636E+00    1.0277172482516175E+01    1.3028519428380006E+01
Ga   -4.8025207686704610E+00    8.4083307089234296E+00    1.3581528094365632E+01
N   -4.8261143125785280E+00    8.3955013979784070E+00    1.5552102915044532E+01
Ga   -4.6780113003044255E+00    1.0181619737507898E+01    1.6423320774009809E+01
N   -3.2156470120243910E+00    9.3247881466162177E+00    1.7551116771291397E+01
N    3.2278237302271333E+00    1.9059864234155481E+00    2.5718811230849754E+00
Ga    3.2263947335738052E+00    1.6405881060099153E-01    3.2544627706910201E+00
N    3.2264646262210919E+00    4.7303768485376679E-02    5.2155698550673852E+00
Ga    3.2260622365192644E+00    1.9062003171903079E+00    5.8388771751978714E+00
N    3.2261386007678987E+00    1.9024863304743780E+00    7.8121988647740777E+00
Ga    3.2259043605729847E+00    3.4753642783504721E-02    8.3992309243522509E+00
N    3.2257161734500537E+00    3.2606228059586649E-02    1.0393328291805407E+01
Ga    3.2252142220486673E+00    1.9023151664349620E+00    1.0988952850120111E+01
N    3.2265156621070554E+00    1.9010710599074416E+00    1.2961939070555243E+01
Ga    3.2264846621124543E+00    3.3290583275261861E-02    1.3580894891566453E+01
N    3.2287339643920108E+00    5.9543709656209219E-02    1.5549681623092571E+01
Ga    3.2248939826866403E+00    1.9044731353362347E+00    1.5826224542139638E+01
N    1.4977789189656168E+00    4.6237487215294300E+00    2.4535594458278038E+00
Ga    1.7193912981098722E+00    2.7830966594556346E+00    3.2475546234976140E+00
N    1.6194658668268274E+00    2.8333683778815368E+00    5.2099724671002106E+00
Ga    1.6595143103015411E+00    4.7109023476622562E+00    5.7588066122041219E+00
N    1.6258962779671788E+00    4.6921095234974679E+00    7.7630202425185608E+00
Ga    1.6087116597963149E+00    2.8381619996036140E+00    8.4013176240305700E+00
N    1.6069027847830999E+00    2.8369655920631729E+00    1.0394776983168786E+01
Ga    1.6333707369977093E+00    4.6968010007364569E+00    1.1032473347916641E+01
N    1.6495250279785232E+00    4.7060744335904285E+00    1.3026201626810645E+01
Ga    1.6066716121225115E+00    2.8379902694415335E+00    1.3585920291346186E+01
N    1.6360189724397922E+00    2.8208672540197504E+00    1.5544606812550366E+01
Ga    1.4430886594903780E+00    4.5868113792941259E+00    1.6462022433870562E+01
N    1.8829451354326950E-02    7.4692867684217932E+00    2.5599870206992326E+00
Ga    1.7535596052287116E-02    5.7267816516949006E+00    3.2494784360660254E+00
N    1.2933749374178313E-02    5.6164128702624367E+00    5.2104886240449533E+00
Ga    1.3893274200838100E-02    7.4708677097526159E+00    5.8398252043182550E+00
N    1.0189336369338400E-02    7.4726445926831557E+00    7.8124752591724835E+00
Ga    1.1696490587834639E-02    5.6039485151069890E+00    8.4012843051484598E+00
N    9.5578715549022447E-03    5.6038177119392589E+00    1.0394790009386309E+01
Ga    9.2355402815944548E-03    7.4727382497670023E+00    1.0989180908608610E+01
N    9.0716575603548340E-03    7.4742159811808921E+00    1.2962354546788708E+01
Ga    1.0233306364540956E-02    5.6026818565666323E+00    1.3586079212077921E+01
N    1.0401239903452592E-02    5.6373531668820052E+00    1.5544723123469808E+01
Ga    1.0589706668159350E-02    7.4715055423895622E+00    1.5826210020731773E+01
N   -1.7032938107548474E+00    1.0196357699652001E+01    2.4900873055035366E+00
Ga   -1.4914489305712801E+00    8.3398652306617986E+00    3.2482928934486996E+00
N   -1.5939899202883101E+00    8.3987632655792304E+00    5.2106387678859436E+00
Ga   -1.5724869211487207E+00    1.0271383522154792E+01    5.7625829353865257E+00
N   -1.5886615612678296E+00    1.0262844270155330E+01    7.7590338820945028E+00
Ga   -1.6072960648953878E+00    8.4062021824710698E+00    8.3999281396069243E+00
N   -1.6099156391376590E+00    8.4075671298176218E+00    1.0393791345975572E+01
Ga   -1.5835792948935288E+00    1.0266812785155746E+01    1.1029990913228440E+01
N   -1.5661696534268246E+00    1.0276719075940134E+01    1.3026557299107475E+01
Ga   -1.6087037992610360E+00    8.4081056672020793E+00    1.3581073245722756E+01
N   -1.5849666434666718E+00    8.3976267647569536E+00    1.5550068671646494E+01
Ga   -1.7427278154970747E+00    1.0175370262176536E+01    1.6424279666160203E+01
N    6.4452736769031214E+00    2.0234159507814575E+00    2.4951391917756149E+00
Ga    6.4455545290966167E+00    4.6601342294197295E-02    2.8289545807656289E+00
N    6.4423816995133141E+00    4.5851596737242796E-02    4.9835210952824687E+00
Ga    6.4403845607705348E+00    1.8750559788853760E+00    5.7659383198173018E+00
N    6.4420694446630682E+00    1.8908908527242150E+00    7.7617515010162492E+00
Ga    6.4421000043482195E+00    4.5206110751474023E-02    8.4080239862548201E+00
N    6.4421833932274639E+00    4.5479924507073832E-02    1.0382202021074265E+01
Ga    6.4415431014448368E+00    1.8857179854376167E+00    1.1031849606939684E+01
N    6.4429358184320140E+00    1.8667996282083392E+00    1.3026260933626245E+01
Ga    6.4447073910234192E+00    4.7584087077503189E-02    1.3824077063539074E+01
N    6.4454644482675691E+00    4.7387514430347277E-02    1.6034428899766141E+01
Ga    6.4435723122311064E+00    2.0912968540844465E+00    1.6447644159408789E+01
Ga    6.4590084156875909E+00    3.7438542987098091E+00    1.4579066151360247E+00
N    4.9610030205025595E+00    4.6208346579727291E+00    2.4738912919027345E+00
Ga    4.7345177531691993E+00    2.7800538381280329E+00    3.2550367571720233E+00
N    4.8347054884150120E+00    2.8317139548934351E+00    5.2152380682611987E+00
Ga    4.7956670705763749E+00    4.7103712370067923E+00    5.7601946003280426E+00
N    4.8274007664427447E+00    4.6920098456566359E+00    7.7642752015169449E+00
Ga    4.8437230401959015E+00    2.8380947734160977E+00    8.4014980914205672E+00
N    4.8444386264877473E+00    2.8366821208558091E+00    1.0395794252176515E+01
Ga    4.8185447341790040E+00    4.6964361767572695E+00    1.1033267940795680E+01
N    4.8024221516911867E+00    4.7062986691055944E+00    1.3029107373814982E+01
Ga    4.8455960583597983E+00    2.8373237108049194E+00    1.3584140093462588E+01
N    4.8190788589026949E+00    2.8182441187475673E+00    1.5547884056457963E+01
Ga    4.9905406252081876E+00    4.5977629156299855E+00    1.6446470153305910E+01
N    6.4330305942774180E+00    3.7593494248748867E+00    1.7580599517732963E+01
N    3.2259064075897883E+00    7.6125629356319093E+00    2.4688882100982821E+00
Ga    3.2336360709550616E+00    5.6123550450942323E+00    2.5599252145646245E+00
N    3.2281872454946878E+00    5.6150883835149958E+00    4.9943961271935304E+00
Ga    3.2273579072158238E+00    7.4264721699153817E+00    5.7579092823413118E+00
N    3.2266708492046452E+00    7.4645077797072412E+00    7.7629792729262164E+00
Ga    3.2265005724075633E+00    5.6164371977796428E+00    8.4052194998203333E+00
N    3.2264367970642920E+00    5.6161962843539026E+00    1.0382300833965656E+01
Ga    3.2256417581391585E+00    7.4546976017011071E+00    1.1033324920181700E+01
N    3.2261512203373135E+00    7.4360978215692937E+00    1.3029375403355623E+01
Ga    3.2236532263283308E+00    5.6144696694913989E+00    1.3835663494125081E+01
N    3.2239620484297351E+00    5.6142530023733483E+00    1.6034607694375186E+01
Ga    3.2265401649941574E+00    7.6500626315519300E+00    1.6443958468110118E+01
Ga    3.2244848131457715E+00    9.3640868077247195E+00    1.4469699731285133E+00
N    1.7233591492080440E+00    1.0201432776090616E+01    2.4986997346882469E+00
Ga    1.5281303891780764E+00    8.3399513934663911E+00    3.2523279946099666E+00
N    1.6188776129654898E+00    8.3994800348706899E+00    5.2133965350620946E+00
Ga    1.5935992480696477E+00    1.0268889072759931E+01    5.7643963234282332E+00
N    1.6077857839304417E+00    1.0263161013648153E+01    7.7607413509514638E+00
Ga    1.6295189178394640E+00    8.4058326150611897E+00    8.4010694966520223E+00
N    1.6283034887436953E+00    8.4072966175487931E+00    1.0395534240793710E+01
Ga    1.6034636029380218E+00    1.0266047472597327E+01    1.1031700178018635E+01
N    1.5873454883826197E+00    1.0276699313454579E+01    1.3026482944033594E+01
Ga    1.6293457738529922E+00    8.4082719019086465E+00    1.3584145039175157E+01
N    1.6000219900873049E+00    8.3947044979740628E+00    1.5548500951995740E+01
Ga    1.7805925884293912E+00    1.0165664055374064E+01    1.6445341851027500E+01
N    3.2218114475833177E+00    9.3208696084519485E+00    1.7576364826876361E+01
N    9.6596281677507072E+00    1.9016909605721886E+00    2.5764848485907428E+00
Ga    9.6594987823089298E+00    1.6202048333107802E-01    3.2639110745496738E+00
N    9.6590817808723042E+00    4.7915002297404197E-02    5.2230560520325211E+00
Ga    9.6585572663535117E+00    1.9022756490569015E+00    5.8491327822901038E+00
N    9.6584462564163633E+00    1.9023802765133504E+00    7.8186709559532819E+00
Ga    9.6584124954877044E+00    3.2614491504149766E-02    8.4015670595988716E+00
N    9.6582666064012379E+00    3.2405365136782396E-02    1.0394360759106874E+01
Ga    9.6578137102672361E+00    1.9022971814472101E+00    1.0988217817107408E+01
N    9.6580655871945922E+00    1.9019706559594629E+00    1.2959958156340031E+01
Ga    9.6587320115672544E+00    3.4169734326751376E-02    1.3583601977207525E+01
N    9.6589531020027817E+00    6.3897315086428499E-02    1.5546078252434334E+01
Ga    9.6597631641824471E+00    1.9033060954533205E+00    1.5826641433921131E+01
N    7.9473043407290076E+00    4.6246545977533700E+00    2.4925564341828390E+00
Ga    8.1530974448869085E+00    2.7720509055053086E+00    3.2615449750923502E+00
N    8.0529614512746406E+00    2.8295888679310228E+00    5.2211533587386194E+00
Ga    8.0741921164421893E+00    4.7027900590438714E+00    5.7664089425866960E+00
N    8.0605664240028396E+00    4.6937011181400417E+00    7.7618555736410704E+00
Ga    8.0397055390253556E+00    2.8369704881342175E+00    8.4028047872818039E+00
N    8.0386514715858635E+00    2.8376327387123768E+00    1.0395170444422179E+01
Ga    8.0650193839346365E+00    4.6965817109799310E+00    1.1032663659978523E+01
N    8.0821875462466721E+00    4.7054534055499087E+00    1.3026671556780887E+01
Ga    8.0408502252203675E+00    2.8369539476683725E+00    1.3583678707198793E+01
N    8.0668455123910263E+00    2.8216799908615129E+00    1.5545635226293992E+01
Ga    7.8851397745444824E+00    4.5908577576719658E+00    1.6447982160240795E+01
N    6.4344305333600911E+00    7.4665397705256566E+00    2.5588405826182745E+00
Ga    6.4406831975159848E+00    5.7271156813921209E+00    3.2582477349257952E+00
N    6.4433211257247223E+00    5.6170437779243132E+00    5.2165805497029583E+00
Ga    6.4396968147685314E+00    7.4717378023434815E+00    5.8426212107051310E+00
N    6.4424976566105272E+00    7.4728699092272324E+00    7.8147740599656617E+00
Ga    6.4410723334939703E+00    5.6037961211869263E+00    8.4026498456452234E+00
N    6.4424967435869576E+00    5.6037848927314737E+00    1.0396674029685702E+01
Ga    6.4414649346738431E+00    7.4727877499798874E+00    1.0990044848696764E+01
N    6.4432397960298324E+00    7.4737164297801293E+00    1.2963855364583669E+01
Ga    6.4429961782674203E+00    5.6029516863770290E+00    1.3584629685629567E+01
N    6.4463310510502358E+00    5.6364367667848390E+00    1.5547150686515364E+01
Ga    6.4420880520504484E+00    7.4730314227647616E+00    1.5828343661181862E+01
N    4.7297093830050061E+00    1.0200697199508063E+01    2.4964214105921045E+00
Ga    4.9257936317324083E+00    8.3409781379763341E+00    3.2509862388534199E+00
N    4.8356813073879605E+00    8.3996252859166880E+00    5.2126072143088455E+00
Ga    4.8598778920237349E+00    1.0269053188845280E+01    5.7648724313658448E+00
N    4.8446901196467991E+00    1.0263012606463597E+01    7.7611269149918876E+00
Ga    4.8229927319508539E+00    8.4060493454606871E+00    8.4025029254833559E+00
N    4.8232121095686100E+00    8.4077263352751643E+00    1.0396560738888358E+01
Ga    4.8488770865856505E+00    1.0266765621349091E+01    1.1032271977874858E+01
N    4.8653198037135423E+00    1.0276939581909732E+01    1.3026626428511017E+01
Ga    4.8231356256442535E+00    8.4085702553255448E+00    1.3584288165938311E+01
N    4.8531122154334394E+00    8.3951400615032430E+00    1.5547334287770799E+01
Ga    4.6694543637165440E+00    1.0164168317749052E+01    1.6445218590100392E+01
O    3.2205054476395452E+00    5.5698387109140057E+00    2.0644274241088795E-01
H    2.3158172985335339E+00    5.8449378099414728E+00   -1.7966612935622576E-02
C    4.1669685158249852E+00    6.4075382674987535E+00   -4.9848359822770516E-01
H    3.7859348792262857E+00    7.4321692454735837E+00   -6.2346831668883718E-01
H    5.0764871668234468E+00    6.4587247372528331E+00    1.1423694302873585E-01
H    4.3908643677278993E+00    5.9768748260144484E+00   -1.4831998946258127E+00
     &END COORD
     &KIND C
       BASIS_SET DZVP-MOLOPT-SR-GTH-q4
       POTENTIAL GTH-PBE-q4
       &POTENTIAL
 2 2
  0.3384712400000000E+00 2 -0.8803673979999999E+01  0.1339210850000000E+01
 2
  0.3025757500000000E+00 1  0.9622486650000001E+01
  0.2915069400000000E+00 0
         # Potential name:  GTH-PBE-Q4  for symbol:  C
         # Potential read from the potential filename: GTH_POTENTIALS
       &END POTENTIAL
     &END KIND
     &KIND O
       BASIS_SET DZVP-MOLOPT-SR-GTH-q6
       POTENTIAL GTH-PBE-q6
       &POTENTIAL
 2 4
  0.2445543000000000E+00 2 -0.1666721480000000E+02  0.2487311320000000E+01
 2
  0.2209559200000000E+00 1  0.1833745811000000E+02
  0.2113324700000000E+00 0
         # Potential name:  GTH-PBE-Q6  for symbol:  O
         # Potential read from the potential filename: GTH_POTENTIALS
       &END POTENTIAL
     &END KIND
     &KIND H
       BASIS_SET DZVP-MOLOPT-SR-GTH-q1
       POTENTIAL GTH-PBE-q1
       &POTENTIAL
 1
  0.2000000000000000E+00 2 -0.4178900440000000E+01  0.7244633100000000E+00
 0
         # Potential name:  GTH-PBE-Q1  for symbol:  H
         # Potential read from the potential filename: GTH_POTENTIALS
       &END POTENTIAL
     &END KIND
     &KIND N
       BASIS_SET DZVP-MOLOPT-SR-GTH
       POTENTIAL GTH-PBE-q5
       &POTENTIAL
 2 3
  0.2837905100000000E+00 2 -0.1241522559000000E+02  0.1868095920000000E+01
 2
  0.2554050000000000E+00 1  0.1363026257000000E+02
  0.2454945300000000E+00 0
         # Potential name:  GTH-PBE-Q5  for symbol:  N
         # Potential read from the potential filename: GTH_POTENTIALS
       &END POTENTIAL
     &END KIND
     &KIND Ga
       BASIS_SET DZVP-MOLOPT-SR-GTH
       POTENTIAL GTH-PBE-q13
       &POTENTIAL
 2 1 10
  0.4900000000000000E+00 0
 3
  0.4167772300000000E+00 3  0.1047568975000000E+02 -0.4921768140000000E+01  0.8707055900000000E+00
  0.7770178090000000E+01 -0.2248152160000000E+01
  0.1784415450000000E+01
  0.5696265200000000E+00 2  0.1777985340000000E+01  0.1958597600000000E+00
 -0.2317443900000000E+00
  0.2381265000000000E+00 1 -0.1624868022000000E+02
         # Potential name:  GTH-PBE-Q13  for symbol:  GA
         # Potential read from the potential filename: GTH_POTENTIALS
       &END POTENTIAL
     &END KIND
     &TOPOLOGY
       NUMBER_OF_ATOMS  206
       MULTIPLE_UNIT_CELL  1 1 1
     &END TOPOLOGY
   &END SUBSYS
 &END FORCE_EVAL
