 # Version information for this restart file 
 # current date 2019-06-24 14:57:15.078
 # current working dir /scratch/rzk/rzk/GaN-carbene/443-adatoms-both-2x2/02-Methanol/02-O-GaSur
 # Program compiled at                              Sun Apr  7 00:48:11 EDT 2019
 # Program compiled on                          beluga2.int.ets1.calculquebec.ca
 # Program compiled for                        Beluga-Linux-x86-64-intel-openmpi
 # Source code revision number                                         svn:18619
 &GLOBAL
   PRINT_LEVEL  MEDIUM
   PROJECT_NAME TEST
   RUN_TYPE  GEO_OPT
 &END GLOBAL
 &MOTION
   &GEO_OPT
     MAX_ITER  500
     STEP_START_VAL  60
   &END GEO_OPT
 &END MOTION
 &FORCE_EVAL
   METHOD  QS
   STRESS_TENSOR  ANALYTICAL
   &DFT
     BASIS_SET_FILE_NAME BASIS_MOLOPT
     POTENTIAL_FILE_NAME GTH_POTENTIALS
     UKS  T
     SURFACE_DIPOLE_CORRECTION  T
     SURF_DIP_DIR  Z
     &SCF
       MAX_SCF  80
       EPS_SCF     5.0000000000000004E-06
       &OT  T
         PRECONDITIONER  FULL_ALL
       &END OT
       &OUTER_SCF  T
         OPTIMIZER  NONE
         EPS_SCF     5.0000000000000004E-06
         MAX_SCF  4
       &END OUTER_SCF
       &PRINT
         &RESTART  OFF
           BACKUP_COPIES  1
           &EACH
             JUST_ENERGY  0
             QS_SCF  0
             MD  20
           &END EACH
         &END RESTART
       &END PRINT
     &END SCF
     &QS
       EPS_DEFAULT     1.0000000000000000E-14
       METHOD  GPW
     &END QS
     &MGRID
       NGRIDS  5
       CUTOFF     1.2000000000000000E+03
     &END MGRID
     &XC
       DENSITY_CUTOFF     1.0000000000000000E-10
       GRADIENT_CUTOFF     1.0000000000000000E-10
       TAU_CUTOFF     1.0000000000000000E-10
       &XC_FUNCTIONAL  NO_SHORTCUT
         &PBE  T
         &END PBE
       &END XC_FUNCTIONAL
       &VDW_POTENTIAL
         POTENTIAL_TYPE  PAIR_POTENTIAL
         &PAIR_POTENTIAL
           R_CUTOFF     1.0000000000000004E+01
           TYPE  DFTD3
           PARAMETER_FILE_NAME dftd3.dat
           REFERENCE_FUNCTIONAL PBE
           EPS_CN     9.9999999999999995E-07
           CALCULATE_C9_TERM  T
           REFERENCE_C9_TERM  T
           LONG_RANGE_CORRECTION  F
           VERBOSE_OUTPUT  F
         &END PAIR_POTENTIAL
       &END VDW_POTENTIAL
     &END XC
   &END DFT
   &SUBSYS
     &CELL
       A     1.2864472766435110E+01    0.0000000000000000E+00    0.0000000000000000E+00
       B    -6.4322363581020028E+00    1.1140960178524473E+01    0.0000000000000000E+00
       C     0.0000000000000000E+00    0.0000000000000000E+00    3.2000000000000000E+01
       MULTIPLE_UNIT_CELL  1 1 1
       &CELL_REF
         A     1.2982353780853531E+01    0.0000000000000000E+00    0.0000000000000000E+00
         B    -6.4911768904267628E+00    1.1243048175136114E+01    0.0000000000000000E+00
         C     0.0000000000000000E+00    0.0000000000000000E+00    3.2000000000000000E+01
         MULTIPLE_UNIT_CELL  1 1 1
       &END CELL_REF
     &END CELL
     &COORD
N    9.5807370573419131E-03    2.0229306688593454E+00    2.4927112778514626E+00
Ga    9.6748859531246949E-03    4.7945658791765849E-02    2.8270177509525878E+00
N    1.2106550374294084E-02    4.5640930862687543E-02    4.9820150816647137E+00
Ga    1.5395974194648169E-02    1.8762616030146435E+00    5.7616423794675020E+00
N    1.1951113812218526E-02    1.8915272871347046E+00    7.7584009689989335E+00
Ga    1.0971575799092746E-02    4.6246358102003560E-02    8.4063890581123086E+00
N    1.0993763195521953E-02    4.6504560371654888E-02    1.0381174181740660E+01
Ga    1.0566523724383032E-02    1.8871888037614826E+00    1.1031007214241811E+01
N    1.0760604830725154E-02    1.8686165826585088E+00    1.3024280909421954E+01
Ga    6.8551183109895348E-03    5.2076829395677419E-02    1.3825740738099508E+01
N    6.1833296796364283E-03    5.2060475128903334E-02    1.6033419627468028E+01
Ga    1.1497414974377425E-02    2.1089202932772326E+00    1.6464112964158016E+01
Ga   -1.5724772501953865E-02    3.7374868182911647E+00    1.4364416089608583E+00
N   -1.4922382659205873E+00    4.6237336301340033E+00    2.4915304111993746E+00
Ga   -1.6957059293062897E+00    2.7726633407604169E+00    3.2599541060594492E+00
N   -1.5985148614450657E+00    2.8293126669262145E+00    5.2196272656348812E+00
Ga   -1.6171791902092958E+00    4.7034697197674458E+00    5.7613993995480790E+00
N   -1.6065738616903324E+00    4.6947085848162340E+00    7.7580393912002563E+00
Ga   -1.5859780712119627E+00    2.8378522133552448E+00    8.3995687916391475E+00
N   -1.5864462479820147E+00    2.8382768275635319E+00    1.0392398187395655E+01
Ga   -1.6114002698036152E+00    4.6968639020878040E+00    1.1031503040247944E+01
N   -1.6278626435947341E+00    4.7065132348588596E+00    1.3024762864287764E+01
Ga   -1.5863115374363659E+00    2.8384672664863708E+00    1.3585931401361336E+01
N   -1.6131356920022673E+00    2.8224070486743762E+00    1.5545221269292409E+01
Ga   -1.4198056943040507E+00    4.5869794847349894E+00    1.6464168221971022E+01
N    1.1073814277189412E-02    3.7608302418760893E+00    1.7613330139639171E+01
N   -3.2042450385522705E+00    7.5946867977120958E+00    2.4859353170161453E+00
Ga   -3.2021784979160341E+00    5.6119149456172197E+00    2.8245902007825281E+00
N   -3.2042231595978463E+00    5.6155310279169690E+00    4.9804929149507622E+00
Ga   -3.2046521715640379E+00    7.4443911153443558E+00    5.7594260723323982E+00
N   -3.2054875028042278E+00    7.4629823485810229E+00    7.7567523268316911E+00
Ga   -3.2047741983413198E+00    5.6170114880855468E+00    8.4065819261950736E+00
N   -3.2051534103148058E+00    5.6172892694093468E+00    1.0381198141704738E+01
Ga   -3.2054619537842406E+00    7.4561392864626530E+00    1.1031319017645149E+01
N   -3.2047981239917465E+00    7.4369323831165026E+00    1.3029293891891234E+01
Ga   -3.2036171284551256E+00    5.6108837685774606E+00    1.3827227050442781E+01
N   -3.2034456425434934E+00    5.6100728155611579E+00    1.6033366408681204E+01
Ga   -3.2031821867050367E+00    7.6240240434158499E+00    1.6417882253540466E+01
Ga   -3.2036159871657794E+00    9.3320717856327366E+00    1.4642833725587745E+00
N   -4.7067816125899880E+00    1.0195770746417899E+01    2.4883159711898095E+00
Ga   -4.9182449759999534E+00    8.3392757369239945E+00    3.2466371658543856E+00
N   -4.8164395404297498E+00    8.3985302358549596E+00    5.2089594425937671E+00
Ga   -4.8377255168241593E+00    1.0271242785377428E+01    5.7609572211577680E+00
N   -4.8227539139388842E+00    1.0263045974234954E+01    7.7578228994652472E+00
Ga   -4.8038657961944118E+00    8.4070950841173726E+00    8.4003386239686595E+00
N   -4.8024071951401668E+00    8.4084331203378255E+00    1.0394931117398901E+01
Ga   -4.8284133748841445E+00    1.0267931081345107E+01    1.1030571635647231E+01
N   -4.8451260441698265E+00    1.0278465018350115E+01    1.3028676705919468E+01
Ga   -4.8013452163211641E+00    8.4096460417346535E+00    1.3580456451579927E+01
N   -4.8222911328385551E+00    8.3980689422470824E+00    1.5553363933875737E+01
Ga   -4.6813586092241222E+00    1.0186230559661357E+01    1.6417769204398709E+01
N   -3.2116213641442757E+00    9.3265574428528382E+00    1.7543449754721863E+01
N    3.2289691027691054E+00    1.9063043530051424E+00    2.5705045238848605E+00
Ga    3.2274090321586031E+00    1.6453215015209571E-01    3.2530241782811231E+00
N    3.2275186336636694E+00    4.7611675668773452E-02    5.2140786522875855E+00
Ga    3.2265106760992439E+00    1.9070270615554337E+00    5.8363499867732020E+00
N    3.2267229314607890E+00    1.9032328055066339E+00    7.8102376950394889E+00
Ga    3.2266315277940896E+00    3.5570077935285230E-02    8.3977431763394357E+00
N    3.2266169091063879E+00    3.3703566112943235E-02    1.0392800985536002E+01
Ga    3.2261555636595571E+00    1.9034616241201949E+00    1.0988577304944910E+01
N    3.2276516022047095E+00    1.9018837728893403E+00    1.2962101868038248E+01
Ga    3.2276106270097289E+00    3.4761352198161788E-02    1.3579616598715077E+01
N    3.2300998230204461E+00    5.9313018271578914E-02    1.5550777839634586E+01
Ga    3.2267612542965147E+00    1.9065203097879320E+00    1.5825602796468159E+01
N    1.4997561984015775E+00    4.6233211466402224E+00    2.4459034876685677E+00
Ga    1.7195721941759892E+00    2.7846373938553008E+00    3.2433441581826448E+00
N    1.6202852882091308E+00    2.8339448489044470E+00    5.2068131000923099E+00
Ga    1.6607377419893075E+00    4.7110216142294155E+00    5.7576845278567141E+00
N    1.6261520138045611E+00    4.6922993651440512E+00    7.7625143619661916E+00
Ga    1.6093396570790623E+00    2.8385905466213730E+00    8.4002490973707253E+00
N    1.6079612675468560E+00    2.8378230944521099E+00    1.0394248154261371E+01
Ga    1.6341773247498048E+00    4.6977820920264550E+00    1.1032032112738525E+01
N    1.6505790328928249E+00    4.7072683011328422E+00    1.3026116280901062E+01
Ga    1.6077173502774462E+00    2.8392417393955323E+00    1.3585964485328427E+01
N    1.6368011652761421E+00    2.8208574932281185E+00    1.5544839501363173E+01
Ga    1.4459523238730465E+00    4.5886645114767068E+00    1.6463779893752353E+01
N    1.9710182443379354E-02    7.4684887002430376E+00    2.5594779156033014E+00
Ga    2.0001270337334166E-02    5.7242515282452837E+00    3.2453237094987695E+00
N    1.4367322693762594E-02    5.6157651955978709E+00    5.2075644627022006E+00
Ga    1.5150242797648246E-02    7.4697760836679130E+00    5.8377961933320348E+00
N    1.1118465752468389E-02    7.4727911198755601E+00    7.8110134683723915E+00
Ga    1.2306438827809997E-02    5.6042976804449740E+00    8.4004798077059579E+00
N    1.0370498596836097E-02    5.6050010026013322E+00    1.0394414057068843E+01
Ga    1.0132007384463069E-02    7.4737165159028196E+00    1.0988820361271236E+01
N    9.6371916405881171E-03    7.4756989902889117E+00    1.2962614840230113E+01
Ga    1.1328504236241901E-02    5.6038417809643724E+00    1.3586326190661978E+01
N    1.0487375233507490E-02    5.6387580782079247E+00    1.5545284814419036E+01
Ga    1.2317280031661918E-02    7.4727210372580481E+00    1.5826306517638786E+01
N   -1.7018409322331027E+00    1.0196104019165473E+01    2.4895338764768957E+00
Ga   -1.4901940358724917E+00    8.3390148834086286E+00    3.2476539151440575E+00
N   -1.5928228098223944E+00    8.3985442639977652E+00    5.2097796412407238E+00
Ga   -1.5717302651570999E+00    1.0271260684892205E+01    5.7610849251883067E+00
N   -1.5878631254870832E+00    1.0263314877355050E+01    7.7578562614065412E+00
Ga   -1.6063405214559139E+00    8.4065867608772731E+00    8.3986710062512717E+00
N   -1.6089928834328635E+00    8.4085610231099626E+00    1.0393438065527022E+01
Ga   -1.5827235119170084E+00    1.0267848603134325E+01    1.1029419932451594E+01
N   -1.5652328304619911E+00    1.0278038834006731E+01    1.3026970706361817E+01
Ga   -1.6075730716591152E+00    8.4094577864421431E+00    1.3579781711332171E+01
N   -1.5849440901287704E+00    8.3997015469481706E+00    1.5551095733379801E+01
Ga   -1.7337159174193322E+00    1.0181117823319008E+01    1.6418032571196406E+01
N    6.4470772338944986E+00    2.0233470463645693E+00    2.4941894453578315E+00
Ga    6.4463705779492431E+00    4.6357303348733926E-02    2.8280563391380982E+00
N    6.4436656689895573E+00    4.5728295956739280E-02    4.9820740182753527E+00
Ga    6.4414022324423534E+00    1.8754408322445546E+00    5.7641606673794916E+00
N    6.4427818964794561E+00    1.8912892024480410E+00    7.7602368031114342E+00
Ga    6.4428832680690675E+00    4.5755735397205205E-02    8.4067813599675034E+00
N    6.4429166981172123E+00    4.6390742164922665E-02    1.0381516015674260E+01
Ga    6.4423437605348903E+00    1.8870178591229645E+00    1.1030835272062841E+01
N    6.4437810348221820E+00    1.8684098926061488E+00    1.3025021058505940E+01
Ga    6.4468850258184958E+00    5.0071795368890483E-02    1.3822073188985838E+01
N    6.4479239045964007E+00    5.0057648279004913E-02    1.6033202944684195E+01
Ga    6.4454995570794695E+00    2.0978672783687653E+00    1.6450738563076449E+01
Ga    6.4621291872210165E+00    3.7432836141885937E+00    1.4569509559109131E+00
N    4.9624738688682397E+00    4.6210726865000566E+00    2.4702447291196563E+00
Ga    4.7352979791738461E+00    2.7806284990674182E+00    3.2530754835395319E+00
N    4.8358596012453834E+00    2.8321199380822120E+00    5.2132185215711608E+00
Ga    4.7962605261603146E+00    4.7107750348183570E+00    5.7595695439979755E+00
N    4.8284239529020585E+00    4.6923275127975845E+00    7.7640458749381063E+00
Ga    4.8443552679151898E+00    2.8384318231913457E+00    8.4004306876558363E+00
N    4.8450320176494817E+00    2.8375663796792949E+00    1.0394955876834091E+01
Ga    4.8192490083970290E+00    4.6974673468708126E+00    1.1032726330045831E+01
N    4.8034921200531953E+00    4.7075093704042343E+00    1.3028478580954923E+01
Ga    4.8469455057352491E+00    2.8389016041999509E+00    1.3584599848355095E+01
N    4.8208156230785786E+00    2.8186119457469596E+00    1.5547421341443105E+01
Ga    4.9948300297466410E+00    4.5977094639557228E+00    1.6449804829195671E+01
N    6.4352618209875780E+00    3.7625377985870223E+00    1.7586453007975781E+01
N    3.2280279958795477E+00    7.6119062450528583E+00    2.4653992029613310E+00
Ga    3.2337493978153802E+00    5.6112776008967620E+00    2.5425925598465566E+00
N    3.2292768551976039E+00    5.6151248297269696E+00    4.9982347571385262E+00
Ga    3.2284830690473894E+00    7.4256799115318239E+00    5.7578504683012772E+00
N    3.2274278483762608E+00    7.4653466573310849E+00    7.7631254793212117E+00
Ga    3.2269820131578850E+00    5.6167652848617271E+00    8.4041009014385573E+00
N    3.2270595623652785E+00    5.6170712449395426E+00    1.0381682572830965E+01
Ga    3.2264476365072854E+00    7.4555237887432666E+00    1.1032836223587370E+01
N    3.2272312769700644E+00    7.4371308559732112E+00    1.3029067866107697E+01
Ga    3.2252103279805802E+00    5.6155202154336683E+00    1.3836295919768675E+01
N    3.2262045007521141E+00    5.6155823546040802E+00    1.6034525298074715E+01
Ga    3.2283134945556240E+00    7.6512681738062556E+00    1.6444591259028634E+01
Ga    3.2264163003436996E+00    9.3638171425729979E+00    1.4504811611441983E+00
N    1.7254092115272261E+00    1.0200654848650615E+01    2.4981610578518914E+00
Ga    1.5290227950277162E+00    8.3376536442320592E+00    3.2513018209313214E+00
N    1.6203588728297174E+00    8.3991368136487488E+00    5.2119795691967150E+00
Ga    1.5949546456638606E+00    1.0268558153805390E+01    5.7630726506243173E+00
N    1.6085339339328222E+00    1.0263493504756390E+01    7.7595776248704169E+00
Ga    1.6300632587281119E+00    8.4062984767525357E+00    8.4004024954244016E+00
N    1.6289010774138901E+00    8.4081211463996510E+00    1.0395136767947626E+01
Ga    1.6044664761341756E+00    1.0266938469930219E+01    1.1030778326484127E+01
N    1.5883040433621405E+00    1.0277953969229893E+01    1.3025557613764331E+01
Ga    1.6306007725230451E+00    8.4096102626129383E+00    1.3584060105459033E+01
N    1.6005286930425995E+00    8.3967878426350548E+00    1.5548166821571501E+01
Ga    1.7840482285599872E+00    1.0166608197244349E+01    1.6445583436596806E+01
N    3.2248345185926772E+00    9.3215562551787272E+00    1.7577668135518767E+01
N    9.6617289677348932E+00    1.9016253531956591E+00    2.5748662253090919E+00
Ga    9.6615558590586392E+00    1.6293616801634209E-01    3.2633306492211234E+00
N    9.6603548426701487E+00    4.7923046850655633E-02    5.2218956268165124E+00
Ga    9.6602424774369542E+00    1.9026131594415290E+00    5.8475719877218939E+00
N    9.6593611573952725E+00    1.9027710474353756E+00    7.8170889254386013E+00
Ga    9.6591601142136785E+00    3.3154573754379094E-02    8.4001859921953255E+00
N    9.6589992613103544E+00    3.3331877860480447E-02    1.0393088494227213E+01
Ga    9.6586780558488901E+00    1.9034038184425612E+00    1.0987053745593125E+01
N    9.6592284381498406E+00    1.9034651345421190E+00    1.2958876545198917E+01
Ga    9.6597154760651307E+00    3.5743398875764852E-02    1.3583085138373423E+01
N    9.6606131972261391E+00    6.5727548676393799E-02    1.5545339130054858E+01
Ga    9.6614414812038856E+00    1.9054375613160410E+00    1.5825924516163825E+01
N    7.9492498142096180E+00    4.6242763471648036E+00    2.4915379384995795E+00
Ga    8.1554950037113567E+00    2.7717935418626642E+00    3.2604008715682675E+00
N    8.0543751201723328E+00    2.8294400072022952E+00    5.2197194584020563E+00
Ga    8.0753994901742558E+00    4.7028291609530113E+00    5.7648763583713842E+00
N    8.0613187721332960E+00    4.6941019746215265E+00    7.7605770317611960E+00
Ga    8.0405304414458811E+00    2.8373412390402541E+00    8.4012169755941457E+00
N    8.0393786471440105E+00    2.8385284101674717E+00    1.0393608498230716E+01
Ga    8.0656088041995737E+00    4.6973851166620566E+00    1.1031598826383714E+01
N    8.0829591812245951E+00    4.7066664032168406E+00    1.3025703045550232E+01
Ga    8.0417340513984694E+00    2.8381576475503727E+00    1.3583674337136420E+01
N    8.0684440284373711E+00    2.8230308742579440E+00    1.5544752905796541E+01
Ga    7.8845734668494192E+00    4.5905022750867825E+00    1.6451389645697951E+01
N    6.4362807387959196E+00    7.4662436511296395E+00    2.5577058744665413E+00
Ga    6.4420065209814545E+00    5.7266107814072535E+00    3.2567728492374011E+00
N    6.4443504164415994E+00    5.6167762096086893E+00    5.2150370860843847E+00
Ga    6.4407952716245456E+00    7.4714460629540680E+00    5.8414402462112918E+00
N    6.4431912879299276E+00    7.4732336510764261E+00    7.8135930036283119E+00
Ga    6.4419216555961265E+00    5.6041955037915594E+00    8.4019005715624946E+00
N    6.4432204912141637E+00    5.6049087170119636E+00    1.0396003340085734E+01
Ga    6.4424379460516059E+00    7.4737520837083373E+00    1.0989613256997737E+01
N    6.4450792399813270E+00    7.4752695577910320E+00    1.2963803801215333E+01
Ga    6.4438811926065114E+00    5.6039673335232463E+00    1.3584948593260050E+01
N    6.4490236242422530E+00    5.6384487614792995E+00    1.5547037810207053E+01
Ga    6.4441288051993979E+00    7.4742578768639589E+00    1.5828584705282511E+01
N    4.7313554347479716E+00    1.0200040805659752E+01    2.4957233167608788E+00
Ga    4.9279597620489639E+00    8.3397165997558798E+00    3.2507043576732300E+00
N    4.8365973271377163E+00    8.3994195331268315E+00    5.2115641983651289E+00
Ga    4.8612194367058263E+00    1.0269000669750982E+01    5.7636538055074622E+00
N    4.8454546680939883E+00    1.0263373019903160E+01    7.7600420978254565E+00
Ga    4.8238192151073740E+00    8.4065933794771546E+00    8.4018511550879360E+00
N    4.8241979044473444E+00    8.4084736751367100E+00    1.0396143964692653E+01
Ga    4.8494793040732711E+00    1.0267627755901398E+01    1.1031131362395220E+01
N    4.8664931215074780E+00    1.0278174024872044E+01    1.3025806776657291E+01
Ga    4.8242154599114482E+00    8.4097227150132934E+00    1.3583989164009019E+01
N    4.8559981188793957E+00    8.3971932852633380E+00    1.5547218869557296E+01
Ga    4.6707806843836934E+00    1.0165792161312778E+01    1.6446110683871716E+01
O    3.2359266672471692E+00    5.5646165707642821E+00    2.0164108816083448E-01
H    2.3252047977085404E+00    5.7880435003146351E+00   -5.8456498133103094E-02
C    4.1687489026478612E+00    6.4183760960101930E+00   -5.0444551286583361E-01
H    3.7631798580942664E+00    7.4326669230608022E+00   -6.4048706582620385E-01
H    5.0718098896861088E+00    6.4939932273837107E+00    1.1624486782175797E-01
H    4.4106550570556271E+00    5.9846731647137661E+00   -1.4836863038704691E+00
     &END COORD
     &KIND C
       BASIS_SET DZVP-MOLOPT-SR-GTH-q4
       POTENTIAL GTH-PBE-q4
       &POTENTIAL
 2 2
  0.3384712400000000E+00 2 -0.8803673979999999E+01  0.1339210850000000E+01
 2
  0.3025757500000000E+00 1  0.9622486650000001E+01
  0.2915069400000000E+00 0
         # Potential name:  GTH-PBE-Q4  for symbol:  C
         # Potential read from the potential filename: GTH_POTENTIALS
       &END POTENTIAL
     &END KIND
     &KIND O
       BASIS_SET DZVP-MOLOPT-SR-GTH-q6
       POTENTIAL GTH-PBE-q6
       &POTENTIAL
 2 4
  0.2445543000000000E+00 2 -0.1666721480000000E+02  0.2487311320000000E+01
 2
  0.2209559200000000E+00 1  0.1833745811000000E+02
  0.2113324700000000E+00 0
         # Potential name:  GTH-PBE-Q6  for symbol:  O
         # Potential read from the potential filename: GTH_POTENTIALS
       &END POTENTIAL
     &END KIND
     &KIND H
       BASIS_SET DZVP-MOLOPT-SR-GTH-q1
       POTENTIAL GTH-PBE-q1
       &POTENTIAL
 1
  0.2000000000000000E+00 2 -0.4178900440000000E+01  0.7244633100000000E+00
 0
         # Potential name:  GTH-PBE-Q1  for symbol:  H
         # Potential read from the potential filename: GTH_POTENTIALS
       &END POTENTIAL
     &END KIND
     &KIND N
       BASIS_SET DZVP-MOLOPT-SR-GTH
       POTENTIAL GTH-PBE-q5
       &POTENTIAL
 2 3
  0.2837905100000000E+00 2 -0.1241522559000000E+02  0.1868095920000000E+01
 2
  0.2554050000000000E+00 1  0.1363026257000000E+02
  0.2454945300000000E+00 0
         # Potential name:  GTH-PBE-Q5  for symbol:  N
         # Potential read from the potential filename: GTH_POTENTIALS
       &END POTENTIAL
     &END KIND
     &KIND Ga
       BASIS_SET DZVP-MOLOPT-SR-GTH
       POTENTIAL GTH-PBE-q13
       &POTENTIAL
 2 1 10
  0.4900000000000000E+00 0
 3
  0.4167772300000000E+00 3  0.1047568975000000E+02 -0.4921768140000000E+01  0.8707055900000000E+00
  0.7770178090000000E+01 -0.2248152160000000E+01
  0.1784415450000000E+01
  0.5696265200000000E+00 2  0.1777985340000000E+01  0.1958597600000000E+00
 -0.2317443900000000E+00
  0.2381265000000000E+00 1 -0.1624868022000000E+02
         # Potential name:  GTH-PBE-Q13  for symbol:  GA
         # Potential read from the potential filename: GTH_POTENTIALS
       &END POTENTIAL
     &END KIND
     &TOPOLOGY
       NUMBER_OF_ATOMS  206
       MULTIPLE_UNIT_CELL  1 1 1
     &END TOPOLOGY
   &END SUBSYS
 &END FORCE_EVAL
