 # Version information for this restart file 
 # current date 2019-06-24 14:32:50.258
 # current working dir /scratch/rzk/rzk/GaN-carbene/443-adatoms-both-2x2/02-Methanol/02-O-GaSur
 # Program compiled at                              Sun Apr  7 00:48:11 EDT 2019
 # Program compiled on                          beluga2.int.ets1.calculquebec.ca
 # Program compiled for                        Beluga-Linux-x86-64-intel-openmpi
 # Source code revision number                                         svn:18619
 &GLOBAL
   PRINT_LEVEL  MEDIUM
   PROJECT_NAME TEST
   RUN_TYPE  GEO_OPT
 &END GLOBAL
 &MOTION
   &GEO_OPT
     MAX_ITER  500
     STEP_START_VAL  51
   &END GEO_OPT
 &END MOTION
 &FORCE_EVAL
   METHOD  QS
   STRESS_TENSOR  ANALYTICAL
   &DFT
     BASIS_SET_FILE_NAME BASIS_MOLOPT
     POTENTIAL_FILE_NAME GTH_POTENTIALS
     UKS  T
     SURFACE_DIPOLE_CORRECTION  T
     SURF_DIP_DIR  Z
     &SCF
       MAX_SCF  80
       EPS_SCF     5.0000000000000004E-06
       &OT  T
         PRECONDITIONER  FULL_ALL
       &END OT
       &OUTER_SCF  T
         OPTIMIZER  NONE
         EPS_SCF     5.0000000000000004E-06
         MAX_SCF  4
       &END OUTER_SCF
       &PRINT
         &RESTART  OFF
           BACKUP_COPIES  1
           &EACH
             JUST_ENERGY  0
             QS_SCF  0
             MD  20
           &END EACH
         &END RESTART
       &END PRINT
     &END SCF
     &QS
       EPS_DEFAULT     1.0000000000000000E-14
       METHOD  GPW
     &END QS
     &MGRID
       NGRIDS  5
       CUTOFF     1.2000000000000000E+03
     &END MGRID
     &XC
       DENSITY_CUTOFF     1.0000000000000000E-10
       GRADIENT_CUTOFF     1.0000000000000000E-10
       TAU_CUTOFF     1.0000000000000000E-10
       &XC_FUNCTIONAL  NO_SHORTCUT
         &PBE  T
         &END PBE
       &END XC_FUNCTIONAL
       &VDW_POTENTIAL
         POTENTIAL_TYPE  PAIR_POTENTIAL
         &PAIR_POTENTIAL
           R_CUTOFF     1.0000000000000004E+01
           TYPE  DFTD3
           PARAMETER_FILE_NAME dftd3.dat
           REFERENCE_FUNCTIONAL PBE
           EPS_CN     9.9999999999999995E-07
           CALCULATE_C9_TERM  T
           REFERENCE_C9_TERM  T
           LONG_RANGE_CORRECTION  F
           VERBOSE_OUTPUT  F
         &END PAIR_POTENTIAL
       &END VDW_POTENTIAL
     &END XC
   &END DFT
   &SUBSYS
     &CELL
       A     1.2864472766435110E+01    0.0000000000000000E+00    0.0000000000000000E+00
       B    -6.4322363581020028E+00    1.1140960178524473E+01    0.0000000000000000E+00
       C     0.0000000000000000E+00    0.0000000000000000E+00    3.2000000000000000E+01
       MULTIPLE_UNIT_CELL  1 1 1
       &CELL_REF
         A     1.2982353780853531E+01    0.0000000000000000E+00    0.0000000000000000E+00
         B    -6.4911768904267628E+00    1.1243048175136114E+01    0.0000000000000000E+00
         C     0.0000000000000000E+00    0.0000000000000000E+00    3.2000000000000000E+01
         MULTIPLE_UNIT_CELL  1 1 1
       &END CELL_REF
     &END CELL
     &COORD
N    1.0523063395177185E-02    2.0230647867474296E+00    2.4884457961358186E+00
Ga    1.1076271108814933E-02    4.8830284399280582E-02    2.8239062111593127E+00
N    1.3525099204654240E-02    4.5842715728354612E-02    4.9791727088868774E+00
Ga    1.6993431364778759E-02    1.8768124856045789E+00    5.7583962218978657E+00
N    1.3863443250204714E-02    1.8923059890223262E+00    7.7552777786086979E+00
Ga    1.2917557974385728E-02    4.7255426214752733E-02    8.4036286982677009E+00
N    1.2782121338539509E-02    4.7705903969171855E-02    1.0378634883918727E+01
Ga    1.2152550132183693E-02    1.8885898443337183E+00    1.1027372233595212E+01
N    1.1255247366223894E-02    1.8701461752517037E+00    1.3020626220916801E+01
Ga    5.5036675334799393E-03    5.4134669880825506E-02    1.3823211062308975E+01
N    3.7514146453509227E-03    5.4903135334980355E-02    1.6030901399603543E+01
Ga    9.4377523447839902E-03    2.1123646216366900E+00    1.6460824276661274E+01
Ga   -1.6289640648145833E-02    3.7372411199341617E+00    1.4258939711886260E+00
N   -1.4912027397671059E+00    4.6236786830017396E+00    2.4876889861223375E+00
Ga   -1.6935523035895088E+00    2.7732852828405301E+00    3.2562459250886175E+00
N   -1.5971084772498529E+00    2.8295739261737740E+00    5.2164288177641494E+00
Ga   -1.6152435855810992E+00    4.7038326193558397E+00    5.7581797244770057E+00
N   -1.6045706997625313E+00    4.6955915791044651E+00    7.7549184845958452E+00
Ga   -1.5839394592629248E+00    2.8387830687666460E+00    8.3960175250257123E+00
N   -1.5847143489242330E+00    2.8396327237428687E+00    1.0388977718644272E+01
Ga   -1.6095180832789966E+00    4.6982879374019424E+00    1.1027400170516295E+01
N   -1.6273164845889183E+00    4.7084444654265774E+00    1.3020642670093048E+01
Ga   -1.5854414927724141E+00    2.8405130145785020E+00    1.3581862700792636E+01
N   -1.6138579783007414E+00    2.8249569638297802E+00    1.5540242377153129E+01
Ga   -1.4194454708060564E+00    4.5870530481745986E+00    1.6460498816109617E+01
N    1.5104899757582830E-02    3.7654790206544568E+00    1.7610574696540095E+01
N   -3.2035516480795634E+00    7.5949819357395363E+00    2.4831257994783646E+00
Ga   -3.2002431738505446E+00    5.6118804732813024E+00    2.8222065436834147E+00
N   -3.2026162324685008E+00    5.6160542668023288E+00    4.9781168311423860E+00
Ga   -3.2034108607451652E+00    7.4447224807267416E+00    5.7571696259483041E+00
N   -3.2038247548579242E+00    7.4640281282261274E+00    7.7543903597034136E+00
Ga   -3.2025583533300166E+00    5.6181407268165753E+00    8.4034661299491038E+00
N   -3.2032963964523935E+00    5.6191983173036029E+00    1.0378307528203456E+01
Ga   -3.2037570337654762E+00    7.4577132998886464E+00    1.1028748682323730E+01
N   -3.2040055760780040E+00    7.4388489669471713E+00    1.3027810527483089E+01
Ga   -3.2033332190274262E+00    5.6114706016938234E+00    1.3823332759087689E+01
N   -3.2038042326195288E+00    5.6110834274994259E+00    1.6029613409144375E+01
Ga   -3.2045532056551922E+00    7.6222179409912441E+00    1.6407569078692713E+01
Ga   -3.2027488185342512E+00    9.3319862148044397E+00    1.4608921547809202E+00
N   -4.7058067691184959E+00    1.0195784259203995E+01    2.4851002577061476E+00
Ga   -4.9174251759879528E+00    8.3393949228092090E+00    3.2442569824222782E+00
N   -4.8151652242977638E+00    8.3989392391202102E+00    5.2064156257132987E+00
Ga   -4.8364132397076043E+00    1.0271645734521975E+01    5.7584974278774554E+00
N   -4.8210277774634509E+00    1.0263939470197112E+01    7.7553627613912699E+00
Ga   -4.8018073051045747E+00    8.4083258635296545E+00    8.3979398990908596E+00
N   -4.8005452081234665E+00    8.4101567774832766E+00    1.0393009664674763E+01
Ga   -4.8270168577715671E+00    1.0269592607512401E+01    1.1028404419221028E+01
N   -4.8445985211911715E+00    1.0280561724881954E+01    1.3027518569434523E+01
Ga   -4.8009143942351811E+00    8.4115763128690944E+00    1.3577115832623969E+01
N   -4.8241469607530396E+00    8.3992391962568220E+00    1.5551306019310754E+01
Ga   -4.6867206879272114E+00    1.0190323753126309E+01    1.6407812051148547E+01
N   -3.2095741344845172E+00    9.3311049743288716E+00    1.7521913460198736E+01
N    3.2301573489151210E+00    1.9068219349114919E+00    2.5664609291020870E+00
Ga    3.2280009580867928E+00    1.6523652351410426E-01    3.2502565321214045E+00
N    3.2286866705186723E+00    4.8047673084210998E-02    5.2113130191543702E+00
Ga    3.2272290831816441E+00    1.9073515856479877E+00    5.8337096251538929E+00
N    3.2281208921241378E+00    1.9039804643205762E+00    7.8076455748120726E+00
Ga    3.2282640794214235E+00    3.6367512183249379E-02    8.3951875584921893E+00
N    3.2282743680674293E+00    3.4897323793488401E-02    1.0390842755279866E+01
Ga    3.2276560020205545E+00    1.9049906859199859E+00    1.0984850890651986E+01
N    3.2282414322157833E+00    1.9032077546564135E+00    1.2958440438255201E+01
Ga    3.2280164733169738E+00    3.6954414054649248E-02    1.3576222226505807E+01
N    3.2285948784929999E+00    6.3158599552393196E-02    1.5549617313423918E+01
Ga    3.2265347721057935E+00    1.9106514276856195E+00    1.5822412413434634E+01
N    1.5009724103526505E+00    4.6229206693301439E+00    2.4402571761712797E+00
Ga    1.7196806792202619E+00    2.7858872449835563E+00    3.2381790519721867E+00
N    1.6217640431213680E+00    2.8344285305834105E+00    5.2028101551677404E+00
Ga    1.6618411654586800E+00    4.7111888690932693E+00    5.7546135349140739E+00
N    1.6279861142947154E+00    4.6931644325957214E+00    7.7596861734815867E+00
Ga    1.6109629508622851E+00    2.8394851516866262E+00    8.3975555955503580E+00
N    1.6095840092469258E+00    2.8393119626730341E+00    1.0391406294723254E+01
Ga    1.6356740740551536E+00    4.6993129433918810E+00    1.1028977212014347E+01
N    1.6512930299554791E+00    4.7093784186050005E+00    1.3023533717798440E+01
Ga    1.6080220621095644E+00    2.8407480259705595E+00    1.3582137581362966E+01
N    1.6347802096651440E+00    2.8211101384056989E+00    1.5541385056277660E+01
Ga    1.4471587604571767E+00    4.5919701573857834E+00    1.6459766868715867E+01
N    1.9979945038181887E-02    7.4686292778157135E+00    2.5565033477519630E+00
Ga    2.1796842216485705E-02    5.7229172575878504E+00    3.2400433545885381E+00
N    1.6081734615303024E-02    5.6160685771517400E+00    5.2034215369281247E+00
Ga    1.6351982435234832E-02    7.4696431197974427E+00    5.8345737595875962E+00
N    1.2814061327971242E-02    7.4736115365124531E+00    7.8080927881350917E+00
Ga    1.4109723421850904E-02    5.6053194488691265E+00    8.3975677457185860E+00
N    1.2178631980910567E-02    5.6067867044969297E+00    1.0391446883030106E+01
Ga    1.1931054002842004E-02    7.4754086274553035E+00    1.0985597896331599E+01
N    9.9564599421113811E-03    7.4782000358357426E+00    1.2959490951469915E+01
Ga    1.1425173917881825E-02    5.6062086628628478E+00    1.3582787678163864E+01
N    7.1474498718074432E-03    5.6408441492409729E+00    1.5541984017759624E+01
Ga    1.3572817274655100E-02    7.4745322135299226E+00    1.5823937785944651E+01
N   -1.7013691505055113E+00    1.0196129769383685E+01    2.4867385349291982E+00
Ga   -1.4895249821763688E+00    8.3388958460038189E+00    3.2456524639115796E+00
N   -1.5916629273123382E+00    8.3989069844281961E+00    5.2075528077873843E+00
Ga   -1.5706297740004402E+00    1.0271634870283606E+01    5.7585615589572923E+00
N   -1.5862842747919934E+00    1.0264213987168684E+01    7.7552916477948095E+00
Ga   -1.6046087636605619E+00    8.4075394539793447E+00    8.3958279261618305E+00
N   -1.6073409392636422E+00    8.4101865552857191E+00    1.0391323391561047E+01
Ga   -1.5810916355701090E+00    1.0269313376934923E+01    1.1027404804942616E+01
N   -1.5643330735687568E+00    1.0280106974575718E+01    1.3026260562412181E+01
Ga   -1.6067863676225460E+00    8.4112316659689199E+00    1.3576619491469769E+01
N   -1.5847859974042691E+00    8.4002675828459594E+00    1.5550145066844159E+01
Ga   -1.7279391265277493E+00    1.0187226121476364E+01    1.6407679021687816E+01
N    6.4483983547059180E+00    2.0233914187760589E+00    2.4913855633310571E+00
Ga    6.4469385394143197E+00    4.6301422161105957E-02    2.8250862838294131E+00
N    6.4450048782005114E+00    4.5719007624596131E-02    4.9791859774476537E+00
Ga    6.4430664532008164E+00    1.8754621970230272E+00    5.7618295573807083E+00
N    6.4445466077498388E+00    1.8918785199480352E+00    7.7577891323902453E+00
Ga    6.4444257775903102E+00    4.6281651308880623E-02    8.4040573975813313E+00
N    6.4442890609267414E+00    4.7312681306349490E-02    1.0378877167065944E+01
Ga    6.4438496501832745E+00    1.8883874099357358E+00    1.1026692997317490E+01
N    6.4444303983447693E+00    1.8700559888923833E+00    1.3020029106125239E+01
Ga    6.4496859748604960E+00    5.2774288391021509E-02    1.3818471095847396E+01
N    6.4497916042736509E+00    5.3196268311726587E-02    1.6028381482258201E+01
Ga    6.4453886710668646E+00    2.1017319319690229E+00    1.6444809358646996E+01
Ga    6.4623856938022142E+00    3.7441487353275771E+00    1.4551357330500654E+00
N    4.9651730045940523E+00    4.6209063768886267E+00    2.4729776941928816E+00
Ga    4.7364550054918029E+00    2.7802175366141264E+00    3.2517600102794972E+00
N    4.8371600524900602E+00    2.8320311402940033E+00    5.2118614902421436E+00
Ga    4.7979812418175918E+00    4.7110593417488280E+00    5.7574046586964318E+00
N    4.8300057605564080E+00    4.6933201870541668E+00    7.7619591535166084E+00
Ga    4.8457739628398668E+00    2.8390789620530770E+00    8.3974415279806518E+00
N    4.8465057055793697E+00    2.8389233850939584E+00    1.0391591170357783E+01
Ga    4.8208068586415669E+00    4.6990076542284482E+00    1.1028941874830748E+01
N    4.8041643919061521E+00    4.7094569616913668E+00    1.3024057172140354E+01
Ga    4.8476494178937823E+00    2.8406407996627112E+00    1.3579490239342908E+01
N    4.8215231105362948E+00    2.8204947301642433E+00    1.5541398636948228E+01
Ga    4.9933442349294159E+00    4.6006987923175027E+00    1.6443947690398893E+01
N    6.4337624455759981E+00    3.7672797286320265E+00    1.7584054284695970E+01
N    3.2295330671265723E+00    7.6118502022249919E+00    2.4633147858639877E+00
Ga    3.2347945099582183E+00    5.6109670413133808E+00    2.5427228167207385E+00
N    3.2308960618199252E+00    5.6155416569812999E+00    4.9944775605503056E+00
Ga    3.2299785549772362E+00    7.4262354193311078E+00    5.7555911218011646E+00
N    3.2292456677125934E+00    7.4661475461254279E+00    7.7608995680137225E+00
Ga    3.2284539403004295E+00    5.6176498587996120E+00    8.4020917443396641E+00
N    3.2284884949725807E+00    5.6187631155179751E+00    1.0379288225237797E+01
Ga    3.2279730660089418E+00    7.4573224461959118E+00    1.1030046106659492E+01
N    3.2277578422561159E+00    7.4396569264628605E+00    1.3025454873800729E+01
Ga    3.2264878933096202E+00    5.6186376976176966E+00    1.3833284090947050E+01
N    3.2260333704217241E+00    5.6192431023051022E+00    1.6029069978197981E+01
Ga    3.2277408529942671E+00    7.6573403053845199E+00    1.6444123195604476E+01
Ga    3.2273287786557137E+00    9.3620241430199886E+00    1.4490238426453255E+00
N    1.7266487277268543E+00    1.0200306206821560E+01    2.4944875639779940E+00
Ga    1.5296478256386568E+00    8.3368911964842312E+00    3.2486335108428950E+00
N    1.6217108764466246E+00    8.3992686284232629E+00    5.2093335891061949E+00
Ga    1.5965027723582035E+00    1.0268762235997031E+01    5.7604262331647949E+00
N    1.6102920170041448E+00    1.0264236003501559E+01    7.7568856059428146E+00
Ga    1.6315265945050370E+00    8.4070087696171516E+00    8.3977392042084844E+00
N    1.6305069065429083E+00    8.4094982283948561E+00    1.0392150127974597E+01
Ga    1.6062614310567191E+00    1.0268147807890045E+01    1.1027461261000031E+01
N    1.5891400550320665E+00    1.0279789536045847E+01    1.3021170758318840E+01
Ga    1.6312172620281999E+00    8.4120211817873880E+00    1.3581083297400216E+01
N    1.5997581311929276E+00    8.4004112779127258E+00    1.5543599247391240E+01
Ga    1.7882369098215118E+00    1.0166797192185934E+01    1.6444847208608184E+01
N    3.2258583853088201E+00    9.3227731962634035E+00    1.7584247838907597E+01
N    9.6633979747515681E+00    1.9017974461840985E+00    2.5703241029814201E+00
Ga    9.6628409634060404E+00    1.6331799856611456E-01    3.2601412060080679E+00
N    9.6618264318707041E+00    4.8156681828016204E-02    5.2188738761497708E+00
Ga    9.6621098887961079E+00    1.9029407547183870E+00    5.8445836500583157E+00
N    9.6613461646333914E+00    1.9033956850439648E+00    7.8140175458670704E+00
Ga    9.6609873648371032E+00    3.4009960713538040E-02    8.3973155696873860E+00
N    9.6607141579688456E+00    3.4673784744161919E-02    1.0390125986811841E+01
Ga    9.6605519676612239E+00    1.9047550594310116E+00    1.0983215857160467E+01
N    9.6600362973192873E+00    1.9052175593158183E+00    1.2955518142946172E+01
Ga    9.6601165499063661E+00    3.6725989088244787E-02    1.3579507583336138E+01
N    9.6594336595040389E+00    6.7793371920550363E-02    1.5540334737843322E+01
Ga    9.6604325836979381E+00    1.9074517138002522E+00    1.5816517667829011E+01
N    7.9507886996806381E+00    4.6242678821748706E+00    2.4888728588390037E+00
Ga    8.1572463394923371E+00    2.7716258272608769E+00    3.2578178338222301E+00
N    8.0559688990969729E+00    2.8296248336869909E+00    5.2172865762411229E+00
Ga    8.0775619468238755E+00    4.7031230736752505E+00    5.7627896041307318E+00
N    8.0632896889960524E+00    4.6949292020896314E+00    7.7583272053297678E+00
Ga    8.0425692464841170E+00    2.8379836080136398E+00    8.3980023229199006E+00
N    8.0412105535805889E+00    2.8397832294295156E+00    1.0390272579428212E+01
Ga    8.0672128122000224E+00    4.6989173725309215E+00    1.1027301134047558E+01
N    8.0839435748179991E+00    4.7086858287101210E+00    1.3020803541658792E+01
Ga    8.0416195904354044E+00    2.8403259178064384E+00    1.3578120300082370E+01
N    8.0672100673619269E+00    2.8255775660650455E+00    1.5538401797266797E+01
Ga    7.8843403428081693E+00    4.5923147065591889E+00    1.6445269480179590E+01
N    6.4374196359801852E+00    7.4658585927336318E+00    2.5539453651185484E+00
Ga    6.4444437277127502E+00    5.7266721976785018E+00    3.2561664859292718E+00
N    6.4463343902328987E+00    5.6175099935224253E+00    5.2141631975006320E+00
Ga    6.4426127064590544E+00    7.4722208134844257E+00    5.8398906677881302E+00
N    6.4450169928085508E+00    7.4744437469456138E+00    7.8117688949303901E+00
Ga    6.4437915700960584E+00    5.6053642647816400E+00    8.3991627526509767E+00
N    6.4448625178884251E+00    5.6068377971495043E+00    1.0392948352633921E+01
Ga    6.4440605419869890E+00    7.4756613678626405E+00    1.0986465499302392E+01
N    6.4461950584761913E+00    7.4779630028688304E+00    1.2960800904888641E+01
Ga    6.4446671161161415E+00    5.6060121212679697E+00    1.3579986382696999E+01
N    6.4495207285389871E+00    5.6400050367037968E+00    1.5541642784105820E+01
Ga    6.4416983156616645E+00    7.4757520425611093E+00    1.5823466662293972E+01
N    4.7324146187440839E+00    1.0199606314449127E+01    2.4918122611245450E+00
Ga    4.9295032347093217E+00    8.3395602394130393E+00    3.2487645323157373E+00
N    4.8383303349992914E+00    8.3996938198908513E+00    5.2094176289999110E+00
Ga    4.8628280588513926E+00    1.0269537218130601E+01    5.7611324346998343E+00
N    4.8473030188015995E+00    1.0264217377772914E+01    7.7574656881157873E+00
Ga    4.8256521419154588E+00    8.4075980047027112E+00    8.3996464352584326E+00
N    4.8258881369804127E+00    8.4099710941921337E+00    1.0393597021057532E+01
Ga    4.8510142199856450E+00    1.0269060459845694E+01    1.1028178846403879E+01
N    4.8670132468001492E+00    1.0280278276248772E+01    1.3022038225808545E+01
Ga    4.8243784238927914E+00    8.4122537702421045E+00    1.3580968559675329E+01
N    4.8554256092585009E+00    8.4005375982850143E+00    1.5543281530580931E+01
Ga    4.6666958871694941E+00    1.0167099253685491E+01    1.6445753451946935E+01
O    3.2677491236220639E+00    5.5454987209218674E+00    2.1021459094356187E-01
H    2.3548037691219679E+00    5.6957161069992175E+00   -9.1609212684239064E-02
C    4.1741338012569278E+00    6.4217480380550116E+00   -5.0081868547928798E-01
H    3.7396320844770252E+00    7.4256669558109794E+00   -6.3719138284399834E-01
H    5.0764474374818613E+00    6.5214813891019805E+00    1.2030720387982097E-01
H    4.4275882460571818E+00    5.9919893648240938E+00   -1.4798151415816891E+00
     &END COORD
     &KIND C
       BASIS_SET DZVP-MOLOPT-SR-GTH-q4
       POTENTIAL GTH-PBE-q4
       &POTENTIAL
 2 2
  0.3384712400000000E+00 2 -0.8803673979999999E+01  0.1339210850000000E+01
 2
  0.3025757500000000E+00 1  0.9622486650000001E+01
  0.2915069400000000E+00 0
         # Potential name:  GTH-PBE-Q4  for symbol:  C
         # Potential read from the potential filename: GTH_POTENTIALS
       &END POTENTIAL
     &END KIND
     &KIND O
       BASIS_SET DZVP-MOLOPT-SR-GTH-q6
       POTENTIAL GTH-PBE-q6
       &POTENTIAL
 2 4
  0.2445543000000000E+00 2 -0.1666721480000000E+02  0.2487311320000000E+01
 2
  0.2209559200000000E+00 1  0.1833745811000000E+02
  0.2113324700000000E+00 0
         # Potential name:  GTH-PBE-Q6  for symbol:  O
         # Potential read from the potential filename: GTH_POTENTIALS
       &END POTENTIAL
     &END KIND
     &KIND H
       BASIS_SET DZVP-MOLOPT-SR-GTH-q1
       POTENTIAL GTH-PBE-q1
       &POTENTIAL
 1
  0.2000000000000000E+00 2 -0.4178900440000000E+01  0.7244633100000000E+00
 0
         # Potential name:  GTH-PBE-Q1  for symbol:  H
         # Potential read from the potential filename: GTH_POTENTIALS
       &END POTENTIAL
     &END KIND
     &KIND N
       BASIS_SET DZVP-MOLOPT-SR-GTH
       POTENTIAL GTH-PBE-q5
       &POTENTIAL
 2 3
  0.2837905100000000E+00 2 -0.1241522559000000E+02  0.1868095920000000E+01
 2
  0.2554050000000000E+00 1  0.1363026257000000E+02
  0.2454945300000000E+00 0
         # Potential name:  GTH-PBE-Q5  for symbol:  N
         # Potential read from the potential filename: GTH_POTENTIALS
       &END POTENTIAL
     &END KIND
     &KIND Ga
       BASIS_SET DZVP-MOLOPT-SR-GTH
       POTENTIAL GTH-PBE-q13
       &POTENTIAL
 2 1 10
  0.4900000000000000E+00 0
 3
  0.4167772300000000E+00 3  0.1047568975000000E+02 -0.4921768140000000E+01  0.8707055900000000E+00
  0.7770178090000000E+01 -0.2248152160000000E+01
  0.1784415450000000E+01
  0.5696265200000000E+00 2  0.1777985340000000E+01  0.1958597600000000E+00
 -0.2317443900000000E+00
  0.2381265000000000E+00 1 -0.1624868022000000E+02
         # Potential name:  GTH-PBE-Q13  for symbol:  GA
         # Potential read from the potential filename: GTH_POTENTIALS
       &END POTENTIAL
     &END KIND
     &TOPOLOGY
       NUMBER_OF_ATOMS  206
       MULTIPLE_UNIT_CELL  1 1 1
     &END TOPOLOGY
   &END SUBSYS
 &END FORCE_EVAL
