 # Version information for this restart file 
 # current date 2019-06-24 16:00:58.385
 # current working dir /scratch/rzk/rzk/GaN-carbene/443-adatoms-both-2x2/02-Methanol/02-O-GaSur
 # Program compiled at                              Sun Apr  7 00:48:11 EDT 2019
 # Program compiled on                          beluga2.int.ets1.calculquebec.ca
 # Program compiled for                        Beluga-Linux-x86-64-intel-openmpi
 # Source code revision number                                         svn:18619
 &GLOBAL
   PRINT_LEVEL  MEDIUM
   PROJECT_NAME TEST
   RUN_TYPE  GEO_OPT
 &END GLOBAL
 &MOTION
   &GEO_OPT
     MAX_ITER  500
     STEP_START_VAL  74
   &END GEO_OPT
 &END MOTION
 &FORCE_EVAL
   METHOD  QS
   STRESS_TENSOR  ANALYTICAL
   &DFT
     BASIS_SET_FILE_NAME BASIS_MOLOPT
     POTENTIAL_FILE_NAME GTH_POTENTIALS
     UKS  T
     SURFACE_DIPOLE_CORRECTION  T
     SURF_DIP_DIR  Z
     &SCF
       MAX_SCF  80
       EPS_SCF     5.0000000000000004E-06
       &OT  T
         PRECONDITIONER  FULL_ALL
       &END OT
       &OUTER_SCF  T
         OPTIMIZER  NONE
         EPS_SCF     5.0000000000000004E-06
         MAX_SCF  4
       &END OUTER_SCF
       &PRINT
         &RESTART  OFF
           BACKUP_COPIES  1
           &EACH
             JUST_ENERGY  0
             QS_SCF  0
             MD  20
           &END EACH
         &END RESTART
       &END PRINT
     &END SCF
     &QS
       EPS_DEFAULT     1.0000000000000000E-14
       METHOD  GPW
     &END QS
     &MGRID
       NGRIDS  5
       CUTOFF     1.2000000000000000E+03
     &END MGRID
     &XC
       DENSITY_CUTOFF     1.0000000000000000E-10
       GRADIENT_CUTOFF     1.0000000000000000E-10
       TAU_CUTOFF     1.0000000000000000E-10
       &XC_FUNCTIONAL  NO_SHORTCUT
         &PBE  T
         &END PBE
       &END XC_FUNCTIONAL
       &VDW_POTENTIAL
         POTENTIAL_TYPE  PAIR_POTENTIAL
         &PAIR_POTENTIAL
           R_CUTOFF     1.0000000000000004E+01
           TYPE  DFTD3
           PARAMETER_FILE_NAME dftd3.dat
           REFERENCE_FUNCTIONAL PBE
           EPS_CN     9.9999999999999995E-07
           CALCULATE_C9_TERM  T
           REFERENCE_C9_TERM  T
           LONG_RANGE_CORRECTION  F
           VERBOSE_OUTPUT  F
         &END PAIR_POTENTIAL
       &END VDW_POTENTIAL
     &END XC
   &END DFT
   &SUBSYS
     &CELL
       A     1.2864472766435110E+01    0.0000000000000000E+00    0.0000000000000000E+00
       B    -6.4322363581020028E+00    1.1140960178524473E+01    0.0000000000000000E+00
       C     0.0000000000000000E+00    0.0000000000000000E+00    3.2000000000000000E+01
       MULTIPLE_UNIT_CELL  1 1 1
       &CELL_REF
         A     1.2982353780853531E+01    0.0000000000000000E+00    0.0000000000000000E+00
         B    -6.4911768904267628E+00    1.1243048175136114E+01    0.0000000000000000E+00
         C     0.0000000000000000E+00    0.0000000000000000E+00    3.2000000000000000E+01
         MULTIPLE_UNIT_CELL  1 1 1
       &END CELL_REF
     &END CELL
     &COORD
N    8.3288260553561651E-03    2.0226825554272847E+00    2.4950119794803398E+00
Ga    9.5433342607666918E-03    4.7677074529292984E-02    2.8289955069968067E+00
N    1.1193876518373008E-02    4.5934896922226680E-02    4.9840526706535693E+00
Ga    1.4284594615656628E-02    1.8759843305959334E+00    5.7635865475443788E+00
N    1.1017987414562121E-02    1.8912011751604472E+00    7.7602174794026073E+00
Ga    1.0404978111153235E-02    4.5804429039800094E-02    8.4076069465661263E+00
N    1.0487662646572594E-02    4.5965468568579033E-02    1.0382301671817284E+01
Ga    9.9816796163054444E-03    1.8866156375610921E+00    1.1032342655505794E+01
N    1.0352168708279284E-02    1.8676407712931375E+00    1.3025201205719803E+01
Ga    5.8146823687559128E-03    5.1358347396307659E-02    1.3827077263679248E+01
N    6.3772937064170369E-03    4.9987079761098445E-02    1.6033645678752045E+01
Ga    9.3290721843406268E-03    2.1065617344995751E+00    1.6465523826226320E+01
Ga   -1.5332291695591267E-02    3.7376952084699280E+00    1.4437077899830408E+00
N   -1.4935314911033879E+00    4.6235627084059567E+00    2.4936352848814090E+00
Ga   -1.6970886694551379E+00    2.7724900245040232E+00    3.2624869505418141E+00
N   -1.5991909252953245E+00    2.8293111056620379E+00    5.2216230039253304E+00
Ga   -1.6183824233856299E+00    4.7031374214486794E+00    5.7634444823228543E+00
N   -1.6073463923928082E+00    4.6939964137079278E+00    7.7599680678374527E+00
Ga   -1.5867874727984692E+00    2.8373201643449439E+00    8.4014445562050017E+00
N   -1.5871415455346776E+00    2.8373893288669425E+00    1.0394047056091869E+01
Ga   -1.6118622914754117E+00    4.6958854036194353E+00    1.1032818166158524E+01
N   -1.6284477656255236E+00    4.7058636403720682E+00    1.3025704391112429E+01
Ga   -1.5858546559803048E+00    2.8381674606816816E+00    1.3587704319604233E+01
N   -1.6134883807996949E+00    2.8218380471379918E+00    1.5546280403589549E+01
Ga   -1.4226623939481851E+00    4.5854642881046184E+00    1.6465646428999353E+01
N    1.2485254913280912E-02    3.7612518982993857E+00    1.7616541099192045E+01
N   -3.2050715959575005E+00    7.5944854896955976E+00    2.4880471459846891E+00
Ga   -3.2033640315855503E+00    5.6124506970815640E+00    2.8263028116227082E+00
N   -3.2047846021160269E+00    5.6150263935727374E+00    4.9823408441916426E+00
Ga   -3.2054681191766368E+00    7.4440603979407722E+00    5.7603095383832317E+00
N   -3.2061310665262899E+00    7.4623075324693016E+00    7.7580114195737915E+00
Ga   -3.2054954272222127E+00    5.6165110116737251E+00    8.4078262691371730E+00
N   -3.2056005768303901E+00    5.6164571987379386E+00    1.0382475228537224E+01
Ga   -3.2062808812252377E+00    7.4549648480394755E+00    1.1033387454696067E+01
N   -3.2057499641846423E+00    7.4355325956827700E+00    1.3031522198512175E+01
Ga   -3.2041735313226885E+00    5.6094797247682262E+00    1.3829094597809711E+01
N   -3.2048422894073156E+00    5.6102993843475293E+00    1.6034748148424462E+01
Ga   -3.2051880331595446E+00    7.6266469593607900E+00    1.6420259608678936E+01
Ga   -3.2052618646447129E+00    9.3318917464231479E+00    1.4627250692152596E+00
N   -4.7077530159187777E+00    1.0195798104601469E+01    2.4907051113269740E+00
Ga   -4.9182675526979311E+00    8.3396263739960244E+00    3.2479354360579027E+00
N   -4.8172068635241816E+00    8.3981997996375455E+00    5.2104036492230970E+00
Ga   -4.8385878778176741E+00    1.0270901412299592E+01    5.7619058465484789E+00
N   -4.8235614523839132E+00    1.0262599612154242E+01    7.7591247907877392E+00
Ga   -4.8044747559689069E+00    8.4065645590982516E+00    8.4013907050701544E+00
N   -4.8030845964378219E+00    8.4076763865693778E+00    1.0396479411839346E+01
Ga   -4.8294081638825572E+00    1.0267309488256130E+01    1.1032511102166351E+01
N   -4.8462539377405216E+00    1.0277529810092991E+01    1.3030733986622231E+01
Ga   -4.8028537770139099E+00    8.4082814401151449E+00    1.3581652538075730E+01
N   -4.8267525195193990E+00    8.3944676719894833E+00    1.5553138689563017E+01
Ga   -4.6793064379235885E+00    1.0181803738287675E+01    1.6420371716214856E+01
N   -3.2104256015051709E+00    9.3261387307369432E+00    1.7537411954870358E+01
N    3.2275552351360557E+00    1.9056534042047661E+00    2.5731561132800418E+00
Ga    3.2263335695254867E+00    1.6352997205632175E-01    3.2542403176912793E+00
N    3.2267034442979909E+00    4.7454109152022049E-02    5.2155325858161721E+00
Ga    3.2254933765328455E+00    1.9066159650740595E+00    5.8375827646232885E+00
N    3.2257842481658447E+00    1.9026959649267317E+00    7.8114647124231738E+00
Ga    3.2258079610741324E+00    3.4964173461138448E-02    8.3993386292690708E+00
N    3.2256615203469745E+00    3.3047172052354960E-02    1.0394722317429917E+01
Ga    3.2251643306173476E+00    1.9031671923235947E+00    1.0989860739092336E+01
N    3.2263072070622441E+00    1.9013150647623553E+00    1.2963253379476857E+01
Ga    3.2262958647308242E+00    3.4288131634810204E-02    1.3580940490804169E+01
N    3.2281309709839401E+00    6.0997494143156236E-02    1.5551767035867780E+01
Ga    3.2253386820235028E+00    1.9068450893393838E+00    1.5827662531907276E+01
N    1.4980564011866775E+00    4.6231424582060852E+00    2.4513336895001969E+00
Ga    1.7187111826417492E+00    2.7834716638061359E+00    3.2459486067332604E+00
N    1.6190544976359260E+00    2.8338274740523128E+00    5.2088374431937217E+00
Ga    1.6593220891140190E+00    4.7105505298863344E+00    5.7588881817743784E+00
N    1.6251067920223412E+00    4.6916121729474645E+00    7.7636268189848598E+00
Ga    1.6085487256525930E+00    2.8378743118702761E+00    8.4019947688130738E+00
N    1.6071121651022702E+00    2.8368939696252138E+00    1.0395536569582010E+01
Ga    1.6328332783660153E+00    4.6964623864931623E+00    1.1032974129473031E+01
N    1.6490175140673675E+00    4.7058386155798528E+00    1.3026853375876877E+01
Ga    1.6065125700676928E+00    2.8382370051484083E+00    1.3587733999525328E+01
N    1.6336497420711309E+00    2.8189352830657555E+00    1.5547002552691412E+01
Ga    1.4466640825747579E+00    4.5883620506017522E+00    1.6465108598121240E+01
N    1.8561599002667125E-02    7.4682308212181834E+00    2.5611014185767296E+00
Ga    1.8128339773415360E-02    5.7247122070048828E+00    3.2481026803833641E+00
N    1.3232716136534652E-02    5.6152964893980490E+00    5.2096761643530085E+00
Ga    1.3877609395047025E-02    7.4693804561309323E+00    5.8394757031358484E+00
N    1.0159354818899964E-02    7.4719874872946450E+00    7.8126018377565192E+00
Ga    1.1343290599824547E-02    5.6036040616591354E+00    8.4023865150285761E+00
N    9.5480407012102711E-03    5.6039454352320730E+00    1.0395730077763925E+01
Ga    9.6583905979965544E-03    7.4722890153654014E+00    1.0989827947139093E+01
N    8.7973647489068933E-03    7.4738700419846342E+00    1.2963302301523392E+01
Ga    1.0358354852151129E-02    5.6026004061855064E+00    1.3588216788983225E+01
N    7.5934343727584530E-03    5.6358329030635366E+00    1.5547649080221207E+01
Ga    1.2692946482978760E-02    7.4702691295455343E+00    1.5828120440564861E+01
N   -1.7028993593290704E+00    1.0195992728633502E+01    2.4914442088922955E+00
Ga   -1.4918251606197688E+00    8.3391577361996561E+00    3.2482580285225371E+00
N   -1.5934763209326566E+00    8.3980511383710450E+00    5.2107691334977027E+00
Ga   -1.5726909460828056E+00    1.0270746583538335E+01    5.7620944382983037E+00
N   -1.5887704086927652E+00    1.0262593027175370E+01    7.7591578422907315E+00
Ga   -1.6072545521460269E+00    8.4059480485990878E+00    8.4005174201067554E+00
N   -1.6098258504828309E+00    8.4075639082265319E+00    1.0395515935807959E+01
Ga   -1.5836644778125788E+00    1.0267052508310794E+01    1.1031305415302457E+01
N   -1.5663545421488645E+00    1.0276869441529778E+01    1.3029285613742102E+01
Ga   -1.6080346633711775E+00    8.4076990375028995E+00    1.3580761631981149E+01
N   -1.5839110451602298E+00    8.3957011102986225E+00    1.5551703336693858E+01
Ga   -1.7367036976500663E+00    1.0178320399634353E+01    1.6420839994549489E+01
N    6.4462825996130935E+00    2.0232886682432381E+00    2.4959127691653555E+00
Ga    6.4446790865308596E+00    4.6309279238215977E-02    2.8295775534652754E+00
N    6.4428975777599264E+00    4.5678521583879673E-02    4.9840262413741634E+00
Ga    6.4404715136097259E+00    1.8753927622219508E+00    5.7652895278329410E+00
N    6.4420385052600286E+00    1.8908948387574080E+00    7.7614281348342802E+00
Ga    6.4417783502557313E+00    4.5198230760979459E-02    8.4075890051162663E+00
N    6.4417339954879296E+00    4.5410888130524817E-02    1.0382309509413934E+01
Ga    6.4412838844163769E+00    1.8862045703716501E+00    1.1031114706679231E+01
N    6.4420053380776654E+00    1.8669833361128947E+00    1.3024981298913522E+01
Ga    6.4461345454860517E+00    4.8871575290415727E-02    1.3823492237972317E+01
N    6.4456036114330413E+00    4.8196312888640319E-02    1.6032926822621107E+01
Ga    6.4444536571454147E+00    2.0959497475818929E+00    1.6450121892517700E+01
Ga    6.4614528865614043E+00    3.7430189020114359E+00    1.4574251636168976E+00
N    4.9613818602110467E+00    4.6203771434306411E+00    2.4720766896429467E+00
Ga    4.7342840601914222E+00    2.7799887904959473E+00    3.2535899875771550E+00
N    4.8347635507800977E+00    2.8321057419286708E+00    5.2141320402202505E+00
Ga    4.7955321926225469E+00    4.7104790163965760E+00    5.7600491338285940E+00
N    4.8274151356872697E+00    4.6917795988032491E+00    7.7646767368323806E+00
Ga    4.8433739071524036E+00    2.8376948641113482E+00    8.4016259306748520E+00
N    4.8440149950334375E+00    2.8366692620487819E+00    1.0395597114208718E+01
Ga    4.8183363809439710E+00    4.6964095497648399E+00    1.1032811348918461E+01
N    4.8021393001430450E+00    4.7062090980976610E+00    1.3028132439041876E+01
Ga    4.8456360942298415E+00    2.8378918404955988E+00    1.3585304875200444E+01
N    4.8208868789321597E+00    2.8174924629842737E+00    1.5547642308642708E+01
Ga    4.9930399372725329E+00    4.5960485945056027E+00    1.6449330112033806E+01
N    6.4345117453743246E+00    3.7625384048326711E+00    1.7590032416316781E+01
N    3.2266932114502964E+00    7.6121334336631161E+00    2.4692800678098830E+00
Ga    3.2327445776075758E+00    5.6103113976563064E+00    2.5544155440480720E+00
N    3.2278978272084857E+00    5.6145935632549060E+00    4.9973492006060738E+00
Ga    3.2276079567252816E+00    7.4255596636484933E+00    5.7582876984475089E+00
N    3.2265150966159397E+00    7.4645261419816604E+00    7.7637270435323380E+00
Ga    3.2258885857283093E+00    5.6159221592255442E+00    8.4051096886754841E+00
N    3.2258011507291777E+00    5.6158878231063918E+00    1.0382507866230652E+01
Ga    3.2255160935918492E+00    7.4546493628231234E+00    1.1032791948825745E+01
N    3.2259048869504920E+00    7.4358544679142806E+00    1.3028377596237826E+01
Ga    3.2238290825397145E+00    5.6142694830418751E+00    1.3834420679406016E+01
N    3.2249856377770580E+00    5.6140143596982659E+00    1.6033831020992903E+01
Ga    3.2266779467322011E+00    7.6493807128874023E+00    1.6444434743410877E+01
Ga    3.2260364882225061E+00    9.3638974025961215E+00    1.4525727335461516E+00
N    1.7244517075789061E+00    1.0200988433821164E+01    2.5004077743866677E+00
Ga    1.5275154133436986E+00    8.3379268223916707E+00    3.2527897253534102E+00
N    1.6192563128365212E+00    8.3987246222643694E+00    5.2135556373071958E+00
Ga    1.5941065619902601E+00    1.0268461666950438E+01    5.7644839164137016E+00
N    1.6078052140243162E+00    1.0263076666749479E+01    7.7610131317783377E+00
Ga    1.6290173963222649E+00    8.4056665068615803E+00    8.4016179301512910E+00
N    1.6279718431703349E+00    8.4071284987154176E+00    1.0395790924569479E+01
Ga    1.6035817005701081E+00    1.0265967200244182E+01    1.1030855052637852E+01
N    1.5867593377411120E+00    1.0276276389991283E+01    1.3025096222468823E+01
Ga    1.6293888419043208E+00    8.4080412148642072E+00    1.3584244170356545E+01
N    1.6002148136772387E+00    8.3960681012153255E+00    1.5547603133224191E+01
Ga    1.7828700427209760E+00    1.0165146675775862E+01    1.6445304887936594E+01
N    3.2250854727564247E+00    9.3195011520209405E+00    1.7582921734313011E+01
N    9.6606079794845900E+00    1.9017560628406154E+00    2.5775647627843186E+00
Ga    9.6606351120692349E+00    1.6321303659399219E-01    3.2655297583155973E+00
N    9.6595432502557195E+00    4.7840786283172371E-02    5.2238327290559035E+00
Ga    9.6595563024856581E+00    1.9026756220028762E+00    5.8489263164874545E+00
N    9.6587518802165135E+00    1.9024715922393671E+00    7.8185005140884849E+00
Ga    9.6584232262328218E+00    3.2978611021505462E-02    8.4013439786679545E+00
N    9.6583428858903915E+00    3.2915598204915401E-02    1.0394311659959664E+01
Ga    9.6581802804510435E+00    1.9028592598627190E+00    1.0988607698154073E+01
N    9.6585399298917167E+00    1.9027367047109007E+00    1.2961587898094145E+01
Ga    9.6585802368712841E+00    3.3039804074154314E-02    1.3582688774252450E+01
N    9.6588512506954984E+00    6.2998942405699657E-02    1.5544487176861882E+01
Ga    9.6603217551715268E+00    1.9038685669338522E+00    1.5820623972583148E+01
N    7.9485117422423794E+00    4.6238298429882949E+00    2.4932660455643259E+00
Ga    8.1543362177727712E+00    2.7719712013194662E+00    3.2623133154536990E+00
N    8.0535284511701253E+00    2.8293956378195655E+00    5.2215011258152675E+00
Ga    8.0745864576089161E+00    4.7029413155765853E+00    5.7657432512614299E+00
N    8.0606195192872576E+00    4.6935595625238298E+00    7.7616867212241392E+00
Ga    8.0399086665694028E+00    2.8368063963039596E+00    8.4022995967311900E+00
N    8.0388590570108160E+00    2.8376090663744553E+00    1.0394762726367809E+01
Ga    8.0649585111411017E+00    4.6966802511064323E+00    1.1032179710343033E+01
N    8.0822014896383276E+00    4.7062205852403451E+00    1.3026161008526786E+01
Ga    8.0392011275794335E+00    2.8377232102679719E+00    1.3583504862004055E+01
N    8.0657993621896953E+00    2.8219909442971498E+00    1.5544428452441847E+01
Ga    7.8850522036626938E+00    4.5896552873557477E+00    1.6451051864601332E+01
N    6.4358692743827923E+00    7.4665914909817683E+00    2.5602949113234201E+00
Ga    6.4414293480763645E+00    5.7263867107898969E+00    3.2571320573492883E+00
N    6.4431762355222224E+00    5.6163013305489011E+00    5.2157194366009216E+00
Ga    6.4400962750944046E+00    7.4711413021762798E+00    5.8417049655514415E+00
N    6.4424947751084112E+00    7.4726079976441575E+00    7.8142309192915151E+00
Ga    6.4411978725851595E+00    5.6036573292212770E+00    8.4027020937677808E+00
N    6.4424013146807262E+00    5.6039615024973095E+00    1.0396593495846753E+01
Ga    6.4414038771748192E+00    7.4726491096437320E+00    1.0990180368790639E+01
N    6.4437638205626930E+00    7.4737526367223079E+00    1.2964278913096036E+01
Ga    6.4424546425593503E+00    5.6022014588543358E+00    1.3585108373680276E+01
N    6.4475068033575154E+00    5.6350700934830069E+00    1.5547458138157102E+01
Ga    6.4408146857646562E+00    7.4717948885322301E+00    1.5828675513658608E+01
N    4.7303793743457740E+00    1.0200658608110531E+01    2.4981517664635717E+00
Ga    4.9275107064402297E+00    8.3401612884155156E+00    3.2518451122120831E+00
N    4.8354803049892885E+00    8.3991622020113876E+00    5.2127870792087618E+00
Ga    4.8605947721790885E+00    1.0268852106155796E+01    5.7646928643769018E+00
N    4.8446700633491879E+00    1.0263034455764759E+01    7.7612677550483165E+00
Ga    4.8231960902571078E+00    8.4059960645452350E+00    8.4025032762355476E+00
N    4.8234273298549581E+00    8.4076722348437549E+00    1.0396710853878458E+01
Ga    4.8489625070481646E+00    1.0266896583442005E+01    1.1031566328234613E+01
N    4.8661373171294473E+00    1.0276912441515721E+01    1.3025847473357201E+01
Ga    4.8225312766725956E+00    8.4085285035695190E+00    1.3583609246826793E+01
N    4.8529055465029431E+00    8.3961387173876734E+00    1.5546777115867837E+01
Ga    4.6706099625821862E+00    1.0165183623927657E+01    1.6446019449561316E+01
O    3.2117113199716649E+00    5.5760861999561451E+00    2.0115628952498130E-01
H    2.3052375749120788E+00    5.8496080634250154E+00   -2.8332848978270739E-02
C    4.1651201765242547E+00    6.4112409883858374E+00   -5.0131939221868915E-01
H    3.7833812929999855E+00    7.4363225730144631E+00   -6.3027243686941103E-01
H    5.0726800048948393E+00    6.4622868550966412E+00    1.1730639483134392E-01
H    4.3927872590070978E+00    5.9779214334312547E+00   -1.4844739620088958E+00
     &END COORD
     &KIND C
       BASIS_SET DZVP-MOLOPT-SR-GTH-q4
       POTENTIAL GTH-PBE-q4
       &POTENTIAL
 2 2
  0.3384712400000000E+00 2 -0.8803673979999999E+01  0.1339210850000000E+01
 2
  0.3025757500000000E+00 1  0.9622486650000001E+01
  0.2915069400000000E+00 0
         # Potential name:  GTH-PBE-Q4  for symbol:  C
         # Potential read from the potential filename: GTH_POTENTIALS
       &END POTENTIAL
     &END KIND
     &KIND O
       BASIS_SET DZVP-MOLOPT-SR-GTH-q6
       POTENTIAL GTH-PBE-q6
       &POTENTIAL
 2 4
  0.2445543000000000E+00 2 -0.1666721480000000E+02  0.2487311320000000E+01
 2
  0.2209559200000000E+00 1  0.1833745811000000E+02
  0.2113324700000000E+00 0
         # Potential name:  GTH-PBE-Q6  for symbol:  O
         # Potential read from the potential filename: GTH_POTENTIALS
       &END POTENTIAL
     &END KIND
     &KIND H
       BASIS_SET DZVP-MOLOPT-SR-GTH-q1
       POTENTIAL GTH-PBE-q1
       &POTENTIAL
 1
  0.2000000000000000E+00 2 -0.4178900440000000E+01  0.7244633100000000E+00
 0
         # Potential name:  GTH-PBE-Q1  for symbol:  H
         # Potential read from the potential filename: GTH_POTENTIALS
       &END POTENTIAL
     &END KIND
     &KIND N
       BASIS_SET DZVP-MOLOPT-SR-GTH
       POTENTIAL GTH-PBE-q5
       &POTENTIAL
 2 3
  0.2837905100000000E+00 2 -0.1241522559000000E+02  0.1868095920000000E+01
 2
  0.2554050000000000E+00 1  0.1363026257000000E+02
  0.2454945300000000E+00 0
         # Potential name:  GTH-PBE-Q5  for symbol:  N
         # Potential read from the potential filename: GTH_POTENTIALS
       &END POTENTIAL
     &END KIND
     &KIND Ga
       BASIS_SET DZVP-MOLOPT-SR-GTH
       POTENTIAL GTH-PBE-q13
       &POTENTIAL
 2 1 10
  0.4900000000000000E+00 0
 3
  0.4167772300000000E+00 3  0.1047568975000000E+02 -0.4921768140000000E+01  0.8707055900000000E+00
  0.7770178090000000E+01 -0.2248152160000000E+01
  0.1784415450000000E+01
  0.5696265200000000E+00 2  0.1777985340000000E+01  0.1958597600000000E+00
 -0.2317443900000000E+00
  0.2381265000000000E+00 1 -0.1624868022000000E+02
         # Potential name:  GTH-PBE-Q13  for symbol:  GA
         # Potential read from the potential filename: GTH_POTENTIALS
       &END POTENTIAL
     &END KIND
     &TOPOLOGY
       NUMBER_OF_ATOMS  206
       MULTIPLE_UNIT_CELL  1 1 1
     &END TOPOLOGY
   &END SUBSYS
 &END FORCE_EVAL
