 # Version information for this restart file 
 # current date 2019-06-24 14:38:45.709
 # current working dir /scratch/rzk/rzk/GaN-carbene/443-adatoms-both-2x2/02-Methanol/02-O-GaSur
 # Program compiled at                              Sun Apr  7 00:48:11 EDT 2019
 # Program compiled on                          beluga2.int.ets1.calculquebec.ca
 # Program compiled for                        Beluga-Linux-x86-64-intel-openmpi
 # Source code revision number                                         svn:18619
 &GLOBAL
   PRINT_LEVEL  MEDIUM
   PROJECT_NAME TEST
   RUN_TYPE  GEO_OPT
 &END GLOBAL
 &MOTION
   &GEO_OPT
     MAX_ITER  500
     STEP_START_VAL  53
   &END GEO_OPT
 &END MOTION
 &FORCE_EVAL
   METHOD  QS
   STRESS_TENSOR  ANALYTICAL
   &DFT
     BASIS_SET_FILE_NAME BASIS_MOLOPT
     POTENTIAL_FILE_NAME GTH_POTENTIALS
     UKS  T
     SURFACE_DIPOLE_CORRECTION  T
     SURF_DIP_DIR  Z
     &SCF
       MAX_SCF  80
       EPS_SCF     5.0000000000000004E-06
       &OT  T
         PRECONDITIONER  FULL_ALL
       &END OT
       &OUTER_SCF  T
         OPTIMIZER  NONE
         EPS_SCF     5.0000000000000004E-06
         MAX_SCF  4
       &END OUTER_SCF
       &PRINT
         &RESTART  OFF
           BACKUP_COPIES  1
           &EACH
             JUST_ENERGY  0
             QS_SCF  0
             MD  20
           &END EACH
         &END RESTART
       &END PRINT
     &END SCF
     &QS
       EPS_DEFAULT     1.0000000000000000E-14
       METHOD  GPW
     &END QS
     &MGRID
       NGRIDS  5
       CUTOFF     1.2000000000000000E+03
     &END MGRID
     &XC
       DENSITY_CUTOFF     1.0000000000000000E-10
       GRADIENT_CUTOFF     1.0000000000000000E-10
       TAU_CUTOFF     1.0000000000000000E-10
       &XC_FUNCTIONAL  NO_SHORTCUT
         &PBE  T
         &END PBE
       &END XC_FUNCTIONAL
       &VDW_POTENTIAL
         POTENTIAL_TYPE  PAIR_POTENTIAL
         &PAIR_POTENTIAL
           R_CUTOFF     1.0000000000000004E+01
           TYPE  DFTD3
           PARAMETER_FILE_NAME dftd3.dat
           REFERENCE_FUNCTIONAL PBE
           EPS_CN     9.9999999999999995E-07
           CALCULATE_C9_TERM  T
           REFERENCE_C9_TERM  T
           LONG_RANGE_CORRECTION  F
           VERBOSE_OUTPUT  F
         &END PAIR_POTENTIAL
       &END VDW_POTENTIAL
     &END XC
   &END DFT
   &SUBSYS
     &CELL
       A     1.2864472766435110E+01    0.0000000000000000E+00    0.0000000000000000E+00
       B    -6.4322363581020028E+00    1.1140960178524473E+01    0.0000000000000000E+00
       C     0.0000000000000000E+00    0.0000000000000000E+00    3.2000000000000000E+01
       MULTIPLE_UNIT_CELL  1 1 1
       &CELL_REF
         A     1.2982353780853531E+01    0.0000000000000000E+00    0.0000000000000000E+00
         B    -6.4911768904267628E+00    1.1243048175136114E+01    0.0000000000000000E+00
         C     0.0000000000000000E+00    0.0000000000000000E+00    3.2000000000000000E+01
         MULTIPLE_UNIT_CELL  1 1 1
       &END CELL_REF
     &END CELL
     &COORD
N    1.0358542243038326E-02    2.0226940869974506E+00    2.4899779710207559E+00
Ga    1.0836567131073184E-02    4.8453535388399159E-02    2.8244228887420162E+00
N    1.3267225231394350E-02    4.5699968052722077E-02    4.9804290649839844E+00
Ga    1.6881420103290527E-02    1.8765067844172005E+00    5.7590157892313618E+00
N    1.3685589622626599E-02    1.8921353118598054E+00    7.7564351076151201E+00
Ga    1.2746192025322629E-02    4.6941992544773881E-02    8.4036554970011501E+00
N    1.2621902945683000E-02    4.7664754030684667E-02    1.0378989019765017E+01
Ga    1.1907387656366158E-02    1.8884063429434614E+00    1.1027826498640076E+01
N    1.1158483316206868E-02    1.8701923292802449E+00    1.3021420353129887E+01
Ga    5.7064637700189099E-03    5.3988667630735836E-02    1.3822084216746422E+01
N    4.5417797542627930E-03    5.3837023529689783E-02    1.6030519963072461E+01
Ga    1.0387317301260831E-02    2.1089174823891548E+00    1.6459288016177588E+01
Ga   -1.6337849828568302E-02    3.7369830048501402E+00    1.4292891502926182E+00
N   -1.4915344592875648E+00    4.6235421776820873E+00    2.4891228028307357E+00
Ga   -1.6939282671313032E+00    2.7729576614302709E+00    3.2570037124038405E+00
N   -1.5971035977056258E+00    2.8295217019059673E+00    5.2174246283398453E+00
Ga   -1.6155802475377818E+00    4.7037578619696907E+00    5.7588754610489197E+00
N   -1.6048087715355743E+00    4.6954785675934438E+00    7.7561746636897180E+00
Ga   -1.5842030118759871E+00    2.8385842328712236E+00    8.3963171446676998E+00
N   -1.5850144741607883E+00    2.8393691248088264E+00    1.0389800631077829E+01
Ga   -1.6098982235099970E+00    4.6979859320569251E+00    1.1028095302106266E+01
N   -1.6271917112354934E+00    4.7080300675428024E+00    1.3021616404073963E+01
Ga   -1.5853858778188024E+00    2.8403709605645688E+00    1.3582231435573275E+01
N   -1.6127762658556064E+00    2.8249730252228380E+00    1.5542210225702869E+01
Ga   -1.4219710055334018E+00    4.5892529368588644E+00    1.6459062749299147E+01
N    1.4022103929239416E-02    3.7644997729995477E+00    1.7609580604641295E+01
N   -3.2035404494505477E+00    7.5946558367274637E+00    2.4843470666410741E+00
Ga   -3.2006330296600982E+00    5.6117365543650779E+00    2.8225263424015212E+00
N   -3.2028426749235015E+00    5.6157860160032120E+00    4.9792738113173121E+00
Ga   -3.2034169936471311E+00    7.4444692699444337E+00    5.7575631136484233E+00
N   -3.2039074621612356E+00    7.4638746115350134E+00    7.7553743811649216E+00
Ga   -3.2029501546733501E+00    5.6179347612545838E+00    8.4037817179558196E+00
N   -3.2034604232001804E+00    5.6187057537681673E+00    1.0378851551544374E+01
Ga   -3.2040079257164882E+00    7.4572622714918948E+00    1.1028849614369523E+01
N   -3.2043545543941905E+00    7.4382373467525316E+00    1.3027943926345808E+01
Ga   -3.2034925710591073E+00    5.6111879867220829E+00    1.3822833012995508E+01
N   -3.2048001677100100E+00    5.6111994506803669E+00    1.6029693614812906E+01
Ga   -3.2040386346646668E+00    7.6235683837346233E+00    1.6409864588819097E+01
Ga   -3.2027462146662673E+00    9.3319083095684157E+00    1.4620463885674659E+00
N   -4.7060023561635589E+00    1.0195704410798044E+01    2.4864464045156232E+00
Ga   -4.9172769865812196E+00    8.3392855210535863E+00    3.2447712689849189E+00
N   -4.8151656370477163E+00    8.3987884346766126E+00    5.2074045046492836E+00
Ga   -4.8365766512533446E+00    1.0271579216894279E+01    5.7588817989265833E+00
N   -4.8210426469727370E+00    1.0263648571017931E+01    7.7563060585736148E+00
Ga   -4.8020161247942745E+00    8.4079865013037320E+00    8.3982610656036698E+00
N   -4.8007480414142458E+00    8.4097869481269409E+00    1.0393593530190753E+01
Ga   -4.8271316740011274E+00    1.0269263585053745E+01    1.1028203655430904E+01
N   -4.8450522842610493E+00    1.0280277345389454E+01    1.3027430452177263E+01
Ga   -4.8013886904504526E+00    8.4110708622129433E+00    1.3576701402072699E+01
N   -4.8244721265665014E+00    8.3990852476473901E+00    1.5550744130938984E+01
Ga   -4.6844365669081522E+00    1.0189292533729208E+01    1.6410141633344313E+01
N   -3.2099022339960421E+00    9.3301059168713358E+00    1.7526197546419858E+01
N    3.2300645953889773E+00    1.9064403460217962E+00    2.5684508983807004E+00
Ga    3.2280842642875558E+00    1.6472076683307060E-01    3.2508162932902116E+00
N    3.2286863182228949E+00    4.7829905438233837E-02    5.2122942805434933E+00
Ga    3.2273839038862953E+00    1.9073915242640140E+00    5.8337340824500314E+00
N    3.2281005538505521E+00    1.9037097912044314E+00    7.8083651858579630E+00
Ga    3.2281925702189498E+00    3.6113742558900687E-02    8.3954141473871307E+00
N    3.2280035163862397E+00    3.4755176155660629E-02    1.0391328452510924E+01
Ga    3.2274814988659881E+00    1.9047864402851356E+00    1.0985279233019762E+01
N    3.2278117604751051E+00    1.9037113132925583E+00    1.2959455922743633E+01
Ga    3.2278867679746712E+00    3.6877128633235411E-02    1.3575920096092538E+01
N    3.2289543718609912E+00    6.3000565759433746E-02    1.5548599803217744E+01
Ga    3.2262588232098834E+00    1.9099051621224727E+00    1.5823097693469409E+01
N    1.5006872677313392E+00    4.6228614064065772E+00    2.4424089327642151E+00
Ga    1.7197243534962348E+00    2.7852138393997752E+00    3.2392672114048917E+00
N    1.6214631475964194E+00    2.8343557702424338E+00    5.2039882553744450E+00
Ga    1.6618454817993578E+00    4.7111105146838002E+00    5.7551997839346676E+00
N    1.6277250055305810E+00    4.6929830413202192E+00    7.7606225458004587E+00
Ga    1.6108820080642423E+00    2.8393570620858015E+00    8.3976376512922482E+00
N    1.6092421676222866E+00    2.8390298515740264E+00    1.0392062393902883E+01
Ga    1.6354504132633885E+00    4.6989662213787922E+00    1.1029361532521040E+01
N    1.6507382032325559E+00    4.7088512849984001E+00    1.3024010237168552E+01
Ga    1.6077385268114295E+00    2.8406943832034486E+00    1.3582551845317790E+01
N    1.6343613070201157E+00    2.8221642414942019E+00    1.5542472663922689E+01
Ga    1.4493759479519526E+00    4.5929115344703124E+00    1.6458475613214855E+01
N    2.0004324070528798E-02    7.4685263019147685E+00    2.5581678078948449E+00
Ga    2.1145515996540389E-02    5.7231488760814324E+00    3.2412336135937379E+00
N    1.5872983229154057E-02    5.6157300126152219E+00    5.2047492115923450E+00
Ga    1.6403000342789516E-02    7.4695996188317668E+00    5.8349525784861305E+00
N    1.2497933951887313E-02    7.4734476295760865E+00    7.8090282830227062E+00
Ga    1.3985927767687204E-02    5.6050930079480805E+00    8.3979740626902579E+00
N    1.1821587227682973E-02    5.6062136348973066E+00    1.0392361109457939E+01
Ga    1.1658672740256667E-02    7.4749833401767170E+00    1.0985935252401775E+01
N    1.0219859642821435E-02    7.4771733555516615E+00    1.2960395899321488E+01
Ga    1.1363767364912807E-02    5.6055680647101944E+00    1.3583165176433555E+01
N    8.3592018112449325E-03    5.6395263602337371E+00    1.5543083054488095E+01
Ga    1.3240708819169467E-02    7.4742684901560326E+00    1.5824432776348507E+01
N   -1.7011489089465317E+00    1.0196073442193748E+01    2.4879482092581315E+00
Ga   -1.4896987080699327E+00    8.3389328243231180E+00    3.2460068430364077E+00
N   -1.5917480914426718E+00    8.3987775191696148E+00    5.2084105728966490E+00
Ga   -1.5704703404073139E+00    1.0271541441473277E+01    5.7589394134710705E+00
N   -1.5864611676981264E+00    1.0263906207518993E+01    7.7561765088097978E+00
Ga   -1.6048311377503706E+00    8.4073620962334736E+00    8.3963626237211706E+00
N   -1.6076294442555756E+00    8.4097923829337784E+00    1.0392060095951477E+01
Ga   -1.5812886457233364E+00    1.0269095289155175E+01    1.1027169954063050E+01
N   -1.5643823916715904E+00    1.0279926905114314E+01    1.3026001078921457E+01
Ga   -1.6068438186113947E+00    8.4108724781022346E+00    1.3576209511474913E+01
N   -1.5842297434250578E+00    8.4002902421525718E+00    1.5548980467569908E+01
Ga   -1.7296431800527470E+00    1.0185826686010538E+01    1.6409946536766888E+01
N    6.4481791228982672E+00    2.0229876445133703E+00    2.4925696186926420E+00
Ga    6.4469761566088470E+00    4.6143812095185414E-02    2.8257837930411127E+00
N    6.4450734687610991E+00    4.5709448877590320E-02    4.9804119135019755E+00
Ga    6.4428053246290373E+00    1.8753876081704024E+00    5.7620864608573488E+00
N    6.4443924763838387E+00    1.8917042926570631E+00    7.7584130272279479E+00
Ga    6.4442555166721540E+00    4.6201747374781110E-02    8.4040390544571473E+00
N    6.4440533381123242E+00    4.7237267655569189E-02    1.0379076641344705E+01
Ga    6.4436094693727766E+00    1.8880714577775337E+00    1.1027058121142247E+01
N    6.4440657264894314E+00    1.8699197477336351E+00    1.3021138619480974E+01
Ga    6.4488787434076702E+00    5.2386243692993419E-02    1.3819176138873395E+01
N    6.4487882403837391E+00    5.3044960186369373E-02    1.6029445199819662E+01
Ga    6.4450524639612974E+00    2.1017940544637064E+00    1.6446842609257526E+01
Ga    6.4626789622271241E+00    3.7436163214946445E+00    1.4557990201976838E+00
N    4.9643137889308777E+00    4.6209655175812383E+00    2.4719282886563811E+00
Ga    4.7364374280634181E+00    2.7805989018884656E+00    3.2513654324108159E+00
N    4.8372172166005463E+00    2.8321553793395440E+00    5.2119160963939342E+00
Ga    4.7977707338814257E+00    4.7109205741613565E+00    5.7575560135775579E+00
N    4.8299714545684145E+00    4.6930952727260005E+00    7.7623558074388370E+00
Ga    4.8458290052207573E+00    2.8390527503820020E+00    8.3974592943010329E+00
N    4.8463706525849108E+00    2.8386582031893868E+00    1.0392154350081114E+01
Ga    4.8205221181676752E+00    4.6986436220423391E+00    1.1029217956957931E+01
N    4.8040419444208844E+00    4.7091185879463939E+00    1.3024928091469341E+01
Ga    4.8474089245166194E+00    2.8404800205336160E+00    1.3580598861964898E+01
N    4.8207851790510103E+00    2.8205711956783173E+00    1.5543127720641378E+01
Ga    4.9947483769614127E+00    4.5996079724295456E+00    1.6446431952475614E+01
N    6.4342377420608292E+00    3.7661231433152982E+00    1.7586654394299543E+01
N    3.2292306317399380E+00    7.6115634074267273E+00    2.4645703496166451E+00
Ga    3.2344086999742316E+00    5.6107924816689598E+00    2.5434089233422208E+00
N    3.2306693243145297E+00    5.6154368460487412E+00    4.9956624498279076E+00
Ga    3.2298114056101030E+00    7.4259867585488628E+00    5.7560261677608056E+00
N    3.2290518524138254E+00    7.4659740841855857E+00    7.7615099389256592E+00
Ga    3.2284370985076127E+00    5.6174492079161400E+00    8.4017124552917313E+00
N    3.2281884380919617E+00    5.6182067757457563E+00    1.0379548921619621E+01
Ga    3.2276994234553493E+00    7.4567502157441146E+00    1.1029973771169642E+01
N    3.2275971933255216E+00    7.4393006671439839E+00    1.3026223349377942E+01
Ga    3.2259163328943230E+00    5.6177270412957645E+00    1.3832278777528655E+01
N    3.2265017323648761E+00    5.6180928940490924E+00    1.6030056437794951E+01
Ga    3.2277352788776104E+00    7.6549771447265451E+00    1.6444127867969101E+01
Ga    3.2272583502333667E+00    9.3623226495777381E+00    1.4502177809661947E+00
N    1.7262864340221835E+00    1.0200287078598089E+01    2.4960157818464253E+00
Ga    1.5296639479156060E+00    8.3370285647878912E+00    3.2491502978449605E+00
N    1.6218211137242509E+00    8.3992340400181007E+00    5.2101814188970330E+00
Ga    1.5962456900476771E+00    1.0268634767032667E+01    5.7609422636686105E+00
N    1.6100333840738783E+00    1.0264086271602311E+01    7.7577148437994481E+00
Ga    1.6315086199126068E+00    8.4068511760277200E+00    8.3977851809763848E+00
N    1.6302728576305241E+00    8.4092610168501842E+00    1.0392732248066586E+01
Ga    1.6057993268758006E+00    1.0268049798060199E+01    1.1027463799501781E+01
N    1.5889885782120792E+00    1.0279312586773699E+01    1.3022145118843152E+01
Ga    1.6309046457132435E+00    8.4114738135385796E+00    1.3581521468665564E+01
N    1.6003910738697735E+00    8.3996649236522405E+00    1.5545322574072996E+01
Ga    1.7857401528207202E+00    1.0167592298398581E+01    1.6444508459763465E+01
N    3.2255368563528073E+00    9.3228055641636676E+00    1.7581954411843441E+01
N    9.6629341526245582E+00    1.9015321044430942E+00    2.5727697162582821E+00
Ga    9.6626733922979238E+00    1.6277896252994190E-01    3.2607996422812322E+00
N    9.6617326059134179E+00    4.7797267527961519E-02    5.2197850408095468E+00
Ga    9.6618964501373537E+00    1.9027555460301711E+00    5.8449291753748129E+00
N    9.6610965766004053E+00    1.9033130486035577E+00    7.8149069735114560E+00
Ga    9.6607926248943166E+00    3.3772296586202614E-02    8.3972060379792381E+00
N    9.6604697454491948E+00    3.4680427910848376E-02    1.0390602146979969E+01
Ga    9.6602893724515049E+00    1.9046018377999807E+00    1.0984064876596221E+01
N    9.6599054415517998E+00    1.9050744650617133E+00    1.2957245590549149E+01
Ga    9.6599451331556896E+00    3.6461586960018673E-02    1.3579901737741288E+01
N    9.6596856433076450E+00    6.6862400826380466E-02    1.5542051782748922E+01
Ga    9.6603717518656715E+00    1.9069698939857780E+00    1.5818570092578485E+01
N    7.9506495180795644E+00    4.6241873091698888E+00    2.4900013765694582E+00
Ga    8.1566356196463143E+00    2.7717024195149196E+00    3.2583591867727932E+00
N    8.0557525131707806E+00    2.8295930483441771E+00    5.2180609319092532E+00
Ga    8.0771857119599044E+00    4.7030822099002396E+00    5.7630383916411940E+00
N    8.0630936587933348E+00    4.6947966477709935E+00    7.7590191902473880E+00
Ga    8.0422408236827803E+00    2.8379253511566906E+00    8.3980628912072515E+00
N    8.0410900022085983E+00    2.8394839749081870E+00    1.0390916418577600E+01
Ga    8.0671045589334103E+00    4.6986033080825074E+00    1.1027707198067208E+01
N    8.0833624134988291E+00    4.7083846026591960E+00    1.3021736992370236E+01
Ga    8.0412044607802819E+00    2.8401581893095815E+00    1.3579104257132261E+01
N    8.0673444557915701E+00    2.8251114246291453E+00    1.5540053582133039E+01
Ga    7.8830118107029818E+00    4.5917965497066149E+00    1.6447511259418011E+01
N    6.4374053475519677E+00    7.4658607580154417E+00    2.5560307089031653E+00
Ga    6.4436763896278872E+00    5.7262429002096358E+00    3.2556125393833910E+00
N    6.4459864678081580E+00    5.6170416944459163E+00    5.2141464048540387E+00
Ga    6.4422703021085104E+00    7.4718092547291306E+00    5.8396369247428197E+00
N    6.4449858522027199E+00    7.4741238511941841E+00    7.8122434892467876E+00
Ga    6.4435927785167646E+00    5.6050171705304273E+00    8.3993440198756719E+00
N    6.4447061823286935E+00    5.6062641574924399E+00    1.0393636811438705E+01
Ga    6.4438469463444399E+00    7.4751828846548998E+00    1.0986559819252912E+01
N    6.4453420751290942E+00    7.4770738905660918E+00    1.2961245362042673E+01
Ga    6.4443192841361840E+00    5.6054509108092274E+00    1.3580818982599421E+01
N    6.4486528242655305E+00    5.6397986941241820E+00    1.5542818945711646E+01
Ga    6.4416304645766775E+00    7.4755415658691460E+00    1.5825310117512316E+01
N    4.7324515296787082E+00    1.0199561444597336E+01    2.4934146096999172E+00
Ga    4.9291929062257100E+00    8.3393478187856065E+00    3.2491019600442201E+00
N    4.8379006905504660E+00    8.3995936197086980E+00    5.2101087719129255E+00
Ga    4.8627693253127084E+00    1.0269278213656118E+01    5.7616134191763262E+00
N    4.8471624348131810E+00    1.0263999679953722E+01    7.7583143509411716E+00
Ga    4.8254459154943570E+00    8.4072932042023591E+00    8.3995460564304310E+00
N    4.8256147609606757E+00    8.4097185685038394E+00    1.0394037773105527E+01
Ga    4.8508508613690422E+00    1.0268888098062737E+01    1.1027968926308175E+01
N    4.8667247931414375E+00    1.0279680470288312E+01    1.3022646568591037E+01
Ga    4.8242405554899781E+00    8.4117221583915125E+00    1.3581155101923796E+01
N    4.8545087140866423E+00    8.4000728853027269E+00    1.5544504108143533E+01
Ga    4.6684740866094927E+00    1.0167294335114869E+01    1.6445472770173211E+01
O    3.2579647436562111E+00    5.5494689514130124E+00    2.0870109309714702E-01
H    2.3446876991540493E+00    5.7180962762290504E+00   -8.5220981096904430E-02
C    4.1723582658002707E+00    6.4207828952793449E+00   -4.9888065560596068E-01
H    3.7454364268053246E+00    7.4272339721031395E+00   -6.3445533647064856E-01
H    5.0743704658268323E+00    6.5126728658409823E+00    1.2316148427196241E-01
H    4.4231241619898736E+00    5.9911371540350835E+00   -1.4778199816575721E+00
     &END COORD
     &KIND C
       BASIS_SET DZVP-MOLOPT-SR-GTH-q4
       POTENTIAL GTH-PBE-q4
       &POTENTIAL
 2 2
  0.3384712400000000E+00 2 -0.8803673979999999E+01  0.1339210850000000E+01
 2
  0.3025757500000000E+00 1  0.9622486650000001E+01
  0.2915069400000000E+00 0
         # Potential name:  GTH-PBE-Q4  for symbol:  C
         # Potential read from the potential filename: GTH_POTENTIALS
       &END POTENTIAL
     &END KIND
     &KIND O
       BASIS_SET DZVP-MOLOPT-SR-GTH-q6
       POTENTIAL GTH-PBE-q6
       &POTENTIAL
 2 4
  0.2445543000000000E+00 2 -0.1666721480000000E+02  0.2487311320000000E+01
 2
  0.2209559200000000E+00 1  0.1833745811000000E+02
  0.2113324700000000E+00 0
         # Potential name:  GTH-PBE-Q6  for symbol:  O
         # Potential read from the potential filename: GTH_POTENTIALS
       &END POTENTIAL
     &END KIND
     &KIND H
       BASIS_SET DZVP-MOLOPT-SR-GTH-q1
       POTENTIAL GTH-PBE-q1
       &POTENTIAL
 1
  0.2000000000000000E+00 2 -0.4178900440000000E+01  0.7244633100000000E+00
 0
         # Potential name:  GTH-PBE-Q1  for symbol:  H
         # Potential read from the potential filename: GTH_POTENTIALS
       &END POTENTIAL
     &END KIND
     &KIND N
       BASIS_SET DZVP-MOLOPT-SR-GTH
       POTENTIAL GTH-PBE-q5
       &POTENTIAL
 2 3
  0.2837905100000000E+00 2 -0.1241522559000000E+02  0.1868095920000000E+01
 2
  0.2554050000000000E+00 1  0.1363026257000000E+02
  0.2454945300000000E+00 0
         # Potential name:  GTH-PBE-Q5  for symbol:  N
         # Potential read from the potential filename: GTH_POTENTIALS
       &END POTENTIAL
     &END KIND
     &KIND Ga
       BASIS_SET DZVP-MOLOPT-SR-GTH
       POTENTIAL GTH-PBE-q13
       &POTENTIAL
 2 1 10
  0.4900000000000000E+00 0
 3
  0.4167772300000000E+00 3  0.1047568975000000E+02 -0.4921768140000000E+01  0.8707055900000000E+00
  0.7770178090000000E+01 -0.2248152160000000E+01
  0.1784415450000000E+01
  0.5696265200000000E+00 2  0.1777985340000000E+01  0.1958597600000000E+00
 -0.2317443900000000E+00
  0.2381265000000000E+00 1 -0.1624868022000000E+02
         # Potential name:  GTH-PBE-Q13  for symbol:  GA
         # Potential read from the potential filename: GTH_POTENTIALS
       &END POTENTIAL
     &END KIND
     &TOPOLOGY
       NUMBER_OF_ATOMS  206
       MULTIPLE_UNIT_CELL  1 1 1
     &END TOPOLOGY
   &END SUBSYS
 &END FORCE_EVAL
