 # Version information for this restart file 
 # current date 2019-06-24 13:03:11.433
 # current working dir /scratch/rzk/rzk/GaN-carbene/443-adatoms-both-2x2/02-Methanol/02-O-GaSur
 # Program compiled at                              Sun Apr  7 00:48:11 EDT 2019
 # Program compiled on                          beluga2.int.ets1.calculquebec.ca
 # Program compiled for                        Beluga-Linux-x86-64-intel-openmpi
 # Source code revision number                                         svn:18619
 &GLOBAL
   PRINT_LEVEL  MEDIUM
   PROJECT_NAME TEST
   RUN_TYPE  GEO_OPT
 &END GLOBAL
 &MOTION
   &GEO_OPT
     MAX_ITER  500
     STEP_START_VAL  27
   &END GEO_OPT
 &END MOTION
 &FORCE_EVAL
   METHOD  QS
   STRESS_TENSOR  ANALYTICAL
   &DFT
     BASIS_SET_FILE_NAME BASIS_MOLOPT
     POTENTIAL_FILE_NAME GTH_POTENTIALS
     UKS  T
     SURFACE_DIPOLE_CORRECTION  T
     SURF_DIP_DIR  Z
     &SCF
       MAX_SCF  80
       EPS_SCF     5.0000000000000004E-06
       &OT  T
         PRECONDITIONER  FULL_ALL
       &END OT
       &OUTER_SCF  T
         OPTIMIZER  NONE
         EPS_SCF     5.0000000000000004E-06
         MAX_SCF  4
       &END OUTER_SCF
       &PRINT
         &RESTART  OFF
           BACKUP_COPIES  1
           &EACH
             JUST_ENERGY  0
             QS_SCF  0
             MD  20
           &END EACH
         &END RESTART
       &END PRINT
     &END SCF
     &QS
       EPS_DEFAULT     1.0000000000000000E-14
       METHOD  GPW
     &END QS
     &MGRID
       NGRIDS  5
       CUTOFF     1.2000000000000000E+03
     &END MGRID
     &XC
       DENSITY_CUTOFF     1.0000000000000000E-10
       GRADIENT_CUTOFF     1.0000000000000000E-10
       TAU_CUTOFF     1.0000000000000000E-10
       &XC_FUNCTIONAL  NO_SHORTCUT
         &PBE  T
         &END PBE
       &END XC_FUNCTIONAL
       &VDW_POTENTIAL
         POTENTIAL_TYPE  PAIR_POTENTIAL
         &PAIR_POTENTIAL
           R_CUTOFF     1.0000000000000004E+01
           TYPE  DFTD3
           PARAMETER_FILE_NAME dftd3.dat
           REFERENCE_FUNCTIONAL PBE
           EPS_CN     9.9999999999999995E-07
           CALCULATE_C9_TERM  T
           REFERENCE_C9_TERM  T
           LONG_RANGE_CORRECTION  F
           VERBOSE_OUTPUT  F
         &END PAIR_POTENTIAL
       &END VDW_POTENTIAL
     &END XC
   &END DFT
   &SUBSYS
     &CELL
       A     1.2864472766435110E+01    0.0000000000000000E+00    0.0000000000000000E+00
       B    -6.4322363581020028E+00    1.1140960178524473E+01    0.0000000000000000E+00
       C     0.0000000000000000E+00    0.0000000000000000E+00    3.2000000000000000E+01
       MULTIPLE_UNIT_CELL  1 1 1
       &CELL_REF
         A     1.2982353780853531E+01    0.0000000000000000E+00    0.0000000000000000E+00
         B    -6.4911768904267628E+00    1.1243048175136114E+01    0.0000000000000000E+00
         C     0.0000000000000000E+00    0.0000000000000000E+00    3.2000000000000000E+01
         MULTIPLE_UNIT_CELL  1 1 1
       &END CELL_REF
     &END CELL
     &COORD
N    1.3699346378743118E-02    2.0254840303239710E+00    2.4843578472485528E+00
Ga    1.6738105721390274E-02    4.9870701313592093E-02    2.8211597015761316E+00
N    1.6969174846019917E-02    5.0280728872729330E-02    4.9702464434045925E+00
Ga    1.8894014977786810E-02    1.8801749927055178E+00    5.7577122817041939E+00
N    1.4615490177453202E-02    1.8962337053829088E+00    7.7473764208834695E+00
Ga    1.4870846226888904E-02    5.1125188256376755E-02    8.4011519997998469E+00
N    1.2453168926965548E-02    5.1407041203688678E-02    1.0368900851085574E+01
Ga    1.2325281930853129E-02    1.8907819324462432E+00    1.1027412819874746E+01
N    1.0733731881978971E-02    1.8710200954268188E+00    1.3015079994885610E+01
Ga    8.3933778966148471E-03    5.2231190561803226E-02    1.3828005112480412E+01
N    1.0233616710900758E-02    5.1026086913194914E-02    1.6016598494137853E+01
Ga    9.9014337428902852E-03    2.1000816008483421E+00    1.6445775826239672E+01
Ga   -7.1665050805791147E-03    3.7430881753314189E+00    1.4487027272672237E+00
N   -1.4872691923430221E+00    4.6269937520377189E+00    2.4820234075124517E+00
Ga   -1.6935641988336070E+00    2.7755289564780861E+00    3.2562825887558251E+00
N   -1.5942030254636828E+00    2.8341534537271875E+00    5.2112293930766169E+00
Ga   -1.6139699605802718E+00    4.7081918713991930E+00    5.7574837481812633E+00
N   -1.6040430223516458E+00    4.6993062456542072E+00    7.7474440405187321E+00
Ga   -1.5832501114601127E+00    2.8426836357254848E+00    8.3962951061434676E+00
N   -1.5847686376758365E+00    2.8428202821570472E+00    1.0382587245245544E+01
Ga   -1.6104942824192652E+00    4.7018547341794745E+00    1.1027315682968720E+01
N   -1.6295827359436810E+00    4.7112565227172567E+00    1.3015348902043650E+01
Ga   -1.5847463597494205E+00    2.8432526767228006E+00    1.3578937614641815E+01
N   -1.6120674944308047E+00    2.8266862978711957E+00    1.5534935055601091E+01
Ga   -1.4297995685441249E+00    4.5940377495776907E+00    1.6447838043808350E+01
N    1.5600248908884843E-02    3.7663235786349700E+00    1.7596519416830542E+01
N   -3.1976117185104398E+00    7.6008886069807344E+00    2.4747327328308968E+00
Ga   -3.1964187121001433E+00    5.6188983366552900E+00    2.8163060836923250E+00
N   -3.1986743970752332E+00    5.6207717955388388E+00    4.9693774901607588E+00
Ga   -3.1995732740780940E+00    7.4494579007593691E+00    5.7542590334884647E+00
N   -3.2020464326856071E+00    7.4674445166513248E+00    7.7452025708773515E+00
Ga   -3.2017737937741484E+00    5.6224538585347172E+00    8.4024393518882086E+00
N   -3.2039670546592811E+00    5.6213434381810652E+00    1.0370152292962723E+01
Ga   -3.2046907986945370E+00    7.4604013393916571E+00    1.1027054164821759E+01
N   -3.2057069868482824E+00    7.4394467708025074E+00    1.3016001615641970E+01
Ga   -3.2055566722359505E+00    5.6181611303582351E+00    1.3829353133231731E+01
N   -3.2050951855773677E+00    5.6185087705004149E+00    1.6021032871337813E+01
Ga   -3.2048593242882273E+00    7.6592683446384022E+00    1.6427358182944946E+01
Ga   -3.1954329899532006E+00    9.3377613468761762E+00    1.4575065170867187E+00
N   -4.6989920357028971E+00    1.0200780448009365E+01    2.4770036577064052E+00
Ga   -4.9097718146502123E+00    8.3454728808164216E+00    3.2393334075409865E+00
N   -4.8099653298350704E+00    8.4044763556127329E+00    5.1982985414780014E+00
Ga   -4.8319078392529429E+00    1.0276373686062218E+01    5.7553015427868131E+00
N   -4.8193444116174389E+00    1.0268851339389798E+01    7.7457781312731937E+00
Ga   -4.7995253638669837E+00    8.4128730999042549E+00    8.3944053366544278E+00
N   -4.8007187602306960E+00    8.4132924485141860E+00    1.0381006678245543E+01
Ga   -4.8276578001969233E+00    1.0272369227175853E+01    1.1026702782125627E+01
N   -4.8465161914340493E+00    1.0282280342107807E+01    1.3015729213045191E+01
Ga   -4.8042928463258150E+00    8.4117283192040286E+00    1.3572624630309834E+01
N   -4.8337484854161756E+00    8.3928153158396182E+00    1.5531448126590526E+01
Ga   -4.6549163382199072E+00    1.0170912184529167E+01    1.6426804946616610E+01
N   -3.2050833713629827E+00    9.3334457850595705E+00    1.7540989150719472E+01
N    3.2361661194137228E+00    1.9087918901340841E+00    2.5579542878249559E+00
Ga    3.2342904584395673E+00    1.6866273772167376E-01    3.2459151242276492E+00
N    3.2328669238117045E+00    5.2221749229371374E-02    5.2034025551316434E+00
Ga    3.2307838030845586E+00    1.9090899389476605E+00    5.8330353147067697E+00
N    3.2291313069260510E+00    1.9074829027453351E+00    7.8000034724103244E+00
Ga    3.2299801761520635E+00    4.0106824857001851E-02    8.3941612527017888E+00
N    3.2278086768305223E+00    3.8419283152153441E-02    1.0381791005031987E+01
Ga    3.2269913385043627E+00    1.9092824048301993E+00    1.0980864885047820E+01
N    3.2259138659459126E+00    1.9084184134376831E+00    1.2946955491420422E+01
Ga    3.2260953615032015E+00    3.9617029417266796E-02    1.3574443728218927E+01
N    3.2269326474857980E+00    7.4196169265968226E-02    1.5532644848802416E+01
Ga    3.2262172715016626E+00    1.9115022583275256E+00    1.5816715139498335E+01
N    1.5055754607424898E+00    4.6238879903043966E+00    2.4484668029157421E+00
Ga    1.7270358927792691E+00    2.7810646135516870E+00    3.2380139579936631E+00
N    1.6250707751985611E+00    2.8361970661762799E+00    5.1968495832074879E+00
Ga    1.6609306434197719E+00    4.7126346984818408E+00    5.7452637611109258E+00
N    1.6308259928482758E+00    4.6974161204332505E+00    7.7425414790960296E+00
Ga    1.6120378495446668E+00    2.8434957548270883E+00    8.3933851723311381E+00
N    1.6079884033102223E+00    2.8429333907826608E+00    1.0380242963517723E+01
Ga    1.6351188952907165E+00    4.7017796189289953E+00    1.1026035084445141E+01
N    1.6500004007407778E+00    4.7106174816339639E+00    1.3014632376376829E+01
Ga    1.6072336688804747E+00    2.8423170696309144E+00    1.3579570827836205E+01
N    1.6321180742314481E+00    2.8252635743624639E+00    1.5536034114431230E+01
Ga    1.4549052163116709E+00    4.5971510373213400E+00    1.6446970535958929E+01
N    2.1389051584953741E-02    7.4742991216875803E+00    2.5507111414655501E+00
Ga    2.1638034251054952E-02    5.7322437241742010E+00    3.2382466226583322E+00
N    1.7631354334128643E-02    5.6205096159647940E+00    5.1968167245254175E+00
Ga    1.6954948028181826E-02    7.4747765480169752E+00    5.8323659534714842E+00
N    1.3063112327947841E-02    7.4768624587256394E+00    7.7988235297337631E+00
Ga    1.5543400875131496E-02    5.6082634001306459E+00    8.3926181190966158E+00
N    1.1859920546397128E-02    5.6073785915148333E+00    1.0379283979859622E+01
Ga    1.1784866698733638E-02    7.4769465500604007E+00    1.0978194957218642E+01
N    1.0174682325981984E-02    7.4763789738339526E+00    1.2944012339741624E+01
Ga    1.0443797837575654E-02    5.6075778093993662E+00    1.3578648062377212E+01
N    8.9115425699834681E-03    5.6360057255903930E+00    1.5535510067799514E+01
Ga    1.4172342161451188E-02    7.4735506073328022E+00    1.5813715470725814E+01
N   -1.6956278456813307E+00    1.0200766610719199E+01    2.4790511129504340E+00
Ga   -1.4859816158942483E+00    8.3446890506404525E+00    3.2422791099743926E+00
N   -1.5888191666955389E+00    8.4043173520896524E+00    5.2003967606220440E+00
Ga   -1.5669675257991851E+00    1.0276402275729845E+01    5.7556471988056108E+00
N   -1.5845215061859304E+00    1.0268717516886722E+01    7.7461903210034881E+00
Ga   -1.6037622427402811E+00    8.4118569825133367E+00    8.3937803008280429E+00
N   -1.6080215581714028E+00    8.4130658368139919E+00    1.0380911841656348E+01
Ga   -1.5816982750770328E+00    1.0272338128682938E+01    1.1026643348837149E+01
N   -1.5657066548996947E+00    1.0281741890128073E+01    1.3015459749822467E+01
Ga   -1.6074202636518533E+00    8.4113926247533453E+00    1.3573357806729664E+01
N   -1.5766304831494342E+00    8.3926979326775442E+00    1.5531664158867294E+01
Ga   -1.7547461063998027E+00    1.0170814019704938E+01    1.6425210334156098E+01
N    6.4539498934197557E+00    2.0276367818524235E+00    2.4824346965615884E+00
Ga    6.4522829453686583E+00    5.0967160970281991E-02    2.8201628784868880E+00
N    6.4491166551514851E+00    5.0993181279083283E-02    4.9692843461236587E+00
Ga    6.4476272621739090E+00    1.8797382002855181E+00    5.7596428305864489E+00
N    6.4461770376368861E+00    1.8960981172881053E+00    7.7489315653473199E+00
Ga    6.4447014578184758E+00    5.0887323375296625E-02    8.4016958184317208E+00
N    6.4430516766698087E+00    5.1218236426662504E-02    1.0369239538251628E+01
Ga    6.4417718985090628E+00    1.8909198110116474E+00    1.1025672676777324E+01
N    6.4415184974481425E+00    1.8710885244868418E+00    1.3012912358567455E+01
Ga    6.4439117597602218E+00    5.1690069921152611E-02    1.3825608979755355E+01
N    6.4434408271837951E+00    5.0803041488088597E-02    1.6012779668711243E+01
Ga    6.4436388426632041E+00    2.0994141440800727E+00    1.6437919214653888E+01
Ga    6.4556282547710406E+00    3.7573508009220986E+00    1.4680413463285200E+00
N    4.9758894929623700E+00    4.6238077266107771E+00    2.4977700711906521E+00
Ga    4.7423096761913444E+00    2.7761503732517969E+00    3.2515942334049739E+00
N    4.8398607068951272E+00    2.8336628548183249E+00    5.2068305077008388E+00
Ga    4.8044166891880131E+00    4.7133495084820058E+00    5.7452345744668794E+00
N    4.8282209090819137E+00    4.6982929811203311E+00    7.7428459249888455E+00
Ga    4.8467382597949440E+00    2.8436963782198537E+00    8.3914882367057313E+00
N    4.8463368366741078E+00    2.8427732199676092E+00    1.0379140159602503E+01
Ga    4.8191578055593505E+00    4.7018829182521875E+00    1.1023543374654682E+01
N    4.8015535943736305E+00    4.7111951265291570E+00    1.3012050139835331E+01
Ga    4.8447445564437475E+00    2.8427869591488375E+00    1.3575633921813125E+01
N    4.8205810410554264E+00    2.8258105469805943E+00    1.5532724666830546E+01
Ga    4.9972968187843820E+00    4.5985600043945549E+00    1.6440709780217389E+01
N    6.4378820374867214E+00    3.7675917994882866E+00    1.7588183390683177E+01
N    3.2346025905616984E+00    7.6125843693256465E+00    2.4700761574871359E+00
Ga    3.2431358136057735E+00    5.6118251828289631E+00    2.6350626546358340E+00
N    3.2326456742624097E+00    5.6188672632467700E+00    4.9532837525823341E+00
Ga    3.2323866333050040E+00    7.4332647553100637E+00    5.7450105001977336E+00
N    3.2297809281323655E+00    7.4662830904058675E+00    7.7415925117277746E+00
Ga    3.2289930076194415E+00    5.6202959427740247E+00    8.3947999267441844E+00
N    3.2268588426096576E+00    5.6203730095591489E+00    1.0365478800431561E+01
Ga    3.2267415213218769E+00    7.4593010032412161E+00    1.1020587402882187E+01
N    3.2260131366055917E+00    7.4397673432958138E+00    1.3008648498208908E+01
Ga    3.2254918862460134E+00    5.6203477025164288E+00    1.3827543909473061E+01
N    3.2262434286583237E+00    5.6196081448842268E+00    1.6016692539094475E+01
Ga    3.2271683032518292E+00    7.6673228479748525E+00    1.6434267144533273E+01
Ga    3.2328157230117185E+00    9.3552754142448045E+00    1.4672754029041921E+00
N    1.7327223922774257E+00    1.0203113012288560E+01    2.4882203384933992E+00
Ga    1.5280362622054946E+00    8.3409297692440330E+00    3.2477109547936380E+00
N    1.6230606513401815E+00    8.4041701236299851E+00    5.2028682144693832E+00
Ga    1.5990103279404495E+00    1.0274758479293132E+01    5.7579420222581854E+00
N    1.6109111073204296E+00    1.0269365363902658E+01    7.7471195416426877E+00
Ga    1.6324169361082297E+00    8.4105346379480377E+00    8.3891101596477053E+00
N    1.6303338495635382E+00    8.4126693848262359E+00    1.0376574352173487E+01
Ga    1.6038341386351516E+00    1.0271066451987716E+01    1.1022154251003835E+01
N    1.5855378032362470E+00    1.0281537009502639E+01    1.3009204349163328E+01
Ga    1.6290359548287812E+00    8.4119577936810987E+00    1.3569082838154335E+01
N    1.6027523838366826E+00    8.3975811141062362E+00    1.5525748386312429E+01
Ga    1.7875030375622554E+00    1.0166345379231911E+01    1.6432427594382379E+01
N    3.2277022074327828E+00    9.3288132674923627E+00    1.7577147549980037E+01
N    9.6670071664652326E+00    1.9060376990821031E+00    2.5631358194771718E+00
Ga    9.6667039324077955E+00    1.7002047167447218E-01    3.2581306803017611E+00
N    9.6648244717373206E+00    5.3353712210094897E-02    5.2120599615802723E+00
Ga    9.6638250164191160E+00    1.9084041210393559E+00    5.8431725916796120E+00
N    9.6619696812113638E+00    1.9085275536386117E+00    7.8074485503387203E+00
Ga    9.6614256251722228E+00    3.9338489597566695E-02    8.3945771113337120E+00
N    9.6597726883069281E+00    3.8882820128419059E-02    1.0381206423889093E+01
Ga    9.6597623188966910E+00    1.9090045228813348E+00    1.0982072545950011E+01
N    9.6589863369479083E+00    1.9091392979523987E+00    1.2949226900888341E+01
Ga    9.6584628858840134E+00    3.6961692517604346E-02    1.3568662248602234E+01
N    9.6592318061506930E+00    6.8620851277084408E-02    1.5523977693932030E+01
Ga    9.6588723755495955E+00    1.9079737839089075E+00    1.5804830115218765E+01
N    7.9574696596853238E+00    4.6302338655971189E+00    2.4805528236302021E+00
Ga    8.1619638402108396E+00    2.7770605145250267E+00    3.2523979621481138E+00
N    8.0588240069822206E+00    2.8352971793437036E+00    5.2087345546262318E+00
Ga    8.0825445102474323E+00    4.7076393852554945E+00    5.7609166594700563E+00
N    8.0652029142069850E+00    4.6987136953018567E+00    7.7497726185310736E+00
Ga    8.0431431297409901E+00    2.8422464076746881E+00    8.3974977771826573E+00
N    8.0400207049420214E+00    2.8430305348827938E+00    1.0383483110481908E+01
Ga    8.0656547013326314E+00    4.7027944369172223E+00    1.1025342818622999E+01
N    8.0826340973147204E+00    4.7119170795699388E+00    1.3013009934297044E+01
Ga    8.0377416926243921E+00    2.8433794527260194E+00    1.3574354347958234E+01
N    8.0655285751386643E+00    2.8273003067787581E+00    1.5530509468355802E+01
Ga    7.8849767356750604E+00    4.5953970275210327E+00    1.6440826423864298E+01
N    6.4456975161777654E+00    7.4723624454476658E+00    2.5477193864556114E+00
Ga    6.4583436943810799E+00    5.7364672178048428E+00    3.2570473202795434E+00
N    6.4520559197707232E+00    5.6243034169812756E+00    5.2098579322486787E+00
Ga    6.4491219503132955E+00    7.4787624189790387E+00    5.8373822299314773E+00
N    6.4472199342229182E+00    7.4790500991127864E+00    7.8020212641996993E+00
Ga    6.4437097244071442E+00    5.6085925343092908E+00    8.3906237363319871E+00
N    6.4431884303834730E+00    5.6076564379494611E+00    1.0377804665409284E+01
Ga    6.4424222151652843E+00    7.4775209946661345E+00    1.0975562177225974E+01
N    6.4427443645913653E+00    7.4772155336449657E+00    1.2941631716535458E+01
Ga    6.4417094775372146E+00    5.6084612146779493E+00    1.3573490819236332E+01
N    6.4445382027518026E+00    5.6365808982361996E+00    1.5530743634461045E+01
Ga    6.4393727659371951E+00    7.4743790135697283E+00    1.5812457279149060E+01
N    4.7363563366649819E+00    1.0202964717369056E+01    2.4872847397217344E+00
Ga    4.9412409510958302E+00    8.3439699952341559E+00    3.2491045307009978E+00
N    4.8430201610894681E+00    8.4043575851905832E+00    5.2033337963919877E+00
Ga    4.8658634166673123E+00    1.0275485890453265E+01    5.7587529090598437E+00
N    4.8484957408425924E+00    1.0269662840675268E+01    7.7474201508185514E+00
Ga    4.8257225471826644E+00    8.4111417167950613E+00    8.3894569712198184E+00
N    4.8235120332249943E+00    8.4131559242619556E+00    1.0376501720227832E+01
Ga    4.8509230376173997E+00    1.0271634058241315E+01    1.1022152218507038E+01
N    4.8673223515457105E+00    1.0282090327469014E+01    1.3009251278657965E+01
Ga    4.8237409770665209E+00    8.4119764843982736E+00    1.3567731859475369E+01
N    4.8509699310836201E+00    8.3982452564303447E+00    1.5524100398743778E+01
Ga    4.6670711928322746E+00    1.0166783145323077E+01    1.6433275851559838E+01
O    3.3669361591316584E+00    5.4420706016196325E+00    1.7288287520931148E-01
H    2.4632862379851534E+00    5.4602698986518767E+00   -1.8078853189466737E-01
C    4.1792315176683212E+00    6.4163911435873233E+00   -5.1786066266637776E-01
H    3.6386345039861725E+00    7.3662367859678328E+00   -6.4679566823407819E-01
H    5.0592902980759957E+00    6.6022233664647620E+00    1.1445107847166953E-01
H    4.4915267573332063E+00    6.0387392127956891E+00   -1.5014849283385376E+00
     &END COORD
     &KIND C
       BASIS_SET DZVP-MOLOPT-SR-GTH-q4
       POTENTIAL GTH-PBE-q4
       &POTENTIAL
 2 2
  0.3384712400000000E+00 2 -0.8803673979999999E+01  0.1339210850000000E+01
 2
  0.3025757500000000E+00 1  0.9622486650000001E+01
  0.2915069400000000E+00 0
         # Potential name:  GTH-PBE-Q4  for symbol:  C
         # Potential read from the potential filename: GTH_POTENTIALS
       &END POTENTIAL
     &END KIND
     &KIND O
       BASIS_SET DZVP-MOLOPT-SR-GTH-q6
       POTENTIAL GTH-PBE-q6
       &POTENTIAL
 2 4
  0.2445543000000000E+00 2 -0.1666721480000000E+02  0.2487311320000000E+01
 2
  0.2209559200000000E+00 1  0.1833745811000000E+02
  0.2113324700000000E+00 0
         # Potential name:  GTH-PBE-Q6  for symbol:  O
         # Potential read from the potential filename: GTH_POTENTIALS
       &END POTENTIAL
     &END KIND
     &KIND H
       BASIS_SET DZVP-MOLOPT-SR-GTH-q1
       POTENTIAL GTH-PBE-q1
       &POTENTIAL
 1
  0.2000000000000000E+00 2 -0.4178900440000000E+01  0.7244633100000000E+00
 0
         # Potential name:  GTH-PBE-Q1  for symbol:  H
         # Potential read from the potential filename: GTH_POTENTIALS
       &END POTENTIAL
     &END KIND
     &KIND N
       BASIS_SET DZVP-MOLOPT-SR-GTH
       POTENTIAL GTH-PBE-q5
       &POTENTIAL
 2 3
  0.2837905100000000E+00 2 -0.1241522559000000E+02  0.1868095920000000E+01
 2
  0.2554050000000000E+00 1  0.1363026257000000E+02
  0.2454945300000000E+00 0
         # Potential name:  GTH-PBE-Q5  for symbol:  N
         # Potential read from the potential filename: GTH_POTENTIALS
       &END POTENTIAL
     &END KIND
     &KIND Ga
       BASIS_SET DZVP-MOLOPT-SR-GTH
       POTENTIAL GTH-PBE-q13
       &POTENTIAL
 2 1 10
  0.4900000000000000E+00 0
 3
  0.4167772300000000E+00 3  0.1047568975000000E+02 -0.4921768140000000E+01  0.8707055900000000E+00
  0.7770178090000000E+01 -0.2248152160000000E+01
  0.1784415450000000E+01
  0.5696265200000000E+00 2  0.1777985340000000E+01  0.1958597600000000E+00
 -0.2317443900000000E+00
  0.2381265000000000E+00 1 -0.1624868022000000E+02
         # Potential name:  GTH-PBE-Q13  for symbol:  GA
         # Potential read from the potential filename: GTH_POTENTIALS
       &END POTENTIAL
     &END KIND
     &TOPOLOGY
       NUMBER_OF_ATOMS  206
       MULTIPLE_UNIT_CELL  1 1 1
     &END TOPOLOGY
   &END SUBSYS
 &END FORCE_EVAL
