 # Version information for this restart file 
 # current date 2019-06-24 12:58:31.999
 # current working dir /scratch/rzk/rzk/GaN-carbene/443-adatoms-both-2x2/02-Methanol/02-O-GaSur
 # Program compiled at                              Sun Apr  7 00:48:11 EDT 2019
 # Program compiled on                          beluga2.int.ets1.calculquebec.ca
 # Program compiled for                        Beluga-Linux-x86-64-intel-openmpi
 # Source code revision number                                         svn:18619
 &GLOBAL
   PRINT_LEVEL  MEDIUM
   PROJECT_NAME TEST
   RUN_TYPE  GEO_OPT
 &END GLOBAL
 &MOTION
   &GEO_OPT
     MAX_ITER  500
     STEP_START_VAL  25
   &END GEO_OPT
 &END MOTION
 &FORCE_EVAL
   METHOD  QS
   STRESS_TENSOR  ANALYTICAL
   &DFT
     BASIS_SET_FILE_NAME BASIS_MOLOPT
     POTENTIAL_FILE_NAME GTH_POTENTIALS
     UKS  T
     SURFACE_DIPOLE_CORRECTION  T
     SURF_DIP_DIR  Z
     &SCF
       MAX_SCF  80
       EPS_SCF     5.0000000000000004E-06
       &OT  T
         PRECONDITIONER  FULL_ALL
       &END OT
       &OUTER_SCF  T
         OPTIMIZER  NONE
         EPS_SCF     5.0000000000000004E-06
         MAX_SCF  4
       &END OUTER_SCF
       &PRINT
         &RESTART  OFF
           BACKUP_COPIES  1
           &EACH
             JUST_ENERGY  0
             QS_SCF  0
             MD  20
           &END EACH
         &END RESTART
       &END PRINT
     &END SCF
     &QS
       EPS_DEFAULT     1.0000000000000000E-14
       METHOD  GPW
     &END QS
     &MGRID
       NGRIDS  5
       CUTOFF     1.2000000000000000E+03
     &END MGRID
     &XC
       DENSITY_CUTOFF     1.0000000000000000E-10
       GRADIENT_CUTOFF     1.0000000000000000E-10
       TAU_CUTOFF     1.0000000000000000E-10
       &XC_FUNCTIONAL  NO_SHORTCUT
         &PBE  T
         &END PBE
       &END XC_FUNCTIONAL
       &VDW_POTENTIAL
         POTENTIAL_TYPE  PAIR_POTENTIAL
         &PAIR_POTENTIAL
           R_CUTOFF     1.0000000000000004E+01
           TYPE  DFTD3
           PARAMETER_FILE_NAME dftd3.dat
           REFERENCE_FUNCTIONAL PBE
           EPS_CN     9.9999999999999995E-07
           CALCULATE_C9_TERM  T
           REFERENCE_C9_TERM  T
           LONG_RANGE_CORRECTION  F
           VERBOSE_OUTPUT  F
         &END PAIR_POTENTIAL
       &END VDW_POTENTIAL
     &END XC
   &END DFT
   &SUBSYS
     &CELL
       A     1.2864472766435110E+01    0.0000000000000000E+00    0.0000000000000000E+00
       B    -6.4322363581020028E+00    1.1140960178524473E+01    0.0000000000000000E+00
       C     0.0000000000000000E+00    0.0000000000000000E+00    3.2000000000000000E+01
       MULTIPLE_UNIT_CELL  1 1 1
       &CELL_REF
         A     1.2982353780853531E+01    0.0000000000000000E+00    0.0000000000000000E+00
         B    -6.4911768904267628E+00    1.1243048175136114E+01    0.0000000000000000E+00
         C     0.0000000000000000E+00    0.0000000000000000E+00    3.2000000000000000E+01
         MULTIPLE_UNIT_CELL  1 1 1
       &END CELL_REF
     &END CELL
     &COORD
N    1.4118522849101953E-02    2.0283060054317499E+00    2.4801235100541135E+00
Ga    1.6322037060693476E-02    5.2217262513531676E-02    2.8186940235867470E+00
N    1.4701962218044132E-02    5.1546758213203529E-02    4.9695825490610286E+00
Ga    1.6933176753291323E-02    1.8818206447309438E+00    5.7556331780722498E+00
N    1.2448654936842449E-02    1.8973452974797340E+00    7.7467306203219346E+00
Ga    1.2349921896638600E-02    5.1972572444528492E-02    8.4007505668133930E+00
N    1.1262359174504990E-02    5.1317997471061458E-02    1.0369056250506896E+01
Ga    1.1382661610289675E-02    1.8908378973805733E+00    1.1027237546884171E+01
N    1.2098176632567773E-02    1.8707322375888726E+00    1.3014895479582167E+01
Ga    9.3458236320988729E-03    5.2162899825889848E-02    1.3827853917718677E+01
N    1.2363267966454549E-02    4.9621240141170517E-02    1.6017595326106509E+01
Ga    1.2394241211855525E-02    2.1000976743958755E+00    1.6445913193591121E+01
Ga   -5.9771819992507930E-03    3.7462409049579981E+00    1.4414349342743145E+00
N   -1.4865854470573001E+00    4.6290604017814463E+00    2.4777783453803179E+00
Ga   -1.6934161833859340E+00    2.7778596907783468E+00    3.2511747709892957E+00
N   -1.5951608154487988E+00    2.8359747485180398E+00    5.2075739770020197E+00
Ga   -1.6149307092325649E+00    4.7093436164308073E+00    5.7554466189242648E+00
N   -1.6053934452492542E+00    4.6998312584973769E+00    7.7468435072784825E+00
Ga   -1.5850382584275073E+00    2.8434612112847479E+00    8.3955247459089719E+00
N   -1.5861060523329598E+00    2.8426622966139443E+00    1.0382896876336266E+01
Ga   -1.6114766583314473E+00    4.7017354753454352E+00    1.1027813414963697E+01
N   -1.6279653546077881E+00    4.7107927005883452E+00    1.3015570767541885E+01
Ga   -1.5834153887816247E+00    2.8426820620461357E+00    1.3579352083321156E+01
N   -1.6097053816612925E+00    2.8253313548388510E+00    1.5535272128276420E+01
Ga   -1.4268576093481553E+00    4.5934734838679239E+00    1.6447024353468091E+01
N    1.7897892679737269E-02    3.7652378867974710E+00    1.7595678713774735E+01
N   -3.1990606107935218E+00    7.6018459535597893E+00    2.4735209414131969E+00
Ga   -3.1976023435203347E+00    5.6204253804191788E+00    2.8153222601701429E+00
N   -3.2002455043094917E+00    5.6218274467463329E+00    4.9692155206438855E+00
Ga   -3.2018984315301688E+00    7.4504304778264761E+00    5.7541075763137206E+00
N   -3.2045646033338975E+00    7.4679318985093728E+00    7.7458275359473348E+00
Ga   -3.2032814294138547E+00    5.6226461089075856E+00    8.4022950289163862E+00
N   -3.2048518224024320E+00    5.6213655366975788E+00    1.0370651790876920E+01
Ga   -3.2053245401129704E+00    7.4601199920391723E+00    1.1027198040428537E+01
N   -3.2044015215840038E+00    7.4393787750961220E+00    1.3016349470946452E+01
Ga   -3.2041735913585918E+00    5.6172945751111119E+00    1.3829594313803000E+01
N   -3.2024292158522325E+00    5.6179951724214181E+00    1.6019653944850536E+01
Ga   -3.2027159453937313E+00    7.6569051308148399E+00    1.6425287795581877E+01
Ga   -3.1963576576405268E+00    9.3385519027101989E+00    1.4496884220086339E+00
N   -4.7007765182156636E+00    1.0202186687684295E+01    2.4751599430138058E+00
Ga   -4.9106767989572928E+00    8.3476169655776733E+00    3.2369903777321629E+00
N   -4.8120707009047763E+00    8.4055624863894121E+00    5.1972651905902723E+00
Ga   -4.8344398125741561E+00    1.0277053584885302E+01    5.7550076719567214E+00
N   -4.8220185968063172E+00    1.0268896555709167E+01    7.7462092866578782E+00
Ga   -4.8019333144290197E+00    8.4131312628723141E+00    8.3958449609751966E+00
N   -4.8019225114131272E+00    8.4131212830493478E+00    1.0382717090089461E+01
Ga   -4.8288498976187757E+00    1.0272538399879187E+01    1.1026521174260337E+01
N   -4.8454102507171344E+00    1.0282131740963592E+01    1.3015829601744372E+01
Ga   -4.8027800016515654E+00    8.4117431564995560E+00    1.3572134389475957E+01
N   -4.8317030748518990E+00    8.3926735313694927E+00    1.5531259464613200E+01
Ga   -4.6527777357636495E+00    1.0169289313848511E+01    1.6425684417992908E+01
N   -3.2029423120425800E+00    9.3307527534593611E+00    1.7540881479846387E+01
N    3.2363189169165945E+00    1.9095670088298953E+00    2.5580818276852058E+00
Ga    3.2326948760245036E+00    1.6833688626566154E-01    3.2440054228561408E+00
N    3.2305532260554655E+00    5.2518731023245460E-02    5.2025134935915718E+00
Ga    3.2287108586149698E+00    1.9095613622897931E+00    5.8317617969517244E+00
N    3.2269670405496611E+00    1.9078037463490030E+00    7.8001299452163391E+00
Ga    3.2272310137093925E+00    4.0148896836038624E-02    8.3934593330133662E+00
N    3.2263260709445762E+00    3.7955774796497838E-02    1.0381712873531981E+01
Ga    3.2259829538451377E+00    1.9087398940727045E+00    1.0980508754627666E+01
N    3.2270660705779215E+00    1.9076418388977894E+00    1.2947035317923104E+01
Ga    3.2275189242859779E+00    3.9254986986111726E-02    1.3574476561071721E+01
N    3.2295492923633708E+00    7.3017554618994687E-02    1.5533653225561011E+01
Ga    3.2295496413901601E+00    1.9100808981457804E+00    1.5817503013742114E+01
N    1.5090485833083265E+00    4.6272358207309958E+00    2.4432012066851931E+00
Ga    1.7267213436894417E+00    2.7833113621474146E+00    3.2350927453466234E+00
N    1.6235385084889229E+00    2.8376974363619780E+00    5.1951486793981125E+00
Ga    1.6587334599612635E+00    4.7137395718767952E+00    5.7442437018379353E+00
N    1.6290295385527995E+00    4.6983979156278606E+00    7.7424730645934599E+00
Ga    1.6100494958998757E+00    2.8442964763345384E+00    8.3929593772997126E+00
N    1.6070438332811667E+00    2.8428653170088722E+00    1.0380958571807176E+01
Ga    1.6338246986069467E+00    4.7012848431991285E+00    1.1027171263033848E+01
N    1.6508010963271063E+00    4.7099452642437099E+00    1.3015983188141455E+01
Ga    1.6087715922003543E+00    2.8413329756482724E+00    1.3580714373859660E+01
N    1.6352873028832289E+00    2.8241198369169371E+00    1.5537400724219482E+01
Ga    1.4565721680970523E+00    4.5961966067176308E+00    1.6447339437104212E+01
N    2.0235048569164419E-02    7.4768017893464176E+00    2.5483269670507562E+00
Ga    2.2024984851890521E-02    5.7339447326673021E+00    3.2339857017563296E+00
N    1.6610431050844726E-02    5.6217499792434547E+00    5.1939807498943864E+00
Ga    1.5467924916941990E-02    7.4759159082474351E+00    5.8298091378663601E+00
N    1.1172131807139510E-02    7.4775298854678498E+00    7.7980592549352181E+00
Ga    1.3792366814709042E-02    5.6091099316326787E+00    8.3926335489534090E+00
N    1.0859473410602503E-02    5.6074714648651449E+00    1.0380540828308618E+01
Ga    1.0948686184368317E-02    7.4766605751995527E+00    1.0979261997958449E+01
N    1.1376195393837774E-02    7.4760252182439766E+00    1.2945335589119235E+01
Ga    1.1545661180491322E-02    5.6074224847321066E+00    1.3580005423618921E+01
N    1.1897505286846997E-02    5.6367933674036861E+00    1.5537012145815558E+01
Ga    1.7392556347972533E-02    7.4746969849577622E+00    1.5814899787460018E+01
N   -1.6965480247644549E+00    1.0202136500171589E+01    2.4780117635288912E+00
Ga   -1.4882568117394572E+00    8.3464910260886072E+00    3.2401790626934308E+00
N   -1.5909765496694364E+00    8.4051555082161986E+00    5.1991238539423321E+00
Ga   -1.5690997057474201E+00    1.0277045637454762E+01    5.7553623025557883E+00
N   -1.5870835276365796E+00    1.0268724280727833E+01    7.7462802384935268E+00
Ga   -1.6060202027980952E+00    8.4117273619458590E+00    8.3933280032729165E+00
N   -1.6090450930888909E+00    8.4125360234380810E+00    1.0381401886903806E+01
Ga   -1.5830289545285940E+00    1.0271780214345528E+01    1.1025983778663043E+01
N   -1.5647741548054419E+00    1.0281214531505189E+01    1.3015480851838543E+01
Ga   -1.6058280979178809E+00    8.4111689117327604E+00    1.3573377123474289E+01
N   -1.5737199673849100E+00    8.3925692371840963E+00    1.5531848721608311E+01
Ga   -1.7523731706257111E+00    1.0169327370739145E+01    1.6425113246257251E+01
N    6.4525549748884972E+00    2.0296324152864615E+00    2.4821324819162829E+00
Ga    6.4502965322533479E+00    5.2788090367962323E-02    2.8191111782788814E+00
N    6.4476078375114296E+00    5.1701927490614127E-02    4.9696466065706622E+00
Ga    6.4471066971608453E+00    1.8804287347787898E+00    5.7601471928672323E+00
N    6.4450486003072029E+00    1.8966606104131578E+00    7.7497267702507671E+00
Ga    6.4427517658574507E+00    5.0828300500635699E-02    8.4010785618619206E+00
N    6.4415104442763038E+00    5.0464181031282321E-02    1.0368906244181373E+01
Ga    6.4412037370861182E+00    1.8901643116302915E+00    1.1025420316412545E+01
N    6.4429794762754860E+00    1.8701470409927634E+00    1.3012813311051447E+01
Ga    6.4454743543271320E+00    5.1399939051247331E-02    1.3826657336873247E+01
N    6.4464132512551773E+00    4.9085954338141842E-02    1.6015319167286602E+01
Ga    6.4469287587870800E+00    2.0998026874207416E+00    1.6439602868205444E+01
Ga    6.4516178521243708E+00    3.7607360127860829E+00    1.4653129542479837E+00
N    4.9750067409717040E+00    4.6244054957501231E+00    2.5029219195396495E+00
Ga    4.7422776531577400E+00    2.7763084398239402E+00    3.2532172807796766E+00
N    4.8388649470872416E+00    2.8344929857785943E+00    5.2088337298401726E+00
Ga    4.8043279753906987E+00    4.7140779801089607E+00    5.7468421804613561E+00
N    4.8266917294986245E+00    4.6990890004654799E+00    7.7446237147432262E+00
Ga    4.8448414533094306E+00    2.8440613531033909E+00    8.3916170184976568E+00
N    4.8453474221221375E+00    2.8422436108637039E+00    1.0380037468156516E+01
Ga    4.8186696281390260E+00    4.7009498270048393E+00    1.1025095851620858E+01
N    4.8029968841322859E+00    4.7101903867417958E+00    1.3013711980295820E+01
Ga    4.8463555445237256E+00    2.8412706086243551E+00    1.3576770461495446E+01
N    4.8235399046580145E+00    2.8243519270002451E+00    1.5533720856924143E+01
Ga    5.0019007020181698E+00    4.5973519770928943E+00    1.6441493593634412E+01
N    6.4417031831353428E+00    3.7664442033804204E+00    1.7588102567325464E+01
N    3.2337406382829599E+00    7.6144991592892550E+00    2.4668485376714102E+00
Ga    3.2456063662753389E+00    5.6144851817843513E+00    2.6436098588053594E+00
N    3.2319983415771336E+00    5.6210365188224607E+00    4.9527039857251012E+00
Ga    3.2310492901451875E+00    7.4363324256156771E+00    5.7459955110921737E+00
N    3.2280554414908669E+00    7.4672503649758131E+00    7.7430341710818880E+00
Ga    3.2272066608193097E+00    5.6210421797231911E+00    8.3965777809571076E+00
N    3.2260422679973924E+00    5.6201974983457523E+00    1.0367742371813808E+01
Ga    3.2256072315132260E+00    7.4593997851874754E+00    1.1022942964383047E+01
N    3.2269561683964039E+00    7.4396605985903630E+00    1.3011112544414956E+01
Ga    3.2270045093086845E+00    5.6196265681949304E+00    1.3828575599926481E+01
N    3.2290625638605488E+00    5.6192243858245439E+00    1.6018767810419188E+01
Ga    3.2301154269665853E+00    7.6631715354399441E+00    1.6434358509589735E+01
Ga    3.2323669873622309E+00    9.3555107870300080E+00    1.4614479322567797E+00
N    1.7318945210579524E+00    1.0204669006280778E+01    2.4846163571646120E+00
Ga    1.5271306529616937E+00    8.3435130710552503E+00    3.2448126508924151E+00
N    1.6222326558488385E+00    8.4056872303924060E+00    5.2015180290851051E+00
Ga    1.5977421433440375E+00    1.0276023457738614E+01    5.7573406491367454E+00
N    1.6094117310250069E+00    1.0269672699625984E+01    7.7470784851581742E+00
Ga    1.6303811348615724E+00    8.4108259744857090E+00    8.3901811276147029E+00
N    1.6290993858427261E+00    8.4124298879495072E+00    1.0378022781830136E+01
Ga    1.6027307612322874E+00    1.0271068309285946E+01    1.1022909681360511E+01
N    1.5868641645752397E+00    1.0281017485905760E+01    1.3010293738967494E+01
Ga    1.6299818018971279E+00    8.4120781086154555E+00    1.3571918313374448E+01
N    1.6060820536728111E+00    8.3976988003593984E+00    1.5528529509790630E+01
Ga    1.7886661467354394E+00    1.0165658355204515E+01    1.6433975357400215E+01
N    3.2307661022598309E+00    9.3260141664597374E+00    1.7579828726110350E+01
N    9.6657395973319442E+00    1.9080729515012753E+00    2.5610004245356195E+00
Ga    9.6655990711706181E+00    1.7123755508162686E-01    3.2542242847221887E+00
N    9.6632569745223371E+00    5.4394857488546770E-02    5.2095165922039941E+00
Ga    9.6630468826451690E+00    1.9099227786711839E+00    5.8400901665011418E+00
N    9.6607867025255771E+00    1.9091813308085157E+00    7.8054718331864992E+00
Ga    9.6596630493558742E+00    4.0002793481337881E-02    8.3939960293662601E+00
N    9.6585104058242557E+00    3.8864575277663287E-02    1.0381015799674516E+01
Ga    9.6593995326220270E+00    1.9080908710052820E+00    1.0982228842751967E+01
N    9.6607456949514372E+00    1.9079416795253916E+00    1.2949855007254941E+01
Ga    9.6595892409266249E+00    3.6173040714389162E-02    1.3571523276094055E+01
N    9.6616463758475906E+00    6.6201103141442688E-02    1.5527340143810873E+01
Ga    9.6614054775042533E+00    1.9056811303779770E+00    1.5805524398646629E+01
N    7.9555135452890102E+00    4.6318534886690710E+00    2.4798062821884734E+00
Ga    8.1602465326452336E+00    2.7790134078580939E+00    3.2501928857133642E+00
N    8.0574303123238220E+00    2.8365320181059017E+00    5.2077316358343184E+00
Ga    8.0812720001662264E+00    4.7081940524850205E+00    5.7614754667588359E+00
N    8.0632746035065637E+00    4.6988419917359812E+00    7.7510350847440064E+00
Ga    8.0422508644985626E+00    2.8424735687139453E+00    8.3974345740149712E+00
N    8.0398709166873576E+00    2.8421698888672005E+00    1.0383966321181619E+01
Ga    8.0656062338899748E+00    4.7019903927274793E+00    1.1026016928465683E+01
N    8.0838957332274024E+00    4.7107793004643455E+00    1.3013406848184758E+01
Ga    8.0396135909198598E+00    2.8419695239617027E+00    1.3575085755168931E+01
N    8.0685066408547321E+00    2.8254729271830343E+00    1.5530614186610787E+01
Ga    7.8867087387833239E+00    4.5941866616940876E+00    1.6440734854167246E+01
N    6.4444474578267279E+00    7.4733873638701001E+00    2.5466441761469523E+00
Ga    6.4576853756869470E+00    5.7380584220296216E+00    3.2576499219967334E+00
N    6.4508959171484062E+00    5.6255114897217311E+00    5.2111730584954836E+00
Ga    6.4472672681082175E+00    7.4802370767115294E+00    5.8375856204914358E+00
N    6.4449827977029210E+00    7.4796164988764540E+00    7.8035569125810866E+00
Ga    6.4421530503296154E+00    5.6093002153904923E+00    8.3930106720468576E+00
N    6.4425091399021497E+00    5.6074889435839834E+00    1.0380528735261288E+01
Ga    6.4415019806979616E+00    7.4772489522790018E+00    1.0977924944826301E+01
N    6.4437317581293261E+00    7.4767800069718646E+00    1.2943544872734023E+01
Ga    6.4435136600312646E+00    5.6073323198277851E+00    1.3574629191651345E+01
N    6.4470119337997147E+00    5.6367354571045079E+00    1.5531755643251515E+01
Ga    6.4414118481264424E+00    7.4746433333033888E+00    1.5811883458273428E+01
N    4.7353672169341579E+00    1.0204462126565957E+01    2.4830822948430336E+00
Ga    4.9400147863914992E+00    8.3459589215970649E+00    3.2468292851029492E+00
N    4.8410934230770692E+00    8.4060321783133212E+00    5.2026003636118467E+00
Ga    4.8636816960241962E+00    1.0276928575810697E+01    5.7582257536997199E+00
N    4.8460300029091901E+00    1.0269920752890487E+01    7.7478755911656787E+00
Ga    4.8239279276168876E+00    8.4116872451698175E+00    8.3922258599620232E+00
N    4.8225922005476702E+00    8.4129641857987281E+00    1.0379103886606089E+01
Ga    4.8497665033904145E+00    1.0271914889446698E+01    1.1023026869834345E+01
N    4.8679971430861100E+00    1.0281561650588349E+01    1.3010237334799729E+01
Ga    4.8246597823634758E+00    8.4120874452401395E+00    1.3570379828774207E+01
N    4.8527235959649717E+00    8.3978895544910426E+00    1.5526864080179857E+01
Ga    4.6711509375127784E+00    1.0165585185995937E+01    1.6433762085089196E+01
O    3.4182867565528228E+00    5.4345611486519436E+00    1.5085353164244583E-01
H    2.5078806357783812E+00    5.4158696833819837E+00   -1.9763892999708566E-01
C    4.1862409142058183E+00    6.4265702892455101E+00   -5.6028149384112280E-01
H    3.6132412807009135E+00    7.3565746792225966E+00   -7.1014327164337709E-01
H    5.0656217753690047E+00    6.6565327527918807E+00    6.3479068507578618E-02
H    4.5145157118034822E+00    6.0414701364363310E+00   -1.5374148687327387E+00
     &END COORD
     &KIND C
       BASIS_SET DZVP-MOLOPT-SR-GTH-q4
       POTENTIAL GTH-PBE-q4
       &POTENTIAL
 2 2
  0.3384712400000000E+00 2 -0.8803673979999999E+01  0.1339210850000000E+01
 2
  0.3025757500000000E+00 1  0.9622486650000001E+01
  0.2915069400000000E+00 0
         # Potential name:  GTH-PBE-Q4  for symbol:  C
         # Potential read from the potential filename: GTH_POTENTIALS
       &END POTENTIAL
     &END KIND
     &KIND O
       BASIS_SET DZVP-MOLOPT-SR-GTH-q6
       POTENTIAL GTH-PBE-q6
       &POTENTIAL
 2 4
  0.2445543000000000E+00 2 -0.1666721480000000E+02  0.2487311320000000E+01
 2
  0.2209559200000000E+00 1  0.1833745811000000E+02
  0.2113324700000000E+00 0
         # Potential name:  GTH-PBE-Q6  for symbol:  O
         # Potential read from the potential filename: GTH_POTENTIALS
       &END POTENTIAL
     &END KIND
     &KIND H
       BASIS_SET DZVP-MOLOPT-SR-GTH-q1
       POTENTIAL GTH-PBE-q1
       &POTENTIAL
 1
  0.2000000000000000E+00 2 -0.4178900440000000E+01  0.7244633100000000E+00
 0
         # Potential name:  GTH-PBE-Q1  for symbol:  H
         # Potential read from the potential filename: GTH_POTENTIALS
       &END POTENTIAL
     &END KIND
     &KIND N
       BASIS_SET DZVP-MOLOPT-SR-GTH
       POTENTIAL GTH-PBE-q5
       &POTENTIAL
 2 3
  0.2837905100000000E+00 2 -0.1241522559000000E+02  0.1868095920000000E+01
 2
  0.2554050000000000E+00 1  0.1363026257000000E+02
  0.2454945300000000E+00 0
         # Potential name:  GTH-PBE-Q5  for symbol:  N
         # Potential read from the potential filename: GTH_POTENTIALS
       &END POTENTIAL
     &END KIND
     &KIND Ga
       BASIS_SET DZVP-MOLOPT-SR-GTH
       POTENTIAL GTH-PBE-q13
       &POTENTIAL
 2 1 10
  0.4900000000000000E+00 0
 3
  0.4167772300000000E+00 3  0.1047568975000000E+02 -0.4921768140000000E+01  0.8707055900000000E+00
  0.7770178090000000E+01 -0.2248152160000000E+01
  0.1784415450000000E+01
  0.5696265200000000E+00 2  0.1777985340000000E+01  0.1958597600000000E+00
 -0.2317443900000000E+00
  0.2381265000000000E+00 1 -0.1624868022000000E+02
         # Potential name:  GTH-PBE-Q13  for symbol:  GA
         # Potential read from the potential filename: GTH_POTENTIALS
       &END POTENTIAL
     &END KIND
     &TOPOLOGY
       NUMBER_OF_ATOMS  206
       MULTIPLE_UNIT_CELL  1 1 1
     &END TOPOLOGY
   &END SUBSYS
 &END FORCE_EVAL
