 # Version information for this restart file 
 # current date 2019-06-24 14:41:04.364
 # current working dir /scratch/rzk/rzk/GaN-carbene/443-adatoms-both-2x2/02-Methanol/02-O-GaSur
 # Program compiled at                              Sun Apr  7 00:48:11 EDT 2019
 # Program compiled on                          beluga2.int.ets1.calculquebec.ca
 # Program compiled for                        Beluga-Linux-x86-64-intel-openmpi
 # Source code revision number                                         svn:18619
 &GLOBAL
   PRINT_LEVEL  MEDIUM
   PROJECT_NAME TEST
   RUN_TYPE  GEO_OPT
 &END GLOBAL
 &MOTION
   &GEO_OPT
     MAX_ITER  500
     STEP_START_VAL  54
   &END GEO_OPT
 &END MOTION
 &FORCE_EVAL
   METHOD  QS
   STRESS_TENSOR  ANALYTICAL
   &DFT
     BASIS_SET_FILE_NAME BASIS_MOLOPT
     POTENTIAL_FILE_NAME GTH_POTENTIALS
     UKS  T
     SURFACE_DIPOLE_CORRECTION  T
     SURF_DIP_DIR  Z
     &SCF
       MAX_SCF  80
       EPS_SCF     5.0000000000000004E-06
       &OT  T
         PRECONDITIONER  FULL_ALL
       &END OT
       &OUTER_SCF  T
         OPTIMIZER  NONE
         EPS_SCF     5.0000000000000004E-06
         MAX_SCF  4
       &END OUTER_SCF
       &PRINT
         &RESTART  OFF
           BACKUP_COPIES  1
           &EACH
             JUST_ENERGY  0
             QS_SCF  0
             MD  20
           &END EACH
         &END RESTART
       &END PRINT
     &END SCF
     &QS
       EPS_DEFAULT     1.0000000000000000E-14
       METHOD  GPW
     &END QS
     &MGRID
       NGRIDS  5
       CUTOFF     1.2000000000000000E+03
     &END MGRID
     &XC
       DENSITY_CUTOFF     1.0000000000000000E-10
       GRADIENT_CUTOFF     1.0000000000000000E-10
       TAU_CUTOFF     1.0000000000000000E-10
       &XC_FUNCTIONAL  NO_SHORTCUT
         &PBE  T
         &END PBE
       &END XC_FUNCTIONAL
       &VDW_POTENTIAL
         POTENTIAL_TYPE  PAIR_POTENTIAL
         &PAIR_POTENTIAL
           R_CUTOFF     1.0000000000000004E+01
           TYPE  DFTD3
           PARAMETER_FILE_NAME dftd3.dat
           REFERENCE_FUNCTIONAL PBE
           EPS_CN     9.9999999999999995E-07
           CALCULATE_C9_TERM  T
           REFERENCE_C9_TERM  T
           LONG_RANGE_CORRECTION  F
           VERBOSE_OUTPUT  F
         &END PAIR_POTENTIAL
       &END VDW_POTENTIAL
     &END XC
   &END DFT
   &SUBSYS
     &CELL
       A     1.2864472766435110E+01    0.0000000000000000E+00    0.0000000000000000E+00
       B    -6.4322363581020028E+00    1.1140960178524473E+01    0.0000000000000000E+00
       C     0.0000000000000000E+00    0.0000000000000000E+00    3.2000000000000000E+01
       MULTIPLE_UNIT_CELL  1 1 1
       &CELL_REF
         A     1.2982353780853531E+01    0.0000000000000000E+00    0.0000000000000000E+00
         B    -6.4911768904267628E+00    1.1243048175136114E+01    0.0000000000000000E+00
         C     0.0000000000000000E+00    0.0000000000000000E+00    3.2000000000000000E+01
         MULTIPLE_UNIT_CELL  1 1 1
       &END CELL_REF
     &END CELL
     &COORD
N    1.0360139467852402E-02    2.0229316084981219E+00    2.4898316447135787E+00
Ga    1.0811034537151407E-02    4.8575279804288968E-02    2.8241994938364496E+00
N    1.3076483329838825E-02    4.5800899542346139E-02    4.9808088464786975E+00
Ga    1.6621257072463425E-02    1.8765956270858286E+00    5.7593327479950478E+00
N    1.3221606807803828E-02    1.8921799660009602E+00    7.7567742921517215E+00
Ga    1.2271214998952720E-02    4.7039968897733805E-02    8.4041880513856100E+00
N    1.2109504037335926E-02    4.7550396344602210E-02    1.0379386648795403E+01
Ga    1.1685926556531607E-02    1.8883704927872687E+00    1.1028299065934936E+01
N    1.1213030963691943E-02    1.8701411634244929E+00    1.3021786851468672E+01
Ga    5.8127298952441323E-03    5.4042536385860873E-02    1.3822408619858582E+01
N    4.7947453493417383E-03    5.3894335572179063E-02    1.6031164782723412E+01
Ga    1.0656121268199920E-02    2.1091548236296243E+00    1.6461184727543763E+01
Ga   -1.6038426790038748E-02    3.7371219021351259E+00    1.4291326170463452E+00
N   -1.4914226726717417E+00    4.6236233544292542E+00    2.4889054721141890E+00
Ga   -1.6939871745123463E+00    2.7731334468275706E+00    3.2569740324836425E+00
N   -1.5972334915692814E+00    2.8296889932053930E+00    5.2175758555813418E+00
Ga   -1.6158770948018024E+00    4.7038422648258971E+00    5.7592156636816920E+00
N   -1.6052195416056372E+00    4.6953544627523103E+00    7.7565633986476712E+00
Ga   -1.5846761923090287E+00    2.8385209006127132E+00    8.3969822242906957E+00
N   -1.5854052980779085E+00    2.8391640537283771E+00    1.0390460547350465E+01
Ga   -1.6100591181480628E+00    4.6977950118623335E+00    1.1028647617074339E+01
N   -1.6270460965671316E+00    4.7077718741246128E+00    1.3022098473702586E+01
Ga   -1.5852187062042806E+00    2.8401925073250656E+00    1.3583401015627102E+01
N   -1.6123507831435253E+00    2.8245759583286687E+00    1.5543143510399101E+01
Ga   -1.4212354564734244E+00    4.5886930881464645E+00    1.6460993488595900E+01
N    1.3825353584241317E-02    3.7640587835832284E+00    1.7611880108634331E+01
N   -3.2035164008469641E+00    7.5947305827151688E+00    2.4842894566943876E+00
Ga   -3.2007703637426994E+00    5.6117636849401835E+00    2.8222258141131795E+00
N   -3.2030618273138338E+00    5.6158313104065254E+00    4.9796864914618633E+00
Ga   -3.2036454820917206E+00    7.4444640230045991E+00    5.7578289970432035E+00
N   -3.2043315065170748E+00    7.4637117412531744E+00    7.7557159008778145E+00
Ga   -3.2033456627912607E+00    5.6177338599480970E+00    8.4043805852006770E+00
N   -3.2038654231502828E+00    5.6183784844516023E+00    1.0379372720895052E+01
Ga   -3.2043009610632280E+00    7.4571165753788975E+00    1.1029022087887432E+01
N   -3.2043958518252817E+00    7.4377993730865350E+00    1.3027980592129303E+01
Ga   -3.2031674350980355E+00    5.6108770809628723E+00    1.3823585503332012E+01
N   -3.2039796976828403E+00    5.6105273191917471E+00    1.6030598331132662E+01
Ga   -3.2037708774519849E+00    7.6230336497009459E+00    1.6410642704762541E+01
Ga   -3.2026551802771017E+00    9.3320031667273096E+00    1.4615648495801472E+00
N   -4.7059191509925506E+00    1.0195777474217234E+01    2.4864542212100700E+00
Ga   -4.9172090008665910E+00    8.3393928655136662E+00    3.2447657676046511E+00
N   -4.8153651011279983E+00    8.3988124269317996E+00    5.2075713421992909E+00
Ga   -4.8368357552288854E+00    1.0271608383577989E+01    5.7591453619683310E+00
N   -4.8215558240269649E+00    1.0263655004549740E+01    7.7566148894077456E+00
Ga   -4.8024780755023171E+00    8.4078958617204815E+00    8.3985609723639651E+00
N   -4.8012232750460697E+00    8.4095960545091852E+00    1.0393771419604969E+01
Ga   -4.8274591594111476E+00    1.0269203275017569E+01    1.1028323292146890E+01
N   -4.8452450272763974E+00    1.0280151935794517E+01    1.3027413436868022E+01
Ga   -4.8013984130053204E+00    8.4108487699372567E+00    1.3576964178304582E+01
N   -4.8239438761344999E+00    8.3988305447690887E+00    1.5550925558750343E+01
Ga   -4.6839751320342939E+00    1.0188756254548656E+01    1.6411101602965072E+01
N   -3.2098484920854040E+00    9.3292163163758524E+00    1.7527732702030701E+01
N    3.2299934508062269E+00    1.9064339405937416E+00    2.5689227074646692E+00
Ga    3.2281363564394652E+00    1.6462938131271004E-01    3.2509121426909728E+00
N    3.2284857176947699E+00    4.7831163810142074E-02    5.2125012393002867E+00
Ga    3.2271555300085262E+00    1.9074039126340403E+00    5.8338363663951762E+00
N    3.2276848151215205E+00    1.9037181080034860E+00    7.8085722882710478E+00
Ga    3.2277224901778663E+00    3.6170114660246534E-02    8.3956341699710055E+00
N    3.2276176337529834E+00    3.4715447627863674E-02    1.0391453708185434E+01
Ga    3.2270380684952578E+00    1.9047439812708011E+00    1.0985864389996676E+01
N    3.2278052966212507E+00    1.9037014356175737E+00    1.2960194264016982E+01
Ga    3.2278645337346119E+00    3.6630582461591815E-02    1.3576476766072517E+01
N    3.2294372862360445E+00    6.2482059891418765E-02    1.5549125242106774E+01
Ga    3.2266934768297508E+00    1.9094637964637684E+00    1.5823821109792958E+01
N    1.5009855865211876E+00    4.6231026283750829E+00    2.4421823299042988E+00
Ga    1.7196902827804594E+00    2.7852566755547916E+00    3.2394138672829964E+00
N    1.6212498742821184E+00    2.8344097920566931E+00    5.2041640959500519E+00
Ga    1.6614829098468191E+00    4.7110952461472451E+00    5.7552908642100951E+00
N    1.6273289593062792E+00    4.6929137826913214E+00    7.7608050244908817E+00
Ga    1.6104690291455739E+00    2.8393254539780401E+00    8.3980339743513461E+00
N    1.6089021704583140E+00    2.8389261116126994E+00    1.0392420023420074E+01
Ga    1.6350407651452923E+00    4.6986947019956329E+00    1.1029947583033527E+01
N    1.6507914998427109E+00    4.7086397001179510E+00    1.3024468713414313E+01
Ga    1.6076513560766255E+00    2.8406442230181872E+00    1.3583828186374317E+01
N    1.6348585939891296E+00    2.8219224035763433E+00    1.5543626078123557E+01
Ga    1.4490154751913487E+00    4.5922335312265536E+00    1.6460740570687744E+01
N    2.0037907316209955E-02    7.4686173141805110E+00    2.5584308446321034E+00
Ga    2.1090864946474466E-02    5.7232407313614777E+00    3.2412931186009377E+00
N    1.5627020759318433E-02    5.6157358126174559E+00    5.2048738682956017E+00
Ga    1.6086599974669321E-02    7.4695794685441843E+00    5.8351088030682199E+00
N    1.2092830412306793E-02    7.4732975095237713E+00    7.8092521103727552E+00
Ga    1.3583357332485807E-02    5.6049452288110011E+00    8.3984083042211211E+00
N    1.1550156431432120E-02    5.6059849679006923E+00    1.0392728862657471E+01
Ga    1.1378265317431210E-02    7.4746328209303758E+00    1.0986359521937883E+01
N    1.0410302189422429E-02    7.4768163793834885E+00    1.2960866790562962E+01
Ga    1.1514987408667701E-02    5.6051385457593428E+00    1.3584364517286147E+01
N    8.9693779244548293E-03    5.6391958384671925E+00    1.5544151598309973E+01
Ga    1.3498042656264668E-02    7.4738734630444030E+00    1.5824809080541192E+01
N   -1.7010974086635495E+00    1.0196130425733951E+01    2.4879793778011741E+00
Ga   -1.4897738599397485E+00    8.3390308377868578E+00    3.2459905988212885E+00
N   -1.5919679804740210E+00    8.3987976405463414E+00    5.2085205829512899E+00
Ga   -1.5707054148213366E+00    1.0271533010513865E+01    5.7592045567335388E+00
N   -1.5868534339169373E+00    1.0263858450155695E+01    7.7564888806994361E+00
Ga   -1.6051962716910264E+00    8.4071818834813996E+00    8.3966281786990411E+00
N   -1.6078942650351242E+00    8.4095742761048768E+00    1.0392183427268366E+01
Ga   -1.5817254497451403E+00    1.0268925307719712E+01    1.1027271057896478E+01
N   -1.5642283904041216E+00    1.0279795615578450E+01    1.3026051980469395E+01
Ga   -1.6067979884450301E+00    8.4105789544706049E+00    1.3576708854239969E+01
N   -1.5839463181335001E+00    8.4001057917566140E+00    1.5549414525987288E+01
Ga   -1.7295389304826698E+00    1.0185274200619013E+01    1.6410782677250694E+01
N    6.4480343559100435E+00    2.0233468703481443E+00    2.4925874223739735E+00
Ga    6.4469808652186673E+00    4.6449788020508670E-02    2.8257234006553458E+00
N    6.4448506008286195E+00    4.5831981030261031E-02    4.9807489017767406E+00
Ga    6.4425656744568727E+00    1.8754763230656091E+00    5.7624177581764542E+00
N    6.4440238100275806E+00    1.8917520071402938E+00    7.7587605126373669E+00
Ga    6.4438383708561586E+00    4.6240626009104870E-02    8.4044790840992984E+00
N    6.4437606251759973E+00    4.7126796594493092E-02    1.0379430605832558E+01
Ga    6.4432322787286589E+00    1.8879354862691262E+00    1.1027528559019107E+01
N    6.4440990514284211E+00    1.8697511970598024E+00    1.3021764299920163E+01
Ga    6.4488897337033322E+00    5.2118582807807956E-02    1.3819762902153654E+01
N    6.4493304872448407E+00    5.2520175998060144E-02    1.6030032668635098E+01
Ga    6.4454972404035731E+00    2.1009652367534741E+00    1.6447370366693992E+01
Ga    6.4622298177073247E+00    3.7439859288451562E+00    1.4556246569642126E+00
N    4.9643671064156836E+00    4.6209625719841174E+00    2.4721536698048960E+00
Ga    4.7363480130033713E+00    2.7806732336936455E+00    3.2515802862374099E+00
N    4.8369881562526311E+00    2.8322970896546313E+00    5.2121682957512840E+00
Ga    4.7975376172738642E+00    4.7109761026618981E+00    5.7577296824130393E+00
N    4.8294920289666345E+00    4.6930155985727522E+00    7.7626038866592602E+00
Ga    4.8453509943177222E+00    2.8389933253276611E+00    8.3979056085089869E+00
N    4.8460161951515142E+00    2.8385257622050584E+00    1.0392706657137115E+01
Ga    4.8201248168202708E+00    4.6983942261397971E+00    1.1029834931220659E+01
N    4.8039856319835481E+00    4.7089546868810839E+00    1.3025613324765901E+01
Ga    4.8474907537033474E+00    2.8403446790753479E+00    1.3581412070830611E+01
N    4.8212832244622792E+00    2.8201734238848086E+00    1.5544005260033057E+01
Ga    4.9950333502599040E+00    4.5994678755296379E+00    1.6447193555108054E+01
N    6.4349211665988451E+00    3.7657214189238064E+00    1.7586260956393616E+01
N    3.2291553440049428E+00    7.6117992140272728E+00    2.4647020972389506E+00
Ga    3.2346515741300155E+00    5.6110429476314945E+00    2.5438789413414415E+00
N    3.2303793109063990E+00    5.6155252690443067E+00    4.9954325497790402E+00
Ga    3.2295285254307977E+00    7.4260844220970146E+00    5.7562385864627990E+00
N    3.2285814913813544E+00    7.4658110384144534E+00    7.7617321486426105E+00
Ga    3.2279551188490854E+00    5.6172734866275276E+00    8.4022328790007812E+00
N    3.2278375886538120E+00    5.6180165335333863E+00    1.0380178143741206E+01
Ga    3.2273027197529469E+00    7.4565638530261626E+00    1.1030350373778978E+01
N    3.2276440915337403E+00    7.4389773772605574E+00    1.3026611497705110E+01
Ga    3.2257363695146215E+00    5.6173194842382648E+00    1.3832805150035373E+01
N    3.2265108074671440E+00    5.6175375616343350E+00    1.6030959080025674E+01
Ga    3.2281863562036879E+00    7.6542254929558178E+00    1.6443763211971913E+01
Ga    3.2272736729670175E+00    9.3625319207595723E+00    1.4504894529006715E+00
N    1.7263651460925848E+00    1.0200471100512068E+01    2.4961490085813201E+00
Ga    1.5295787034283110E+00    8.3372157180182782E+00    3.2494262029577259E+00
N    1.6215641848093676E+00    8.3993141378238843E+00    5.2104590399233954E+00
Ga    1.5959215233911157E+00    1.0268793502406174E+01    5.7612933021621968E+00
N    1.6096427147082943E+00    1.0264132656799219E+01    7.7580358664390348E+00
Ga    1.6310193718609152E+00    8.4067576910358319E+00    8.3981357539517969E+00
N    1.6299393674696410E+00    8.4091090311830978E+00    1.0393177536835367E+01
Ga    1.6054638937107677E+00    1.0267886834099711E+01    1.1027749364933559E+01
N    1.5890736572236626E+00    1.0279056221542364E+01    1.3022577412925974E+01
Ga    1.6310667756815944E+00    8.4111807122381332E+00    1.3581777739444755E+01
N    1.6006661638480737E+00    8.3992017490837281E+00    1.5545565887080055E+01
Ga    1.7858215347602469E+00    1.0167387360718248E+01    1.6444112648942898E+01
N    3.2258431664257938E+00    9.3224033952158685E+00    1.7580506566538148E+01
N    9.6627947785303050E+00    1.9017809597918647E+00    2.5731369777868713E+00
Ga    9.6626122487964619E+00    1.6312475703171694E-01    3.2610975672166211E+00
N    9.6615045482241921E+00    4.7878551297533954E-02    5.2200896831075605E+00
Ga    9.6616797283103857E+00    1.9029939804426281E+00    5.8448287739119413E+00
N    9.6607246902236970E+00    1.9033965236221650E+00    7.8149886319792765E+00
Ga    9.6603526651391292E+00    3.3993216481366516E-02    8.3976490330403202E+00
N    9.6600750591921205E+00    3.4598316617243857E-02    1.0391164556120314E+01
Ga    9.6600016309727170E+00    1.9044627315349578E+00    1.0984596914108147E+01
N    9.6599831734753927E+00    1.9048588901789694E+00    1.2957690261777774E+01
Ga    9.6600555563710255E+00    3.6328499529700922E-02    1.3580364589024329E+01
N    9.6601070492064256E+00    6.6713759770324080E-02    1.5542442612738620E+01
Ga    9.6609069412548436E+00    1.9067600176203814E+00    1.5819538243614391E+01
N    7.9504085400901907E+00    4.6243461355653341E+00    2.4899597405286560E+00
Ga    8.1564538936539019E+00    2.7720044437700113E+00    3.2584345039037523E+00
N    8.0554248715398664E+00    2.8297944311599341E+00    5.2182669606924588E+00
Ga    8.0769583879896807E+00    4.7032299535869697E+00    5.7634042373477889E+00
N    8.0626526142866251E+00    4.6946789769770376E+00    7.7594481167941067E+00
Ga    8.0419547371143754E+00    2.8378211245814753E+00    8.3986251704557624E+00
N    8.0407701099031588E+00    2.8392552687715482E+00    1.0391575247928936E+01
Ga    8.0666885817230565E+00    4.6983349327136734E+00    1.1028249403722921E+01
N    8.0833206587418420E+00    4.7081403474335746E+00    1.3022396776151382E+01
Ga    8.0414430197251683E+00    2.8398613413843430E+00    1.3580059421684171E+01
N    8.0677200920224603E+00    2.8247008600158261E+00    1.5540955886406044E+01
Ga    7.8836199753963099E+00    4.5917052240081011E+00    1.6447934540861702E+01
N    6.4372942758619836E+00    7.4661260417326751E+00    2.5564650703833016E+00
Ga    6.4435786661491532E+00    5.7264801615643384E+00    3.2557319953777286E+00
N    6.4456888462586424E+00    5.6170700274773910E+00    5.2143305100908997E+00
Ga    6.4420755174990809E+00    7.4718174329158540E+00    5.8398444340613542E+00
N    6.4445345797288711E+00    7.4739966756863465E+00    7.8125775485597879E+00
Ga    6.4431093079738524E+00    5.6048547557860564E+00    8.3998186314612333E+00
N    6.4442570963342192E+00    5.6059557383598539E+00    1.0394115419766367E+01
Ga    6.4433326610378989E+00    7.4749106358615744E+00    1.0986807944809398E+01
N    6.4451785545138094E+00    7.4767421059566503E+00    1.2961398799578586E+01
Ga    6.4443211197321713E+00    5.6052627160724464E+00    1.3581552327340923E+01
N    6.4490624566290551E+00    5.6395310856703524E+00    1.5543516244744392E+01
Ga    6.4423195316055226E+00    7.4751979157832515E+00    1.5825971123321960E+01
N    4.7322913473853996E+00    1.0199844144022661E+01    2.4935602643431802E+00
Ga    4.9291651436536084E+00    8.3396252151177688E+00    3.2494198388679902E+00
N    4.8376589950818563E+00    8.3996701693562397E+00    5.2104008102032831E+00
Ga    4.8625914017957648E+00    1.0269434920939467E+01    5.7619975626514206E+00
N    4.8466927688027548E+00    1.0264051815208873E+01    7.7586808268254259E+00
Ga    4.8249526699075753E+00    8.4072204193662579E+00    8.3998809162998125E+00
N    4.8251088797762192E+00    8.4095846301462007E+00    1.0394393548266923E+01
Ga    4.8504148657400421E+00    1.0268744162102760E+01    1.1028233005993826E+01
N    4.8666673986788123E+00    1.0279389800206991E+01    1.3022973848144765E+01
Ga    4.8242974635615594E+00    8.4114250433618469E+00    1.3581397887201138E+01
N    4.8551712265610885E+00    8.3995356810739459E+00    1.5544610344438738E+01
Ga    4.6690200333687182E+00    1.0166889918106699E+01    1.6444908597713763E+01
O    3.2579419013153448E+00    5.5501818773323404E+00    2.0432769483662261E-01
H    2.3444206733938167E+00    5.7237164988689857E+00   -8.4903878591390841E-02
C    4.1718610409231180E+00    6.4213984531497053E+00   -5.0272764869775111E-01
H    3.7454642449829429E+00    7.4270825825072846E+00   -6.4113603356408122E-01
H    5.0738947136036838E+00    6.5146669959077270E+00    1.1898234427443112E-01
H    4.4234659247087107E+00    5.9914378965019450E+00   -1.4817325693671708E+00
     &END COORD
     &KIND C
       BASIS_SET DZVP-MOLOPT-SR-GTH-q4
       POTENTIAL GTH-PBE-q4
       &POTENTIAL
 2 2
  0.3384712400000000E+00 2 -0.8803673979999999E+01  0.1339210850000000E+01
 2
  0.3025757500000000E+00 1  0.9622486650000001E+01
  0.2915069400000000E+00 0
         # Potential name:  GTH-PBE-Q4  for symbol:  C
         # Potential read from the potential filename: GTH_POTENTIALS
       &END POTENTIAL
     &END KIND
     &KIND O
       BASIS_SET DZVP-MOLOPT-SR-GTH-q6
       POTENTIAL GTH-PBE-q6
       &POTENTIAL
 2 4
  0.2445543000000000E+00 2 -0.1666721480000000E+02  0.2487311320000000E+01
 2
  0.2209559200000000E+00 1  0.1833745811000000E+02
  0.2113324700000000E+00 0
         # Potential name:  GTH-PBE-Q6  for symbol:  O
         # Potential read from the potential filename: GTH_POTENTIALS
       &END POTENTIAL
     &END KIND
     &KIND H
       BASIS_SET DZVP-MOLOPT-SR-GTH-q1
       POTENTIAL GTH-PBE-q1
       &POTENTIAL
 1
  0.2000000000000000E+00 2 -0.4178900440000000E+01  0.7244633100000000E+00
 0
         # Potential name:  GTH-PBE-Q1  for symbol:  H
         # Potential read from the potential filename: GTH_POTENTIALS
       &END POTENTIAL
     &END KIND
     &KIND N
       BASIS_SET DZVP-MOLOPT-SR-GTH
       POTENTIAL GTH-PBE-q5
       &POTENTIAL
 2 3
  0.2837905100000000E+00 2 -0.1241522559000000E+02  0.1868095920000000E+01
 2
  0.2554050000000000E+00 1  0.1363026257000000E+02
  0.2454945300000000E+00 0
         # Potential name:  GTH-PBE-Q5  for symbol:  N
         # Potential read from the potential filename: GTH_POTENTIALS
       &END POTENTIAL
     &END KIND
     &KIND Ga
       BASIS_SET DZVP-MOLOPT-SR-GTH
       POTENTIAL GTH-PBE-q13
       &POTENTIAL
 2 1 10
  0.4900000000000000E+00 0
 3
  0.4167772300000000E+00 3  0.1047568975000000E+02 -0.4921768140000000E+01  0.8707055900000000E+00
  0.7770178090000000E+01 -0.2248152160000000E+01
  0.1784415450000000E+01
  0.5696265200000000E+00 2  0.1777985340000000E+01  0.1958597600000000E+00
 -0.2317443900000000E+00
  0.2381265000000000E+00 1 -0.1624868022000000E+02
         # Potential name:  GTH-PBE-Q13  for symbol:  GA
         # Potential read from the potential filename: GTH_POTENTIALS
       &END POTENTIAL
     &END KIND
     &TOPOLOGY
       NUMBER_OF_ATOMS  206
       MULTIPLE_UNIT_CELL  1 1 1
     &END TOPOLOGY
   &END SUBSYS
 &END FORCE_EVAL
