 # Version information for this restart file 
 # current date 2019-06-24 14:54:51.032
 # current working dir /scratch/rzk/rzk/GaN-carbene/443-adatoms-both-2x2/02-Methanol/02-O-GaSur
 # Program compiled at                              Sun Apr  7 00:48:11 EDT 2019
 # Program compiled on                          beluga2.int.ets1.calculquebec.ca
 # Program compiled for                        Beluga-Linux-x86-64-intel-openmpi
 # Source code revision number                                         svn:18619
 &GLOBAL
   PRINT_LEVEL  MEDIUM
   PROJECT_NAME TEST
   RUN_TYPE  GEO_OPT
 &END GLOBAL
 &MOTION
   &GEO_OPT
     MAX_ITER  500
     STEP_START_VAL  59
   &END GEO_OPT
 &END MOTION
 &FORCE_EVAL
   METHOD  QS
   STRESS_TENSOR  ANALYTICAL
   &DFT
     BASIS_SET_FILE_NAME BASIS_MOLOPT
     POTENTIAL_FILE_NAME GTH_POTENTIALS
     UKS  T
     SURFACE_DIPOLE_CORRECTION  T
     SURF_DIP_DIR  Z
     &SCF
       MAX_SCF  80
       EPS_SCF     5.0000000000000004E-06
       &OT  T
         PRECONDITIONER  FULL_ALL
       &END OT
       &OUTER_SCF  T
         OPTIMIZER  NONE
         EPS_SCF     5.0000000000000004E-06
         MAX_SCF  4
       &END OUTER_SCF
       &PRINT
         &RESTART  OFF
           BACKUP_COPIES  1
           &EACH
             JUST_ENERGY  0
             QS_SCF  0
             MD  20
           &END EACH
         &END RESTART
       &END PRINT
     &END SCF
     &QS
       EPS_DEFAULT     1.0000000000000000E-14
       METHOD  GPW
     &END QS
     &MGRID
       NGRIDS  5
       CUTOFF     1.2000000000000000E+03
     &END MGRID
     &XC
       DENSITY_CUTOFF     1.0000000000000000E-10
       GRADIENT_CUTOFF     1.0000000000000000E-10
       TAU_CUTOFF     1.0000000000000000E-10
       &XC_FUNCTIONAL  NO_SHORTCUT
         &PBE  T
         &END PBE
       &END XC_FUNCTIONAL
       &VDW_POTENTIAL
         POTENTIAL_TYPE  PAIR_POTENTIAL
         &PAIR_POTENTIAL
           R_CUTOFF     1.0000000000000004E+01
           TYPE  DFTD3
           PARAMETER_FILE_NAME dftd3.dat
           REFERENCE_FUNCTIONAL PBE
           EPS_CN     9.9999999999999995E-07
           CALCULATE_C9_TERM  T
           REFERENCE_C9_TERM  T
           LONG_RANGE_CORRECTION  F
           VERBOSE_OUTPUT  F
         &END PAIR_POTENTIAL
       &END VDW_POTENTIAL
     &END XC
   &END DFT
   &SUBSYS
     &CELL
       A     1.2864472766435110E+01    0.0000000000000000E+00    0.0000000000000000E+00
       B    -6.4322363581020028E+00    1.1140960178524473E+01    0.0000000000000000E+00
       C     0.0000000000000000E+00    0.0000000000000000E+00    3.2000000000000000E+01
       MULTIPLE_UNIT_CELL  1 1 1
       &CELL_REF
         A     1.2982353780853531E+01    0.0000000000000000E+00    0.0000000000000000E+00
         B    -6.4911768904267628E+00    1.1243048175136114E+01    0.0000000000000000E+00
         C     0.0000000000000000E+00    0.0000000000000000E+00    3.2000000000000000E+01
         MULTIPLE_UNIT_CELL  1 1 1
       &END CELL_REF
     &END CELL
     &COORD
N    9.7665614497084597E-03    2.0230458767074748E+00    2.4919934100138943E+00
Ga    9.9222492981735407E-03    4.8050246002203104E-02    2.8266831217181791E+00
N    1.2050106203444998E-02    4.5733227344386375E-02    4.9819530240859979E+00
Ga    1.5319104432709018E-02    1.8763721922575141E+00    5.7616522244198753E+00
N    1.1636593695475794E-02    1.8915691926083149E+00    7.7584461418140815E+00
Ga    1.0601070958863344E-02    4.6328008501990099E-02    8.4066022849130668E+00
N    1.0626717063546507E-02    4.6600355849333010E-02    1.0381439924034570E+01
Ga    1.0312246785238822E-02    1.8872985334747350E+00    1.1031435808077891E+01
N    1.0818587839932642E-02    1.8687495199641699E+00    1.3024809420542436E+01
Ga    6.7285688634348608E-03    5.2281193299063007E-02    1.3826023071506588E+01
N    6.3834790428331329E-03    5.2241761064466707E-02    1.6033776044637918E+01
Ga    1.1725636283264602E-02    2.1100769509519846E+00    1.6466708380778982E+01
Ga   -1.5320739484925683E-02    3.7376177163437068E+00    1.4352844734411097E+00
N   -1.4920486097242902E+00    4.6238626218582750E+00    2.4908043969175586E+00
Ga   -1.6953202039268680E+00    2.7729807818503329E+00    3.2595056794421309E+00
N   -1.5985543945786711E+00    2.8294343716467520E+00    5.2193851633925368E+00
Ga   -1.6172741518018032E+00    4.7035807778204823E+00    5.7614371869472070E+00
N   -1.6068874236412125E+00    4.6947180281648944E+00    7.7581350461889036E+00
Ga   -1.5862846331966565E+00    2.8378805581104167E+00    8.3998274090133673E+00
N   -1.5867110178207482E+00    2.8382568722592163E+00    1.0392705379023383E+01
Ga   -1.6115736479978460E+00    4.6967623427405467E+00    1.1031920979489181E+01
N   -1.6276980433158350E+00    4.7063776170957636E+00    1.3025287696149393E+01
Ga   -1.5861347941746016E+00    2.8384380509736071E+00    1.3586915984857690E+01
N   -1.6126813754582832E+00    2.8222238974544616E+00    1.5545940271431517E+01
Ga   -1.4184822700061783E+00    4.5860539563877802E+00    1.6466629580197040E+01
N    1.1317852983960592E-02    3.7607925336001267E+00    1.7615989871735348E+01
N   -3.2041265744092069E+00    7.5947703289471882E+00    2.4855122063801867E+00
Ga   -3.2021385478581599E+00    5.6119708847324175E+00    2.8241491190641148E+00
N   -3.2042784013756203E+00    5.6155829896359526E+00    4.9804746819004144E+00
Ga   -3.2048078469288304E+00    7.4443538370918860E+00    5.7596188778819117E+00
N   -3.2058581388396559E+00    7.4629772206876561E+00    7.7570049118725777E+00
Ga   -3.2051064692971467E+00    5.6169710226213976E+00    8.4068326605425074E+00
N   -3.2053883645984258E+00    5.6171693337021118E+00    1.0381519019083957E+01
Ga   -3.2057452147781285E+00    7.4560752290861396E+00    1.1031388206846438E+01
N   -3.2046135790629844E+00    7.4366638376826266E+00    1.3029439747376028E+01
Ga   -3.2033975728769875E+00    5.6104421185214406E+00    1.3827781554455802E+01
N   -3.2028684865541361E+00    5.6096073351717690E+00    1.6033837419317042E+01
Ga   -3.2027630792771333E+00    7.6227628244557808E+00    1.6417401628514551E+01
Ga   -3.2033930904074897E+00    9.3321016462761435E+00    1.4639133993951132E+00
N   -4.7065660993760243E+00    1.0195770819522938E+01    2.4878655138995076E+00
Ga   -4.9180149928962686E+00    8.3393992556688001E+00    3.2465351896423318E+00
N   -4.8165626881211319E+00    8.3985329597883815E+00    5.2089607113795751E+00
Ga   -4.8379063503951647E+00    1.0271273924032572E+01    5.7611047465680771E+00
N   -4.8231464150465966E+00    1.0263066371018438E+01    7.7580224086437077E+00
Ga   -4.8042200795537386E+00    8.4071246588437969E+00    8.4006004645230732E+00
N   -4.8027358960828268E+00    8.4084078661957786E+00    1.0395143104256707E+01
Ga   -4.8287342072239401E+00    1.0267964806675385E+01    1.1030621362563769E+01
N   -4.8451625815160844E+00    1.0278599765328357E+01    1.3028816554687896E+01
Ga   -4.8012767102867944E+00    8.4095830079550105E+00    1.3580326604938408E+01
N   -4.8214720422987671E+00    8.3981640809563149E+00    1.5553530798531108E+01
Ga   -4.6816748036375291E+00    1.0186433930412511E+01    1.6417466695205039E+01
N   -3.2112727271957460E+00    9.3260841627123074E+00    1.7543566512829166E+01
N    3.2291157680030076E+00    1.9062373575012401E+00    2.5704546591490609E+00
Ga    3.2274499352661827E+00    1.6450944456517771E-01    3.2529392244257251E+00
N    3.2273835092249863E+00    4.7632742845283453E-02    5.2140402401066952E+00
Ga    3.2262451574524240E+00    1.9071008534985452E+00    5.8363154735512390E+00
N    3.2263347164799807E+00    1.9032485600843310E+00    7.8102207363005132E+00
Ga    3.2262213409449951E+00    3.5621095901201077E-02    8.3979547468613855E+00
N    3.2262683599451978E+00    3.3742682828782566E-02    1.0393052391927709E+01
Ga    3.2258193809081139E+00    1.9035079364528349E+00    1.0988876601977632E+01
N    3.2276665256278685E+00    1.9019130368190575E+00    1.2962456527954888E+01
Ga    3.2276905979512351E+00    3.4820674555132526E-02    1.3579596382055461E+01
N    3.2304400591155584E+00    5.8802166287297675E-02    1.5551100258847283E+01
Ga    3.2269952064844425E+00    1.9065774930993225E+00    1.5826404153822264E+01
N    1.5001606167329002E+00    4.6235147329348427E+00    2.4452132880806299E+00
Ga    1.7196459478203840E+00    2.7848369935151349E+00    3.2427427794320498E+00
N    1.6201539766665514E+00    2.8341393634237533E+00    5.2063617801664233E+00
Ga    1.6605279821760925E+00    4.7110439867743690E+00    5.7577890677329631E+00
N    1.6258059476446358E+00    4.6922730731272946E+00    7.7626802774824766E+00
Ga    1.6089651549721049E+00    2.8385457669606131E+00    8.4005081277796911E+00
N    1.6076595162662117E+00    2.8377897376748669E+00    1.0394539388458300E+01
Ga    1.6338330749966099E+00    4.6976689280353758E+00    1.1032477043731321E+01
N    1.6505559198372959E+00    4.7071418857915193E+00    1.3026732827826438E+01
Ga    1.6077382509591700E+00    2.8392082344458225E+00    1.3586982205124080E+01
N    1.6371415034679735E+00    2.8205677858734570E+00    1.5545714259366221E+01
Ga    1.4454099926280746E+00    4.5879080821288625E+00    1.6466494397536238E+01
N    1.9743671312185213E-02    7.4685727166390983E+00    2.5592913884058763E+00
Ga    2.0250684451750500E-02    5.7241033324610617E+00    3.2446421431501813E+00
N    1.4335409067736650E-02    5.6157169138214398E+00    5.2070715219056796E+00
Ga    1.4983860811559464E-02    7.4696557548112308E+00    5.8377830294780315E+00
N    1.0777280764189486E-02    7.4727348978116366E+00    7.8110333153673430E+00
Ga    1.1918465341406240E-02    5.6042481918786828E+00    8.4007443422907926E+00
N    1.0082688921603345E-02    5.6049423965930236E+00    1.0394697298293988E+01
Ga    9.8684466719488641E-03    7.4735853398331393E+00    1.0989015734098858E+01
N    9.7835018422014908E-03    7.4755773682040276E+00    1.2962889515161915E+01
Ga    1.1422469735239754E-02    5.6036530338181514E+00    1.3587362580352574E+01
N    1.0781443363390951E-02    5.6386246189521909E+00    1.5546225338302371E+01
Ga    1.2926277781210535E-02    7.4723212603966509E+00    1.5826696384134324E+01
N   -1.7017461404297332E+00    1.0196119262400551E+01    2.4892516851501987E+00
Ga   -1.4901582378519616E+00    8.3389996161957765E+00    3.2475524392972233E+00
N   -1.5929440973862199E+00    8.3985046670718635E+00    5.2097261049317396E+00
Ga   -1.5719488840680913E+00    1.0271210083987906E+01    5.7612657848921556E+00
N   -1.5882305233501057E+00    1.0263314470199436E+01    7.7580687316148911E+00
Ga   -1.6066881689959081E+00    8.4065389925851033E+00    8.3988910502389089E+00
N   -1.6092753871588468E+00    8.4084823712963637E+00    1.0393686139510832E+01
Ga   -1.5830568824902020E+00    1.0267834427326997E+01    1.1029409035635341E+01
N   -1.5651051075548486E+00    1.0278015186925794E+01    1.3027065431123900E+01
Ga   -1.6074055300687844E+00    8.4093586333939996E+00    1.3579725089871328E+01
N   -1.5847770392618068E+00    8.3996087277112483E+00    1.5551354534399431E+01
Ga   -1.7326439313019382E+00    1.0181263582039362E+01    1.6417445014436595E+01
N    6.4472164954812525E+00    2.0237068524884125E+00    2.4938620059298007E+00
Ga    6.4464236295004396E+00    4.6593795623455871E-02    2.8279015488037729E+00
N    6.4435065174418229E+00    4.5781443949300220E-02    4.9820740307562437E+00
Ga    6.4412468115718333E+00    1.8755588118558537E+00    5.7643167465884639E+00
N    6.4424157437774925E+00    1.8913017533626348E+00    7.7604347063286516E+00
Ga    6.4424715752384332E+00    4.5766408584189823E-02    8.4069915573516880E+00
N    6.4426346463444046E+00    4.6385098538633450E-02    1.0381747754894953E+01
Ga    6.4420644760021011E+00    1.8870117202690844E+00    1.1031014125074639E+01
N    6.4438992736520850E+00    1.8683527847623533E+00    1.3025177936793407E+01
Ga    6.4471830621415833E+00    5.0119018989245694E-02    1.3822006780928403E+01
N    6.4485566527051832E+00    5.0056943962690177E-02    1.6033135948917160E+01
Ga    6.4461945301091008E+00    2.0982788928688305E+00    1.6451107979094605E+01
Ga    6.4618103291369504E+00    3.7437539400487392E+00    1.4568483511563253E+00
N    4.9626882886180592E+00    4.6212065234679534E+00    2.4702705098633335E+00
Ga    4.7353059910870261E+00    2.7806750100526432E+00    3.2531523332298296E+00
N    4.8356694264140074E+00    2.8322740783741915E+00    5.2132987379454736E+00
Ga    4.7961147054177609E+00    4.7108612607279650E+00    5.7598695622360685E+00
N    4.8280316723148360E+00    4.6923192839757517E+00    7.7643954044295498E+00
Ga    4.8439318960521449E+00    2.8383398030327367E+00    8.4006710307360262E+00
N    4.8447066225267896E+00    2.8374973525110607E+00    1.0395242200005427E+01
Ga    4.8189313026214071E+00    4.6973806894114887E+00    1.1032955925562772E+01
N    4.8033897769553935E+00    4.7073842927937983E+00    1.3028758948879757E+01
Ga    4.8471144762838216E+00    2.8388111928270972E+00    1.3584926782513326E+01
N    4.8210819334551713E+00    2.8182710115455256E+00    1.5547720805696857E+01
Ga    4.9954650867634234E+00    4.5974668578454700E+00    1.6450530630401666E+01
N    6.4359080165965894E+00    3.7625973662407737E+00    1.7586976707942355E+01
N    3.2282545018091846E+00    7.6119869549283763E+00    2.4650292850748854E+00
Ga    3.2341462561536640E+00    5.6113956143420722E+00    2.5421779612668773E+00
N    3.2291393914450381E+00    5.6152197658121796E+00    4.9979506473406019E+00
Ga    3.2283276540426264E+00    7.4257519791856170E+00    5.7581801766464151E+00
N    3.2270607777554399E+00    7.4653341866913419E+00    7.7634445451316818E+00
Ga    3.2265490238239996E+00    5.6167098055577513E+00    8.4045089489797569E+00
N    3.2266989429924262E+00    5.6170110552383195E+00    1.0382125691745408E+01
Ga    3.2261363188103718E+00    7.4554811945495008E+00    1.1032972565475996E+01
N    3.2271592681062273E+00    7.4369186696813987E+00    1.3029266852675731E+01
Ga    3.2251780760789455E+00    5.6153042256964003E+00    1.3836997846295322E+01
N    3.2264682790837522E+00    5.6153559539828759E+00    1.6035239023607740E+01
Ga    3.2287664913089418E+00    7.6506200753269633E+00    1.6444672198414157E+01
Ga    3.2266628260369794E+00    9.3636709501636073E+00    1.4511685094561408E+00
N    1.7257660545407827E+00    1.0200699779615075E+01    2.4978965584863948E+00
Ga    1.5290291031286989E+00    8.3375216851935559E+00    3.2513157652711260E+00
N    1.6202629498946204E+00    8.3991220725305897E+00    5.2119372239297626E+00
Ga    1.5947980250155580E+00    1.0268597428035619E+01    5.7632219487458087E+00
N    1.6081623496048423E+00    1.0263524492752753E+01    7.7597445412809058E+00
Ga    1.6296094426638348E+00    8.4063174104690130E+00    8.4005906268659931E+00
N    1.6285536462119554E+00    8.4080782119115050E+00    1.0395385040817443E+01
Ga    1.6041930478768116E+00    1.0266925531922929E+01    1.1030828958672702E+01
N    1.5883525652523303E+00    1.0277931371513331E+01    1.3025619743769548E+01
Ga    1.6307757777266008E+00    8.4096328731265153E+00    1.3584226710499088E+01
N    1.6008880227833666E+00    8.3966111677237922E+00    1.5548298465624320E+01
Ga    1.7845804622888741E+00    1.0166530149603760E+01    1.6445373128981192E+01
N    3.2254359836618738E+00    9.3212200974214507E+00    1.7577046046021504E+01
N    9.6619198396821169E+00    1.9019142211682321E+00    2.5745261027345081E+00
Ga    9.6617268751744394E+00    1.6338789799083941E-01    3.2635165249033702E+00
N    9.6602476700925966E+00    4.8074123692635688E-02    5.2220112885727721E+00
Ga    9.6601962589441914E+00    1.9028401465946418E+00    5.8476565681541608E+00
N    9.6590569859020778E+00    1.9028370718018153E+00    7.8172924098052219E+00
Ga    9.6587937978241101E+00    3.3278987774505615E-02    8.4003778323901255E+00
N    9.6586804240832951E+00    3.3373731041695297E-02    1.0393378456826742E+01
Ga    9.6584659369158281E+00    1.9034281617078268E+00    1.0987468906988392E+01
N    9.6593859655010466E+00    1.9033800976066686E+00    1.2959188449791903E+01
Ga    9.6597744137192922E+00    3.5637186856818978E-02    1.3583271368398453E+01
N    9.6610563726779937E+00    6.5634533412697565E-02    1.5545360991879070E+01
Ga    9.6621825617714112E+00    1.9052934226212002E+00    1.5826683496370652E+01
N    7.9492207495360327E+00    4.6243545024463213E+00    2.4911725235313877E+00
Ga    8.1556568731515213E+00    2.7720405246552904E+00    3.2604136229546539E+00
N    8.0542610990351129E+00    2.8295754008989311E+00    5.2197985517322945E+00
Ga    8.0752924188901343E+00    4.7029907188065261E+00    5.7650433515588881E+00
N    8.0609387253779197E+00    4.6940878874285268E+00    7.7608140102344194E+00
Ga    8.0402245634889677E+00    2.8373142914810279E+00    8.4014824989532961E+00
N    8.0391088050987030E+00    2.8384562232747772E+00    1.0393941167848935E+01
Ga    8.0653322923725668E+00    4.6972865115212308E+00    1.1031782034250178E+01
N    8.0831299151256690E+00    4.7064560629386571E+00    1.3025892026884369E+01
Ga    8.0418718908019553E+00    2.8380227958762361E+00    1.3583968648006271E+01
N    8.0692434489968861E+00    2.8226268702000725E+00    1.5544817641183306E+01
Ga    7.8849621666190171E+00    4.5900473515962901E+00    1.6451697544796446E+01
N    6.4364694755919283E+00    7.4663933310111164E+00    2.5576939403239294E+00
Ga    6.4421761997036402E+00    5.7267912449339970E+00    3.2568507989661386E+00
N    6.4441450353618865E+00    5.6168881882256407E+00    5.2151195868502063E+00
Ga    6.4406706739826634E+00    7.4715064069164372E+00    5.8417025695071061E+00
N    6.4428061715274900E+00    7.4732291175046885E+00    7.8138314991198312E+00
Ga    6.4415879091463397E+00    5.6041538833412723E+00    8.4021890339267351E+00
N    6.4428998629318368E+00    5.6048310264514942E+00    1.0396247447616483E+01
Ga    6.4420999673242845E+00    7.4736722408234888E+00    1.0989648863779577E+01
N    6.4450637649654636E+00    7.4752219898460028E+00    1.2963877834560325E+01
Ga    6.4439849833529719E+00    5.6037981005940924E+00    1.3585193152721207E+01
N    6.4495126043837487E+00    5.6385505226067929E+00    1.5547213883656418E+01
Ga    6.4444659806143578E+00    7.4741691513959916E+00    1.5828671730309464E+01
N    4.7313228446718645E+00    1.0200126255900583E+01    2.4954744196721754E+00
Ga    4.9282552623067346E+00    8.3397442577312688E+00    3.2508843111636723E+00
N    4.8364383821232879E+00    8.3994188313159892E+00    5.2116350361348989E+00
Ga    4.8611465586171398E+00    1.0269085257201034E+01    5.7638006176168988E+00
N    4.8450787484553377E+00    1.0263407084344545E+01    7.7602020790921067E+00
Ga    4.8234501877125515E+00    8.4066627742575051E+00    8.4020819498565800E+00
N    4.8238644141500142E+00    8.4084474306603028E+00    1.0396360252925305E+01
Ga    4.8491479160777233E+00    1.0267634721652513E+01    1.1031206820531706E+01
N    4.8664729552000123E+00    1.0278236218398993E+01    1.3025914242727216E+01
Ga    4.8241730305445429E+00    8.4097222560970035E+00    1.3584080311590027E+01
N    4.8564418900660842E+00    8.3970777372039080E+00    1.5547211006601923E+01
Ga    4.6713877017696026E+00    1.0165854213128787E+01    1.6445987113950036E+01
O    3.2371264532273596E+00    5.5644702174611833E+00    1.9852521082307409E-01
H    2.3262155034910941E+00    5.7882106584350490E+00   -6.0445113612564501E-02
C    4.1692619685184242E+00    6.4191602172715356E+00   -5.0808959294418410E-01
H    3.7612336834624487E+00    7.4329416505127934E+00   -6.4460869379637442E-01
H    5.0724592260468775E+00    6.4959517613186026E+00    1.1367102489975796E-01
H    4.4121424072278463E+00    5.9847013138142007E+00   -1.4869443483071565E+00
     &END COORD
     &KIND C
       BASIS_SET DZVP-MOLOPT-SR-GTH-q4
       POTENTIAL GTH-PBE-q4
       &POTENTIAL
 2 2
  0.3384712400000000E+00 2 -0.8803673979999999E+01  0.1339210850000000E+01
 2
  0.3025757500000000E+00 1  0.9622486650000001E+01
  0.2915069400000000E+00 0
         # Potential name:  GTH-PBE-Q4  for symbol:  C
         # Potential read from the potential filename: GTH_POTENTIALS
       &END POTENTIAL
     &END KIND
     &KIND O
       BASIS_SET DZVP-MOLOPT-SR-GTH-q6
       POTENTIAL GTH-PBE-q6
       &POTENTIAL
 2 4
  0.2445543000000000E+00 2 -0.1666721480000000E+02  0.2487311320000000E+01
 2
  0.2209559200000000E+00 1  0.1833745811000000E+02
  0.2113324700000000E+00 0
         # Potential name:  GTH-PBE-Q6  for symbol:  O
         # Potential read from the potential filename: GTH_POTENTIALS
       &END POTENTIAL
     &END KIND
     &KIND H
       BASIS_SET DZVP-MOLOPT-SR-GTH-q1
       POTENTIAL GTH-PBE-q1
       &POTENTIAL
 1
  0.2000000000000000E+00 2 -0.4178900440000000E+01  0.7244633100000000E+00
 0
         # Potential name:  GTH-PBE-Q1  for symbol:  H
         # Potential read from the potential filename: GTH_POTENTIALS
       &END POTENTIAL
     &END KIND
     &KIND N
       BASIS_SET DZVP-MOLOPT-SR-GTH
       POTENTIAL GTH-PBE-q5
       &POTENTIAL
 2 3
  0.2837905100000000E+00 2 -0.1241522559000000E+02  0.1868095920000000E+01
 2
  0.2554050000000000E+00 1  0.1363026257000000E+02
  0.2454945300000000E+00 0
         # Potential name:  GTH-PBE-Q5  for symbol:  N
         # Potential read from the potential filename: GTH_POTENTIALS
       &END POTENTIAL
     &END KIND
     &KIND Ga
       BASIS_SET DZVP-MOLOPT-SR-GTH
       POTENTIAL GTH-PBE-q13
       &POTENTIAL
 2 1 10
  0.4900000000000000E+00 0
 3
  0.4167772300000000E+00 3  0.1047568975000000E+02 -0.4921768140000000E+01  0.8707055900000000E+00
  0.7770178090000000E+01 -0.2248152160000000E+01
  0.1784415450000000E+01
  0.5696265200000000E+00 2  0.1777985340000000E+01  0.1958597600000000E+00
 -0.2317443900000000E+00
  0.2381265000000000E+00 1 -0.1624868022000000E+02
         # Potential name:  GTH-PBE-Q13  for symbol:  GA
         # Potential read from the potential filename: GTH_POTENTIALS
       &END POTENTIAL
     &END KIND
     &TOPOLOGY
       NUMBER_OF_ATOMS  206
       MULTIPLE_UNIT_CELL  1 1 1
     &END TOPOLOGY
   &END SUBSYS
 &END FORCE_EVAL
