 # Version information for this restart file 
 # current date 2019-06-24 13:00:50.850
 # current working dir /scratch/rzk/rzk/GaN-carbene/443-adatoms-both-2x2/02-Methanol/02-O-GaSur
 # Program compiled at                              Sun Apr  7 00:48:11 EDT 2019
 # Program compiled on                          beluga2.int.ets1.calculquebec.ca
 # Program compiled for                        Beluga-Linux-x86-64-intel-openmpi
 # Source code revision number                                         svn:18619
 &GLOBAL
   PRINT_LEVEL  MEDIUM
   PROJECT_NAME TEST
   RUN_TYPE  GEO_OPT
 &END GLOBAL
 &MOTION
   &GEO_OPT
     MAX_ITER  500
     STEP_START_VAL  26
   &END GEO_OPT
 &END MOTION
 &FORCE_EVAL
   METHOD  QS
   STRESS_TENSOR  ANALYTICAL
   &DFT
     BASIS_SET_FILE_NAME BASIS_MOLOPT
     POTENTIAL_FILE_NAME GTH_POTENTIALS
     UKS  T
     SURFACE_DIPOLE_CORRECTION  T
     SURF_DIP_DIR  Z
     &SCF
       MAX_SCF  80
       EPS_SCF     5.0000000000000004E-06
       &OT  T
         PRECONDITIONER  FULL_ALL
       &END OT
       &OUTER_SCF  T
         OPTIMIZER  NONE
         EPS_SCF     5.0000000000000004E-06
         MAX_SCF  4
       &END OUTER_SCF
       &PRINT
         &RESTART  OFF
           BACKUP_COPIES  1
           &EACH
             JUST_ENERGY  0
             QS_SCF  0
             MD  20
           &END EACH
         &END RESTART
       &END PRINT
     &END SCF
     &QS
       EPS_DEFAULT     1.0000000000000000E-14
       METHOD  GPW
     &END QS
     &MGRID
       NGRIDS  5
       CUTOFF     1.2000000000000000E+03
     &END MGRID
     &XC
       DENSITY_CUTOFF     1.0000000000000000E-10
       GRADIENT_CUTOFF     1.0000000000000000E-10
       TAU_CUTOFF     1.0000000000000000E-10
       &XC_FUNCTIONAL  NO_SHORTCUT
         &PBE  T
         &END PBE
       &END XC_FUNCTIONAL
       &VDW_POTENTIAL
         POTENTIAL_TYPE  PAIR_POTENTIAL
         &PAIR_POTENTIAL
           R_CUTOFF     1.0000000000000004E+01
           TYPE  DFTD3
           PARAMETER_FILE_NAME dftd3.dat
           REFERENCE_FUNCTIONAL PBE
           EPS_CN     9.9999999999999995E-07
           CALCULATE_C9_TERM  T
           REFERENCE_C9_TERM  T
           LONG_RANGE_CORRECTION  F
           VERBOSE_OUTPUT  F
         &END PAIR_POTENTIAL
       &END VDW_POTENTIAL
     &END XC
   &END DFT
   &SUBSYS
     &CELL
       A     1.2864472766435110E+01    0.0000000000000000E+00    0.0000000000000000E+00
       B    -6.4322363581020028E+00    1.1140960178524473E+01    0.0000000000000000E+00
       C     0.0000000000000000E+00    0.0000000000000000E+00    3.2000000000000000E+01
       MULTIPLE_UNIT_CELL  1 1 1
       &CELL_REF
         A     1.2982353780853531E+01    0.0000000000000000E+00    0.0000000000000000E+00
         B    -6.4911768904267628E+00    1.1243048175136114E+01    0.0000000000000000E+00
         C     0.0000000000000000E+00    0.0000000000000000E+00    3.2000000000000000E+01
         MULTIPLE_UNIT_CELL  1 1 1
       &END CELL_REF
     &END CELL
     &COORD
N    1.3283824419553777E-02    2.0263204473154981E+00    2.4831097624763285E+00
Ga    1.6492275314335243E-02    5.0557688082757374E-02    2.8205614369322483E+00
N    1.6349786433963332E-02    5.0785254548040844E-02    4.9710017090197205E+00
Ga    1.8271106179437144E-02    1.8807615817643550E+00    5.7581092144720509E+00
N    1.4081876662436118E-02    1.8968038239724929E+00    7.7481185224846101E+00
Ga    1.4342921129581580E-02    5.1515449324279323E-02    8.4014791245433447E+00
N    1.2383923425760175E-02    5.1521122375900757E-02    1.0369175180728119E+01
Ga    1.2344469998607284E-02    1.8909970875544944E+00    1.1028050438318912E+01
N    1.1402067369324337E-02    1.8711970985029012E+00    1.3015431102887637E+01
Ga    8.8411129889472608E-03    5.2632711209111956E-02    1.3827514685840182E+01
N    1.1127469506043269E-02    5.0526783905852239E-02    1.6016603406986995E+01
Ga    1.0740627492719663E-02    2.0995008486571973E+00    1.6446502031204258E+01
Ga   -8.3160356535891544E-03    3.7430111535861119E+00    1.4444849776793101E+00
N   -1.4874147231519788E+00    4.6273211618054404E+00    2.4804448612066921E+00
Ga   -1.6938719717561748E+00    2.7764148705299441E+00    3.2553701115380536E+00
N   -1.5943986613977572E+00    2.8349391316534791E+00    5.2108074678080065E+00
Ga   -1.6144483481716823E+00    4.7086482859766674E+00    5.7579506186277554E+00
N   -1.6043528110707963E+00    4.6995280957524299E+00    7.7483455445267717E+00
Ga   -1.5837499795921397E+00    2.8430340943292109E+00    8.3971395108112592E+00
N   -1.5851499415435362E+00    2.8426832191498499E+00    1.0383514445427769E+01
Ga   -1.6104720345490742E+00    4.7017802074354433E+00    1.1028187658989996E+01
N   -1.6288533600296751E+00    4.7112074239168455E+00    1.3016025411062955E+01
Ga   -1.5836158766978345E+00    2.8433856673336906E+00    1.3580903077196396E+01
N   -1.6110191098668372E+00    2.8263359844756377E+00    1.5536713170639860E+01
Ga   -1.4289278695723451E+00    4.5942544211458856E+00    1.6448862249282463E+01
N    1.6327117405156681E-02    3.7659170608379693E+00    1.7598030640329956E+01
N   -3.1979309080506271E+00    7.6012624456777678E+00    2.4744997645846003E+00
Ga   -3.1970221177700031E+00    5.6193123631514048E+00    2.8156391622257892E+00
N   -3.1991293767163711E+00    5.6210927960737624E+00    4.9701723751306437E+00
Ga   -3.2001241084386591E+00    7.4495465125970375E+00    5.7549730007413658E+00
N   -3.2026836011540230E+00    7.4676333060383895E+00    7.7460074529575156E+00
Ga   -3.2022465408955325E+00    5.6224866603544399E+00    8.4032014149984207E+00
N   -3.2042008361293970E+00    5.6212050250466268E+00    1.0371009250269315E+01
Ga   -3.2048768443026652E+00    7.4604529270849671E+00    1.1026922895856728E+01
N   -3.2051161451418912E+00    7.4392293517646033E+00    1.3015967540991461E+01
Ga   -3.2047703309402675E+00    5.6177590194569289E+00    1.3829423897254136E+01
N   -3.2038257392277485E+00    5.6183688455965850E+00    1.6021452099206531E+01
Ga   -3.2040692523569732E+00    7.6581676156921707E+00    1.6426039724552073E+01
Ga   -3.1954426349577796E+00    9.3382197694196822E+00    1.4538346606153845E+00
N   -4.6993102470884258E+00    1.0201313335547702E+01    2.4768426859552486E+00
Ga   -4.9096793617756358E+00    8.3462785875031873E+00    3.2386855519253759E+00
N   -4.8103462677989794E+00    8.4048685367281912E+00    5.1980747692105105E+00
Ga   -4.8325836306034411E+00    1.0276693954187659E+01    5.7559759132549972E+00
N   -4.8198815249102891E+00    1.0268846687682283E+01    7.7464426685549341E+00
Ga   -4.8003293475790523E+00    8.4127848389490048E+00    8.3949177114866043E+00
N   -4.8010302579393773E+00    8.4132376311090979E+00    1.0381422388874569E+01
Ga   -4.8277220958356466E+00    1.0272371176017106E+01    1.1026400939787189E+01
N   -4.8460882994777945E+00    1.0282578955171408E+01    1.3015475466207171E+01
Ga   -4.8036402372269960E+00    8.4119627964176118E+00    1.3571911057294930E+01
N   -4.8330811726051728E+00    8.3925227145868444E+00    1.5530820034858868E+01
Ga   -4.6543223867259487E+00    1.0170168200889240E+01    1.6425790777242135E+01
N   -3.2045050731453153E+00    9.3321216944420851E+00    1.7540079915512859E+01
N    3.2360648720635283E+00    1.9089888011277023E+00    2.5577790600889032E+00
Ga    3.2340985271466050E+00    1.6849580614760079E-01    3.2454545746536816E+00
N    3.2324042507196067E+00    5.2354285163957757E-02    5.2032293918870653E+00
Ga    3.2302296758126814E+00    1.9095208746570855E+00    5.8321476852983887E+00
N    3.2285338402084727E+00    1.9077550416113984E+00    7.8000041751779392E+00
Ga    3.2292298729599840E+00    4.0381314355583613E-02    8.3941644219058968E+00
N    3.2273790180330519E+00    3.8483678308366971E-02    1.0382055239759854E+01
Ga    3.2266259679593059E+00    1.9092263964227358E+00    1.0981491950248333E+01
N    3.2259470935746641E+00    1.9084934593135598E+00    1.2947643992712674E+01
Ga    3.2266259727624278E+00    3.9744169904310525E-02    1.3574788923209349E+01
N    3.2278508187251682E+00    7.3978803881965552E-02    1.5533192562368315E+01
Ga    3.2272837921302782E+00    1.9108163814298575E+00    1.5817466887162510E+01
N    1.5063960215283296E+00    4.6248201664407569E+00    2.4447784029447863E+00
Ga    1.7265607341489331E+00    2.7817372096350095E+00    3.2365571375196613E+00
N    1.6243329789151151E+00    2.8367447278101898E+00    5.1960908241259869E+00
Ga    1.6602561631086254E+00    4.7130382304191443E+00    5.7444424266778942E+00
N    1.6301732623414600E+00    4.6975627263201591E+00    7.7422348137026562E+00
Ga    1.6116106591873476E+00    2.8438809776757696E+00    8.3938905487370672E+00
N    1.6078587078346944E+00    2.8428864199784805E+00    1.0381031895209983E+01
Ga    1.6347811487243369E+00    4.7014719099718176E+00    1.1027301720346538E+01
N    1.6499900837730006E+00    4.7101864058906502E+00    1.3015795526534266E+01
Ga    1.6076677552496257E+00    2.8420700831351127E+00    1.3582267115561455E+01
N    1.6332315444431786E+00    2.8248014665611567E+00    1.5538440680274094E+01
Ga    1.4555483765725892E+00    4.5972074451139058E+00    1.6448146348990804E+01
N    2.1039917453454633E-02    7.4750415031124406E+00    2.5500272297656279E+00
Ga    2.1354253736431017E-02    5.7323552356088632E+00    3.2363281767385410E+00
N    1.7106254063770119E-02    5.6205009538630950E+00    5.1957666715514410E+00
Ga    1.6425781933271783E-02    7.4747700598649116E+00    5.8314556256215937E+00
N    1.2433596798157342E-02    7.4767284979795345E+00    7.7986380994858058E+00
Ga    1.5207611418252314E-02    5.6083165795553693E+00    8.3934199559497831E+00
N    1.1700622043880015E-02    5.6071815574253918E+00    1.0380246557010935E+01
Ga    1.1552971036105949E-02    7.4765623856472212E+00    1.0978594197538197E+01
N    1.0178619659536915E-02    7.4756452284581396E+00    1.2944158901448537E+01
Ga    1.0921870267723902E-02    5.6074204492167237E+00    1.3581123296696974E+01
N    9.9661207712948251E-03    5.6362415047431842E+00    1.5537681147025005E+01
Ga    1.5204301772217953E-02    7.4738966998142606E+00    1.5813692043297095E+01
N   -1.6956175245747553E+00    1.0201286917253656E+01    2.4790903424235760E+00
Ga   -1.4867739650020075E+00    8.3453306453563485E+00    3.2417034901408517E+00
N   -1.5894071357972483E+00    8.4046140113794650E+00    5.2000979754382124E+00
Ga   -1.5673082931166191E+00    1.0276669855344009E+01    5.7562582343410318E+00
N   -1.5853697353483212E+00    1.0268601246586938E+01    7.7466952205974131E+00
Ga   -1.6042639450008747E+00    8.4115961936146917E+00    8.3940549918955156E+00
N   -1.6083100732235531E+00    8.4128326975104670E+00    1.0381382003057757E+01
Ga   -1.5823145365493774E+00    1.0272128531809983E+01    1.1026373006679872E+01
N   -1.5656214109544462E+00    1.0281603299579546E+01    1.3015277173046412E+01
Ga   -1.6067193185063464E+00    8.4114076121523613E+00    1.3573347030930812E+01
N   -1.5755026125506446E+00    8.3923378489044076E+00    1.5531396869906249E+01
Ga   -1.7536970919060388E+00    1.0170070210853032E+01    1.6424151120365696E+01
N    6.4534659913503285E+00    2.0286728664452567E+00    2.4822179042430306E+00
Ga    6.4519795678532104E+00    5.2063628536880555E-02    2.8201032721577146E+00
N    6.4489286172723128E+00    5.1633660892378481E-02    4.9700752921214226E+00
Ga    6.4474037535087474E+00    1.8803864373526640E+00    5.7604680162451869E+00
N    6.4456763937562549E+00    1.8965777605002090E+00    7.7495961481734623E+00
Ga    6.4439222062150288E+00    5.1098296653023054E-02    8.4016966324193376E+00
N    6.4421988200547986E+00    5.1110089745679384E-02    1.0369046982557933E+01
Ga    6.4412784316656868E+00    1.8908292608272852E+00    1.1025563273802783E+01
N    6.4417406159737354E+00    1.8707760946612304E+00    1.3012606270549794E+01
Ga    6.4442362770087200E+00    5.1592121762274137E-02    1.3825383725799954E+01
N    6.4441884932230868E+00    4.9712876113528724E-02    1.6012363631006025E+01
Ga    6.4445344996436598E+00    2.0990370536325522E+00    1.6437376472191264E+01
Ga    6.4550322220065040E+00    3.7583010666476979E+00    1.4652734179356361E+00
N    4.9758919931425778E+00    4.6239969991789245E+00    2.4977721970295592E+00
Ga    4.7423090392603298E+00    2.7766956612677069E+00    3.2513127852326109E+00
N    4.8396604264567404E+00    2.8344029111676630E+00    5.2069717812902505E+00
Ga    4.8040654890446755E+00    4.7139417259251166E+00    5.7451985578606664E+00
N    4.8276902147708283E+00    4.6985101347141978E+00    7.7428442906260759E+00
Ga    4.8459868067511849E+00    2.8440764929877065E+00    8.3918461171809149E+00
N    4.8457643547184075E+00    2.8425477428174868E+00    1.0379631043901503E+01
Ga    4.8188217490125682E+00    4.7014578140918788E+00    1.1024073468282239E+01
N    4.8016698938611730E+00    4.7108157360937231E+00    1.3012521576505282E+01
Ga    4.8451173038770703E+00    2.8421967759453275E+00    1.3576654214826329E+01
N    4.8213985822648171E+00    2.8253526783480365E+00    1.5533607761262287E+01
Ga    4.9984172724912517E+00    4.5986886685046775E+00    1.6440550781804561E+01
N    6.4391521608927578E+00    3.7676161206041354E+00    1.7587337409968452E+01
N    3.2340696471685866E+00    7.6139237313317016E+00    2.4686140806633987E+00
Ga    3.2436818117254465E+00    5.6129575306414852E+00    2.6377737112113349E+00
N    3.2322312719722559E+00    5.6195701802382114E+00    4.9524430954860650E+00
Ga    3.2318685672540766E+00    7.4338921799483275E+00    5.7450803277549269E+00
N    3.2291416009388434E+00    7.4663553023101992E+00    7.7414902889335782E+00
Ga    3.2283206889034353E+00    5.6202720040918432E+00    8.3951852658567105E+00
N    3.2264328450468356E+00    5.6198726196032966E+00    1.0366115744901469E+01
Ga    3.2262325134949901E+00    7.4590753604998428E+00    1.1020401916066238E+01
N    3.2260887982432975E+00    7.4393955460240315E+00    1.3008324165339602E+01
Ga    3.2255958472552098E+00    5.6198771627105462E+00    1.3828078925383837E+01
N    3.2267463707682857E+00    5.6193596789580553E+00    1.6017413557707087E+01
Ga    3.2280637061277986E+00    7.6665208791119364E+00    1.6432314355609030E+01
Ga    3.2327108262662856E+00    9.3566437300221033E+00    1.4654079445614181E+00
N    1.7326524546564619E+00    1.0203754780743470E+01    2.4878918336521072E+00
Ga    1.5275168078778845E+00    8.3419031706588278E+00    3.2475184342981316E+00
N    1.6227919859656601E+00    8.4048228094424733E+00    5.2030893917237497E+00
Ga    1.5985956741177210E+00    1.0275437133069826E+01    5.7587624073825507E+00
N    1.6103221322601844E+00    1.0269532905599371E+01    7.7475921411997248E+00
Ga    1.6317102991065273E+00    8.4103647154263843E+00    8.3893695414687546E+00
N    1.6296986220570724E+00    8.4124449789520703E+00    1.0376615676977680E+01
Ga    1.6033076463000184E+00    1.0270998117254939E+01    1.1021420438621739E+01
N    1.5856828046444875E+00    1.0281530660373095E+01    1.3008311665705186E+01
Ga    1.6289102458236138E+00    8.4119386839778763E+00    1.3568689355333809E+01
N    1.6035605863067617E+00    8.3972491287456794E+00    1.5524732488270153E+01
Ga    1.7883188702396378E+00    1.0165541262637994E+01    1.6430708291686891E+01
N    3.2290364074177287E+00    9.3276823816769241E+00    1.7574898242387263E+01
N    9.6660159605304301E+00    1.9068965304716814E+00    2.5640148931460582E+00
Ga    9.6661315011787359E+00    1.7075776971576678E-01    3.2583367841515365E+00
N    9.6644349562545155E+00    5.3985977658468597E-02    5.2123473313174626E+00
Ga    9.6635808550930697E+00    1.9094666974989474E+00    5.8429323341205039E+00
N    9.6616048981857556E+00    1.9091474221997684E+00    7.8075008259909007E+00
Ga    9.6608587146760225E+00    3.9927192224430974E-02    8.3944660246344451E+00
N    9.6592686237550058E+00    3.9322735593045589E-02    1.0380952115864520E+01
Ga    9.6596450535267770E+00    1.9089159461199503E+00    1.0982621359091382E+01
N    9.6598811287946251E+00    1.9096705133456255E+00    1.2949903202730653E+01
Ga    9.6587131257125129E+00    3.6811628330174338E-02    1.3568127315193184E+01
N    9.6599411888915849E+00    6.7985421813660254E-02    1.5523223791557173E+01
Ga    9.6596369671535367E+00    1.9072383870888892E+00    1.5803918771915292E+01
N    7.9567594603570626E+00    4.6309287401087316E+00    2.4799989874848047E+00
Ga    8.1608039907905212E+00    2.7783984265527062E+00    3.2523229668479834E+00
N    8.0582757229658828E+00    2.8361963098010077E+00    5.2089754370303778E+00
Ga    8.0821866953986703E+00    4.7082741293582169E+00    5.7618310201990584E+00
N    8.0644425772330717E+00    4.6989603254630818E+00    7.7507629967802734E+00
Ga    8.0428412827384488E+00    2.8425327693266178E+00    8.3979727800480859E+00
N    8.0399855166175982E+00    2.8426403447761093E+00    1.0383976603097452E+01
Ga    8.0652486524759013E+00    4.7024695505714602E+00    1.1025359274263748E+01
N    8.0833483014828822E+00    4.7117689470752770E+00    1.3012945767539970E+01
Ga    8.0378616327713246E+00    2.8430658241095603E+00    1.3574787816728723E+01
N    8.0661189901076416E+00    2.8268706152748142E+00    1.5530750318947373E+01
Ga    7.8856830650634064E+00    4.5955433232908014E+00    1.6440640673283038E+01
N    6.4452751367149377E+00    7.4732560708810860E+00    2.5476673974266659E+00
Ga    6.4579711293815230E+00    5.7370477856915558E+00    3.2564980656071008E+00
N    6.4515749547416243E+00    5.6245468792783262E+00    5.2098603109850758E+00
Ga    6.4487136781464569E+00    7.4790854421593087E+00    5.8370394755118964E+00
N    6.4466129989386998E+00    7.4790474709857326E+00    7.8022021490403262E+00
Ga    6.4429313548155704E+00    5.6087915481317099E+00    8.3915184943875971E+00
N    6.4427381185011816E+00    5.6074056251938647E+00    1.0378486280039255E+01
Ga    6.4420143808986836E+00    7.4772951910923977E+00    1.0975267493034307E+01
N    6.4434211926649763E+00    7.4769154313135138E+00    1.2940987382935928E+01
Ga    6.4421662808716391E+00    5.6079674531624999E+00    1.3573717692852146E+01
N    6.4452204459902820E+00    5.6365864191943560E+00    1.5531023388150986E+01
Ga    6.4401337816843549E+00    7.4745349363733036E+00    1.5811493044422622E+01
N    4.7356450715082561E+00    1.0203780902794573E+01    2.4868774762545689E+00
Ga    4.9408435476854953E+00    8.3448022316004149E+00    3.2491253587253781E+00
N    4.8423356267364186E+00    8.4050853594306041E+00    5.2036746230599897E+00
Ga    4.8654103492259164E+00    1.0276240032781729E+01    5.7596345545498586E+00
N    4.8478349846565134E+00    1.0269829493227856E+01    7.7481002475086971E+00
Ga    4.8251491507938722E+00    8.4110354610692468E+00    8.3899278808645015E+00
N    4.8231253307741015E+00    8.4129658780335834E+00    1.0376512618823023E+01
Ga    4.8504208396420010E+00    1.0271617930371002E+01    1.1021245709692231E+01
N    4.8678730044983807E+00    1.0282389920506271E+01    1.3008220399404026E+01
Ga    4.8240607038331254E+00    8.4120845628909020E+00    1.3566749468418330E+01
N    4.8517555257011926E+00    8.3978323936661763E+00    1.5522733731188682E+01
Ga    4.6679328088088541E+00    1.0165945157870473E+01    1.6431402188069157E+01
O    3.3846165014390306E+00    5.4386931541686190E+00    1.6477437590817226E-01
H    2.4793697830309460E+00    5.4423031978003262E+00   -1.8737448841249124E-01
C    4.1824483001661426E+00    6.4182435341003092E+00   -5.3279436904068356E-01
H    3.6292262657734913E+00    7.3649308047861028E+00   -6.6474955972189664E-01
H    5.0633354873720258E+00    6.6191538757371795E+00    9.5960736407016980E-02
H    4.5000238115257529E+00    6.0395591957129700E+00   -1.5171506753905870E+00
     &END COORD
     &KIND C
       BASIS_SET DZVP-MOLOPT-SR-GTH-q4
       POTENTIAL GTH-PBE-q4
       &POTENTIAL
 2 2
  0.3384712400000000E+00 2 -0.8803673979999999E+01  0.1339210850000000E+01
 2
  0.3025757500000000E+00 1  0.9622486650000001E+01
  0.2915069400000000E+00 0
         # Potential name:  GTH-PBE-Q4  for symbol:  C
         # Potential read from the potential filename: GTH_POTENTIALS
       &END POTENTIAL
     &END KIND
     &KIND O
       BASIS_SET DZVP-MOLOPT-SR-GTH-q6
       POTENTIAL GTH-PBE-q6
       &POTENTIAL
 2 4
  0.2445543000000000E+00 2 -0.1666721480000000E+02  0.2487311320000000E+01
 2
  0.2209559200000000E+00 1  0.1833745811000000E+02
  0.2113324700000000E+00 0
         # Potential name:  GTH-PBE-Q6  for symbol:  O
         # Potential read from the potential filename: GTH_POTENTIALS
       &END POTENTIAL
     &END KIND
     &KIND H
       BASIS_SET DZVP-MOLOPT-SR-GTH-q1
       POTENTIAL GTH-PBE-q1
       &POTENTIAL
 1
  0.2000000000000000E+00 2 -0.4178900440000000E+01  0.7244633100000000E+00
 0
         # Potential name:  GTH-PBE-Q1  for symbol:  H
         # Potential read from the potential filename: GTH_POTENTIALS
       &END POTENTIAL
     &END KIND
     &KIND N
       BASIS_SET DZVP-MOLOPT-SR-GTH
       POTENTIAL GTH-PBE-q5
       &POTENTIAL
 2 3
  0.2837905100000000E+00 2 -0.1241522559000000E+02  0.1868095920000000E+01
 2
  0.2554050000000000E+00 1  0.1363026257000000E+02
  0.2454945300000000E+00 0
         # Potential name:  GTH-PBE-Q5  for symbol:  N
         # Potential read from the potential filename: GTH_POTENTIALS
       &END POTENTIAL
     &END KIND
     &KIND Ga
       BASIS_SET DZVP-MOLOPT-SR-GTH
       POTENTIAL GTH-PBE-q13
       &POTENTIAL
 2 1 10
  0.4900000000000000E+00 0
 3
  0.4167772300000000E+00 3  0.1047568975000000E+02 -0.4921768140000000E+01  0.8707055900000000E+00
  0.7770178090000000E+01 -0.2248152160000000E+01
  0.1784415450000000E+01
  0.5696265200000000E+00 2  0.1777985340000000E+01  0.1958597600000000E+00
 -0.2317443900000000E+00
  0.2381265000000000E+00 1 -0.1624868022000000E+02
         # Potential name:  GTH-PBE-Q13  for symbol:  GA
         # Potential read from the potential filename: GTH_POTENTIALS
       &END POTENTIAL
     &END KIND
     &TOPOLOGY
       NUMBER_OF_ATOMS  206
       MULTIPLE_UNIT_CELL  1 1 1
     &END TOPOLOGY
   &END SUBSYS
 &END FORCE_EVAL
