 # Version information for this restart file 
 # current date 2019-06-24 17:42:37.276
 # current working dir /scratch/rzk/rzk/GaN-carbene/443-adatoms-both-2x2/02-Methanol/02-O-GaSur
 # Program compiled at                              Sun Apr  7 00:48:11 EDT 2019
 # Program compiled on                          beluga2.int.ets1.calculquebec.ca
 # Program compiled for                        Beluga-Linux-x86-64-intel-openmpi
 # Source code revision number                                         svn:18619
 &GLOBAL
   PRINT_LEVEL  MEDIUM
   PROJECT_NAME TEST
   RUN_TYPE  GEO_OPT
 &END GLOBAL
 &MOTION
   &GEO_OPT
     MAX_ITER  500
     STEP_START_VAL  109
   &END GEO_OPT
 &END MOTION
 &FORCE_EVAL
   METHOD  QS
   STRESS_TENSOR  ANALYTICAL
   &DFT
     BASIS_SET_FILE_NAME BASIS_MOLOPT
     POTENTIAL_FILE_NAME GTH_POTENTIALS
     UKS  T
     SURFACE_DIPOLE_CORRECTION  T
     SURF_DIP_DIR  Z
     &SCF
       MAX_SCF  80
       EPS_SCF     5.0000000000000004E-06
       &OT  T
         PRECONDITIONER  FULL_ALL
       &END OT
       &OUTER_SCF  T
         OPTIMIZER  NONE
         EPS_SCF     5.0000000000000004E-06
         MAX_SCF  4
       &END OUTER_SCF
       &PRINT
         &RESTART  OFF
           BACKUP_COPIES  1
           &EACH
             JUST_ENERGY  0
             QS_SCF  0
             MD  20
           &END EACH
         &END RESTART
       &END PRINT
     &END SCF
     &QS
       EPS_DEFAULT     1.0000000000000000E-14
       METHOD  GPW
     &END QS
     &MGRID
       NGRIDS  5
       CUTOFF     1.2000000000000000E+03
     &END MGRID
     &XC
       DENSITY_CUTOFF     1.0000000000000000E-10
       GRADIENT_CUTOFF     1.0000000000000000E-10
       TAU_CUTOFF     1.0000000000000000E-10
       &XC_FUNCTIONAL  NO_SHORTCUT
         &PBE  T
         &END PBE
       &END XC_FUNCTIONAL
       &VDW_POTENTIAL
         POTENTIAL_TYPE  PAIR_POTENTIAL
         &PAIR_POTENTIAL
           R_CUTOFF     1.0000000000000004E+01
           TYPE  DFTD3
           PARAMETER_FILE_NAME dftd3.dat
           REFERENCE_FUNCTIONAL PBE
           EPS_CN     9.9999999999999995E-07
           CALCULATE_C9_TERM  T
           REFERENCE_C9_TERM  T
           LONG_RANGE_CORRECTION  F
           VERBOSE_OUTPUT  F
         &END PAIR_POTENTIAL
       &END VDW_POTENTIAL
     &END XC
   &END DFT
   &SUBSYS
     &CELL
       A     1.2864472766435110E+01    0.0000000000000000E+00    0.0000000000000000E+00
       B    -6.4322363581020028E+00    1.1140960178524473E+01    0.0000000000000000E+00
       C     0.0000000000000000E+00    0.0000000000000000E+00    3.2000000000000000E+01
       MULTIPLE_UNIT_CELL  1 1 1
       &CELL_REF
         A     1.2982353780853531E+01    0.0000000000000000E+00    0.0000000000000000E+00
         B    -6.4911768904267628E+00    1.1243048175136114E+01    0.0000000000000000E+00
         C     0.0000000000000000E+00    0.0000000000000000E+00    3.2000000000000000E+01
         MULTIPLE_UNIT_CELL  1 1 1
       &END CELL_REF
     &END CELL
     &COORD
N    7.5104682015365081E-03    2.0229373366015069E+00    2.4932480679023126E+00
Ga    7.6459784740682442E-03    4.6699832118210521E-02    2.8261343046306724E+00
N    1.0456646427110349E-02    4.5612185803032342E-02    4.9823691286120555E+00
Ga    1.3314992603062273E-02    1.8753951912710896E+00    5.7626441540228228E+00
N    1.0376561906071986E-02    1.8908740723158777E+00    7.7591945469240153E+00
Ga    9.7377202267692094E-03    4.5355532880459792E-02    8.4065457082386352E+00
N    9.5560629057674703E-03    4.5524206358493385E-02    1.0381150490796957E+01
Ga    9.2207983477678758E-03    1.8861657204867945E+00    1.1030857726229607E+01
N    8.9334349918189920E-03    1.8676663815638128E+00    1.3023894869116667E+01
Ga    4.5165959292277243E-03    5.1233010919861197E-02    1.3825699193772250E+01
N    3.3515144030910418E-03    5.0536012140365329E-02    1.6032954924758133E+01
Ga    8.4089062582091510E-03    2.1069969086710012E+00    1.6463877919372656E+01
Ga   -1.4410702797469022E-02    3.7387921231606600E+00    1.4448419192472086E+00
N   -1.4940836677969436E+00    4.6235487802419639E+00    2.4917768472051560E+00
Ga   -1.6989468624582751E+00    2.7719735777397818E+00    3.2608991401299448E+00
N   -1.6001154492915139E+00    2.8291398013990148E+00    5.2202778610433320E+00
Ga   -1.6195904092904778E+00    4.7030847103136990E+00    5.7624112945310939E+00
N   -1.6080965275208527E+00    4.6939121825856533E+00    7.7588535699103316E+00
Ga   -1.5875677762794338E+00    2.8370561915999417E+00    8.4000812703603422E+00
N   -1.5880233344792303E+00    2.8371442463804306E+00    1.0392893449072542E+01
Ga   -1.6127071172667984E+00    4.6958735817103960E+00    1.1031152073579172E+01
N   -1.6294088862712119E+00    4.7052765115201876E+00    1.3024184666468207E+01
Ga   -1.5877229558538657E+00    2.8375884426075202E+00    1.3585856934357766E+01
N   -1.6159089205671417E+00    2.8212231749350116E+00    1.5544760799540279E+01
Ga   -1.4226642781214840E+00    4.5854694433100027E+00    1.6463937077230987E+01
N    8.9220577444261429E-03    3.7595508546743197E+00    1.7613515775700641E+01
N   -3.2061138661457536E+00    7.5945188280139542E+00    2.4853524032916074E+00
Ga   -3.2051552587389120E+00    5.6122301633221090E+00    2.8234337635938198E+00
N   -3.2057656230353921E+00    5.6150655953884518E+00    4.9805828432902546E+00
Ga   -3.2062408981324428E+00    7.4440271227708470E+00    5.7591585335731015E+00
N   -3.2068411323207449E+00    7.4623128310409053E+00    7.7567452099434639E+00
Ga   -3.2062790639874446E+00    5.6165788777009729E+00    8.4066632205518275E+00
N   -3.2065666088829521E+00    5.6163389835153934E+00    1.0381151487758340E+01
Ga   -3.2069988386476145E+00    7.4551709372725767E+00    1.1031147596025811E+01
N   -3.2067054924616181E+00    7.4353330546131398E+00    1.3029134525545938E+01
Ga   -3.2049558960921316E+00    5.6094280606966391E+00    1.3826848721289695E+01
N   -3.2057327600386443E+00    5.6089967359029389E+00    1.6033119424577695E+01
Ga   -3.2063397658085497E+00    7.6255575763797827E+00    1.6418282036965973E+01
Ga   -3.2060149262673807E+00    9.3318372847080475E+00    1.4602864775719311E+00
N   -4.7086434968238375E+00    1.0195496591499163E+01    2.4880519911260039E+00
Ga   -4.9196153410233538E+00    8.3393702511593126E+00    3.2460888074789453E+00
N   -4.8178494257108540E+00    8.3982912581543889E+00    5.2088925116759404E+00
Ga   -4.8394381070924704E+00    1.0270881946735400E+01    5.7609570837875896E+00
N   -4.8241568715509624E+00    1.0262376923097868E+01    7.7580099481093079E+00
Ga   -4.8051955188513986E+00    8.4063933744798653E+00    8.4000545074828850E+00
N   -4.8039171661304056E+00    8.4074454840050699E+00    1.0394748537965896E+01
Ga   -4.8299956084424851E+00    1.0266962656455206E+01    1.1030457855947974E+01
N   -4.8474418774798806E+00    1.0277487641220761E+01    1.3028561786730307E+01
Ga   -4.8035793178293691E+00    8.4083133107435746E+00    1.3579570886652208E+01
N   -4.8269588008647126E+00    8.3952332553124798E+00    1.5551775799414223E+01
Ga   -4.6823521501557464E+00    1.0183153488078984E+01    1.6418324929993620E+01
N   -3.2143740889962906E+00    9.3255367999289707E+00    1.7539974947420518E+01
N    3.2270937376599051E+00    1.9052233372616585E+00    2.5712113166204706E+00
Ga    3.2258176210080736E+00    1.6296997327612534E-01    3.2525538871778701E+00
N    3.2259543546925342E+00    4.6920862361469973E-02    5.2141214929350426E+00
Ga    3.2251821440351360E+00    1.9057574137838371E+00    5.8367176031103876E+00
N    3.2252635557489548E+00    1.9022519758864656E+00    7.8105886791914543E+00
Ga    3.2252361454369054E+00    3.4558103491265292E-02    8.3979038671520829E+00
N    3.2249819159507784E+00    3.2580813705642614E-02    1.0392820734624664E+01
Ga    3.2243959559371214E+00    1.9024518646821655E+00    1.0987733203262673E+01
N    3.2255906389212012E+00    1.9009921441748263E+00    1.2961389057726675E+01
Ga    3.2255589517520376E+00    3.3707847159760933E-02    1.3579335604643985E+01
N    3.2275786872637435E+00    5.9637562993421329E-02    1.5550268554750360E+01
Ga    3.2241591341604292E+00    1.9057271237350930E+00    1.5825882109444059E+01
N    1.4970404502743071E+00    4.6231614530912104E+00    2.4534479208527724E+00
Ga    1.7184381079980300E+00    2.7822630912580792E+00    3.2456747035533993E+00
N    1.6185734207826392E+00    2.8330793919682784E+00    5.2084511922540839E+00
Ga    1.6582313899996270E+00    4.7101850622979669E+00    5.7569174552861329E+00
N    1.6251111439114709E+00    4.6918124893145716E+00    7.7614016683734919E+00
Ga    1.6080485155201218E+00    2.8378374722112891E+00    8.3999621903946426E+00
N    1.6063376491410184E+00    2.8368650298741898E+00    1.0393749442495388E+01
Ga    1.6322737093812594E+00    4.6964905022639476E+00    1.1031423806377259E+01
N    1.6483575011372511E+00    4.7059285889230615E+00    1.3025426851883433E+01
Ga    1.6057079388972531E+00    2.8380738517307083E+00    1.3585878339345333E+01
N    1.6339226870562544E+00    2.8195787834618637E+00    1.5544693110490650E+01
Ga    1.4430116867958080E+00    4.5873075714926985E+00    1.6463674790979027E+01
N    1.7915930152346844E-02    7.4686966298061179E+00    2.5593349018949532E+00
Ga    1.6510261013634245E-02    5.7258845206697835E+00    3.2478854929800125E+00
N    1.2115539948937963E-02    5.6157302070733799E+00    5.2092403292400276E+00
Ga    1.2867513053066763E-02    7.4701352216486336E+00    5.8382830495772984E+00
N    9.3896249344999055E-03    7.4721498268089830E+00    7.8113728386234049E+00
Ga    1.0937004475833198E-02    5.6036673429389925E+00    8.4001723762747620E+00
N    8.9322176794557322E-03    5.6038119473616552E+00    1.0393854656618206E+01
Ga    8.6485691252412619E-03    7.4724733375498413E+00    1.0987875322009231E+01
N    7.9390009400564995E-03    7.4742019744333819E+00    1.2961635565346123E+01
Ga    9.3950023032226427E-03    5.6027123343246759E+00    1.3586211699034992E+01
N    7.6334419825483425E-03    5.6370187804219309E+00    1.5545004276710948E+01
Ga    1.0696238817062191E-02    7.4710485450211879E+00    1.5826037506465900E+01
N   -1.7039116261581637E+00    1.0195756432048247E+01    2.4885805851966065E+00
Ga   -1.4926891801810809E+00    8.3395188032927230E+00    3.2465206299489529E+00
N   -1.5945648511216171E+00    8.3982791403603123E+00    5.2092797756823392E+00
Ga   -1.5730654848776700E+00    1.0270930520795883E+01    5.7610272347992284E+00
N   -1.5894072551022100E+00    1.0262471552095885E+01    7.7580036385931654E+00
Ga   -1.6079510239711174E+00    8.4059239721081038E+00    8.3989069175207280E+00
N   -1.6106291453092880E+00    8.4074789293521945E+00    1.0393467418714851E+01
Ga   -1.5844635685097854E+00    1.0266715114265967E+01    1.1029170369989046E+01
N   -1.5669259994501703E+00    1.0276885617237896E+01    1.3026987069493181E+01
Ga   -1.6092645018364751E+00    8.4079734234051937E+00    1.3579397600680519E+01
N   -1.5859737142004342E+00    8.3971324237350462E+00    1.5550427042863431E+01
Ga   -1.7383308339877506E+00    1.0178272882586487E+01    1.6418778898645325E+01
N    6.4449848870579300E+00    2.0229489075947993E+00    2.4933773028956274E+00
Ga    6.4443919833848025E+00    4.6138063477144789E-02    2.8266716347257481E+00
N    6.4419417734092761E+00    4.5539616852310540E-02    4.9824984569092532E+00
Ga    6.4399144183778416E+00    1.8747659926100948E+00    5.7643368414503797E+00
N    6.4413496255688267E+00    1.8906557379403108E+00    7.7605335823568291E+00
Ga    6.4411639181746780E+00    4.4912552526309761E-02    8.4065652625278435E+00
N    6.4411648816607983E+00    4.5215499729913684E-02    1.0381177711155134E+01
Ga    6.4406418703383608E+00    1.8858244088694303E+00    1.1029746442750094E+01
N    6.4417058526720457E+00    1.8669904116419194E+00    1.3024123022895424E+01
Ga    6.4452452112694676E+00    4.8402302644235257E-02    1.3821599573306939E+01
N    6.4454092600534789E+00    4.7915636185804883E-02    1.6032171431529722E+01
Ga    6.4431887574351778E+00    2.0931172491386105E+00    1.6446391414929622E+01
Ga    6.4583022481142045E+00    3.7436608230732165E+00    1.4553184463821947E+00
N    4.9609002414020846E+00    4.6199128230815782E+00    2.4740423310469968E+00
Ga    4.7342064799580825E+00    2.7791164111510502E+00    3.2529828894085595E+00
N    4.8340050018121090E+00    2.8313824374338195E+00    5.2136395068394457E+00
Ga    4.7954841289185399E+00    4.7098396653697501E+00    5.7580466959192034E+00
N    4.8263573811130760E+00    4.6918749694674799E+00    7.7625320580433943E+00
Ga    4.8427638577847754E+00    2.8377149761468217E+00    8.3997765742613577E+00
N    4.8434321945035741E+00    2.8366152435703902E+00    1.0394283366363068E+01
Ga    4.8176957593871830E+00    4.6963324326436409E+00    1.1031447141546245E+01
N    4.8013759330631167E+00    4.7062211290336631E+00    1.3027301680816297E+01
Ga    4.8447457967347978E+00    2.8374624091697478E+00    1.3582962599869871E+01
N    4.8192491204155985E+00    2.8175543287695812E+00    1.5546180707649757E+01
Ga    4.9897142612703398E+00    4.5976918557858433E+00    1.6445647658969904E+01
N    6.4321046585062609E+00    3.7613100736514773E+00    1.7582671025563187E+01
N    3.2254733126125301E+00    7.6124137314316229E+00    2.4703007518818492E+00
Ga    3.2331211804963407E+00    5.6114092661998987E+00    2.5686812989952119E+00
N    3.2273108028866706E+00    5.6146001583447998E+00    4.9904962611116899E+00
Ga    3.2267609489401483E+00    7.4264756907554679E+00    5.7561548827597884E+00
N    3.2258710769425663E+00    7.4639552062247851E+00    7.7614185962470712E+00
Ga    3.2254759530199566E+00    5.6160297688074481E+00    8.4038991147652382E+00
N    3.2253382273905378E+00    5.6159827573044971E+00    1.0381248790705357E+01
Ga    3.2248136129484339E+00    7.4547227728317393E+00    1.1031548959636133E+01
N    3.2251018571908974E+00    7.4361311394773137E+00    1.3027563086011101E+01
Ga    3.2226776187833033E+00    5.6144840427131077E+00    1.3833809340691184E+01
N    3.2230670456665966E+00    5.6145122945107557E+00    1.6032634971137689E+01
Ga    3.2255291614168944E+00    7.6505593730348771E+00    1.6443380623369393E+01
Ga    3.2246189262059759E+00    9.3624891002319739E+00    1.4473416906333123E+00
N    1.7230079147177138E+00    1.0201006103861193E+01    2.4975594640368621E+00
Ga    1.5268701606790127E+00    8.3395301851962351E+00    3.2515037986907172E+00
N    1.6180653357767509E+00    8.3990487004025152E+00    5.2126180225742331E+00
Ga    1.5930294720870695E+00    1.0268821297008603E+01    5.7633224433627861E+00
N    1.6070919415357265E+00    1.0262949061670916E+01    7.7598810483302838E+00
Ga    1.6285450282462683E+00    8.4054747183235925E+00    8.3995843476276519E+00
N    1.6274233565234952E+00    8.4070106097925485E+00    1.0394254283322097E+01
Ga    1.6028483727780802E+00    1.0265782685545826E+01    1.1029583594347327E+01
N    1.5864748199142922E+00    1.0276423506902519E+01    1.3024258561541128E+01
Ga    1.6283934005236629E+00    8.4082691623504555E+00    1.3582703805427467E+01
N    1.5987037702926752E+00    8.3958494006594453E+00    1.5546468157704968E+01
Ga    1.7817539153821729E+00    1.0164988460145743E+01    1.6444333810939302E+01
N    3.2223089135527512E+00    9.3197492923422480E+00    1.7578757395135295E+01
N    9.6591715915631795E+00    1.9014404350732077E+00    2.5752374574581904E+00
Ga    9.6591242169811213E+00    1.6204857381651247E-01    3.2626645817688802E+00
N    9.6585985956312079E+00    4.7587302550045917E-02    5.2219051668523422E+00
Ga    9.6582360436144334E+00    1.9022086373670177E+00    5.8472661695325181E+00
N    9.6579229538791758E+00    1.9022354475900409E+00    7.8172038803024106E+00
Ga    9.6577266894327849E+00    3.2633731173577873E-02    8.3999680541568704E+00
N    9.6575273290324457E+00    3.2539456720142135E-02    1.0393120912047028E+01
Ga    9.6572458563850319E+00    1.9023506723162045E+00    1.0987035257251266E+01
N    9.6573321326254433E+00    1.9022831178846020E+00    1.2959424917200803E+01
Ga    9.6576470604213132E+00    3.3808788121194762E-02    1.3581819505786326E+01
N    9.6575892357611526E+00    6.3680045298973018E-02    1.5543831616816727E+01
Ga    9.6589456534637232E+00    1.9035793576404536E+00    1.5822383548977541E+01
N    7.9472855434135248E+00    4.6239564898711505E+00    2.4906847050238610E+00
Ga    8.1525250531909315E+00    2.7718701958966792E+00    3.2598388298701582E+00
N    8.0524417101317169E+00    2.8293174363597062E+00    5.2197228727682718E+00
Ga    8.0738714108077652E+00    4.7025773776728554E+00    5.7647392172649088E+00
N    8.0599303675355607E+00    4.6934601681968120E+00    7.7606661517247364E+00
Ga    8.0391494055932249E+00    2.8366556506813021E+00    8.4010373342122122E+00
N    8.0380388879752989E+00    2.8374287622075078E+00    1.0393728380076416E+01
Ga    8.0641136776566746E+00    4.6964658926775940E+00    1.1030615931975046E+01
N    8.0812085842259354E+00    4.7055359372319163E+00    1.3024878035597569E+01
Ga    8.0393083344148319E+00    2.8371077806162504E+00    1.3582055224198854E+01
N    8.0652723532706592E+00    2.8217933708681904E+00    1.5543541929650408E+01
Ga    7.8844738522153008E+00    4.5903361308498134E+00    1.6447202817149201E+01
N    6.4345516105056904E+00    7.4664244170753049E+00    2.5587080717732125E+00
Ga    6.4410717057444193E+00    5.7263341808825583E+00    3.2562687944619566E+00
N    6.4427455196717274E+00    5.6165722234244413E+00    5.2150953927738657E+00
Ga    6.4394994169218549E+00    7.4713397670090158E+00    5.8406971073094134E+00
N    6.4418952804621004E+00    7.4726114415310727E+00    7.8133293060009192E+00
Ga    6.4403485586450291E+00    5.6035957879402893E+00    8.4008322248438283E+00
N    6.4415885884916468E+00    5.6037642217495414E+00    1.0395091102410895E+01
Ga    6.4406623217766388E+00    7.4727184809032829E+00    1.0988149155026781E+01
N    6.4426626724302247E+00    7.4738084995774745E+00    1.2962505378259236E+01
Ga    6.4418991859579045E+00    5.6026478426277766E+00    1.3582954546226054E+01
N    6.4463129752631785E+00    5.6358558599922368E+00    1.5545603428264400E+01
Ga    6.4402874093243803E+00    7.4724985161138777E+00    1.5827441355090725E+01
N    4.7294086971147822E+00    1.0200648094746429E+01    2.4953667158665414E+00
Ga    4.9262262372801420E+00    8.3411006333459436E+00    3.2502543883019230E+00
N    4.8351086680838424E+00    8.3993113665067796E+00    5.2118105671368475E+00
Ga    4.8596073335039343E+00    1.0269019390727616E+01    5.7635990189698854E+00
N    4.8440315275836685E+00    1.0262877711897746E+01    7.7601325652600410E+00
Ga    4.8223739893517328E+00    8.4057771985839143E+00    8.4006501956087760E+00
N    4.8224783095875914E+00    8.4075250360183951E+00    1.0395100646274416E+01
Ga    4.8480085195309961E+00    1.0266618668022160E+01    1.1030254442006283E+01
N    4.8644498849381241E+00    1.0276937615297751E+01    1.3024772780315901E+01
Ga    4.8219432573603962E+00    8.4086466792366945E+00    1.3582277730087162E+01
N    4.8522643799363454E+00    8.3959530611583162E+00    1.5545399472937184E+01
Ga    4.6676989375377662E+00    1.0164347784365336E+01    1.6444891741395249E+01
O    3.2143758807405138E+00    5.5739311763439252E+00    2.0452530604801991E-01
H    2.3094435774419924E+00    5.8560297389975462E+00   -1.4209346418024590E-02
C    4.1640361202922751E+00    6.4061688376182024E+00   -5.0318870044754327E-01
H    3.7886602845771500E+00    7.4338391530390835E+00   -6.2644719923671222E-01
H    5.0770465470074724E+00    6.4511573653689993E+00    1.0641364701276612E-01
H    4.3817349401779628E+00    5.9751324157751817E+00   -1.4897793497455067E+00
     &END COORD
     &KIND C
       BASIS_SET DZVP-MOLOPT-SR-GTH-q4
       POTENTIAL GTH-PBE-q4
       &POTENTIAL
 2 2
  0.3384712400000000E+00 2 -0.8803673979999999E+01  0.1339210850000000E+01
 2
  0.3025757500000000E+00 1  0.9622486650000001E+01
  0.2915069400000000E+00 0
         # Potential name:  GTH-PBE-Q4  for symbol:  C
         # Potential read from the potential filename: GTH_POTENTIALS
       &END POTENTIAL
     &END KIND
     &KIND O
       BASIS_SET DZVP-MOLOPT-SR-GTH-q6
       POTENTIAL GTH-PBE-q6
       &POTENTIAL
 2 4
  0.2445543000000000E+00 2 -0.1666721480000000E+02  0.2487311320000000E+01
 2
  0.2209559200000000E+00 1  0.1833745811000000E+02
  0.2113324700000000E+00 0
         # Potential name:  GTH-PBE-Q6  for symbol:  O
         # Potential read from the potential filename: GTH_POTENTIALS
       &END POTENTIAL
     &END KIND
     &KIND H
       BASIS_SET DZVP-MOLOPT-SR-GTH-q1
       POTENTIAL GTH-PBE-q1
       &POTENTIAL
 1
  0.2000000000000000E+00 2 -0.4178900440000000E+01  0.7244633100000000E+00
 0
         # Potential name:  GTH-PBE-Q1  for symbol:  H
         # Potential read from the potential filename: GTH_POTENTIALS
       &END POTENTIAL
     &END KIND
     &KIND N
       BASIS_SET DZVP-MOLOPT-SR-GTH
       POTENTIAL GTH-PBE-q5
       &POTENTIAL
 2 3
  0.2837905100000000E+00 2 -0.1241522559000000E+02  0.1868095920000000E+01
 2
  0.2554050000000000E+00 1  0.1363026257000000E+02
  0.2454945300000000E+00 0
         # Potential name:  GTH-PBE-Q5  for symbol:  N
         # Potential read from the potential filename: GTH_POTENTIALS
       &END POTENTIAL
     &END KIND
     &KIND Ga
       BASIS_SET DZVP-MOLOPT-SR-GTH
       POTENTIAL GTH-PBE-q13
       &POTENTIAL
 2 1 10
  0.4900000000000000E+00 0
 3
  0.4167772300000000E+00 3  0.1047568975000000E+02 -0.4921768140000000E+01  0.8707055900000000E+00
  0.7770178090000000E+01 -0.2248152160000000E+01
  0.1784415450000000E+01
  0.5696265200000000E+00 2  0.1777985340000000E+01  0.1958597600000000E+00
 -0.2317443900000000E+00
  0.2381265000000000E+00 1 -0.1624868022000000E+02
         # Potential name:  GTH-PBE-Q13  for symbol:  GA
         # Potential read from the potential filename: GTH_POTENTIALS
       &END POTENTIAL
     &END KIND
     &TOPOLOGY
       NUMBER_OF_ATOMS  206
       MULTIPLE_UNIT_CELL  1 1 1
     &END TOPOLOGY
   &END SUBSYS
 &END FORCE_EVAL
