 # Version information for this restart file 
 # current date 2019-06-24 14:52:00.599
 # current working dir /scratch/rzk/rzk/GaN-carbene/443-adatoms-both-2x2/02-Methanol/02-O-GaSur
 # Program compiled at                              Sun Apr  7 00:48:11 EDT 2019
 # Program compiled on                          beluga2.int.ets1.calculquebec.ca
 # Program compiled for                        Beluga-Linux-x86-64-intel-openmpi
 # Source code revision number                                         svn:18619
 &GLOBAL
   PRINT_LEVEL  MEDIUM
   PROJECT_NAME TEST
   RUN_TYPE  GEO_OPT
 &END GLOBAL
 &MOTION
   &GEO_OPT
     MAX_ITER  500
     STEP_START_VAL  58
   &END GEO_OPT
 &END MOTION
 &FORCE_EVAL
   METHOD  QS
   STRESS_TENSOR  ANALYTICAL
   &DFT
     BASIS_SET_FILE_NAME BASIS_MOLOPT
     POTENTIAL_FILE_NAME GTH_POTENTIALS
     UKS  T
     SURFACE_DIPOLE_CORRECTION  T
     SURF_DIP_DIR  Z
     &SCF
       MAX_SCF  80
       EPS_SCF     5.0000000000000004E-06
       &OT  T
         PRECONDITIONER  FULL_ALL
       &END OT
       &OUTER_SCF  T
         OPTIMIZER  NONE
         EPS_SCF     5.0000000000000004E-06
         MAX_SCF  4
       &END OUTER_SCF
       &PRINT
         &RESTART  OFF
           BACKUP_COPIES  1
           &EACH
             JUST_ENERGY  0
             QS_SCF  0
             MD  20
           &END EACH
         &END RESTART
       &END PRINT
     &END SCF
     &QS
       EPS_DEFAULT     1.0000000000000000E-14
       METHOD  GPW
     &END QS
     &MGRID
       NGRIDS  5
       CUTOFF     1.2000000000000000E+03
     &END MGRID
     &XC
       DENSITY_CUTOFF     1.0000000000000000E-10
       GRADIENT_CUTOFF     1.0000000000000000E-10
       TAU_CUTOFF     1.0000000000000000E-10
       &XC_FUNCTIONAL  NO_SHORTCUT
         &PBE  T
         &END PBE
       &END XC_FUNCTIONAL
       &VDW_POTENTIAL
         POTENTIAL_TYPE  PAIR_POTENTIAL
         &PAIR_POTENTIAL
           R_CUTOFF     1.0000000000000004E+01
           TYPE  DFTD3
           PARAMETER_FILE_NAME dftd3.dat
           REFERENCE_FUNCTIONAL PBE
           EPS_CN     9.9999999999999995E-07
           CALCULATE_C9_TERM  T
           REFERENCE_C9_TERM  T
           LONG_RANGE_CORRECTION  F
           VERBOSE_OUTPUT  F
         &END PAIR_POTENTIAL
       &END VDW_POTENTIAL
     &END XC
   &END DFT
   &SUBSYS
     &CELL
       A     1.2864472766435110E+01    0.0000000000000000E+00    0.0000000000000000E+00
       B    -6.4322363581020028E+00    1.1140960178524473E+01    0.0000000000000000E+00
       C     0.0000000000000000E+00    0.0000000000000000E+00    3.2000000000000000E+01
       MULTIPLE_UNIT_CELL  1 1 1
       &CELL_REF
         A     1.2982353780853531E+01    0.0000000000000000E+00    0.0000000000000000E+00
         B    -6.4911768904267628E+00    1.1243048175136114E+01    0.0000000000000000E+00
         C     0.0000000000000000E+00    0.0000000000000000E+00    3.2000000000000000E+01
         MULTIPLE_UNIT_CELL  1 1 1
       &END CELL_REF
     &END CELL
     &COORD
N    9.8541539243283110E-03    2.0229596208368341E+00    2.4926171098182328E+00
Ga    9.7815375727385110E-03    4.7642246937782906E-02    2.8276214453117552E+00
N    1.1791929599757904E-02    4.5762598705980248E-02    4.9822612107198117E+00
Ga    1.5072551598523238E-02    1.8763488440208325E+00    5.7624548925266801E+00
N    1.1045424611043814E-02    1.8912405521748337E+00    7.7588074014217510E+00
Ga    9.8794642024774039E-03    4.5987667044266586E-02    8.4069984954193160E+00
N    1.0042818012359324E-02    4.6293886562698228E-02    1.0381781253903192E+01
Ga    9.5528137853563462E-03    1.8868250809612586E+00    1.1032538665149914E+01
N    1.0502298171998568E-02    1.8683327982560092E+00    1.3026104821178635E+01
Ga    7.1347397268816922E-03    5.1381219162686134E-02    1.3826955454237403E+01
N    6.9817666032237838E-03    5.1580691646738536E-02    1.6033705629106301E+01
Ga    1.2789083231703795E-02    2.1100849549540261E+00    1.6469010742631383E+01
Ga   -1.4414186503062342E-02    3.7380407696124958E+00    1.4386515315496540E+00
N   -1.4921280650251263E+00    4.6240013965692839E+00    2.4913727520708320E+00
Ga   -1.6955045450866875E+00    2.7728862685082682E+00    3.2603404122545538E+00
N   -1.5988565681288305E+00    2.8293944682703134E+00    5.2199166731416149E+00
Ga   -1.6175502754738438E+00    4.7035974602263906E+00    5.7621866980376089E+00
N   -1.6076357325586910E+00    4.6946177509981641E+00    7.7584918259396281E+00
Ga   -1.5868714276474438E+00    2.8376621938515179E+00    8.4002069742908461E+00
N   -1.5873755332114567E+00    2.8379611365908062E+00    1.0393000147439709E+01
Ga   -1.6125051407235165E+00    4.6964404995050311E+00    1.1032912161651337E+01
N   -1.6282454098737658E+00    4.7060916188779194E+00    1.3026477529853871E+01
Ga   -1.5867252987737179E+00    2.8378964096260977E+00    1.3587770270416314E+01
N   -1.6123140450197664E+00    2.8215683078567650E+00    1.5547168303235036E+01
Ga   -1.4181149033098281E+00    4.5859365758867785E+00    1.6468729092186042E+01
N    9.2889973402897411E-03    3.7595552987627658E+00    1.7615832105730480E+01
N   -3.2040812497850317E+00    7.5948991751022623E+00    2.4857304775213502E+00
Ga   -3.2025378005483742E+00    5.6121321199625767E+00    2.8248443652229454E+00
N   -3.2045257377903473E+00    5.6155139102966958E+00    4.9805810142912526E+00
Ga   -3.2050785304584721E+00    7.4443820877940485E+00    5.7603268986364862E+00
N   -3.2065167863401998E+00    7.4628893645391825E+00    7.7574466107905540E+00
Ga   -3.2059136891209890E+00    5.6168353948887120E+00    8.4073056755356319E+00
N   -3.2061078284919367E+00    5.6169757497549799E+00    1.0381936329113676E+01
Ga   -3.2065672545425019E+00    7.4559300113283840E+00    1.1031887065593756E+01
N   -3.2046503024479862E+00    7.4362848698750019E+00    1.3029334117363067E+01
Ga   -3.2040562784484048E+00    5.6105513106737304E+00    1.3829100262141290E+01
N   -3.2029068410622452E+00    5.6097858093814077E+00    1.6033929473061221E+01
Ga   -3.2020071470596867E+00    7.6227579985135536E+00    1.6420344068234339E+01
Ga   -3.2034201020779132E+00    9.3320764160542478E+00    1.4653200489318403E+00
N   -4.7064554434423265E+00    1.0195717822945845E+01    2.4880663389521729E+00
Ga   -4.9180873152366678E+00    8.3394338966714194E+00    3.2471289434776915E+00
N   -4.8168758413226742E+00    8.3984553341271067E+00    5.2093884539512922E+00
Ga   -4.8381779379792844E+00    1.0271213405838028E+01    5.7618785089123792E+00
N   -4.8237409799595978E+00    1.0262858521807059E+01    7.7584945594655519E+00
Ga   -4.8049078744864246E+00    8.4069803180125415E+00    8.4012773158887910E+00
N   -4.8034107770034558E+00    8.4080887537223514E+00    1.0395336782410077E+01
Ga   -4.8293086543048567E+00    1.0267442396851193E+01    1.1031112628103225E+01
N   -4.8451033209921510E+00    1.0278165369528693E+01    1.3028713184671384E+01
Ga   -4.8013174631541249E+00    8.4091783941423071E+00    1.3580976582371617E+01
N   -4.8198017329521088E+00    8.3987609774065515E+00    1.5554061397143103E+01
Ga   -4.6805720760895078E+00    1.0186171500849889E+01    1.6420345406273444E+01
N   -3.2124019050970376E+00    9.3245815085864105E+00    1.7552892085934296E+01
N    3.2290417184348441E+00    1.9059832908948644E+00    2.5709585957036087E+00
Ga    3.2273496374345094E+00    1.6454746466850201E-01    3.2536765333392568E+00
N    3.2270909308493283E+00    4.7576643222825281E-02    5.2145168510298250E+00
Ga    3.2259861884270467E+00    1.9070771432326212E+00    5.8371739421067677E+00
N    3.2259282523543513E+00    1.9030483085055783E+00    7.8106593025163571E+00
Ga    3.2256016504746605E+00    3.5344715913118996E-02    8.3986726463574719E+00
N    3.2256194900259718E+00    3.3343964744202134E-02    1.0393430681286274E+01
Ga    3.2254261661931980E+00    1.9029436746429618E+00    1.0989715843646430E+01
N    3.2274619452650781E+00    1.9014517364401591E+00    1.2962904675308772E+01
Ga    3.2276741971682945E+00    3.4254221173581248E-02    1.3579806274729705E+01
N    3.2308001344734780E+00    5.6970563705941564E-02    1.5550558225248830E+01
Ga    3.2266034993771533E+00    1.9054072412452285E+00    1.5827289990517883E+01
N    1.4999993178432693E+00    4.6236288418519402E+00    2.4473945024846291E+00
Ga    1.7200374207552571E+00    2.7843668381076103E+00    3.2439253604044156E+00
N    1.6198523150528590E+00    2.8342219144195342E+00    5.2069558931255164E+00
Ga    1.6602335198366565E+00    4.7110080447410070E+00    5.7590058949920904E+00
N    1.6253774494828090E+00    4.6921779352551845E+00    7.7633022510929894E+00
Ga    1.6082848673473507E+00    2.8382598847301002E+00    8.4008018864449703E+00
N    1.6070712661327688E+00    2.8373232630749619E+00    1.0394938804038549E+01
Ga    1.6334526172092410E+00    4.6974600368826449E+00    1.1033101563679711E+01
N    1.6503452815509498E+00    4.7067713786727055E+00    1.3027424633145039E+01
Ga    1.6077658319147703E+00    2.8388143592693349E+00    1.3587616634171233E+01
N    1.6379293634195393E+00    2.8207301031239029E+00    1.5545853856749602E+01
Ga    1.4442895541110841E+00    4.5861838658901926E+00    1.6468522394957517E+01
N    1.9694570086846580E-02    7.4685583332348910E+00    2.5594714736808499E+00
Ga    2.0001483460414183E-02    5.7245997252840928E+00    3.2457876373157815E+00
N    1.4119151501235855E-02    5.6156947237790993E+00    5.2076621832169767E+00
Ga    1.4774440664704826E-02    7.4697345099330450E+00    5.8387078470297027E+00
N    1.0289545285526133E-02    7.4727769264697361E+00    7.8115341491431192E+00
Ga    1.1228691978282039E-02    5.6040712121388347E+00    8.4009889208089223E+00
N    9.3147256373481407E-03    5.6047275619577697E+00    1.0395064396816563E+01
Ga    9.0587022187099044E-03    7.4735911084354587E+00    1.0989609936008005E+01
N    9.4382122017491049E-03    7.4751707921004860E+00    1.2963341483286783E+01
Ga    1.1277680633694014E-02    5.6031981481928117E+00    1.3588324274579858E+01
N    1.2004345519228174E-02    5.6381475520663678E+00    1.5546946984926459E+01
Ga    1.2222296603845283E-02    7.4716820903260182E+00    1.5827124867253533E+01
N   -1.7018858692128329E+00    1.0196053960817437E+01    2.4894782769070902E+00
Ga   -1.4899967854355745E+00    8.3389502737882957E+00    3.2480874505342925E+00
N   -1.5931649485262105E+00    8.3983891119789291E+00    5.2100375877242762E+00
Ga   -1.5723750959514031E+00    1.0271040263257017E+01    5.7620718694511259E+00
N   -1.5887177663389582E+00    1.0263250161126390E+01    7.7586189503441343E+00
Ga   -1.6073644732163237E+00    8.4064799667889769E+00    8.3995332846884256E+00
N   -1.6100879236162358E+00    8.4082775554139939E+00    1.0394011367898971E+01
Ga   -1.5835979092903048E+00    1.0267625238179098E+01    1.1029820876488097E+01
N   -1.5655052456176193E+00    1.0277434812516265E+01    1.3026652834815541E+01
Ga   -1.6078398599919141E+00    8.4092181264751851E+00    1.3580116584671227E+01
N   -1.5855649409513066E+00    8.4000819673869369E+00    1.5551049501976019E+01
Ga   -1.7344854598725015E+00    1.0179668327367430E+01    1.6420280081513294E+01
N    6.4473001363854783E+00    2.0240093429814183E+00    2.4942227991360766E+00
Ga    6.4465106284770499E+00    4.6566025255166420E-02    2.8287188401180723E+00
N    6.4431666830760488E+00    4.5737395998135408E-02    4.9825753833274238E+00
Ga    6.4408203575030054E+00    1.8756702255303592E+00    5.7650456270512205E+00
N    6.4418604872186949E+00    1.8911157406522787E+00    7.7609059061321952E+00
Ga    6.4420185676748609E+00    4.5660075485491058E-02    8.4076108619243275E+00
N    6.4421026836837614E+00    4.6242964774455629E-02    1.0382241860274089E+01
Ga    6.4416269199720837E+00    1.8866417543513059E+00    1.1032176967189686E+01
N    6.4437515696268726E+00    1.8679854026988412E+00    1.3026207328888637E+01
Ga    6.4460505288879144E+00    4.9538366983755626E-02    1.3822455513485330E+01
N    6.4476990612371612E+00    4.9260880902308658E-02    1.6033564004163281E+01
Ga    6.4463009518072090E+00    2.0978989306284719E+00    1.6452680746807271E+01
Ga    6.4614685450252853E+00    3.7440687688202607E+00    1.4581813403245123E+00
N    4.9624544827213795E+00    4.6212292148205067E+00    2.4705289606997978E+00
Ga    4.7349835089467858E+00    2.7802988357933995E+00    3.2538482898254495E+00
N    4.8353266392703054E+00    2.8323940588033203E+00    5.2136780987399742E+00
Ga    4.7957929096461411E+00    4.7107968333492991E+00    5.7610254350147976E+00
N    4.8275732630211436E+00    4.6921781371280069E+00    7.7650389564186879E+00
Ga    4.8435946625022082E+00    2.8381762267967803E+00    8.4012695418875172E+00
N    4.8442285712783875E+00    2.8371379136160915E+00    1.0395821858595252E+01
Ga    4.8185109596669333E+00    4.6971676120029553E+00    1.1033666087874158E+01
N    4.8030844524746907E+00    4.7067546099593125E+00    1.3029449069060449E+01
Ga    4.8469036551920412E+00    2.8382925665168299E+00    1.3585978577794542E+01
N    4.8201337695524069E+00    2.8177411586731549E+00    1.5548914934096031E+01
Ga    4.9958867340314885E+00    4.5965399664030420E+00    1.6451831502261832E+01
N    6.4362555740931784E+00    3.7613370765892209E+00    1.7587485036395158E+01
N    3.2281727697309770E+00    7.6119369939502590E+00    2.4656322183642052E+00
Ga    3.2343402565143093E+00    5.6113006335609619E+00    2.5439811881470180E+00
N    3.2288441144583131E+00    5.6151322181267922E+00    4.9986815243354465E+00
Ga    3.2280230618020682E+00    7.4258000627510743E+00    5.7592429379489873E+00
N    3.2266052385449004E+00    7.4652919202410555E+00    7.7640131954181779E+00
Ga    3.2261546936522132E+00    5.6167267869449518E+00    8.4049303991522066E+00
N    3.2262749932483965E+00    5.6168222387103057E+00    1.0382448677619372E+01
Ga    3.2257557471266796E+00    7.4552699344017812E+00    1.1033527099662400E+01
N    3.2266701450368065E+00    7.4360926718110845E+00    1.3030081219888784E+01
Ga    3.2250931120694908E+00    5.6144758031173776E+00    1.3838737311158505E+01
N    3.2263268617476637E+00    5.6147260635970051E+00    1.6036750223891488E+01
Ga    3.2290681607466989E+00    7.6489558013537096E+00    1.6445295985174894E+01
Ga    3.2267971764102352E+00    9.3634196416591084E+00    1.4518196397366776E+00
N    1.7260538308292497E+00    1.0200580800899994E+01    2.4982792923712447E+00
Ga    1.5287976156958474E+00    8.3375193954098279E+00    3.2518866607950088E+00
N    1.6200380455777184E+00    8.3989420204915799E+00    5.2122658366732812E+00
Ga    1.5945921184248759E+00    1.0268318574852669E+01    5.7638902590078267E+00
N    1.6075652770833557E+00    1.0263439280826550E+01    7.7601772357688237E+00
Ga    1.6292660931705478E+00    8.4064143636389641E+00    8.4009831994250295E+00
N    1.6279194017545922E+00    8.4078956675556924E+00    1.0395783669715524E+01
Ga    1.6035501163108195E+00    1.0266857374625722E+01    1.1031702126952339E+01
N    1.5877384250384090E+00    1.0277739230956934E+01    1.3026628019194268E+01
Ga    1.6305264186037121E+00    8.4092775046225476E+00    1.3585319799110460E+01
N    1.6008389220561821E+00    8.3952196445486873E+00    1.5549906641935012E+01
Ga    1.7834962811423891E+00    1.0166662595582578E+01    1.6446088858536264E+01
N    3.2247905428326367E+00    9.3210598585772555E+00    1.7574731040769546E+01
N    9.6620259458291677E+00    1.9019553304093282E+00    2.5745540825964457E+00
Ga    9.6617072676946041E+00    1.6355860200554934E-01    3.2643128980495439E+00
N    9.6599383517187150E+00    4.8135140976701747E-02    5.2226212186566183E+00
Ga    9.6598146420693940E+00    1.9027517399212173E+00    5.8488596410553839E+00
N    9.6583478246141361E+00    1.9025985309416540E+00    7.8181682607901477E+00
Ga    9.6582847290083027E+00    3.2878162596131993E-02    8.4008991945902203E+00
N    9.6580991556363234E+00    3.3037866472558193E-02    1.0393704997693987E+01
Ga    9.6576267511028746E+00    1.9030753785472359E+00    1.0988569532278346E+01
N    9.6590204841133804E+00    1.9029494475908331E+00    1.2959551308366377E+01
Ga    9.6594352819168723E+00    3.5541023264778517E-02    1.3584183209565044E+01
N    9.6616311076154666E+00    6.5474432238943295E-02    1.5546662276377200E+01
Ga    9.6627492452245587E+00    1.9049947186932146E+00    1.5831009051295888E+01
N    7.9489941483421811E+00    4.6241009216213973E+00    2.4916261461207525E+00
Ga    8.1559261932900622E+00    2.7718455659681487E+00    3.2612862561895843E+00
N    8.0539879815403754E+00    2.8295433672928101E+00    5.2204288295553960E+00
Ga    8.0747749113153588E+00    4.7029880008087250E+00    5.7656761214457983E+00
N    8.0602759269391839E+00    4.6939557093664028E+00    7.7611466958710755E+00
Ga    8.0394976799156694E+00    2.8372558543008504E+00    8.4021446866584757E+00
N    8.0383516027893407E+00    2.8382883637595517E+00    1.0394399249625856E+01
Ga    8.0647336188389680E+00    4.6970281351313234E+00    1.1032733001149751E+01
N    8.0829178376549766E+00    4.7057453610585869E+00    1.3026702964208818E+01
Ga    8.0418732692553228E+00    2.8374199118565797E+00    1.3585049218870864E+01
N    8.0701600183146205E+00    2.8218225445158942E+00    1.5545911934542689E+01
Ga    7.8849788759189128E+00    4.5892941907542868E+00    1.6453201694856208E+01
N    6.4366521020009069E+00    7.4664375085760533E+00    2.5582013583220946E+00
Ga    6.4421297871253822E+00    5.7271033605432811E+00    3.2573463614022531E+00
N    6.4436465762230766E+00    5.6168161383492716E+00    5.2153656368689205E+00
Ga    6.4401701669416660E+00    7.4714395028837224E+00    5.8424726206250819E+00
N    6.4421810612096753E+00    7.4730819930186652E+00    7.8142224489231502E+00
Ga    6.4411268093458256E+00    5.6039691680699217E+00    8.4027264004251734E+00
N    6.4424225218723263E+00    5.6046344769102197E+00    1.0396619008779913E+01
Ga    6.4416548737297337E+00    7.4733924938131269E+00    1.0990374124984752E+01
N    6.4448383892400569E+00    7.4747180413150751E+00    1.2964348008136151E+01
Ga    6.4437714562537272E+00    5.6033458128358085E+00    1.3586424124277940E+01
N    6.4492495291251659E+00    5.6386136715430313E+00    1.5548406031805049E+01
Ga    6.4454163956441688E+00    7.4741201389698624E+00    1.5829664124051185E+01
N    4.7309984365761322E+00    1.0199983598191439E+01    2.4960059750751173E+00
Ga    4.9284759892633945E+00    8.3395847120643687E+00    3.2512976841183323E+00
N    4.8360162986703692E+00    8.3992301018002422E+00    5.2118846065114015E+00
Ga    4.8607055838774054E+00    1.0268801937676608E+01    5.7644103666678390E+00
N    4.8445149317953184E+00    1.0263182403308246E+01    7.7604917075582467E+00
Ga    4.8228585101855721E+00    8.4067066451075600E+00    8.4024963441513876E+00
N    4.8234888061233052E+00    8.4081594974561593E+00    1.0396601748636245E+01
Ga    4.8486141114484029E+00    1.0267307659920547E+01    1.1031987120013294E+01
N    4.8661811856353845E+00    1.0278037477404606E+01    1.3026815346699042E+01
Ga    4.8240395462067429E+00    8.4091579245504633E+00    1.3585047239620854E+01
N    4.8567495403913741E+00    8.3961416206322959E+00    1.5548338865557954E+01
Ga    4.6725919231081692E+00    1.0165626712583705E+01    1.6446839403164709E+01
O    3.2295787302806320E+00    5.5660470336272363E+00    1.9887233005334792E-01
H    2.3182171827143940E+00    5.8126574374923781E+00   -4.9066075131029431E-02
C    4.1695492247911838E+00    6.4162414115217308E+00   -5.0591077967020393E-01
H    3.7675841853804553E+00    7.4344724437886063E+00   -6.3597062022856787E-01
H    5.0736947248674484E+00    6.4830515807883433E+00    1.1668336506620662E-01
H    4.4067326313137585E+00    5.9822197229904157E+00   -1.4862070890356589E+00
     &END COORD
     &KIND C
       BASIS_SET DZVP-MOLOPT-SR-GTH-q4
       POTENTIAL GTH-PBE-q4
       &POTENTIAL
 2 2
  0.3384712400000000E+00 2 -0.8803673979999999E+01  0.1339210850000000E+01
 2
  0.3025757500000000E+00 1  0.9622486650000001E+01
  0.2915069400000000E+00 0
         # Potential name:  GTH-PBE-Q4  for symbol:  C
         # Potential read from the potential filename: GTH_POTENTIALS
       &END POTENTIAL
     &END KIND
     &KIND O
       BASIS_SET DZVP-MOLOPT-SR-GTH-q6
       POTENTIAL GTH-PBE-q6
       &POTENTIAL
 2 4
  0.2445543000000000E+00 2 -0.1666721480000000E+02  0.2487311320000000E+01
 2
  0.2209559200000000E+00 1  0.1833745811000000E+02
  0.2113324700000000E+00 0
         # Potential name:  GTH-PBE-Q6  for symbol:  O
         # Potential read from the potential filename: GTH_POTENTIALS
       &END POTENTIAL
     &END KIND
     &KIND H
       BASIS_SET DZVP-MOLOPT-SR-GTH-q1
       POTENTIAL GTH-PBE-q1
       &POTENTIAL
 1
  0.2000000000000000E+00 2 -0.4178900440000000E+01  0.7244633100000000E+00
 0
         # Potential name:  GTH-PBE-Q1  for symbol:  H
         # Potential read from the potential filename: GTH_POTENTIALS
       &END POTENTIAL
     &END KIND
     &KIND N
       BASIS_SET DZVP-MOLOPT-SR-GTH
       POTENTIAL GTH-PBE-q5
       &POTENTIAL
 2 3
  0.2837905100000000E+00 2 -0.1241522559000000E+02  0.1868095920000000E+01
 2
  0.2554050000000000E+00 1  0.1363026257000000E+02
  0.2454945300000000E+00 0
         # Potential name:  GTH-PBE-Q5  for symbol:  N
         # Potential read from the potential filename: GTH_POTENTIALS
       &END POTENTIAL
     &END KIND
     &KIND Ga
       BASIS_SET DZVP-MOLOPT-SR-GTH
       POTENTIAL GTH-PBE-q13
       &POTENTIAL
 2 1 10
  0.4900000000000000E+00 0
 3
  0.4167772300000000E+00 3  0.1047568975000000E+02 -0.4921768140000000E+01  0.8707055900000000E+00
  0.7770178090000000E+01 -0.2248152160000000E+01
  0.1784415450000000E+01
  0.5696265200000000E+00 2  0.1777985340000000E+01  0.1958597600000000E+00
 -0.2317443900000000E+00
  0.2381265000000000E+00 1 -0.1624868022000000E+02
         # Potential name:  GTH-PBE-Q13  for symbol:  GA
         # Potential read from the potential filename: GTH_POTENTIALS
       &END POTENTIAL
     &END KIND
     &TOPOLOGY
       NUMBER_OF_ATOMS  206
       MULTIPLE_UNIT_CELL  1 1 1
     &END TOPOLOGY
   &END SUBSYS
 &END FORCE_EVAL
