 # Version information for this restart file 
 # current date 2019-06-24 12:56:08.564
 # current working dir /scratch/rzk/rzk/GaN-carbene/443-adatoms-both-2x2/02-Methanol/02-O-GaSur
 # Program compiled at                              Sun Apr  7 00:48:11 EDT 2019
 # Program compiled on                          beluga2.int.ets1.calculquebec.ca
 # Program compiled for                        Beluga-Linux-x86-64-intel-openmpi
 # Source code revision number                                         svn:18619
 &GLOBAL
   PRINT_LEVEL  MEDIUM
   PROJECT_NAME TEST
   RUN_TYPE  GEO_OPT
 &END GLOBAL
 &MOTION
   &GEO_OPT
     MAX_ITER  500
     STEP_START_VAL  24
   &END GEO_OPT
 &END MOTION
 &FORCE_EVAL
   METHOD  QS
   STRESS_TENSOR  ANALYTICAL
   &DFT
     BASIS_SET_FILE_NAME BASIS_MOLOPT
     POTENTIAL_FILE_NAME GTH_POTENTIALS
     UKS  T
     SURFACE_DIPOLE_CORRECTION  T
     SURF_DIP_DIR  Z
     &SCF
       MAX_SCF  80
       EPS_SCF     5.0000000000000004E-06
       &OT  T
         PRECONDITIONER  FULL_ALL
       &END OT
       &OUTER_SCF  T
         OPTIMIZER  NONE
         EPS_SCF     5.0000000000000004E-06
         MAX_SCF  4
       &END OUTER_SCF
       &PRINT
         &RESTART  OFF
           BACKUP_COPIES  1
           &EACH
             JUST_ENERGY  0
             QS_SCF  0
             MD  20
           &END EACH
         &END RESTART
       &END PRINT
     &END SCF
     &QS
       EPS_DEFAULT     1.0000000000000000E-14
       METHOD  GPW
     &END QS
     &MGRID
       NGRIDS  5
       CUTOFF     1.2000000000000000E+03
     &END MGRID
     &XC
       DENSITY_CUTOFF     1.0000000000000000E-10
       GRADIENT_CUTOFF     1.0000000000000000E-10
       TAU_CUTOFF     1.0000000000000000E-10
       &XC_FUNCTIONAL  NO_SHORTCUT
         &PBE  T
         &END PBE
       &END XC_FUNCTIONAL
       &VDW_POTENTIAL
         POTENTIAL_TYPE  PAIR_POTENTIAL
         &PAIR_POTENTIAL
           R_CUTOFF     1.0000000000000004E+01
           TYPE  DFTD3
           PARAMETER_FILE_NAME dftd3.dat
           REFERENCE_FUNCTIONAL PBE
           EPS_CN     9.9999999999999995E-07
           CALCULATE_C9_TERM  T
           REFERENCE_C9_TERM  T
           LONG_RANGE_CORRECTION  F
           VERBOSE_OUTPUT  F
         &END PAIR_POTENTIAL
       &END VDW_POTENTIAL
     &END XC
   &END DFT
   &SUBSYS
     &CELL
       A     1.2864472766435110E+01    0.0000000000000000E+00    0.0000000000000000E+00
       B    -6.4322363581020028E+00    1.1140960178524473E+01    0.0000000000000000E+00
       C     0.0000000000000000E+00    0.0000000000000000E+00    3.2000000000000000E+01
       MULTIPLE_UNIT_CELL  1 1 1
       &CELL_REF
         A     1.2982353780853531E+01    0.0000000000000000E+00    0.0000000000000000E+00
         B    -6.4911768904267628E+00    1.1243048175136114E+01    0.0000000000000000E+00
         C     0.0000000000000000E+00    0.0000000000000000E+00    3.2000000000000000E+01
         MULTIPLE_UNIT_CELL  1 1 1
       &END CELL_REF
     &END CELL
     &COORD
N    1.4888080295323290E-02    2.0293494086475756E+00    2.4783752886509767E+00
Ga    1.6371614305133987E-02    5.3038217430995301E-02    2.8175135987819289E+00
N    1.3721286123361227E-02    5.2092267285749547E-02    4.9682682249646106E+00
Ga    1.6167394310452245E-02    1.8825060846167505E+00    5.7539786393651973E+00
N    1.1331335016052962E-02    1.8976448681971165E+00    7.7456809631670973E+00
Ga    1.0857298351430416E-02    5.2293220154123930E-02    8.4001258917831851E+00
N    1.0164086884867004E-02    5.1349422441097421E-02    1.0368928328673615E+01
Ga    1.0430256224328218E-02    1.8907991703605607E+00    1.1026492984385937E+01
N    1.2109397985936443E-02    1.8704757066013167E+00    1.3014596631713678E+01
Ga    9.2818108219355575E-03    5.1676270951773816E-02    1.3828052099580598E+01
N    1.2660970253976429E-02    4.9085326775934621E-02    1.6018205056859227E+01
Ga    1.3008843500323289E-02    2.1007131738786486E+00    1.6445073046310842E+01
Ga   -4.0497299712840898E-03    3.7483851275395184E+00    1.4403430683913458E+00
N   -1.4859264949481883E+00    4.6302489784171375E+00    2.4763179353374487E+00
Ga   -1.6930203704220150E+00    2.7786215167483697E+00    3.2485928437508846E+00
N   -1.5956174860938481E+00    2.8365926428616453E+00    5.2054644302765682E+00
Ga   -1.6151356268450321E+00    4.7098221963424916E+00    5.7537116197167588E+00
N   -1.6062144587214600E+00    4.7001539660774965E+00    7.7456209580148867E+00
Ga   -1.5859448729160137E+00    2.8437973649383586E+00    8.3940179018706100E+00
N   -1.5868413263440619E+00    2.8428658842873116E+00    1.0382179995616211E+01
Ga   -1.6124141367615819E+00    4.7018458380554584E+00    1.1027339864974984E+01
N   -1.6277994804077831E+00    4.7105649079986911E+00    1.3015284738987900E+01
Ga   -1.5839875612936023E+00    2.8421703170212593E+00    1.3577495580050053E+01
N   -1.6094730390746490E+00    2.8248836023058446E+00    1.5533668647970202E+01
Ga   -1.4258348107923344E+00    4.5929212269341297E+00    1.6445183269473329E+01
N    1.8534793995542673E-02    3.7648493434300909E+00    1.7593360815693060E+01
N   -3.1996500450752370E+00    7.6022017825585237E+00    2.4727570446893425E+00
Ga   -3.1977273453150352E+00    5.6212303221442887E+00    2.8152799867750180E+00
N   -3.2008828819406219E+00    5.6223248128498424E+00    4.9682362444831831E+00
Ga   -3.2030182882566192E+00    7.4511560707061220E+00    5.7532888583752397E+00
N   -3.2058698352325252E+00    7.4681471743492942E+00    7.7454742914669632E+00
Ga   -3.2040480584207569E+00    5.6228382109563437E+00    8.4014728807462369E+00
N   -3.2054348604318128E+00    5.6215498212304595E+00    1.0370228737612365E+01
Ga   -3.2058739298145276E+00    7.4599767566798940E+00    1.1027331191021418E+01
N   -3.2043639307542278E+00    7.4397699243766215E+00    1.3016610136486232E+01
Ga   -3.2043032512048555E+00    5.6173367214961543E+00    1.3829521567026514E+01
N   -3.2020821782250661E+00    5.6178203906266431E+00    1.6018307865804076E+01
Ga   -3.2022965361306430E+00    7.6564891104529451E+00    1.6425163967831249E+01
Ga   -3.1968931107172112E+00    9.3387424510423269E+00    1.4474125495376466E+00
N   -4.7016020168668033E+00    1.0202694847792696E+01    2.4739310567304722E+00
Ga   -4.9112929676829165E+00    8.3483903483532647E+00    3.2359550048256174E+00
N   -4.8132554793024687E+00    8.4060152200809952E+00    5.1967856688550293E+00
Ga   -4.8355982713575711E+00    1.0277295994758628E+01    5.7541771136549054E+00
N   -4.8235885885690530E+00    1.0269090108069204E+01    7.7458824433005757E+00
Ga   -4.8030812729276802E+00    8.4135003028236675E+00    8.3962431146042604E+00
N   -4.8027863596619733E+00    8.4131458734328906E+00    1.0383431659293409E+01
Ga   -4.8299199543224676E+00    1.0272765600357815E+01    1.1026614429160386E+01
N   -4.8452827663122209E+00    1.0281793740269114E+01    1.3016169719529991E+01
Ga   -4.8026225918471264E+00    8.4116380562035573E+00    1.3572411459966357E+01
N   -4.8311516025016319E+00    8.3928671877244376E+00    1.5531663307211360E+01
Ga   -4.6521008584578212E+00    1.0168837126906068E+01    1.6425838427762542E+01
N   -3.2021311355721194E+00    9.3303625464552038E+00    1.7541450542954696E+01
N    3.2367186116537181E+00    1.9100057917569124E+00    2.5582963073944929E+00
Ga    3.2318231464713638E+00    1.6828647668229688E-01    3.2431687239004963E+00
N    3.2293370201304379E+00    5.2727394460842569E-02    5.2021372906501586E+00
Ga    3.2277193367508623E+00    1.9095657561313306E+00    5.8319241637358354E+00
N    3.2258388588760969E+00    1.9079507947382408E+00    7.8002653581373878E+00
Ga    3.2258625287244818E+00    4.0095993205542212E-02    8.3928531122099184E+00
N    3.2254375753825819E+00    3.7747667283243816E-02    1.0381299055066577E+01
Ga    3.2253745926901898E+00    1.9085170260245607E+00    1.0979634915508738E+01
N    3.2275550105369186E+00    1.9070462940538122E+00    1.2946524804421616E+01
Ga    3.2277023253404895E+00    3.8888835463071238E-02    1.3574110434197127E+01
N    3.2301834149582795E+00    7.2394782174010269E-02    1.5533833509604642E+01
Ga    3.2306040232429347E+00    1.9097742837497094E+00    1.5817021089686584E+01
N    1.5105418321902710E+00    4.6285970648224772E+00    2.4433013789491760E+00
Ga    1.7270425591810270E+00    2.7841975020086842E+00    3.2345338628821296E+00
N    1.6232069087761740E+00    2.8382433066919934E+00    5.1947660151846957E+00
Ga    1.6578136885797923E+00    4.7142116537831624E+00    5.7444303347495422E+00
N    1.6283243688322011E+00    4.6990941703338427E+00    7.7427835429744949E+00
Ga    1.6089012507674403E+00    2.8446001659385671E+00    8.3920297862712498E+00
N    1.6062305104153514E+00    2.8430318251904341E+00    1.0380637220568344E+01
Ga    1.6329886081271312E+00    4.7013887739261282E+00    1.1026682702961232E+01
N    1.6510359130882053E+00    4.7099397813726043E+00    1.3015900253770049E+01
Ga    1.6091841995468761E+00    2.8409452915733269E+00    1.3578626350009021E+01
N    1.6361652798049207E+00    2.8238389337599314E+00    1.5535910406745138E+01
Ga    1.4567778692932380E+00    4.5955988417151081E+00    1.6446161583937663E+01
N    1.9907773272961476E-02    7.4778812014431697E+00    2.5470381839831293E+00
Ga    2.2612412148595735E-02    5.7351255002305503E+00    3.2329790529141302E+00
N    1.6350595116339663E-02    5.6227869187430306E+00    5.1931114747038851E+00
Ga    1.4955110238179463E-02    7.4768103028449238E+00    5.8290137739714361E+00
N    1.0347797982688586E-02    7.4781914999307011E+00    7.7977301596452415E+00
Ga    1.2727547403998615E-02    5.6097818348317778E+00    8.3916813311363754E+00
N    1.0081445758734495E-02    5.6077962440242528E+00    1.0380379868426248E+01
Ga    1.0289832386649845E-02    7.4769377647781408E+00    1.0979545748014772E+01
N    1.1919898348383971E-02    7.4765806031618522E+00    1.2946127716341227E+01
Ga    1.1566123593638620E-02    5.6076207823148874E+00    1.3578354535845111E+01
N    1.2541753243764638E-02    5.6372198110011533E+00    1.5535828277529486E+01
Ga    1.8415572067310544E-02    7.4752713078300452E+00    1.5815392743503542E+01
N   -1.6971050435631692E+00    1.0202652617585684E+01    2.4771439579743055E+00
Ga   -1.4889601432804669E+00    8.3471576092716120E+00    3.2392313775268025E+00
N   -1.5918817426575171E+00    8.4055009783805108E+00    5.1985105998789969E+00
Ga   -1.5703258280035721E+00    1.0277285545785677E+01    5.7546117061556465E+00
N   -1.5881813181005207E+00    1.0268992926394542E+01    7.7458811875032776E+00
Ga   -1.6072093980770517E+00    8.4119987149917073E+00    8.3925975884468897E+00
N   -1.6097022297551027E+00    8.4124905419953535E+00    1.0381172049617156E+01
Ga   -1.5836193905061378E+00    1.0271717546854644E+01    1.1025706017636878E+01
N   -1.5645660649528919E+00    1.0281047892711769E+01    1.3015646895966009E+01
Ga   -1.6056989507569688E+00    8.4110972660213470E+00    1.3573341449421426E+01
N   -1.5731393924222705E+00    8.3928309286336571E+00    1.5532262392203279E+01
Ga   -1.7519715230365140E+00    1.0169063260618186E+01    1.6425992633206210E+01
N    6.4523167172511862E+00    2.0298039142294502E+00    2.4822480521782140E+00
Ga    6.4493976684480163E+00    5.2842244712712240E-02    2.8184293599266605E+00
N    6.4466326752515917E+00    5.1651518528967419E-02    4.9691013687338703E+00
Ga    6.4469364914917717E+00    1.8802966961634457E+00    5.7599121337124153E+00
N    6.4445239908645853E+00    1.8966333074516319E+00    7.7498139917875948E+00
Ga    6.4420070939534870E+00    5.0672733377139741E-02    8.4007091457817058E+00
N    6.4410633766643519E+00    5.0166515768773484E-02    1.0368955279947000E+01
Ga    6.4409855253829518E+00    1.8898376866596356E+00    1.1025314062303330E+01
N    6.4434811819678028E+00    1.8698627537323282E+00    1.3013139445147754E+01
Ga    6.4459368798998788E+00    5.1260059734576258E-02    1.3827423739278528E+01
N    6.4476479010126546E+00    4.8989448524658426E-02    1.6017471590481527E+01
Ga    6.4480861681396995E+00    2.1003940684413789E+00    1.6441158159811046E+01
Ga    6.4497831890722370E+00    3.7619469975852344E+00    1.4662422826282773E+00
N    4.9752375362189163E+00    4.6243969953161006E+00    2.5076144222986554E+00
Ga    4.7425840450553149E+00    2.7755971952840017E+00    3.2549937512429521E+00
N    4.8383048635741392E+00    2.8342678024642769E+00    5.2104221421930124E+00
Ga    4.8046095167527501E+00    4.7140425872307876E+00    5.7480885081464885E+00
N    4.8258563049707170E+00    4.6995788888634689E+00    7.7459467872737573E+00
Ga    4.8440523437509677E+00    2.8440374168532814E+00    8.3912674304988411E+00
N    4.8449118728044933E+00    2.8422462557714385E+00    1.0380115326420613E+01
Ga    4.8183525865569141E+00    4.7008639381389115E+00    1.1025578743986832E+01
N    4.8036119130247066E+00    4.7099280374278898E+00    1.3014490925494927E+01
Ga    4.8468133501291479E+00    2.8408732481546415E+00    1.3576420798410528E+01
N    4.8245275072883897E+00    2.8238650233733273E+00    1.5533490078337756E+01
Ga    5.0038394853307802E+00    4.5964856394280593E+00    1.6442019731901688E+01
N    6.4429250555684749E+00    3.7654613682080855E+00    1.7588661554369363E+01
N    3.2337857452694450E+00    7.6146403865798140E+00    2.4659357105084152E+00
Ga    3.2473831794673056E+00    5.6150159032960385E+00    2.6464555399158036E+00
N    3.2319537428570246E+00    5.6217700976626865E+00    4.9531139492751164E+00
Ga    3.2305637428874441E+00    7.4379307305787243E+00    5.7464964659078461E+00
N    3.2272888558990469E+00    7.4678450532225007E+00    7.7441390937662087E+00
Ga    3.2264246633489804E+00    5.6217056876489595E+00    8.3974458167294994E+00
N    3.2255636818790827E+00    5.6206508295368405E+00    1.0368613322766478E+01
Ga    3.2250321637123283E+00    7.4597418954505068E+00    1.1024684263368124E+01
N    3.2272536438290707E+00    7.4401392904633443E+00    1.3013083681773759E+01
Ga    3.2276586879335989E+00    5.6198062873898316E+00    1.3828435834749566E+01
N    3.2303739659841755E+00    5.6193375277593240E+00    1.6019276926202398E+01
Ga    3.2310328962367554E+00    7.6612181910354975E+00    1.6436548605740597E+01
Ga    3.2324330813262048E+00    9.3545073519454558E+00    1.4583994898647608E+00
N    1.7315131905994765E+00    1.0205101314058826E+01    2.4824265601944311E+00
Ga    1.5272190079564691E+00    8.3443776903165841E+00    3.2429495206933656E+00
N    1.6217543463976949E+00    8.4061481055085796E+00    5.2003861996561991E+00
Ga    1.5972110263642538E+00    1.0276257300216107E+01    5.7561313042165363E+00
N    1.6087094406805340E+00    1.0269795843825049E+01    7.7466634435830652E+00
Ga    1.6294539802807027E+00    8.4113039158868084E+00    8.3905447060616751E+00
N    1.6285968362930763E+00    8.4125458859008404E+00    1.0378958437703563E+01
Ga    1.6022048826471706E+00    1.0271203242043073E+01    1.1024160846191620E+01
N    1.5873835327536552E+00    1.0280732100905837E+01    1.3011923840399131E+01
Ga    1.6304859731635597E+00    8.4122860797673429E+00    1.3574146257420590E+01
N    1.6073538306582020E+00    8.3982143277958077E+00    1.5531283525209451E+01
Ga    1.7884964256691420E+00    1.0165968261790310E+01    1.6436803775153862E+01
N    3.2312623322898579E+00    9.3253592393445111E+00    1.7584293388060114E+01
N    9.6659991110294463E+00    1.9086261237374911E+00    2.5584049039089800E+00
Ga    9.6654781370967324E+00    1.7137410876300033E-01    3.2512618593369504E+00
N    9.6624928881460725E+00    5.4591733481010110E-02    5.2074732014418696E+00
Ga    9.6627438699459880E+00    1.9099628692246156E+00    5.8382943320138381E+00
N    9.6601556439879381E+00    1.9091271367507585E+00    7.8041559043398188E+00
Ga    9.6587657333466854E+00    3.9926424415312987E-02    8.3936410393241054E+00
N    9.6578506330242337E+00    3.8453979877756263E-02    1.0381170912741688E+01
Ga    9.6589670036191979E+00    1.9076654604376027E+00    1.0981644352230839E+01
N    9.6608161994789707E+00    1.9066245573817810E+00    1.2949562966935385E+01
Ga    9.6598266235152099E+00    3.5856091762205361E-02    1.3573893817442256E+01
N    9.6623781780186704E+00    6.5201707579005008E-02    1.5530245237957766E+01
Ga    9.6621531043903595E+00    1.9047748295308684E+00    1.5806706029279654E+01
N    7.9552270103996641E+00    4.6323012558902228E+00    2.4798704023221623E+00
Ga    8.1604906941620357E+00    2.7790114650059792E+00    3.2488232328688968E+00
N    8.0569721137239156E+00    2.8365595305049642E+00    5.2068506376017201E+00
Ga    8.0807642689127945E+00    4.7080110852235286E+00    5.7611924329687243E+00
N    8.0625398870664906E+00    4.6988234623289742E+00    7.7511279721599298E+00
Ga    8.0416912219436281E+00    2.8424314267042292E+00    8.3969041569524840E+00
N    8.0394491972709474E+00    2.8421122503818470E+00    1.0383832514717957E+01
Ga    8.0656724655816809E+00    4.7018983919200776E+00    1.1026436667949506E+01
N    8.0837564272986331E+00    4.7101996138906399E+00    1.3013874804970980E+01
Ga    8.0405819483463219E+00    2.8413237955208319E+00    1.3575002738105589E+01
N    8.0698417855438844E+00    2.8247733321065902E+00    1.5530421178150867E+01
Ga    7.8869522346037275E+00    4.5933370972898429E+00    1.6440724211747096E+01
N    6.4441171518332876E+00    7.4730631916686905E+00    2.5458098626362053E+00
Ga    6.4582562312617027E+00    5.7385675826484706E+00    3.2591831110615268E+00
N    6.4506609016622019E+00    5.6262807250323155E+00    5.2125713142305381E+00
Ga    6.4463193428006749E+00    7.4810774141742433E+00    5.8383163976224735E+00
N    6.4437767617086532E+00    7.4801089603514930E+00    7.8045767549873268E+00
Ga    6.4416272895411923E+00    5.6097189149592532E+00    8.3936785424643396E+00
N    6.4421580081502778E+00    5.6077078003602976E+00    1.0381671138971546E+01
Ga    6.4410012795210996E+00    7.4773453768499305E+00    1.0979858531260987E+01
N    6.4434966271753238E+00    7.4768480972145897E+00    1.2945636470418567E+01
Ga    6.4440202967251281E+00    5.6071209170807732E+00    1.3575082980728588E+01
N    6.4479179176502806E+00    5.6369433111860392E+00    1.5532054173724980E+01
Ga    6.4417934053347778E+00    7.4747532061282094E+00    1.5812220002954184E+01
N    4.7355645623500875E+00    1.0204708927224782E+01    2.4806289394767491E+00
Ga    4.9395971465796160E+00    8.3464914980964870E+00    3.2451627013126196E+00
N    4.8405374043282139E+00    8.4064984015732289E+00    5.2017787755518485E+00
Ga    4.8625229886012002E+00    1.0277216323048064E+01    5.7570141891624651E+00
N    4.8447999318939363E+00    1.0270023800327282E+01    7.7476248416775588E+00
Ga    4.8230283290562115E+00    8.4122679689168507E+00    8.3936029836972885E+00
N    4.8220412839463034E+00    8.4130903142883806E+00    1.0380923095182428E+01
Ga    4.8491887002121254E+00    1.0272216036292203E+01    1.1024527802300311E+01
N    4.8675795037475140E+00    1.0280949942459669E+01    1.3011951992456323E+01
Ga    4.8246845623517611E+00    8.4121485310938588E+00    1.3572999747215789E+01
N    4.8529181873406975E+00    8.3981475468950997E+00    1.5529892545881633E+01
Ga    4.6728572436094220E+00    1.0165592790021734E+01    1.6436122258393251E+01
O    3.4349431864997801E+00    5.4290285472679747E+00    1.5205090332127993E-01
H    2.5219796789218725E+00    5.4049953327401301E+00   -1.9053371875622102E-01
C    4.1934981445938071E+00    6.4240413136354784E+00   -5.6503272386629533E-01
H    3.6126941319950827E+00    7.3535080242499067E+00   -7.1150962873079682E-01
H    5.0754396450548178E+00    6.6620094896543440E+00    5.3270741087275163E-02
H    4.5151588818477011E+00    6.0404331462435712E+00   -1.5486183706015149E+00
     &END COORD
     &KIND C
       BASIS_SET DZVP-MOLOPT-SR-GTH-q4
       POTENTIAL GTH-PBE-q4
       &POTENTIAL
 2 2
  0.3384712400000000E+00 2 -0.8803673979999999E+01  0.1339210850000000E+01
 2
  0.3025757500000000E+00 1  0.9622486650000001E+01
  0.2915069400000000E+00 0
         # Potential name:  GTH-PBE-Q4  for symbol:  C
         # Potential read from the potential filename: GTH_POTENTIALS
       &END POTENTIAL
     &END KIND
     &KIND O
       BASIS_SET DZVP-MOLOPT-SR-GTH-q6
       POTENTIAL GTH-PBE-q6
       &POTENTIAL
 2 4
  0.2445543000000000E+00 2 -0.1666721480000000E+02  0.2487311320000000E+01
 2
  0.2209559200000000E+00 1  0.1833745811000000E+02
  0.2113324700000000E+00 0
         # Potential name:  GTH-PBE-Q6  for symbol:  O
         # Potential read from the potential filename: GTH_POTENTIALS
       &END POTENTIAL
     &END KIND
     &KIND H
       BASIS_SET DZVP-MOLOPT-SR-GTH-q1
       POTENTIAL GTH-PBE-q1
       &POTENTIAL
 1
  0.2000000000000000E+00 2 -0.4178900440000000E+01  0.7244633100000000E+00
 0
         # Potential name:  GTH-PBE-Q1  for symbol:  H
         # Potential read from the potential filename: GTH_POTENTIALS
       &END POTENTIAL
     &END KIND
     &KIND N
       BASIS_SET DZVP-MOLOPT-SR-GTH
       POTENTIAL GTH-PBE-q5
       &POTENTIAL
 2 3
  0.2837905100000000E+00 2 -0.1241522559000000E+02  0.1868095920000000E+01
 2
  0.2554050000000000E+00 1  0.1363026257000000E+02
  0.2454945300000000E+00 0
         # Potential name:  GTH-PBE-Q5  for symbol:  N
         # Potential read from the potential filename: GTH_POTENTIALS
       &END POTENTIAL
     &END KIND
     &KIND Ga
       BASIS_SET DZVP-MOLOPT-SR-GTH
       POTENTIAL GTH-PBE-q13
       &POTENTIAL
 2 1 10
  0.4900000000000000E+00 0
 3
  0.4167772300000000E+00 3  0.1047568975000000E+02 -0.4921768140000000E+01  0.8707055900000000E+00
  0.7770178090000000E+01 -0.2248152160000000E+01
  0.1784415450000000E+01
  0.5696265200000000E+00 2  0.1777985340000000E+01  0.1958597600000000E+00
 -0.2317443900000000E+00
  0.2381265000000000E+00 1 -0.1624868022000000E+02
         # Potential name:  GTH-PBE-Q13  for symbol:  GA
         # Potential read from the potential filename: GTH_POTENTIALS
       &END POTENTIAL
     &END KIND
     &TOPOLOGY
       NUMBER_OF_ATOMS  206
       MULTIPLE_UNIT_CELL  1 1 1
     &END TOPOLOGY
   &END SUBSYS
 &END FORCE_EVAL
