 # Version information for this restart file 
 # current date 2019-06-24 14:49:41.739
 # current working dir /scratch/rzk/rzk/GaN-carbene/443-adatoms-both-2x2/02-Methanol/02-O-GaSur
 # Program compiled at                              Sun Apr  7 00:48:11 EDT 2019
 # Program compiled on                          beluga2.int.ets1.calculquebec.ca
 # Program compiled for                        Beluga-Linux-x86-64-intel-openmpi
 # Source code revision number                                         svn:18619
 &GLOBAL
   PRINT_LEVEL  MEDIUM
   PROJECT_NAME TEST
   RUN_TYPE  GEO_OPT
 &END GLOBAL
 &MOTION
   &GEO_OPT
     MAX_ITER  500
     STEP_START_VAL  57
   &END GEO_OPT
 &END MOTION
 &FORCE_EVAL
   METHOD  QS
   STRESS_TENSOR  ANALYTICAL
   &DFT
     BASIS_SET_FILE_NAME BASIS_MOLOPT
     POTENTIAL_FILE_NAME GTH_POTENTIALS
     UKS  T
     SURFACE_DIPOLE_CORRECTION  T
     SURF_DIP_DIR  Z
     &SCF
       MAX_SCF  80
       EPS_SCF     5.0000000000000004E-06
       &OT  T
         PRECONDITIONER  FULL_ALL
       &END OT
       &OUTER_SCF  T
         OPTIMIZER  NONE
         EPS_SCF     5.0000000000000004E-06
         MAX_SCF  4
       &END OUTER_SCF
       &PRINT
         &RESTART  OFF
           BACKUP_COPIES  1
           &EACH
             JUST_ENERGY  0
             QS_SCF  0
             MD  20
           &END EACH
         &END RESTART
       &END PRINT
     &END SCF
     &QS
       EPS_DEFAULT     1.0000000000000000E-14
       METHOD  GPW
     &END QS
     &MGRID
       NGRIDS  5
       CUTOFF     1.2000000000000000E+03
     &END MGRID
     &XC
       DENSITY_CUTOFF     1.0000000000000000E-10
       GRADIENT_CUTOFF     1.0000000000000000E-10
       TAU_CUTOFF     1.0000000000000000E-10
       &XC_FUNCTIONAL  NO_SHORTCUT
         &PBE  T
         &END PBE
       &END XC_FUNCTIONAL
       &VDW_POTENTIAL
         POTENTIAL_TYPE  PAIR_POTENTIAL
         &PAIR_POTENTIAL
           R_CUTOFF     1.0000000000000004E+01
           TYPE  DFTD3
           PARAMETER_FILE_NAME dftd3.dat
           REFERENCE_FUNCTIONAL PBE
           EPS_CN     9.9999999999999995E-07
           CALCULATE_C9_TERM  T
           REFERENCE_C9_TERM  T
           LONG_RANGE_CORRECTION  F
           VERBOSE_OUTPUT  F
         &END PAIR_POTENTIAL
       &END VDW_POTENTIAL
     &END XC
   &END DFT
   &SUBSYS
     &CELL
       A     1.2864472766435110E+01    0.0000000000000000E+00    0.0000000000000000E+00
       B    -6.4322363581020028E+00    1.1140960178524473E+01    0.0000000000000000E+00
       C     0.0000000000000000E+00    0.0000000000000000E+00    3.2000000000000000E+01
       MULTIPLE_UNIT_CELL  1 1 1
       &CELL_REF
         A     1.2982353780853531E+01    0.0000000000000000E+00    0.0000000000000000E+00
         B    -6.4911768904267628E+00    1.1243048175136114E+01    0.0000000000000000E+00
         C     0.0000000000000000E+00    0.0000000000000000E+00    3.2000000000000000E+01
         MULTIPLE_UNIT_CELL  1 1 1
       &END CELL_REF
     &END CELL
     &COORD
N    1.0215181043296825E-02    2.0232702527831927E+00    2.4902879088034608E+00
Ga    1.0555741475049996E-02    4.8503200010875949E-02    2.8247145282043498E+00
N    1.2279547692272968E-02    4.5902259454463815E-02    4.9816089928410818E+00
Ga    1.5592250474237250E-02    1.8765900086373741E+00    5.7605345120801577E+00
N    1.1821813010626014E-02    1.8919380551919109E+00    7.7579175233967028E+00
Ga    1.0773031314337234E-02    4.6797858034511627E-02    8.4058627756738709E+00
N    1.0676135534757415E-02    4.7011958219954214E-02    1.0380920108305890E+01
Ga    1.0635311275110906E-02    1.8879003105054593E+00    1.1030330325728348E+01
N    1.1201590305808430E-02    1.8694535981239360E+00    1.3023851009685412E+01
Ga    6.4046882126458319E-03    5.3327628328241013E-02    1.3824663722607962E+01
N    5.9396549199026713E-03    5.3196225748748903E-02    1.6033554037552182E+01
Ga    1.1500465715733795E-02    2.1102765732353523E+00    1.6466468298851396E+01
Ga   -1.5124323677752089E-02    3.7376617118811057E+00    1.4309105870715126E+00
N   -1.4915147756618943E+00    4.6239633212828100E+00    2.4892135398019333E+00
Ga   -1.6943727640460666E+00    2.7734860654469928E+00    3.2576926938092181E+00
N   -1.5980915092357404E+00    2.8297453457376354E+00    5.2183212958886962E+00
Ga   -1.6169460154281665E+00    4.7037965508391153E+00    5.7603865751998189E+00
N   -1.6065940567289048E+00    4.6949456764424706E+00    7.7576920158125633E+00
Ga   -1.5861210728511923E+00    2.8381651313668192E+00    8.3988943136145782E+00
N   -1.5866054719395422E+00    2.8384933132134842E+00    1.0392243558602608E+01
Ga   -1.6110338180683772E+00    4.6970292131155116E+00    1.1030830563255606E+01
N   -1.6270715405940812E+00    4.7068193164748111E+00    1.3024350660736935E+01
Ga   -1.5853309176201587E+00    2.8391695639240258E+00    1.3586557087190210E+01
N   -1.6120102853226497E+00    2.8230038099800092E+00    1.5545585153950304E+01
Ga   -1.4185006465932348E+00    4.5863794957119248E+00    1.6466323376402030E+01
N    1.2881547125913145E-02    3.7620681499909017E+00    1.7617519680581733E+01
N   -3.2037551523659156E+00    7.5948693889300758E+00    2.4846075945380304E+00
Ga   -3.2014577031223035E+00    5.6120032668862443E+00    2.8224351190444517E+00
N   -3.2039349690538925E+00    5.6157617909559354E+00    4.9803985186938107E+00
Ga   -3.2045941661219373E+00    7.4443951215341695E+00    5.7588137639141292E+00
N   -3.2056922116725213E+00    7.4632074267302286E+00    7.7567608596901172E+00
Ga   -3.2047548299894730E+00    5.6171744513924429E+00    8.4061261305329644E+00
N   -3.2051256859348838E+00    5.6174290850161226E+00    1.0381056426542306E+01
Ga   -3.2054109570574911E+00    7.4563904283676221E+00    1.1030499748159922E+01
N   -3.2044187886355089E+00    7.4368445995560482E+00    1.3029104604212327E+01
Ga   -3.2027840846231310E+00    5.6102237509973314E+00    1.3826490314456102E+01
N   -3.2021640118791321E+00    5.6093883414240571E+00    1.6033550936459807E+01
Ga   -3.2027861391343224E+00    7.6221327209490903E+00    1.6414240850425411E+01
Ga   -3.2029071288804798E+00    9.3321120053091224E+00    1.4616168045428026E+00
N   -4.7060646349090263E+00    1.0195836177768360E+01    2.4868745912905639E+00
Ga   -4.9174083787464680E+00    8.3395653002081609E+00    3.2454132700030831E+00
N   -4.8162833129632103E+00    8.3986824590318587E+00    5.2083557947516361E+00
Ga   -4.8377987179958302E+00    1.0271456203448613E+01    5.7601864186115739E+00
N   -4.8230599672302752E+00    1.0263390101931051E+01    7.7576773049544876E+00
Ga   -4.8039815506117396E+00    8.4074422559165694E+00    8.3998951681880403E+00
N   -4.8025841007394492E+00    8.4088300378779994E+00    1.0394871792496147E+01
Ga   -4.8286153339208759E+00    1.0268600860541881E+01    1.1029702105140634E+01
N   -4.8452891684811723E+00    1.0279336589054791E+01    1.3028441014634573E+01
Ga   -4.8013395725839745E+00    8.4100105725424914E+00    1.3578939988877250E+01
N   -4.8220865606596508E+00    8.3979966575555238E+00    1.5552537656069804E+01
Ga   -4.6824692020851213E+00    1.0187114485793579E+01    1.6414698309890458E+01
N   -3.2102449653645406E+00    9.3268281831380477E+00    1.7535998095005720E+01
N    3.2295617121123592E+00    1.9063451006987402E+00    2.5702062399575105E+00
Ga    3.2278352330432671E+00    1.6441711114818369E-01    3.2518067982189707E+00
N    3.2276225746800278E+00    4.7716107814700183E-02    5.2134240750077749E+00
Ga    3.2263062075209432E+00    1.9072429197509011E+00    5.8350340080962013E+00
N    3.2264379485613843E+00    1.9035040270694030E+00    7.8096327906249208E+00
Ga    3.2263207249591606E+00    3.5968559678180037E-02    8.3970024244789094E+00
N    3.2264309189823410E+00    3.4230352042943009E-02    1.0392606836030794E+01
Ga    3.2258863766400965E+00    1.9041866682096560E+00    1.0988086623888996E+01
N    3.2278046507537121E+00    1.9028023867461652E+00    1.2962339605328852E+01
Ga    3.2278010335471521E+00    3.5635655492840791E-02    1.3578661738078527E+01
N    3.2306081551557200E+00    6.0274608724040182E-02    1.5550910102508469E+01
Ga    3.2274793295986033E+00    1.9077689519166292E+00    1.5826115031123701E+01
N    1.5012613150557799E+00    4.6237319074258076E+00    2.4428901234079534E+00
Ga    1.7196195079605692E+00    2.7853365408623150E+00    3.2407800332080932E+00
N    1.6204066746335524E+00    2.8344578085101042E+00    5.2052078308808856E+00
Ga    1.6605836483789169E+00    4.7111237460976323E+00    5.7565422681284604E+00
N    1.6260428779370248E+00    4.6925593699811552E+00    7.7620730346300828E+00
Ga    1.6091541719218689E+00    2.8388960326369199E+00    8.3996454163542520E+00
N    1.6078491943708677E+00    2.8382431648528397E+00    1.0393927825538123E+01
Ga    1.6338498759884779E+00    4.6978800271488774E+00    1.1031838886904282E+01
N    1.6507161210685255E+00    4.7076112991879606E+00    1.3026303426704843E+01
Ga    1.6077148043854728E+00    2.8398612978860238E+00    1.3586983576013152E+01
N    1.6366758083767281E+00    2.8207782349467481E+00    1.5546150377114877E+01
Ga    1.4467769939396040E+00    4.5891985332340921E+00    1.6466506534387495E+01
N    1.9930688222094661E-02    7.4687383708415878E+00    2.5591121618648525E+00
Ga    2.0836265925816760E-02    5.7236338276881034E+00    3.2425551254554330E+00
N    1.4744226368021283E-02    5.6157395931122975E+00    5.2058186009077385E+00
Ga    1.5127982440676480E-02    7.4695797731144813E+00    5.8364305563584580E+00
N    1.0912639101252916E-02    7.4729237360352077E+00    7.8103992202840207E+00
Ga    1.2170453687903997E-02    5.6045096011457707E+00    8.3999618672859171E+00
N    1.0421412723461308E-02    5.6052783973283189E+00    1.0394159556244356E+01
Ga    1.0318707472688298E-02    7.4737436626686069E+00    1.0988199121187504E+01
N    1.0306326952816428E-02    7.4758497774801338E+00    1.2962529122070396E+01
Ga    1.1718548677720365E-02    5.6040200038095076E+00    1.3587302341230677E+01
N    1.0428468913400005E-02    5.6386251134918899E+00    1.5546503756798652E+01
Ga    1.3841419193883325E-02    7.4725648880119557E+00    1.5826415687621974E+01
N   -1.7013980052725484E+00    1.0196157142974780E+01    2.4884280809581840E+00
Ga   -1.4900880926059086E+00    8.3391116833079568E+00    3.2465507558911799E+00
N   -1.5927560828325857E+00    8.3986439969763982E+00    5.2091674437110669E+00
Ga   -1.5716688137635912E+00    1.0271348967728821E+01    5.7603248195059180E+00
N   -1.5880770341457844E+00    1.0263567177301438E+01    7.7576464657185964E+00
Ga   -1.6064666160712464E+00    8.4066859916032826E+00    8.3980101841836028E+00
N   -1.6089482970819209E+00    8.4088159005188814E+00    1.0393285004303921E+01
Ga   -1.5828942724901336E+00    1.0268249313416545E+01    1.1028595271334574E+01
N   -1.5645851634033439E+00    1.0278737630678924E+01    1.3027010462161092E+01
Ga   -1.6068500253326436E+00    8.4096283683262474E+00    1.3578721313354579E+01
N   -1.5837590506194958E+00    8.3994125415683634E+00    1.5550953889387028E+01
Ga   -1.7305072795456562E+00    1.0182738748376664E+01    1.6414360307933066E+01
N    6.4475686708625144E+00    2.0239607748029957E+00    2.4930354523029012E+00
Ga    6.4466461733001212E+00    4.6809726052194474E-02    2.8263226347892383E+00
N    6.4439140236136714E+00    4.5925222447436596E-02    4.9816385087630195E+00
Ga    6.4417025690131258E+00    1.8755770840582771E+00    5.7635641455543345E+00
N    6.4427150255528698E+00    1.8915313705001915E+00    7.7600219045974335E+00
Ga    6.4425715673009289E+00    4.6002842076119092E-02    8.4061778865079191E+00
N    6.4428171547778375E+00    4.6640710302377666E-02    1.0381096801877391E+01
Ga    6.4422234082577097E+00    1.8873639806632510E+00    1.1029777476999991E+01
N    6.4440490080111479E+00    1.8688968314109533E+00    1.3024298011461259E+01
Ga    6.4482190707572853E+00    5.0876702252784026E-02    1.3821234353679904E+01
N    6.4497897713213970E+00    5.0591292701525487E-02    1.6032443450132387E+01
Ga    6.4467352713336830E+00    2.0983451760462342E+00    1.6449629378447959E+01
Ga    6.4614695934257709E+00    3.7444113256092697E+00    1.4559613714516078E+00
N    4.9636486367027617E+00    4.6211155645223148E+00    2.4716412970549264E+00
Ga    4.7357980287928765E+00    2.7807094143215987E+00    3.2526381009551253E+00
N    4.8360573000620652E+00    2.8324849382715995E+00    5.2131354702415109E+00
Ga    4.7965552045760633E+00    4.7110596133506295E+00    5.7590455054854273E+00
N    4.8281061711616520E+00    4.6925997605973873E+00    7.7640352415835912E+00
Ga    4.8439928519936748E+00    2.8385550643027377E+00    8.3997685606151737E+00
N    4.8449100047643903E+00    2.8378545001453204E+00    1.0394680973402759E+01
Ga    4.8190576340236779E+00    4.6976037565123638E+00    1.1032072098634616E+01
N    4.8036170398618419E+00    4.7079329403763177E+00    1.3028109257427992E+01
Ga    4.8474513822107319E+00    2.8394208965016214E+00    1.3584047337998699E+01
N    4.8222079142257828E+00    2.8187604639370289E+00    1.5547093688994167E+01
Ga    4.9951791904132410E+00    4.5985821704305154E+00    1.6449571098636916E+01
N    6.4362987238711611E+00    3.7639746003460557E+00    1.7585647552002502E+01
N    3.2287769576323142E+00    7.6120330615154383E+00    2.4646747777537801E+00
Ga    3.2348116483422769E+00    5.6115227703789081E+00    2.5437637045241006E+00
N    3.2294694649949922E+00    5.6155497430974375E+00    4.9964141467123762E+00
Ga    3.2286198972261508E+00    7.4260681723510968E+00    5.7574386446532655E+00
N    3.2271892276666447E+00    7.4654541931329854E+00    7.7630391495518900E+00
Ga    3.2265946607912355E+00    5.6168554805262874E+00    8.4040475143355451E+00
N    3.2267976584797573E+00    5.6173574361474383E+00    1.0382045088053072E+01
Ga    3.2262027554206290E+00    7.4559171106839761E+00    1.1032172786895412E+01
N    3.2274362902680727E+00    7.4375960548612063E+00    1.3028592526952737E+01
Ga    3.2253069735886428E+00    5.6158462991878446E+00    1.3835505182110802E+01
N    3.2264986640462023E+00    5.6160011344041409E+00    1.6034613786665673E+01
Ga    3.2291250249762706E+00    7.6515632681027670E+00    1.6444183825991939E+01
Ga    3.2271308488764507E+00    9.3631772267101230E+00    1.4509958029339913E+00
N    1.7263073256095387E+00    1.0200776714829617E+01    2.4968452554610745E+00
Ga    1.5292765267744544E+00    8.3374801012360340E+00    3.2504841565179112E+00
N    1.6206551871731760E+00    8.3993036190131178E+00    5.2113844235316087E+00
Ga    1.5950084113974192E+00    1.0268928808474966E+01    5.7624139618554064E+00
N    1.6083512779514566E+00    1.0263894674024771E+01    7.7592364235454587E+00
Ga    1.6296358915513498E+00    8.4064924914168788E+00    8.3997701950381209E+00
N    1.6287968835549285E+00    8.4084777341437533E+00    1.0394937729913797E+01
Ga    1.6044458676099453E+00    1.0267259877156439E+01    1.1029677997143102E+01
N    1.5888700971982606E+00    1.0278179814371150E+01    1.3024749115538333E+01
Ga    1.6311046383327068E+00    8.4100799600592353E+00    1.3583258874493570E+01
N    1.6013390366289693E+00    8.3975716196733412E+00    1.5547298758052689E+01
Ga    1.7857599652914360E+00    1.0166674165532813E+01    1.6444616127303700E+01
N    3.2264202157633965E+00    9.3211704783326521E+00    1.7578167546386236E+01
N    9.6623910594205409E+00    1.9022261023016154E+00    2.5740066495567957E+00
Ga    9.6622090159623326E+00    1.6372914458892560E-01    3.2623749239828008E+00
N    9.6606060669868743E+00    4.8139801654214297E-02    5.2211899892137588E+00
Ga    9.6607354341444722E+00    1.9032108714507880E+00    5.8458822012044944E+00
N    9.6593593759050194E+00    1.9031604626914309E+00    7.8162401163763526E+00
Ga    9.6589577262457382E+00    3.3872241978562943E-02    8.3994228696751172E+00
N    9.6588531492740337E+00    3.3962521008012718E-02    1.0393019065602854E+01
Ga    9.6588720941325210E+00    1.9038196524300159E+00    1.0986750858950144E+01
N    9.6598116584055838E+00    1.9039254659592368E+00    1.2959341126776927E+01
Ga    9.6600673868625204E+00    3.5748921353350838E-02    1.3582278587808352E+01
N    9.6611406123863244E+00    6.5927070866490134E-02    1.5544363495049405E+01
Ga    9.6623862662489763E+00    1.9058007603277762E+00    1.5823909868540598E+01
N    7.9496753278438730E+00    4.6245523772923045E+00    2.4903331516398759E+00
Ga    8.1559798822590075E+00    2.7724163280831973E+00    3.2592634621306567E+00
N    8.0545208006046192E+00    2.8298835849015571E+00    5.2191153798180450E+00
Ga    8.0759252431185260E+00    4.7032586937693948E+00    5.7644568431676477E+00
N    8.0612018081374739E+00    4.6942389964927749E+00    7.7606335496606578E+00
Ga    8.0406909293298217E+00    2.8374347025689719E+00    8.4005678798575190E+00
N    8.0395636735200871E+00    2.8385783472220019E+00    1.0393547474949344E+01
Ga    8.0655097715166679E+00    4.6974671735441174E+00    1.1030594613355991E+01
N    8.0833054491771819E+00    4.7070213194092023E+00    1.3025042977719927E+01
Ga    8.0418549478344303E+00    2.8386424083174004E+00    1.3582962670294828E+01
N    8.0690186389607135E+00    2.8232687216528523E+00    1.5543953583383219E+01
Ga    7.8858018830327934E+00    4.5908761797119881E+00    1.6450029711677644E+01
N    6.4368572832525626E+00    7.4665338779854196E+00    2.5575633076114883E+00
Ga    6.4429738937813035E+00    5.7269081073567643E+00    3.2564693482575118E+00
N    6.4445806633579101E+00    5.6170768644056945E+00    5.2150240483009789E+00
Ga    6.4411373118250728E+00    7.4717566237964741E+00    5.8410049230031307E+00
N    6.4430005136128079E+00    7.4735135987882275E+00    7.8137241327620490E+00
Ga    6.4417451611664420E+00    5.6043593500705446E+00    8.4015328295871736E+00
N    6.4430318473954600E+00    5.6050833319919304E+00    1.0395835769650725E+01
Ga    6.4420314039447080E+00    7.4739878294577791E+00    1.0988580227496019E+01
N    6.4450385103295966E+00    7.4756179094340141E+00    1.2963135810458471E+01
Ga    6.4441867024386195E+00    5.6042423338582346E+00    1.3584167935330521E+01
N    6.4500839500696934E+00    5.6385122577886442E+00    1.5546434597133084E+01
Ga    6.4441599324431049E+00    7.4742237540723879E+00    1.5827995963440243E+01
N    4.7317030048734328E+00    1.0200308806577331E+01    2.4943449046226123E+00
Ga    4.9288108251487310E+00    8.3399949285972959E+00    3.2503995102288465E+00
N    4.8367400452923697E+00    8.3996445268064353E+00    5.2112722240471525E+00
Ga    4.8616349420855522E+00    1.0269504782951188E+01    5.7630905659764355E+00
N    4.8452107129581936E+00    1.0263793213150709E+01    7.7598347306326314E+00
Ga    4.8235391787476987E+00    8.4069298902569223E+00    8.4014134498438278E+00
N    4.8238654009780628E+00    8.4089022380270020E+00    1.0395980132162299E+01
Ga    4.8491616571872678E+00    1.0268079639140367E+01    1.1030090101377990E+01
N    4.8665954312459050E+00    1.0278566058962280E+01    1.3025042648236980E+01
Ga    4.8243011880322193E+00    8.4102696625700109E+00    1.3583042740219071E+01
N    4.8565987488190787E+00    8.3977823951049846E+00    1.5546213891371107E+01
Ga    4.6710071532644095E+00    1.0166064316224341E+01    1.6445120158329537E+01
O    3.2488070098927460E+00    5.5576737099920699E+00    1.9544879568667772E-01
H    2.3357769186689032E+00    5.7600476707561361E+00   -7.4104094503357379E-02
C    4.1706123634955672E+00    6.4213479426947249E+00   -5.1137812460242071E-01
H    3.7520141370875062E+00    7.4299781823517890E+00   -6.5217061321828429E-01
H    5.0725894217115686E+00    6.5098391593382257E+00    1.1029068738745681E-01
H    4.4194807529156970E+00    5.9882697675410173E+00   -1.4896283479410184E+00
     &END COORD
     &KIND C
       BASIS_SET DZVP-MOLOPT-SR-GTH-q4
       POTENTIAL GTH-PBE-q4
       &POTENTIAL
 2 2
  0.3384712400000000E+00 2 -0.8803673979999999E+01  0.1339210850000000E+01
 2
  0.3025757500000000E+00 1  0.9622486650000001E+01
  0.2915069400000000E+00 0
         # Potential name:  GTH-PBE-Q4  for symbol:  C
         # Potential read from the potential filename: GTH_POTENTIALS
       &END POTENTIAL
     &END KIND
     &KIND O
       BASIS_SET DZVP-MOLOPT-SR-GTH-q6
       POTENTIAL GTH-PBE-q6
       &POTENTIAL
 2 4
  0.2445543000000000E+00 2 -0.1666721480000000E+02  0.2487311320000000E+01
 2
  0.2209559200000000E+00 1  0.1833745811000000E+02
  0.2113324700000000E+00 0
         # Potential name:  GTH-PBE-Q6  for symbol:  O
         # Potential read from the potential filename: GTH_POTENTIALS
       &END POTENTIAL
     &END KIND
     &KIND H
       BASIS_SET DZVP-MOLOPT-SR-GTH-q1
       POTENTIAL GTH-PBE-q1
       &POTENTIAL
 1
  0.2000000000000000E+00 2 -0.4178900440000000E+01  0.7244633100000000E+00
 0
         # Potential name:  GTH-PBE-Q1  for symbol:  H
         # Potential read from the potential filename: GTH_POTENTIALS
       &END POTENTIAL
     &END KIND
     &KIND N
       BASIS_SET DZVP-MOLOPT-SR-GTH
       POTENTIAL GTH-PBE-q5
       &POTENTIAL
 2 3
  0.2837905100000000E+00 2 -0.1241522559000000E+02  0.1868095920000000E+01
 2
  0.2554050000000000E+00 1  0.1363026257000000E+02
  0.2454945300000000E+00 0
         # Potential name:  GTH-PBE-Q5  for symbol:  N
         # Potential read from the potential filename: GTH_POTENTIALS
       &END POTENTIAL
     &END KIND
     &KIND Ga
       BASIS_SET DZVP-MOLOPT-SR-GTH
       POTENTIAL GTH-PBE-q13
       &POTENTIAL
 2 1 10
  0.4900000000000000E+00 0
 3
  0.4167772300000000E+00 3  0.1047568975000000E+02 -0.4921768140000000E+01  0.8707055900000000E+00
  0.7770178090000000E+01 -0.2248152160000000E+01
  0.1784415450000000E+01
  0.5696265200000000E+00 2  0.1777985340000000E+01  0.1958597600000000E+00
 -0.2317443900000000E+00
  0.2381265000000000E+00 1 -0.1624868022000000E+02
         # Potential name:  GTH-PBE-Q13  for symbol:  GA
         # Potential read from the potential filename: GTH_POTENTIALS
       &END POTENTIAL
     &END KIND
     &TOPOLOGY
       NUMBER_OF_ATOMS  206
       MULTIPLE_UNIT_CELL  1 1 1
     &END TOPOLOGY
   &END SUBSYS
 &END FORCE_EVAL
