 # Version information for this restart file 
 # current date 2019-06-24 16:09:30.987
 # current working dir /scratch/rzk/rzk/GaN-carbene/443-adatoms-both-2x2/02-Methanol/02-O-GaSur
 # Program compiled at                              Sun Apr  7 00:48:11 EDT 2019
 # Program compiled on                          beluga2.int.ets1.calculquebec.ca
 # Program compiled for                        Beluga-Linux-x86-64-intel-openmpi
 # Source code revision number                                         svn:18619
 &GLOBAL
   PRINT_LEVEL  MEDIUM
   PROJECT_NAME TEST
   RUN_TYPE  GEO_OPT
 &END GLOBAL
 &MOTION
   &GEO_OPT
     MAX_ITER  500
     STEP_START_VAL  76
   &END GEO_OPT
 &END MOTION
 &FORCE_EVAL
   METHOD  QS
   STRESS_TENSOR  ANALYTICAL
   &DFT
     BASIS_SET_FILE_NAME BASIS_MOLOPT
     POTENTIAL_FILE_NAME GTH_POTENTIALS
     UKS  T
     SURFACE_DIPOLE_CORRECTION  T
     SURF_DIP_DIR  Z
     &SCF
       MAX_SCF  80
       EPS_SCF     5.0000000000000004E-06
       &OT  T
         PRECONDITIONER  FULL_ALL
       &END OT
       &OUTER_SCF  T
         OPTIMIZER  NONE
         EPS_SCF     5.0000000000000004E-06
         MAX_SCF  4
       &END OUTER_SCF
       &PRINT
         &RESTART  OFF
           BACKUP_COPIES  1
           &EACH
             JUST_ENERGY  0
             QS_SCF  0
             MD  20
           &END EACH
         &END RESTART
       &END PRINT
     &END SCF
     &QS
       EPS_DEFAULT     1.0000000000000000E-14
       METHOD  GPW
     &END QS
     &MGRID
       NGRIDS  5
       CUTOFF     1.2000000000000000E+03
     &END MGRID
     &XC
       DENSITY_CUTOFF     1.0000000000000000E-10
       GRADIENT_CUTOFF     1.0000000000000000E-10
       TAU_CUTOFF     1.0000000000000000E-10
       &XC_FUNCTIONAL  NO_SHORTCUT
         &PBE  T
         &END PBE
       &END XC_FUNCTIONAL
       &VDW_POTENTIAL
         POTENTIAL_TYPE  PAIR_POTENTIAL
         &PAIR_POTENTIAL
           R_CUTOFF     1.0000000000000004E+01
           TYPE  DFTD3
           PARAMETER_FILE_NAME dftd3.dat
           REFERENCE_FUNCTIONAL PBE
           EPS_CN     9.9999999999999995E-07
           CALCULATE_C9_TERM  T
           REFERENCE_C9_TERM  T
           LONG_RANGE_CORRECTION  F
           VERBOSE_OUTPUT  F
         &END PAIR_POTENTIAL
       &END VDW_POTENTIAL
     &END XC
   &END DFT
   &SUBSYS
     &CELL
       A     1.2864472766435110E+01    0.0000000000000000E+00    0.0000000000000000E+00
       B    -6.4322363581020028E+00    1.1140960178524473E+01    0.0000000000000000E+00
       C     0.0000000000000000E+00    0.0000000000000000E+00    3.2000000000000000E+01
       MULTIPLE_UNIT_CELL  1 1 1
       &CELL_REF
         A     1.2982353780853531E+01    0.0000000000000000E+00    0.0000000000000000E+00
         B    -6.4911768904267628E+00    1.1243048175136114E+01    0.0000000000000000E+00
         C     0.0000000000000000E+00    0.0000000000000000E+00    3.2000000000000000E+01
         MULTIPLE_UNIT_CELL  1 1 1
       &END CELL_REF
     &END CELL
     &COORD
N    8.3125394876641771E-03    2.0240365434098782E+00    2.4945975610812177E+00
Ga    6.3278907795696086E-03    4.6886496692900993E-02    2.8279589076438945E+00
N    1.0839354458918045E-02    4.5743165691204846E-02    4.9828031829285662E+00
Ga    1.3858324107994672E-02    1.8757423139228693E+00    5.7643014968672972E+00
N    1.0727313103733463E-02    1.8909083404602092E+00    7.7603457629359625E+00
Ga    9.9327273184532851E-03    4.5342002303241029E-02    8.4082653552099664E+00
N    9.7434548037839252E-03    4.5371901514767374E-02    1.0382178689976119E+01
Ga    9.5211070150446313E-03    1.8858151899290083E+00    1.1032546664642519E+01
N    9.5383872877880388E-03    1.8670970415399664E+00    1.3025035329469519E+01
Ga    6.9046217555624552E-03    5.0384405085756874E-02    1.3828593521586502E+01
N    4.4589140548145492E-03    5.0154970179305439E-02    1.6035302374490094E+01
Ga    1.1566898573854487E-02    2.1056069895950538E+00    1.6462764215028781E+01
Ga   -1.4066530352773310E-02    3.7398160307058173E+00    1.4455380277076437E+00
N   -1.4930550314524065E+00    4.6243345397999427E+00    2.4931646279047990E+00
Ga   -1.6991114967398846E+00    2.7722327395679698E+00    3.2623033828260133E+00
N   -1.5999690549955949E+00    2.8295284658921900E+00    5.2214325177372194E+00
Ga   -1.6191220931768424E+00    4.7039275255333406E+00    5.7637883302847168E+00
N   -1.6079665012275834E+00    4.6943649051235035E+00    7.7597258492741457E+00
Ga   -1.5873070946971783E+00    2.8373160867869318E+00    8.4014165310077633E+00
N   -1.5876610702200358E+00    2.8372335077974653E+00    1.0393868785176659E+01
Ga   -1.6127004428620511E+00    4.6960505254217466E+00    1.1032968151605717E+01
N   -1.6289020625779300E+00    4.7049710758855543E+00    1.3025369643463186E+01
Ga   -1.5870465318852205E+00    2.8372771888804098E+00    1.3586269203511097E+01
N   -1.6149991485792170E+00    2.8205135147211409E+00    1.5546092841462221E+01
Ga   -1.4210294834808699E+00    4.5873624993661561E+00    1.6462894510668196E+01
N    5.5609270262264214E-03    3.7561177746550087E+00    1.7608865704711032E+01
N   -3.2060558552130178E+00    7.5950211790032265E+00    2.4859476886396994E+00
Ga   -3.2053705727085049E+00    5.6121461218400590E+00    2.8256113819992170E+00
N   -3.2058073772375453E+00    5.6158003422065104E+00    4.9810330918775554E+00
Ga   -3.2058598982022795E+00    7.4446712267579809E+00    5.7610058866768217E+00
N   -3.2067842182609070E+00    7.4626911236070264E+00    7.7576978519933473E+00
Ga   -3.2061584425105503E+00    5.6169070080366064E+00    8.4083288474201776E+00
N   -3.2064050518035905E+00    5.6161761493130893E+00    1.0382042700843515E+01
Ga   -3.2065284612866534E+00    7.4550806604419462E+00    1.1032121967854485E+01
N   -3.2059349486590918E+00    7.4354113267123383E+00    1.3028735123904893E+01
Ga   -3.2037206233238158E+00    5.6108948909982663E+00    1.3829072365980331E+01
N   -3.2041888990201106E+00    5.6085026953738737E+00    1.6034809743509459E+01
Ga   -3.2040841906604807E+00    7.6283143621804879E+00    1.6423382272781279E+01
Ga   -3.2049360918218048E+00    9.3326776761929775E+00    1.4644809627599149E+00
N   -4.7086960664324069E+00    1.0196066676287323E+01    2.4883651509065099E+00
Ga   -4.9207549621231070E+00    8.3393639571622664E+00    3.2474124918576739E+00
N   -4.8177210698463258E+00    8.3988720790293403E+00    5.2099730215844060E+00
Ga   -4.8391055951642468E+00    1.0271453134841364E+01    5.7630461039168983E+00
N   -4.8238762932971655E+00    1.0262455807541437E+01    7.7591537087659619E+00
Ga   -4.8050905861677427E+00    8.4065344199357153E+00    8.4019365198739102E+00
N   -4.8036897857664451E+00    8.4072438623351697E+00    1.0395580267331910E+01
Ga   -4.8295315366311593E+00    1.0266816813203613E+01    1.1031553017106633E+01
N   -4.8465018596411751E+00    1.0276906897687439E+01    1.3028346444035483E+01
Ga   -4.8020311049622428E+00    8.4083123829258977E+00    1.3582305913333387E+01
N   -4.8245297133774150E+00    8.3959172086314737E+00    1.5553278769239597E+01
Ga   -4.6786976264942179E+00    1.0182883501673917E+01    1.6422954529423162E+01
N   -3.2168360344671516E+00    9.3240023746238485E+00    1.7554581649749654E+01
N    3.2281191804098812E+00    1.9061064596969339E+00    2.5717862442029826E+00
Ga    3.2263936167988989E+00    1.6379662969056202E-01    3.2542432806708668E+00
N    3.2261820298474402E+00    4.7152072709646574E-02    5.2153843762007224E+00
Ga    3.2259438756494712E+00    1.9060356113785724E+00    5.8392804195701364E+00
N    3.2257820639918680E+00    1.9022515090887937E+00    7.8124072023573747E+00
Ga    3.2254981592368335E+00    3.4687091719933540E-02    8.3992884781863868E+00
N    3.2253406291916145E+00    3.2475963258567823E-02    1.0393080713796607E+01
Ga    3.2248707837390311E+00    1.9021546543892986E+00    1.0989190638877544E+01
N    3.2265545696956086E+00    1.9006524835032983E+00    1.2962488737647472E+01
Ga    3.2266147080888947E+00    3.2550074542319909E-02    1.3581480836799033E+01
N    3.2298942762969673E+00    5.8364097388666297E-02    1.5550195931316759E+01
Ga    3.2249494783445107E+00    1.9036730594839064E+00    1.5826296225338654E+01
N    1.4986070029934637E+00    4.6243274681509661E+00    2.4525365329662767E+00
Ga    1.7196680796445434E+00    2.7832712986250474E+00    3.2479365579946515E+00
N    1.6192714555866563E+00    2.8335136174495115E+00    5.2101709273982912E+00
Ga    1.6597687645524828E+00    4.7112760424619369E+00    5.7595077651028497E+00
N    1.6256016576834424E+00    4.6921465502361874E+00    7.7633903914769489E+00
Ga    1.6085193960071826E+00    2.8381792072070033E+00    8.4013003672279929E+00
N    1.6065210579180988E+00    2.8368663519087405E+00    1.0394567595677326E+01
Ga    1.6330743106440382E+00    4.6967023280511935E+00    1.1032549617290494E+01
N    1.6496267634474595E+00    4.7059203831941003E+00    1.3026031251941008E+01
Ga    1.6064926296653239E+00    2.8379721843488848E+00    1.3586450297751592E+01
N    1.6374962305849172E+00    2.8214458511283964E+00    1.5544523487512999E+01
Ga    1.4418733201143670E+00    4.5858775946374708E+00    1.6463103580052650E+01
N    1.9033811374021176E-02    7.4697900926206584E+00    2.5595943354985571E+00
Ga    1.7598864747844670E-02    5.7273584943240339E+00    3.2496158188606827E+00
N    1.2836283754542091E-02    5.6165323604441220E+00    5.2104738175054024E+00
Ga    1.3580384736853945E-02    7.4712879352114596E+00    5.8399120840612486E+00
N    9.6146291445750130E-03    7.4728149605293277E+00    7.8124510933418785E+00
Ga    1.1425481624335430E-02    5.6040849028754467E+00    8.4011812405137256E+00
N    9.1836815794454300E-03    5.6035796736341981E+00    1.0394528732775886E+01
Ga    8.8406982518666032E-03    7.4724882709369229E+00    1.0989505340559470E+01
N    9.1168818499429965E-03    7.4741516511327957E+00    1.2962868938355870E+01
Ga    1.0324369959642418E-02    5.6022412771439472E+00    1.3586408670484600E+01
N    1.2086345252648015E-02    5.6377223658208395E+00    1.5544241686084078E+01
Ga    1.0501915869651372E-02    7.4711387715017104E+00    1.5826189581677097E+01
N   -1.7029790411306134E+00    1.0196714314609817E+01    2.4891631205365514E+00
Ga   -1.4916562946863750E+00    8.3402251430850249E+00    3.2479846058810069E+00
N   -1.5944692349883840E+00    8.3990688145521162E+00    5.2103632139701670E+00
Ga   -1.5725593557079802E+00    1.0271630170833074E+01    5.7628841780381208E+00
N   -1.5891811712922272E+00    1.0262820195793303E+01    7.7589771409829007E+00
Ga   -1.6077751546424628E+00    8.4062611876408599E+00    8.3998912848638625E+00
N   -1.6102585522187949E+00    8.4073592417668763E+00    1.0393468906049863E+01
Ga   -1.5838747175321042E+00    1.0266628637488315E+01    1.1029597262448446E+01
N   -1.5659867128314022E+00    1.0276482080259946E+01    1.3026126921750356E+01
Ga   -1.6088615740061436E+00    8.4080314409993093E+00    1.3581668086737194E+01
N   -1.5849044875125182E+00    8.3984521097140785E+00    1.5550601705260901E+01
Ga   -1.7421002544552027E+00    1.0175266469718593E+01    1.6424249773119257E+01
N    6.4448583941789455E+00    2.0231643174282592E+00    2.4944884345468297E+00
Ga    6.4458769047314508E+00    4.6750083154913046E-02    2.8290962452417698E+00
N    6.4418691508566504E+00    4.5883527819330729E-02    4.9830591106284210E+00
Ga    6.4401032589216953E+00    1.8747408296980901E+00    5.7662797240356474E+00
N    6.4417089907715051E+00    1.8907738591227981E+00    7.7619541760452391E+00
Ga    6.4416186824507999E+00    4.5101969202398125E-02    8.4082833199194145E+00
N    6.4420544652691607E+00    4.5433449117746529E-02    1.0382327397275139E+01
Ga    6.4415090294182207E+00    1.8855836802066723E+00    1.1032282332693047E+01
N    6.4435142372684249E+00    1.8666510071371341E+00    1.3027079753470016E+01
Ga    6.4445958377580421E+00    4.7118687523653342E-02    1.3824724641581609E+01
N    6.4461530528651387E+00    4.6769277867753929E-02    1.6036503172421181E+01
Ga    6.4442065980063310E+00    2.0899812392997550E+00    1.6448757762602771E+01
Ga    6.4579342678079916E+00    3.7440889603173266E+00    1.4584931677838440E+00
N    4.9605411905656656E+00    4.6210918272290566E+00    2.4737972665489152E+00
Ga    4.7347654112629707E+00    2.7803275463123764E+00    3.2557895910886065E+00
N    4.8344938984558530E+00    2.8315415768621106E+00    5.2156697058761701E+00
Ga    4.7951456642622974E+00    4.7103525636648920E+00    5.7607653812407280E+00
N    4.8271090336064715E+00    4.6919657255942129E+00    7.7646888945983781E+00
Ga    4.8433340337779276E+00    2.8380951829898566E+00    8.4015947856749555E+00
N    4.8442990559215842E+00    2.8365834527328126E+00    1.0396064988246032E+01
Ga    4.8183607229200707E+00    4.6963319234209981E+00    1.1033876266935167E+01
N    4.8027549706670367E+00    4.7062967009225414E+00    1.3030225526519164E+01
Ga    4.8458372076266834E+00    2.8370017441890734E+00    1.3584814140879837E+01
N    4.8191674327049085E+00    2.8180386147969947E+00    1.5549370547526427E+01
Ga    4.9903953113026258E+00    4.5985089868504989E+00    1.6447296367405102E+01
N    6.4333857254671738E+00    3.7583873875045821E+00    1.7578042942107508E+01
N    3.2257977132094329E+00    7.6126966412135681E+00    2.4679373140792551E+00
Ga    3.2345004642083546E+00    5.6134336724432030E+00    2.5581745849966437E+00
N    3.2280324602011734E+00    5.6152293397707371E+00    4.9945317358583523E+00
Ga    3.2269069659728329E+00    7.4264146007674547E+00    5.7582330361422684E+00
N    3.2263427140767873E+00    7.4645509293748864E+00    7.7632430081489217E+00
Ga    3.2262978136395599E+00    5.6164884033042322E+00    8.4055036790856335E+00
N    3.2263490272736757E+00    5.6161159357685060E+00    1.0382474255117719E+01
Ga    3.2254434534560152E+00    7.4544899833441036E+00    1.1034027485095663E+01
N    3.2265236664591934E+00    7.4360187644622195E+00    1.3030591715526475E+01
Ga    3.2233116225902254E+00    5.6139922578055801E+00    1.3836821594311692E+01
N    3.2236514193550736E+00    5.6137128630853050E+00    1.6036343203801689E+01
Ga    3.2273953725556033E+00    7.6495025921861703E+00    1.6444945080034373E+01
Ga    3.2238888523929905E+00    9.3641028129986559E+00    1.4459578872322210E+00
N    1.7228951929967860E+00    1.0201664743416389E+01    2.4976804817298355E+00
Ga    1.5285006327552253E+00    8.3405809886896094E+00    3.2524140545922231E+00
N    1.6185406546117909E+00    8.3996865779766470E+00    5.2133321567566488E+00
Ga    1.5929676918305073E+00    1.0269061957186727E+01    5.7643106186910904E+00
N    1.6073296178204999E+00    1.0263190909195620E+01    7.7606711740862604E+00
Ga    1.6291845119553867E+00    8.4057742834208735E+00    8.4010826531227547E+00
N    1.6281275048106885E+00    8.4072501961996426E+00    1.0395796669732192E+01
Ga    1.6032458280015220E+00    1.0266071732585045E+01    1.1032360592352418E+01
N    1.5878313223154636E+00    1.0276649820989876E+01    1.3027573548884790E+01
Ga    1.6294497566562165E+00    8.4080892908081726E+00    1.3585219700314729E+01
N    1.6003082871817882E+00    8.3939252165359513E+00    1.5550076825609151E+01
Ga    1.7809119652863830E+00    1.0165420738680533E+01    1.6446809062916131E+01
N    3.2217796595149375E+00    9.3208442795646427E+00    1.7574089608600719E+01
N    9.6591959554882720E+00    1.9017112363619288E+00    2.5758861539129194E+00
Ga    9.6592192732755056E+00    1.6167286577043530E-01    3.2633325409573177E+00
N    9.6586179310336071E+00    4.7935313118848050E-02    5.2226188816240722E+00
Ga    9.6580456570652977E+00    1.9022181554519229E+00    5.8489601191926068E+00
N    9.6580206736743150E+00    1.9023735480111166E+00    7.8185957840289113E+00
Ga    9.6579894314826067E+00    3.2510789226965250E-02    8.4016554889008646E+00
N    9.6580598177382324E+00    3.2363405588277480E-02    1.0394570931888115E+01
Ga    9.6576625744088904E+00    1.9022463418886997E+00    1.0988948228626894E+01
N    9.6584223864717664E+00    1.9016437553870364E+00    1.2960225972298684E+01
Ga    9.6592152166422451E+00    3.4440019874052361E-02    1.3584868445823211E+01
N    9.6597757370324455E+00    6.3927419171257341E-02    1.5547789984386341E+01
Ga    9.6609390498347079E+00    1.9031873611671468E+00    1.5828677697540636E+01
N    7.9468695856391314E+00    4.6249774557583931E+00    2.4918748600980294E+00
Ga    8.1525253956707804E+00    2.7722994153794129E+00    3.2610239431425065E+00
N    8.0525082686027982E+00    2.8295242621875132E+00    5.2207332870850172E+00
Ga    8.0739234106313287E+00    4.7026312188259283E+00    5.7667611583943845E+00
N    8.0602282901433817E+00    4.6936987630679914E+00    7.7620728647707820E+00
Ga    8.0392269846744284E+00    2.8369531328613582E+00    8.4029707623860670E+00
N    8.0385535795549057E+00    2.8375428563204310E+00    1.0395364712379036E+01
Ga    8.0649792821669912E+00    4.6963831812327230E+00    1.1033267997877690E+01
N    8.0823853352646040E+00    4.7051691731008480E+00    1.3027338318399982E+01
Ga    8.0418523999654195E+00    2.8366461959247693E+00    1.3584580770787657E+01
N    8.0679022647715009E+00    2.8214975973305543E+00    1.5547193287186559E+01
Ga    7.8856931307002638E+00    4.5911863251207770E+00    1.6448658028427086E+01
N    6.4338421298723292E+00    7.4664276518470309E+00    2.5581521529688680E+00
Ga    6.4403657776556402E+00    5.7272590972679849E+00    3.2588472829686088E+00
N    6.4430625029255868E+00    5.6171634481697126E+00    5.2170228681048743E+00
Ga    6.4393652961797265E+00    7.4718703696861501E+00    5.8432450137313889E+00
N    6.4422172088633278E+00    7.4729110110957953E+00    7.8153267522189349E+00
Ga    6.4406294207681389E+00    5.6037012551561434E+00    8.4030268034345053E+00
N    6.4423948577950814E+00    5.6035342655648179E+00    1.0397105718934485E+01
Ga    6.4412710581868415E+00    7.4725710235452709E+00    1.0990612835285955E+01
N    6.4435342203028467E+00    7.4737553713395011E+00    1.2964531321646241E+01
Ga    6.4435635134243849E+00    5.6031612783668923E+00    1.3585483691419196E+01
N    6.4468953600715508E+00    5.6368544469636852E+00    1.5548104818504138E+01
Ga    6.4433719407979222E+00    7.4732056385337531E+00    1.5829418863433537E+01
N    4.7295026493811099E+00    1.0200726095901279E+01    2.4953403195864912E+00
Ga    4.9253636447992521E+00    8.3413059094500532E+00    3.2511652328567586E+00
N    4.8354290129249806E+00    8.3997152548802489E+00    5.2127894505041290E+00
Ga    4.8594255026466273E+00    1.0269222178204565E+01    5.7649354450502113E+00
N    4.8443530491185136E+00    1.0262981346887910E+01    7.7611911025363653E+00
Ga    4.8225391783868847E+00    8.4059659545622232E+00    8.4028824867087994E+00
N    4.8229476559398012E+00    8.4077248111829928E+00    1.0397021879946310E+01
Ga    4.8486631586799840E+00    1.0266799204044705E+01    1.1032986901247474E+01
N    4.8654035805355198E+00    1.0276717190656948E+01    1.3027474852241474E+01
Ga    4.8237644314786898E+00    8.4084373810281310E+00    1.3585644476056192E+01
N    4.8542330204960171E+00    8.3944452433233092E+00    1.5548610082109853E+01
Ga    4.6699413275930066E+00    1.0163354681875020E+01    1.6446244708279082E+01
O    3.2254119773586130E+00    5.5707941869853554E+00    2.0350859846423974E-01
H    2.3215126423931882E+00    5.8436931341693574E+00   -1.9511844501814920E-02
C    4.1668875620512162E+00    6.4093986402797807E+00   -5.0362278974222630E-01
H    3.7845369115989445E+00    7.4322967300093890E+00   -6.3367417333395482E-01
H    5.0755308147604872E+00    6.4662163657418334E+00    1.0762366932514084E-01
H    4.3920992134573122E+00    5.9763088534218500E+00   -1.4876083874894461E+00
     &END COORD
     &KIND C
       BASIS_SET DZVP-MOLOPT-SR-GTH-q4
       POTENTIAL GTH-PBE-q4
       &POTENTIAL
 2 2
  0.3384712400000000E+00 2 -0.8803673979999999E+01  0.1339210850000000E+01
 2
  0.3025757500000000E+00 1  0.9622486650000001E+01
  0.2915069400000000E+00 0
         # Potential name:  GTH-PBE-Q4  for symbol:  C
         # Potential read from the potential filename: GTH_POTENTIALS
       &END POTENTIAL
     &END KIND
     &KIND O
       BASIS_SET DZVP-MOLOPT-SR-GTH-q6
       POTENTIAL GTH-PBE-q6
       &POTENTIAL
 2 4
  0.2445543000000000E+00 2 -0.1666721480000000E+02  0.2487311320000000E+01
 2
  0.2209559200000000E+00 1  0.1833745811000000E+02
  0.2113324700000000E+00 0
         # Potential name:  GTH-PBE-Q6  for symbol:  O
         # Potential read from the potential filename: GTH_POTENTIALS
       &END POTENTIAL
     &END KIND
     &KIND H
       BASIS_SET DZVP-MOLOPT-SR-GTH-q1
       POTENTIAL GTH-PBE-q1
       &POTENTIAL
 1
  0.2000000000000000E+00 2 -0.4178900440000000E+01  0.7244633100000000E+00
 0
         # Potential name:  GTH-PBE-Q1  for symbol:  H
         # Potential read from the potential filename: GTH_POTENTIALS
       &END POTENTIAL
     &END KIND
     &KIND N
       BASIS_SET DZVP-MOLOPT-SR-GTH
       POTENTIAL GTH-PBE-q5
       &POTENTIAL
 2 3
  0.2837905100000000E+00 2 -0.1241522559000000E+02  0.1868095920000000E+01
 2
  0.2554050000000000E+00 1  0.1363026257000000E+02
  0.2454945300000000E+00 0
         # Potential name:  GTH-PBE-Q5  for symbol:  N
         # Potential read from the potential filename: GTH_POTENTIALS
       &END POTENTIAL
     &END KIND
     &KIND Ga
       BASIS_SET DZVP-MOLOPT-SR-GTH
       POTENTIAL GTH-PBE-q13
       &POTENTIAL
 2 1 10
  0.4900000000000000E+00 0
 3
  0.4167772300000000E+00 3  0.1047568975000000E+02 -0.4921768140000000E+01  0.8707055900000000E+00
  0.7770178090000000E+01 -0.2248152160000000E+01
  0.1784415450000000E+01
  0.5696265200000000E+00 2  0.1777985340000000E+01  0.1958597600000000E+00
 -0.2317443900000000E+00
  0.2381265000000000E+00 1 -0.1624868022000000E+02
         # Potential name:  GTH-PBE-Q13  for symbol:  GA
         # Potential read from the potential filename: GTH_POTENTIALS
       &END POTENTIAL
     &END KIND
     &TOPOLOGY
       NUMBER_OF_ATOMS  206
       MULTIPLE_UNIT_CELL  1 1 1
     &END TOPOLOGY
   &END SUBSYS
 &END FORCE_EVAL
