 # Version information for this restart file 
 # current date 2019-06-24 16:05:56.959
 # current working dir /scratch/rzk/rzk/GaN-carbene/443-adatoms-both-2x2/02-Methanol/02-O-GaSur
 # Program compiled at                              Sun Apr  7 00:48:11 EDT 2019
 # Program compiled on                          beluga2.int.ets1.calculquebec.ca
 # Program compiled for                        Beluga-Linux-x86-64-intel-openmpi
 # Source code revision number                                         svn:18619
 &GLOBAL
   PRINT_LEVEL  MEDIUM
   PROJECT_NAME TEST
   RUN_TYPE  GEO_OPT
 &END GLOBAL
 &MOTION
   &GEO_OPT
     MAX_ITER  500
     STEP_START_VAL  75
   &END GEO_OPT
 &END MOTION
 &FORCE_EVAL
   METHOD  QS
   STRESS_TENSOR  ANALYTICAL
   &DFT
     BASIS_SET_FILE_NAME BASIS_MOLOPT
     POTENTIAL_FILE_NAME GTH_POTENTIALS
     UKS  T
     SURFACE_DIPOLE_CORRECTION  T
     SURF_DIP_DIR  Z
     &SCF
       MAX_SCF  80
       EPS_SCF     5.0000000000000004E-06
       &OT  T
         PRECONDITIONER  FULL_ALL
       &END OT
       &OUTER_SCF  T
         OPTIMIZER  NONE
         EPS_SCF     5.0000000000000004E-06
         MAX_SCF  4
       &END OUTER_SCF
       &PRINT
         &RESTART  OFF
           BACKUP_COPIES  1
           &EACH
             JUST_ENERGY  0
             QS_SCF  0
             MD  20
           &END EACH
         &END RESTART
       &END PRINT
     &END SCF
     &QS
       EPS_DEFAULT     1.0000000000000000E-14
       METHOD  GPW
     &END QS
     &MGRID
       NGRIDS  5
       CUTOFF     1.2000000000000000E+03
     &END MGRID
     &XC
       DENSITY_CUTOFF     1.0000000000000000E-10
       GRADIENT_CUTOFF     1.0000000000000000E-10
       TAU_CUTOFF     1.0000000000000000E-10
       &XC_FUNCTIONAL  NO_SHORTCUT
         &PBE  T
         &END PBE
       &END XC_FUNCTIONAL
       &VDW_POTENTIAL
         POTENTIAL_TYPE  PAIR_POTENTIAL
         &PAIR_POTENTIAL
           R_CUTOFF     1.0000000000000004E+01
           TYPE  DFTD3
           PARAMETER_FILE_NAME dftd3.dat
           REFERENCE_FUNCTIONAL PBE
           EPS_CN     9.9999999999999995E-07
           CALCULATE_C9_TERM  T
           REFERENCE_C9_TERM  T
           LONG_RANGE_CORRECTION  F
           VERBOSE_OUTPUT  F
         &END PAIR_POTENTIAL
       &END VDW_POTENTIAL
     &END XC
   &END DFT
   &SUBSYS
     &CELL
       A     1.2864472766435110E+01    0.0000000000000000E+00    0.0000000000000000E+00
       B    -6.4322363581020028E+00    1.1140960178524473E+01    0.0000000000000000E+00
       C     0.0000000000000000E+00    0.0000000000000000E+00    3.2000000000000000E+01
       MULTIPLE_UNIT_CELL  1 1 1
       &CELL_REF
         A     1.2982353780853531E+01    0.0000000000000000E+00    0.0000000000000000E+00
         B    -6.4911768904267628E+00    1.1243048175136114E+01    0.0000000000000000E+00
         C     0.0000000000000000E+00    0.0000000000000000E+00    3.2000000000000000E+01
         MULTIPLE_UNIT_CELL  1 1 1
       &END CELL_REF
     &END CELL
     &COORD
N    8.2841806991949835E-03    2.0229896545699115E+00    2.4951276699433436E+00
Ga    8.8734636638742297E-03    4.7549439427835807E-02    2.8288829996281200E+00
N    1.1129301734344616E-02    4.5820914333374874E-02    4.9839779946555973E+00
Ga    1.4167295967048152E-02    1.8758753040818328E+00    5.7640035629824524E+00
N    1.0930041539044342E-02    1.8910799574866857E+00    7.7605394830038792E+00
Ga    1.0349640324491021E-02    4.5635818505632621E-02    8.4078569900013314E+00
N    1.0298347002134235E-02    4.5823774681846466E-02    1.0382376804757833E+01
Ga    9.8451022766444397E-03    1.8864553508054900E+00    1.1032550933864830E+01
N    1.0163116063897418E-02    1.8673936892826564E+00    1.3025350824176201E+01
Ga    6.1920937973804872E-03    5.1084541638208657E-02    1.3827467388881336E+01
N    5.8904100121784419E-03    4.9973761790461521E-02    1.6034373809127473E+01
Ga    1.0017926127750289E-02    2.1064589135313683E+00    1.6465386521074123E+01
Ga   -1.5196047251525084E-02    3.7379903812300017E+00    1.4440517993668298E+00
N   -1.4934066171441143E+00    4.6236001847599821E+00    2.4936730357008607E+00
Ga   -1.6975995861650244E+00    2.7723936414287182E+00    3.2625396105109479E+00
N   -1.5993663679882870E+00    2.8293111159558162E+00    5.2217150710515803E+00
Ga   -1.6185924999686017E+00    4.7032607080030475E+00    5.7637731977027995E+00
N   -1.6075252337329100E+00    4.6940188322563952E+00    7.7602153076192035E+00
Ga   -1.5869030007579992E+00    2.8372810943199283E+00    8.4016190178349515E+00
N   -1.5872993127118331E+00    2.8372892195050627E+00    1.0394134507838892E+01
Ga   -1.6120283464167358E+00    4.6958034061245373E+00    1.1033104914446570E+01
N   -1.6286443450886590E+00    4.7056012487149026E+00    1.3025907401457834E+01
Ga   -1.5860799928827700E+00    2.8379075194315888E+00    1.3587590507408745E+01
N   -1.6135935498384506E+00    2.8214127043657409E+00    1.5546519984170583E+01
Ga   -1.4221443778919367E+00    4.5858218296205502E+00    1.6465557613320993E+01
N    1.1357594739027147E-02    3.7602831367670788E+00    1.7616026895380035E+01
N   -3.2052703589850458E+00    7.5944962686694018E+00    2.4877639698412559E+00
Ga   -3.2037325490342083E+00    5.6122963160742811E+00    2.8261841606735931E+00
N   -3.2050486960780797E+00    5.6151547388053178E+00    4.9822382023737699E+00
Ga   -3.2055049707079881E+00    7.4441114404379958E+00    5.7607058101582274E+00
N   -3.2063070963960634E+00    7.4623695476939531E+00    7.7581879612946381E+00
Ga   -3.2056715192738428E+00    5.6165746556065450E+00    8.4080812558171072E+00
N   -3.2057968804197863E+00    5.6162417330145047E+00    1.0382532308291475E+01
Ga   -3.2063646835248862E+00    7.4548712473373442E+00    1.1033160220263222E+01
N   -3.2058427767601416E+00    7.4353792826879976E+00    1.3031042617186374E+01
Ga   -3.2040979615328919E+00    5.6097081862794269E+00    1.3829423386083425E+01
N   -3.2047938464592325E+00    5.6094531458285415E+00    1.6035163658283146E+01
Ga   -3.2048578135518819E+00    7.6264032395565904E+00    1.6420963512133998E+01
Ga   -3.2050796240388393E+00    9.3320743105591717E+00    1.4630579732499027E+00
N   -4.7079945170183484E+00    1.0195829651440734E+01    2.4904294894520862E+00
Ga   -4.9187567355026598E+00    8.3394888219744594E+00    3.2479448454782633E+00
N   -4.8172681529909038E+00    8.3983213163306676E+00    5.2105024110411007E+00
Ga   -4.8386806844831387E+00    1.0271010325207762E+01    5.7624092202861439E+00
N   -4.8236084015978289E+00    1.0262468394618178E+01    7.7593567686324372E+00
Ga   -4.8046473614289695E+00    8.4064830639502368E+00    8.4016336050736076E+00
N   -4.8032503435353400E+00    8.4074811180278708E+00    1.0396414638726196E+01
Ga   -4.8294539981560343E+00    1.0267121086163630E+01    1.1032287428568686E+01
N   -4.8463009466443721E+00    1.0277252671898134E+01    1.3030286465152418E+01
Ga   -4.8026825179385648E+00    8.4081802914463886E+00    1.3582054540086073E+01
N   -4.8263076524901560E+00    8.3947069352676227E+00    1.5553576568461004E+01
Ga   -4.6792133520453083E+00    1.0182075359007971E+01    1.6420963499221035E+01
N   -3.2114069660727433E+00    9.3255276619882874E+00    1.7540306951417282E+01
N    3.2276767828125843E+00    1.9056877122518587E+00    2.5730962025273763E+00
Ga    3.2264382456734384E+00    1.6347237092155614E-01    3.2542979369673017E+00
N    3.2266070211532756E+00    4.7308184638030132E-02    5.2155971193034221E+00
Ga    3.2256016004758576E+00    1.9064565067384667E+00    5.8380385393660488E+00
N    3.2257282026259602E+00    1.9025178236332030E+00    7.8118172426636079E+00
Ga    3.2257114903302653E+00    3.4867841263369531E-02    8.3994141483594493E+00
N    3.2255555017951183E+00    3.2907370292364860E-02    1.0394500344065234E+01
Ga    3.2250445497476345E+00    1.9029370570931288E+00    1.0989871976498408E+01
N    3.2263871391387937E+00    1.9010795249860115E+00    1.2963332892954664E+01
Ga    3.2263344212672576E+00    3.3805527156639224E-02    1.3581417768772930E+01
N    3.2286273068460409E+00    6.0413946420448582E-02    1.5551901527247828E+01
Ga    3.2254652209978238E+00    1.9061490726038277E+00    1.5827805604305654E+01
N    1.4980798673171600E+00    4.6233288641609249E+00    2.4515047841889825E+00
Ga    1.7189172121127645E+00    2.7833854760571004E+00    3.2464174792051304E+00
N    1.6190417896356115E+00    2.8337207931504689E+00    5.2092178387315489E+00
Ga    1.6594695717713142E+00    4.7106941074096582E+00    5.7592589421356886E+00
N    1.6251024722599146E+00    4.6916179344360502E+00    7.7638487494297195E+00
Ga    1.6085497271312230E+00    2.8378912715143110E+00    8.4019627886500992E+00
N    1.6069347922758088E+00    2.8367994114671022E+00    1.0395427676957317E+01
Ga    1.6327616977824906E+00    4.6963825633777674E+00    1.1033056405269031E+01
N    1.6492184811857233E+00    4.7057907128187333E+00    1.3026978955610813E+01
Ga    1.6064956043434084E+00    2.8380154972108942E+00    1.3587842245111110E+01
N    1.6345185281459855E+00    2.8193450916991245E+00    1.5546875524823966E+01
Ga    1.4459733367853351E+00    4.5878259953334002E+00    1.6465160671056410E+01
N    1.8721627811504635E-02    7.4685127406208922E+00    2.5610368025857602E+00
Ga    1.7930774373911273E-02    5.7251881527550186E+00    3.2484905950271310E+00
N    1.3125525759778569E-02    5.6154744745487246E+00    5.2099681692137008E+00
Ga    1.3766740053930717E-02    7.4697226781124240E+00    5.8397864223200813E+00
N    9.9458117239733298E-03    7.4720617831966960E+00    7.8128134237051663E+00
Ga    1.1347197621135325E-02    5.6036179529768795E+00    8.4022992088210788E+00
N    9.3969863108218608E-03    5.6037571219689744E+00    1.0395595322918654E+01
Ga    9.4811307528368718E-03    7.4721725981410829E+00    1.0989964424067617E+01
N    8.9274484229772706E-03    7.4738729101898711E+00    1.2963520271671156E+01
Ga    1.0274574899500954E-02    5.6024028438176234E+00    1.3588140225299249E+01
N    8.7008706588441054E-03    5.6361349674384131E+00    1.5547324617905799E+01
Ga    1.2412078325587430E-02    7.4704067579754199E+00    1.5828118807539276E+01
N   -1.7027763098274638E+00    1.0196153141135495E+01    2.4911606579672654E+00
Ga   -1.4918188755422359E+00    8.3393918938355363E+00    3.2482572952139162E+00
N   -1.5937061687780256E+00    8.3982396915459958E+00    5.2107842655640066E+00
Ga   -1.5726169311370648E+00    1.0270904701302790E+01    5.7624513198139731E+00
N   -1.5889730179179058E+00    1.0262526115643512E+01    7.7592843440911299E+00
Ga   -1.6074049498315575E+00    8.4059465289764965E+00    8.4005348840563041E+00
N   -1.6099161929208370E+00    8.4073909709220089E+00    1.0395246591306115E+01
Ga   -1.5837417188233855E+00    1.0266882521156079E+01    1.1030914974232743E+01
N   -1.5662286585761638E+00    1.0276730657560330E+01    1.3028711015621148E+01
Ga   -1.6082559741352369E+00    8.4076518433736833E+00    1.3581281924853124E+01
N   -1.5839153723487274E+00    8.3962407143612410E+00    1.5551950912700461E+01
Ga   -1.7372692365882954E+00    1.0177912364058047E+01    1.6421591816589867E+01
N    6.4458839192645172E+00    2.0230531260058684E+00    2.4957511676411266E+00
Ga    6.4449024050517538E+00    4.6361938232312626E-02    2.8297075271367058E+00
N    6.4426423436995837E+00    4.5692234877426456E-02    4.9839380925949959E+00
Ga    6.4403135708905408E+00    1.8751980838199935E+00    5.7656176619290598E+00
N    6.4418967141166572E+00    1.8908344119116569E+00    7.7616968796719155E+00
Ga    6.4416289627202428E+00    4.5106680084243476E-02    8.4077606781320746E+00
N    6.4417899451803562E+00    4.5408928577840756E-02    1.0382388551362782E+01
Ga    6.4413301435945440E+00    1.8860754364825298E+00    1.1031502734580187E+01
N    6.4424236621532316E+00    1.8668676532432613E+00    1.3025627909265598E+01
Ga    6.4457743022030600E+00    4.8516080764467638E-02    1.3824039806124725E+01
N    6.4460789721756067E+00    4.8101332641865779E-02    1.6033992248439496E+01
Ga    6.4444432394721796E+00    2.0952338938487771E+00    1.6450602013429183E+01
Ga    6.4608998165212759E+00    3.7429655868426872E+00    1.4574938994245630E+00
N    4.9608680217646040E+00    4.6206451999250628E+00    2.4715550987890826E+00
Ga    4.7344042856255379E+00    2.7802744480239365E+00    3.2538235042713226E+00
N    4.8346719076179712E+00    2.8319763476192068E+00    5.2143322354260206E+00
Ga    4.7952725610196385E+00    4.7104163049201935E+00    5.7603103972804135E+00
N    4.8273434374745969E+00    4.6917477508311478E+00    7.7648399059958413E+00
Ga    4.8432683953848139E+00    2.8377455403780849E+00    8.4017073501752488E+00
N    4.8440525148438347E+00    2.8365725183577166E+00    1.0395811157888749E+01
Ga    4.8183704779006220E+00    4.6962987023693010E+00    1.1033193393962444E+01
N    4.8023898726728271E+00    4.7061926643211587E+00    1.3028844448203836E+01
Ga    4.8457225901055265E+00    2.8375979851110649E+00    1.3585512828364173E+01
N    4.8206683299699824E+00    2.8174712756441753E+00    1.5548143426549526E+01
Ga    4.9931098622073273E+00    4.5962059847083987E+00    1.6449704859351488E+01
N    6.4344666069367999E+00    3.7616748966989015E+00    1.7588834934237813E+01
N    3.2264721350370644E+00    7.6122042987789413E+00    2.4689037728443393E+00
Ga    3.2328765809900890E+00    5.6109532996658000E+00    2.5537436493876995E+00
N    3.2278424751922841E+00    5.6146927360608032E+00    4.9969926977736190E+00
Ga    3.2273638934894651E+00    7.4255704538993079E+00    5.7584877527343457E+00
N    3.2264438693152679E+00    7.4645003574900057E+00    7.7638580675380400E+00
Ga    3.2259100744919817E+00    5.6159413870172692E+00    8.4051447275914892E+00
N    3.2258714713298571E+00    5.6157994693688940E+00    1.0382573794935023E+01
Ga    3.2254818491139625E+00    7.4545351518155618E+00    1.1033137675574268E+01
N    3.2261532741572214E+00    7.4358287444214222E+00    1.3029096227570745E+01
Ga    3.2238321029144266E+00    5.6140523532571338E+00    1.3835210443325140E+01
N    3.2250371250428547E+00    5.6137227721940794E+00    1.6034665662018551E+01
Ga    3.2269987058832172E+00    7.6488440529604125E+00    1.6444280750593407E+01
Ga    3.2254732572036038E+00    9.3641428496284362E+00    1.4517265588584634E+00
N    1.7239908589806068E+00    1.0201146463284580E+01    2.5001258734735923E+00
Ga    1.5277534819387317E+00    8.3384686522896789E+00    3.2528741339972247E+00
N    1.6190584468344509E+00    8.3988753298373666E+00    5.2136565387787197E+00
Ga    1.5937598964057647E+00    1.0268556272324313E+01    5.7646302176980360E+00
N    1.6076600413651225E+00    1.0263036275619760E+01    7.7611324097982974E+00
Ga    1.6289897086589005E+00    8.4055778083427786E+00    8.4015984228925635E+00
N    1.6279646875539000E+00    8.4070993883592511E+00    1.0395907894801830E+01
Ga    1.6034927486529431E+00    1.0265945308816127E+01    1.1031278280543834E+01
N    1.5870313690470266E+00    1.0276366236564456E+01    1.3025847677237961E+01
Ga    1.6294435189172369E+00    8.4080254028982697E+00    1.3584579151998188E+01
N    1.6004666881281218E+00    8.3956534533608860E+00    1.5548336660377489E+01
Ga    1.7823086732661069E+00    1.0165273138606977E+01    1.6445352013891114E+01
N    3.2245485448324001E+00    9.3195673421827294E+00    1.7580510871759927E+01
N    9.6601797360518571E+00    1.9016824815429854E+00    2.5776417295535299E+00
Ga    9.6602458834469918E+00    1.6283815746695218E-01    3.2653182664135203E+00
N    9.6593066828764602E+00    4.7817856340629003E-02    5.2237846261345577E+00
Ga    9.6592010442325886E+00    1.9025693385624824E+00    5.8491874995733486E+00
N    9.6585801531358104E+00    1.9024399365520337E+00    7.8187991739836749E+00
Ga    9.6582880541932763E+00    3.2833389580463661E-02    8.4015092085774992E+00
N    9.6582618413170298E+00    3.2809645725263285E-02    1.0394499459370511E+01
Ga    9.6581064087571669E+00    1.9027185985307813E+00    1.0988976431370846E+01
N    9.6585490004219281E+00    1.9023900425060192E+00    1.2961670915406538E+01
Ga    9.6588032258187067E+00    3.3302118245457334E-02    1.3583211033559074E+01
N    9.6591653345082253E+00    6.2947788515305053E-02    1.5545309525302473E+01
Ga    9.6604564056148146E+00    1.9036309674733338E+00    1.5822335458977294E+01
N    7.9481501825185044E+00    4.6241513596909405E+00    2.4930494182425798E+00
Ga    8.1537405125184588E+00    2.7720894598689272E+00    3.2620653911632669E+00
N    8.0532757159146424E+00    2.8293632362025654E+00    5.2214035928449487E+00
Ga    8.0743894522189557E+00    4.7028235535165521E+00    5.7661211455979942E+00
N    8.0604855679496676E+00    4.6935803326959817E+00    7.7619946975774603E+00
Ga    8.0396900772170579E+00    2.8368040299647204E+00    8.4025516217914991E+00
N    8.0388389905676654E+00    2.8375140771769618E+00    1.0395029032377362E+01
Ga    8.0649254073011587E+00    4.6965146172507364E+00    1.1032621773442569E+01
N    8.0822438882419370E+00    4.7059379511481367E+00    1.3026648557910876E+01
Ga    8.0398686730504352E+00    2.8374476128875017E+00    1.3583945947356089E+01
N    8.0662782973443257E+00    2.8217231903629223E+00    1.5545083970133959E+01
Ga    7.8847872988815881E+00    4.5897034696425525E+00    1.6451336491806376E+01
N    6.4353899550844051E+00    7.4665658592268738E+00    2.5599945711809462E+00
Ga    6.4409323906135878E+00    5.7264366031745100E+00    3.2572974546656712E+00
N    6.4430494597928689E+00    5.6163835638460240E+00    5.2159444826275507E+00
Ga    6.4399298490723629E+00    7.4712023039605890E+00    5.8421519894514136E+00
N    6.4424499256763159E+00    7.4725995281113313E+00    7.8146188111375459E+00
Ga    6.4409822496894238E+00    5.6036174871676137E+00    8.4029191047317120E+00
N    6.4424112375447748E+00    5.6037907415406094E+00    1.0396848958118385E+01
Ga    6.4413631745566144E+00    7.4725437805234556E+00    1.0990418989986097E+01
N    6.4437304314941874E+00    7.4737131376607966E+00    1.2964451981133552E+01
Ga    6.4428007460350587E+00    5.6024375856616242E+00    1.3585443056086978E+01
N    6.4474395371372468E+00    5.6354155156460557E+00    1.5547691987721684E+01
Ga    6.4413798737584109E+00    7.4719159199224912E+00    1.5829139381006712E+01
N    4.7302138390730244E+00    1.0200650868715865E+01    2.4978614963082753E+00
Ga    4.9269956608014187E+00    8.3402936706152655E+00    3.2519030414729579E+00
N    4.8353964512557237E+00    8.3992473533721217E+00    5.2130010637567112E+00
Ga    4.8603297269613117E+00    1.0268921503180023E+01    5.7650045866513890E+00
N    4.8446029099177217E+00    1.0262960496919455E+01    7.7615218865317299E+00
Ga    4.8230456794012353E+00    8.4058617530781667E+00    8.4026783135669998E+00
N    4.8233176145468821E+00    8.4076333049099841E+00    1.0396891296300213E+01
Ga    4.8488790804621864E+00    1.0266831340850956E+01    1.1031947328850773E+01
N    4.8660175570274733E+00    1.0276772556292638E+01    1.3026365194878204E+01
Ga    4.8229597521882370E+00    8.4084441578145839E+00    1.3584165074937156E+01
N    4.8532193080949177E+00    8.3957970838929210E+00    1.5547327203227633E+01
Ga    4.6708259771433172E+00    1.0164774278948457E+01    1.6445776016907523E+01
O    3.2123496807910343E+00    5.5773007317473331E+00    2.0015970982196618E-01
H    2.3070767832414756E+00    5.8516707328384205E+00   -2.7847544240709916E-02
C    4.1646261608120643E+00    6.4118053282951877E+00   -5.0326742028558247E-01
H    3.7836752232751203E+00    7.4359175227062275E+00   -6.3482534444251815E-01
H    5.0715295457371523E+00    6.4647653840604997E+00    1.1427103193351393E-01
H    4.3930013888801343E+00    5.9776826910991003E+00   -1.4857904067479650E+00
     &END COORD
     &KIND C
       BASIS_SET DZVP-MOLOPT-SR-GTH-q4
       POTENTIAL GTH-PBE-q4
       &POTENTIAL
 2 2
  0.3384712400000000E+00 2 -0.8803673979999999E+01  0.1339210850000000E+01
 2
  0.3025757500000000E+00 1  0.9622486650000001E+01
  0.2915069400000000E+00 0
         # Potential name:  GTH-PBE-Q4  for symbol:  C
         # Potential read from the potential filename: GTH_POTENTIALS
       &END POTENTIAL
     &END KIND
     &KIND O
       BASIS_SET DZVP-MOLOPT-SR-GTH-q6
       POTENTIAL GTH-PBE-q6
       &POTENTIAL
 2 4
  0.2445543000000000E+00 2 -0.1666721480000000E+02  0.2487311320000000E+01
 2
  0.2209559200000000E+00 1  0.1833745811000000E+02
  0.2113324700000000E+00 0
         # Potential name:  GTH-PBE-Q6  for symbol:  O
         # Potential read from the potential filename: GTH_POTENTIALS
       &END POTENTIAL
     &END KIND
     &KIND H
       BASIS_SET DZVP-MOLOPT-SR-GTH-q1
       POTENTIAL GTH-PBE-q1
       &POTENTIAL
 1
  0.2000000000000000E+00 2 -0.4178900440000000E+01  0.7244633100000000E+00
 0
         # Potential name:  GTH-PBE-Q1  for symbol:  H
         # Potential read from the potential filename: GTH_POTENTIALS
       &END POTENTIAL
     &END KIND
     &KIND N
       BASIS_SET DZVP-MOLOPT-SR-GTH
       POTENTIAL GTH-PBE-q5
       &POTENTIAL
 2 3
  0.2837905100000000E+00 2 -0.1241522559000000E+02  0.1868095920000000E+01
 2
  0.2554050000000000E+00 1  0.1363026257000000E+02
  0.2454945300000000E+00 0
         # Potential name:  GTH-PBE-Q5  for symbol:  N
         # Potential read from the potential filename: GTH_POTENTIALS
       &END POTENTIAL
     &END KIND
     &KIND Ga
       BASIS_SET DZVP-MOLOPT-SR-GTH
       POTENTIAL GTH-PBE-q13
       &POTENTIAL
 2 1 10
  0.4900000000000000E+00 0
 3
  0.4167772300000000E+00 3  0.1047568975000000E+02 -0.4921768140000000E+01  0.8707055900000000E+00
  0.7770178090000000E+01 -0.2248152160000000E+01
  0.1784415450000000E+01
  0.5696265200000000E+00 2  0.1777985340000000E+01  0.1958597600000000E+00
 -0.2317443900000000E+00
  0.2381265000000000E+00 1 -0.1624868022000000E+02
         # Potential name:  GTH-PBE-Q13  for symbol:  GA
         # Potential read from the potential filename: GTH_POTENTIALS
       &END POTENTIAL
     &END KIND
     &TOPOLOGY
       NUMBER_OF_ATOMS  206
       MULTIPLE_UNIT_CELL  1 1 1
     &END TOPOLOGY
   &END SUBSYS
 &END FORCE_EVAL
