 # Version information for this restart file 
 # current date 2019-05-27 21:32:18.078
 # current working dir /lustre03/project/6004141/rzk/GaN-carbene/334-native/08-2Methanol-Htransfer/01-Constraint/1.06
 # Program compiled at                              Sun Apr  7 00:48:11 EDT 2019
 # Program compiled on                          beluga2.int.ets1.calculquebec.ca
 # Program compiled for                        Beluga-Linux-x86-64-intel-openmpi
 # Source code revision number                                         svn:18619
 &GLOBAL
   PRINT_LEVEL  MEDIUM
   PROJECT_NAME TEST
   RUN_TYPE  GEO_OPT
 &END GLOBAL
 &MOTION
   &GEO_OPT
     MAX_ITER  500
     STEP_START_VAL  264
   &END GEO_OPT
   &CONSTRAINT
     &COLLECTIVE
       COLVAR  1
       INTERMOLECULAR  T
       TARGET     2.0031097008587815E+00
       &RESTRAINT
         K     1.0000000000000001E-01
       &END RESTRAINT
     &END COLLECTIVE
     &COLVAR_RESTART
           2.0031097008587815E+00
     &END COLVAR_RESTART
   &END CONSTRAINT
 &END MOTION
 &FORCE_EVAL
   METHOD  QS
   STRESS_TENSOR  ANALYTICAL
   &DFT
     BASIS_SET_FILE_NAME BASIS_MOLOPT
     POTENTIAL_FILE_NAME GTH_POTENTIALS
     &SCF
       MAX_SCF  100
       EPS_SCF     5.0000000000000004E-06
       &OT  T
         PRECONDITIONER  FULL_ALL
       &END OT
       &OUTER_SCF  T
         OPTIMIZER  NONE
         EPS_SCF     5.0000000000000004E-06
         MAX_SCF  4
       &END OUTER_SCF
       &PRINT
         &RESTART  OFF
           BACKUP_COPIES  1
           &EACH
             JUST_ENERGY  0
             QS_SCF  0
             MD  20
           &END EACH
         &END RESTART
       &END PRINT
     &END SCF
     &QS
       EPS_DEFAULT     1.0000000000000000E-14
       ALMO_SCF  F
       METHOD  GPW
     &END QS
     &MGRID
       NGRIDS  5
       CUTOFF     1.2000000000000000E+03
     &END MGRID
     &XC
       DENSITY_CUTOFF     1.0000000000000000E-10
       GRADIENT_CUTOFF     1.0000000000000000E-10
       TAU_CUTOFF     1.0000000000000000E-10
       &XC_FUNCTIONAL  NO_SHORTCUT
         &PBE  T
         &END PBE
       &END XC_FUNCTIONAL
       &VDW_POTENTIAL
         POTENTIAL_TYPE  PAIR_POTENTIAL
         &PAIR_POTENTIAL
           R_CUTOFF     1.0000000000000005E+01
           TYPE  DFTD3
           PARAMETER_FILE_NAME dftd3.dat
           REFERENCE_FUNCTIONAL PBE
           EPS_CN     9.9999999999999995E-07
           CALCULATE_C9_TERM  T
           REFERENCE_C9_TERM  T
           LONG_RANGE_CORRECTION  F
           VERBOSE_OUTPUT  F
         &END PAIR_POTENTIAL
       &END VDW_POTENTIAL
     &END XC
   &END DFT
   &SUBSYS
     &CELL
       A     9.7367653356401487E+00    0.0000000000000000E+00    0.0000000000000000E+00
       B    -4.8591341382960209E+00    8.4162672083210595E+00    0.0000000000000000E+00
       C     0.0000000000000000E+00    0.0000000000000000E+00    3.0744000000000000E+01
       MULTIPLE_UNIT_CELL  1 1 1
       &CELL_REF
         A     9.5580000000000052E+00    0.0000000000000000E+00    0.0000000000000000E+00
         B    -4.7790000000000026E+00    8.2774708093716640E+00    0.0000000000000000E+00
         C     0.0000000000000000E+00    0.0000000000000000E+00    3.0744000000000000E+01
         MULTIPLE_UNIT_CELL  1 1 1
       &END CELL_REF
     &END CELL
     &COORD
Ga   -4.6993542500034249E-02   -2.5591516668320161E-02   -5.4869544386946423E-01
N   -4.3959172606654835E-02    1.8505870778937434E+00    6.0661323517897181E-01
Ga   -4.5127840001103939E-02    1.8179551994602405E+00    2.6341623071206119E+00
N   -4.8088711156505939E-02   -2.6088355661195200E-02    3.2673654989168330E+00
Ga   -4.8410716926732829E-02   -2.5003452379710439E-02    5.2545630051474239E+00
N   -4.5555814922585182E-02    1.8487739582288800E+00    5.8483089343335850E+00
Ga   -4.7403996252849662E-02    1.8471966825039794E+00    7.8443880940026336E+00
N   -4.8886387187142895E-02   -2.6451919979557811E-02    8.4490165689238577E+00
Ga   -4.6910230858621380E-02   -2.6711740592974140E-02    1.0442785578547563E+01
N   -4.3321012683425718E-02    1.8438257594904151E+00    1.1050159404631851E+01
Ga   -4.1214035232536514E-02    1.8396764113862092E+00    1.3045200086011523E+01
N   -5.1269985473681154E-02   -1.3014929629691731E-02    1.3706962124686548E+01
Ga   -3.4131795793208221E-02    7.9668866047072767E-03    1.5757077755246277E+01
N   -7.2490574919370360E-02    1.8968304113231800E+00    1.6340250391975996E+01
Ga   -1.2123723649123996E-01    1.9343445302398794E+00    1.8533796721850624E+01
N   -8.0942062853769564E-02    5.8457961916647809E-02    1.8901413183970973E+01
Ga   -1.6663997506214479E+00    2.7796559554368714E+00    3.2024086975573796E-01
N   -1.6689729240079334E+00    4.6488103430965095E+00    6.0651381750468014E-01
Ga   -1.6409272083478335E+00    4.6645754489247491E+00    2.6342490670682377E+00
N   -1.6676174396420480E+00    2.7794335356140203E+00    3.2302158071414850E+00
Ga   -1.6681957969773149E+00    2.7802852278928669E+00    5.2382487521388557E+00
N   -1.6673841996832999E+00    4.6505695714836186E+00    5.8493463298424482E+00
Ga   -1.6672045617793256E+00    4.6504943353032173E+00    7.8456957645230698E+00
N   -1.6683867448782281E+00    2.7804001402449519E+00    8.4540927544040958E+00
Ga   -1.6676557564311212E+00    2.7815608146529098E+00    1.0448452190600257E+01
N   -1.6703906336753540E+00    4.6592722451276476E+00    1.1047063687058767E+01
Ga   -1.6693913332220942E+00    4.6585616845199542E+00    1.3034676806893424E+01
N   -1.6594794385139457E+00    2.7917086667665103E+00    1.3611028884671617E+01
Ga   -1.6251503400273910E+00    2.7958866742020345E+00    1.5593906909164870E+01
N   -1.6408991864605078E+00    4.6901750951090468E+00    1.6172726607683945E+01
Ga   -1.6143814287626286E+00    4.8246343684157571E+00    1.8121446959322665E+01
N   -1.8673401785543795E+00    3.0111331776919585E+00    1.8885156104765432E+01
Ga   -3.2869700001774098E+00    5.5850667509409098E+00    3.2036970096899153E-01
N   -3.2788994272223446E+00    7.4545151414570165E+00    6.0652135837874654E-01
Ga   -3.3084451595438020E+00    7.4699584026802714E+00    2.6341531192352052E+00
N   -3.2872698848708581E+00    5.5845222774874621E+00    3.2294103249303006E+00
Ga   -3.2874420381438574E+00    5.5846310344527161E+00    5.2369598589972002E+00
N   -3.2828431651165384E+00    7.4555866977508449E+00    5.8456329392273405E+00
Ga   -3.2859773462597159E+00    7.4561344606099418E+00    7.8399450833363264E+00
N   -3.2902580042977481E+00    5.5862532210457694E+00    8.4500080603941683E+00
Ga   -3.2910668591940824E+00    5.5905483616607015E+00    1.0440444031531831E+01
N   -3.2912706464100623E+00    7.4543521102134536E+00    1.1069965629976542E+01
Ga   -3.3032898065981779E+00    7.4668166332446759E+00    1.3072691942387493E+01
N   -3.3102937601134625E+00    5.5752080928698984E+00    1.3680849784598706E+01
Ga   -3.2418597419671933E+00    5.6575089528391027E+00    1.5661446022883959E+01
N   -3.3129880929994058E+00    7.4371532462250469E+00    1.6356665590010593E+01
Ga   -3.3116884325766720E+00    7.5044488968120486E+00    1.8575273795060532E+01
N   -2.9680708734196295E+00    5.7032321858903030E+00    1.9122211151883263E+01
Ga    3.1990213577576587E+00   -2.5798235208624037E-02    3.2072145852908573E-01
N    3.1967173396527451E+00    1.8435415192327431E+00    6.0668787858168882E-01
Ga    3.2248786702081338E+00    1.8593312679544647E+00    2.6344239019843503E+00
N    3.1978443266783083E+00   -2.6192368973491739E-02    3.2293051917833409E+00
Ga    3.1979795595899962E+00   -2.5417974151896155E-02    5.2368665044122249E+00
N    3.1979277520457585E+00    1.8444267072592642E+00    5.8482267094752327E+00
Ga    3.1967238950344790E+00    1.8433677620121609E+00    7.8438633004689473E+00
N    3.1928426794516507E+00   -2.7323784141731821E-02    8.4526678728850335E+00
Ga    3.1884068713767038E+00   -2.7970438601029476E-02    1.0446338898442358E+01
N    3.1925454433993643E+00    1.8428774330192350E+00    1.1052633603205832E+01
Ga    3.1745205358603839E+00    1.8301911807320834E+00    1.3045481190009642E+01
N    3.1836069527668478E+00   -3.1192767979978137E-02    1.3679872130437685E+01
Ga    3.1619418460668403E+00   -4.8809050689591585E-02    1.5713525957883025E+01
N    3.1769642400908009E+00    1.8565721135305722E+00    1.6258216347794690E+01
Ga    2.9026896104075428E+00    1.7798281501110667E+00    1.8257290824963459E+01
N    3.1977371530508365E+00    5.8830447523017339E-02    1.8824191375222000E+01
Ga    1.5787166579733996E+00    2.7799388803635350E+00    3.2085539971378452E-01
N    1.5862848116960926E+00    4.6492983028587433E+00    6.0719599585538742E-01
Ga    1.5570002121833331E+00    4.6646939280042012E+00    2.6348163141696528E+00
N    1.5781266876439863E+00    2.7791864714158407E+00    3.2297219312179726E+00
Ga    1.5779367765633394E+00    2.7799566868621373E+00    5.2373812044605419E+00
N    1.5829118773948319E+00    4.6505590877879133E+00    5.8472425411037126E+00
Ga    1.5802756549848254E+00    4.6506801638795148E+00    7.8424338023059814E+00
N    1.5761884976886975E+00    2.7802721443227592E+00    8.4489702756778318E+00
Ga    1.5762176784191759E+00    2.7792120463534924E+00    1.0439605277449598E+01
N    1.5847734142090308E+00    4.6526286242839765E+00    1.1048670722807120E+01
Ga    1.5850686751338701E+00    4.6467969124965967E+00    1.3034870257850299E+01
N    1.5693781070682193E+00    2.7876255277588577E+00    1.3665855982550999E+01
Ga    1.5422856191946330E+00    2.7855041076336704E+00    1.5668568605197740E+01
N    1.5895874674566017E+00    4.6905916203022153E+00    1.6251305687166155E+01
Ga    1.4557912835820530E+00    4.5968258295645379E+00    1.8204319628200381E+01
N    1.5346478542704105E+00    2.8848605753274530E+00    1.8915377120037935E+01
Ga   -4.0479792952686111E-02    5.5853860954779897E+00   -5.4884152189597124E-01
N   -3.7745263146447938E-02    7.4612255184209531E+00    6.0658463779118454E-01
Ga   -3.8726862625905384E-02    7.4285757320656298E+00    2.6342004344593519E+00
N   -4.1915806622002789E-02    5.5847897896510332E+00    3.2685943164650157E+00
Ga   -4.2241332357861761E-02    5.5860250829936922E+00    5.2564183819636705E+00
N   -3.9337731642855138E-02    7.4600887946601553E+00    5.8501605285178959E+00
Ga   -4.0579614333252349E-02    7.4584016338659920E+00    7.8471296060264430E+00
N   -4.2232174541584525E-02    5.5847072104502882E+00    8.4505951794938099E+00
Ga   -4.2553840681501753E-02    5.5898465125736436E+00    1.0444921861944774E+01
N   -4.4645563716226008E-02    7.4620590657092878E+00    1.1046416112470826E+01
Ga   -4.9999734045298283E-02    7.4706860951061644E+00    1.3038168490109614E+01
N   -3.4807353866239461E-02    5.5914851884161401E+00    1.3617027144161389E+01
Ga   -2.3029821651903544E-02    5.6452992940986944E+00    1.5589181873935500E+01
N   -3.8023791285524577E-02    7.4737689503317242E+00    1.6229045843123277E+01
Ga   -4.8100084709817581E-02    7.6549765893941686E+00    1.8277555527435126E+01
N    3.7814651234893248E-02    5.7209577973839867E+00    1.8772672148186075E+01
Ga    6.4435499058357397E+00   -2.5137529949303919E-02    3.2057009312944929E-01
N    6.4517163584954158E+00    1.8441211007225904E+00    6.0681311349533584E-01
Ga    6.4222910641867879E+00    1.8596113274610542E+00    2.6343420614048103E+00
N    6.4432004350454317E+00   -2.5962931589954830E-02    3.2300184055425114E+00
Ga    6.4427536807682362E+00   -2.4992790421506587E-02    5.2379723142933416E+00
N    6.4483763784481081E+00    1.8446202954658446E+00    5.8507400632634798E+00
Ga    6.4469011190875634E+00    1.8437739343709778E+00    7.8479321150547641E+00
N    6.4436812180582566E+00   -2.7801055031406816E-02    8.4545122721612458E+00
Ga    6.4449780942543766E+00   -2.7757358732175930E-02    1.0449343107398176E+01
N    6.4457446531162796E+00    1.8452306502570328E+00    1.1046684729641193E+01
Ga    6.4566695770466245E+00    1.8362752853000179E+00    1.3037570399913443E+01
N    6.4484019062340376E+00   -3.9791868471901824E-02    1.3628813091212539E+01
Ga    6.4538379668676420E+00   -5.5213765155986520E-02    1.5626857176700327E+01
N    6.4882283998219634E+00    1.8384022679284671E+00    1.6091948362625342E+01
Ga    6.4832350537930159E+00    1.9149334786454093E+00    1.8058351009765051E+01
N    6.3896984529443648E+00    1.7156307937047269E-01    1.8755557214474539E+01
Ga    4.8255176513609586E+00    2.7805037799799388E+00   -5.4907773275531568E-01
N    4.8276727436156328E+00    4.6553590279277239E+00    6.0694965654526489E-01
Ga    4.8267865382330601E+00    4.6223590024906471E+00    2.6345287946866103E+00
N    4.8237889882888023E+00    2.7787732331780601E+00    3.2690510597068032E+00
Ga    4.8239534109121900E+00    2.7790792768399091E+00    5.2567983510748082E+00
N    4.8263181498211107E+00    4.6533406789206850E+00    5.8478623834834975E+00
Ga    4.8251017395011804E+00    4.6508277836327840E+00    7.8430819110612786E+00
N    4.8207461680787533E+00    2.7779093547530724E+00    8.4505729598007235E+00
Ga    4.8194305972481031E+00    2.7729953003542662E+00    1.0444536485987706E+01
N    4.8249473537046299E+00    4.6492124001911970E+00    1.1047587639938232E+01
Ga    4.8235783680037443E+00    4.6425759368313075E+00    1.3027903903020494E+01
N    4.8114063820613211E+00    2.7681824282994705E+00    1.3615956489351962E+01
Ga    4.8188386683924760E+00    2.6572182932765100E+00    1.5571179155091318E+01
N    4.7836584530635076E+00    4.5137939496907702E+00    1.6339737447802047E+01
Ga    6.5066768837797859E+00    4.1230224699519029E+00    2.0042182897726263E+01
N    4.9649000502267659E+00    3.3008236038287699E+00    1.8346847812688072E+01
Ga    3.2052890103022009E+00    5.5844669763794164E+00    3.2101721781463555E-01
N    3.2020047866388017E+00    7.4538931800027868E+00    6.0668052191222144E-01
Ga    3.2303637952079067E+00    7.4699465746205682E+00    2.6342145835888000E+00
N    3.2043052608185794E+00    5.5845714286618175E+00    3.2293953193124962E+00
Ga    3.2042514582400070E+00    5.5850543024338517E+00    5.2368976533049496E+00
N    3.2042681203778494E+00    7.4556275175940270E+00    5.8471037373349510E+00
Ga    3.2045645142679655E+00    7.4564356992864953E+00    7.8422616602103954E+00
N    3.2031257145348313E+00    5.5851341861596309E+00    8.4485085911764948E+00
Ga    3.2051226511127444E+00    5.5873054742676489E+00    1.0437572529720171E+01
N    3.2123074242632188E+00    7.4533936658223281E+00    1.1058699060057283E+01
Ga    3.2250161914446016E+00    7.4645857148332837E+00    1.3054051166275578E+01
N    3.2174428964194930E+00    5.5782039301498569E+00    1.3672666377087738E+01
Ga    3.1806380519148956E+00    5.6308641607148733E+00    1.5641135789910464E+01
N    3.2127397645282967E+00    7.4442181542944903E+00    1.6296427043294802E+01
Ga    3.1692285883823450E+00    7.8114243652630551E+00    1.8289347567510326E+01
N    4.6586335445606508E+00    4.3607378228331548E+00    1.7717549627127745E+01
O    3.0868233285386162E+00    5.7798231148231833E+00    1.8987681917162078E+01
H   -8.7224569910528113E-02    5.6543285143003503E+00    1.9789276397398258E+01
C    3.2545420271914383E+00    5.6944727494908749E+00    2.0452439880862745E+01
H    2.3851199077205849E+00    6.1741535298107362E+00    2.0913293128684113E+01
H    3.3240067539940239E+00    4.6391285872342065E+00    2.0739122152583331E+01
H    4.1682446211004978E+00    6.2396602323489008E+00    2.0717765341814083E+01
O    5.8150528237995340E+00    3.5666735007952544E+00    2.1615261014165981E+01
H    3.9035235571289695E+00    5.2560239727170472E+00    1.8474259511281574E+01
C    5.4701110771225059E+00    2.1701132285585456E+00    2.1732510275777976E+01
H    4.5118336493604883E+00    1.9499993105512357E+00    2.1232946966211699E+01
H    6.2339594667904397E+00    1.5013824890136880E+00    2.1305508070778703E+01
H    5.3655303434267507E+00    1.9498133090248120E+00    2.2804088324071316E+01
     &END COORD
     &KIND C
       BASIS_SET DZVP-MOLOPT-SR-GTH-q4
       POTENTIAL GTH-PBE-q4
       &POTENTIAL
 2 2
  0.3384712400000000E+00 2 -0.8803673979999999E+01  0.1339210850000000E+01
 2
  0.3025757500000000E+00 1  0.9622486650000001E+01
  0.2915069400000000E+00 0
         # Potential name:  GTH-PBE-Q4  for symbol:  C
         # Potential read from the potential filename: GTH_POTENTIALS
       &END POTENTIAL
     &END KIND
     &KIND O
       BASIS_SET DZVP-MOLOPT-SR-GTH-q6
       POTENTIAL GTH-PBE-q6
       &POTENTIAL
 2 4
  0.2445543000000000E+00 2 -0.1666721480000000E+02  0.2487311320000000E+01
 2
  0.2209559200000000E+00 1  0.1833745811000000E+02
  0.2113324700000000E+00 0
         # Potential name:  GTH-PBE-Q6  for symbol:  O
         # Potential read from the potential filename: GTH_POTENTIALS
       &END POTENTIAL
     &END KIND
     &KIND H
       BASIS_SET DZVP-MOLOPT-SR-GTH-q1
       POTENTIAL GTH-PBE-q1
       &POTENTIAL
 1
  0.2000000000000000E+00 2 -0.4178900440000000E+01  0.7244633100000000E+00
 0
         # Potential name:  GTH-PBE-Q1  for symbol:  H
         # Potential read from the potential filename: GTH_POTENTIALS
       &END POTENTIAL
     &END KIND
     &KIND N
       BASIS_SET DZVP-MOLOPT-SR-GTH-q5
       POTENTIAL GTH-PBE-q5
       &POTENTIAL
 2 3
  0.2837905100000000E+00 2 -0.1241522559000000E+02  0.1868095920000000E+01
 2
  0.2554050000000000E+00 1  0.1363026257000000E+02
  0.2454945300000000E+00 0
         # Potential name:  GTH-PBE-Q5  for symbol:  N
         # Potential read from the potential filename: GTH_POTENTIALS
       &END POTENTIAL
     &END KIND
     &KIND Ga
       BASIS_SET DZVP-MOLOPT-SR-GTH-q13
       POTENTIAL GTH-PBE-q13
       &POTENTIAL
 2 1 10
  0.4900000000000000E+00 0
 3
  0.4167772300000000E+00 3  0.1047568975000000E+02 -0.4921768140000000E+01  0.8707055900000000E+00
  0.7770178090000000E+01 -0.2248152160000000E+01
  0.1784415450000000E+01
  0.5696265200000000E+00 2  0.1777985340000000E+01  0.1958597600000000E+00
 -0.2317443900000000E+00
  0.2381265000000000E+00 1 -0.1624868022000000E+02
         # Potential name:  GTH-PBE-Q13  for symbol:  GA
         # Potential read from the potential filename: GTH_POTENTIALS
       &END POTENTIAL
     &END KIND
     &TOPOLOGY
       COORD_FILE_NAME ../start-first.xyz
       COORD_FILE_FORMAT  XYZ
       NUMBER_OF_ATOMS  156
       MULTIPLE_UNIT_CELL  1 1 1
     &END TOPOLOGY
     &COLVAR
       &DISTANCE
         ATOMS  145 152
       &END DISTANCE
       &PRINT
       &END PRINT
     &END COLVAR
   &END SUBSYS
 &END FORCE_EVAL
