 # Version information for this restart file 
 # current date 2019-05-27 21:33:05.377
 # current working dir /lustre03/project/6004141/rzk/GaN-carbene/334-native/08-2Methanol-Htransfer/01-Constraint/1.06
 # Program compiled at                              Sun Apr  7 00:48:11 EDT 2019
 # Program compiled on                          beluga2.int.ets1.calculquebec.ca
 # Program compiled for                        Beluga-Linux-x86-64-intel-openmpi
 # Source code revision number                                         svn:18619
 &GLOBAL
   PRINT_LEVEL  MEDIUM
   PROJECT_NAME TEST
   RUN_TYPE  GEO_OPT
 &END GLOBAL
 &MOTION
   &GEO_OPT
     MAX_ITER  500
     STEP_START_VAL  265
   &END GEO_OPT
   &CONSTRAINT
     &COLLECTIVE
       COLVAR  1
       INTERMOLECULAR  T
       TARGET     2.0031097008587815E+00
       &RESTRAINT
         K     1.0000000000000001E-01
       &END RESTRAINT
     &END COLLECTIVE
     &COLVAR_RESTART
           2.0031097008587815E+00
     &END COLVAR_RESTART
   &END CONSTRAINT
 &END MOTION
 &FORCE_EVAL
   METHOD  QS
   STRESS_TENSOR  ANALYTICAL
   &DFT
     BASIS_SET_FILE_NAME BASIS_MOLOPT
     POTENTIAL_FILE_NAME GTH_POTENTIALS
     &SCF
       MAX_SCF  100
       EPS_SCF     5.0000000000000004E-06
       &OT  T
         PRECONDITIONER  FULL_ALL
       &END OT
       &OUTER_SCF  T
         OPTIMIZER  NONE
         EPS_SCF     5.0000000000000004E-06
         MAX_SCF  4
       &END OUTER_SCF
       &PRINT
         &RESTART  OFF
           BACKUP_COPIES  1
           &EACH
             JUST_ENERGY  0
             QS_SCF  0
             MD  20
           &END EACH
         &END RESTART
       &END PRINT
     &END SCF
     &QS
       EPS_DEFAULT     1.0000000000000000E-14
       ALMO_SCF  F
       METHOD  GPW
     &END QS
     &MGRID
       NGRIDS  5
       CUTOFF     1.2000000000000000E+03
     &END MGRID
     &XC
       DENSITY_CUTOFF     1.0000000000000000E-10
       GRADIENT_CUTOFF     1.0000000000000000E-10
       TAU_CUTOFF     1.0000000000000000E-10
       &XC_FUNCTIONAL  NO_SHORTCUT
         &PBE  T
         &END PBE
       &END XC_FUNCTIONAL
       &VDW_POTENTIAL
         POTENTIAL_TYPE  PAIR_POTENTIAL
         &PAIR_POTENTIAL
           R_CUTOFF     1.0000000000000005E+01
           TYPE  DFTD3
           PARAMETER_FILE_NAME dftd3.dat
           REFERENCE_FUNCTIONAL PBE
           EPS_CN     9.9999999999999995E-07
           CALCULATE_C9_TERM  T
           REFERENCE_C9_TERM  T
           LONG_RANGE_CORRECTION  F
           VERBOSE_OUTPUT  F
         &END PAIR_POTENTIAL
       &END VDW_POTENTIAL
     &END XC
   &END DFT
   &SUBSYS
     &CELL
       A     9.7367653356401487E+00    0.0000000000000000E+00    0.0000000000000000E+00
       B    -4.8591341382960209E+00    8.4162672083210595E+00    0.0000000000000000E+00
       C     0.0000000000000000E+00    0.0000000000000000E+00    3.0744000000000000E+01
       MULTIPLE_UNIT_CELL  1 1 1
       &CELL_REF
         A     9.5580000000000052E+00    0.0000000000000000E+00    0.0000000000000000E+00
         B    -4.7790000000000026E+00    8.2774708093716640E+00    0.0000000000000000E+00
         C     0.0000000000000000E+00    0.0000000000000000E+00    3.0744000000000000E+01
         MULTIPLE_UNIT_CELL  1 1 1
       &END CELL_REF
     &END CELL
     &COORD
Ga   -4.6885666489277042E-02   -2.5724706909401068E-02   -5.4877915297071456E-01
N   -4.3795747659152728E-02    1.8504822166374326E+00    6.0644846440648215E-01
Ga   -4.4993026798039772E-02    1.8178546469201091E+00    2.6339739021321926E+00
N   -4.7914013549046383E-02   -2.6172135384839250E-02    3.2672262850655147E+00
Ga   -4.8270809763780530E-02   -2.4990825477733365E-02    5.2544332630640396E+00
N   -4.5456235621315282E-02    1.8487926546401585E+00    5.8482190001580028E+00
Ga   -4.7345262800983987E-02    1.8472967104985341E+00    7.8443610825263566E+00
N   -4.8836669201435610E-02   -2.6346862122128920E-02    8.4490227140872225E+00
Ga   -4.6899215708159650E-02   -2.6652224900302078E-02    1.0442891946996401E+01
N   -4.3284032776748367E-02    1.8438800240028677E+00    1.1050315833017569E+01
Ga   -4.1260657304790713E-02    1.8396851199263260E+00    1.3045441168304048E+01
N   -5.1325151992533409E-02   -1.3015326215331019E-02    1.3707180510808314E+01
Ga   -3.4257442697571555E-02    7.9550420456780888E-03    1.5757284536267305E+01
N   -7.2599832277743997E-02    1.8968108717054348E+00    1.6340296337221751E+01
Ga   -1.2124046876270865E-01    1.9343783226975770E+00    1.8533582234779232E+01
N   -8.1036355154514697E-02    5.8515098712733804E-02    1.8901192032383374E+01
Ga   -1.6662338435031991E+00    2.7795415908671854E+00    3.2002494760405248E-01
N   -1.6688131082504982E+00    4.6487003660651682E+00    6.0627276932552987E-01
Ga   -1.6407294133931432E+00    4.6644861430486317E+00    2.6339970449142278E+00
N   -1.6674567738117689E+00    2.7793750483748827E+00    3.2300736330303916E+00
Ga   -1.6680784793048014E+00    2.7803065759166543E+00    5.2381204751463502E+00
N   -1.6672657899476828E+00    4.6505899550307808E+00    5.8492677147261549E+00
Ga   -1.6671480195328290E+00    4.6505918606401560E+00    7.8456467428195369E+00
N   -1.6683187901537295E+00    2.7805161682004043E+00    8.4541099474107746E+00
Ga   -1.6676088663853375E+00    2.7815943242600745E+00    1.0448525548347185E+01
N   -1.6703723743888435E+00    4.6593211299944359E+00    1.1047169816027477E+01
Ga   -1.6694199904109359E+00    4.6585295295533147E+00    1.3034825285907639E+01
N   -1.6595518779947629E+00    2.7916806019137121E+00    1.3611253642016573E+01
Ga   -1.6253022174918883E+00    2.7958772248843573E+00    1.5594112355739499E+01
N   -1.6410575639606511E+00    4.6902097005134387E+00    1.6172847007425553E+01
Ga   -1.6145775838874090E+00    4.8247063121575433E+00    1.8121580048847584E+01
N   -1.8676205345347006E+00    3.0111437094098532E+00    1.8885201422589184E+01
Ga   -3.2868142871262656E+00    5.5849661243984157E+00    3.2019074966265487E-01
N   -3.2787194113695266E+00    7.4544035566432632E+00    6.0635864547419427E-01
Ga   -3.3082796013438478E+00    7.4698897097863561E+00    2.6339412213200717E+00
N   -3.2870657538233532E+00    5.5844611968063864E+00    3.2292492472091792E+00
Ga   -3.2872943388547284E+00    5.5846586961335145E+00    5.2368130637614936E+00
N   -3.2827147504252312E+00    7.4555910008604833E+00    5.8455559011172840E+00
Ga   -3.2859330973348357E+00    7.4562239386617559E+00    7.8399289588383754E+00
N   -3.2901948916149903E+00    5.5863659954237752E+00    8.4499916237477812E+00
Ga   -3.2910523182682523E+00    5.5906018271438862E+00    1.0440502290998433E+01
N   -3.2912846463365373E+00    7.4543940147144827E+00    1.1070052146402491E+01
Ga   -3.3033489857354503E+00    7.4668066994791369E+00    1.3072841625736100E+01
N   -3.3103192652207594E+00    5.5751778895134292E+00    1.3680986757858468E+01
Ga   -3.2419870738444043E+00    5.6574893674463249E+00    1.5661566017188793E+01
N   -3.3131183071788057E+00    7.4371209995599949E+00    1.6356708500090846E+01
Ga   -3.3117336761390930E+00    7.5045575844186718E+00    1.8575208154113739E+01
N   -2.9683130081730855E+00    5.7033623320890499E+00    1.9122299510019864E+01
Ga    3.1992001816253297E+00   -2.5931111191598955E-02    3.2058164745440243E-01
N    3.1968600242295033E+00    1.8433833632694721E+00    6.0655403764395699E-01
Ga    3.2250639102384806E+00    1.8592380418753878E+00    2.6342396996847390E+00
N    3.1979993556566049E+00   -2.6280600480783019E-02    3.2291749625347994E+00
Ga    3.1981056751627115E+00   -2.5416055584099886E-02    5.2367520668001761E+00
N    3.1980433899800791E+00    1.8444444292753592E+00    5.8481623920580343E+00
Ga    3.1967764830766869E+00    1.8434564862011042E+00    7.8438458708639498E+00
N    3.1928785421083870E+00   -2.7237686890543369E-02    8.4526616598278590E+00
Ga    3.1884062786273182E+00   -2.7919352616272895E-02    1.0446404668886473E+01
N    3.1925494808359951E+00    1.8429290071514699E+00    1.1052708775677425E+01
Ga    3.1744722519597053E+00    1.8301757967453092E+00    1.3045620300176196E+01
N    3.1835069023614007E+00   -3.1197473030694631E-02    1.3680051203717905E+01
Ga    3.1618222228567183E+00   -4.8747852299919549E-02    1.5713702943427204E+01
N    3.1768793750162687E+00    1.8565913283838815E+00    1.6258311547672310E+01
Ga    2.9027745052232117E+00    1.7799406272185043E+00    1.8257321197269949E+01
N    3.1976671895938518E+00    5.8927567910201692E-02    1.8824259887562466E+01
Ga    1.5788967017043853E+00    2.7798032584619716E+00    3.2071257469307479E-01
N    1.5864923471392700E+00    4.6491269674476019E+00    6.0708239009178655E-01
Ga    1.5571498326760422E+00    4.6645889348181564E+00    2.6346115999908681E+00
N    1.5782867053273502E+00    2.7790770224837966E+00    3.2295940665281084E+00
Ga    1.5780470613350790E+00    2.7799563159897178E+00    5.2372856653744888E+00
N    1.5830377023100206E+00    4.6505853621007613E+00    5.8471833850875505E+00
Ga    1.5803232762441553E+00    4.6507892281737702E+00    7.8424413932924057E+00
N    1.5762338297565781E+00    2.7803645956159069E+00    8.4489680656876782E+00
Ga    1.5762358904006983E+00    2.7792681168288751E+00    1.0439702971341601E+01
N    1.5848027492514190E+00    4.6526970179036731E+00    1.1048784658597802E+01
Ga    1.5850653690535248E+00    4.6467851281533470E+00    1.3035031900620247E+01
N    1.5693497182228817E+00    2.7876432838541718E+00    1.3666078501054283E+01
Ga    1.5422011712006167E+00    2.7855380763719020E+00    1.5668762702002887E+01
N    1.5894156283668546E+00    4.6906545541371241E+00    1.6251471609446011E+01
Ga    1.4555369589567546E+00    4.5968952038253912E+00    1.8204393357565404E+01
N    1.5345513009761382E+00    2.8849062235067340E+00    1.8915345064626226E+01
Ga   -4.0228333338167568E-02    5.5853075014684768E+00   -5.4893023810466202E-01
N   -3.7572146537054277E-02    7.4611497257949120E+00    6.0650108409917258E-01
Ga   -3.8548896086291667E-02    7.4284895441546945E+00    2.6340458671958293E+00
N   -4.1748841277443029E-02    5.5846949555685326E+00    3.2684643713076644E+00
Ga   -4.2096478111717454E-02    5.5860234707158201E+00    5.2562972659739149E+00
N   -3.9218941462554252E-02    7.4601034610675709E+00    5.8500877824020057E+00
Ga   -4.0520667415000093E-02    7.4584973931462137E+00    7.8471097926601603E+00
N   -4.2201742219968842E-02    5.5848077676721051E+00    8.4505956624637726E+00
Ga   -4.2548107171777386E-02    5.5899049489245458E+00    1.0445010267288797E+01
N   -4.4673167911253392E-02    7.4620883830633744E+00    1.1046541311747049E+01
Ga   -5.0092081712969354E-02    7.4706597147874385E+00    1.3038377475952201E+01
N   -3.4854715251595593E-02    5.5914302749945337E+00    1.3617219955329146E+01
Ga   -2.3174628470391301E-02    5.6453480933069580E+00    1.5589381208998285E+01
N   -3.8154585083552330E-02    7.4738022998382423E+00    1.6229123899932439E+01
Ga   -4.8252553908806811E-02    7.6550735596619566E+00    1.8277541812335443E+01
N    3.7575526693369360E-02    5.7210587736530130E+00    1.8772715174589472E+01
Ga    6.4437228711533194E+00   -2.5251120957597292E-02    3.2044758707303472E-01
N    6.4519294090840802E+00    1.8439886588765637E+00    6.0667611705295965E-01
Ga    6.4224504187316063E+00    1.8595568117767696E+00    2.6341299797930469E+00
N    6.4433549058601409E+00   -2.5993796634638352E-02    3.2299013282760467E+00
Ga    6.4428636316196100E+00   -2.4952780544415146E-02    5.2378641425296930E+00
N    6.4484845493442355E+00    1.8446786886541728E+00    5.8506575845261377E+00
Ga    6.4469787179752709E+00    1.8438958467619406E+00    7.8478874296907062E+00
N    6.4437357876231474E+00   -2.7696785781959325E-02    8.4545179814088929E+00
Ga    6.4449692849258566E+00   -2.7733857411765789E-02    1.0449410313310437E+01
N    6.4457530001130179E+00    1.8452504741557822E+00    1.1046789923614156E+01
Ga    6.4566213310811573E+00    1.8362155832350864E+00    1.3037684874182419E+01
N    6.4483282193649920E+00   -3.9821267851094966E-02    1.3628995857822648E+01
Ga    6.4537540129145974E+00   -5.5256759614467035E-02    1.5627023741136403E+01
N    6.4881145774873890E+00    1.8383428686750920E+00    1.6092165270409360E+01
Ga    6.4830420348889763E+00    1.9148384705766144E+00    1.8058464579224356E+01
N    6.3895767956176561E+00    1.7154864812805093E-01    1.8755732599257076E+01
Ga    4.8257038342385679E+00    2.7803006519689943E+00   -5.4918984247845870E-01
N    4.8278362616688728E+00    4.6552543448873873E+00    6.0679193396215014E-01
Ga    4.8269936032330119E+00    4.6222748579612887E+00    2.6343184795040848E+00
N    4.8239637230497667E+00    2.7787115699642020E+00    3.2689051963216511E+00
Ga    4.8240452404808449E+00    2.7791179048272037E+00    5.2566660224644863E+00
N    4.8264499886951535E+00    4.6534025131577614E+00    5.8477821642832888E+00
Ga    4.8251523754458336E+00    4.6509550238239008E+00    7.8430364826329200E+00
N    4.8208085692739493E+00    2.7780269060166711E+00    8.4505561012729427E+00
Ga    4.8194479241195793E+00    2.7730637116399253E+00    1.0444569485016357E+01
N    4.8249619985017533E+00    4.6492492591539145E+00    1.1047694266920860E+01
Ga    4.8235516847339746E+00    4.6425339366505600E+00    1.3028080894285450E+01
N    4.8113604595379620E+00    2.7681201289513728E+00    1.3616075287936599E+01
Ga    4.8187772688865849E+00    2.6571488090556619E+00    1.5571307127184165E+01
N    4.7836098069214108E+00    4.5136746211450589E+00    1.6339829628158608E+01
Ga    6.5065689887758245E+00    4.1229954332086738E+00    2.0042174238394747E+01
N    4.9644681588117248E+00    3.3005700453415945E+00    1.8346846380408525E+01
Ga    3.2054459608111960E+00    5.5843443161962600E+00    3.2091462345908234E-01
N    3.2021301015683683E+00    7.4537506836013234E+00    6.0661542243647970E-01
Ga    3.2305271679181931E+00    7.4698897611458195E+00    2.6340363507709816E+00
N    3.2044712417225076E+00    5.5844781533424319E+00    3.2292506964954240E+00
Ga    3.2043705657683730E+00    5.5850760304902050E+00    5.2367708830806059E+00
N    3.2043787020966716E+00    7.4556667430082131E+00    5.8470041985841901E+00
Ga    3.2046266241686268E+00    7.4565555201359812E+00    7.8422366988564320E+00
N    3.2031819421271459E+00    5.5852593450692138E+00    8.4485258544375554E+00
Ga    3.2051489567062927E+00    5.5873703153682870E+00    1.0437670204436586E+01
N    3.2123206252718770E+00    7.4534165599626521E+00    1.1058840047932758E+01
Ga    3.2249630598642223E+00    7.4645248128187474E+00    1.3054270952421902E+01
N    3.2174128923469687E+00    5.5781662219432713E+00    1.3672909290068693E+01
Ga    3.1805872230344554E+00    5.6308063234613659E+00    1.5641380500544004E+01
N    3.2126282360403962E+00    7.4441523856262792E+00    1.6296578893787931E+01
Ga    3.1690644274833786E+00    7.8114274595638085E+00    1.8289504509850826E+01
N    4.6583918369472412E+00    4.3605175888490262E+00    1.7717647652994533E+01
O    3.0867999295537825E+00    5.7797778807200739E+00    1.8987842656256781E+01
H   -8.7505875759415055E-02    5.6545658742337723E+00    1.9789344833643607E+01
C    3.2543130146110020E+00    5.6943688872813389E+00    2.0452709925272561E+01
H    2.3851940685380590E+00    6.1743776724611212E+00    2.0913303126771194E+01
H    3.3233008944106142E+00    4.6391515215896471E+00    2.0739431548298455E+01
H    4.1681193265115004E+00    6.2393534529115948E+00    2.0718227607405765E+01
O    5.8147322006717461E+00    3.5663859035907342E+00    2.1615161619460856E+01
H    3.9034079036860088E+00    5.2558355328795416E+00    1.8474308088163180E+01
C    5.4707100695665272E+00    2.1695009113625794E+00    2.1732699074894978E+01
H    4.5130334555736411E+00    1.9484597628680875E+00    2.1232853213234396E+01
H    6.2352678193171363E+00    1.5012126773378869E+00    2.1306273854036810E+01
H    5.3656537583642399E+00    1.9496506311260942E+00    2.2804337554273314E+01
     &END COORD
     &KIND C
       BASIS_SET DZVP-MOLOPT-SR-GTH-q4
       POTENTIAL GTH-PBE-q4
       &POTENTIAL
 2 2
  0.3384712400000000E+00 2 -0.8803673979999999E+01  0.1339210850000000E+01
 2
  0.3025757500000000E+00 1  0.9622486650000001E+01
  0.2915069400000000E+00 0
         # Potential name:  GTH-PBE-Q4  for symbol:  C
         # Potential read from the potential filename: GTH_POTENTIALS
       &END POTENTIAL
     &END KIND
     &KIND O
       BASIS_SET DZVP-MOLOPT-SR-GTH-q6
       POTENTIAL GTH-PBE-q6
       &POTENTIAL
 2 4
  0.2445543000000000E+00 2 -0.1666721480000000E+02  0.2487311320000000E+01
 2
  0.2209559200000000E+00 1  0.1833745811000000E+02
  0.2113324700000000E+00 0
         # Potential name:  GTH-PBE-Q6  for symbol:  O
         # Potential read from the potential filename: GTH_POTENTIALS
       &END POTENTIAL
     &END KIND
     &KIND H
       BASIS_SET DZVP-MOLOPT-SR-GTH-q1
       POTENTIAL GTH-PBE-q1
       &POTENTIAL
 1
  0.2000000000000000E+00 2 -0.4178900440000000E+01  0.7244633100000000E+00
 0
         # Potential name:  GTH-PBE-Q1  for symbol:  H
         # Potential read from the potential filename: GTH_POTENTIALS
       &END POTENTIAL
     &END KIND
     &KIND N
       BASIS_SET DZVP-MOLOPT-SR-GTH-q5
       POTENTIAL GTH-PBE-q5
       &POTENTIAL
 2 3
  0.2837905100000000E+00 2 -0.1241522559000000E+02  0.1868095920000000E+01
 2
  0.2554050000000000E+00 1  0.1363026257000000E+02
  0.2454945300000000E+00 0
         # Potential name:  GTH-PBE-Q5  for symbol:  N
         # Potential read from the potential filename: GTH_POTENTIALS
       &END POTENTIAL
     &END KIND
     &KIND Ga
       BASIS_SET DZVP-MOLOPT-SR-GTH-q13
       POTENTIAL GTH-PBE-q13
       &POTENTIAL
 2 1 10
  0.4900000000000000E+00 0
 3
  0.4167772300000000E+00 3  0.1047568975000000E+02 -0.4921768140000000E+01  0.8707055900000000E+00
  0.7770178090000000E+01 -0.2248152160000000E+01
  0.1784415450000000E+01
  0.5696265200000000E+00 2  0.1777985340000000E+01  0.1958597600000000E+00
 -0.2317443900000000E+00
  0.2381265000000000E+00 1 -0.1624868022000000E+02
         # Potential name:  GTH-PBE-Q13  for symbol:  GA
         # Potential read from the potential filename: GTH_POTENTIALS
       &END POTENTIAL
     &END KIND
     &TOPOLOGY
       COORD_FILE_NAME ../start-first.xyz
       COORD_FILE_FORMAT  XYZ
       NUMBER_OF_ATOMS  156
       MULTIPLE_UNIT_CELL  1 1 1
     &END TOPOLOGY
     &COLVAR
       &DISTANCE
         ATOMS  145 152
       &END DISTANCE
       &PRINT
       &END PRINT
     &END COLVAR
   &END SUBSYS
 &END FORCE_EVAL
