 # Version information for this restart file 
 # current date 2019-05-27 21:31:30.097
 # current working dir /lustre03/project/6004141/rzk/GaN-carbene/334-native/08-2Methanol-Htransfer/01-Constraint/1.06
 # Program compiled at                              Sun Apr  7 00:48:11 EDT 2019
 # Program compiled on                          beluga2.int.ets1.calculquebec.ca
 # Program compiled for                        Beluga-Linux-x86-64-intel-openmpi
 # Source code revision number                                         svn:18619
 &GLOBAL
   PRINT_LEVEL  MEDIUM
   PROJECT_NAME TEST
   RUN_TYPE  GEO_OPT
 &END GLOBAL
 &MOTION
   &GEO_OPT
     MAX_ITER  500
     STEP_START_VAL  263
   &END GEO_OPT
   &CONSTRAINT
     &COLLECTIVE
       COLVAR  1
       INTERMOLECULAR  T
       TARGET     2.0031097008587815E+00
       &RESTRAINT
         K     1.0000000000000001E-01
       &END RESTRAINT
     &END COLLECTIVE
     &COLVAR_RESTART
           2.0031097008587815E+00
     &END COLVAR_RESTART
   &END CONSTRAINT
 &END MOTION
 &FORCE_EVAL
   METHOD  QS
   STRESS_TENSOR  ANALYTICAL
   &DFT
     BASIS_SET_FILE_NAME BASIS_MOLOPT
     POTENTIAL_FILE_NAME GTH_POTENTIALS
     &SCF
       MAX_SCF  100
       EPS_SCF     5.0000000000000004E-06
       &OT  T
         PRECONDITIONER  FULL_ALL
       &END OT
       &OUTER_SCF  T
         OPTIMIZER  NONE
         EPS_SCF     5.0000000000000004E-06
         MAX_SCF  4
       &END OUTER_SCF
       &PRINT
         &RESTART  OFF
           BACKUP_COPIES  1
           &EACH
             JUST_ENERGY  0
             QS_SCF  0
             MD  20
           &END EACH
         &END RESTART
       &END PRINT
     &END SCF
     &QS
       EPS_DEFAULT     1.0000000000000000E-14
       ALMO_SCF  F
       METHOD  GPW
     &END QS
     &MGRID
       NGRIDS  5
       CUTOFF     1.2000000000000000E+03
     &END MGRID
     &XC
       DENSITY_CUTOFF     1.0000000000000000E-10
       GRADIENT_CUTOFF     1.0000000000000000E-10
       TAU_CUTOFF     1.0000000000000000E-10
       &XC_FUNCTIONAL  NO_SHORTCUT
         &PBE  T
         &END PBE
       &END XC_FUNCTIONAL
       &VDW_POTENTIAL
         POTENTIAL_TYPE  PAIR_POTENTIAL
         &PAIR_POTENTIAL
           R_CUTOFF     1.0000000000000005E+01
           TYPE  DFTD3
           PARAMETER_FILE_NAME dftd3.dat
           REFERENCE_FUNCTIONAL PBE
           EPS_CN     9.9999999999999995E-07
           CALCULATE_C9_TERM  T
           REFERENCE_C9_TERM  T
           LONG_RANGE_CORRECTION  F
           VERBOSE_OUTPUT  F
         &END PAIR_POTENTIAL
       &END VDW_POTENTIAL
     &END XC
   &END DFT
   &SUBSYS
     &CELL
       A     9.7367653356401487E+00    0.0000000000000000E+00    0.0000000000000000E+00
       B    -4.8591341382960209E+00    8.4162672083210595E+00    0.0000000000000000E+00
       C     0.0000000000000000E+00    0.0000000000000000E+00    3.0744000000000000E+01
       MULTIPLE_UNIT_CELL  1 1 1
       &CELL_REF
         A     9.5580000000000052E+00    0.0000000000000000E+00    0.0000000000000000E+00
         B    -4.7790000000000026E+00    8.2774708093716640E+00    0.0000000000000000E+00
         C     0.0000000000000000E+00    0.0000000000000000E+00    3.0744000000000000E+01
         MULTIPLE_UNIT_CELL  1 1 1
       &END CELL_REF
     &END CELL
     &COORD
Ga   -4.6455957622543807E-02   -2.6091329665373288E-02   -5.4905712048837585E-01
N   -4.3289001646801294E-02    1.8502005313361163E+00    6.0635996831391037E-01
Ga   -4.4825582969875440E-02    1.8177910346610830E+00    2.6338472991368285E+00
N   -4.8060067479399497E-02   -2.6148471043063462E-02    3.2670303824497675E+00
Ga   -4.8758854605736972E-02   -2.4682850875751866E-02    5.2541188979091000E+00
N   -4.5874256925855186E-02    1.8491346435870279E+00    5.8480772893060147E+00
Ga   -4.7943067308143808E-02    1.8473705469018027E+00    7.8442242460638871E+00
N   -4.9230095293398800E-02   -2.6313870139053067E-02    8.4491010133099618E+00
Ga   -4.7077603216693173E-02   -2.6799095267733823E-02    1.0442889655960778E+01
N   -4.3768896442290886E-02    1.8436626900015050E+00    1.1050388949240581E+01
Ga   -4.1498402500779089E-02    1.8394538102528810E+00    1.3045544665843410E+01
N   -5.1517602729300886E-02   -1.3108450807717617E-02    1.3707375629426487E+01
Ga   -3.4109179437300165E-02    8.1527990736196300E-03    1.5757636155892898E+01
N   -7.2511213309152056E-02    1.8974398803915240E+00    1.6340283237349723E+01
Ga   -1.2110078199442470E-01    1.9345930361874730E+00    1.8533510669319799E+01
N   -8.0835451202325451E-02    5.9036542951814742E-02    1.8901447601986931E+01
Ga   -1.6656401853853315E+00    2.7793670459485145E+00    3.2055206689630883E-01
N   -1.6683239054161969E+00    4.6483950721583485E+00    6.0632253244189271E-01
Ga   -1.6406361985349194E+00    4.6646810122573497E+00    2.6339375277563075E+00
N   -1.6674003648098332E+00    2.7794228122734701E+00    3.2296322341788408E+00
Ga   -1.6684316855504744E+00    2.7807086227809745E+00    5.2377167845503232E+00
N   -1.6676649214157788E+00    4.6509183397350151E+00    5.8490878140242479E+00
Ga   -1.6675708270586784E+00    4.6506244261192711E+00    7.8455863924700440E+00
N   -1.6688659562380173E+00    2.7804721705873301E+00    8.4542231852043059E+00
Ga   -1.6680705682668520E+00    2.7815089384494147E+00    1.0448856737481044E+01
N   -1.6706074381320575E+00    4.6591189024937814E+00    1.1047429694621913E+01
Ga   -1.6697244135576483E+00    4.6585816582677158E+00    1.3035167572854744E+01
N   -1.6597584771047866E+00    2.7917007148335209E+00    1.3611096950123997E+01
Ga   -1.6253838680527271E+00    2.7959760843297041E+00    1.5593906642999437E+01
N   -1.6409386059885511E+00    4.6902655138428697E+00    1.6172813458786102E+01
Ga   -1.6145404055112889E+00    4.8247583438377903E+00    1.8121169464813573E+01
N   -1.8673465368951996E+00    3.0113745701340342E+00    1.8885046425289481E+01
Ga   -3.2860972786922713E+00    5.5847433060231291E+00    3.2058390527683495E-01
N   -3.2782391088636222E+00    7.4541804420331834E+00    6.0634153215606312E-01
Ga   -3.3083775877319748E+00    7.4698650344760562E+00    2.6339460839033402E+00
N   -3.2870754323542752E+00    5.5844461244423007E+00    3.2289621300606868E+00
Ga   -3.2876752625230119E+00    5.5847996045461494E+00    5.2365144569626256E+00
N   -3.2832200907884075E+00    7.4558801945929654E+00    5.8453509803660264E+00
Ga   -3.2863485406950983E+00    7.4563483675847992E+00    7.8397024357435257E+00
N   -3.2906056163637860E+00    5.5863388201154738E+00    8.4502290057627274E+00
Ga   -3.2912937712798946E+00    5.5905267256164990E+00    1.0440843859690414E+01
N   -3.2914386105227762E+00    7.4543239888820496E+00    1.1070370585192926E+01
Ga   -3.3035698302301633E+00    7.4668349442761048E+00    1.3073219300011393E+01
N   -3.3105765178793174E+00    5.5752795261175390E+00    1.3681188061412241E+01
Ga   -3.2418836554362711E+00    5.6580341050141927E+00    1.5661735631132203E+01
N   -3.3129440781058972E+00    7.4374504877298806E+00    1.6356886699813373E+01
Ga   -3.3117598346741111E+00    7.5052540234981553E+00    1.8575249622245888E+01
N   -2.9683069451989579E+00    5.7033701885403367E+00    1.9121921314209256E+01
Ga    3.1997050840958292E+00   -2.6171800483174027E-02    3.2114004288180115E-01
N    3.1976700806221627E+00    1.8432481337049951E+00    6.0672489320026113E-01
Ga    3.2251886795156306E+00    1.8590369492710339E+00    2.6345618882826574E+00
N    3.1979398441277334E+00   -2.6387831425643143E-02    3.2290099039449958E+00
Ga    3.1975932916934715E+00   -2.5231644137414418E-02    5.2363823129086233E+00
N    3.1976497122498264E+00    1.8446417365917249E+00    5.8478655338983465E+00
Ga    3.1963638094079041E+00    1.8435409662200970E+00    7.8436135010079644E+00
N    3.1926044720864026E+00   -2.7212913480406140E-02    8.4526773914857642E+00
Ga    3.1882115906333390E+00   -2.8109012992805278E-02    1.0446599554107930E+01
N    3.1922564113575560E+00    1.8427514758205104E+00    1.1053050563276962E+01
Ga    3.1740406916479302E+00    1.8300700529672536E+00    1.3046020906849376E+01
N    3.1833619830312934E+00   -3.1195969713754455E-02    1.3680181862474079E+01
Ga    3.1617014119325177E+00   -4.8605253447842327E-02    1.5713863516967251E+01
N    3.1765197492405539E+00    1.8569170609747534E+00    1.6258332872108593E+01
Ga    2.9027634675331497E+00    1.7804255651651140E+00    1.8257512538842569E+01
N    3.1975853595135248E+00    5.9450568282606066E-02    1.8824466385880442E+01
Ga    1.5795238216376870E+00    2.7793161763293579E+00    3.2130481502186237E-01
N    1.5870099332521348E+00    4.6487968265609618E+00    6.0724499422177669E-01
Ga    1.5573174277558066E+00    4.6644980814162276E+00    2.6349273620256337E+00
N    1.5783142280830817E+00    2.7790446271805251E+00    3.2293717132703055E+00
Ga    1.5776480999730309E+00    2.7801216190411928E+00    5.2368235021482956E+00
N    1.5826680928164560E+00    4.6508076643855176E+00    5.8467804949526361E+00
Ga    1.5799451785524383E+00    4.6507751756050926E+00    7.8420081286109085E+00
N    1.5757852739273985E+00    2.7803536961012911E+00    8.4490265923562884E+00
Ga    1.5758692217662158E+00    2.7791450416966668E+00    1.0439726222546028E+01
N    1.5844878325047278E+00    4.6524242878941049E+00    1.1048929731317820E+01
Ga    1.5845868485470849E+00    4.6467142365809728E+00    1.3035217242928310E+01
N    1.5689440817822711E+00    2.7875383996353462E+00    1.3665968121586456E+01
Ga    1.5422234659070995E+00    2.7858642221833736E+00    1.5668830345291122E+01
N    1.5895791516227984E+00    4.6909384841041435E+00    1.6251589240437390E+01
Ga    1.4558582880211712E+00    4.5974348845240405E+00    1.8205037130905460E+01
N    1.5346905093321375E+00    2.8852567974600682E+00    1.8915920318908789E+01
Ga   -3.9857707443903982E-02    5.5846949039762128E+00   -5.4912416437385936E-01
N   -3.7127253996111637E-02    7.4608008569841280E+00    6.0639262166439978E-01
Ga   -3.8593664542483405E-02    7.4284545078519457E+00    2.6339344409095795E+00
N   -4.1694966592173997E-02    5.5847540820107309E+00    3.2681776921782424E+00
Ga   -4.2651917638255689E-02    5.5862949322473430E+00    5.2557918518373006E+00
N   -3.9597801459494895E-02    7.4603707940643851E+00    5.8497794840114459E+00
Ga   -4.0908441405782162E-02    7.4584324520004586E+00    7.8468562433808069E+00
N   -4.2475383218699168E-02    5.5847533653035617E+00    8.4506515564128595E+00
Ga   -4.2658785947625365E-02    5.5895847885620400E+00    1.0445082429946737E+01
N   -4.4765346339730630E-02    7.4619362288711422E+00    1.1046842541206548E+01
Ga   -5.0282478509898018E-02    7.4706332204858183E+00    1.3038577817615881E+01
N   -3.5071037009679541E-02    5.5915023390618339E+00    1.3617326096771347E+01
Ga   -2.3039296989641220E-02    5.6455114550220662E+00    1.5589251706236235E+01
N   -3.8341396134143398E-02    7.4740581882414086E+00    1.6229120903154563E+01
Ga   -4.8322564329455170E-02    7.6552382744084868E+00    1.8277421086116519E+01
N    3.7550087183356902E-02    5.7214556176919338E+00    1.8772867087521586E+01
Ga    6.4440696785138343E+00   -2.5413575485490385E-02    3.2092020509471425E-01
N    6.4525961215536194E+00    1.8437674856803898E+00    6.0658851452875173E-01
Ga    6.4225587060077292E+00    1.8595293815305514E+00    2.6339620027223920E+00
N    6.4434259011235717E+00   -2.6162645372613664E-02    3.2295129673313956E+00
Ga    6.4425920650428301E+00   -2.4833158166727026E-02    5.2374202136929338E+00
N    6.4482229685734165E+00    1.8447081540962695E+00    5.8504525739347297E+00
Ga    6.4464698768255024E+00    1.8437555153899332E+00    7.8479501913536298E+00
N    6.4433181782748008E+00   -2.7759183285022207E-02    8.4546371562180056E+00
Ga    6.4448077912815478E+00   -2.7853354775305723E-02    1.0449778073405911E+01
N    6.4453952080760466E+00    1.8451786849288161E+00    1.1047069875615213E+01
Ga    6.4563129342599161E+00    1.8363926569102249E+00    1.3038103714885345E+01
N    6.4482096358512360E+00   -3.9891200141486574E-02    1.3629182263455450E+01
Ga    6.4534094610217876E+00   -5.4828629335484436E-02    1.5627119251004773E+01
N    6.4880706527510625E+00    1.8387873411568265E+00    1.6091870198991909E+01
Ga    6.4829083083903400E+00    1.9152238157912393E+00    1.8058115008085068E+01
N    6.3896160886775757E+00    1.7172283459868345E-01    1.8755068128008716E+01
Ga    4.8269030417177516E+00    2.7802517551479866E+00   -5.4934059360633403E-01
N    4.8284896887726383E+00    4.6551171788103707E+00    6.0666587570031683E-01
Ga    4.8271598696086686E+00    4.6220843260949511E+00    2.6343652116160228E+00
N    4.8240459701374734E+00    2.7785764901780086E+00    3.2687370195234573E+00
Ga    4.8239247004354411E+00    2.7791939773460674E+00    5.2563324029769891E+00
N    4.8261483970111199E+00    4.6533958579701018E+00    5.8476039389868175E+00
Ga    4.8249016315460347E+00    4.6508016716084226E+00    7.8430672135485633E+00
N    4.8203151164525933E+00    2.7779308130263036E+00    8.4506919168555470E+00
Ga    4.8190000303040144E+00    2.7728630722244056E+00    1.0444982754328631E+01
N    4.8247213268097884E+00    4.6491743671233703E+00    1.1047913444882406E+01
Ga    4.8232276523481703E+00    4.6425986014809721E+00    1.3028167638611004E+01
N    4.8110929620035927E+00    2.7682539893460008E+00    1.3616372023656618E+01
Ga    4.8185304985172746E+00    2.6577758880836737E+00    1.5571614993415270E+01
N    4.7836054936990982E+00    4.5144134235208506E+00    1.6340205584656495E+01
Ga    6.5058242216203892E+00    4.1233486444372760E+00    2.0041840235478777E+01
N    4.9647681895266507E+00    3.3009400669300182E+00    1.8346900871251076E+01
Ga    3.2059656635619289E+00    5.5840883496548361E+00    3.2133857808966926E-01
N    3.2023923638068950E+00    7.4534340492560487E+00    6.0646261807933510E-01
Ga    3.2305853011569141E+00    7.4697177774403869E+00    2.6339079183308538E+00
N    3.2046814754873938E+00    5.5844357737991537E+00    3.2290397418667340E+00
Ga    3.2042959932115438E+00    5.5851817951254050E+00    5.2365218528463506E+00
N    3.2040449018023454E+00    7.4557784865408721E+00    5.8469358542160235E+00
Ga    3.2042838187199254E+00    7.4564842713878710E+00    7.8421382096163121E+00
N    3.2028171174095470E+00    5.5850987283011495E+00    8.4485234559854483E+00
Ga    3.2048146229022931E+00    5.5871768871515863E+00    1.0437812397812715E+01
N    3.2120609079112969E+00    7.4533500108181157E+00    1.1059051579302416E+01
Ga    3.2249306012762893E+00    7.4647300870557096E+00    1.3054438460806393E+01
N    3.2171573759644598E+00    5.5781122487294166E+00    1.3672868138916614E+01
Ga    3.1804104107527942E+00    5.6312631839043705E+00    1.5641288684255757E+01
N    3.2125174083152079E+00    7.4447220932463676E+00    1.6296759630873133E+01
Ga    3.1693935063225598E+00    7.8123198737666666E+00    1.8289182744788636E+01
N    4.6589881339664494E+00    4.3612310885877132E+00    1.7717821559071876E+01
O    3.0870821135087585E+00    5.7799397864617141E+00    1.8988182293183939E+01
H   -8.8698778460398295E-02    5.6549719329541128E+00    1.9789131229830200E+01
C    3.2554090470966313E+00    5.6931956153343783E+00    2.0452503592656438E+01
H    2.3844396839818147E+00    6.1689594537135450E+00    2.0914301736629490E+01
H    3.3288779738437864E+00    4.6372664790994351E+00    2.0737832586943444E+01
H    4.1675398604662126E+00    6.2396433082848350E+00    2.0718244583114714E+01
O    5.8133060575231568E+00    3.5651983106354783E+00    2.1613614422476207E+01
H    3.9035631997648825E+00    5.2569809598891526E+00    1.8474135028987892E+01
C    5.4748906422123769E+00    2.1673672692740977E+00    2.1731160490485699E+01
H    4.5191432008961643E+00    1.9423613861517921E+00    2.1228239862160819E+01
H    6.2431486562926795E+00    1.5018368826062938E+00    2.1307031531488917E+01
H    5.3678370557426245E+00    1.9473780860591658E+00    2.2802555705338410E+01
     &END COORD
     &KIND C
       BASIS_SET DZVP-MOLOPT-SR-GTH-q4
       POTENTIAL GTH-PBE-q4
       &POTENTIAL
 2 2
  0.3384712400000000E+00 2 -0.8803673979999999E+01  0.1339210850000000E+01
 2
  0.3025757500000000E+00 1  0.9622486650000001E+01
  0.2915069400000000E+00 0
         # Potential name:  GTH-PBE-Q4  for symbol:  C
         # Potential read from the potential filename: GTH_POTENTIALS
       &END POTENTIAL
     &END KIND
     &KIND O
       BASIS_SET DZVP-MOLOPT-SR-GTH-q6
       POTENTIAL GTH-PBE-q6
       &POTENTIAL
 2 4
  0.2445543000000000E+00 2 -0.1666721480000000E+02  0.2487311320000000E+01
 2
  0.2209559200000000E+00 1  0.1833745811000000E+02
  0.2113324700000000E+00 0
         # Potential name:  GTH-PBE-Q6  for symbol:  O
         # Potential read from the potential filename: GTH_POTENTIALS
       &END POTENTIAL
     &END KIND
     &KIND H
       BASIS_SET DZVP-MOLOPT-SR-GTH-q1
       POTENTIAL GTH-PBE-q1
       &POTENTIAL
 1
  0.2000000000000000E+00 2 -0.4178900440000000E+01  0.7244633100000000E+00
 0
         # Potential name:  GTH-PBE-Q1  for symbol:  H
         # Potential read from the potential filename: GTH_POTENTIALS
       &END POTENTIAL
     &END KIND
     &KIND N
       BASIS_SET DZVP-MOLOPT-SR-GTH-q5
       POTENTIAL GTH-PBE-q5
       &POTENTIAL
 2 3
  0.2837905100000000E+00 2 -0.1241522559000000E+02  0.1868095920000000E+01
 2
  0.2554050000000000E+00 1  0.1363026257000000E+02
  0.2454945300000000E+00 0
         # Potential name:  GTH-PBE-Q5  for symbol:  N
         # Potential read from the potential filename: GTH_POTENTIALS
       &END POTENTIAL
     &END KIND
     &KIND Ga
       BASIS_SET DZVP-MOLOPT-SR-GTH-q13
       POTENTIAL GTH-PBE-q13
       &POTENTIAL
 2 1 10
  0.4900000000000000E+00 0
 3
  0.4167772300000000E+00 3  0.1047568975000000E+02 -0.4921768140000000E+01  0.8707055900000000E+00
  0.7770178090000000E+01 -0.2248152160000000E+01
  0.1784415450000000E+01
  0.5696265200000000E+00 2  0.1777985340000000E+01  0.1958597600000000E+00
 -0.2317443900000000E+00
  0.2381265000000000E+00 1 -0.1624868022000000E+02
         # Potential name:  GTH-PBE-Q13  for symbol:  GA
         # Potential read from the potential filename: GTH_POTENTIALS
       &END POTENTIAL
     &END KIND
     &TOPOLOGY
       COORD_FILE_NAME ../start-first.xyz
       COORD_FILE_FORMAT  XYZ
       NUMBER_OF_ATOMS  156
       MULTIPLE_UNIT_CELL  1 1 1
     &END TOPOLOGY
     &COLVAR
       &DISTANCE
         ATOMS  145 152
       &END DISTANCE
       &PRINT
       &END PRINT
     &END COLVAR
   &END SUBSYS
 &END FORCE_EVAL
