 # Version information for this restart file 
 # current date 2019-07-13 21:36:25.048
 # current working dir /lustre04/scratch/rzk/rzk/GaN-carbene/443-adatoms-both-2x2/09-BondBreaking-CH/02-0401-CH-to-NTop-PES
 # Program compiled at                              Sun Apr  7 00:48:11 EDT 2019
 # Program compiled on                          beluga2.int.ets1.calculquebec.ca
 # Program compiled for                        Beluga-Linux-x86-64-intel-openmpi
 # Source code revision number                                         svn:18619
 &GLOBAL
   PRINT_LEVEL  MEDIUM
   PROJECT_NAME TEST
   RUN_TYPE  GEO_OPT
 &END GLOBAL
 &MOTION
   &GEO_OPT
     MAX_ITER  500
   &END GEO_OPT
 &END MOTION
 &FORCE_EVAL
   METHOD  QS
   STRESS_TENSOR  ANALYTICAL
   &DFT
     BASIS_SET_FILE_NAME BASIS_MOLOPT
     POTENTIAL_FILE_NAME GTH_POTENTIALS
     UKS  T
     SURFACE_DIPOLE_CORRECTION  T
     SURF_DIP_DIR  Z
     &SCF
       MAX_SCF  80
       EPS_SCF     5.0000000000000004E-06
       &OT  T
         PRECONDITIONER  FULL_ALL
       &END OT
       &OUTER_SCF  T
         OPTIMIZER  NONE
         EPS_SCF     5.0000000000000004E-06
         MAX_SCF  4
       &END OUTER_SCF
       &PRINT
         &RESTART  OFF
           BACKUP_COPIES  1
           &EACH
             JUST_ENERGY  0
             QS_SCF  0
             MD  20
           &END EACH
         &END RESTART
       &END PRINT
     &END SCF
     &QS
       EPS_DEFAULT     1.0000000000000000E-14
       METHOD  GPW
     &END QS
     &MGRID
       NGRIDS  5
       CUTOFF     1.2000000000000000E+03
     &END MGRID
     &XC
       DENSITY_CUTOFF     1.0000000000000000E-10
       GRADIENT_CUTOFF     1.0000000000000000E-10
       TAU_CUTOFF     1.0000000000000000E-10
       &XC_FUNCTIONAL  NO_SHORTCUT
         &PBE  T
         &END PBE
       &END XC_FUNCTIONAL
       &VDW_POTENTIAL
         POTENTIAL_TYPE  PAIR_POTENTIAL
         &PAIR_POTENTIAL
           R_CUTOFF     1.0000000000000009E+01
           TYPE  DFTD3
           PARAMETER_FILE_NAME dftd3.dat
           REFERENCE_FUNCTIONAL PBE
           EPS_CN     9.9999999999999995E-07
           CALCULATE_C9_TERM  T
           REFERENCE_C9_TERM  T
           LONG_RANGE_CORRECTION  F
           VERBOSE_OUTPUT  F
         &END PAIR_POTENTIAL
       &END VDW_POTENTIAL
     &END XC
   &END DFT
   &SUBSYS
     &CELL
       A     1.2864472766435110E+01    0.0000000000000000E+00    0.0000000000000000E+00
       B    -6.4322363581020028E+00    1.1140960178524477E+01    0.0000000000000000E+00
       C     0.0000000000000000E+00    0.0000000000000000E+00    3.2000000000000000E+01
       MULTIPLE_UNIT_CELL  1 1 1
       &CELL_REF
         A     1.2982353780853531E+01    0.0000000000000000E+00    0.0000000000000000E+00
         B    -6.4911768904267628E+00    1.1243048175136114E+01    0.0000000000000000E+00
         C     0.0000000000000000E+00    0.0000000000000000E+00    3.2000000000000000E+01
         MULTIPLE_UNIT_CELL  1 1 1
       &END CELL_REF
     &END CELL
     &COORD
N    9.0727070022862150E-02    2.1100784083757724E+00    2.5766875322744118E+00
Ga    1.0393804941572268E-01    1.5125324212146390E-01    3.0136379465969041E+00
N    8.8168600796956181E-02    1.3239473572470359E-01    5.1228465667621750E+00
Ga    6.4336243865742215E-02    1.9509436825150970E+00    5.8736755543884476E+00
N    7.3214065632042052E-02    1.9715808862715405E+00    7.8627829075647027E+00
Ga    6.7524388237286695E-02    1.1604438489815462E-01    8.4874973095414514E+00
N    7.1388783320447471E-02    1.1990115912505454E-01    1.0465049519441768E+01
Ga    6.9377710570799986E-02    1.9587001727549525E+00    1.1117399086568636E+01
N    7.1801441428277823E-02    1.9407040478643924E+00    1.3111851708833552E+01
Ga    7.0830205340823099E-02    1.2040468292567012E-01    1.3911469267374018E+01
N    7.1239279779029871E-02    1.2205975610363071E-01    1.6116508093987218E+01
Ga    7.1723562587862832E-02    2.1664799050890875E+00    1.6527483519506031E+01
Ga    1.0866215590609982E-01    3.8267675677417952E+00    1.4388484708555129E+00
N   -1.3964960273346825E+00    4.6920113322099661E+00    2.5331995859278389E+00
Ga   -1.6040729763996702E+00    2.8405649832624515E+00    3.3150646302048123E+00
N   -1.5342760174616425E+00    2.9066749515530095E+00    5.2950580234080693E+00
Ga   -1.5696871082769110E+00    4.7727625070344644E+00    5.8511864238472775E+00
N   -1.5442228989735418E+00    4.7693652607219885E+00    7.8468943799243949E+00
Ga   -1.5320999493391927E+00    2.9117465831936151E+00    8.4861426648224256E+00
N   -1.5257497658721717E+00    2.9136559675055076E+00    1.0480556941162416E+01
Ga   -1.5515296957200031E+00    4.7726167663200085E+00    1.1115297176795274E+01
N   -1.5671874412384819E+00    4.7816490812760923E+00    1.3110712614012133E+01
Ga   -1.5254468956215832E+00    2.9119764591920188E+00    1.3666286192325124E+01
N   -1.5510176547281023E+00    2.8962095785188398E+00    1.5629119262114445E+01
Ga   -1.3787207911927331E+00    4.6719292392281933E+00    1.6526855161540670E+01
N    7.2377082790524988E-02    3.8432175173290863E+00    1.7660594875062053E+01
N   -3.1364196834935094E+00    7.6594453929166102E+00    2.5615164270530610E+00
Ga   -3.1202951912414880E+00    5.6930485189819766E+00    2.8756639252365019E+00
N   -3.1392068709993057E+00    5.6842114031671480E+00    5.0585476033487033E+00
Ga   -3.1493641281522211E+00    7.5141810676580247E+00    5.8302108578546514E+00
N   -3.1426069487467454E+00    7.5362186392743311E+00    7.8331245442751367E+00
Ga   -3.1448541189497057E+00    5.6925841399403962E+00    8.4860823790085096E+00
N   -3.1440264622220044E+00    5.6919865143350776E+00    1.0462861720699365E+01
Ga   -3.1451488526652165E+00    7.5308337371066871E+00    1.1113315737893034E+01
N   -3.1439200572913677E+00    7.5119007850170609E+00    1.3109048359720978E+01
Ga   -3.1440253411783550E+00    5.6917699813856526E+00    1.3911229243720136E+01
N   -3.1443186232872922E+00    5.6925227714944464E+00    1.6116547146380181E+01
Ga   -3.1441084912141957E+00    7.7335111971934012E+00    1.6525369480719515E+01
Ga   -3.1807480035482678E+00    9.3948693096211624E+00    1.3080049762591142E+00
N   -4.6456313052521168E+00    1.0294215605577509E+01    2.5870587123756605E+00
Ga   -4.8360511295541215E+00    8.4451778234771684E+00    3.2877112370494364E+00
N   -4.7502657059389781E+00    8.4796044990250081E+00    5.2786567997517579E+00
Ga   -4.7770068251587325E+00    1.0339367657779755E+01    5.8627999431532460E+00
N   -4.7564709366148579E+00    1.0338130092294936E+01    7.8552086407988595E+00
Ga   -4.7464704240733600E+00    8.4763807351913218E+00    8.4718815750845717E+00
N   -4.7413687449755573E+00    8.4807643800834729E+00    1.0471217627852841E+01
Ga   -4.7700546033733193E+00    1.0338278297856450E+01    1.1115906469038242E+01
N   -4.7842152690230701E+00    1.0350423283728960E+01    1.3111654788786145E+01
Ga   -4.7411417617791667E+00    8.4816484104118928E+00    1.3666530100545343E+01
N   -4.7662216465289653E+00    8.4661982226202923E+00    1.5630055221846243E+01
Ga   -4.5976392860216384E+00    1.0243783539765474E+01    1.6524468940015325E+01
N   -3.1438390253609372E+00    9.4130699890471909E+00    1.7657305388547929E+01
N    3.2769029291663232E+00    1.9677889967337447E+00    2.6640356938030161E+00
Ga    3.2893652737149490E+00    1.1418622571702761E-01    3.3757098144392597E+00
N    3.2893481268929388E+00    1.3642421107863878E-01    5.3152876184809772E+00
Ga    3.2861362044200004E+00    1.9688622858944069E+00    5.9774596058950591E+00
N    3.2898890137533621E+00    1.9765280271379064E+00    7.9315088346847560E+00
Ga    3.2873312526316671E+00    1.0256148812178284E-01    8.5066269317819199E+00
N    3.2885094005104150E+00    1.0771938581426035E-01    1.0493666828565237E+01
Ga    3.2891869858058618E+00    1.9784805203893547E+00    1.1082681117162833E+01
N    3.2887725675275297E+00    1.9777583061472588E+00    1.3053034574410630E+01
Ga    3.2885505164049724E+00    1.0603581526733823E-01    1.3667831120745264E+01
N    3.2883145448343294E+00    1.3868218060689616E-01    1.5632793516054354E+01
Ga    3.2889270558665062E+00    1.9780161150383226E+00    1.5908043094502675E+01
N    1.5656363767244195E+00    4.6949405043267278E+00    2.6263934959411097E+00
Ga    1.6908660029889560E+00    2.8822905420651233E+00    3.3899490201092926E+00
N    1.7002045193573805E+00    2.8948387082619904E+00    5.3261967234081471E+00
Ga    1.7032176201977653E+00    4.7764675876104485E+00    5.8761776517916662E+00
N    1.6875984253568850E+00    4.7669417431657495E+00    7.8589308313985509E+00
Ga    1.6670240056805934E+00    2.9129498520120216E+00    8.5068367182227647E+00
N    1.6696127031209702E+00    2.9138800704708792E+00    1.0493058627746411E+01
Ga    1.6958916698706175E+00    4.7759822701423467E+00    1.1118199833193074E+01
N    1.7127877015185271E+00    4.7828335076747024E+00    1.3112637879125595E+01
Ga    1.6680341026529613E+00    2.9130737330942926E+00    1.3668250199004950E+01
N    1.6951661829138818E+00    2.8955991849765979E+00    1.5630817917914300E+01
Ga    1.5236178140693555E+00    4.6726743219713320E+00    1.6527162914536465E+01
N    7.4715266095576799E-02    7.5516604172560049E+00    2.7076048235420322E+00
Ga    7.1493777916930942E-02    5.7153698522709400E+00    3.3810999432266722E+00
N    7.0656722538777306E-02    5.7064343108407378E+00    5.3148635555048678E+00
Ga    9.2866619399313802E-02    7.5650362002488896E+00    5.9157366118261256E+00
N    7.7654438883453511E-02    7.5531958666126711E+00    7.8884731856709775E+00
Ga    6.9104656144947624E-02    5.6857841389611306E+00    8.4854998201738567E+00
N    7.1948128326501132E-02    5.6811721193933371E+00    1.0478945136502601E+01
Ga    7.3778209933511849E-02    7.5499613956154441E+00    1.1072951969612275E+01
N    7.2770595955936337E-02    7.5487670857765359E+00    1.3045642225467850E+01
Ga    7.2242878469319927E-02    5.6790794327989937E+00    1.3668027547370063E+01
N    7.1647092693025355E-02    5.7108615008312436E+00    1.5631836523404129E+01
Ga    7.3158157678762270E-02    7.5490768132962938E+00    1.5909335944533739E+01
N   -1.6420514080902342E+00    1.0287906858819692E+01    2.5742241494313127E+00
Ga   -1.5296204443241286E+00    8.4848316973415496E+00    3.3406992606718759E+00
N   -1.5227345497404050E+00    8.4743100368098236E+00    5.2891211120639463E+00
Ga   -1.5072669039559301E+00    1.0350165780256999E+01    5.8703698386373162E+00
N   -1.5321125894765719E+00    1.0335673807840053E+01    7.8592618577523732E+00
Ga   -1.5461362512820258E+00    8.4772680167134311E+00    8.4836291718279604E+00
N   -1.5462875545976462E+00    8.4808254105101870E+00    1.0477965423406610E+01
Ga   -1.5174295833049078E+00    1.0339948579666913E+01    1.1117405429179732E+01
N   -1.5025575562594691E+00    1.0351049690534666E+01    1.3112599268281544E+01
Ga   -1.5468966308950352E+00    8.4820301138709304E+00    1.3666954388804429E+01
N   -1.5214268946329246E+00    8.4659245314150731E+00    1.5630580681231468E+01
Ga   -1.6900599597444610E+00    1.0243914515734517E+01    1.6524742607312362E+01
N    6.4834663459565363E+00    2.1105396028149781E+00    2.5673115829979256E+00
Ga    6.5071571483374520E+00    1.0135706008817626E-01    2.9534037494513665E+00
N    6.4830487904063441E+00    1.3566014405874338E-01    5.1234952068074193E+00
Ga    6.5146137632493888E+00    1.9470536934232352E+00    5.8692441392792851E+00
N    6.5050063446519193E+00    1.9734434400557428E+00    7.8590855207329833E+00
Ga    6.5102564639611531E+00    1.1678321705851254E-01    8.4856283375080732E+00
N    6.5058849920685562E+00    1.2028958894776186E-01    1.0463714926202902E+01
Ga    6.5085305170722307E+00    1.9592279355045956E+00    1.1117152362084397E+01
N    6.5057395055510199E+00    1.9406625587975785E+00    1.3111491620276519E+01
Ga    6.5067177983794089E+00    1.2104332629016890E-01    1.3912714899210737E+01
N    6.5056003502565778E+00    1.2267569594284844E-01    1.6117435433174823E+01
Ga    6.5051724943209814E+00    2.1678001427153384E+00    1.6528061074945438E+01
Ga    6.4762325555656561E+00    3.8594552576721921E+00    1.5867788010064823E+00
N    5.0097576212340620E+00    4.7000703979042751E+00    2.6514648391647957E+00
Ga    4.8526827844741245E+00    2.8627756742458210E+00    3.3941943466410454E+00
N    4.8781446905417010E+00    2.8930603728294435E+00    5.3193019762656304E+00
Ga    4.8824606062192721E+00    4.7793976041622734E+00    5.8678206191467623E+00
N    4.8892289420611830E+00    4.7651149155792547E+00    7.8535940831924957E+00
Ga    4.9116815309690596E+00    2.9140989762077414E+00    8.5063880130171192E+00
N    4.9086110074885028E+00    2.9140727037349614E+00    1.0492474477629107E+01
Ga    4.8843142410230698E+00    4.7772159061392321E+00    1.1115435562468818E+01
N    4.8656795226436813E+00    4.7829979082427743E+00    1.3110691859417047E+01
Ga    4.9096009042609055E+00    2.9134742594134888E+00    1.3667592881755045E+01
N    4.8818528434295620E+00    2.8960445259383336E+00    1.5630079140049830E+01
Ga    5.0545131124682436E+00    4.6723839774436717E+00    1.6527647436190883E+01
N    6.5050392145018003E+00    3.8436437173662705E+00    1.7660638638958474E+01
N    3.2823499391829198E+00    7.5278047153927607E+00    2.5665485261553993E+00
N    3.2903749042098931E+00    5.6741566995341239E+00    5.1157329823439346E+00
Ga    3.2924888575871569E+00    7.5418595715832426E+00    5.8135578115829292E+00
N    3.2879624993975511E+00    7.5414871376703001E+00    7.8204873136738904E+00
Ga    3.2901913023938190E+00    5.7002699513110757E+00    8.4866794750889891E+00
N    3.2891506372780888E+00    5.6939046396223487E+00    1.0462433851834625E+01
Ga    3.2901594139211952E+00    7.5329069092710457E+00    1.1114090941369357E+01
N    3.2889626281145712E+00    7.5121377790575945E+00    1.3108692850022305E+01
Ga    3.2895738649620938E+00    5.6933711679015788E+00    1.3914082355083471E+01
N    3.2889774198527033E+00    5.6936419391189119E+00    1.6116900114993634E+01
Ga    3.2888280944143360E+00    7.7382242869906630E+00    1.6528211551862096E+01
Ga    4.1529474162020765E+00    1.0896091290773686E+01    6.7973385639267792E-01
N    1.7135053382070600E+00    1.0347420067645290E+01    2.5738278389313343E+00
Ga    1.6998192139515236E+00    8.5619506759509854E+00    3.2081237490418406E+00
N    1.6776274453259654E+00    8.4646638499392228E+00    5.2070624512844743E+00
Ga    1.6543109397352880E+00    1.0338908136692085E+01    5.8133339471954555E+00
N    1.6694032278223778E+00    1.0331271283279367E+01    7.8274641582931856E+00
Ga    1.6950176366828200E+00    8.4851068708557129E+00    8.4804859692708767E+00
N    1.6929015416633599E+00    8.4824343639485473E+00    1.0475493206100065E+01
Ga    1.6684492175459193E+00    1.0342644456539606E+01    1.1111698462116090E+01
N    1.6496996310256995E+00    1.0351560037402793E+01    1.3108185941826134E+01
Ga    1.6924319355635318E+00    8.4832790040368113E+00    1.3666249248534916E+01
N    1.6655068173987928E+00    8.4668910565698674E+00    1.5628624700426005E+01
Ga    1.8394586522707546E+00    1.0241974931367045E+01    1.6528175787966248E+01
N    3.2892182869535902E+00    9.4129692550440716E+00    1.7663003660472757E+01
N    9.7471940854768437E+00    1.9383985765502207E+00    2.6492311251572165E+00
Ga    9.6687693126622047E+00    1.4418811883524701E-01    3.2978677504870171E+00
N    9.7184442923374235E+00    1.1996768463437169E-01    5.2889370052211770E+00
Ga    9.7238915291756758E+00    1.9677456275346654E+00    5.9039766805457017E+00
N    9.7193754862042940E+00    1.9780013956914591E+00    7.8882485070419817E+00
Ga    9.7193599302549831E+00    1.0581959295392179E-01    8.4649988472412172E+00
N    9.7203219482004002E+00    1.0864685585058095E-01    1.0468230842290746E+01
Ga    9.7208619525010018E+00    1.9760775230548009E+00    1.1070193148951963E+01
N    9.7207932194689892E+00    1.9769312349778865E+00    1.3043997890651653E+01
Ga    9.7210457620958142E+00    1.0758323006053916E-01    1.3666590212576283E+01
N    9.7208045271920263E+00    1.3980764726813516E-01    1.5630303773662240E+01
Ga    9.7207407721187415E+00    1.9776018630317114E+00    1.5908997815528727E+01
N    8.0019263260782001E+00    4.7035463356695288E+00    2.5669910453147837E+00
Ga    8.2294849481672365E+00    2.8277424993223850E+00    3.3037810712407816E+00
N    8.1125889060365690E+00    2.9020482186035879E+00    5.2763042276350616E+00
Ga    8.1426921932907668E+00    4.7745333293077152E+00    5.8344935071453534E+00
N    8.1234693560840476E+00    4.7678670454580754E+00    7.8364201900640351E+00
Ga    8.1087062869309232E+00    2.9143863828461001E+00    8.4854941359018046E+00
N    8.1031409641119669E+00    2.9142647101290775E+00    1.0479816744926794E+01
Ga    8.1268137818202835E+00    4.7735655252216693E+00    1.1113398988100961E+01
N    8.1439682005031599E+00    4.7817991196627441E+00    1.3109399505049748E+01
Ga    8.1025677078107794E+00    2.9124650493787265E+00    1.3666165500816092E+01
N    8.1283892140334295E+00    2.8962348098701596E+00    1.5628900683831242E+01
Ga    7.9546895603313210E+00    4.6717702525745572E+00    1.6527189560241233E+01
N    6.4967936427203785E+00    7.5717794648682011E+00    2.6371841389730295E+00
Ga    6.5062190352232463E+00    5.8457653483313008E+00    3.3475065610836601E+00
N    6.5066555034386511E+00    5.6974602597318391E+00    5.3045320622055261E+00
Ga    6.4834319819566968E+00    7.5750895291101665E+00    5.8741257686118802E+00
N    6.4975067696149020E+00    7.5546277293561293E+00    7.8669550267857451E+00
Ga    6.5092065715454508E+00    5.6900316690464177E+00    8.4704854447833782E+00
N    6.5061580294666213E+00    5.6821140233899747E+00    1.0469967939987139E+01
Ga    6.5043883462765084E+00    7.5496354938739740E+00    1.1068453724599541E+01
N    6.5046968249267465E+00    7.5486300561094524E+00    1.3042454701752973E+01
Ga    6.5053127631535235E+00    5.6797431622931178E+00    1.3667515069002466E+01
N    6.5052146257210319E+00    5.7112952940409105E+00    1.5631118880831211E+01
Ga    6.5040525026525717E+00    7.5490554606010907E+00    1.5909347419816125E+01
N    4.8640499799773513E+00    1.0380847208077839E+01    2.5374774850164972E+00
Ga    4.9488908210770424E+00    8.5119827422024326E+00    3.1576237397767111E+00
N    4.8814374012658845E+00    8.4867605022879413E+00    5.1950740916447584E+00
Ga    4.9126955076028356E+00    1.0339030145782838E+01    5.8188668157672856E+00
N    4.9062096031369578E+00    1.0334896803281962E+01    7.8301246578311856E+00
Ga    4.8859219525597668E+00    8.4839860028663399E+00    8.4726964474565936E+00
N    4.8853567275266130E+00    8.4821240484727021E+00    1.0471038467342261E+01
Ga    4.9085578148988418E+00    1.0341392767789198E+01    1.1109820925581936E+01
N    4.9273463482652726E+00    1.0351327956573069E+01    1.3107082818380146E+01
Ga    4.8857699182558685E+00    8.4831708774107284E+00    1.3665372377512272E+01
N    4.9118050461331215E+00    8.4668523294866116E+00    1.5627807802012937E+01
Ga    4.7379919475581742E+00    1.0241881330896019E+01    1.6527573416425135E+01
O    7.5010887169995399E-01    3.7109696691265790E+00   -2.8173558722796993E-01
H    2.5630596784581505E+00    3.3898108156582238E+00    1.8662980656657743E-01
C    1.6513054029194058E-01    2.7418412519828284E+00   -1.1699760252004618E+00
H    3.2161959706758406E-02    1.7576139978194492E+00   -6.8764865051218582E-01
H   -8.1284754487709132E-01    3.0796237303446135E+00   -1.5446849814643386E+00
H    8.4430451945525309E-01    2.6183490628509447E+00   -2.0253469766935797E+00
Ga    3.2694658630085174E+00    5.6088352425283015E+00    3.0466879283874411E+00
O    3.4525692876651979E+00    3.0658791666813539E+00    4.7679892019854764E-01
H    1.0204306632417002E-02    7.5086860980662458E+00    1.6834804776940617E+00
C    3.2858192798541102E+00    1.8424875601801576E+00    1.1687541736487368E+00
H    4.1357860915286384E+00    1.2005919490645394E+00    8.9143878878647809E-01
H    3.2805133536813789E+00    7.5836943855700509E+00    1.7308579433661899E+00
H    2.3519352215726026E+00    1.3456798925391356E+00    8.6058761656107408E-01
     &END COORD
     &KIND C
       BASIS_SET DZVP-MOLOPT-SR-GTH-q4
       POTENTIAL GTH-PBE-q4
       &POTENTIAL
2 2
0.3384712400000000E+00 2 -0.8803673979999999E+01  0.1339210850000000E+01
2
0.3025757500000000E+00 1  0.9622486650000001E+01
0.2915069400000000E+00 0
       &END POTENTIAL
     &END KIND
     &KIND O
       BASIS_SET DZVP-MOLOPT-SR-GTH-q6
       POTENTIAL GTH-PBE-q6
       &POTENTIAL
2 4
0.2445543000000000E+00 2 -0.1666721480000000E+02  0.2487311320000000E+01
2
0.2209559200000000E+00 1  0.1833745811000000E+02
0.2113324700000000E+00 0
       &END POTENTIAL
     &END KIND
     &KIND H
       BASIS_SET DZVP-MOLOPT-SR-GTH-q1
       POTENTIAL GTH-PBE-q1
       &POTENTIAL
1
0.2000000000000000E+00 2 -0.4178900440000000E+01  0.7244633100000000E+00
0
       &END POTENTIAL
     &END KIND
     &KIND N
       BASIS_SET DZVP-MOLOPT-SR-GTH
       POTENTIAL GTH-PBE-q5
       &POTENTIAL
2 3
0.2837905100000000E+00 2 -0.1241522559000000E+02  0.1868095920000000E+01
2
0.2554050000000000E+00 1  0.1363026257000000E+02
0.2454945300000000E+00 0
       &END POTENTIAL
     &END KIND
     &KIND Ga
       BASIS_SET DZVP-MOLOPT-SR-GTH
       POTENTIAL GTH-PBE-q13
       &POTENTIAL
2 1 10
0.4900000000000000E+00 0
3
0.4167772300000000E+00 3  0.1047568975000000E+02 -0.4921768140000000E+01  0.8707055900000000E+00
0.7770178090000000E+01 -0.2248152160000000E+01
0.1784415450000000E+01
0.5696265200000000E+00 2  0.1777985340000000E+01  0.1958597600000000E+00
-0.2317443900000000E+00
0.2381265000000000E+00 1 -0.1624868022000000E+02
       &END POTENTIAL
     &END KIND
     &TOPOLOGY
       NUMBER_OF_ATOMS  212
       MULTIPLE_UNIT_CELL  1 1 1
     &END TOPOLOGY
     &COLVAR
       &DISTANCE
         ATOMS  127 211
       &END DISTANCE
       &PRINT
       &END PRINT
     &END COLVAR
   &END SUBSYS
 &END FORCE_EVAL
