 # Version information for this restart file 
 # current date 2019-07-14 21:41:49.986
 # current working dir /lustre04/scratch/rzk/rzk/GaN-carbene/443-adatoms-both-2x2/09-BondBreaking-CH/02-0401-CH-to-NTop-PES/Phase02-Relax-geom
 # Program compiled at                              Sun Apr  7 00:48:11 EDT 2019
 # Program compiled on                          beluga2.int.ets1.calculquebec.ca
 # Program compiled for                        Beluga-Linux-x86-64-intel-openmpi
 # Source code revision number                                         svn:18619
 &GLOBAL
   PRINT_LEVEL  MEDIUM
   PROJECT_NAME TEST
   RUN_TYPE  GEO_OPT
 &END GLOBAL
 &MOTION
   &GEO_OPT
     MAX_ITER  500
     STEP_START_VAL  8
   &END GEO_OPT
 &END MOTION
 &FORCE_EVAL
   METHOD  QS
   STRESS_TENSOR  ANALYTICAL
   &DFT
     BASIS_SET_FILE_NAME BASIS_MOLOPT
     POTENTIAL_FILE_NAME GTH_POTENTIALS
     UKS  T
     SURFACE_DIPOLE_CORRECTION  T
     SURF_DIP_DIR  Z
     &SCF
       MAX_SCF  80
       EPS_SCF     5.0000000000000004E-06
       &OT  T
         PRECONDITIONER  FULL_ALL
       &END OT
       &OUTER_SCF  T
         OPTIMIZER  NONE
         EPS_SCF     5.0000000000000004E-06
         MAX_SCF  4
       &END OUTER_SCF
       &PRINT
         &RESTART  OFF
           BACKUP_COPIES  1
           &EACH
             JUST_ENERGY  0
             QS_SCF  0
             MD  20
           &END EACH
         &END RESTART
       &END PRINT
     &END SCF
     &QS
       EPS_DEFAULT     1.0000000000000000E-14
       METHOD  GPW
     &END QS
     &MGRID
       NGRIDS  5
       CUTOFF     1.2000000000000000E+03
     &END MGRID
     &XC
       DENSITY_CUTOFF     1.0000000000000000E-10
       GRADIENT_CUTOFF     1.0000000000000000E-10
       TAU_CUTOFF     1.0000000000000000E-10
       &XC_FUNCTIONAL  NO_SHORTCUT
         &PBE  T
         &END PBE
       &END XC_FUNCTIONAL
       &VDW_POTENTIAL
         POTENTIAL_TYPE  PAIR_POTENTIAL
         &PAIR_POTENTIAL
           R_CUTOFF     1.0000000000000009E+01
           TYPE  DFTD3
           PARAMETER_FILE_NAME dftd3.dat
           REFERENCE_FUNCTIONAL PBE
           EPS_CN     9.9999999999999995E-07
           CALCULATE_C9_TERM  T
           REFERENCE_C9_TERM  T
           LONG_RANGE_CORRECTION  F
           VERBOSE_OUTPUT  F
         &END PAIR_POTENTIAL
       &END VDW_POTENTIAL
     &END XC
   &END DFT
   &SUBSYS
     &CELL
       A     1.2864472766435110E+01    0.0000000000000000E+00    0.0000000000000000E+00
       B    -6.4322363581020028E+00    1.1140960178524477E+01    0.0000000000000000E+00
       C     0.0000000000000000E+00    0.0000000000000000E+00    3.2000000000000000E+01
       MULTIPLE_UNIT_CELL  1 1 1
       &CELL_REF
         A     1.2982353780853531E+01    0.0000000000000000E+00    0.0000000000000000E+00
         B    -6.4911768904267628E+00    1.1243048175136114E+01    0.0000000000000000E+00
         C     0.0000000000000000E+00    0.0000000000000000E+00    3.2000000000000000E+01
         MULTIPLE_UNIT_CELL  1 1 1
       &END CELL_REF
     &END CELL
     &COORD
N    9.1666050920816977E-02    2.1103802224270432E+00    2.5716601490360813E+00
Ga    8.8510115114081050E-02    1.6048052945657651E-01    3.0174939023066067E+00
N    9.0969028843219876E-02    1.3153817464942105E-01    5.1137858861452230E+00
Ga    6.3951718950262887E-02    1.9524705548926813E+00    5.8752942620238935E+00
N    7.2993181399559307E-02    1.9709118294390842E+00    7.8572342904486101E+00
Ga    6.6119509409702376E-02    1.1668673102394163E-01    8.4922006410078090E+00
N    7.1174741514344289E-02    1.1999216383740700E-01    1.0461706461585351E+01
Ga    6.9197665438143138E-02    1.9584149511463291E+00    1.1123288239372361E+01
N    7.1805875896601729E-02    1.9408263494607751E+00    1.3109463651392234E+01
Ga    7.3470198082502672E-02    1.2172602581940530E-01    1.3925427422757050E+01
N    7.2853653257952761E-02    1.2213164275358820E-01    1.6112874404804288E+01
Ga    7.2774370513086273E-02    2.1739250181945131E+00    1.6535023443264318E+01
Ga    1.0845976941517818E-01    3.8269062338646949E+00    1.4356552757238026E+00
N   -1.3953060693773063E+00    4.6927242294213078E+00    2.5281930946310123E+00
Ga   -1.6068472336355564E+00    2.8392266722349553E+00    3.3128354869406413E+00
N   -1.5345088277739438E+00    2.9064361178043394E+00    5.2880771416108860E+00
Ga   -1.5680215411078915E+00    4.7717603394045911E+00    5.8521371982847992E+00
N   -1.5450247173926819E+00    4.7696486753810570E+00    7.8408402433335809E+00
Ga   -1.5324486983353138E+00    2.9118352296022278E+00    8.4900188802183454E+00
N   -1.5254019779986412E+00    2.9140111452746118E+00    1.0476267315534507E+01
Ga   -1.5523930995554223E+00    4.7728694320744642E+00    1.1121299000435535E+01
N   -1.5676431001924400E+00    4.7825757167892498E+00    1.3108420977672505E+01
Ga   -1.5255325724305511E+00    2.9127160535846230E+00    1.3670117313728534E+01
N   -1.5507316007331933E+00    2.8967333693476829E+00    1.5625766676323043E+01
Ga   -1.3709695016313623E+00    4.6687745384816495E+00    1.6535034582961387E+01
N    6.6797275137953915E-02    3.8383409971848299E+00    1.7680531337902501E+01
N   -3.1346500256371721E+00    7.6636333871988853E+00    2.5585933899567812E+00
Ga   -3.1218283090979444E+00    5.6754946325745799E+00    2.8818582711854628E+00
N   -3.1382164985073762E+00    5.6872475053619391E+00    5.0481640404375758E+00
Ga   -3.1488215342255970E+00    7.5116363510360484E+00    5.8390030612113923E+00
N   -3.1426880834834514E+00    7.5364106801206390E+00    7.8298969943932422E+00
Ga   -3.1449701429007777E+00    5.6911762749074351E+00    8.4901730332569372E+00
N   -3.1440771099681779E+00    5.6922826376798197E+00    1.0459018671375810E+01
Ga   -3.1451948691531326E+00    7.5299223889904878E+00    1.1120377651686367E+01
N   -3.1439349898658260E+00    7.5122287384826389E+00    1.3107354019754922E+01
Ga   -3.1439435355823826E+00    5.6925793054149247E+00    1.3926218195021969E+01
N   -3.1437092555077286E+00    5.6924776727698090E+00    1.6112145400556102E+01
Ga   -3.1438697465716703E+00    7.7410466222757348E+00    1.6536960060215282E+01
Ga   -3.1774280320034785E+00    9.3970256834531654E+00    1.4240581542884365E+00
N   -4.6404626213187408E+00    1.0291771515914192E+01    2.5862549924586338E+00
Ga   -4.8557668716178926E+00    8.4327263198074345E+00    3.3057821554655633E+00
N   -4.7493046307465638E+00    8.4798274966141545E+00    5.2775387058780376E+00
Ga   -4.7792181370782121E+00    1.0340640179054285E+01    5.8707265533539559E+00
N   -4.7565836593392241E+00    1.0337962209956313E+01    7.8518421114850900E+00
Ga   -4.7467008218919764E+00    8.4762907536877279E+00    8.4794386482501096E+00
N   -4.7409431607892092E+00    8.4810478161302942E+00    1.0468133471416563E+01
Ga   -4.7707730309881553E+00    1.0338919144562100E+01    1.1122124375978419E+01
N   -4.7844905854401514E+00    1.0351279341600510E+01    1.3108393252544721E+01
Ga   -4.7417110321253793E+00    8.4827888511062248E+00    1.3671120412369945E+01
N   -4.7686440046667302E+00    8.4694549797313421E+00    1.5626046670561689E+01
Ga   -4.5814594669527642E+00    1.0236599658498735E+01    1.6536791239482884E+01
N   -3.1440662448276875E+00    9.4003847655324790E+00    1.7683067741984932E+01
N    3.2779636532365251E+00    1.9723080920626319E+00    2.6600529062146863E+00
Ga    3.2898378919375961E+00    1.3737741446933696E-01    3.3906588735943886E+00
N    3.2897890909237502E+00    1.3586677856852300E-01    5.3157402906098392E+00
Ga    3.2867394299778079E+00    1.9746993747165464E+00    5.9815397824977525E+00
N    3.2898515971858555E+00    1.9763410913070294E+00    7.9279735889181380E+00
Ga    3.2873134361347547E+00    1.0331839876738298E-01    8.5120847350317046E+00
N    3.2884112217325074E+00    1.0732463515727135E-01    1.0490121897717211E+01
Ga    3.2891981020253813E+00    1.9784476258562975E+00    1.1086956433580442E+01
N    3.2887803900562798E+00    1.9784091206350161E+00    1.3049254569419878E+01
Ga    3.2885402195240121E+00    1.0655001221789591E-01    1.3671869271300203E+01
N    3.2885368198138383E+00    1.4069194800613877E-01    1.5626082788144981E+01
Ga    3.2890432068616522E+00    1.9789509183116969E+00    1.5900852913506693E+01
N    1.5652594330058200E+00    4.6937263437350829E+00    2.6180063653635837E+00
Ga    1.6889254232447259E+00    2.8863231132914930E+00    3.3901464046458347E+00
N    1.7002393980075337E+00    2.8949939588888380E+00    5.3218922820132244E+00
Ga    1.7042938702910835E+00    4.7770545612044044E+00    5.8808871986891234E+00
N    1.6875337749693364E+00    4.7669445868236089E+00    7.8562895810348952E+00
Ga    1.6662281979994071E+00    2.9129474058381399E+00    8.5110233893279172E+00
N    1.6694564973466732E+00    2.9134943023907818E+00    1.0489551938442785E+01
Ga    1.6963986481055229E+00    4.7761482660363583E+00    1.1123026785572661E+01
N    1.7129928784102835E+00    4.7834620515575406E+00    1.3109022748729540E+01
Ga    1.6678820968551462E+00    2.9142484043445740E+00    1.3671771259718026E+01
N    1.6965885531876166E+00    2.8981528990108409E+00    1.5626245932701991E+01
Ga    1.5115529400558063E+00    4.6657918860113163E+00    1.6535714456916683E+01
N    7.8965707593023390E-02    7.5488696614203912E+00    2.7022673151359329E+00
Ga    7.5438517354040752E-02    5.7113921296649259E+00    3.3813432068520228E+00
N    7.1292416705767483E-02    5.7067406782244552E+00    5.3107625394037346E+00
Ga    9.8217452453963794E-02    7.5627328891021666E+00    5.9220667887327423E+00
N    7.7667666485495584E-02    7.5533511604649783E+00    7.8864079210610889E+00
Ga    6.8506323666771174E-02    5.6847613767405969E+00    8.4906337093166702E+00
N    7.1477035651509771E-02    5.6803936279888898E+00    1.0475075300890172E+01
Ga    7.3669031740668522E-02    7.5492519166041916E+00    1.1076480363565619E+01
N    7.2950105352445491E-02    7.5490803448568604E+00    1.3040076325265851E+01
Ga    7.2627066302102306E-02    5.6798915061466042E+00    1.3671485139576410E+01
N    7.4287779268186888E-02    5.7109726304762019E+00    1.5626848594797288E+01
Ga    6.9852980249073007E-02    7.5479796859855579E+00    1.5907526994435198E+01
N   -1.6490896962536248E+00    1.0282806367639157E+01    2.5701201319607261E+00
Ga   -1.5102321725526429E+00    8.4728938438298673E+00    3.3560645596317569E+00
N   -1.5227234732560226E+00    8.4746895523791625E+00    5.2894888417218153E+00
Ga   -1.5042729848565703E+00    1.0351457570041855E+01    5.8790088377187608E+00
N   -1.5318953544686122E+00    1.0335728355444171E+01    7.8565993683092143E+00
Ga   -1.5455332351033975E+00    8.4770081891870177E+00    8.4908189467209922E+00
N   -1.5468791143270741E+00    8.4811155211401434E+00    1.0474943861163846E+01
Ga   -1.5168586633540799E+00    1.0340578676861144E+01    1.1123618255436806E+01
N   -1.5023491159356823E+00    1.0351913576392020E+01    1.3109355323727131E+01
Ga   -1.5463359206519958E+00    8.4831996886769918E+00    1.3671592075526393E+01
N   -1.5188283516710324E+00    8.4694268588241908E+00    1.5626512519160269E+01
Ga   -1.7061924427544630E+00    1.0236593941273327E+01    1.6537064628277466E+01
N    6.4821829610315458E+00    2.1095025939212695E+00    2.5621619148082266E+00
Ga    6.5216275037176983E+00    1.1282180056179646E-01    2.9572283591505242E+00
N    6.4805843061802486E+00    1.3433806784492164E-01    5.1130210125194830E+00
Ga    6.5149738511276114E+00    1.9484724384115255E+00    5.8691646996782723E+00
N    6.5051932115580078E+00    1.9727054399764685E+00    7.8526834200751505E+00
Ga    6.5115089258970489E+00    1.1782661643756695E-01    8.4909914914546327E+00
N    6.5059885728545632E+00    1.2050169637597881E-01    1.0460720837267020E+01
Ga    6.5086336610715190E+00    1.9591000079470431E+00    1.1122830799543756E+01
N    6.5057726732489094E+00    1.9407621227804468E+00    1.3108977289721500E+01
Ga    6.5040337529082626E+00    1.2228886826161921E-01    1.3926678856039025E+01
N    6.5041719133835425E+00    1.2226162754353551E-01    1.6113300549980025E+01
Ga    6.5043698555921354E+00    2.1744009985255746E+00    1.6535113320807135E+01
Ga    6.4782841431498790E+00    3.8593336066717527E+00    1.5671305959152440E+00
N    5.0101787409747152E+00    4.6994176564164247E+00    2.6417730078419486E+00
Ga    4.8581529210933887E+00    2.8696330143981408E+00    3.3917723483406741E+00
N    4.8782660815685652E+00    2.8935236304055612E+00    5.3142940590035250E+00
Ga    4.8821431866534875E+00    4.7802631550026327E+00    5.8706479566052137E+00
N    4.8895184973394015E+00    4.7653508467122050E+00    7.8497675743079363E+00
Ga    4.9126128621939413E+00    2.9142746687453216E+00    8.5098399359821801E+00
N    4.9087131413214351E+00    2.9137838698178689E+00    1.0488457950028060E+01
Ga    4.8838186369826682E+00    4.7773970604210678E+00    1.1120003567746449E+01
N    4.8654634304718094E+00    4.7836845041593605E+00    1.3106897392719267E+01
Ga    4.9097649990064083E+00    2.9146280527248845E+00    1.3670925065681370E+01
N    4.8810062512185493E+00    2.8985394208784117E+00    1.5625414104627021E+01
Ga    5.0658871390817106E+00    4.6658460503678922E+00    1.6535670345765446E+01
N    6.5102133742281278E+00    3.8386604972332461E+00    1.7680328317161116E+01
N    3.2834219202235437E+00    7.5263262491932119E+00    2.5832603507082705E+00
N    3.2900926016937060E+00    5.6726097257065407E+00    5.1126486306082670E+00
Ga    3.2930342488624191E+00    7.5417044564429823E+00    5.8138889038098620E+00
N    3.2881299625129681E+00    7.5419399107783436E+00    7.8153127707680214E+00
Ga    3.2903972147866867E+00    5.7009221091635975E+00    8.4905224154059802E+00
N    3.2891594495118777E+00    5.6944532841428268E+00    1.0459134734648336E+01
Ga    3.2901624422614089E+00    7.5321369263364089E+00    1.1120809353854579E+01
N    3.2890218647411129E+00    7.5117498490971064E+00    1.3108938536976352E+01
Ga    3.2895075436316032E+00    5.6908858791027361E+00    1.3926008127895306E+01
N    3.2887047467535284E+00    5.6917199811751482E+00    1.6113338519414089E+01
Ga    3.2886992178606285E+00    7.7332102103015412E+00    1.6521258817307331E+01
Ga    4.1445744039258621E+00    1.0891922004611827E+01    6.7402902476073767E-01
N    1.7142916346360373E+00    1.0346631253916920E+01    2.5604841056000924E+00
Ga    1.7021489925973878E+00    8.5653262057582520E+00    3.2076744949551532E+00
N    1.6769374620007649E+00    8.4659993258222563E+00    5.2030618425627102E+00
Ga    1.6561597895965761E+00    1.0338571853259246E+01    5.8166531152068517E+00
N    1.6686188881864377E+00    1.0331771438143907E+01    7.8228568058617496E+00
Ga    1.6959652520761859E+00    8.4856986741590301E+00    8.4859907870132840E+00
N    1.6932558020927955E+00    8.4829425976247741E+00    1.0472963585364504E+01
Ga    1.6677468676032063E+00    1.0343369455763320E+01    1.1118347961990048E+01
N    1.6487981429465932E+00    1.0352837160471259E+01    1.3107790953326470E+01
Ga    1.6912165110673212E+00    8.4836552139413470E+00    1.3668604289847778E+01
N    1.6612295174479468E+00    8.4664676610985925E+00    1.5626203233192960E+01
Ga    1.8394016860037310E+00    1.0242860554650250E+01    1.6521507294112958E+01
N    3.2887374173730759E+00    9.4062801815288992E+00    1.7641767765416180E+01
N    9.7464821031922213E+00    1.9380186970738602E+00    2.6390511974590480E+00
Ga    9.6682448585237033E+00    1.4517057507578213E-01    3.2952795744233940E+00
N    9.7182901222310036E+00    1.2009732869797990E-01    5.2817752520556764E+00
Ga    9.7237858370580952E+00    1.9673300213948455E+00    5.9055755339456120E+00
N    9.7194638436103151E+00    1.9778999736636467E+00    7.8833211811322261E+00
Ga    9.7195485511950235E+00    1.0602461735896904E-01    8.4689706998018348E+00
N    9.7203342560570896E+00    1.0791924239844748E-01    1.0464375072174228E+01
Ga    9.7206881855591778E+00    1.9763058892756653E+00    1.1072702880471553E+01
N    9.7207180793145014E+00    1.9774868962068366E+00    1.3038181774719510E+01
Ga    9.7211050969826651E+00    1.0956282253380192E-01    1.3668552927300039E+01
N    9.7208488011553165E+00    1.4471711474302187E-01    1.5626406249215778E+01
Ga    9.7207741794345957E+00    1.9822063197938276E+00    1.5907068533164550E+01
N    8.0020939507731743E+00    4.7041584580171625E+00    2.5624952034918063E+00
Ga    8.2291911435987792E+00    2.8278004502959382E+00    3.2996994038610583E+00
N    8.1131876073581388E+00    2.9017709798092999E+00    5.2693049781154730E+00
Ga    8.1410377276709305E+00    4.7737322852219384E+00    5.8336423532246640E+00
N    8.1242928289881355E+00    4.7683638905791099E+00    7.8291353065916303E+00
Ga    8.1089392438255192E+00    2.9145672734006753E+00    8.4883690076286538E+00
N    8.1026330543126530E+00    2.9146941737557341E+00    1.0474834787357814E+01
Ga    8.1275143306094435E+00    4.7738149233291765E+00    1.1119019598934900E+01
N    8.1445060041319248E+00    4.7827976459213009E+00    1.3106788321925507E+01
Ga    8.1026523051992392E+00    2.9133032468531295E+00    1.3669808268433327E+01
N    8.1279996567860469E+00    2.8970018082715123E+00    1.5625471154743733E+01
Ga    7.9479596942704136E+00    4.6689208631514250E+00    1.6535089907807432E+01
N    6.4951446135208313E+00    7.5674481513113419E+00    2.6223641005908056E+00
Ga    6.5023645248114157E+00    5.8407512627408504E+00    3.3435344797273938E+00
N    6.5064395559785559E+00    5.6985125705984352E+00    5.2978983895939900E+00
Ga    6.4787339919774976E+00    7.5720709361655967E+00    5.8823967157781780E+00
N    6.4978253233770049E+00    7.5549897646642448E+00    7.8648418280241268E+00
Ga    6.5098960274863815E+00    5.6888026097949727E+00    8.4749632841014453E+00
N    6.5065384303478320E+00    5.6814072196710894E+00    1.0465295463706410E+01
Ga    6.5043237506230280E+00    7.5488571348330158E+00    1.1071902230709822E+01
N    6.5043828460541810E+00    7.5489086694272887E+00    1.3036840848973617E+01
Ga    6.5050229226924046E+00    5.6804894592470667E+00    1.3670744735921378E+01
N    6.5030164918716826E+00    5.7110991021308104E+00    1.5626134842415409E+01
Ga    6.5074652938691866E+00    7.5478748593131915E+00    1.5907933145368361E+01
N    4.8643267214864423E+00    1.0379587614736813E+01    2.5300930931228720E+00
Ga    4.9495355823028033E+00    8.5116301631192606E+00    3.1553446352018391E+00
N    4.8836261972011643E+00    8.4865938958897402E+00    5.1894350180308209E+00
Ga    4.9106676662235067E+00    1.0337664469871021E+01    5.8203075324391378E+00
N    4.9068989445597788E+00    1.0335132052036794E+01    7.8242417380062141E+00
Ga    4.8849412863487185E+00    8.4847903447718558E+00    8.4779955336551858E+00
N    4.8849886738223516E+00    8.4826234646334786E+00    1.0468173624928996E+01
Ga    4.9092102230774728E+00    1.0342053065202931E+01    1.1116536425582286E+01
N    4.9283328204891443E+00    1.0352580755645745E+01    1.3106641962141582E+01
Ga    4.8869829710533130E+00    8.4836155332348131E+00    1.3667820838840075E+01
N    4.9162120356364456E+00    8.4664391405229296E+00    1.5625646802568060E+01
Ga    4.7377148538979963E+00    1.0242753620259149E+01    1.6521308969634351E+01
O    7.5147677317664496E-01    3.7073502387183246E+00   -2.8508600061546208E-01
H    2.5581181500876542E+00    3.3894301174364960E+00    1.8458255775035773E-01
C    1.6612194932766977E-01    2.7385665209538836E+00   -1.1723893776026908E+00
H    3.2690350018518000E-02    1.7553931921041757E+00   -6.8856393706544317E-01
H   -8.1213565313001379E-01    3.0763328870370006E+00   -1.5456980128618398E+00
H    8.4406995679330554E-01    2.6140498538276837E+00   -2.0283128295159534E+00
Ga    3.2707155251710023E+00    5.6042546122873915E+00    3.0462950079342299E+00
O    3.4487589793986406E+00    3.0646621653966895E+00    4.7138941424671144E-01
H    1.3603646589181355E-02    7.5072442813696183E+00    1.6785865657771157E+00
C    3.2850724655728434E+00    1.8429692754609364E+00    1.1655025787395665E+00
H    4.1360899266570792E+00    1.2027545419343957E+00    8.8716736360786908E-01
H    3.2800018482113389E+00    7.5921360264585331E+00    1.5583991197208589E+00
H    2.3510228093242427E+00    1.3457196068897408E+00    8.5871351144006025E-01
     &END COORD
     &KIND C
       BASIS_SET DZVP-MOLOPT-SR-GTH-q4
       POTENTIAL GTH-PBE-q4
       &POTENTIAL
2 2
0.3384712400000000E+00 2 -0.8803673979999999E+01  0.1339210850000000E+01
2
0.3025757500000000E+00 1  0.9622486650000001E+01
0.2915069400000000E+00 0
       &END POTENTIAL
     &END KIND
     &KIND O
       BASIS_SET DZVP-MOLOPT-SR-GTH-q6
       POTENTIAL GTH-PBE-q6
       &POTENTIAL
2 4
0.2445543000000000E+00 2 -0.1666721480000000E+02  0.2487311320000000E+01
2
0.2209559200000000E+00 1  0.1833745811000000E+02
0.2113324700000000E+00 0
       &END POTENTIAL
     &END KIND
     &KIND H
       BASIS_SET DZVP-MOLOPT-SR-GTH-q1
       POTENTIAL GTH-PBE-q1
       &POTENTIAL
1
0.2000000000000000E+00 2 -0.4178900440000000E+01  0.7244633100000000E+00
0
       &END POTENTIAL
     &END KIND
     &KIND N
       BASIS_SET DZVP-MOLOPT-SR-GTH
       POTENTIAL GTH-PBE-q5
       &POTENTIAL
2 3
0.2837905100000000E+00 2 -0.1241522559000000E+02  0.1868095920000000E+01
2
0.2554050000000000E+00 1  0.1363026257000000E+02
0.2454945300000000E+00 0
       &END POTENTIAL
     &END KIND
     &KIND Ga
       BASIS_SET DZVP-MOLOPT-SR-GTH
       POTENTIAL GTH-PBE-q13
       &POTENTIAL
2 1 10
0.4900000000000000E+00 0
3
0.4167772300000000E+00 3  0.1047568975000000E+02 -0.4921768140000000E+01  0.8707055900000000E+00
0.7770178090000000E+01 -0.2248152160000000E+01
0.1784415450000000E+01
0.5696265200000000E+00 2  0.1777985340000000E+01  0.1958597600000000E+00
-0.2317443900000000E+00
0.2381265000000000E+00 1 -0.1624868022000000E+02
       &END POTENTIAL
     &END KIND
     &TOPOLOGY
       NUMBER_OF_ATOMS  212
       MULTIPLE_UNIT_CELL  1 1 1
     &END TOPOLOGY
     &COLVAR
       &DISTANCE
         ATOMS  127 211
       &END DISTANCE
       &PRINT
       &END PRINT
     &END COLVAR
   &END SUBSYS
 &END FORCE_EVAL
