 # Version information for this restart file 
 # current date 2019-07-14 21:38:45.112
 # current working dir /lustre04/scratch/rzk/rzk/GaN-carbene/443-adatoms-both-2x2/09-BondBreaking-CH/02-0401-CH-to-NTop-PES/Phase02-Relax-geom
 # Program compiled at                              Sun Apr  7 00:48:11 EDT 2019
 # Program compiled on                          beluga2.int.ets1.calculquebec.ca
 # Program compiled for                        Beluga-Linux-x86-64-intel-openmpi
 # Source code revision number                                         svn:18619
 &GLOBAL
   PRINT_LEVEL  MEDIUM
   PROJECT_NAME TEST
   RUN_TYPE  GEO_OPT
 &END GLOBAL
 &MOTION
   &GEO_OPT
     MAX_ITER  500
     STEP_START_VAL  7
   &END GEO_OPT
 &END MOTION
 &FORCE_EVAL
   METHOD  QS
   STRESS_TENSOR  ANALYTICAL
   &DFT
     BASIS_SET_FILE_NAME BASIS_MOLOPT
     POTENTIAL_FILE_NAME GTH_POTENTIALS
     UKS  T
     SURFACE_DIPOLE_CORRECTION  T
     SURF_DIP_DIR  Z
     &SCF
       MAX_SCF  80
       EPS_SCF     5.0000000000000004E-06
       &OT  T
         PRECONDITIONER  FULL_ALL
       &END OT
       &OUTER_SCF  T
         OPTIMIZER  NONE
         EPS_SCF     5.0000000000000004E-06
         MAX_SCF  4
       &END OUTER_SCF
       &PRINT
         &RESTART  OFF
           BACKUP_COPIES  1
           &EACH
             JUST_ENERGY  0
             QS_SCF  0
             MD  20
           &END EACH
         &END RESTART
       &END PRINT
     &END SCF
     &QS
       EPS_DEFAULT     1.0000000000000000E-14
       METHOD  GPW
     &END QS
     &MGRID
       NGRIDS  5
       CUTOFF     1.2000000000000000E+03
     &END MGRID
     &XC
       DENSITY_CUTOFF     1.0000000000000000E-10
       GRADIENT_CUTOFF     1.0000000000000000E-10
       TAU_CUTOFF     1.0000000000000000E-10
       &XC_FUNCTIONAL  NO_SHORTCUT
         &PBE  T
         &END PBE
       &END XC_FUNCTIONAL
       &VDW_POTENTIAL
         POTENTIAL_TYPE  PAIR_POTENTIAL
         &PAIR_POTENTIAL
           R_CUTOFF     1.0000000000000009E+01
           TYPE  DFTD3
           PARAMETER_FILE_NAME dftd3.dat
           REFERENCE_FUNCTIONAL PBE
           EPS_CN     9.9999999999999995E-07
           CALCULATE_C9_TERM  T
           REFERENCE_C9_TERM  T
           LONG_RANGE_CORRECTION  F
           VERBOSE_OUTPUT  F
         &END PAIR_POTENTIAL
       &END VDW_POTENTIAL
     &END XC
   &END DFT
   &SUBSYS
     &CELL
       A     1.2864472766435110E+01    0.0000000000000000E+00    0.0000000000000000E+00
       B    -6.4322363581020028E+00    1.1140960178524477E+01    0.0000000000000000E+00
       C     0.0000000000000000E+00    0.0000000000000000E+00    3.2000000000000000E+01
       MULTIPLE_UNIT_CELL  1 1 1
       &CELL_REF
         A     1.2982353780853531E+01    0.0000000000000000E+00    0.0000000000000000E+00
         B    -6.4911768904267628E+00    1.1243048175136114E+01    0.0000000000000000E+00
         C     0.0000000000000000E+00    0.0000000000000000E+00    3.2000000000000000E+01
         MULTIPLE_UNIT_CELL  1 1 1
       &END CELL_REF
     &END CELL
     &COORD
N    9.1901386599118284E-02    2.1102885945181407E+00    2.5713066007909338E+00
Ga    8.8243310835987104E-02    1.6046444865948947E-01    3.0174921793890319E+00
N    9.1085210417749890E-02    1.3134074663719655E-01    5.1134315585716168E+00
Ga    6.3966835714738296E-02    1.9521300082279194E+00    5.8753801930262988E+00
N    7.2918254524462489E-02    1.9707804827942044E+00    7.8571021829996939E+00
Ga    6.6186303058526505E-02    1.1663209765658739E-01    8.4925982329469072E+00
N    7.1236019424971667E-02    1.1988034453897854E-01    1.0461700498218660E+01
Ga    6.9179798903002576E-02    1.9584064199599427E+00    1.1123523075778948E+01
N    7.1797282110402039E-02    1.9405086871856281E+00    1.3109159994495799E+01
Ga    7.3856093179519494E-02    1.2185844754438743E-01    1.3925853845064189E+01
N    7.3180052348147395E-02    1.2211957375394751E-01    1.6112146408470931E+01
Ga    7.2636904311025194E-02    2.1739027995806337E+00    1.6536518784664320E+01
Ga    1.0834265411801841E-01    3.8268235838097460E+00    1.4356974539039253E+00
N   -1.3953565500145604E+00    4.6925358689367389E+00    2.5281852155778930E+00
Ga   -1.6068237644672552E+00    2.8387354754453105E+00    3.3128827063728568E+00
N   -1.5345195998378391E+00    2.9063285043292293E+00    5.2879937331699107E+00
Ga   -1.5683483904988718E+00    4.7716986769668530E+00    5.8521255123041689E+00
N   -1.5451888311370088E+00    4.7696361151548112E+00    7.8405791732397221E+00
Ga   -1.5324454873710740E+00    2.9118418603221587E+00    8.4902997168813830E+00
N   -1.5253729406170953E+00    2.9140449658207208E+00    1.0476071897112131E+01
Ga   -1.5523988278318730E+00    4.7728435108185527E+00    1.1121760872399202E+01
N   -1.5679866984012381E+00    4.7828001763987951E+00    1.3108303514388675E+01
Ga   -1.5252716580454342E+00    2.9128856864724542E+00    1.3670184565031448E+01
N   -1.5504812941550978E+00    2.8970678356145911E+00    1.5625737031182148E+01
Ga   -1.3712907977253281E+00    4.6689879121013895E+00    1.6536262204565546E+01
N    6.6516598459663789E-02    3.8384091850244082E+00    1.7680890647441522E+01
N   -3.1349662888343195E+00    7.6635732748662244E+00    2.5567123467949293E+00
Ga   -3.1216783115501170E+00    5.6750478874439949E+00    2.8813281887959938E+00
N   -3.1382336836621825E+00    5.6874846052026733E+00    5.0470734119034013E+00
Ga   -3.1488754921068622E+00    7.5118437391446466E+00    5.8387135390619127E+00
N   -3.1426848621472039E+00    7.5364312856005871E+00    7.8294157269497076E+00
Ga   -3.1449470745343557E+00    5.6912765666170380E+00    8.4905012164077629E+00
N   -3.1440639145321798E+00    5.6923248612015218E+00    1.0458926192891056E+01
Ga   -3.1452133906651056E+00    7.5299289529481497E+00    1.1120881658842835E+01
N   -3.1439409910495799E+00    7.5118464158692646E+00    1.3107143555844591E+01
Ga   -3.1439991039383735E+00    5.6926606979887735E+00    1.3927145951489868E+01
N   -3.1438580204522428E+00    5.6928498612623102E+00    1.6111276252201481E+01
Ga   -3.1438872011091794E+00    7.7412762597185205E+00    1.6538312801954998E+01
Ga   -3.1775959090472705E+00    9.3974954739832430E+00    1.4234559001416316E+00
N   -4.6407035864506643E+00    1.0291815197223174E+01    2.5844801057690221E+00
Ga   -4.8560323521943447E+00    8.4328430617820480E+00    3.3046653827413937E+00
N   -4.7491955098577696E+00    8.4799014398145047E+00    5.2765568613324714E+00
Ga   -4.7792142201425971E+00    1.0340557794705793E+01    5.8704865096876890E+00
N   -4.7565675906409988E+00    1.0337971685510409E+01    7.8513971656496508E+00
Ga   -4.7465602057512299E+00    8.4763878724802115E+00    8.4797056389165757E+00
N   -4.7408138563929798E+00    8.4810734073977745E+00    1.0467808493747764E+01
Ga   -4.7706426629454128E+00    1.0338836279277730E+01    1.1122360505747949E+01
N   -4.7847284510881005E+00    1.0351448315683857E+01    1.3107910746153223E+01
Ga   -4.7415014003442506E+00    8.4829568569694107E+00    1.3671026173646872E+01
N   -4.7685961293267631E+00    8.4696607211940602E+00    1.5625615832394070E+01
Ga   -4.5809909483782159E+00    1.0236114881290582E+01    1.6538211693776319E+01
N   -3.1440836239447716E+00    9.3999432258148659E+00    1.7683770663734677E+01
N    3.2780287294066950E+00    1.9720871361725714E+00    2.6595470366836551E+00
Ga    3.2898511961031329E+00    1.3685908596624027E-01    3.3896462059000561E+00
N    3.2897335962428547E+00    1.3560103831171488E-01    5.3147903314994061E+00
Ga    3.2866089421669513E+00    1.9742542859772629E+00    5.9815034641065479E+00
N    3.2898323321259504E+00    1.9760780130737317E+00    7.9277759808568291E+00
Ga    3.2872981541973050E+00    1.0314272487077847E-01    8.5120936521463531E+00
N    3.2884099785241725E+00    1.0723553115904801E-01    1.0489568168423796E+01
Ga    3.2891544659025946E+00    1.9782770978817181E+00    1.1087071169430764E+01
N    3.2887461076697475E+00    1.9783163249019533E+00    1.3049119705929957E+01
Ga    3.2885424123856728E+00    1.0615091887452065E-01    1.3671875642157504E+01
N    3.2884900518703959E+00    1.4051717419649606E-01    1.5625881172353081E+01
Ga    3.2890643816601659E+00    1.9791300151439639E+00    1.5901074503056684E+01
N    1.5650914003972050E+00    4.6937988969422690E+00    2.6182493025898692E+00
Ga    1.6890147081444946E+00    2.8862695233479561E+00    3.3903747442853289E+00
N    1.7002167874348610E+00    2.8948871112716352E+00    5.3220962832035283E+00
Ga    1.7042083320738688E+00    4.7770531701711887E+00    5.8813252806193752E+00
N    1.6875118783400835E+00    4.7669632770289585E+00    7.8563612228104303E+00
Ga    1.6661820347271572E+00    2.9127520313571584E+00    8.5111263315233661E+00
N    1.6695004733975853E+00    2.9133332549236504E+00    1.0489179981449588E+01
Ga    1.6962527202715196E+00    4.7760414049882574E+00    1.1123178471805407E+01
N    1.7132691462422629E+00    4.7836142203710317E+00    1.3108658517953103E+01
Ga    1.6675862221674262E+00    2.9144574708998596E+00    1.3671660129082047E+01
N    1.6962072433330941E+00    2.8985957829935591E+00    1.5626206247452583E+01
Ga    1.5114674686951013E+00    4.6659281537421320E+00    1.6537134689858792E+01
N    7.9030961346201675E-02    7.5488499369046433E+00    2.7023804738439403E+00
Ga    7.5213249593621218E-02    5.7114179497168358E+00    3.3816950191372612E+00
N    7.1032667441428318E-02    5.7067878846563733E+00    5.3111417466185467E+00
Ga    9.7952324486369119E-02    7.5628720812959678E+00    5.9221736243846346E+00
N    7.7550413668095286E-02    7.5535127892683827E+00    7.8863353223476116E+00
Ga    6.8255191168766494E-02    5.6847960453145463E+00    8.4909437688183704E+00
N    7.1353937676395099E-02    5.6803512491488561E+00    1.0474815210129597E+01
Ga    7.3570528486766512E-02    7.5491851456173906E+00    1.1076662612449919E+01
N    7.2939834237882695E-02    7.5490518714669310E+00    1.3039951885480871E+01
Ga    7.2678236770240642E-02    5.6796798761075191E+00    1.3671542236328737E+01
N    7.4330331734267868E-02    5.7106637595876970E+00    1.5626844253663194E+01
Ga    6.9544273684676569E-02    7.5479004686701883E+00    1.5908633086534751E+01
N   -1.6489111235813845E+00    1.0282809758601998E+01    2.5683445490599857E+00
Ga   -1.5104383912882053E+00    8.4729614319891393E+00    3.3549529442576604E+00
N   -1.5229063668055924E+00    8.4747422568225428E+00    5.2885252573568078E+00
Ga   -1.5043519851124920E+00    1.0351399584464881E+01    5.8787245304547895E+00
N   -1.5319208504859383E+00    1.0335715356286538E+01    7.8561442498095078E+00
Ga   -1.5456788721537862E+00    8.4770828458802150E+00    8.4911084124757803E+00
N   -1.5470014033013904E+00    8.4811285828396024E+00    1.0474652845265080E+01
Ga   -1.5169960684331680E+00    1.0340504011859126E+01    1.1123859393541760E+01
N   -1.5021095217084788E+00    1.0352089001241751E+01    1.3108877168631144E+01
Ga   -1.5465708446750253E+00    8.4833851985981461E+00    1.3671485280955510E+01
N   -1.5188974561558823E+00    8.4695994789186066E+00    1.5626067806258623E+01
Ga   -1.7066539569226222E+00    1.0236139649429516E+01    1.6538463050184241E+01
N    6.4819300317536044E+00    2.1095090693224083E+00    2.5619539802784552E+00
Ga    6.5218373086268482E+00    1.1243162083322331E-01    2.9569889822668038E+00
N    6.4803872905032076E+00    1.3425011926939256E-01    5.1125107583709992E+00
Ga    6.5149744301461689E+00    1.9481291571609276E+00    5.8693437201436858E+00
N    6.5052574665080467E+00    1.9726043034460476E+00    7.8526158935082373E+00
Ga    6.5114631544990580E+00    1.1771438482446353E-01    8.4913853956299636E+00
N    6.5059390865112769E+00    1.2036131526162427E-01    1.0460684531125690E+01
Ga    6.5086410816999543E+00    1.9590595267592064E+00    1.1123081161470786E+01
N    6.5057712597766679E+00    1.9404319060654118E+00    1.3108582545602941E+01
Ga    6.5036379875098937E+00    1.2247772433109458E-01    1.3927088584126039E+01
N    6.5038345004826601E+00    1.2240800746577563E-01    1.6112459104126156E+01
Ga    6.5045129510556494E+00    2.1747116098826806E+00    1.6536710820367212E+01
Ga    6.4779337101382266E+00    3.8594510311166559E+00    1.5688971947102557E+00
N    5.0103094076693377E+00    4.6994111688962379E+00    2.6425268128945127E+00
Ga    4.8577460306040967E+00    2.8693015995363838E+00    3.3924976363502655E+00
N    4.8782127015449843E+00    2.8933951030427187E+00    5.3148346925508809E+00
Ga    4.8821267562467172E+00    4.7803270613470703E+00    5.8710849868023587E+00
N    4.8894990912197827E+00    4.7653596337552724E+00    7.8498337044833457E+00
Ga    4.9125760010803843E+00    2.9140773660155754E+00    8.5100310487857893E+00
N    4.9086381015507872E+00    2.9136131963423813E+00    1.0488159479895028E+01
Ga    4.8839292000529202E+00    4.7773025265040303E+00    1.1120191349400594E+01
N    4.8651758862791459E+00    4.7838301824027880E+00    1.3106454251868865E+01
Ga    4.9100614067853883E+00    2.9148313769394969E+00    1.3670757023102841E+01
N    4.8812817104320452E+00    2.8989626246907942E+00    1.5625155534169856E+01
Ga    5.0662886598375119E+00    4.6658148480546711E+00    1.6537220561959714E+01
N    6.5104186123997572E+00    3.8386948808997192E+00    1.7681299281754416E+01
N    3.2832072168478823E+00    7.5264508672099195E+00    2.5814683063840187E+00
N    3.2900590872973821E+00    5.6732262608845092E+00    5.1123824988333881E+00
Ga    3.2930317765565542E+00    7.5416799836201216E+00    5.8158129159196328E+00
N    3.2880893051989069E+00    7.5419872010286557E+00    7.8160580145099727E+00
Ga    3.2903560416368700E+00    5.7009021000552442E+00    8.4913839713038328E+00
N    3.2891449140453801E+00    5.6944403972494149E+00    1.0459479297053377E+01
Ga    3.2901476482121192E+00    7.5321913469664254E+00    1.1121120654968346E+01
N    3.2890222995244245E+00    7.5114087610550122E+00    1.3109068892242979E+01
Ga    3.2895520613288287E+00    5.6905503427604680E+00    1.3926341755591066E+01
N    3.2888418241301958E+00    5.6917120012326254E+00    1.6112540798789571E+01
Ga    3.2887327448639381E+00    7.7319535717508678E+00    1.6521901666165835E+01
Ga    4.1460836604836881E+00    1.0891744387236258E+01    6.7448056393480738E-01
N    1.7143929489660110E+00    1.0346586096466796E+01    2.5606378774973488E+00
Ga    1.7022586211839705E+00    8.5654792612914825E+00    3.2079215734005149E+00
N    1.6772665117266090E+00    8.4657131412680702E+00    5.2032050522346900E+00
Ga    1.6559850165973877E+00    1.0338705043500346E+01    5.8169386177492646E+00
N    1.6685776328674040E+00    1.0331757389772209E+01    7.8227763562789656E+00
Ga    1.6958090252294042E+00    8.4858387000053774E+00    8.4867162250486334E+00
N    1.6931740713672649E+00    8.4829824820920479E+00    1.0473301713114960E+01
Ga    1.6677257794708642E+00    1.0343330915375239E+01    1.1118846768655663E+01
N    1.6484264440473344E+00    1.0353007686629089E+01    1.3107987636445399E+01
Ga    1.6912478832850100E+00    8.4836635340077251E+00    1.3668362840469397E+01
N    1.6613689071434312E+00    8.4665993637054342E+00    1.5626206641408569E+01
Ga    1.8383672364315962E+00    1.0243445824905992E+01    1.6521969895339357E+01
N    3.2886825103888775E+00    9.4061208563274086E+00    1.7641003002845824E+01
N    9.7464951190558580E+00    1.9375295148610954E+00    2.6386527688332935E+00
Ga    9.6680439140599361E+00    1.4492520291165445E-01    3.2960159518573291E+00
N    9.7182869095085724E+00    1.2006962980783190E-01    5.2823001459212993E+00
Ga    9.7238320732611534E+00    1.9672909722283742E+00    5.9060504036670451E+00
N    9.7194704789945607E+00    1.9778921498456341E+00    7.8835156783287488E+00
Ga    9.7195221138884360E+00    1.0603986939009420E-01    8.4695915381022306E+00
N    9.7203095036652218E+00    1.0785214169927254E-01    1.0464574685050048E+01
Ga    9.7207267886588724E+00    1.9763311370538523E+00    1.1073000834442249E+01
N    9.7207381094276624E+00    1.9775233863220227E+00    1.3038147620504693E+01
Ga    9.7210990375798616E+00    1.0950679868446507E-01    1.3668428409948152E+01
N    9.7209025795118080E+00    1.4464033318951350E-01    1.5626541295569019E+01
Ga    9.7207260922619856E+00    1.9827190362311169E+00    1.5908228662665875E+01
N    8.0018116911952397E+00    4.7041797776854084E+00    2.5624710372445367E+00
Ga    8.2294825803356293E+00    2.8273387828771228E+00    3.2999206530743663E+00
N    8.1132063928348774E+00    2.9016888611415115E+00    5.2692896060765726E+00
Ga    8.1413557416354294E+00    4.7737348107469586E+00    5.8337299093287118E+00
N    8.1244330078292339E+00    4.7683358209296349E+00    7.8289196053892418E+00
Ga    8.1089917137159944E+00    2.9145528036201132E+00    8.4887791424996362E+00
N    8.1026182378054852E+00    2.9147051740461172E+00    1.0474728680432980E+01
Ga    8.1275364963012251E+00    4.7738061789427375E+00    1.1119499893044072E+01
N    8.1448451836644349E+00    4.7830224865684619E+00    1.3106582461605889E+01
Ga    8.1023671741324872E+00    2.9134761751878653E+00    1.3669823020314459E+01
N    8.1278354635071874E+00    2.8973573246672131E+00    1.5625220353850514E+01
Ga    7.9479163899510539E+00    4.6689524504504654E+00    1.6536493966801640E+01
N    6.4944751345697611E+00    7.5674906760874734E+00    2.6221341744454447E+00
Ga    6.5023560442244817E+00    5.8412451101163860E+00    3.3443239003813696E+00
N    6.5066297356456841E+00    5.6986534262338617E+00    5.2984707763875711E+00
Ga    6.4789087593700518E+00    7.5723983432380715E+00    5.8826224365944269E+00
N    6.4979116049379861E+00    7.5551565772743201E+00    7.8647999991840472E+00
Ga    6.5101022781069009E+00    5.6888537414142775E+00    8.4753585520809889E+00
N    6.5066432127454847E+00    5.6813480152608049E+00    1.0465076151111713E+01
Ga    6.5044195562493661E+00    7.5488253276151136E+00    1.1072061508260770E+01
N    6.5043947582410171E+00    7.5489026044909515E+00    1.3036627158701418E+01
Ga    6.5049657194987747E+00    5.6802850597810881E+00    1.3670757114608051E+01
N    6.5029898266852006E+00    5.7108548397818772E+00    1.5625917952354591E+01
Ga    6.5077653223392451E+00    7.5477430535179533E+00    1.5908931329641323E+01
N    4.8640444538069723E+00    1.0379831703260448E+01    2.5307058653779650E+00
Ga    4.9489217737206204E+00    8.5119220935187627E+00    3.1555803104633369E+00
N    4.8831597262473885E+00    8.4864473963991252E+00    5.1894957660145344E+00
Ga    4.9108068579579429E+00    1.0337836150862785E+01    5.8208791163114846E+00
N    4.9069234994937325E+00    1.0335155797644802E+01    7.8243592389736563E+00
Ga    4.8850386523633222E+00    8.4849322011454351E+00    8.4787871123703678E+00
N    4.8850270691618478E+00    8.4826693657577668E+00    1.0468539474343775E+01
Ga    4.9092236278282195E+00    1.0342037588421396E+01    1.1117023071410115E+01
N    4.9286923870996979E+00    1.0352750400027123E+01    1.3106826867259652E+01
Ga    4.8869775848969308E+00    8.4836075005432647E+00    1.3667596875534663E+01
N    4.9161033313161520E+00    8.4666269832862557E+00    1.5625656891648525E+01
Ga    4.7386829656284126E+00    1.0243272299814743E+01    1.6521817077897563E+01
O    7.5192920896770910E-01    3.7078290590072482E+00   -2.8477439009866617E-01
H    2.5585251473073249E+00    3.3898308309905998E+00    1.8526733463004913E-01
C    1.6627699878203983E-01    2.7391688603457021E+00   -1.1719429402119204E+00
H    3.2531100884160731E-02    1.7554403370186962E+00   -6.8845042685425728E-01
H   -8.1234636460327536E-01    3.0767973058289391E+00   -1.5455129395924825E+00
H    8.4411383634983017E-01    2.6143744878115878E+00   -2.0283036660081213E+00
Ga    3.2705032992612129E+00    5.6044055531003192E+00    3.0461365692498923E+00
O    3.4497659276981270E+00    3.0651846241435687E+00    4.7120868089796519E-01
H    1.5274641603806762E-02    7.5077785546584845E+00    1.6783140011994000E+00
C    3.2849370523620776E+00    1.8434434457079374E+00    1.1650819699192239E+00
H    4.1361672204828022E+00    1.2026547041103868E+00    8.8723786865054377E-01
H    3.2802152128110706E+00    7.5927504665485017E+00    1.5547594267326155E+00
H    2.3507910172775386E+00    1.3455019514694140E+00    8.5851372742093068E-01
     &END COORD
     &KIND C
       BASIS_SET DZVP-MOLOPT-SR-GTH-q4
       POTENTIAL GTH-PBE-q4
       &POTENTIAL
2 2
0.3384712400000000E+00 2 -0.8803673979999999E+01  0.1339210850000000E+01
2
0.3025757500000000E+00 1  0.9622486650000001E+01
0.2915069400000000E+00 0
       &END POTENTIAL
     &END KIND
     &KIND O
       BASIS_SET DZVP-MOLOPT-SR-GTH-q6
       POTENTIAL GTH-PBE-q6
       &POTENTIAL
2 4
0.2445543000000000E+00 2 -0.1666721480000000E+02  0.2487311320000000E+01
2
0.2209559200000000E+00 1  0.1833745811000000E+02
0.2113324700000000E+00 0
       &END POTENTIAL
     &END KIND
     &KIND H
       BASIS_SET DZVP-MOLOPT-SR-GTH-q1
       POTENTIAL GTH-PBE-q1
       &POTENTIAL
1
0.2000000000000000E+00 2 -0.4178900440000000E+01  0.7244633100000000E+00
0
       &END POTENTIAL
     &END KIND
     &KIND N
       BASIS_SET DZVP-MOLOPT-SR-GTH
       POTENTIAL GTH-PBE-q5
       &POTENTIAL
2 3
0.2837905100000000E+00 2 -0.1241522559000000E+02  0.1868095920000000E+01
2
0.2554050000000000E+00 1  0.1363026257000000E+02
0.2454945300000000E+00 0
       &END POTENTIAL
     &END KIND
     &KIND Ga
       BASIS_SET DZVP-MOLOPT-SR-GTH
       POTENTIAL GTH-PBE-q13
       &POTENTIAL
2 1 10
0.4900000000000000E+00 0
3
0.4167772300000000E+00 3  0.1047568975000000E+02 -0.4921768140000000E+01  0.8707055900000000E+00
0.7770178090000000E+01 -0.2248152160000000E+01
0.1784415450000000E+01
0.5696265200000000E+00 2  0.1777985340000000E+01  0.1958597600000000E+00
-0.2317443900000000E+00
0.2381265000000000E+00 1 -0.1624868022000000E+02
       &END POTENTIAL
     &END KIND
     &TOPOLOGY
       NUMBER_OF_ATOMS  212
       MULTIPLE_UNIT_CELL  1 1 1
     &END TOPOLOGY
     &COLVAR
       &DISTANCE
         ATOMS  127 211
       &END DISTANCE
       &PRINT
       &END PRINT
     &END COLVAR
   &END SUBSYS
 &END FORCE_EVAL
