 # Version information for this restart file 
 # current date 2019-07-14 21:43:57.545
 # current working dir /lustre04/scratch/rzk/rzk/GaN-carbene/443-adatoms-both-2x2/09-BondBreaking-CH/02-0401-CH-to-NTop-PES/Phase02-Relax-geom
 # Program compiled at                              Sun Apr  7 00:48:11 EDT 2019
 # Program compiled on                          beluga2.int.ets1.calculquebec.ca
 # Program compiled for                        Beluga-Linux-x86-64-intel-openmpi
 # Source code revision number                                         svn:18619
 &GLOBAL
   PRINT_LEVEL  MEDIUM
   PROJECT_NAME TEST
   RUN_TYPE  GEO_OPT
 &END GLOBAL
 &MOTION
   &GEO_OPT
     MAX_ITER  500
     STEP_START_VAL  9
   &END GEO_OPT
 &END MOTION
 &FORCE_EVAL
   METHOD  QS
   STRESS_TENSOR  ANALYTICAL
   &DFT
     BASIS_SET_FILE_NAME BASIS_MOLOPT
     POTENTIAL_FILE_NAME GTH_POTENTIALS
     UKS  T
     SURFACE_DIPOLE_CORRECTION  T
     SURF_DIP_DIR  Z
     &SCF
       MAX_SCF  80
       EPS_SCF     5.0000000000000004E-06
       &OT  T
         PRECONDITIONER  FULL_ALL
       &END OT
       &OUTER_SCF  T
         OPTIMIZER  NONE
         EPS_SCF     5.0000000000000004E-06
         MAX_SCF  4
       &END OUTER_SCF
       &PRINT
         &RESTART  OFF
           BACKUP_COPIES  1
           &EACH
             JUST_ENERGY  0
             QS_SCF  0
             MD  20
           &END EACH
         &END RESTART
       &END PRINT
     &END SCF
     &QS
       EPS_DEFAULT     1.0000000000000000E-14
       METHOD  GPW
     &END QS
     &MGRID
       NGRIDS  5
       CUTOFF     1.2000000000000000E+03
     &END MGRID
     &XC
       DENSITY_CUTOFF     1.0000000000000000E-10
       GRADIENT_CUTOFF     1.0000000000000000E-10
       TAU_CUTOFF     1.0000000000000000E-10
       &XC_FUNCTIONAL  NO_SHORTCUT
         &PBE  T
         &END PBE
       &END XC_FUNCTIONAL
       &VDW_POTENTIAL
         POTENTIAL_TYPE  PAIR_POTENTIAL
         &PAIR_POTENTIAL
           R_CUTOFF     1.0000000000000009E+01
           TYPE  DFTD3
           PARAMETER_FILE_NAME dftd3.dat
           REFERENCE_FUNCTIONAL PBE
           EPS_CN     9.9999999999999995E-07
           CALCULATE_C9_TERM  T
           REFERENCE_C9_TERM  T
           LONG_RANGE_CORRECTION  F
           VERBOSE_OUTPUT  F
         &END PAIR_POTENTIAL
       &END VDW_POTENTIAL
     &END XC
   &END DFT
   &SUBSYS
     &CELL
       A     1.2864472766435110E+01    0.0000000000000000E+00    0.0000000000000000E+00
       B    -6.4322363581020028E+00    1.1140960178524477E+01    0.0000000000000000E+00
       C     0.0000000000000000E+00    0.0000000000000000E+00    3.2000000000000000E+01
       MULTIPLE_UNIT_CELL  1 1 1
       &CELL_REF
         A     1.2982353780853531E+01    0.0000000000000000E+00    0.0000000000000000E+00
         B    -6.4911768904267628E+00    1.1243048175136114E+01    0.0000000000000000E+00
         C     0.0000000000000000E+00    0.0000000000000000E+00    3.2000000000000000E+01
         MULTIPLE_UNIT_CELL  1 1 1
       &END CELL_REF
     &END CELL
     &COORD
N    9.1728957059492827E-02    2.1104525730415582E+00    2.5715445973779727E+00
Ga    8.8252406910857575E-02    1.6057360017278868E-01    3.0175635235090632E+00
N    9.1009283156903348E-02    1.3153206094559791E-01    5.1135593295970603E+00
Ga    6.3897537706171015E-02    1.9524160231241554E+00    5.8754161057102738E+00
N    7.2988420376894445E-02    1.9709327665783578E+00    7.8570688301419240E+00
Ga    6.6093037849511233E-02    1.1669509677357887E-01    8.4923528529045615E+00
N    7.1172410770594649E-02    1.2000298453024322E-01    1.0461653445133191E+01
Ga    6.9180759837284569E-02    1.9585008487015212E+00    1.1123368779664908E+01
N    7.1813868168798811E-02    1.9406875981686407E+00    1.3109283569736366E+01
Ga    7.3479409644086988E-02    1.2179227988981774E-01    1.3925707657041505E+01
N    7.2883361145493097E-02    1.2234236046166433E-01    1.6112409683631508E+01
Ga    7.2666024880684590E-02    2.1742048164719492E+00    1.6535518175664141E+01
Ga    1.0835016328950201E-01    3.8267545710903663E+00    1.4352085667790868E+00
N   -1.3951199596451862E+00    4.6926129817512869E+00    2.5281165167162372E+00
Ga   -1.6068584048511023E+00    2.8391921156868274E+00    3.3128230679489530E+00
N   -1.5344938282468739E+00    2.9065039902090981E+00    5.2878839016025330E+00
Ga   -1.5680646727245835E+00    4.7717486854437903E+00    5.8522938748122346E+00
N   -1.5450199636221797E+00    4.7696786912823903E+00    7.8406811351834849E+00
Ga   -1.5324907053882664E+00    2.9118183705089242E+00    8.4900761078257183E+00
N   -1.5254490733417876E+00    2.9140190576755738E+00    1.0476002991147686E+01
Ga   -1.5523356585907462E+00    4.7728376148583118E+00    1.1121357678284518E+01
N   -1.5677522124554069E+00    4.7826390900921130E+00    1.3108219771510621E+01
Ga   -1.5254984630850859E+00    2.9127229890355086E+00    1.3670006615998462E+01
N   -1.5507407895008538E+00    2.8967002312495889E+00    1.5625363458818834E+01
Ga   -1.3706600297442992E+00    4.6685475000307646E+00    1.6535559710557816E+01
N    6.6841700497539833E-02    3.8381926986972577E+00    1.7681189600551019E+01
N   -3.1346140323016938E+00    7.6635384117873837E+00    2.5590424417500932E+00
Ga   -3.1215082869936581E+00    5.6752965036471235E+00    2.8820702604610746E+00
N   -3.1383269099630908E+00    5.6872823459558086E+00    5.0479514147929736E+00
Ga   -3.1488086605089673E+00    7.5115841861540646E+00    5.8393987447725388E+00
N   -3.1426712865495356E+00    7.5363807484898837E+00    7.8298793981182415E+00
Ga   -3.1449713425203476E+00    5.6911456713738255E+00    8.4903612201227538E+00
N   -3.1441020654452738E+00    5.6922668670942960E+00    1.0458949488043265E+01
Ga   -3.1451999333000789E+00    7.5299793357078819E+00    1.1120482504261048E+01
N   -3.1439379319913163E+00    7.5120535748576991E+00    1.3107276212613158E+01
Ga   -3.1439304312280152E+00    5.6924815941605269E+00    1.3926375520719667E+01
N   -3.1437198635921875E+00    5.6922442454615201E+00    1.6111561163761731E+01
Ga   -3.1438620003676623E+00    7.7406601867058296E+00    1.6537183565845581E+01
Ga   -3.1774427483912167E+00    9.3971670110053118E+00    1.4246390201873673E+00
N   -4.6405855187104903E+00    1.0291881265502592E+01    2.5866152861622940E+00
Ga   -4.8558645849150688E+00    8.4327504923783891E+00    3.3061123351327510E+00
N   -4.7492648115400886E+00    8.4797751646869148E+00    5.2776074394889863E+00
Ga   -4.7792729379656471E+00    1.0340700828726336E+01    5.8709636880937950E+00
N   -4.7565866050114742E+00    1.0337972656596909E+01    7.8517364051951244E+00
Ga   -4.7467164301362175E+00    8.4763037827375456E+00    8.4796711956697042E+00
N   -4.7409765654270970E+00    8.4810183389296263E+00    1.0468010463477151E+01
Ga   -4.7707236153724670E+00    1.0338892870348079E+01    1.1122199833032958E+01
N   -4.7846480704130805E+00    1.0351363944126280E+01    1.3108252333022220E+01
Ga   -4.7416467250102095E+00    8.4828491352113957E+00    1.3671067493948792E+01
N   -4.7685231468085227E+00    8.4696201476697119E+00    1.5625951572310543E+01
Ga   -4.5818060606739648E+00    1.0236735843640854E+01    1.6537006011245055E+01
N   -3.1440899271271490E+00    9.4003309241827271E+00    1.7682822746766796E+01
N    3.2778973862997227E+00    1.9720710516199824E+00    2.6597262409158549E+00
Ga    3.2898267897899673E+00    1.3738650438658770E-01    3.3909960381466902E+00
N    3.2898095960331974E+00    1.3593032601866514E-01    5.3158546627339520E+00
Ga    3.2867818788916243E+00    1.9748593010196887E+00    5.9816201508530131E+00
N    3.2899080952883790E+00    1.9763844767105481E+00    7.9278020897819736E+00
Ga    3.2873148993013266E+00    1.0333375360583440E-01    8.5122670822424329E+00
N    3.2884198567717569E+00    1.0737339593833693E-01    1.0489950675469094E+01
Ga    3.2892163940981067E+00    1.9784662602984429E+00    1.1087004037804954E+01
N    3.2887920891427496E+00    1.9783734784544169E+00    1.3049067882886270E+01
Ga    3.2885453838524143E+00    1.0647894285003164E-01    1.3671820640952467E+01
N    3.2885463788530962E+00    1.4038951197216823E-01    1.5625991871541210E+01
Ga    3.2890116171841992E+00    1.9789064943304404E+00    1.5900790777153221E+01
N    1.5650805688191585E+00    4.6936232623561391E+00    2.6177488291370099E+00
Ga    1.6890254932260280E+00    2.8862668870213875E+00    3.3902208929011044E+00
N    1.7001953216642460E+00    2.8949948032744532E+00    5.3218326345092670E+00
Ga    1.7043936042360497E+00    4.7770442258514416E+00    5.8811112480358645E+00
N    1.6875036219493929E+00    4.7669332512965932E+00    7.8562340728461759E+00
Ga    1.6662320366363972E+00    2.9129268268624093E+00    8.5111649887921264E+00
N    1.6695007076220583E+00    2.9134943367937858E+00    1.0489367428706391E+01
Ga    1.6963967796299728E+00    4.7761545875959381E+00    1.1123043848779474E+01
N    1.7131901440178536E+00    4.7835770351131304E+00    1.3108750930539559E+01
Ga    1.6678459208283416E+00    2.9143280090154846E+00    1.3671697201871565E+01
N    1.6965549313680435E+00    2.8981350934028645E+00    1.5625948274820427E+01
Ga    1.5112605501551819E+00    4.6657028589903708E+00    1.6536214554014677E+01
N    7.8898256522444754E-02    7.5488140633632499E+00    2.7022362933642317E+00
Ga    7.5435412586723607E-02    5.7114377424645522E+00    3.3814187616130029E+00
N    7.1334499557606221E-02    5.7067334034387596E+00    5.3107080959665760E+00
Ga    9.8347457409565422E-02    7.5627102291272248E+00    5.9223154110830700E+00
N    7.7633988110101457E-02    7.5533332763751320E+00    7.8863248408638817E+00
Ga    6.8508360867576931E-02    5.6847729647697323E+00    8.4908580965266918E+00
N    7.1483351008677573E-02    5.6804224812969100E+00    1.0474944893668001E+01
Ga    7.3718491388570909E-02    7.5492761753716247E+00    1.1076508894096134E+01
N    7.2926580135941471E-02    7.5491278200761887E+00    1.3039920654063458E+01
Ga    7.2680403167833751E-02    5.6798167688124561E+00    1.3671350033393635E+01
N    7.4275934336018493E-02    5.7110037194160022E+00    1.5626420295439047E+01
Ga    6.9808548731763800E-02    7.5479479780311802E+00    1.5907787144498030E+01
N   -1.6489719963102500E+00    1.0282893751766888E+01    2.5705044626985885E+00
Ga   -1.5100327547897623E+00    8.4728825224496997E+00    3.3564318329003235E+00
N   -1.5227064358577878E+00    8.4746694572568000E+00    5.2896357581387505E+00
Ga   -1.5042260090011377E+00    1.0351534224827180E+01    5.8792745035567737E+00
N   -1.5318571237000933E+00    1.0335740953304908E+01    7.8565154453234083E+00
Ga   -1.5455153327470406E+00    8.4770250270832079E+00    8.4910968123196007E+00
N   -1.5468569809854786E+00    8.4811043034498610E+00    1.0474848884546482E+01
Ga   -1.5168969053131729E+00    1.0340565436843077E+01    1.1123698470575436E+01
N   -1.5021898462600412E+00    1.0351997871981991E+01    1.3109208766642249E+01
Ga   -1.5464072934079298E+00    8.4832657728561642E+00    1.3671523111653055E+01
N   -1.5189365959281780E+00    8.4695978019684830E+00    1.5626405126351154E+01
Ga   -1.7058612437535310E+00    1.0236714917328941E+01    1.6537313135486844E+01
N    6.4822544462108658E+00    2.1095895284514365E+00    2.5619059205175692E+00
Ga    6.5218926458832094E+00    1.1273911002609786E-01    2.9573783806399421E+00
N    6.4805132962443563E+00    1.3446007225506229E-01    5.1127366092923507E+00
Ga    6.5150170856612828E+00    1.9484125724149499E+00    5.8694717249205359E+00
N    6.5051916507933409E+00    1.9727471079106682E+00    7.8526051384089790E+00
Ga    6.5115523069305352E+00    1.1784500852068933E-01    8.4911877313912694E+00
N    6.5059917545088339E+00    1.2054694310886339E-01    1.0460688574945296E+01
Ga    6.5086525599785237E+00    1.9591993014510780E+00    1.1122921006468355E+01
N    6.5057702015982120E+00    1.9406310897383410E+00    1.3108806706452672E+01
Ga    6.5040285016137611E+00    1.2233935000756443E-01    1.3926893715455394E+01
N    6.5041486060785951E+00    1.2248096345744106E-01    1.6112818178376575E+01
Ga    6.5044837102886648E+00    2.1746491880134649E+00    1.6535526022102761E+01
Ga    6.4783242964624783E+00    3.8592929943184338E+00    1.5669500384217891E+00
N    5.0102692228152641E+00    4.6994542666820616E+00    2.6414082155715035E+00
Ga    4.8579426954495171E+00    2.8695719360866123E+00    3.3916476550295407E+00
N    4.8784637082805178E+00    2.8935926310313103E+00    5.3140568339002545E+00
Ga    4.8820565968935092E+00    4.7802689148372712E+00    5.8710217668153657E+00
N    4.8896138886195146E+00    4.7653169960611521E+00    7.8497693141862737E+00
Ga    4.9126330587855378E+00    2.9142680956624925E+00    8.5100502209508839E+00
N    4.9087037094072290E+00    2.9137953939193069E+00    1.0488302584361696E+01
Ga    4.8838472938392661E+00    4.7773937953361427E+00    1.1120034832927567E+01
N    4.8652764166781832E+00    4.7837996920465748E+00    1.3106643745566354E+01
Ga    4.9098061749229709E+00    2.9147085960872792E+00    1.3670819405527569E+01
N    4.8810268836626065E+00    2.8985031637102106E+00    1.5625111774693368E+01
Ga    5.0661302875234462E+00    4.6657815490414283E+00    1.6536060101344816E+01
N    6.5101810172725125E+00    3.8385474120760588E+00    1.7681048935139959E+01
N    3.2835084542764372E+00    7.5264215768284597E+00    2.5828007383748730E+00
N    3.2901979993296115E+00    5.6725913570587885E+00    5.1124099821864748E+00
Ga    3.2930807492737748E+00    7.5416411921066207E+00    5.8143004610167202E+00
N    3.2881323090876631E+00    7.5419455186071769E+00    7.8153059606975877E+00
Ga    3.2904139507099304E+00    5.7010000645261316E+00    8.4905093427728566E+00
N    3.2891916243608228E+00    5.6944751736721955E+00    1.0458969569601072E+01
Ga    3.2901703537918734E+00    7.5321979136521575E+00    1.1120792034902912E+01
N    3.2890281826790089E+00    7.5115679280972802E+00    1.3108810682546652E+01
Ga    3.2894982745094019E+00    5.6907982539191480E+00    1.3926357873203948E+01
N    3.2887161570504579E+00    5.6914507174499116E+00    1.6112783958969764E+01
Ga    3.2886946624723388E+00    7.7328654484513963E+00    1.6521452583710229E+01
Ga    4.1441558178317850E+00    1.0891880932414931E+01    6.7372644427427264E-01
N    1.7145222178654760E+00    1.0346661003853525E+01    2.5601025558285957E+00
Ga    1.7020913265421049E+00    8.5653433370653662E+00    3.2076687929855687E+00
N    1.6770075094821442E+00    8.4660022567449396E+00    5.2029130720380063E+00
Ga    1.6561174681337960E+00    1.0338648450286986E+01    5.8167858854148120E+00
N    1.6686390561093383E+00    1.0331846733068849E+01    7.8226472497709176E+00
Ga    1.6960239835290056E+00    8.4857106850126840E+00    8.4859588146861533E+00
N    1.6932644153122482E+00    8.4829200855091322E+00    1.0472685743268567E+01
Ga    1.6678057777602560E+00    1.0343310737223913E+01    1.1118375291329674E+01
N    1.6487017303668849E+00    1.0352859367164204E+01    1.3107715382209458E+01
Ga    1.6912553733433588E+00    8.4836257706033429E+00    1.3668537521358216E+01
N    1.6612225310315762E+00    8.4665978611639403E+00    1.5626114336006555E+01
Ga    1.8392797915532288E+00    1.0243013620181207E+01    1.6521751302961626E+01
N    3.2887741631894567E+00    9.4061433782193618E+00    1.7641438027740193E+01
N    9.7465721569549508E+00    1.9379177439148398E+00    2.6386341796513109E+00
Ga    9.6682952863487692E+00    1.4519438462360335E-01    3.2953731117374625E+00
N    9.7183274296235034E+00    1.2002313160188487E-01    5.2816228597887367E+00
Ga    9.7237916728790879E+00    1.9673485167452505E+00    5.9055455621805466E+00
N    9.7194337685728325E+00    1.9779019102561448E+00    7.8830081932404976E+00
Ga    9.7195473968569459E+00    1.0605998890281766E-01    8.4691344406318301E+00
N    9.7203309628703121E+00    1.0795017066367205E-01    1.0464206124933934E+01
Ga    9.7206731026117073E+00    1.9763053891511129E+00    1.1072734453377310E+01
N    9.7207091121823144E+00    1.9775091939192446E+00    1.3037941035856342E+01
Ga    9.7211032446928343E+00    1.0961561334802185E-01    1.3668425977477195E+01
N    9.7208445739605835E+00    1.4463365836247663E-01    1.5626196711863708E+01
Ga    9.7208101345906641E+00    1.9822435839749120E+00    1.5907254397137010E+01
N    8.0020955244249858E+00    4.7040624757391027E+00    2.5622185049455983E+00
Ga    8.2294540900997220E+00    2.8276724834832327E+00    3.2997131778792523E+00
N    8.1130401114211583E+00    2.9018761789184619E+00    5.2690969776666474E+00
Ga    8.1411148725771501E+00    4.7737281696944969E+00    5.8339960841056531E+00
N    8.1242503398402537E+00    4.7683697795052700E+00    7.8290692652565550E+00
Ga    8.1089766509667260E+00    2.9145446079575810E+00    8.4884624181420936E+00
N    8.1026502195145547E+00    2.9147088547997346E+00    1.0474584174184757E+01
Ga    8.1274396243238858E+00    4.7737729536650892E+00    1.1119092740249627E+01
N    8.1446084331100561E+00    4.7828612503354293E+00    1.3106609591728294E+01
Ga    8.1026231243415854E+00    2.9133096428510781E+00    1.3669670976557688E+01
N    8.1280319189405308E+00    2.8969510112818395E+00    1.5625066410346736E+01
Ga    7.9477117916428988E+00    4.6687233939386266E+00    1.6535507713912182E+01
N    6.4951481850184321E+00    7.5675604861247328E+00    2.6220947051425547E+00
Ga    6.5024170240211587E+00    5.8409266405669387E+00    3.3434151131170577E+00
N    6.5064286290064528E+00    5.6983556266024173E+00    5.2976320112666828E+00
Ga    6.4786502487789654E+00    7.5720274895927053E+00    5.8826038711714093E+00
N    6.4978822850459546E+00    7.5548948230751636E+00    7.8647111356494088E+00
Ga    6.5099065436209527E+00    5.6888114061226744E+00    8.4752511278709690E+00
N    6.5065355089747889E+00    5.6814259799256046E+00    1.0465191260086284E+01
Ga    6.5042786383709092E+00    7.5488664988345660E+00    1.1071933868344800E+01
N    6.5044097991011069E+00    7.5489468321172781E+00    1.3036678228606297E+01
Ga    6.5049702681532731E+00    5.6804292108691525E+00    1.3670591325616233E+01
N    6.5030311927850351E+00    5.7111501374725293E+00    1.5625711765794115E+01
Ga    6.5075097734897236E+00    7.5478846993340607E+00    1.5908177086989861E+01
N    4.8641829444605218E+00    1.0379680406328088E+01    2.5297305617336550E+00
Ga    4.9495419860514964E+00    8.5118075828478581E+00    3.1554192036890840E+00
N    4.8836047333807242E+00    8.4865751632559476E+00    5.1892812245835440E+00
Ga    4.9107659905961283E+00    1.0337699018143910E+01    5.8204930295407324E+00
N    4.9068646149975628E+00    1.0335196292126579E+01    7.8240872598713596E+00
Ga    4.8849123239029772E+00    8.4847813262869671E+00    8.4779231495290670E+00
N    4.8850001972193260E+00    8.4825889968916037E+00    1.0467876208271816E+01
Ga    4.9091466123140766E+00    1.0341985302380069E+01    1.1116571001263308E+01
N    4.9284320640220169E+00    1.0352595299650451E+01    1.3106580951481796E+01
Ga    4.8869560663515488E+00    8.4835751731948630E+00    1.3667780960373959E+01
N    4.9162110131570520E+00    8.4665695623487682E+00    1.5625578544551386E+01
Ga    4.7378763129962209E+00    1.0242935269807292E+01    1.6521525708777670E+01
O    7.5187560136420417E-01    3.7075559926070882E+00   -2.8533882531754073E-01
H    2.5578681989851875E+00    3.3890272185306967E+00    1.8457730754881602E-01
C    1.6606441472729830E-01    2.7385701213640274E+00   -1.1721431203030710E+00
H    3.2552638228752026E-02    1.7549037530795026E+00   -6.8877899510035590E-01
H   -8.1237611687253619E-01    3.0759749568078649E+00   -1.5460211395281311E+00
H    8.4413628828745335E-01    2.6139525446138903E+00   -2.0283021060512336E+00
Ga    3.2704990608867073E+00    5.6042898233730858E+00    3.0463593492707890E+00
O    3.4489926108727915E+00    3.0649924985888006E+00    4.7109251610504899E-01
H    1.3332667800279072E-02    7.5073183059150157E+00    1.6783990781326041E+00
C    3.2849024438020500E+00    1.8433212923099234E+00    1.1651871041872712E+00
H    4.1360872515813805E+00    1.2027366259506944E+00    8.8732796844709039E-01
H    3.2800137412889780E+00    7.5920415665140499E+00    1.5570852604600189E+00
H    2.3508069185079319E+00    1.3452770966228784E+00    8.5900406566768051E-01
     &END COORD
     &KIND C
       BASIS_SET DZVP-MOLOPT-SR-GTH-q4
       POTENTIAL GTH-PBE-q4
       &POTENTIAL
2 2
0.3384712400000000E+00 2 -0.8803673979999999E+01  0.1339210850000000E+01
2
0.3025757500000000E+00 1  0.9622486650000001E+01
0.2915069400000000E+00 0
       &END POTENTIAL
     &END KIND
     &KIND O
       BASIS_SET DZVP-MOLOPT-SR-GTH-q6
       POTENTIAL GTH-PBE-q6
       &POTENTIAL
2 4
0.2445543000000000E+00 2 -0.1666721480000000E+02  0.2487311320000000E+01
2
0.2209559200000000E+00 1  0.1833745811000000E+02
0.2113324700000000E+00 0
       &END POTENTIAL
     &END KIND
     &KIND H
       BASIS_SET DZVP-MOLOPT-SR-GTH-q1
       POTENTIAL GTH-PBE-q1
       &POTENTIAL
1
0.2000000000000000E+00 2 -0.4178900440000000E+01  0.7244633100000000E+00
0
       &END POTENTIAL
     &END KIND
     &KIND N
       BASIS_SET DZVP-MOLOPT-SR-GTH
       POTENTIAL GTH-PBE-q5
       &POTENTIAL
2 3
0.2837905100000000E+00 2 -0.1241522559000000E+02  0.1868095920000000E+01
2
0.2554050000000000E+00 1  0.1363026257000000E+02
0.2454945300000000E+00 0
       &END POTENTIAL
     &END KIND
     &KIND Ga
       BASIS_SET DZVP-MOLOPT-SR-GTH
       POTENTIAL GTH-PBE-q13
       &POTENTIAL
2 1 10
0.4900000000000000E+00 0
3
0.4167772300000000E+00 3  0.1047568975000000E+02 -0.4921768140000000E+01  0.8707055900000000E+00
0.7770178090000000E+01 -0.2248152160000000E+01
0.1784415450000000E+01
0.5696265200000000E+00 2  0.1777985340000000E+01  0.1958597600000000E+00
-0.2317443900000000E+00
0.2381265000000000E+00 1 -0.1624868022000000E+02
       &END POTENTIAL
     &END KIND
     &TOPOLOGY
       NUMBER_OF_ATOMS  212
       MULTIPLE_UNIT_CELL  1 1 1
     &END TOPOLOGY
     &COLVAR
       &DISTANCE
         ATOMS  127 211
       &END DISTANCE
       &PRINT
       &END PRINT
     &END COLVAR
   &END SUBSYS
 &END FORCE_EVAL
