 # Version information for this restart file 
 # current date 2019-07-15 17:28:47.114
 # current working dir /lustre04/scratch/rzk/rzk/GaN-carbene/443-adatoms-both-2x2/11-CH3O-HO-H2C-H-H/01-UseFinal-0902
 # Program compiled at                              Sun Apr  7 00:48:11 EDT 2019
 # Program compiled on                          beluga2.int.ets1.calculquebec.ca
 # Program compiled for                        Beluga-Linux-x86-64-intel-openmpi
 # Source code revision number                                         svn:18619
 &GLOBAL
   PRINT_LEVEL  MEDIUM
   PROJECT_NAME TEST
   RUN_TYPE  GEO_OPT
 &END GLOBAL
 &MOTION
   &GEO_OPT
     MAX_ITER  500
     STEP_START_VAL  89
   &END GEO_OPT
 &END MOTION
 &FORCE_EVAL
   METHOD  QS
   STRESS_TENSOR  ANALYTICAL
   &DFT
     BASIS_SET_FILE_NAME BASIS_MOLOPT
     POTENTIAL_FILE_NAME GTH_POTENTIALS
     UKS  T
     SURFACE_DIPOLE_CORRECTION  T
     SURF_DIP_DIR  Z
     &SCF
       MAX_SCF  80
       EPS_SCF     5.0000000000000004E-06
       &OT  T
         PRECONDITIONER  FULL_ALL
       &END OT
       &OUTER_SCF  T
         OPTIMIZER  NONE
         EPS_SCF     5.0000000000000004E-06
         MAX_SCF  4
       &END OUTER_SCF
       &PRINT
         &RESTART  OFF
           BACKUP_COPIES  1
           &EACH
             JUST_ENERGY  0
             QS_SCF  0
             MD  20
           &END EACH
         &END RESTART
       &END PRINT
     &END SCF
     &QS
       EPS_DEFAULT     1.0000000000000000E-14
       METHOD  GPW
     &END QS
     &MGRID
       NGRIDS  5
       CUTOFF     1.2000000000000000E+03
     &END MGRID
     &XC
       DENSITY_CUTOFF     1.0000000000000000E-10
       GRADIENT_CUTOFF     1.0000000000000000E-10
       TAU_CUTOFF     1.0000000000000000E-10
       &XC_FUNCTIONAL  NO_SHORTCUT
         &PBE  T
         &END PBE
       &END XC_FUNCTIONAL
       &VDW_POTENTIAL
         POTENTIAL_TYPE  PAIR_POTENTIAL
         &PAIR_POTENTIAL
           R_CUTOFF     1.0000000000000004E+01
           TYPE  DFTD3
           PARAMETER_FILE_NAME dftd3.dat
           REFERENCE_FUNCTIONAL PBE
           EPS_CN     9.9999999999999995E-07
           CALCULATE_C9_TERM  T
           REFERENCE_C9_TERM  T
           LONG_RANGE_CORRECTION  F
           VERBOSE_OUTPUT  F
         &END PAIR_POTENTIAL
       &END VDW_POTENTIAL
     &END XC
   &END DFT
   &SUBSYS
     &CELL
       A     1.2864472766435110E+01    0.0000000000000000E+00    0.0000000000000000E+00
       B    -6.4322363581020028E+00    1.1140960178524473E+01    0.0000000000000000E+00
       C     0.0000000000000000E+00    0.0000000000000000E+00    3.2000000000000000E+01
       MULTIPLE_UNIT_CELL  1 1 1
       &CELL_REF
         A     1.2982353780853531E+01    0.0000000000000000E+00    0.0000000000000000E+00
         B    -6.4911768904267628E+00    1.1243048175136114E+01    0.0000000000000000E+00
         C     0.0000000000000000E+00    0.0000000000000000E+00    3.2000000000000000E+01
         MULTIPLE_UNIT_CELL  1 1 1
       &END CELL_REF
     &END CELL
     &COORD
N    6.5878389005496821E-02    2.1155614525826634E+00    2.5612027477389749E+00
Ga    5.4782940564288021E-02    1.4358448961660164E-01    2.9531510827902414E+00
N    6.0515776349288342E-02    1.3940075249478326E-01    5.1174549706800638E+00
Ga    6.1295740612030490E-02    1.9527154718330764E+00    5.8744631587558453E+00
N    7.9140360396912843E-02    1.9773189466122496E+00    7.8638258036929169E+00
Ga    7.9149204138332083E-02    1.2357415311616617E-01    8.4893577946763976E+00
N    7.8535816553922860E-02    1.2580817101677544E-01    1.0466284026126768E+01
Ga    7.6370004060939134E-02    1.9656096746335929E+00    1.1118406873625039E+01
N    7.6167802121910530E-02    1.9474369579726434E+00    1.3113996966362189E+01
Ga    7.6479758157553757E-02    1.2675175187935356E-01    1.3915906797274239E+01
N    7.6371147003784709E-02    1.2612528012090091E-01    1.6118544993199162E+01
Ga    7.4798361630734903E-02    2.1632385177843547E+00    1.6527028219282954E+01
Ga    3.3039743941743790E-02    3.8494100597821519E+00    1.3857751951487582E+00
N   -1.4149694408115614E+00    4.7059157837203252E+00    2.5657897426872780E+00
Ga   -1.6163324949908506E+00    2.8712943389632168E+00    3.3298345827204767E+00
N   -1.5285162744661773E+00    2.9170644307297784E+00    5.3135110377756289E+00
Ga   -1.5645794666782546E+00    4.7818474874500456E+00    5.8607039775209993E+00
N   -1.5388068217715947E+00    4.7771795120977760E+00    7.8573462853444864E+00
Ga   -1.5256561853867026E+00    2.9194385256636326E+00    8.4921529766024442E+00
N   -1.5203528183420629E+00    2.9197122876965249E+00    1.0486617746739217E+01
Ga   -1.5471709553022204E+00    4.7797125372289848E+00    1.1117824563936377E+01
N   -1.5638495991413579E+00    4.7889894789399996E+00    1.3113171209881680E+01
Ga   -1.5209918058802576E+00    2.9201638450473144E+00    1.3668938696475969E+01
N   -1.5488494196268985E+00    2.9062793066652324E+00    1.5632214737693424E+01
Ga   -1.3715478352348811E+00    4.6769710443925510E+00    1.6527521472682469E+01
N    8.2215101292413870E-02    3.8367879102878910E+00    1.7661120335844860E+01
N   -3.1400931743037432E+00    7.6173972873114781E+00    2.5206258823346923E+00
Ga   -3.1393027336047656E+00    5.6813984792170791E+00    2.9103395464363957E+00
N   -3.1404373257676492E+00    5.6855669049930810E+00    5.0920766883420558E+00
Ga   -3.1398020293822078E+00    7.5226125059917788E+00    5.8160163073125339E+00
N   -3.1395510920011644E+00    7.5483418379234735E+00    7.8261082959606183E+00
Ga   -3.1395752976798539E+00    5.7050802829922711E+00    8.4893752462560066E+00
N   -3.1396266161371971E+00    5.7012887248354582E+00    1.0466963480741873E+01
Ga   -3.1393232705072731E+00    7.5394407588658101E+00    1.1117375769842338E+01
N   -3.1401133464411841E+00    7.5197409870836136E+00    1.3112303100012136E+01
Ga   -3.1395929223583927E+00    5.6994699281640049E+00    1.3914909119643823E+01
N   -3.1399641163740877E+00    5.6986750560107993E+00    1.6118665667116357E+01
Ga   -3.1410655913766194E+00    7.7400688869145320E+00    1.6531835570395078E+01
Ga   -3.1422163453951022E+00    9.1286258104881828E+00    7.5558969071223470E-01
N   -4.7291651551438560E+00    1.0316163475992349E+01    2.5437980401978604E+00
Ga   -4.7316085055662995E+00    8.4938027949601320E+00    3.2563917354549283E+00
N   -4.7566300572411704E+00    8.4783277231937113E+00    5.2454618193402203E+00
Ga   -4.7899800261839420E+00    1.0351780371417801E+01    5.8271285847987127E+00
N   -4.7518514327343215E+00    1.0344266412682856E+01    7.8287902623862307E+00
Ga   -4.7327835604335000E+00    8.4898214939736114E+00    8.4791281929484885E+00
N   -4.7355725986071917E+00    8.4904074938282186E+00    1.0475273611738912E+01
Ga   -4.7621936106475058E+00    1.0347591543829687E+01    1.1117808993424159E+01
N   -4.7793514266988408E+00    1.0358302386094264E+01    1.3111933270354786E+01
Ga   -4.7371926459535132E+00    8.4903555859911517E+00    1.3670399488778292E+01
N   -4.7654241776290593E+00    8.4755024401083734E+00    1.5631786912536247E+01
Ga   -4.5835555629419993E+00    1.0244617080521850E+01    1.6532795651795599E+01
N   -3.1336215118115045E+00    9.4081496938209863E+00    1.7667665481159560E+01
N    3.2919775662137249E+00    2.1770869679196827E+00    2.5289772234498518E+00
Ga    3.2923900631944560E+00   -1.3151430653172344E-01    3.3025304700595877E+00
N    3.2924921157919091E+00    1.4125192430190464E-01    5.2367031858651920E+00
Ga    3.2929557551972293E+00    1.9688922144247902E+00    5.9309517822513138E+00
N    3.2927141544031642E+00    1.9787476061610623E+00    7.8952852602575279E+00
Ga    3.2929280694979632E+00    1.0937742045054256E-01    8.4848897402339798E+00
N    3.2927148591556583E+00    1.1406715220786653E-01    1.0477688800767314E+01
Ga    3.2932117214328716E+00    1.9818610100706011E+00    1.1079553862378761E+01
N    3.2918878778154750E+00    1.9835372941955389E+00    1.3050453406290208E+01
Ga    3.2915778336924313E+00    1.1387990582071159E-01    1.3671435105628115E+01
N    3.2897568503925774E+00    1.4682345429840118E-01    1.5632683507543092E+01
Ga    3.2913918320289492E+00    1.9846475466228708E+00    1.5912172500963480E+01
N    1.5595595942610452E+00    4.7023406811541584E+00    2.5595148224026230E+00
Ga    1.6119009604249199E+00    2.9212560163648957E+00    3.3860980246619552E+00
N    1.7001196564618666E+00    2.9018381739731782E+00    5.3058137888702337E+00
Ga    1.7155469441094253E+00    4.7915014835742200E+00    5.8639349721508074E+00
N    1.6931412801477010E+00    4.7722431013804432E+00    7.8524723714083153E+00
Ga    1.6759145646939482E+00    2.9164769695836532E+00    8.4967299158058278E+00
N    1.6763424562670750E+00    2.9187673614969047E+00    1.0486351585853912E+01
Ga    1.6994497677135632E+00    4.7787922473376749E+00    1.1121472661575513E+01
N    1.7156079389021210E+00    4.7884208997081483E+00    1.3115509626829764E+01
Ga    1.6722158843780714E+00    2.9192988911879252E+00    1.3670543724449541E+01
N    1.6993433579478605E+00    2.9044773099157366E+00    1.5634611111131441E+01
Ga    1.5272911768492570E+00    4.6805908618211829E+00    1.6527511576233170E+01
N    8.4314791395510486E-02    7.5515177148583623E+00    2.7151979366730434E+00
Ga    6.3081716167989646E-02    5.7115785682919746E+00    3.3695244140575835E+00
N    7.8055780395897875E-02    5.7118682089829447E+00    5.3089979334904189E+00
Ga    6.5932479762035673E-02    7.5660130864983275E+00    5.9268492885410122E+00
N    7.4945087809216340E-02    7.5576715526057114E+00    7.8975098168466422E+00
Ga    7.4601665017778027E-02    5.6890105057958236E+00    8.4909839479125520E+00
N    7.7834061866923959E-02    5.6864112952812711E+00    1.0483291782017487E+01
Ga    7.5667501510612217E-02    7.5559554391822088E+00    1.1075195388976503E+01
N    7.5036708241638300E-02    7.5553799952947722E+00    1.3047720915245968E+01
Ga    7.5042826589181544E-02    5.6863661460471917E+00    1.3669720444463092E+01
N    7.3683111550901861E-02    5.7165767378661938E+00    1.5632701759485688E+01
Ga    7.5273687160415548E-02    7.5558149533859789E+00    1.5911718083486248E+01
N   -1.5503680189912274E+00    1.0316864290878117E+01    2.5432282121530538E+00
Ga   -1.5484460002713276E+00    8.4944492627155821E+00    3.2557502113242185E+00
N   -1.5230204113384769E+00    8.4785191469078409E+00    5.2450887456204560E+00
Ga   -1.4893329731534186E+00    1.0352102223122557E+01    5.8264870471101968E+00
N   -1.5269600031613184E+00    1.0344393224332672E+01    7.8283152602317143E+00
Ga   -1.5464188485209933E+00    8.4901483238490449E+00    8.4792587032219497E+00
N   -1.5429187539521281E+00    8.4901536975882568E+00    1.0475559198398807E+01
Ga   -1.5170998700664837E+00    1.0347282039917298E+01    1.1118218612379748E+01
N   -1.5010950700382812E+00    1.0358217120585943E+01    1.3112787879715309E+01
Ga   -1.5436376434577306E+00    8.4901202941474399E+00    1.3670898648792560E+01
N   -1.5162370121187518E+00    8.4737623406931881E+00    1.5633477140990445E+01
Ga   -1.6922514734565532E+00    1.0248426181967060E+01    1.6532025577428154E+01
N    6.5192579832530893E+00    2.1173698055550529E+00    2.5584400463460253E+00
Ga    6.5307650183012305E+00    1.4299429033684494E-01    2.9515703278606158E+00
N    6.5248310635477536E+00    1.4007000028626815E-01    5.1162784405514046E+00
Ga    6.5238343829816765E+00    1.9529512869478911E+00    5.8745434469821518E+00
N    6.5063272910756567E+00    1.9772809396607147E+00    7.8637134696753668E+00
Ga    6.5064611716251575E+00    1.2357236134931630E-01    8.4892510259610017E+00
N    6.5064995447777401E+00    1.2566569050318713E-01    1.0466134791510246E+01
Ga    6.5093568388191931E+00    1.9655624893426575E+00    1.1118226656092730E+01
N    6.5077979636661754E+00    1.9473946508160895E+00    1.3113930506886284E+01
Ga    6.5084727807762217E+00    1.2656687092553923E-01    1.3915974458369853E+01
N    6.5087239324181754E+00    1.2642227497072570E-01    1.6118996546939393E+01
Ga    6.5075302156458941E+00    2.1637538723129648E+00    1.6527898185526510E+01
Ga    6.5571675952125332E+00    3.8421919698894156E+00    1.3796069699562035E+00
N    5.0244831310668117E+00    4.7018282776919946E+00    2.5614430697718436E+00
Ga    4.9723343548941363E+00    2.9231319272001119E+00    3.3848936466883606E+00
N    4.8854854873963944E+00    2.9012898055895295E+00    5.3050845711860122E+00
Ga    4.8697776021431478E+00    4.7912583845385122E+00    5.8627366731368955E+00
N    4.8922430984808134E+00    4.7721728596837147E+00    7.8517044839298009E+00
Ga    4.9095670994244580E+00    2.9164628101444934E+00    8.4963922666509220E+00
N    4.9095271975593668E+00    2.9190280335198273E+00    1.0485785726892324E+01
Ga    4.8856813038938585E+00    4.7790382975030798E+00    1.1121047301939718E+01
N    4.8682689744272878E+00    4.7882974783140133E+00    1.3114722195916920E+01
Ga    4.9110249261356156E+00    2.9192817576276249E+00    1.3670252222858041E+01
N    4.8827812596328535E+00    2.9058081131753002E+00    1.5633174503071265E+01
Ga    5.0616840814102630E+00    4.6766625789763685E+00    1.6529064520009818E+01
N    6.5149173958861626E+00    3.8368224118603189E+00    1.7660022298586927E+01
N    3.2926693695763714E+00    7.6522745783360619E+00    2.5649805563561503E+00
N    3.2921929570063053E+00    5.6894753085502767E+00    5.0875912919684749E+00
Ga    3.2923616311592792E+00    7.5200252292658956E+00    5.8483832086644494E+00
N    3.2925947630199515E+00    7.5437634747260907E+00    7.8449338579795125E+00
Ga    3.2928130337467825E+00    5.6991515077295736E+00    8.4964808671510301E+00
N    3.2924668350836450E+00    5.6980349985320471E+00    1.0469432025959422E+01
Ga    3.2928682461575125E+00    7.5376128993571729E+00    1.1121356531636295E+01
N    3.2918938413662375E+00    7.5185099845605201E+00    1.3115140909697919E+01
Ga    3.2922788987516465E+00    5.6989104132669972E+00    1.3917494893496016E+01
N    3.2928404815270231E+00    5.6986195866771352E+00    1.6119599844934932E+01
Ga    3.2913195537099349E+00    7.7403897870226759E+00    1.6531467196674583E+01
Ga    3.2928353673232862E+00    9.4942705966904182E+00    1.3011223113944155E+00
N    1.7886960706021584E+00    1.0288597168601697E+01    2.5817081286048746E+00
Ga    1.6886800870602021E+00    8.4868072454515993E+00    3.3381672506625519E+00
N    1.6748580830576669E+00    8.4757012422203939E+00    5.2905942295761834E+00
Ga    1.6676528936267034E+00    1.0357374087097082E+01    5.8583425266422084E+00
N    1.6771094336337293E+00    1.0340991818259072E+01    7.8561419484705857E+00
Ga    1.6944540483238431E+00    8.4884027473721595E+00    8.4908813417341467E+00
N    1.6959708104283997E+00    8.4878149137130805E+00    1.0483259516097711E+01
Ga    1.6693515091042246E+00    1.0348540788939092E+01    1.1117305503131853E+01
N    1.6518729875623284E+00    1.0358359241857631E+01    1.3112535852524395E+01
Ga    1.6939837493779297E+00    8.4902642248584108E+00    1.3669935081993005E+01
N    1.6664895541920293E+00    8.4753763627698664E+00    1.5631746211097308E+01
Ga    1.8486400700765724E+00    1.0244995720251140E+01    1.6531773171312107E+01
N    3.2986548430407603E+00    9.4084957933743176E+00    1.7666386701917851E+01
N    9.7244271697494682E+00    1.9899088063201944E+00    2.6953318201822007E+00
Ga    9.7248326522482014E+00    2.2270443891963546E-01    3.3188113239134664E+00
N    9.7249836764916999E+00    1.2644546603919044E-01    5.3066544797329120E+00
Ga    9.7251000254726829E+00    1.9850292879822371E+00    5.9164690708482581E+00
N    9.7248655178171379E+00    1.9841509920411060E+00    7.9029685959749587E+00
Ga    9.7250288061209389E+00    1.1794874081300946E-01    8.4900908069448509E+00
N    9.7250242184256610E+00    1.1511806996675679E-01    1.0485361823790818E+01
Ga    9.7256450415653681E+00    1.9841090623175370E+00    1.1078212353718117E+01
N    9.7244804369736908E+00    1.9847431392308132E+00    1.3051101436760606E+01
Ga    9.7239449925182715E+00    1.1443248906779403E-01    1.3669560640220547E+01
N    9.7219737048858725E+00    1.4675804518402366E-01    1.5631715245090616E+01
Ga    9.7237671445839151E+00    1.9848795365320315E+00    1.5909984727183804E+01
N    7.9981110334803756E+00    4.7030731712305895E+00    2.5593989429970936E+00
Ga    8.2013646926288146E+00    2.8709827335467519E+00    3.3312611309391587E+00
N    8.1136539007515367E+00    2.9172987376773589E+00    5.3136218303457712E+00
Ga    8.1491447317878620E+00    4.7821159570814373E+00    5.8614374274125671E+00
N    8.1240467073642488E+00    4.7770477493723122E+00    7.8576672567361463E+00
Ga    8.1110653186119936E+00    2.9193821229144272E+00    8.4924872562719020E+00
N    8.1064933543215094E+00    2.9193588356682496E+00    1.0487043761680612E+01
Ga    8.1325946328779839E+00    4.7794734997462971E+00    1.1118200505612718E+01
N    8.1481900542188761E+00    4.7890724208895632E+00    1.3113998782176376E+01
Ga    8.1046994825373773E+00    2.9199741035252815E+00    1.3669357778702770E+01
N    8.1317182454222063E+00    2.9044105922940013E+00    1.5633959350286348E+01
Ga    7.9594355698914523E+00    4.6803809579177722E+00    1.6527744322550713E+01
N    6.5007888562240925E+00    7.5504044294753099E+00    2.7149098517385055E+00
Ga    6.5201265894927438E+00    5.7093427528872782E+00    3.3667698961360921E+00
N    6.5075029308944616E+00    5.7112712550615132E+00    5.3072055768051465E+00
Ga    6.5191608523563156E+00    7.5649409091810194E+00    5.9264012760935403E+00
N    6.5103049039275032E+00    7.5573004092707725E+00    7.8972989985176261E+00
Ga    6.5107429861215307E+00    5.6887899961786479E+00    8.4910662222141706E+00
N    6.5075922176666330E+00    5.6863450932645598E+00    1.0483328470076458E+01
Ga    6.5108158132947462E+00    7.5559564541202988E+00    1.1075181136138307E+01
N    6.5091093194920324E+00    7.5555239843739654E+00    1.3047573780838672E+01
Ga    6.5082476810125893E+00    5.6863845639049710E+00    1.3669741132075702E+01
N    6.5058723187586258E+00    5.7168639315733003E+00    1.5632824646733660E+01
Ga    6.5078036603049956E+00    7.5559219022136048E+00    1.5911852219820425E+01
N    4.7967874002850488E+00    1.0288690334888319E+01    2.5817311251960700E+00
Ga    4.8970601633461568E+00    8.4865638139426931E+00    3.3382148629539805E+00
N    4.9102501838200618E+00    8.4752128539756928E+00    5.2905287786741635E+00
Ga    4.9177302280192690E+00    1.0356856528295069E+01    5.8587233781063750E+00
N    4.9083392702940083E+00    1.0340907025647123E+01    7.8564367844249254E+00
Ga    4.8909575830928809E+00    8.4883193802871268E+00    8.4909951142320441E+00
N    4.8899839514820567E+00    8.4875593124537847E+00    1.0483641048113435E+01
Ga    4.9160071862969614E+00    1.0348304131095738E+01    1.1117791978361405E+01
N    4.9323151414933220E+00    1.0358591496698136E+01    1.3113377280128885E+01
Ga    4.8893887450301117E+00    8.4902922788791848E+00    1.3670327496341715E+01
N    4.9159875340517365E+00    8.4738148746267132E+00    1.5633324374920660E+01
Ga    4.7399821481365656E+00    1.0248635798272760E+01    1.6531085289514387E+01
O    1.3810006164498934E-01    3.7786088738123116E+00   -4.2425464764214049E-01
H    7.0821846675252953E+00    3.4294533331387504E+00   -8.6448967786748032E-01
C   -9.8319966093027000E-01    3.1674744421278973E+00   -1.0885694945428226E+00
H   -1.1865476883134995E+00    2.1485361452512413E+00   -7.1916164641120905E-01
H   -1.9037272241974696E+00    3.7634738785518955E+00   -9.7667307115841095E-01
H   -7.3634520172662388E-01    3.1072034206484571E+00   -2.1583641490985328E+00
Ga    3.2945454319557030E+00    5.6882915036675268E+00    2.9099361414805887E+00
O    6.3189389207913225E+00    3.8356294004595735E+00   -4.2134525562366959E-01
H    1.1737672038823563E-01    7.5182713278151683E+00    1.6892893433728409E+00
C    3.2896232945791399E+00    1.9320285030360027E+00    1.2598372868444314E+00
H    6.4672635627980037E+00    7.5184828955075975E+00    1.6889799302766741E+00
H    4.2283767786905742E+00    1.8174102497053701E+00    6.9900548542476126E-01
H    2.3481561384750780E+00    1.8155406660410742E+00    7.0349036820849586E-01
     &END COORD
     &KIND C
       BASIS_SET DZVP-MOLOPT-SR-GTH-q4
       POTENTIAL GTH-PBE-q4
       &POTENTIAL
 2 2
  0.3384712400000000E+00 2 -0.8803673979999999E+01  0.1339210850000000E+01
 2
  0.3025757500000000E+00 1  0.9622486650000001E+01
  0.2915069400000000E+00 0
         # Potential name:  GTH-PBE-Q4  for symbol:  C
         # Potential read from the potential filename: GTH_POTENTIALS
       &END POTENTIAL
     &END KIND
     &KIND O
       BASIS_SET DZVP-MOLOPT-SR-GTH-q6
       POTENTIAL GTH-PBE-q6
       &POTENTIAL
 2 4
  0.2445543000000000E+00 2 -0.1666721480000000E+02  0.2487311320000000E+01
 2
  0.2209559200000000E+00 1  0.1833745811000000E+02
  0.2113324700000000E+00 0
         # Potential name:  GTH-PBE-Q6  for symbol:  O
         # Potential read from the potential filename: GTH_POTENTIALS
       &END POTENTIAL
     &END KIND
     &KIND H
       BASIS_SET DZVP-MOLOPT-SR-GTH-q1
       POTENTIAL GTH-PBE-q1
       &POTENTIAL
 1
  0.2000000000000000E+00 2 -0.4178900440000000E+01  0.7244633100000000E+00
 0
         # Potential name:  GTH-PBE-Q1  for symbol:  H
         # Potential read from the potential filename: GTH_POTENTIALS
       &END POTENTIAL
     &END KIND
     &KIND N
       BASIS_SET DZVP-MOLOPT-SR-GTH
       POTENTIAL GTH-PBE-q5
       &POTENTIAL
 2 3
  0.2837905100000000E+00 2 -0.1241522559000000E+02  0.1868095920000000E+01
 2
  0.2554050000000000E+00 1  0.1363026257000000E+02
  0.2454945300000000E+00 0
         # Potential name:  GTH-PBE-Q5  for symbol:  N
         # Potential read from the potential filename: GTH_POTENTIALS
       &END POTENTIAL
     &END KIND
     &KIND Ga
       BASIS_SET DZVP-MOLOPT-SR-GTH
       POTENTIAL GTH-PBE-q13
       &POTENTIAL
 2 1 10
  0.4900000000000000E+00 0
 3
  0.4167772300000000E+00 3  0.1047568975000000E+02 -0.4921768140000000E+01  0.8707055900000000E+00
  0.7770178090000000E+01 -0.2248152160000000E+01
  0.1784415450000000E+01
  0.5696265200000000E+00 2  0.1777985340000000E+01  0.1958597600000000E+00
 -0.2317443900000000E+00
  0.2381265000000000E+00 1 -0.1624868022000000E+02
         # Potential name:  GTH-PBE-Q13  for symbol:  GA
         # Potential read from the potential filename: GTH_POTENTIALS
       &END POTENTIAL
     &END KIND
     &TOPOLOGY
       NUMBER_OF_ATOMS  212
       MULTIPLE_UNIT_CELL  1 1 1
     &END TOPOLOGY
   &END SUBSYS
 &END FORCE_EVAL
