 # Version information for this restart file 
 # current date 2019-07-15 17:24:28.695
 # current working dir /lustre04/scratch/rzk/rzk/GaN-carbene/443-adatoms-both-2x2/11-CH3O-HO-H2C-H-H/01-UseFinal-0902
 # Program compiled at                              Sun Apr  7 00:48:11 EDT 2019
 # Program compiled on                          beluga2.int.ets1.calculquebec.ca
 # Program compiled for                        Beluga-Linux-x86-64-intel-openmpi
 # Source code revision number                                         svn:18619
 &GLOBAL
   PRINT_LEVEL  MEDIUM
   PROJECT_NAME TEST
   RUN_TYPE  GEO_OPT
 &END GLOBAL
 &MOTION
   &GEO_OPT
     MAX_ITER  500
     STEP_START_VAL  88
   &END GEO_OPT
 &END MOTION
 &FORCE_EVAL
   METHOD  QS
   STRESS_TENSOR  ANALYTICAL
   &DFT
     BASIS_SET_FILE_NAME BASIS_MOLOPT
     POTENTIAL_FILE_NAME GTH_POTENTIALS
     UKS  T
     SURFACE_DIPOLE_CORRECTION  T
     SURF_DIP_DIR  Z
     &SCF
       MAX_SCF  80
       EPS_SCF     5.0000000000000004E-06
       &OT  T
         PRECONDITIONER  FULL_ALL
       &END OT
       &OUTER_SCF  T
         OPTIMIZER  NONE
         EPS_SCF     5.0000000000000004E-06
         MAX_SCF  4
       &END OUTER_SCF
       &PRINT
         &RESTART  OFF
           BACKUP_COPIES  1
           &EACH
             JUST_ENERGY  0
             QS_SCF  0
             MD  20
           &END EACH
         &END RESTART
       &END PRINT
     &END SCF
     &QS
       EPS_DEFAULT     1.0000000000000000E-14
       METHOD  GPW
     &END QS
     &MGRID
       NGRIDS  5
       CUTOFF     1.2000000000000000E+03
     &END MGRID
     &XC
       DENSITY_CUTOFF     1.0000000000000000E-10
       GRADIENT_CUTOFF     1.0000000000000000E-10
       TAU_CUTOFF     1.0000000000000000E-10
       &XC_FUNCTIONAL  NO_SHORTCUT
         &PBE  T
         &END PBE
       &END XC_FUNCTIONAL
       &VDW_POTENTIAL
         POTENTIAL_TYPE  PAIR_POTENTIAL
         &PAIR_POTENTIAL
           R_CUTOFF     1.0000000000000004E+01
           TYPE  DFTD3
           PARAMETER_FILE_NAME dftd3.dat
           REFERENCE_FUNCTIONAL PBE
           EPS_CN     9.9999999999999995E-07
           CALCULATE_C9_TERM  T
           REFERENCE_C9_TERM  T
           LONG_RANGE_CORRECTION  F
           VERBOSE_OUTPUT  F
         &END PAIR_POTENTIAL
       &END VDW_POTENTIAL
     &END XC
   &END DFT
   &SUBSYS
     &CELL
       A     1.2864472766435110E+01    0.0000000000000000E+00    0.0000000000000000E+00
       B    -6.4322363581020028E+00    1.1140960178524473E+01    0.0000000000000000E+00
       C     0.0000000000000000E+00    0.0000000000000000E+00    3.2000000000000000E+01
       MULTIPLE_UNIT_CELL  1 1 1
       &CELL_REF
         A     1.2982353780853531E+01    0.0000000000000000E+00    0.0000000000000000E+00
         B    -6.4911768904267628E+00    1.1243048175136114E+01    0.0000000000000000E+00
         C     0.0000000000000000E+00    0.0000000000000000E+00    3.2000000000000000E+01
         MULTIPLE_UNIT_CELL  1 1 1
       &END CELL_REF
     &END CELL
     &COORD
N    6.6052084504943626E-02    2.1155694065307800E+00    2.5611108122046997E+00
Ga    5.4915570276314961E-02    1.4356415388503480E-01    2.9530373553414222E+00
N    6.0518168096667525E-02    1.3937681014984593E-01    5.1173512535852286E+00
Ga    6.1359833888023053E-02    1.9527416281507759E+00    5.8744046846350262E+00
N    7.9086009897062576E-02    1.9773199784834432E+00    7.8637859324659560E+00
Ga    7.9221638814177098E-02    1.2358271876831295E-01    8.4893470118623746E+00
N    7.8491930645348831E-02    1.2577651606519138E-01    1.0466292415465901E+01
Ga    7.6387809445467192E-02    1.9656380099319806E+00    1.1118496929839893E+01
N    7.6121125077610485E-02    1.9473923019396193E+00    1.3114005070004138E+01
Ga    7.6490853203307799E-02    1.2691405184924767E-01    1.3916310499966878E+01
N    7.6514288867639196E-02    1.2620522896558775E-01    1.6118701016355633E+01
Ga    7.4830275541161867E-02    2.1641285730480817E+00    1.6527610225737416E+01
Ga    3.3160035770461942E-02    3.8494693144124601E+00    1.3856698479929894E+00
N   -1.4149120955621601E+00    4.7058771824191217E+00    2.5657972359835801E+00
Ga   -1.6162379922816519E+00    2.8713266589424498E+00    3.3297299880219029E+00
N   -1.5284209763341043E+00    2.9171122686622257E+00    5.3133926354113541E+00
Ga   -1.5646490879763557E+00    4.7819080534548775E+00    5.8606851562549647E+00
N   -1.5388538637107201E+00    4.7772167976449360E+00    7.8573253088505242E+00
Ga   -1.5256868142119884E+00    2.9195310281120648E+00    8.4921148778100850E+00
N   -1.5204207444778441E+00    2.9196902845275488E+00    1.0486613592340404E+01
Ga   -1.5472424958340683E+00    4.7797433276517163E+00    1.1117910328941976E+01
N   -1.5639001838973237E+00    4.7889512907203136E+00    1.3113167325524506E+01
Ga   -1.5210950996119301E+00    2.9201144933907934E+00    1.3669080559098598E+01
N   -1.5492609826402268E+00    2.9060507954215420E+00    1.5632116600037822E+01
Ga   -1.3706249882608526E+00    4.6764865454774434E+00    1.6528229091898584E+01
N    8.2218920782648836E-02    3.8367565247128335E+00    1.7661135973873733E+01
N   -3.1400819020202011E+00    7.6174121552862397E+00    2.5205896349987773E+00
Ga   -3.1392569364698701E+00    5.6814701996348749E+00    2.9103887449456827E+00
N   -3.1404053501700346E+00    5.6855872623371031E+00    5.0920604647124641E+00
Ga   -3.1397905897992269E+00    7.5224591093245596E+00    5.8161200102202759E+00
N   -3.1395563675231672E+00    7.5483127639824579E+00    7.8261901216623997E+00
Ga   -3.1396148713934942E+00    5.7050855239627749E+00    8.4893404385148639E+00
N   -3.1397379517051620E+00    5.7012540007003984E+00    1.0466945533980720E+01
Ga   -3.1393666122076320E+00    7.5394024030201310E+00    1.1117429848244388E+01
N   -3.1401757744095011E+00    7.5197021957704662E+00    1.3112371953512216E+01
Ga   -3.1395579911264422E+00    5.6993752905538608E+00    1.3914923577544636E+01
N   -3.1399097265225793E+00    5.6987022627623505E+00    1.6118772589080152E+01
Ga   -3.1410231348249735E+00    7.7398256921265078E+00    1.6531697436154293E+01
Ga   -3.1422150338626738E+00    9.1281549303613136E+00    7.5583800126843792E-01
N   -4.7291134851711139E+00    1.0316073031499664E+01    2.5439478333880050E+00
Ga   -4.7314670871135815E+00    8.4936796467370659E+00    3.2564682673931120E+00
N   -4.7564942317302012E+00    8.4783305058750660E+00    5.2454913098438976E+00
Ga   -4.7899599534391424E+00    1.0351779237230414E+01    5.8271505100202861E+00
N   -4.7518329195598925E+00    1.0344210699995971E+01    7.8288078156591103E+00
Ga   -4.7327563765130671E+00    8.4897515881735348E+00    8.4791326112289536E+00
N   -4.7356672045917421E+00    8.4903598144611596E+00    1.0475327148525659E+01
Ga   -4.7621867230933246E+00    1.0347570310775241E+01    1.1117871520130493E+01
N   -4.7794795304770803E+00    1.0358342159511801E+01    1.3112023760609397E+01
Ga   -4.7371544717405314E+00    8.4903928953074264E+00    1.3670382174808042E+01
N   -4.7653761713000105E+00    8.4755218084036290E+00    1.5631849665242488E+01
Ga   -4.5838020657944600E+00    1.0244841753024774E+01    1.6532502279168249E+01
N   -3.1336217582773065E+00    9.4081331813547457E+00    1.7668075591016557E+01
N    3.2919099924531481E+00    2.1769408900589911E+00    2.5289583137341110E+00
Ga    3.2924305926825510E+00   -1.3139403981685718E-01    3.3024062015655353E+00
N    3.2924787444702863E+00    1.4118215700685585E-01    5.2365565911293732E+00
Ga    3.2929425123366127E+00    1.9688225528994261E+00    5.9309982842981883E+00
N    3.2927194830378270E+00    1.9787949380315002E+00    7.8953359262856520E+00
Ga    3.2929218116751469E+00    1.0940103463155448E-01    8.4849144995709693E+00
N    3.2927248871031862E+00    1.1406057195768189E-01    1.0477739306742588E+01
Ga    3.2933174127882299E+00    1.9818923635271322E+00    1.1079553240735882E+01
N    3.2921336197562665E+00    1.9835786779779889E+00    1.3050533281453323E+01
Ga    3.2915481526601398E+00    1.1384611269495355E-01    1.3671389052720558E+01
N    3.2899078783622975E+00    1.4672202360888192E-01    1.5632698657595862E+01
Ga    3.2915189873275805E+00    1.9846837975434224E+00    1.5911961094538352E+01
N    1.5596449837704953E+00    4.7022088522806955E+00    2.5594869444151329E+00
Ga    1.6121229482662023E+00    2.9212063170318161E+00    3.3860016651954674E+00
N    1.7001779728678394E+00    2.9018142336492780E+00    5.3057066459735864E+00
Ga    1.7155547108592870E+00    4.7915104937550463E+00    5.8638392352361981E+00
N    1.6931843887796807E+00    4.7722300732396077E+00    7.8524228844059190E+00
Ga    1.6758671225869963E+00    2.9164834382864036E+00    8.4967421545801649E+00
N    1.6763904667443044E+00    2.9187841177103531E+00    1.0486385228209391E+01
Ga    1.6995118196901007E+00    4.7788131183050027E+00    1.1121561796705389E+01
N    1.7156276821467447E+00    4.7884092828771010E+00    1.3115519161550790E+01
Ga    1.6722220841470137E+00    2.9192484282322639E+00    1.3670667849864971E+01
N    1.6998257929720928E+00    2.9042969952540409E+00    1.5634482522940885E+01
Ga    1.5264988377110371E+00    4.6801334441828146E+00    1.6528177520854882E+01
N    8.4384057042813279E-02    7.5514823501326953E+00    2.7153149882835201E+00
Ga    6.3143494976689321E-02    5.7115097230179250E+00    3.3695196068158455E+00
N    7.8022800424254427E-02    5.7118347424749061E+00    5.3089764872059053E+00
Ga    6.5825584399985149E-02    7.5659513570075676E+00    5.9269367609936898E+00
N    7.4892946132592605E-02    7.5576603784351084E+00    7.8976068003536710E+00
Ga    7.4571236344808819E-02    5.6889588488972125E+00    8.4909712926743133E+00
N    7.7841782720308894E-02    5.6863929760921916E+00    1.0483318421925656E+01
Ga    7.5657143103604815E-02    7.5559981266483298E+00    1.1075155967214036E+01
N    7.5055749358270626E-02    7.5554855512788288E+00    1.3047645295760171E+01
Ga    7.5001850228208683E-02    5.6863731090965910E+00    1.3669848222796027E+01
N    7.3771294879444532E-02    5.7169874206118036E+00    1.5632571298256527E+01
Ga    7.5200557838442234E-02    7.5558140845560269E+00    1.5911910221789098E+01
N   -1.5504599406590465E+00    1.0316744153702144E+01    2.5434293018717895E+00
Ga   -1.5484815654369302E+00    8.4943307324524060E+00    3.2558002387814731E+00
N   -1.5231213854667678E+00    8.4785005194852427E+00    5.2451144551314766E+00
Ga   -1.4893679256432981E+00    1.0352082305288583E+01    5.8265269871928380E+00
N   -1.5270007042107305E+00    1.0344395110616940E+01    7.8283583584844729E+00
Ga   -1.5464852637870379E+00    8.4901308508448050E+00    8.4792639462771504E+00
N   -1.5429901461484261E+00    8.4901925589459175E+00    1.0475584968280710E+01
Ga   -1.5170617475447750E+00    1.0347321497181944E+01    1.1118242323581949E+01
N   -1.5010700190733506E+00    1.0358253661927359E+01    1.3112818565014384E+01
Ga   -1.5437166912084421E+00    8.4901299346189223E+00    1.3670865782078117E+01
N   -1.5163636672077785E+00    8.4739971338235822E+00    1.5633530259498887E+01
Ga   -1.6921386894075425E+00    1.0248521515941654E+01    1.6531888990086081E+01
N    6.5191360354673762E+00    2.1173455622672672E+00    2.5583014215233457E+00
Ga    6.5306512122376814E+00    1.4293396066275815E-01    2.9515287105040597E+00
N    6.5247584014734548E+00    1.4005777182564219E-01    5.1161531222540182E+00
Ga    6.5237321954527729E+00    1.9529490970199936E+00    5.8744935293237361E+00
N    6.5063542364598996E+00    1.9773088613355758E+00    7.8637256051739124E+00
Ga    6.5063620297459943E+00    1.2362068163114834E-01    8.4892334980680921E+00
N    6.5065181824260518E+00    1.2576644336738091E-01    1.0466128505186571E+01
Ga    6.5093382570231633E+00    1.9656196243341306E+00    1.1118357478130521E+01
N    6.5078496190953761E+00    1.9474487605072657E+00    1.3114021264910713E+01
Ga    6.5084614460045271E+00    1.2665925294542488E-01    1.3915895429514824E+01
N    6.5085725626494542E+00    1.2647506580157966E-01    1.6119058531651760E+01
Ga    6.5074720020869385E+00    2.1632552243269667E+00    1.6527461116040556E+01
Ga    6.5571046335133998E+00    3.8422889815209151E+00    1.3794759206872889E+00
N    5.0243760757858826E+00    4.7017087146595653E+00    2.5613948200784491E+00
Ga    4.9721064149910932E+00    2.9230037744988575E+00    3.3847059767853995E+00
N    4.8854067012045297E+00    2.9012343182400651E+00    5.3049259409155569E+00
Ga    4.8697586547769802E+00    4.7912118805331350E+00    5.8625989106292886E+00
N    4.8922806034010442E+00    4.7721513899457504E+00    7.8516616424361159E+00
Ga    4.9096082167930346E+00    2.9164691031775609E+00    8.4964166566930128E+00
N    4.9096223892678541E+00    2.9191224840258236E+00    1.0485852216069613E+01
Ga    4.8857107328898239E+00    4.7790401415383998E+00    1.1121225385989982E+01
N    4.8682639623480970E+00    4.7883307377263113E+00    1.3114874452620317E+01
Ga    4.9112367695515058E+00    2.9193954464642804E+00    1.3670251152832286E+01
N    4.8831437082102678E+00    2.9059361672634161E+00    1.5633282365538287E+01
Ga    5.0610716422435607E+00    4.6769314339377459E+00    1.6528543409425634E+01
N    6.5149523661467139E+00    3.8368390876036806E+00    1.7660090598351239E+01
N    3.2926482374184980E+00    7.6520012589890509E+00    2.5645729432105875E+00
N    3.2922010102906341E+00    5.6894613925384281E+00    5.0875915595440828E+00
Ga    3.2923659525188520E+00    7.5199788698066881E+00    5.8482707064825803E+00
N    3.2926371943144241E+00    7.5437737721532860E+00    7.8449569045816547E+00
Ga    3.2928565062857142E+00    5.6991046915024759E+00    8.4965070021511817E+00
N    3.2925699747265744E+00    5.6980133656643606E+00    1.0469469949708948E+01
Ga    3.2928832619991830E+00    7.5374865257088501E+00    1.1121573751224961E+01
N    3.2919253641935340E+00    7.5184579794397521E+00    1.3115363815101034E+01
Ga    3.2922117013139820E+00    5.6987688769900657E+00    1.3917683932825174E+01
N    3.2928048958837466E+00    5.6984876646627951E+00    1.6119585647604424E+01
Ga    3.2912998850793209E+00    7.7401248401737615E+00    1.6531392828950729E+01
Ga    3.2930236292437693E+00    9.4943227044946106E+00    1.3009102470281562E+00
N    1.7885905688071244E+00    1.0288629773975559E+01    2.5814382506360967E+00
Ga    1.6889287659528016E+00    8.4867869754017740E+00    3.3379756734341992E+00
N    1.6747803909119943E+00    8.4756171971034053E+00    5.2905343242002543E+00
Ga    1.6675514316501860E+00    1.0357304884761664E+01    5.8582816665472519E+00
N    1.6770706734007801E+00    1.0341047404228489E+01    7.8561985330627424E+00
Ga    1.6944029450753613E+00    8.4883880567492689E+00    8.4908646780355479E+00
N    1.6960945447829963E+00    8.4878557172649547E+00    1.0483317128491976E+01
Ga    1.6692691905274677E+00    1.0348595882160145E+01    1.1117445576360300E+01
N    1.6519212473367297E+00    1.0358406205617881E+01    1.3112669470049639E+01
Ga    1.6940043782927638E+00    8.4902894891097258E+00    1.3669995611599109E+01
N    1.6664131433375686E+00    8.4754067824714969E+00    1.5631892460082803E+01
Ga    1.8484903699815256E+00    1.0245018993201198E+01    1.6531788924223747E+01
N    3.2986695752103339E+00    9.4085256253917180E+00    1.7665147467849589E+01
N    9.7244909232027812E+00    1.9898276697177975E+00    2.6951250305996468E+00
Ga    9.7248241321591511E+00    2.2250910955900957E-01    3.3187003003030919E+00
N    9.7250043787439644E+00    1.2647427125891833E-01    5.3066688007281222E+00
Ga    9.7251431461701010E+00    1.9851858573625250E+00    5.9164333610936870E+00
N    9.7248284459838050E+00    1.9841804494049848E+00    7.9029739689883138E+00
Ga    9.7250000233504412E+00    1.1801008398533427E-01    8.4900973225637948E+00
N    9.7250098228191657E+00    1.1508996839847817E-01    1.0485430649430551E+01
Ga    9.7255150730346624E+00    1.9841556945734349E+00    1.1078292748050931E+01
N    9.7242454421111244E+00    1.9847607270096446E+00    1.3051132903421715E+01
Ga    9.7239697612762903E+00    1.1450842140095011E-01    1.3669650516953757E+01
N    9.7218171035214720E+00    1.4687098406688870E-01    1.5631921240923019E+01
Ga    9.7236319482872311E+00    1.9850112773356603E+00    1.5910141646535356E+01
N    7.9981417441573548E+00    4.7030389266742416E+00    2.5592777433432148E+00
Ga    8.2013156914009535E+00    2.8709557358438271E+00    3.3311275253760906E+00
N    8.1135986333375332E+00    2.9173020190308923E+00    5.3135250377224077E+00
Ga    8.1492555411890528E+00    4.7821681287401541E+00    5.8613638716311733E+00
N    8.1240329594431184E+00    4.7770539936888268E+00    7.8576338365709235E+00
Ga    8.1110510699172611E+00    2.9194706129748362E+00    8.4924757353490410E+00
N    8.1063846483343642E+00    2.9194315238790884E+00    1.0487058401054222E+01
Ga    8.1325440708977101E+00    4.7794800479028430E+00    1.1118374050984226E+01
N    8.1481553612338011E+00    4.7890589158835528E+00    1.3114129252937374E+01
Ga    8.1045764957054018E+00    2.9200963802765241E+00    1.3669392743907059E+01
N    8.1312732192991017E+00    2.9045074334607959E+00    1.5634137841052736E+01
Ga    7.9599640719956399E+00    4.6806859781453189E+00    1.6527282502391412E+01
N    6.5007376135328006E+00    7.5504042637578364E+00    2.7149407822937346E+00
Ga    6.5200914428223999E+00    5.7091968229762911E+00    3.3667547890196867E+00
N    6.5075486659559072E+00    5.7112066174192346E+00    5.3071803647829361E+00
Ga    6.5192906885299440E+00    7.5648756720720964E+00    5.9263875354018536E+00
N    6.5103288500840986E+00    7.5572421972122417E+00    7.8973092995685370E+00
Ga    6.5107725337797717E+00    5.6887452475048716E+00    8.4910975797149106E+00
N    6.5075654355857857E+00    5.6863039461386915E+00    1.0483414008118986E+01
Ga    6.5108080940004287E+00    7.5558579333014873E+00    1.1075341305388585E+01
N    6.5090770314171191E+00    7.5553671326009209E+00    1.3047850100699282E+01
Ga    6.5082696916678220E+00    5.6861379308084592E+00    1.3669759225992456E+01
N    6.5057876873561913E+00    5.7165454412335110E+00    1.5632977360599341E+01
Ga    6.5078950328829075E+00    7.5557659651864926E+00    1.5911896888087766E+01
N    4.7970003196134812E+00    1.0288684808850302E+01    2.5815001110005076E+00
Ga    4.8968079960701401E+00    8.4865243846977432E+00    3.3381340057158684E+00
N    4.9103437082401893E+00    8.4751259985209941E+00    5.2904830421085496E+00
Ga    4.9177922903142486E+00    1.0356747945324734E+01    5.8586576492651785E+00
N    4.9083277942647410E+00    1.0340884741196126E+01    7.8564852194277464E+00
Ga    4.8910354411850365E+00    8.4882464862365410E+00    8.4910579525259227E+00
N    4.8899656341940405E+00    8.4875282947104029E+00    1.0483789165590103E+01
Ga    4.9160138553143513E+00    1.0348302808446089E+01    1.1118014940805878E+01
N    4.9323580973685415E+00    1.0358649388762887E+01    1.3113600229928718E+01
Ga    4.8893797552961411E+00    8.4903353195654105E+00    1.3670341213347962E+01
N    4.9161798021952237E+00    8.4736009206808429E+00    1.5633421406837209E+01
Ga    4.7402592003412813E+00    1.0248758164489402E+01    1.6530945703717521E+01
O    1.3816770306972675E-01    3.7789091748663322E+00   -4.2437039402640619E-01
H    7.0823255486169643E+00    3.4290708038462276E+00   -8.6434667204708637E-01
C   -9.8307163942418896E-01    3.1675631937773767E+00   -1.0886615087255136E+00
H   -1.1861864646383000E+00    2.1484566294572782E+00   -7.1929990952660361E-01
H   -1.9039353928234168E+00    3.7632245983523687E+00   -9.7685280500823679E-01
H   -7.3611665082922872E-01    3.1070288847780341E+00   -2.1584231840998438E+00
Ga    3.2945151033789211E+00    5.6882524525942486E+00    2.9099377331554499E+00
O    6.3192994419907205E+00    3.8360343759350748E+00   -4.2150470611810348E-01
H    1.1725674911918595E-01    7.5183099553584194E+00    1.6893795742735616E+00
C    3.2897270576800057E+00    1.9320153731323668E+00    1.2600832015586649E+00
H    6.4675050528934621E+00    7.5183802206964616E+00    1.6889106894329360E+00
H    4.2282666984556831E+00    1.8173993026874333E+00    6.9903572395218916E-01
H    2.3484210760590956E+00    1.8155497405860850E+00    7.0357807439247211E-01
     &END COORD
     &KIND C
       BASIS_SET DZVP-MOLOPT-SR-GTH-q4
       POTENTIAL GTH-PBE-q4
       &POTENTIAL
 2 2
  0.3384712400000000E+00 2 -0.8803673979999999E+01  0.1339210850000000E+01
 2
  0.3025757500000000E+00 1  0.9622486650000001E+01
  0.2915069400000000E+00 0
         # Potential name:  GTH-PBE-Q4  for symbol:  C
         # Potential read from the potential filename: GTH_POTENTIALS
       &END POTENTIAL
     &END KIND
     &KIND O
       BASIS_SET DZVP-MOLOPT-SR-GTH-q6
       POTENTIAL GTH-PBE-q6
       &POTENTIAL
 2 4
  0.2445543000000000E+00 2 -0.1666721480000000E+02  0.2487311320000000E+01
 2
  0.2209559200000000E+00 1  0.1833745811000000E+02
  0.2113324700000000E+00 0
         # Potential name:  GTH-PBE-Q6  for symbol:  O
         # Potential read from the potential filename: GTH_POTENTIALS
       &END POTENTIAL
     &END KIND
     &KIND H
       BASIS_SET DZVP-MOLOPT-SR-GTH-q1
       POTENTIAL GTH-PBE-q1
       &POTENTIAL
 1
  0.2000000000000000E+00 2 -0.4178900440000000E+01  0.7244633100000000E+00
 0
         # Potential name:  GTH-PBE-Q1  for symbol:  H
         # Potential read from the potential filename: GTH_POTENTIALS
       &END POTENTIAL
     &END KIND
     &KIND N
       BASIS_SET DZVP-MOLOPT-SR-GTH
       POTENTIAL GTH-PBE-q5
       &POTENTIAL
 2 3
  0.2837905100000000E+00 2 -0.1241522559000000E+02  0.1868095920000000E+01
 2
  0.2554050000000000E+00 1  0.1363026257000000E+02
  0.2454945300000000E+00 0
         # Potential name:  GTH-PBE-Q5  for symbol:  N
         # Potential read from the potential filename: GTH_POTENTIALS
       &END POTENTIAL
     &END KIND
     &KIND Ga
       BASIS_SET DZVP-MOLOPT-SR-GTH
       POTENTIAL GTH-PBE-q13
       &POTENTIAL
 2 1 10
  0.4900000000000000E+00 0
 3
  0.4167772300000000E+00 3  0.1047568975000000E+02 -0.4921768140000000E+01  0.8707055900000000E+00
  0.7770178090000000E+01 -0.2248152160000000E+01
  0.1784415450000000E+01
  0.5696265200000000E+00 2  0.1777985340000000E+01  0.1958597600000000E+00
 -0.2317443900000000E+00
  0.2381265000000000E+00 1 -0.1624868022000000E+02
         # Potential name:  GTH-PBE-Q13  for symbol:  GA
         # Potential read from the potential filename: GTH_POTENTIALS
       &END POTENTIAL
     &END KIND
     &TOPOLOGY
       NUMBER_OF_ATOMS  212
       MULTIPLE_UNIT_CELL  1 1 1
     &END TOPOLOGY
   &END SUBSYS
 &END FORCE_EVAL
