 # Version information for this restart file 
 # current date 2019-07-15 17:32:44.018
 # current working dir /lustre04/scratch/rzk/rzk/GaN-carbene/443-adatoms-both-2x2/11-CH3O-HO-H2C-H-H/01-UseFinal-0902
 # Program compiled at                              Sun Apr  7 00:48:11 EDT 2019
 # Program compiled on                          beluga2.int.ets1.calculquebec.ca
 # Program compiled for                        Beluga-Linux-x86-64-intel-openmpi
 # Source code revision number                                         svn:18619
 &GLOBAL
   PRINT_LEVEL  MEDIUM
   PROJECT_NAME TEST
   RUN_TYPE  GEO_OPT
 &END GLOBAL
 &MOTION
   &GEO_OPT
     MAX_ITER  500
     STEP_START_VAL  90
   &END GEO_OPT
 &END MOTION
 &FORCE_EVAL
   METHOD  QS
   STRESS_TENSOR  ANALYTICAL
   &DFT
     BASIS_SET_FILE_NAME BASIS_MOLOPT
     POTENTIAL_FILE_NAME GTH_POTENTIALS
     UKS  T
     SURFACE_DIPOLE_CORRECTION  T
     SURF_DIP_DIR  Z
     &SCF
       MAX_SCF  80
       EPS_SCF     5.0000000000000004E-06
       &OT  T
         PRECONDITIONER  FULL_ALL
       &END OT
       &OUTER_SCF  T
         OPTIMIZER  NONE
         EPS_SCF     5.0000000000000004E-06
         MAX_SCF  4
       &END OUTER_SCF
       &PRINT
         &RESTART  OFF
           BACKUP_COPIES  1
           &EACH
             JUST_ENERGY  0
             QS_SCF  0
             MD  20
           &END EACH
         &END RESTART
       &END PRINT
     &END SCF
     &QS
       EPS_DEFAULT     1.0000000000000000E-14
       METHOD  GPW
     &END QS
     &MGRID
       NGRIDS  5
       CUTOFF     1.2000000000000000E+03
     &END MGRID
     &XC
       DENSITY_CUTOFF     1.0000000000000000E-10
       GRADIENT_CUTOFF     1.0000000000000000E-10
       TAU_CUTOFF     1.0000000000000000E-10
       &XC_FUNCTIONAL  NO_SHORTCUT
         &PBE  T
         &END PBE
       &END XC_FUNCTIONAL
       &VDW_POTENTIAL
         POTENTIAL_TYPE  PAIR_POTENTIAL
         &PAIR_POTENTIAL
           R_CUTOFF     1.0000000000000004E+01
           TYPE  DFTD3
           PARAMETER_FILE_NAME dftd3.dat
           REFERENCE_FUNCTIONAL PBE
           EPS_CN     9.9999999999999995E-07
           CALCULATE_C9_TERM  T
           REFERENCE_C9_TERM  T
           LONG_RANGE_CORRECTION  F
           VERBOSE_OUTPUT  F
         &END PAIR_POTENTIAL
       &END VDW_POTENTIAL
     &END XC
   &END DFT
   &SUBSYS
     &CELL
       A     1.2864472766435110E+01    0.0000000000000000E+00    0.0000000000000000E+00
       B    -6.4322363581020028E+00    1.1140960178524473E+01    0.0000000000000000E+00
       C     0.0000000000000000E+00    0.0000000000000000E+00    3.2000000000000000E+01
       MULTIPLE_UNIT_CELL  1 1 1
       &CELL_REF
         A     1.2982353780853531E+01    0.0000000000000000E+00    0.0000000000000000E+00
         B    -6.4911768904267628E+00    1.1243048175136114E+01    0.0000000000000000E+00
         C     0.0000000000000000E+00    0.0000000000000000E+00    3.2000000000000000E+01
         MULTIPLE_UNIT_CELL  1 1 1
       &END CELL_REF
     &END CELL
     &COORD
N    6.5774504369854686E-02    2.1155535306564062E+00    2.5612656072075466E+00
Ga    5.4450996841217479E-02    1.4340086710518934E-01    2.9532796467625029E+00
N    6.0584433893635388E-02    1.3934179654667292E-01    5.1176176784428691E+00
Ga    6.1265451002987324E-02    1.9526567019302645E+00    5.8744483229492594E+00
N    7.9200239872538006E-02    1.9773373233843481E+00    7.8637978779479649E+00
Ga    7.9203873451405796E-02    1.2358659782815620E-01    8.4894457604124973E+00
N    7.8628180681624388E-02    1.2582380770556492E-01    1.0466249993436676E+01
Ga    7.6417129650987736E-02    1.9655718234212161E+00    1.1118174808202362E+01
N    7.6182993231654478E-02    1.9475170601535425E+00    1.3113819286386644E+01
Ga    7.6447094802184840E-02    1.2668155035764375E-01    1.3915739145276460E+01
N    7.6664746246408330E-02    1.2612639532672373E-01    1.6118793164992837E+01
Ga    7.4620609226681164E-02    2.1624730701303290E+00    1.6526539972258210E+01
Ga    3.2987357110307751E-02    3.8494260176513619E+00    1.3857426309348104E+00
N   -1.4149072128820526E+00    4.7059065106881350E+00    2.5658441094367617E+00
Ga   -1.6164247193555266E+00    2.8712269377212611E+00    3.3299950885752887E+00
N   -1.5285593729660663E+00    2.9170220472880950E+00    5.3136749163499211E+00
Ga   -1.5645639573289929E+00    4.7818434617187986E+00    5.8607235752335782E+00
N   -1.5387945941810242E+00    4.7771993025585049E+00    7.8573380542942406E+00
Ga   -1.5255845283001677E+00    2.9194750362347173E+00    8.4922160475733968E+00
N   -1.5202788038091144E+00    2.9197734317049853E+00    1.0486622871009459E+01
Ga   -1.5471964483066309E+00    4.7797622242178655E+00    1.1117680312601250E+01
N   -1.5638313427379844E+00    4.7889592157123797E+00    1.3113026405869888E+01
Ga   -1.5209459640910734E+00    2.9202099032865214E+00    1.3668863040206242E+01
N   -1.5484773304587951E+00    2.9064680758388914E+00    1.5632304087120584E+01
Ga   -1.3723184123160379E+00    4.6772832258341328E+00    1.6526880127832619E+01
N    8.2209647234311636E-02    3.8367512508647708E+00    1.7660700129936156E+01
N   -3.1401148960877321E+00    7.6174438745519408E+00    2.5206513989856822E+00
Ga   -3.1393009709508370E+00    5.6814095913457701E+00    2.9104671697801128E+00
N   -3.1404175451912715E+00    5.6855914608802518E+00    5.0921966362758893E+00
Ga   -3.1398129126887278E+00    7.5226033130621035E+00    5.8160259478478160E+00
N   -3.1395637909472005E+00    7.5483597125990745E+00    7.8259943754685004E+00
Ga   -3.1395434466829690E+00    5.7051581311296387E+00    8.4893620732977340E+00
N   -3.1395929089431847E+00    5.7013536436063683E+00    1.0466888681213689E+01
Ga   -3.1393174171644529E+00    7.5394600961175149E+00    1.1117368816175190E+01
N   -3.1401110105923480E+00    7.5197263383806163E+00    1.3112179213257066E+01
Ga   -3.1396608833845754E+00    5.6994920878752930E+00    1.3914898085791691E+01
N   -3.1399041325063459E+00    5.6988143502000508E+00    1.6118887265911127E+01
Ga   -3.1410584699990216E+00    7.7406292188996080E+00    1.6532047278932300E+01
Ga   -3.1424355839473335E+00    9.1284807418210452E+00    7.5551091633121004E-01
N   -4.7291768393592637E+00    1.0316007716577600E+01    2.5439564976771321E+00
Ga   -4.7316208223017160E+00    8.4936001136337200E+00    3.2565310175628706E+00
N   -4.7566520984756897E+00    8.4782500955012825E+00    5.2455796925345730E+00
Ga   -4.7900576246984850E+00    1.0351646100101222E+01    5.8272111456709981E+00
N   -4.7518142843497859E+00    1.0344209552893576E+01    7.8287902878503211E+00
Ga   -4.7327125160820946E+00    8.4897720034460562E+00    8.4792038794407443E+00
N   -4.7354527863368707E+00    8.4904443067091506E+00    1.0475184852740135E+01
Ga   -4.7621544143225378E+00    1.0347595627896025E+01    1.1117700955387470E+01
N   -4.7792978696847097E+00    1.0358308462266180E+01    1.3111781912911269E+01
Ga   -4.7372194902595730E+00    8.4903095692505453E+00    1.3670372976097250E+01
N   -4.7654777427409822E+00    8.4754751340792289E+00    1.5631692624180596E+01
Ga   -4.5830259698682347E+00    1.0244233541497698E+01    1.6533153549349855E+01
N   -3.1335804308978381E+00    9.4081898486490783E+00    1.7667311584682434E+01
N    3.2921368104413062E+00    2.1769895058869624E+00    2.5289353045019189E+00
Ga    3.2924608887714299E+00   -1.3162506622321532E-01    3.3027906874439532E+00
N    3.2924608812026817E+00    1.4114837599253255E-01    5.2370194888707076E+00
Ga    3.2929419693381941E+00    1.9689390397907243E+00    5.9309961819503396E+00
N    3.2926588001288146E+00    1.9787063829284068E+00    7.8952715034425935E+00
Ga    3.2928727601388168E+00    1.0939589538096316E-01    8.4850283314063635E+00
N    3.2927187462278180E+00    1.1403463844585307E-01    1.0477675684936587E+01
Ga    3.2931179121033747E+00    1.9817825704185046E+00    1.1079407548185710E+01
N    3.2917093523764591E+00    1.9835485443866703E+00    1.3050210632862978E+01
Ga    3.2916182661074838E+00    1.1393156181938612E-01    1.3671437089939653E+01
N    3.2896350836212149E+00    1.4697310636750222E-01    1.5632654802327375E+01
Ga    3.2912593263320131E+00    1.9846696056502668E+00    1.5912141730123381E+01
N    1.5595380333963542E+00    4.7024533080684057E+00    2.5595574965722103E+00
Ga    1.6119207650017395E+00    2.9212799464745762E+00    3.3861659549473453E+00
N    1.7000769600525998E+00    2.9018756821377951E+00    5.3059545365273797E+00
Ga    1.7156279195607815E+00    4.7915549659971708E+00    5.8640128048677029E+00
N    1.6930912482828269E+00    4.7722019957873112E+00    7.8524425495971233E+00
Ga    1.6759495210986022E+00    2.9165465599585993E+00    8.4968078556015865E+00
N    1.6763401727906533E+00    2.9187725368046062E+00    1.0486313182386795E+01
Ga    1.6994249320314052E+00    4.7787596446438698E+00    1.1121234689430150E+01
N    1.7156292470508105E+00    4.7883918395840688E+00    1.3115324109993242E+01
Ga    1.6722071083516763E+00    2.9193240134109470E+00    1.3670426746162446E+01
N    1.6988445201266640E+00    2.9046304455239755E+00    1.5634832858057417E+01
Ga    1.5278975796400291E+00    4.6810133249607091E+00    1.6527101317344087E+01
N    8.4323283343459787E-02    7.5515602497630230E+00    2.7154118237396645E+00
Ga    6.3087275348135241E-02    5.7116108176950124E+00    3.3697362088180540E+00
N    7.8079658479806496E-02    5.7118717909702958E+00    5.3091972545799129E+00
Ga    6.5961058532309061E-02    7.5659999897675725E+00    5.9269345569482308E+00
N    7.4851815558377777E-02    7.5575711745820593E+00    7.8975485504468672E+00
Ga    7.4660310437905650E-02    5.6889232823709692E+00    8.4910259550381983E+00
N    7.7815608773746728E-02    5.6863956065933383E+00    1.0483261690552869E+01
Ga    7.5545749282674768E-02    7.5558820655017671E+00    1.1075157977796502E+01
N    7.5044486629462351E-02    7.5552963049699269E+00    1.3047696407024373E+01
Ga    7.5044797609396030E-02    5.6862621874764425E+00    1.3669546577596071E+01
N    7.3597192318066940E-02    5.7162047450512867E+00    1.5632805305659987E+01
Ga    7.5393576405499277E-02    7.5557798328670849E+00    1.5911535219589922E+01
N   -1.5503383754214892E+00    1.0316695087608181E+01    2.5432930022099893E+00
Ga   -1.5485228071432160E+00    8.4943030095816194E+00    3.2559065138737919E+00
N   -1.5230016844649010E+00    8.4784293262700867E+00    5.2451924321261059E+00
Ga   -1.4892436815023924E+00    1.0352008150553196E+01    5.8264694588939356E+00
N   -1.5270872135051907E+00    1.0344276514091412E+01    7.8282696312165099E+00
Ga   -1.5464862416635343E+00    8.4900274529597137E+00    8.4793484270019199E+00
N   -1.5429373368115551E+00    8.4901496194238071E+00    1.0475558601009531E+01
Ga   -1.5171972925910968E+00    1.0347251762557068E+01    1.1118281030140100E+01
N   -1.5010321160435098E+00    1.0358292036286427E+01    1.3112772731164378E+01
Ga   -1.5436669254011159E+00    8.4901593707182759E+00    1.3670868939381178E+01
N   -1.5160462543834083E+00    8.4735189120237546E+00    1.5633367042172811E+01
Ga   -1.6925483645634158E+00    1.0248168066806183E+01    1.6532277528470004E+01
N    6.5194094357036514E+00    2.1173281132738855E+00    2.5585693943785488E+00
Ga    6.5309581109544697E+00    1.4286940933838507E-01    2.9516326192126767E+00
N    6.5248502213017385E+00    1.3995942470260148E-01    5.1164332335627929E+00
Ga    6.5238913778804282E+00    1.9528432211814062E+00    5.8744329685101073E+00
N    6.5062956062139383E+00    1.9773350330123320E+00    7.8636305050630400E+00
Ga    6.5063668780147283E+00    1.2355725611852202E-01    8.4892946255017385E+00
N    6.5064095409402443E+00    1.2563836934053729E-01    1.0466166087638374E+01
Ga    6.5092876687724610E+00    1.9655472088040913E+00    1.1118191549012682E+01
N    6.5077840209996829E+00    1.9473974489806507E+00    1.3113851070231686E+01
Ga    6.5085074522103641E+00    1.2657976170316709E-01    1.3916325605978129E+01
N    6.5084886178557158E+00    1.2638887759051576E-01    1.6119160892695263E+01
Ga    6.5077347410850521E+00    2.1644538114515570E+00    1.6528063529260375E+01
Ga    6.5572598898668764E+00    3.8421278480332113E+00    1.3796866838284549E+00
N    5.0245221782105682E+00    4.7019613845828028E+00    2.5614160423513663E+00
Ga    4.9724054511604390E+00    2.9232414369682118E+00    3.3850168951657285E+00
N    4.8855228750946038E+00    2.9013361762800520E+00    5.3052767557372125E+00
Ga    4.8697097826471198E+00    4.7913760973286053E+00    5.8627663840667816E+00
N    4.8922217733821896E+00    4.7721733977026339E+00    7.8516414505526972E+00
Ga    4.9094520520159319E+00    2.9165442357715219E+00    8.4964406940884132E+00
N    4.9094467081406563E+00    2.9189885912064657E+00    1.0485770731558834E+01
Ga    4.8856469761395385E+00    4.7790194240784132E+00    1.1120849795210738E+01
N    4.8683114282470701E+00    4.7882580023717907E+00    1.3114500426952691E+01
Ga    4.9108495291511680E+00    2.9191727624801644E+00    1.3670363303000794E+01
N    4.8824337807609455E+00    2.9056463220346442E+00    1.5633124639607235E+01
Ga    5.0625164851317148E+00    4.6762691462192159E+00    1.6529426196489954E+01
N    6.5149306896477110E+00    3.8367572076760816E+00    1.7660235828792867E+01
N    3.2927367264057286E+00    7.6526747539836055E+00    2.5655400597061990E+00
N    3.2921644309947924E+00    5.6895002430775170E+00    5.0877510111255910E+00
Ga    3.2922978887289198E+00    7.5199314733294411E+00    5.8484526484574646E+00
N    3.2926138413892994E+00    7.5436634021255129E+00    7.8448801441730271E+00
Ga    3.2927646051393382E+00    5.6990676234541535E+00    8.4963745329337499E+00
N    3.2924266089660974E+00    5.6979846097857543E+00    1.0469286820085312E+01
Ga    3.2928662015213179E+00    7.5375659136740261E+00    1.1121119527252992E+01
N    3.2919137841572867E+00    7.5184861896874891E+00    1.3114830320472430E+01
Ga    3.2923637085208330E+00    5.6989609711542668E+00    1.3917472134948540E+01
N    3.2928087760293785E+00    5.6984706487105123E+00    1.6119818091151135E+01
Ga    3.2913191848125489E+00    7.7404392903840087E+00    1.6531613829410009E+01
Ga    3.2933703819747349E+00    9.4939074565529218E+00    1.3013954967065255E+00
N    1.7888877293372583E+00    1.0288409091887660E+01    2.5818908042361874E+00
Ga    1.6885035844092680E+00    8.4868908744767619E+00    3.3386158060670201E+00
N    1.6748398699272196E+00    8.4756821811786267E+00    5.2908255018824022E+00
Ga    1.6677749164957931E+00    1.0357426346163951E+01    5.8581616116418829E+00
N    1.6770964947008129E+00    1.0340955418879902E+01    7.8560345140384218E+00
Ga    1.6944767597713837E+00    8.4882215435696242E+00    8.4908604315610834E+00
N    1.6958707711154049E+00    8.4877520000526872E+00    1.0483243403016933E+01
Ga    1.6692930510109536E+00    1.0348523685231640E+01    1.1117246467199216E+01
N    1.6518139070284104E+00    1.0358429124778892E+01    1.3112373904602897E+01
Ga    1.6940271240985958E+00    8.4903181481669687E+00    1.3669910413103699E+01
N    1.6666126735297480E+00    8.4754144760725563E+00    1.5631735748962326E+01
Ga    1.8485682655264386E+00    1.0245210621931516E+01    1.6531695147420518E+01
N    3.2986208426769639E+00    9.4085685620097692E+00    1.7667291041856586E+01
N    9.7244189762420845E+00    1.9897657176650045E+00    2.6953922721360368E+00
Ga    9.7248316084957196E+00    2.2262674777631281E-01    3.3189108325037382E+00
N    9.7249451212214701E+00    1.2641169123291088E-01    5.3066667661234126E+00
Ga    9.7251111405690125E+00    1.9847889087891495E+00    5.9163489658927029E+00
N    9.7249202802021379E+00    1.9842053492433727E+00    7.9028698742608485E+00
Ga    9.7251329935688045E+00    1.1795101851835860E-01    8.4900925660868829E+00
N    9.7250129981967621E+00    1.1513569574664149E-01    1.0485373875259263E+01
Ga    9.7257419838199350E+00    1.9841869692682588E+00    1.1078106587042573E+01
N    9.7246479054046571E+00    1.9847319530402561E+00    1.3050957554900059E+01
Ga    9.7239183172566488E+00    1.1442397122204079E-01    1.3669652382880434E+01
N    9.7221271485842262E+00    1.4662728038528491E-01    1.5631688918878883E+01
Ga    9.7239551942962219E+00    1.9847522376137006E+00    1.5909656615032961E+01
N    7.9980252846733606E+00    4.7031005642758421E+00    2.5594869311354729E+00
Ga    8.2014531240456172E+00    2.8709473357081938E+00    3.3314022654055133E+00
N    8.1137116013027466E+00    2.9172994707135542E+00    5.3137681227800622E+00
Ga    8.1491280426103607E+00    4.7821752033396789E+00    5.8614811182537236E+00
N    8.1240793743930801E+00    4.7771162918457204E+00    7.8576603802046137E+00
Ga    8.1110913440396377E+00    2.9194470806234460E+00    8.4925110344480039E+00
N    8.1064924090804382E+00    2.9193639994953959E+00    1.0487088422974335E+01
Ga    8.1326632661390104E+00    4.7795526155092496E+00    1.1118094994906526E+01
N    8.1481461173039662E+00    4.7890382743211957E+00    1.3113810928324263E+01
Ga    8.1048478398845702E+00    2.9198835718376115E+00    1.3669492274264480E+01
N    8.1322605851284564E+00    2.9042639184747352E+00    1.5633770060325821E+01
Ga    7.9587697166755342E+00    4.6798466772930238E+00    1.6527895321428687E+01
N    6.5007507831326157E+00    7.5505357434892213E+00    2.7150638673311631E+00
Ga    6.5200559137023149E+00    5.7095305540700041E+00    3.3668919353616391E+00
N    6.5074805479435716E+00    5.7112902971875608E+00    5.3073439161139264E+00
Ga    6.5191693977123304E+00    7.5648973522864864E+00    5.9265295753644613E+00
N    6.5103892662467340E+00    7.5572885108768473E+00    7.8973538867354280E+00
Ga    6.5106832867681002E+00    5.6887526631788177E+00    8.4910305243401414E+00
N    6.5076035704745330E+00    5.6863302575620054E+00    1.0483240914307849E+01
Ga    6.5109515661975523E+00    7.5560036592887769E+00    1.1075007226889060E+01
N    6.5091224839956663E+00    7.5556134886622637E+00    1.3047212975372224E+01
Ga    6.5082615943191948E+00    5.6866033865838981E+00    1.3669832191351450E+01
N    6.5059847721591133E+00    5.7171753653160229E+00    1.5632715890643512E+01
Ga    6.5077323225900310E+00    7.5560332054593946E+00    1.5911567321104705E+01
N    4.7964447812372049E+00    1.0288383807134638E+01    2.5818412770272472E+00
Ga    4.8972875671909746E+00    8.4866539263906571E+00    3.3386272380267337E+00
N    4.9102068260258562E+00    8.4751979421546721E+00    5.2908707941597797E+00
Ga    4.9176056455581696E+00    1.0356987675627172E+01    5.8585615801243938E+00
N    4.9084523948497507E+00    1.0340920665548678E+01    7.8562885636227024E+00
Ga    4.8909350196400547E+00    8.4882692332692820E+00    8.4908978739818259E+00
N    4.8900114089517004E+00    8.4875277369393434E+00    1.0483509233718394E+01
Ga    4.9161275315003330E+00    1.0348324884342018E+01    1.1117555004548841E+01
N    4.9322742825687440E+00    1.0358579548124661E+01    1.3113066244857382E+01
Ga    4.8894409587568468E+00    8.4902598860405245E+00    1.3670307172539991E+01
N    4.9157895302535675E+00    8.4740760524149010E+00    1.5633349221745481E+01
Ga    4.7398900746827994E+00    1.0248756186475299E+01    1.6531120792706435E+01
O    1.3792288588178370E-01    3.7790422091662701E+00   -4.2436832054204310E-01
H    7.0825962281518295E+00    3.4299847345798629E+00   -8.6449770354963851E-01
C   -9.8295007528835165E-01    3.1671167239093894E+00   -1.0886961091970879E+00
H   -1.1861552831789028E+00    2.1481190860824295E+00   -7.1949465839552629E-01
H   -1.9034178728242055E+00    3.7632337697596476E+00   -9.7653540781283810E-01
H   -7.3599415691974501E-01    3.1075801187508310E+00   -2.1585511936877930E+00
Ga    3.2945781743287816E+00    5.6883869929658726E+00    2.9102139071209381E+00
O    6.3187938604908025E+00    3.8351731700835283E+00   -4.2126807663657767E-01
H    1.1780003647595576E-01    7.5182647037283035E+00    1.6894922487495123E+00
C    3.2895690420081913E+00    1.9316900254938094E+00    1.2595098868344303E+00
H    6.4668731988155619E+00    7.5185714741328793E+00    1.6891427477268428E+00
H    4.2286004124601115E+00    1.8172174759210562E+00    6.9875467535121527E-01
H    2.3478836074148819E+00    1.8149185912405441E+00    7.0328147416595199E-01
     &END COORD
     &KIND C
       BASIS_SET DZVP-MOLOPT-SR-GTH-q4
       POTENTIAL GTH-PBE-q4
       &POTENTIAL
 2 2
  0.3384712400000000E+00 2 -0.8803673979999999E+01  0.1339210850000000E+01
 2
  0.3025757500000000E+00 1  0.9622486650000001E+01
  0.2915069400000000E+00 0
         # Potential name:  GTH-PBE-Q4  for symbol:  C
         # Potential read from the potential filename: GTH_POTENTIALS
       &END POTENTIAL
     &END KIND
     &KIND O
       BASIS_SET DZVP-MOLOPT-SR-GTH-q6
       POTENTIAL GTH-PBE-q6
       &POTENTIAL
 2 4
  0.2445543000000000E+00 2 -0.1666721480000000E+02  0.2487311320000000E+01
 2
  0.2209559200000000E+00 1  0.1833745811000000E+02
  0.2113324700000000E+00 0
         # Potential name:  GTH-PBE-Q6  for symbol:  O
         # Potential read from the potential filename: GTH_POTENTIALS
       &END POTENTIAL
     &END KIND
     &KIND H
       BASIS_SET DZVP-MOLOPT-SR-GTH-q1
       POTENTIAL GTH-PBE-q1
       &POTENTIAL
 1
  0.2000000000000000E+00 2 -0.4178900440000000E+01  0.7244633100000000E+00
 0
         # Potential name:  GTH-PBE-Q1  for symbol:  H
         # Potential read from the potential filename: GTH_POTENTIALS
       &END POTENTIAL
     &END KIND
     &KIND N
       BASIS_SET DZVP-MOLOPT-SR-GTH
       POTENTIAL GTH-PBE-q5
       &POTENTIAL
 2 3
  0.2837905100000000E+00 2 -0.1241522559000000E+02  0.1868095920000000E+01
 2
  0.2554050000000000E+00 1  0.1363026257000000E+02
  0.2454945300000000E+00 0
         # Potential name:  GTH-PBE-Q5  for symbol:  N
         # Potential read from the potential filename: GTH_POTENTIALS
       &END POTENTIAL
     &END KIND
     &KIND Ga
       BASIS_SET DZVP-MOLOPT-SR-GTH
       POTENTIAL GTH-PBE-q13
       &POTENTIAL
 2 1 10
  0.4900000000000000E+00 0
 3
  0.4167772300000000E+00 3  0.1047568975000000E+02 -0.4921768140000000E+01  0.8707055900000000E+00
  0.7770178090000000E+01 -0.2248152160000000E+01
  0.1784415450000000E+01
  0.5696265200000000E+00 2  0.1777985340000000E+01  0.1958597600000000E+00
 -0.2317443900000000E+00
  0.2381265000000000E+00 1 -0.1624868022000000E+02
         # Potential name:  GTH-PBE-Q13  for symbol:  GA
         # Potential read from the potential filename: GTH_POTENTIALS
       &END POTENTIAL
     &END KIND
     &TOPOLOGY
       NUMBER_OF_ATOMS  212
       MULTIPLE_UNIT_CELL  1 1 1
     &END TOPOLOGY
   &END SUBSYS
 &END FORCE_EVAL
