 # Version information for this restart file 
 # current date 2019-05-28 05:08:51.769
 # current working dir /lustre03/project/6004141/rzk/GaN-carbene/334-native/08-2Methanol-Htransfer/02-NH-constraint/0.84
 # Program compiled at                              Sun Apr  7 00:48:11 EDT 2019
 # Program compiled on                          beluga2.int.ets1.calculquebec.ca
 # Program compiled for                        Beluga-Linux-x86-64-intel-openmpi
 # Source code revision number                                         svn:18619
 &GLOBAL
   PRINT_LEVEL  MEDIUM
   PROJECT_NAME TEST
   RUN_TYPE  GEO_OPT
 &END GLOBAL
 &MOTION
   &GEO_OPT
     MAX_ITER  500
     STEP_START_VAL  216
   &END GEO_OPT
   &CONSTRAINT
     &COLLECTIVE
       COLVAR  1
       INTERMOLECULAR  T
       TARGET     1.5873699516239401E+00
       &RESTRAINT
         K     1.0000000000000001E-01
       &END RESTRAINT
     &END COLLECTIVE
     &COLVAR_RESTART
           1.5873699516239401E+00
     &END COLVAR_RESTART
   &END CONSTRAINT
 &END MOTION
 &FORCE_EVAL
   METHOD  QS
   STRESS_TENSOR  ANALYTICAL
   &DFT
     BASIS_SET_FILE_NAME BASIS_MOLOPT
     POTENTIAL_FILE_NAME GTH_POTENTIALS
     &SCF
       MAX_SCF  100
       EPS_SCF     5.0000000000000004E-06
       &OT  T
         PRECONDITIONER  FULL_ALL
       &END OT
       &OUTER_SCF  T
         OPTIMIZER  NONE
         EPS_SCF     5.0000000000000004E-06
         MAX_SCF  4
       &END OUTER_SCF
       &PRINT
         &RESTART  OFF
           BACKUP_COPIES  1
           &EACH
             JUST_ENERGY  0
             QS_SCF  0
             MD  20
           &END EACH
         &END RESTART
       &END PRINT
     &END SCF
     &QS
       EPS_DEFAULT     1.0000000000000000E-14
       ALMO_SCF  F
       METHOD  GPW
     &END QS
     &MGRID
       NGRIDS  5
       CUTOFF     1.2000000000000000E+03
     &END MGRID
     &XC
       DENSITY_CUTOFF     1.0000000000000000E-10
       GRADIENT_CUTOFF     1.0000000000000000E-10
       TAU_CUTOFF     1.0000000000000000E-10
       &XC_FUNCTIONAL  NO_SHORTCUT
         &PBE  T
         &END PBE
       &END XC_FUNCTIONAL
       &VDW_POTENTIAL
         POTENTIAL_TYPE  PAIR_POTENTIAL
         &PAIR_POTENTIAL
           R_CUTOFF     1.0000000000000005E+01
           TYPE  DFTD3
           PARAMETER_FILE_NAME dftd3.dat
           REFERENCE_FUNCTIONAL PBE
           EPS_CN     9.9999999999999995E-07
           CALCULATE_C9_TERM  T
           REFERENCE_C9_TERM  T
           LONG_RANGE_CORRECTION  F
           VERBOSE_OUTPUT  F
         &END PAIR_POTENTIAL
       &END VDW_POTENTIAL
     &END XC
   &END DFT
   &SUBSYS
     &CELL
       A     9.7367653356401487E+00    0.0000000000000000E+00    0.0000000000000000E+00
       B    -4.8591341382960209E+00    8.4162672083210595E+00    0.0000000000000000E+00
       C     0.0000000000000000E+00    0.0000000000000000E+00    3.0744000000000000E+01
       MULTIPLE_UNIT_CELL  1 1 1
       &CELL_REF
         A     9.5580000000000052E+00    0.0000000000000000E+00    0.0000000000000000E+00
         B    -4.7790000000000026E+00    8.2774708093716640E+00    0.0000000000000000E+00
         C     0.0000000000000000E+00    0.0000000000000000E+00    3.0744000000000000E+01
         MULTIPLE_UNIT_CELL  1 1 1
       &END CELL_REF
     &END CELL
     &COORD
Ga    9.5378994014983492E-03    3.8967157541962075E-02   -5.0243050113420185E-01
N    1.3023954510621459E-02    1.9140581398836898E+00    6.5205547043769096E-01
Ga    1.2404908643474025E-02    1.8816685325616465E+00    2.6803504161252589E+00
N    9.8136199288409998E-03    3.7977364366467974E-02    3.3137653390734139E+00
Ga    1.0304474221965329E-02    3.9145654183270928E-02    5.3018301570447637E+00
N    1.4135917599999165E-02    1.9128838321211865E+00    5.8939842177968886E+00
Ga    1.3370819413134491E-02    1.9105712144195415E+00    7.8910278720984186E+00
N    8.4831453925293433E-03    3.7449599256964804E-02    8.4978262289477815E+00
Ga    6.1934210242306350E-03    3.4615313788898316E-02    1.0495441379371345E+01
N    1.7347558832425052E-02    1.9126393177156915E+00    1.1086288545106388E+01
Ga    1.6874460096428911E-02    1.9095167832223516E+00    1.3073805259198416E+01
N   -8.3902296341442422E-04    4.7996713652717266E-02    1.3687218266427008E+01
Ga   -3.6964892764767131E-02    3.6218271733637515E-02    1.5690681346524325E+01
N    3.8047702693461381E-03    1.9373968899060012E+00    1.6264872376870393E+01
Ga   -5.1067524327237150E-02    1.8255378444748613E+00    1.8244154519181155E+01
N   -8.0971264676818921E-02    4.7084548876356484E-02    1.8832688822611374E+01
Ga   -1.6093153384883678E+00    2.8434787568977553E+00    3.6596417881158666E-01
N   -1.6114974284851042E+00    4.7129694964047495E+00    6.5202450271537937E-01
Ga   -1.5826754846068805E+00    4.7288136520553197E+00    2.6803861528223516E+00
N   -1.6095583153980064E+00    2.8435884776101572E+00    3.2757130080760821E+00
Ga   -1.6087774679279649E+00    2.8442403549027526E+00    5.2845258769723245E+00
N   -1.6080828238553944E+00    4.7152362500650469E+00    5.8935960251566932E+00
Ga   -1.6070346644331583E+00    4.7157308530288526E+00    7.8904663546523919E+00
N   -1.6094614729367189E+00    2.8438903907582476E+00    8.4930236329817923E+00
Ga   -1.6079402970868837E+00    2.8442255253860336E+00    1.0484162542515646E+01
N   -1.6001426929877687E+00    4.7203024609069200E+00    1.1076187795240237E+01
Ga   -1.5894832684705096E+00    4.7240964698927925E+00    1.3056776432362808E+01
N   -1.6048925095266293E+00    2.8561270783271979E+00    1.3651383419562904E+01
Ga   -1.5915683745412172E+00    2.8768288266258231E+00    1.5618621555543562E+01
N   -1.5812952769423221E+00    4.7209863158358809E+00    1.6293114732828517E+01
Ga   -1.6775114930469437E+00    4.7541654923610510E+00    1.8263597086099473E+01
N   -1.6350509762569050E+00    2.8736438086205727E+00    1.8834475400065756E+01
Ga   -3.2297660358264988E+00    5.6496577360737215E+00    3.6642393414591007E-01
N   -3.2223733019577327E+00    7.5193352365904200E+00    6.5184394997143613E-01
Ga   -3.2506373868112148E+00    7.5346956457489984E+00    2.6802630955327622E+00
N   -3.2291734718512308E+00    5.6491206145600801E+00    3.2742384890954397E+00
Ga   -3.2281431689268492E+00    5.6502381674206710E+00    5.2825702621809461E+00
N   -3.2240743702343693E+00    7.5204114540759903E+00    5.8930594275722203E+00
Ga   -3.2268097856888716E+00    7.5203722872086471E+00    7.8895289103295259E+00
N   -3.2296799630720550E+00    5.6497891803138334E+00    8.4954669802733882E+00
Ga   -3.2291352977931909E+00    5.6539314842672024E+00    1.0488105810795624E+01
N   -3.2268787276213491E+00    7.5232310984710766E+00    1.1097835395816372E+01
Ga   -3.2363325035273416E+00    7.5311334620987234E+00    1.3093062366948683E+01
N   -3.2190876443478564E+00    5.6428404412773343E+00    1.3669536016440050E+01
Ga   -3.1713406929949066E+00    5.6684829184564327E+00    1.5641369676715417E+01
N   -3.2623290946968888E+00    7.5160433165516567E+00    1.6222569931155974E+01
Ga   -3.4209471360983690E+00    7.4958517658622554E+00    1.8244898648915651E+01
N   -3.4878492582064644E+00    5.4235913363820876E+00    1.8541954123702940E+01
Ga    3.2560924530537556E+00    3.8101302446745498E-02    3.6591279569809315E-01
N    3.2537816986798491E+00    1.9076395264568604E+00    6.5149313195735259E-01
Ga    3.2827514810890994E+00    1.9232979585029704E+00    2.6800507122830397E+00
N    3.2557910081288322E+00    3.8049825071917447E-02    3.2749602382721896E+00
Ga    3.2566098202429683E+00    3.8927853175991838E-02    5.2835829205887954E+00
N    3.2567600629947382E+00    1.9094171016507662E+00    5.8924875432228525E+00
Ga    3.2571750882625974E+00    1.9097604628898488E+00    7.8885133980530142E+00
N    3.2551926505807876E+00    3.8459488359726728E-02    8.4939701324600154E+00
Ga    3.2544382383139170E+00    3.7389455403972434E-02    1.0485950136347274E+01
N    3.2580926965234478E+00    1.9117448705039253E+00    1.1087505509039165E+01
Ga    3.2493561982520243E+00    1.9089614504354080E+00    1.3072134204661785E+01
N    3.2521620979171399E+00    4.7122031898179498E-02    1.3691154878994116E+01
Ga    3.2397194522949060E+00    1.6616271119794000E-02    1.5686827212468840E+01
N    3.2491513263407730E+00    1.9317706481367416E+00    1.6325739106282441E+01
Ga    2.9375274910964704E+00    1.6700139335835755E+00    1.8240010397001964E+01
N    3.0864691471173238E+00   -7.2151975593984785E-02    1.8843834633854105E+01
Ga    1.6353855015141574E+00    2.8442390288428996E+00    3.6658575964629297E-01
N    1.6430887838877237E+00    4.7138777537067122E+00    6.5184966862571680E-01
Ga    1.6146041337285784E+00    4.7294923129872917E+00    2.6802264263200528E+00
N    1.6359409456384377E+00    2.8434775042546363E+00    3.2737356161587137E+00
Ga    1.6366015562702696E+00    2.8440240692939058E+00    5.2818890715735938E+00
N    1.6426548183343890E+00    4.7148646494463815E+00    5.8893905504005790E+00
Ga    1.6418490709583611E+00    4.7153227557482333E+00    7.8837827411261969E+00
N    1.6366369555861726E+00    2.8466820978717933E+00    8.4942160678116121E+00
Ga    1.6382450414658289E+00    2.8511457391814852E+00    1.0485869124882369E+01
N    1.6491430502137374E+00    4.7199594961394835E+00    1.1111014117580677E+01
Ga    1.6672315033662359E+00    4.7284191461799807E+00    1.3111880729602200E+01
N    1.6384745817981832E+00    2.8491917605015185E+00    1.3698480027246015E+01
Ga    1.6195623875683729E+00    2.8805718976067580E+00    1.5679075473975136E+01
N    1.6197002381660655E+00    4.7046912125783384E+00    1.6389904056251677E+01
Ga    1.5773109786741006E+00    4.7776532277207489E+00    1.8412730438630394E+01
N    1.5688114124772687E+00    2.8284683645685464E+00    1.8978994698720175E+01
Ga    1.6850326004215339E-02    5.6502793280106891E+00   -5.0191961957673870E-01
N    1.9393330486168408E-02    7.5250958175802358E+00    6.5203492464686008E-01
Ga    1.9185164458378968E-02    7.4927743812988066E+00    2.6802052359650053E+00
N    1.6101993455369536E-02    5.6491640211872802E+00    3.3138252152429439E+00
Ga    1.7056632140354935E-02    5.6506414586627205E+00    5.3019681782853905E+00
N    2.0310362660213476E-02    7.5246612481414097E+00    5.8939788723484128E+00
Ga    2.0761527699339637E-02    7.5229362593600824E+00    7.8908688750444824E+00
N    2.0631808556605818E-02    5.6488565690533896E+00    8.4915329034196549E+00
Ga    2.7540271941254593E-02    5.6518574932340355E+00    1.0485205742352504E+01
N    1.5875654849542578E-02    7.5204811835728487E+00    1.1093537860305258E+01
Ga    1.6334628004412391E-02    7.5219955034910422E+00    1.3086906875179080E+01
N    2.8400172477560791E-02    5.6477474268894250E+00    1.3697969838334776E+01
Ga    3.7798297960056286E-02    5.6640328757978997E+00    1.5693708110765588E+01
N   -4.5349040440116947E-03    7.5179989888561609E+00    1.6289426612712372E+01
Ga   -6.8068587466211611E-02    7.6483473867557548E+00    1.8338002557136466E+01
N   -1.0512992333825269E-01    5.7074867677606136E+00    1.8902889474377321E+01
Ga    6.5005877153434266E+00    3.8739358779735139E-02    3.6562547964178976E-01
N    6.5084235286423802E+00    1.9081551683915854E+00    6.5215762094514707E-01
Ga    6.4803258656459333E+00    1.9233997399494365E+00    2.6805339616709660E+00
N    6.5013038760310859E+00    3.8116891955811839E-02    3.2745582271614775E+00
Ga    6.5020493844887595E+00    3.8971369652780884E-02    5.2826136665491736E+00
N    6.5069764797777658E+00    1.9084492534382587E+00    5.8938810964570925E+00
Ga    6.5059317328249620E+00    1.9075775952157303E+00    7.8907576544454212E+00
N    6.5030827282941956E+00    3.7460278070886928E-02    8.5020161985931963E+00
Ga    6.5049663353232239E+00    3.3427863319546530E-02    1.0499208311500487E+01
N    6.5039944839263724E+00    1.9118234165572732E+00    1.1090849331003627E+01
Ga    6.5046962301247131E+00    1.9038079956583036E+00    1.3079987707955047E+01
N    6.4934212628738468E+00    3.5978219575207082E-02    1.3683099995011681E+01
Ga    6.4825949227227966E+00    1.1009789810099733E-02    1.5687084677896173E+01
N    6.5183788630948829E+00    1.9291677692186877E+00    1.6178154098328413E+01
Ga    6.5143530822123710E+00    1.9863605993419522E+00    1.8111097081671002E+01
N    6.3107120012674294E+00    2.7389303744208693E-01    1.8832161610949370E+01
Ga    4.8821456725902204E+00    2.8438577217132850E+00   -5.0203835133807373E-01
N    4.8845237570477007E+00    4.7195176251324442E+00    6.5151591993170632E-01
Ga    4.8844354305505284E+00    4.6870954634957895E+00    2.6799648360253201E+00
N    4.8816839150662501E+00    2.8433102442507896E+00    3.3136417934107665E+00
Ga    4.8826295509359046E+00    2.8439108775643662E+00    5.3018111982974103E+00
N    4.8852542335818541E+00    4.7188120143109433E+00    5.8910636679019071E+00
Ga    4.8856756022158310E+00    4.7175433725653111E+00    7.8863838224387042E+00
N    4.8819610974850320E+00    2.8449272279825881E+00    8.4916509687344970E+00
Ga    4.8825958525825452E+00    2.8459606407845950E+00    1.0484047200157026E+01
N    4.8839207793106603E+00    4.7175777938448524E+00    1.1097972249502650E+01
Ga    4.8762398005613070E+00    4.7244240519860785E+00    1.3087365145432756E+01
N    4.8696926791242223E+00    2.8458972882227580E+00    1.3679479122094316E+01
Ga    4.8795876092350019E+00    2.8219722143503096E+00    1.5641413551209212E+01
N    5.0169241291315920E+00    4.6602193180323317E+00    1.6402332333994803E+01
Ga    4.5008495918360127E+00    4.9828155915447176E+00    1.9403050030130569E+01
N    5.4218121498237686E+00    4.3219770758579932E+00    1.7770321221328921E+01
Ga    3.2620874436882930E+00    5.6493008917865568E+00    3.6579613481690482E-01
N    3.2596370616466954E+00    7.5187794208314571E+00    6.5130553670526747E-01
Ga    3.2884044315311107E+00    7.5348011522044107E+00    2.6795035714628015E+00
N    3.2621473408802015E+00    5.6493979475643838E+00    3.2733801364731234E+00
Ga    3.2631210041682941E+00    5.6507231442773662E+00    5.2811143338030915E+00
N    3.2627540965157493E+00    7.5202469797380598E+00    5.8929111514014281E+00
Ga    3.2633393047466281E+00    7.5205015593512305E+00    7.8891861501093263E+00
N    3.2629933957404194E+00    5.6489370898529012E+00    8.4935611679109826E+00
Ga    3.2640296769799351E+00    5.6518182247934865E+00    1.0484889219453859E+01
N    3.2651768011773861E+00    7.5114528520098736E+00    1.1115978617764455E+01
Ga    3.2620449239196851E+00    7.5006006750374583E+00    1.3125307756541844E+01
N    3.2865127146949713E+00    5.6332033798222341E+00    1.3805694670021627E+01
Ga    3.2637511990991186E+00    5.6691648747261700E+00    1.5880468976682140E+01
N    3.2301166358064002E+00    7.5507350793146468E+00    1.6324581666057743E+01
Ga    3.1005446544641830E+00    7.6893958566523875E+00    1.8441058594025332E+01
N    2.9577221283088408E+00    5.8845408543075575E+00    1.9021545428250199E+01
O    1.7799306950341320E+00    3.8100655935366676E+00    2.1187961759400860E+01
H   -8.1445751239054509E-02    5.7177388034372809E+00    1.9930378438767590E+01
C    1.4460632919305558E+00    2.6448824942055480E+00    2.0476595943437879E+01
H   -1.6874724467750257E+00    2.7877070076654755E+00    1.9801713582859879E+01
H    2.0558505018938069E+00    1.7773474138344194E+00    2.0778541746332451E+01
H    3.9984378974793672E-01    2.4170860440573056E+00    2.0731413627216874E+01
O    4.4225667365327945E+00    3.6597962266107942E+00    2.0705007306183077E+01
H    2.7755262108756296E+00    3.8417212756333394E+00    2.1214031964816488E+01
C    5.5481313050385852E+00    3.1265505255850075E+00    2.1416269493726059E+01
H    5.7863876534530583E+00    2.1126665675216527E+00    2.1050363903066447E+01
H    6.4412356554536796E+00    3.7643866601968554E+00    2.1314817740262725E+01
H    5.3018103653790734E+00    3.0632365539716959E+00    2.2486345607846143E+01
     &END COORD
     &KIND C
       BASIS_SET DZVP-MOLOPT-SR-GTH-q4
       POTENTIAL GTH-PBE-q4
       &POTENTIAL
 2 2
  0.3384712400000000E+00 2 -0.8803673979999999E+01  0.1339210850000000E+01
 2
  0.3025757500000000E+00 1  0.9622486650000001E+01
  0.2915069400000000E+00 0
         # Potential name:  GTH-PBE-Q4  for symbol:  C
         # Potential read from the potential filename: GTH_POTENTIALS
       &END POTENTIAL
     &END KIND
     &KIND O
       BASIS_SET DZVP-MOLOPT-SR-GTH-q6
       POTENTIAL GTH-PBE-q6
       &POTENTIAL
 2 4
  0.2445543000000000E+00 2 -0.1666721480000000E+02  0.2487311320000000E+01
 2
  0.2209559200000000E+00 1  0.1833745811000000E+02
  0.2113324700000000E+00 0
         # Potential name:  GTH-PBE-Q6  for symbol:  O
         # Potential read from the potential filename: GTH_POTENTIALS
       &END POTENTIAL
     &END KIND
     &KIND H
       BASIS_SET DZVP-MOLOPT-SR-GTH-q1
       POTENTIAL GTH-PBE-q1
       &POTENTIAL
 1
  0.2000000000000000E+00 2 -0.4178900440000000E+01  0.7244633100000000E+00
 0
         # Potential name:  GTH-PBE-Q1  for symbol:  H
         # Potential read from the potential filename: GTH_POTENTIALS
       &END POTENTIAL
     &END KIND
     &KIND N
       BASIS_SET DZVP-MOLOPT-SR-GTH-q5
       POTENTIAL GTH-PBE-q5
       &POTENTIAL
 2 3
  0.2837905100000000E+00 2 -0.1241522559000000E+02  0.1868095920000000E+01
 2
  0.2554050000000000E+00 1  0.1363026257000000E+02
  0.2454945300000000E+00 0
         # Potential name:  GTH-PBE-Q5  for symbol:  N
         # Potential read from the potential filename: GTH_POTENTIALS
       &END POTENTIAL
     &END KIND
     &KIND Ga
       BASIS_SET DZVP-MOLOPT-SR-GTH-q13
       POTENTIAL GTH-PBE-q13
       &POTENTIAL
 2 1 10
  0.4900000000000000E+00 0
 3
  0.4167772300000000E+00 3  0.1047568975000000E+02 -0.4921768140000000E+01  0.8707055900000000E+00
  0.7770178090000000E+01 -0.2248152160000000E+01
  0.1784415450000000E+01
  0.5696265200000000E+00 2  0.1777985340000000E+01  0.1958597600000000E+00
 -0.2317443900000000E+00
  0.2381265000000000E+00 1 -0.1624868022000000E+02
         # Potential name:  GTH-PBE-Q13  for symbol:  GA
         # Potential read from the potential filename: GTH_POTENTIALS
       &END POTENTIAL
     &END KIND
     &TOPOLOGY
       COORD_FILE_NAME ../start-first.xyz
       COORD_FILE_FORMAT  XYZ
       NUMBER_OF_ATOMS  156
       MULTIPLE_UNIT_CELL  1 1 1
     &END TOPOLOGY
     &COLVAR
       &DISTANCE
         ATOMS  32 148
       &END DISTANCE
       &PRINT
       &END PRINT
     &END COLVAR
   &END SUBSYS
 &END FORCE_EVAL
