 # Version information for this restart file 
 # current date 2019-05-28 05:07:53.928
 # current working dir /lustre03/project/6004141/rzk/GaN-carbene/334-native/08-2Methanol-Htransfer/02-NH-constraint/0.84
 # Program compiled at                              Sun Apr  7 00:48:11 EDT 2019
 # Program compiled on                          beluga2.int.ets1.calculquebec.ca
 # Program compiled for                        Beluga-Linux-x86-64-intel-openmpi
 # Source code revision number                                         svn:18619
 &GLOBAL
   PRINT_LEVEL  MEDIUM
   PROJECT_NAME TEST
   RUN_TYPE  GEO_OPT
 &END GLOBAL
 &MOTION
   &GEO_OPT
     MAX_ITER  500
     STEP_START_VAL  215
   &END GEO_OPT
   &CONSTRAINT
     &COLLECTIVE
       COLVAR  1
       INTERMOLECULAR  T
       TARGET     1.5873699516239401E+00
       &RESTRAINT
         K     1.0000000000000001E-01
       &END RESTRAINT
     &END COLLECTIVE
     &COLVAR_RESTART
           1.5873699516239401E+00
     &END COLVAR_RESTART
   &END CONSTRAINT
 &END MOTION
 &FORCE_EVAL
   METHOD  QS
   STRESS_TENSOR  ANALYTICAL
   &DFT
     BASIS_SET_FILE_NAME BASIS_MOLOPT
     POTENTIAL_FILE_NAME GTH_POTENTIALS
     &SCF
       MAX_SCF  100
       EPS_SCF     5.0000000000000004E-06
       &OT  T
         PRECONDITIONER  FULL_ALL
       &END OT
       &OUTER_SCF  T
         OPTIMIZER  NONE
         EPS_SCF     5.0000000000000004E-06
         MAX_SCF  4
       &END OUTER_SCF
       &PRINT
         &RESTART  OFF
           BACKUP_COPIES  1
           &EACH
             JUST_ENERGY  0
             QS_SCF  0
             MD  20
           &END EACH
         &END RESTART
       &END PRINT
     &END SCF
     &QS
       EPS_DEFAULT     1.0000000000000000E-14
       ALMO_SCF  F
       METHOD  GPW
     &END QS
     &MGRID
       NGRIDS  5
       CUTOFF     1.2000000000000000E+03
     &END MGRID
     &XC
       DENSITY_CUTOFF     1.0000000000000000E-10
       GRADIENT_CUTOFF     1.0000000000000000E-10
       TAU_CUTOFF     1.0000000000000000E-10
       &XC_FUNCTIONAL  NO_SHORTCUT
         &PBE  T
         &END PBE
       &END XC_FUNCTIONAL
       &VDW_POTENTIAL
         POTENTIAL_TYPE  PAIR_POTENTIAL
         &PAIR_POTENTIAL
           R_CUTOFF     1.0000000000000005E+01
           TYPE  DFTD3
           PARAMETER_FILE_NAME dftd3.dat
           REFERENCE_FUNCTIONAL PBE
           EPS_CN     9.9999999999999995E-07
           CALCULATE_C9_TERM  T
           REFERENCE_C9_TERM  T
           LONG_RANGE_CORRECTION  F
           VERBOSE_OUTPUT  F
         &END PAIR_POTENTIAL
       &END VDW_POTENTIAL
     &END XC
   &END DFT
   &SUBSYS
     &CELL
       A     9.7367653356401487E+00    0.0000000000000000E+00    0.0000000000000000E+00
       B    -4.8591341382960209E+00    8.4162672083210595E+00    0.0000000000000000E+00
       C     0.0000000000000000E+00    0.0000000000000000E+00    3.0744000000000000E+01
       MULTIPLE_UNIT_CELL  1 1 1
       &CELL_REF
         A     9.5580000000000052E+00    0.0000000000000000E+00    0.0000000000000000E+00
         B    -4.7790000000000026E+00    8.2774708093716640E+00    0.0000000000000000E+00
         C     0.0000000000000000E+00    0.0000000000000000E+00    3.0744000000000000E+01
         MULTIPLE_UNIT_CELL  1 1 1
       &END CELL_REF
     &END CELL
     &COORD
Ga    9.5654554127363282E-03    3.8872341484914343E-02   -5.0239396145798687E-01
N    1.3093552547046814E-02    1.9139581377855941E+00    6.5223273734590825E-01
Ga    1.2488498896496482E-02    1.8816382511123821E+00    2.6805548358985551E+00
N    9.8957865620364887E-03    3.7968899881642371E-02    3.3139804356666827E+00
Ga    1.0358164478215781E-02    3.9167612428204726E-02    5.3020505725879801E+00
N    1.4145403353149464E-02    1.9129058347407299E+00    5.8940539483363201E+00
Ga    1.3256381607073655E-02    1.9105806414151651E+00    7.8910832494571572E+00
N    8.4069905088526888E-03    3.7446850392071518E-02    8.4977851459034905E+00
Ga    6.0707101210818928E-03    3.4534634592358206E-02    1.0495307718921984E+01
N    1.7233366562647432E-02    1.9125368401554492E+00    1.1086100523476308E+01
Ga    1.6874506695631074E-02    1.9094665890312454E+00    1.3073625719359471E+01
N   -8.1552418389125182E-04    4.7996345488913884E-02    1.3687040962144131E+01
Ga   -3.6753386566022173E-02    3.6447046729865061E-02    1.5690446791375264E+01
N    4.0539758930544373E-03    1.9375371583885501E+00    1.6264833240595131E+01
Ga   -5.1014197623775230E-02    1.8257027768674892E+00    1.8244022774316420E+01
N   -8.0932759186155070E-02    4.7286632366648304E-02    1.8832959514679757E+01
Ga   -1.6092471806057278E+00    2.8433642983622627E+00    3.6605711853802236E-01
N   -1.6114171279006868E+00    4.7129026847760764E+00    6.5215993078577761E-01
Ga   -1.5825851989825335E+00    4.7287669760280133E+00    2.6805570350661760E+00
N   -1.6094742190875326E+00    2.8435929199567540E+00    3.2759455280748870E+00
Ga   -1.6087324870280615E+00    2.8443020527246867E+00    5.2847803546055374E+00
N   -1.6080389946328009E+00    4.7152941143979046E+00    5.8937340936302167E+00
Ga   -1.6071369807358304E+00    4.7157889875298302E+00    7.8905797636495896E+00
N   -1.6095490088450701E+00    2.8439545002665771E+00    8.4929590156505768E+00
Ga   -1.6080604857390672E+00    2.8441788516663311E+00    1.0484089797327410E+01
N   -1.6002803754240866E+00    4.7202442405033027E+00    1.1076064349828835E+01
Ga   -1.5895074164725276E+00    4.7240276677055135E+00    1.3056665910916076E+01
N   -1.6048909585045767E+00    2.8560553217736251E+00    1.3651239760283786E+01
Ga   -1.5913803588326445E+00    2.8769311584350143E+00    1.5618381690949619E+01
N   -1.5812032959996531E+00    4.7211103899718632E+00    1.6293098153833768E+01
Ga   -1.6774613266259792E+00    4.7545102261726573E+00    1.8263556311737446E+01
N   -1.6349973371959838E+00    2.8738266636832530E+00    1.8834337453015330E+01
Ga   -3.2297290351421006E+00    5.6496176983760957E+00    3.6655840120604738E-01
N   -3.2223626834091470E+00    7.5193092971842406E+00    6.5197708971987756E-01
Ga   -3.2505815883915838E+00    7.5346839611615364E+00    2.6804495016612111E+00
N   -3.2290641796323860E+00    5.6490795090874864E+00    3.2744339027017126E+00
Ga   -3.2280890013805923E+00    5.6502559185668311E+00    5.2827834270037783E+00
N   -3.2240240184197160E+00    7.5204074814205910E+00    5.8931576486617532E+00
Ga   -3.2268592510817893E+00    7.5203624957476567E+00    7.8896037311911451E+00
N   -3.2298375973468314E+00    5.6497928094624923E+00    8.4954768474072253E+00
Ga   -3.2292883990819314E+00    5.6538676553436504E+00    1.0488106804457614E+01
N   -3.2270254420257749E+00    7.5231496713015948E+00    1.1097733437488358E+01
Ga   -3.2363823383534180E+00    7.5310637536769036E+00    1.3092901440216243E+01
N   -3.2190591974873293E+00    5.6428306850311243E+00    1.3669479282701275E+01
Ga   -3.1712638485458067E+00    5.6687043272575171E+00    1.5641225196490808E+01
N   -3.2621959153024886E+00    7.5161993994351235E+00    1.6222588150370267E+01
Ga   -3.4209537486110433E+00    7.4960778491000761E+00    1.8245079845216360E+01
N   -3.4879877564515058E+00    5.4235042791907464E+00    1.8541964248511682E+01
Ga    3.2561263345771612E+00    3.8048745100915382E-02    3.6603191286746400E-01
N    3.2538904687177874E+00    1.9075852176722157E+00    6.5166800818895776E-01
Ga    3.2828489917582955E+00    1.9232746975957253E+00    2.6802514166544182E+00
N    3.2558807358470303E+00    3.8025710447474173E-02    3.2751185830173606E+00
Ga    3.2566558724828414E+00    3.8909663727954132E-02    5.2837593989813492E+00
N    3.2567910172555559E+00    1.9093818840276600E+00    5.8925801426997415E+00
Ga    3.2571035342328933E+00    1.9097474639762742E+00    7.8885751376363320E+00
N    3.2551216099779405E+00    3.8441705089038068E-02    8.4939686360824833E+00
Ga    3.2542866592116626E+00    3.7339378467053326E-02    1.0485898652182454E+01
N    3.2579845024305345E+00    1.9116888196333168E+00    1.1087438364646642E+01
Ga    3.2493638606149120E+00    1.9088654842264492E+00    1.3072100083496881E+01
N    3.2521691989609711E+00    4.6973600058346422E-02    1.3690993681208912E+01
Ga    3.2399310575839322E+00    1.6689949943281063E-02    1.5686650422417367E+01
N    3.2494048012971417E+00    1.9318520546328015E+00    1.6325699252888352E+01
Ga    2.9378379566687278E+00    1.6702791267683796E+00    1.8240075473484747E+01
N    3.0864808019028356E+00   -7.2029771441568399E-02    1.8844032153032053E+01
Ga    1.6354524568334836E+00    2.8441368736965158E+00    3.6672759455278786E-01
N    1.6431392888312268E+00    4.7138119012581159E+00    6.5204295927786626E-01
Ga    1.6146892963003869E+00    4.7294674594450017E+00    2.6804367148985984E+00
N    1.6360447580679638E+00    2.8434513984450858E+00    3.2739608254734871E+00
Ga    1.6366450898629088E+00    2.8440430330401090E+00    5.2821316604652173E+00
N    1.6426998798927901E+00    4.7149155836102956E+00    5.8894890424228228E+00
Ga    1.6417457732762095E+00    4.7153423990129868E+00    7.8838819006833019E+00
N    1.6365335198712614E+00    2.8466506114783341E+00    8.4941428355969393E+00
Ga    1.6381351775330251E+00    2.8510263581987738E+00    1.0485767449441784E+01
N    1.6489949236771444E+00    4.7198446929608080E+00    1.1110793473194729E+01
Ga    1.6672372329061873E+00    4.7283572582354205E+00    1.3111642411176252E+01
N    1.6384473144379859E+00    2.8491833488831140E+00    1.3698387941398144E+01
Ga    1.6197457074918682E+00    2.8806854006652935E+00    1.5678851800446575E+01
N    1.6198260261726334E+00    4.7048180896997644E+00    1.6389663301765943E+01
Ga    1.5770730887528497E+00    4.7776209656797999E+00    1.8412323713040326E+01
N    1.5688907136292074E+00    2.8286779851159842E+00    1.8978891509216627E+01
Ga    1.6938786993293663E-02    5.6502470889299197E+00   -5.0170248780118287E-01
N    1.9436837704244387E-02    7.5249856966054365E+00    6.5219442317677045E-01
Ga    1.9266798229426257E-02    7.4927336417787043E+00    2.6804225349890274E+00
N    1.6167838944383475E-02    5.6491254402914564E+00    3.3140416882032175E+00
Ga    1.7102699352511734E-02    5.6506609316596492E+00    5.3022018100306063E+00
N    2.0348857975736045E-02    7.5246793760238155E+00    5.8940779050897225E+00
Ga    2.0697757613859127E-02    7.5229547215261539E+00    7.8909367452172257E+00
N    2.0546851947652389E-02    5.6488788951239144E+00    8.4915143004102767E+00
Ga    2.7424827950246516E-02    5.6517916423828103E+00    1.0485169836498939E+01
N    1.5731887958181343E-02    7.5204047949589183E+00    1.1093387109685848E+01
Ga    1.6299711499385753E-02    7.5218640243030856E+00    1.3086718654455074E+01
N    2.8420963398932929E-02    5.6476612774149375E+00    1.3697787241273891E+01
Ga    3.7874775507039569E-02    5.6641593494288003E+00    1.5693470931324361E+01
N   -4.2941138921884772E-03    7.5180639374178231E+00    1.6289428120027019E+01
Ga   -6.7933321184058287E-02    7.6485211553871331E+00    1.8338062971469832E+01
N   -1.0511873521530966E-01    5.7076261916958337E+00    1.8902931049933940E+01
Ga    6.5006364349157426E+00    3.8650930459036878E-02    3.6574675420299113E-01
N    6.5084571258137558E+00    1.9080811258771058E+00    6.5234335349354577E-01
Ga    6.4804154998460843E+00    1.9233753450001956E+00    2.6807459823009467E+00
N    6.5013658518402275E+00    3.8114145777422406E-02    3.2747742829785547E+00
Ga    6.5021181194536757E+00    3.9021158065160787E-02    5.2828711852946046E+00
N    6.5070034446425504E+00    1.9085191289584824E+00    5.8939974464253000E+00
Ga    6.5058342061750016E+00    1.9076309820806487E+00    7.8908539984101251E+00
N    6.5030160102109891E+00    3.7485427518104276E-02    8.5019870306653882E+00
Ga    6.5048072605743723E+00    3.3327198739552158E-02    1.0499106223547500E+01
N    6.5038867695499381E+00    1.9117370379979528E+00    1.1090638133253945E+01
Ga    6.5047286536231210E+00    1.9036814888671816E+00    1.3079766748612252E+01
N    6.4934240982683082E+00    3.5828204995999216E-02    1.3682805880151223E+01
Ga    6.4828496775686162E+00    1.1100196043174025E-02    1.5686729799242627E+01
N    6.5186362700600560E+00    1.9292096548979143E+00    1.6178040349677186E+01
Ga    6.5146235175339076E+00    1.9864360073798493E+00    1.8110952877754542E+01
N    6.3107974309858754E+00    2.7416562370151937E-01    1.8832496577514846E+01
Ga    4.8822189540728917E+00    2.8437329579281374E+00   -5.0185260713103153E-01
N    4.8845775602349351E+00    4.7193943893238677E+00    6.5165814206261885E-01
Ga    4.8845043217303914E+00    4.6870784486474841E+00    2.6801614942439986E+00
N    4.8817672798019576E+00    2.8433012610140938E+00    3.3138395429215035E+00
Ga    4.8826649696480589E+00    2.8439325286115800E+00    5.3020129910669693E+00
N    4.8852839623445039E+00    4.7188596974490595E+00    5.8911318061812139E+00
Ga    4.8855666388431294E+00    4.7175491766984221E+00    7.8864249382106788E+00
N    4.8818286651156955E+00    2.8449626805268222E+00    8.4916433270086564E+00
Ga    4.8824325862729792E+00    2.8459252516682896E+00    1.0484046620710703E+01
N    4.8837994468594896E+00    4.7174898328386652E+00    1.1097959783480922E+01
Ga    4.8762124683368562E+00    4.7243838398825355E+00    1.3087431734912084E+01
N    4.8698157401016955E+00    2.8458066890454314E+00    1.3679374828013652E+01
Ga    4.8798877324945646E+00    2.8220925324392518E+00    1.5641260031055475E+01
N    5.0168975931879247E+00    4.6603290400641004E+00    1.6402051196497617E+01
Ga    4.5004179889583300E+00    4.9823906855277311E+00    1.9402686116631259E+01
N    5.4217775238239314E+00    4.3220201282862263E+00    1.7770190278159529E+01
Ga    3.2621520974168994E+00    5.6492507308506248E+00    3.6590651977631072E-01
N    3.2596750720677266E+00    7.5187230814577832E+00    6.5148796431563782E-01
Ga    3.2884962503895734E+00    7.5348170981648099E+00    2.6796888435807613E+00
N    3.2622211473618421E+00    5.6493961416799650E+00    3.2735819118882841E+00
Ga    3.2631560149436760E+00    5.6507699857930609E+00    5.2813315919819193E+00
N    3.2628064513090100E+00    7.5202806979578014E+00    5.8930228461220580E+00
Ga    3.2632598889057185E+00    7.5204784230643460E+00    7.8892919938346946E+00
N    3.2629035409095870E+00    5.6489076464469727E+00    8.4935878054228304E+00
Ga    3.2639392263425284E+00    5.6516812061557511E+00    1.0484881578558102E+01
N    3.2650708278132878E+00    7.5113427813738545E+00    1.1115806490079899E+01
Ga    3.2620976249574896E+00    7.5005226383839343E+00    1.3125028467046921E+01
N    3.2864543916328155E+00    5.6331771981807526E+00    1.3805479754079837E+01
Ga    3.2635988004924288E+00    5.6695620772074173E+00    1.5880144219115881E+01
N    3.2302952161087126E+00    7.5509550661035236E+00    1.6324556105021532E+01
Ga    3.1006671504967791E+00    7.6895701317367475E+00    1.8440973721975777E+01
N    2.9575573320971307E+00    5.8845581312876218E+00    1.9021077076837742E+01
O    1.7797398639396500E+00    3.8102324249329982E+00    2.1188058885798110E+01
H   -8.1319993244901717E-02    5.7179225269097689E+00    1.9930631681860664E+01
C    1.4460770400284599E+00    2.6451338417555355E+00    2.0476628816844823E+01
H   -1.6877983857949093E+00    2.7878552570648005E+00    1.9801613339116560E+01
H    2.0559514192588160E+00    1.7775971200322045E+00    2.0778330197803587E+01
H    3.9967260242051622E-01    2.4171468105863392E+00    2.0731371208395633E+01
O    4.4219442160835021E+00    3.6587909593521477E+00    2.0704177059599974E+01
H    2.7754386745032673E+00    3.8418898129119667E+00    2.1214142226090157E+01
C    5.5474730159988095E+00    3.1259494221660713E+00    2.1415876055677494E+01
H    5.7862119738738080E+00    2.1121493254602508E+00    2.1049888166466303E+01
H    6.4405223124419129E+00    3.7641658093546728E+00    2.1314994150736155E+01
H    5.3007173080062477E+00    3.0622462713711847E+00    2.2485852243265832E+01
     &END COORD
     &KIND C
       BASIS_SET DZVP-MOLOPT-SR-GTH-q4
       POTENTIAL GTH-PBE-q4
       &POTENTIAL
 2 2
  0.3384712400000000E+00 2 -0.8803673979999999E+01  0.1339210850000000E+01
 2
  0.3025757500000000E+00 1  0.9622486650000001E+01
  0.2915069400000000E+00 0
         # Potential name:  GTH-PBE-Q4  for symbol:  C
         # Potential read from the potential filename: GTH_POTENTIALS
       &END POTENTIAL
     &END KIND
     &KIND O
       BASIS_SET DZVP-MOLOPT-SR-GTH-q6
       POTENTIAL GTH-PBE-q6
       &POTENTIAL
 2 4
  0.2445543000000000E+00 2 -0.1666721480000000E+02  0.2487311320000000E+01
 2
  0.2209559200000000E+00 1  0.1833745811000000E+02
  0.2113324700000000E+00 0
         # Potential name:  GTH-PBE-Q6  for symbol:  O
         # Potential read from the potential filename: GTH_POTENTIALS
       &END POTENTIAL
     &END KIND
     &KIND H
       BASIS_SET DZVP-MOLOPT-SR-GTH-q1
       POTENTIAL GTH-PBE-q1
       &POTENTIAL
 1
  0.2000000000000000E+00 2 -0.4178900440000000E+01  0.7244633100000000E+00
 0
         # Potential name:  GTH-PBE-Q1  for symbol:  H
         # Potential read from the potential filename: GTH_POTENTIALS
       &END POTENTIAL
     &END KIND
     &KIND N
       BASIS_SET DZVP-MOLOPT-SR-GTH-q5
       POTENTIAL GTH-PBE-q5
       &POTENTIAL
 2 3
  0.2837905100000000E+00 2 -0.1241522559000000E+02  0.1868095920000000E+01
 2
  0.2554050000000000E+00 1  0.1363026257000000E+02
  0.2454945300000000E+00 0
         # Potential name:  GTH-PBE-Q5  for symbol:  N
         # Potential read from the potential filename: GTH_POTENTIALS
       &END POTENTIAL
     &END KIND
     &KIND Ga
       BASIS_SET DZVP-MOLOPT-SR-GTH-q13
       POTENTIAL GTH-PBE-q13
       &POTENTIAL
 2 1 10
  0.4900000000000000E+00 0
 3
  0.4167772300000000E+00 3  0.1047568975000000E+02 -0.4921768140000000E+01  0.8707055900000000E+00
  0.7770178090000000E+01 -0.2248152160000000E+01
  0.1784415450000000E+01
  0.5696265200000000E+00 2  0.1777985340000000E+01  0.1958597600000000E+00
 -0.2317443900000000E+00
  0.2381265000000000E+00 1 -0.1624868022000000E+02
         # Potential name:  GTH-PBE-Q13  for symbol:  GA
         # Potential read from the potential filename: GTH_POTENTIALS
       &END POTENTIAL
     &END KIND
     &TOPOLOGY
       COORD_FILE_NAME ../start-first.xyz
       COORD_FILE_FORMAT  XYZ
       NUMBER_OF_ATOMS  156
       MULTIPLE_UNIT_CELL  1 1 1
     &END TOPOLOGY
     &COLVAR
       &DISTANCE
         ATOMS  32 148
       &END DISTANCE
       &PRINT
       &END PRINT
     &END COLVAR
   &END SUBSYS
 &END FORCE_EVAL
