 # Version information for this restart file 
 # current date 2019-05-28 05:07:05.363
 # current working dir /lustre03/project/6004141/rzk/GaN-carbene/334-native/08-2Methanol-Htransfer/02-NH-constraint/0.84
 # Program compiled at                              Sun Apr  7 00:48:11 EDT 2019
 # Program compiled on                          beluga2.int.ets1.calculquebec.ca
 # Program compiled for                        Beluga-Linux-x86-64-intel-openmpi
 # Source code revision number                                         svn:18619
 &GLOBAL
   PRINT_LEVEL  MEDIUM
   PROJECT_NAME TEST
   RUN_TYPE  GEO_OPT
 &END GLOBAL
 &MOTION
   &GEO_OPT
     MAX_ITER  500
     STEP_START_VAL  214
   &END GEO_OPT
   &CONSTRAINT
     &COLLECTIVE
       COLVAR  1
       INTERMOLECULAR  T
       TARGET     1.5873699516239401E+00
       &RESTRAINT
         K     1.0000000000000001E-01
       &END RESTRAINT
     &END COLLECTIVE
     &COLVAR_RESTART
           1.5873699516239401E+00
     &END COLVAR_RESTART
   &END CONSTRAINT
 &END MOTION
 &FORCE_EVAL
   METHOD  QS
   STRESS_TENSOR  ANALYTICAL
   &DFT
     BASIS_SET_FILE_NAME BASIS_MOLOPT
     POTENTIAL_FILE_NAME GTH_POTENTIALS
     &SCF
       MAX_SCF  100
       EPS_SCF     5.0000000000000004E-06
       &OT  T
         PRECONDITIONER  FULL_ALL
       &END OT
       &OUTER_SCF  T
         OPTIMIZER  NONE
         EPS_SCF     5.0000000000000004E-06
         MAX_SCF  4
       &END OUTER_SCF
       &PRINT
         &RESTART  OFF
           BACKUP_COPIES  1
           &EACH
             JUST_ENERGY  0
             QS_SCF  0
             MD  20
           &END EACH
         &END RESTART
       &END PRINT
     &END SCF
     &QS
       EPS_DEFAULT     1.0000000000000000E-14
       ALMO_SCF  F
       METHOD  GPW
     &END QS
     &MGRID
       NGRIDS  5
       CUTOFF     1.2000000000000000E+03
     &END MGRID
     &XC
       DENSITY_CUTOFF     1.0000000000000000E-10
       GRADIENT_CUTOFF     1.0000000000000000E-10
       TAU_CUTOFF     1.0000000000000000E-10
       &XC_FUNCTIONAL  NO_SHORTCUT
         &PBE  T
         &END PBE
       &END XC_FUNCTIONAL
       &VDW_POTENTIAL
         POTENTIAL_TYPE  PAIR_POTENTIAL
         &PAIR_POTENTIAL
           R_CUTOFF     1.0000000000000005E+01
           TYPE  DFTD3
           PARAMETER_FILE_NAME dftd3.dat
           REFERENCE_FUNCTIONAL PBE
           EPS_CN     9.9999999999999995E-07
           CALCULATE_C9_TERM  T
           REFERENCE_C9_TERM  T
           LONG_RANGE_CORRECTION  F
           VERBOSE_OUTPUT  F
         &END PAIR_POTENTIAL
       &END VDW_POTENTIAL
     &END XC
   &END DFT
   &SUBSYS
     &CELL
       A     9.7367653356401487E+00    0.0000000000000000E+00    0.0000000000000000E+00
       B    -4.8591341382960209E+00    8.4162672083210595E+00    0.0000000000000000E+00
       C     0.0000000000000000E+00    0.0000000000000000E+00    3.0744000000000000E+01
       MULTIPLE_UNIT_CELL  1 1 1
       &CELL_REF
         A     9.5580000000000052E+00    0.0000000000000000E+00    0.0000000000000000E+00
         B    -4.7790000000000026E+00    8.2774708093716640E+00    0.0000000000000000E+00
         C     0.0000000000000000E+00    0.0000000000000000E+00    3.0744000000000000E+01
         MULTIPLE_UNIT_CELL  1 1 1
       &END CELL_REF
     &END CELL
     &COORD
Ga    9.4680604672047770E-03    3.7970872503076111E-02   -5.0291782176951494E-01
N    1.2946697538643942E-02    1.9130391145951260E+00    6.5189751846766797E-01
Ga    1.2293776837540116E-02    1.8810138441462896E+00    2.6803696998973354E+00
N    9.5956372062781931E-03    3.7307328582417462E-02    3.3139888278123748E+00
Ga    9.8410345430943232E-03    3.8620953453778833E-02    5.3021979892398949E+00
N    1.3532912040110985E-02    1.9124263318119763E+00    5.8940150269726308E+00
Ga    1.2361252308799755E-02    1.9101072080185819E+00    7.8912262012859395E+00
N    7.5769384165103081E-03    3.7000898045111218E-02    8.4975903522720806E+00
Ga    5.5453548907382745E-03    3.4153855224565717E-02    1.0494983279360927E+01
N    1.6721379024691552E-02    1.9121626192388022E+00    1.1085631855476377E+01
Ga    1.6773105410188126E-02    1.9096525220577936E+00    1.3073246150745396E+01
N   -7.2490629883746247E-04    4.8315050343590536E-02    1.3686859333903332E+01
Ga   -3.6111485863231089E-02    3.7567043696415656E-02    1.5690277367766482E+01
N    4.6442888439471126E-03    1.9383721625678112E+00    1.6265419115743406E+01
Ga   -5.0300085899245069E-02    1.8266897809925964E+00    1.8244516306228359E+01
N   -8.0535781956515839E-02    4.8023253359383601E-02    1.8833453587034892E+01
Ga   -1.6094236608358139E+00    2.8424570312746278E+00    3.6562514619217307E-01
N   -1.6116258664837022E+00    4.7120762171734150E+00    6.5183545454957792E-01
Ga   -1.5827568678448782E+00    4.7280291626940647E+00    2.6802377099068737E+00
N   -1.6098009599216039E+00    2.8429260070267310E+00    3.2759037498846930E+00
Ga   -1.6092877667004635E+00    2.8439379442005346E+00    5.2849879075784862E+00
N   -1.6085777156683454E+00    4.7149160121588416E+00    5.8938887461266072E+00
Ga   -1.6079893689448066E+00    4.7155029118684491E+00    7.8908493235217998E+00
N   -1.6103466619405498E+00    2.8436966447145862E+00    8.4926534220384102E+00
Ga   -1.6085669709635282E+00    2.8439199253048009E+00    1.0483784492260165E+01
N   -1.6007487033451548E+00    4.7199217313411914E+00    1.1075879531577202E+01
Ga   -1.5895869020269164E+00    4.7240613300965162E+00    1.3056558832549582E+01
N   -1.6048411253450547E+00    2.8560830093991822E+00    1.3651418085803634E+01
Ga   -1.5908484928833582E+00    2.8774637876773497E+00    1.5618431051209186E+01
N   -1.5807797811904882E+00    4.7217152272083585E+00    1.6293165707557840E+01
Ga   -1.6767460842255457E+00    4.7557283387471774E+00    1.8263081953982908E+01
N   -1.6344558477044195E+00    2.8746995145958230E+00    1.8834275943646787E+01
Ga   -3.2299893925409187E+00    5.6488795160042180E+00    3.6630770506907095E-01
N   -3.2226373455473918E+00    7.5186325083389987E+00    6.5172810169766993E-01
Ga   -3.2507680838667210E+00    7.5340580488234865E+00    2.6803243800547678E+00
N   -3.2292645492894940E+00    5.6483427235011971E+00    3.2743319378645732E+00
Ga   -3.2285609253824159E+00    5.6497727484911948E+00    5.2829304013887501E+00
N   -3.2245095538689883E+00    7.5198763734859151E+00    5.8933157556877900E+00
Ga   -3.2276122544876777E+00    7.5199010200778265E+00    7.8898945021649087E+00
N   -3.2307253454652001E+00    5.6494123917062691E+00    8.4955393778641728E+00
Ga   -3.2297674639043255E+00    5.6535604585166972E+00    1.0488166720373473E+01
N   -3.2276032499809659E+00    7.5228550307708080E+00    1.1097558868953572E+01
Ga   -3.2364920702186470E+00    7.5311539113110983E+00    1.3092592115778602E+01
N   -3.2188312713329847E+00    5.6430604315329713E+00    1.3669549602345780E+01
Ga   -3.1707525203216109E+00    5.6694443660054334E+00    1.5641292310727689E+01
N   -3.2619109387826266E+00    7.5168776326231699E+00    1.6222442815866632E+01
Ga   -3.4205298023923105E+00    7.4972231473391755E+00    1.8244926665212510E+01
N   -3.4872873857919862E+00    5.4246554699127971E+00    1.8542542024575603E+01
Ga    3.2559370370723699E+00    3.7311370813842067E-02    3.6561908915227193E-01
N    3.2538205421718733E+00    1.9068889145739985E+00    6.5110913809036508E-01
Ga    3.2826765122812014E+00    1.9226307333324739E+00    2.6798780859201865E+00
N    3.2557501685440746E+00    3.7407342695763263E-02    3.2749114474456000E+00
Ga    3.2561585604972030E+00    3.8286713125995568E-02    5.2837743074736911E+00
N    3.2562397832956615E+00    1.9087748685417720E+00    5.8926030034013515E+00
Ga    3.2563666370360487E+00    1.9093345234743715E+00    7.8887363954367657E+00
N    3.2543766687192259E+00    3.8016096308268216E-02    8.4939798012836913E+00
Ga    3.2537328271785038E+00    3.7121002253799100E-02    1.0485879561007989E+01
N    3.2576016324858408E+00    1.9115119966726943E+00    1.1087438858901113E+01
Ga    3.2494475337775071E+00    1.9090073560122665E+00    1.3072183581430680E+01
N    3.2522451884142520E+00    4.6983190040117868E-02    1.3690559797281120E+01
Ga    3.2404013171290722E+00    1.7136924079166310E-02    1.5686130787574136E+01
N    3.2499650036468730E+00    1.9323385854358721E+00    1.6324726766543453E+01
Ga    2.9386300860756283E+00    1.6710064049869684E+00    1.8238825931549140E+01
N    3.0870078045881293E+00   -7.1300394207272202E-02    1.8843706520765444E+01
Ga    1.6352748690487739E+00    2.8433283269311187E+00    3.6622193150686727E-01
N    1.6428123901528844E+00    4.7130614665362076E+00    6.5158064090537171E-01
Ga    1.6143658973224728E+00    4.7288197735629369E+00    2.6800781203022499E+00
N    1.6359052958523201E+00    2.8428289766253307E+00    3.2738463213818685E+00
Ga    1.6361262471679794E+00    2.8436049775341417E+00    5.2822742581839668E+00
N    1.6421172544191902E+00    4.7145036263911217E+00    5.8896008426263329E+00
Ga    1.6409123565761410E+00    4.7149374588648687E+00    7.8841501740399336E+00
N    1.6357162825720075E+00    2.8461226620508797E+00    8.4939413548679408E+00
Ga    1.6376665950997440E+00    2.8506221484279219E+00    1.0485569275428286E+01
N    1.6485462378300479E+00    4.7194701448758352E+00    1.1110334565234243E+01
Ga    1.6673066332038555E+00    4.7284847869071092E+00    1.3111165733146388E+01
N    1.6382864519602551E+00    2.8494409634763627E+00    1.3698423430412795E+01
Ga    1.6200801110052008E+00    2.8813600449375318E+00    1.5678564934591270E+01
N    1.6200702415682089E+00    4.7054441839609131E+00    1.6389100042542893E+01
Ga    1.5772705118405015E+00    4.7780735640603753E+00    1.8411821418963640E+01
N    1.5702334198415855E+00    2.8293721973852088E+00    1.8979071558328755E+01
Ga    1.6731315951756434E-02    5.6495280233409240E+00   -5.0186942224964048E-01
N    1.9182893769463583E-02    7.5240619358510017E+00    6.5172026060131560E-01
Ga    1.9047868006658412E-02    7.4919697421765727E+00    2.6800921347757591E+00
N    1.5883943249639137E-02    5.6484265271546850E+00    3.3140001090085622E+00
Ga    1.6570375270822477E-02    5.6501567450609738E+00    5.3023128536418263E+00
N    1.9763367140891580E-02    7.5241464331856056E+00    5.8942100135193929E+00
Ga    1.9916006611366943E-02    7.5224629301990502E+00    7.8911737045927000E+00
N    1.9765190029448383E-02    5.6484359500413062E+00    8.4914483845615525E+00
Ga    2.6949352228799909E-02    5.6514184383545816E+00    1.0485110610497175E+01
N    1.5172107273534905E-02    7.5200154124097605E+00    1.1092970560224996E+01
Ga    1.6186077009901958E-02    7.5217304898824846E+00    1.3086168953060110E+01
N    2.8485803090845842E-02    5.6477305155508972E+00    1.3697549738717594E+01
Ga    3.8072201408526699E-02    5.6647242008001566E+00    1.5693105389170190E+01
N   -3.7437857518681124E-03    7.5186536442524003E+00    1.6289113891783607E+01
Ga   -6.7165369086964216E-02    7.6493181306025315E+00    1.8337647133682157E+01
N   -1.0437805952546106E-01    5.7082229220203402E+00    1.8902860752348953E+01
Ga    6.5003507865122598E+00    3.7780823074571708E-02    3.6528848757216764E-01
N    6.5081514800266547E+00    1.9072719201338744E+00    6.5186722284519405E-01
Ga    6.4801365443280439E+00    1.9226260363318703E+00    2.6804111625590452E+00
N    6.5009801320636162E+00    3.7472977267935040E-02    3.2747066754521974E+00
Ga    6.5015711626845221E+00    3.8465974627423100E-02    5.2830437008587827E+00
N    6.5063929797652822E+00    1.9080259324209374E+00    5.8940807185928881E+00
Ga    6.5050059236285529E+00    1.9072829659101385E+00    7.8911196127198862E+00
N    6.5023097189240593E+00    3.7028945539982427E-02    8.5019092152017368E+00
Ga    6.5042548364011239E+00    3.2808193538908993E-02    1.0498929591278909E+01
N    6.5034982387250535E+00    1.9113557755575858E+00    1.1090246747452099E+01
Ga    6.5048407389734502E+00    1.9037172609639186E+00    1.3079341313481512E+01
N    6.4932675127447483E+00    3.5796167401525844E-02    1.3682177583085345E+01
Ga    6.4832799988151537E+00    1.1860650230861766E-02    1.5686083778828383E+01
N    6.5191036570289516E+00    1.9298015511106390E+00    1.6178092779783245E+01
Ga    6.5153451511707496E+00    1.9868373936118058E+00    1.8110883062737113E+01
N    6.3111006905204610E+00    2.7506052502426703E-01    1.8833514635281514E+01
Ga    4.8820456620823629E+00    2.8429174923942542E+00   -5.0205119650913521E-01
N    4.8842662507397296E+00    4.7185451453659795E+00    6.5127575488146994E-01
Ga    4.8841406527883899E+00    4.6863940049979744E+00    2.6799261666765881E+00
N    4.8815261015215832E+00    2.8426400009222985E+00    3.3136926667598376E+00
Ga    4.8821405771791975E+00    2.8434291612789413E+00    5.3019679260846715E+00
N    4.8847337596109819E+00    4.7183974645891844E+00    5.8911693908532214E+00
Ga    4.8848397132065129E+00    4.7171454846203646E+00    7.8865788140738049E+00
N    4.8810036169232349E+00    2.8446054975133386E+00    8.4916393754637234E+00
Ga    4.8819188436637955E+00    2.8457362987534274E+00    1.0484138450602577E+01
N    4.8834454198375763E+00    4.7172146118209843E+00    1.1098039422858903E+01
Ga    4.8763731421687160E+00    4.7245853692692341E+00    1.3087656760903648E+01
N    4.8701722808212553E+00    2.8459962266873005E+00    1.3679485098992705E+01
Ga    4.8806509610248172E+00    2.8231296765857787E+00    1.5641234167898142E+01
N    5.0171107228358212E+00    4.6609008268649736E+00    1.6402410006036877E+01
Ga    4.5007571755249813E+00    4.9828834931588846E+00    1.9401969736506043E+01
N    5.4229727778075238E+00    4.3221220128672764E+00    1.7770654759206764E+01
Ga    3.2618329678657458E+00    5.6485331013560192E+00    3.6539891873757840E-01
N    3.2594604301252259E+00    7.5180052824380761E+00    6.5112415598964923E-01
Ga    3.2881353647690617E+00    7.5341672912983269E+00    2.6794899539109660E+00
N    3.2618589321711675E+00    5.6487230954582701E+00    3.2735051347603901E+00
Ga    3.2625515926909103E+00    5.6502715703732846E+00    5.2814656809511398E+00
N    3.2622313937963097E+00    7.5197549449139229E+00    5.8931427853487701E+00
Ga    3.2625206664702304E+00    7.5198553474472600E+00    7.8895537833248897E+00
N    3.2621840336593873E+00    5.6482986434369415E+00    8.4935972426729140E+00
Ga    3.2636289451008449E+00    5.6511376126004365E+00    1.0484824463531249E+01
N    3.2646809111257618E+00    7.5108688707680367E+00    1.1115537764911664E+01
Ga    3.2622160600543970E+00    7.5006207063229073E+00    1.3124652406137304E+01
N    3.2864255594078289E+00    5.6332954233152517E+00    1.3805626016044807E+01
Ga    3.2633831660389618E+00    5.6706429022119735E+00    1.5880416293010747E+01
N    3.2306729323990022E+00    7.5520737149737158E+00    1.6324104063261476E+01
Ga    3.1009470529813421E+00    7.6907102860196330E+00    1.8441100410299200E+01
N    2.9583146023829050E+00    5.8850014466707972E+00    1.9018811522563233E+01
O    1.7806433541783411E+00    3.8124863493190442E+00    2.1187940814845597E+01
H   -8.0600066008033197E-02    5.7192079694415376E+00    1.9930930409404723E+01
C    1.4501187708361545E+00    2.6459008254671019E+00    2.0477589531709278E+01
H   -1.6883238233944831E+00    2.7891379352012953E+00    1.9801612924260969E+01
H    2.0637741548663358E+00    1.7804982055238905E+00    2.0778217540216950E+01
H    4.0452969194593957E-01    2.4142748766440745E+00    2.0733647650954016E+01
O    4.4228259329800066E+00    3.6645234625913621E+00    2.0708545182555103E+01
H    2.7765787780986240E+00    3.8459941215966400E+00    2.1216188503864124E+01
C    5.5496150299077991E+00    3.1310261762915932E+00    2.1418020679243838E+01
H    5.7844404428513654E+00    2.1155134799851170E+00    2.1054101459855584E+01
H    6.4440138926903812E+00    3.7668855864771014E+00    2.1313103151216801E+01
H    5.3059185898993571E+00    3.0708313794645039E+00    2.2488771143421168E+01
     &END COORD
     &KIND C
       BASIS_SET DZVP-MOLOPT-SR-GTH-q4
       POTENTIAL GTH-PBE-q4
       &POTENTIAL
 2 2
  0.3384712400000000E+00 2 -0.8803673979999999E+01  0.1339210850000000E+01
 2
  0.3025757500000000E+00 1  0.9622486650000001E+01
  0.2915069400000000E+00 0
         # Potential name:  GTH-PBE-Q4  for symbol:  C
         # Potential read from the potential filename: GTH_POTENTIALS
       &END POTENTIAL
     &END KIND
     &KIND O
       BASIS_SET DZVP-MOLOPT-SR-GTH-q6
       POTENTIAL GTH-PBE-q6
       &POTENTIAL
 2 4
  0.2445543000000000E+00 2 -0.1666721480000000E+02  0.2487311320000000E+01
 2
  0.2209559200000000E+00 1  0.1833745811000000E+02
  0.2113324700000000E+00 0
         # Potential name:  GTH-PBE-Q6  for symbol:  O
         # Potential read from the potential filename: GTH_POTENTIALS
       &END POTENTIAL
     &END KIND
     &KIND H
       BASIS_SET DZVP-MOLOPT-SR-GTH-q1
       POTENTIAL GTH-PBE-q1
       &POTENTIAL
 1
  0.2000000000000000E+00 2 -0.4178900440000000E+01  0.7244633100000000E+00
 0
         # Potential name:  GTH-PBE-Q1  for symbol:  H
         # Potential read from the potential filename: GTH_POTENTIALS
       &END POTENTIAL
     &END KIND
     &KIND N
       BASIS_SET DZVP-MOLOPT-SR-GTH-q5
       POTENTIAL GTH-PBE-q5
       &POTENTIAL
 2 3
  0.2837905100000000E+00 2 -0.1241522559000000E+02  0.1868095920000000E+01
 2
  0.2554050000000000E+00 1  0.1363026257000000E+02
  0.2454945300000000E+00 0
         # Potential name:  GTH-PBE-Q5  for symbol:  N
         # Potential read from the potential filename: GTH_POTENTIALS
       &END POTENTIAL
     &END KIND
     &KIND Ga
       BASIS_SET DZVP-MOLOPT-SR-GTH-q13
       POTENTIAL GTH-PBE-q13
       &POTENTIAL
 2 1 10
  0.4900000000000000E+00 0
 3
  0.4167772300000000E+00 3  0.1047568975000000E+02 -0.4921768140000000E+01  0.8707055900000000E+00
  0.7770178090000000E+01 -0.2248152160000000E+01
  0.1784415450000000E+01
  0.5696265200000000E+00 2  0.1777985340000000E+01  0.1958597600000000E+00
 -0.2317443900000000E+00
  0.2381265000000000E+00 1 -0.1624868022000000E+02
         # Potential name:  GTH-PBE-Q13  for symbol:  GA
         # Potential read from the potential filename: GTH_POTENTIALS
       &END POTENTIAL
     &END KIND
     &TOPOLOGY
       COORD_FILE_NAME ../start-first.xyz
       COORD_FILE_FORMAT  XYZ
       NUMBER_OF_ATOMS  156
       MULTIPLE_UNIT_CELL  1 1 1
     &END TOPOLOGY
     &COLVAR
       &DISTANCE
         ATOMS  32 148
       &END DISTANCE
       &PRINT
       &END PRINT
     &END COLVAR
   &END SUBSYS
 &END FORCE_EVAL
