 # Version information for this restart file 
 # current date 2019-05-28 07:57:48.127
 # current working dir /lustre03/project/6004141/rzk/GaN-carbene/334-native/08-2Methanol-Htransfer/03-CO-constraint/2.24
 # Program compiled at                              Sun Apr  7 00:48:11 EDT 2019
 # Program compiled on                          beluga2.int.ets1.calculquebec.ca
 # Program compiled for                        Beluga-Linux-x86-64-intel-openmpi
 # Source code revision number                                         svn:18619
 &GLOBAL
   PRINT_LEVEL  MEDIUM
   PROJECT_NAME TEST
   RUN_TYPE  GEO_OPT
 &END GLOBAL
 &MOTION
   &GEO_OPT
     MAX_ITER  500
     STEP_START_VAL  199
   &END GEO_OPT
   &CONSTRAINT
     &COLLECTIVE
       COLVAR  1
       INTERMOLECULAR  T
       TARGET     4.2329865376638409E+00
       &RESTRAINT
         K     1.0000000000000001E-01
       &END RESTRAINT
     &END COLLECTIVE
     &COLVAR_RESTART
           4.2329865376638409E+00
     &END COLVAR_RESTART
   &END CONSTRAINT
 &END MOTION
 &FORCE_EVAL
   METHOD  QS
   STRESS_TENSOR  ANALYTICAL
   &DFT
     BASIS_SET_FILE_NAME BASIS_MOLOPT
     POTENTIAL_FILE_NAME GTH_POTENTIALS
     &SCF
       MAX_SCF  100
       EPS_SCF     5.0000000000000004E-06
       &OT  T
         PRECONDITIONER  FULL_ALL
       &END OT
       &OUTER_SCF  T
         OPTIMIZER  NONE
         EPS_SCF     5.0000000000000004E-06
         MAX_SCF  4
       &END OUTER_SCF
       &PRINT
         &RESTART  OFF
           BACKUP_COPIES  1
           &EACH
             JUST_ENERGY  0
             QS_SCF  0
             MD  20
           &END EACH
         &END RESTART
       &END PRINT
     &END SCF
     &QS
       EPS_DEFAULT     1.0000000000000000E-14
       ALMO_SCF  F
       METHOD  GPW
     &END QS
     &MGRID
       NGRIDS  5
       CUTOFF     1.2000000000000000E+03
     &END MGRID
     &XC
       DENSITY_CUTOFF     1.0000000000000000E-10
       GRADIENT_CUTOFF     1.0000000000000000E-10
       TAU_CUTOFF     1.0000000000000000E-10
       &XC_FUNCTIONAL  NO_SHORTCUT
         &PBE  T
         &END PBE
       &END XC_FUNCTIONAL
       &VDW_POTENTIAL
         POTENTIAL_TYPE  PAIR_POTENTIAL
         &PAIR_POTENTIAL
           R_CUTOFF     1.0000000000000005E+01
           TYPE  DFTD3
           PARAMETER_FILE_NAME dftd3.dat
           REFERENCE_FUNCTIONAL PBE
           EPS_CN     9.9999999999999995E-07
           CALCULATE_C9_TERM  T
           REFERENCE_C9_TERM  T
           LONG_RANGE_CORRECTION  F
           VERBOSE_OUTPUT  F
         &END PAIR_POTENTIAL
       &END VDW_POTENTIAL
     &END XC
   &END DFT
   &SUBSYS
     &CELL
       A     9.7367653356401487E+00    0.0000000000000000E+00    0.0000000000000000E+00
       B    -4.8591341382960209E+00    8.4162672083210595E+00    0.0000000000000000E+00
       C     0.0000000000000000E+00    0.0000000000000000E+00    3.0744000000000000E+01
       MULTIPLE_UNIT_CELL  1 1 1
       &CELL_REF
         A     9.5580000000000052E+00    0.0000000000000000E+00    0.0000000000000000E+00
         B    -4.7790000000000026E+00    8.2774708093716640E+00    0.0000000000000000E+00
         C     0.0000000000000000E+00    0.0000000000000000E+00    3.0744000000000000E+01
         MULTIPLE_UNIT_CELL  1 1 1
       &END CELL_REF
     &END CELL
     &COORD
Ga    1.7643606884164980E-02   -1.1751102902166494E-02   -5.9140337783722485E-01
N    1.9816520737622054E-02    1.8639977551065523E+00    5.6343383545713022E-01
Ga    1.9845041567255032E-02    1.8310305326203444E+00    2.5909084598391652E+00
N    1.7095432161184566E-02   -1.3076709364179286E-02    3.2250679038520320E+00
Ga    1.8858239655023437E-02   -1.2148382798029782E-02    5.2129136646775693E+00
N    2.1858200762614476E-02    1.8618164347504733E+00    5.8063727832303176E+00
Ga    2.3441466777680428E-02    1.8606882369963744E+00    7.8028813064894873E+00
N    2.1396638670283161E-02   -1.2944549915724531E-02    8.4098486623815916E+00
Ga    2.5068127818064275E-02   -1.2273747692159829E-02    1.0405507685374058E+01
N    2.6230173731674154E-02    1.8582433991775880E+00    1.1014457426962476E+01
Ga    2.4570243864669123E-02    1.8568482226483880E+00    1.3012594401855496E+01
N    2.4343651371906184E-02   -9.0404669782886693E-03    1.3644275202392535E+01
Ga    5.3254807448568829E-02    7.5691032390972617E-03    1.5670375199213803E+01
N    4.4750366751492666E-02    1.8817152310018106E+00    1.6238621587545332E+01
Ga    3.6061204793310319E-04    1.9126839055985383E+00    1.8389604331222909E+01
N    4.5091293849819421E-02    4.1888500438861977E-02    1.8850246348517132E+01
Ga   -1.6025094683281988E+00    2.7931691879565306E+00    2.7674835599763647E-01
N   -1.6055921160437647E+00    4.6620842564121077E+00    5.6348938584264208E-01
Ga   -1.5761063372136417E+00    4.6779753065546927E+00    2.5908979263001557E+00
N   -1.6026380490780110E+00    2.7925220383711262E+00    3.1868610511706810E+00
Ga   -1.6007329441228957E+00    2.7932851823556102E+00    5.1945508518529895E+00
N   -1.6004017572423865E+00    4.6636343328764731E+00    5.8061656622910878E+00
Ga   -1.5978473302356508E+00    4.6639853518108296E+00    7.8021766657728149E+00
N   -1.5983021579523613E+00    2.7940829875364397E+00    8.4113201342973767E+00
Ga   -1.5944038678896923E+00    2.7950307297715566E+00    1.0405158381068322E+01
N   -1.5985136498792571E+00    4.6703683528631306E+00    1.1012113592454059E+01
Ga   -1.5964417848612287E+00    4.6631937841757196E+00    1.3002101683292118E+01
N   -1.5840009280755187E+00    2.8082467403942837E+00    1.3614502519468521E+01
Ga   -1.5511704607583976E+00    2.8248495510530409E+00    1.5626437642732768E+01
N   -1.5832035739725314E+00    4.7042277920877309E+00    1.6265048974566046E+01
Ga   -1.5643544940362153E+00    4.7397503001376133E+00    1.8338913959036017E+01
N   -1.6004548273061499E+00    2.9021476957728214E+00    1.8788693895571058E+01
Ga   -3.2231876093338347E+00    5.5986346837587257E+00    2.7681001352023615E-01
N   -3.2150886592378045E+00    7.4679247169473388E+00    5.6348882343758033E-01
Ga   -3.2431482117694759E+00    7.4832025332786767E+00    2.5909989133398788E+00
N   -3.2223603022094442E+00    5.5978096815807827E+00    3.1862964412018231E+00
Ga   -3.2201797271498158E+00    5.5982710606543797E+00    5.1934509246959237E+00
N   -3.2153624424157763E+00    7.4686103161000590E+00    5.8043301820595055E+00
Ga   -3.2157395860034037E+00    7.4692258820492681E+00    7.7994072149869949E+00
N   -3.2203436662439837E+00    5.5988163182036716E+00    8.4091435095824298E+00
Ga   -3.2177926883591943E+00    5.6024954701608491E+00    1.0399938147112236E+01
N   -3.2160276726929835E+00    7.4663200820950371E+00    1.1026921762713835E+01
Ga   -3.2226268602024510E+00    7.4739771523395317E+00    1.3025925989878408E+01
N   -3.2316876823910667E+00    5.5864121500683241E+00    1.3658265949581006E+01
Ga   -3.1219455115064272E+00    5.6694381169041463E+00    1.5637948039601602E+01
N   -3.2221434486829907E+00    7.4588971169087923E+00    1.6293308989654221E+01
Ga   -3.1797356754369415E+00    7.5604716695473284E+00    1.8449785539846744E+01
N   -2.8793718777902728E+00    5.8205212520867047E+00    1.9191900880503376E+01
Ga    3.2627654864629059E+00   -1.3188003617284399E-02    2.7592969254653316E-01
N    3.2599367728527522E+00    1.8562495054994932E+00    5.6259730031932964E-01
Ga    3.2893434424193804E+00    1.8721014250943755E+00    2.5902836515536891E+00
N    3.2629876786273182E+00   -1.2902678678322491E-02    3.1865289575406006E+00
Ga    3.2649556388301639E+00   -1.2289967830699508E-02    5.1942726887060262E+00
N    3.2649430497196636E+00    1.8576613179171659E+00    5.8074819266412447E+00
Ga    3.2669247782846904E+00    1.8577850516721579E+00    7.8045325714088234E+00
N    3.2641086696935835E+00   -1.4384444409485464E-02    8.4114079600462173E+00
Ga    3.2654470518131147E+00   -1.6712037088044574E-02    1.0405381347065438E+01
N    3.2702864786296022E+00    1.8562350757200514E+00    1.1004610724059667E+01
Ga    3.2625584229547568E+00    1.8438589826607390E+00    1.2992554740599184E+01
N    3.2627154701050247E+00   -1.7392514748625958E-02    1.3630172060486542E+01
Ga    3.2634689734879827E+00   -3.8030239216711316E-02    1.5653318496142212E+01
N    3.2715075330701664E+00    1.8699679669041747E+00    1.6176862484011437E+01
Ga    3.0394828590671059E+00    1.7844603508691630E+00    1.8149549489730550E+01
N    3.3277029900330168E+00    8.2319748785840086E-02    1.8758351194563591E+01
Ga    1.6421488328962894E+00    2.7934201252741464E+00    2.7636552358281308E-01
N    1.6497202805775719E+00    4.6628214618648034E+00    5.6247263787108859E-01
Ga    1.6211013329126436E+00    4.6780263088469312E+00    2.5905978016665219E+00
N    1.6431821362767165E+00    2.7925014058991047E+00    3.1865257451510889E+00
Ga    1.6447511774719428E+00    2.7931142714671990E+00    5.1944486239832690E+00
N    1.6497038103212818E+00    4.6635347688485211E+00    5.8059207549542728E+00
Ga    1.6496939775477597E+00    4.6636921461825604E+00    7.8019919370474105E+00
N    1.6460540635000591E+00    2.7938976071669028E+00    8.4112435535831942E+00
Ga    1.6472301996341199E+00    2.7936497749542633E+00    1.0404825154526938E+01
N    1.6540931175164988E+00    4.6695309933313256E+00    1.1008780246589522E+01
Ga    1.6510311124002923E+00    4.6674251429311786E+00    1.2995543271827481E+01
N    1.6528697721848871E+00    2.7990668229394311E+00    1.3590430280318124E+01
Ga    1.6359594410393754E+00    2.7826647093069363E+00    1.5572422634984536E+01
N    1.6416654035815561E+00    4.6831455471161787E+00    1.6173338574942392E+01
Ga    1.4467426481413070E+00    4.5191231046608928E+00    1.8094292717655957E+01
N    1.6696939280133936E+00    2.8535803812467222E+00    1.8843284513896986E+01
Ga    2.1292450465132087E-02    5.5987281165185721E+00   -5.9245882614408396E-01
N    2.6084476927648096E-02    7.4743230087425188E+00    5.6278622215555363E-01
Ga    2.5796091956556747E-02    7.4413541402854317E+00    2.5904689318488305E+00
N    2.2975260717168652E-02    5.5978457709048390E+00    3.2257026781976004E+00
Ga    2.4733321772688121E-02    5.5989274540643361E+00    5.2140141697008175E+00
N    2.8085986171429617E-02    7.4730187847241361E+00    5.8070169573211388E+00
Ga    2.9504377617624426E-02    7.4719642861238302E+00    7.8037723339447265E+00
N    2.6367889547730207E-02    5.5986077628878439E+00    8.4096228918250961E+00
Ga    2.7522926616343046E-02    5.6044067298511457E+00    1.0404962386531764E+01
N    3.1319282083571660E-02    7.4741687706242423E+00    1.1013029808707509E+01
Ga    3.0802234622929789E-02    7.4798528590505926E+00    1.3008452128371834E+01
N    2.7363646639199154E-02    5.6010740932799532E+00    1.3597843347699921E+01
Ga    9.5833258839621606E-03    5.6464111842681106E+00    1.5582654214498373E+01
N    4.6039949111058846E-02    7.4800154803568599E+00    1.6197198112157089E+01
Ga    6.4976606975381795E-02    7.6289420553149485E+00    1.8254633323453419E+01
N    1.6010284989438370E-01    5.7139885709750358E+00    1.8790895847490873E+01
Ga    6.5074586634547851E+00   -1.2338860214293038E-02    2.7624122959881758E-01
N    6.5158118431587022E+00    1.8569492082708203E+00    5.6322100238613448E-01
Ga    6.4871025255485302E+00    1.8724511497489369E+00    2.5907736018840168E+00
N    6.5081681154728788E+00   -1.3144275126033438E-02    3.1864868613213613E+00
Ga    6.5098708504325549E+00   -1.2418160800454469E-02    5.1942226100572393E+00
N    6.5156809855148783E+00    1.8576491690913361E+00    5.8071374119153178E+00
Ga    6.5163690099901190E+00    1.8579393154622836E+00    7.8038471411138959E+00
N    6.5127663333101591E+00   -1.3012778483676719E-02    8.4133672072500492E+00
Ga    6.5163336449146438E+00   -1.2135561709725139E-02    1.0408513746327989E+01
N    6.5222065936088791E+00    1.8604011507665852E+00    1.1012593914674788E+01
Ga    6.5412321688635053E+00    1.8569544441479540E+00    1.3007045153274348E+01
N    6.5233402018442472E+00   -1.6868660579404091E-02    1.3607270707301035E+01
Ga    6.5209016682051226E+00   -1.7629152158018031E-02    1.5612659543201826E+01
N    6.5527543269010247E+00    1.8699462641411797E+00    1.6124709143120512E+01
Ga    6.6264186707531527E+00    1.9826696109275475E+00    1.8127930814139283E+01
N    6.4894886378471046E+00    1.7565967836898400E-01    1.8718851590366366E+01
Ga    4.8889513895261612E+00    2.7935158491899994E+00   -5.9185646402339764E-01
N    4.8912966748679105E+00    4.6691518589043000E+00    5.6369814511677108E-01
Ga    4.8913886360383794E+00    4.6358877026492147E+00    2.5911944524530059E+00
N    4.8884391679524413E+00    2.7918192640458099E+00    3.2256932551072226E+00
Ga    4.8903985994698491E+00    2.7921934956229451E+00    5.2139697370408005E+00
N    4.8933310573940512E+00    4.6669882207906870E+00    5.8048980607915457E+00
Ga    4.8943428363359063E+00    4.6645539283306574E+00    7.8000753770095619E+00
N    4.8924757249014688E+00    2.7928757785707541E+00    8.4101971599180736E+00
Ga    4.8968920216152592E+00    2.7900858195960581E+00    1.0405221267757312E+01
N    4.8970296800457893E+00    4.6665927935469238E+00    1.1013130486562828E+01
Ga    4.8961244574553540E+00    4.6615707191721070E+00    1.2995932318375020E+01
N    4.8933634253253420E+00    2.7868223733458120E+00    1.3578619287423246E+01
Ga    4.9153739645767152E+00    2.6774586592045786E+00    1.5533527365016141E+01
N    4.7872532356323694E+00    4.5390714305849533E+00    1.6296943098513317E+01
Ga    5.5235853489525377E+00    4.8332223087874224E+00    1.9895211574632405E+01
N    5.0460980727277596E+00    3.5041467335795358E+00    1.8364095664357059E+01
Ga    3.2687826516024434E+00    5.5980798426610896E+00    2.7658872001038620E-01
N    3.2662289117835757E+00    7.4674095898670654E+00    5.6292707007107712E-01
Ga    3.2954540862685926E+00    7.4831693691851147E+00    2.5905798575484069E+00
N    3.2687152810025788E+00    5.5977291606114763E+00    3.1862177330090367E+00
Ga    3.2703161559826297E+00    5.5984518705616422E+00    5.1938031085747021E+00
N    3.2713991119735280E+00    7.4687936192433648E+00    5.8057475090777864E+00
Ga    3.2739217506548526E+00    7.4698200076098225E+00    7.8015471153044729E+00
N    3.2729831090612578E+00    5.5983643238364449E+00    8.4083391845878577E+00
Ga    3.2753336796987926E+00    5.6021710994099259E+00    1.0398537533876439E+01
N    3.2818324265675263E+00    7.4685963983169472E+00    1.1016815541058746E+01
Ga    3.2902378287215925E+00    7.4793066659112286E+00    1.3010343285038283E+01
N    3.2828907066760089E+00    5.5974322319254863E+00    1.3631187469122739E+01
Ga    3.2274065250081208E+00    5.6568809009858052E+00    1.5599878918818520E+01
N    3.2899927342062791E+00    7.4674451807533844E+00    1.6257557718788021E+01
Ga    3.2852507411570193E+00    7.9007685894631781E+00    1.8223575392252826E+01
N    4.6494404887029086E+00    4.5007452394849139E+00    1.7642617346008592E+01
O    8.9373127358462368E-01    5.3624756507580322E+00    2.1532334680940885E+01
H    2.7833231563846300E-01    5.6546801586334947E+00    1.9833815977890655E+01
C    2.6322865016729724E-01    3.4001130987081143E+00    2.1789816451564988E+01
H   -7.5650427529408859E-01    3.5338686017784422E+00    2.1430111141622056E+01
H    9.5188338546535300E-01    2.9008700947733645E+00    2.1105467447778107E+01
H    4.2132106229543381E-01    3.3208308447876691E+00    2.2862449354095126E+01
O    4.4582753322694764E+00    4.6062852009398858E+00    2.1327220410987092E+01
H    1.8540102191419459E+00    5.1706302270093936E+00    2.1527285509294252E+01
C    3.9991344654332086E+00    3.2631279336033341E+00    2.1619732510600137E+01
H    3.2844529396525721E+00    2.9023598482590556E+00    2.0861889347231156E+01
H    4.8273280848404019E+00    2.5440401602322726E+00    2.1702588163921639E+01
H    3.4894884942631705E+00    3.3151893891213096E+00    2.2592846706019476E+01
     &END COORD
     &KIND C
       BASIS_SET DZVP-MOLOPT-SR-GTH-q4
       POTENTIAL GTH-PBE-q4
       &POTENTIAL
 2 2
  0.3384712400000000E+00 2 -0.8803673979999999E+01  0.1339210850000000E+01
 2
  0.3025757500000000E+00 1  0.9622486650000001E+01
  0.2915069400000000E+00 0
         # Potential name:  GTH-PBE-Q4  for symbol:  C
         # Potential read from the potential filename: GTH_POTENTIALS
       &END POTENTIAL
     &END KIND
     &KIND O
       BASIS_SET DZVP-MOLOPT-SR-GTH-q6
       POTENTIAL GTH-PBE-q6
       &POTENTIAL
 2 4
  0.2445543000000000E+00 2 -0.1666721480000000E+02  0.2487311320000000E+01
 2
  0.2209559200000000E+00 1  0.1833745811000000E+02
  0.2113324700000000E+00 0
         # Potential name:  GTH-PBE-Q6  for symbol:  O
         # Potential read from the potential filename: GTH_POTENTIALS
       &END POTENTIAL
     &END KIND
     &KIND H
       BASIS_SET DZVP-MOLOPT-SR-GTH-q1
       POTENTIAL GTH-PBE-q1
       &POTENTIAL
 1
  0.2000000000000000E+00 2 -0.4178900440000000E+01  0.7244633100000000E+00
 0
         # Potential name:  GTH-PBE-Q1  for symbol:  H
         # Potential read from the potential filename: GTH_POTENTIALS
       &END POTENTIAL
     &END KIND
     &KIND N
       BASIS_SET DZVP-MOLOPT-SR-GTH-q5
       POTENTIAL GTH-PBE-q5
       &POTENTIAL
 2 3
  0.2837905100000000E+00 2 -0.1241522559000000E+02  0.1868095920000000E+01
 2
  0.2554050000000000E+00 1  0.1363026257000000E+02
  0.2454945300000000E+00 0
         # Potential name:  GTH-PBE-Q5  for symbol:  N
         # Potential read from the potential filename: GTH_POTENTIALS
       &END POTENTIAL
     &END KIND
     &KIND Ga
       BASIS_SET DZVP-MOLOPT-SR-GTH-q13
       POTENTIAL GTH-PBE-q13
       &POTENTIAL
 2 1 10
  0.4900000000000000E+00 0
 3
  0.4167772300000000E+00 3  0.1047568975000000E+02 -0.4921768140000000E+01  0.8707055900000000E+00
  0.7770178090000000E+01 -0.2248152160000000E+01
  0.1784415450000000E+01
  0.5696265200000000E+00 2  0.1777985340000000E+01  0.1958597600000000E+00
 -0.2317443900000000E+00
  0.2381265000000000E+00 1 -0.1624868022000000E+02
         # Potential name:  GTH-PBE-Q13  for symbol:  GA
         # Potential read from the potential filename: GTH_POTENTIALS
       &END POTENTIAL
     &END KIND
     &TOPOLOGY
       COORD_FILE_NAME ../start-first.xyz
       COORD_FILE_FORMAT  XYZ
       NUMBER_OF_ATOMS  156
       MULTIPLE_UNIT_CELL  1 1 1
     &END TOPOLOGY
     &COLVAR
       &DISTANCE
         ATOMS  145 147
       &END DISTANCE
       &PRINT
       &END PRINT
     &END COLVAR
   &END SUBSYS
 &END FORCE_EVAL
