 # Version information for this restart file 
 # current date 2019-05-28 07:56:59.294
 # current working dir /lustre03/project/6004141/rzk/GaN-carbene/334-native/08-2Methanol-Htransfer/03-CO-constraint/2.24
 # Program compiled at                              Sun Apr  7 00:48:11 EDT 2019
 # Program compiled on                          beluga2.int.ets1.calculquebec.ca
 # Program compiled for                        Beluga-Linux-x86-64-intel-openmpi
 # Source code revision number                                         svn:18619
 &GLOBAL
   PRINT_LEVEL  MEDIUM
   PROJECT_NAME TEST
   RUN_TYPE  GEO_OPT
 &END GLOBAL
 &MOTION
   &GEO_OPT
     MAX_ITER  500
     STEP_START_VAL  198
   &END GEO_OPT
   &CONSTRAINT
     &COLLECTIVE
       COLVAR  1
       INTERMOLECULAR  T
       TARGET     4.2329865376638409E+00
       &RESTRAINT
         K     1.0000000000000001E-01
       &END RESTRAINT
     &END COLLECTIVE
     &COLVAR_RESTART
           4.2329865376638409E+00
     &END COLVAR_RESTART
   &END CONSTRAINT
 &END MOTION
 &FORCE_EVAL
   METHOD  QS
   STRESS_TENSOR  ANALYTICAL
   &DFT
     BASIS_SET_FILE_NAME BASIS_MOLOPT
     POTENTIAL_FILE_NAME GTH_POTENTIALS
     &SCF
       MAX_SCF  100
       EPS_SCF     5.0000000000000004E-06
       &OT  T
         PRECONDITIONER  FULL_ALL
       &END OT
       &OUTER_SCF  T
         OPTIMIZER  NONE
         EPS_SCF     5.0000000000000004E-06
         MAX_SCF  4
       &END OUTER_SCF
       &PRINT
         &RESTART  OFF
           BACKUP_COPIES  1
           &EACH
             JUST_ENERGY  0
             QS_SCF  0
             MD  20
           &END EACH
         &END RESTART
       &END PRINT
     &END SCF
     &QS
       EPS_DEFAULT     1.0000000000000000E-14
       ALMO_SCF  F
       METHOD  GPW
     &END QS
     &MGRID
       NGRIDS  5
       CUTOFF     1.2000000000000000E+03
     &END MGRID
     &XC
       DENSITY_CUTOFF     1.0000000000000000E-10
       GRADIENT_CUTOFF     1.0000000000000000E-10
       TAU_CUTOFF     1.0000000000000000E-10
       &XC_FUNCTIONAL  NO_SHORTCUT
         &PBE  T
         &END PBE
       &END XC_FUNCTIONAL
       &VDW_POTENTIAL
         POTENTIAL_TYPE  PAIR_POTENTIAL
         &PAIR_POTENTIAL
           R_CUTOFF     1.0000000000000005E+01
           TYPE  DFTD3
           PARAMETER_FILE_NAME dftd3.dat
           REFERENCE_FUNCTIONAL PBE
           EPS_CN     9.9999999999999995E-07
           CALCULATE_C9_TERM  T
           REFERENCE_C9_TERM  T
           LONG_RANGE_CORRECTION  F
           VERBOSE_OUTPUT  F
         &END PAIR_POTENTIAL
       &END VDW_POTENTIAL
     &END XC
   &END DFT
   &SUBSYS
     &CELL
       A     9.7367653356401487E+00    0.0000000000000000E+00    0.0000000000000000E+00
       B    -4.8591341382960209E+00    8.4162672083210595E+00    0.0000000000000000E+00
       C     0.0000000000000000E+00    0.0000000000000000E+00    3.0744000000000000E+01
       MULTIPLE_UNIT_CELL  1 1 1
       &CELL_REF
         A     9.5580000000000052E+00    0.0000000000000000E+00    0.0000000000000000E+00
         B    -4.7790000000000026E+00    8.2774708093716640E+00    0.0000000000000000E+00
         C     0.0000000000000000E+00    0.0000000000000000E+00    3.0744000000000000E+01
         MULTIPLE_UNIT_CELL  1 1 1
       &END CELL_REF
     &END CELL
     &COORD
Ga    1.9088680543618917E-02   -1.2724358578534257E-02   -5.9222219242852969E-01
N    2.1355900514371844E-02    1.8629711161543185E+00    5.6302609941385273E-01
Ga    2.1486581708479547E-02    1.8308259325170346E+00    2.5905923678404990E+00
N    1.8715672515561114E-02   -1.3365064202890469E-02    3.2242995815861382E+00
Ga    2.0464880872768994E-02   -1.2095976589555184E-02    5.2119844435367026E+00
N    2.3470346772935614E-02    1.8618674996382598E+00    5.8053653970878223E+00
Ga    2.4534679883345633E-02    1.8606340148635949E+00    7.8017151464749768E+00
N    2.2665062267897246E-02   -1.2871119931676969E-02    8.4083355261632029E+00
Ga    2.5637795329466379E-02   -1.2068622434881682E-02    1.0403630236147260E+01
N    2.6546796864292562E-02    1.8583843903857946E+00    1.1012624702230360E+01
Ga    2.4590224080789640E-02    1.8577231492226536E+00    1.3010611722204166E+01
N    2.4595498707041516E-02   -8.3396735208825078E-03    1.3641760203590330E+01
Ga    5.3423450748451555E-02    9.3766710035646378E-03    1.5667386313698001E+01
N    4.4897142136459664E-02    1.8834844105132522E+00    1.6235813917709308E+01
Ga    1.1693197397090931E-03    1.9151005212120646E+00    1.8387158481683741E+01
N    4.5869124648252317E-02    4.4501746906947741E-02    1.8846461308174231E+01
Ga   -1.6009442379912031E+00    2.7921732248016204E+00    2.7556488625542619E-01
N   -1.6040811716811316E+00    4.6611941942667139E+00    5.6295061060143303E-01
Ga   -1.5742996186202811E+00    4.6775527944243693E+00    2.5904508310824812E+00
N   -1.6010930219239017E+00    2.7921576361203493E+00    3.1862716811899205E+00
Ga   -1.5991619633288694E+00    2.7932472126311030E+00    5.1938433381189553E+00
N   -1.5985877745383299E+00    4.6637199638281199E+00    5.8050424519565560E+00
Ga   -1.5966125444639461E+00    4.6640472202418506E+00    7.8008716277220440E+00
N   -1.5971843877268312E+00    2.7941834854230008E+00    8.4096943182179249E+00
Ga   -1.5938294788808356E+00    2.7953171164654731E+00    1.0403229839540835E+01
N   -1.5978031818702687E+00    4.6706552005885396E+00    1.1010374523809739E+01
Ga   -1.5962153086878008E+00    4.6639071637264378E+00    1.3000208342232940E+01
N   -1.5838617601050742E+00    2.8091997494521088E+00    1.3612552075208727E+01
Ga   -1.5512632985162975E+00    2.8266344673190726E+00    1.5624616236748841E+01
N   -1.5823311808124658E+00    4.7062705459955616E+00    1.6262500380358876E+01
Ga   -1.5645092480254179E+00    4.7422639358714376E+00    1.8336460637197508E+01
N   -1.5996014681784003E+00    2.9046374543979718E+00    1.8786068110536160E+01
Ga   -3.2217918717303369E+00    5.5977682757875975E+00    2.7556402357404064E-01
N   -3.2135787890657954E+00    7.4671116700649849E+00    5.6280312785960340E-01
Ga   -3.2415207974331546E+00    7.4828633155042485E+00    2.5903513656734987E+00
N   -3.2206088523151073E+00    5.5975157430854265E+00    3.1855503545936115E+00
Ga   -3.2185300082181656E+00    5.5983474664413126E+00    5.1926621553806696E+00
N   -3.2137872885537617E+00    7.4686883927409164E+00    5.8033534501321107E+00
Ga   -3.2145081805741946E+00    7.4692041865711687E+00    7.7981970578371040E+00
N   -3.2190621918050946E+00    5.5987989123123763E+00    8.4076436657418885E+00
Ga   -3.2172784944600239E+00    5.6024685667162766E+00    1.0398031654810527E+01
N   -3.2154956303325744E+00    7.4664490774025776E+00    1.1025099189474773E+01
Ga   -3.2219741766045757E+00    7.4746430280396243E+00    1.3024098361208692E+01
N   -3.2316411336947621E+00    5.5871390345328651E+00    1.3656077893789028E+01
Ga   -3.1204852430217334E+00    5.6717492668950742E+00    1.5635233427147137E+01
N   -3.2215656090689095E+00    7.4609662459500532E+00    1.6289992709187761E+01
Ga   -3.1782733332734110E+00    7.5642903048498109E+00    1.8445691622913355E+01
N   -2.8803862876097903E+00    5.8239758394979706E+00    1.9185915249639084E+01
Ga    3.2642682731097881E+00   -1.4007884116273673E-02    2.7466981292334286E-01
N    3.2613307167270813E+00    1.8553902774677566E+00    5.6204654677844779E-01
Ga    3.2909032053669343E+00    1.8716758340681532E+00    2.5897471415191498E+00
N    3.2646906677258514E+00   -1.3276944658454580E-02    3.1858653046958230E+00
Ga    3.2666386474835436E+00   -1.2226718769460606E-02    5.1935493734921181E+00
N    3.2666136113212234E+00    1.8576656083017973E+00    5.8065270791169112E+00
Ga    3.2682090251072800E+00    1.8578360231284798E+00    7.8033804102154338E+00
N    3.2653160460467801E+00   -1.4411099437747340E-02    8.4099111401555113E+00
Ga    3.2660895896914823E+00   -1.6617802820601935E-02    1.0403618408187400E+01
N    3.2706966419305021E+00    1.8563501135854261E+00    1.1002821021406225E+01
Ga    3.2626124181881404E+00    1.8444927727382208E+00    1.2990628825330564E+01
N    3.2628826924912375E+00   -1.6519971867887905E-02    1.3628175365954890E+01
Ga    3.2639342851954214E+00   -3.5776208817806583E-02    1.5651175984368898E+01
N    3.2715682984835768E+00    1.8722573291144218E+00    1.6173589668710729E+01
Ga    3.0420609624561865E+00    1.7892643373790336E+00    1.8146942529992426E+01
N    3.3293292320444410E+00    8.6024112320326182E-02    1.8753920770470149E+01
Ga    1.6436185749584231E+00    2.7925331818353003E+00    2.7549032063750561E-01
N    1.6512411380494592E+00    4.6619319116438778E+00    5.6232082043537324E-01
Ga    1.6229671875952192E+00    4.6775890925215542E+00    2.5903049572005590E+00
N    1.6448494195590926E+00    2.7921739632173916E+00    3.1861125855807102E+00
Ga    1.6464769616951800E+00    2.7931576133272897E+00    5.1938762793087800E+00
N    1.6514462689624754E+00    4.6636163779140771E+00    5.8049284357633493E+00
Ga    1.6509840019342978E+00    4.6637158729368613E+00    7.8007336636100000E+00
N    1.6471263306501036E+00    2.7938753313028988E+00    8.4097820616467658E+00
Ga    1.6477497410857038E+00    2.7936883340782588E+00    1.0403053110411641E+01
N    1.6546559497745454E+00    4.6697165176334456E+00    1.1006909986332428E+01
Ga    1.6513204692011452E+00    4.6680170435495807E+00    1.2993403526557637E+01
N    1.6529285612840947E+00    2.7997348092105145E+00    1.3588228121083196E+01
Ga    1.6358568235142803E+00    2.7843575082029690E+00    1.5570279826451637E+01
N    1.6419638949218816E+00    4.6847190433299115E+00    1.6171470869421423E+01
Ga    1.4452781492177988E+00    4.5209005483184557E+00    1.8092694676129529E+01
N    1.6704050386215918E+00    2.8557395588666195E+00    1.8841544350255596E+01
Ga    2.3111197771984098E-02    5.5974258048897410E+00   -5.9333654487980614E-01
N    2.7508129230568546E-02    7.4733626765849186E+00    5.6200971056045534E-01
Ga    2.7539834459771824E-02    7.4411092124257827E+00    2.5898921732536730E+00
N    2.4791160395058645E-02    5.5976005841453809E+00    3.2249191229576999E+00
Ga    2.6558560923897356E-02    5.5991219748120296E+00    5.2131659877588934E+00
N    2.9790785606703816E-02    7.4731560085853417E+00    5.8060000791214224E+00
Ga    3.0754193584200052E-02    7.4719921961780749E+00    7.8024741263355422E+00
N    2.7619787626329786E-02    5.5986307117571128E+00    8.4079454179975670E+00
Ga    2.8269092232621893E-02    5.6045150849394281E+00    1.0402829513910824E+01
N    3.1975475933311730E-02    7.4742334059136697E+00    1.1011172805625165E+01
Ga    3.0727140372861086E-02    7.4805798915520221E+00    1.3006532004818299E+01
N    2.7730277553535229E-02    5.6018780071827123E+00    1.3595618726236424E+01
Ga    1.0237949160118739E-02    5.6481478886786398E+00    1.5580292784946742E+01
N    4.6316911896324267E-02    7.4817509938661351E+00    1.6194281263458507E+01
Ga    6.6259207632519593E-02    7.6314719440274894E+00    1.8251810243654123E+01
N    1.6009566958976662E-01    5.7167869135582912E+00    1.8789572423185568E+01
Ga    6.5088797499996813E+00   -1.3250962233649195E-02    2.7490970061080761E-01
N    6.5173260004048750E+00    1.8560211269508196E+00    5.6242497109384648E-01
Ga    6.4887752036768340E+00    1.8720683756112357E+00    2.5901106613090219E+00
N    6.5098431923319007E+00   -1.3344434845565509E-02    3.1858644404013230E+00
Ga    6.5115492240095758E+00   -1.2281392955184963E-02    5.1934354645303262E+00
N    6.5171207550887056E+00    1.8578037936522522E+00    5.8061862527481214E+00
Ga    6.5174849645609276E+00    1.8581423033360258E+00    7.8027298114588053E+00
N    6.5139162796287469E+00   -1.2918043591183006E-02    8.4118452828448600E+00
Ga    6.5169163886739954E+00   -1.1898119172326773E-02    1.0406722417482294E+01
N    6.5226707620594793E+00    1.8607414904952575E+00    1.1010715484560647E+01
Ga    6.5412546978919410E+00    1.8579075215388157E+00    1.3004974975091100E+01
N    6.5235700467803746E+00   -1.5969641284473590E-02    1.3604743131396932E+01
Ga    6.5210788706961393E+00   -1.5913065062124386E-02    1.5610025955251759E+01
N    6.5527600548131506E+00    1.8714890108419038E+00    1.6122608362049437E+01
Ga    6.6278599987137774E+00    1.9843839437024882E+00    1.8126019683790158E+01
N    6.4908851899992799E+00    1.7733195904126642E-01    1.8715816462291741E+01
Ga    4.8902364377225274E+00    2.7924881835412227E+00   -5.9301538765402795E-01
N    4.8927894715162550E+00    4.6683311952329802E+00    5.6300639432530508E-01
Ga    4.8929921676139552E+00    4.6357345694360541E+00    2.5905819142910635E+00
N    4.8900901509198169E+00    2.7916431772667809E+00    3.2247252616145485E+00
Ga    4.8919495721962081E+00    2.7921695582132071E+00    5.2129691350472305E+00
N    4.8949460023230111E+00    4.6669534736072826E+00    5.8038231347194271E+00
Ga    4.8956790108258765E+00    4.6645166090197661E+00    7.7988116847884710E+00
N    4.8935442107712328E+00    2.7929111439864025E+00    8.4087968804898381E+00
Ga    4.8973199543814445E+00    2.7902518345379757E+00    1.0403444516552957E+01
N    4.8975351959688584E+00    4.6666776583078793E+00    1.1011196223865756E+01
Ga    4.8961836378216450E+00    4.6620757303864098E+00    1.2993809170216434E+01
N    4.8934680739881129E+00    2.7875280102342321E+00    1.3576502326766233E+01
Ga    4.9155994011671904E+00    2.6788003540662451E+00    1.5531252775260986E+01
N    4.7895168566832869E+00    4.5410058122671488E+00    1.6294315292336712E+01
Ga    5.5192094785145525E+00    4.8396136514855392E+00    1.9886927809338285E+01
N    5.0445052911650938E+00    3.5037604607571953E+00    1.8361234592496452E+01
Ga    3.2702501582088885E+00    5.5971491622354685E+00    2.7564319966485640E-01
N    3.2677121916582128E+00    7.4665334770495830E+00    5.6225721673209816E-01
Ga    3.2969996326544990E+00    7.4829178756317605E+00    2.5898963108717159E+00
N    3.2704694058241572E+00    5.5976146910731623E+00    3.1856864968388505E+00
Ga    3.2719887869990232E+00    5.5986781717807093E+00    5.1930668070009842E+00
N    3.2729948304204579E+00    7.4690161137611550E+00    5.8048809174950300E+00
Ga    3.2752938167511148E+00    7.4698800803483989E+00    7.8004418464078231E+00
N    3.2742894063887578E+00    5.5983658791158710E+00    8.4067401030627913E+00
Ga    3.2760214038032820E+00    5.6021342207078426E+00    1.0396586908891861E+01
N    3.2824103308821893E+00    7.4686204036873827E+00    1.1014934601394561E+01
Ga    3.2904245264726013E+00    7.4796758327908428E+00    1.3008296305481247E+01
N    3.2831782391492497E+00    5.5978278069108587E+00    1.3629366509873343E+01
Ga    3.2272745528204276E+00    5.6582637950265182E+00    1.5597957335968704E+01
N    3.2903938365510705E+00    7.4688050047342456E+00    1.6254384054188456E+01
Ga    3.2862536266685876E+00    7.9025464143762632E+00    1.8219821481265207E+01
N    4.6544062596403801E+00    4.5042012185749458E+00    1.7639790932575803E+01
O    9.0677228373271157E-01    5.3684903701677174E+00    2.1535108339958811E+01
H    2.7878169950639742E-01    5.6597652193763599E+00    1.9832315964026872E+01
C    2.7096145624562040E-01    3.4067874310962618E+00    2.1782813332669175E+01
H   -7.4685424773866982E-01    3.5431346395521808E+00    2.1417647073727551E+01
H    9.6237608258225649E-01    2.9092106116440939E+00    2.1100376227859766E+01
H    4.2216175212965307E-01    3.3217664861406480E+00    2.2855903961430958E+01
O    4.4490548352862982E+00    4.6222998892956282E+00    2.1316348709966885E+01
H    1.8660675510008686E+00    5.1746231078322555E+00    2.1523441849047298E+01
C    4.0045549440510761E+00    3.2778560447662151E+00    2.1626002632384115E+01
H    3.3147247552390131E+00    2.8876010290163632E+00    2.0860316992592267E+01
H    4.8428267367441222E+00    2.5745565430160102E+00    2.1745222715090200E+01
H    3.4685017511215332E+00    3.3408578967385218E+00    2.2583883508650949E+01
     &END COORD
     &KIND C
       BASIS_SET DZVP-MOLOPT-SR-GTH-q4
       POTENTIAL GTH-PBE-q4
       &POTENTIAL
 2 2
  0.3384712400000000E+00 2 -0.8803673979999999E+01  0.1339210850000000E+01
 2
  0.3025757500000000E+00 1  0.9622486650000001E+01
  0.2915069400000000E+00 0
         # Potential name:  GTH-PBE-Q4  for symbol:  C
         # Potential read from the potential filename: GTH_POTENTIALS
       &END POTENTIAL
     &END KIND
     &KIND O
       BASIS_SET DZVP-MOLOPT-SR-GTH-q6
       POTENTIAL GTH-PBE-q6
       &POTENTIAL
 2 4
  0.2445543000000000E+00 2 -0.1666721480000000E+02  0.2487311320000000E+01
 2
  0.2209559200000000E+00 1  0.1833745811000000E+02
  0.2113324700000000E+00 0
         # Potential name:  GTH-PBE-Q6  for symbol:  O
         # Potential read from the potential filename: GTH_POTENTIALS
       &END POTENTIAL
     &END KIND
     &KIND H
       BASIS_SET DZVP-MOLOPT-SR-GTH-q1
       POTENTIAL GTH-PBE-q1
       &POTENTIAL
 1
  0.2000000000000000E+00 2 -0.4178900440000000E+01  0.7244633100000000E+00
 0
         # Potential name:  GTH-PBE-Q1  for symbol:  H
         # Potential read from the potential filename: GTH_POTENTIALS
       &END POTENTIAL
     &END KIND
     &KIND N
       BASIS_SET DZVP-MOLOPT-SR-GTH-q5
       POTENTIAL GTH-PBE-q5
       &POTENTIAL
 2 3
  0.2837905100000000E+00 2 -0.1241522559000000E+02  0.1868095920000000E+01
 2
  0.2554050000000000E+00 1  0.1363026257000000E+02
  0.2454945300000000E+00 0
         # Potential name:  GTH-PBE-Q5  for symbol:  N
         # Potential read from the potential filename: GTH_POTENTIALS
       &END POTENTIAL
     &END KIND
     &KIND Ga
       BASIS_SET DZVP-MOLOPT-SR-GTH-q13
       POTENTIAL GTH-PBE-q13
       &POTENTIAL
 2 1 10
  0.4900000000000000E+00 0
 3
  0.4167772300000000E+00 3  0.1047568975000000E+02 -0.4921768140000000E+01  0.8707055900000000E+00
  0.7770178090000000E+01 -0.2248152160000000E+01
  0.1784415450000000E+01
  0.5696265200000000E+00 2  0.1777985340000000E+01  0.1958597600000000E+00
 -0.2317443900000000E+00
  0.2381265000000000E+00 1 -0.1624868022000000E+02
         # Potential name:  GTH-PBE-Q13  for symbol:  GA
         # Potential read from the potential filename: GTH_POTENTIALS
       &END POTENTIAL
     &END KIND
     &TOPOLOGY
       COORD_FILE_NAME ../start-first.xyz
       COORD_FILE_FORMAT  XYZ
       NUMBER_OF_ATOMS  156
       MULTIPLE_UNIT_CELL  1 1 1
     &END TOPOLOGY
     &COLVAR
       &DISTANCE
         ATOMS  145 147
       &END DISTANCE
       &PRINT
       &END PRINT
     &END COLVAR
   &END SUBSYS
 &END FORCE_EVAL
