 # Version information for this restart file 
 # current date 2019-05-28 07:58:47.849
 # current working dir /lustre03/project/6004141/rzk/GaN-carbene/334-native/08-2Methanol-Htransfer/03-CO-constraint/2.24
 # Program compiled at                              Sun Apr  7 00:48:11 EDT 2019
 # Program compiled on                          beluga2.int.ets1.calculquebec.ca
 # Program compiled for                        Beluga-Linux-x86-64-intel-openmpi
 # Source code revision number                                         svn:18619
 &GLOBAL
   PRINT_LEVEL  MEDIUM
   PROJECT_NAME TEST
   RUN_TYPE  GEO_OPT
 &END GLOBAL
 &MOTION
   &GEO_OPT
     MAX_ITER  500
     STEP_START_VAL  200
   &END GEO_OPT
   &CONSTRAINT
     &COLLECTIVE
       COLVAR  1
       INTERMOLECULAR  T
       TARGET     4.2329865376638409E+00
       &RESTRAINT
         K     1.0000000000000001E-01
       &END RESTRAINT
     &END COLLECTIVE
     &COLVAR_RESTART
           4.2329865376638409E+00
     &END COLVAR_RESTART
   &END CONSTRAINT
 &END MOTION
 &FORCE_EVAL
   METHOD  QS
   STRESS_TENSOR  ANALYTICAL
   &DFT
     BASIS_SET_FILE_NAME BASIS_MOLOPT
     POTENTIAL_FILE_NAME GTH_POTENTIALS
     &SCF
       MAX_SCF  100
       EPS_SCF     5.0000000000000004E-06
       &OT  T
         PRECONDITIONER  FULL_ALL
       &END OT
       &OUTER_SCF  T
         OPTIMIZER  NONE
         EPS_SCF     5.0000000000000004E-06
         MAX_SCF  4
       &END OUTER_SCF
       &PRINT
         &RESTART  OFF
           BACKUP_COPIES  1
           &EACH
             JUST_ENERGY  0
             QS_SCF  0
             MD  20
           &END EACH
         &END RESTART
       &END PRINT
     &END SCF
     &QS
       EPS_DEFAULT     1.0000000000000000E-14
       ALMO_SCF  F
       METHOD  GPW
     &END QS
     &MGRID
       NGRIDS  5
       CUTOFF     1.2000000000000000E+03
     &END MGRID
     &XC
       DENSITY_CUTOFF     1.0000000000000000E-10
       GRADIENT_CUTOFF     1.0000000000000000E-10
       TAU_CUTOFF     1.0000000000000000E-10
       &XC_FUNCTIONAL  NO_SHORTCUT
         &PBE  T
         &END PBE
       &END XC_FUNCTIONAL
       &VDW_POTENTIAL
         POTENTIAL_TYPE  PAIR_POTENTIAL
         &PAIR_POTENTIAL
           R_CUTOFF     1.0000000000000005E+01
           TYPE  DFTD3
           PARAMETER_FILE_NAME dftd3.dat
           REFERENCE_FUNCTIONAL PBE
           EPS_CN     9.9999999999999995E-07
           CALCULATE_C9_TERM  T
           REFERENCE_C9_TERM  T
           LONG_RANGE_CORRECTION  F
           VERBOSE_OUTPUT  F
         &END PAIR_POTENTIAL
       &END VDW_POTENTIAL
     &END XC
   &END DFT
   &SUBSYS
     &CELL
       A     9.7367653356401487E+00    0.0000000000000000E+00    0.0000000000000000E+00
       B    -4.8591341382960209E+00    8.4162672083210595E+00    0.0000000000000000E+00
       C     0.0000000000000000E+00    0.0000000000000000E+00    3.0744000000000000E+01
       MULTIPLE_UNIT_CELL  1 1 1
       &CELL_REF
         A     9.5580000000000052E+00    0.0000000000000000E+00    0.0000000000000000E+00
         B    -4.7790000000000026E+00    8.2774708093716640E+00    0.0000000000000000E+00
         C     0.0000000000000000E+00    0.0000000000000000E+00    3.0744000000000000E+01
         MULTIPLE_UNIT_CELL  1 1 1
       &END CELL_REF
     &END CELL
     &COORD
Ga    1.7732371439823001E-02   -1.1900417056996201E-02   -5.9165153021713668E-01
N    2.0061879578065087E-02    1.8638692246330892E+00    5.6369108186439687E-01
Ga    2.0138401950280840E-02    1.8309888841235717E+00    2.5912858703639392E+00
N    1.7270294658656975E-02   -1.3151927850683812E-02    3.2251565022011373E+00
Ga    1.9064904739965725E-02   -1.2077892289725931E-02    5.2130155358099328E+00
N    2.2147077836526773E-02    1.8618685547802976E+00    5.8063825832414722E+00
Ga    2.3705707989051500E-02    1.8608979873614016E+00    7.8027777148557265E+00
N    2.1659560319736690E-02   -1.2726576348541102E-02    8.4096752060772086E+00
Ga    2.5069504044882836E-02   -1.2035014933059082E-02    1.0405107963384754E+01
N    2.6214164131799382E-02    1.8584477971273947E+00    1.1014368012113991E+01
Ga    2.4454700553626450E-02    1.8571186696409883E+00    1.3012410179873012E+01
N    2.4337982001445008E-02   -8.8464481618970164E-03    1.3644213438049491E+01
Ga    5.3032132138288161E-02    7.6117842618649038E-03    1.5670358999997745E+01
N    4.4647420820103763E-02    1.8818447939221625E+00    1.6238392989017903E+01
Ga   -7.9893800166826247E-05    1.9127849087545021E+00    1.8389235155390143E+01
N    4.4566351160489501E-02    4.2069204480212362E-02    1.8850330169957406E+01
Ga   -1.6022981508474565E+00    2.7929745491717597E+00    2.7669001674507726E-01
N   -1.6053341603614952E+00    4.6619545550575481E+00    5.6376797929228917E-01
Ga   -1.5758342205738272E+00    4.6778672151865042E+00    2.5913485514126164E+00
N   -1.6023636940794661E+00    2.7924246638256558E+00    3.1871062740354770E+00
Ga   -1.6004512801733641E+00    2.7933607656640387E+00    5.1948450743477004E+00
N   -1.6001582216785066E+00    4.6637206957654564E+00    5.8062531585361521E+00
Ga   -1.5976677421578482E+00    4.6641785738626851E+00    7.8021466948741223E+00
N   -1.5980022862263563E+00    2.7942813819364534E+00    8.4112745688242647E+00
Ga   -1.5943532049785425E+00    2.7952782237808207E+00    1.0404938549363287E+01
N   -1.5985554638705146E+00    4.6706422841288333E+00    1.1012204443892641E+01
Ga   -1.5966259493245165E+00    4.6633403478299087E+00    1.3002071421303372E+01
N   -1.5841199032466216E+00    2.8083678794143760E+00    1.3614505052679398E+01
Ga   -1.5514310698628586E+00    2.8249191733775838E+00    1.5626643687594713E+01
N   -1.5835465885794060E+00    4.7041935305745399E+00    1.6264384208344023E+01
Ga   -1.5647970367195867E+00    4.7395212555713950E+00    1.8338208050091044E+01
N   -1.6011546503824499E+00    2.9019372632794740E+00    1.8788061167756315E+01
Ga   -3.2229561174987857E+00    5.5985353997789087E+00    2.7672369462601276E-01
N   -3.2148645231475257E+00    7.4678090903762593E+00    5.6360472133199002E-01
Ga   -3.2429597200729123E+00    7.4831575981642624E+00    2.5912893186545225E+00
N   -3.2221548929859005E+00    5.5977418169589930E+00    3.1864943271750779E+00
Ga   -3.2199905012466243E+00    5.5983652220258433E+00    5.1937164388410970E+00
N   -3.2151676461878114E+00    7.4687240011068621E+00    5.8043468354164816E+00
Ga   -3.2155118136722041E+00    7.4693943664546225E+00    7.7992972302700174E+00
N   -3.2201109955026936E+00    5.5990456278051557E+00    8.4091588996737112E+00
Ga   -3.2177750049931015E+00    5.6026959664310922E+00    1.0399800916319329E+01
N   -3.2160293352859401E+00    7.4665803169480354E+00    1.1026844490155943E+01
Ga   -3.2225755346202600E+00    7.4740768152908323E+00    1.3025707146403386E+01
N   -3.2319194989501736E+00    5.5865599639386936E+00    1.3658134181948446E+01
Ga   -3.1223040964108799E+00    5.6693799973692700E+00    1.5637749232893018E+01
N   -3.2223275723500899E+00    7.4587935324216739E+00    1.6293052917674579E+01
Ga   -3.1802717018060713E+00    7.5604922106524874E+00    1.8449869185368417E+01
N   -2.8803348876893393E+00    5.8200718980154154E+00    1.9190518466061061E+01
Ga    3.2629934956539870E+00   -1.3307726001329291E-02    2.7591873826064939E-01
N    3.2602299554664169E+00    1.8561260987208805E+00    5.6298183781320521E-01
Ga    3.2895685679587467E+00    1.8720321996198850E+00    2.5907467857671351E+00
N    3.2631760801722467E+00   -1.3000025707873336E-02    3.1868442488773829E+00
Ga    3.2651715724876236E+00   -1.2241258290433328E-02    5.1945772894216509E+00
N    3.2652296836209889E+00    1.8577606207507149E+00    5.8075583240828417E+00
Ga    3.2672576214982021E+00    1.8580068359726536E+00    7.8044749646200495E+00
N    3.2643256846728894E+00   -1.4182406752453169E-02    8.4113664234149130E+00
Ga    3.2655018138638288E+00   -1.6451058089601286E-02    1.0405154577792045E+01
N    3.2703251078159532E+00    1.8564901430755558E+00    1.1004466054106755E+01
Ga    3.2625092777028262E+00    1.8439393463592624E+00    1.2992232020048137E+01
N    3.2626481204927189E+00   -1.7188911491264509E-02    1.3629933956143081E+01
Ga    3.2631998297027751E+00   -3.8214790437061323E-02    1.5653267643431235E+01
N    3.2713135191034990E+00    1.8698194591734538E+00    1.6176394904367850E+01
Ga    3.0394707739882052E+00    1.7846054904316924E+00    1.8149169691359294E+01
N    3.3272772805942576E+00    8.2155087865675658E-02    1.8757933924441133E+01
Ga    1.6423976274667784E+00    2.7932718733535840E+00    2.7643072641453748E-01
N    1.6499708066777063E+00    4.6626504551056795E+00    5.6290027594094394E-01
Ga    1.6214686240112821E+00    4.6779328718228195E+00    2.5910459282727176E+00
N    1.6434377780586855E+00    2.7924589660215964E+00    3.1868312276501647E+00
Ga    1.6450548168845969E+00    2.7932003375203989E+00    5.1947308419930733E+00
N    1.6499431280419115E+00    4.6636401664688947E+00    5.8059771261362725E+00
Ga    1.6499018726894530E+00    4.6638870736964613E+00    7.8019899928065124E+00
N    1.6462998488511373E+00    2.7940520403502127E+00    8.4112000866976455E+00
Ga    1.6472594553877937E+00    2.7938909803591323E+00    1.0404548111270032E+01
N    1.6540475648809525E+00    4.6697730072896100E+00    1.1008696048542483E+01
Ga    1.6509202218034038E+00    4.6675835076562651E+00    1.2995300183545114E+01
N    1.6529014779337947E+00    2.7992011129549184E+00    1.3590310907938401E+01
Ga    1.6357893893664077E+00    2.7828279897979007E+00    1.5572209579462742E+01
N    1.6415405100758318E+00    4.6832351253376068E+00    1.6172886344052198E+01
Ga    1.4464340489982310E+00    4.5189632369675978E+00    1.8093680269760000E+01
N    1.6694302336643374E+00    2.8535072566690149E+00    1.8842920315347428E+01
Ga    2.1815213196125758E-02    5.5985504599508964E+00   -5.9239777088561507E-01
N    2.6243536307189185E-02    7.4741195893170032E+00    5.6317650901000560E-01
Ga    2.6044756959466335E-02    7.4413178006450673E+00    2.5909609484219338E+00
N    2.3260843171932877E-02    5.5977714974098562E+00    3.2259818952475650E+00
Ga    2.4974980166818851E-02    5.5989956732206805E+00    5.2142894241438951E+00
N    2.8334630677768910E-02    7.4731128109450493E+00    5.8070617643301059E+00
Ga    2.9748252664937240E-02    7.4721021976978799E+00    7.8036673414486044E+00
N    2.6577285119088676E-02    5.5988115619744763E+00    8.4095575875100508E+00
Ga    2.7497397789807157E-02    5.6045904123796308E+00    1.0404708812077418E+01
N    3.1486962074064297E-02    7.4743780363235439E+00    1.1012895578544551E+01
Ga    3.0705860952398169E-02    7.4799955744805784E+00    1.3008216448688852E+01
N    2.7235106025740703E-02    5.6012144220185309E+00    1.3597702036076077E+01
Ga    9.2717253633856841E-03    5.6462966081938442E+00    1.5582373422108203E+01
N    4.5679019881428244E-02    7.4797737594146465E+00    1.6196975194163478E+01
Ga    6.4440753803497258E-02    7.6283651177503691E+00    1.8254559901553588E+01
N    1.5966011727586432E-01    5.7134165916620931E+00    1.8790640407065325E+01
Ga    6.5076083769080242E+00   -1.2517317058360414E-02    2.7633399948374709E-01
N    6.5159253060528615E+00    1.8568667623327397E+00    5.6357610048768814E-01
Ga    6.4873549692335892E+00    1.8722986933113761E+00    2.5912287024572760E+00
N    6.5084613052985381E+00   -1.3259518127020010E-02    3.1867351211721626E+00
Ga    6.5101367277037001E+00   -1.2361470752616953E-02    5.1944766638667819E+00
N    6.5159549612263366E+00    1.8577121028835111E+00    5.8071694652918362E+00
Ga    6.5166700289509150E+00    1.8581663932528556E+00    7.8038161126885788E+00
N    6.5130495137404179E+00   -1.2815846634728706E-02    8.4131578882731048E+00
Ga    6.5164147823264562E+00   -1.1861297520538177E-02    1.0408176585385336E+01
N    6.5222853038483617E+00    1.8606137963025930E+00    1.1012510282957754E+01
Ga    6.5412217593719060E+00    1.8571254612997887E+00    1.3006866168607147E+01
N    6.5232423814847609E+00   -1.6728054940192541E-02    1.3607051149734891E+01
Ga    6.5205344752018251E+00   -1.7875389498241936E-02    1.5612577146214001E+01
N    6.5524067266947936E+00    1.8696366111335565E+00    1.6124484927875734E+01
Ga    6.6258369974565907E+00    1.9823190736943450E+00    1.8127880636124221E+01
N    6.4887571113802167E+00    1.7535735980099196E-01    1.8719255141900643E+01
Ga    4.8890558300006113E+00    2.7933765153155474E+00   -5.9170765007940374E-01
N    4.8915556713066728E+00    4.6688983132558972E+00    5.6391874939271325E-01
Ga    4.8915563021270607E+00    4.6358397377764859E+00    2.5915282109357642E+00
N    4.8887054547727073E+00    2.7917706583841206E+00    3.2259540170879761E+00
Ga    4.8906862741029489E+00    2.7922997797263069E+00    5.2142788800586990E+00
N    4.8935830751207314E+00    4.6670747182591841E+00    5.8049816746161120E+00
Ga    4.8946170086856302E+00    4.6647311720290450E+00    7.8001239236452236E+00
N    4.8927487497981392E+00    2.7930489571006807E+00    8.4102218005908931E+00
Ga    4.8969879813106463E+00    2.7903277153083170E+00    1.0405054007477656E+01
N    4.8970296888580140E+00    4.6667754957480190E+00    1.1013079237661749E+01
Ga    4.8960718859892012E+00    4.6616485469286850E+00    1.2995681097673657E+01
N    4.8933004696028153E+00    2.7869378584328879E+00    1.3578472027728495E+01
Ga    4.9151416144078537E+00    2.6774184849101785E+00    1.5533196628069778E+01
N    4.7872219291636577E+00    4.5393197045382045E+00    1.6296681554506922E+01
Ga    5.5236903004735378E+00    4.8318615902816893E+00    1.9894556878778229E+01
N    5.0447841978005368E+00    3.5036729440712988E+00    1.8363407377907457E+01
Ga    3.2690120288032758E+00    5.5979050232064900E+00    2.7661043848285510E-01
N    3.2664420000406871E+00    7.4672713299049587E+00    5.6309180777543344E-01
Ga    3.2956502817901803E+00    7.4830077798675925E+00    2.5908397352780610E+00
N    3.2689569487488823E+00    5.5976897462989941E+00    3.1864882735642768E+00
Ga    3.2705527075137324E+00    5.5985532796581392E+00    5.1940737786193782E+00
N    3.2716545725531270E+00    7.4689077063415406E+00    5.8056933626606044E+00
Ga    3.2742306416084657E+00    7.4699755065987157E+00    7.8014555431527945E+00
N    3.2732119536360416E+00    5.5985751279109639E+00    8.4082739513557296E+00
Ga    3.2754128506192086E+00    5.6023945516236298E+00    1.0398335631754772E+01
N    3.2819329422193584E+00    7.4688349398204572E+00    1.1016650625203011E+01
Ga    3.2902549042811646E+00    7.4794682849284522E+00    1.3010124018459395E+01
N    3.2827655282333872E+00    5.5975838149489947E+00    1.3631062648293048E+01
Ga    3.2271343575913685E+00    5.6570077001878856E+00    1.5599682633633007E+01
N    3.2896828553536599E+00    7.4674783118265147E+00    1.6257495212283974E+01
Ga    3.2846836677320783E+00    7.9009122697006733E+00    1.8223879183737719E+01
N    4.6489507042788585E+00    4.5010664360140886E+00    1.7642184816938038E+01
O    8.9466317177815957E-01    5.3624302731733433E+00    2.1532473832395997E+01
H    2.7801191978539247E-01    5.6541223440160087E+00    1.9833703390590575E+01
C    2.6416599785396816E-01    3.3997439869182520E+00    2.1789098474933255E+01
H   -7.5567894851925610E-01    3.5335384576190565E+00    2.1429235105102379E+01
H    9.5254372633576134E-01    2.9004895174676237E+00    2.1104630118620715E+01
H    4.2247079334193693E-01    3.3199780010751829E+00    2.2861758320595996E+01
O    4.4589411385961446E+00    4.6065299569689078E+00    2.1326943040843158E+01
H    1.8548723316452307E+00    5.1710566378552425E+00    2.1526598048149346E+01
C    3.9988769410316594E+00    3.2634840327161654E+00    2.1619523947083930E+01
H    3.2859568076655803E+00    2.9018989614867032E+00    2.0862054494183774E+01
H    4.8269175855550017E+00    2.5442831321971306E+00    2.1703615887726482E+01
H    3.4880266795520956E+00    3.3153673439433979E+00    2.2591591944534493E+01
     &END COORD
     &KIND C
       BASIS_SET DZVP-MOLOPT-SR-GTH-q4
       POTENTIAL GTH-PBE-q4
       &POTENTIAL
 2 2
  0.3384712400000000E+00 2 -0.8803673979999999E+01  0.1339210850000000E+01
 2
  0.3025757500000000E+00 1  0.9622486650000001E+01
  0.2915069400000000E+00 0
         # Potential name:  GTH-PBE-Q4  for symbol:  C
         # Potential read from the potential filename: GTH_POTENTIALS
       &END POTENTIAL
     &END KIND
     &KIND O
       BASIS_SET DZVP-MOLOPT-SR-GTH-q6
       POTENTIAL GTH-PBE-q6
       &POTENTIAL
 2 4
  0.2445543000000000E+00 2 -0.1666721480000000E+02  0.2487311320000000E+01
 2
  0.2209559200000000E+00 1  0.1833745811000000E+02
  0.2113324700000000E+00 0
         # Potential name:  GTH-PBE-Q6  for symbol:  O
         # Potential read from the potential filename: GTH_POTENTIALS
       &END POTENTIAL
     &END KIND
     &KIND H
       BASIS_SET DZVP-MOLOPT-SR-GTH-q1
       POTENTIAL GTH-PBE-q1
       &POTENTIAL
 1
  0.2000000000000000E+00 2 -0.4178900440000000E+01  0.7244633100000000E+00
 0
         # Potential name:  GTH-PBE-Q1  for symbol:  H
         # Potential read from the potential filename: GTH_POTENTIALS
       &END POTENTIAL
     &END KIND
     &KIND N
       BASIS_SET DZVP-MOLOPT-SR-GTH-q5
       POTENTIAL GTH-PBE-q5
       &POTENTIAL
 2 3
  0.2837905100000000E+00 2 -0.1241522559000000E+02  0.1868095920000000E+01
 2
  0.2554050000000000E+00 1  0.1363026257000000E+02
  0.2454945300000000E+00 0
         # Potential name:  GTH-PBE-Q5  for symbol:  N
         # Potential read from the potential filename: GTH_POTENTIALS
       &END POTENTIAL
     &END KIND
     &KIND Ga
       BASIS_SET DZVP-MOLOPT-SR-GTH-q13
       POTENTIAL GTH-PBE-q13
       &POTENTIAL
 2 1 10
  0.4900000000000000E+00 0
 3
  0.4167772300000000E+00 3  0.1047568975000000E+02 -0.4921768140000000E+01  0.8707055900000000E+00
  0.7770178090000000E+01 -0.2248152160000000E+01
  0.1784415450000000E+01
  0.5696265200000000E+00 2  0.1777985340000000E+01  0.1958597600000000E+00
 -0.2317443900000000E+00
  0.2381265000000000E+00 1 -0.1624868022000000E+02
         # Potential name:  GTH-PBE-Q13  for symbol:  GA
         # Potential read from the potential filename: GTH_POTENTIALS
       &END POTENTIAL
     &END KIND
     &TOPOLOGY
       COORD_FILE_NAME ../start-first.xyz
       COORD_FILE_FORMAT  XYZ
       NUMBER_OF_ATOMS  156
       MULTIPLE_UNIT_CELL  1 1 1
     &END TOPOLOGY
     &COLVAR
       &DISTANCE
         ATOMS  145 147
       &END DISTANCE
       &PRINT
       &END PRINT
     &END COLVAR
   &END SUBSYS
 &END FORCE_EVAL
