 # Version information for this restart file 
 # current date 2019-05-27 21:09:05.649
 # current working dir /lustre03/project/6004141/rzk/GaN-carbene/334-native/08-2Methanol-Htransfer/01-Constraint/0.96
 # Program compiled at                              Sun Apr  7 00:48:11 EDT 2019
 # Program compiled on                          beluga2.int.ets1.calculquebec.ca
 # Program compiled for                        Beluga-Linux-x86-64-intel-openmpi
 # Source code revision number                                         svn:18619
 &GLOBAL
   PRINT_LEVEL  MEDIUM
   PROJECT_NAME TEST
   RUN_TYPE  GEO_OPT
 &END GLOBAL
 &MOTION
   &GEO_OPT
     MAX_ITER  500
     STEP_START_VAL  267
   &END GEO_OPT
   &CONSTRAINT
     &COLLECTIVE
       COLVAR  1
       INTERMOLECULAR  T
       TARGET     1.8141370875702172E+00
       &RESTRAINT
         K     1.0000000000000001E-01
       &END RESTRAINT
     &END COLLECTIVE
     &COLVAR_RESTART
           1.8141370875702172E+00
     &END COLVAR_RESTART
   &END CONSTRAINT
 &END MOTION
 &FORCE_EVAL
   METHOD  QS
   STRESS_TENSOR  ANALYTICAL
   &DFT
     BASIS_SET_FILE_NAME BASIS_MOLOPT
     POTENTIAL_FILE_NAME GTH_POTENTIALS
     &SCF
       MAX_SCF  100
       EPS_SCF     5.0000000000000004E-06
       &OT  T
         PRECONDITIONER  FULL_ALL
       &END OT
       &OUTER_SCF  T
         OPTIMIZER  NONE
         EPS_SCF     5.0000000000000004E-06
         MAX_SCF  4
       &END OUTER_SCF
       &PRINT
         &RESTART  OFF
           BACKUP_COPIES  1
           &EACH
             JUST_ENERGY  0
             QS_SCF  0
             MD  20
           &END EACH
         &END RESTART
       &END PRINT
     &END SCF
     &QS
       EPS_DEFAULT     1.0000000000000000E-14
       ALMO_SCF  F
       METHOD  GPW
     &END QS
     &MGRID
       NGRIDS  5
       CUTOFF     1.2000000000000000E+03
     &END MGRID
     &XC
       DENSITY_CUTOFF     1.0000000000000000E-10
       GRADIENT_CUTOFF     1.0000000000000000E-10
       TAU_CUTOFF     1.0000000000000000E-10
       &XC_FUNCTIONAL  NO_SHORTCUT
         &PBE  T
         &END PBE
       &END XC_FUNCTIONAL
       &VDW_POTENTIAL
         POTENTIAL_TYPE  PAIR_POTENTIAL
         &PAIR_POTENTIAL
           R_CUTOFF     1.0000000000000005E+01
           TYPE  DFTD3
           PARAMETER_FILE_NAME dftd3.dat
           REFERENCE_FUNCTIONAL PBE
           EPS_CN     9.9999999999999995E-07
           CALCULATE_C9_TERM  T
           REFERENCE_C9_TERM  T
           LONG_RANGE_CORRECTION  F
           VERBOSE_OUTPUT  F
         &END PAIR_POTENTIAL
       &END VDW_POTENTIAL
     &END XC
   &END DFT
   &SUBSYS
     &CELL
       A     9.7367653356401487E+00    0.0000000000000000E+00    0.0000000000000000E+00
       B    -4.8591341382960209E+00    8.4162672083210595E+00    0.0000000000000000E+00
       C     0.0000000000000000E+00    0.0000000000000000E+00    3.0744000000000000E+01
       MULTIPLE_UNIT_CELL  1 1 1
       &CELL_REF
         A     9.5580000000000052E+00    0.0000000000000000E+00    0.0000000000000000E+00
         B    -4.7790000000000026E+00    8.2774708093716640E+00    0.0000000000000000E+00
         C     0.0000000000000000E+00    0.0000000000000000E+00    3.0744000000000000E+01
         MULTIPLE_UNIT_CELL  1 1 1
       &END CELL_REF
     &END CELL
     &COORD
Ga   -1.7476670667533299E-02   -3.2490228747573478E-02   -4.5277100606972215E-01
N   -1.5207459935174326E-02    1.8422468320955647E+00    7.0266788380401046E-01
Ga   -1.5881185968288591E-02    1.8103001184273686E+00    2.7305870647793506E+00
N   -1.8828989771859050E-02   -3.3589139063525286E-02    3.3639341671365259E+00
Ga   -1.8359589799245495E-02   -3.1692644845951697E-02    5.3515169916428498E+00
N   -1.5588203168642645E-02    1.8418955502822969E+00    5.9450805823167547E+00
Ga   -1.6478965885532073E-02    1.8410498539328108E+00    7.9413026402924443E+00
N   -1.7965386151486486E-02   -3.2755691976878394E-02    8.5459896581761274E+00
Ga   -1.5143853488790758E-02   -3.2398836177363742E-02    1.0540124810971816E+01
N   -1.1697641392961122E-02    1.8378771416781556E+00    1.1148385642421855E+01
Ga   -1.0268959397985441E-02    1.8353395117686913E+00    1.3143722961067164E+01
N   -1.9722191970517260E-02   -1.7715994734991337E-02    1.3805978598185943E+01
Ga   -2.1255974751471771E-03    3.2435116782678170E-03    1.5856160270199473E+01
N   -3.9511314822974104E-02    1.8926995410632008E+00    1.6439435307400601E+01
Ga   -9.1882585040920797E-02    1.9332678374365184E+00    1.8636631584086604E+01
N   -4.7516899918638819E-02    5.6400803664470756E-02    1.9005897342052616E+01
Ga   -1.6374299759990436E+00    2.7713444962560145E+00    4.1527141056192057E-01
N   -1.6401010277985320E+00    4.6406847711087300E+00    7.0202058574755433E-01
Ga   -1.6114222944175962E+00    4.6568048244723732E+00    2.7302006689774108E+00
N   -1.6385329376526379E+00    2.7717640086083448E+00    3.3262885785147311E+00
Ga   -1.6380204457022236E+00    2.7731253220818246E+00    5.3344685639001082E+00
N   -1.6375187698183868E+00    4.6435910923741597E+00    5.9457896313762255E+00
Ga   -1.6363430929395424E+00    4.6444711942598875E+00    7.9423095387039702E+00
N   -1.6374732489353474E+00    2.7742684416397965E+00    8.5509757798661372E+00
Ga   -1.6354079769838863E+00    2.7754234067344283E+00    1.0545353087832030E+01
N   -1.6386729297376734E+00    4.6532678639084377E+00    1.1144438775466107E+01
Ga   -1.6383555574707591E+00    4.6541369968438984E+00    1.3131956474847561E+01
N   -1.6275093278037338E+00    2.7879283902017225E+00    1.3710615631365183E+01
Ga   -1.5927988321677800E+00    2.7938288165533014E+00    1.5694434055956549E+01
N   -1.6114737924836728E+00    4.6876096630878354E+00    1.6277055679476291E+01
Ga   -1.5849445180621735E+00    4.8232118449877834E+00    1.8229458906224789E+01
N   -1.8349527170111064E+00    3.0071706984152828E+00    1.8983385235079904E+01
Ga   -3.2582002397863148E+00    5.5774381959796733E+00    4.1588102951483263E-01
N   -3.2503876994219736E+00    7.4468565176524848E+00    7.0250432391012552E-01
Ga   -3.2793011398186795E+00    7.4627109973134980E+00    2.7304040019080871E+00
N   -3.2580482113037332E+00    5.5769115927042643E+00    3.3251869121879722E+00
Ga   -3.2575466893197711E+00    5.5780312762591491E+00    5.3329964282622306E+00
N   -3.2528850459910545E+00    7.4487191302768494E+00    5.9424309648828908E+00
Ga   -3.2548117389383959E+00    7.4494825761811061E+00    7.9370858372723081E+00
N   -3.2594351693342194E+00    5.5798443715785542E+00    8.5473073048365151E+00
Ga   -3.2594422020499914E+00    5.5846618669202561E+00    1.0538190146800183E+01
N   -3.2598402052236404E+00    7.4486662624266247E+00    1.1167617632117654E+01
Ga   -3.2716068668437130E+00    7.4620158509708903E+00    1.3170458279968365E+01
N   -3.2789689642057560E+00    5.5704436626660172E+00    1.3777741100016668E+01
Ga   -3.2139886317856239E+00    5.6512934730491171E+00    1.5758990673020438E+01
N   -3.2817668650674459E+00    7.4317897527140788E+00    1.6455575045660503E+01
Ga   -3.2788914882639806E+00    7.4982836790508074E+00    1.8676081141824472E+01
N   -2.9154164736556769E+00    5.7117278427346987E+00    1.9251177593512498E+01
Ga    3.2274569620840667E+00   -3.3762683055899620E-02    4.1578496914798913E-01
N    3.2248422025237100E+00    1.8354813774838648E+00    7.0267015612789130E-01
Ga    3.2532504475256725E+00    1.8515055257532680E+00    2.7305907939423690E+00
N    3.2270736768666946E+00   -3.3829131770672108E-02    3.3256475385528295E+00
Ga    3.2275905964012304E+00   -3.2344910628444835E-02    5.3334028377222449E+00
N    3.2275986986721543E+00    1.8375112683878370E+00    5.9450192889275062E+00
Ga    3.2278937972564186E+00    1.8370920056503746E+00    7.9409973931579820E+00
N    3.2240346295307387E+00   -3.3700944062631119E-02    8.5497034494829709E+00
Ga    3.2198568872758173E+00   -3.4250869192790662E-02    1.0543526688887411E+01
N    3.2239783846389591E+00    1.8368515547539788E+00    1.1149324314285575E+01
Ga    3.2068305587970025E+00    1.8247837185383495E+00    1.3141825916094096E+01
N    3.2151880053522963E+00   -3.6148844314951016E-02    1.3777839640367249E+01
Ga    3.1928883501191936E+00   -5.4754501608401389E-02    1.5811382650601649E+01
N    3.2093019767833777E+00    1.8519744717220317E+00    1.6353835798366013E+01
Ga    2.9302548842818892E+00    1.7723108718991494E+00    1.8347640898370297E+01
N    3.2305667474969901E+00    5.5206621309780969E-02    1.8918806062086738E+01
Ga    1.6069645295777988E+00    2.7717969719207627E+00    4.1565627342795769E-01
N    1.6149296083923079E+00    4.6411095968093958E+00    7.0286507929544684E-01
Ga    1.5859227419365829E+00    4.6568013638661085E+00    2.7306799493160909E+00
N    1.6071376442322169E+00    2.7716475011297148E+00    3.3261676210400921E+00
Ga    1.6074586557862605E+00    2.7728609784607992E+00    5.3340133766391045E+00
N    1.6128436693838184E+00    4.6435962234155648E+00    5.9438484251650419E+00
Ga    1.6111195219540435E+00    4.6448755233163377E+00    7.9392596558991997E+00
N    1.6071992362856460E+00    2.7743119865517749E+00    8.5462011591322113E+00
Ga    1.6073078366029676E+00    2.7731659521350998E+00    1.0537301700778283E+01
N    1.6160721576903532E+00    4.6468875151287614E+00    1.1146700177229802E+01
Ga    1.6167206507012470E+00    4.6434644312540643E+00    1.3133043334928503E+01
N    1.6015681676655782E+00    2.7831407365531677E+00    1.3762146904858037E+01
Ga    1.5750516144586251E+00    2.7797595827168040E+00    1.5762689914547551E+01
N    1.6206567889219745E+00    4.6852344477709522E+00    1.6349823792704985E+01
Ga    1.4762297225825107E+00    4.5813051593585801E+00    1.8297550854949250E+01
N    1.5693052494893287E+00    2.8780224158996677E+00    1.9020053367667963E+01
Ga   -1.1467528919312261E-02    5.5771347666820619E+00   -4.5278494385211293E-01
N   -9.1433581917443867E-03    7.4531937516324813E+00    7.0237616247589374E-01
Ga   -9.6844895074787770E-03    7.4208525780894323E+00    2.7302890043373576E+00
N   -1.2670599712568884E-02    5.5771331331751561E+00    3.3648152850109949E+00
Ga   -1.2300751620435313E-02    5.5788289611940396E+00    5.3530013166601922E+00
N   -9.3331999452636281E-03    7.4531560075873555E+00    5.9464950439461992E+00
Ga   -9.3682247243757379E-03    7.4522944970386140E+00    7.9436450506184100E+00
N   -1.1355379800722546E-02    5.5787344451139580E+00    8.5476475216121575E+00
Ga   -1.1081016800564020E-02    5.5838423197334155E+00    1.0542241832834236E+01
N   -1.3139016586153943E-02    7.4559619438537288E+00    1.1144338385793072E+01
Ga   -1.8272703499249438E-02    7.4658649705101849E+00    1.3136192413830745E+01
N   -3.9923268120955297E-03    5.5866116384544808E+00    1.3716375197336410E+01
Ga    5.6167654899965773E-03    5.6406972398135942E+00    1.5688737247403447E+01
N   -5.4608175265981581E-03    7.4696837333936958E+00    1.6326779603588015E+01
Ga   -1.4650545943314944E-02    7.6528012185886594E+00    1.8373508272386790E+01
N    7.4437347904471707E-02    5.7187777818876748E+00    1.8871081652548753E+01
Ga    6.4723756870495750E+00   -3.3249522176855555E-02    4.1545056462117436E-01
N    6.4802791331084411E+00    1.8362069204152034E+00    7.0211702400088827E-01
Ga    6.4514077758942063E+00    1.8517018586220606E+00    2.7302286148944206E+00
N    6.4724182519835969E+00   -3.3586444210939891E-02    3.3259362609475898E+00
Ga    6.4727819778570517E+00   -3.2012895109838464E-02    5.3340714580955773E+00
N    6.4782726821709185E+00    1.8377808681289167E+00    5.9470410479168434E+00
Ga    6.4776665255607364E+00    1.8373599452663973E+00    7.9443720382529293E+00
N    6.4745587933723421E+00   -3.3964418495103420E-02    8.5518835613221587E+00
Ga    6.4766123679144041E+00   -3.3861946053208046E-02    1.0546997255666545E+01
N    6.4780293280461594E+00    1.8393419465358558E+00    1.1144215756794509E+01
Ga    6.4894862445464216E+00    1.8313014939214542E+00    1.3135149687647873E+01
N    6.4808727880411299E+00   -4.5161154613473573E-02    1.3726130238403492E+01
Ga    6.4861211996953116E+00   -6.0482503306307327E-02    1.5723217314640509E+01
N    6.5206421269523691E+00    1.8325352095373608E+00    1.6187596683649861E+01
Ga    6.5152221619247408E+00    1.9167405456701960E+00    1.8153065025126686E+01
N    6.4187369010448805E+00    1.7485195788440686E-01    1.8857770146114234E+01
Ga    4.8525532709447923E+00    2.7718545531718872E+00   -4.5303801261962962E-01
N    4.8562904312263191E+00    4.6474932420814303E+00    7.0236008327007571E-01
Ga    4.8555609228534582E+00    4.6148747728696158E+00    2.7303671776746938E+00
N    4.8527070365251408E+00    2.7710928217279451E+00    3.3648567526617801E+00
Ga    4.8533173321416827E+00    2.7720947581069857E+00    5.3530338052710320E+00
N    4.8560936706439168E+00    4.6467030607546480E+00    5.9441495130118573E+00
Ga    4.8557697625966654E+00    4.6445054679601494E+00    7.9396497899709990E+00
N    4.8519059475023711E+00    2.7717219896382539E+00    8.5477823569323039E+00
Ga    4.8513269929953085E+00    2.7672926176964880E+00    1.0542125085013410E+01
N    4.8562074846876886E+00    4.6435103197383096E+00    1.1145131273134062E+01
Ga    4.8544731635013623E+00    4.6370299217499786E+00    1.3125709557984298E+01
N    4.8432714235528476E+00    2.7619495150412945E+00    1.3711517685090328E+01
Ga    4.8515439805742897E+00    2.6532961807202722E+00    1.5667094274585113E+01
N    4.8161820828255246E+00    4.5081939897831269E+00    1.6429644852950783E+01
Ga    6.5104588118096647E+00    4.1172437676006846E+00    2.0132821553834084E+01
N    5.0195280230878838E+00    3.3251440993796266E+00    1.8445759228513030E+01
Ga    3.2338113011195500E+00    5.5767783147673393E+00    4.1608485206350859E-01
N    3.2312856048396617E+00    7.4463677805993687E+00    7.0191914783744003E-01
Ga    3.2597835572766485E+00    7.4627325062256613E+00    2.7300065168838414E+00
N    3.2332550811944825E+00    5.5771924966719606E+00    3.3251594429853295E+00
Ga    3.2337187845919426E+00    5.5783786232368797E+00    5.3329254086210325E+00
N    3.2343077611389561E+00    7.4488940061457081E+00    5.9437178449221948E+00
Ga    3.2349147258320659E+00    7.4500519957476836E+00    7.9391903145558436E+00
N    3.2340025233901044E+00    5.5789414000596222E+00    8.5457559561278860E+00
Ga    3.2361687100054377E+00    5.5814140150880833E+00    1.0535060792084479E+01
N    3.2442983601857929E+00    7.4475016066209605E+00    1.1156320960993678E+01
Ga    3.2574944144966662E+00    7.4590531470767356E+00    1.3151855669529253E+01
N    3.2486149618971498E+00    5.5737607942863177E+00    1.3772179369922839E+01
Ga    3.2154225150428135E+00    5.6239965427951679E+00    1.5742540825635459E+01
N    3.2441305510102203E+00    7.4387613951631240E+00    1.6399928339786971E+01
Ga    3.2004596055082506E+00    7.8275064675689663E+00    1.8386743137339799E+01
N    4.7019626967179153E+00    4.3804995478364264E+00    1.7814329155434528E+01
O    3.1061165391499030E+00    5.7958103099543701E+00    1.9145753951254850E+01
H   -5.1858939650884513E-02    5.6527558636924562E+00    1.9887710496679070E+01
C    3.2607857060998242E+00    5.7267251490001758E+00    2.0613741921553167E+01
H    2.3865655818299216E+00    6.2194828514935274E+00    2.1050435480871656E+01
H    3.3198523374669904E+00    4.6738884523954516E+00    2.0912275581502172E+01
H    4.1742459410484756E+00    6.2720695865768787E+00    2.0880257969321271E+01
O    5.8244381067342896E+00    3.5622626745174393E+00    2.1710594308296855E+01
H    3.8895138418417394E+00    5.3281041268014295E+00    1.8678891995609458E+01
C    5.4587487463903912E+00    2.1709894152921523E+00    2.1822076911924157E+01
H    4.5126104729557719E+00    1.9578319042862908E+00    2.1296234950911696E+01
H    6.2274285152788398E+00    1.4923262382935032E+00    2.1419810959946229E+01
H    5.3200558119195804E+00    1.9564538633067696E+00    2.2891234925296384E+01
     &END COORD
     &KIND C
       BASIS_SET DZVP-MOLOPT-SR-GTH-q4
       POTENTIAL GTH-PBE-q4
       &POTENTIAL
 2 2
  0.3384712400000000E+00 2 -0.8803673979999999E+01  0.1339210850000000E+01
 2
  0.3025757500000000E+00 1  0.9622486650000001E+01
  0.2915069400000000E+00 0
         # Potential name:  GTH-PBE-Q4  for symbol:  C
         # Potential read from the potential filename: GTH_POTENTIALS
       &END POTENTIAL
     &END KIND
     &KIND O
       BASIS_SET DZVP-MOLOPT-SR-GTH-q6
       POTENTIAL GTH-PBE-q6
       &POTENTIAL
 2 4
  0.2445543000000000E+00 2 -0.1666721480000000E+02  0.2487311320000000E+01
 2
  0.2209559200000000E+00 1  0.1833745811000000E+02
  0.2113324700000000E+00 0
         # Potential name:  GTH-PBE-Q6  for symbol:  O
         # Potential read from the potential filename: GTH_POTENTIALS
       &END POTENTIAL
     &END KIND
     &KIND H
       BASIS_SET DZVP-MOLOPT-SR-GTH-q1
       POTENTIAL GTH-PBE-q1
       &POTENTIAL
 1
  0.2000000000000000E+00 2 -0.4178900440000000E+01  0.7244633100000000E+00
 0
         # Potential name:  GTH-PBE-Q1  for symbol:  H
         # Potential read from the potential filename: GTH_POTENTIALS
       &END POTENTIAL
     &END KIND
     &KIND N
       BASIS_SET DZVP-MOLOPT-SR-GTH-q5
       POTENTIAL GTH-PBE-q5
       &POTENTIAL
 2 3
  0.2837905100000000E+00 2 -0.1241522559000000E+02  0.1868095920000000E+01
 2
  0.2554050000000000E+00 1  0.1363026257000000E+02
  0.2454945300000000E+00 0
         # Potential name:  GTH-PBE-Q5  for symbol:  N
         # Potential read from the potential filename: GTH_POTENTIALS
       &END POTENTIAL
     &END KIND
     &KIND Ga
       BASIS_SET DZVP-MOLOPT-SR-GTH-q13
       POTENTIAL GTH-PBE-q13
       &POTENTIAL
 2 1 10
  0.4900000000000000E+00 0
 3
  0.4167772300000000E+00 3  0.1047568975000000E+02 -0.4921768140000000E+01  0.8707055900000000E+00
  0.7770178090000000E+01 -0.2248152160000000E+01
  0.1784415450000000E+01
  0.5696265200000000E+00 2  0.1777985340000000E+01  0.1958597600000000E+00
 -0.2317443900000000E+00
  0.2381265000000000E+00 1 -0.1624868022000000E+02
         # Potential name:  GTH-PBE-Q13  for symbol:  GA
         # Potential read from the potential filename: GTH_POTENTIALS
       &END POTENTIAL
     &END KIND
     &TOPOLOGY
       COORD_FILE_NAME ../start-first.xyz
       COORD_FILE_FORMAT  XYZ
       NUMBER_OF_ATOMS  156
       MULTIPLE_UNIT_CELL  1 1 1
     &END TOPOLOGY
     &COLVAR
       &DISTANCE
         ATOMS  145 152
       &END DISTANCE
       &PRINT
       &END PRINT
     &END COLVAR
   &END SUBSYS
 &END FORCE_EVAL
