 # Version information for this restart file 
 # current date 2019-05-27 21:07:44.273
 # current working dir /lustre03/project/6004141/rzk/GaN-carbene/334-native/08-2Methanol-Htransfer/01-Constraint/0.96
 # Program compiled at                              Sun Apr  7 00:48:11 EDT 2019
 # Program compiled on                          beluga2.int.ets1.calculquebec.ca
 # Program compiled for                        Beluga-Linux-x86-64-intel-openmpi
 # Source code revision number                                         svn:18619
 &GLOBAL
   PRINT_LEVEL  MEDIUM
   PROJECT_NAME TEST
   RUN_TYPE  GEO_OPT
 &END GLOBAL
 &MOTION
   &GEO_OPT
     MAX_ITER  500
     STEP_START_VAL  265
   &END GEO_OPT
   &CONSTRAINT
     &COLLECTIVE
       COLVAR  1
       INTERMOLECULAR  T
       TARGET     1.8141370875702172E+00
       &RESTRAINT
         K     1.0000000000000001E-01
       &END RESTRAINT
     &END COLLECTIVE
     &COLVAR_RESTART
           1.8141370875702172E+00
     &END COLVAR_RESTART
   &END CONSTRAINT
 &END MOTION
 &FORCE_EVAL
   METHOD  QS
   STRESS_TENSOR  ANALYTICAL
   &DFT
     BASIS_SET_FILE_NAME BASIS_MOLOPT
     POTENTIAL_FILE_NAME GTH_POTENTIALS
     &SCF
       MAX_SCF  100
       EPS_SCF     5.0000000000000004E-06
       &OT  T
         PRECONDITIONER  FULL_ALL
       &END OT
       &OUTER_SCF  T
         OPTIMIZER  NONE
         EPS_SCF     5.0000000000000004E-06
         MAX_SCF  4
       &END OUTER_SCF
       &PRINT
         &RESTART  OFF
           BACKUP_COPIES  1
           &EACH
             JUST_ENERGY  0
             QS_SCF  0
             MD  20
           &END EACH
         &END RESTART
       &END PRINT
     &END SCF
     &QS
       EPS_DEFAULT     1.0000000000000000E-14
       ALMO_SCF  F
       METHOD  GPW
     &END QS
     &MGRID
       NGRIDS  5
       CUTOFF     1.2000000000000000E+03
     &END MGRID
     &XC
       DENSITY_CUTOFF     1.0000000000000000E-10
       GRADIENT_CUTOFF     1.0000000000000000E-10
       TAU_CUTOFF     1.0000000000000000E-10
       &XC_FUNCTIONAL  NO_SHORTCUT
         &PBE  T
         &END PBE
       &END XC_FUNCTIONAL
       &VDW_POTENTIAL
         POTENTIAL_TYPE  PAIR_POTENTIAL
         &PAIR_POTENTIAL
           R_CUTOFF     1.0000000000000005E+01
           TYPE  DFTD3
           PARAMETER_FILE_NAME dftd3.dat
           REFERENCE_FUNCTIONAL PBE
           EPS_CN     9.9999999999999995E-07
           CALCULATE_C9_TERM  T
           REFERENCE_C9_TERM  T
           LONG_RANGE_CORRECTION  F
           VERBOSE_OUTPUT  F
         &END PAIR_POTENTIAL
       &END VDW_POTENTIAL
     &END XC
   &END DFT
   &SUBSYS
     &CELL
       A     9.7367653356401487E+00    0.0000000000000000E+00    0.0000000000000000E+00
       B    -4.8591341382960209E+00    8.4162672083210595E+00    0.0000000000000000E+00
       C     0.0000000000000000E+00    0.0000000000000000E+00    3.0744000000000000E+01
       MULTIPLE_UNIT_CELL  1 1 1
       &CELL_REF
         A     9.5580000000000052E+00    0.0000000000000000E+00    0.0000000000000000E+00
         B    -4.7790000000000026E+00    8.2774708093716640E+00    0.0000000000000000E+00
         C     0.0000000000000000E+00    0.0000000000000000E+00    3.0744000000000000E+01
         MULTIPLE_UNIT_CELL  1 1 1
       &END CELL_REF
     &END CELL
     &COORD
Ga   -1.7068866680680632E-02   -3.2310549989025564E-02   -4.5298440316025623E-01
N   -1.4935556622127796E-02    1.8425847893839837E+00    7.0262917556063120E-01
Ga   -1.5617345010144232E-02    1.8103837904888720E+00    2.7303833597991880E+00
N   -1.8620543814576604E-02   -3.3542215440713369E-02    3.3638376122578073E+00
Ga   -1.8187355713949888E-02   -3.1841764564491816E-02    5.3515050377975095E+00
N   -1.5349558945584678E-02    1.8417332336902172E+00    5.9451900953206556E+00
Ga   -1.6307430295936075E-02    1.8408047942395376E+00    7.9414719483091245E+00
N   -1.7866205457081785E-02   -3.3004970686870444E-02    8.5461534044700347E+00
Ga   -1.5041411526706393E-02   -3.2456863207653605E-02    1.0540291677781511E+01
N   -1.1551408484506375E-02    1.8377607024862870E+00    1.1148685596664166E+01
Ga   -1.0138098095216321E-02    1.8351789346848597E+00    1.3144149406340505E+01
N   -1.9621854031929460E-02   -1.7831587689581152E-02    1.3806400406620067E+01
Ga   -2.1754765069071599E-03    3.0106986253767153E-03    1.5856777123742695E+01
N   -3.9384716907291999E-02    1.8926363761299041E+00    1.6439673826875364E+01
Ga   -9.1718069096026131E-02    1.9331034884407488E+00    1.8636641494056875E+01
N   -4.7476216446431588E-02    5.6447917944020917E-02    1.9005446463545816E+01
Ga   -1.6371751367645064E+00    2.7715714615651263E+00    4.1531396513673891E-01
N   -1.6399589774492425E+00    4.6408397232792664E+00    7.0207058442170445E-01
Ga   -1.6111657537001038E+00    4.6568807264074668E+00    2.7300646805937667E+00
N   -1.6382589039342723E+00    2.7718216394557480E+00    3.3262534460719695E+00
Ga   -1.6377739985394626E+00    2.7730126330782379E+00    5.3344681616072007E+00
N   -1.6372787848558008E+00    4.6434502568550782E+00    5.9459070240464769E+00
Ga   -1.6361282671831736E+00    4.6442344796853723E+00    7.9425003588077008E+00
N   -1.6372982710415624E+00    2.7740299263879571E+00    8.5511394572147630E+00
Ga   -1.6352591880870497E+00    2.7753143519815566E+00    1.0545615290520328E+01
N   -1.6384928409811883E+00    4.6531497634610384E+00    1.1144675081195100E+01
Ga   -1.6381387264173097E+00    4.6539812974689170E+00    1.3132249438101367E+01
N   -1.6273904867193218E+00    2.7877676867490502E+00    1.3710875466849034E+01
Ga   -1.5927370604729330E+00    2.7936090236209385E+00    1.5694789814772903E+01
N   -1.6112174176712735E+00    4.6873451648705302E+00    1.6276968875905624E+01
Ga   -1.5849373786652881E+00    4.8230178159179440E+00    1.8229340396018983E+01
N   -1.8349422944174849E+00    3.0071599656929981E+00    1.8983503883156306E+01
Ga   -3.2579753966334648E+00    5.5775493830530340E+00    4.1593181923039418E-01
N   -3.2500640462706283E+00    7.4469288440646340E+00    7.0245301692654649E-01
Ga   -3.2790953880531744E+00    7.4627591965437494E+00    2.7302143640029124E+00
N   -3.2578259408584462E+00    5.5769360271492916E+00    3.3251505981639649E+00
Ga   -3.2573172972000206E+00    5.5778594931643806E+00    5.3330017055072663E+00
N   -3.2527124681873656E+00    7.4485368148211322E+00    5.9425355024592541E+00
Ga   -3.2547187573000502E+00    7.4491923247514800E+00    7.9372586656703072E+00
N   -3.2592716045642574E+00    5.5795626947903223E+00    8.5474996539287211E+00
Ga   -3.2593121072636313E+00    5.5845367579200742E+00    1.0538440820797343E+01
N   -3.2598118730009293E+00    7.4485695572464827E+00    1.1167873665587267E+01
Ga   -3.2715428040149397E+00    7.4619531863947248E+00    1.3170776763645620E+01
N   -3.2787060130442947E+00    5.5703429775725235E+00    1.3777968457753591E+01
Ga   -3.2137465351735641E+00    5.6511015423280622E+00    1.5759319145124419E+01
N   -3.2816850545311804E+00    7.4315902971911934E+00    1.6455697189255648E+01
Ga   -3.2790445245523623E+00    7.4980168804325320E+00    1.8675966427080581E+01
N   -2.9164392359124958E+00    5.7111266453091369E+00    1.9249827881130699E+01
Ga    3.2277050980835096E+00   -3.3647642188086115E-02    4.1582500029596936E-01
N    3.2249783075631866E+00    1.8355531497090192E+00    7.0268654466106584E-01
Ga    3.2534924386585282E+00    1.8515537448069992E+00    2.7304014671988011E+00
N    3.2272689732589397E+00   -3.3807195147772369E-02    3.3255907628978596E+00
Ga    3.2277512102438548E+00   -3.2500600611355991E-02    5.3334281644585415E+00
N    3.2278138732092545E+00    1.8373490349159072E+00    5.9451155006605187E+00
Ga    3.2280019784674470E+00    1.8368268158661178E+00    7.9411748284214116E+00
N    3.2241213816105505E+00   -3.3962143659786684E-02    8.5498917742737284E+00
Ga    3.2199407070197723E+00   -3.4364722818454978E-02    1.0543785923071946E+01
N    3.2241333408621031E+00    1.8367309158850218E+00    1.1149627540297395E+01
Ga    3.2070443411997127E+00    1.8246813020718906E+00    1.3142227546815544E+01
N    3.2153180327696775E+00   -3.6270404750945846E-02    1.3778104586929086E+01
Ga    3.1929925257817238E+00   -5.5012611643980920E-02    1.5811642648483211E+01
N    3.2094742271680801E+00    1.8516516831020635E+00    1.6354178988186845E+01
Ga    2.9299182435432209E+00    1.7715873967534435E+00    1.8347921042023941E+01
N    3.2304837096700942E+00    5.4637238933341055E-02    1.8919061080129232E+01
Ga    1.6072096062219368E+00    2.7720737655657408E+00    4.1576873613005777E-01
N    1.6152650247114910E+00    4.6413006514230117E+00    7.0289835608511975E-01
Ga    1.5861359672921131E+00    4.6568870753637990E+00    2.7305289295897994E+00
N    1.6073912928660974E+00    2.7717062427741452E+00    3.3261233380743729E+00
Ga    1.6076734660972547E+00    2.7727263310658272E+00    5.3340072725695338E+00
N    1.6130653140580140E+00    4.6434361279142093E+00    5.9439516400801962E+00
Ga    1.6113331664071107E+00    4.6446245897041418E+00    7.9394402662760077E+00
N    1.6073481943427417E+00    2.7740775575693144E+00    8.5464205729886196E+00
Ga    1.6074792494130112E+00    2.7730319717132996E+00    1.0537651315711058E+01
N    1.6162462021769428E+00    4.6467856527181786E+00    1.1146952302735595E+01
Ga    1.6170143273954671E+00    4.6433487836212315E+00    1.3133345728936979E+01
N    1.6017522777292501E+00    2.7829819168705265E+00    1.3762379369922114E+01
Ga    1.5752326162088988E+00    2.7794588405547969E+00    1.5762963298787792E+01
N    1.6209579042416735E+00    4.6849466849034602E+00    1.6349731688856028E+01
Ga    1.4763563509751549E+00    4.5808611435977804E+00    1.8297193117897134E+01
N    1.5693914932903692E+00    2.8778178539719024E+00    1.9020137862275281E+01
Ga   -1.1262469311098231E-02    5.5773616875091987E+00   -4.5286101630355197E-01
N   -8.8770567039463313E-03    7.4534610973660307E+00    7.0232367559898201E-01
Ga   -9.4641346396139494E-03    7.4209027444590507E+00    2.7300824581794809E+00
N   -1.2434468878566720E-02    5.5772111085991520E+00    3.3647871591789111E+00
Ga   -1.2055756441047193E-02    5.5787227240257451E+00    5.3530303149185539E+00
N   -9.1653904666242382E-03    7.4530286344539221E+00    5.9466102587235472E+00
Ga   -9.2434476676124550E-03    7.4520735534966009E+00    7.9438178401388182E+00
N   -1.1149108467184173E-02    5.5785011961479993E+00    8.5478272002349893E+00
Ga   -1.0914324768332897E-02    5.5837436208473425E+00    1.0542482386507656E+01
N   -1.3053564703866887E-02    7.4559033212128938E+00    1.1144562802336353E+01
Ga   -1.8162491152991869E-02    7.4657650725167954E+00    1.3136454028849213E+01
N   -3.7399041310885303E-03    5.5864739461659729E+00    1.3716491411151127E+01
Ga    5.8871747274678960E-03    5.6404405443302794E+00    1.5688880072237671E+01
N   -5.3425651497194214E-03    7.4694084517013266E+00    1.6326909706331687E+01
Ga   -1.4746254521198406E-02    7.6524588696662272E+00    1.8373512389915700E+01
N    7.4436285566329946E-02    5.7183051691299269E+00    1.8870747496791036E+01
Ga    6.4726722921934670E+00   -3.3140034123909812E-02    4.1546198860591704E-01
N    6.4806250947908950E+00    1.8362873500808297E+00    7.0209141062683567E-01
Ga    6.4516942958412846E+00    1.8517407339445997E+00    2.7300608375927773E+00
N    6.4726496705956489E+00   -3.3570592712198144E-02    3.3258887656387368E+00
Ga    6.4729912422989919E+00   -3.2158469450215429E-02    5.3340864977543569E+00
N    6.4785246418541433E+00    1.8376211194700878E+00    5.9471514537571801E+00
Ga    6.4778317736140112E+00    1.8371270612312929E+00    7.9445372732229762E+00
N    6.4746830003936102E+00   -3.4195118068804327E-02    8.5520601493426849E+00
Ga    6.4766860615067383E+00   -3.3891230480091288E-02    1.0547204290190047E+01
N    6.4781722181817409E+00    1.8393082916915340E+00    1.1144512117806629E+01
Ga    6.4895982130856789E+00    1.8312365729146123E+00    1.3135547424817382E+01
N    6.4809498860623416E+00   -4.5235637938465599E-02    1.3726346820811706E+01
Ga    6.4862123537834577E+00   -6.0649631872879223E-02    1.5723441436758533E+01
N    6.5207661766456386E+00    1.8322556076105010E+00    1.6187944262475373E+01
Ga    6.5150330279041722E+00    1.9165479066068416E+00    1.8153414636961369E+01
N    6.4184791926626676E+00    1.7471397615790663E-01    1.8858135646365401E+01
Ga    4.8527515496630809E+00    2.7718721508750623E+00   -4.5299803737252314E-01
N    4.8565179914040568E+00    4.6476266123985779E+00    7.0229282278799077E-01
Ga    4.8558062144483314E+00    4.6148668177659076E+00    2.7302123076663145E+00
N    4.8529727128348714E+00    2.7710728893301844E+00    3.3647966870080270E+00
Ga    4.8535589173269509E+00    2.7719096457718897E+00    5.3530302528893072E+00
N    4.8563382619312634E+00    4.6464950106156735E+00    5.9442654408546289E+00
Ga    4.8559297060802766E+00    4.6442130304779310E+00    7.9398321474111873E+00
N    4.8520430250134261E+00    2.7714624444019997E+00    8.5479923413707191E+00
Ga    4.8514439748789391E+00    2.7671780439726175E+00    1.0542408727463441E+01
N    4.8563454463486524E+00    4.6434308254218291E+00    1.1145375712884746E+01
Ga    4.8547197765377552E+00    4.6369394407325579E+00    1.3126024756534672E+01
N    4.8433901660815764E+00    2.7618729306178333E+00    1.3711845373117953E+01
Ga    4.8516759920747949E+00    2.6531349912137068E+00    1.5667498685063400E+01
N    4.8163375928674146E+00    4.5080214195302224E+00    1.6429879233292869E+01
Ga    6.5113147892386598E+00    4.1173866360205356E+00    2.0133045329990050E+01
N    5.0194325673577023E+00    3.3244582717476971E+00    1.8445667924069596E+01
Ga    3.2340735156079634E+00    5.5769231599539246E+00    4.1614819786970947E-01
N    3.2315301029210248E+00    7.4464603010830359E+00    7.0183135122443130E-01
Ga    3.2600113267433635E+00    7.4627586746961612E+00    2.7298150846689642E+00
N    3.2335098857112516E+00    5.5772047884298148E+00    3.3251486949805678E+00
Ga    3.2339841086327392E+00    5.5782006789736194E+00    5.3329386520610376E+00
N    3.2344993805902558E+00    7.4487062285949550E+00    5.9438294302742447E+00
Ga    3.2350458408807019E+00    7.4497812451955969E+00    7.9393376340446107E+00
N    3.2341836976669174E+00    5.5787078876525795E+00    8.5459405110979745E+00
Ga    3.2363216433884472E+00    5.5813458604075610E+00    1.0535327469396467E+01
N    3.2443641478623348E+00    7.4474852606678210E+00    1.1156543219890748E+01
Ga    3.2576142011850449E+00    7.4590675513237228E+00    1.3152090513282486E+01
N    3.2488776000057715E+00    5.5737445284085512E+00    1.3772395350587381E+01
Ga    3.2157718909261437E+00    5.6238823266326872E+00    1.5742800413904583E+01
N    3.2440463612081611E+00    7.4385697811463061E+00    1.6400310342013732E+01
Ga    3.2002845599609677E+00    7.8275058052193511E+00    1.8387189234488527E+01
N    4.7018213741025914E+00    4.3798567499200924E+00    1.7814608429651628E+01
O    3.1056935601070688E+00    5.7951020346165389E+00    1.9144891083928840E+01
H   -5.1778498589844554E-02    5.6520951860601132E+00    1.9887307823124637E+01
C    3.2578628102444971E+00    5.7234231056526923E+00    2.0613033387342465E+01
H    2.3831264803764420E+00    6.2155139832959190E+00    2.1049156102911244E+01
H    3.3158591059173053E+00    4.6700188832913954E+00    2.0909233937306215E+01
H    4.1710615549536669E+00    6.2676804829512847E+00    2.0882961487238749E+01
O    5.8244486574608150E+00    3.5641998722260420E+00    2.1710929656875962E+01
H    3.8892273671953412E+00    5.3273862992113168E+00    1.8678227784074199E+01
C    5.4532590933517842E+00    2.1742283287212154E+00    2.1821846154884927E+01
H    4.5050562183143210E+00    1.9656727700754226E+00    2.1298010969529962E+01
H    6.2180775519174505E+00    1.4927327733368694E+00    2.1417067295781877E+01
H    5.3160755905099224E+00    1.9590542782553177E+00    2.2890995911823531E+01
     &END COORD
     &KIND C
       BASIS_SET DZVP-MOLOPT-SR-GTH-q4
       POTENTIAL GTH-PBE-q4
       &POTENTIAL
 2 2
  0.3384712400000000E+00 2 -0.8803673979999999E+01  0.1339210850000000E+01
 2
  0.3025757500000000E+00 1  0.9622486650000001E+01
  0.2915069400000000E+00 0
         # Potential name:  GTH-PBE-Q4  for symbol:  C
         # Potential read from the potential filename: GTH_POTENTIALS
       &END POTENTIAL
     &END KIND
     &KIND O
       BASIS_SET DZVP-MOLOPT-SR-GTH-q6
       POTENTIAL GTH-PBE-q6
       &POTENTIAL
 2 4
  0.2445543000000000E+00 2 -0.1666721480000000E+02  0.2487311320000000E+01
 2
  0.2209559200000000E+00 1  0.1833745811000000E+02
  0.2113324700000000E+00 0
         # Potential name:  GTH-PBE-Q6  for symbol:  O
         # Potential read from the potential filename: GTH_POTENTIALS
       &END POTENTIAL
     &END KIND
     &KIND H
       BASIS_SET DZVP-MOLOPT-SR-GTH-q1
       POTENTIAL GTH-PBE-q1
       &POTENTIAL
 1
  0.2000000000000000E+00 2 -0.4178900440000000E+01  0.7244633100000000E+00
 0
         # Potential name:  GTH-PBE-Q1  for symbol:  H
         # Potential read from the potential filename: GTH_POTENTIALS
       &END POTENTIAL
     &END KIND
     &KIND N
       BASIS_SET DZVP-MOLOPT-SR-GTH-q5
       POTENTIAL GTH-PBE-q5
       &POTENTIAL
 2 3
  0.2837905100000000E+00 2 -0.1241522559000000E+02  0.1868095920000000E+01
 2
  0.2554050000000000E+00 1  0.1363026257000000E+02
  0.2454945300000000E+00 0
         # Potential name:  GTH-PBE-Q5  for symbol:  N
         # Potential read from the potential filename: GTH_POTENTIALS
       &END POTENTIAL
     &END KIND
     &KIND Ga
       BASIS_SET DZVP-MOLOPT-SR-GTH-q13
       POTENTIAL GTH-PBE-q13
       &POTENTIAL
 2 1 10
  0.4900000000000000E+00 0
 3
  0.4167772300000000E+00 3  0.1047568975000000E+02 -0.4921768140000000E+01  0.8707055900000000E+00
  0.7770178090000000E+01 -0.2248152160000000E+01
  0.1784415450000000E+01
  0.5696265200000000E+00 2  0.1777985340000000E+01  0.1958597600000000E+00
 -0.2317443900000000E+00
  0.2381265000000000E+00 1 -0.1624868022000000E+02
         # Potential name:  GTH-PBE-Q13  for symbol:  GA
         # Potential read from the potential filename: GTH_POTENTIALS
       &END POTENTIAL
     &END KIND
     &TOPOLOGY
       COORD_FILE_NAME ../start-first.xyz
       COORD_FILE_FORMAT  XYZ
       NUMBER_OF_ATOMS  156
       MULTIPLE_UNIT_CELL  1 1 1
     &END TOPOLOGY
     &COLVAR
       &DISTANCE
         ATOMS  145 152
       &END DISTANCE
       &PRINT
       &END PRINT
     &END COLVAR
   &END SUBSYS
 &END FORCE_EVAL
