 # Version information for this restart file 
 # current date 2019-05-27 21:08:26.214
 # current working dir /lustre03/project/6004141/rzk/GaN-carbene/334-native/08-2Methanol-Htransfer/01-Constraint/0.96
 # Program compiled at                              Sun Apr  7 00:48:11 EDT 2019
 # Program compiled on                          beluga2.int.ets1.calculquebec.ca
 # Program compiled for                        Beluga-Linux-x86-64-intel-openmpi
 # Source code revision number                                         svn:18619
 &GLOBAL
   PRINT_LEVEL  MEDIUM
   PROJECT_NAME TEST
   RUN_TYPE  GEO_OPT
 &END GLOBAL
 &MOTION
   &GEO_OPT
     MAX_ITER  500
     STEP_START_VAL  266
   &END GEO_OPT
   &CONSTRAINT
     &COLLECTIVE
       COLVAR  1
       INTERMOLECULAR  T
       TARGET     1.8141370875702172E+00
       &RESTRAINT
         K     1.0000000000000001E-01
       &END RESTRAINT
     &END COLLECTIVE
     &COLVAR_RESTART
           1.8141370875702172E+00
     &END COLVAR_RESTART
   &END CONSTRAINT
 &END MOTION
 &FORCE_EVAL
   METHOD  QS
   STRESS_TENSOR  ANALYTICAL
   &DFT
     BASIS_SET_FILE_NAME BASIS_MOLOPT
     POTENTIAL_FILE_NAME GTH_POTENTIALS
     &SCF
       MAX_SCF  100
       EPS_SCF     5.0000000000000004E-06
       &OT  T
         PRECONDITIONER  FULL_ALL
       &END OT
       &OUTER_SCF  T
         OPTIMIZER  NONE
         EPS_SCF     5.0000000000000004E-06
         MAX_SCF  4
       &END OUTER_SCF
       &PRINT
         &RESTART  OFF
           BACKUP_COPIES  1
           &EACH
             JUST_ENERGY  0
             QS_SCF  0
             MD  20
           &END EACH
         &END RESTART
       &END PRINT
     &END SCF
     &QS
       EPS_DEFAULT     1.0000000000000000E-14
       ALMO_SCF  F
       METHOD  GPW
     &END QS
     &MGRID
       NGRIDS  5
       CUTOFF     1.2000000000000000E+03
     &END MGRID
     &XC
       DENSITY_CUTOFF     1.0000000000000000E-10
       GRADIENT_CUTOFF     1.0000000000000000E-10
       TAU_CUTOFF     1.0000000000000000E-10
       &XC_FUNCTIONAL  NO_SHORTCUT
         &PBE  T
         &END PBE
       &END XC_FUNCTIONAL
       &VDW_POTENTIAL
         POTENTIAL_TYPE  PAIR_POTENTIAL
         &PAIR_POTENTIAL
           R_CUTOFF     1.0000000000000005E+01
           TYPE  DFTD3
           PARAMETER_FILE_NAME dftd3.dat
           REFERENCE_FUNCTIONAL PBE
           EPS_CN     9.9999999999999995E-07
           CALCULATE_C9_TERM  T
           REFERENCE_C9_TERM  T
           LONG_RANGE_CORRECTION  F
           VERBOSE_OUTPUT  F
         &END PAIR_POTENTIAL
       &END VDW_POTENTIAL
     &END XC
   &END DFT
   &SUBSYS
     &CELL
       A     9.7367653356401487E+00    0.0000000000000000E+00    0.0000000000000000E+00
       B    -4.8591341382960209E+00    8.4162672083210595E+00    0.0000000000000000E+00
       C     0.0000000000000000E+00    0.0000000000000000E+00    3.0744000000000000E+01
       MULTIPLE_UNIT_CELL  1 1 1
       &CELL_REF
         A     9.5580000000000052E+00    0.0000000000000000E+00    0.0000000000000000E+00
         B    -4.7790000000000026E+00    8.2774708093716640E+00    0.0000000000000000E+00
         C     0.0000000000000000E+00    0.0000000000000000E+00    3.0744000000000000E+01
         MULTIPLE_UNIT_CELL  1 1 1
       &END CELL_REF
     &END CELL
     &COORD
Ga   -1.7399336121420295E-02   -3.2716276212958535E-02   -4.5285328402017405E-01
N   -1.5204778945496412E-02    1.8420756268457883E+00    7.0261613706865722E-01
Ga   -1.5894875870603772E-02    1.8101104366763876E+00    2.7305551229186333E+00
N   -1.8826818380594180E-02   -3.3756353550448925E-02    3.3639416203868744E+00
Ga   -1.8355655117501077E-02   -3.1838590048407923E-02    5.3515593973494484E+00
N   -1.5554911950128600E-02    1.8417533969319646E+00    5.9451493640349335E+00
Ga   -1.6425368817949190E-02    1.8409772960804234E+00    7.9413739503324550E+00
N   -1.7935737305845460E-02   -3.2803293449118739E-02    8.5460892850076551E+00
Ga   -1.5049297226924800E-02   -3.2347374999924718E-02    1.0540184398688398E+01
N   -1.1596066107643840E-02    1.8379188185507425E+00    1.1148505190651154E+01
Ga   -1.0203180634449053E-02    1.8354442226978482E+00    1.3143841923065667E+01
N   -1.9645985296176574E-02   -1.7657729244969059E-02    1.3806009062346593E+01
Ga   -2.1643861358856147E-03    3.3950559668699215E-03    1.5856265217541928E+01
N   -3.9492325129811455E-02    1.8929121248618588E+00    1.6439326150586584E+01
Ga   -9.1978498897110475E-02    1.9333867376215716E+00    1.8636611460075013E+01
N   -4.7605229593634828E-02    5.6495231382623183E-02    1.9005540935223188E+01
Ga   -1.6374137083282378E+00    2.7712299438537005E+00    4.1525772342255296E-01
N   -1.6400810179681573E+00    4.6405481901227237E+00    7.0198648615264714E-01
Ga   -1.6114129533499324E+00    4.6566120351417251E+00    2.7301842020923681E+00
N   -1.6385233343337049E+00    2.7715707777358105E+00    3.3262695492426309E+00
Ga   -1.6380062568919795E+00    2.7729616075125487E+00    5.3344572844669642E+00
N   -1.6375082545501050E+00    4.6434262423174415E+00    5.9458488942030066E+00
Ga   -1.6363041066067776E+00    4.6443645350830831E+00    7.9423712810139211E+00
N   -1.6374488499164577E+00    2.7741658612249886E+00    8.5510466187644401E+00
Ga   -1.6353048383431525E+00    2.7754178560526634E+00    1.0545396401134733E+01
N   -1.6385836843403190E+00    4.6532746557229450E+00    1.1144524977617248E+01
Ga   -1.6382382135573295E+00    4.6541957866049319E+00    1.3131996055089550E+01
N   -1.6274703411213909E+00    2.7880116774809696E+00    1.3710636049442579E+01
Ga   -1.5928700549451664E+00    2.7939340298944106E+00    1.5694470519915541E+01
N   -1.6114113382940363E+00    4.6877365150731904E+00    1.6276985151730663E+01
Ga   -1.5849003890361277E+00    4.8233764081983725E+00    1.8229547946980027E+01
N   -1.8349948025922014E+00    3.0073592171195900E+00    1.8983141607796174E+01
Ga   -3.2581775417756673E+00    5.5772766595281764E+00    4.1590492015196334E-01
N   -3.2503944247186158E+00    7.4466726391040305E+00    7.0254031857338750E-01
Ga   -3.2793265506395559E+00    7.4624811328588354E+00    2.7304138396579898E+00
N   -3.2580330481679423E+00    5.5766830696654770E+00    3.3251858191934076E+00
Ga   -3.2575479052302785E+00    5.5778366569653786E+00    5.3330083232230079E+00
N   -3.2529022230201092E+00    7.4485330019254912E+00    5.9425089619713720E+00
Ga   -3.2548064110330843E+00    7.4493944529809850E+00    7.9371878906704367E+00
N   -3.2594038531843599E+00    5.5797414153036140E+00    8.5473772096827503E+00
Ga   -3.2593617950821208E+00    5.5846897703976000E+00    1.0538249791792330E+01
N   -3.2597793668056845E+00    7.4487123157967865E+00    1.1167698279646665E+01
Ga   -3.2714985433266692E+00    7.4621251314686861E+00    1.3170492369073798E+01
N   -3.2788415482333613E+00    5.5705534162446586E+00    1.3777720685167964E+01
Ga   -3.2137924633382999E+00    5.6515361858097668E+00    1.5758933925792304E+01
N   -3.2817134959857590E+00    7.4319648045285360E+00    1.6455575794030629E+01
Ga   -3.2789631556488232E+00    7.4982759737638265E+00    1.8676000699484380E+01
N   -2.9155117003690765E+00    5.7117685600222901E+00    1.9250999659427091E+01
Ga    3.2274536792088817E+00   -3.3947665436781467E-02    4.1586654217520880E-01
N    3.2248350853515673E+00    1.8352974350762663E+00    7.0270159937837162E-01
Ga    3.2532430586603374E+00    1.8512958031316036E+00    2.7305839609046587E+00
N    3.2270443650604448E+00   -3.4049149597596737E-02    3.3256548174158520E+00
Ga    3.2275868259490230E+00   -3.2539649181830305E-02    5.3334251406932616E+00
N    3.2275966204004796E+00    1.8373434055879545E+00    5.9450696767208608E+00
Ga    3.2279169141607311E+00    1.8369909182725874E+00    7.9410659805025627E+00
N    3.2240679457049071E+00   -3.3791527857880456E-02    8.5497780331844488E+00
Ga    3.2199283587805541E+00   -3.4236894106486532E-02    1.0543599048549005E+01
N    3.2240716490470649E+00    1.8368790596219333E+00    1.1149464421295150E+01
Ga    3.2069690168667693E+00    1.8248946952728928E+00    1.3141940605353453E+01
N    3.2152825584897298E+00   -3.6033067494240005E-02    1.3777890881143936E+01
Ga    3.1929932048920762E+00   -5.4564735628918538E-02    1.5811439944139158E+01
N    3.2093812132875379E+00    1.8521598029454047E+00    1.6353891553509545E+01
Ga    2.9299249833105563E+00    1.7722229198692159E+00    1.8347641753117070E+01
N    3.2304920481082249E+00    5.5198237582439288E-02    1.8918586048264910E+01
Ga    1.6069625802325285E+00    2.7716503632341456E+00    4.1571053167863370E-01
N    1.6149634529706069E+00    4.6409598614447312E+00    7.0290840552577594E-01
Ga    1.5859123888881304E+00    4.6566299287558097E+00    2.7306855628504838E+00
N    1.6071343324891127E+00    2.7714468826270271E+00    3.3261530850429697E+00
Ga    1.6074653695518728E+00    2.7727308429779818E+00    5.3340006067229710E+00
N    1.6128741596725362E+00    4.6434573114397875E+00    5.9439178674364825E+00
Ga    1.6111912340968790E+00    4.6448112923015881E+00    7.9392955089514148E+00
N    1.6072365267819944E+00    2.7742680465368386E+00    8.5462870478224300E+00
Ga    1.6074331958434405E+00    2.7732114445967571E+00    1.0537387574470667E+01
N    1.6161700347088959E+00    4.6469535522909160E+00    1.1146818615313036E+01
Ga    1.6168272890554740E+00    4.6435590875619663E+00    1.3133134123876577E+01
N    1.6016708186777870E+00    2.7832306614901765E+00    1.3762170490157271E+01
Ga    1.5750907846213011E+00    2.7799297836932992E+00    1.5762704092700657E+01
N    1.6207280171915444E+00    4.6853262456149602E+00    1.6349919843574497E+01
Ga    1.4762620624144907E+00    4.5813231266344143E+00    1.8297713372012481E+01
N    1.5691388586892234E+00    2.8780184379717855E+00    1.9020021415010849E+01
Ga   -1.1442175877081266E-02    5.5770810123650030E+00   -4.5286108252060653E-01
N   -9.1277609887983578E-03    7.4530702006206537E+00    7.0242227675308977E-01
Ga   -9.6801440922020168E-03    7.4206511151890089E+00    2.7302819495701902E+00
N   -1.2693477340816658E-02    5.5769440506045438E+00    3.3648380956282451E+00
Ga   -1.2276831599533663E-02    5.5786672652086251E+00    5.3530188517952304E+00
N   -9.3379388368904030E-03    7.4529899405971873E+00    5.9465566618468237E+00
Ga   -9.3399509722269809E-03    7.4522023608931605E+00    7.9437128702284827E+00
N   -1.1312528295825647E-02    5.5786489900203220E+00    8.5477197969971215E+00
Ga   -1.1025357668098796E-02    5.5838783120074194E+00    1.0542284245708732E+01
N   -1.3077706101834622E-02    7.4560175685271863E+00    1.1144480604259304E+01
Ga   -1.8189808660778566E-02    7.4659130909770743E+00    1.3136303920447643E+01
N   -3.8832352213561336E-03    5.5866754428024956E+00    1.3716425352538465E+01
Ga    5.7187019995991063E-03    5.6408132383015195E+00    1.5688811199543638E+01
N   -5.3750969173075556E-03    7.4698489126106189E+00    1.6326710811275838E+01
Ga   -1.4739020162993942E-02    7.6528602961506902E+00    1.8373489169416594E+01
N    7.4485260429526509E-02    5.7188613001517714E+00    1.8871017637310921E+01
Ga    6.4724069652636533E+00   -3.3412063976667496E-02    4.1549454209132602E-01
N    6.4802977308091680E+00    1.8360580045331087E+00    7.0205599380464989E-01
Ga    6.4514446924806021E+00    1.8515223230852880E+00    2.7301941010420627E+00
N    6.4724283607824145E+00   -3.3762114172311827E-02    3.3259217339480727E+00
Ga    6.4728068218462260E+00   -3.2189851846130053E-02    5.3340652837759377E+00
N    6.4782913190940477E+00    1.8376038460359840E+00    5.9470791083396755E+00
Ga    6.4776801916981626E+00    1.8372334669510819E+00    7.9444314328853807E+00
N    6.4745829961754078E+00   -3.4054514215995466E-02    8.5519863465597172E+00
Ga    6.4766629751825011E+00   -3.3836542846942583E-02    1.0547084475902821E+01
N    6.4781272442693920E+00    1.8393719982879859E+00    1.1144373366011596E+01
Ga    6.4895646429813389E+00    1.8313955681522549E+00    1.3135261616090565E+01
N    6.4809293848462310E+00   -4.5068193698960902E-02    1.3726154940900262E+01
Ga    6.4861154944866035E+00   -6.0239280434423489E-02    1.5723138409730886E+01
N    6.5206479674204783E+00    1.8326811046965086E+00    1.6187689809463308E+01
Ga    6.5152486695509797E+00    1.9168230849865193E+00    1.8153126888848018E+01
N    6.4186599385250878E+00    1.7490956892569193E-01    1.8857675195270961E+01
Ga    4.8525082219113163E+00    2.7716743190676811E+00   -4.5302090624242469E-01
N    4.8563230078062958E+00    4.6472842435358857E+00    7.0236219443280412E-01
Ga    4.8555998155887066E+00    4.6146573238605431E+00    2.7303717282319577E+00
N    4.8527276684926290E+00    2.7708517872672962E+00    3.3648451484557889E+00
Ga    4.8533232367132477E+00    2.7719107091244850E+00    5.3530239379095184E+00
N    4.8560996224768997E+00    4.6465364674409395E+00    5.9441982061261855E+00
Ga    4.8557847676902490E+00    4.6444007023692579E+00    7.9397109433265811E+00
N    4.8519362768320402E+00    2.7716300104992229E+00    8.5478768466298352E+00
Ga    4.8514236868306693E+00    2.7673294943362174E+00    1.0542210051328281E+01
N    4.8563025491554717E+00    4.6435626876389771E+00    1.1145243258336089E+01
Ga    4.8545978027582688E+00    4.6370904565286972E+00    1.3125794578272668E+01
N    4.8433655543848975E+00    2.7620638166634794E+00    1.3711591617250477E+01
Ga    4.8516322649079857E+00    2.6534343960627957E+00    1.5667137973721028E+01
N    4.8160843719790210E+00    4.5082216465775549E+00    1.6429745721684462E+01
Ga    6.5101692689827626E+00    4.1174905825093848E+00    2.0132780736124836E+01
N    5.0196051119635285E+00    3.3253105991008587E+00    1.8445763037867255E+01
Ga    3.2338542254113918E+00    5.5766181203122489E+00    4.1617145023073071E-01
N    3.2313357251876793E+00    7.4462042188256312E+00    7.0193641959600428E-01
Ga    3.2598014832042899E+00    7.4625474166245338E+00    2.7300184344031120E+00
N    3.2332823311656989E+00    5.5769974214497839E+00    3.3251539295879029E+00
Ga    3.2337440344404800E+00    5.5782309925249356E+00    5.3329117825380807E+00
N    3.2343209213076189E+00    7.4487330258476412E+00    5.9437990922601749E+00
Ga    3.2349423647169462E+00    7.4500019834190647E+00    7.9392635340474973E+00
N    3.2340473434580961E+00    5.5789039182352900E+00    8.5458282659518794E+00
Ga    3.2362404473840907E+00    5.5814848005891502E+00    1.0535101754873141E+01
N    3.2443741691225640E+00    7.4475699247901792E+00    1.1156450835843632E+01
Ga    3.2575495821350593E+00    7.4591569817969106E+00    1.3151928926421620E+01
N    3.2487294259732948E+00    5.5738448541470689E+00    1.3772238948067638E+01
Ga    3.2154134782193577E+00    5.6241258045228024E+00    1.5742603071683696E+01
N    3.2440559024800582E+00    7.4388950264458700E+00    1.6399853063083764E+01
Ga    3.2003639033672258E+00    7.8275872885254740E+00    1.8386658959005764E+01
N    4.7022886043818382E+00    4.3807650091942030E+00    1.7814351886323070E+01
O    3.1059617208279255E+00    5.7953322808660639E+00    1.9145217785369415E+01
H   -5.2100594539065251E-02    5.6528227986024362E+00    1.9887614648678106E+01
C    3.2602796575911102E+00    5.7265212624608539E+00    2.0613242121122269E+01
H    2.3862830536965385E+00    6.2198061322345133E+00    2.1049752426348757E+01
H    3.3186097947591549E+00    4.6738374342143132E+00    2.0911945632076456E+01
H    4.1740288649673207E+00    6.2716011023449028E+00    2.0880249322678395E+01
O    5.8248559748466286E+00    3.5627619127777810E+00    2.1710838267569944E+01
H    3.8893719847629225E+00    5.3277582252247271E+00    1.8678280097731879E+01
C    5.4587180397022674E+00    2.1715649830504766E+00    2.1822327640871777E+01
H    4.5123113071771002E+00    1.9588641166759566E+00    2.1296720770579903E+01
H    6.2270501174093011E+00    1.4926131222105583E+00    2.1419685775318513E+01
H    5.3199803071352063E+00    1.9570180559347836E+00    2.2891472978765670E+01
     &END COORD
     &KIND C
       BASIS_SET DZVP-MOLOPT-SR-GTH-q4
       POTENTIAL GTH-PBE-q4
       &POTENTIAL
 2 2
  0.3384712400000000E+00 2 -0.8803673979999999E+01  0.1339210850000000E+01
 2
  0.3025757500000000E+00 1  0.9622486650000001E+01
  0.2915069400000000E+00 0
         # Potential name:  GTH-PBE-Q4  for symbol:  C
         # Potential read from the potential filename: GTH_POTENTIALS
       &END POTENTIAL
     &END KIND
     &KIND O
       BASIS_SET DZVP-MOLOPT-SR-GTH-q6
       POTENTIAL GTH-PBE-q6
       &POTENTIAL
 2 4
  0.2445543000000000E+00 2 -0.1666721480000000E+02  0.2487311320000000E+01
 2
  0.2209559200000000E+00 1  0.1833745811000000E+02
  0.2113324700000000E+00 0
         # Potential name:  GTH-PBE-Q6  for symbol:  O
         # Potential read from the potential filename: GTH_POTENTIALS
       &END POTENTIAL
     &END KIND
     &KIND H
       BASIS_SET DZVP-MOLOPT-SR-GTH-q1
       POTENTIAL GTH-PBE-q1
       &POTENTIAL
 1
  0.2000000000000000E+00 2 -0.4178900440000000E+01  0.7244633100000000E+00
 0
         # Potential name:  GTH-PBE-Q1  for symbol:  H
         # Potential read from the potential filename: GTH_POTENTIALS
       &END POTENTIAL
     &END KIND
     &KIND N
       BASIS_SET DZVP-MOLOPT-SR-GTH-q5
       POTENTIAL GTH-PBE-q5
       &POTENTIAL
 2 3
  0.2837905100000000E+00 2 -0.1241522559000000E+02  0.1868095920000000E+01
 2
  0.2554050000000000E+00 1  0.1363026257000000E+02
  0.2454945300000000E+00 0
         # Potential name:  GTH-PBE-Q5  for symbol:  N
         # Potential read from the potential filename: GTH_POTENTIALS
       &END POTENTIAL
     &END KIND
     &KIND Ga
       BASIS_SET DZVP-MOLOPT-SR-GTH-q13
       POTENTIAL GTH-PBE-q13
       &POTENTIAL
 2 1 10
  0.4900000000000000E+00 0
 3
  0.4167772300000000E+00 3  0.1047568975000000E+02 -0.4921768140000000E+01  0.8707055900000000E+00
  0.7770178090000000E+01 -0.2248152160000000E+01
  0.1784415450000000E+01
  0.5696265200000000E+00 2  0.1777985340000000E+01  0.1958597600000000E+00
 -0.2317443900000000E+00
  0.2381265000000000E+00 1 -0.1624868022000000E+02
         # Potential name:  GTH-PBE-Q13  for symbol:  GA
         # Potential read from the potential filename: GTH_POTENTIALS
       &END POTENTIAL
     &END KIND
     &TOPOLOGY
       COORD_FILE_NAME ../start-first.xyz
       COORD_FILE_FORMAT  XYZ
       NUMBER_OF_ATOMS  156
       MULTIPLE_UNIT_CELL  1 1 1
     &END TOPOLOGY
     &COLVAR
       &DISTANCE
         ATOMS  145 152
       &END DISTANCE
       &PRINT
       &END PRINT
     &END COLVAR
   &END SUBSYS
 &END FORCE_EVAL
