 # Version information for this restart file 
 # current date 2019-06-24 19:52:31.823
 # current working dir /scratch/rzk/rzk/GaN-carbene/443-adatoms-both-2x2/03-DissMethanol/02-O-GaSur-H-NTop
 # Program compiled at                              Sun Apr  7 00:48:11 EDT 2019
 # Program compiled on                          beluga2.int.ets1.calculquebec.ca
 # Program compiled for                        Beluga-Linux-x86-64-intel-openmpi
 # Source code revision number                                         svn:18619
 &GLOBAL
   PRINT_LEVEL  MEDIUM
   PROJECT_NAME TEST
   RUN_TYPE  GEO_OPT
 &END GLOBAL
 &MOTION
   &GEO_OPT
     MAX_ITER  500
     STEP_START_VAL  76
   &END GEO_OPT
 &END MOTION
 &FORCE_EVAL
   METHOD  QS
   STRESS_TENSOR  ANALYTICAL
   &DFT
     BASIS_SET_FILE_NAME BASIS_MOLOPT
     POTENTIAL_FILE_NAME GTH_POTENTIALS
     UKS  T
     SURFACE_DIPOLE_CORRECTION  T
     SURF_DIP_DIR  Z
     &SCF
       MAX_SCF  80
       EPS_SCF     5.0000000000000004E-06
       &OT  T
         PRECONDITIONER  FULL_ALL
       &END OT
       &OUTER_SCF  T
         OPTIMIZER  NONE
         EPS_SCF     5.0000000000000004E-06
         MAX_SCF  4
       &END OUTER_SCF
       &PRINT
         &RESTART  OFF
           BACKUP_COPIES  1
           &EACH
             JUST_ENERGY  0
             QS_SCF  0
             MD  20
           &END EACH
         &END RESTART
       &END PRINT
     &END SCF
     &QS
       EPS_DEFAULT     1.0000000000000000E-14
       METHOD  GPW
     &END QS
     &MGRID
       NGRIDS  5
       CUTOFF     1.2000000000000000E+03
     &END MGRID
     &XC
       DENSITY_CUTOFF     1.0000000000000000E-10
       GRADIENT_CUTOFF     1.0000000000000000E-10
       TAU_CUTOFF     1.0000000000000000E-10
       &XC_FUNCTIONAL  NO_SHORTCUT
         &PBE  T
         &END PBE
       &END XC_FUNCTIONAL
       &VDW_POTENTIAL
         POTENTIAL_TYPE  PAIR_POTENTIAL
         &PAIR_POTENTIAL
           R_CUTOFF     1.0000000000000004E+01
           TYPE  DFTD3
           PARAMETER_FILE_NAME dftd3.dat
           REFERENCE_FUNCTIONAL PBE
           EPS_CN     9.9999999999999995E-07
           CALCULATE_C9_TERM  T
           REFERENCE_C9_TERM  T
           LONG_RANGE_CORRECTION  F
           VERBOSE_OUTPUT  F
         &END PAIR_POTENTIAL
       &END VDW_POTENTIAL
     &END XC
   &END DFT
   &SUBSYS
     &CELL
       A     1.2864472766435110E+01    0.0000000000000000E+00    0.0000000000000000E+00
       B    -6.4322363581020028E+00    1.1140960178524473E+01    0.0000000000000000E+00
       C     0.0000000000000000E+00    0.0000000000000000E+00    3.2000000000000000E+01
       MULTIPLE_UNIT_CELL  1 1 1
       &CELL_REF
         A     1.2982353780853531E+01    0.0000000000000000E+00    0.0000000000000000E+00
         B    -6.4911768904267628E+00    1.1243048175136114E+01    0.0000000000000000E+00
         C     0.0000000000000000E+00    0.0000000000000000E+00    3.2000000000000000E+01
         MULTIPLE_UNIT_CELL  1 1 1
       &END CELL_REF
     &END CELL
     &COORD
N    2.4682511899128564E-02    1.8630381532353373E+00    2.4651725667437634E+00
Ga    3.2396928287821455E-03   -5.6096951215401779E-02    2.9287024866957792E+00
N    1.4833402509415870E-02    6.6246085980849684E-03    4.9975959041283247E+00
Ga    2.1683241912840465E-02    1.8835266857528283E+00    5.6996064260608446E+00
N    1.6062374641099126E-02    1.8755179231086405E+00    7.7176551763374572E+00
Ga    1.4231940976458839E-02    3.4429158767170849E-02    8.3824071036168277E+00
N    1.5000583239931692E-02    2.8221660758587126E-02    1.0363435388903248E+01
Ga    1.3110392088876519E-02    1.8604058300340691E+00    1.1026870857554403E+01
N    1.3187158400844022E-02    1.8433064770041003E+00    1.3026215327497939E+01
Ga    1.5147883733611081E-02    1.4192584010296763E-02    1.3813548985650575E+01
N    1.5272881526131243E-02    1.2442840379822030E-02    1.6024135829557423E+01
Ga    1.5244730299892630E-02    2.0129719971832678E+00    1.6386236908585250E+01
Ga   -2.2663509838055481E-02    5.4826241558937570E+00    1.0707002872004743E+00
N   -1.4492738356715071E+00    4.7482390726970136E+00    2.4979242375243209E+00
Ga   -1.6163627050486087E+00    2.8460656804918987E+00    3.0437236102017939E+00
N   -1.5798924871235367E+00    2.8249812428151846E+00    5.0952268440005311E+00
Ga   -1.6406199548357041E+00    4.6501874954377787E+00    5.7763134999807271E+00
N   -1.6138274416816665E+00    4.6646046307735274E+00    7.7671644618491760E+00
Ga   -1.5810109624624662E+00    2.8071162265924361E+00    8.3881597604591853E+00
N   -1.5807906851825841E+00    2.8137979133617512E+00    1.0385665704217299E+01
Ga   -1.6113659435845840E+00    4.6743444964997263E+00    1.1023984475802099E+01
N   -1.6281784744383161E+00    4.6856365121932813E+00    1.3025107727057465E+01
Ga   -1.5845786703840814E+00    2.8161938644338922E+00    1.3569073183471428E+01
N   -1.6000521982388587E+00    2.8070897797222170E+00    1.5547789102549176E+01
Ga   -1.4810088975955211E+00    4.6034481898592237E+00    1.6386386290781108E+01
N    1.4912557167973463E-02    3.7400988031977755E+00    1.7508937811434897E+01
N   -3.2009122081371593E+00    7.5787398109848061E+00    2.4871723773558947E+00
Ga   -3.1840691117529429E+00    5.6038574880726149E+00    2.8770478615809565E+00
N   -3.2087137002499975E+00    5.6019995618230300E+00    5.0033293382262789E+00
Ga   -3.1933726058426091E+00    7.4260842545556294E+00    5.7658744990920798E+00
N   -3.1948534045324548E+00    7.4455926626547377E+00    7.7573120308594872E+00
Ga   -3.2062458138160421E+00    5.5948629647273362E+00    8.4031902607137425E+00
N   -3.2027357470222082E+00    5.5977450581880355E+00    1.0377553260571418E+01
Ga   -3.2035328374293210E+00    7.4383540984288228E+00    1.1025532261710094E+01
N   -3.2024398164693295E+00    7.4185425318734666E+00    1.3018159802880581E+01
Ga   -3.2119678085263086E+00    5.6012176368902153E+00    1.3815475076247155E+01
N   -3.2136058052068499E+00    5.6033981708786600E+00    1.6023880827219209E+01
Ga   -3.2037209206682795E+00    7.6602231439774764E+00    1.6451577114413098E+01
Ga   -3.2123493007485622E+00    9.3131288154064613E+00    1.5102042708379684E+00
N   -4.6945986812286344E+00    1.0163137429971339E+01    2.5076666882273764E+00
Ga   -4.9144574812608672E+00    8.3041716540547998E+00    3.2682001184920897E+00
N   -4.8086820139697481E+00    8.3747074496641396E+00    5.2225185558832035E+00
Ga   -4.8250539322495243E+00    1.0250828235185649E+01    5.7610621773037645E+00
N   -4.8154731410264819E+00    1.0244751480440625E+01    7.7499068187173359E+00
Ga   -4.8000801959186914E+00    8.3879800964380795E+00    8.3919637171968340E+00
N   -4.7977959980577438E+00    8.3893769886511702E+00    1.0384687540596486E+01
Ga   -4.8216671611706428E+00    1.0250062219828058E+01    1.1013119173243316E+01
N   -4.8393472423042274E+00    1.0256879055167202E+01    1.3010070882801793E+01
Ga   -4.7988513277051519E+00    8.3898542671510015E+00    1.3577189670840513E+01
N   -4.8262868289659222E+00    8.3735148604727510E+00    1.5535629318919115E+01
Ga   -4.6320527615433553E+00    1.0133707001882081E+01    1.6453098837782711E+01
N   -3.1928802700086645E+00    9.3154716790471230E+00    1.7596663485034373E+01
N    3.2109346334996220E+00    1.9171204611418002E+00    2.5169827197361543E+00
Ga    3.2199064305502350E+00    1.8540564891708858E-01    3.2307707011174762E+00
N    3.2306764501871772E+00    3.6361729817425872E-02    5.1860949330608053E+00
Ga    3.2043238776232577E+00    1.9170535016915993E+00    5.7653046043980911E+00
N    3.2238053484370854E+00    1.8907423209194274E+00    7.7628659355947542E+00
Ga    3.2353060206465121E+00    2.6744882037599019E-02    8.3685586768993652E+00
N    3.2338967006629140E+00    1.5844480692204552E-02    1.0370369788036376E+01
Ga    3.2332476602132578E+00    1.8777604990833419E+00    1.0984209619131411E+01
N    3.2293498356267736E+00    1.8820463668378242E+00    1.2958090944385027E+01
Ga    3.2300772255104593E+00    1.1485298854794797E-02    1.3578897713440623E+01
N    3.2236141230422639E+00    4.7399653918635168E-02    1.5538195414753392E+01
Ga    3.2330726223321311E+00    1.8816585864603457E+00    1.5814716367188364E+01
N    1.5053972145216059E+00    4.7470084441558820E+00    2.3477257518458590E+00
Ga    1.6654750342934870E+00    2.8802146930437806E+00    3.0235548046817349E+00
N    1.6059099858712944E+00    2.8373701773800342E+00    5.0809284647464290E+00
Ga    1.6974664485519573E+00    4.6515050500918882E+00    5.8285960430224888E+00
N    1.6224503870358697E+00    4.6518362356502854E+00    7.8209761731438219E+00
Ga    1.6103329078300044E+00    2.8000151835443017E+00    8.4061274969807069E+00
N    1.6110569476895698E+00    2.8067138347907736E+00    1.0399887114921636E+01
Ga    1.6397820366746716E+00    4.6752800587267416E+00    1.1017333448181224E+01
N    1.6556622311743090E+00    4.6860525187970348E+00    1.3022466882280156E+01
Ga    1.6119548279832905E+00    2.8172352138114700E+00    1.3566871390381658E+01
N    1.6288968046196763E+00    2.8076128395921209E+00    1.5546251518957297E+01
Ga    1.5114462058996017E+00    4.6033958913462616E+00    1.6385609879766598E+01
N    3.2151779488052486E-02    7.2940026919609489E+00    2.5646272876857954E+00
Ga    1.0138341696330440E-01    5.5890725145204589E+00    3.5004176806585128E+00
N    2.4557562718624460E-02    5.5892434372516648E+00    5.3722064073894655E+00
Ga    2.5886251804616688E-02    7.4741910445085491E+00    5.8864361171096062E+00
N    1.5193925360174984E-02    7.4619360742637086E+00    7.8421781371022989E+00
Ga    8.7816063382253444E-03    5.5783812749909725E+00    8.4050195275352557E+00
N    9.3169198796771383E-03    5.5853146452917590E+00    1.0401260581821958E+01
Ga    1.1785547121384334E-02    7.4557012142715910E+00    1.0987595526571690E+01
N    1.3193063345760755E-02    7.4516043886151930E+00    1.2961748045218657E+01
Ga    1.4772327231329364E-02    5.5825623245933125E+00    1.3567030903441546E+01
N    1.4911019823144422E-02    5.6031356089176558E+00    1.5546775286263193E+01
Ga    1.4433415351376870E-02    7.4555182846052279E+00    1.5814033614777317E+01
N   -1.6871191518194628E+00    1.0159597324663867E+01    2.4771028380480309E+00
Ga   -1.4756678111981789E+00    8.2785984038103724E+00    3.2242592632321490E+00
N   -1.5713279517377556E+00    8.3688892770052661E+00    5.1819267461205660E+00
Ga   -1.5652615249062192E+00    1.0257763709109442E+01    5.7239914457112695E+00
N   -1.5833578395629062E+00    1.0243322806719345E+01    7.7272144846760318E+00
Ga   -1.6056766613982179E+00    8.3978044065739628E+00    8.4055498377286817E+00
N   -1.6067656168817814E+00    8.3932724547241566E+00    1.0394371941761689E+01
Ga   -1.5778449597983797E+00    1.0253847720625242E+01    1.1023268367870035E+01
N   -1.5612470371128075E+00    1.0259207607039190E+01    1.3018778052877433E+01
Ga   -1.6065938126862933E+00    8.3903721325381717E+00    1.3578623786941431E+01
N   -1.5779008575246527E+00    8.3662353976282873E+00    1.5538340578126158E+01
Ga   -1.7588468992170314E+00    1.0143602598224094E+01    1.6451383901004309E+01
N    6.4532943267144880E+00    2.0208072117769142E+00    2.4788151083658323E+00
Ga    6.4709363910454769E+00    3.1104767857966661E-02    2.7937168238337127E+00
N    6.4502206956228161E+00    2.9359878558973807E-02    4.9430101456949691E+00
Ga    6.4393638760890912E+00    1.8652579547376267E+00    5.7221061938804505E+00
N    6.4447113784234178E+00    1.8703231892697498E+00    7.7270021759083116E+00
Ga    6.4478330561284363E+00    2.8384273976100754E-02    8.3797515146420398E+00
N    6.4468418313952931E+00    2.6270614691077238E-02    1.0360540793336920E+01
Ga    6.4481828954963110E+00    1.8641569307361028E+00    1.1018538960849764E+01
N    6.4482185274142152E+00    1.8453458968509131E+00    1.3015696007665051E+01
Ga    6.4465065226845013E+00    2.8086558159055659E-02    1.3833306477375773E+01
N    6.4464334420826095E+00    2.7151890448829652E-02    1.6025737680086007E+01
Ga    6.4466951419542937E+00    2.0748581288493853E+00    1.6451081607718276E+01
Ga    6.4962484672607763E+00    3.7349877323782228E+00    1.4568248205003229E+00
N    4.9505704109805357E+00    4.6268673639840570E+00    2.3302960132632946E+00
Ga    4.7034419778004661E+00    2.8182292810562646E+00    3.1989908977144497E+00
N    4.8366690643746040E+00    2.8277984002208498E+00    5.1654958159184323E+00
Ga    4.7976385023365804E+00    4.6927465494258174E+00    5.7865424930769489E+00
N    4.8489790527042880E+00    4.6633204821334520E+00    7.7933409736096326E+00
Ga    4.8462729318391924E+00    2.8087107476960287E+00    8.3858522150560439E+00
N    4.8480490278672468E+00    2.8093343482049291E+00    1.0384982316827497E+01
Ga    4.8242643686856184E+00    4.6728303317720155E+00    1.1018138134310410E+01
N    4.8097161974049305E+00    4.6838566692142862E+00    1.3015002915584013E+01
Ga    4.8524186345575258E+00    2.8174942563977536E+00    1.3576235247699103E+01
N    4.8169646813974651E+00    2.8048568570561212E+00    1.5535939476577639E+01
Ga    5.0196857783424367E+00    4.5661737192681731E+00    1.6450161238401432E+01
N    6.4468686805143349E+00    3.7299245502669334E+00    1.7595665149882525E+01
N    3.2442079022917394E+00    7.5925955287924145E+00    2.4706739493529697E+00
Ga    3.2305938184133858E+00    5.6654403672019331E+00    1.9656388394552511E+00
N    3.2269911307840791E+00    5.5939406355425660E+00    5.2073800244355004E+00
Ga    3.2209071826111226E+00    7.4011147557651853E+00    5.7958565757739775E+00
N    3.2241306762780386E+00    7.4643101186500509E+00    7.8012355680275469E+00
Ga    3.2359402834014093E+00    5.5963841304129094E+00    8.3955172483347464E+00
N    3.2323411524305428E+00    5.5977292171032822E+00    1.0381771212336602E+01
Ga    3.2326586907910024E+00    7.4370316683565205E+00    1.1023989127917881E+01
N    3.2316293798912863E+00    7.4190139511303679E+00    1.3019381773499981E+01
Ga    3.2411032870857492E+00    5.6006232370983939E+00    1.3810785494468924E+01
N    3.2433983964745199E+00    5.6029860195151224E+00    1.6023648000948622E+01
Ga    3.2332841307982623E+00    7.6586412950908462E+00    1.6447940157759188E+01
Ga    3.2662456917708380E+00    9.2842824097201113E+00    1.4240082689287650E+00
N    1.7373925238107855E+00    1.0149079209721039E+01    2.4569140626305175E+00
Ga    1.5598926190633882E+00    8.2698543559844051E+00    3.2227211415693069E+00
N    1.6092309043195132E+00    8.3716492752195428E+00    5.1844772440690177E+00
Ga    1.6035616650100608E+00    1.0252197764911747E+01    5.7254439592646014E+00
N    1.6120214774397363E+00    1.0245525811110369E+01    7.7313779999033772E+00
Ga    1.6350061808179592E+00    8.4026110773325495E+00    8.4190271225833158E+00
N    1.6301135575149224E+00    8.3951595490413542E+00    1.0407324350401957E+01
Ga    1.6060502531314771E+00    1.0254939738035288E+01    1.1028076157650000E+01
N    1.5903341694230557E+00    1.0260489925502148E+01    1.3022517514914700E+01
Ga    1.6354631886386601E+00    8.3899136111436583E+00    1.3576998057151281E+01
N    1.6067247674876775E+00    8.3658243528117531E+00    1.5537708493862119E+01
Ga    1.7865467000721924E+00    1.0144299305731117E+01    1.6448098683060916E+01
N    3.2217751676173170E+00    9.3158274081483707E+00    1.7592054566346178E+01
N    9.6916128452178523E+00    1.9035444892259772E+00    2.5325718585572559E+00
Ga    9.6827248883874688E+00    1.4953185199308444E-01    3.2115301965786305E+00
N    9.6667176359287819E+00    3.1216872650736843E-02    5.1818943469924088E+00
Ga    9.6947771109770766E+00    1.8944879528138412E+00    5.7795572498153174E+00
N    9.6713889118001948E+00    1.8867479742777082E+00    7.7706566902845990E+00
Ga    9.6593985688317083E+00    2.2384317493115855E-02    8.3747317757376134E+00
N    9.6601089075689135E+00    1.5723278048944186E-02    1.0375381233834650E+01
Ga    9.6608157625426117E+00    1.8819266306166258E+00    1.0974749304629576E+01
N    9.6646256558012809E+00    1.8841572478051509E+00    1.2950733981742060E+01
Ga    9.6639609406752456E+00    1.4246273162983381E-02    1.3577766061168976E+01
N    9.6704298927963279E+00    4.8503907148354189E-02    1.5537708400357198E+01
Ga    9.6605436321999658E+00    1.8817141716127734E+00    1.5818973816805137E+01
N    7.9553154692661341E+00    4.6208378091610154E+00    2.4978173408637150E+00
Ga    8.1860224196303708E+00    2.7616494594363425E+00    3.2406552103485549E+00
N    8.0641119301999282E+00    2.8125653638275550E+00    5.1973866686469936E+00
Ga    8.0632064202318343E+00    4.6842868939397233E+00    5.7539806005967726E+00
N    8.0629162315343166E+00    4.6756616456751594E+00    7.7505320233705142E+00
Ga    8.0478840382063748E+00    2.8123977792163930E+00    8.3691588295962660E+00
N    8.0448083177177523E+00    2.8150970648271763E+00    1.0371726043885882E+01
Ga    8.0700042687934630E+00    4.6717213555975388E+00    1.1022836023221634E+01
N    8.0858945598251779E+00    4.6836479669278699E+00    1.3016407574973348E+01
Ga    8.0433640867877276E+00    2.8167607493196125E+00    1.3577304161906522E+01
N    8.0774829160695898E+00    2.8048608386927438E+00    1.5536520793213404E+01
Ga    7.8741333971754415E+00    4.5661293097336149E+00    1.6451154092915694E+01
N    6.4333402203882333E+00    7.4620318374015531E+00    2.5728303061293181E+00
Ga    6.4019700735838745E+00    5.7105565045408060E+00    3.2329078276955223E+00
N    6.4357681954026393E+00    5.5936167303930491E+00    5.1957323915652358E+00
Ga    6.4370189000777662E+00    7.4434483389564043E+00    5.8421891874839194E+00
N    6.4468215575501082E+00    7.4508939185304826E+00    7.8145299745806343E+00
Ga    6.4508661589226337E+00    5.5818804538866758E+00    8.4095889918508604E+00
N    6.4513621420422975E+00    5.5855746409556364E+00    1.0399729935623375E+01
Ga    6.4492309266424312E+00    7.4552396147501261E+00    1.0986218148658720E+01
N    6.4481850094304960E+00    7.4545568598837022E+00    1.2956522969298931E+01
Ga    6.4470261016810948E+00    5.5834943907052947E+00    1.3574734543947194E+01
N    6.4473418143453438E+00    5.6160875049266297E+00    1.5533610534696775E+01
Ga    6.4469496991538922E+00    7.4531773144888698E+00    1.5809898316047800E+01
N    4.7305567525291483E+00    1.0153176164852242E+01    2.4951674489478028E+00
Ga    4.9084319564804986E+00    8.2988186063001912E+00    3.2808708355795506E+00
N    4.8296942227490893E+00    8.3755991524111586E+00    5.2335022894233916E+00
Ga    4.8516465465200289E+00    1.0245438496185406E+01    5.7639345208920627E+00
N    4.8473472449072181E+00    1.0246824496778450E+01    7.7549096849757904E+00
Ga    4.8294686868206558E+00    8.3924331607885314E+00    8.4053023503230975E+00
N    4.8324914196166926E+00    8.3913427902381166E+00    1.0397173463044009E+01
Ga    4.8525871430073995E+00    1.0251173899884087E+01    1.1017782162332232E+01
N    4.8691534404303525E+00    1.0258157675158227E+01    1.3013590175368185E+01
Ga    4.8283977815261716E+00    8.3895268558595149E+00    1.3575480786486265E+01
N    4.8560869113038239E+00    8.3735125299133149E+00    1.5534814754764460E+01
Ga    4.6627224431963352E+00    1.0134265432243701E+01    1.6450096640164031E+01
O    3.0578822633577705E+00    5.9545751132089064E+00    5.9454420815119556E-02
H    2.0678351278772950E-02    1.9168759351906961E+00    1.4381985556394488E+00
C    3.7675926010525265E+00    6.9527831646809810E+00   -5.5447873963247607E-01
H    3.4167350821267339E+00    8.0291051557566870E+00   -2.2914224760646065E-01
H    4.8493770211742460E+00    6.9673987245049833E+00   -3.2986716020468387E-01
H    3.5918455396169175E+00    6.9584389357275871E+00   -1.6428399272083622E+00
     &END COORD
     &KIND C
       BASIS_SET DZVP-MOLOPT-SR-GTH-q4
       POTENTIAL GTH-PBE-q4
       &POTENTIAL
 2 2
  0.3384712400000000E+00 2 -0.8803673979999999E+01  0.1339210850000000E+01
 2
  0.3025757500000000E+00 1  0.9622486650000001E+01
  0.2915069400000000E+00 0
         # Potential name:  GTH-PBE-Q4  for symbol:  C
         # Potential read from the potential filename: GTH_POTENTIALS
       &END POTENTIAL
     &END KIND
     &KIND O
       BASIS_SET DZVP-MOLOPT-SR-GTH-q6
       POTENTIAL GTH-PBE-q6
       &POTENTIAL
 2 4
  0.2445543000000000E+00 2 -0.1666721480000000E+02  0.2487311320000000E+01
 2
  0.2209559200000000E+00 1  0.1833745811000000E+02
  0.2113324700000000E+00 0
         # Potential name:  GTH-PBE-Q6  for symbol:  O
         # Potential read from the potential filename: GTH_POTENTIALS
       &END POTENTIAL
     &END KIND
     &KIND H
       BASIS_SET DZVP-MOLOPT-SR-GTH-q1
       POTENTIAL GTH-PBE-q1
       &POTENTIAL
 1
  0.2000000000000000E+00 2 -0.4178900440000000E+01  0.7244633100000000E+00
 0
         # Potential name:  GTH-PBE-Q1  for symbol:  H
         # Potential read from the potential filename: GTH_POTENTIALS
       &END POTENTIAL
     &END KIND
     &KIND N
       BASIS_SET DZVP-MOLOPT-SR-GTH
       POTENTIAL GTH-PBE-q5
       &POTENTIAL
 2 3
  0.2837905100000000E+00 2 -0.1241522559000000E+02  0.1868095920000000E+01
 2
  0.2554050000000000E+00 1  0.1363026257000000E+02
  0.2454945300000000E+00 0
         # Potential name:  GTH-PBE-Q5  for symbol:  N
         # Potential read from the potential filename: GTH_POTENTIALS
       &END POTENTIAL
     &END KIND
     &KIND Ga
       BASIS_SET DZVP-MOLOPT-SR-GTH
       POTENTIAL GTH-PBE-q13
       &POTENTIAL
 2 1 10
  0.4900000000000000E+00 0
 3
  0.4167772300000000E+00 3  0.1047568975000000E+02 -0.4921768140000000E+01  0.8707055900000000E+00
  0.7770178090000000E+01 -0.2248152160000000E+01
  0.1784415450000000E+01
  0.5696265200000000E+00 2  0.1777985340000000E+01  0.1958597600000000E+00
 -0.2317443900000000E+00
  0.2381265000000000E+00 1 -0.1624868022000000E+02
         # Potential name:  GTH-PBE-Q13  for symbol:  GA
         # Potential read from the potential filename: GTH_POTENTIALS
       &END POTENTIAL
     &END KIND
     &TOPOLOGY
       NUMBER_OF_ATOMS  206
       MULTIPLE_UNIT_CELL  1 1 1
     &END TOPOLOGY
   &END SUBSYS
 &END FORCE_EVAL
