 # Version information for this restart file 
 # current date 2019-06-24 17:56:37.408
 # current working dir /scratch/rzk/rzk/GaN-carbene/443-adatoms-both-2x2/03-DissMethanol/02-O-GaSur-H-NTop
 # Program compiled at                              Sun Apr  7 00:48:11 EDT 2019
 # Program compiled on                          beluga2.int.ets1.calculquebec.ca
 # Program compiled for                        Beluga-Linux-x86-64-intel-openmpi
 # Source code revision number                                         svn:18619
 &GLOBAL
   PRINT_LEVEL  MEDIUM
   PROJECT_NAME TEST
   RUN_TYPE  GEO_OPT
 &END GLOBAL
 &MOTION
   &GEO_OPT
     MAX_ITER  500
     STEP_START_VAL  28
   &END GEO_OPT
 &END MOTION
 &FORCE_EVAL
   METHOD  QS
   STRESS_TENSOR  ANALYTICAL
   &DFT
     BASIS_SET_FILE_NAME BASIS_MOLOPT
     POTENTIAL_FILE_NAME GTH_POTENTIALS
     UKS  T
     SURFACE_DIPOLE_CORRECTION  T
     SURF_DIP_DIR  Z
     &SCF
       MAX_SCF  80
       EPS_SCF     5.0000000000000004E-06
       &OT  T
         PRECONDITIONER  FULL_ALL
       &END OT
       &OUTER_SCF  T
         OPTIMIZER  NONE
         EPS_SCF     5.0000000000000004E-06
         MAX_SCF  4
       &END OUTER_SCF
       &PRINT
         &RESTART  OFF
           BACKUP_COPIES  1
           &EACH
             JUST_ENERGY  0
             QS_SCF  0
             MD  20
           &END EACH
         &END RESTART
       &END PRINT
     &END SCF
     &QS
       EPS_DEFAULT     1.0000000000000000E-14
       METHOD  GPW
     &END QS
     &MGRID
       NGRIDS  5
       CUTOFF     1.2000000000000000E+03
     &END MGRID
     &XC
       DENSITY_CUTOFF     1.0000000000000000E-10
       GRADIENT_CUTOFF     1.0000000000000000E-10
       TAU_CUTOFF     1.0000000000000000E-10
       &XC_FUNCTIONAL  NO_SHORTCUT
         &PBE  T
         &END PBE
       &END XC_FUNCTIONAL
       &VDW_POTENTIAL
         POTENTIAL_TYPE  PAIR_POTENTIAL
         &PAIR_POTENTIAL
           R_CUTOFF     1.0000000000000004E+01
           TYPE  DFTD3
           PARAMETER_FILE_NAME dftd3.dat
           REFERENCE_FUNCTIONAL PBE
           EPS_CN     9.9999999999999995E-07
           CALCULATE_C9_TERM  T
           REFERENCE_C9_TERM  T
           LONG_RANGE_CORRECTION  F
           VERBOSE_OUTPUT  F
         &END PAIR_POTENTIAL
       &END VDW_POTENTIAL
     &END XC
   &END DFT
   &SUBSYS
     &CELL
       A     1.2864472766435110E+01    0.0000000000000000E+00    0.0000000000000000E+00
       B    -6.4322363581020028E+00    1.1140960178524473E+01    0.0000000000000000E+00
       C     0.0000000000000000E+00    0.0000000000000000E+00    3.2000000000000000E+01
       MULTIPLE_UNIT_CELL  1 1 1
       &CELL_REF
         A     1.2982353780853531E+01    0.0000000000000000E+00    0.0000000000000000E+00
         B    -6.4911768904267628E+00    1.1243048175136114E+01    0.0000000000000000E+00
         C     0.0000000000000000E+00    0.0000000000000000E+00    3.2000000000000000E+01
         MULTIPLE_UNIT_CELL  1 1 1
       &END CELL_REF
     &END CELL
     &COORD
N    3.2010238543159424E-02    1.8783439506889459E+00    2.5023102389318912E+00
Ga    1.9434016136056238E-02   -3.6185611536482302E-02    2.9640734767902419E+00
N    2.2344806991262695E-02    2.6727692934570852E-02    5.0239147835685154E+00
Ga    2.5972433860904684E-02    1.9027274648645029E+00    5.7275071313809853E+00
N    1.8594429605134518E-02    1.8933841005963037E+00    7.7393540807754553E+00
Ga    1.6829871687387869E-02    5.0724906377865017E-02    8.3991541510502987E+00
N    1.5816242544736805E-02    4.2010430285206346E-02    1.0378350797334321E+01
Ga    1.4671051729772207E-02    1.8752657772873156E+00    1.1037822021304082E+01
N    1.3937702433956258E-02    1.8550703602555350E+00    1.3036581385839249E+01
Ga    1.3954909939205451E-02    2.6906605317196474E-02    1.3825548386660408E+01
N    1.5743286033869909E-02    2.4776097124560817E-02    1.6037910534676644E+01
Ga    1.5543256839683070E-02    2.0290333811914842E+00    1.6405420889846738E+01
Ga    1.8466312310986509E-02    5.1220718627465152E+00    9.9932601206282046E-01
N   -1.4489170753892531E+00    4.7464279335433801E+00    2.4907642221841551E+00
Ga   -1.6116007959349912E+00    2.8594165369543934E+00    3.0810258882062111E+00
N   -1.5731656899213269E+00    2.8446331672372955E+00    5.1211137645523799E+00
Ga   -1.6248165328862814E+00    4.6811384558197497E+00    5.7749961662319924E+00
N   -1.6068534688264915E+00    4.6863735134949200E+00    7.7710192749536269E+00
Ga   -1.5768079212560213E+00    2.8307789200179148E+00    8.4033550012685261E+00
N   -1.5793296336478171E+00    2.8297377605196776E+00    1.0398922547838893E+01
Ga   -1.6087892672645359E+00    4.6898907769434341E+00    1.1034000661144001E+01
N   -1.6262844137824828E+00    4.6974327077467013E+00    1.3034362165861015E+01
Ga   -1.5833330476310334E+00    2.8283888435521813E+00    1.3580627570756326E+01
N   -1.6011018549251572E+00    2.8191091502176389E+00    1.5557529751642578E+01
Ga   -1.4692221133096772E+00    4.6084968383530649E+00    1.6406523981128071E+01
N    2.1769898355435451E-02    3.7472253215720208E+00    1.7528377474176182E+01
N   -3.1891163336423309E+00    7.6095872201454666E+00    2.5062555794372043E+00
Ga   -3.1796835736850708E+00    5.6313153702837244E+00    2.8659943544871247E+00
N   -3.1985962033884756E+00    5.6252188479586129E+00    5.0036216580865887E+00
Ga   -3.1867156770581970E+00    7.4473907474035679E+00    5.7760529489256793E+00
N   -3.1916050000460148E+00    7.4643597731766098E+00    7.7697872530863616E+00
Ga   -3.2004006858633560E+00    5.6139115202358116E+00    8.4115190062211873E+00
N   -3.2003985441159783E+00    5.6118439165341165E+00    1.0387231704619452E+01
Ga   -3.2007869897695862E+00    7.4520863004033018E+00    1.1034137946552034E+01
N   -3.2009093537325568E+00    7.4303291726682872E+00    1.3028784059007885E+01
Ga   -3.2078335483670055E+00    5.6116234719907947E+00    1.3822985040564339E+01
N   -3.2085367313433779E+00    5.6124968011694536E+00    1.6038353150714300E+01
Ga   -3.2011736170034943E+00    7.6643621976434693E+00    1.6455803388584012E+01
Ga   -3.1993879216438810E+00    9.3436196287077031E+00    1.5287389683492782E+00
N   -4.6853004717903470E+00    1.0188620472924351E+01    2.5315937729852740E+00
Ga   -4.9038949589038738E+00    8.3284707408489673E+00    3.2819937801607884E+00
N   -4.8036508400465445E+00    8.3968405225341751E+00    5.2369721619476675E+00
Ga   -4.8161756812877803E+00    1.0270359871481393E+01    5.7823119363832793E+00
N   -4.8108893106586681E+00    1.0263610593198475E+01    7.7698512057910287E+00
Ga   -4.7967864147749362E+00    8.4050092058326022E+00    8.4045058124919709E+00
N   -4.7964851465693759E+00    8.4030600113339933E+00    1.0397763749648320E+01
Ga   -4.8210028196279593E+00    1.0263420450105125E+01    1.1025876618545075E+01
N   -4.8391437601413347E+00    1.0268152819686479E+01    1.3023750731800096E+01
Ga   -4.7972558354652177E+00    8.4012469391047233E+00    1.3587478431687757E+01
N   -4.8239551609840703E+00    8.3836614661000031E+00    1.5548100944531544E+01
Ga   -4.6358142773648945E+00    1.0148242534582813E+01    1.6456900899458759E+01
N   -3.1893405741949752E+00    9.3257774486797782E+00    1.7594795936983161E+01
N    3.2181994982632678E+00    1.9404575909907009E+00    2.5468600473426752E+00
Ga    3.2289851710852209E+00    2.1047030653360646E-01    3.2574587893063360E+00
N    3.2368173299349583E+00    6.0551639300786872E-02    5.2131249273471072E+00
Ga    3.2131360258888209E+00    1.9388861730641069E+00    5.7943591600171578E+00
N    3.2283717588650820E+00    1.9105525820703630E+00    7.7880788759222446E+00
Ga    3.2386094652637287E+00    4.6159728892199894E-02    8.3899167051908528E+00
N    3.2351096172040621E+00    3.1027987864286365E-02    1.0389733527532384E+01
Ga    3.2339866519144422E+00    1.8937905853608483E+00    1.0998822164925869E+01
N    3.2305459806942021E+00    1.8943099115306292E+00    1.2973117390659082E+01
Ga    3.2307221939210602E+00    2.2678367964268541E-02    1.3588272956430709E+01
N    3.2257785193236908E+00    5.8132992480059452E-02    1.5550020961811562E+01
Ga    3.2330171429643659E+00    1.8938377437033105E+00    1.5825160725359957E+01
N    1.5048227099196270E+00    4.7344711343453705E+00    2.3766637070824701E+00
Ga    1.6748116201624130E+00    2.8854183767556338E+00    3.0776710043638515E+00
N    1.6117816793557531E+00    2.8538019221066242E+00    5.1151415148782160E+00
Ga    1.6911278576564643E+00    4.6833299279075566E+00    5.8210908940151658E+00
N    1.6232411768999382E+00    4.6739963782898890E+00    7.8212907196750221E+00
Ga    1.6132349932808066E+00    2.8239173035461613E+00    8.4175103900915893E+00
N    1.6125156136494656E+00    2.8232027411766865E+00    1.0412158189717179E+01
Ga    1.6406200088763239E+00    4.6908619791662334E+00    1.1028278041058028E+01
N    1.6559983610113276E+00    4.6983091964106274E+00    1.3033283005844675E+01
Ga    1.6113778974022659E+00    2.8297571922995672E+00    1.3579498913865201E+01
N    1.6309693660717279E+00    2.8183410608077337E+00    1.5557506496721480E+01
Ga    1.5066870211518251E+00    4.6122388067057383E+00    1.6405847194057344E+01
N    3.6766716360644269E-02    7.3780093192054590E+00    2.5827784316473501E+00
Ga    8.7207345294691388E-02    5.6732631858764844E+00    3.4410698141587690E+00
N    2.9184894876390723E-02    5.6153854600424307E+00    5.3340524454195029E+00
Ga    3.7147168021660681E-02    7.4922618115021864E+00    5.8777639392080303E+00
N    2.2155336236090215E-02    7.4798038957937019E+00    7.8408257074122094E+00
Ga    1.3119329686558061E-02    5.5999482101489759E+00    8.4124503810298776E+00
N    1.1289785362647162E-02    5.6011555541445883E+00    1.0409910267864840E+01
Ga    1.4131890696245335E-02    7.4698010027607022E+00    1.1000327695915569E+01
N    1.4092323966456526E-02    7.4638237274163277E+00    1.2974154859333344E+01
Ga    1.5334292859800990E-02    5.5943489066979053E+00    1.3579822914920562E+01
N    1.4292383105805873E-02    5.6162514120674931E+00    1.5557160116286134E+01
Ga    1.7069073083924476E-02    7.4669098334370698E+00    1.5824813714669549E+01
N   -1.6842812942383802E+00    1.0200137784706437E+01    2.5013262151475844E+00
Ga   -1.4628619637353333E+00    8.3239631648957619E+00    3.2491903115420353E+00
N   -1.5694137516130120E+00    8.4002144077993570E+00    5.2096899280753446E+00
Ga   -1.5592983890586218E+00    1.0283253811199044E+01    5.7522187000432119E+00
N   -1.5786707990126445E+00    1.0265317542159181E+01    7.7526717893616475E+00
Ga   -1.5985610405107689E+00    8.4135877290065597E+00    8.4126660173955301E+00
N   -1.6033021728998940E+00    8.4067417117985705E+00    1.0404276058406730E+01
Ga   -1.5757697705304665E+00    1.0266627456464857E+01    1.1035238008772486E+01
N   -1.5600253466827156E+00    1.0270572306537623E+01    1.3031758237754085E+01
Ga   -1.6050882809078417E+00    8.4017944737058592E+00    1.3588292300899937E+01
N   -1.5770103566295099E+00    8.3779032497022925E+00    1.5550350585180032E+01
Ga   -1.7514544423069609E+00    1.0157666527146198E+01    1.6455750952441232E+01
N    6.4597137586119260E+00    2.0485189525780414E+00    2.4992493040175878E+00
Ga    6.4684259456559046E+00    6.7998882700779778E-02    2.8230655293012892E+00
N    6.4568979334895849E+00    5.3923281291370792E-02    4.9691426791282245E+00
Ga    6.4472469693661463E+00    1.8893429185243511E+00    5.7453876284913141E+00
N    6.4498785649245063E+00    1.8905843230723438E+00    7.7487065630174357E+00
Ga    6.4533584139674156E+00    4.7931340702030298E-02    8.4006300838201717E+00
N    6.4500155734461320E+00    4.1109486770337350E-02    1.0379147006721951E+01
Ga    6.4499916679513687E+00    1.8789275619685095E+00    1.1033047065018687E+01
N    6.4492908860026645E+00    1.8572181950402848E+00    1.3030611311186714E+01
Ga    6.4497733224954761E+00    3.8221253123777929E-02    1.3843988465683196E+01
N    6.4500110872866143E+00    3.6603724330502865E-02    1.6039884092320481E+01
Ga    6.4484651624840783E+00    2.0770380057779323E+00    1.6455784250328485E+01
Ga    6.4913010841403267E+00    3.7607392095787948E+00    1.4710949241079330E+00
N    4.9606409014859798E+00    4.6487780682476361E+00    2.3616696515086231E+00
Ga    4.7111931069620807E+00    2.8443470374296980E+00    3.2235927333378678E+00
N    4.8431999447355736E+00    2.8488900172226685E+00    5.1898817179601080E+00
Ga    4.8040103313855003E+00    4.7153303285546722E+00    5.7983210830648755E+00
N    4.8521464172275177E+00    4.6830732531389314E+00    7.8062748584339268E+00
Ga    4.8505538682087712E+00    2.8297199809179392E+00    8.4042354814096107E+00
N    4.8502966563054111E+00    2.8249238383951694E+00    1.0402563244268224E+01
Ga    4.8255721639242131E+00    4.6889765625163307E+00    1.1029240323861895E+01
N    4.8105791895450540E+00    4.6967701922159506E+00    1.3027981702746169E+01
Ga    4.8536189265448737E+00    2.8302179791399706E+00    1.3587117039872144E+01
N    4.8201247116412587E+00    2.8166980620595012E+00    1.5549872484531734E+01
Ga    5.0140870381850506E+00    4.5810414298327524E+00    1.6455534726123350E+01
N    6.4503603489364290E+00    3.7392439039014258E+00    1.7594505402966739E+01
N    3.2497726162400160E+00    7.6157324885101598E+00    2.3724429239799094E+00
Ga    3.2265896106807581E+00    5.6343827093608798E+00    1.8847637336768259E+00
N    3.2337842510759116E+00    5.6165528759223236E+00    5.2143262120598690E+00
Ga    3.2311047837426981E+00    7.4221132528504574E+00    5.8057198108108574E+00
N    3.2308143875417388E+00    7.4826716639096018E+00    7.8113045748601460E+00
Ga    3.2369435876051713E+00    5.6141670109230288E+00    8.4029855938659619E+00
N    3.2333343850877392E+00    5.6115789439025257E+00    1.0390814676466203E+01
Ga    3.2338286036712258E+00    7.4499072483761983E+00    1.1035231078541271E+01
N    3.2324170443758207E+00    7.4311185072123314E+00    1.3030897070333275E+01
Ga    3.2396925696153676E+00    5.6135237696821951E+00    1.3824455954469920E+01
N    3.2428283671656333E+00    5.6140121647923769E+00    1.6037419723640781E+01
Ga    3.2340616881437008E+00    7.6753621875156135E+00    1.6468910573502033E+01
Ga    3.2577095158058986E+00    9.3775076650052664E+00    1.4732732428125166E+00
N    1.7442595203708555E+00    1.0200826130474770E+01    2.4940979283094897E+00
Ga    1.5700800213881672E+00    8.2945768222322442E+00    3.2208729204514737E+00
N    1.6324341681860244E+00    8.3977119066518195E+00    5.1893070367876781E+00
Ga    1.6098240728558049E+00    1.0272374590081633E+01    5.7451968830698297E+00
N    1.6161363975994381E+00    1.0263564422622888E+01    7.7494605729272656E+00
Ga    1.6384580425131425E+00    8.4175255480659796E+00    8.4283422055322195E+00
N    1.6321563461468229E+00    8.4082331712202123E+00    1.0417707226751418E+01
Ga    1.6089871568544403E+00    1.0267087465917166E+01    1.1041107677543442E+01
N    1.5919661951517543E+00    1.0271387944167923E+01    1.3034435409972520E+01
Ga    1.6364323038206705E+00    8.4019415250911624E+00    1.3590306565903445E+01
N    1.6074195533147120E+00    8.3792775943687605E+00    1.5549647997798671E+01
Ga    1.7986206890803738E+00    1.0149302219388440E+01    1.6469463679704720E+01
N    3.2289335658555447E+00    9.3240666685340674E+00    1.7621422029856554E+01
N    9.6970288374825291E+00    1.9332542314980834E+00    2.5499159754749154E+00
Ga    9.6901710945886830E+00    1.9647133025164451E-01    3.2561426789021501E+00
N    9.6750330614851183E+00    5.8125437703083600E-02    5.2134814420070743E+00
Ga    9.6990946234278308E+00    1.9232141784432322E+00    5.8079321588478683E+00
N    9.6750514670291512E+00    1.9065350685886893E+00    7.7941206617486873E+00
Ga    9.6642583142197651E+00    3.8652761600661854E-02    8.3901880408598899E+00
N    9.6626176287508621E+00    2.9602636537689717E-02    1.0389771665573949E+01
Ga    9.6627250143126844E+00    1.8961597313318130E+00    1.0987631024870096E+01
N    9.6650788301280759E+00    1.8958786974250741E+00    1.2963713681057000E+01
Ga    9.6646863722758738E+00    2.5130925191558792E-02    1.3590880181470210E+01
N    9.6694450130726253E+00    5.9343109623591551E-02    1.5549649722652045E+01
Ga    9.6624468623415680E+00    1.8920243218545665E+00    1.5828714379018157E+01
N    7.9618435675638368E+00    4.6465008602782421E+00    2.5035759591335123E+00
Ga    8.1897286762889934E+00    2.7936692733853445E+00    3.2546179242885152E+00
N    8.0713321869605714E+00    2.8365373540808556E+00    5.2138834083126406E+00
Ga    8.0734630396240021E+00    4.7099787491869947E+00    5.7629467764193345E+00
N    8.0675103509448984E+00    4.6961828641074890E+00    7.7619138652656083E+00
Ga    8.0512027036375979E+00    2.8344331606726865E+00    8.3870371501409018E+00
N    8.0462670722194112E+00    2.8309674385951000E+00    1.0388215249263288E+01
Ga    8.0719900158491367E+00    4.6879411998267075E+00    1.1033685884158563E+01
N    8.0871959234322066E+00    4.6960204497774587E+00    1.3028643660562848E+01
Ga    8.0447951656401440E+00    2.8287598403856067E+00    1.3587820365369589E+01
N    8.0771608028671000E+00    2.8170572779861272E+00    1.5550307655140433E+01
Ga    7.8839299837980210E+00    4.5810664373176220E+00    1.6455632166379647E+01
N    6.4505040473067989E+00    7.4824812421263118E+00    2.5747802449291948E+00
Ga    6.4095803892639394E+00    5.7334861615281323E+00    3.2440716006397610E+00
N    6.4433508038881246E+00    5.6161304686801241E+00    5.2077949061638300E+00
Ga    6.4400071224984439E+00    7.4662911560653891E+00    5.8464880010726237E+00
N    6.4492097316381587E+00    7.4713544037261412E+00    7.8212984640488195E+00
Ga    6.4544155798456124E+00    5.6024595554375525E+00    8.4184353975807511E+00
N    6.4531973301674306E+00    5.6012158579724334E+00    1.0410830297380397E+01
Ga    6.4511250437834331E+00    7.4691063449933139E+00    1.1000472032201520E+01
N    6.4499549107509022E+00    7.4655387023240429E+00    1.2971276341799308E+01
Ga    6.4481820750292353E+00    5.5947403466822259E+00    1.3586310467303317E+01
N    6.4495589691170387E+00    5.6252777914159005E+00    1.5547773693373701E+01
Ga    6.4471750287652005E+00    7.4647052524180868E+00    1.5821320053891654E+01
N    4.7383419459329730E+00    1.0188300127176193E+01    2.5260370324427694E+00
Ga    4.9105230554583734E+00    8.3030214618396947E+00    3.2567444537021264E+00
N    4.8322094510349487E+00    8.3938397734179215E+00    5.2182978353641314E+00
Ga    4.8590881488365483E+00    1.0259041566393027E+01    5.7758095428598644E+00
N    4.8514817960617727E+00    1.0261335996712964E+01    7.7672588510178029E+00
Ga    4.8340845600785514E+00    8.4085083271145962E+00    8.4198129522559810E+00
N    4.8347378349006025E+00    8.4046618148015106E+00    1.0411337072028335E+01
Ga    4.8538484222389995E+00    1.0264209216061769E+01    1.1031329877795258E+01
N    4.8697120762769153E+00    1.0269239765850598E+01    1.3026583281664434E+01
Ga    4.8287980953727203E+00    8.4012694908199244E+00    1.3589287472313970E+01
N    4.8579822536264423E+00    8.3839852688862155E+00    1.5547864424808418E+01
Ga    4.6599950865194266E+00    1.0143474617005223E+01    1.6469830444908965E+01
O    3.0750428922131432E+00    5.5972247141911371E+00    2.2999483463967678E-02
H    3.7767752647267429E-02    1.9234510353271759E+00    1.4757749787123644E+00
C    3.9161480996941118E+00    6.4498152487973313E+00   -7.3670678093959663E-01
H    3.3366255022614211E+00    7.2748046605770016E+00   -1.1940363380758425E+00
H    4.7348483765755738E+00    6.9065193579603479E+00   -1.4769647341852266E-01
H    4.3865218630532219E+00    5.8874221743361224E+00   -1.5627675252309456E+00
     &END COORD
     &KIND C
       BASIS_SET DZVP-MOLOPT-SR-GTH-q4
       POTENTIAL GTH-PBE-q4
       &POTENTIAL
 2 2
  0.3384712400000000E+00 2 -0.8803673979999999E+01  0.1339210850000000E+01
 2
  0.3025757500000000E+00 1  0.9622486650000001E+01
  0.2915069400000000E+00 0
         # Potential name:  GTH-PBE-Q4  for symbol:  C
         # Potential read from the potential filename: GTH_POTENTIALS
       &END POTENTIAL
     &END KIND
     &KIND O
       BASIS_SET DZVP-MOLOPT-SR-GTH-q6
       POTENTIAL GTH-PBE-q6
       &POTENTIAL
 2 4
  0.2445543000000000E+00 2 -0.1666721480000000E+02  0.2487311320000000E+01
 2
  0.2209559200000000E+00 1  0.1833745811000000E+02
  0.2113324700000000E+00 0
         # Potential name:  GTH-PBE-Q6  for symbol:  O
         # Potential read from the potential filename: GTH_POTENTIALS
       &END POTENTIAL
     &END KIND
     &KIND H
       BASIS_SET DZVP-MOLOPT-SR-GTH-q1
       POTENTIAL GTH-PBE-q1
       &POTENTIAL
 1
  0.2000000000000000E+00 2 -0.4178900440000000E+01  0.7244633100000000E+00
 0
         # Potential name:  GTH-PBE-Q1  for symbol:  H
         # Potential read from the potential filename: GTH_POTENTIALS
       &END POTENTIAL
     &END KIND
     &KIND N
       BASIS_SET DZVP-MOLOPT-SR-GTH
       POTENTIAL GTH-PBE-q5
       &POTENTIAL
 2 3
  0.2837905100000000E+00 2 -0.1241522559000000E+02  0.1868095920000000E+01
 2
  0.2554050000000000E+00 1  0.1363026257000000E+02
  0.2454945300000000E+00 0
         # Potential name:  GTH-PBE-Q5  for symbol:  N
         # Potential read from the potential filename: GTH_POTENTIALS
       &END POTENTIAL
     &END KIND
     &KIND Ga
       BASIS_SET DZVP-MOLOPT-SR-GTH
       POTENTIAL GTH-PBE-q13
       &POTENTIAL
 2 1 10
  0.4900000000000000E+00 0
 3
  0.4167772300000000E+00 3  0.1047568975000000E+02 -0.4921768140000000E+01  0.8707055900000000E+00
  0.7770178090000000E+01 -0.2248152160000000E+01
  0.1784415450000000E+01
  0.5696265200000000E+00 2  0.1777985340000000E+01  0.1958597600000000E+00
 -0.2317443900000000E+00
  0.2381265000000000E+00 1 -0.1624868022000000E+02
         # Potential name:  GTH-PBE-Q13  for symbol:  GA
         # Potential read from the potential filename: GTH_POTENTIALS
       &END POTENTIAL
     &END KIND
     &TOPOLOGY
       NUMBER_OF_ATOMS  206
       MULTIPLE_UNIT_CELL  1 1 1
     &END TOPOLOGY
   &END SUBSYS
 &END FORCE_EVAL
