 # Version information for this restart file 
 # current date 2019-06-24 17:54:18.256
 # current working dir /scratch/rzk/rzk/GaN-carbene/443-adatoms-both-2x2/03-DissMethanol/02-O-GaSur-H-NTop
 # Program compiled at                              Sun Apr  7 00:48:11 EDT 2019
 # Program compiled on                          beluga2.int.ets1.calculquebec.ca
 # Program compiled for                        Beluga-Linux-x86-64-intel-openmpi
 # Source code revision number                                         svn:18619
 &GLOBAL
   PRINT_LEVEL  MEDIUM
   PROJECT_NAME TEST
   RUN_TYPE  GEO_OPT
 &END GLOBAL
 &MOTION
   &GEO_OPT
     MAX_ITER  500
     STEP_START_VAL  27
   &END GEO_OPT
 &END MOTION
 &FORCE_EVAL
   METHOD  QS
   STRESS_TENSOR  ANALYTICAL
   &DFT
     BASIS_SET_FILE_NAME BASIS_MOLOPT
     POTENTIAL_FILE_NAME GTH_POTENTIALS
     UKS  T
     SURFACE_DIPOLE_CORRECTION  T
     SURF_DIP_DIR  Z
     &SCF
       MAX_SCF  80
       EPS_SCF     5.0000000000000004E-06
       &OT  T
         PRECONDITIONER  FULL_ALL
       &END OT
       &OUTER_SCF  T
         OPTIMIZER  NONE
         EPS_SCF     5.0000000000000004E-06
         MAX_SCF  4
       &END OUTER_SCF
       &PRINT
         &RESTART  OFF
           BACKUP_COPIES  1
           &EACH
             JUST_ENERGY  0
             QS_SCF  0
             MD  20
           &END EACH
         &END RESTART
       &END PRINT
     &END SCF
     &QS
       EPS_DEFAULT     1.0000000000000000E-14
       METHOD  GPW
     &END QS
     &MGRID
       NGRIDS  5
       CUTOFF     1.2000000000000000E+03
     &END MGRID
     &XC
       DENSITY_CUTOFF     1.0000000000000000E-10
       GRADIENT_CUTOFF     1.0000000000000000E-10
       TAU_CUTOFF     1.0000000000000000E-10
       &XC_FUNCTIONAL  NO_SHORTCUT
         &PBE  T
         &END PBE
       &END XC_FUNCTIONAL
       &VDW_POTENTIAL
         POTENTIAL_TYPE  PAIR_POTENTIAL
         &PAIR_POTENTIAL
           R_CUTOFF     1.0000000000000004E+01
           TYPE  DFTD3
           PARAMETER_FILE_NAME dftd3.dat
           REFERENCE_FUNCTIONAL PBE
           EPS_CN     9.9999999999999995E-07
           CALCULATE_C9_TERM  T
           REFERENCE_C9_TERM  T
           LONG_RANGE_CORRECTION  F
           VERBOSE_OUTPUT  F
         &END PAIR_POTENTIAL
       &END VDW_POTENTIAL
     &END XC
   &END DFT
   &SUBSYS
     &CELL
       A     1.2864472766435110E+01    0.0000000000000000E+00    0.0000000000000000E+00
       B    -6.4322363581020028E+00    1.1140960178524473E+01    0.0000000000000000E+00
       C     0.0000000000000000E+00    0.0000000000000000E+00    3.2000000000000000E+01
       MULTIPLE_UNIT_CELL  1 1 1
       &CELL_REF
         A     1.2982353780853531E+01    0.0000000000000000E+00    0.0000000000000000E+00
         B    -6.4911768904267628E+00    1.1243048175136114E+01    0.0000000000000000E+00
         C     0.0000000000000000E+00    0.0000000000000000E+00    3.2000000000000000E+01
         MULTIPLE_UNIT_CELL  1 1 1
       &END CELL_REF
     &END CELL
     &COORD
N    3.1016639028367557E-02    1.8770294926286393E+00    2.5019375266559236E+00
Ga    1.8762229680127654E-02   -3.6315826584971435E-02    2.9639776495869965E+00
N    2.2210419939753027E-02    2.6475075168050938E-02    5.0244427372169129E+00
Ga    2.6380706756680188E-02    1.9032683353670692E+00    5.7272849152110288E+00
N    1.8373151654297221E-02    1.8931373662161084E+00    7.7392648510937594E+00
Ga    1.6358592051589536E-02    5.0675640325691114E-02    8.3991852059014604E+00
N    1.5421003059700839E-02    4.1467252765729781E-02    1.0378665811279056E+01
Ga    1.4514332836488637E-02    1.8749626018037293E+00    1.1037721337400862E+01
N    1.4024508429630277E-02    1.8549318085583311E+00    1.3036670311538597E+01
Ga    1.3847049635567101E-02    2.6724398177782435E-02    1.3826028597545710E+01
N    1.6061929591813972E-02    2.5712218113084103E-02    1.6038375620331820E+01
Ga    1.5822160029644462E-02    2.0299895563840158E+00    1.6406120460687802E+01
Ga    1.8421574303609911E-02    5.1159760792198874E+00    9.9318835707680864E-01
N   -1.4489639797723421E+00    4.7456686157742993E+00    2.4902106706570195E+00
Ga   -1.6118205997866308E+00    2.8589178494345999E+00    3.0811371155650602E+00
N   -1.5732832957866976E+00    2.8449570154318238E+00    5.1210691065405669E+00
Ga   -1.6243684702952532E+00    4.6813229990574685E+00    5.7746016196551082E+00
N   -1.6069792435691959E+00    4.6861518866823584E+00    7.7707039889490055E+00
Ga   -1.5769549008952495E+00    2.8302126110031431E+00    8.4031106205675634E+00
N   -1.5796091234264007E+00    2.8290560812331385E+00    1.0399053860266170E+01
Ga   -1.6085911347694770E+00    4.6890671952640544E+00    1.1033884269522813E+01
N   -1.6259339044047145E+00    4.6971246348786027E+00    1.3034349528638495E+01
Ga   -1.5831129556212789E+00    2.8282752559880167E+00    1.3580585148920299E+01
N   -1.6007966398859579E+00    2.8195059665777786E+00    1.5557609578924056E+01
Ga   -1.4684978685238357E+00    4.6086470800420596E+00    1.6407235672628833E+01
N    2.2191538385321365E-02    3.7477741214816138E+00    1.7529551024810271E+01
N   -3.1884738325392732E+00    7.6097262927279825E+00    2.5067647983857286E+00
Ga   -3.1795039784395898E+00    5.6308890026538663E+00    2.8654642639887102E+00
N   -3.1984874315999194E+00    5.6254115435671075E+00    5.0035215786170237E+00
Ga   -3.1864021936178135E+00    7.4478834459114989E+00    5.7757533084137167E+00
N   -3.1917265152869279E+00    7.4639928014170689E+00    7.7697709191937667E+00
Ga   -3.2006790426152847E+00    5.6134271197716359E+00    8.4116393852360414E+00
N   -3.2005021100063971E+00    5.6111842807777217E+00    1.0387575688138893E+01
Ga   -3.2009467447265698E+00    7.4514782784489588E+00    1.1034399593712326E+01
N   -3.2007621960448751E+00    7.4300393550480637E+00    1.3029044115018083E+01
Ga   -3.2074408214335515E+00    5.6113026980044909E+00    1.3823315145476549E+01
N   -3.2076736879789340E+00    5.6125681687957725E+00    1.6038624265015425E+01
Ga   -3.2007385011303255E+00    7.6648885803697233E+00    1.6457126449412367E+01
Ga   -3.1988543770759601E+00    9.3446266357482202E+00    1.5283862111997097E+00
N   -4.6851792487334674E+00    1.0188881285446621E+01    2.5323549824434366E+00
Ga   -4.9036105213219487E+00    8.3290674914924754E+00    3.2822525893261161E+00
N   -4.8034844653400768E+00    8.3971721801277805E+00    5.2374377459812056E+00
Ga   -4.8161010404730833E+00    1.0270524147553498E+01    5.7826633748238816E+00
N   -4.8111359537201288E+00    1.0263260992475988E+01    7.7702033835449473E+00
Ga   -4.7970978224156395E+00    8.4045249788342513E+00    8.4049213524008444E+00
N   -4.7967983777960121E+00    8.4022834417023304E+00    1.0398152299853367E+01
Ga   -4.8212354741230037E+00    1.0262926962679479E+01    1.1025723171090258E+01
N   -4.8390930128771261E+00    1.0267805972070393E+01    1.3023761488723659E+01
Ga   -4.7968753632879473E+00    8.4010879481345526E+00    1.3587521552754382E+01
N   -4.8232929992991949E+00    8.3841477759871577E+00    1.5548652977442904E+01
Ga   -4.6352880894109143E+00    1.0148494875151552E+01    1.6458070134027814E+01
N   -3.1890461721918872E+00    9.3261128217013418E+00    1.7594496878218912E+01
N    3.2189667715329602E+00    1.9411994381649935E+00    2.5461048408421405E+00
Ga    3.2290130951101674E+00    2.1125625450054869E-01    3.2571006761806331E+00
N    3.2366512089304962E+00    6.0663330671775324E-02    5.2128951873260831E+00
Ga    3.2128505502040317E+00    1.9394899167102304E+00    5.7928507234011528E+00
N    3.2279163203380730E+00    1.9103820261950266E+00    7.7874880618752202E+00
Ga    3.2381059648840336E+00    4.6299338680614553E-02    8.3901378649180458E+00
N    3.2347782794824629E+00    3.0749885118162939E-02    1.0390030988975228E+01
Ga    3.2334325912249451E+00    1.8933424468453397E+00    1.0998903177567435E+01
N    3.2305319559433907E+00    1.8940726944236439E+00    1.2973481403246291E+01
Ga    3.2307723993247217E+00    2.2268702237735881E-02    1.3588368845743837E+01
N    3.2259974931878044E+00    5.8070075000031821E-02    1.5550487164476207E+01
Ga    3.2328953712881328E+00    1.8939762947715277E+00    1.5825035719245699E+01
N    1.5047082430548533E+00    4.7329426869853295E+00    2.3732490371835993E+00
Ga    1.6739615480323935E+00    2.8849913145829076E+00    3.0759991341467798E+00
N    1.6115125525773053E+00    2.8543696533287197E+00    5.1142018257010546E+00
Ga    1.6912387406857252E+00    4.6832309307016944E+00    5.8198007288451610E+00
N    1.6229977478411790E+00    4.6737809709013201E+00    7.8205823496031543E+00
Ga    1.6128090562733290E+00    2.8236552576776495E+00    8.4170930584293995E+00
N    1.6123295278576448E+00    2.8226957634490515E+00    1.0412236909983100E+01
Ga    1.6401429602081896E+00    4.6900609952396133E+00    1.1028727471817541E+01
N    1.6559534541515817E+00    4.6980856307310015E+00    1.3033692801421733E+01
Ga    1.6111453455722309E+00    2.8296475142456265E+00    1.3579614879489451E+01
N    1.6310689442953645E+00    2.8185742385799104E+00    1.5557619825722341E+01
Ga    1.5066109420217066E+00    4.6124160949612030E+00    1.6406385043599531E+01
N    3.7449388330007903E-02    7.3801846976183860E+00    2.5846084457789438E+00
Ga    8.6933804773815709E-02    5.6744804733340271E+00    3.4388689426939671E+00
N    2.9324919900878692E-02    5.6151422798537984E+00    5.3321046974841124E+00
Ga    3.7354295960925425E-02    7.4921756352557791E+00    5.8772029449227494E+00
N    2.1781102370182319E-02    7.4793598818668121E+00    7.8405637966779462E+00
Ga    1.3155062153944073E-02    5.5994472137403264E+00    8.4124241439152776E+00
N    1.1215067056510937E-02    5.6007372622600586E+00    1.0410297040175029E+01
Ga    1.3849560871384128E-02    7.4691106093310049E+00    1.1000573247375444E+01
N    1.4175097064140904E-02    7.4637881006121045E+00    1.2974734630216643E+01
Ga    1.5327509024922669E-02    5.5940609318986736E+00    1.3579878248403579E+01
N    1.4372909711591119E-02    5.6166241127707899E+00    1.5557132540110548E+01
Ga    1.7090991743257612E-02    7.4672374205846967E+00    1.5824696482695277E+01
N   -1.6837087194271967E+00    1.0201497914793935E+01    2.5013776809290009E+00
Ga   -1.4619787059894476E+00    8.3258607922451180E+00    3.2494573704156129E+00
N   -1.5693016647020719E+00    8.4009861351662902E+00    5.2103290225656158E+00
Ga   -1.5594920641837662E+00    1.0283765296654813E+01    5.7522674932505522E+00
N   -1.5792646659040277E+00    1.0265169111481045E+01    7.7528757887568798E+00
Ga   -1.5987390509718378E+00    8.4132367337378060E+00    8.4129085771321286E+00
N   -1.6035660943499130E+00    8.4062457675898443E+00    1.0404634499191769E+01
Ga   -1.5762048026016440E+00    1.0266344446444352E+01    1.1035459272335963E+01
N   -1.5598961776445182E+00    1.0270469609952675E+01    1.3032121870862809E+01
Ga   -1.6051687377560699E+00    8.4018449504629231E+00    1.3588438939148691E+01
N   -1.5770978522368104E+00    8.3785472542882395E+00    1.5550913871385312E+01
Ga   -1.7511799462313591E+00    1.0158033882736603E+01    1.6457110611212872E+01
N    6.4596894959332465E+00    2.0492289220291795E+00    2.4999506696784004E+00
Ga    6.4695479794346955E+00    6.8452046231928548E-02    2.8234273323029138E+00
N    6.4569771108517227E+00    5.3879593073392733E-02    4.9696310864846813E+00
Ga    6.4470705235858699E+00    1.8894743404162455E+00    5.7460082260593568E+00
N    6.4495947134239140E+00    1.8903319984128517E+00    7.7488472927049914E+00
Ga    6.4529090574293715E+00    4.7549925689482124E-02    8.4005841051469314E+00
N    6.4496722192104627E+00    4.0693715486997184E-02    1.0379414767617323E+01
Ga    6.4496944497890061E+00    1.8784648567943105E+00    1.1033309440777009E+01
N    6.4495414534843256E+00    1.8570826634933919E+00    1.3031178077229047E+01
Ga    6.4499616801376716E+00    3.8162250876010467E-02    1.3845570477606444E+01
N    6.4500554269059460E+00    3.7000291151175452E-02    1.6040819158946576E+01
Ga    6.4485404106056938E+00    2.0776019214394066E+00    1.6456522705997763E+01
Ga    6.4907297901965597E+00    3.7620994849365998E+00    1.4701567699469822E+00
N    4.9601000927705501E+00    4.6495813791112921E+00    2.3627176731116335E+00
Ga    4.7115523665797037E+00    2.8450234994461137E+00    3.2240629743382296E+00
N    4.8437267222193823E+00    2.8491546276873776E+00    5.1902544744886905E+00
Ga    4.8039675307035550E+00    4.7153970195571624E+00    5.7985295252924169E+00
N    4.8517706854988933E+00    4.6827944765005913E+00    7.8068885024970953E+00
Ga    4.8499967309944712E+00    2.8293949219554340E+00    8.4040413901970670E+00
N    4.8499147043960198E+00    2.8242376112864460E+00    1.0402838118553351E+01
Ga    4.8255258285400187E+00    4.6882142965922666E+00    1.1029856978065949E+01
N    4.8106394275348068E+00    4.6966225520069971E+00    1.3028609907049146E+01
Ga    4.8538123974776060E+00    2.8299978979343705E+00    1.3587331528814918E+01
N    4.8201620321222451E+00    2.8167342378570002E+00    1.5550157798187650E+01
Ga    5.0142550617244339E+00    4.5812224142958060E+00    1.6455657238669360E+01
N    6.4503307627025617E+00    3.7396987095376528E+00    1.7594484570029675E+01
N    3.2499607514754465E+00    7.6149011269675553E+00    2.3729743973557880E+00
Ga    3.2267933386455425E+00    5.6339553798641697E+00    1.8839218620110922E+00
N    3.2339908237471398E+00    5.6166383212919291E+00    5.2141659897499908E+00
Ga    3.2311940669337336E+00    7.4216370476787548E+00    5.8067352566070838E+00
N    3.2305443505522478E+00    7.4817604790542793E+00    7.8122571638728617E+00
Ga    3.2365096130840723E+00    5.6133026935099366E+00    8.4040883386727270E+00
N    3.2330311761686694E+00    5.6109499869982153E+00    1.0391849375331340E+01
Ga    3.2333887492247015E+00    7.4494695914959355E+00    1.1036045441380073E+01
N    3.2322716098054638E+00    7.4311212816938044E+00    1.3031623109480051E+01
Ga    3.2396415827994205E+00    5.6135269089882698E+00    1.3825493695656274E+01
N    3.2423596711442784E+00    5.6139914185433071E+00    1.6037106818154200E+01
Ga    3.2339812567928798E+00    7.6756057652425520E+00    1.6469472776330917E+01
Ga    3.2575067235322401E+00    9.3777452486522570E+00    1.4738033652555094E+00
N    1.7448294629961243E+00    1.0201843601597719E+01    2.4955470358874052E+00
Ga    1.5712064114603250E+00    8.2950548313867909E+00    3.2226976384743327E+00
N    1.6333117256244070E+00    8.3978242950021844E+00    5.1908108664646395E+00
Ga    1.6100726320155196E+00    1.0272265473506573E+01    5.7456035486600125E+00
N    1.6157471427424592E+00    1.0263118145122046E+01    7.7497269574804957E+00
Ga    1.6380688513975326E+00    8.4170443984957810E+00    8.4284412133083588E+00
N    1.6317954899427545E+00    8.4077453850174386E+00    1.0418230453195140E+01
Ga    1.6087310891128657E+00    1.0266866642164409E+01    1.1041359254302973E+01
N    1.5920311864496446E+00    1.0271507018441197E+01    1.3034925842707361E+01
Ga    1.6364571069806482E+00    8.4023463175018342E+00    1.3590762319680712E+01
N    1.6073200333861528E+00    8.3799161280123116E+00    1.5550265683353327E+01
Ga    1.7985775554211150E+00    1.0149622048061543E+01    1.6470232877194622E+01
N    3.2290715097628917E+00    9.3241866859499893E+00    1.7620680909966861E+01
N    9.6965422354208748E+00    1.9339006236159064E+00    2.5499835903294814E+00
Ga    9.6904481871239003E+00    1.9694518086625384E-01    3.2563052693241668E+00
N    9.6751896887110913E+00    5.8217149149042614E-02    5.2137296853302910E+00
Ga    9.6988837460871551E+00    1.9232774253221401E+00    5.8073181878429780E+00
N    9.6745096688618464E+00    1.9062527004123366E+00    7.7939912995677814E+00
Ga    9.6636711090213225E+00    3.8417381323397448E-02    8.3900995500494098E+00
N    9.6622331190918995E+00    2.9337706877988288E-02    1.0390088554941645E+01
Ga    9.6628325117938374E+00    1.8956859133066504E+00    1.0987640582394352E+01
N    9.6653547905485908E+00    1.8956929464830170E+00    1.2963840843247420E+01
Ga    9.6646936205763740E+00    2.5241698821695233E-02    1.3591237875421465E+01
N    9.6694882040273118E+00    5.9716662725602249E-02    1.5550373276662890E+01
Ga    9.6629891017006724E+00    1.8924438613551899E+00    1.5829435328422505E+01
N    7.9618097257935236E+00    4.6475838472728404E+00    2.5036136645316600E+00
Ga    8.1896038142530223E+00    2.7947818006447855E+00    3.2544304975251923E+00
N    8.0711351837002567E+00    2.8367705381104629E+00    5.2138058068219335E+00
Ga    8.0731332831689055E+00    4.7103030334839344E+00    5.7631309727437507E+00
N    8.0671798300181905E+00    4.6957756492054115E+00    7.7621745312118922E+00
Ga    8.0508895934838325E+00    2.8341057200926949E+00    8.3872219496995140E+00
N    8.0461216305289209E+00    2.8303434156720506E+00    1.0388554606645531E+01
Ga    8.0717870998247960E+00    4.6872835545077134E+00    1.1033882021997412E+01
N    8.0874586289135770E+00    4.6957243907450739E+00    1.3028979403451480E+01
Ga    8.0453032184740536E+00    2.8285179312821849E+00    1.3587955538086781E+01
N    8.0774595825593885E+00    2.8172280529116800E+00    1.5550780834192745E+01
Ga    7.8837953292419654E+00    4.5811913040861398E+00    1.6456198933610381E+01
N    6.4502706923959003E+00    7.4827978671957851E+00    2.5758870835025283E+00
Ga    6.4098339392767620E+00    5.7335823178120870E+00    3.2447731878513904E+00
N    6.4432436304336207E+00    5.6159214147836911E+00    5.2082632584226412E+00
Ga    6.4400412172677450E+00    7.4661907434535157E+00    5.8465444107354143E+00
N    6.4491350534785026E+00    7.4708845027956503E+00    7.8218089692104442E+00
Ga    6.4540655111261582E+00    5.6018817277362452E+00    8.4185832001180891E+00
N    6.4529941742526065E+00    5.6006801329103588E+00    1.0411345736430336E+01
Ga    6.4508565497843273E+00    7.4683791807519606E+00    1.1000873426660894E+01
N    6.4499460507593698E+00    7.4654176950163382E+00    1.2971785045051405E+01
Ga    6.4485097934158038E+00    5.5943929266049066E+00    1.3586562858336258E+01
N    6.4498735634135942E+00    5.6257025477018212E+00    1.5548125464923524E+01
Ga    6.4475133655892414E+00    7.4652838880296688E+00    1.5821524656046417E+01
N    4.7380808424116614E+00    1.0188051381337957E+01    2.5276016056634552E+00
Ga    4.9098685086776568E+00    8.3029435208947273E+00    3.2580567790657673E+00
N    4.8318314099930939E+00    8.3935948522915922E+00    5.2192357194410963E+00
Ga    4.8588880469252578E+00    1.0258589093513320E+01    5.7764020791896362E+00
N    4.8508273114629699E+00    1.0260755020223550E+01    7.7676891203334408E+00
Ga    4.8338225516860769E+00    8.4078140168481674E+00    8.4200111418522283E+00
N    4.8344177994854922E+00    8.4039223132819671E+00    1.0411944955554452E+01
Ga    4.8533311763425342E+00    1.0263801619617745E+01    1.1031248404857100E+01
N    4.8694326353530899E+00    1.0269036025966081E+01    1.3026772673088386E+01
Ga    4.8286005250173281E+00    8.4013533141777454E+00    1.3589660082209162E+01
N    4.8581813774119240E+00    8.3843741460350820E+00    1.5548509006809754E+01
Ga    4.6599781695282889E+00    1.0143655200600993E+01    1.6470501960108272E+01
O    3.0805059524952338E+00    5.5985629910139689E+00    2.0871192015623173E-02
H    3.6720703888287708E-02    1.9213754008083963E+00    1.4750437863803036E+00
C    3.9212437327799696E+00    6.4539530088757600E+00   -7.3632071511318553E-01
H    3.3376931214361192E+00    7.2738321742590939E+00   -1.1997680756164235E+00
H    4.7365915480529619E+00    6.9171941697859634E+00   -1.4269935771319850E-01
H    4.4006144206863507E+00    5.8895741639769712E+00   -1.5605292068913574E+00
     &END COORD
     &KIND C
       BASIS_SET DZVP-MOLOPT-SR-GTH-q4
       POTENTIAL GTH-PBE-q4
       &POTENTIAL
 2 2
  0.3384712400000000E+00 2 -0.8803673979999999E+01  0.1339210850000000E+01
 2
  0.3025757500000000E+00 1  0.9622486650000001E+01
  0.2915069400000000E+00 0
         # Potential name:  GTH-PBE-Q4  for symbol:  C
         # Potential read from the potential filename: GTH_POTENTIALS
       &END POTENTIAL
     &END KIND
     &KIND O
       BASIS_SET DZVP-MOLOPT-SR-GTH-q6
       POTENTIAL GTH-PBE-q6
       &POTENTIAL
 2 4
  0.2445543000000000E+00 2 -0.1666721480000000E+02  0.2487311320000000E+01
 2
  0.2209559200000000E+00 1  0.1833745811000000E+02
  0.2113324700000000E+00 0
         # Potential name:  GTH-PBE-Q6  for symbol:  O
         # Potential read from the potential filename: GTH_POTENTIALS
       &END POTENTIAL
     &END KIND
     &KIND H
       BASIS_SET DZVP-MOLOPT-SR-GTH-q1
       POTENTIAL GTH-PBE-q1
       &POTENTIAL
 1
  0.2000000000000000E+00 2 -0.4178900440000000E+01  0.7244633100000000E+00
 0
         # Potential name:  GTH-PBE-Q1  for symbol:  H
         # Potential read from the potential filename: GTH_POTENTIALS
       &END POTENTIAL
     &END KIND
     &KIND N
       BASIS_SET DZVP-MOLOPT-SR-GTH
       POTENTIAL GTH-PBE-q5
       &POTENTIAL
 2 3
  0.2837905100000000E+00 2 -0.1241522559000000E+02  0.1868095920000000E+01
 2
  0.2554050000000000E+00 1  0.1363026257000000E+02
  0.2454945300000000E+00 0
         # Potential name:  GTH-PBE-Q5  for symbol:  N
         # Potential read from the potential filename: GTH_POTENTIALS
       &END POTENTIAL
     &END KIND
     &KIND Ga
       BASIS_SET DZVP-MOLOPT-SR-GTH
       POTENTIAL GTH-PBE-q13
       &POTENTIAL
 2 1 10
  0.4900000000000000E+00 0
 3
  0.4167772300000000E+00 3  0.1047568975000000E+02 -0.4921768140000000E+01  0.8707055900000000E+00
  0.7770178090000000E+01 -0.2248152160000000E+01
  0.1784415450000000E+01
  0.5696265200000000E+00 2  0.1777985340000000E+01  0.1958597600000000E+00
 -0.2317443900000000E+00
  0.2381265000000000E+00 1 -0.1624868022000000E+02
         # Potential name:  GTH-PBE-Q13  for symbol:  GA
         # Potential read from the potential filename: GTH_POTENTIALS
       &END POTENTIAL
     &END KIND
     &TOPOLOGY
       NUMBER_OF_ATOMS  206
       MULTIPLE_UNIT_CELL  1 1 1
     &END TOPOLOGY
   &END SUBSYS
 &END FORCE_EVAL
