 # Version information for this restart file 
 # current date 2019-06-24 19:50:13.609
 # current working dir /scratch/rzk/rzk/GaN-carbene/443-adatoms-both-2x2/03-DissMethanol/02-O-GaSur-H-NTop
 # Program compiled at                              Sun Apr  7 00:48:11 EDT 2019
 # Program compiled on                          beluga2.int.ets1.calculquebec.ca
 # Program compiled for                        Beluga-Linux-x86-64-intel-openmpi
 # Source code revision number                                         svn:18619
 &GLOBAL
   PRINT_LEVEL  MEDIUM
   PROJECT_NAME TEST
   RUN_TYPE  GEO_OPT
 &END GLOBAL
 &MOTION
   &GEO_OPT
     MAX_ITER  500
     STEP_START_VAL  75
   &END GEO_OPT
 &END MOTION
 &FORCE_EVAL
   METHOD  QS
   STRESS_TENSOR  ANALYTICAL
   &DFT
     BASIS_SET_FILE_NAME BASIS_MOLOPT
     POTENTIAL_FILE_NAME GTH_POTENTIALS
     UKS  T
     SURFACE_DIPOLE_CORRECTION  T
     SURF_DIP_DIR  Z
     &SCF
       MAX_SCF  80
       EPS_SCF     5.0000000000000004E-06
       &OT  T
         PRECONDITIONER  FULL_ALL
       &END OT
       &OUTER_SCF  T
         OPTIMIZER  NONE
         EPS_SCF     5.0000000000000004E-06
         MAX_SCF  4
       &END OUTER_SCF
       &PRINT
         &RESTART  OFF
           BACKUP_COPIES  1
           &EACH
             JUST_ENERGY  0
             QS_SCF  0
             MD  20
           &END EACH
         &END RESTART
       &END PRINT
     &END SCF
     &QS
       EPS_DEFAULT     1.0000000000000000E-14
       METHOD  GPW
     &END QS
     &MGRID
       NGRIDS  5
       CUTOFF     1.2000000000000000E+03
     &END MGRID
     &XC
       DENSITY_CUTOFF     1.0000000000000000E-10
       GRADIENT_CUTOFF     1.0000000000000000E-10
       TAU_CUTOFF     1.0000000000000000E-10
       &XC_FUNCTIONAL  NO_SHORTCUT
         &PBE  T
         &END PBE
       &END XC_FUNCTIONAL
       &VDW_POTENTIAL
         POTENTIAL_TYPE  PAIR_POTENTIAL
         &PAIR_POTENTIAL
           R_CUTOFF     1.0000000000000004E+01
           TYPE  DFTD3
           PARAMETER_FILE_NAME dftd3.dat
           REFERENCE_FUNCTIONAL PBE
           EPS_CN     9.9999999999999995E-07
           CALCULATE_C9_TERM  T
           REFERENCE_C9_TERM  T
           LONG_RANGE_CORRECTION  F
           VERBOSE_OUTPUT  F
         &END PAIR_POTENTIAL
       &END VDW_POTENTIAL
     &END XC
   &END DFT
   &SUBSYS
     &CELL
       A     1.2864472766435110E+01    0.0000000000000000E+00    0.0000000000000000E+00
       B    -6.4322363581020028E+00    1.1140960178524473E+01    0.0000000000000000E+00
       C     0.0000000000000000E+00    0.0000000000000000E+00    3.2000000000000000E+01
       MULTIPLE_UNIT_CELL  1 1 1
       &CELL_REF
         A     1.2982353780853531E+01    0.0000000000000000E+00    0.0000000000000000E+00
         B    -6.4911768904267628E+00    1.1243048175136114E+01    0.0000000000000000E+00
         C     0.0000000000000000E+00    0.0000000000000000E+00    3.2000000000000000E+01
         MULTIPLE_UNIT_CELL  1 1 1
       &END CELL_REF
     &END CELL
     &COORD
N    2.4594361258020857E-02    1.8629354756746217E+00    2.4653643049343907E+00
Ga    2.9995338730180710E-03   -5.6263284149630513E-02    2.9287494363813327E+00
N    1.4592417146746540E-02    6.4688090102247037E-03    4.9976049886614167E+00
Ga    2.1555566381081772E-02    1.8834031841429777E+00    5.6996540434597724E+00
N    1.5995747333901553E-02    1.8754974688681789E+00    7.7177001649959802E+00
Ga    1.4103213136184820E-02    3.4417167249446039E-02    8.3824425399958553E+00
N    1.5005089880028768E-02    2.8341405517169835E-02    1.0363441183815109E+01
Ga    1.3151819415611738E-02    1.8605557945564015E+00    1.1026857237397511E+01
N    1.3262781764249020E-02    1.8435118949787208E+00    1.3026136130826700E+01
Ga    1.5278575411999498E-02    1.4478081701283963E-02    1.3813561237565695E+01
N    1.5277708364757506E-02    1.2827878887630827E-02    1.6024124305094936E+01
Ga    1.5288950247170236E-02    2.0136284574729091E+00    1.6386509899960640E+01
Ga   -2.1968758552170193E-02    5.4820173367348728E+00    1.0703395176126749E+00
N   -1.4493610186958135E+00    4.7480630839895719E+00    2.4977510482336029E+00
Ga   -1.6164703706813959E+00    2.8460664947809007E+00    3.0436908909276785E+00
N   -1.5800479855845786E+00    2.8247945990466201E+00    5.0952939947469487E+00
Ga   -1.6406399706784185E+00    4.6500422991543200E+00    5.7763280659475100E+00
N   -1.6139002398474884E+00    4.6645785490667508E+00    7.7671781044123955E+00
Ga   -1.5810649460361765E+00    2.8071139786033590E+00    8.3882571815190445E+00
N   -1.5807598319590999E+00    2.8139137950892485E+00    1.0385720324276937E+01
Ga   -1.6112934604352838E+00    4.6744852641323433E+00    1.1023970464326313E+01
N   -1.6280863428285106E+00    4.6858594976277628E+00    1.3025015202196434E+01
Ga   -1.5844372108409928E+00    2.8164458852276897E+00    1.3569145264829528E+01
N   -1.6002520258773452E+00    2.8072017061938350E+00    1.5547703971985690E+01
Ga   -1.4804448482856298E+00    4.6034107939786306E+00    1.6386650666521557E+01
N    1.4881543144177457E-02    3.7401886125464485E+00    1.7509036914085254E+01
N   -3.2011731493298856E+00    7.5784864162522325E+00    2.4872133508207748E+00
Ga   -3.1841684136368258E+00    5.6036089545596655E+00    2.8769562365100727E+00
N   -3.2088582569692337E+00    5.6017952696093261E+00    5.0033340195814420E+00
Ga   -3.1935444669258208E+00    7.4259201231309575E+00    5.7658446303649633E+00
N   -3.1949850825620123E+00    7.4455191962884451E+00    7.7572739099368615E+00
Ga   -3.2063235271272776E+00    5.5948169672620365E+00    8.4032794020434221E+00
N   -3.2026932889397806E+00    5.5978886471319340E+00    1.0377603331783307E+01
Ga   -3.2035241829377847E+00    7.4385135079182625E+00    1.1025463616231184E+01
N   -3.2023581217886732E+00    7.4187652724282174E+00    1.3018004899969844E+01
Ga   -3.2117192823616718E+00    5.6015074993210821E+00    1.3815388254852438E+01
N   -3.2133827311580943E+00    5.6035131622453997E+00    1.6023787928348213E+01
Ga   -3.2036255949706209E+00    7.6605502864826747E+00    1.6451568452666596E+01
Ga   -3.2127827022896422E+00    9.3128297996688278E+00    1.5102896116200522E+00
N   -4.6948932650006796E+00    1.0162847750304476E+01    2.5077544018121882E+00
Ga   -4.9147602866678977E+00    8.3038070336679546E+00    3.2683157731715902E+00
N   -4.8089897738864513E+00    8.3744470629177172E+00    5.2225673698825181E+00
Ga   -4.8252825225554261E+00    1.0250610925327630E+01    5.7610777271632339E+00
N   -4.8156369302657920E+00    1.0244686287215677E+01    7.7498877299816060E+00
Ga   -4.8002066672584105E+00    8.3879082159738410E+00    8.3919505028172559E+00
N   -4.7978125876641036E+00    8.3894890230834562E+00    1.0384614702034192E+01
Ga   -4.8216635516725699E+00    1.0250177221162160E+01    1.1013057361765089E+01
N   -4.8393067151024507E+00    1.0257128989997963E+01    1.3009937212933590E+01
Ga   -4.7986981884402597E+00    8.3901273172346844E+00    1.3577152354422513E+01
N   -4.8262316864745962E+00    8.3737407470348266E+00    1.5535567816547319E+01
Ga   -4.6319629842841161E+00    1.0133936641840064E+01    1.6453143514724129E+01
N   -3.1929121021969626E+00    9.3156638143746537E+00    1.7596995436487006E+01
N    3.2107824550518749E+00    1.9167615773784150E+00    2.5169541626591250E+00
Ga    3.2197205929876063E+00    1.8504371739890005E-01    3.2308562918248538E+00
N    3.2305047009578320E+00    3.6081480144296449E-02    5.1861532972003772E+00
Ga    3.2042259255639913E+00    1.9167724784743581E+00    5.7654512546029730E+00
N    3.2237300698080342E+00    1.8906570550743591E+00    7.7628815856172180E+00
Ga    3.2352033350594467E+00    2.6666875809752209E-02    8.3685562808321379E+00
N    3.2338454889856920E+00    1.5970428100780063E-02    1.0370288557729635E+01
Ga    3.2332387659538542E+00    1.8778882584735204E+00    1.0984091984631137E+01
N    3.2294141933324108E+00    1.8822989521883193E+00    1.2957954924753633E+01
Ga    3.2300951569641576E+00    1.1731543380902999E-02    1.3578888519053949E+01
N    3.2236830037017143E+00    4.7641275460961426E-02    1.5538109177366447E+01
Ga    3.2331280103953319E+00    1.8819007413770390E+00    1.5814547241644000E+01
N    1.5053858401830396E+00    4.7468243196461364E+00    2.3481845025690182E+00
Ga    1.6654752811795002E+00    2.8800686349890294E+00    3.0238944489854829E+00
N    1.6058812760586760E+00    2.8372246728652613E+00    5.0811551213247048E+00
Ga    1.6973555958661513E+00    4.6514503690113171E+00    5.8286452329987304E+00
N    1.6223811923793574E+00    4.6518224191094468E+00    7.8209442467564436E+00
Ga    1.6102700311103022E+00    2.8000348795408123E+00    8.4061478798488967E+00
N    1.6110868565420968E+00    2.8068506031617133E+00    1.0399837137934119E+01
Ga    1.6397809414816948E+00    4.6754512323144022E+00    1.1017265410136206E+01
N    1.6557127270893788E+00    4.6863170194394046E+00    1.3022356169939915E+01
Ga    1.6119755977941208E+00    2.8175066037205521E+00    1.3566893947168285E+01
N    1.6291335064855950E+00    2.8078100003020285E+00    1.5546116392345379E+01
Ga    1.5108850480080827E+00    4.6033398372762226E+00    1.6385794514134048E+01
N    3.2190342112909151E-02    7.2939244619376327E+00    2.5644023066904240E+00
Ga    1.0095234854974076E-01    5.5890754279804282E+00    3.5001610747413325E+00
N    2.4502677447339898E-02    5.5890930745899530E+00    5.3719915224779298E+00
Ga    2.5848156659655605E-02    7.4739717151986680E+00    5.8863034719492724E+00
N    1.5139891459815650E-02    7.4619082147641880E+00    7.8419883861653101E+00
Ga    8.7241163665857345E-03    5.5783927663233142E+00    8.4049879164034866E+00
N    9.3344563546670645E-03    5.5854932344049484E+00    1.0401182305834933E+01
Ga    1.1790190742845796E-02    7.4558909836968361E+00    1.0987511590276270E+01
N    1.3262338247263205E-02    7.4519138293692944E+00    1.2961633343735908E+01
Ga    1.4826338219348223E-02    5.5828462862685937E+00    1.3567074259175948E+01
N    1.4975015006115715E-02    5.6036883315123642E+00    1.5546656072257761E+01
Ga    1.4459120852030024E-02    7.4559119462898300E+00    1.5814043906089632E+01
N   -1.6872762880071999E+00    1.0159253025905711E+01    2.4769323354145345E+00
Ga   -1.4757364399133874E+00    8.2782365777145710E+00    3.2240797055777897E+00
N   -1.5714184550644490E+00    8.3685982860747217E+00    5.1817981687919330E+00
Ga   -1.5653983354603891E+00    1.0257455393977565E+01    5.7239301814475896E+00
N   -1.5834326060076609E+00    1.0243239250929829E+01    7.7271383726980778E+00
Ga   -1.6057392645867750E+00    8.3977142564088805E+00    8.4055140245739448E+00
N   -1.6067859495923718E+00    8.3933809575774081E+00    1.0394284295618570E+01
Ga   -1.5779113557972986E+00    1.0253969190256450E+01    1.1023112951780645E+01
N   -1.5612457830503870E+00    1.0259479180437284E+01    1.3018574569897602E+01
Ga   -1.6065648559152741E+00    8.3906550758027532E+00    1.3578582171330053E+01
N   -1.5778759589365796E+00    8.3666174662437598E+00    1.5538203805616194E+01
Ga   -1.7590388468577820E+00    1.0143764909126364E+01    1.6451352261115481E+01
N    6.4532485868349729E+00    2.0204472375011790E+00    2.4786046305693863E+00
Ga    6.4708729242297069E+00    3.0752564524830561E-02    2.7935463757982149E+00
N    6.4501195326765091E+00    2.8996857079733762E-02    4.9429380698615351E+00
Ga    6.4392533419305371E+00    1.8649262309753520E+00    5.7220303280186400E+00
N    6.4446668769903939E+00    1.8702140139388099E+00    7.7269605636927423E+00
Ga    6.4478069567519674E+00    2.8283172881456233E-02    8.3797542104491551E+00
N    6.4468523092817813E+00    2.6372761887670012E-02    1.0360505966888843E+01
Ga    6.4482069419520700E+00    1.8642973855598026E+00    1.1018427596819683E+01
N    6.4482968509739029E+00    1.8456191685745031E+00    1.3015589557583766E+01
Ga    6.4464899040932337E+00    2.8271910318585756E-02    1.3832981204144525E+01
N    6.4464506670251751E+00    2.7429102108947792E-02    1.6025565596774157E+01
Ga    6.4466794555702096E+00    2.0746150381969355E+00    1.6450259464680197E+01
Ga    6.4962008067895693E+00    3.7347535967481358E+00    1.4568865819205179E+00
N    4.9504949400612164E+00    4.6265680464082894E+00    2.3304567950974322E+00
Ga    4.7033951349908456E+00    2.8177665476179969E+00    3.1990189763470811E+00
N    4.8365399802962967E+00    2.8275015996961201E+00    5.1655328249967392E+00
Ga    4.7973627827668812E+00    4.6925018674116599E+00    5.7865473934762415E+00
N    4.8488911095112375E+00    4.6632390315217540E+00    7.7932938497014019E+00
Ga    4.8462338546868295E+00    2.8086479600977290E+00    8.3858449573503879E+00
N    4.8480558453051295E+00    2.8094612703117727E+00    1.0384925182572545E+01
Ga    4.8242847780808065E+00    4.6729784206186578E+00    1.1018046501546095E+01
N    4.8097641179261785E+00    4.6841382866705672E+00    1.3014922002625012E+01
Ga    4.8524507891073068E+00    2.8177491274111661E+00    1.3576060741411499E+01
N    4.8170810306817184E+00    2.8052056299416859E+00    1.5535849021785086E+01
Ga    5.0192697834378093E+00    4.5667161395492455E+00    1.6449279868519060E+01
N    6.4468369036842876E+00    3.7301238985684204E+00    1.7594860614488134E+01
N    3.2441494570233420E+00    7.5925380680791061E+00    2.4706447652898369E+00
Ga    3.2306507350856157E+00    5.6652563855469795E+00    1.9655497318676500E+00
N    3.2268498838304880E+00    5.5937972191003169E+00    5.2073241449635228E+00
Ga    3.2207669793656732E+00    7.4008639029608494E+00    5.7957688936167191E+00
N    3.2240478167897919E+00    7.4643200856972189E+00    7.8010527700543602E+00
Ga    3.2358702846239304E+00    5.5964089669889132E+00    8.3953959216614109E+00
N    3.2323688511046469E+00    5.5979224200122877E+00    1.0381650056064688E+01
Ga    3.2326588752527421E+00    7.4372386021256851E+00    1.1023930671082658E+01
N    3.2316928451578102E+00    7.4192696921737484E+00    1.3019294427937263E+01
Ga    3.2410380286477118E+00    5.6008926933587020E+00    1.3810800622590619E+01
N    3.2432477502356103E+00    5.6031553189840704E+00    1.6023441548200505E+01
Ga    3.2332799270397299E+00    7.6587001773209664E+00    1.6447465309497037E+01
Ga    3.2662368879079429E+00    9.2841039054538896E+00    1.4239222477161158E+00
N    1.7373389142723983E+00    1.0148844556234970E+01    2.4567886029314869E+00
Ga    1.5597835478917064E+00    8.2696440787974765E+00    3.2226176139955114E+00
N    1.6092129608812433E+00    8.3714382987559617E+00    5.1842999795955329E+00
Ga    1.6034685276462637E+00    1.0251925106237694E+01    5.7252757245526809E+00
N    1.6120034529425182E+00    1.0245460964544693E+01    7.7311867257074605E+00
Ga    1.6349355940912920E+00    8.4025733400547846E+00    8.4189220879595652E+00
N    1.6301265837429486E+00    8.3953007348774555E+00    1.0407183461836469E+01
Ga    1.6060965739412996E+00    1.0255059777801169E+01    1.1027973007506565E+01
N    1.5903912391475961E+00    1.0260795246167776E+01    1.3022378911685603E+01
Ga    1.6355330892820710E+00    8.3902267326153837E+00    1.3576877525281189E+01
N    1.6067859297639355E+00    8.3661593249845279E+00    1.5537575901987029E+01
Ga    1.7864861246926980E+00    1.0144617674137400E+01    1.6447719119079821E+01
N    3.2218129564298859E+00    9.3159960026584550E+00    1.7591630407039151E+01
N    9.6916227511852142E+00    1.9033369247937371E+00    2.5324007655878136E+00
Ga    9.6826411327010948E+00    1.4937401336635328E-01    3.2115072482982181E+00
N    9.6665568702102735E+00    3.0983107755344696E-02    5.1817707746625095E+00
Ga    9.6947072128348850E+00    1.8942351938184649E+00    5.7795720406544957E+00
N    9.6713588132274939E+00    1.8866701685398861E+00    7.7706335694660762E+00
Ga    9.6593414640942044E+00    2.2330790789933278E-02    8.3747416932468308E+00
N    9.6601550333851538E+00    1.5835092630095662E-02    1.0375357087815386E+01
Ga    9.6608887890731268E+00    1.8820309978498759E+00    1.0974763753671130E+01
N    9.6647213786564983E+00    1.8843723317399483E+00    1.2950702068499705E+01
Ga    9.6640577677508652E+00    1.4453550515844477E-02    1.3577678989169431E+01
N    9.6704249416907206E+00    4.8700663686213737E-02    1.5537606575915882E+01
Ga    9.6605181750036646E+00    1.8819112527049608E+00    1.5818906252224275E+01
N    7.9551946175686714E+00    4.6206119364270073E+00    2.4978281320615268E+00
Ga    8.1860124317079510E+00    2.7614250693752371E+00    3.2405928239699673E+00
N    8.0640238999273848E+00    2.8122241517073552E+00    5.1973419014349931E+00
Ga    8.0630224657336118E+00    4.6840239156758914E+00    5.7539266962416065E+00
N    8.0628267972780439E+00    4.6755876375601213E+00    7.7504992192635509E+00
Ga    8.0478541310711407E+00    2.8123248081815930E+00    8.3691924761642920E+00
N    8.0448731941929097E+00    2.8152025241485066E+00    1.0371757580007227E+01
Ga    8.0700827355666753E+00    4.6718512061766919E+00    1.1022774395610615E+01
N    8.0860791756871286E+00    4.6838975457034966E+00    1.3016330669595909E+01
Ga    8.0434896846522790E+00    2.8170190090264011E+00    1.3577158340585671E+01
N    8.0773907702674439E+00    2.8051541481389064E+00    1.5536443410942587E+01
Ga    7.8746498150982518E+00    4.5666558993880324E+00    1.6450343303258627E+01
N    6.4331251528587892E+00    7.4616731829079681E+00    2.5727005834618568E+00
Ga    6.4018401637123645E+00    5.7102882037841756E+00    3.2330513198515600E+00
N    6.4355206794839157E+00    5.5934176484505800E+00    5.1958155817789704E+00
Ga    6.4366612896969126E+00    7.4432627804481388E+00    5.8422203738360841E+00
N    6.4466353888210621E+00    7.4508340729523947E+00    7.8144772358722685E+00
Ga    6.4507681953942253E+00    5.5817991790183310E+00    8.4095828983833822E+00
N    6.4514028082819577E+00    5.5857064961179921E+00    1.0399707598088208E+01
Ga    6.4492442474722660E+00    7.4554006872192895E+00    1.0986131496520107E+01
N    6.4482599955453441E+00    7.4548175870906759E+00    1.2956462286610776E+01
Ga    6.4471748802580962E+00    5.5837317499205819E+00    1.3574495495767620E+01
N    6.4473872048332534E+00    5.6162318891921830E+00    1.5533461934738479E+01
Ga    6.4470073810905326E+00    7.4534220364619941E+00    1.5809699619915415E+01
N    4.7304216571448752E+00    1.0152970830194068E+01    2.4951626750558193E+00
Ga    4.9083651178068326E+00    8.2986432365208884E+00    3.2808174785561341E+00
N    4.8294201420139320E+00    8.3754473387786952E+00    5.2333539617232745E+00
Ga    4.8514467851268925E+00    1.0245250743545375E+01    5.7638260604897820E+00
N    4.8472404104893059E+00    1.0246762689071094E+01    7.7547722532585492E+00
Ga    4.8293124828966496E+00    8.3924199747742598E+00    8.4052816503344996E+00
N    4.8324993568205663E+00    8.3915008125796149E+00    1.0397108694983737E+01
Ga    4.8526170918488605E+00    1.0251324476157452E+01    1.1017772583682133E+01
N    4.8692850636444218E+00    1.0258459067509746E+01    1.3013528697495872E+01
Ga    4.8284383303726308E+00    8.3898458299047540E+00    1.3575342108761296E+01
N    4.8561200627676593E+00    8.3737189026131738E+00    1.5534704608040666E+01
Ga    4.6629690878969248E+00    1.0134619467977284E+01    1.6449734804057492E+01
O    3.0579137789507973E+00    5.9535058249225790E+00    5.9294383895192967E-02
H    2.0927142745793048E-02    1.9173138770899902E+00    1.4383943178732528E+00
C    3.7671857352239591E+00    6.9523470170784920E+00   -5.5457795542966859E-01
H    3.4163046804431589E+00    8.0283838421838354E+00   -2.2820550381577839E-01
H    4.8497319337155611E+00    6.9664093359187431E+00   -3.3066432323660006E-01
H    3.5913783915752724E+00    6.9586810292199859E+00   -1.6431955650177057E+00
     &END COORD
     &KIND C
       BASIS_SET DZVP-MOLOPT-SR-GTH-q4
       POTENTIAL GTH-PBE-q4
       &POTENTIAL
 2 2
  0.3384712400000000E+00 2 -0.8803673979999999E+01  0.1339210850000000E+01
 2
  0.3025757500000000E+00 1  0.9622486650000001E+01
  0.2915069400000000E+00 0
         # Potential name:  GTH-PBE-Q4  for symbol:  C
         # Potential read from the potential filename: GTH_POTENTIALS
       &END POTENTIAL
     &END KIND
     &KIND O
       BASIS_SET DZVP-MOLOPT-SR-GTH-q6
       POTENTIAL GTH-PBE-q6
       &POTENTIAL
 2 4
  0.2445543000000000E+00 2 -0.1666721480000000E+02  0.2487311320000000E+01
 2
  0.2209559200000000E+00 1  0.1833745811000000E+02
  0.2113324700000000E+00 0
         # Potential name:  GTH-PBE-Q6  for symbol:  O
         # Potential read from the potential filename: GTH_POTENTIALS
       &END POTENTIAL
     &END KIND
     &KIND H
       BASIS_SET DZVP-MOLOPT-SR-GTH-q1
       POTENTIAL GTH-PBE-q1
       &POTENTIAL
 1
  0.2000000000000000E+00 2 -0.4178900440000000E+01  0.7244633100000000E+00
 0
         # Potential name:  GTH-PBE-Q1  for symbol:  H
         # Potential read from the potential filename: GTH_POTENTIALS
       &END POTENTIAL
     &END KIND
     &KIND N
       BASIS_SET DZVP-MOLOPT-SR-GTH
       POTENTIAL GTH-PBE-q5
       &POTENTIAL
 2 3
  0.2837905100000000E+00 2 -0.1241522559000000E+02  0.1868095920000000E+01
 2
  0.2554050000000000E+00 1  0.1363026257000000E+02
  0.2454945300000000E+00 0
         # Potential name:  GTH-PBE-Q5  for symbol:  N
         # Potential read from the potential filename: GTH_POTENTIALS
       &END POTENTIAL
     &END KIND
     &KIND Ga
       BASIS_SET DZVP-MOLOPT-SR-GTH
       POTENTIAL GTH-PBE-q13
       &POTENTIAL
 2 1 10
  0.4900000000000000E+00 0
 3
  0.4167772300000000E+00 3  0.1047568975000000E+02 -0.4921768140000000E+01  0.8707055900000000E+00
  0.7770178090000000E+01 -0.2248152160000000E+01
  0.1784415450000000E+01
  0.5696265200000000E+00 2  0.1777985340000000E+01  0.1958597600000000E+00
 -0.2317443900000000E+00
  0.2381265000000000E+00 1 -0.1624868022000000E+02
         # Potential name:  GTH-PBE-Q13  for symbol:  GA
         # Potential read from the potential filename: GTH_POTENTIALS
       &END POTENTIAL
     &END KIND
     &TOPOLOGY
       NUMBER_OF_ATOMS  206
       MULTIPLE_UNIT_CELL  1 1 1
     &END TOPOLOGY
   &END SUBSYS
 &END FORCE_EVAL
