 # Version information for this restart file 
 # current date 2019-06-24 18:01:16.027
 # current working dir /scratch/rzk/rzk/GaN-carbene/443-adatoms-both-2x2/03-DissMethanol/02-O-GaSur-H-NTop
 # Program compiled at                              Sun Apr  7 00:48:11 EDT 2019
 # Program compiled on                          beluga2.int.ets1.calculquebec.ca
 # Program compiled for                        Beluga-Linux-x86-64-intel-openmpi
 # Source code revision number                                         svn:18619
 &GLOBAL
   PRINT_LEVEL  MEDIUM
   PROJECT_NAME TEST
   RUN_TYPE  GEO_OPT
 &END GLOBAL
 &MOTION
   &GEO_OPT
     MAX_ITER  500
     STEP_START_VAL  30
   &END GEO_OPT
 &END MOTION
 &FORCE_EVAL
   METHOD  QS
   STRESS_TENSOR  ANALYTICAL
   &DFT
     BASIS_SET_FILE_NAME BASIS_MOLOPT
     POTENTIAL_FILE_NAME GTH_POTENTIALS
     UKS  T
     SURFACE_DIPOLE_CORRECTION  T
     SURF_DIP_DIR  Z
     &SCF
       MAX_SCF  80
       EPS_SCF     5.0000000000000004E-06
       &OT  T
         PRECONDITIONER  FULL_ALL
       &END OT
       &OUTER_SCF  T
         OPTIMIZER  NONE
         EPS_SCF     5.0000000000000004E-06
         MAX_SCF  4
       &END OUTER_SCF
       &PRINT
         &RESTART  OFF
           BACKUP_COPIES  1
           &EACH
             JUST_ENERGY  0
             QS_SCF  0
             MD  20
           &END EACH
         &END RESTART
       &END PRINT
     &END SCF
     &QS
       EPS_DEFAULT     1.0000000000000000E-14
       METHOD  GPW
     &END QS
     &MGRID
       NGRIDS  5
       CUTOFF     1.2000000000000000E+03
     &END MGRID
     &XC
       DENSITY_CUTOFF     1.0000000000000000E-10
       GRADIENT_CUTOFF     1.0000000000000000E-10
       TAU_CUTOFF     1.0000000000000000E-10
       &XC_FUNCTIONAL  NO_SHORTCUT
         &PBE  T
         &END PBE
       &END XC_FUNCTIONAL
       &VDW_POTENTIAL
         POTENTIAL_TYPE  PAIR_POTENTIAL
         &PAIR_POTENTIAL
           R_CUTOFF     1.0000000000000004E+01
           TYPE  DFTD3
           PARAMETER_FILE_NAME dftd3.dat
           REFERENCE_FUNCTIONAL PBE
           EPS_CN     9.9999999999999995E-07
           CALCULATE_C9_TERM  T
           REFERENCE_C9_TERM  T
           LONG_RANGE_CORRECTION  F
           VERBOSE_OUTPUT  F
         &END PAIR_POTENTIAL
       &END VDW_POTENTIAL
     &END XC
   &END DFT
   &SUBSYS
     &CELL
       A     1.2864472766435110E+01    0.0000000000000000E+00    0.0000000000000000E+00
       B    -6.4322363581020028E+00    1.1140960178524473E+01    0.0000000000000000E+00
       C     0.0000000000000000E+00    0.0000000000000000E+00    3.2000000000000000E+01
       MULTIPLE_UNIT_CELL  1 1 1
       &CELL_REF
         A     1.2982353780853531E+01    0.0000000000000000E+00    0.0000000000000000E+00
         B    -6.4911768904267628E+00    1.1243048175136114E+01    0.0000000000000000E+00
         C     0.0000000000000000E+00    0.0000000000000000E+00    3.2000000000000000E+01
         MULTIPLE_UNIT_CELL  1 1 1
       &END CELL_REF
     &END CELL
     &COORD
N    3.4998406234480146E-02    1.8875687974188096E+00    2.5019982448598110E+00
Ga    2.2090983996343922E-02   -2.8551156300093822E-02    2.9602929510022213E+00
N    2.3066698392345639E-02    2.9935574575411357E-02    5.0205345162895956E+00
Ga    2.5583406237082423E-02    1.9051973325215434E+00    5.7259068109806535E+00
N    1.9498042433318600E-02    1.8956167013344847E+00    7.7383439180695550E+00
Ga    1.8482249331064026E-02    5.2661204415042462E-02    8.3976785150571640E+00
N    1.7007599447955789E-02    4.4022146390679646E-02    1.0376822303906847E+01
Ga    1.4969127822619790E-02    1.8767202596920531E+00    1.1038058833179829E+01
N    1.2986879896868543E-02    1.8546149012292681E+00    1.3036381435491521E+01
Ga    1.3666826643491083E-02    2.5689150858900282E-02    1.3822877147291509E+01
N    1.4098722867297761E-02    2.0466371013099685E-02    1.6034480159439898E+01
Ga    1.3898387326153856E-02    2.0231727318115267E+00    1.6400034781660935E+01
Ga    2.6411011477374506E-02    5.2275303532120692E+00    1.0250118653063276E+00
N   -1.4457548733300585E+00    4.7564122575526744E+00    2.4961927905162034E+00
Ga   -1.6087519257896643E+00    2.8677932525669103E+00    3.0752304177287990E+00
N   -1.5726772175641559E+00    2.8472765084546632E+00    5.1192474107285113E+00
Ga   -1.6282781046816515E+00    4.6809931766166040E+00    5.7799836838580347E+00
N   -1.6073154929838278E+00    4.6880688675378819E+00    7.7742600100349044E+00
Ga   -1.5762473585860104E+00    2.8326082607816541E+00    8.4042005262051074E+00
N   -1.5788613930417936E+00    2.8317418820093931E+00    1.0398898470615093E+01
Ga   -1.6092722555293284E+00    4.6921716670139109E+00    1.1034363412233214E+01
N   -1.6279982377224511E+00    4.6970666996470962E+00    1.3034474151199724E+01
Ga   -1.5850195906256166E+00    2.8273607948171606E+00    1.3579687078080703E+01
N   -1.6025950884914315E+00    2.8152417486148766E+00    1.5556135158610289E+01
Ga   -1.4735375651636240E+00    4.6058446984713246E+00    1.6401209470077038E+01
N    1.9383283178758069E-02    3.7432717295379265E+00    1.7522619292340426E+01
N   -3.1905330728203189E+00    7.6110821380937139E+00    2.5034756119773673E+00
Ga   -3.1775746435446743E+00    5.6334987084961119E+00    2.8683202004056967E+00
N   -3.1989854926957775E+00    5.6271657491314206E+00    5.0055717990480391E+00
Ga   -3.1862008633082319E+00    7.4491576579922389E+00    5.7756432813144700E+00
N   -3.1903334482197927E+00    7.4670841231181866E+00    7.7683941838173931E+00
Ga   -3.2002587870365140E+00    5.6168479218595460E+00    8.4117622980277993E+00
N   -3.2002535779303964E+00    5.6141542675735732E+00    1.0386767043640988E+01
Ga   -3.2007243743513079E+00    7.4543480427017972E+00    1.1033292398729182E+01
N   -3.2019992677526012E+00    7.4298650971173137E+00    1.3027167339799515E+01
Ga   -3.2102784183884614E+00    5.6114708509631868E+00    1.3821310312777651E+01
N   -3.2118152083599534E+00    5.6094084445934369E+00    1.6035092428709309E+01
Ga   -3.2036157238254370E+00    7.6599013670281586E+00    1.6452869936168710E+01
Ga   -3.2008863311875633E+00    9.3447956304851356E+00    1.5295916418989828E+00
N   -4.6852472149773430E+00    1.0191458702692344E+01    2.5292345634416242E+00
Ga   -4.9045940931882273E+00    8.3300635435906933E+00    3.2810821826996199E+00
N   -4.8032523630789425E+00    8.3985520399859510E+00    5.2350649735462751E+00
Ga   -4.8155643229791121E+00    1.0272512293408793E+01    5.7798811898053009E+00
N   -4.8095770451564874E+00    1.0266126437587870E+01    7.7673798307347184E+00
Ga   -4.7956218478739974E+00    8.4079636668024165E+00    8.4020189333047917E+00
N   -4.7957499268471278E+00    8.4054740679525004E+00    1.0395389798432541E+01
Ga   -4.8199179228076057E+00    1.0264976860063337E+01    1.1025142167934444E+01
N   -4.8399175337245541E+00    1.0267987656239933E+01    1.3022239215851535E+01
Ga   -4.7989525278365672E+00    8.4003037116592481E+00    1.3586579134375544E+01
N   -4.8260202225930371E+00    8.3803134202448852E+00    1.5545511288987383E+01
Ga   -4.6385785568890494E+00    1.0144949646751144E+01    1.6454420441044590E+01
N   -3.1911415695039711E+00    9.3224892014079845E+00    1.7594624077231231E+01
N    3.2169023837761204E+00    1.9426999682855728E+00    2.5500778658119123E+00
Ga    3.2299370135962673E+00    2.1168115102464080E-01    3.2576855658663626E+00
N    3.2386311333079560E+00    6.1513715279756132E-02    5.2126594474744303E+00
Ga    3.2148281486406507E+00    1.9396067520846265E+00    5.7960749088540995E+00
N    3.2304617192028822E+00    1.9123402133757557E+00    7.7876488192840831E+00
Ga    3.2409215188692384E+00    4.6890488791607447E-02    8.3877643576463168E+00
N    3.2364454519353671E+00    3.2135042240983763E-02    1.0387534803299300E+01
Ga    3.2353056348035669E+00    1.8950195512339059E+00    1.0997812828519590E+01
N    3.2296035676945776E+00    1.8937270164646292E+00    1.2970999098136788E+01
Ga    3.2301262405554789E+00    2.2320906625280138E-02    1.3587433906582225E+01
N    3.2239394712724629E+00    5.5038114611946784E-02    1.5547925304286597E+01
Ga    3.2324632485910842E+00    1.8902949266806426E+00    1.5824657581288578E+01
N    1.5056460042895563E+00    4.7468007406827573E+00    2.3951682056652071E+00
Ga    1.6758301742910897E+00    2.8924380101484317E+00    3.0804666382536650E+00
N    1.6137470316200822E+00    2.8555122010304306E+00    5.1178786077689091E+00
Ga    1.6940232695186113E+00    4.6839054523396948E+00    5.8290253126534486E+00
N    1.6249982886809633E+00    4.6756564062450945E+00    7.8255092129555663E+00
Ga    1.6145902824345433E+00    2.8249954561954436E+00    8.4188821554769113E+00
N    1.6131336351470182E+00    2.8246731576380215E+00    1.0412085137111756E+01
Ga    1.6417088623508149E+00    4.6932049543392393E+00    1.1026710226039093E+01
N    1.6558121947936124E+00    4.6979638407483719E+00    1.3031979963689858E+01
Ga    1.6114883110237539E+00    2.8291484443381392E+00    1.3578235458349631E+01
N    1.6296461457087381E+00    2.8152086734842334E+00    1.5556252386817208E+01
Ga    1.5073998446571097E+00    4.6095280374044112E+00    1.6401261792395989E+01
N    3.6083698402709280E-02    7.3594643421941290E+00    2.5739661800592604E+00
Ga    8.9425790344470832E-02    5.6620197711563698E+00    3.4669775675514796E+00
N    2.8908096245074816E-02    5.6176182711814757E+00    5.3531885888955788E+00
Ga    3.8041228891213925E-02    7.4969294526420489E+00    5.8812948436955255E+00
N    2.3627577214744139E-02    7.4832660655637735E+00    7.8421913653909838E+00
Ga    1.3249503743998343E-02    5.6022928942959052E+00    8.4129045228005381E+00
N    1.1296545734526041E-02    5.6025910724849917E+00    1.0409128037076131E+01
Ga    1.4742745530282705E-02    7.4715522391370275E+00    1.0998926726297519E+01
N    1.3565915113446281E-02    7.4622304595526421E+00    1.2971723788813023E+01
Ga    1.4883586278569181E-02    5.5933753936536101E+00    1.3578741649662723E+01
N    1.3447680809417628E-02    5.6122283584791370E+00    1.5556643994221600E+01
Ga    1.5996883638604555E-02    7.4635766677682547E+00    1.5823923441117007E+01
N   -1.6833768297301779E+00    1.0197314506025403E+01    2.5000603867150479E+00
Ga   -1.4638454625140431E+00    8.3173684212371803E+00    3.2444258027823980E+00
N   -1.5669797943320916E+00    8.3986803992215915E+00    5.2037848481339246E+00
Ga   -1.5579381202661493E+00    1.0282524595449564E+01    5.7490485378199807E+00
N   -1.5764270212401879E+00    1.0266508581009298E+01    7.7489511718744923E+00
Ga   -1.5977667733567027E+00    8.4166167849068447E+00    8.4122377264090638E+00
N   -1.6027332566348220E+00    8.4084095652563065E+00    1.0403062912239776E+01
Ga   -1.5746397154480527E+00    1.0267620487600329E+01    1.1034003077747371E+01
N   -1.5605276717592078E+00    1.0269599322862005E+01    1.3029757906284294E+01
Ga   -1.6056220162101305E+00    8.4001149682508540E+00    1.3587304300360978E+01
N   -1.5782732319332915E+00    8.3734116867236494E+00    1.5547934660201413E+01
Ga   -1.7525096020347364E+00    1.0154344176280379E+01    1.6452403964163899E+01
N    6.4609695071017486E+00    2.0486614971137240E+00    2.4985518325393907E+00
Ga    6.4665047758715577E+00    6.8993150111881618E-02    2.8215899349152198E+00
N    6.4573760139424419E+00    5.5879702984302289E-02    4.9662101747126552E+00
Ga    6.4483605453802362E+00    1.8909809486884037E+00    5.7426031139671432E+00
N    6.4513435449949901E+00    1.8923309793968479E+00    7.7467937538052487E+00
Ga    6.4553995178372112E+00    4.9804521042057334E-02    8.3980346923021170E+00
N    6.4509767487225620E+00    4.2377071073911345E-02    1.0376227569571185E+01
Ga    6.4508043270906441E+00    1.8803724704479203E+00    1.1031423418838514E+01
N    6.4480113364709934E+00    1.8561777762589748E+00    1.3028064128818297E+01
Ga    6.4486170339442683E+00    3.6862777818435603E-02    1.3839683339636700E+01
N    6.4489777275609912E+00    3.3455170362411461E-02    1.6035116246281405E+01
Ga    6.4471860260330711E+00    2.0742697455914367E+00    1.6454322231490515E+01
Ga    6.4956113129697890E+00    3.7587851958712650E+00    1.4741226779346386E+00
N    4.9630074335165091E+00    4.6499003907744072E+00    2.3571496404061896E+00
Ga    4.7111302105389914E+00    2.8462631718757772E+00    3.2224710255389142E+00
N    4.8435788465498453E+00    2.8506763350767397E+00    5.1886182864820061E+00
Ga    4.8049039433337546E+00    4.7171958814567416E+00    5.7976692403732475E+00
N    4.8539230521221839E+00    4.6851050618715728E+00    7.8041416719482095E+00
Ga    4.8531061520311018E+00    2.8318193980619908E+00    8.4038218388146486E+00
N    4.8511377005857481E+00    2.8269060408430682E+00    1.0400734372701477E+01
Ga    4.8259230952840833E+00    4.6912885156630617E+00    1.1027056069548937E+01
N    4.8092439041883495E+00    4.6960356222830342E+00    1.3025384819753468E+01
Ga    4.8522339225007096E+00    2.8296753140781674E+00    1.3585910741732484E+01
N    4.8180890496897177E+00    2.8137144177285363E+00    1.5547728609465407E+01
Ga    5.0139297754391619E+00    4.5771297288186590E+00    1.6456205897495931E+01
N    6.4491051904879582E+00    3.7351082902848480E+00    1.7597262002331927E+01
N    3.2525894453470334E+00    7.6189766689141534E+00    2.3600801756109830E+00
Ga    3.2246450822046255E+00    5.6332559989779281E+00    1.8902598558628914E+00
N    3.2336904205689301E+00    5.6187340541913411E+00    5.2195018526043633E+00
Ga    3.2306356081500156E+00    7.4261806463159177E+00    5.8009611025103416E+00
N    3.2314819134148021E+00    7.4873087341172173E+00    7.8067753332508927E+00
Ga    3.2392703810052557E+00    5.6185043869275706E+00    8.3999598156842907E+00
N    3.2342788459949450E+00    5.6139806677154578E+00    1.0388100878746826E+01
Ga    3.2350756203237343E+00    7.4515006635073799E+00    1.1032750128696867E+01
N    3.2322196192174655E+00    7.4295894476617939E+00    1.3027943151621944E+01
Ga    3.2396568144121654E+00    5.6123730455334746E+00    1.3820526570730403E+01
N    3.2429988243957832E+00    5.6110439606521130E+00    1.6036689397211759E+01
Ga    3.2336738270830283E+00    7.6711544693581875E+00    1.6467633072498796E+01
Ga    3.2605101701628332E+00    9.3828670246442964E+00    1.4666320515330422E+00
N    1.7431431588864010E+00    1.0198489371378297E+01    2.4877941664199841E+00
Ga    1.5698724311449141E+00    8.2907243923263128E+00    3.2078051556164344E+00
N    1.6293483724183888E+00    8.3977456048983594E+00    5.1781487425469885E+00
Ga    1.6101071995195624E+00    1.0272815726844978E+01    5.7397509510722422E+00
N    1.6176752556219336E+00    1.0265867324097421E+01    7.7447024457413711E+00
Ga    1.6403287281211121E+00    8.4212876149060154E+00    8.4275442982120694E+00
N    1.6331504725367563E+00    8.4097782788737625E+00    1.0415559954498246E+01
Ga    1.6098952798687705E+00    1.0267950645276793E+01    1.1039380509653748E+01
N    1.5910978997305050E+00    1.0269673632598964E+01    1.3031873340746664E+01
Ga    1.6362140659757018E+00    8.3991924671527123E+00    1.3588629060636080E+01
N    1.6072954595446121E+00    8.3742405679314338E+00    1.5547480110353870E+01
Ga    1.7966571492487495E+00    1.0146332966513274E+01    1.6467183321779771E+01
N    3.2269432707139276E+00    9.3214321195577892E+00    1.7622479863806792E+01
N    9.7000308329011933E+00    1.9351356952649730E+00    2.5491047632806487E+00
Ga    9.6914512288252617E+00    1.9837998880195348E-01    3.2533707998365347E+00
N    9.6748673213677598E+00    5.9478683971273025E-02    5.2099722698229618E+00
Ga    9.7007323136408417E+00    1.9249671033598104E+00    5.8068521142441210E+00
N    9.6766642061862740E+00    1.9088226297261104E+00    7.7919010381759692E+00
Ga    9.6660135952491242E+00    4.0801866028349891E-02    8.3877475979537159E+00
N    9.6636203328980059E+00    3.0958515705481728E-02    1.0386834704036648E+01
Ga    9.6623753612248393E+00    1.8975965143018860E+00    1.0986668682417772E+01
N    9.6639736733795356E+00    1.8948160264661347E+00    1.2962008882645080E+01
Ga    9.6639498470035861E+00    2.3340312579452509E-02    1.3589126148483745E+01
N    9.6690313953334268E+00    5.5233554972405910E-02    1.5546784205198158E+01
Ga    9.6600165329621230E+00    1.8878038902708032E+00    1.5826092687028705E+01
N    7.9633929958452079E+00    4.6462215864931684E+00    2.5049763896282204E+00
Ga    8.1923416131430802E+00    2.7937057789339641E+00    3.2550974242747905E+00
N    8.0722069561973271E+00    2.8378009054743840E+00    5.2134140862952707E+00
Ga    8.0733487030727069E+00    4.7111230772681871E+00    5.7616343651848831E+00
N    8.0688277395129440E+00    4.6985412358597562E+00    7.7601945319620214E+00
Ga    8.0524988880946680E+00    2.8364596793285535E+00    8.3850507857293017E+00
N    8.0469055903127522E+00    2.8328105934158763E+00    1.0386011610473071E+01
Ga    8.0719654657406572E+00    4.6898843300633493E+00    1.1032649618257004E+01
N    8.0859263337952907E+00    4.6955009146851001E+00    1.3026803845595856E+01
Ga    8.0430262924134599E+00    2.8280307985872795E+00    1.3586527156765221E+01
N    8.0762070157338766E+00    2.8135851256878328E+00    1.5547235981678739E+01
Ga    7.8815860358916598E+00    4.5770904167444169E+00    1.6455018724724550E+01
N    6.4524125700741717E+00    7.4832766714706072E+00    2.5708247705239127E+00
Ga    6.4098469892485674E+00    5.7350761989553085E+00    3.2419616680293819E+00
N    6.4435480650955226E+00    5.6190253125424130E+00    5.2055018451937913E+00
Ga    6.4397460707325402E+00    7.4688619618773613E+00    5.8441561894608203E+00
N    6.4498647346186466E+00    7.4742981255713756E+00    7.8180161669672303E+00
Ga    6.4559168940558580E+00    5.6054429184300165E+00    8.4166732487190465E+00
N    6.4537205644513893E+00    5.6033624866719087E+00    1.0407858788253153E+01
Ga    6.4518959729341985E+00    7.4713087340443218E+00    1.0998278397000018E+01
N    6.4490512332877099E+00    7.4649351952487919E+00    1.2968200990411662E+01
Ga    6.4464055195425178E+00    5.5942208597974341E+00    1.3584658204109285E+01
N    6.4476057145944266E+00    5.6222595118059600E+00    1.5545544343574905E+01
Ga    6.4455029667364503E+00    7.4608699513579095E+00    1.5819982926299826E+01
N    4.7406332298821789E+00    1.0192311529413070E+01    2.5198151320539299E+00
Ga    4.9130795352923782E+00    8.3059171740635858E+00    3.2495761280419400E+00
N    4.8329011078545694E+00    8.3964068194985817E+00    5.2123392622118478E+00
Ga    4.8597373132006858E+00    1.0261706086899959E+01    5.7714639206419402E+00
N    4.8537155554549622E+00    1.0264625014346466E+01    7.7635707117227151E+00
Ga    4.8351124478860106E+00    8.4122596470412763E+00    8.4171659678997965E+00
N    4.8356238011472819E+00    8.4069645628037861E+00    1.0407861845481406E+01
Ga    4.8549765040843598E+00    1.0265676829156448E+01    1.1030327053473995E+01
N    4.8697814013334524E+00    1.0268465327868801E+01    1.3024560022005639E+01
Ga    4.8283528611332969E+00    8.3994668165637218E+00    1.3587536058392228E+01
N    4.8561174332799180E+00    8.3805912480280202E+00    1.5545253062717785E+01
Ga    4.6596168527304886E+00    1.0140314093442852E+01    1.6468221713564617E+01
O    3.0323690814178423E+00    5.5679679702099927E+00    3.1349341850895877E-02
H    4.4664578886065107E-02    1.9414320876818358E+00    1.4759199094989552E+00
C    3.8681630470943924E+00    6.3996037413391500E+00   -7.5797825268851760E-01
H    3.3048745721497541E+00    7.2745598258346513E+00   -1.1483248639567842E+00
H    4.7488324113263705E+00    6.7900498503143361E+00   -2.0862168703391121E-01
H    4.2453920699667460E+00    5.8374793637666693E+00   -1.6322070678375258E+00
     &END COORD
     &KIND C
       BASIS_SET DZVP-MOLOPT-SR-GTH-q4
       POTENTIAL GTH-PBE-q4
       &POTENTIAL
 2 2
  0.3384712400000000E+00 2 -0.8803673979999999E+01  0.1339210850000000E+01
 2
  0.3025757500000000E+00 1  0.9622486650000001E+01
  0.2915069400000000E+00 0
         # Potential name:  GTH-PBE-Q4  for symbol:  C
         # Potential read from the potential filename: GTH_POTENTIALS
       &END POTENTIAL
     &END KIND
     &KIND O
       BASIS_SET DZVP-MOLOPT-SR-GTH-q6
       POTENTIAL GTH-PBE-q6
       &POTENTIAL
 2 4
  0.2445543000000000E+00 2 -0.1666721480000000E+02  0.2487311320000000E+01
 2
  0.2209559200000000E+00 1  0.1833745811000000E+02
  0.2113324700000000E+00 0
         # Potential name:  GTH-PBE-Q6  for symbol:  O
         # Potential read from the potential filename: GTH_POTENTIALS
       &END POTENTIAL
     &END KIND
     &KIND H
       BASIS_SET DZVP-MOLOPT-SR-GTH-q1
       POTENTIAL GTH-PBE-q1
       &POTENTIAL
 1
  0.2000000000000000E+00 2 -0.4178900440000000E+01  0.7244633100000000E+00
 0
         # Potential name:  GTH-PBE-Q1  for symbol:  H
         # Potential read from the potential filename: GTH_POTENTIALS
       &END POTENTIAL
     &END KIND
     &KIND N
       BASIS_SET DZVP-MOLOPT-SR-GTH
       POTENTIAL GTH-PBE-q5
       &POTENTIAL
 2 3
  0.2837905100000000E+00 2 -0.1241522559000000E+02  0.1868095920000000E+01
 2
  0.2554050000000000E+00 1  0.1363026257000000E+02
  0.2454945300000000E+00 0
         # Potential name:  GTH-PBE-Q5  for symbol:  N
         # Potential read from the potential filename: GTH_POTENTIALS
       &END POTENTIAL
     &END KIND
     &KIND Ga
       BASIS_SET DZVP-MOLOPT-SR-GTH
       POTENTIAL GTH-PBE-q13
       &POTENTIAL
 2 1 10
  0.4900000000000000E+00 0
 3
  0.4167772300000000E+00 3  0.1047568975000000E+02 -0.4921768140000000E+01  0.8707055900000000E+00
  0.7770178090000000E+01 -0.2248152160000000E+01
  0.1784415450000000E+01
  0.5696265200000000E+00 2  0.1777985340000000E+01  0.1958597600000000E+00
 -0.2317443900000000E+00
  0.2381265000000000E+00 1 -0.1624868022000000E+02
         # Potential name:  GTH-PBE-Q13  for symbol:  GA
         # Potential read from the potential filename: GTH_POTENTIALS
       &END POTENTIAL
     &END KIND
     &TOPOLOGY
       NUMBER_OF_ATOMS  206
       MULTIPLE_UNIT_CELL  1 1 1
     &END TOPOLOGY
   &END SUBSYS
 &END FORCE_EVAL
