 # Version information for this restart file 
 # current date 2019-06-24 17:58:56.457
 # current working dir /scratch/rzk/rzk/GaN-carbene/443-adatoms-both-2x2/03-DissMethanol/02-O-GaSur-H-NTop
 # Program compiled at                              Sun Apr  7 00:48:11 EDT 2019
 # Program compiled on                          beluga2.int.ets1.calculquebec.ca
 # Program compiled for                        Beluga-Linux-x86-64-intel-openmpi
 # Source code revision number                                         svn:18619
 &GLOBAL
   PRINT_LEVEL  MEDIUM
   PROJECT_NAME TEST
   RUN_TYPE  GEO_OPT
 &END GLOBAL
 &MOTION
   &GEO_OPT
     MAX_ITER  500
     STEP_START_VAL  29
   &END GEO_OPT
 &END MOTION
 &FORCE_EVAL
   METHOD  QS
   STRESS_TENSOR  ANALYTICAL
   &DFT
     BASIS_SET_FILE_NAME BASIS_MOLOPT
     POTENTIAL_FILE_NAME GTH_POTENTIALS
     UKS  T
     SURFACE_DIPOLE_CORRECTION  T
     SURF_DIP_DIR  Z
     &SCF
       MAX_SCF  80
       EPS_SCF     5.0000000000000004E-06
       &OT  T
         PRECONDITIONER  FULL_ALL
       &END OT
       &OUTER_SCF  T
         OPTIMIZER  NONE
         EPS_SCF     5.0000000000000004E-06
         MAX_SCF  4
       &END OUTER_SCF
       &PRINT
         &RESTART  OFF
           BACKUP_COPIES  1
           &EACH
             JUST_ENERGY  0
             QS_SCF  0
             MD  20
           &END EACH
         &END RESTART
       &END PRINT
     &END SCF
     &QS
       EPS_DEFAULT     1.0000000000000000E-14
       METHOD  GPW
     &END QS
     &MGRID
       NGRIDS  5
       CUTOFF     1.2000000000000000E+03
     &END MGRID
     &XC
       DENSITY_CUTOFF     1.0000000000000000E-10
       GRADIENT_CUTOFF     1.0000000000000000E-10
       TAU_CUTOFF     1.0000000000000000E-10
       &XC_FUNCTIONAL  NO_SHORTCUT
         &PBE  T
         &END PBE
       &END XC_FUNCTIONAL
       &VDW_POTENTIAL
         POTENTIAL_TYPE  PAIR_POTENTIAL
         &PAIR_POTENTIAL
           R_CUTOFF     1.0000000000000004E+01
           TYPE  DFTD3
           PARAMETER_FILE_NAME dftd3.dat
           REFERENCE_FUNCTIONAL PBE
           EPS_CN     9.9999999999999995E-07
           CALCULATE_C9_TERM  T
           REFERENCE_C9_TERM  T
           LONG_RANGE_CORRECTION  F
           VERBOSE_OUTPUT  F
         &END PAIR_POTENTIAL
       &END VDW_POTENTIAL
     &END XC
   &END DFT
   &SUBSYS
     &CELL
       A     1.2864472766435110E+01    0.0000000000000000E+00    0.0000000000000000E+00
       B    -6.4322363581020028E+00    1.1140960178524473E+01    0.0000000000000000E+00
       C     0.0000000000000000E+00    0.0000000000000000E+00    3.2000000000000000E+01
       MULTIPLE_UNIT_CELL  1 1 1
       &CELL_REF
         A     1.2982353780853531E+01    0.0000000000000000E+00    0.0000000000000000E+00
         B    -6.4911768904267628E+00    1.1243048175136114E+01    0.0000000000000000E+00
         C     0.0000000000000000E+00    0.0000000000000000E+00    3.2000000000000000E+01
         MULTIPLE_UNIT_CELL  1 1 1
       &END CELL_REF
     &END CELL
     &COORD
N    3.4221835276639641E-02    1.8841648895032117E+00    2.5024641377624666E+00
Ga    2.1258643666793413E-02   -3.1597426286856939E-02    2.9622519665709190E+00
N    2.2737987153515309E-02    2.8987386782933531E-02    5.0220541897953241E+00
Ga    2.5515131602736187E-02    1.9041336838431633E+00    5.7270061742747327E+00
N    1.9010479646702241E-02    1.8947496962055459E+00    7.7389436964595717E+00
Ga    1.7725480829667611E-02    5.1813498712289227E-02    8.3983187647106252E+00
N    1.6436449636708570E-02    4.3102205940904761E-02    1.0377222347335215E+01
Ga    1.4726246436332214E-02    1.8758399009241098E+00    1.1037866208166001E+01
N    1.3355146028706263E-02    1.8544825849364461E+00    1.3036319115055594E+01
Ga    1.3740546083533124E-02    2.6180525991911816E-02    1.3824158698192905E+01
N    1.4959320154891169E-02    2.2056163128507313E-02    1.6036327451787709E+01
Ga    1.4667306088557571E-02    2.0251067934096572E+00    1.6402498048039146E+01
Ga    2.3670826122924947E-02    5.1796761875946604E+00    1.0150679354740690E+00
N   -1.4473200364222709E+00    4.7521208545981164E+00    2.4934143650662794E+00
Ga   -1.6100351991707273E+00    2.8641101983445107E+00    3.0778343724044248E+00
N   -1.5729538649928763E+00    2.8458409581728978E+00    5.1203981021250833E+00
Ga   -1.6267554354212050E+00    4.6811309087136532E+00    5.7776111309576166E+00
N   -1.6070681572955288E+00    4.6873079003745479E+00    7.7728472908830497E+00
Ga   -1.5765668335342911E+00    2.8319840361652684E+00    8.4039576913611658E+00
N   -1.5790648230041016E+00    2.8308727267911298E+00    1.0398707188893217E+01
Ga   -1.6092469943103178E+00    4.6911305284000777E+00    1.1034178841193004E+01
N   -1.6274872980315682E+00    4.6971872750077104E+00    1.3034391825341086E+01
Ga   -1.5841674401020789E+00    2.8276844123918479E+00    1.3580225540644168E+01
N   -1.6017317542522880E+00    2.8168302768775138E+00    1.5557011587575161E+01
Ga   -1.4721155922930911E+00    4.6070926859946919E+00    1.6403622078427954E+01
N    2.0453050227555454E-02    3.7449581648580916E+00    1.7524007086078004E+01
N   -3.1899870374492822E+00    7.6112025684711542E+00    2.5042301969473191E+00
Ga   -3.1789447046947927E+00    5.6335252367206543E+00    2.8676596417492184E+00
N   -3.1988790901722601E+00    5.6263228350041965E+00    5.0048765291544504E+00
Ga   -3.1866001075062718E+00    7.4481853087641658E+00    5.7756608554607904E+00
N   -3.1909555972348191E+00    7.4660623181026899E+00    7.7690003850869553E+00
Ga   -3.2002859056627919E+00    5.6157109786854820E+00    8.4113432074293026E+00
N   -3.2003556595772324E+00    5.6131729892306161E+00    1.0386646970441207E+01
Ga   -3.2008864070548166E+00    7.4533592343377624E+00    1.1033639819055452E+01
N   -3.2016065686976702E+00    7.4298761260412043E+00    1.3028020994177950E+01
Ga   -3.2092039565706632E+00    5.6113737063849900E+00    1.3822488515649006E+01
N   -3.2105017448492030E+00    5.6108506577392943E+00    1.6037089421971878E+01
Ga   -3.2026474063521770E+00    7.6617956446226358E+00    1.6453663928182202E+01
Ga   -3.2001258454331549E+00    9.3446977715116049E+00    1.5290109627102277E+00
N   -4.6850739536326751E+00    1.0190649931978420E+01    2.5298906662257572E+00
Ga   -4.9039930133289458E+00    8.3296653383505301E+00    3.2808970036684317E+00
N   -4.8035413129508342E+00    8.3979210488433260E+00    5.2355198833666314E+00
Ga   -4.8158458588797810E+00    1.0271868396534206E+01    5.7806414422249466E+00
N   -4.8102386970862376E+00    1.0265316719839712E+01    7.7682928107838363E+00
Ga   -4.7961346974717998E+00    8.4069317573037861E+00    8.4028797729107509E+00
N   -4.7961036948899425E+00    8.4046133963089051E+00    1.0396233660250079E+01
Ga   -4.8206271821349365E+00    1.0264359521275683E+01    1.1025659644874711E+01
N   -4.8397452861953134E+00    1.0268022965289191E+01    1.3023145781656723E+01
Ga   -4.7984575715852227E+00    8.4006126135519334E+00    1.3587082119416259E+01
N   -4.8255359334990047E+00    8.3814580177391171E+00    1.5546578053291073E+01
Ga   -4.6373841136915965E+00    1.0146202894940307E+01    1.6455085351439834E+01
N   -3.1902582694192758E+00    9.3238878138782102E+00    1.7594731931617275E+01
N    3.2172622107818483E+00    1.9416926113978557E+00    2.5489971382270116E+00
Ga    3.2296826011215702E+00    2.1126040988192196E-01    3.2577500602718832E+00
N    3.2380310933964620E+00    6.1615327399271481E-02    5.2130345109657599E+00
Ga    3.2141579122514754E+00    1.9393772917373311E+00    5.7962130232024727E+00
N    3.2294841340540588E+00    1.9116864518048891E+00    7.7883100667232519E+00
Ga    3.2399357731269331E+00    4.6653351627153533E-02    8.3886603575469803E+00
N    3.2357192742279155E+00    3.1542888664798686E-02    1.0388402499660728E+01
Ga    3.2346364787814323E+00    1.8944506531111887E+00    1.0998295570525313E+01
N    3.2299415977956620E+00    1.8939194789223219E+00    1.2971977766013643E+01
Ga    3.2302609612491886E+00    2.2499964805662079E-02    1.3587839863673192E+01
N    3.2246660351068179E+00    5.6554575783791305E-02    1.5548802644809879E+01
Ga    3.2326245649918857E+00    1.8919309265449891E+00    1.5824833143001607E+01
N    1.5052714162804499E+00    4.7414675826216399E+00    2.3884173145394931E+00
Ga    1.6759259748941502E+00    2.8892463211851735E+00    3.0800129596891312E+00
N    1.6129819688746838E+00    2.8544467158484812E+00    5.1171766435683903E+00
Ga    1.6925009892444018E+00    4.6838186163142943E+00    5.8253798573838509E+00
N    1.6242189039844697E+00    4.6749584951585614E+00    7.8235325836468004E+00
Ga    1.6139908499208915E+00    2.8246507248222787E+00    8.4182603348618770E+00
N    1.6126389488098296E+00    2.8239817992444824E+00    1.0411853292255278E+01
Ga    1.6411764053989450E+00    4.6920880461913175E+00    1.1027219278577149E+01
N    1.6559350800758157E+00    4.6980093455009788E+00    1.3032444416847659E+01
Ga    1.6113590829840985E+00    2.8291729000964323E+00    1.3578912176754434E+01
N    1.6299910502461910E+00    2.8165481097803848E+00    1.5556987896462147E+01
Ga    1.5074048038438492E+00    4.6106765515523920E+00    1.6403290017932921E+01
N    3.6298413262066322E-02    7.3679124575992843E+00    2.5775958575388307E+00
Ga    8.8274719075495889E-02    5.6673865502205309E+00    3.4553364342273394E+00
N    2.9026755368037786E-02    5.6169426578401520E+00    5.3446442227711097E+00
Ga    3.7653503871067258E-02    7.4946028374403850E+00    5.8798678270425233E+00
N    2.3135742877867002E-02    7.4817156942033884E+00    7.8416903997592371E+00
Ga    1.3135609022774249E-02    5.6013164467638852E+00    8.4124012343617061E+00
N    1.1166128160443090E-02    5.6018071260645126E+00    1.0409031901518592E+01
Ga    1.4512120923185507E-02    7.4706998093741301E+00    1.0999613535402071E+01
N    1.3747273578138295E-02    7.4627528221612227E+00    1.2972829710381632E+01
Ga    1.5001805977351991E-02    5.5936869982684669E+00    1.3579478308406671E+01
N    1.3856100037573975E-02    5.6136700890512019E+00    1.5557283907433236E+01
Ga    1.6602734686530191E-02    7.4647964680663952E+00    1.5824404525095689E+01
N   -1.6837268948698967E+00    1.0198510557132753E+01    2.5005794126230589E+00
Ga   -1.4637177875916823E+00    8.3201312703102968E+00    3.2461611189036961E+00
N   -1.5679120305982301E+00    8.3993688369505648E+00    5.2062357892944071E+00
Ga   -1.5581611694466688E+00    1.0283204498351434E+01    5.7504720788481238E+00
N   -1.5772441692148227E+00    1.0266161000003773E+01    7.7507881262585236E+00
Ga   -1.5980827601711187E+00    8.4153079609250554E+00    8.4122890928941487E+00
N   -1.6029556783384040E+00    8.4076070081744376E+00    1.0403473049267722E+01
Ga   -1.5752318166699788E+00    1.0267097681035436E+01    1.1034667328126043E+01
N   -1.5603781971452264E+00    1.0269946042102855E+01    1.3030765182778191E+01
Ga   -1.6053095153640708E+00    8.4006974638336231E+00    1.3587825454507714E+01
N   -1.5774688079660946E+00    8.3750500891995223E+00    1.5548970546061405E+01
Ga   -1.7521383332640936E+00    1.0155647767306597E+01    1.6453401697851245E+01
N    6.4604387099978480E+00    2.0488492116674699E+00    2.4985425422431575E+00
Ga    6.4670544206390401E+00    6.9116548887407633E-02    2.8221162251435605E+00
N    6.4575010412879248E+00    5.5379398014085361E-02    4.9676410687966319E+00
Ga    6.4480301656346937E+00    1.8904615405091381E+00    5.7436843592176405E+00
N    6.4507231600625552E+00    1.8915817949884051E+00    7.7477027153720988E+00
Ga    6.4546706888179619E+00    4.9095902468628543E-02    8.3994376412908913E+00
N    6.4505699572775876E+00    4.1665122288488253E-02    1.0377664051805839E+01
Ga    6.4503818515351101E+00    1.8797216293689971E+00    1.1032124076515876E+01
N    6.4483618344962199E+00    1.8562330485252305E+00    1.3029131296663399E+01
Ga    6.4490061717521154E+00    3.7265255134107278E-02    1.3841663686359835E+01
N    6.4491912530330202E+00    3.4619634735510454E-02    1.6037471011706284E+01
Ga    6.4478043092016479E+00    2.0748695528090475E+00    1.6454853978097461E+01
Ga    6.4933784368125158E+00    3.7593407830622683E+00    1.4731332433916322E+00
N    4.9624819468966956E+00    4.6492879325140226E+00    2.3597840806996060E+00
Ga    4.7112461507154437E+00    2.8450264422612488E+00    3.2230372460328747E+00
N    4.8430601772663797E+00    2.8497556835081910E+00    5.1891360681942826E+00
Ga    4.8046090117346116E+00    4.7164271957488930E+00    5.7974263092828933E+00
N    4.8531178675838094E+00    4.6843149883514306E+00    7.8045706818624643E+00
Ga    4.8520100595577338E+00    2.8309568662480658E+00    8.4038330347481640E+00
N    4.8506971766170226E+00    2.8260636622542430E+00    1.0401352042985364E+01
Ga    4.8256203612805182E+00    4.6902824469165427E+00    1.1027851935422651E+01
N    4.8096251976669411E+00    4.6962949810082817E+00    1.3026506539940765E+01
Ga    4.8527558120582643E+00    2.8297104554792778E+00    1.3586643022423122E+01
N    4.8190982432241452E+00    2.8150055060516963E+00    1.5548984334520709E+01
Ga    5.0137450902853393E+00    4.5789603901239531E+00    1.6455825658883512E+01
N    6.4496174686105761E+00    3.7367474229721371E+00    1.7596020013649422E+01
N    3.2513486914846950E+00    7.6185556370323813E+00    2.3657055923823136E+00
Ga    3.2260434884629499E+00    5.6343906206640764E+00    1.8889838424972676E+00
N    3.2336497106210493E+00    5.6176296758925757E+00    5.2154492183281640E+00
Ga    3.2311338372464036E+00    7.4245025299369907E+00    5.8021681605897095E+00
N    3.2313431852760961E+00    7.4853685025582388E+00    7.8081367292259882E+00
Ga    3.2382605636302908E+00    5.6167651373908196E+00    8.4006308494264434E+00
N    3.2337335701911933E+00    5.6128486415640051E+00    1.0388753165027143E+01
Ga    3.2346558437431105E+00    7.4507160858763699E+00    1.1033671148905551E+01
N    3.2323016879545827E+00    7.4299322963777561E+00    1.3029318794642837E+01
Ga    3.2395072211989686E+00    5.6126291443433187E+00    1.3822968506151732E+01
N    3.2430023171058759E+00    5.6121987033057881E+00    1.6037757611927557E+01
Ga    3.2340257884705568E+00    7.6724296042434501E+00    1.6467643781249567E+01
Ga    3.2593616050453602E+00    9.3807496340578673E+00    1.4698092994380738E+00
N    1.7432639606059757E+00    1.0199597924798042E+01    2.4902774205480700E+00
Ga    1.5697343844857643E+00    8.2927575982646946E+00    3.2131980175632902E+00
N    1.6304771431227176E+00    8.3979295196175574E+00    5.1827430467958866E+00
Ga    1.6100711524085332E+00    1.0273039423825278E+01    5.7422872018735953E+00
N    1.6171565093640652E+00    1.0264917141189880E+01    7.7470337210060372E+00
Ga    1.6397108130258442E+00    8.4195517977085199E+00    8.4277818552612231E+00
N    1.6327512990710187E+00    8.4089643017386972E+00    1.0416310989720271E+01
Ga    1.6095474742633717E+00    1.0267353922154491E+01    1.1040313830586156E+01
N    1.5912592710593287E+00    1.0270205619088047E+01    1.3033166940748181E+01
Ga    1.6361743147167740E+00    8.4001363204572055E+00    1.3589616532856740E+01
N    1.6075543705486641E+00    8.3763307276359189E+00    1.5548796172183721E+01
Ga    1.7970075794825595E+00    1.0147897233522647E+01    1.6467693039541182E+01
N    3.2276901050120856E+00    9.3225106792361601E+00    1.7621700052927526E+01
N    9.6986550577886028E+00    1.9342386109416154E+00    2.5496107633182667E+00
Ga    9.6905697106473063E+00    1.9757185457559145E-01    3.2547316049357877E+00
N    9.6749069507879248E+00    5.9260797624932006E-02    5.2115720535548924E+00
Ga    9.6999690008777311E+00    1.9243651860957802E+00    5.8078416630246039E+00
N    9.6761087845868037E+00    1.9077956266523490E+00    7.7932775988039085E+00
Ga    9.6654453708281132E+00    3.9765710049206260E-02    8.3889565691734553E+00
N    9.6632084874240523E+00    3.0110268033038880E-02    1.0388088462312451E+01
Ga    9.6624440925716133E+00    1.8968030884521527E+00    1.0987338682548522E+01
N    9.6643357186084540E+00    1.8951276419088783E+00    1.2963120896492047E+01
Ga    9.6642621922134531E+00    2.3752536551323044E-02    1.3590024509938210E+01
N    9.6693160189292353E+00    5.6732317302677873E-02    1.5548245597039456E+01
Ga    9.6610953684238634E+00    1.8895325032015868E+00    1.5826876080325908E+01
N    7.9625304990724546E+00    4.6462467420968991E+00    2.5041468737987214E+00
Ga    8.1908902813000637E+00    2.7934557347734805E+00    3.2550605347475172E+00
N    8.0719746490182143E+00    2.8373598596226697E+00    5.2137697534880862E+00
Ga    8.0736297620498103E+00    4.7105930681813453E+00    5.7622257135653623E+00
N    8.0681855542579726E+00    4.6976422109797600E+00    7.7609649082661925E+00
Ga    8.0519225266339411E+00    2.8356117892051018E+00    8.3859202251709615E+00
N    8.0465676040489065E+00    2.8320011372773037E+00    1.0386903514500380E+01
Ga    8.0719414015367015E+00    4.6890619709402710E+00    1.1033061049629268E+01
N    8.0864844467194921E+00    4.6957674174401953E+00    1.3027632110843269E+01
Ga    8.0434510539267841E+00    2.8282273697258526E+00    1.3587218950338563E+01
N    8.0765490925800769E+00    2.8150596514873616E+00    1.5548738739220489E+01
Ga    7.8830563774392175E+00    4.5789832867593896E+00    1.6455150551527186E+01
N    6.4519627185638093E+00    7.4835057140073316E+00    2.5714994909451310E+00
Ga    6.4099309514596507E+00    5.7351633144941632E+00    3.2425892768947504E+00
N    6.4436755428927315E+00    5.6181554387645134E+00    5.2063886506337429E+00
Ga    6.4399486290915249E+00    7.4680259847347772E+00    5.8451858260071514E+00
N    6.4495134577918023E+00    7.4732315427003657E+00    7.8192407030415341E+00
Ga    6.4552163831426022E+00    5.6043574000199472E+00    8.4172072604148358E+00
N    6.4533838014538967E+00    5.6024082783788405E+00    1.0408928154037991E+01
Ga    6.4514464004184182E+00    7.4704772756001443E+00    1.0999238699280278E+01
N    6.4493787799382520E+00    7.4650476225270319E+00    1.2969718714245893E+01
Ga    6.4470598450721601E+00    5.5944505941687988E+00    1.3585629777867773E+01
N    6.4484449599660847E+00    5.6234142656270816E+00    1.5546749668168138E+01
Ga    6.4460306458179595E+00    7.4623253363907063E+00    1.5820926134494281E+01
N    4.7397733198898395E+00    1.0191174001416115E+01    2.5219134437913513E+00
Ga    4.9124740601680958E+00    8.3052745122553215E+00    3.2517054895352828E+00
N    4.8330491835695222E+00    8.3956768767712138E+00    5.2142710465766600E+00
Ga    4.8594786604803870E+00    1.0261048214443639E+01    5.7730790274404660E+00
N    4.8529389827566582E+00    1.0263372874126585E+01    7.7650117411557131E+00
Ga    4.8346710983983092E+00    8.4108525891411183E+00    8.4180961902101608E+00
N    4.8351838703294128E+00    8.4060708388163867E+00    1.0409084418118347E+01
Ga    4.8546096121150217E+00    1.0264953694072492E+01    1.1030907490103621E+01
N    4.8699031929629282E+00    1.0268682783212938E+01    1.3025638233066150E+01
Ga    4.8286406415016678E+00    8.4001236770012220E+00    1.3588522680186587E+01
N    4.8568610553437610E+00    8.3820235088282331E+00    1.5546569962352766E+01
Ga    4.6604183999480320E+00    1.0141856018575279E+01    1.6468487355512643E+01
O    3.0523057586511988E+00    5.5798568314405825E+00    2.9220491436403692E-02
H    4.1605298067615648E-02    1.9338661955813412E+00    1.4766710727477466E+00
C    3.8905062912864690E+00    6.4200164339469810E+00   -7.4870735356534501E-01
H    3.3176971844799654E+00    7.2727809286707537E+00   -1.1674831107779948E+00
H    4.7412499906586874E+00    6.8418105224048142E+00   -1.8203090760319438E-01
H    4.3087962273023415E+00    5.8583532161246215E+00   -1.6019456522568396E+00
     &END COORD
     &KIND C
       BASIS_SET DZVP-MOLOPT-SR-GTH-q4
       POTENTIAL GTH-PBE-q4
       &POTENTIAL
 2 2
  0.3384712400000000E+00 2 -0.8803673979999999E+01  0.1339210850000000E+01
 2
  0.3025757500000000E+00 1  0.9622486650000001E+01
  0.2915069400000000E+00 0
         # Potential name:  GTH-PBE-Q4  for symbol:  C
         # Potential read from the potential filename: GTH_POTENTIALS
       &END POTENTIAL
     &END KIND
     &KIND O
       BASIS_SET DZVP-MOLOPT-SR-GTH-q6
       POTENTIAL GTH-PBE-q6
       &POTENTIAL
 2 4
  0.2445543000000000E+00 2 -0.1666721480000000E+02  0.2487311320000000E+01
 2
  0.2209559200000000E+00 1  0.1833745811000000E+02
  0.2113324700000000E+00 0
         # Potential name:  GTH-PBE-Q6  for symbol:  O
         # Potential read from the potential filename: GTH_POTENTIALS
       &END POTENTIAL
     &END KIND
     &KIND H
       BASIS_SET DZVP-MOLOPT-SR-GTH-q1
       POTENTIAL GTH-PBE-q1
       &POTENTIAL
 1
  0.2000000000000000E+00 2 -0.4178900440000000E+01  0.7244633100000000E+00
 0
         # Potential name:  GTH-PBE-Q1  for symbol:  H
         # Potential read from the potential filename: GTH_POTENTIALS
       &END POTENTIAL
     &END KIND
     &KIND N
       BASIS_SET DZVP-MOLOPT-SR-GTH
       POTENTIAL GTH-PBE-q5
       &POTENTIAL
 2 3
  0.2837905100000000E+00 2 -0.1241522559000000E+02  0.1868095920000000E+01
 2
  0.2554050000000000E+00 1  0.1363026257000000E+02
  0.2454945300000000E+00 0
         # Potential name:  GTH-PBE-Q5  for symbol:  N
         # Potential read from the potential filename: GTH_POTENTIALS
       &END POTENTIAL
     &END KIND
     &KIND Ga
       BASIS_SET DZVP-MOLOPT-SR-GTH
       POTENTIAL GTH-PBE-q13
       &POTENTIAL
 2 1 10
  0.4900000000000000E+00 0
 3
  0.4167772300000000E+00 3  0.1047568975000000E+02 -0.4921768140000000E+01  0.8707055900000000E+00
  0.7770178090000000E+01 -0.2248152160000000E+01
  0.1784415450000000E+01
  0.5696265200000000E+00 2  0.1777985340000000E+01  0.1958597600000000E+00
 -0.2317443900000000E+00
  0.2381265000000000E+00 1 -0.1624868022000000E+02
         # Potential name:  GTH-PBE-Q13  for symbol:  GA
         # Potential read from the potential filename: GTH_POTENTIALS
       &END POTENTIAL
     &END KIND
     &TOPOLOGY
       NUMBER_OF_ATOMS  206
       MULTIPLE_UNIT_CELL  1 1 1
     &END TOPOLOGY
   &END SUBSYS
 &END FORCE_EVAL
