 # Version information for this restart file 
 # current date 2019-06-24 19:54:05.936
 # current working dir /scratch/rzk/rzk/GaN-carbene/443-adatoms-both-2x2/03-DissMethanol/02-O-GaSur-H-NTop
 # Program compiled at                              Sun Apr  7 00:48:11 EDT 2019
 # Program compiled on                          beluga2.int.ets1.calculquebec.ca
 # Program compiled for                        Beluga-Linux-x86-64-intel-openmpi
 # Source code revision number                                         svn:18619
 &GLOBAL
   PRINT_LEVEL  MEDIUM
   PROJECT_NAME TEST
   RUN_TYPE  GEO_OPT
 &END GLOBAL
 &MOTION
   &GEO_OPT
     MAX_ITER  500
     STEP_START_VAL  77
   &END GEO_OPT
 &END MOTION
 &FORCE_EVAL
   METHOD  QS
   STRESS_TENSOR  ANALYTICAL
   &DFT
     BASIS_SET_FILE_NAME BASIS_MOLOPT
     POTENTIAL_FILE_NAME GTH_POTENTIALS
     UKS  T
     SURFACE_DIPOLE_CORRECTION  T
     SURF_DIP_DIR  Z
     &SCF
       MAX_SCF  80
       EPS_SCF     5.0000000000000004E-06
       &OT  T
         PRECONDITIONER  FULL_ALL
       &END OT
       &OUTER_SCF  T
         OPTIMIZER  NONE
         EPS_SCF     5.0000000000000004E-06
         MAX_SCF  4
       &END OUTER_SCF
       &PRINT
         &RESTART  OFF
           BACKUP_COPIES  1
           &EACH
             JUST_ENERGY  0
             QS_SCF  0
             MD  20
           &END EACH
         &END RESTART
       &END PRINT
     &END SCF
     &QS
       EPS_DEFAULT     1.0000000000000000E-14
       METHOD  GPW
     &END QS
     &MGRID
       NGRIDS  5
       CUTOFF     1.2000000000000000E+03
     &END MGRID
     &XC
       DENSITY_CUTOFF     1.0000000000000000E-10
       GRADIENT_CUTOFF     1.0000000000000000E-10
       TAU_CUTOFF     1.0000000000000000E-10
       &XC_FUNCTIONAL  NO_SHORTCUT
         &PBE  T
         &END PBE
       &END XC_FUNCTIONAL
       &VDW_POTENTIAL
         POTENTIAL_TYPE  PAIR_POTENTIAL
         &PAIR_POTENTIAL
           R_CUTOFF     1.0000000000000004E+01
           TYPE  DFTD3
           PARAMETER_FILE_NAME dftd3.dat
           REFERENCE_FUNCTIONAL PBE
           EPS_CN     9.9999999999999995E-07
           CALCULATE_C9_TERM  T
           REFERENCE_C9_TERM  T
           LONG_RANGE_CORRECTION  F
           VERBOSE_OUTPUT  F
         &END PAIR_POTENTIAL
       &END VDW_POTENTIAL
     &END XC
   &END DFT
   &SUBSYS
     &CELL
       A     1.2864472766435110E+01    0.0000000000000000E+00    0.0000000000000000E+00
       B    -6.4322363581020028E+00    1.1140960178524473E+01    0.0000000000000000E+00
       C     0.0000000000000000E+00    0.0000000000000000E+00    3.2000000000000000E+01
       MULTIPLE_UNIT_CELL  1 1 1
       &CELL_REF
         A     1.2982353780853531E+01    0.0000000000000000E+00    0.0000000000000000E+00
         B    -6.4911768904267628E+00    1.1243048175136114E+01    0.0000000000000000E+00
         C     0.0000000000000000E+00    0.0000000000000000E+00    3.2000000000000000E+01
         MULTIPLE_UNIT_CELL  1 1 1
       &END CELL_REF
     &END CELL
     &COORD
N    2.4778260240378765E-02    1.8631782730280375E+00    2.4652701048665606E+00
Ga    3.4260929081995585E-03   -5.5984570973407921E-02    2.9287476864245954E+00
N    1.4925898972907950E-02    6.7233854969414968E-03    4.9975239233861473E+00
Ga    2.1747085078892128E-02    1.8835474694303120E+00    5.6997325574099786E+00
N    1.6106046592729920E-02    1.8755448843409401E+00    7.7176781081479762E+00
Ga    1.4279058010720746E-02    3.4441344123075486E-02    8.3824654009328317E+00
N    1.5056693333941452E-02    2.8234209793109102E-02    1.0363446017775079E+01
Ga    1.3121681821677882E-02    1.8603664263087647E+00    1.1026923415683422E+01
N    1.3175079750769486E-02    1.8433106204748304E+00    1.3026245717185288E+01
Ga    1.5193365177237590E-02    1.4138386239851173E-02    1.3813364981244291E+01
N    1.5261650598812163E-02    1.2266458457833800E-02    1.6024005113004911E+01
Ga    1.5253254279008565E-02    2.0126251424999997E+00    1.6386035239532283E+01
Ga   -2.2684668679558311E-02    5.4825356344161378E+00    1.0709489522034028E+00
N   -1.4492439380888700E+00    4.7483622004335313E+00    2.4980143070575203E+00
Ga   -1.6163174997390342E+00    2.8461390775125093E+00    3.0437351371932433E+00
N   -1.5797716237603552E+00    2.8250341895279862E+00    5.0952893169892244E+00
Ga   -1.6406342955615365E+00    4.6502709640591924E+00    5.7763763562998003E+00
N   -1.6138002452959308E+00    4.6646555658728639E+00    7.7671984344068798E+00
Ga   -1.5809886149844286E+00    2.8071685649219504E+00    8.3882626999809276E+00
N   -1.5807455979666392E+00    2.8138128451343571E+00    1.0385694680343944E+01
Ga   -1.6113589124908287E+00    4.6743353969943291E+00    1.1024048119843574E+01
N   -1.6281474692203062E+00    4.6855507763545097E+00    1.3025179160624207E+01
Ga   -1.5845434623357748E+00    2.8161481538990181E+00    1.3569077363414074E+01
N   -1.5999081580116112E+00    2.8070892090033017E+00    1.5547842037911407E+01
Ga   -1.4811888518496441E+00    4.6034789317277962E+00    1.6386198046330872E+01
N    1.5054624778775587E-02    3.7400803183279576E+00    1.7508701617204537E+01
N   -3.2008751063646432E+00    7.5788338739877545E+00    2.4871665184178826E+00
Ga   -3.1841759075181661E+00    5.6039777840708869E+00    2.8772165590641530E+00
N   -3.2086995503887552E+00    5.6020609854718364E+00    5.0033300213372494E+00
Ga   -3.1933925550981108E+00    7.4261111639819237E+00    5.7659563741716084E+00
N   -3.1948095731123991E+00    7.4456654253831474E+00    7.7573661782613392E+00
Ga   -3.2062007055505890E+00    5.5949219772032768E+00    8.4032507978903457E+00
N   -3.2026942361006019E+00    5.5977508267943232E+00    1.0377592770636452E+01
Ga   -3.2035289267794784E+00    7.4383441856214114E+00    1.1025597431940099E+01
N   -3.2024313069763197E+00    7.4184978391888912E+00    1.3018173139909699E+01
Ga   -3.2119594374479306E+00    5.6011680020788122E+00    1.3815415915171815E+01
N   -3.2134443441199774E+00    5.6034240410153275E+00    1.6023855280294885E+01
Ga   -3.2036958046910629E+00    7.6601166424201192E+00    1.6451362354358622E+01
Ga   -3.2123490904109859E+00    9.3132992697162944E+00    1.5102418387304355E+00
N   -4.6945186757339910E+00    1.0163219309709728E+01    2.5077444282228862E+00
Ga   -4.9144134223798295E+00    8.3043273810160301E+00    3.2682026265130775E+00
N   -4.8086515790880524E+00    8.3747809223956367E+00    5.2225188843730397E+00
Ga   -4.8250143334476263E+00    1.0250915864853591E+01    5.7610640282247427E+00
N   -4.8154266604503420E+00    1.0244807411971619E+01    7.7498806103014370E+00
Ga   -4.8000301340385976E+00    8.3880587667403734E+00    8.3920527129913260E+00
N   -4.7977334691735258E+00    8.3894107806046563E+00    1.0384758077397210E+01
Ga   -4.8216629059064111E+00    1.0250039790329117E+01    1.1013190097244681E+01
N   -4.8392952139927150E+00    1.0256775269712749E+01    1.3010088660092174E+01
Ga   -4.7988845129628279E+00    8.3897586506125421E+00    1.3577152415762967E+01
N   -4.8263600817845935E+00    8.3732939694233650E+00    1.5535477207195198E+01
Ga   -4.6319986588458439E+00    1.0133564885005089E+01    1.6452875253302906E+01
N   -3.1927712537573503E+00    9.3153686596570306E+00    1.7596146798627178E+01
N    3.2110232581084435E+00    1.9171650566289931E+00    2.5170463871524369E+00
Ga    3.2199224748965376E+00    1.8547809496688719E-01    3.2308661912811631E+00
N    3.2307339262187242E+00    3.6453324710932641E-02    5.1861311723970909E+00
Ga    3.2043811001529776E+00    1.9170904819620074E+00    5.7654444926864903E+00
N    3.2238407433287750E+00    1.8908028111113075E+00    7.7629872394323138E+00
Ga    3.2353340863160325E+00    2.6783940464497641E-02    8.3686653180668173E+00
N    3.2338962938456302E+00    1.5828060405928844E-02    1.0370481486340788E+01
Ga    3.2332538712429111E+00    1.8777424010715573E+00    1.0984325692465500E+01
N    3.2292593161209733E+00    1.8819683518366428E+00    1.2958164463675633E+01
Ga    3.2300763243784054E+00    1.1410705980100182E-02    1.3578822798644854E+01
N    3.2235958683357513E+00    4.7446620467582204E-02    1.5538048247957526E+01
Ga    3.2330070903426043E+00    1.8815823761841524E+00    1.5814803079666936E+01
N    1.5055476237958163E+00    4.7471423734659890E+00    2.3479456746071419E+00
Ga    1.6656127662691818E+00    2.8801588989839226E+00    3.0236489155342516E+00
N    1.6059966400318562E+00    2.8373809801894541E+00    5.0809816917159267E+00
Ga    1.6974082354570879E+00    4.6514905390046488E+00    5.8287070592320278E+00
N    1.6224723582214471E+00    4.6518942751071810E+00    7.8210404378394367E+00
Ga    1.6103621442043943E+00    2.8000703761303689E+00    8.4062804297408462E+00
N    1.6110401978047797E+00    2.8067186961875699E+00    1.0399990113732256E+01
Ga    1.6397933573825243E+00    4.6752778661407541E+00    1.1017442487026980E+01
N    1.6555780036946268E+00    4.6859529819147152E+00    1.3022577361489422E+01
Ga    1.6119457697336821E+00    2.8171651869045236E+00    1.3566886902793868E+01
N    1.6287610045788703E+00    2.8076066506237964E+00    1.5546326953629830E+01
Ga    1.5117173257063203E+00    4.6034629099446374E+00    1.6385437466490345E+01
N    3.2007356237497883E-02    7.2939460210656426E+00    2.5644002237299546E+00
Ga    1.0157383836258350E-01    5.5891841802365487E+00    3.5004654581063472E+00
N    2.4575052352787417E-02    5.5892956004368717E+00    5.3722750177974028E+00
Ga    2.5805816235800687E-02    7.4742016319418152E+00    5.8866281846939028E+00
N    1.5188859094004812E-02    7.4619973818323810E+00    7.8423477251450109E+00
Ga    8.7844408515593188E-03    5.5784258403413958E+00    8.4051285274248198E+00
N    9.3135431288371411E-03    5.5852943064289979E+00    1.0401333572110676E+01
Ga    1.1769771478798034E-02    7.4556854817968796E+00    1.0987647777960182E+01
N    1.3108698809593887E-02    7.4514453495010722E+00    1.2961729878816682E+01
Ga    1.4763945644479111E-02    5.5824767698531845E+00    1.3567068787428306E+01
N    1.4910890312234594E-02    5.6028285067419654E+00    1.5546837147639218E+01
Ga    1.4439524706631211E-02    7.4552716015073353E+00    1.5814089795906074E+01
N   -1.6870668404717766E+00    1.0159665190404144E+01    2.4771150401307529E+00
Ga   -1.4757291102373058E+00    8.2787338853217403E+00    3.2243377712839245E+00
N   -1.5713467826658665E+00    8.3689899500549423E+00    5.1820148742100018E+00
Ga   -1.5652060163524768E+00    1.0257894908316036E+01    5.7240726176201013E+00
N   -1.5833392905670334E+00    1.0243404946638313E+01    7.7272658823184068E+00
Ga   -1.6056883224806286E+00    8.3979066543216145E+00    8.4056925665896927E+00
N   -1.6067721977174927E+00    8.3932818902525561E+00    1.0394470518344216E+01
Ga   -1.5778424435110479E+00    1.0253825385834316E+01    1.1023359983419601E+01
N   -1.5613066008266983E+00    1.0259075296819155E+01    1.3018817162436861E+01
Ga   -1.6065743858966064E+00    8.3902715300234956E+00    1.3578560420005553E+01
N   -1.5777763293060250E+00    8.3659412705953340E+00    1.5538181887047033E+01
Ga   -1.7587720607573352E+00    1.0143476844214074E+01    1.6451189658819192E+01
N    6.4533695359423611E+00    2.0209443744334532E+00    2.4788849277755411E+00
Ga    6.4709069421474510E+00    3.1279694260206686E-02    2.7937809983987774E+00
N    6.4502329784592236E+00    2.9520389027923966E-02    4.9430260665341770E+00
Ga    6.4394339128247484E+00    1.8653067663084513E+00    5.7221962753913758E+00
N    6.4447432195885801E+00    1.8703894559860823E+00    7.7270346161641612E+00
Ga    6.4478400523799264E+00    2.8441522837432332E-02    8.3798417285462126E+00
N    6.4468050098080507E+00    2.6259730307788848E-02    1.0360594998417632E+01
Ga    6.4481887282156212E+00    1.8641432615544880E+00    1.1018616142878829E+01
N    6.4482175981544456E+00    1.8453186150908178E+00    1.3015790009745107E+01
Ga    6.4464612742673202E+00    2.7999041910494495E-02    1.3833260913864393E+01
N    6.4464555373054138E+00    2.6761364757421243E-02    1.6025575020886478E+01
Ga    6.4466886097500602E+00    2.0744740707086247E+00    1.6451229942917138E+01
Ga    6.4962899337174367E+00    3.7350358442813176E+00    1.4568875369000749E+00
N    4.9506462133102174E+00    4.6269440830175927E+00    2.3303644079346242E+00
Ga    4.7034871709595212E+00    2.8183108720052021E+00    3.1990602547562856E+00
N    4.8366899450287875E+00    2.8278412275050546E+00    5.1654760096657144E+00
Ga    4.7978166466110954E+00    4.6927402806876843E+00    5.7865747370708842E+00
N    4.8489850819700209E+00    4.6633558296745559E+00    7.7933220387848463E+00
Ga    4.8463078777716930E+00    2.8087490963679360E+00    8.3859660355085204E+00
N    4.8480487657803879E+00    2.8093134061796166E+00    1.0385087498243989E+01
Ga    4.8242596684550056E+00    4.6728414003662921E+00    1.1018228742834703E+01
N    4.8097846325981237E+00    4.6837479829000985E+00    1.3015101502101938E+01
Ga    4.8523314430383548E+00    2.8173611978317452E+00    1.3576309220060498E+01
N    4.8169905660075267E+00    2.8047712423808071E+00    1.5536075533288329E+01
Ga    5.0195080220748043E+00    4.5661586348252063E+00    1.6450285398937933E+01
N    6.4468940617946053E+00    3.7298462028759443E+00    1.7595757480960668E+01
N    3.2442392841852850E+00    7.5927377215069276E+00    2.4705297098517063E+00
Ga    3.2306381898645014E+00    5.6654993024332141E+00    1.9656403903672051E+00
N    3.2270069363318945E+00    5.5939491328373050E+00    5.2073486187473543E+00
Ga    3.2209964009575489E+00    7.4012473597664954E+00    5.7958815157147159E+00
N    3.2241487742503439E+00    7.4643361094536367E+00    7.8012712806617976E+00
Ga    3.2359669967819245E+00    5.5964214395772434E+00    8.3956073601895458E+00
N    3.2323282821937340E+00    5.5976840194313153E+00    1.0381839049112502E+01
Ga    3.2326839162879208E+00    7.4369965464629360E+00    1.1024033493783826E+01
N    3.2316186617903733E+00    7.4189772238767997E+00    1.3019392117943365E+01
Ga    3.2410898662129664E+00    5.6005400397548382E+00    1.3810740999878972E+01
N    3.2432702209115005E+00    5.6030439468924911E+00    1.6023632443803077E+01
Ga    3.2333107831566990E+00    7.6587400362911264E+00    1.6448276535506952E+01
Ga    3.2663655269182019E+00    9.2844082652266788E+00    1.4238422095398846E+00
N    1.7374687127977866E+00    1.0149141575685748E+01    2.4568572213232573E+00
Ga    1.5597832804675746E+00    8.2699274639407783E+00    3.2227047669260438E+00
N    1.6091994284992053E+00    8.3717455301576944E+00    5.1845051673412907E+00
Ga    1.6035197323266712E+00    1.0252384943406792E+01    5.7255442155327687E+00
N    1.6120515787630139E+00    1.0245607340785442E+01    7.7314554026747793E+00
Ga    1.6350228804776170E+00    8.4026787489356991E+00    8.4191683446470069E+00
N    1.6301015920799238E+00    8.3951264271116788E+00    1.0407411168429741E+01
Ga    1.6060445986848058E+00    1.0254931171227776E+01    1.1028113314532581E+01
N    1.5903206283448734E+00    1.0260398949041932E+01    1.3022534915197957E+01
Ga    1.6353581765429570E+00    8.3897826717027577E+00    1.3576960599372017E+01
N    1.6066953220423277E+00    8.3656081528828992E+00    1.5537604426766249E+01
Ga    1.7867283612028053E+00    1.0143998222693233E+01    1.6448409274298125E+01
N    3.2218160302579655E+00    9.3156594212977755E+00    1.7592720085299646E+01
N    9.6916644479581500E+00    1.9036908142358016E+00    2.5324482744566099E+00
Ga    9.6827614190922304E+00    1.4977395640711769E-01    3.2115884905942975E+00
N    9.6667818344848762E+00    3.1286631297443544E-02    5.1819461287649355E+00
Ga    9.6948372780393139E+00    1.8946305503601606E+00    5.7796223556241557E+00
N    9.6714248293464493E+00    1.8868043008382918E+00    7.7706803551189507E+00
Ga    9.6594388828216395E+00    2.2459675148147656E-02    8.3748365718082098E+00
N    9.6601189218008123E+00    1.5746212586250970E-02    1.0375455285101561E+01
Ga    9.6608333388386747E+00    1.8819385837369045E+00    1.0974813965743538E+01
N    9.6646790151757553E+00    1.8841696957087402E+00    1.2950774221447810E+01
Ga    9.6639597445686949E+00    1.4190277407317846E-02    1.3577711670002628E+01
N    9.6704333766500437E+00    4.8410384817736699E-02    1.5537606577475431E+01
Ga    9.6605866584360527E+00    1.8816146477588480E+00    1.5818884632472955E+01
N    7.9553042475282227E+00    4.6209256130572678E+00    2.4978814847035533E+00
Ga    8.1861005856865052E+00    2.7617656022721149E+00    3.2407087380185167E+00
N    8.0641452852971245E+00    2.8126741196026517E+00    5.1973881755103957E+00
Ga    8.0632715542773248E+00    4.6843500389970378E+00    5.7540478150970999E+00
N    8.0629669100622756E+00    4.6757133261867052E+00    7.7505324602451031E+00
Ga    8.0479254289817668E+00    2.8124401573933206E+00    8.3692580839854713E+00
N    8.0448078149150710E+00    2.8150811467483963E+00    1.0371770761188936E+01
Ga    8.0700207900870264E+00    4.6717261041505349E+00    1.1022876577382315E+01
N    8.0858702582894271E+00    4.6835597004876748E+00    1.3016458918949786E+01
Ga    8.0433784017910526E+00    2.8166669568875267E+00    1.3577371863082684E+01
N    8.0774462828202473E+00    2.8047938488148145E+00    1.5536649654342172E+01
Ga    7.8743531928403820E+00    4.5661448096969073E+00    1.6451250687216213E+01
N    6.4335127871243989E+00    7.4620963135731353E+00    2.5726110336248085E+00
Ga    6.4020022153485678E+00    5.7106985651757718E+00    3.2329045428241914E+00
N    6.4358245165699568E+00    5.5937074743572479E+00    5.1956901075199413E+00
Ga    6.4371491504182439E+00    7.4435009945424015E+00    5.8422736877937052E+00
N    6.4468842627740379E+00    7.4509267353408015E+00    7.8145784620343877E+00
Ga    6.4509141634483775E+00    5.5819150333204499E+00    8.4096827481063041E+00
N    6.4513721028458333E+00    5.5855589472789502E+00    1.0399767721641190E+01
Ga    6.4492740778940965E+00    7.4552496461360942E+00    1.0986234269158970E+01
N    6.4482594330266805E+00    7.4545035196052165E+00    1.2956442867626722E+01
Ga    6.4470280152200754E+00    5.5835282066537353E+00    1.3574828927498869E+01
N    6.4473612365293089E+00    5.6158687056304624E+00    1.5533749221504037E+01
Ga    6.4469362749236208E+00    7.4530285535535468E+00    1.5810046064284521E+01
N    4.7305745668003158E+00    1.0153251037688143E+01    2.4951120971000287E+00
Ga    4.9086777836346336E+00    8.2988758426412694E+00    3.2807870481464900E+00
N    4.8298372480618790E+00    8.3756828105783256E+00    5.2334575641197878E+00
Ga    4.8518014741790747E+00    1.0245579823979236E+01    5.7639432717008203E+00
N    4.8473954505596639E+00    1.0246903646560007E+01    7.7548984079376329E+00
Ga    4.8295372240325500E+00    8.3924963338211498E+00    8.4053568931226721E+00
N    4.8325230287634273E+00    8.3913408543629604E+00    1.0397209070685138E+01
Ga    4.8526129837881635E+00    1.0251162162490136E+01    1.1017774357279356E+01
N    4.8691550507632675E+00    1.0258103220257256E+01    1.3013569106614163E+01
Ga    4.8284872182648177E+00    8.3894239536526136E+00    1.3575456886017443E+01
N    4.8560926740183454E+00    8.3733613553011494E+00    1.5534692755549067E+01
Ga    4.6625642901483397E+00    1.0134019243363911E+01    1.6450386125674779E+01
O    3.0580141322329117E+00    5.9538186652868772E+00    5.9600281933836430E-02
H    2.0810648044751641E-02    1.9170245655667679E+00    1.4383019952965395E+00
C    3.7673844402748591E+00    6.9523407681549614E+00   -5.5410207444779003E-01
H    3.4163075694779685E+00    8.0286446836972072E+00   -2.2914096263402681E-01
H    4.8492545611109028E+00    6.9675193331909666E+00   -3.2935318670560892E-01
H    3.5921538770068557E+00    6.9581186514445870E+00   -1.6425008468074704E+00
     &END COORD
     &KIND C
       BASIS_SET DZVP-MOLOPT-SR-GTH-q4
       POTENTIAL GTH-PBE-q4
       &POTENTIAL
 2 2
  0.3384712400000000E+00 2 -0.8803673979999999E+01  0.1339210850000000E+01
 2
  0.3025757500000000E+00 1  0.9622486650000001E+01
  0.2915069400000000E+00 0
         # Potential name:  GTH-PBE-Q4  for symbol:  C
         # Potential read from the potential filename: GTH_POTENTIALS
       &END POTENTIAL
     &END KIND
     &KIND O
       BASIS_SET DZVP-MOLOPT-SR-GTH-q6
       POTENTIAL GTH-PBE-q6
       &POTENTIAL
 2 4
  0.2445543000000000E+00 2 -0.1666721480000000E+02  0.2487311320000000E+01
 2
  0.2209559200000000E+00 1  0.1833745811000000E+02
  0.2113324700000000E+00 0
         # Potential name:  GTH-PBE-Q6  for symbol:  O
         # Potential read from the potential filename: GTH_POTENTIALS
       &END POTENTIAL
     &END KIND
     &KIND H
       BASIS_SET DZVP-MOLOPT-SR-GTH-q1
       POTENTIAL GTH-PBE-q1
       &POTENTIAL
 1
  0.2000000000000000E+00 2 -0.4178900440000000E+01  0.7244633100000000E+00
 0
         # Potential name:  GTH-PBE-Q1  for symbol:  H
         # Potential read from the potential filename: GTH_POTENTIALS
       &END POTENTIAL
     &END KIND
     &KIND N
       BASIS_SET DZVP-MOLOPT-SR-GTH
       POTENTIAL GTH-PBE-q5
       &POTENTIAL
 2 3
  0.2837905100000000E+00 2 -0.1241522559000000E+02  0.1868095920000000E+01
 2
  0.2554050000000000E+00 1  0.1363026257000000E+02
  0.2454945300000000E+00 0
         # Potential name:  GTH-PBE-Q5  for symbol:  N
         # Potential read from the potential filename: GTH_POTENTIALS
       &END POTENTIAL
     &END KIND
     &KIND Ga
       BASIS_SET DZVP-MOLOPT-SR-GTH
       POTENTIAL GTH-PBE-q13
       &POTENTIAL
 2 1 10
  0.4900000000000000E+00 0
 3
  0.4167772300000000E+00 3  0.1047568975000000E+02 -0.4921768140000000E+01  0.8707055900000000E+00
  0.7770178090000000E+01 -0.2248152160000000E+01
  0.1784415450000000E+01
  0.5696265200000000E+00 2  0.1777985340000000E+01  0.1958597600000000E+00
 -0.2317443900000000E+00
  0.2381265000000000E+00 1 -0.1624868022000000E+02
         # Potential name:  GTH-PBE-Q13  for symbol:  GA
         # Potential read from the potential filename: GTH_POTENTIALS
       &END POTENTIAL
     &END KIND
     &TOPOLOGY
       NUMBER_OF_ATOMS  206
       MULTIPLE_UNIT_CELL  1 1 1
     &END TOPOLOGY
   &END SUBSYS
 &END FORCE_EVAL
