 # Version information for this restart file 
 # current date 2019-07-08 21:37:57.345
 # current working dir /lustre04/scratch/rzk/rzk/GaN-carbene/443-adatoms-both-2x2/09-BondBreaking-CH/02-0401-CH-to-NTop-PES
 # Program compiled at                              Sun Apr  7 00:48:11 EDT 2019
 # Program compiled on                          beluga2.int.ets1.calculquebec.ca
 # Program compiled for                        Beluga-Linux-x86-64-intel-openmpi
 # Source code revision number                                         svn:18619
 &GLOBAL
   PRINT_LEVEL  MEDIUM
   PROJECT_NAME TEST
   RUN_TYPE  GEO_OPT
 &END GLOBAL
 &MOTION
   &GEO_OPT
     MAX_ITER  500
     !STEP_START_VAL  15
   &END GEO_OPT
   &CONSTRAINT
     &COLLECTIVE
       COLVAR  1
       INTERMOLECULAR  T
       TARGET [angstrom] 3.20 !     6.4250688518111856E+00
       &RESTRAINT
         K     2.0000000000000000E+00
       &END RESTRAINT
     &END COLLECTIVE
   &END CONSTRAINT
 &END MOTION
 &FORCE_EVAL
   METHOD  QS
   STRESS_TENSOR  ANALYTICAL
   &DFT
     BASIS_SET_FILE_NAME BASIS_MOLOPT
     POTENTIAL_FILE_NAME GTH_POTENTIALS
     UKS  T
     SURFACE_DIPOLE_CORRECTION  T
     SURF_DIP_DIR  Z
     &SCF
       MAX_SCF  80
       EPS_SCF     5.0000000000000004E-06
       &OT  T
         PRECONDITIONER  FULL_ALL
       &END OT
       &OUTER_SCF  T
         OPTIMIZER  NONE
         EPS_SCF     5.0000000000000004E-06
         MAX_SCF  4
       &END OUTER_SCF
       &PRINT
         &RESTART  OFF
           BACKUP_COPIES  1
           &EACH
             JUST_ENERGY  0
             QS_SCF  0
             MD  20
           &END EACH
         &END RESTART
       &END PRINT
     &END SCF
     &QS
       EPS_DEFAULT     1.0000000000000000E-14
       METHOD  GPW
     &END QS
     &MGRID
       NGRIDS  5
       CUTOFF     1.2000000000000000E+03
     &END MGRID
     &XC
       DENSITY_CUTOFF     1.0000000000000000E-10
       GRADIENT_CUTOFF     1.0000000000000000E-10
       TAU_CUTOFF     1.0000000000000000E-10
       &XC_FUNCTIONAL  NO_SHORTCUT
         &PBE  T
         &END PBE
       &END XC_FUNCTIONAL
       &VDW_POTENTIAL
         POTENTIAL_TYPE  PAIR_POTENTIAL
         &PAIR_POTENTIAL
           R_CUTOFF     1.0000000000000004E+01
           TYPE  DFTD3
           PARAMETER_FILE_NAME dftd3.dat
           REFERENCE_FUNCTIONAL PBE
           EPS_CN     9.9999999999999995E-07
           CALCULATE_C9_TERM  T
           REFERENCE_C9_TERM  T
           LONG_RANGE_CORRECTION  F
           VERBOSE_OUTPUT  F
         &END PAIR_POTENTIAL
       &END VDW_POTENTIAL
     &END XC
   &END DFT
   &SUBSYS
     &CELL
       A     1.2864472766435110E+01    0.0000000000000000E+00    0.0000000000000000E+00
       B    -6.4322363581020028E+00    1.1140960178524473E+01    0.0000000000000000E+00
       C     0.0000000000000000E+00    0.0000000000000000E+00    3.2000000000000000E+01
       MULTIPLE_UNIT_CELL  1 1 1
       &CELL_REF
         A     1.2982353780853531E+01    0.0000000000000000E+00    0.0000000000000000E+00
         B    -6.4911768904267628E+00    1.1243048175136114E+01    0.0000000000000000E+00
         C     0.0000000000000000E+00    0.0000000000000000E+00    3.2000000000000000E+01
         MULTIPLE_UNIT_CELL  1 1 1
       &END CELL_REF
     &END CELL
     &COORD
N    7.5929503491516337E-02    1.9774798477407396E+00    2.4832827287304462E+00
Ga    7.8293164184342512E-02    1.1533930283843582E-02    2.8272162181110523E+00
N    7.9476542411755530E-02   -2.6961788937555992E-02    5.0058405283522180E+00
Ga    8.0982426038922778E-02    1.8008873868720972E+00    5.7974878410784392E+00
N    7.9895562365221537E-02    1.8144736653892850E+00    7.7944980163919437E+00
Ga    7.9674044147479903E-02   -2.9386632549228710E-02    8.4456235092666709E+00
N    7.9728643857199064E-02   -3.0803923427217706E-02    1.0415596876837780E+01
Ga    7.9995991999444793E-02    1.8086302268229353E+00    1.1073181954622962E+01
N    8.0577056682436518E-02    1.7895362534199664E+00    1.3061888421627673E+01
Ga    8.0287651950875769E-02   -2.9657458339847564E-02    1.3878438875985646E+01
N    8.0176967616104461E-02   -2.9850048307853958E-02    1.6064888747834750E+01
Ga    8.0281317797264981E-02    2.0191245866742089E+00    1.6485288232735218E+01
Ga    4.2702560749820664E-02    3.6858822483830846E+00    1.3622384865780135E+00
N   -1.4095924812870624E+00    4.5472138634456751E+00    2.5217136858377232E+00
Ga   -1.6027393420702278E+00    2.7069956062360956E+00    3.2784620146581354E+00
N   -1.5307432524456657E+00    2.7529555507676964E+00    5.2527505064259064E+00
Ga   -1.5597088608699101E+00    4.6184797092674472E+00    5.8100437044206927E+00
N   -1.5387693891452721E+00    4.6176559356211015E+00    7.8002282046893896E+00
Ga   -1.5184612568120661E+00    2.7575115923412143E+00    8.4396164186313367E+00
N   -1.5173461734229470E+00    2.7610989276426863E+00    1.0429136638647272E+01
Ga   -1.5443094850766865E+00    4.6195267728077818E+00    1.1075774978836600E+01
N   -1.5601912268215250E+00    4.6309095688474109E+00    1.3063547894313235E+01
Ga   -1.5170609540775137E+00    2.7610485300583560E+00    1.3622352493790984E+01
N   -1.5481552479319660E+00    2.7433797387506780E+00    1.5578573935328841E+01
Ga   -1.3610089493025621E+00    4.5155710187702427E+00    1.6485576378240129E+01
N    7.5086506652348645E-02    3.6802209212641523E+00    1.7614545211867068E+01
N   -3.1337571182366970E+00    7.5174156418857123E+00    2.5209291796411897E+00
Ga   -3.1127271637861926E+00    5.5174754799250731E+00    2.8525294944245463E+00
N   -3.1361639867807249E+00    5.5402700824691991E+00    5.0191827061659424E+00
Ga   -3.1444333644594518E+00    7.3606790777337601E+00    5.8086680367855310E+00
N   -3.1361230892121470E+00    7.3864493941717546E+00    7.7958994406232218E+00
Ga   -3.1370213178690651E+00    5.5392627985314853E+00    8.4516736027246715E+00
N   -3.1365301246481225E+00    5.5409425337668887E+00    1.0419081314667029E+01
Ga   -3.1379597408341851E+00    7.3793130550156008E+00    1.1076749380262672E+01
N   -3.1359922554387447E+00    7.3602741596303183E+00    1.3063910087559206E+01
Ga   -3.1362895225058631E+00    5.5401549388378619E+00    1.3879614192020506E+01
N   -3.1362036836716825E+00    5.5404466181623224E+00    1.6065281518213808E+01
Ga   -3.1361425635526379E+00    7.5897492185471567E+00    1.6485526453028278E+01
Ga   -3.1512102250285432E+00    9.2547307513616417E+00    1.4627990671835929E+00
N   -4.6408768647987992E+00    1.0121833203529125E+01    2.5103067685973213E+00
Ga   -4.8488677431222174E+00    8.2719125075361291E+00    3.2822142437142166E+00
N   -4.7442421941927471E+00    8.3256111754685289E+00    5.2442881416747253E+00
Ga   -4.7737444822923765E+00    1.0199969431240840E+01    5.7961075007645055E+00
N   -4.7547052561422598E+00    1.0187692340783721E+01    7.7900568826810828E+00
Ga   -4.7366641413593795E+00    8.3329662505367335E+00    8.4400046778213049E+00
N   -4.7334170471210273E+00    8.3322030191496221E+00    1.0428006930208177E+01
Ga   -4.7599398707207818E+00    1.0191703287353501E+01    1.1073738122807310E+01
N   -4.7759291835532149E+00    1.0201574267113104E+01    1.3062014876339866E+01
Ga   -4.7335957445089800E+00    8.3324198928068718E+00    1.3623007116508928E+01
N   -4.7645263096714148E+00    8.3143745063791297E+00    1.5579117399341159E+01
Ga   -4.5779175543580859E+00    1.0086995144848981E+01    1.6485295089229819E+01
N   -3.1416079242807409E+00    9.2515621213044401E+00    1.7614215862334365E+01
N    3.2852233182413020E+00    1.8308106167479619E+00    2.6091244994229332E+00
Ga    3.2872743022958004E+00    8.8244321778604043E-02    3.2793298221848244E+00
N    3.2970448089447770E+00   -3.3309225216208369E-02    5.2426846932764173E+00
Ga    3.2877519518757792E+00    1.8280282614372965E+00    5.8709525536665801E+00
N    3.2956964938694426E+00    1.8251258290386849E+00    7.8439408618077504E+00
Ga    3.2935080415852402E+00   -4.0475708833397288E-02    8.4394203469880065E+00
N    3.2957814376199246E+00   -4.3554592655663631E-02    1.0427221241546343E+01
Ga    3.2960359008221642E+00    1.8268198217096663E+00    1.1027005251404800E+01
N    3.2971502985979577E+00    1.8271556700501597E+00    1.2992045322346490E+01
Ga    3.2966051833728045E+00   -4.1174418607002432E-02    1.3622909954046625E+01
N    3.2982258951583741E+00   -7.1681443875637376E-03    1.5578344081588291E+01
Ga    3.2985255599525964E+00    1.8284309760964166E+00    1.5863469004534327E+01
N    1.5670102592806152E+00    4.5512117016558431E+00    2.5119821409108964E+00
Ga    1.7567884755779142E+00    2.7156538448849452E+00    3.2615268137210665E+00
N    1.6884125798574423E+00    2.7540385614577292E+00    5.2433933925616483E+00
Ga    1.7181819928823694E+00    4.6170373066591548E+00    5.8083392722247620E+00
N    1.6978715607783053E+00    4.6174383742049345E+00    7.7990228390655600E+00
Ga    1.6777395958108583E+00    2.7579906079750867E+00    8.4398055664783200E+00
N    1.6767557492979512E+00    2.7612942061411454E+00    1.0428481442738104E+01
Ga    1.7039717941094277E+00    4.6195177619572112E+00    1.1074544653243997E+01
N    1.7210975639557102E+00    4.6308342069658908E+00    1.3062323731781222E+01
Ga    1.6785009455002622E+00    2.7612503375273354E+00    1.3622442806203090E+01
N    1.7088291033363407E+00    2.7456330133740896E+00    1.5577909912095654E+01
Ga    1.5163353511943587E+00    4.5125487624200460E+00    1.6487440132501000E+01
N    7.2508613036143615E-02    7.3772081604449236E+00    2.6942792218580247E+00
Ga    8.3155253268737378E-02    5.5345819233158906E+00    3.3378782962794573E+00
N    7.9319411714529858E-02    5.5524567020151503E+00    5.2715342204093476E+00
Ga    8.0157793563297899E-02    7.3914730565055393E+00    5.9114279300679176E+00
N    7.9571712606665360E-02    7.3980187771294101E+00    7.8643146518514975E+00
Ga    7.9844039007065340E-02    5.5236076081493310E+00    8.4489581543142904E+00
N    7.9711099597915017E-02    5.5267732412959667E+00    1.0433265785780568E+01
Ga    7.9876419096679016E-02    7.3968388055491125E+00    1.1030849901510223E+01
N    8.0826346177514927E-02    7.3979595014853201E+00    1.2994544837408046E+01
Ga    8.0842635184636788E-02    5.5284197151386003E+00    1.3623473429856965E+01
N    8.2284815518426729E-02    5.5632433857718313E+00    1.5578765912343515E+01
Ga    8.2079991338151886E-02    7.3985125185775846E+00    1.5864191541140400E+01
N   -1.6307341345169539E+00    1.0110145583375390E+01    2.5167202568464160E+00
Ga   -1.5010076797316747E+00    8.2995749087001869E+00    3.3306655357829107E+00
N   -1.5175615237192053E+00    8.3178230269710216E+00    5.2577847522253274E+00
Ga   -1.5050146257980084E+00    1.0203081369745314E+01    5.8089850423219591E+00
N   -1.5188203624815371E+00    1.0186093164954727E+01    7.7954722071697766E+00
Ga   -1.5418401310743013E+00    8.3327431214161116E+00    8.4507283735000112E+00
N   -1.5405044278978934E+00    8.3323205870162145E+00    1.0433321867271021E+01
Ga   -1.5138220693768243E+00    1.0192521261809645E+01    1.1075166618525675E+01
N   -1.4954670611911960E+00    1.0201716193497816E+01    1.3062396064177037E+01
Ga   -1.5380347895366397E+00    8.3324493093044296E+00    1.3623722695073440E+01
N   -1.5073367224533434E+00    8.3164988431916367E+00    1.5579000411082118E+01
Ga   -1.6997854894352671E+00    1.0083787825420156E+01    1.6487345048373133E+01
N    6.5107379050074208E+00    1.9492297686001920E+00    2.5305999153527741E+00
Ga    6.5117068844894037E+00   -2.4425588674301314E-02    2.8673300019136567E+00
N    6.5107391295060024E+00   -3.2257747366209580E-02    5.0175250281526163E+00
Ga    6.5105868914451914E+00    1.8009200830589833E+00    5.8037791150871394E+00
N    6.5114837335681948E+00    1.8139212832234122E+00    7.7950658103152035E+00
Ga    6.5121497945817577E+00   -3.0049425485155417E-02    8.4494846431774668E+00
N    6.5122679735145335E+00   -3.0836760287699147E-02    1.0417078540032467E+01
Ga    6.5120847890187044E+00    1.8099118804673457E+00    1.1072483849934684E+01
N    6.5123516812218334E+00    1.7899248989498471E+00    1.3061085321656078E+01
Ga    6.5122331379743654E+00   -2.9240308602835642E-02    1.3876612130249560E+01
N    6.5109922496326389E+00   -3.0383777195958458E-02    1.6066515761262242E+01
Ga    6.5125457563549896E+00    2.0117763394459689E+00    1.6483121593835317E+01
Ga    6.5140641617676369E+00    3.6816968268787180E+00    1.5127708242122380E+00
N    5.0085792828479541E+00    4.5498433773449047E+00    2.5251524226327500E+00
Ga    4.7932388727595923E+00    2.6968452715727071E+00    3.2917350131967180E+00
N    4.9013143969942563E+00    2.7536860839108539E+00    5.2512900176695654E+00
Ga    4.8788083756203715E+00    4.6256402715172813E+00    5.8029277500399292E+00
N    4.8939376998088777E+00    4.6176539845022910E+00    7.7949078273358960E+00
Ga    4.9119270451386035E+00    2.7594402183803504E+00    8.4390235584012352E+00
N    4.9153395823270625E+00    2.7616885717239206E+00    1.0427174830392564E+01
Ga    4.8895039775088351E+00    4.6205686313834642E+00    1.1072641335568303E+01
N    4.8726290581575480E+00    4.6305857869293190E+00    1.3061259717959349E+01
Ga    4.9152588854204202E+00    2.7615520898581556E+00    1.3622218949735126E+01
N    4.8907525883522593E+00    2.7475114393789322E+00    1.5580913633112139E+01
Ga    5.0643061801859020E+00    4.5200330530581248E+00    1.6483086692652829E+01
N    6.5072423429697848E+00    3.6808907831817042E+00    1.7626333256433462E+01
N    3.2889832943786153E+00    7.5174118081605270E+00    2.5082266275469163E+00
N    3.2950505023375545E+00    5.5405929919418568E+00    5.0202812031182154E+00
Ga    3.2992893159619001E+00    7.3623851801940310E+00    5.8048902997354235E+00
N    3.2935218097065104E+00    7.3870724812403683E+00    7.7930422389082397E+00
Ga    3.2961921192645471E+00    5.5397135044687866E+00    8.4496721487566298E+00
N    3.2961788417703386E+00    5.5412358317310035E+00    1.0417732981432346E+01
Ga    3.2978894121279052E+00    7.3795571709246595E+00    1.1075315055046575E+01
N    3.2967545037049932E+00    7.3606383683818422E+00    1.3062981722214021E+01
Ga    3.2967232026586610E+00    5.5400309498518903E+00    1.3876519290076988E+01
N    3.2950990731942098E+00    5.5396574852027181E+00    1.6066545820650774E+01
Ga    3.2967333146898627E+00    7.5822948539669452E+00    1.6484031421688666E+01
Ga    3.3213782832557097E+00    9.2694976917513490E+00    1.4500174946536715E+00
N    1.7876112998360179E+00    1.0112530371900355E+01    2.5104720571244994E+00
Ga    1.6559566201045341E+00    8.3000460025007730E+00    3.3115855828735725E+00
N    1.6729789100280446E+00    8.3163170459488107E+00    5.2442748353319768E+00
Ga    1.6619062071974959E+00    1.0199423487000807E+01    5.8057846915337867E+00
N    1.6772879399820848E+00    1.0184609983564451E+01    7.7932489154427635E+00
Ga    1.7003196030537486E+00    8.3323779079963280E+00    8.4508940399059593E+00
N    1.7001297520788763E+00    8.3325489594102589E+00    1.0433261329524985E+01
Ga    1.6735607170803115E+00    1.0192619862462809E+01    1.1075284055761061E+01
N    1.6563532515067085E+00    1.0201409897589947E+01    1.3062913383490336E+01
Ga    1.6993460625977050E+00    8.3322220196634831E+00    1.3623581379103054E+01
N    1.6745356011347949E+00    8.3180119072567429E+00    1.5582310811195455E+01
Ga    1.8486875565077188E+00    1.0090666931237621E+01    1.6484007713173632E+01
N    3.2916224339800815E+00    9.2515878507663718E+00    1.7626829181145663E+01
N    9.7353323481725571E+00    1.8291688022962089E+00    2.6180250207898430E+00
Ga    9.7316575406173005E+00    8.5282354987298373E-02    3.2822661155320443E+00
N    9.7244138012309627E+00   -3.4680488091522355E-02    5.2449626905606417E+00
Ga    9.7326587345315811E+00    1.8257949477964281E+00    5.8746237473027971E+00
N    9.7269362858556594E+00    1.8245491475385860E+00    7.8464036125999064E+00
Ga    9.7296785180758345E+00   -4.1772644298722864E-02    8.4380074304823154E+00
N    9.7279852151193502E+00   -4.4015661560750964E-02    1.0426503241907199E+01
Ga    9.7279353550196621E+00    1.8262766825267922E+00    1.1026951890530070E+01
N    9.7275268053208599E+00    1.8261412622129960E+00    1.2993578355837322E+01
Ga    9.7294084254862341E+00   -4.2502380334044909E-02    1.3622762262240958E+01
N    9.7294089176948724E+00   -1.2986828693877640E-02    1.5580846421018405E+01
Ga    9.7268099293868371E+00    1.8265944789653041E+00    1.5859783078757195E+01
N    8.0132492327257978E+00    4.5496347345165242E+00    2.5297848297863932E+00
Ga    8.2271926430964211E+00    2.6959928165291629E+00    3.2954952499436994E+00
N    8.1204793713999379E+00    2.7534545467897353E+00    5.2544281581980137E+00
Ga    8.1441678327550431E+00    4.6259236152152434E+00    5.8029352658938196E+00
N    8.1298363120759038E+00    4.6179414149595219E+00    7.7952291191162315E+00
Ga    8.1107370220798920E+00    2.7598255280761688E+00    8.4393979941388846E+00
N    8.1087074707212512E+00    2.7616710562785212E+00    1.0427670166772534E+01
Ga    8.1346625648465114E+00    4.6204714022847870E+00    1.1073462080022500E+01
N    8.1525050147367910E+00    4.6307485038807901E+00    1.3061483760659803E+01
Ga    8.1093391438064248E+00    2.7620923341264811E+00    1.3622126626847342E+01
N    8.1350294636944049E+00    2.7476232530225397E+00    1.5580068773419477E+01
Ga    7.9572943963854232E+00    4.5180020494544388E+00    1.6482533925122542E+01
N    6.5095237743619725E+00    7.3966779699424805E+00    2.6024328260777736E+00
Ga    6.5099205402195883E+00    5.6574666031340781E+00    3.2913581376509451E+00
N    6.5112494513790589E+00    5.5425744148808533E+00    5.2506067319786638E+00
Ga    6.5100394003480400E+00    7.3989780863018604E+00    5.8744151444753934E+00
N    6.5112268230110537E+00    7.3977152974847362E+00    7.8438941493859620E+00
Ga    6.5118278958933118E+00    5.5292169934483741E+00    8.4398019668951161E+00
N    6.5120992820747672E+00    5.5279864821266962E+00    1.0427582613902157E+01
Ga    6.5115607354769311E+00    7.3974346186812792E+00    1.1027422370142107E+01
N    6.5115514176638998E+00    7.3972760089056404E+00    1.2993660055113223E+01
Ga    6.5128389167429255E+00    5.5277176872634559E+00    1.3622407478487361E+01
N    6.5130031133911697E+00    5.5573724165909768E+00    1.5580287181781435E+01
Ga    6.5110260822713011E+00    7.3963164776107799E+00    1.5860320863608866E+01
N    4.8004623013493051E+00    1.0123743677896822E+01    2.5155840573204586E+00
Ga    5.0008169133972764E+00    8.2702283272460253E+00    3.2790951286814050E+00
N    4.9004213984213942E+00    8.3251523905959939E+00    5.2420388999056939E+00
Ga    4.9320396178091510E+00    1.0199332319750845E+01    5.7945220757654416E+00
N    4.9141238705726691E+00    1.0187858288562275E+01    7.7889528731783848E+00
Ga    4.8945149645076116E+00    8.3330815594941736E+00    8.4380121158265347E+00
N    4.8925026657007660E+00    8.3322467901025039E+00    1.0426146972882226E+01
Ga    4.9194107573258963E+00    1.0191303356088609E+01    1.1072475692937752E+01
N    4.9365201557676643E+00    1.0201214690840713E+01    1.3060904147987166E+01
Ga    4.8938294174864190E+00    8.3330511565865137E+00    1.3622990884567143E+01
N    4.9193645674190849E+00    8.3183039048501328E+00    1.5580986551149939E+01
Ga    4.7414934313813530E+00    1.0088775489804888E+01    1.6483386541751258E+01
O    1.4920518250024115E-02    4.0948487104712079E+00   -4.3452956646933949E-01
H   -1.7984281255359599E-01    5.8757857257226895E+00   -3.4564725602854873E-01
C    1.1321846167282932E+00    3.6416289663434536E+00   -1.2218523549287907E+00
H    2.0987241733402593E+00    3.9467139662669082E+00   -7.8820916354989345E-01
H    1.1285153317510088E+00    2.5458393584818286E+00   -1.3271759614537599E+00
H    1.0398903312568679E+00    4.0863347255141482E+00   -2.2230576909810460E+00
Ga    3.2675965841156680E+00    5.5170559182980119E+00    2.8589901798931368E+00
O   -1.8326858641200527E-01    6.8620171282129361E+00   -2.0312533502397320E-01
H    2.9247143662033119E-02    7.3093479270261348E+00    1.6569213377453023E+00
C    9.4438162521222369E-01    7.3969403754120915E+00   -9.0596628738570073E-01
H    9.5661828421319295E-01    8.4819769437912687E+00   -7.2965056073797685E-01
H    1.8959169413110655E+00    6.9714346433435654E+00   -5.4481292160488703E-01
H    8.7007613535755457E-01    7.2261097515168533E+00   -1.9911793454022944E+00
     &END COORD
     &KIND C
       BASIS_SET DZVP-MOLOPT-SR-GTH-q4
       POTENTIAL GTH-PBE-q4
       &POTENTIAL
 2 2
  0.3384712400000000E+00 2 -0.8803673979999999E+01  0.1339210850000000E+01
 2
  0.3025757500000000E+00 1  0.9622486650000001E+01
  0.2915069400000000E+00 0
         # Potential name:  GTH-PBE-Q4  for symbol:  C
         # Potential read from the potential filename: GTH_POTENTIALS
       &END POTENTIAL
     &END KIND
     &KIND O
       BASIS_SET DZVP-MOLOPT-SR-GTH-q6
       POTENTIAL GTH-PBE-q6
       &POTENTIAL
 2 4
  0.2445543000000000E+00 2 -0.1666721480000000E+02  0.2487311320000000E+01
 2
  0.2209559200000000E+00 1  0.1833745811000000E+02
  0.2113324700000000E+00 0
         # Potential name:  GTH-PBE-Q6  for symbol:  O
         # Potential read from the potential filename: GTH_POTENTIALS
       &END POTENTIAL
     &END KIND
     &KIND H
       BASIS_SET DZVP-MOLOPT-SR-GTH-q1
       POTENTIAL GTH-PBE-q1
       &POTENTIAL
 1
  0.2000000000000000E+00 2 -0.4178900440000000E+01  0.7244633100000000E+00
 0
         # Potential name:  GTH-PBE-Q1  for symbol:  H
         # Potential read from the potential filename: GTH_POTENTIALS
       &END POTENTIAL
     &END KIND
     &KIND N
       BASIS_SET DZVP-MOLOPT-SR-GTH
       POTENTIAL GTH-PBE-q5
       &POTENTIAL
 2 3
  0.2837905100000000E+00 2 -0.1241522559000000E+02  0.1868095920000000E+01
 2
  0.2554050000000000E+00 1  0.1363026257000000E+02
  0.2454945300000000E+00 0
         # Potential name:  GTH-PBE-Q5  for symbol:  N
         # Potential read from the potential filename: GTH_POTENTIALS
       &END POTENTIAL
     &END KIND
     &KIND Ga
       BASIS_SET DZVP-MOLOPT-SR-GTH
       POTENTIAL GTH-PBE-q13
       &POTENTIAL
 2 1 10
  0.4900000000000000E+00 0
 3
  0.4167772300000000E+00 3  0.1047568975000000E+02 -0.4921768140000000E+01  0.8707055900000000E+00
  0.7770178090000000E+01 -0.2248152160000000E+01
  0.1784415450000000E+01
  0.5696265200000000E+00 2  0.1777985340000000E+01  0.1958597600000000E+00
 -0.2317443900000000E+00
  0.2381265000000000E+00 1 -0.1624868022000000E+02
         # Potential name:  GTH-PBE-Q13  for symbol:  GA
         # Potential read from the potential filename: GTH_POTENTIALS
       &END POTENTIAL
     &END KIND
     &TOPOLOGY
       NUMBER_OF_ATOMS  212
       MULTIPLE_UNIT_CELL  1 1 1
     &END TOPOLOGY
     &COLVAR
       &DISTANCE
         ATOMS  127 211
       &END DISTANCE
       &PRINT
       &END PRINT
     &END COLVAR
   &END SUBSYS
 &END FORCE_EVAL
