 # Version information for this restart file 
 # current date 2019-07-12 15:19:10.375
 # current working dir /lustre04/scratch/rzk/rzk/GaN-carbene/443-adatoms-both-2x2/09-BondBreaking-CH/02-0401-CH-to-NTop-PES
 # Program compiled at                              Sun Apr  7 00:48:11 EDT 2019
 # Program compiled on                          beluga2.int.ets1.calculquebec.ca
 # Program compiled for                        Beluga-Linux-x86-64-intel-openmpi
 # Source code revision number                                         svn:18619
 &GLOBAL
   PRINT_LEVEL  MEDIUM
   PROJECT_NAME TEST
   RUN_TYPE  GEO_OPT
 &END GLOBAL
 &MOTION
   &GEO_OPT
     MAX_ITER  500
     !STEP_START_VAL  38
   &END GEO_OPT
   &CONSTRAINT
     &COLLECTIVE
       COLVAR  1
       INTERMOLECULAR  T
       TARGET [angstrom] 1.40 !     3.0235618126170287E+00
       &RESTRAINT
         K     2.0000000000000000E+00
       &END RESTRAINT
     &END COLLECTIVE
   &END CONSTRAINT
 &END MOTION
 &FORCE_EVAL
   METHOD  QS
   STRESS_TENSOR  ANALYTICAL
   &DFT
     BASIS_SET_FILE_NAME BASIS_MOLOPT
     POTENTIAL_FILE_NAME GTH_POTENTIALS
     UKS  T
     SURFACE_DIPOLE_CORRECTION  T
     SURF_DIP_DIR  Z
     &SCF
       MAX_SCF  80
       EPS_SCF     5.0000000000000004E-06
       &OT  T
         PRECONDITIONER  FULL_ALL
       &END OT
       &OUTER_SCF  T
         OPTIMIZER  NONE
         EPS_SCF     5.0000000000000004E-06
         MAX_SCF  4
       &END OUTER_SCF
       &PRINT
         &RESTART  OFF
           BACKUP_COPIES  1
           &EACH
             JUST_ENERGY  0
             QS_SCF  0
             MD  20
           &END EACH
         &END RESTART
       &END PRINT
     &END SCF
     &QS
       EPS_DEFAULT     1.0000000000000000E-14
       METHOD  GPW
     &END QS
     &MGRID
       NGRIDS  5
       CUTOFF     1.2000000000000000E+03
     &END MGRID
     &XC
       DENSITY_CUTOFF     1.0000000000000000E-10
       GRADIENT_CUTOFF     1.0000000000000000E-10
       TAU_CUTOFF     1.0000000000000000E-10
       &XC_FUNCTIONAL  NO_SHORTCUT
         &PBE  T
         &END PBE
       &END XC_FUNCTIONAL
       &VDW_POTENTIAL
         POTENTIAL_TYPE  PAIR_POTENTIAL
         &PAIR_POTENTIAL
           R_CUTOFF     1.0000000000000009E+01
           TYPE  DFTD3
           PARAMETER_FILE_NAME dftd3.dat
           REFERENCE_FUNCTIONAL PBE
           EPS_CN     9.9999999999999995E-07
           CALCULATE_C9_TERM  T
           REFERENCE_C9_TERM  T
           LONG_RANGE_CORRECTION  F
           VERBOSE_OUTPUT  F
         &END PAIR_POTENTIAL
       &END VDW_POTENTIAL
     &END XC
   &END DFT
   &SUBSYS
     &CELL
       A     1.2864472766435110E+01    0.0000000000000000E+00    0.0000000000000000E+00
       B    -6.4322363581020028E+00    1.1140960178524477E+01    0.0000000000000000E+00
       C     0.0000000000000000E+00    0.0000000000000000E+00    3.2000000000000000E+01
       MULTIPLE_UNIT_CELL  1 1 1
       &CELL_REF
         A     1.2982353780853531E+01    0.0000000000000000E+00    0.0000000000000000E+00
         B    -6.4911768904267628E+00    1.1243048175136114E+01    0.0000000000000000E+00
         C     0.0000000000000000E+00    0.0000000000000000E+00    3.2000000000000000E+01
         MULTIPLE_UNIT_CELL  1 1 1
       &END CELL_REF
     &END CELL
     &COORD
N    3.6995083336094220E-02    1.9860329076953056E+00    2.4921910162488481E+00
Ga    3.4421101180202675E-02    2.0474180273257547E-02    2.8296580091520767E+00
N    3.9097019677835916E-02   -1.5543962334355940E-02    5.0136730796713200E+00
Ga    3.7838396811539825E-02    1.8086152406305533E+00    5.7988400206344544E+00
N    3.7965843407346232E-02    1.8236753668635517E+00    7.7998322323907443E+00
Ga    3.7566812110138126E-02   -2.2837350887782697E-02    8.4384184900471251E+00
N    3.8635204685350220E-02   -2.2948096297734883E-02    1.0414938293133703E+01
Ga    3.9217035432285191E-02    1.8171884561317000E+00    1.1065046188625706E+01
N    3.9582143111788044E-02    1.7978346793251656E+00    1.3060254638534881E+01
Ga    3.9721761489971745E-02   -2.2052507521686537E-02    1.3862643185893305E+01
N    3.9817654840436048E-02   -2.0034816504177197E-02    1.6066806604042821E+01
Ga    3.9303326293482647E-02    2.0231817128673071E+00    1.6476924380553601E+01
Ga    2.1862961960769586E-02    3.6927023047416316E+00    1.3647508647195365E+00
N   -1.4424742139444668E+00    4.5623434178318591E+00    2.5121176128347802E+00
Ga   -1.6389096596807975E+00    2.7229883172669864E+00    3.2752398630156510E+00
N   -1.5702775939630289E+00    2.7661292249759346E+00    5.2548923081389800E+00
Ga   -1.6002226797866548E+00    4.6313470281139137E+00    5.8062026485495224E+00
N   -1.5791143243826233E+00    4.6279311670096819E+00    7.8015636956487651E+00
Ga   -1.5594939736035480E+00    2.7679814564198431E+00    8.4360476059545171E+00
N   -1.5581468477484801E+00    2.7704668145783740E+00    1.0430762004834017E+01
Ga   -1.5844152900058948E+00    4.6287979457256281E+00    1.1068146431597123E+01
N   -1.6003509112925485E+00    4.6385756643727039E+00    1.3062625071778800E+01
Ga   -1.5573463963221716E+00    2.7687165172131243E+00    1.3616699684036936E+01
N   -1.5836686259754227E+00    2.7530777815773968E+00    1.5579866571080366E+01
Ga   -1.4130286010872155E+00    4.5302908873642416E+00    1.6476487811960279E+01
N    3.8996104190250749E-02    3.7009469421926751E+00    1.7609461277928720E+01
N   -3.1798852353840878E+00    7.5302758658247360E+00    2.5118542093867675E+00
Ga   -3.1519385877274395E+00    5.5324042680514909E+00    2.8379759832578371E+00
N   -3.1756731109944960E+00    5.5498952191951085E+00    5.0162786172677754E+00
Ga   -3.1850716235510914E+00    7.3724268629968899E+00    5.7956522400192823E+00
N   -3.1767000075221636E+00    7.3960265572194714E+00    7.7905708930170805E+00
Ga   -3.1779802519708862E+00    5.5500088883084198E+00    8.4446612638457026E+00
N   -3.1773361767275343E+00    5.5500746481932195E+00    1.0418129208895172E+01
Ga   -3.1790545523610745E+00    7.3893601221665026E+00    1.1067439361949267E+01
N   -3.1771265504820567E+00    7.3694676181627194E+00    1.3061111819980518E+01
Ga   -3.1771166124849710E+00    5.5493396740012226E+00    1.3863761617242247E+01
N   -3.1771326550778420E+00    5.5507415123683534E+00    1.6067549056626095E+01
Ga   -3.1770151783804508E+00    7.5960898587767520E+00    1.6479379333773775E+01
Ga   -3.2012500880543318E+00    9.2769679912372194E+00    1.4443013372815461E+00
N   -4.6864953996705365E+00    1.0135708589053985E+01    2.5110684223229547E+00
Ga   -4.9007790579962061E+00    8.2869983616178295E+00    3.2694031283377685E+00
N   -4.7872569685956829E+00    8.3353912118254794E+00    5.2375274413014292E+00
Ga   -4.8153879723931432E+00    1.0208380128392635E+01    5.7902244940673819E+00
N   -4.7950115764964965E+00    1.0196308583974083E+01    7.7901384933397448E+00
Ga   -4.7789535334098803E+00    8.3405129016933763E+00    8.4279979770497402E+00
N   -4.7746595327606345E+00    8.3400513059363846E+00    1.0423942489052028E+01
Ga   -4.8004961165773787E+00    1.0198559202874149E+01    1.1064963899112666E+01
N   -4.8161953850209365E+00    1.0208249494795114E+01    1.3060276848138319E+01
Ga   -4.7739811110736596E+00    8.3398825342923324E+00    1.3618150523767952E+01
N   -4.8001117399145343E+00    8.3236449815924054E+00    1.5580329893946315E+01
Ga   -4.6271484740634987E+00    1.0100004057342504E+01    1.6478076574452977E+01
N   -3.1770247535686638E+00    9.2718863713633706E+00    1.7612059215740473E+01
N    3.2426151816572153E+00    1.8405258698049569E+00    2.6196527364319104E+00
Ga    3.2456159345338000E+00    9.3736108049885969E-02    3.2781285893679395E+00
N    3.2558881966449742E+00   -2.4538311825531657E-02    5.2453992599328680E+00
Ga    3.2481952222071220E+00    1.8342524824167619E+00    5.8716034904280630E+00
N    3.2557380126747462E+00    1.8334039182808715E+00    7.8485949274986426E+00
Ga    3.2528577909506593E+00   -3.3060089185378741E-02    8.4340230193012253E+00
N    3.2552266718746972E+00   -3.4928874265737340E-02    1.0428715505551681E+01
Ga    3.2551675880429043E+00    1.8351040303972990E+00    1.1023351384868727E+01
N    3.2556933203009835E+00    1.8347081613258633E+00    1.2996130326077948E+01
Ga    3.2552545963171062E+00   -3.5033583913679889E-02    1.3618158656626948E+01
N    3.2552578687193363E+00   -2.8042509084556535E-03    1.5581482412324513E+01
Ga    3.2556495419699916E+00    1.8348065740718780E+00    1.5860303822661919E+01
N    1.5304680079082704E+00    4.5543046650425376E+00    2.5406215899337661E+00
Ga    1.7132530471345617E+00    2.7195289075256417E+00    3.2749292917891735E+00
N    1.6477971966101455E+00    2.7611136492636157E+00    5.2570492358344660E+00
Ga    1.6746299573542265E+00    4.6261869368541735E+00    5.8066079640566066E+00
N    1.6567926387947844E+00    4.6267489933725132E+00    7.8012288425433898E+00
Ga    1.6370892566204363E+00    2.7665635766676351E+00    8.4349722679165335E+00
N    1.6366271051376780E+00    2.7699011332501788E+00    1.0430075039647116E+01
Ga    1.6626978535573904E+00    4.6282315931056210E+00    1.1067846707932150E+01
N    1.6794803926599404E+00    4.6384076477416825E+00    1.3062460704463041E+01
Ga    1.6362272491145879E+00    2.7688481332772641E+00    1.3617180060813897E+01
N    1.6624890976274516E+00    2.7530524161773267E+00    1.5580239783279300E+01
Ga    1.4911838502790993E+00    4.5299969250064933E+00    1.6476651370528618E+01
N    3.7056506088041639E-02    7.3956429949077798E+00    2.6938885676431830E+00
Ga    4.6484165897047458E-02    5.5526728593972070E+00    3.3354489034036559E+00
N    3.8425153755159765E-02    5.5639010485073808E+00    5.2729009818936952E+00
Ga    4.3010312634267314E-02    7.4064146228726582E+00    5.8970520402146835E+00
N    3.9954555948565548E-02    7.4090834476888263E+00    7.8576511703605787E+00
Ga    3.9152767362490251E-02    5.5359956635672809E+00    8.4411047590166053E+00
N    3.9238250029242576E-02    5.5370283263578823E+00    1.0432847663391998E+01
Ga    3.8775262359764563E-02    7.4060511240804345E+00    1.1026596069662967E+01
N    3.9336660218028556E-02    7.4058388094079532E+00    1.2997893125296914E+01
Ga    3.9657524036239331E-02    5.5354657001779968E+00    1.3618536620482796E+01
N    3.9472315299681544E-02    5.5678953791009898E+00    1.5582526022443762E+01
Ga    3.9226888431396233E-02    7.4060711958351089E+00    1.5861383977308501E+01
N   -1.6734151687587946E+00    1.0126609296204894E+01    2.5140120527329475E+00
Ga   -1.5421189735885636E+00    8.3145092486718362E+00    3.3121756087620953E+00
N   -1.5575116730279654E+00    8.3279876232663419E+00    5.2470082238559863E+00
Ga   -1.5452643510932376E+00    1.0211278982256756E+01    5.8022458538499206E+00
N   -1.5600976367106112E+00    1.0194331752346057E+01    7.7950798835028561E+00
Ga   -1.5821476115509867E+00    8.3409914119798980E+00    8.4411510030779571E+00
N   -1.5805899984111156E+00    8.3404346138522261E+00    1.0431331979298145E+01
Ga   -1.5546833816681176E+00    1.0199983790202145E+01    1.1068456610198384E+01
N   -1.5369491393766481E+00    1.0208746488832062E+01    1.3062395887930034E+01
Ga   -1.5803840754389966E+00    8.3399817701220478E+00    1.3619064260573175E+01
N   -1.5535009232681811E+00    8.3234936613546804E+00    1.5581124949181383E+01
Ga   -1.7268086731033567E+00    1.0100140717509420E+01    1.6478318311614085E+01
N    6.4701071516456077E+00    1.9613727322739636E+00    2.5330257785198049E+00
Ga    6.4724996386287028E+00   -1.4627379751482763E-02    2.8605001136694783E+00
N    6.4690169670894138E+00   -2.0847171546473947E-02    5.0230168647948750E+00
Ga    6.4709172864988656E+00    1.8086926083565160E+00    5.8032813299615311E+00
N    6.4713410122548538E+00    1.8233084888940505E+00    7.7991811024547246E+00
Ga    6.4714602548843816E+00   -2.2534413726922640E-02    8.4436694089693312E+00
N    6.4714823162195909E+00   -2.2649548278986065E-02    1.0417306544995085E+01
Ga    6.4715997399609293E+00    1.8184240121014077E+00    1.1066318553753291E+01
N    6.4717709998182782E+00    1.7980099477894131E+00    1.3060662040757922E+01
Ga    6.4717213441114074E+00   -2.1349008485238231E-02    1.3864650859933185E+01
N    6.4711605260927643E+00   -1.9622785244776605E-02    1.6067325467839883E+01
Ga    6.4716115349126060E+00    2.0245046052539761E+00    1.6478101256308111E+01
Ga    6.4701984933327337E+00    3.6916448781807158E+00    1.5166158946112307E+00
N    4.9691113077618514E+00    4.5554841481505539E+00    2.5351954260257612E+00
Ga    4.7543827985579892E+00    2.7018921596120404E+00    3.2955157837633799E+00
N    4.8607143519412519E+00    2.7619833839312733E+00    5.2574683043266894E+00
Ga    4.8417922798461497E+00    4.6335956293039109E+00    5.8026282977224852E+00
N    4.8537039679139156E+00    4.6261713690090840E+00    7.7975638591599994E+00
Ga    4.8718124081967744E+00    2.7679137825604583E+00    8.4359726024774329E+00
N    4.8742725620116545E+00    2.7700815493369073E+00    1.0429887784315312E+01
Ga    4.8496430794716225E+00    4.6293861221809980E+00    1.1066150566073155E+01
N    4.8324476778688554E+00    4.6384808217697726E+00    1.3061045011737956E+01
Ga    4.8750734989591971E+00    2.7691927127384650E+00    1.3617145403789356E+01
N    4.8484206182271921E+00    2.7531834604867553E+00    1.5579932549120088E+01
Ga    5.0207251064807474E+00    4.5296822962422283E+00    1.6477414417904516E+01
N    6.4717590382332322E+00    3.7012697739350089E+00    1.7609986726653155E+01
N    3.2092405699867523E+00    7.5064682030412007E+00    2.3864290564160369E+00
N    3.2563026259043433E+00    5.5493224197246409E+00    5.0278922507783657E+00
Ga    3.2589636006762861E+00    7.3765829591565595E+00    5.7990552186264583E+00
N    3.2523182788056779E+00    7.3960182648198796E+00    7.7924350622315988E+00
Ga    3.2555234075815225E+00    5.5492014656643907E+00    8.4444809315130129E+00
N    3.2555577179246384E+00    5.5497354324253036E+00    1.0417912581951446E+01
Ga    3.2571937234427391E+00    7.3886777050164092E+00    1.1068283236314075E+01
N    3.2560661395839188E+00    7.3690708245008514E+00    1.3061785511576915E+01
Ga    3.2563396252728656E+00    5.5487979529619800E+00    1.3864045400403077E+01
N    3.2558511229001241E+00    5.5500716999373543E+00    1.6067584389774858E+01
Ga    3.2557451058112230E+00    7.5942355148352227E+00    1.6477639487495932E+01
Ga    3.2901117445897623E+00    9.3964426492747570E+00    1.3686562384053742E+00
N    1.7497669255724095E+00    1.0142731921930208E+01    2.5196694609803152E+00
Ga    1.6389830255667519E+00    8.3213513002652366E+00    3.2853419276732438E+00
N    1.6385665671039507E+00    8.3269057524816557E+00    5.2291606776209294E+00
Ga    1.6200518735351812E+00    1.0207294278567105E+01    5.7987445529360855E+00
N    1.6363548904226073E+00    1.0192347038888139E+01    7.7929742722725157E+00
Ga    1.6593278657483239E+00    8.3413024054488485E+00    8.4446323053131440E+00
N    1.6587597222338324E+00    8.3406332839327817E+00    1.0433498425536939E+01
Ga    1.6335181417659648E+00    1.0200805047576054E+01    1.1068454663119997E+01
N    1.6162348552265831E+00    1.0208859159665087E+01    1.3062561599373312E+01
Ga    1.6591039919331272E+00    8.3398030048204550E+00    1.3618754368772379E+01
N    1.6325017512038824E+00    8.3236039542858009E+00    1.5581273883373770E+01
Ga    1.8034004310375253E+00    1.0101204699139641E+01    1.6476716694236426E+01
N    3.2555811224978632E+00    9.2719432338307151E+00    1.7609838628072783E+01
N    9.6965159171785604E+00    1.8440863528363853E+00    2.6277244916079354E+00
Ga    9.6903765245693769E+00    1.0093829708750329E-01    3.2977519259838632E+00
N    9.6834994744083218E+00   -2.0135481996588312E-02    5.2577000803381058E+00
Ga    9.6925547676183346E+00    1.8399377810218864E+00    5.8737021297270529E+00
N    9.6863667216862321E+00    1.8355934223347794E+00    7.8496438144772895E+00
Ga    9.6894634281352872E+00   -3.3415755709035627E-02    8.4289493667830033E+00
N    9.6873028390921778E+00   -3.4791969759232377E-02    1.0425868388278003E+01
Ga    9.6874915053911224E+00    1.8349966831410378E+00    1.1022120810684335E+01
N    9.6876097414904869E+00    1.8345598198411581E+00    1.2995421290339657E+01
Ga    9.6884177963985891E+00   -3.4696604662253203E-02    1.3618394063496089E+01
N    9.6879942637639083E+00   -2.7426456320141391E-03    1.5582120762222814E+01
Ga    9.6876961343248311E+00    1.8352539395657836E+00    1.5860760310399250E+01
N    7.9718741318993525E+00    4.5629555448652708E+00    2.5278143637104122E+00
Ga    8.1862981096014575E+00    2.7104143213870353E+00    3.2955849792724083E+00
N    8.0788836324770390E+00    2.7651887339305365E+00    5.2574118301385004E+00
Ga    8.1046618387301290E+00    4.6384793132297695E+00    5.7977112430645015E+00
N    8.0889606835078887E+00    4.6279712781085998E+00    7.7954355724809234E+00
Ga    8.0700394560093187E+00    2.7700839567287203E+00    8.4353784607269731E+00
N    8.0682737535144593E+00    2.7706721975104656E+00    1.0429579248482620E+01
Ga    8.0933002848713862E+00    4.6296009039015944E+00    1.1066445373278576E+01
N    8.1111245107241530E+00    4.6386682633522494E+00    1.3061202577548448E+01
Ga    8.0685186358154422E+00    2.7693872024346726E+00    1.3617021898915443E+01
N    8.0949347689753299E+00    2.7532389293786195E+00    1.5579928288924844E+01
Ga    7.9225328508720816E+00    4.5299438231774074E+00    1.6477445203627994E+01
N    6.4536034161641789E+00    7.4091530357121824E+00    2.6031822755840457E+00
Ga    6.4675758654884135E+00    5.6714319806261493E+00    3.2881706733614258E+00
N    6.4707080534608217E+00    5.5521807819749185E+00    5.2500447158746395E+00
Ga    6.4616268099901095E+00    7.4132773107897503E+00    5.8554343945815939E+00
N    6.4682894126739807E+00    7.4078176985994100E+00    7.8348679295823977E+00
Ga    6.4713558187632669E+00    5.5414467874847011E+00    8.4312598185434950E+00
N    6.4714058052100860E+00    5.5378801298286868E+00    1.0426646264507943E+01
Ga    6.4712951662035012E+00    7.4067084285745626E+00    1.1021815472290983E+01
N    6.4716067573556497E+00    7.4059175817644691E+00    1.2994664324248532E+01
Ga    6.4718252999881782E+00    5.5361612506874742E+00    1.3617576323913823E+01
N    6.4715339385723958E+00    5.5680914298104369E+00    1.5581525760215820E+01
Ga    6.4718889703397862E+00    7.4059297043089636E+00    1.5861101212799754E+01
N    4.7602007078586066E+00    1.0148091509996517E+01    2.5316699079274065E+00
Ga    4.9091703897152348E+00    8.2678356303720317E+00    3.2310760982565019E+00
N    4.8518068353914323E+00    8.3327569960078058E+00    5.2189078169278353E+00
Ga    4.8916284909810859E+00    1.0202777765426791E+01    5.7815380733171295E+00
N    4.8729117321361883E+00    1.0194457474682528E+01    7.7857128989415916E+00
Ga    4.8539738442452594E+00    8.3415734481388970E+00    8.4303782614230744E+00
N    4.8520652014110448E+00    8.3402142818814298E+00    1.0425476885663821E+01
Ga    4.8777649499765472E+00    1.0199054803963147E+01    1.1064997768257662E+01
N    4.8950005724958414E+00    1.0208388938181834E+01    1.3060453560791169E+01
Ga    4.8530009388192372E+00    8.3400033699731839E+00    1.3618138106284956E+01
N    4.8788397533031826E+00    8.3237869275958971E+00    1.5580780013681467E+01
Ga    4.7074883239114582E+00    1.0100989434517514E+01    1.6476644679453720E+01
O    1.2420472619855144E-01    4.0153932859004451E+00   -4.4484382883296064E-01
H    4.1481944110927405E-01    5.7787366284564792E+00   -3.3812087156126741E-01
C    1.1260394874856183E+00    3.2751669008706963E+00   -1.1707950561964311E+00
H    2.1227291655638107E+00    3.3543629373969059E+00   -7.0611759480302916E-01
H    8.6022263481595374E-01    2.2096376017746735E+00   -1.2426985694213297E+00
H    1.1768888536425064E+00    3.6917090107887764E+00   -2.1865791080469830E+00
Ga    3.2315081698565424E+00    5.5084445183463187E+00    2.8905110036412696E+00
O    6.4618238676175122E-01    6.7064379609013880E+00   -6.7523483510229562E-02
H    5.9512377937307230E-02    7.3093406376442998E+00    1.6571708151245708E+00
C    2.0780257390710926E+00    6.8056896966223368E+00   -1.0770207678527200E-02
H    2.3878171454847421E+00    7.7134528754635934E+00   -5.8248736746062624E-01
H    2.4979609347943397E+00    6.9855833477062417E+00    1.0447000303993599E+00
H    2.5647779981972954E+00    5.9385167462703343E+00   -4.7989168739670585E-01
     &END COORD
     &KIND C
       BASIS_SET DZVP-MOLOPT-SR-GTH-q4
       POTENTIAL GTH-PBE-q4
       &POTENTIAL
2 2
0.3384712400000000E+00 2 -0.8803673979999999E+01  0.1339210850000000E+01
2
0.3025757500000000E+00 1  0.9622486650000001E+01
0.2915069400000000E+00 0
       &END POTENTIAL
     &END KIND
     &KIND O
       BASIS_SET DZVP-MOLOPT-SR-GTH-q6
       POTENTIAL GTH-PBE-q6
       &POTENTIAL
2 4
0.2445543000000000E+00 2 -0.1666721480000000E+02  0.2487311320000000E+01
2
0.2209559200000000E+00 1  0.1833745811000000E+02
0.2113324700000000E+00 0
       &END POTENTIAL
     &END KIND
     &KIND H
       BASIS_SET DZVP-MOLOPT-SR-GTH-q1
       POTENTIAL GTH-PBE-q1
       &POTENTIAL
1
0.2000000000000000E+00 2 -0.4178900440000000E+01  0.7244633100000000E+00
0
       &END POTENTIAL
     &END KIND
     &KIND N
       BASIS_SET DZVP-MOLOPT-SR-GTH
       POTENTIAL GTH-PBE-q5
       &POTENTIAL
2 3
0.2837905100000000E+00 2 -0.1241522559000000E+02  0.1868095920000000E+01
2
0.2554050000000000E+00 1  0.1363026257000000E+02
0.2454945300000000E+00 0
       &END POTENTIAL
     &END KIND
     &KIND Ga
       BASIS_SET DZVP-MOLOPT-SR-GTH
       POTENTIAL GTH-PBE-q13
       &POTENTIAL
2 1 10
0.4900000000000000E+00 0
3
0.4167772300000000E+00 3  0.1047568975000000E+02 -0.4921768140000000E+01  0.8707055900000000E+00
0.7770178090000000E+01 -0.2248152160000000E+01
0.1784415450000000E+01
0.5696265200000000E+00 2  0.1777985340000000E+01  0.1958597600000000E+00
-0.2317443900000000E+00
0.2381265000000000E+00 1 -0.1624868022000000E+02
       &END POTENTIAL
     &END KIND
     &TOPOLOGY
       NUMBER_OF_ATOMS  212
       MULTIPLE_UNIT_CELL  1 1 1
     &END TOPOLOGY
     &COLVAR
       &DISTANCE
         ATOMS  127 211
       &END DISTANCE
       &PRINT
       &END PRINT
     &END COLVAR
   &END SUBSYS
 &END FORCE_EVAL
