 # Version information for this restart file 
 # current date 2019-07-11 11:22:04.428
 # current working dir /lustre04/scratch/rzk/rzk/GaN-carbene/443-adatoms-both-2x2/09-BondBreaking-CH/02-0401-CH-to-NTop-PES
 # Program compiled at                              Sun Apr  7 00:48:11 EDT 2019
 # Program compiled on                          beluga2.int.ets1.calculquebec.ca
 # Program compiled for                        Beluga-Linux-x86-64-intel-openmpi
 # Source code revision number                                         svn:18619
 &GLOBAL
   PRINT_LEVEL  MEDIUM
   PROJECT_NAME TEST
   RUN_TYPE  GEO_OPT
 &END GLOBAL
 &MOTION
   &GEO_OPT
     MAX_ITER  500
     !STEP_START_VAL  101
   &END GEO_OPT
   &CONSTRAINT
     &COLLECTIVE
       COLVAR  1
       INTERMOLECULAR  T
       TARGET [angstrom] 2.00 !     4.1573974923484149E+00
       &RESTRAINT
         K     2.0000000000000000E+00
       &END RESTRAINT
     &END COLLECTIVE
   &END CONSTRAINT
 &END MOTION
 &FORCE_EVAL
   METHOD  QS
   STRESS_TENSOR  ANALYTICAL
   &DFT
     BASIS_SET_FILE_NAME BASIS_MOLOPT
     POTENTIAL_FILE_NAME GTH_POTENTIALS
     UKS  T
     SURFACE_DIPOLE_CORRECTION  T
     SURF_DIP_DIR  Z
     &SCF
       MAX_SCF  80
       EPS_SCF     5.0000000000000004E-06
       &OT  T
         PRECONDITIONER  FULL_ALL
       &END OT
       &OUTER_SCF  T
         OPTIMIZER  NONE
         EPS_SCF     5.0000000000000004E-06
         MAX_SCF  4
       &END OUTER_SCF
       &PRINT
         &RESTART  OFF
           BACKUP_COPIES  1
           &EACH
             JUST_ENERGY  0
             QS_SCF  0
             MD  20
           &END EACH
         &END RESTART
       &END PRINT
     &END SCF
     &QS
       EPS_DEFAULT     1.0000000000000000E-14
       METHOD  GPW
     &END QS
     &MGRID
       NGRIDS  5
       CUTOFF     1.2000000000000000E+03
     &END MGRID
     &XC
       DENSITY_CUTOFF     1.0000000000000000E-10
       GRADIENT_CUTOFF     1.0000000000000000E-10
       TAU_CUTOFF     1.0000000000000000E-10
       &XC_FUNCTIONAL  NO_SHORTCUT
         &PBE  T
         &END PBE
       &END XC_FUNCTIONAL
       &VDW_POTENTIAL
         POTENTIAL_TYPE  PAIR_POTENTIAL
         &PAIR_POTENTIAL
           R_CUTOFF     1.0000000000000009E+01
           TYPE  DFTD3
           PARAMETER_FILE_NAME dftd3.dat
           REFERENCE_FUNCTIONAL PBE
           EPS_CN     9.9999999999999995E-07
           CALCULATE_C9_TERM  T
           REFERENCE_C9_TERM  T
           LONG_RANGE_CORRECTION  F
           VERBOSE_OUTPUT  F
         &END PAIR_POTENTIAL
       &END VDW_POTENTIAL
     &END XC
   &END DFT
   &SUBSYS
     &CELL
       A     1.2864472766435110E+01    0.0000000000000000E+00    0.0000000000000000E+00
       B    -6.4322363581020028E+00    1.1140960178524477E+01    0.0000000000000000E+00
       C     0.0000000000000000E+00    0.0000000000000000E+00    3.2000000000000000E+01
       MULTIPLE_UNIT_CELL  1 1 1
       &CELL_REF
         A     1.2982353780853531E+01    0.0000000000000000E+00    0.0000000000000000E+00
         B    -6.4911768904267628E+00    1.1243048175136114E+01    0.0000000000000000E+00
         C     0.0000000000000000E+00    0.0000000000000000E+00    3.2000000000000000E+01
         MULTIPLE_UNIT_CELL  1 1 1
       &END CELL_REF
     &END CELL
     &COORD
N    3.9424879808086198E-02    1.9889454630156171E+00    2.4958900406766853E+00
Ga    6.2952987416651424E-02    2.1412324273615061E-02    2.8303166180616341E+00
N    4.1061615145781188E-02   -1.1896097915622076E-02    5.0171797668542570E+00
Ga    4.4608928551157292E-02    1.8134769339958807E+00    5.8000964658873304E+00
N    4.3224195773592523E-02    1.8287180891930486E+00    7.8016460430289021E+00
Ga    4.5598458971319242E-02   -1.7092239688536306E-02    8.4430209611863081E+00
N    4.3382509331008109E-02   -1.6905590497795667E-02    1.0418821965192940E+01
Ga    4.3860994619263904E-02    1.8233427398954514E+00    1.1068340863836363E+01
N    4.3223409533146601E-02    1.8040831943780471E+00    1.3063291123608353E+01
Ga    4.4218345410122310E-02   -1.6271153852078283E-02    1.3865475885537109E+01
N    4.4153485229633853E-02   -1.4608231571608165E-02    1.6069894555617196E+01
Ga    4.3438148894271340E-02    2.0290493342314582E+00    1.6479278943401638E+01
Ga    1.1672037372951282E-02    3.6891632646481858E+00    1.3668864893872674E+00
N   -1.4427590379801580E+00    4.5600090574376697E+00    2.5172531954560919E+00
Ga   -1.6354467223993314E+00    2.7251323362035889E+00    3.2837247516063868E+00
N   -1.5665713181964380E+00    2.7683926233311658E+00    5.2607126484119675E+00
Ga   -1.5966519558659202E+00    4.6353031484253870E+00    5.8104013893094244E+00
N   -1.5737915864561725E+00    4.6320523545569285E+00    7.8058590407901836E+00
Ga   -1.5537735012470644E+00    2.7727674843397163E+00    8.4403084786905662E+00
N   -1.5541623116632366E+00    2.7757893977212529E+00    1.0434385448926582E+01
Ga   -1.5808938014690668E+00    4.6344687903857995E+00    1.1072018832787100E+01
N   -1.5972326442187383E+00    4.6446606988631123E+00    1.3066368617814504E+01
Ga   -1.5537268542406735E+00    2.7748425447236502E+00    1.3620613423275239E+01
N   -1.5801235477217932E+00    2.7580297661842361E+00    1.5583243555986250E+01
Ga   -1.4100681334463219E+00    4.5368189942824957E+00    1.6478189595526917E+01
N    4.2397634320816516E-02    3.7070031597875546E+00    1.7608697629989646E+01
N   -3.1722561974461989E+00    7.5269510230890520E+00    2.5074118869516071E+00
Ga   -3.1460387168064354E+00    5.5483807735561692E+00    2.8403545509653747E+00
N   -3.1708596287485680E+00    5.5515858751292928E+00    5.0252910966462867E+00
Ga   -3.1788642323646661E+00    7.3780339911485129E+00    5.7957025017824932E+00
N   -3.1714069587017786E+00    7.4010010937003905E+00    7.7938228236273899E+00
Ga   -3.1730706242185303E+00    5.5556781398083430E+00    8.4478685868713743E+00
N   -3.1731368175940187E+00    5.5558356994358817E+00    1.0421394568061515E+01
Ga   -3.1749774757794631E+00    7.3951891812841533E+00    1.1070878655909864E+01
N   -3.1735790370927144E+00    7.3752987600983539E+00    1.3063973889315262E+01
Ga   -3.1743505042157310E+00    5.5555888209026003E+00    1.3869296709140142E+01
N   -3.1737303454442438E+00    5.5571542272478052E+00    1.6069536058486406E+01
Ga   -3.1733697115385895E+00    7.6028759331439169E+00    1.6483138317831841E+01
Ga   -3.1953927116089758E+00    9.2789343201155905E+00    1.3376079639627738E+00
N   -4.6805582329900330E+00    1.0138740592283048E+01    2.5071003079683827E+00
Ga   -4.8652914624572059E+00    8.2975170406913801E+00    3.2557239365474606E+00
N   -4.7797962920799533E+00    8.3392143663318912E+00    5.2363444241375818E+00
Ga   -4.8058385396641619E+00    1.0211530820362242E+01    5.7855843033409045E+00
N   -4.7903046684618618E+00    1.0201413088286825E+01    7.7899473465975957E+00
Ga   -4.7715138501925578E+00    8.3469880129119254E+00    8.4318036994413958E+00
N   -4.7701930495583182E+00    8.3461906048920653E+00    1.0427587913788235E+01
Ga   -4.7953091549029194E+00    1.0204637932026602E+01    1.1067740350720976E+01
N   -4.8120645717552408E+00    1.0214346847410711E+01    1.3062498527641930E+01
Ga   -4.7700878439179295E+00    8.3461131286644701E+00    1.3621324655048618E+01
N   -4.7962929430914460E+00    8.3305141181223892E+00    1.5582752927766755E+01
Ga   -4.6204700970882380E+00    1.0104422319853958E+01    1.6482863411969102E+01
N   -3.1725138722105424E+00    9.2766359695233280E+00    1.7620485612295703E+01
N    3.2475556485300543E+00    1.8414212564519381E+00    2.6203253575637540E+00
Ga    3.2523242008497704E+00    7.9914303326293304E-02    3.2568829502442935E+00
N    3.2617199102240000E+00   -1.8962512593345675E-02    5.2380131141380275E+00
Ga    3.2521981509221480E+00    1.8353411874851324E+00    5.8656492116042518E+00
N    3.2599553212084391E+00    1.8388882747430721E+00    7.8457544531358510E+00
Ga    3.2576446224009921E+00   -2.7535751943601295E-02    8.4321853771047781E+00
N    3.2594913539703589E+00   -2.9086919485666957E-02    1.0428458995329478E+01
Ga    3.2591367617084543E+00    1.8403151811446956E+00    1.1024620433367561E+01
N    3.2589787631642957E+00    1.8407073863586958E+00    1.2997026980043586E+01
Ga    3.2588138842746770E+00   -2.8568360434653731E-02    1.3621143364559488E+01
N    3.2585652307966333E+00    2.4821084841807270E-03    1.5583694065719763E+01
Ga    3.2596256463574296E+00    1.8401278455264236E+00    1.5862829654989858E+01
N    1.5332928559130072E+00    4.5645609862765166E+00    2.5259830881549901E+00
Ga    1.7209499908228705E+00    2.7252725445890089E+00    3.2689555660018317E+00
N    1.6521864780186681E+00    2.7680947856642040E+00    5.2527225338825803E+00
Ga    1.6798887417854733E+00    4.6315982153307722E+00    5.8060162085095497E+00
N    1.6614965041333289E+00    4.6325121589097176E+00    7.8016518625725535E+00
Ga    1.6428146501002658E+00    2.7716316234003582E+00    8.4353786770761019E+00
N    1.6408324823406875E+00    2.7759440725918658E+00    1.0431079609381605E+01
Ga    1.6670170323505806E+00    4.6334899867607247E+00    1.1071539323760076E+01
N    1.6831853077390606E+00    4.6444019602009732E+00    1.3065732157789720E+01
Ga    1.6402665620273609E+00    2.7746328579671187E+00    1.3620308456920327E+01
N    1.6666418073391300E+00    2.7586389289423785E+00    1.5582767254655945E+01
Ga    1.4954590861846921E+00    4.5360844969044241E+00    1.6478518045311610E+01
N    3.1419744107346673E-02    7.3949283276764080E+00    2.6891281494560597E+00
Ga    4.4057045740111531E-02    5.5530202558206412E+00    3.3342923401175084E+00
N    4.2780876390559150E-02    5.5675735978871002E+00    5.2720189879341017E+00
Ga    3.6436758891197109E-02    7.4085207649086708E+00    5.9043449835307795E+00
N    4.2928074636384490E-02    7.4129207138529321E+00    7.8636463607276434E+00
Ga    4.3696761655146230E-02    5.5399259119470550E+00    8.4459304627223375E+00
N    4.3497261398170978E-02    5.5422492516734305E+00    1.0436991200778801E+01
Ga    4.2214868701187194E-02    7.4117226841070325E+00    1.1030105089068597E+01
N    4.2931011469274374E-02    7.4119308724700774E+00    1.3001170018887416E+01
Ga    4.3061066168739448E-02    5.5413977117757263E+00    1.3622014104809594E+01
N    4.3700622663457728E-02    5.5744163342971120E+00    1.5585537051234093E+01
Ga    4.2513763190242103E-02    7.4124004559097045E+00    1.5862741305641078E+01
N   -1.6633994167331814E+00    1.0132017324525970E+01    2.5108498664751941E+00
Ga   -1.5585754616528882E+00    8.3274970645882753E+00    3.2996634051542619E+00
N   -1.5528729134496193E+00    8.3323253702562088E+00    5.2436957017787913E+00
Ga   -1.5433432178928999E+00    1.0214553887918889E+01    5.7975912544502446E+00
N   -1.5549959960474100E+00    1.0199325486096949E+01    7.7942232135441847E+00
Ga   -1.5790396204260688E+00    8.3471899778376208E+00    8.4444721541357914E+00
N   -1.5765808969971504E+00    8.3466378845693665E+00    1.0434662731531375E+01
Ga   -1.5513381649984279E+00    1.0206312752016867E+01    1.1071104929068126E+01
N   -1.5338113617083571E+00    1.0214942217322285E+01    1.3064519435071166E+01
Ga   -1.5773391296493084E+00    8.3463148779412482E+00    1.3622235204724756E+01
N   -1.5501214675618564E+00    8.3298829271095904E+00    1.5583431649522913E+01
Ga   -1.7247758030689360E+00    1.0105209801943241E+01    1.6482831507782471E+01
N    6.4765584195772945E+00    1.9647750916264499E+00    2.5371054873754382E+00
Ga    6.4582603767550877E+00   -1.4402726788529885E-02    2.8640282387652722E+00
N    6.4788044490550538E+00   -1.6026069795675581E-02    5.0254410605977453E+00
Ga    6.4754455291233040E+00    1.8138048924346739E+00    5.8057067434101857E+00
N    6.4758029602150460E+00    1.8282676589041476E+00    7.8014111989030255E+00
Ga    6.4736509432843468E+00   -1.7454287786869697E-02    8.4468512623111174E+00
N    6.4752601467423485E+00   -1.6838125761542668E-02    1.0420073039919757E+01
Ga    6.4745590783863101E+00    1.8242606551110108E+00    1.1069460556429380E+01
N    6.4749405365446862E+00    1.8040868932141259E+00    1.3062978621898594E+01
Ga    6.4740174640691368E+00   -1.4852667705161707E-02    1.3868633479548116E+01
N    6.4744670190330877E+00   -1.3868698168501625E-02    1.6069722327964019E+01
Ga    6.4751535461222351E+00    2.0339466757187545E+00    1.6483325519635045E+01
Ga    6.4765668466126565E+00    3.6952473240723660E+00    1.5287913665176283E+00
N    4.9743794760378295E+00    4.5632038225084255E+00    2.5352658133408261E+00
Ga    4.7550725766866533E+00    2.7043242910665737E+00    3.2967308733633534E+00
N    4.8663411662647098E+00    2.7677287465206488E+00    5.2576680871166559E+00
Ga    4.8458277430057679E+00    4.6391070362076938E+00    5.8027454805414092E+00
N    4.8577606379773188E+00    4.6320357975303708E+00    7.7986069064161692E+00
Ga    4.8749363804555799E+00    2.7728177274081087E+00    8.4359518300816507E+00
N    4.8779400366023475E+00    2.7758766636592620E+00    1.0430451435655598E+01
Ga    4.8533246933822003E+00    4.6343454395021082E+00    1.1069685923235269E+01
N    4.8358166362965411E+00    4.6442900543899137E+00    1.3063652819235122E+01
Ga    4.8781665671606316E+00    2.7750186904409779E+00    1.3620484403381205E+01
N    4.8508331421869091E+00    2.7586650096443002E+00    1.5581342206802606E+01
Ga    5.0285860454363931E+00    4.5334716788369391E+00    1.6482444780444549E+01
N    6.4762021000568373E+00    3.7066079072607483E+00    1.7617726824928127E+01
N    3.2425681310250267E+00    7.5323737835827593E+00    2.4765161921162222E+00
N    3.2609297047666983E+00    5.5566664869508635E+00    5.0236295568482463E+00
Ga    3.2636575245561334E+00    7.3773669821689287E+00    5.8079973542301930E+00
N    3.2570604387361195E+00    7.4007156740804074E+00    7.7984944381876229E+00
Ga    3.2598179046104003E+00    5.5529179066703600E+00    8.4486311131742688E+00
N    3.2595154152394898E+00    5.5553624031560327E+00    1.0421205241629810E+01
Ga    3.2609901729081101E+00    7.3942064401365331E+00    1.1072478812908692E+01
N    3.2594627423732234E+00    7.3748620919851051E+00    1.3065385369795248E+01
Ga    3.2604044224611379E+00    5.5541306329029538E+00    1.3868433032772749E+01
N    3.2600853793529412E+00    5.5562007174799453E+00    1.6069979603751541E+01
Ga    3.2597920681968535E+00    7.5982041672703104E+00    1.6479287099678832E+01
Ga    3.2858705814587994E+00    9.3141843727223677E+00    1.5027059488695047E+00
N    1.7550514191280169E+00    1.0131858579193056E+01    2.5263808022926684E+00
Ga    1.6123452047090705E+00    8.3092873339477720E+00    3.3176094316735409E+00
N    1.6384167961418388E+00    8.3299980326685645E+00    5.2490279623621010E+00
Ga    1.6233159923407623E+00    1.0214307034165707E+01    5.8092401542484504E+00
N    1.6415650509576232E+00    1.0197901978160177E+01    7.8001125461359440E+00
Ga    1.6625463596271415E+00    8.3454662043484369E+00    8.4493931148275330E+00
N    1.6626015991303471E+00    8.3462055150086574E+00    1.0437375460820215E+01
Ga    1.6361589898564619E+00    1.0206309895120725E+01    1.1073183011015191E+01
N    1.6192405598469397E+00    1.0214952883796617E+01    1.3066572494737747E+01
Ga    1.6627095527950719E+00    8.3458585325699062E+00    1.3622407291834838E+01
N    1.6369002326329336E+00    8.3296035277608009E+00    1.5585184224707552E+01
Ga    1.8056807190149344E+00    1.0108007308327453E+01    1.6478784894105232E+01
N    3.2589707203841631E+00    9.2776438982685381E+00    1.7613402597853892E+01
N    9.7007278419607950E+00    1.8476757783491808E+00    2.6266900719031856E+00
Ga    9.6971469640222310E+00    1.1303036275377984E-01    3.3051423974099339E+00
N    9.6893731194026582E+00   -1.8703912220162947E-02    5.2613020206570873E+00
Ga    9.6970018627644059E+00    1.8440410169093033E+00    5.8820323540669515E+00
N    9.6907149257204743E+00    1.8394617670609021E+00    7.8556907203361002E+00
Ga    9.6933352651764437E+00   -2.8071752300414896E-02    8.4394025044740371E+00
N    9.6910889315000883E+00   -2.9517444460377872E-02    1.0432863262476557E+01
Ga    9.6914040782193265E+00    1.8408183245148411E+00    1.1027036493254665E+01
N    9.6914243659381611E+00    1.8405235063000767E+00    1.2999019541634528E+01
Ga    9.6917260060612289E+00   -2.8716663949326048E-02    1.3621663862259515E+01
N    9.6923177078487797E+00    1.9174758591188072E-03    1.5585602264055488E+01
Ga    9.6909550366095587E+00    1.8407608847786110E+00    1.5863456897110957E+01
N    7.9783755025436820E+00    4.5638664555151314E+00    2.5309640679325622E+00
Ga    8.1921944332725491E+00    2.7144974226374603E+00    3.3014580356642771E+00
N    8.0851418207472321E+00    2.7686804116897412E+00    5.2618801658547198E+00
Ga    8.1116626392610058E+00    4.6424385936117227E+00    5.8042265108120423E+00
N    8.0932388672599505E+00    4.6318670947632663E+00    7.8013041426440228E+00
Ga    8.0735909714502139E+00    2.7747712632146113E+00    8.4409523400583844E+00
N    8.0722233310395790E+00    2.7759897622385337E+00    1.0433802164957639E+01
Ga    8.0976800985672099E+00    4.6354900485579762E+00    1.1070380360798341E+01
N    8.1147689063651338E+00    4.6446825191442089E+00    1.3064275758644147E+01
Ga    8.0716528460954162E+00    2.7753548470096097E+00    1.3620670754534792E+01
N    8.0994667084102971E+00    2.7583418739760988E+00    1.5581381182824122E+01
Ga    7.9234776676799745E+00    4.5344906769709050E+00    1.6481871782815791E+01
N    6.4750842410212890E+00    7.4130568552637204E+00    2.6094187576454226E+00
Ga    6.4808922800140678E+00    5.6757752068188916E+00    3.2942338979815546E+00
N    6.4769949457168146E+00    5.5562029080630344E+00    5.2550016539426201E+00
Ga    6.4804673939815371E+00    7.4159332890337666E+00    5.8668062594313977E+00
N    6.4752239727816114E+00    7.4120478073079568E+00    7.8435740104452147E+00
Ga    6.4757963456120162E+00    5.5451208156017966E+00    8.4367895655078620E+00
N    6.4751505896656347E+00    5.5430679675285424E+00    1.0430994500979498E+01
Ga    6.4759547767090639E+00    7.4123503897952867E+00    1.1025290825581855E+01
N    6.4751976854825548E+00    7.4123393562516515E+00    1.2997507495177283E+01
Ga    6.4752112024415878E+00    5.5422308059668230E+00    1.3620942451613363E+01
N    6.4748836036148338E+00    5.5753745391074956E+00    1.5582848950238738E+01
Ga    6.4758474034272382E+00    7.4120555888889914E+00    1.5862041977908735E+01
N    4.7653634058304890E+00    1.0143001610930327E+01    2.5325431883453633E+00
Ga    4.9630633777756143E+00    8.2741380937290572E+00    3.2828084478745145E+00
N    4.8627944533625254E+00    8.3389915738515494E+00    5.2466803113766058E+00
Ga    4.8995789007714716E+00    1.0212976004532923E+01    5.7991176806050282E+00
N    4.8772477185301426E+00    1.0200864043249378E+01    7.7968541260007571E+00
Ga    4.8598990141626155E+00    8.3455557829490008E+00    8.4364894453087249E+00
N    4.8561352940946820E+00    8.3457656976899415E+00    1.0430073218904807E+01
Ga    4.8828796085644584E+00    1.0204752677436081E+01    1.1069510713950377E+01
N    4.8986672262327389E+00    1.0214506794152788E+01    1.3064211698088384E+01
Ga    4.8565435260981262E+00    8.3458367480009876E+00    1.3621283848260560E+01
N    4.8819203864711858E+00    8.3305390723411303E+00    1.5583944867349553E+01
Ga    4.7126631078057075E+00    1.0107463576346840E+01    1.6478620013514185E+01
O    6.4128368894792120E-02    4.0218831826511323E+00   -4.4227906866221656E-01
H    1.6692288781700135E-01    5.8060683809355913E+00   -3.6139417689872577E-01
C    1.1342886112136830E+00    3.3961397257809378E+00   -1.1777107546336953E+00
H    2.1212412876297742E+00    3.5970814285801196E+00   -7.2927450702440144E-01
H    9.9556052786295024E-01    2.3057487908781291E+00   -1.2354366989982490E+00
H    1.1201735406464046E+00    3.8036925350317574E+00   -2.1986281605614990E+00
Ga    3.2341592739195595E+00    5.5199925787516113E+00    2.8697846547080190E+00
O    3.4486893744854746E-01    6.7712798220087587E+00   -2.0034756184245175E-01
H    3.5234392240026946E-02    7.3218935003690442E+00    1.6512554631585645E+00
C    1.7563457524702104E+00    6.9683194920079004E+00   -3.7058691502840385E-01
H    1.9084288219668668E+00    7.9862146410177264E+00   -7.7391944496611342E-01
H    2.3050915648016459E+00    6.8942409926993884E+00    5.8974737037096692E-01
H    2.1883620395955585E+00    6.2604536431835740E+00   -1.0921180332175107E+00
     &END COORD
     &KIND C
       BASIS_SET DZVP-MOLOPT-SR-GTH-q4
       POTENTIAL GTH-PBE-q4
       &POTENTIAL
2 2
0.3384712400000000E+00 2 -0.8803673979999999E+01  0.1339210850000000E+01
2
0.3025757500000000E+00 1  0.9622486650000001E+01
0.2915069400000000E+00 0
       &END POTENTIAL
     &END KIND
     &KIND O
       BASIS_SET DZVP-MOLOPT-SR-GTH-q6
       POTENTIAL GTH-PBE-q6
       &POTENTIAL
2 4
0.2445543000000000E+00 2 -0.1666721480000000E+02  0.2487311320000000E+01
2
0.2209559200000000E+00 1  0.1833745811000000E+02
0.2113324700000000E+00 0
       &END POTENTIAL
     &END KIND
     &KIND H
       BASIS_SET DZVP-MOLOPT-SR-GTH-q1
       POTENTIAL GTH-PBE-q1
       &POTENTIAL
1
0.2000000000000000E+00 2 -0.4178900440000000E+01  0.7244633100000000E+00
0
       &END POTENTIAL
     &END KIND
     &KIND N
       BASIS_SET DZVP-MOLOPT-SR-GTH
       POTENTIAL GTH-PBE-q5
       &POTENTIAL
2 3
0.2837905100000000E+00 2 -0.1241522559000000E+02  0.1868095920000000E+01
2
0.2554050000000000E+00 1  0.1363026257000000E+02
0.2454945300000000E+00 0
       &END POTENTIAL
     &END KIND
     &KIND Ga
       BASIS_SET DZVP-MOLOPT-SR-GTH
       POTENTIAL GTH-PBE-q13
       &POTENTIAL
2 1 10
0.4900000000000000E+00 0
3
0.4167772300000000E+00 3  0.1047568975000000E+02 -0.4921768140000000E+01  0.8707055900000000E+00
0.7770178090000000E+01 -0.2248152160000000E+01
0.1784415450000000E+01
0.5696265200000000E+00 2  0.1777985340000000E+01  0.1958597600000000E+00
-0.2317443900000000E+00
0.2381265000000000E+00 1 -0.1624868022000000E+02
       &END POTENTIAL
     &END KIND
     &TOPOLOGY
       NUMBER_OF_ATOMS  212
       MULTIPLE_UNIT_CELL  1 1 1
     &END TOPOLOGY
     &COLVAR
       &DISTANCE
         ATOMS  127 211
       &END DISTANCE
       &PRINT
       &END PRINT
     &END COLVAR
   &END SUBSYS
 &END FORCE_EVAL
