 # Version information for this restart file 
 # current date 2019-07-13 15:52:56.844
 # current working dir /lustre04/scratch/rzk/rzk/GaN-carbene/443-adatoms-both-2x2/09-BondBreaking-CH/02-0401-CH-to-NTop-PES
 # Program compiled at                              Sun Apr  7 00:48:11 EDT 2019
 # Program compiled on                          beluga2.int.ets1.calculquebec.ca
 # Program compiled for                        Beluga-Linux-x86-64-intel-openmpi
 # Source code revision number                                         svn:18619
 &GLOBAL
   PRINT_LEVEL  MEDIUM
   PROJECT_NAME TEST
   RUN_TYPE  GEO_OPT
 &END GLOBAL
 &MOTION
   &GEO_OPT
     MAX_ITER  500
     !STEP_START_VAL  98
   &END GEO_OPT
   &CONSTRAINT
     &COLLECTIVE
       COLVAR  1
       INTERMOLECULAR  T
       TARGET [angstrom] 0.80 !     1.8897261328856430E+00
       &RESTRAINT
         K     2.0000000000000000E+00
       &END RESTRAINT
     &END COLLECTIVE
   &END CONSTRAINT
 &END MOTION
 &FORCE_EVAL
   METHOD  QS
   STRESS_TENSOR  ANALYTICAL
   &DFT
     BASIS_SET_FILE_NAME BASIS_MOLOPT
     POTENTIAL_FILE_NAME GTH_POTENTIALS
     UKS  T
     SURFACE_DIPOLE_CORRECTION  T
     SURF_DIP_DIR  Z
     &SCF
       MAX_SCF  80
       EPS_SCF     5.0000000000000004E-06
       &OT  T
         PRECONDITIONER  FULL_ALL
       &END OT
       &OUTER_SCF  T
         OPTIMIZER  NONE
         EPS_SCF     5.0000000000000004E-06
         MAX_SCF  4
       &END OUTER_SCF
       &PRINT
         &RESTART  OFF
           BACKUP_COPIES  1
           &EACH
             JUST_ENERGY  0
             QS_SCF  0
             MD  20
           &END EACH
         &END RESTART
       &END PRINT
     &END SCF
     &QS
       EPS_DEFAULT     1.0000000000000000E-14
       METHOD  GPW
     &END QS
     &MGRID
       NGRIDS  5
       CUTOFF     1.2000000000000000E+03
     &END MGRID
     &XC
       DENSITY_CUTOFF     1.0000000000000000E-10
       GRADIENT_CUTOFF     1.0000000000000000E-10
       TAU_CUTOFF     1.0000000000000000E-10
       &XC_FUNCTIONAL  NO_SHORTCUT
         &PBE  T
         &END PBE
       &END XC_FUNCTIONAL
       &VDW_POTENTIAL
         POTENTIAL_TYPE  PAIR_POTENTIAL
         &PAIR_POTENTIAL
           R_CUTOFF     1.0000000000000009E+01
           TYPE  DFTD3
           PARAMETER_FILE_NAME dftd3.dat
           REFERENCE_FUNCTIONAL PBE
           EPS_CN     9.9999999999999995E-07
           CALCULATE_C9_TERM  T
           REFERENCE_C9_TERM  T
           LONG_RANGE_CORRECTION  F
           VERBOSE_OUTPUT  F
         &END PAIR_POTENTIAL
       &END VDW_POTENTIAL
     &END XC
   &END DFT
   &SUBSYS
     &CELL
       A     1.2864472766435110E+01    0.0000000000000000E+00    0.0000000000000000E+00
       B    -6.4322363581020028E+00    1.1140960178524477E+01    0.0000000000000000E+00
       C     0.0000000000000000E+00    0.0000000000000000E+00    3.2000000000000000E+01
       MULTIPLE_UNIT_CELL  1 1 1
       &CELL_REF
         A     1.2982353780853531E+01    0.0000000000000000E+00    0.0000000000000000E+00
         B    -6.4911768904267628E+00    1.1243048175136114E+01    0.0000000000000000E+00
         C     0.0000000000000000E+00    0.0000000000000000E+00    3.2000000000000000E+01
         MULTIPLE_UNIT_CELL  1 1 1
       &END CELL_REF
     &END CELL
     &COORD
N    9.1458499825142245E-02    2.1090395224481489E+00    2.5797640323218980E+00
Ga    1.0448240807062020E-01    1.5055297289852385E-01    3.0164310554227667E+00
N    8.8532723578893510E-02    1.3223912757985290E-01    5.1255426416316707E+00
Ga    6.4242600421514362E-02    1.9504977006708153E+00    5.8764059449650894E+00
N    7.2557531962777422E-02    1.9717935820463108E+00    7.8653889286879739E+00
Ga    6.7009046819996809E-02    1.1633401970531275E-01    8.4904814553663215E+00
N    7.0736870352923059E-02    1.2079232889564426E-01    1.0467679762189077E+01
Ga    6.8497476078889896E-02    1.9592206665442209E+00    1.1121033316564889E+01
N    7.1337834832272670E-02    1.9426721437140053E+00    1.3115423335012688E+01
Ga    7.0373615683761881E-02    1.2184532204059696E-01    1.3913815309360205E+01
N    6.9856234857271410E-02    1.2210369494482730E-01    1.6118112657911752E+01
Ga    7.1456651570871429E-02    2.1625477398766013E+00    1.6529351708431285E+01
Ga    1.1004009228364965E-01    3.8241749354577532E+00    1.4415709383495638E+00
N   -1.3957272300581356E+00    4.6906563493390001E+00    2.5351537660020163E+00
Ga   -1.6033591527493718E+00    2.8396493733534958E+00    3.3183048507899922E+00
N   -1.5343488406856050E+00    2.9063351434599869E+00    5.2976969134700118E+00
Ga   -1.5695845696449895E+00    4.7725524228278919E+00    5.8532424245415786E+00
N   -1.5447507773450291E+00    4.7694481477808219E+00    7.8490489077924348E+00
Ga   -1.5326346870901970E+00    2.9121029585340801E+00    8.4893894119929083E+00
N   -1.5266429257571477E+00    2.9141290505339414E+00    1.0483802788700640E+01
Ga   -1.5522354249625023E+00    4.7732052647974719E+00    1.1118404068325670E+01
N   -1.5672864938896844E+00    4.7832560568975975E+00    1.3113329648146310E+01
Ga   -1.5254809164589478E+00    2.9144205249449420E+00    1.3669407921968087E+01
N   -1.5528699226517009E+00    2.8992676535389901E+00    1.5632971764437990E+01
Ga   -1.3779200516018706E+00    4.6737240073790947E+00    1.6529141447882438E+01
N    6.3723801308251907E-02    3.8325198626644235E+00    1.7664841529282612E+01
N   -3.1355083001835471E+00    7.6589770899220051E+00    2.5635273315816574E+00
Ga   -3.1195178704597195E+00    5.6924752802304495E+00    2.8780361805986923E+00
N   -3.1389788870929252E+00    5.6840779377819919E+00    5.0608579514982486E+00
Ga   -3.1490088997756032E+00    7.5137256899258098E+00    5.8330389269036882E+00
N   -3.1429536697839415E+00    7.5364878910652084E+00    7.8357868827397397E+00
Ga   -3.1451893047789619E+00    5.6928284606697828E+00    8.4886867755879258E+00
N   -3.1443574357594479E+00    5.6929188256829422E+00    1.0465318206323222E+01
Ga   -3.1458510961307109E+00    7.5315828944933205E+00    1.1116707463719099E+01
N   -3.1441471631076636E+00    7.5137127270188664E+00    1.3112447171664790E+01
Ga   -3.1437249144586557E+00    5.6932514504746461E+00    1.3913815557137857E+01
N   -3.1452019422664277E+00    5.6924712384328835E+00    1.6118411591054809E+01
Ga   -3.1440305766667502E+00    7.7301717162705650E+00    1.6527423752499708E+01
Ga   -3.1802658946052063E+00    9.3951617972910633E+00    1.3125015491781109E+00
N   -4.6444956444761676E+00    1.0293684445000785E+01    2.5901822470338218E+00
Ga   -4.8346143510631272E+00    8.4444571325150637E+00    3.2906403239698552E+00
N   -4.7497280612960031E+00    8.4792067600918326E+00    5.2813425854576410E+00
Ga   -4.7771285698407562E+00    1.0339229921915299E+01    5.8653167114640370E+00
N   -4.7569960272145151E+00    1.0338218207843134E+01    7.8578043606525947E+00
Ga   -4.7469139142395864E+00    8.4765725929680382E+00    8.4748535370343472E+00
N   -4.7422752327406812E+00    8.4812654883992291E+00    1.0474283815626299E+01
Ga   -4.7711190981525515E+00    1.0339058146049835E+01    1.1118958226243022E+01
N   -4.7844570601355949E+00    1.0352063263368033E+01    1.3114343951202747E+01
Ga   -4.7412512474113413E+00    8.4839244282181969E+00    1.3669558830215047E+01
N   -4.7680832350724662E+00    8.4688742451937955E+00    1.5633777171611564E+01
Ga   -4.5965417739880872E+00    1.0245508435630722E+01    1.6527450549331288E+01
N   -3.1520806547491489E+00    9.4020858594454424E+00    1.7661826506666756E+01
N    3.2789221178563768E+00    1.9670395984413500E+00    2.6676371615431442E+00
Ga    3.2902377376994494E+00    1.1354920523469444E-01    3.3791770425361456E+00
N    3.2897089431017363E+00    1.3601113963235731E-01    5.3184491411797445E+00
Ga    3.2866661836537050E+00    1.9688195126032486E+00    5.9802636063826453E+00
N    3.2895460131263206E+00    1.9766785190105221E+00    7.9342572508013545E+00
Ga    3.2869607418836777E+00    1.0255431019212322E-01    8.5090699055256653E+00
N    3.2875662971663187E+00    1.0784474537657172E-01    1.0495920938084469E+01
Ga    3.2875550218867429E+00    1.9782988886288499E+00    1.1085599210630784E+01
N    3.2877783612172560E+00    1.9791095981056028E+00    1.3055817917753611E+01
Ga    3.2884739379762702E+00    1.0775602615166996E-01    1.3670278664538934E+01
N    3.2899212013046673E+00    1.4064576575551330E-01    1.5633299882000705E+01
Ga    3.2881078536725803E+00    1.9799326731949567E+00    1.5909293780790188E+01
N    1.5659946082563789E+00    4.6928703527883666E+00    2.6283938056118163E+00
Ga    1.6918342525149788E+00    2.8805848479361678E+00    3.3929068949666994E+00
N    1.7003168379010714E+00    2.8942931274551311E+00    5.3291537333306014E+00
Ga    1.7034446872073423E+00    4.7762431226241215E+00    5.8791730604521417E+00
N    1.6871029290925850E+00    4.7670317217575420E+00    7.8617801780814176E+00
Ga    1.6664641460785099E+00    2.9130689324171017E+00    8.5095431887634412E+00
N    1.6685470683287629E+00    2.9143181106365867E+00    1.0495756838756900E+01
Ga    1.6949125014001931E+00    4.7765900249068407E+00    1.1120324278146146E+01
N    1.7116919796201329E+00    4.7842229182063587E+00    1.3114044711371951E+01
Ga    1.6676604876751400E+00    2.9155650151461003E+00    1.3670995415779446E+01
N    1.6966577800299509E+00    2.9007264086282563E+00    1.5633174607727200E+01
Ga    1.5151281853230756E+00    4.6702892118168551E+00    1.6530693548612930E+01
N    7.4664604404851773E-02    7.5507080413465859E+00    2.7089751357688616E+00
Ga    7.2407421399393351E-02    5.7144799257851764E+00    3.3829598591414785E+00
N    7.0858986090710688E-02    5.7061204402268606E+00    5.3168569241343384E+00
Ga    9.3219302821450675E-02    7.5648094454528572E+00    5.9183196755150771E+00
N    7.7181796134090902E-02    7.5532636277864631E+00    7.8910918685663765E+00
Ga    6.8428716659787378E-02    5.6858675895976818E+00    8.4882911342519431E+00
N    7.0953952690576153E-02    5.6814251844749810E+00    1.0481182751539365E+01
Ga    7.2595825279523019E-02    7.5499136284830959E+00    1.1075479329959705E+01
N    7.1917113810286093E-02    7.5498277680237553E+00    1.3047737720396295E+01
Ga    7.2135869827233676E-02    5.6809368421427910E+00    1.3670422691585468E+01
N    7.3284436966484845E-02    5.7123404237300219E+00    1.5632514395996830E+01
Ga    7.2436722038194623E-02    7.5505804130339182E+00    1.5910617059416589E+01
N   -1.6415527860076815E+00    1.0287255750265468E+01    2.5770273478199903E+00
Ga   -1.5291145976337952E+00    8.4839868626533494E+00    3.3431164792079042E+00
N   -1.5226702583569891E+00    8.4740099330819572E+00    5.2915162872589985E+00
Ga   -1.5067307282727744E+00    1.0349874955759104E+01    5.8732590535043618E+00
N   -1.5322061213921563E+00    1.0335798686538061E+01    7.8619619486655701E+00
Ga   -1.5464642371202604E+00    8.4774653883120603E+00    8.4867216110979076E+00
N   -1.5471075560628054E+00    8.4812323734227224E+00    1.0480593268511811E+01
Ga   -1.5182987681600357E+00    1.0340402911652541E+01    1.1119606432360609E+01
N   -1.5034219039949599E+00    1.0352305133297548E+01    1.3114075024350562E+01
Ga   -1.5467044213821284E+00    8.4841614760926678E+00    1.3669821951191956E+01
N   -1.5197375761523770E+00    8.4704631466828317E+00    1.5632764181209488E+01
Ga   -1.6987196114219587E+00    1.0241088663624176E+01    1.6528117864830232E+01
N    6.4846193799339726E+00    2.1098661785566630E+00    2.5696871315740735E+00
Ga    6.5077006482592772E+00    1.0158992270769825E-01    2.9561915501105780E+00
N    6.4831868925642429E+00    1.3570744976163346E-01    5.1261828487837322E+00
Ga    6.5153144637506832E+00    1.9469326351798284E+00    5.8721724285303383E+00
N    6.5048961509734591E+00    1.9736647554456275E+00    7.8617452747936003E+00
Ga    6.5100562679294125E+00    1.1713594566494058E-01    8.4885954037558555E+00
N    6.5051699712741700E+00    1.2080475851642544E-01    1.0466431819081548E+01
Ga    6.5077174599929286E+00    1.9597247638089645E+00    1.1119890734931367E+01
N    6.5052380195113919E+00    1.9417731548746677E+00    1.3115026306710911E+01
Ga    6.5052115974043518E+00    1.2097688773757609E-01    1.3915319586199196E+01
N    6.5036412888948067E+00    1.2166691464120030E-01    1.6119427879942140E+01
Ga    6.5049180799345097E+00    2.1600317208041115E+00    1.6527499558481153E+01
Ga    6.4779349740490764E+00    3.8582651363787432E+00    1.5884853311104770E+00
N    5.0112345173957129E+00    4.6989136806600058E+00    2.6526373617493690E+00
Ga    4.8547054547913921E+00    2.8622443486931073E+00    3.3973978664370845E+00
N    4.8790437321716453E+00    2.8928948121035267E+00    5.3223912324603946E+00
Ga    4.8826493888898526E+00    4.7793194813256674E+00    5.8707896438239873E+00
N    4.8890551102957716E+00    4.7652364985777584E+00    7.8563984102904962E+00
Ga    4.9114122732505603E+00    2.9142304331722415E+00    8.5089763643093423E+00
N    4.9072553569639332E+00    2.9142291740008068E+00    1.0495541903908272E+01
Ga    4.8832173535550965E+00    4.7778895733622919E+00    1.1117539309591741E+01
N    4.8647539037208842E+00    4.7847139084012920E+00    1.3113312061793076E+01
Ga    4.9086690027355750E+00    2.9152606331589985E+00    1.3669855286920349E+01
N    4.8808532327772474E+00    2.8995042443910966E+00    1.5634414908895319E+01
Ga    5.0519426031680661E+00    4.6757870489145725E+00    1.6528211260780463E+01
N    6.4974864853910921E+00    3.8330164982601143E+00    1.7661261163840688E+01
N    3.2837681555528500E+00    7.5268604224393769E+00    2.5865716242354155E+00
N    3.2906675670058125E+00    5.6728238861069649E+00    5.1189800946154111E+00
Ga    3.2928121611260854E+00    7.5420337873557850E+00    5.8136042519613467E+00
N    3.2875090055469727E+00    7.5420123621446322E+00    7.8216651640912502E+00
Ga    3.2898374840695892E+00    5.7011322851035775E+00    8.4885811224054013E+00
N    3.2881688712242720E+00    5.6948564472482124E+00    1.0464585534797394E+01
Ga    3.2891513808375241E+00    7.5338598780045869E+00    1.1116854405164325E+01
N    3.2882329129932724E+00    7.5136714568409753E+00    1.3112045335697415E+01
Ga    3.2873436821788391E+00    5.6941809467577551E+00    1.3916126913074526E+01
N    3.2865519518943671E+00    5.6933149311111544E+00    1.6119051414034686E+01
Ga    3.2881527993160216E+00    7.7331121438196844E+00    1.6529413038769054E+01
Ga    4.1488324123638254E+00    1.0913567045292819E+01    6.8530944415825779E-01
N    1.7139362638702682E+00    1.0348792955998192E+01    2.5749636462981353E+00
Ga    1.6975702566479232E+00    8.5638904161749974E+00    3.2094388747024429E+00
N    1.6769373475774620E+00    8.4654158964516562E+00    5.2097139422309287E+00
Ga    1.6542009215476641E+00    1.0338847438760018E+01    5.8164410623447127E+00
N    1.6688628819961910E+00    1.0331585502628123E+01    7.8301705544067985E+00
Ga    1.6947499276845266E+00    8.4852781847361651E+00    8.4828842493996355E+00
N    1.6916202383278811E+00    8.4826561351085719E+00    1.0478114647452735E+01
Ga    1.6678279434280243E+00    1.0342965472076699E+01    1.1114014283983314E+01
N    1.6490746943905787E+00    1.0353033580559154E+01    1.3110652618562414E+01
Ga    1.6912277728248117E+00    8.4849793030643372E+00    1.3668717818285662E+01
N    1.6638034783309668E+00    8.4696828343221053E+00    1.5632439358572590E+01
Ga    1.8388547641994037E+00    1.0244108447441613E+01    1.6529543431895071E+01
N    3.2812072624538500E+00    9.4026007256065753E+00    1.7664416026428192E+01
N    9.7484835836470065E+00    1.9366316118205080E+00    2.6513622060520299E+00
Ga    9.6693851559515114E+00    1.4282154255635313E-01    3.3030109607984843E+00
N    9.7184808079065270E+00    1.1980690427502491E-01    5.2929103430229718E+00
Ga    9.7239744889799038E+00    1.9676377006221288E+00    5.9068244006785493E+00
N    9.7190276925518599E+00    1.9783003841995077E+00    7.8909123764599327E+00
Ga    9.7188999513192229E+00    1.0591284556965566E-01    8.4671681059482147E+00
N    9.7195429093208592E+00    1.0887035636238462E-01    1.0470297931813940E+01
Ga    9.7200010870453788E+00    1.9759113448883898E+00    1.1072656443002128E+01
N    9.7204382714801039E+00    1.9784817035907387E+00    1.3046756328732057E+01
Ga    9.7209468988634100E+00    1.0925626840033544E-01    1.3668375035269497E+01
N    9.7217677087285441E+00    1.4130396787033561E-01    1.5630983353228544E+01
Ga    9.7207641086946452E+00    1.9797006759112188E+00    1.5910277158453670E+01
N    8.0031125043509768E+00    4.7027240543298641E+00    2.5691339503163975E+00
Ga    8.2306151364548441E+00    2.8266694495030245E+00    3.3061718253520986E+00
N    8.1131551786736349E+00    2.9017373886712190E+00    5.2784766298859536E+00
Ga    8.1430132435275357E+00    4.7742045208244326E+00    5.8365277580308810E+00
N    8.1233262290970902E+00    4.7680270640602966E+00    7.8384217482907186E+00
Ga    8.1083576239367030E+00    2.9147601682344009E+00    8.4882521258163752E+00
N    8.1024806729864789E+00    2.9147848276272970E+00    1.0482542574726081E+01
Ga    8.1265020879857079E+00    4.7744164430761273E+00    1.1115488839378633E+01
N    8.1440436948475980E+00    4.7836304455386482E+00    1.3111423423105727E+01
Ga    8.1025758930028502E+00    2.9147827097557739E+00    1.3668245797776319E+01
N    8.1289774774711745E+00    2.9010259854219234E+00    1.5631801883201934E+01
Ga    7.9507392112998492E+00    4.6716114772281969E+00    1.6528293442545440E+01
N    6.4991788318767378E+00    7.5713520549724977E+00    2.6380002333109283E+00
Ga    6.5066939053814536E+00    5.8455157328522498E+00    3.3492937993402654E+00
N    6.5069685045553225E+00    5.6972209304965986E+00    5.3065686972536712E+00
Ga    6.4833664243565350E+00    7.5749817706374696E+00    5.8766999572641136E+00
N    6.4972354279267730E+00    7.5547982298637057E+00    7.8694714084046371E+00
Ga    6.5090641678601004E+00    5.6901300975491873E+00    8.4725663992385165E+00
N    6.5054265896725427E+00    5.6824952662746382E+00    1.0472020396921168E+01
Ga    6.5030265388328106E+00    7.5500792278562976E+00    1.1070749502337749E+01
N    6.5041657083691096E+00    7.5500830511443651E+00    1.3045031471827746E+01
Ga    6.5052862404853284E+00    5.6815232577824535E+00    1.3669025362970098E+01
N    6.5062056165294395E+00    5.7120519796412292E+00    1.5632393955019454E+01
Ga    6.5039692556184105E+00    7.5511657891673147E+00    1.5911862065431185E+01
N    4.8647497559719675E+00    1.0382664894348538E+01    2.5386277513457678E+00
Ga    4.9524611211546299E+00    8.5144148227471135E+00    3.1569614988921608E+00
N    4.8827638826354773E+00    8.4870965306089818E+00    5.1970029728893445E+00
Ga    4.9130833539677390E+00    1.0338734226297857E+01    5.8214248798741357E+00
N    4.9059560429879419E+00    1.0335327078357103E+01    7.8325824052438628E+00
Ga    4.8851391259918389E+00    8.4842708607284543E+00    8.4745820910230094E+00
N    4.8843115844647871E+00    8.4827939958961380E+00    1.0473156356265813E+01
Ga    4.9079754002347373E+00    1.0342200215846045E+01    1.1112070141944802E+01
N    4.9269631833319991E+00    1.0353078140012844E+01    1.3108985372310594E+01
Ga    4.8855351171511652E+00    8.4856008192080079E+00    1.3667539957647923E+01
N    4.9128417024720683E+00    8.4711762691616759E+00    1.5630338915806089E+01
Ga    4.7318047672638643E+00    1.0240865994279439E+01    1.6530302834569163E+01
O    7.5886786315485555E-01    3.7105884995166605E+00   -2.7652067613264725E-01
H    2.5623565238024839E+00    3.3841438100475227E+00    1.8663907235173621E-01
C    1.5943775402735824E-01    2.7693277612117684E+00   -1.1840719870496241E+00
H    1.4868389484196188E-02    1.7765722323770172E+00   -7.2346347142652712E-01
H   -8.1485282050379748E-01    3.1278662840258908E+00   -1.5501833842613337E+00
H    8.3617799811428184E-01    2.6555068459335396E+00   -2.0432636411559129E+00
Ga    3.2702815019507048E+00    5.6042461830439825E+00    3.0477266467456632E+00
O    3.4528902884201891E+00    3.0656925930700027E+00    4.8094631266897375E-01
H    9.8945057276933895E-03    7.5078812079669595E+00    1.6849519897432186E+00
C    3.2901013463403244E+00    1.8415780165238771E+00    1.1724430694306567E+00
H    4.1427083610615929E+00    1.2029609140368474E+00    8.9665393860755660E-01
H    3.2802577042420853E+00    7.5910585349117206E+00    1.5858214182771151E+00
H    2.3590916200315868E+00    1.3409461619903760E+00    8.6287869383103533E-01
     &END COORD
     &KIND C
       BASIS_SET DZVP-MOLOPT-SR-GTH-q4
       POTENTIAL GTH-PBE-q4
       &POTENTIAL
2 2
0.3384712400000000E+00 2 -0.8803673979999999E+01  0.1339210850000000E+01
2
0.3025757500000000E+00 1  0.9622486650000001E+01
0.2915069400000000E+00 0
       &END POTENTIAL
     &END KIND
     &KIND O
       BASIS_SET DZVP-MOLOPT-SR-GTH-q6
       POTENTIAL GTH-PBE-q6
       &POTENTIAL
2 4
0.2445543000000000E+00 2 -0.1666721480000000E+02  0.2487311320000000E+01
2
0.2209559200000000E+00 1  0.1833745811000000E+02
0.2113324700000000E+00 0
       &END POTENTIAL
     &END KIND
     &KIND H
       BASIS_SET DZVP-MOLOPT-SR-GTH-q1
       POTENTIAL GTH-PBE-q1
       &POTENTIAL
1
0.2000000000000000E+00 2 -0.4178900440000000E+01  0.7244633100000000E+00
0
       &END POTENTIAL
     &END KIND
     &KIND N
       BASIS_SET DZVP-MOLOPT-SR-GTH
       POTENTIAL GTH-PBE-q5
       &POTENTIAL
2 3
0.2837905100000000E+00 2 -0.1241522559000000E+02  0.1868095920000000E+01
2
0.2554050000000000E+00 1  0.1363026257000000E+02
0.2454945300000000E+00 0
       &END POTENTIAL
     &END KIND
     &KIND Ga
       BASIS_SET DZVP-MOLOPT-SR-GTH
       POTENTIAL GTH-PBE-q13
       &POTENTIAL
2 1 10
0.4900000000000000E+00 0
3
0.4167772300000000E+00 3  0.1047568975000000E+02 -0.4921768140000000E+01  0.8707055900000000E+00
0.7770178090000000E+01 -0.2248152160000000E+01
0.1784415450000000E+01
0.5696265200000000E+00 2  0.1777985340000000E+01  0.1958597600000000E+00
-0.2317443900000000E+00
0.2381265000000000E+00 1 -0.1624868022000000E+02
       &END POTENTIAL
     &END KIND
     &TOPOLOGY
       NUMBER_OF_ATOMS  212
       MULTIPLE_UNIT_CELL  1 1 1
     &END TOPOLOGY
     &COLVAR
       &DISTANCE
         ATOMS  127 211
       &END DISTANCE
       &PRINT
       &END PRINT
     &END COLVAR
   &END SUBSYS
 &END FORCE_EVAL
