 # Version information for this restart file 
 # current date 2019-07-09 18:50:02.793
 # current working dir /lustre04/scratch/rzk/rzk/GaN-carbene/443-adatoms-both-2x2/09-BondBreaking-CH/02-0401-CH-to-NTop-PES
 # Program compiled at                              Sun Apr  7 00:48:11 EDT 2019
 # Program compiled on                          beluga2.int.ets1.calculquebec.ca
 # Program compiled for                        Beluga-Linux-x86-64-intel-openmpi
 # Source code revision number                                         svn:18619
 &GLOBAL
   PRINT_LEVEL  MEDIUM
   PROJECT_NAME TEST
   RUN_TYPE  GEO_OPT
 &END GLOBAL
 &MOTION
   &GEO_OPT
     MAX_ITER  500
     !STEP_START_VAL  21
   &END GEO_OPT
   &CONSTRAINT
     &COLLECTIVE
       COLVAR  1
       INTERMOLECULAR  T
       TARGET [angstrom] 2.60 !     5.2912331720798003E+00
       &RESTRAINT
         K     2.0000000000000000E+00
       &END RESTRAINT
     &END COLLECTIVE
   &END CONSTRAINT
 &END MOTION
 &FORCE_EVAL
   METHOD  QS
   STRESS_TENSOR  ANALYTICAL
   &DFT
     BASIS_SET_FILE_NAME BASIS_MOLOPT
     POTENTIAL_FILE_NAME GTH_POTENTIALS
     UKS  T
     SURFACE_DIPOLE_CORRECTION  T
     SURF_DIP_DIR  Z
     &SCF
       MAX_SCF  80
       EPS_SCF     5.0000000000000004E-06
       &OT  T
         PRECONDITIONER  FULL_ALL
       &END OT
       &OUTER_SCF  T
         OPTIMIZER  NONE
         EPS_SCF     5.0000000000000004E-06
         MAX_SCF  4
       &END OUTER_SCF
       &PRINT
         &RESTART  OFF
           BACKUP_COPIES  1
           &EACH
             JUST_ENERGY  0
             QS_SCF  0
             MD  20
           &END EACH
         &END RESTART
       &END PRINT
     &END SCF
     &QS
       EPS_DEFAULT     1.0000000000000000E-14
       METHOD  GPW
     &END QS
     &MGRID
       NGRIDS  5
       CUTOFF     1.2000000000000000E+03
     &END MGRID
     &XC
       DENSITY_CUTOFF     1.0000000000000000E-10
       GRADIENT_CUTOFF     1.0000000000000000E-10
       TAU_CUTOFF     1.0000000000000000E-10
       &XC_FUNCTIONAL  NO_SHORTCUT
         &PBE  T
         &END PBE
       &END XC_FUNCTIONAL
       &VDW_POTENTIAL
         POTENTIAL_TYPE  PAIR_POTENTIAL
         &PAIR_POTENTIAL
           R_CUTOFF     1.0000000000000009E+01
           TYPE  DFTD3
           PARAMETER_FILE_NAME dftd3.dat
           REFERENCE_FUNCTIONAL PBE
           EPS_CN     9.9999999999999995E-07
           CALCULATE_C9_TERM  T
           REFERENCE_C9_TERM  T
           LONG_RANGE_CORRECTION  F
           VERBOSE_OUTPUT  F
         &END PAIR_POTENTIAL
       &END VDW_POTENTIAL
     &END XC
   &END DFT
   &SUBSYS
     &CELL
       A     1.2864472766435110E+01    0.0000000000000000E+00    0.0000000000000000E+00
       B    -6.4322363581020028E+00    1.1140960178524477E+01    0.0000000000000000E+00
       C     0.0000000000000000E+00    0.0000000000000000E+00    3.2000000000000000E+01
       MULTIPLE_UNIT_CELL  1 1 1
       &CELL_REF
         A     1.2982353780853531E+01    0.0000000000000000E+00    0.0000000000000000E+00
         B    -6.4911768904267628E+00    1.1243048175136114E+01    0.0000000000000000E+00
         C     0.0000000000000000E+00    0.0000000000000000E+00    3.2000000000000000E+01
         MULTIPLE_UNIT_CELL  1 1 1
       &END CELL_REF
     &END CELL
     &COORD
N    7.2380185626738744E-02    1.9817312011119486E+00    2.4832095088082449E+00
Ga    7.6212134798943551E-02    1.6788988784880925E-02    2.8280481970852276E+00
N    7.5390232036037036E-02   -2.3536387167509616E-02    5.0032670380322415E+00
Ga    7.6599994892577045E-02    1.8046937087076258E+00    5.7957988774913618E+00
N    7.5910960352556039E-02    1.8177930350377094E+00    7.7919852590085004E+00
Ga    7.6062652401919770E-02   -2.6126095488651802E-02    8.4434593548535695E+00
N    7.6333089953744271E-02   -2.7591637133192553E-02    1.0412688347966252E+01
Ga    7.6699760584582055E-02    1.8115077293909612E+00    1.1071753363246085E+01
N    7.6761553423539394E-02    1.7920419293647591E+00    1.3060961769918039E+01
Ga    7.7005115096432791E-02   -2.9148511344229220E-02    1.3875774085883339E+01
N    7.6623491394649787E-02   -2.7868326735746986E-02    1.6063532789703288E+01
Ga    7.6530007688994622E-02    2.0142618578380782E+00    1.6474650515444431E+01
Ga    4.3732191683935329E-02    3.6882829412731564E+00    1.3609126751535585E+00
N   -1.4127192509651398E+00    4.5503725544417071E+00    2.5149377279294303E+00
Ga   -1.6068268917385908E+00    2.7117054344647973E+00    3.2757572667933652E+00
N   -1.5350081952872625E+00    2.7566838088571091E+00    5.2499460335487242E+00
Ga   -1.5641218613168888E+00    4.6219482980277711E+00    5.8084984697459818E+00
N   -1.5425517587467110E+00    4.6209828441964191E+00    7.7978778617925943E+00
Ga   -1.5222155973533706E+00    2.7609760277220596E+00    8.4385579422340253E+00
N   -1.5204533111117844E+00    2.7643820252766238E+00    1.0427070772299489E+01
Ga   -1.5479482353117890E+00    4.6227789002653346E+00    1.1074457805686984E+01
N   -1.5643332596365682E+00    4.6339827001795086E+00    1.3062700572764708E+01
Ga   -1.5215514094794957E+00    2.7635458791659273E+00    1.3620071703832911E+01
N   -1.5518291936929067E+00    2.7468015722173122E+00    1.5578229124156612E+01
Ga   -1.3720375978295616E+00    4.5231781476007544E+00    1.6475014731401156E+01
N    7.6347154455811125E-02    3.6864799006436915E+00    1.7592043831459033E+01
N   -3.1387084086200865E+00    7.5217151398146811E+00    2.5156439360596123E+00
Ga   -3.1171370606748745E+00    5.5209606792254631E+00    2.8478951627803624E+00
N   -3.1398462178657325E+00    5.5435247409541946E+00    5.0149123869652446E+00
Ga   -3.1490098354141161E+00    7.3636966793669050E+00    5.8057152488409374E+00
N   -3.1399822069806609E+00    7.3894668439473019E+00    7.7922554883212776E+00
Ga   -3.1409284501478671E+00    5.5424406653601226E+00    8.4493448425317634E+00
N   -3.1399599588093250E+00    5.5438780353198336E+00    1.0416122725227245E+01
Ga   -3.1414194061262135E+00    7.3825968904413317E+00    1.1073670911140972E+01
N   -3.1398072032648829E+00    7.3635425379231689E+00    1.3059512168407718E+01
Ga   -3.1419163914441128E+00    5.5447560325118550E+00    1.3877141638029226E+01
N   -3.1407986752554784E+00    5.5444652886052328E+00    1.6064169666630711E+01
Ga   -3.1405132870998149E+00    7.5953492576743109E+00    1.6487936847919549E+01
Ga   -3.1561076185329586E+00    9.2606400180482513E+00    1.4601012040075563E+00
N   -4.6450325829180237E+00    1.0125927336609182E+01    2.5076220085902121E+00
Ga   -4.8542288063821522E+00    8.2754420462738221E+00    3.2780883632986817E+00
N   -4.7484434266850659E+00    8.3289339231508190E+00    5.2398854296594308E+00
Ga   -4.7772728735873544E+00    1.0202998665237361E+01    5.7931081183690898E+00
N   -4.7584491205803268E+00    1.0190927363072555E+01    7.7863706045573720E+00
Ga   -4.7405090574010114E+00    8.3359616077543084E+00    8.4366521342652767E+00
N   -4.7369315764591784E+00    8.3352731100764395E+00    1.0423907149882764E+01
Ga   -4.7630531984645925E+00    1.0194549666636947E+01    1.1070713702897734E+01
N   -4.7793666267290522E+00    1.0204257500733393E+01    1.3057626799194281E+01
Ga   -4.7363623735698450E+00    8.3358371418701207E+00    1.3621489331037157E+01
N   -4.7631045345025012E+00    8.3203231200934837E+00    1.5576429981781748E+01
Ga   -4.5798655169040039E+00    1.0088289543014231E+01    1.6487436881179818E+01
N   -3.1356216676638624E+00    9.2605327757154399E+00    1.7635030897759847E+01
N    3.2805465273946166E+00    1.8355862230640094E+00    2.6066042434857866E+00
Ga    3.2831541341526829E+00    9.3109778043307334E-02    3.2764345213960824E+00
N    3.2929248934935256E+00   -2.9598219898447707E-02    5.2391847984271740E+00
Ga    3.2835813344410711E+00    1.8314002253829496E+00    5.8691169572331852E+00
N    3.2917664131173878E+00    1.8284812926693479E+00    7.8411494082168796E+00
Ga    3.2898218533124055E+00   -3.7110621279332151E-02    8.4367611172168129E+00
N    3.2924948675273158E+00   -4.0430347215417058E-02    1.0423771905737855E+01
Ga    3.2930805171599320E+00    1.8296842840530894E+00    1.1025282590072997E+01
N    3.2930916618175847E+00    1.8296856479889854E+00    1.2990454089407153E+01
Ga    3.2923235019884585E+00   -3.9277640013708592E-02    1.3621811936132314E+01
N    3.2908944252773837E+00   -9.1596929442677305E-03    1.5577599930296785E+01
Ga    3.2965657749655852E+00    1.8283568282586715E+00    1.5860192529398619E+01
N    1.5642540229829691E+00    4.5570800360396655E+00    2.5140506948925405E+00
Ga    1.7533891943475544E+00    2.7205443147642754E+00    3.2616090068176162E+00
N    1.6842196638683449E+00    2.7577646115580015E+00    5.2421166074014378E+00
Ga    1.7137063752412398E+00    4.6208785309070404E+00    5.8066287297536920E+00
N    1.6939378385756594E+00    4.6209566431995635E+00    7.7965397943539312E+00
Ga    1.6739377561862032E+00    2.7613808804172622E+00    8.4380435193306447E+00
N    1.6734896172082603E+00    2.7644267566011096E+00    1.0426637830835210E+01
Ga    1.7008679651651555E+00    4.6226831945945630E+00    1.1074245997997958E+01
N    1.7178616109149405E+00    4.6340430353512900E+00    1.3062521658957824E+01
Ga    1.6748050592635353E+00    2.7638163665705857E+00    1.3620328666375270E+01
N    1.7051856591643653E+00    2.7467462539404144E+00    1.5578466187814795E+01
Ga    1.5248227526052507E+00    4.5230341928793560E+00    1.6475018000491616E+01
N    6.4433329556891142E-02    7.3810733388880152E+00    2.6934537806291003E+00
Ga    7.8029630303420042E-02    5.5380184445478484E+00    3.3364121822384218E+00
N    7.4565908337274778E-02    5.5558185674051330E+00    5.2694317575989666E+00
Ga    7.5380908268901550E-02    7.3949350336380713E+00    5.9089727384316717E+00
N    7.5770870296768961E-02    7.4012641818117961E+00    7.8612671056263457E+00
Ga    7.5977770708727271E-02    5.5270175152217833E+00    8.4476301346449993E+00
N    7.6398962917439472E-02    5.5300627555801336E+00    1.0431770804032741E+01
Ga    7.6253443110365624E-02    7.4004271638300123E+00    1.1029753653871227E+01
N    7.6504885217702948E-02    7.4007709419844145E+00    1.2993372139418817E+01
Ga    7.6809488570751872E-02    5.5315885663479980E+00    1.3621439506332173E+01
N    7.6616860490600680E-02    5.5677003254447044E+00    1.5579317973743073E+01
Ga    7.6518949811871212E-02    7.4051256564236096E+00    1.5860824116630903E+01
N   -1.6355317622285916E+00    1.0114558868706290E+01    2.5139265892178266E+00
Ga   -1.5079462194517272E+00    8.3044966796690893E+00    3.3292212184848986E+00
N   -1.5225005827874312E+00    8.3215209831762351E+00    5.2554135159245225E+00
Ga   -1.5094583362907799E+00    1.0206664968586757E+01    5.8063546094931207E+00
N   -1.5226398211707790E+00    1.0189404696219452E+01    7.7919640734647171E+00
Ga   -1.5456814375321322E+00    8.3359301033046318E+00    8.4480543413451858E+00
N   -1.5438628171803228E+00    8.3355010820036046E+00    1.0429921248149068E+01
Ga   -1.5172746002816986E+00    1.0195502074223493E+01    1.1073554459318897E+01
N   -1.4992940879158634E+00    1.0204579557215112E+01    1.3059927161025920E+01
Ga   -1.5430779163479982E+00    8.3354133067555161E+00    1.3622702521876548E+01
N   -1.5174927894832348E+00    8.3191208595543191E+00    1.5578302522634086E+01
Ga   -1.6966529944967768E+00    1.0090948779278406E+01    1.6488031895707525E+01
N    6.5060881102321613E+00    1.9534043809935309E+00    2.5283110480393618E+00
Ga    6.5064852145101177E+00   -1.9484721816852631E-02    2.8653081759810881E+00
N    6.5068253485085741E+00   -2.9183557658090328E-02    5.0139884075678181E+00
Ga    6.5064668904417307E+00    1.8041767709016927E+00    5.8013627483871533E+00
N    6.5076158920216729E+00    1.8167799946329344E+00    7.7917733967591616E+00
Ga    6.5081253718262841E+00   -2.6943237996529690E-02    8.4475799464239305E+00
N    6.5087010590345598E+00   -2.7871391670192747E-02    1.0414270762790499E+01
Ga    6.5086092827869839E+00    1.8127966911297995E+00    1.1070950520304411E+01
N    6.5088676264269258E+00    1.7926991614687149E+00    1.3058382766557845E+01
Ga    6.5088291285028879E+00   -2.6250711426461966E-02    1.3877281398588966E+01
N    6.5087600917676971E+00   -2.6415359954045335E-02    1.6063241357154581E+01
Ga    6.5086891531769959E+00    2.0207307825733998E+00    1.6487104347273053E+01
Ga    6.5088947932596746E+00    3.6853556962588998E+00    1.5098617351420245E+00
N    5.0043842462817496E+00    4.5536416189537876E+00    2.5233905171081452E+00
Ga    4.7888364026979726E+00    2.7006538535607936E+00    3.2898158457977091E+00
N    4.8970437670180100E+00    2.7569822135826851E+00    5.2487039932225921E+00
Ga    4.8752841724212361E+00    4.6287854037723850E+00    5.8011295166110424E+00
N    4.8900725855063722E+00    4.6209549914894561E+00    7.7920843813630860E+00
Ga    4.9082911897462100E+00    2.7625164764844508E+00    8.4366510838718369E+00
N    4.9119365927668248E+00    2.7646575051778663E+00    1.0424011025658459E+01
Ga    4.8861289071563192E+00    4.6235240601070764E+00    1.1070758614338699E+01
N    4.8689171326791216E+00    4.6336683642857466E+00    1.3057727162250616E+01
Ga    4.9118245464342216E+00    2.7649042830721071E+00    1.3620747481580262E+01
N    4.8850699036822647E+00    2.7516585174621295E+00    1.5576764770259526E+01
Ga    5.0693773551804258E+00    4.5189284788305502E+00    1.6486771575411673E+01
N    6.5085641771861624E+00    3.6818620562132840E+00    1.7634515718721779E+01
N    3.2810491892379412E+00    7.5233412328040421E+00    2.4939624936387879E+00
N    3.2914949517078829E+00    5.5449475782926907E+00    5.0180098763843342E+00
Ga    3.2947187819359902E+00    7.3657973506678758E+00    5.8044112491808004E+00
N    3.2895074049704944E+00    7.3903348221935676E+00    7.7911278629835632E+00
Ga    3.2923155104514397E+00    5.5426867137553133E+00    8.4481369271332678E+00
N    3.2925372376261945E+00    5.5439892057468390E+00    1.0415263619824682E+01
Ga    3.2945110437134018E+00    7.3822757496651441E+00    1.1074085530171461E+01
N    3.2932083062952264E+00    7.3632890316516573E+00    1.3059755158010150E+01
Ga    3.2955175330287410E+00    5.5444335373737967E+00    1.3877313018960606E+01
N    3.2938661585644762E+00    5.5443637093244265E+00    1.6063963603270881E+01
Ga    3.2936487163439754E+00    7.5948732868710529E+00    1.6487366361428460E+01
Ga    3.3199174805715956E+00    9.2844063640022085E+00    1.4623506521352982E+00
N    1.7848814597994780E+00    1.0117783458200813E+01    2.5105782280458251E+00
Ga    1.6499835023545835E+00    8.3023671754668698E+00    3.3085233149300723E+00
N    1.6688736387105796E+00    8.3191273190429431E+00    5.2407592700611145E+00
Ga    1.6570565114714653E+00    1.0201981855929043E+01    5.8043850576797880E+00
N    1.6732316000231424E+00    1.0187362179437201E+01    7.7906945231655831E+00
Ga    1.6962212143217044E+00    8.3353807779624578E+00    8.4500219394562848E+00
N    1.6966108264946758E+00    8.3355162438954462E+00    1.0431079868919866E+01
Ga    1.6699656799492950E+00    1.0195722354427218E+01    1.1074306916252926E+01
N    1.6526921656192046E+00    1.0204606094684006E+01    1.3060457370081403E+01
Ga    1.6962549760822692E+00    8.3351319894574427E+00    1.3622473512738589E+01
N    1.6706903105267392E+00    8.3189890085727178E+00    1.5578164752319639E+01
Ga    1.8493685737383352E+00    1.0091035161711066E+01    1.6487565012970865E+01
N    3.2885361717928188E+00    9.2603167128923012E+00    1.7635333428192915E+01
N    9.7310198090751534E+00    1.8336581901801308E+00    2.6158496746064301E+00
Ga    9.7272558931651805E+00    9.3359741382630784E-02    3.2869627666792627E+00
N    9.7203526862570726E+00   -3.1248217938842582E-02    5.2461845776709248E+00
Ga    9.7285660374950442E+00    1.8303498190530916E+00    5.8742125110605308E+00
N    9.7232117428912144E+00    1.8279672804498828E+00    7.8445701630915732E+00
Ga    9.7257532374913183E+00   -3.8621126153225133E-02    8.4365881251494734E+00
N    9.7244664140240857E+00   -4.0990597214896056E-02    1.0423711643456997E+01
Ga    9.7244209527000844E+00    1.8294337015706674E+00    1.1025020766908806E+01
N    9.7245260178512254E+00    1.8295436906995493E+00    1.2990328878531439E+01
Ga    9.7258695197595628E+00   -3.9281008129225733E-02    1.3621867206181429E+01
N    9.7269871248716591E+00   -9.1174878190464874E-03    1.5577772699343081E+01
Ga    9.7213270341072526E+00    1.8285456203065937E+00    1.5860482173742128E+01
N    8.0089697111294100E+00    4.5532651624460909E+00    2.5261063102283767E+00
Ga    8.2224625149601067E+00    2.7003729816144642E+00    3.2931151672522456E+00
N    8.1163549802463670E+00    2.7567002045135620E+00    5.2516268356678131E+00
Ga    8.1405438699149890E+00    4.6292681746479678E+00    5.8003326608477863E+00
N    8.1260672015369888E+00    4.6211633387257569E+00    7.7919274411159245E+00
Ga    8.1066200789498648E+00    2.7630963650429523E+00    8.4374309470434081E+00
N    8.1050987061368502E+00    2.7646893296475046E+00    1.0424552625984919E+01
Ga    8.1310273430933169E+00    4.6234120850125020E+00    1.1071254284474490E+01
N    8.1489493728872127E+00    4.6336936479604667E+00    1.3058097143391866E+01
Ga    8.1059194098856793E+00    2.7649704006731253E+00    1.3620914112147945E+01
N    8.1326497219363834E+00    2.7516427687071014E+00    1.5576997569553248E+01
Ga    7.9481154973567314E+00    4.5189866815781228E+00    1.6487006311789507E+01
N    6.5038105109458844E+00    7.3997109730939359E+00    2.5998411099421159E+00
Ga    6.5063961549393863E+00    5.6604403619987878E+00    3.2890924360359475E+00
N    6.5074818416660802E+00    5.5457038522861160E+00    5.2476789718208519E+00
Ga    6.5060985151933304E+00    7.4021953721765144E+00    5.8713430129772712E+00
N    6.5073382801000950E+00    7.4009759024796091E+00    7.8400778368279580E+00
Ga    6.5082172896402160E+00    5.5326128762161284E+00    8.4371773336858276E+00
N    6.5086270360935670E+00    5.5315296534245508E+00    1.0424568212462955E+01
Ga    6.5087693498274355E+00    7.4006609268028987E+00    1.1026001678753412E+01
N    6.5087914653508570E+00    7.4006233229282152E+00    1.2992271319979809E+01
Ga    6.5089659322148767E+00    5.5302165579865203E+00    1.3620822217090199E+01
N    6.5088236462701365E+00    5.5620329576364362E+00    1.5576017008938130E+01
Ga    6.5090700552383902E+00    7.4008415051311474E+00    1.5853668932648633E+01
N    4.7972336454574878E+00    1.0129215635362632E+01    2.5184524723961093E+00
Ga    4.9943533789037708E+00    8.2699794386653362E+00    3.2780304930009883E+00
N    4.8954398803767791E+00    8.3281908672825846E+00    5.2398037701084146E+00
Ga    4.9286259302607327E+00    1.0202092944213057E+01    5.7935423456775128E+00
N    4.9104533781946298E+00    1.0190706755792482E+01    7.7866971694641123E+00
Ga    4.8910336710617974E+00    8.3358669644406547E+00    8.4366694391229764E+00
N    4.8895115913360900E+00    8.3349272077734931E+00    1.0423845919765332E+01
Ga    4.9159149364847243E+00    1.0194259011515262E+01    1.1070677161169415E+01
N    4.9330001031694728E+00    1.0204329146671585E+01    1.3057637899021474E+01
Ga    4.8896379818607061E+00    8.3360379891456500E+00    1.3621549106888423E+01
N    4.9165355543892133E+00    8.3202883038151523E+00    1.5576549802114354E+01
Ga    4.7334305026000143E+00    1.0088405580905413E+01    1.6487265411188179E+01
O    7.9955072190083437E-02    4.0905524572502943E+00   -4.3751922877325805E-01
H   -7.4898003961888532E-02    5.8698459495731123E+00   -3.3986133980907152E-01
C    1.2511188237264206E+00    3.6614905683879657E+00   -1.1594074738065605E+00
H    2.1833039708516462E+00    3.9995581497585957E+00   -6.7763998119634861E-01
H    1.2854288741190920E+00    2.5653287649534233E+00   -1.2512489455082727E+00
H    1.1989693316184689E+00    4.0932284735483497E+00   -2.1689164915033032E+00
Ga    3.2646046637849135E+00    5.5200389414702755E+00    2.8599923745529927E+00
O   -6.7232704804740001E-02    6.8578411799050416E+00   -2.0978015941808564E-01
H    1.6732915061132302E-02    7.3111275382829675E+00    1.6567089040064795E+00
C    1.2054788713740185E+00    7.3355707282707225E+00   -6.6273016442619048E-01
H    1.1417035683220829E+00    8.4317678291560441E+00   -7.1902188628857311E-01
H    2.0183256995615899E+00    7.0637510135873240E+00    3.7186660900655935E-02
H    1.4580421776625856E+00    6.9557116410675279E+00   -1.6632873931293068E+00
     &END COORD
     &KIND C
       BASIS_SET DZVP-MOLOPT-SR-GTH-q4
       POTENTIAL GTH-PBE-q4
       &POTENTIAL
2 2
0.3384712400000000E+00 2 -0.8803673979999999E+01  0.1339210850000000E+01
2
0.3025757500000000E+00 1  0.9622486650000001E+01
0.2915069400000000E+00 0
       &END POTENTIAL
     &END KIND
     &KIND O
       BASIS_SET DZVP-MOLOPT-SR-GTH-q6
       POTENTIAL GTH-PBE-q6
       &POTENTIAL
2 4
0.2445543000000000E+00 2 -0.1666721480000000E+02  0.2487311320000000E+01
2
0.2209559200000000E+00 1  0.1833745811000000E+02
0.2113324700000000E+00 0
       &END POTENTIAL
     &END KIND
     &KIND H
       BASIS_SET DZVP-MOLOPT-SR-GTH-q1
       POTENTIAL GTH-PBE-q1
       &POTENTIAL
1
0.2000000000000000E+00 2 -0.4178900440000000E+01  0.7244633100000000E+00
0
       &END POTENTIAL
     &END KIND
     &KIND N
       BASIS_SET DZVP-MOLOPT-SR-GTH
       POTENTIAL GTH-PBE-q5
       &POTENTIAL
2 3
0.2837905100000000E+00 2 -0.1241522559000000E+02  0.1868095920000000E+01
2
0.2554050000000000E+00 1  0.1363026257000000E+02
0.2454945300000000E+00 0
       &END POTENTIAL
     &END KIND
     &KIND Ga
       BASIS_SET DZVP-MOLOPT-SR-GTH
       POTENTIAL GTH-PBE-q13
       &POTENTIAL
2 1 10
0.4900000000000000E+00 0
3
0.4167772300000000E+00 3  0.1047568975000000E+02 -0.4921768140000000E+01  0.8707055900000000E+00
0.7770178090000000E+01 -0.2248152160000000E+01
0.1784415450000000E+01
0.5696265200000000E+00 2  0.1777985340000000E+01  0.1958597600000000E+00
-0.2317443900000000E+00
0.2381265000000000E+00 1 -0.1624868022000000E+02
       &END POTENTIAL
     &END KIND
     &TOPOLOGY
       NUMBER_OF_ATOMS  212
       MULTIPLE_UNIT_CELL  1 1 1
     &END TOPOLOGY
     &COLVAR
       &DISTANCE
         ATOMS  127 211
       &END DISTANCE
       &PRINT
       &END PRINT
     &END COLVAR
   &END SUBSYS
 &END FORCE_EVAL
