 # Version information for this restart file 
 # current date 2019-07-13 21:31:03.648
 # current working dir /lustre04/scratch/rzk/rzk/GaN-carbene/443-adatoms-both-2x2/09-BondBreaking-CH/02-0401-CH-to-NTop-PES
 # Program compiled at                              Sun Apr  7 00:48:11 EDT 2019
 # Program compiled on                          beluga2.int.ets1.calculquebec.ca
 # Program compiled for                        Beluga-Linux-x86-64-intel-openmpi
 # Source code revision number                                         svn:18619
 &GLOBAL
   PRINT_LEVEL  MEDIUM
   PROJECT_NAME TEST
   RUN_TYPE  GEO_OPT
 &END GLOBAL
 &MOTION
   &GEO_OPT
     MAX_ITER  500
     STEP_START_VAL  56
   &END GEO_OPT
   &CONSTRAINT
     &COLLECTIVE
       COLVAR  1
       INTERMOLECULAR  T
       TARGET     1.5117809063085144E+00
       &RESTRAINT
         K     2.0000000000000000E+00
       &END RESTRAINT
     &END COLLECTIVE
     &COLVAR_RESTART
           1.5117809063085144E+00
     &END COLVAR_RESTART
   &END CONSTRAINT
 &END MOTION
 &FORCE_EVAL
   METHOD  QS
   STRESS_TENSOR  ANALYTICAL
   &DFT
     BASIS_SET_FILE_NAME BASIS_MOLOPT
     POTENTIAL_FILE_NAME GTH_POTENTIALS
     UKS  T
     SURFACE_DIPOLE_CORRECTION  T
     SURF_DIP_DIR  Z
     &SCF
       MAX_SCF  80
       EPS_SCF     5.0000000000000004E-06
       &OT  T
         PRECONDITIONER  FULL_ALL
       &END OT
       &OUTER_SCF  T
         OPTIMIZER  NONE
         EPS_SCF     5.0000000000000004E-06
         MAX_SCF  4
       &END OUTER_SCF
       &PRINT
         &RESTART  OFF
           BACKUP_COPIES  1
           &EACH
             JUST_ENERGY  0
             QS_SCF  0
             MD  20
           &END EACH
         &END RESTART
       &END PRINT
     &END SCF
     &QS
       EPS_DEFAULT     1.0000000000000000E-14
       METHOD  GPW
     &END QS
     &MGRID
       NGRIDS  5
       CUTOFF     1.2000000000000000E+03
     &END MGRID
     &XC
       DENSITY_CUTOFF     1.0000000000000000E-10
       GRADIENT_CUTOFF     1.0000000000000000E-10
       TAU_CUTOFF     1.0000000000000000E-10
       &XC_FUNCTIONAL  NO_SHORTCUT
         &PBE  T
         &END PBE
       &END XC_FUNCTIONAL
       &VDW_POTENTIAL
         POTENTIAL_TYPE  PAIR_POTENTIAL
         &PAIR_POTENTIAL
           R_CUTOFF     1.0000000000000009E+01
           TYPE  DFTD3
           PARAMETER_FILE_NAME dftd3.dat
           REFERENCE_FUNCTIONAL PBE
           EPS_CN     9.9999999999999995E-07
           CALCULATE_C9_TERM  T
           REFERENCE_C9_TERM  T
           LONG_RANGE_CORRECTION  F
           VERBOSE_OUTPUT  F
         &END PAIR_POTENTIAL
       &END VDW_POTENTIAL
     &END XC
   &END DFT
   &SUBSYS
     &CELL
       A     1.2864472766435110E+01    0.0000000000000000E+00    0.0000000000000000E+00
       B    -6.4322363581020028E+00    1.1140960178524477E+01    0.0000000000000000E+00
       C     0.0000000000000000E+00    0.0000000000000000E+00    3.2000000000000000E+01
       MULTIPLE_UNIT_CELL  1 1 1
       &CELL_REF
         A     1.2982353780853531E+01    0.0000000000000000E+00    0.0000000000000000E+00
         B    -6.4911768904267628E+00    1.1243048175136114E+01    0.0000000000000000E+00
         C     0.0000000000000000E+00    0.0000000000000000E+00    3.2000000000000000E+01
         MULTIPLE_UNIT_CELL  1 1 1
       &END CELL_REF
     &END CELL
     &COORD
N    9.0656979517597935E-02    2.1101326481805014E+00    2.5763710695119513E+00
Ga    1.0388632038797777E-01    1.5127179128088741E-01    3.0134530846034688E+00
N    8.8062960885569946E-02    1.3241225183485367E-01    5.1227356947422935E+00
Ga    6.4246420162513834E-02    1.9508811593850117E+00    5.8736287055253422E+00
N    7.3195899626478503E-02    1.9716140202107784E+00    7.8628344717585605E+00
Ga    6.7442381756208758E-02    1.1606164816852779E-01    8.4874027849329465E+00
N    7.1396482432525485E-02    1.1983459899350171E-01    1.0465073425673360E+01
Ga    6.9378823586598790E-02    1.9586526749594186E+00    1.1117273912073850E+01
N    7.1845279000592274E-02    1.9406867344538496E+00    1.3111865079418141E+01
Ga    7.0828513969495840E-02    1.2035083364295823E-01    1.3911199296687732E+01
N    7.1371547820382297E-02    1.2213503956677771E-01    1.6116806175433094E+01
Ga    7.1733244848436128E-02    2.1667378685242338E+00    1.6527869247198872E+01
Ga    1.0875263340836699E-01    3.8269568016823028E+00    1.4388197016194804E+00
N   -1.3965238992590960E+00    4.6919550892640327E+00    2.5329708641948647E+00
Ga   -1.6041393603694898E+00    2.8404954061257177E+00    3.3148725779587669E+00
N   -1.5343165970342143E+00    2.9066453188161927E+00    5.2949250120220954E+00
Ga   -1.5697820793489599E+00    4.7726984302177176E+00    5.8511978300127589E+00
N   -1.5441782716530197E+00    4.7692971535731621E+00    7.8469833034723537E+00
Ga   -1.5321136018550043E+00    2.9116838197050559E+00    8.4861509688656103E+00
N   -1.5257253161384186E+00    2.9136016270283664E+00    1.0480621896643283E+01
Ga   -1.5514593131226471E+00    4.7725226972676067E+00    1.1115244869347213E+01
N   -1.5670961223995403E+00    4.7815748492542838E+00    1.3110746082117283E+01
Ga   -1.5253610967803686E+00    2.9119808818029274E+00    1.3666394708888763E+01
N   -1.5509843487368391E+00    2.8963381776498642E+00    1.5629406661663483E+01
Ga   -1.3787006308215284E+00    4.6720222348361453E+00    1.6527176449724312E+01
N    7.2312457588785253E-02    3.8434409718447395E+00    1.7661127229146128E+01
N   -3.1365459708131622E+00    7.6593244693198930E+00    2.5615106924611637E+00
Ga   -3.1203365525699835E+00    5.6929999412118679E+00    2.8754892106889494E+00
N   -3.1392452377194031E+00    5.6841429022037824E+00    5.0584143070926944E+00
Ga   -3.1493494790702905E+00    7.5141273148415699E+00    5.8301003797069066E+00
N   -3.1426301477070484E+00    7.5361435034913349E+00    7.8332132995888717E+00
Ga   -3.1448461331383819E+00    5.6924592885380747E+00    8.4860632743335493E+00
N   -3.1439688275873352E+00    5.6918673894062231E+00    1.0462922167835048E+01
Ga   -3.1450898100073283E+00    7.5307005397155873E+00    1.1113239559837696E+01
N   -3.1438840992548021E+00    7.5118764228930770E+00    1.3109062438860583E+01
Ga   -3.1439350213074193E+00    5.6917299620258657E+00    1.3910991871160190E+01
N   -3.1443348891502771E+00    5.6926519032884189E+00    1.6116920039895053E+01
Ga   -3.1440599298317271E+00    7.7335805254672509E+00    1.6525468129992195E+01
Ga   -3.1809206233849427E+00    9.3948285781984477E+00    1.3066222856911525E+00
N   -4.6458581379422847E+00    1.0294241993487740E+01    2.5868875609205149E+00
Ga   -4.8359871030241486E+00    8.4452727646273260E+00    3.2873575070565746E+00
N   -4.7503076325832003E+00    8.4796138281620195E+00    5.2785115683207469E+00
Ga   -4.7771066376040316E+00    1.0339432816682233E+01    5.8627169390263871E+00
N   -4.7564998393213678E+00    1.0338105435848339E+01    7.8552919520564810E+00
Ga   -4.7465754591367544E+00    8.4763022811960518E+00    8.4718179065345023E+00
N   -4.7413262236495815E+00    8.4806498021722270E+00    1.0471293464619491E+01
Ga   -4.7700575756193082E+00    1.0338180100837674E+01    1.1115797354204034E+01
N   -4.7841321844491960E+00    1.0350321272384038E+01    1.3111662479457975E+01
Ga   -4.7410827552708232E+00    8.4815628766653095E+00    1.3666538665543193E+01
N   -4.7661474513360611E+00    8.4662249243377445E+00    1.5630213119657997E+01
Ga   -4.5976272165594994E+00    1.0243862631271357E+01    1.6524553953098913E+01
N   -3.1438218944697076E+00    9.4132242825675636E+00    1.7657163751422662E+01
N    3.2769168937207609E+00    1.9676558586395716E+00    2.6639580012585582E+00
Ga    3.2893065526642045E+00    1.1377453720521548E-01    3.3753500028535766E+00
N    3.2893038099296419E+00    1.3646523814936268E-01    5.3150939900624836E+00
Ga    3.2860390382979965E+00    1.9687978799898993E+00    5.9775017790770972E+00
N    3.2898684469166932E+00    1.9765574490171396E+00    7.9316051441061877E+00
Ga    3.2873136033260248E+00    1.0259960298030235E-01    8.5066032737116242E+00
N    3.2885467135970434E+00    1.0764834719225926E-01    1.0493778855106495E+01
Ga    3.2891956908123041E+00    1.9784532238915220E+00    1.1082611917679371E+01
N    3.2888555774305734E+00    1.9777182808010307E+00    1.3053178792393211E+01
Ga    3.2885975939610641E+00    1.0594323205530012E-01    1.3667843302896099E+01
N    3.2883812860717865E+00    1.3873502200364676E-01    1.5632959792285067E+01
Ga    3.2889223803669774E+00    1.9780859022888759E+00    1.5908201657185483E+01
N    1.5655790332417465E+00    4.6950154289540302E+00    2.6262760968730601E+00
Ga    1.6907802392979443E+00    2.8822583230407148E+00    3.3898188785792396E+00
N    1.7001472633587524E+00    2.8948481242964803E+00    5.3261400907004193E+00
Ga    1.7032636000838366E+00    4.7765070315575047E+00    5.8761562401198706E+00
N    1.6876013551360893E+00    4.7668987634389266E+00    7.8589748892278415E+00
Ga    1.6670072902229818E+00    2.9129354482123180E+00    8.5068494217044108E+00
N    1.6696169398324654E+00    2.9138092918728939E+00    1.0493152051430179E+01
Ga    1.6958913179381454E+00    4.7759048471893575E+00    1.1118119807377651E+01
N    1.7127690265561653E+00    4.7827353665611332E+00    1.3112672032045936E+01
Ga    1.6680374752570697E+00    2.9130537775592154E+00    1.3668337885521144E+01
N    1.6951539442729411E+00    2.8956712530838753E+00    1.5631084567576535E+01
Ga    1.5235812363743093E+00    4.6727203189742221E+00    1.6527617119732113E+01
N    7.4709983557089382E-02    7.5516535927958275E+00    2.7074930942706295E+00
Ga    7.1380948085008528E-02    5.7154046397468816E+00    3.3810302463732618E+00
N    7.0625034242651777E-02    5.7063995062478368E+00    5.3148399341167201E+00
Ga    9.2807954705295861E-02    7.5650637668063903E+00    5.9157655313789190E+00
N    7.7715835741944850E-02    7.5531155778233776E+00    7.8885940328597446E+00
Ga    6.9149025844534029E-02    5.6857144816096525E+00    8.4855040356459206E+00
N    7.1969344204850016E-02    5.6810649046269273E+00    1.0479007590345139E+01
Ga    7.3845314690576730E-02    7.5498144293556457E+00    1.1072879419311173E+01
N    7.2836923527240152E-02    7.5486821330928855E+00    1.3045698027892710E+01
Ga    7.2280325875015899E-02    5.6790012891819757E+00    1.3668134639110438E+01
N    7.1636620513519184E-02    5.7108399698510590E+00    1.5632121354991728E+01
Ga    7.3108222313614080E-02    7.5490880974879078E+00    1.5909488312272165E+01
N   -1.6419297193353506E+00    1.0288006230349810E+01    2.5740738972226338E+00
Ga   -1.5298177545854816E+00    8.4849486376597341E+00    3.3402291004685782E+00
N   -1.5227265461809061E+00    8.4743032177108404E+00    5.2888531216934140E+00
Ga   -1.5072817145309219E+00    1.0350158575981693E+01    5.8702206939666253E+00
N   -1.5321164112406480E+00    1.0335650541830656E+01    7.8593107533558237E+00
Ga   -1.5460763793892387E+00    8.4771882476979084E+00    8.4835733642235382E+00
N   -1.5462346432121208E+00    8.4806982236103128E+00    1.0478033886508964E+01
Ga   -1.5173715452149616E+00    1.0339815457711220E+01    1.1117319166396401E+01
N   -1.5025449158109065E+00    1.0350967804923380E+01    1.3112619653574194E+01
Ga   -1.5468508669538892E+00    8.4819445204312718E+00    1.3666922110850388E+01
N   -1.5214749932967710E+00    8.4659883268663858E+00    1.5630706953875363E+01
Ga   -1.6899739954652671E+00    1.0243983111880047E+01    1.6524907989310428E+01
N    6.4834610042343481E+00    2.1104683578636063E+00    2.5670996450429273E+00
Ga    6.5070968557246234E+00    1.0119025209865401E-01    2.9531903618272541E+00
N    6.4830784328623041E+00    1.3567925897745134E-01    5.1234063243120156E+00
Ga    6.5146627275758124E+00    1.9469873232565482E+00    5.8692804540682992E+00
N    6.5049977167952058E+00    1.9734508696567883E+00    7.8591742389654238E+00
Ga    6.5103070353811212E+00    1.1675304160522045E-01    8.4856028054761659E+00
N    6.5059519609464189E+00    1.2018762080183937E-01    1.0463815067145552E+01
Ga    6.5086129688649681E+00    1.9591682483295494E+00    1.1117044460328104E+01
N    6.5058091498783828E+00    1.9406588406742322E+00    1.3111591136187457E+01
Ga    6.5067867146221845E+00    1.2093735614861779E-01    1.3912481754348763E+01
N    6.5055115605502376E+00    1.2280912362331498E-01    1.6117684039851710E+01
Ga    6.5051596937999934E+00    2.1680384241331070E+00    1.6528377478602270E+01
Ga    6.4760890433097700E+00    3.8594453879535173E+00    1.5870287710548605E+00
N    5.0097397133562538E+00    4.7001427955845321E+00    2.6513399728709688E+00
Ga    4.8526195466471647E+00    2.8627859705147412E+00    3.3942503263943489E+00
N    4.8781185692167606E+00    2.8930279603187601E+00    5.3193816451057740E+00
Ga    4.8823286087139257E+00    4.7794457998012776E+00    5.8678118108770851E+00
N    4.8891962031760201E+00    4.7651137659277936E+00    7.8536274536496729E+00
Ga    4.9116491245869716E+00    2.9141057944397812E+00    8.5064055807981251E+00
N    4.9086564522204386E+00    2.9139945890777934E+00    1.0492591243850242E+01
Ga    4.8843342963304028E+00    4.7771531864246528E+00    1.1115361988995518E+01
N    4.8658201019336396E+00    4.7829374705862122E+00    1.3110801184886757E+01
Ga    4.9096818218100022E+00    2.9134640209625027E+00    1.3667661223847109E+01
N    4.8819429482475556E+00    2.8961227644373300E+00    1.5630332723628127E+01
Ga    5.0545063185306462E+00    4.6724791001051615E+00    1.6527885427077475E+01
N    6.5050584828415952E+00    3.8439049470799018E+00    1.7660846419918379E+01
N    3.2824441194481793E+00    7.5277804524111467E+00    2.5664072953207682E+00
N    3.2903437071346713E+00    5.6742281089912439E+00    5.1155788573911085E+00
Ga    3.2924578466291989E+00    7.5418477415432337E+00    5.8136108213580338E+00
N    3.2879551399442528E+00    7.5414276246245775E+00    7.8205886191336154E+00
Ga    3.2901529916237497E+00    5.7002259673837408E+00    8.4866660004054850E+00
N    3.2891587817769610E+00    5.6938207309290840E+00    1.0462521696965375E+01
Ga    3.2901683016131869E+00    7.5328208948940327E+00    1.1113999151626878E+01
N    3.2890363274388825E+00    7.5121359466800222E+00    1.3108717324343784E+01
Ga    3.2895448596216292E+00    5.6933394352789906E+00    1.3913840275605301E+01
N    3.2890378471873829E+00    5.6936301245290970E+00    1.6117273676188606E+01
Ga    3.2887763332785900E+00    7.7383813647021844E+00    1.6528531579250224E+01
Ga    4.1530175325587635E+00    1.0896963042807069E+01    6.7978612986304221E-01
N    1.7134769488190873E+00    1.0347486691830536E+01    2.5737656335918215E+00
Ga    1.6998014585066779E+00    8.5620139267779116E+00    3.2078118565235010E+00
N    1.6776130244299576E+00    8.4646597124670961E+00    5.2068916127333029E+00
Ga    1.6542993161345971E+00    1.0338937241812690E+01    5.8132901396358401E+00
N    1.6694492601209094E+00    1.0331208146571219E+01    7.8275449779837922E+00
Ga    1.6950511979533569E+00    8.4850352335695707E+00    8.4804909409655558E+00
N    1.6929182395630940E+00    8.4823322207524647E+00    1.0475584500859643E+01
Ga    1.6685443065223520E+00    1.0342512589570791E+01    1.1111620340236282E+01
N    1.6498192808541143E+00    1.0351478071312409E+01    1.3108209485551397E+01
Ga    1.6924803707234974E+00    8.4832006044413664E+00    1.3666314726407526E+01
N    1.6654870961616535E+00    8.4669421191845959E+00    1.5628828861110090E+01
Ga    1.8394292879071181E+00    1.0242043013861879E+01    1.6528402874185328E+01
N    3.2891593325415092E+00    9.4131638701346105E+00    1.7663396441437669E+01
N    9.7471725356755066E+00    1.9382633348064837E+00    2.6490592374935220E+00
Ga    9.6687850564405764E+00    1.4408393611512760E-01    3.2977832523789838E+00
N    9.7184189352362136E+00    1.2000461972771582E-01    5.2888731381747274E+00
Ga    9.7238851137205788E+00    1.9677564914407664E+00    5.9039642340907816E+00
N    9.7193802423743811E+00    1.9779746272933019E+00    7.8883005153850503E+00
Ga    9.7193700204554858E+00    1.0582205894738084E-01    8.4650011291798215E+00
N    9.7203508097689664E+00    1.0861038267331448E-01    1.0468342980585927E+01
Ga    9.7209317179433565E+00    1.9760319306309497E+00    1.1070107478081480E+01
N    9.7208333685204629E+00    1.9769035083058806E+00    1.3044105222062949E+01
Ga    9.7211103218518407E+00    1.0752235752736300E-01    1.3666676635245535E+01
N    9.7207341624624668E+00    1.3994360947195369E-01    1.5630521002460252E+01
Ga    9.7207373727860453E+00    1.9777646188493792E+00    1.5909173230978514E+01
N    8.0018492520483839E+00    4.7034537708521649E+00    2.5667802395104036E+00
Ga    8.2295940434482997E+00    2.8277255449048715E+00    3.3037197665082831E+00
N    8.1125654420329241E+00    2.9019783311950897E+00    5.2762341188976531E+00
Ga    8.1427404789459086E+00    4.7744490535545889E+00    5.8344537200454321E+00
N    8.1234055880184837E+00    4.7678231507438129E+00    7.8364643195174510E+00
Ga    8.1087437198393317E+00    2.9143362671936641E+00    8.4855024624558872E+00
N    8.1032116274842423E+00    2.9142074069129489E+00    1.0479908424178872E+01
Ga    8.1268810297927097E+00    4.7734821258648532E+00    1.1113327099080090E+01
N    8.1439567035047435E+00    4.7817490912930927E+00    1.3109471620363998E+01
Ga    8.1026145229866220E+00    2.9124857436183933E+00    1.3666224559369269E+01
N    8.1282647960289225E+00    2.8963776624395332E+00    1.5629171556544987E+01
Ga    7.9547100042010523E+00    4.6719202115686427E+00    1.6527376780217761E+01
N    6.4967189183976393E+00    7.5717403181709413E+00    2.6371131529732290E+00
Ga    6.5062936139518550E+00    5.8457667022599580E+00    3.3475554740080828E+00
N    6.5066219817683395E+00    5.6973795688365563E+00    5.3046289119480727E+00
Ga    6.4833527935594537E+00    7.5751345603522591E+00    5.8740049847566267E+00
N    6.4974109783654077E+00    7.5545394288593153E+00    7.8669608468859442E+00
Ga    6.5091535744061844E+00    5.6899889232539271E+00    8.4705145831004973E+00
N    6.5062120572160094E+00    5.6820048930273188E+00    1.0470093800434960E+01
Ga    6.5043977096747501E+00    7.5495361101140679E+00    1.1068351559513376E+01
N    6.5047468541287090E+00    7.5485432816248936E+00    1.3042489449556868E+01
Ga    6.5053882479951755E+00    5.6797189479204233E+00    1.3667609808825171E+01
N    6.5052177683070438E+00    5.7112969379643994E+00    1.5631371140515020E+01
Ga    6.5041072464028193E+00    7.5491180922280972E+00    1.5909436062337722E+01
N    4.8640904102562468E+00    1.0380826329657621E+01    2.5372979800401674E+00
Ga    4.9489217877250979E+00    8.5121241261200744E+00    3.1575209584128388E+00
N    4.8813134853259843E+00    8.4867869663172115E+00    5.1950078765218262E+00
Ga    4.9126750253981113E+00    1.0339062302670476E+01    5.8188001375210332E+00
N    4.9061441440084197E+00    1.0334835457403949E+01    7.8301852525254851E+00
Ga    4.8858849152352439E+00    8.4839327443531030E+00    8.4727014748860512E+00
N    4.8853728172680322E+00    8.4820358804858387E+00    1.0471161745109491E+01
Ga    4.9085632299923905E+00    1.0341306053638540E+01    1.1109690008699841E+01
N    4.9273352709444103E+00    1.0351218621997351E+01    1.3107056529235187E+01
Ga    4.8858247851590519E+00    8.4831008708530860E+00    1.3665450344210317E+01
N    4.9117981679164409E+00    8.4668520275581081E+00    1.5628039434516763E+01
Ga    4.7379344489443254E+00    1.0241954050669078E+01    1.6527788593932527E+01
O    7.5069578403566439E-01    3.7105919319077389E+00   -2.8149215653347054E-01
H    2.5630959353798106E+00    3.3902597247028332E+00    1.8647698354463249E-01
C    1.6478562375109942E-01    2.7423164567582452E+00   -1.1700319325387700E+00
H    3.1995458780898850E-02    1.7580374277021560E+00   -6.8785901207091871E-01
H   -8.1297332732324401E-01    3.0804902421455385E+00   -1.5446080158345532E+00
H    8.4413931972289091E-01    2.6186556343497762E+00   -2.0252231751705474E+00
Ga    3.2694542299412999E+00    5.6087563541928054E+00    3.0464687281883598E+00
O    3.4525347607151806E+00    3.0661292229308654E+00    4.7658246788246617E-01
H    1.0198614545617601E-02    7.5085748895289601E+00    1.6833935279948053E+00
C    3.2859556785609887E+00    1.8427417529232446E+00    1.1686176178276917E+00
H    4.1358981220171058E+00    1.2007558957273885E+00    8.9127857764766505E-01
H    3.2804626063815907E+00    7.5839187078381336E+00    1.7307350644270763E+00
H    2.3520515106951105E+00    1.3460432781766374E+00    8.6028659141821939E-01
     &END COORD
     &KIND C
       BASIS_SET DZVP-MOLOPT-SR-GTH-q4
       POTENTIAL GTH-PBE-q4
       &POTENTIAL
2 2
0.3384712400000000E+00 2 -0.8803673979999999E+01  0.1339210850000000E+01
2
0.3025757500000000E+00 1  0.9622486650000001E+01
0.2915069400000000E+00 0
       &END POTENTIAL
     &END KIND
     &KIND O
       BASIS_SET DZVP-MOLOPT-SR-GTH-q6
       POTENTIAL GTH-PBE-q6
       &POTENTIAL
2 4
0.2445543000000000E+00 2 -0.1666721480000000E+02  0.2487311320000000E+01
2
0.2209559200000000E+00 1  0.1833745811000000E+02
0.2113324700000000E+00 0
       &END POTENTIAL
     &END KIND
     &KIND H
       BASIS_SET DZVP-MOLOPT-SR-GTH-q1
       POTENTIAL GTH-PBE-q1
       &POTENTIAL
1
0.2000000000000000E+00 2 -0.4178900440000000E+01  0.7244633100000000E+00
0
       &END POTENTIAL
     &END KIND
     &KIND N
       BASIS_SET DZVP-MOLOPT-SR-GTH
       POTENTIAL GTH-PBE-q5
       &POTENTIAL
2 3
0.2837905100000000E+00 2 -0.1241522559000000E+02  0.1868095920000000E+01
2
0.2554050000000000E+00 1  0.1363026257000000E+02
0.2454945300000000E+00 0
       &END POTENTIAL
     &END KIND
     &KIND Ga
       BASIS_SET DZVP-MOLOPT-SR-GTH
       POTENTIAL GTH-PBE-q13
       &POTENTIAL
2 1 10
0.4900000000000000E+00 0
3
0.4167772300000000E+00 3  0.1047568975000000E+02 -0.4921768140000000E+01  0.8707055900000000E+00
0.7770178090000000E+01 -0.2248152160000000E+01
0.1784415450000000E+01
0.5696265200000000E+00 2  0.1777985340000000E+01  0.1958597600000000E+00
-0.2317443900000000E+00
0.2381265000000000E+00 1 -0.1624868022000000E+02
       &END POTENTIAL
     &END KIND
     &TOPOLOGY
       NUMBER_OF_ATOMS  212
       MULTIPLE_UNIT_CELL  1 1 1
     &END TOPOLOGY
     &COLVAR
       &DISTANCE
         ATOMS  127 211
       &END DISTANCE
       &PRINT
       &END PRINT
     &END COLVAR
   &END SUBSYS
 &END FORCE_EVAL
