 # Version information for this restart file 
 # current date 2019-07-13 21:27:49.798
 # current working dir /lustre04/scratch/rzk/rzk/GaN-carbene/443-adatoms-both-2x2/09-BondBreaking-CH/02-0401-CH-to-NTop-PES
 # Program compiled at                              Sun Apr  7 00:48:11 EDT 2019
 # Program compiled on                          beluga2.int.ets1.calculquebec.ca
 # Program compiled for                        Beluga-Linux-x86-64-intel-openmpi
 # Source code revision number                                         svn:18619
 &GLOBAL
   PRINT_LEVEL  MEDIUM
   PROJECT_NAME TEST
   RUN_TYPE  GEO_OPT
 &END GLOBAL
 &MOTION
   &GEO_OPT
     MAX_ITER  500
     STEP_START_VAL  55
   &END GEO_OPT
   &CONSTRAINT
     &COLLECTIVE
       COLVAR  1
       INTERMOLECULAR  T
       TARGET     1.5117809063085144E+00
       &RESTRAINT
         K     2.0000000000000000E+00
       &END RESTRAINT
     &END COLLECTIVE
     &COLVAR_RESTART
           1.5117809063085144E+00
     &END COLVAR_RESTART
   &END CONSTRAINT
 &END MOTION
 &FORCE_EVAL
   METHOD  QS
   STRESS_TENSOR  ANALYTICAL
   &DFT
     BASIS_SET_FILE_NAME BASIS_MOLOPT
     POTENTIAL_FILE_NAME GTH_POTENTIALS
     UKS  T
     SURFACE_DIPOLE_CORRECTION  T
     SURF_DIP_DIR  Z
     &SCF
       MAX_SCF  80
       EPS_SCF     5.0000000000000004E-06
       &OT  T
         PRECONDITIONER  FULL_ALL
       &END OT
       &OUTER_SCF  T
         OPTIMIZER  NONE
         EPS_SCF     5.0000000000000004E-06
         MAX_SCF  4
       &END OUTER_SCF
       &PRINT
         &RESTART  OFF
           BACKUP_COPIES  1
           &EACH
             JUST_ENERGY  0
             QS_SCF  0
             MD  20
           &END EACH
         &END RESTART
       &END PRINT
     &END SCF
     &QS
       EPS_DEFAULT     1.0000000000000000E-14
       METHOD  GPW
     &END QS
     &MGRID
       NGRIDS  5
       CUTOFF     1.2000000000000000E+03
     &END MGRID
     &XC
       DENSITY_CUTOFF     1.0000000000000000E-10
       GRADIENT_CUTOFF     1.0000000000000000E-10
       TAU_CUTOFF     1.0000000000000000E-10
       &XC_FUNCTIONAL  NO_SHORTCUT
         &PBE  T
         &END PBE
       &END XC_FUNCTIONAL
       &VDW_POTENTIAL
         POTENTIAL_TYPE  PAIR_POTENTIAL
         &PAIR_POTENTIAL
           R_CUTOFF     1.0000000000000009E+01
           TYPE  DFTD3
           PARAMETER_FILE_NAME dftd3.dat
           REFERENCE_FUNCTIONAL PBE
           EPS_CN     9.9999999999999995E-07
           CALCULATE_C9_TERM  T
           REFERENCE_C9_TERM  T
           LONG_RANGE_CORRECTION  F
           VERBOSE_OUTPUT  F
         &END PAIR_POTENTIAL
       &END VDW_POTENTIAL
     &END XC
   &END DFT
   &SUBSYS
     &CELL
       A     1.2864472766435110E+01    0.0000000000000000E+00    0.0000000000000000E+00
       B    -6.4322363581020028E+00    1.1140960178524477E+01    0.0000000000000000E+00
       C     0.0000000000000000E+00    0.0000000000000000E+00    3.2000000000000000E+01
       MULTIPLE_UNIT_CELL  1 1 1
       &CELL_REF
         A     1.2982353780853531E+01    0.0000000000000000E+00    0.0000000000000000E+00
         B    -6.4911768904267628E+00    1.1243048175136114E+01    0.0000000000000000E+00
         C     0.0000000000000000E+00    0.0000000000000000E+00    3.2000000000000000E+01
         MULTIPLE_UNIT_CELL  1 1 1
       &END CELL_REF
     &END CELL
     &COORD
N    9.0590906006155311E-02    2.1100708415736880E+00    2.5761160882209451E+00
Ga    1.0348176534346566E-01    1.5128639844616515E-01    3.0137552937678662E+00
N    8.7868758056742116E-02    1.3246966846177266E-01    5.1230386260586291E+00
Ga    6.4105762408361078E-02    1.9509904656689996E+00    5.8734514134300388E+00
N    7.3024448144010976E-02    1.9715861100375460E+00    7.8626522435505324E+00
Ga    6.7395135120314115E-02    1.1608215424084507E-01    8.4872960074705190E+00
N    7.1376446515530448E-02    1.1984636108496205E-01    1.0465061064071042E+01
Ga    6.9350571393600832E-02    1.9586959629732794E+00    1.1117477523215156E+01
N    7.1868000374906274E-02    1.9407848033729376E+00    1.3112126514156518E+01
Ga    7.0767973226939868E-02    1.2036511403426454E-01    1.3911046806838735E+01
N    7.1395386315014603E-02    1.2240476581845211E-01    1.6117265654638000E+01
Ga    7.1649799214406243E-02    2.1670814122430193E+00    1.6527585253244212E+01
Ga    1.0898228649983943E-01    3.8271538399027647E+00    1.4388604295220624E+00
N   -1.3965893616579028E+00    4.6918477373484029E+00    2.5327591999983792E+00
Ga   -1.6041933432806996E+00    2.8404760666580473E+00    3.3148807548920924E+00
N   -1.5344318954579788E+00    2.9066371294724700E+00    5.2949129379763136E+00
Ga   -1.5696974510257888E+00    4.7726313405075258E+00    5.8510063176422102E+00
N   -1.5442673231433186E+00    4.7692071125465345E+00    7.8467546575295781E+00
Ga   -1.5321297876470579E+00    2.9117150962671996E+00    8.4861272244035746E+00
N   -1.5257584686204029E+00    2.9135136322558277E+00    1.0480576966959829E+01
Ga   -1.5514652844508940E+00    4.7724235096008760E+00    1.1115436726646450E+01
N   -1.5669897952975602E+00    4.7813865005483320E+00    1.3111003944879579E+01
Ga   -1.5253216352454604E+00    2.9119172992360478E+00    1.3666765630259633E+01
N   -1.5510819075575699E+00    2.8963879875456411E+00    1.5629800239267205E+01
Ga   -1.3787904839563534E+00    4.6721030020586634E+00    1.6526887048154727E+01
N    7.2258752233161930E-02    3.8436685603349412E+00    1.7660218005846001E+01
N   -3.1365592672144875E+00    7.6593288206314414E+00    2.5614296461753066E+00
Ga   -3.1203065650905177E+00    5.6927162830301414E+00    2.8758101164714640E+00
N   -3.1391852403700740E+00    5.6840558541788369E+00    5.0585580770563325E+00
Ga   -3.1493295818760396E+00    7.5139582714274189E+00    5.8300589269533045E+00
N   -3.1426379639084718E+00    7.5360899952801184E+00    7.8331102794914509E+00
Ga   -3.1448313046740708E+00    5.6924229688744443E+00    8.4859644360420869E+00
N   -3.1439518554003163E+00    5.6917738923016659E+00    1.0462853372954925E+01
Ga   -3.1450982604077611E+00    7.5306304978571594E+00    1.1113314265322401E+01
N   -3.1438272013329174E+00    7.5117556171873519E+00    1.3109204406468882E+01
Ga   -3.1439124443033584E+00    5.6915923052049031E+00    1.3911112023178053E+01
N   -3.1443191058670510E+00    5.6925195334326952E+00    1.6117316569272536E+01
Ga   -3.1440206405061408E+00    7.7333733797482598E+00    1.6525193234851226E+01
Ga   -3.1811008810358450E+00    9.3945580230300685E+00    1.3057022326307814E+00
N   -4.6458376873900411E+00    1.0294193583079965E+01    2.5866958329241947E+00
Ga   -4.8362827236790542E+00    8.4449659009779516E+00    3.2874871363149487E+00
N   -4.7502566719091481E+00    8.4795790483703364E+00    5.2785661202693541E+00
Ga   -4.7773635887074448E+00    1.0339426445319946E+01    5.8627204896870335E+00
N   -4.7566013080558589E+00    1.0338136638862091E+01    7.8552282860015739E+00
Ga   -4.7465852273099287E+00    8.4763054387551815E+00    8.4716873386279943E+00
N   -4.7413524071307442E+00    8.4805935165023421E+00    1.0471175576398352E+01
Ga   -4.7700255654740227E+00    1.0338092996759521E+01    1.1115873872106066E+01
N   -4.7841017372633896E+00    1.0350349613500779E+01    1.3111783828114900E+01
Ga   -4.7409680040477777E+00    8.4815484688598861E+00    1.3666597622199447E+01
N   -4.7659515556631487E+00    8.4663184511075578E+00    1.5630384241219748E+01
Ga   -4.5977417529717730E+00    1.0244027641942939E+01    1.6524301462744262E+01
N   -3.1437576438519463E+00    9.4134138834633116E+00    1.7657364455607489E+01
N    3.2768008941237423E+00    1.9676585637472808E+00    2.6639191082623710E+00
Ga    3.2892396899484608E+00    1.1404478400537554E-01    3.3755934403950767E+00
N    3.2892215924101218E+00    1.3633659235892870E-01    5.3152621740699209E+00
Ga    3.2859377043170674E+00    1.9688377627189382E+00    5.9774779720757278E+00
N    3.2898220612322819E+00    1.9765884328854295E+00    7.9315970793174637E+00
Ga    3.2872804513875744E+00    1.0253493202088453E-01    8.5065756887485122E+00
N    3.2885698039866025E+00    1.0764430614792068E-01    1.0493781487774688E+01
Ga    3.2892166983501459E+00    1.9784294472892354E+00    1.1082915111517190E+01
N    3.2887495944565748E+00    1.9777415794556097E+00    1.3053495173423203E+01
Ga    3.2886215005131052E+00    1.0593864191923916E-01    1.3667929880735473E+01
N    3.2883365547994643E+00    1.3865057676796827E-01    1.5633134802031398E+01
Ga    3.2889647615498414E+00    1.9780982449987297E+00    1.5908387770599246E+01
N    1.5656665942735541E+00    4.6952876115220521E+00    2.6260743732875493E+00
Ga    1.6906483082072636E+00    2.8825478578690662E+00    3.3897498640660286E+00
N    1.7000537006308465E+00    2.8949185475277464E+00    5.3261666747472649E+00
Ga    1.7033187305028150E+00    4.7766739868327583E+00    5.8759279849518178E+00
N    1.6875677268527529E+00    4.7668418264755017E+00    7.8587847841490186E+00
Ga    1.6668248138894468E+00    2.9129164591196002E+00    8.5067791067190743E+00
N    1.6696331800959689E+00    2.9137451243324368E+00    1.0493139767622127E+01
Ga    1.6958865490898682E+00    4.7758416443169764E+00    1.1118399568003031E+01
N    1.7127272851335971E+00    4.7825523178233773E+00    1.3113013492321826E+01
Ga    1.6679911854763936E+00    2.9130054179934799E+00    1.3668714783692678E+01
N    1.6952766248783964E+00    2.8956379227296294E+00    1.5631573330976824E+01
Ga    1.5236622491124296E+00    4.6728388247762380E+00    1.6527504135811842E+01
N    7.4925448629907368E-02    7.5514953513301277E+00    2.7071361419413789E+00
Ga    7.1319119663185535E-02    5.7152279314767842E+00    3.3811007231918540E+00
N    7.0599548161025635E-02    5.7063759577901392E+00    5.3148657125553571E+00
Ga    9.2888354018625621E-02    7.5650094333834019E+00    5.9156120554451244E+00
N    7.7721322546189714E-02    7.5531081336991734E+00    7.8884671708979068E+00
Ga    6.9068491788956257E-02    5.6856268344826359E+00    8.4853759657615804E+00
N    7.1971528810338067E-02    5.6810211615176343E+00    1.0478985729506578E+01
Ga    7.3880554836956810E-02    7.5497679839557632E+00    1.1073078970866176E+01
N    7.2810190524966276E-02    7.5484609592877012E+00    1.3046043645916251E+01
Ga    7.2296951951618380E-02    5.6787452994771748E+00    1.3668480521799571E+01
N    7.1620489680711538E-02    5.7109411592116013E+00    1.5632529909522718E+01
Ga    7.3079553850197668E-02    7.5490725997539512E+00    1.5909581815882268E+01
N   -1.6420189015323188E+00    1.0287981881854574E+01    2.5739479977111337E+00
Ga   -1.5294799196909701E+00    8.4846376262025043E+00    3.3403465563491883E+00
N   -1.5227783874648044E+00    8.4742538643713008E+00    5.2888910165008101E+00
Ga   -1.5071908586142160E+00    1.0350098983131003E+01    5.8702250070270994E+00
N   -1.5320664843191520E+00    1.0335658487585178E+01    7.8592705249066102E+00
Ga   -1.5460973632884276E+00    8.4771619424313158E+00    8.4835261346233928E+00
N   -1.5462019166028693E+00    8.4806691347208858E+00    1.0478026346529283E+01
Ga   -1.5172940985592549E+00    1.0339809732649641E+01    1.1117475511867713E+01
N   -1.5025825952512082E+00    1.0350920646894071E+01    1.3112803810871293E+01
Ga   -1.5469003833404309E+00    8.4819145639583464E+00    1.3667080057315641E+01
N   -1.5216209922392290E+00    8.4659711406614218E+00    1.5630958554565083E+01
Ga   -1.6896446977086437E+00    1.0244219702418370E+01    1.6524695788823337E+01
N    6.4834720214981507E+00    2.1103804134211956E+00    2.5668393967484908E+00
Ga    6.5075734932880280E+00    1.0102691587873450E-01    2.9532650504645832E+00
N    6.4832778980662598E+00    1.3560663257770350E-01    5.1236464628660201E+00
Ga    6.5147951682487930E+00    1.9469936749464369E+00    5.8692676241717008E+00
N    6.5051938304829919E+00    1.9734532334082873E+00    7.8591455524152183E+00
Ga    6.5103097254741584E+00    1.1670579586463457E-01    8.4856029384248597E+00
N    6.5060199246413264E+00    1.2019750091485819E-01    1.0463791779803762E+01
Ga    6.5086470653560626E+00    1.9591396589384367E+00    1.1117307834956867E+01
N    6.5058732655231335E+00    1.9407112828071966E+00    1.3111866582209061E+01
Ga    6.5068125383767628E+00    1.2093687193975142E-01    1.3912563819002518E+01
N    6.5055756351398637E+00    1.2308687576277805E-01    1.6117754021000913E+01
Ga    6.5051766354568556E+00    2.1689036427434170E+00    1.6528955299726153E+01
Ga    6.4760365454778190E+00    3.8596817681762770E+00    1.5867206845092763E+00
N    5.0095480402365373E+00    4.7003242631502156E+00    2.6511013571464423E+00
Ga    4.8525390697617601E+00    2.8629611673138857E+00    3.3942946904451090E+00
N    4.8781625587098771E+00    2.8931943318979858E+00    5.3195890245492707E+00
Ga    4.8821391376931649E+00    4.7797960830686108E+00    5.8677292458840720E+00
N    4.8892299475850134E+00    4.7651021050914011E+00    7.8535470421916838E+00
Ga    4.9117046424770141E+00    2.9140635598910225E+00    8.5063969669883885E+00
N    4.9086708757457265E+00    2.9139280391435149E+00    1.0492571320952514E+01
Ga    4.8844064838663401E+00    4.7770685039128411E+00    1.1115645664985855E+01
N    4.8658007444164975E+00    4.7828236220509739E+00    1.3111108980280497E+01
Ga    4.9096794391319705E+00    2.9133592884272503E+00    1.3667943238163259E+01
N    4.8816848145391791E+00    2.8960594884402302E+00    1.5630458702728470E+01
Ga    5.0549562618902844E+00    4.6722372637183200E+00    1.6528487383451349E+01
N    6.5049239814589974E+00    3.8440103253950344E+00    1.7661695061989501E+01
N    3.2823567028690879E+00    7.5278272029895907E+00    2.5659863556833731E+00
N    3.2903071800048518E+00    5.6743394840225889E+00    5.1157225040482182E+00
Ga    3.2924904201777174E+00    7.5418210237691108E+00    5.8133657679937789E+00
N    3.2879726411627264E+00    7.5415110244259482E+00    7.8203676907318442E+00
Ga    3.2900807454158056E+00    5.7002746890180713E+00    8.4864548598795970E+00
N    3.2891943629678604E+00    5.6937323015590398E+00    1.0462458945121364E+01
Ga    3.2901637027188055E+00    7.5327927115490629E+00    1.1114125534180506E+01
N    3.2890688913560910E+00    7.5120259927694262E+00    1.3108909089368050E+01
Ga    3.2895100704471973E+00    5.6932381296166179E+00    1.3914067863733708E+01
N    3.2891031143950955E+00    5.6934902868289061E+00    1.6117644688914009E+01
Ga    3.2886516296538923E+00    7.7385576332128503E+00    1.6528852367224935E+01
Ga    4.1517671396444511E+00    1.0899109304456957E+01    6.7987089431310022E-01
N    1.7138744945409106E+00    1.0347338391295745E+01    2.5736290092180227E+00
Ga    1.6999487558247701E+00    8.5619935002362819E+00    3.2079589217214735E+00
N    1.6776774528926428E+00    8.4646542198236858E+00    5.2070046780080830E+00
Ga    1.6545464611678031E+00    1.0338796435548199E+01    5.8132273982189240E+00
N    1.6694915021680896E+00    1.0331306727658214E+01    7.8274616016792509E+00
Ga    1.6950602540986111E+00    8.4850628848385288E+00    8.4803133600762699E+00
N    1.6929206546860505E+00    8.4823202156122779E+00    1.0475444340081062E+01
Ga    1.6685591097265291E+00    1.0342478331788080E+01    1.1111812351191633E+01
N    1.6499615597435757E+00    1.0351452714838496E+01    1.3108425615751067E+01
Ga    1.6925238124516906E+00    8.4831382323726068E+00    1.3666481941150142E+01
N    1.6655090353269228E+00    8.4668861386272258E+00    1.5628955609146384E+01
Ga    1.8394393414253469E+00    1.0242105193680699E+01    1.6528627033680515E+01
N    3.2888928510350905E+00    9.4133219147183667E+00    1.7664399553461703E+01
N    9.7473228438004043E+00    1.9380359948187811E+00    2.6489071796164434E+00
Ga    9.6687966936645005E+00    1.4408447210265829E-01    3.2982080494520543E+00
N    9.7184697349861082E+00    1.2004740547525455E-01    5.2890940346399340E+00
Ga    9.7239905829162758E+00    1.9677155596701241E+00    5.9038773032119476E+00
N    9.7193985373795257E+00    1.9780143663939587E+00    7.8881290705193292E+00
Ga    9.7194176024534951E+00    1.0588760924967078E-01    8.4648425787088346E+00
N    9.7203178170714466E+00    1.0865108031027058E-01    1.0468213984248088E+01
Ga    9.7209583182896555E+00    1.9760214176630835E+00    1.1070413684192898E+01
N    9.7209691616355762E+00    1.9769405327714211E+00    1.3044316410003040E+01
Ga    9.7211978468969367E+00    1.0761318581135652E-01    1.3666760667645168E+01
N    9.7207481347277440E+00    1.3997158871090662E-01    1.5630548427853006E+01
Ga    9.7207281539024297E+00    1.9778619656558514E+00    1.5909242960597597E+01
N    8.0020027871367709E+00    4.7033625084955952E+00    2.5665851890597846E+00
Ga    8.2298405374928816E+00    2.8277106195603574E+00    3.3036216122455766E+00
N    8.1127317522034943E+00    2.9020007684409532E+00    5.2762654812331435E+00
Ga    8.1427695816657053E+00    4.7745343966063158E+00    5.8342414743289330E+00
N    8.1234719318038309E+00    4.7677384972949364E+00    7.8361863638964850E+00
Ga    8.1088882428214237E+00    2.9143966891903119E+00    8.4855399620026759E+00
N    8.1032619352671897E+00    2.9140922278398014E+00    1.0479867938189717E+01
Ga    8.1268770028505966E+00    4.7733918678466729E+00    1.1113466786105718E+01
N    8.1440221996755593E+00    4.7816127975569716E+00    1.3109605401539628E+01
Ga    8.1027314298257078E+00    2.9124333810166592E+00    1.3666475189045427E+01
N    8.1284957287497317E+00    2.8963764663940119E+00    1.5629263958026916E+01
Ga    7.9541102418365712E+00    4.6716188286479028E+00    1.6527911200746590E+01
N    6.4965165454210378E+00    7.5716025845841086E+00    2.6371213382527823E+00
Ga    6.5063957409811692E+00    5.8455517118165075E+00    3.3474146325602328E+00
N    6.5066141021823869E+00    5.6973661955716643E+00    5.3045903686236766E+00
Ga    6.4832134657775455E+00    7.5751477385639294E+00    5.8737991511323981E+00
N    6.4973662826345802E+00    7.5545628681460375E+00    7.8667260217508073E+00
Ga    6.5092699761404145E+00    5.6900020943860223E+00    8.4703422151564958E+00
N    6.5062034563475182E+00    5.6819975284240796E+00    1.0469956292941728E+01
Ga    6.5043990925012789E+00    7.5495061823798881E+00    1.1068537134998799E+01
N    6.5047821599187632E+00    7.5484929537218202E+00    1.3042707655119363E+01
Ga    6.5054675689281760E+00    5.6795773417147259E+00    1.3667725914401705E+01
N    6.5052138463517348E+00    5.7115634146603389E+00    1.5631344300307743E+01
Ga    6.5041501212733293E+00    7.5491526346059743E+00    1.5909517257304644E+01
N    4.8638198911902295E+00    1.0380838986665859E+01    2.5369691822469322E+00
Ga    4.9486984507169698E+00    8.5121186162966165E+00    3.1574272897477353E+00
N    4.8812540075948077E+00    8.4868407426759713E+00    5.1950449971289894E+00
Ga    4.9125567067871199E+00    1.0338971663482406E+01    5.8186857385081767E+00
N    4.9061107194116129E+00    1.0334940782718416E+01    7.8300006343502542E+00
Ga    4.8858747389620785E+00    8.4840277736690464E+00    8.4724280860001535E+00
N    4.8853808674130423E+00    8.4819758667057457E+00    1.0470930618769179E+01
Ga    4.9084860090076354E+00    1.0341235208672668E+01    1.1109750271664065E+01
N    4.9273099771712046E+00    1.0351213517884883E+01    1.3107107206979357E+01
Ga    4.8858095873094376E+00    8.4831137309834457E+00    1.3665535643353598E+01
N    4.9116898360476915E+00    8.4668921653473017E+00    1.5628177453770743E+01
Ga    4.7375328754603592E+00    1.0241940133569035E+01    1.6528069556897258E+01
O    7.5085020485415332E-01    3.7108017529774671E+00   -2.8145409063100835E-01
H    2.5628848652093228E+00    3.3900170447935349E+00    1.8612615861522888E-01
C    1.6473662122106780E-01    2.7433107188006467E+00   -1.1706379575078212E+00
H    3.0750262843594597E-02    1.7588072908884509E+00   -6.8949436528594799E-01
H   -8.1278245980873332E-01    3.0829073095000807E+00   -1.5446581367799110E+00
H    8.4353212242869069E-01    2.6201226388949208E+00   -2.0262622949962927E+00
Ga    3.2694082191402263E+00    5.6088949839498099E+00    3.0467245739177464E+00
O    3.4526282656540892E+00    3.0664665141184853E+00    4.7664119490891310E-01
H    1.0270559388120732E-02    7.5083580624215722E+00    1.6830177404522246E+00
C    3.2859429813859045E+00    1.8429848536574625E+00    1.1685996255438069E+00
H    4.1358344991215832E+00    1.2009226495159770E+00    8.9085427343366663E-01
H    3.2805177946085844E+00    7.5839995160716693E+00    1.7303915533034633E+00
H    2.3524716829215224E+00    1.3456966094085787E+00    8.6002575137068926E-01
     &END COORD
     &KIND C
       BASIS_SET DZVP-MOLOPT-SR-GTH-q4
       POTENTIAL GTH-PBE-q4
       &POTENTIAL
2 2
0.3384712400000000E+00 2 -0.8803673979999999E+01  0.1339210850000000E+01
2
0.3025757500000000E+00 1  0.9622486650000001E+01
0.2915069400000000E+00 0
       &END POTENTIAL
     &END KIND
     &KIND O
       BASIS_SET DZVP-MOLOPT-SR-GTH-q6
       POTENTIAL GTH-PBE-q6
       &POTENTIAL
2 4
0.2445543000000000E+00 2 -0.1666721480000000E+02  0.2487311320000000E+01
2
0.2209559200000000E+00 1  0.1833745811000000E+02
0.2113324700000000E+00 0
       &END POTENTIAL
     &END KIND
     &KIND H
       BASIS_SET DZVP-MOLOPT-SR-GTH-q1
       POTENTIAL GTH-PBE-q1
       &POTENTIAL
1
0.2000000000000000E+00 2 -0.4178900440000000E+01  0.7244633100000000E+00
0
       &END POTENTIAL
     &END KIND
     &KIND N
       BASIS_SET DZVP-MOLOPT-SR-GTH
       POTENTIAL GTH-PBE-q5
       &POTENTIAL
2 3
0.2837905100000000E+00 2 -0.1241522559000000E+02  0.1868095920000000E+01
2
0.2554050000000000E+00 1  0.1363026257000000E+02
0.2454945300000000E+00 0
       &END POTENTIAL
     &END KIND
     &KIND Ga
       BASIS_SET DZVP-MOLOPT-SR-GTH
       POTENTIAL GTH-PBE-q13
       &POTENTIAL
2 1 10
0.4900000000000000E+00 0
3
0.4167772300000000E+00 3  0.1047568975000000E+02 -0.4921768140000000E+01  0.8707055900000000E+00
0.7770178090000000E+01 -0.2248152160000000E+01
0.1784415450000000E+01
0.5696265200000000E+00 2  0.1777985340000000E+01  0.1958597600000000E+00
-0.2317443900000000E+00
0.2381265000000000E+00 1 -0.1624868022000000E+02
       &END POTENTIAL
     &END KIND
     &TOPOLOGY
       NUMBER_OF_ATOMS  212
       MULTIPLE_UNIT_CELL  1 1 1
     &END TOPOLOGY
     &COLVAR
       &DISTANCE
         ATOMS  127 211
       &END DISTANCE
       &PRINT
       &END PRINT
     &END COLVAR
   &END SUBSYS
 &END FORCE_EVAL
