 # Version information for this restart file 
 # current date 2019-07-12 20:40:45.574
 # current working dir /lustre04/scratch/rzk/rzk/GaN-carbene/443-adatoms-both-2x2/09-BondBreaking-CH/02-0401-CH-to-NTop-PES
 # Program compiled at                              Sun Apr  7 00:48:11 EDT 2019
 # Program compiled on                          beluga2.int.ets1.calculquebec.ca
 # Program compiled for                        Beluga-Linux-x86-64-intel-openmpi
 # Source code revision number                                         svn:18619
 &GLOBAL
   PRINT_LEVEL  MEDIUM
   PROJECT_NAME TEST
   RUN_TYPE  GEO_OPT
 &END GLOBAL
 &MOTION
   &GEO_OPT
     MAX_ITER  500
     STEP_START_VAL  86
   &END GEO_OPT
   &CONSTRAINT
     &COLLECTIVE
       COLVAR  1
       INTERMOLECULAR  T
       TARGET     2.6456165860399001E+00
       &RESTRAINT
         K     2.0000000000000000E+00
       &END RESTRAINT
     &END COLLECTIVE
     &COLVAR_RESTART
           2.6456165860399001E+00
     &END COLVAR_RESTART
   &END CONSTRAINT
 &END MOTION
 &FORCE_EVAL
   METHOD  QS
   STRESS_TENSOR  ANALYTICAL
   &DFT
     BASIS_SET_FILE_NAME BASIS_MOLOPT
     POTENTIAL_FILE_NAME GTH_POTENTIALS
     UKS  T
     SURFACE_DIPOLE_CORRECTION  T
     SURF_DIP_DIR  Z
     &SCF
       MAX_SCF  80
       EPS_SCF     5.0000000000000004E-06
       &OT  T
         PRECONDITIONER  FULL_ALL
       &END OT
       &OUTER_SCF  T
         OPTIMIZER  NONE
         EPS_SCF     5.0000000000000004E-06
         MAX_SCF  4
       &END OUTER_SCF
       &PRINT
         &RESTART  OFF
           BACKUP_COPIES  1
           &EACH
             JUST_ENERGY  0
             QS_SCF  0
             MD  20
           &END EACH
         &END RESTART
       &END PRINT
     &END SCF
     &QS
       EPS_DEFAULT     1.0000000000000000E-14
       METHOD  GPW
     &END QS
     &MGRID
       NGRIDS  5
       CUTOFF     1.2000000000000000E+03
     &END MGRID
     &XC
       DENSITY_CUTOFF     1.0000000000000000E-10
       GRADIENT_CUTOFF     1.0000000000000000E-10
       TAU_CUTOFF     1.0000000000000000E-10
       &XC_FUNCTIONAL  NO_SHORTCUT
         &PBE  T
         &END PBE
       &END XC_FUNCTIONAL
       &VDW_POTENTIAL
         POTENTIAL_TYPE  PAIR_POTENTIAL
         &PAIR_POTENTIAL
           R_CUTOFF     1.0000000000000009E+01
           TYPE  DFTD3
           PARAMETER_FILE_NAME dftd3.dat
           REFERENCE_FUNCTIONAL PBE
           EPS_CN     9.9999999999999995E-07
           CALCULATE_C9_TERM  T
           REFERENCE_C9_TERM  T
           LONG_RANGE_CORRECTION  F
           VERBOSE_OUTPUT  F
         &END PAIR_POTENTIAL
       &END VDW_POTENTIAL
     &END XC
   &END DFT
   &SUBSYS
     &CELL
       A     1.2864472766435110E+01    0.0000000000000000E+00    0.0000000000000000E+00
       B    -6.4322363581020028E+00    1.1140960178524477E+01    0.0000000000000000E+00
       C     0.0000000000000000E+00    0.0000000000000000E+00    3.2000000000000000E+01
       MULTIPLE_UNIT_CELL  1 1 1
       &CELL_REF
         A     1.2982353780853531E+01    0.0000000000000000E+00    0.0000000000000000E+00
         B    -6.4911768904267628E+00    1.1243048175136114E+01    0.0000000000000000E+00
         C     0.0000000000000000E+00    0.0000000000000000E+00    3.2000000000000000E+01
         MULTIPLE_UNIT_CELL  1 1 1
       &END CELL_REF
     &END CELL
     &COORD
N    2.6149992073667437E-02    1.9813311637324811E+00    2.5046401681334931E+00
Ga   -1.1128399187639206E-03    2.1699249061184492E-02    2.8951353728777911E+00
N    2.6707050792327634E-02   -1.7746041834569737E-02    5.0447716450161844E+00
Ga    8.1915923977163019E-03    1.7998899803784243E+00    5.8232164814438532E+00
N    1.0781238199811425E-02    1.8169328674019201E+00    7.8201276926625827E+00
Ga    7.5956388861173679E-03   -3.4224315018734859E-02    8.4464829123760019E+00
N    1.3173305971922854E-02   -3.0979770930858734E-02    1.0423945966397703E+01
Ga    1.3079510124875139E-02    1.8085635217384601E+00    1.1074253184354967E+01
N    1.4560888637839043E-02    1.7903836589966264E+00    1.3069350615548519E+01
Ga    1.4024093612224254E-02   -2.9545263833945686E-02    1.3867794507413755E+01
N    1.5479149179034571E-02   -2.7866642899191295E-02    1.6073405401831501E+01
Ga    1.5680152546268512E-02    2.0158573850298662E+00    1.6482095022056004E+01
Ga    4.7636549696545370E-02    3.6890889467763648E+00    1.4060055048183719E+00
N   -1.4570461265998271E+00    4.5537730469690869E+00    2.5139941134163326E+00
Ga   -1.6616934619609387E+00    2.6966755194479255E+00    3.2717467410566083E+00
N   -1.5958114980071212E+00    2.7570579442192047E+00    5.2534025271955720E+00
Ga   -1.6230211467259754E+00    4.6233020101882074E+00    5.8073575034232068E+00
N   -1.6042444994666187E+00    4.6203644016665733E+00    7.8048036066925812E+00
Ga   -1.5862041045753827E+00    2.7624894559171671E+00    8.4486747161039730E+00
N   -1.5826982096982447E+00    2.7648176843780932E+00    1.0442168989443578E+01
Ga   -1.6094232426042070E+00    4.6229288968140425E+00    1.1075912331184828E+01
N   -1.6251525773107258E+00    4.6320165122436956E+00    1.3070546365771147E+01
Ga   -1.5822964383575071E+00    2.7618249371782349E+00    1.3622978949557080E+01
N   -1.6073221705007805E+00    2.7457626564982665E+00    1.5586290292179953E+01
Ga   -1.4358998383481829E+00    4.5224639128375950E+00    1.6481701320550773E+01
N    1.5393843523378704E-02    3.6933471848385779E+00    1.7615943939894141E+01
N   -3.1946196959577167E+00    7.5270804449822108E+00    2.5322568185550156E+00
Ga   -3.1727955378596029E+00    5.5180194348843603E+00    2.8497192654083485E+00
N   -3.1989960107114648E+00    5.5435719535094599E+00    5.0143153527244317E+00
Ga   -3.2101137638178772E+00    7.3646060326580081E+00    5.8023970868053532E+00
N   -3.2018123035514336E+00    7.3878582737265628E+00    7.7959813317712516E+00
Ga   -3.2033812381491384E+00    5.5415916543349182E+00    8.4476681418534536E+00
N   -3.2016904060584888E+00    5.5423453268239511E+00    1.0422550153229068E+01
Ga   -3.2043211339581554E+00    7.3812649421573289E+00    1.1071859318518566E+01
N   -3.2017894731648489E+00    7.3620526256328285E+00    1.3066951088687500E+01
Ga   -3.2017676863902080E+00    5.5424549431737242E+00    1.3869987024693563E+01
N   -3.2005951790866600E+00    5.5429551071792513E+00    1.6073478829784207E+01
Ga   -3.2004578101714509E+00    7.5863952190570139E+00    1.6483581882674919E+01
Ga   -3.2241326649402429E+00    9.2821683593216289E+00    1.5467261993167607E+00
N   -4.7043221993739897E+00    1.0135515454905635E+01    2.5474287840890528E+00
Ga   -4.9448011290679226E+00    8.2776227832979661E+00    3.2876576224312672E+00
N   -4.8145409325321298E+00    8.3272073290796840E+00    5.2466749282840279E+00
Ga   -4.8396862564482497E+00    1.0199491707619183E+01    5.8133794200249449E+00
N   -4.8187523380921169E+00    1.0187878969953326E+01    7.8083946804495632E+00
Ga   -4.8088307144404432E+00    8.3293980956191245E+00    8.4299028445804804E+00
N   -4.8002089201576750E+00    8.3309184316163893E+00    1.0428248373754144E+01
Ga   -4.8270275587319480E+00    1.0188952522025600E+01    1.1072100051581494E+01
N   -4.8414984060589878E+00    1.0200486045877527E+01    1.3068167229668262E+01
Ga   -4.7983967971934760E+00    8.3324527362594125E+00    1.3624066251835819E+01
N   -4.8235448568065893E+00    8.3159337088711638E+00    1.5586799040658308E+01
Ga   -4.6517970191089049E+00    1.0092870437729866E+01    1.6482317436169687E+01
N   -3.2003453052416129E+00    9.2636220597271297E+00    1.7616666662667242E+01
N    3.2222478621005215E+00    1.8368031877690689E+00    2.6484537281350895E+00
Ga    3.2269059929140784E+00    9.8437366774946009E-02    3.3220816183200670E+00
N    3.2313621129871026E+00   -3.2497700099753724E-02    5.2779543293217905E+00
Ga    3.2259222321733110E+00    1.8256065474104302E+00    5.9072686271117574E+00
N    3.2322100289891873E+00    1.8250842734963728E+00    7.8785431737218312E+00
Ga    3.2273324699111221E+00   -4.3755820940914680E-02    8.4559383271891058E+00
N    3.2302566390017069E+00   -4.2926046663471204E-02    1.0447009104182007E+01
Ga    3.2307517933941217E+00    1.8279636366415914E+00    1.1037216630814942E+01
N    3.2314554908036781E+00    1.8275438765630094E+00    1.3009111158212887E+01
Ga    3.2306021929407369E+00   -4.3531795290386498E-02    1.3624579168541738E+01
N    3.2314769382753212E+00   -1.0443860963957862E-02    1.5588687474619331E+01
Ga    3.2319786876644914E+00    1.8282285075600289E+00    1.5862310513259180E+01
N    1.5132032641339883E+00    4.5332677958076735E+00    2.5982580857098529E+00
Ga    1.6886027781749984E+00    2.7010886861238457E+00    3.3193836586247443E+00
N    1.6228118689652848E+00    2.7463425081441848E+00    5.2935519721563473E+00
Ga    1.6417371892251553E+00    4.6120231429691501E+00    5.8413758981898098E+00
N    1.6278047267915743E+00    4.6170091666080202E+00    7.8271317222540704E+00
Ga    1.6102053437173369E+00    2.7577890058264884E+00    8.4565116930314748E+00
N    1.6116554874348408E+00    2.7621910832525156E+00    1.0448063963279688E+01
Ga    1.6385011629631301E+00    4.6239512732578500E+00    1.1073263612222512E+01
N    1.6551553642320538E+00    4.6321798652644999E+00    1.3069257322096599E+01
Ga    1.6109784973974828E+00    2.7626384445861536E+00    1.3623822410696331E+01
N    1.6383223523034904E+00    2.7460594731280188E+00    1.5586896768811767E+01
Ga    1.4676907812387883E+00    4.5226181416783247E+00    1.6482077204987064E+01
N    2.9957387854675010E-02    7.3977531623352712E+00    2.6718998755470191E+00
Ga    3.4444414935215405E-02    5.5591606343518460E+00    3.3483549539705035E+00
N    1.4999662817716222E-02    5.5599665108836485E+00    5.2827830630724115E+00
Ga    4.4218701673512759E-02    7.4102675165818237E+00    5.8892348068774689E+00
N    1.9553059857042015E-02    7.4031698176995615E+00    7.8569511973839621E+00
Ga    1.0880124121948184E-02    5.5333298321620319E+00    8.4486134423249162E+00
N    1.2885772263792099E-02    5.5313375126480437E+00    1.0441095381611140E+01
Ga    1.6037826654630796E-02    7.3999063035211794E+00    1.1032937796360173E+01
N    1.5745792304893948E-02    7.3990103713817286E+00    1.3005276463228693E+01
Ga    1.5317463788784220E-02    5.5285503963568425E+00    1.3624829883228584E+01
N    1.5878020758010324E-02    5.5604725249247204E+00    1.5588890827108866E+01
Ga    1.5947909751262035E-02    7.3987159135040637E+00    1.5864731747931591E+01
N   -1.7023092829801953E+00    1.0122474577729710E+01    2.5437021928305983E+00
Ga   -1.5394116273457561E+00    8.3078221639551533E+00    3.3376639742201690E+00
N   -1.5792139123175695E+00    8.3200262961668106E+00    5.2631852318787340E+00
Ga   -1.5692055886867675E+00    1.0204073331410319E+01    5.8317369406745083E+00
N   -1.5873446535419204E+00    1.0184855631040438E+01    7.8193260105967939E+00
Ga   -1.6033981235102013E+00    8.3292275855643592E+00    8.4481072841511349E+00
N   -1.6047293860615870E+00    8.3310964023604672E+00    1.0439401290075947E+01
Ga   -1.5771832901400176E+00    1.0191144449007320E+01    1.1075996586621828E+01
N   -1.5607191086414931E+00    1.0201165503871172E+01    1.3070663122155421E+01
Ga   -1.6046368531618702E+00    8.3322162638388235E+00    1.3624313564900474E+01
N   -1.5776398204092941E+00    8.3157023775276766E+00    1.5587014705276815E+01
Ga   -1.7487970024223316E+00    1.0093017225687046E+01    1.6482153522573903E+01
N    6.4441744975477029E+00    1.9532440663418915E+00    2.5608100321987592E+00
Ga    6.4781267184132085E+00   -2.7004215877173107E-02    2.9028971758924471E+00
N    6.4277832851184007E+00   -2.1470509994590804E-02    5.0671318211700545E+00
Ga    6.4537494618059661E+00    1.7983546517188689E+00    5.8279750330181459E+00
N    6.4505836730625523E+00    1.8181286980589340E+00    7.8213983527021460E+00
Ga    6.4515665284010195E+00   -3.2794519139377573E-02    8.4526401846361416E+00
N    6.4482998426234932E+00   -3.0498613692921592E-02    1.0427618861919706E+01
Ga    6.4494368405119085E+00    1.8100554628324259E+00    1.1075330436109871E+01
N    6.4483610445004969E+00    1.7907349692054493E+00    1.3069756073082747E+01
Ga    6.4484445139741986E+00   -2.8746143103452842E-02    1.3869782552840487E+01
N    6.4484673583986893E+00   -2.7524989697977544E-02    1.6073804938737496E+01
Ga    6.4483631277494329E+00    2.0174044401834168E+00    1.6483150779060097E+01
Ga    6.4383812198814612E+00    3.6763202378061139E+00    1.5751913234931254E+00
N    4.9468077384655986E+00    4.5315192974193028E+00    2.5739907289098101E+00
Ga    4.7394714679381034E+00    2.6823383793684044E+00    3.3379823989035549E+00
N    4.8395626864844248E+00    2.7497480810145958E+00    5.2933521594870339E+00
Ga    4.8282338955399986E+00    4.6194731117007235E+00    5.8385571769858871E+00
N    4.8343945758107676E+00    4.6165888398815254E+00    7.8239309380864146E+00
Ga    4.8514163949670976E+00    2.7597854789879372E+00    8.4583460461276552E+00
N    4.8505775075734610E+00    2.7625223084591410E+00    1.0448640513365580E+01
Ga    4.8260424608779804E+00    4.6254731819537636E+00    1.1070717226937347E+01
N    4.8082876122363771E+00    4.6326015670639347E+00    1.3067307633894478E+01
Ga    4.8519963313912688E+00    2.7634450065188028E+00    1.3623491047453197E+01
N    4.8251533096899637E+00    2.7461952795909395E+00    1.5586345743255722E+01
Ga    4.9978001598947737E+00    4.5220424681928355E+00    1.6483015892270089E+01
N    6.4486954617979340E+00    3.6936292459778617E+00    1.7617289222436980E+01
N    3.2053969344067235E+00    7.3443847556958683E+00    2.5705000208025579E+00
N    3.2348851993397933E+00    5.5112387907772558E+00    5.0976354942803530E+00
Ga    3.2361511765016080E+00    7.3874751133166150E+00    5.7602324080733300E+00
N    3.2296877416459537E+00    7.3920564812994627E+00    7.7758555166935235E+00
Ga    3.2314833980752362E+00    5.5507715552555492E+00    8.4449667267979986E+00
N    3.2313805308529098E+00    5.5445784004408329E+00    1.0422355030521381E+01
Ga    3.2330264939107689E+00    7.3818196703654877E+00    1.1073353505661945E+01
N    3.2319178220321065E+00    7.3621910801959567E+00    1.3068081083169595E+01
Ga    3.2320029064596292E+00    5.5423398372865131E+00    1.3869003908979833E+01
N    3.2323028537546352E+00    5.5430526724881144E+00    1.6073732937211378E+01
Ga    3.2322490949265879E+00    7.5869187387729937E+00    1.6483492871912539E+01
Ga    3.6276070090143104E+00    1.0643822757754746E+01    7.0523702728582915E-01
N    1.6913798785202807E+00    1.0202022686637529E+01    2.5120136665800699E+00
Ga    1.6587089559088180E+00    8.4006695764340407E+00    3.1650828963086108E+00
N    1.6160349529902147E+00    8.3230107192101119E+00    5.1728201055571708E+00
Ga    1.5919598609102046E+00    1.0186039582947243E+01    5.7895820550177612E+00
N    1.6096408010144383E+00    1.0181003100241316E+01    7.7956176942013000E+00
Ga    1.6403363968763474E+00    8.3330351455689904E+00    8.4438315991001875E+00
N    1.6356991449392246E+00    8.3319317300019886E+00    1.0437373515173936E+01
Ga    1.6118063889422862E+00    1.0192256713450700E+01    1.1071240615388142E+01
N    1.5925210240284982E+00    1.0201626165324031E+01    1.3067671358807759E+01
Ga    1.6356500900662954E+00    8.3335185699514955E+00    1.3624131320800332E+01
N    1.6090464045451556E+00    8.3163044687143994E+00    1.5586950050949506E+01
Ga    1.7811741279408970E+00    1.0092945198253203E+01    1.6482789868154867E+01
N    3.2323752351172996E+00    9.2639137552384181E+00    1.7616791963998395E+01
N    9.6860243441075617E+00    1.7796242171760168E+00    2.6242885011284871E+00
Ga    9.6352567579827877E+00    2.8280713672425542E-03    3.3214389780596449E+00
N    9.6598504080053011E+00   -2.8615196488044618E-02    5.2835437573160888E+00
Ga    9.6717021247187311E+00    1.8257460143170952E+00    5.8832257939096406E+00
N    9.6632531290385373E+00    1.8296521471161522E+00    7.8603406576540458E+00
Ga    9.6649073213582586E+00   -4.5859163945725673E-02    8.4228406090057923E+00
N    9.6636278821517543E+00   -4.2226208175938106E-02    1.0426805069983804E+01
Ga    9.6632473386927789E+00    1.8260846897701442E+00    1.1027311493613240E+01
N    9.6635782735100726E+00    1.8266268464749715E+00    1.3001924134058667E+01
Ga    9.6638684692327637E+00   -4.2465396908737019E-02    1.3623831547530379E+01
N    9.6644865470224079E+00   -1.0185906842572933E-02    1.5588066012536848E+01
Ga    9.6640585374198480E+00    1.8278927756451480E+00    1.5864062953839756E+01
N    7.9497220335901941E+00    4.5509452068795069E+00    2.5454883358990843E+00
Ga    8.1797274420666160E+00    2.6744169820546131E+00    3.2943880658127735E+00
N    8.0617147018375661E+00    2.7528682539046483E+00    5.2570133090743028E+00
Ga    8.0782950355489653E+00    4.6293173150322025E+00    5.7934307700538783E+00
N    8.0647490936345925E+00    4.6207596625540495E+00    7.7951646307766165E+00
Ga    8.0490115820680312E+00    2.7649793208488811E+00    8.4466209007115864E+00
N    8.0448935927383403E+00    2.7654762679427818E+00    1.0440420906100890E+01
Ga    8.0693893790530300E+00    4.6241234814498542E+00    1.1073546545298017E+01
N    8.0868435846571884E+00    4.6320371566166560E+00    1.3068695254063856E+01
Ga    8.0451900640304661E+00    2.7622183297620317E+00    1.3623003521872894E+01
N    8.0715306376552132E+00    2.7459786923478937E+00    1.5585876343202852E+01
Ga    7.8987360926466152E+00    4.5220564525075870E+00    1.6482651888934157E+01
N    6.4305690062695797E+00    7.4101721632409836E+00    2.5701402493309971E+00
Ga    6.4258015823501244E+00    5.6846517355655797E+00    3.2939888002183784E+00
N    6.4437690588206378E+00    5.5480904668099003E+00    5.2534798840615933E+00
Ga    6.4081576710266646E+00    7.4192318828034090E+00    5.8334535796564699E+00
N    6.4379474496532607E+00    7.4032708808390497E+00    7.8238500554778163E+00
Ga    6.4508410600640724E+00    5.5404877937051022E+00    8.4349216755480043E+00
N    6.4496270982544068E+00    5.5332543816308064E+00    1.0432095860198752E+01
Ga    6.4457448246272868E+00    7.4006895639643941E+00    1.1027645344063236E+01
N    6.4471148147089590E+00    7.3991594687623854E+00    1.3001283876508143E+01
Ga    6.4472288642995679E+00    5.5294562394437090E+00    1.3623868871804683E+01
N    6.4479725026178798E+00    5.5608528154951467E+00    1.5587684273650563E+01
Ga    6.4476414021248756E+00    7.3985475139745578E+00    1.5865381604415145E+01
N    4.7676298933500796E+00    1.0226658146381954E+01    2.4672357147284387E+00
Ga    4.8613493157325625E+00    8.3499211748301185E+00    3.0498859253759263E+00
N    4.8217110978674107E+00    8.3336538227753501E+00    5.1316552254454662E+00
Ga    4.8654689809628735E+00    1.0179433449644463E+01    5.7684617322200946E+00
N    4.8508450083465267E+00    1.0181499770400864E+01    7.7836230057500968E+00
Ga    4.8255169564151332E+00    8.3326370937310248E+00    8.4298656064130739E+00
N    4.8272246820448332E+00    8.3319826205191578E+00    1.0428869176675212E+01
Ga    4.8513041787637370E+00    1.0190793955137922E+01    1.1068406883271198E+01
N    4.8700023627621682E+00    1.0200995652846913E+01    1.3065779319627300E+01
Ga    4.8283340808401523E+00    8.3332177711274298E+00    1.3623404548483295E+01
N    4.8549958325228211E+00    8.3165364686468379E+00    1.5586202194579176E+01
Ga    4.6832835411421829E+00    1.0092885678084837E+01    1.6482605995286509E+01
O    4.0908807761218458E-01    4.1375701730919312E+00   -3.5780945374746004E-01
H    1.0405350620003093E+00    5.7085399272385438E+00   -2.1808915263887665E-01
C    1.3160071345469833E+00    3.2529894075034917E+00   -1.0519099617452963E+00
H    2.2327899613243245E+00    3.0568242518491200E+00   -4.7055935621103412E-01
H    8.3208203401412484E-01    2.2906733784291520E+00   -1.2770510154657009E+00
H    1.5908453100869517E+00    3.7339816481570218E+00   -2.0013273617001688E+00
Ga    3.2041327094924821E+00    5.4412873617403008E+00    3.0272455830588609E+00
O    1.2499111870701736E+00    6.6983161668962783E+00   -1.8095737814833096E-01
H    4.1369554977870749E-03    7.3457143670241321E+00    1.6437908560308738E+00
C    2.6011948117572516E+00    6.9427702633197219E+00   -4.1455624581250211E-02
H    2.8823145586549850E+00    7.8941519530207076E+00   -5.1498062460808514E-01
H    2.9298049005719151E+00    7.1966923773133464E+00    1.2069646144647488E+00
H    3.2622699040314957E+00    6.1040659572730922E+00   -2.9657312693932747E-01
     &END COORD
     &KIND C
       BASIS_SET DZVP-MOLOPT-SR-GTH-q4
       POTENTIAL GTH-PBE-q4
       &POTENTIAL
2 2
0.3384712400000000E+00 2 -0.8803673979999999E+01  0.1339210850000000E+01
2
0.3025757500000000E+00 1  0.9622486650000001E+01
0.2915069400000000E+00 0
       &END POTENTIAL
     &END KIND
     &KIND O
       BASIS_SET DZVP-MOLOPT-SR-GTH-q6
       POTENTIAL GTH-PBE-q6
       &POTENTIAL
2 4
0.2445543000000000E+00 2 -0.1666721480000000E+02  0.2487311320000000E+01
2
0.2209559200000000E+00 1  0.1833745811000000E+02
0.2113324700000000E+00 0
       &END POTENTIAL
     &END KIND
     &KIND H
       BASIS_SET DZVP-MOLOPT-SR-GTH-q1
       POTENTIAL GTH-PBE-q1
       &POTENTIAL
1
0.2000000000000000E+00 2 -0.4178900440000000E+01  0.7244633100000000E+00
0
       &END POTENTIAL
     &END KIND
     &KIND N
       BASIS_SET DZVP-MOLOPT-SR-GTH
       POTENTIAL GTH-PBE-q5
       &POTENTIAL
2 3
0.2837905100000000E+00 2 -0.1241522559000000E+02  0.1868095920000000E+01
2
0.2554050000000000E+00 1  0.1363026257000000E+02
0.2454945300000000E+00 0
       &END POTENTIAL
     &END KIND
     &KIND Ga
       BASIS_SET DZVP-MOLOPT-SR-GTH
       POTENTIAL GTH-PBE-q13
       &POTENTIAL
2 1 10
0.4900000000000000E+00 0
3
0.4167772300000000E+00 3  0.1047568975000000E+02 -0.4921768140000000E+01  0.8707055900000000E+00
0.7770178090000000E+01 -0.2248152160000000E+01
0.1784415450000000E+01
0.5696265200000000E+00 2  0.1777985340000000E+01  0.1958597600000000E+00
-0.2317443900000000E+00
0.2381265000000000E+00 1 -0.1624868022000000E+02
       &END POTENTIAL
     &END KIND
     &TOPOLOGY
       NUMBER_OF_ATOMS  212
       MULTIPLE_UNIT_CELL  1 1 1
     &END TOPOLOGY
     &COLVAR
       &DISTANCE
         ATOMS  127 211
       &END DISTANCE
       &PRINT
       &END PRINT
     &END COLVAR
   &END SUBSYS
 &END FORCE_EVAL
