 # Version information for this restart file 
 # current date 2019-07-07 15:47:32.179
 # current working dir /lustre04/scratch/rzk/rzk/GaN-carbene/443-adatoms-both-2x2/04-2Methanol/04-GaJumps1Ring-Attempt2
 # Program compiled at                              Sun Apr  7 00:48:11 EDT 2019
 # Program compiled on                          beluga2.int.ets1.calculquebec.ca
 # Program compiled for                        Beluga-Linux-x86-64-intel-openmpi
 # Source code revision number                                         svn:18619
 &GLOBAL
   PRINT_LEVEL  MEDIUM
   PROJECT_NAME TEST
   RUN_TYPE  GEO_OPT
 &END GLOBAL
 &MOTION
   &GEO_OPT
     MAX_ITER  500
     STEP_START_VAL  43
   &END GEO_OPT
 &END MOTION
 &FORCE_EVAL
   METHOD  QS
   STRESS_TENSOR  ANALYTICAL
   &DFT
     BASIS_SET_FILE_NAME BASIS_MOLOPT
     POTENTIAL_FILE_NAME GTH_POTENTIALS
     UKS  T
     SURFACE_DIPOLE_CORRECTION  T
     SURF_DIP_DIR  Z
     &SCF
       MAX_SCF  80
       EPS_SCF     5.0000000000000004E-06
       &OT  T
         PRECONDITIONER  FULL_ALL
       &END OT
       &OUTER_SCF  T
         OPTIMIZER  NONE
         EPS_SCF     5.0000000000000004E-06
         MAX_SCF  4
       &END OUTER_SCF
       &PRINT
         &RESTART  OFF
           BACKUP_COPIES  1
           &EACH
             JUST_ENERGY  0
             QS_SCF  0
             MD  20
           &END EACH
         &END RESTART
       &END PRINT
     &END SCF
     &QS
       EPS_DEFAULT     1.0000000000000000E-14
       METHOD  GPW
     &END QS
     &MGRID
       NGRIDS  5
       CUTOFF     1.2000000000000000E+03
     &END MGRID
     &XC
       DENSITY_CUTOFF     1.0000000000000000E-10
       GRADIENT_CUTOFF     1.0000000000000000E-10
       TAU_CUTOFF     1.0000000000000000E-10
       &XC_FUNCTIONAL  NO_SHORTCUT
         &PBE  T
         &END PBE
       &END XC_FUNCTIONAL
       &VDW_POTENTIAL
         POTENTIAL_TYPE  PAIR_POTENTIAL
         &PAIR_POTENTIAL
           R_CUTOFF     1.0000000000000004E+01
           TYPE  DFTD3
           PARAMETER_FILE_NAME dftd3.dat
           REFERENCE_FUNCTIONAL PBE
           EPS_CN     9.9999999999999995E-07
           CALCULATE_C9_TERM  T
           REFERENCE_C9_TERM  T
           LONG_RANGE_CORRECTION  F
           VERBOSE_OUTPUT  F
         &END PAIR_POTENTIAL
       &END VDW_POTENTIAL
     &END XC
   &END DFT
   &SUBSYS
     &CELL
       A     1.2864472766435110E+01    0.0000000000000000E+00    0.0000000000000000E+00
       B    -6.4322363581020028E+00    1.1140960178524473E+01    0.0000000000000000E+00
       C     0.0000000000000000E+00    0.0000000000000000E+00    3.2000000000000000E+01
       MULTIPLE_UNIT_CELL  1 1 1
       &CELL_REF
         A     1.2982353780853531E+01    0.0000000000000000E+00    0.0000000000000000E+00
         B    -6.4911768904267628E+00    1.1243048175136114E+01    0.0000000000000000E+00
         C     0.0000000000000000E+00    0.0000000000000000E+00    3.2000000000000000E+01
         MULTIPLE_UNIT_CELL  1 1 1
       &END CELL_REF
     &END CELL
     &COORD
N    9.5814295643470562E-02    1.9738035215493099E+00    2.5063956430480423E+00
Ga    7.9776181545450700E-02    7.3284371787706694E-03    2.8799666358643377E+00
N    9.2543277730427240E-02   -1.9774414963487010E-02    5.0473942239670766E+00
Ga    8.6875534044703398E-02    1.8110377201092951E+00    5.8072987699796430E+00
N    8.5556656513673487E-02    1.8210184278176917E+00    7.8090090571652233E+00
Ga    8.3965480105804916E-02   -1.9863338760827680E-02    8.4599150433183432E+00
N    8.5300416038338545E-02   -2.5732527984926180E-02    1.0432432694927309E+01
Ga    8.0294405152282561E-02    1.8161073633112599E+00    1.1072254602180490E+01
N    8.1515564746581975E-02    1.7945074981431077E+00    1.3067102056635171E+01
Ga    8.0890403768075728E-02   -2.3595912923813200E-02    1.3873762020782037E+01
N    8.1049593017236660E-02   -2.5290844417614131E-02    1.6073514919088719E+01
Ga    8.1092588214245101E-02    2.0292448768507563E+00    1.6499501923874810E+01
Ga    6.3118526492256813E-02    3.6927640922638183E+00    1.3821258861250236E+00
N   -1.3920737846654645E+00    4.5491826082327744E+00    2.5398742466394801E+00
Ga   -1.5912433982136736E+00    2.6854577140447868E+00    3.2763033672299171E+00
N   -1.5237873826150932E+00    2.7557528957388668E+00    5.2543035089887802E+00
Ga   -1.5501762963039982E+00    4.6212262398487560E+00    5.7989900780555645E+00
N   -1.5348878469419305E+00    4.6235763876392513E+00    7.7972700883706239E+00
Ga   -1.5226464427014070E+00    2.7594312325624517E+00    8.4238736139410566E+00
N   -1.5159423478678407E+00    2.7648195286784203E+00    1.0426367827604215E+01
Ga   -1.5392551194678428E+00    4.6225825829482448E+00    1.1064784310656259E+01
N   -1.5567358128767754E+00    4.6323589514549361E+00    1.3061684276956651E+01
Ga   -1.5150952441699022E+00    2.7646147463410808E+00    1.3624381743696107E+01
N   -1.5445043523153634E+00    2.7466141876147430E+00    1.5584345221953299E+01
Ga   -1.3541385727357877E+00    4.5134991605943862E+00    1.6499573258991809E+01
N    8.0655968419096599E-02    3.6889939512025971E+00    1.7643579476843104E+01
N   -3.1480157640162321E+00    7.5238009402497577E+00    2.5327302542911272E+00
Ga   -3.0958737059351251E+00    5.5107235392502147E+00    2.8509890621166667E+00
N   -3.1302517376110979E+00    5.5455241749410860E+00    5.0124483388343970E+00
Ga   -3.1367231041080603E+00    7.3653822935733348E+00    5.7938677943083707E+00
N   -3.1351365301621734E+00    7.3919515199179742E+00    7.7900034229842001E+00
Ga   -3.1333524894197997E+00    5.5430203873820449E+00    8.4398099388470502E+00
N   -3.1339317097608643E+00    5.5451259831885631E+00    1.0417003726434306E+01
Ga   -3.1298858627625052E+00    7.3809930527709993E+00    1.1076060547319731E+01
N   -3.1327484933587537E+00    7.3624114852739337E+00    1.3069150202902495E+01
Ga   -3.1276643862604039E+00    5.5422189288431740E+00    1.3869659368378569E+01
N   -3.1300590745165540E+00    5.5428710037934401E+00    1.6073456887122951E+01
Ga   -3.1338803385491811E+00    7.5880367026367805E+00    1.6485638631963557E+01
Ga   -3.1213377938834319E+00    9.2687122439861689E+00    1.5357114862192518E+00
N   -4.6310086411975790E+00    1.0128992056776088E+01    2.5193505110429562E+00
Ga   -4.8764202355240620E+00    8.2999242420768482E+00    3.2729053577144969E+00
N   -4.7580800801726264E+00    8.3214739794861607E+00    5.2332188971917626E+00
Ga   -4.7754092657582836E+00    1.0201268386908561E+01    5.8147186506941075E+00
N   -4.7526796974542895E+00    1.0186129132649215E+01    7.8093422044214700E+00
Ga   -4.7224913007694092E+00    8.3373685156872934E+00    8.4615712258911948E+00
N   -4.7264957228220048E+00    8.3366120704705082E+00    1.0447905757450924E+01
Ga   -4.7559831751373407E+00    1.0197055654229361E+01    1.1082004296726939E+01
N   -4.7735878361362420E+00    1.0203637209030983E+01    1.3074665903397621E+01
Ga   -4.7299293637915829E+00    8.3337432328335179E+00    1.3625358357797229E+01
N   -4.7576350028364525E+00    8.3141770440897016E+00    1.5588315685095566E+01
Ga   -4.5877454663333666E+00    1.0094782283834899E+01    1.6484171694213888E+01
N   -3.1391595860679047E+00    9.2632787956989286E+00    1.7619485978626614E+01
N    3.2950922643288498E+00    1.8355584058811802E+00    2.6383941200910073E+00
Ga    3.2911109800514322E+00    9.8440342303443340E-02    3.3118541595776367E+00
N    3.2925183343481903E+00   -3.1904062951104366E-02    5.2703079035078453E+00
Ga    3.2927693923101815E+00    1.8328168802944353E+00    5.8898081653378727E+00
N    3.3000410549692489E+00    1.8292617035549774E+00    7.8649310400057448E+00
Ga    3.2972428175320143E+00   -3.7840996302444800E-02    8.4496247888326188E+00
N    3.2978447572332628E+00   -3.9126226312398087E-02    1.0441878596387870E+01
Ga    3.2989523098822473E+00    1.8308586576747290E+00    1.1032801138958913E+01
N    3.2996994787603033E+00    1.8294378906511271E+00    1.3005945487457954E+01
Ga    3.3002918024875130E+00   -4.1280575437357518E-02    1.3624533461150280E+01
N    3.3016875386230895E+00   -9.6853198954576294E-03    1.5588750853710694E+01
Ga    3.2965959668241793E+00    1.8284892302079421E+00    1.5864652385176736E+01
N    1.5918465983810175E+00    4.5560930173466483E+00    2.5412715269107173E+00
Ga    1.7638051788881832E+00    2.7229998416126375E+00    3.2822840609839199E+00
N    1.6963611395538165E+00    2.7568663366992459E+00    5.2654559446734090E+00
Ga    1.7204716263902728E+00    4.6176697970706293E+00    5.8212918271328045E+00
N    1.7017408050862990E+00    4.6195411888462470E+00    7.8154253512746310E+00
Ga    1.6797333534349039E+00    2.7632081853536912E+00    8.4483209781813127E+00
N    1.6804087925062547E+00    2.7651565709106234E+00    1.0441774457122724E+01
Ga    1.7033568843802978E+00    4.6244240602311972E+00    1.1073480124601081E+01
N    1.7200948739587190E+00    4.6329756656178711E+00    1.3067702421331001E+01
Ga    1.6778679726801113E+00    2.7645007809605096E+00    1.3626327225476434E+01
N    1.7073911732359266E+00    2.7462660181755307E+00    1.5586098002642432E+01
Ga    1.5158663903437957E+00    4.5136546970373796E+00    1.6499208020336877E+01
N    1.0677939302887945E-01    7.3829653832722650E+00    2.6657951525680899E+00
Ga    1.1199456897664450E-01    5.5563047988642600E+00    3.3414601208478869E+00
N    8.8269852051390263E-02    5.5580035604358109E+00    5.2786281152089538E+00
Ga    1.2148900071780201E-01    7.4165648974996863E+00    5.8679429115738184E+00
N    8.8882062704401882E-02    7.4078228638709387E+00    7.8432728866918886E+00
Ga    8.2971346167817109E-02    5.5370024087517633E+00    8.4350049745212878E+00
N    8.2853254751601699E-02    5.5342900891941200E+00    1.0431637812706175E+01
Ga    8.2748485158345209E-02    7.4012528131857378E+00    1.1029906735938726E+01
N    8.1791908928135482E-02    7.4001975189044922E+00    1.3002206462699828E+01
Ga    8.0887604168987257E-02    5.5294917552339564E+00    1.3625169004006491E+01
N    8.0567813130172986E-02    5.5617024520737797E+00    1.5585729029695319E+01
Ga    8.1138211962265186E-02    7.3970845475801230E+00    1.5863851452456640E+01
N   -1.6432532347304520E+00    1.0116578522637068E+01    2.5473345690373494E+00
Ga   -1.4536155267344093E+00    8.2989859019015189E+00    3.3362241812729079E+00
N   -1.5124951618804723E+00    8.3239288986143070E+00    5.2598124997447000E+00
Ga   -1.5021164375256109E+00    1.0209172367235091E+01    5.8266077971650754E+00
N   -1.5213373942854451E+00    1.0187279258379343E+01    7.8139771192800813E+00
Ga   -1.5322478186937141E+00    8.3305981665496471E+00    8.4376065599194590E+00
N   -1.5364167760514007E+00    8.3322063749606823E+00    1.0432293464159695E+01
Ga   -1.5078416010208560E+00    1.0193795447560307E+01    1.1066038584766103E+01
N   -1.4934972680255150E+00    1.0202461395172694E+01    1.3063474933840537E+01
Ga   -1.5361873591809925E+00    8.3347015925527614E+00    1.3623575162625219E+01
N   -1.5111469023879793E+00    8.3182804402854718E+00    1.5586180025522525E+01
Ga   -1.6878848513213134E+00    1.0089912035993271E+01    1.6485227295781701E+01
N    6.5068770502307114E+00    1.9608506536042816E+00    2.5595368633714504E+00
Ga    6.5311588854394369E+00   -2.9859825416027976E-02    2.9091224215410669E+00
N    6.4844150393697637E+00   -1.1678588907545705E-02    5.0663479257876132E+00
Ga    6.5157285928911364E+00    1.8042624252876758E+00    5.8185406064327934E+00
N    6.5166395922719902E+00    1.8236547373563041E+00    7.8118627518600174E+00
Ga    6.5272723734298035E+00   -3.2787693075915045E-02    8.4283284482823007E+00
N    6.5171493682473436E+00   -2.8398107225119318E-02    1.0412482622123230E+01
Ga    6.5193207681160352E+00    1.8116801334637564E+00    1.1062468887225336E+01
N    6.5158224208916673E+00    1.7920019584027675E+00    1.3062588029994199E+01
Ga    6.5144574587518935E+00   -2.9436559258714027E-02    1.3862790903855284E+01
N    6.5136211478195918E+00   -2.9895523160007091E-02    1.6072712350351594E+01
Ga    6.5141648411025725E+00    1.9988198939594208E+00    1.6467985268411503E+01
Ga    6.5194291931926811E+00    3.6621642450828413E+00    1.5608274912622537E+00
N    5.0167577553686282E+00    4.5482987464996674E+00    2.5364118706667731E+00
Ga    4.8000681589813539E+00    2.7013978353169623E+00    3.3232628693756636E+00
N    4.9057670327124336E+00    2.7663457206953854E+00    5.2796724970947420E+00
Ga    4.8872926115800848E+00    4.6357298225343726E+00    5.8224701645060177E+00
N    4.9047411580092648E+00    4.6252081623511581E+00    7.8156712856838038E+00
Ga    4.9189132268977289E+00    2.7629776666770707E+00    8.4480901335755654E+00
N    4.9181391851219818E+00    2.7654846228398138E+00    1.0441642722708051E+01
Ga    4.8921832808449368E+00    4.6225074522470244E+00    1.1079928236146538E+01
N    4.8746140915588523E+00    4.6328866711030345E+00    1.3074646875759591E+01
Ga    4.9194575427473035E+00    2.7622370273621732E+00    1.3620446102983069E+01
N    4.8954836568936990E+00    2.7462705741984137E+00    1.5589204245442893E+01
Ga    5.0458350795574249E+00    4.5313134027808868E+00    1.6466962948235746E+01
N    6.5144872890523411E+00    3.6942716660177979E+00    1.7592138856933303E+01
N    3.4369913771827436E+00    7.4621636382750891E+00    2.5456561979180323E+00
N    3.3048134643676117E+00    5.5352709419093928E+00    5.0694368434809531E+00
Ga    3.2458134866321524E+00    7.3589879095284214E+00    5.8419128358538082E+00
N    3.2837297969696579E+00    7.3871904311355419E+00    7.8281439878770209E+00
Ga    3.2982674112425663E+00    5.5410560139422502E+00    8.4621975118473003E+00
N    3.3007119312799436E+00    5.5428093100441442E+00    1.0433651264242222E+01
Ga    3.2986500847702573E+00    7.3864017554117689E+00    1.1071524131217753E+01
N    3.2978591910793891E+00    7.3644343249439865E+00    1.3067403087373734E+01
Ga    3.2928795565695035E+00    5.5443603881194781E+00    1.3869172164654129E+01
N    3.2932024492640468E+00    5.5433367543860754E+00    1.6073603904646024E+01
Ga    3.2960829844484811E+00    7.5870098423525860E+00    1.6483868626477051E+01
Ga    4.8455737926606730E+00    8.3718652176523154E+00    1.1732249188124619E+00
N    1.6783224693818080E+00    1.0180063954662533E+01    2.4896835564598088E+00
Ga    1.7648596615461101E+00    8.3887361766732873E+00    3.0751541686868986E+00
N    1.6974254332541534E+00    8.3117582703499107E+00    5.1388843659056409E+00
Ga    1.6888236380466097E+00    1.0194283982625908E+01    5.7105050134540045E+00
N    1.6860527384229214E+00    1.0185580759154240E+01    7.7573885960364297E+00
Ga    1.6948928824615239E+00    8.3500528343498903E+00    8.4473202404027656E+00
N    1.6995919079872104E+00    8.3396955200835912E+00    1.0440090483612272E+01
Ga    1.6750484067988816E+00    1.0197915783938253E+01    1.1073078397797588E+01
N    1.6586590276642217E+00    1.0203528036245732E+01    1.3068054291638219E+01
Ga    1.7007535458380028E+00    8.3343732720161299E+00    1.3622555503713508E+01
N    1.6737991399011287E+00    8.3177511766061993E+00    1.5585792306266166E+01
Ga    1.8492582704613059E+00    1.0090445379026390E+01    1.6482420521661744E+01
N    3.3010101514688586E+00    9.2636110244489096E+00    1.7617589098940815E+01
N    9.7592101967768130E+00    1.8135398850958182E+00    2.6000907911780247E+00
Ga    9.7086507647557667E+00   -4.1822799959383102E-02    2.9870969119359625E+00
N    9.7450778449384856E+00   -4.0461296751171986E-02    5.1404629297692823E+00
Ga    9.7376167928096855E+00    1.7893596179320450E+00    5.8195398591170129E+00
N    9.7298178147145240E+00    1.8247024200290036E+00    7.8218078630728041E+00
Ga    9.7165475425584322E+00   -3.2625016710702726E-02    8.4315403089616332E+00
N    9.7263068591828503E+00   -3.7294776821291037E-02    1.0432459003350363E+01
Ga    9.7318188721721750E+00    1.8314132470521196E+00    1.1024344885298067E+01
N    9.7298010314233423E+00    1.8296761891906603E+00    1.2999818042818450E+01
Ga    9.7306426786380325E+00   -3.9937038256225244E-02    1.3622314960421146E+01
N    9.7266146368111084E+00   -9.8450894911592049E-03    1.5587555573709135E+01
Ga    9.7315903362187601E+00    1.8281962872879396E+00    1.5865008168300932E+01
N    8.0071898824810379E+00    4.5765084744328099E+00    2.5380090018208707E+00
Ga    8.2501935121833334E+00    2.6627977281207849E+00    3.2908543623150042E+00
N    8.1239738684128024E+00    2.7567108724550300E+00    5.2475061995389840E+00
Ga    8.1501543582288765E+00    4.6270277897414527E+00    5.7826174850394958E+00
N    8.1314817197712070E+00    4.6242237318577395E+00    7.7864424324064050E+00
Ga    8.1240147391568005E+00    2.7626808709756898E+00    8.4244071201763688E+00
N    8.1157014281093112E+00    2.7674738970327946E+00    1.0426762975655055E+01
Ga    8.1430702369764489E+00    4.6212641654794169E+00    1.1074104813468374E+01
N    8.1566897270745198E+00    4.6325681204484370E+00    1.3070553637403041E+01
Ga    8.1119419163797719E+00    2.7622907110873536E+00    1.3619260448011188E+01
N    8.1330461724904737E+00    2.7462303001275195E+00    1.5588374548936670E+01
Ga    7.9828576305283532E+00    4.5312898816936933E+00    1.6467464698397173E+01
N    6.3723038502568370E+00    7.4890910760834863E+00    2.6323137531632703E+00
Ga    6.4795578761297392E+00    5.6785536858994421E+00    3.2770438638588639E+00
N    6.5147975490899004E+00    5.5697607731160970E+00    5.2366156088105571E+00
Ga    6.5369298866562513E+00    7.3907723672701966E+00    5.9417993230272401E+00
N    6.5251490521350961E+00    7.3960333025828859E+00    7.8935070848620681E+00
Ga    6.5223345545383147E+00    5.5240552137810566E+00    8.4619445310197143E+00
N    6.5177879702885511E+00    5.5290968786629806E+00    1.0449487455415143E+01
Ga    6.5139858101387560E+00    7.4029208770117521E+00    1.1031527130219409E+01
N    6.5141748408422364E+00    7.3995987499453513E+00    1.3005693068514841E+01
Ga    6.5158557790412424E+00    5.5295083183503628E+00    1.3622037346407863E+01
N    6.5145276621910311E+00    5.5569882299573887E+00    1.5592443255139671E+01
Ga    6.5134033862370853E+00    7.3991796691307314E+00    1.5867236667065978E+01
N    4.9196615411440670E+00    1.0039449385548192E+01    2.5145271968722378E+00
Ga    4.8920882590064583E+00    8.3543950465709234E+00    3.5847172274832988E+00
N    4.9028333185445474E+00    8.3363029422578681E+00    5.4511998552981087E+00
Ga    4.9120794048134089E+00    1.0265775824266141E+01    5.8355541131868405E+00
N    4.9148641358575729E+00    1.0208428184986152E+01    7.8265559574436177E+00
Ga    4.8910122105739422E+00    8.3425133066965831E+00    8.4372269447571764E+00
N    4.8963201662624583E+00    8.3366777770680258E+00    1.0435810535444666E+01
Ga    4.9186685681325537E+00    1.0196984580433305E+01    1.1069125549811137E+01
N    4.9377010609111212E+00    1.0204242908773821E+01    1.3067350914687303E+01
Ga    4.8938633820608395E+00    8.3359267375474868E+00    1.3623611097615301E+01
N    4.9200824765728290E+00    8.3148373310832611E+00    1.5587515668995236E+01
Ga    4.7510916469111555E+00    1.0095258355976027E+01    1.6483118928976360E+01
O    7.7300132922429349E-02    4.1010883321992164E+00   -4.1179115044493780E-01
H   -1.6219352022916370E-01    5.9113027393311333E+00   -3.6293795575599253E-01
C    1.2360136766535104E+00    3.6907972385977565E+00   -1.1615836348941586E+00
H    2.1739186569507756E+00    4.0363607954761953E+00   -6.9801456156020691E-01
H    1.2808503925435226E+00    2.5961495845312346E+00   -1.2638463531248809E+00
H    1.1568637486823412E+00    4.1302664225750041E+00   -2.1654884508276266E+00
Ga    3.2873176309237095E+00    5.5289404214283078E+00    2.9198355072975382E+00
O   -2.0442918128225321E-01    6.8892623733385996E+00   -1.9149735969582443E-01
H   -3.1104857998252862E-02    7.2729291201920905E+00    1.6392240655531152E+00
C    1.0669646470789420E+00    7.4535978039020314E+00   -5.5396944611275911E-01
H    1.0641669863007879E+00    8.5037866156298971E+00   -2.3053132914990471E-01
H    1.8992353896351784E+00    6.9447993021782422E+00   -4.0637502818970432E-02
H    1.2361579067368296E+00    7.4149722089996670E+00   -1.6385571454150629E+00
     &END COORD
     &KIND C
       BASIS_SET DZVP-MOLOPT-SR-GTH-q4
       POTENTIAL GTH-PBE-q4
       &POTENTIAL
 2 2
  0.3384712400000000E+00 2 -0.8803673979999999E+01  0.1339210850000000E+01
 2
  0.3025757500000000E+00 1  0.9622486650000001E+01
  0.2915069400000000E+00 0
         # Potential name:  GTH-PBE-Q4  for symbol:  C
         # Potential read from the potential filename: GTH_POTENTIALS
       &END POTENTIAL
     &END KIND
     &KIND O
       BASIS_SET DZVP-MOLOPT-SR-GTH-q6
       POTENTIAL GTH-PBE-q6
       &POTENTIAL
 2 4
  0.2445543000000000E+00 2 -0.1666721480000000E+02  0.2487311320000000E+01
 2
  0.2209559200000000E+00 1  0.1833745811000000E+02
  0.2113324700000000E+00 0
         # Potential name:  GTH-PBE-Q6  for symbol:  O
         # Potential read from the potential filename: GTH_POTENTIALS
       &END POTENTIAL
     &END KIND
     &KIND H
       BASIS_SET DZVP-MOLOPT-SR-GTH-q1
       POTENTIAL GTH-PBE-q1
       &POTENTIAL
 1
  0.2000000000000000E+00 2 -0.4178900440000000E+01  0.7244633100000000E+00
 0
         # Potential name:  GTH-PBE-Q1  for symbol:  H
         # Potential read from the potential filename: GTH_POTENTIALS
       &END POTENTIAL
     &END KIND
     &KIND N
       BASIS_SET DZVP-MOLOPT-SR-GTH
       POTENTIAL GTH-PBE-q5
       &POTENTIAL
 2 3
  0.2837905100000000E+00 2 -0.1241522559000000E+02  0.1868095920000000E+01
 2
  0.2554050000000000E+00 1  0.1363026257000000E+02
  0.2454945300000000E+00 0
         # Potential name:  GTH-PBE-Q5  for symbol:  N
         # Potential read from the potential filename: GTH_POTENTIALS
       &END POTENTIAL
     &END KIND
     &KIND Ga
       BASIS_SET DZVP-MOLOPT-SR-GTH
       POTENTIAL GTH-PBE-q13
       &POTENTIAL
 2 1 10
  0.4900000000000000E+00 0
 3
  0.4167772300000000E+00 3  0.1047568975000000E+02 -0.4921768140000000E+01  0.8707055900000000E+00
  0.7770178090000000E+01 -0.2248152160000000E+01
  0.1784415450000000E+01
  0.5696265200000000E+00 2  0.1777985340000000E+01  0.1958597600000000E+00
 -0.2317443900000000E+00
  0.2381265000000000E+00 1 -0.1624868022000000E+02
         # Potential name:  GTH-PBE-Q13  for symbol:  GA
         # Potential read from the potential filename: GTH_POTENTIALS
       &END POTENTIAL
     &END KIND
     &TOPOLOGY
       NUMBER_OF_ATOMS  212
       MULTIPLE_UNIT_CELL  1 1 1
     &END TOPOLOGY
   &END SUBSYS
 &END FORCE_EVAL
