 # Version information for this restart file 
 # current date 2019-07-07 18:36:56.228
 # current working dir /lustre04/scratch/rzk/rzk/GaN-carbene/443-adatoms-both-2x2/04-2Methanol/04-GaJumps1Ring-Attempt2
 # Program compiled at                              Sun Apr  7 00:48:11 EDT 2019
 # Program compiled on                          beluga2.int.ets1.calculquebec.ca
 # Program compiled for                        Beluga-Linux-x86-64-intel-openmpi
 # Source code revision number                                         svn:18619
 &GLOBAL
   PRINT_LEVEL  MEDIUM
   PROJECT_NAME TEST
   RUN_TYPE  GEO_OPT
 &END GLOBAL
 &MOTION
   &GEO_OPT
     MAX_ITER  500
     STEP_START_VAL  104
   &END GEO_OPT
 &END MOTION
 &FORCE_EVAL
   METHOD  QS
   STRESS_TENSOR  ANALYTICAL
   &DFT
     BASIS_SET_FILE_NAME BASIS_MOLOPT
     POTENTIAL_FILE_NAME GTH_POTENTIALS
     UKS  T
     SURFACE_DIPOLE_CORRECTION  T
     SURF_DIP_DIR  Z
     &SCF
       MAX_SCF  80
       EPS_SCF     5.0000000000000004E-06
       &OT  T
         PRECONDITIONER  FULL_ALL
       &END OT
       &OUTER_SCF  T
         OPTIMIZER  NONE
         EPS_SCF     5.0000000000000004E-06
         MAX_SCF  4
       &END OUTER_SCF
       &PRINT
         &RESTART  OFF
           BACKUP_COPIES  1
           &EACH
             JUST_ENERGY  0
             QS_SCF  0
             MD  20
           &END EACH
         &END RESTART
       &END PRINT
     &END SCF
     &QS
       EPS_DEFAULT     1.0000000000000000E-14
       METHOD  GPW
     &END QS
     &MGRID
       NGRIDS  5
       CUTOFF     1.2000000000000000E+03
     &END MGRID
     &XC
       DENSITY_CUTOFF     1.0000000000000000E-10
       GRADIENT_CUTOFF     1.0000000000000000E-10
       TAU_CUTOFF     1.0000000000000000E-10
       &XC_FUNCTIONAL  NO_SHORTCUT
         &PBE  T
         &END PBE
       &END XC_FUNCTIONAL
       &VDW_POTENTIAL
         POTENTIAL_TYPE  PAIR_POTENTIAL
         &PAIR_POTENTIAL
           R_CUTOFF     1.0000000000000004E+01
           TYPE  DFTD3
           PARAMETER_FILE_NAME dftd3.dat
           REFERENCE_FUNCTIONAL PBE
           EPS_CN     9.9999999999999995E-07
           CALCULATE_C9_TERM  T
           REFERENCE_C9_TERM  T
           LONG_RANGE_CORRECTION  F
           VERBOSE_OUTPUT  F
         &END PAIR_POTENTIAL
       &END VDW_POTENTIAL
     &END XC
   &END DFT
   &SUBSYS
     &CELL
       A     1.2864472766435110E+01    0.0000000000000000E+00    0.0000000000000000E+00
       B    -6.4322363581020028E+00    1.1140960178524473E+01    0.0000000000000000E+00
       C     0.0000000000000000E+00    0.0000000000000000E+00    3.2000000000000000E+01
       MULTIPLE_UNIT_CELL  1 1 1
       &CELL_REF
         A     1.2982353780853531E+01    0.0000000000000000E+00    0.0000000000000000E+00
         B    -6.4911768904267628E+00    1.1243048175136114E+01    0.0000000000000000E+00
         C     0.0000000000000000E+00    0.0000000000000000E+00    3.2000000000000000E+01
         MULTIPLE_UNIT_CELL  1 1 1
       &END CELL_REF
     &END CELL
     &COORD
N    8.9339161554692334E-02    1.9846839465215254E+00    2.4957398638729540E+00
Ga    7.3383731050848805E-02    1.4776550316739762E-02    2.8254162607371867E+00
N    9.2902913323685971E-02   -1.7633338073175093E-02    5.0181924303831389E+00
Ga    9.1213758222923061E-02    1.8073241918339933E+00    5.8005516522324729E+00
N    9.0655714188691033E-02    1.8228429092052383E+00    7.8034187214051700E+00
Ga    8.8381504891906923E-02   -2.2540095028868636E-02    8.4449099415155029E+00
N    9.0541488812168780E-02   -2.2941608915607960E-02    1.0421432232875421E+01
Ga    9.0483465880169811E-02    1.8172767253682975E+00    1.1069991336507567E+01
N    9.1125493464488019E-02    1.7976638572357841E+00    1.3065581134589165E+01
Ga    9.0363908997754594E-02   -2.2107099859814898E-02    1.3866819379089078E+01
N    9.0425364441422199E-02   -2.0640872560829016E-02    1.6072191471168907E+01
Ga    9.1218839224283491E-02    2.0218467974576377E+00    1.6481466231159605E+01
Ga    6.2975173362024642E-02    3.6891469103400745E+00    1.3700167500051508E+00
N   -1.3956787744358972E+00    4.5557634137940930E+00    2.5247253374937140E+00
Ga   -1.5906936744855331E+00    2.7127015888752717E+00    3.2817780873691271E+00
N   -1.5190567133919410E+00    2.7624082852341747E+00    5.2602852405466587E+00
Ga   -1.5475609425313017E+00    4.6274309448589701E+00    5.8095510238907675E+00
N   -1.5278265513588041E+00    4.6266336007365858E+00    7.8057556749990411E+00
Ga   -1.5087683100008089E+00    2.7655599204179055E+00    8.4371800129121102E+00
N   -1.5064844723415507E+00    2.7695280214524454E+00    1.0433687165673469E+01
Ga   -1.5326010217508419E+00    4.6270120606593226E+00    1.1073254137622968E+01
N   -1.5487028623811727E+00    4.6376632435749965E+00    1.3068092587507422E+01
Ga   -1.5056384461099188E+00    2.7681641448048846E+00    1.3622318873360822E+01
N   -1.5309915014340756E+00    2.7530977149645399E+00    1.5585674734637220E+01
Ga   -1.3613308375914486E+00    4.5302040180021939E+00    1.6480677230537708E+01
N    9.2135691965402944E-02    3.7007343771658086E+00    1.7613911510876466E+01
N   -3.1202476930671348E+00    7.5265301154149808E+00    2.5300651755406696E+00
Ga   -3.0996864590631241E+00    5.5230134197860625E+00    2.8513811962246254E+00
N   -3.1251973875139365E+00    5.5490862479228618E+00    5.0236615935126014E+00
Ga   -3.1322013210508248E+00    7.3694775012388058E+00    5.8086561362300504E+00
N   -3.1245323120380113E+00    7.3943312383193422E+00    7.8012725424267906E+00
Ga   -3.1264299415574133E+00    5.5471322881291076E+00    8.4512729289892601E+00
N   -3.1254443008770498E+00    5.5489936759404195E+00    1.0424685401627160E+01
Ga   -3.1269533845387540E+00    7.3881695875373063E+00    1.1073926928729266E+01
N   -3.1252688324633668E+00    7.3684420773314105E+00    1.3067894805418330E+01
Ga   -3.1256256823101518E+00    5.5476475630514361E+00    1.3869057193192683E+01
N   -3.1251352626905859E+00    5.5495075562835874E+00    1.6072845470494649E+01
Ga   -3.1249074445012823E+00    7.5915604555761202E+00    1.6481136472262151E+01
Ga   -3.1398384582812273E+00    9.2642620310692294E+00    1.4965931897452953E+00
N   -4.6292846153625939E+00    1.0130942193574413E+01    2.5183107148186590E+00
Ga   -4.8443916744016917E+00    8.2805808615019600E+00    3.2908351471468249E+00
N   -4.7323816339764395E+00    8.3348460960894979E+00    5.2532361713295339E+00
Ga   -4.7650952187958175E+00    1.0209615200885056E+01    5.8008104830294496E+00
N   -4.7431504059960901E+00    1.0195784256021554E+01    7.7994613327182547E+00
Ga   -4.7262031458225140E+00    8.3400974789643243E+00    8.4381970711230867E+00
N   -4.7222075170497568E+00    8.3400505862160781E+00    1.0432892062393366E+01
Ga   -4.7489400434967530E+00    1.0198981240991481E+01    1.1071220030967046E+01
N   -4.7646145108760107E+00    1.0208239877531764E+01    1.3066766739957856E+01
Ga   -4.7223391000660451E+00    8.3395287022878417E+00    1.3623136109823035E+01
N   -4.7474107149204290E+00    8.3235430100941485E+00    1.5586343294029671E+01
Ga   -4.5784788908256004E+00    1.0101316459295774E+01    1.6480083742610770E+01
N   -3.1246001959000367E+00    9.2716320958196636E+00    1.7611092886505276E+01
N    3.2948133180261356E+00    1.8402146153265342E+00    2.6207695455784821E+00
Ga    3.2978256952305069E+00    9.9729898376944737E-02    3.2899439097897321E+00
N    3.3074518129499562E+00   -2.5264870821248498E-02    5.2532567929747360E+00
Ga    3.2987739208001781E+00    1.8365667779986310E+00    5.8763736039618149E+00
N    3.3068125453675958E+00    1.8329760400652573E+00    7.8534748741745588E+00
Ga    3.3045234811794271E+00   -3.2757770216850085E-02    8.4415228754050666E+00
N    3.3070910119916492E+00   -3.4966877836322970E-02    1.0435742780014557E+01
Ga    3.3068180327663463E+00    1.8351870114367987E+00    1.1029266972938313E+01
N    3.3071387297036270E+00    1.8343170991447164E+00    1.3002420229307040E+01
Ga    3.3069269239239771E+00   -3.5286043087429851E-02    1.3623440417040831E+01
N    3.3070741811542392E+00   -3.5874901411685682E-03    1.5587928345410660E+01
Ga    3.3076146387711884E+00    1.8350692248641232E+00    1.5864919127413140E+01
N    1.5820315699752916E+00    4.5579811995137636E+00    2.5245334347881476E+00
Ga    1.7666956121549131E+00    2.7250754409552522E+00    3.2727631528983103E+00
N    1.6993494016210569E+00    2.7622088848623156E+00    5.2563457423323694E+00
Ga    1.7301503514293535E+00    4.6270970662129507E+00    5.8106884530085585E+00
N    1.7075590398724454E+00    4.6253816646379873E+00    7.8075581434415380E+00
Ga    1.6881058819384982E+00    2.7662146393775173E+00    8.4406038577079396E+00
N    1.6882577901615337E+00    2.7693625316318755E+00    1.0435984351462929E+01
Ga    1.7148766748986726E+00    4.6278337374891398E+00    1.1073395136513728E+01
N    1.7313368109885132E+00    4.6378420345057911E+00    1.3068334370832861E+01
Ga    1.6875148684708234E+00    2.7684889018088499E+00    1.3622820148856187E+01
N    1.7138630186464385E+00    2.7525100977280461E+00    1.5586220185700039E+01
Ga    1.5452547094720730E+00    4.5309574252987650E+00    1.6480420132091123E+01
N    9.2752260370761661E-02    7.3879447683086070E+00    2.6955168581274451E+00
Ga    9.9448972091756752E-02    5.5471153261783339E+00    3.3384956939354922E+00
N    9.0130550527376396E-02    5.5614531472660333E+00    5.2761404516855528E+00
Ga    9.7507734258853854E-02    7.4025265587007203E+00    5.9083484015628205E+00
N    9.1029637413939671E-02    7.4065774577123458E+00    7.8681082029448115E+00
Ga    9.0482919425689409E-02    5.5333384122430731E+00    8.4481127705248209E+00
N    9.0747589361057590E-02    5.5358759065415457E+00    1.0439854746353289E+01
Ga    9.1393839556703590E-02    7.4054634034188176E+00    1.1031788163268873E+01
N    9.1089144549495696E-02    7.4051061397387370E+00    1.3003538276993055E+01
Ga    9.1248944241137872E-02    5.5346309427837239E+00    1.3623627439752543E+01
N    9.0998071609781697E-02    5.5667695400294059E+00    1.5587761217023987E+01
Ga    9.1913986829879030E-02    7.4051100269330989E+00    1.5865613326967148E+01
N   -1.6206649484041737E+00    1.0119681352962138E+01    2.5249177062846977E+00
Ga   -1.4771302151253114E+00    8.3061541727252433E+00    3.3347687875037386E+00
N   -1.5053574399738885E+00    8.3262575718667975E+00    5.2629251951725582E+00
Ga   -1.4926682492766608E+00    1.0211908284710967E+01    5.8117775312350357E+00
N   -1.5089660638420215E+00    1.0193456699969667E+01    7.8034976570170445E+00
Ga   -1.5297479763745394E+00    8.3399080954608866E+00    8.4497970086316627E+00
N   -1.5288101903812030E+00    8.3401339804206867E+00    1.0439450290065226E+01
Ga   -1.5023569266388082E+00    1.0200175845648719E+01    1.1074279367189114E+01
N   -1.4850411437422684E+00    1.0208538093143773E+01    1.3068710486971980E+01
Ga   -1.5282636370927793E+00    8.3393005310245094E+00    1.3623978569951579E+01
N   -1.5019647729189831E+00    8.3229171093760730E+00    1.5587109601869043E+01
Ga   -1.6704480139174758E+00    1.0101711889907760E+01    1.6480126140806181E+01
N    6.5200063394592309E+00    1.9585523991520646E+00    2.5398531079510613E+00
Ga    6.5383679258983722E+00   -2.2078173118914461E-02    2.8645753167858423E+00
N    6.5180186931195401E+00   -2.2051000731779881E-02    5.0279592803091377E+00
Ga    6.5206136367233736E+00    1.8077337746207280E+00    5.8067038022783697E+00
N    6.5218227561251378E+00    1.8223317086570672E+00    7.8034235527042339E+00
Ga    6.5239795230729767E+00   -2.2990702833334282E-02    8.4486113563493941E+00
N    6.5233239151024147E+00   -2.3058657747309055E-02    1.0422658660247549E+01
Ga    6.5235255123731104E+00    1.8180693832660202E+00    1.1070805568935683E+01
N    6.5235921126869174E+00    1.7976117497751416E+00    1.3065545554932648E+01
Ga    6.5243325202612805E+00   -2.1384601762825525E-02    1.3869853380158267E+01
N    6.5248818753562947E+00   -2.0139610094635791E-02    1.6072576333117411E+01
Ga    6.5241179329278127E+00    2.0261334919808878E+00    1.6484654628590821E+01
Ga    6.5241523196155482E+00    3.6901466085411987E+00    1.5336520285901221E+00
N    5.0194084874094740E+00    4.5575721227284154E+00    2.5330516503864042E+00
Ga    4.8025240401586107E+00    2.7064923898035262E+00    3.3000516952417573E+00
N    4.9114716950758748E+00    2.7626028627067840E+00    5.2613048348838554E+00
Ga    4.8876987290997898E+00    4.6354239233660204E+00    5.8067732838396298E+00
N    4.9052351741817057E+00    4.6253177518927435E+00    7.8041961276980105E+00
Ga    4.9233647281868542E+00    2.7677665178119453E+00    8.4410465639031749E+00
N    4.9257751510148653E+00    2.7694841254136793E+00    1.0435432210215685E+01
Ga    4.9007057913131895E+00    4.6288899292796630E+00    1.1071625196613242E+01
N    4.8839817243872243E+00    4.6379804880706397E+00    1.3066695877441445E+01
Ga    4.9270182207648938E+00    2.7688654964329613E+00    1.3622884119255842E+01
N    4.9003202128658661E+00    2.7524510071357042E+00    1.5585396309848024E+01
Ga    5.0745180285828528E+00    4.5287510391192365E+00    1.6483830169336851E+01
N    6.5233670638585108E+00    3.7006533012441203E+00    1.7618406488043558E+01
N    3.3036580614415283E+00    7.5208416493063233E+00    2.5068368743785068E+00
N    3.3062659303852131E+00    5.5469337832975851E+00    5.0332542340179049E+00
Ga    3.3102009033303594E+00    7.3736832351562791E+00    5.7994854866862342E+00
N    3.3041888237408736E+00    7.3956223931354907E+00    7.7977970550052031E+00
Ga    3.3067178916254654E+00    5.5492847123080722E+00    8.4489845561944819E+00
N    3.3071042257660670E+00    5.5493652579766692E+00    1.0423546830091997E+01
Ga    3.3089761273811615E+00    7.3884761619412389E+00    1.1072691908357658E+01
N    3.3079507901679590E+00    7.3684730316192377E+00    1.3066582609310709E+01
Ga    3.3081544878602123E+00    5.5486570774527690E+00    1.3869687433075233E+01
N    3.3082295959191317E+00    5.5507380047443382E+00    1.6072274244652505E+01
Ga    3.3080898507682042E+00    7.5959735795699048E+00    1.6483898541324326E+01
Ga    3.3451887049799036E+00    9.2850868603773993E+00    1.3406201894298906E+00
N    1.7957807967142703E+00    1.0126526569876182E+01    2.5104583691195566E+00
Ga    1.6895162493852598E+00    8.3210969952628222E+00    3.2937521062256749E+00
N    1.6844767509243284E+00    8.3254651579742021E+00    5.2417118714340685E+00
Ga    1.6745065780714394E+00    1.0206772511940926E+01    5.7991665596924218E+00
N    1.6878410851830372E+00    1.0192655722837529E+01    7.7971073012376442E+00
Ga    1.7120912613781576E+00    8.3413316495360164E+00    8.4480935583053505E+00
N    1.7105614735974279E+00    8.3404171720150408E+00    1.0438575318604832E+01
Ga    1.6854910868288626E+00    1.0200295835672891E+01    1.1073025874820159E+01
N    1.6678472298705382E+00    1.0208666787451886E+01    1.3067252042887354E+01
Ga    1.7113439226670930E+00    8.3396157127226793E+00    1.3623245635686159E+01
N    1.6840460330227165E+00    8.3228825841948311E+00    1.5585078562542231E+01
Ga    1.8585087216561182E+00    1.0099259402350052E+01    1.6483053221780459E+01
N    3.3077361069831164E+00    9.2709760632047367E+00    1.7619280871424323E+01
N    9.7477418948246282E+00    1.8338811791006926E+00    2.6318983073291813E+00
Ga    9.7416357500920867E+00    7.2569108051691464E-02    3.2645839378939083E+00
N    9.7349832223948276E+00   -2.5785588844955350E-02    5.2449486928061999E+00
Ga    9.7436460902120672E+00    1.8292219510824348E+00    5.8700027908323360E+00
N    9.7378368793814545E+00    1.8328326267965804E+00    7.8499908143094794E+00
Ga    9.7400184215208139E+00   -3.3963239416529067E-02    8.4337813277490330E+00
N    9.7389737735838544E+00   -3.5172545976786110E-02    1.0431198767349269E+01
Ga    9.7394627654785371E+00    1.8344365932989453E+00    1.1026147854819596E+01
N    9.7398909887708243E+00    1.8344626511093787E+00    1.2999726040968929E+01
Ga    9.7401026608626164E+00   -3.4904977394126374E-02    1.3622531096958429E+01
N    9.7405009374872105E+00   -2.4453345302964118E-03    1.5585631094228949E+01
Ga    9.7399611652275730E+00    1.8349646909836266E+00    1.5864454766020314E+01
N    8.0241604380007772E+00    4.5582738824395790E+00    2.5395984997797432E+00
Ga    8.2406108777085301E+00    2.6993401746324297E+00    3.3018322365261445E+00
N    8.1300141545094764E+00    2.7620307646874536E+00    5.2624422670610969E+00
Ga    8.1543420183872239E+00    4.6343336741291843E+00    5.8032568128181037E+00
N    8.1405558740545825E+00    4.6263536636221181E+00    7.8011153340209107E+00
Ga    8.1224518575611260E+00    2.7673118020261382E+00    8.4375820625582740E+00
N    8.1202257274690126E+00    2.7697215714586463E+00    1.0433113406231344E+01
Ga    8.1450893228963750E+00    4.6280892057038594E+00    1.1071734157302563E+01
N    8.1628120709023566E+00    4.6377489759939579E+00    1.3066597497499973E+01
Ga    8.1207468962050839E+00    2.7683302998045005E+00    1.3622387856817733E+01
N    8.1474030720034367E+00    2.7529185164967247E+00    1.5584772839573498E+01
Ga    7.9725342759081492E+00    4.5279951399216216E+00    1.6483913853659093E+01
N    6.5172587155636590E+00    7.4077366330967687E+00    2.6135480107603426E+00
Ga    6.5167134513150060E+00    5.6703537888265032E+00    3.2973087930252527E+00
N    6.5214563117524600E+00    5.5507126591544074E+00    5.2584344620100794E+00
Ga    6.5156507145935052E+00    7.4099001481167504E+00    5.8714469495441044E+00
N    6.5221074604397575E+00    7.4059792955521839E+00    7.8482415147669125E+00
Ga    6.5226311061637912E+00    5.5384756005764446E+00    8.4391446923957361E+00
N    6.5232962609950835E+00    5.5367530124515199E+00    1.0434085971159705E+01
Ga    6.5225545224110331E+00    7.4063316165252795E+00    1.1026891728990556E+01
N    6.5236838130302921E+00    7.4056034362551406E+00    1.3000174987465842E+01
Ga    6.5233957092283825E+00    5.5357602179136167E+00    1.3623127342152145E+01
N    6.5242706332625557E+00    5.5677043371340895E+00    1.5586631086366239E+01
Ga    6.5236101665063506E+00    7.4051511601613420E+00    1.5865273116455279E+01
N    4.8148028397172231E+00    1.0134283505195137E+01    2.5171773308308025E+00
Ga    4.9926775386720514E+00    8.2889363187336222E+00    3.2613769408668660E+00
N    4.9118284478159300E+00    8.3335658886098969E+00    5.2416807991816894E+00
Ga    4.9402985910041464E+00    1.0206406694998313E+01    5.7878770066748908E+00
N    4.9242704626891198E+00    1.0195650351426524E+01    7.7932356598272783E+00
Ga    4.9046759488726801E+00    8.3413720508593165E+00    8.4345501493400494E+00
N    4.9039202835706384E+00    8.3401356743000132E+00    1.0430910446657595E+01
Ga    4.9293028988397278E+00    1.0198725986617548E+01    1.1069530166493118E+01
N    4.9467693131752233E+00    1.0208147603237887E+01    1.3065078270820335E+01
Ga    4.9046317327143010E+00    8.3397018907402316E+00    1.3622721482853191E+01
N    4.9317333947035946E+00    8.3234545877779471E+00    1.5584576277112919E+01
Ga    4.7567725518026354E+00    1.0098889086984085E+01    1.6483150909852174E+01
O    1.0456772680071140E-01    4.0667142645951548E+00   -4.3173120367916357E-01
H   -9.1558176429320071E-02    5.8533285920890634E+00   -3.5526618554093570E-01
C    1.2869527141856325E+00    3.6354799986789414E+00   -1.1349447765060474E+00
H    2.2134781595967579E+00    3.9331188348560051E+00   -6.1647657279234325E-01
H    1.2961882317347837E+00    2.5422793077696588E+00   -1.2633815910662940E+00
H    1.2756482918940131E+00    4.1022929477907653E+00   -2.1299983909881450E+00
Ga    3.2777706574401688E+00    5.5423581082890552E+00    2.8577088378530791E+00
O   -8.3575063185589590E-02    6.8395817830911056E+00   -2.1804708983653104E-01
H    5.2255441926446586E-02    7.3160631458964875E+00    1.6582826424569681E+00
C    1.0929588092826004E+00    7.3415550404412064E+00   -8.6550319788586882E-01
H    1.1222494568820480E+00    8.4277847396149337E+00   -6.9892760656386754E-01
H    2.0137304398873734E+00    6.9012081479273997E+00   -4.4711065721162735E-01
H    1.0733853749662148E+00    7.1607476655166211E+00   -1.9518289930225192E+00
     &END COORD
     &KIND C
       BASIS_SET DZVP-MOLOPT-SR-GTH-q4
       POTENTIAL GTH-PBE-q4
       &POTENTIAL
 2 2
  0.3384712400000000E+00 2 -0.8803673979999999E+01  0.1339210850000000E+01
 2
  0.3025757500000000E+00 1  0.9622486650000001E+01
  0.2915069400000000E+00 0
         # Potential name:  GTH-PBE-Q4  for symbol:  C
         # Potential read from the potential filename: GTH_POTENTIALS
       &END POTENTIAL
     &END KIND
     &KIND O
       BASIS_SET DZVP-MOLOPT-SR-GTH-q6
       POTENTIAL GTH-PBE-q6
       &POTENTIAL
 2 4
  0.2445543000000000E+00 2 -0.1666721480000000E+02  0.2487311320000000E+01
 2
  0.2209559200000000E+00 1  0.1833745811000000E+02
  0.2113324700000000E+00 0
         # Potential name:  GTH-PBE-Q6  for symbol:  O
         # Potential read from the potential filename: GTH_POTENTIALS
       &END POTENTIAL
     &END KIND
     &KIND H
       BASIS_SET DZVP-MOLOPT-SR-GTH-q1
       POTENTIAL GTH-PBE-q1
       &POTENTIAL
 1
  0.2000000000000000E+00 2 -0.4178900440000000E+01  0.7244633100000000E+00
 0
         # Potential name:  GTH-PBE-Q1  for symbol:  H
         # Potential read from the potential filename: GTH_POTENTIALS
       &END POTENTIAL
     &END KIND
     &KIND N
       BASIS_SET DZVP-MOLOPT-SR-GTH
       POTENTIAL GTH-PBE-q5
       &POTENTIAL
 2 3
  0.2837905100000000E+00 2 -0.1241522559000000E+02  0.1868095920000000E+01
 2
  0.2554050000000000E+00 1  0.1363026257000000E+02
  0.2454945300000000E+00 0
         # Potential name:  GTH-PBE-Q5  for symbol:  N
         # Potential read from the potential filename: GTH_POTENTIALS
       &END POTENTIAL
     &END KIND
     &KIND Ga
       BASIS_SET DZVP-MOLOPT-SR-GTH
       POTENTIAL GTH-PBE-q13
       &POTENTIAL
 2 1 10
  0.4900000000000000E+00 0
 3
  0.4167772300000000E+00 3  0.1047568975000000E+02 -0.4921768140000000E+01  0.8707055900000000E+00
  0.7770178090000000E+01 -0.2248152160000000E+01
  0.1784415450000000E+01
  0.5696265200000000E+00 2  0.1777985340000000E+01  0.1958597600000000E+00
 -0.2317443900000000E+00
  0.2381265000000000E+00 1 -0.1624868022000000E+02
         # Potential name:  GTH-PBE-Q13  for symbol:  GA
         # Potential read from the potential filename: GTH_POTENTIALS
       &END POTENTIAL
     &END KIND
     &TOPOLOGY
       NUMBER_OF_ATOMS  212
       MULTIPLE_UNIT_CELL  1 1 1
     &END TOPOLOGY
   &END SUBSYS
 &END FORCE_EVAL
