 # Version information for this restart file 
 # current date 2019-07-07 15:42:27.736
 # current working dir /lustre04/scratch/rzk/rzk/GaN-carbene/443-adatoms-both-2x2/04-2Methanol/04-GaJumps1Ring-Attempt2
 # Program compiled at                              Sun Apr  7 00:48:11 EDT 2019
 # Program compiled on                          beluga2.int.ets1.calculquebec.ca
 # Program compiled for                        Beluga-Linux-x86-64-intel-openmpi
 # Source code revision number                                         svn:18619
 &GLOBAL
   PRINT_LEVEL  MEDIUM
   PROJECT_NAME TEST
   RUN_TYPE  GEO_OPT
 &END GLOBAL
 &MOTION
   &GEO_OPT
     MAX_ITER  500
     STEP_START_VAL  41
   &END GEO_OPT
 &END MOTION
 &FORCE_EVAL
   METHOD  QS
   STRESS_TENSOR  ANALYTICAL
   &DFT
     BASIS_SET_FILE_NAME BASIS_MOLOPT
     POTENTIAL_FILE_NAME GTH_POTENTIALS
     UKS  T
     SURFACE_DIPOLE_CORRECTION  T
     SURF_DIP_DIR  Z
     &SCF
       MAX_SCF  80
       EPS_SCF     5.0000000000000004E-06
       &OT  T
         PRECONDITIONER  FULL_ALL
       &END OT
       &OUTER_SCF  T
         OPTIMIZER  NONE
         EPS_SCF     5.0000000000000004E-06
         MAX_SCF  4
       &END OUTER_SCF
       &PRINT
         &RESTART  OFF
           BACKUP_COPIES  1
           &EACH
             JUST_ENERGY  0
             QS_SCF  0
             MD  20
           &END EACH
         &END RESTART
       &END PRINT
     &END SCF
     &QS
       EPS_DEFAULT     1.0000000000000000E-14
       METHOD  GPW
     &END QS
     &MGRID
       NGRIDS  5
       CUTOFF     1.2000000000000000E+03
     &END MGRID
     &XC
       DENSITY_CUTOFF     1.0000000000000000E-10
       GRADIENT_CUTOFF     1.0000000000000000E-10
       TAU_CUTOFF     1.0000000000000000E-10
       &XC_FUNCTIONAL  NO_SHORTCUT
         &PBE  T
         &END PBE
       &END XC_FUNCTIONAL
       &VDW_POTENTIAL
         POTENTIAL_TYPE  PAIR_POTENTIAL
         &PAIR_POTENTIAL
           R_CUTOFF     1.0000000000000004E+01
           TYPE  DFTD3
           PARAMETER_FILE_NAME dftd3.dat
           REFERENCE_FUNCTIONAL PBE
           EPS_CN     9.9999999999999995E-07
           CALCULATE_C9_TERM  T
           REFERENCE_C9_TERM  T
           LONG_RANGE_CORRECTION  F
           VERBOSE_OUTPUT  F
         &END PAIR_POTENTIAL
       &END VDW_POTENTIAL
     &END XC
   &END DFT
   &SUBSYS
     &CELL
       A     1.2864472766435110E+01    0.0000000000000000E+00    0.0000000000000000E+00
       B    -6.4322363581020028E+00    1.1140960178524473E+01    0.0000000000000000E+00
       C     0.0000000000000000E+00    0.0000000000000000E+00    3.2000000000000000E+01
       MULTIPLE_UNIT_CELL  1 1 1
       &CELL_REF
         A     1.2982353780853531E+01    0.0000000000000000E+00    0.0000000000000000E+00
         B    -6.4911768904267628E+00    1.1243048175136114E+01    0.0000000000000000E+00
         C     0.0000000000000000E+00    0.0000000000000000E+00    3.2000000000000000E+01
         MULTIPLE_UNIT_CELL  1 1 1
       &END CELL_REF
     &END CELL
     &COORD
N    9.5815990225075032E-02    1.9732277072385469E+00    2.5088357688176690E+00
Ga    7.6632136460406813E-02    7.1534485029411980E-03    2.8833216849171093E+00
N    9.2822492755448502E-02   -1.9327103208175246E-02    5.0470139877120470E+00
Ga    8.8298721703883615E-02    1.8127971946562218E+00    5.8079888317746464E+00
N    8.7017041260732120E-02    1.8221192962397201E+00    7.8091567300389917E+00
Ga    8.5400355505000497E-02   -1.9362677920585106E-02    8.4597046718177040E+00
N    8.5797508645055517E-02   -2.5127069133199981E-02    1.0432336833035922E+01
Ga    8.0790546998695187E-02    1.8164892259856602E+00    1.1073197231987905E+01
N    8.1214461285434247E-02    1.7946668038924110E+00    1.3068197833359227E+01
Ga    8.0839615253895214E-02   -2.3793317043394428E-02    1.3875129250460535E+01
N    8.0909112083078216E-02   -2.6013227825930737E-02    1.6073411577525231E+01
Ga    8.0764261669036178E-02    2.0292318044324982E+00    1.6497564816994718E+01
Ga    6.3032497248703856E-02    3.6914338964911102E+00    1.3830749681317378E+00
N   -1.3924113655823727E+00    4.5493477071945509E+00    2.5419081847538285E+00
Ga   -1.5925214893480826E+00    2.6865826899495895E+00    3.2777897114102141E+00
N   -1.5233735038224343E+00    2.7565008391513866E+00    5.2559714328941913E+00
Ga   -1.5501436117880003E+00    4.6223229834433637E+00    5.8006954356959195E+00
N   -1.5349097563184475E+00    4.6237056648149117E+00    7.7983726356630152E+00
Ga   -1.5221619090773837E+00    2.7594329430026954E+00    8.4256989635019117E+00
N   -1.5157477678588491E+00    2.7648658729860687E+00    1.0427303857002270E+01
Ga   -1.5398138334292262E+00    4.6231546744443666E+00    1.1065354522242520E+01
N   -1.5574348080561264E+00    4.6322268471135359E+00    1.3062304641188934E+01
Ga   -1.5158336403298138E+00    2.7645145738984138E+00    1.3624606535105459E+01
N   -1.5463095982786330E+00    2.7461146467088602E+00    1.5583446682938671E+01
Ga   -1.3528811686701705E+00    4.5120128215656239E+00    1.6498772919287841E+01
N    7.9995909868639664E-02    3.6870725660680286E+00    1.7641192533579691E+01
N   -3.1500109489650070E+00    7.5249409787969208E+00    2.5320547188019562E+00
Ga   -3.0959732029067930E+00    5.5125099550463048E+00    2.8515700080078763E+00
N   -3.1299577917641761E+00    5.5465064901131864E+00    5.0146722738046083E+00
Ga   -3.1368570438902714E+00    7.3670837836421237E+00    5.7917545686700906E+00
N   -3.1345167482528939E+00    7.3933551611922201E+00    7.7880128343135704E+00
Ga   -3.1333689780978098E+00    5.5444354283493222E+00    8.4398236014372738E+00
N   -3.1343456208333196E+00    5.5460939468748354E+00    1.0416745926909240E+01
Ga   -3.1294096286029678E+00    7.3821901369622056E+00    1.1075592684310235E+01
N   -3.1327889709695302E+00    7.3626176876862734E+00    1.3068857948676730E+01
Ga   -3.1274357484153410E+00    5.5430049297518593E+00    1.3870284477609383E+01
N   -3.1294885887530222E+00    5.5435759937352742E+00    1.6073654620033601E+01
Ga   -3.1337314270864129E+00    7.5895262672948167E+00    1.6485160034518358E+01
Ga   -3.1231703138686777E+00    9.2722064030073241E+00    1.5353567159262720E+00
N   -4.6311470501392193E+00    1.0130365647480982E+01    2.5158691318660109E+00
Ga   -4.8797703116117610E+00    8.3012797926221147E+00    3.2700024032720245E+00
N   -4.7598073248545383E+00    8.3220118538484673E+00    5.2298538783145201E+00
Ga   -4.7739834202163234E+00    1.0201327227637917E+01    5.8148423325586212E+00
N   -4.7511721256146231E+00    1.0187274368724921E+01    7.8090922688108684E+00
Ga   -4.7214417575878960E+00    8.3384812970989461E+00    8.4614250369321535E+00
N   -4.7261047412550878E+00    8.3377094651008026E+00    1.0448227998699821E+01
Ga   -4.7550058149251884E+00    1.0198001929317670E+01    1.1082047989638676E+01
N   -4.7734672586392284E+00    1.0204185675684762E+01    1.3074944227611020E+01
Ga   -4.7299699753872364E+00    8.3339604330884818E+00    1.3625312928265435E+01
N   -4.7582574177324330E+00    8.3133711656953331E+00    1.5587317543290606E+01
Ga   -4.5864315638807653E+00    1.0093578952570272E+01    1.6483487211507221E+01
N   -3.1396530083348031E+00    9.2626748895785020E+00    1.7620177618868816E+01
N    3.2963559686474331E+00    1.8369955344430871E+00    2.6380262148680336E+00
Ga    3.2892863700988180E+00    9.9003121937488836E-02    3.3102620934476490E+00
N    3.2928511305009560E+00   -3.1319289179311240E-02    5.2689389733871277E+00
Ga    3.2950608312361171E+00    1.8335875320645674E+00    5.8889570216463758E+00
N    3.3020973765668726E+00    1.8303947576432191E+00    7.8639837196433797E+00
Ga    3.2992340420530866E+00   -3.6730385412152837E-02    8.4487768865309665E+00
N    3.2990353792639606E+00   -3.8096823148047514E-02    1.0441199271567299E+01
Ga    3.2996923055761171E+00    1.8316373105386892E+00    1.1032992065182707E+01
N    3.2996127599545724E+00    1.8297482106883980E+00    1.3005857530739553E+01
Ga    3.3005836652107496E+00   -4.0921323229973633E-02    1.3624590397253513E+01
N    3.3020088410588837E+00   -9.8293032967786877E-03    1.5587707063071990E+01
Ga    3.2965302814953161E+00    1.8275327746875525E+00    1.5863058898550438E+01
N    1.5921706800963762E+00    4.5559606102308976E+00    2.5432950063407089E+00
Ga    1.7648052345413150E+00    2.7235579736178122E+00    3.2830872767176222E+00
N    1.6980680600540650E+00    2.7580773139484829E+00    5.2661078290483880E+00
Ga    1.7211354453531793E+00    4.6188448588668738E+00    5.8216668842090957E+00
N    1.7017705122625773E+00    4.6203825802980685E+00    7.8154862040457536E+00
Ga    1.6814400993865839E+00    2.7642748834208235E+00    8.4490372154666602E+00
N    1.6809891729899626E+00    2.7656343952399265E+00    1.0442021476112979E+01
Ga    1.7029177696467870E+00    4.6251343670378828E+00    1.1073868401416718E+01
N    1.7192233390697929E+00    4.6328768803955063E+00    1.3068424978420857E+01
Ga    1.6778800293096272E+00    2.7642988281046339E+00    1.3626793100021960E+01
N    1.7086723868179943E+00    2.7453455247704035E+00    1.5585482488246429E+01
Ga    1.5137599704970468E+00    4.5118255646700440E+00    1.6498693347448139E+01
N    1.0518102200323987E-01    7.3822344178788484E+00    2.6640834245774001E+00
Ga    1.1192435087958429E-01    5.5568809434038746E+00    3.3425314336837340E+00
N    8.8641668659847503E-02    5.5580780505460394E+00    5.2796669646469461E+00
Ga    1.2109696016488003E-01    7.4167675830802997E+00    5.8658891929185319E+00
N    8.9124592092350588E-02    7.4081805730776580E+00    7.8411510061540541E+00
Ga    8.2797087303198971E-02    5.5378675158444439E+00    8.4352883954864524E+00
N    8.2224440977942140E-02    5.5344608846091701E+00    1.0431479845262020E+01
Ga    8.2269359108537388E-02    7.4012947529467557E+00    1.1029880230823185E+01
N    8.0995481568666802E-02    7.3996681604173835E+00    1.3002114236257253E+01
Ga    7.9972643139972988E-02    5.5293858039550328E+00    1.3626195127870554E+01
N    8.0092404666598296E-02    5.5623026652500380E+00    1.5585931390571538E+01
Ga    8.0375972493648432E-02    7.3970588716475030E+00    1.5861938826930244E+01
N   -1.6435684293158401E+00    1.0116701877741679E+01    2.5454412919447464E+00
Ga   -1.4547971594114357E+00    8.2995866090617447E+00    3.3337955762015339E+00
N   -1.5120851580982975E+00    8.3247160805832312E+00    5.2573566273987264E+00
Ga   -1.5017749943802758E+00    1.0209271500947274E+01    5.8248685596541883E+00
N   -1.5203381180611568E+00    1.0188023166524003E+01    7.8119680988998050E+00
Ga   -1.5314423924200784E+00    8.3314073418439385E+00    8.4355912373404092E+00
N   -1.5358512143374647E+00    8.3330186025304531E+00    1.0430631948553724E+01
Ga   -1.5069485908435989E+00    1.0194340862868017E+01    1.1064701802825853E+01
N   -1.4934703603840451E+00    1.0202573578657937E+01    1.3062533532312996E+01
Ga   -1.5363043357163344E+00    8.3349150431850152E+00    1.3623640606172367E+01
N   -1.5113122417589215E+00    8.3179442158733661E+00    1.5584853985765626E+01
Ga   -1.6894950746837292E+00    1.0088324747220369E+01    1.6485384666527448E+01
N    6.5083672948512774E+00    1.9601977583229706E+00    2.5580978846488431E+00
Ga    6.5282260758725732E+00   -2.9411978082909938E-02    2.9098926417370992E+00
N    6.4845525895655927E+00   -1.1682119859939354E-02    5.0675978475672840E+00
Ga    6.5171855988655274E+00    1.8045272425949861E+00    5.8182758037579836E+00
N    6.5178454172757494E+00    1.8247188844306639E+00    7.8116487684521356E+00
Ga    6.5286064655545868E+00   -3.2567393098232013E-02    8.4261007667398946E+00
N    6.5177406154145432E+00   -2.7568512768351948E-02    1.0410493252450584E+01
Ga    6.5196464910745480E+00    1.8118151999614234E+00    1.1062284233240296E+01
N    6.5153071178690904E+00    1.7917179710193820E+00    1.3063519440792279E+01
Ga    6.5140410061403600E+00   -3.0453102627275793E-02    1.3862260395403688E+01
N    6.5130232452610688E+00   -3.1299872073330549E-02    1.6072791528956973E+01
Ga    6.5138388135800307E+00    1.9949432516530858E+00    1.6463460390539957E+01
Ga    6.5224402563959920E+00    3.6615846269855474E+00    1.5596520381378396E+00
N    5.0190748812951149E+00    4.5462600787670784E+00    2.5358678373627423E+00
Ga    4.8029968715594613E+00    2.7005021973174643E+00    3.3218972087668326E+00
N    4.9076342367779828E+00    2.7660473009865840E+00    5.2784211065736395E+00
Ga    4.8885368187205955E+00    4.6351911025676662E+00    5.8217988323511403E+00
N    4.9054778049392329E+00    4.6256234010353401E+00    7.8149063244989891E+00
Ga    4.9205669007572439E+00    2.7641382293460519E+00    8.4484803611168555E+00
N    4.9189099771285667E+00    2.7664148018535109E+00    1.0441868983522705E+01
Ga    4.8918612176465324E+00    4.6234471500708691E+00    1.1080350060853359E+01
N    4.8735068757699951E+00    4.6331144567160880E+00    1.3075895869152538E+01
Ga    4.9187226041802976E+00    2.7620635148567656E+00    1.3620325816735402E+01
N    4.8952328895416741E+00    2.7463068819364502E+00    1.5588894034977011E+01
Ga    5.0426522913367844E+00    4.5322672218349815E+00    1.6462255327337690E+01
N    6.5143778225144287E+00    3.6939172263363265E+00    1.7589534475039294E+01
N    3.4403415378334499E+00    7.4604093944232925E+00    2.5346582676502969E+00
N    3.3060559359162309E+00    5.5351093993994063E+00    5.0687102199754888E+00
Ga    3.2454914493444353E+00    7.3581418346338152E+00    5.8419196789690018E+00
N    3.2842506700014114E+00    7.3874887403446188E+00    7.8284564701392014E+00
Ga    3.2986960909047411E+00    5.5414818366925607E+00    8.4620664061056168E+00
N    3.3004649023360058E+00    5.5430748220046810E+00    1.0433643737549820E+01
Ga    3.2979415013327937E+00    7.3865356410170122E+00    1.1071264281166130E+01
N    3.2968928120731520E+00    7.3639831145008978E+00    1.3067263797900644E+01
Ga    3.2913018980787609E+00    5.5446297428315257E+00    1.3870053308161433E+01
N    3.2917363491550145E+00    5.5432956584008259E+00    1.6073922288897990E+01
Ga    3.2948452583855579E+00    7.5878342374821353E+00    1.6483079795401256E+01
Ga    4.8587942780799995E+00    8.3574245595832046E+00    1.1704759853496405E+00
N    1.6761270206658196E+00    1.0180131939354645E+01    2.4972689262906926E+00
Ga    1.7639540106917089E+00    8.3861285890570318E+00    3.0727039537764282E+00
N    1.6984131740248736E+00    8.3100429794237378E+00    5.1363589671508985E+00
Ga    1.6894595563259329E+00    1.0193233789345712E+01    5.7074533338125661E+00
N    1.6869464409620283E+00    1.0185014512176910E+01    7.7566165661274225E+00
Ga    1.6949178259300868E+00    8.3500379578675741E+00    8.4470600033148315E+00
N    1.6988974946118285E+00    8.3396379976773254E+00    1.0439753832811441E+01
Ga    1.6749954689461031E+00    1.0197757715651855E+01    1.1072250806701829E+01
N    1.6579466753574335E+00    1.0203274378999573E+01    1.3067413169979540E+01
Ga    1.6995868715591174E+00    8.3340265938350520E+00    1.3622719811884462E+01
N    1.6728423389363136E+00    8.3170657530556635E+00    1.5584632638347145E+01
Ga    1.8494846142089685E+00    1.0089105977269909E+01    1.6481943680044971E+01
N    3.3008020887073308E+00    9.2632486642347125E+00    1.7617066194312919E+01
N    9.7601993612878726E+00    1.8132303968469619E+00    2.5988599026776429E+00
Ga    9.7097242282934797E+00   -4.3017820205031088E-02    2.9841399219287053E+00
N    9.7455928787342785E+00   -4.0156663650892765E-02    5.1400237408125102E+00
Ga    9.7383012459519627E+00    1.7888308223531810E+00    5.8208951885651130E+00
N    9.7306610729715377E+00    1.8243340654489475E+00    7.8233781187681002E+00
Ga    9.7172053412707786E+00   -3.3402979096874064E-02    8.4319089500332236E+00
N    9.7267603664459195E+00   -3.7674169401795361E-02    1.0432648484006048E+01
Ga    9.7319788402383711E+00    1.8309698210805205E+00    1.1025056310801473E+01
N    9.7292210870672271E+00    1.8294538746304991E+00    1.3000162729389073E+01
Ga    9.7299523061664939E+00   -4.0190178455907326E-02    1.3622578556127046E+01
N    9.7256411052605660E+00   -9.9255132820547515E-03    1.5586539263638329E+01
Ga    9.7310688589548509E+00    1.8276612443818061E+00    1.5862671392979244E+01
N    8.0078038662358590E+00    4.5758354504490599E+00    2.5383402460062539E+00
Ga    8.2517787599946875E+00    2.6617553103781075E+00    3.2907391751310171E+00
N    8.1254042788001275E+00    2.7567965086329069E+00    5.2476171802958635E+00
Ga    8.1509106287095658E+00    4.6272610523596143E+00    5.7833607435706105E+00
N    8.1319733111244901E+00    4.6242481882731656E+00    7.7870357687685852E+00
Ga    8.1249740508044503E+00    2.7629350535785973E+00    8.4255692164419642E+00
N    8.1161154836341307E+00    2.7676777679545634E+00    1.0427689106648643E+01
Ga    8.1429438901920648E+00    4.6218690474179489E+00    1.1074488316321919E+01
N    8.1565227639779305E+00    4.6327922808687312E+00    1.3071694348485586E+01
Ga    8.1116734412680795E+00    2.7621337427363288E+00    1.3619009690719611E+01
N    8.1324960648233340E+00    2.7465203850074444E+00    1.5587901952225998E+01
Ga    7.9852607900036787E+00    4.5326063259824059E+00    1.6462461140407491E+01
N    6.3696770013829260E+00    7.4899089340539318E+00    2.6297358716078003E+00
Ga    6.4794243963016527E+00    5.6786647994693018E+00    3.2763273658772505E+00
N    6.5159635451227746E+00    5.5693083760015734E+00    5.2355365335702162E+00
Ga    6.5368702968548327E+00    7.3902004877083449E+00    5.9422563894353750E+00
N    6.5260607147420400E+00    7.3962682234336317E+00    7.8935258075391017E+00
Ga    6.5227658099926744E+00    5.5244295987038434E+00    8.4622864009260823E+00
N    6.5175576702598024E+00    5.5293776069341209E+00    1.0450091581160883E+01
Ga    6.5143849371530056E+00    7.4033593156352895E+00    1.1031659515898090E+01
N    6.5138580840817788E+00    7.3994447744804503E+00    1.3005839753167621E+01
Ga    6.5153921171351232E+00    5.5296419740283351E+00    1.3621927053762880E+01
N    6.5138836005571621E+00    5.5564892086207811E+00    1.5592294010380721E+01
Ga    6.5128155177706653E+00    7.3994842108689234E+00    1.5864679217445660E+01
N    4.9221291495780024E+00    1.0037026565124357E+01    2.5150120487805148E+00
Ga    4.8890749968511376E+00    8.3566688748108167E+00    3.5850374159300582E+00
N    4.9027790375893652E+00    8.3353879644150712E+00    5.4525415254311786E+00
Ga    4.9114491211744964E+00    1.0264923480823549E+01    5.8362192590553397E+00
N    4.9161722691897678E+00    1.0208284096157149E+01    7.8273282575545107E+00
Ga    4.8917691776266334E+00    8.3425099038036059E+00    8.4381738104057877E+00
N    4.8962429854075289E+00    8.3371147400451857E+00    1.0436298364837560E+01
Ga    4.9190576625952538E+00    1.0197375734260978E+01    1.1069980934304482E+01
N    4.9377396659960615E+00    1.0204381721165912E+01    1.3068032810289562E+01
Ga    4.8931474823043821E+00    8.3356258514520523E+00    1.3623471185255378E+01
N    4.9193294982369267E+00    8.3138198973578472E+00    1.5586306550739534E+01
Ga    4.7496168321954420E+00    1.0094347017503599E+01    1.6481950283570352E+01
O    7.7676275910527601E-02    4.1035042295485704E+00   -4.1027766029488200E-01
H   -1.6477466381644770E-01    5.9062223465015364E+00   -3.6163269322697117E-01
C    1.2363265753309143E+00    3.6906587500830095E+00   -1.1598072552060272E+00
H    2.1757604581749925E+00    4.0380409082063862E+00   -6.9744368504720722E-01
H    1.2803482007307452E+00    2.5947708439843082E+00   -1.2601057943172633E+00
H    1.1558755747320231E+00    4.1292667946591566E+00   -2.1653091561900975E+00
Ga    3.2893171153310563E+00    5.5288054746994124E+00    2.9171763374820787E+00
O   -2.1179069087229219E-01    6.8843118249381208E+00   -1.8856572611075229E-01
H   -3.4511476727138321E-02    7.2667703539437971E+00    1.6377725339258602E+00
C    1.0607874148166059E+00    7.4536010568212365E+00   -5.3977669676035378E-01
H    1.0518118758020549E+00    8.5028968096366224E+00   -2.1296850390539354E-01
H    1.8911316216635377E+00    6.9465625529205841E+00   -2.1444866803259990E-02
H    1.2405268348970617E+00    7.4199208225586482E+00   -1.6239146967973965E+00
     &END COORD
     &KIND C
       BASIS_SET DZVP-MOLOPT-SR-GTH-q4
       POTENTIAL GTH-PBE-q4
       &POTENTIAL
 2 2
  0.3384712400000000E+00 2 -0.8803673979999999E+01  0.1339210850000000E+01
 2
  0.3025757500000000E+00 1  0.9622486650000001E+01
  0.2915069400000000E+00 0
         # Potential name:  GTH-PBE-Q4  for symbol:  C
         # Potential read from the potential filename: GTH_POTENTIALS
       &END POTENTIAL
     &END KIND
     &KIND O
       BASIS_SET DZVP-MOLOPT-SR-GTH-q6
       POTENTIAL GTH-PBE-q6
       &POTENTIAL
 2 4
  0.2445543000000000E+00 2 -0.1666721480000000E+02  0.2487311320000000E+01
 2
  0.2209559200000000E+00 1  0.1833745811000000E+02
  0.2113324700000000E+00 0
         # Potential name:  GTH-PBE-Q6  for symbol:  O
         # Potential read from the potential filename: GTH_POTENTIALS
       &END POTENTIAL
     &END KIND
     &KIND H
       BASIS_SET DZVP-MOLOPT-SR-GTH-q1
       POTENTIAL GTH-PBE-q1
       &POTENTIAL
 1
  0.2000000000000000E+00 2 -0.4178900440000000E+01  0.7244633100000000E+00
 0
         # Potential name:  GTH-PBE-Q1  for symbol:  H
         # Potential read from the potential filename: GTH_POTENTIALS
       &END POTENTIAL
     &END KIND
     &KIND N
       BASIS_SET DZVP-MOLOPT-SR-GTH
       POTENTIAL GTH-PBE-q5
       &POTENTIAL
 2 3
  0.2837905100000000E+00 2 -0.1241522559000000E+02  0.1868095920000000E+01
 2
  0.2554050000000000E+00 1  0.1363026257000000E+02
  0.2454945300000000E+00 0
         # Potential name:  GTH-PBE-Q5  for symbol:  N
         # Potential read from the potential filename: GTH_POTENTIALS
       &END POTENTIAL
     &END KIND
     &KIND Ga
       BASIS_SET DZVP-MOLOPT-SR-GTH
       POTENTIAL GTH-PBE-q13
       &POTENTIAL
 2 1 10
  0.4900000000000000E+00 0
 3
  0.4167772300000000E+00 3  0.1047568975000000E+02 -0.4921768140000000E+01  0.8707055900000000E+00
  0.7770178090000000E+01 -0.2248152160000000E+01
  0.1784415450000000E+01
  0.5696265200000000E+00 2  0.1777985340000000E+01  0.1958597600000000E+00
 -0.2317443900000000E+00
  0.2381265000000000E+00 1 -0.1624868022000000E+02
         # Potential name:  GTH-PBE-Q13  for symbol:  GA
         # Potential read from the potential filename: GTH_POTENTIALS
       &END POTENTIAL
     &END KIND
     &TOPOLOGY
       NUMBER_OF_ATOMS  212
       MULTIPLE_UNIT_CELL  1 1 1
     &END TOPOLOGY
   &END SUBSYS
 &END FORCE_EVAL
