 # Version information for this restart file 
 # current date 2019-07-07 18:32:09.556
 # current working dir /lustre04/scratch/rzk/rzk/GaN-carbene/443-adatoms-both-2x2/04-2Methanol/04-GaJumps1Ring-Attempt2
 # Program compiled at                              Sun Apr  7 00:48:11 EDT 2019
 # Program compiled on                          beluga2.int.ets1.calculquebec.ca
 # Program compiled for                        Beluga-Linux-x86-64-intel-openmpi
 # Source code revision number                                         svn:18619
 &GLOBAL
   PRINT_LEVEL  MEDIUM
   PROJECT_NAME TEST
   RUN_TYPE  GEO_OPT
 &END GLOBAL
 &MOTION
   &GEO_OPT
     MAX_ITER  500
     STEP_START_VAL  103
   &END GEO_OPT
 &END MOTION
 &FORCE_EVAL
   METHOD  QS
   STRESS_TENSOR  ANALYTICAL
   &DFT
     BASIS_SET_FILE_NAME BASIS_MOLOPT
     POTENTIAL_FILE_NAME GTH_POTENTIALS
     UKS  T
     SURFACE_DIPOLE_CORRECTION  T
     SURF_DIP_DIR  Z
     &SCF
       MAX_SCF  80
       EPS_SCF     5.0000000000000004E-06
       &OT  T
         PRECONDITIONER  FULL_ALL
       &END OT
       &OUTER_SCF  T
         OPTIMIZER  NONE
         EPS_SCF     5.0000000000000004E-06
         MAX_SCF  4
       &END OUTER_SCF
       &PRINT
         &RESTART  OFF
           BACKUP_COPIES  1
           &EACH
             JUST_ENERGY  0
             QS_SCF  0
             MD  20
           &END EACH
         &END RESTART
       &END PRINT
     &END SCF
     &QS
       EPS_DEFAULT     1.0000000000000000E-14
       METHOD  GPW
     &END QS
     &MGRID
       NGRIDS  5
       CUTOFF     1.2000000000000000E+03
     &END MGRID
     &XC
       DENSITY_CUTOFF     1.0000000000000000E-10
       GRADIENT_CUTOFF     1.0000000000000000E-10
       TAU_CUTOFF     1.0000000000000000E-10
       &XC_FUNCTIONAL  NO_SHORTCUT
         &PBE  T
         &END PBE
       &END XC_FUNCTIONAL
       &VDW_POTENTIAL
         POTENTIAL_TYPE  PAIR_POTENTIAL
         &PAIR_POTENTIAL
           R_CUTOFF     1.0000000000000004E+01
           TYPE  DFTD3
           PARAMETER_FILE_NAME dftd3.dat
           REFERENCE_FUNCTIONAL PBE
           EPS_CN     9.9999999999999995E-07
           CALCULATE_C9_TERM  T
           REFERENCE_C9_TERM  T
           LONG_RANGE_CORRECTION  F
           VERBOSE_OUTPUT  F
         &END PAIR_POTENTIAL
       &END VDW_POTENTIAL
     &END XC
   &END DFT
   &SUBSYS
     &CELL
       A     1.2864472766435110E+01    0.0000000000000000E+00    0.0000000000000000E+00
       B    -6.4322363581020028E+00    1.1140960178524473E+01    0.0000000000000000E+00
       C     0.0000000000000000E+00    0.0000000000000000E+00    3.2000000000000000E+01
       MULTIPLE_UNIT_CELL  1 1 1
       &CELL_REF
         A     1.2982353780853531E+01    0.0000000000000000E+00    0.0000000000000000E+00
         B    -6.4911768904267628E+00    1.1243048175136114E+01    0.0000000000000000E+00
         C     0.0000000000000000E+00    0.0000000000000000E+00    3.2000000000000000E+01
         MULTIPLE_UNIT_CELL  1 1 1
       &END CELL_REF
     &END CELL
     &COORD
N    8.9607395078041358E-02    1.9845131674519843E+00    2.4961575238461786E+00
Ga    7.3415216648433659E-02    1.4330097697046320E-02    2.8258110782183867E+00
N    9.3270260015916956E-02   -1.7885102275677332E-02    5.0182813329670504E+00
Ga    9.1465917601956173E-02    1.8069699847785556E+00    5.8002507914629575E+00
N    9.0705182013859340E-02    1.8227535189551620E+00    7.8030108188519858E+00
Ga    8.8295759596579579E-02   -2.2658383003323432E-02    8.4445722309968332E+00
N    9.0496120385284845E-02   -2.3005688200061093E-02    1.0421100479682048E+01
Ga    9.0506517451217891E-02    1.8172829228152469E+00    1.1069530315252784E+01
N    9.1000030865282494E-02    1.7975908491408055E+00    1.3065172564740585E+01
Ga    9.0417183194443904E-02   -2.2071898011504242E-02    1.3866895888100823E+01
N    9.0820690249311234E-02   -2.0847531657496077E-02    1.6071821488398459E+01
Ga    9.1259432131913218E-02    2.0219368922653160E+00    1.6482179096680209E+01
Ga    6.2643844558186071E-02    3.6891591068335425E+00    1.3703347946827005E+00
N   -1.3955352045771856E+00    4.5556101007072192E+00    2.5253212328634955E+00
Ga   -1.5902011300609378E+00    2.7122398173107611E+00    3.2818946266599780E+00
N   -1.5187879356232630E+00    2.7622777982539164E+00    5.2603683876102991E+00
Ga   -1.5473833668497066E+00    4.6275206063176837E+00    5.8093793114373975E+00
N   -1.5276798066966926E+00    4.6265783094297568E+00    7.8054461057432105E+00
Ga   -1.5086667127033704E+00    2.7655221086361967E+00    8.4368342691247999E+00
N   -1.5065269615403101E+00    2.7694267106188741E+00    1.0433376989254516E+01
Ga   -1.5327474386925668E+00    4.6269641090057725E+00    1.1072880490797866E+01
N   -1.5489448235747914E+00    4.6377148591972270E+00    1.3067586707397281E+01
Ga   -1.5057818171989203E+00    2.7682321556814715E+00    1.3622176394149948E+01
N   -1.5310627759779636E+00    2.7531184310111998E+00    1.5585763628494584E+01
Ga   -1.3611804749890954E+00    4.5304991314010676E+00    1.6481182053031034E+01
N    9.1833765115666613E-02    3.7004918456320288E+00    1.7615956745094767E+01
N   -3.1202360987441771E+00    7.5266159324606194E+00    2.5305987333878104E+00
Ga   -3.0994595103650568E+00    5.5229074775770695E+00    2.8516508552778261E+00
N   -3.1249808311567069E+00    5.5490994673073830E+00    5.0236779551996324E+00
Ga   -3.1321825031334818E+00    7.3693255061736531E+00    5.8088759610302745E+00
N   -3.1245962169503168E+00    7.3943382209910178E+00    7.8013294716939354E+00
Ga   -3.1263028922844445E+00    5.5471355052495310E+00    8.4512934546490595E+00
N   -3.1256028824330517E+00    5.5491362306452379E+00    1.0424505589019311E+01
Ga   -3.1271801299239517E+00    7.3883427081038349E+00    1.1073812344943532E+01
N   -3.1253984150996370E+00    7.3684716179862217E+00    1.3067529082056502E+01
Ga   -3.1256522297898175E+00    5.5478439989411683E+00    1.3869018467185574E+01
N   -3.1252086439180107E+00    5.5502662827237961E+00    1.6072433831484556E+01
Ga   -3.1251689728643135E+00    7.5927328566759389E+00    1.6481610740347914E+01
Ga   -3.1392152998152034E+00    9.2642913727776293E+00    1.4971389050381845E+00
N   -4.6289221757484311E+00    1.0130970195288263E+01    2.5185777055274916E+00
Ga   -4.8444808130371042E+00    8.2808646014151499E+00    3.2911023076309860E+00
N   -4.7321633421343323E+00    8.3347746045277571E+00    5.2534880076093859E+00
Ga   -4.7651211315807585E+00    1.0209400838780105E+01    5.8009998470449551E+00
N   -4.7431589247939350E+00    1.0195658560617769E+01    7.7993596657642108E+00
Ga   -4.7263596356112076E+00    8.3401028293351036E+00    8.4381554045075422E+00
N   -4.7224070386584200E+00    8.3401969133562321E+00    1.0432666629260723E+01
Ga   -4.7489625522855610E+00    1.0199024402276708E+01    1.1071023455234744E+01
N   -4.7647947811609344E+00    1.0208299579627454E+01    1.3066420445366955E+01
Ga   -4.7223148330019029E+00    8.3396531143750110E+00    1.3622816034997649E+01
N   -4.7479596632077143E+00    8.3235147765285351E+00    1.5585689389312087E+01
Ga   -4.5776721839873211E+00    1.0100927590650729E+01    1.6480503401670976E+01
N   -3.1249461734993225E+00    9.2717128899860271E+00    1.7612214190500801E+01
N    3.2948781839381449E+00    1.8402663514845639E+00    2.6212581807060236E+00
Ga    3.2976162024885731E+00    9.9685174973669063E-02    3.2901403487662573E+00
N    3.3074022338297202E+00   -2.5328228056642858E-02    5.2534586769171252E+00
Ga    3.2986632071196533E+00    1.8365651459829353E+00    5.8761429614842617E+00
N    3.3067965235813515E+00    1.8329451374736798E+00    7.8531012297514726E+00
Ga    3.3043489893085107E+00   -3.2732094117049963E-02    8.4417132386253435E+00
N    3.3069101520947637E+00   -3.4952634341212319E-02    1.0435605679102986E+01
Ga    3.3068780014854537E+00    1.8351002125174674E+00    1.1029108582529734E+01
N    3.3071652624534256E+00    1.8342371580241736E+00    1.3002098578771614E+01
Ga    3.3068052990691816E+00   -3.5363368955099179E-02    1.3623063779978727E+01
N    3.3068587047289655E+00   -3.2082845434578274E-03    1.5587125731918720E+01
Ga    3.3074650025705963E+00    1.8351164013790497E+00    1.5865089484165415E+01
N    1.5821253149693928E+00    4.5579261939441871E+00    2.5246509516596038E+00
Ga    1.7665905074159729E+00    2.7250165566635780E+00    3.2726280635356653E+00
N    1.6993723021311011E+00    2.7623043665345910E+00    5.2561922076944638E+00
Ga    1.7303784190785529E+00    4.6271088476107751E+00    5.8104697175542102E+00
N    1.7076435729975263E+00    4.6253037844827718E+00    7.8071941174655395E+00
Ga    1.6881737751741490E+00    2.7661034256510053E+00    8.4403194128510144E+00
N    1.6883360832686196E+00    2.7691894193457953E+00    1.0435546039959547E+01
Ga    1.7149999725683605E+00    4.6276446946731964E+00    1.1072986826839875E+01
N    1.7314171469099757E+00    4.6377761372341020E+00    1.3067847631832684E+01
Ga    1.6875502924485259E+00    2.7683349628948974E+00    1.3622611228302915E+01
N    1.7137185406263429E+00    2.7526405115322832E+00    1.5586011539619498E+01
Ga    1.5447085055414935E+00    4.5306809865874254E+00    1.6480918274934623E+01
N    9.2452183700728288E-02    7.3878800462818539E+00    2.6957879831116052E+00
Ga    9.9773356324163773E-02    5.5472194369188319E+00    3.3385599012185478E+00
N    9.0400044735208379E-02    5.5614252570987039E+00    5.2760863111474601E+00
Ga    9.7642984333714294E-02    7.4025012692488898E+00    5.9085533928692833E+00
N    9.1064909411873826E-02    7.4065718328128982E+00    7.8682454784396212E+00
Ga    9.0550151796989484E-02    5.5332064550040663E+00    8.4479727260118054E+00
N    9.0797682226703799E-02    5.5358482542388252E+00    1.0439607597552099E+01
Ga    9.1274106397630325E-02    7.4055066533782670E+00    1.1031649784668245E+01
N    9.1106965961473232E-02    7.4051296578490202E+00    1.3003331153943110E+01
Ga    9.1159266756205198E-02    5.5344814374577327E+00    1.3623426688075204E+01
N    9.1213156455983477E-02    5.5667631459389568E+00    1.5587352538995008E+01
Ga    9.1742999322760754E-02    7.4051073971609229E+00    1.5865863686987240E+01
N   -1.6206119362778919E+00    1.0119822787660159E+01    2.5257011707532016E+00
Ga   -1.4770375854042339E+00    8.3061203667632579E+00    3.3356000392642962E+00
N   -1.5053773135435435E+00    8.3263586651396437E+00    5.2634647013970142E+00
Ga   -1.4926639901689300E+00    1.0212116112934348E+01    5.8120449681828710E+00
N   -1.5091425000504179E+00    1.0193547377418655E+01    7.8036552158004335E+00
Ga   -1.5297450959267598E+00    8.3399142996946285E+00    8.4499628824223372E+00
N   -1.5289266244641750E+00    8.3402246115302425E+00    1.0439480468644788E+01
Ga   -1.5025883397814244E+00    1.0200287073336661E+01    1.1074331952527789E+01
N   -1.4851789451537267E+00    1.0208445886751212E+01    1.3068442572847406E+01
Ga   -1.5285402870871825E+00    8.3392950000692601E+00    1.3623723534596431E+01
N   -1.5019021969542850E+00    8.3230000451688735E+00    1.5586489580374231E+01
Ga   -1.6718478261525145E+00    1.0101352630937688E+01    1.6480534166431188E+01
N    6.5199617280675088E+00    1.9588254515097692E+00    2.5402189791906129E+00
Ga    6.5386237262993419E+00   -2.1967672253007116E-02    2.8651005971678623E+00
N    6.5176568920613622E+00   -2.1682180095881871E-02    5.0281982483359400E+00
Ga    6.5204966877048145E+00    1.8078390871308319E+00    5.8068962546132452E+00
N    6.5216394509196496E+00    1.8226241576501354E+00    7.8033907450192084E+00
Ga    6.5238632883639953E+00   -2.2809955704496357E-02    8.4488594526258503E+00
N    6.5231172942676485E+00   -2.2863915870749367E-02    1.0422786064050836E+01
Ga    6.5233455578477404E+00    1.8182622486633193E+00    1.1070890261939692E+01
N    6.5235373289105683E+00    1.7974781350488884E+00    1.3065480643056436E+01
Ga    6.5239106537800184E+00   -2.1436863547937151E-02    1.3869821434344562E+01
N    6.5239737638024797E+00   -2.0237997239397870E-02    1.6072276812930735E+01
Ga    6.5236918935496089E+00    2.0260181755307958E+00    1.6484455537737304E+01
Ga    6.5241371252024418E+00    3.6902215417194930E+00    1.5340807443930502E+00
N    5.0194243855084375E+00    4.5577828619207059E+00    2.5328587619444671E+00
Ga    4.8025205955035934E+00    2.7065062996396292E+00    3.3001561217444282E+00
N    4.9114197776183461E+00    2.7629526948593472E+00    5.2613136735717356E+00
Ga    4.8875265480949386E+00    4.6358052304941113E+00    5.8068055086798083E+00
N    4.9052387216886588E+00    4.6254339692964361E+00    7.8039161952849687E+00
Ga    4.9231336839592608E+00    2.7679416719999317E+00    8.4412152371609004E+00
N    4.9256622491042048E+00    2.7695784296781181E+00    1.0435264920719044E+01
Ga    4.9007834742188647E+00    4.6288661752373734E+00    1.1071448892974356E+01
N    4.8839629061797458E+00    4.6379579877513253E+00    1.3066539062527241E+01
Ga    4.9270334891002587E+00    2.7687313214910119E+00    1.3622612418593596E+01
N    4.9002354267395880E+00    2.7526694398862279E+00    1.5585310470804375E+01
Ga    5.0738941321853464E+00    4.5286713820923241E+00    1.6483924812206883E+01
N    6.5234514845038634E+00    3.7011080969819541E+00    1.7617523368250435E+01
N    3.3034806049920684E+00    7.5207684581389715E+00    2.5071792942621616E+00
N    3.3063465611139433E+00    5.5468571192423290E+00    5.0330040134340042E+00
Ga    3.3101182965973983E+00    7.3737500893189045E+00    5.7988007069374907E+00
N    3.3041060733649901E+00    7.3957457533398463E+00    7.7974280202088142E+00
Ga    3.3066801036210691E+00    5.5493929736860830E+00    8.4487125053422680E+00
N    3.3072141965602699E+00    5.5494346937402055E+00    1.0423212705672244E+01
Ga    3.3091038406954745E+00    7.3885292991133467E+00    1.1072587314665098E+01
N    3.3080275154177636E+00    7.3684037980027126E+00    1.3066596617266770E+01
Ga    3.3082021499455387E+00    5.5484002585258816E+00    1.3869736790025295E+01
N    3.3081643405275885E+00    5.5504486281930472E+00    1.6072099385859389E+01
Ga    3.3081056754954696E+00    7.5946037977468750E+00    1.6483570786690898E+01
Ga    3.3461362088737885E+00    9.2857348688398442E+00    1.3389083104527881E+00
N    1.7955054656061358E+00    1.0126815866205101E+01    2.5119272736824327E+00
Ga    1.6892050518922193E+00    8.3214288388923254E+00    3.2937258527828250E+00
N    1.6842212008549422E+00    8.3255324825818313E+00    5.2418064337885886E+00
Ga    1.6741741073144751E+00    1.0206897883244979E+01    5.7990064492927642E+00
N    1.6877048306005487E+00    1.0192736821648143E+01    7.7970625724995726E+00
Ga    1.7120572714604452E+00    8.3414123170027850E+00    8.4481286690639958E+00
N    1.7106159863679131E+00    8.3405178566542375E+00    1.0438654293579143E+01
Ga    1.6852869177685654E+00    1.0200501048544082E+01    1.1073083056503329E+01
N    1.6676491129385145E+00    1.0208635979417505E+01    1.3067307973862025E+01
Ga    1.7113404094102047E+00    8.3395542331120183E+00    1.3623320433270703E+01
N    1.6844537099031320E+00    8.3228541009698063E+00    1.5585332609887310E+01
Ga    1.8573138456717344E+00    1.0099752763464718E+01    1.6482537219719919E+01
N    3.3075431433128912E+00    9.2707057367709780E+00    1.7617264080894898E+01
N    9.7478089865316395E+00    1.8335277203864091E+00    2.6327767498108869E+00
Ga    9.7415076206747440E+00    7.1959807821173866E-02    3.2650650818416560E+00
N    9.7348705246582270E+00   -2.5838833023543228E-02    5.2454302617627304E+00
Ga    9.7436373943647787E+00    1.8292078475102356E+00    5.8699300046535772E+00
N    9.7377497465072320E+00    1.8329214165717687E+00    7.8499441695438401E+00
Ga    9.7399212835422517E+00   -3.3915687651200913E-02    8.4336990786601884E+00
N    9.7388694226633650E+00   -3.5096107684364795E-02    1.0431190667080237E+01
Ga    9.7393349002972016E+00    1.8345589027496954E+00    1.1025985619387086E+01
N    9.7397273024462390E+00    1.8343344225849294E+00    1.2999656536636992E+01
Ga    9.7398737388940173E+00   -3.4916617083246310E-02    1.3622597725130181E+01
N    9.7401908509492028E+00   -2.6044306706226807E-03    1.5585972862185239E+01
Ga    9.7396934987282915E+00    1.8350866497051150E+00    1.5865054364145259E+01
N    8.0240289455902083E+00    4.5584132384956328E+00    2.5396314211466144E+00
Ga    8.2405235221561810E+00    2.6993949456130437E+00    3.3017799797870584E+00
N    8.1298650982564418E+00    2.7621984668211073E+00    5.2623898046564346E+00
Ga    8.1544533829978469E+00    4.6345828508504630E+00    5.8032663129519086E+00
N    8.1404777988994521E+00    4.6265968712685845E+00    7.8009089240229565E+00
Ga    8.1223791212073948E+00    2.7675404377059412E+00    8.4377966289964341E+00
N    8.1200535904719704E+00    2.7699132258547059E+00    1.0433139850816536E+01
Ga    8.1449231445301713E+00    4.6282834648504974E+00    1.1071677100764889E+01
N    8.1628877515981362E+00    4.6378665786160562E+00    1.3066414337328036E+01
Ga    8.1205082520096390E+00    2.7684535761453675E+00    1.3622009888149599E+01
N    8.1469637119231546E+00    2.7530808898583001E+00    1.5584807710609699E+01
Ga    7.9731825656021842E+00    4.5283932556337705E+00    1.6483929687359261E+01
N    6.5173736444233326E+00    7.4080653868938127E+00    2.6136656674696037E+00
Ga    6.5168502162311901E+00    5.6707153681297502E+00    3.2973869855935956E+00
N    6.5214151376107301E+00    5.5506607189596346E+00    5.2582894010159125E+00
Ga    6.5154797483245561E+00    7.4100272557945974E+00    5.8710089049786349E+00
N    6.5219448161905866E+00    7.4060228818164617E+00    7.8477988662996117E+00
Ga    6.5224907586253833E+00    5.5386807637250373E+00    8.4391273067093540E+00
N    6.5231711413107254E+00    5.5369182261942544E+00    1.0433859633102582E+01
Ga    6.5225450682248507E+00    7.4064506768865925E+00    1.1026810508318134E+01
N    6.5235158393344275E+00    7.4056963760724432E+00    1.3000185915345689E+01
Ga    6.5234841760261224E+00    5.5356521271204997E+00    1.3622909036410233E+01
N    6.5239934852970896E+00    5.5673983858004590E+00    1.5586984341720921E+01
Ga    6.5235740648388614E+00    7.4051176359546362E+00    1.5865795818302667E+01
N    4.8148722658352456E+00    1.0134295482953037E+01    2.5175735157168071E+00
Ga    4.9925310130347764E+00    8.2890592259975389E+00    3.2606711821784535E+00
N    4.9116258783216917E+00    8.3335476885208113E+00    5.2412370470425067E+00
Ga    4.9403914269409039E+00    1.0206175642655303E+01    5.7875556872344021E+00
N    4.9240881800836283E+00    1.0195584319348715E+01    7.7928916680551463E+00
Ga    4.9045403549906892E+00    8.3413962123002712E+00    8.4343697654086949E+00
N    4.9039632034431024E+00    8.3402537329693622E+00    1.0430751928431118E+01
Ga    4.9292437532596436E+00    1.0198829468127011E+01    1.1069290864177921E+01
N    4.9466382046429533E+00    1.0208219580565631E+01    1.3065077750742716E+01
Ga    4.9046372648553964E+00    8.3397910602903504E+00    1.3622900816215573E+01
N    4.9313819492677800E+00    8.3233692579546830E+00    1.5585018873112002E+01
Ga    4.7574665752220264E+00    1.0099381337544759E+01    1.6482772243832287E+01
O    1.0444072712085330E-01    4.0654984161340026E+00   -4.3116833491579099E-01
H   -8.9960077574895977E-02    5.8521169523959671E+00   -3.5660612262310654E-01
C    1.2872844413220277E+00    3.6354155921943851E+00   -1.1341570266939829E+00
H    2.2134984518603305E+00    3.9330549917639512E+00   -6.1531988685684391E-01
H    1.2969763621209556E+00    2.5425075455458424E+00   -1.2642375413426992E+00
H    1.2758933173256159E+00    4.1028891228759727E+00   -2.1286882666906850E+00
Ga    3.2774761330080020E+00    5.5430584064281891E+00    2.8576418099827241E+00
O   -8.2319645029986399E-02    6.8384385630644333E+00   -2.1926579237571123E-01
H    5.2031261952697007E-02    7.3164516019327577E+00    1.6586641389913868E+00
C    1.0944003830984497E+00    7.3408952709984145E+00   -8.6596152777565483E-01
H    1.1242813426202773E+00    8.4265681801729304E+00   -6.9743624366126267E-01
H    2.0150170030066605E+00    6.9000041811583648E+00   -4.4826104284974888E-01
H    1.0752034557785533E+00    7.1621715944295739E+00   -1.9525782177647588E+00
     &END COORD
     &KIND C
       BASIS_SET DZVP-MOLOPT-SR-GTH-q4
       POTENTIAL GTH-PBE-q4
       &POTENTIAL
 2 2
  0.3384712400000000E+00 2 -0.8803673979999999E+01  0.1339210850000000E+01
 2
  0.3025757500000000E+00 1  0.9622486650000001E+01
  0.2915069400000000E+00 0
         # Potential name:  GTH-PBE-Q4  for symbol:  C
         # Potential read from the potential filename: GTH_POTENTIALS
       &END POTENTIAL
     &END KIND
     &KIND O
       BASIS_SET DZVP-MOLOPT-SR-GTH-q6
       POTENTIAL GTH-PBE-q6
       &POTENTIAL
 2 4
  0.2445543000000000E+00 2 -0.1666721480000000E+02  0.2487311320000000E+01
 2
  0.2209559200000000E+00 1  0.1833745811000000E+02
  0.2113324700000000E+00 0
         # Potential name:  GTH-PBE-Q6  for symbol:  O
         # Potential read from the potential filename: GTH_POTENTIALS
       &END POTENTIAL
     &END KIND
     &KIND H
       BASIS_SET DZVP-MOLOPT-SR-GTH-q1
       POTENTIAL GTH-PBE-q1
       &POTENTIAL
 1
  0.2000000000000000E+00 2 -0.4178900440000000E+01  0.7244633100000000E+00
 0
         # Potential name:  GTH-PBE-Q1  for symbol:  H
         # Potential read from the potential filename: GTH_POTENTIALS
       &END POTENTIAL
     &END KIND
     &KIND N
       BASIS_SET DZVP-MOLOPT-SR-GTH
       POTENTIAL GTH-PBE-q5
       &POTENTIAL
 2 3
  0.2837905100000000E+00 2 -0.1241522559000000E+02  0.1868095920000000E+01
 2
  0.2554050000000000E+00 1  0.1363026257000000E+02
  0.2454945300000000E+00 0
         # Potential name:  GTH-PBE-Q5  for symbol:  N
         # Potential read from the potential filename: GTH_POTENTIALS
       &END POTENTIAL
     &END KIND
     &KIND Ga
       BASIS_SET DZVP-MOLOPT-SR-GTH
       POTENTIAL GTH-PBE-q13
       &POTENTIAL
 2 1 10
  0.4900000000000000E+00 0
 3
  0.4167772300000000E+00 3  0.1047568975000000E+02 -0.4921768140000000E+01  0.8707055900000000E+00
  0.7770178090000000E+01 -0.2248152160000000E+01
  0.1784415450000000E+01
  0.5696265200000000E+00 2  0.1777985340000000E+01  0.1958597600000000E+00
 -0.2317443900000000E+00
  0.2381265000000000E+00 1 -0.1624868022000000E+02
         # Potential name:  GTH-PBE-Q13  for symbol:  GA
         # Potential read from the potential filename: GTH_POTENTIALS
       &END POTENTIAL
     &END KIND
     &TOPOLOGY
       NUMBER_OF_ATOMS  212
       MULTIPLE_UNIT_CELL  1 1 1
     &END TOPOLOGY
   &END SUBSYS
 &END FORCE_EVAL
