 # Version information for this restart file 
 # current date 2019-07-07 15:44:41.573
 # current working dir /lustre04/scratch/rzk/rzk/GaN-carbene/443-adatoms-both-2x2/04-2Methanol/04-GaJumps1Ring-Attempt2
 # Program compiled at                              Sun Apr  7 00:48:11 EDT 2019
 # Program compiled on                          beluga2.int.ets1.calculquebec.ca
 # Program compiled for                        Beluga-Linux-x86-64-intel-openmpi
 # Source code revision number                                         svn:18619
 &GLOBAL
   PRINT_LEVEL  MEDIUM
   PROJECT_NAME TEST
   RUN_TYPE  GEO_OPT
 &END GLOBAL
 &MOTION
   &GEO_OPT
     MAX_ITER  500
     STEP_START_VAL  42
   &END GEO_OPT
 &END MOTION
 &FORCE_EVAL
   METHOD  QS
   STRESS_TENSOR  ANALYTICAL
   &DFT
     BASIS_SET_FILE_NAME BASIS_MOLOPT
     POTENTIAL_FILE_NAME GTH_POTENTIALS
     UKS  T
     SURFACE_DIPOLE_CORRECTION  T
     SURF_DIP_DIR  Z
     &SCF
       MAX_SCF  80
       EPS_SCF     5.0000000000000004E-06
       &OT  T
         PRECONDITIONER  FULL_ALL
       &END OT
       &OUTER_SCF  T
         OPTIMIZER  NONE
         EPS_SCF     5.0000000000000004E-06
         MAX_SCF  4
       &END OUTER_SCF
       &PRINT
         &RESTART  OFF
           BACKUP_COPIES  1
           &EACH
             JUST_ENERGY  0
             QS_SCF  0
             MD  20
           &END EACH
         &END RESTART
       &END PRINT
     &END SCF
     &QS
       EPS_DEFAULT     1.0000000000000000E-14
       METHOD  GPW
     &END QS
     &MGRID
       NGRIDS  5
       CUTOFF     1.2000000000000000E+03
     &END MGRID
     &XC
       DENSITY_CUTOFF     1.0000000000000000E-10
       GRADIENT_CUTOFF     1.0000000000000000E-10
       TAU_CUTOFF     1.0000000000000000E-10
       &XC_FUNCTIONAL  NO_SHORTCUT
         &PBE  T
         &END PBE
       &END XC_FUNCTIONAL
       &VDW_POTENTIAL
         POTENTIAL_TYPE  PAIR_POTENTIAL
         &PAIR_POTENTIAL
           R_CUTOFF     1.0000000000000004E+01
           TYPE  DFTD3
           PARAMETER_FILE_NAME dftd3.dat
           REFERENCE_FUNCTIONAL PBE
           EPS_CN     9.9999999999999995E-07
           CALCULATE_C9_TERM  T
           REFERENCE_C9_TERM  T
           LONG_RANGE_CORRECTION  F
           VERBOSE_OUTPUT  F
         &END PAIR_POTENTIAL
       &END VDW_POTENTIAL
     &END XC
   &END DFT
   &SUBSYS
     &CELL
       A     1.2864472766435110E+01    0.0000000000000000E+00    0.0000000000000000E+00
       B    -6.4322363581020028E+00    1.1140960178524473E+01    0.0000000000000000E+00
       C     0.0000000000000000E+00    0.0000000000000000E+00    3.2000000000000000E+01
       MULTIPLE_UNIT_CELL  1 1 1
       &CELL_REF
         A     1.2982353780853531E+01    0.0000000000000000E+00    0.0000000000000000E+00
         B    -6.4911768904267628E+00    1.1243048175136114E+01    0.0000000000000000E+00
         C     0.0000000000000000E+00    0.0000000000000000E+00    3.2000000000000000E+01
         MULTIPLE_UNIT_CELL  1 1 1
       &END CELL_REF
     &END CELL
     &COORD
N    9.5185925887212683E-02    1.9729843894934782E+00    2.5069418986690710E+00
Ga    7.9179803140255731E-02    6.7335889450308188E-03    2.8828475974005126E+00
N    9.2421079253266633E-02   -1.9965371746523752E-02    5.0481947316051521E+00
Ga    8.6974674600468399E-02    1.8108856206437820E+00    5.8072805758992176E+00
N    8.5575852102482988E-02    1.8212008921525760E+00    7.8087006007054871E+00
Ga    8.3668727800929876E-02   -1.9839568174583763E-02    8.4594553898030274E+00
N    8.5239562419423834E-02   -2.5270235651890009E-02    1.0432105704104506E+01
Ga    8.0475388964799041E-02    1.8163763344046184E+00    1.1071986012351578E+01
N    8.1532120460911489E-02    1.7952868456230708E+00    1.3067347220441791E+01
Ga    8.0906209857444678E-02   -2.3091901163582888E-02    1.3873236935302044E+01
N    8.0919457103920039E-02   -2.5784769228563192E-02    1.6073279710495260E+01
Ga    8.1108803587007824E-02    2.0278148387768629E+00    1.6498575834855636E+01
Ga    6.2090694013380056E-02    3.6928527535499587E+00    1.3820650477088066E+00
N   -1.3927838646500623E+00    4.5490533105860722E+00    2.5398179621316128E+00
Ga   -1.5908766879708525E+00    2.6849156431970944E+00    3.2764586858218632E+00
N   -1.5237749583335454E+00    2.7556637125308798E+00    5.2543669791315617E+00
Ga   -1.5499390952541414E+00    4.6216025560878995E+00    5.7986546441768754E+00
N   -1.5345277424474306E+00    4.6238863656186702E+00    7.7967307185975008E+00
Ga   -1.5224385478632687E+00    2.7596814907218050E+00    8.4235068896639884E+00
N   -1.5157045331653789E+00    2.7650915502387310E+00    1.0426244983572971E+01
Ga   -1.5391072708055606E+00    4.6227917621967523E+00    1.1064621096063608E+01
N   -1.5564374395382703E+00    4.6323007297900674E+00    1.3062045527505600E+01
Ga   -1.5152284316887632E+00    2.7647085253611268E+00    1.3624276799732080E+01
N   -1.5440340578351923E+00    2.7465703100448922E+00    1.5584946914270793E+01
Ga   -1.3559187918098328E+00    4.5141781071777736E+00    1.6498631894916635E+01
N    8.0598978879063962E-02    3.6894169024143140E+00    1.7641259876096807E+01
N   -3.1485526950036036E+00    7.5231805604287958E+00    2.5331462259661262E+00
Ga   -3.0962075696964364E+00    5.5101568379772905E+00    2.8517292991524710E+00
N   -3.1303303028533702E+00    5.5454114663209708E+00    5.0126680489267770E+00
Ga   -3.1370407984104425E+00    7.3654880256323958E+00    5.7931972609335647E+00
N   -3.1349621643445360E+00    7.3921577696748537E+00    7.7893204321511496E+00
Ga   -3.1330942230061432E+00    5.5433176454471633E+00    8.4394562137610354E+00
N   -3.1337220566980180E+00    5.5453147147061141E+00    1.0416706439125788E+01
Ga   -3.1295858077078114E+00    7.3811809937693269E+00    1.1075859981188398E+01
N   -3.1326435509152528E+00    7.3624906162504473E+00    1.3069092805217622E+01
Ga   -3.1275603115951927E+00    5.5422727505747442E+00    1.3869464257425053E+01
N   -3.1309130258843054E+00    5.5428467522817497E+00    1.6072929551123440E+01
Ga   -3.1339552583652415E+00    7.5875197573085096E+00    1.6485863458704436E+01
Ga   -3.1213308578184993E+00    9.2667913649613354E+00    1.5383739083904240E+00
N   -4.6329063444488030E+00    1.0127766116896087E+01    2.5170379593324599E+00
Ga   -4.8776147869158928E+00    8.2996001444905634E+00    3.2733932132571448E+00
N   -4.7583679910273311E+00    8.3212030521435132E+00    5.2330847912682499E+00
Ga   -4.7754714644275600E+00    1.0200891472854304E+01    5.8148332042534765E+00
N   -4.7527946172955087E+00    1.0186052882000938E+01    7.8090346579788816E+00
Ga   -4.7225938534377345E+00    8.3371856611073660E+00    8.4613046751003846E+00
N   -4.7263689371444402E+00    8.3368692008039584E+00    1.0447697721731648E+01
Ga   -4.7560704933265860E+00    1.0197486287931399E+01    1.1081744701720019E+01
N   -4.7736899205318091E+00    1.0204000988968088E+01    1.3074595891714933E+01
Ga   -4.7297513180087467E+00    8.3340769413407170E+00    1.3624827678025197E+01
N   -4.7575969961615625E+00    8.3144317462147708E+00    1.5588175279614740E+01
Ga   -4.5876854002046814E+00    1.0095065232041714E+01    1.6484500400195838E+01
N   -3.1389117625969587E+00    9.2630773823593433E+00    1.7618562978048061E+01
N    3.2948249606468005E+00    1.8354971675283065E+00    2.6379359609611921E+00
Ga    3.2901866871176315E+00    9.8521399306970389E-02    3.3110360094303153E+00
N    3.2921896537405893E+00   -3.2147068538341900E-02    5.2693903157651949E+00
Ga    3.2923773587324510E+00    1.8324495664104594E+00    5.8890706589679214E+00
N    3.3000638583553750E+00    1.8293466887529848E+00    7.8641840753032737E+00
Ga    3.2970049546254256E+00   -3.7753096028313816E-02    8.4496900330996514E+00
N    3.2979931670365947E+00   -3.8877949677646004E-02    1.0441918211359166E+01
Ga    3.2988752490122102E+00    1.8310768591006525E+00    1.1032749072448501E+01
N    3.2995324104642831E+00    1.8296209142161828E+00    1.3005999646280054E+01
Ga    3.3002811918064365E+00   -4.1215077458488521E-02    1.3624123989238058E+01
N    3.3014813007182329E+00   -9.5802274240581551E-03    1.5588598315131343E+01
Ga    3.2965954748232074E+00    1.8286270197318220E+00    1.5864733191525362E+01
N    1.5919367977231003E+00    4.5559529287487353E+00    2.5413110101627008E+00
Ga    1.7626874769621568E+00    2.7225326905295812E+00    3.2818230443308818E+00
N    1.6960011906974297E+00    2.7568393368523680E+00    5.2649590852083454E+00
Ga    1.7206999832277718E+00    4.6174918638393301E+00    5.8212991892288644E+00
N    1.7018620383393503E+00    4.6196159235640053E+00    7.8151027509388227E+00
Ga    1.6796910462105559E+00    2.7632383635002222E+00    8.4481065216573938E+00
N    1.6804824014172919E+00    2.7653915593118867E+00    1.0441600025036340E+01
Ga    1.7035420560077312E+00    4.6246297759981205E+00    1.1073203499038197E+01
N    1.7196412755004467E+00    4.6329762717988112E+00    1.3067981181359812E+01
Ga    1.6779338821676784E+00    2.7646834463277212E+00    1.3626084203081406E+01
N    1.7067808665289401E+00    2.7463009761342021E+00    1.5586524613330505E+01
Ga    1.5174850411353775E+00    4.5143084126503270E+00    1.6498276191642645E+01
N    1.0714605476595102E-01    7.3831451659494904E+00    2.6656711719624853E+00
Ga    1.1201866730224060E-01    5.5560358194289918E+00    3.3411809223319686E+00
N    8.8692607214499869E-02    5.5584993943339072E+00    5.2784345101780099E+00
Ga    1.2181586770046607E-01    7.4166794617973668E+00    5.8679471113085278E+00
N    8.8971465080310327E-02    7.4081970755294257E+00    7.8428535358137275E+00
Ga    8.3222576632703313E-02    5.5373323797015717E+00    8.4348323329738193E+00
N    8.3005039977046155E-02    5.5345719421218389E+00    1.0431595068569111E+01
Ga    8.2992078480203346E-02    7.4014761302532959E+00    1.1029972818650473E+01
N    8.1784704051194174E-02    7.4001423615713673E+00    1.3002603646671629E+01
Ga    8.0789263742080522E-02    5.5296045795547544E+00    1.3625256950677230E+01
N    8.0443502684344428E-02    5.5610454421879219E+00    1.5586719751817645E+01
Ga    8.1003457127535372E-02    7.3968930830523947E+00    1.5864583675621692E+01
N   -1.6439420009487504E+00    1.0115543471408312E+01    2.5474855017826585E+00
Ga   -1.4534901403749112E+00    8.2977690786204086E+00    3.3367413009350413E+00
N   -1.5123325029153452E+00    8.3237055905757149E+00    5.2594470203346741E+00
Ga   -1.5028948407031595E+00    1.0208971832535839E+01    5.8263656429283346E+00
N   -1.5216579871541627E+00    1.0187265250460607E+01    7.8136106835205315E+00
Ga   -1.5321811134806969E+00    8.3306344088886153E+00    8.4373302409399908E+00
N   -1.5359663368373899E+00    8.3324445380607539E+00    1.0432180795294279E+01
Ga   -1.5076940652233681E+00    1.0194055659604194E+01    1.1065945337030202E+01
N   -1.4934707127984344E+00    1.0202570071365468E+01    1.3063544063322475E+01
Ga   -1.5362236334851525E+00    8.3348371369947962E+00    1.3623473929626961E+01
N   -1.5112932148155982E+00    8.3181216342256334E+00    1.5586390588668273E+01
Ga   -1.6875096949246189E+00    1.0090351230595326E+01    1.6485329040895774E+01
N    6.5065239450283947E+00    1.9599174720116359E+00    2.5599914894405953E+00
Ga    6.5314894921667861E+00   -3.0497180322204935E-02    2.9104862826240612E+00
N    6.4839031275064087E+00   -1.2306546324380748E-02    5.0675066953087118E+00
Ga    6.5154461372550845E+00    1.8037851487025456E+00    5.8188508569480533E+00
N    6.5165378770040698E+00    1.8236745957351219E+00    7.8118867414978714E+00
Ga    6.5271795534044603E+00   -3.2945757034279800E-02    8.4281054941693565E+00
N    6.5171657277090551E+00   -2.8193597015722868E-02    1.0412206353083402E+01
Ga    6.5193437127526108E+00    1.8117750143866840E+00    1.1062197503620585E+01
N    6.5158319508352234E+00    1.7923389689000158E+00    1.3062458025977808E+01
Ga    6.5145097302610626E+00   -2.9227452105531466E-02    1.3862393155025549E+01
N    6.5137034182988556E+00   -2.9503452192839147E-02    1.6071473301990260E+01
Ga    6.5140626727587900E+00    1.9994010800213555E+00    1.6468585998147582E+01
Ga    6.5199040753965543E+00    3.6617702264420715E+00    1.5618777677337641E+00
N    5.0168110169666411E+00    4.5479770281307168E+00    2.5361364403292890E+00
Ga    4.7998066894212172E+00    2.7010615825109006E+00    3.3228642297243067E+00
N    4.9056460619301712E+00    2.7657969364549015E+00    5.2791923606892972E+00
Ga    4.8877269793219487E+00    4.6354892681847177E+00    5.8217365214687806E+00
N    4.9050956076059533E+00    4.6249544550107302E+00    7.8150462361527193E+00
Ga    4.9187921552356695E+00    2.7630142768780876E+00    8.4480698256654296E+00
N    4.9180970906474197E+00    2.7655966864177772E+00    1.0441561462885421E+01
Ga    4.8919423831885833E+00    4.6227292435266776E+00    1.1079675710778105E+01
N    4.8744455472615069E+00    4.6331071624897051E+00    1.3074524926717276E+01
Ga    4.9194257039866240E+00    2.7624330590078592E+00    1.3619756898369111E+01
N    4.8954232717730779E+00    2.7462823667727219E+00    1.5588461059177092E+01
Ga    5.0461115464809216E+00    4.5306714136882977E+00    1.6467799792722936E+01
N    6.5143662676384837E+00    3.6944406887692631E+00    1.7593632659061797E+01
N    3.4373090993867677E+00    7.4626528074502962E+00    2.5477817437105426E+00
N    3.3048813308495095E+00    5.5346420408019688E+00    5.0697270885282117E+00
Ga    3.2470110649235195E+00    7.3593069543137082E+00    5.8399453108159678E+00
N    3.2839192889120623E+00    7.3872700284842425E+00    7.8272156238997637E+00
Ga    3.2985075950578957E+00    5.5413467718790672E+00    8.4616222908858969E+00
N    3.3007139405081012E+00    5.5429294375210114E+00    1.0433355683163011E+01
Ga    3.2986735429663665E+00    7.3866094724638458E+00    1.1071022949107698E+01
N    3.2977486766815129E+00    7.3645928815988393E+00    1.3067232124540338E+01
Ga    3.2926209275521301E+00    5.5444962720874429E+00    1.3868832967490539E+01
N    3.2938852471363660E+00    5.5434260498854959E+00    1.6072977285746575E+01
Ga    3.2959679577377181E+00    7.5866418039192407E+00    1.6484187372069229E+01
Ga    4.8527135420571375E+00    8.3727140764920289E+00    1.1695343602804231E+00
N    1.6786450808421973E+00    1.0179970989441683E+01    2.4927999447871430E+00
Ga    1.7663361315146706E+00    8.3879729861168197E+00    3.0754671872443944E+00
N    1.6972127187505508E+00    8.3114743011639245E+00    5.1389360918816740E+00
Ga    1.6892136487248934E+00    1.0194042721025554E+01    5.7104751964172094E+00
N    1.6861772227461760E+00    1.0185578413661064E+01    7.7572314360151813E+00
Ga    1.6952633798938763E+00    8.3498456282533695E+00    8.4468551437170163E+00
N    1.6995726023264603E+00    8.3399361945041992E+00    1.0439971105089498E+01
Ga    1.6751044687595695E+00    1.0198146123386714E+01    1.1072761545822889E+01
N    1.6586600267649976E+00    1.0203717526026884E+01    1.3068001915083114E+01
Ga    1.7008009489398817E+00    8.3346192943594151E+00    1.3622366134375623E+01
N    1.6737077439777015E+00    8.3175540024910255E+00    1.5585914379876456E+01
Ga    1.8488994594680308E+00    1.0090669436001665E+01    1.6482652074702411E+01
N    3.3005910434754160E+00    9.2633672544789611E+00    1.7617184010885730E+01
N    9.7588173719226798E+00    1.8131603023283858E+00    2.6013448851019003E+00
Ga    9.7106051073683144E+00   -4.3226739484073989E-02    2.9865135241357534E+00
N    9.7452601187632091E+00   -4.0714902242323728E-02    5.1405015841323740E+00
Ga    9.7376715425470817E+00    1.7889309845774981E+00    5.8192145248348792E+00
N    9.7299168606867958E+00    1.8249384661768051E+00    7.8215759381510432E+00
Ga    9.7167798045165696E+00   -3.2466163913108331E-02    8.4311920224978714E+00
N    9.7263264552878574E+00   -3.7086872407643225E-02    1.0432278511144130E+01
Ga    9.7320693933472597E+00    1.8315485328381300E+00    1.1024135181246415E+01
N    9.7300829573140994E+00    1.8297713314771060E+00    1.2999802444644438E+01
Ga    9.7306656826961149E+00   -3.9862357612824278E-02    1.3621934068820869E+01
N    9.7267261410786467E+00   -9.7959320891086981E-03    1.5587452704153284E+01
Ga    9.7314526214539168E+00    1.8282748900992827E+00    1.5865321790955495E+01
N    8.0071974946578504E+00    4.5768792206804783E+00    2.5385763059310520E+00
Ga    8.2495902436997284E+00    2.6628156788982298E+00    3.2916057561180159E+00
N    8.1238355276462837E+00    2.7565553097157451E+00    5.2474787557931348E+00
Ga    8.1497781487312420E+00    4.6273971048100737E+00    5.7823786974206399E+00
N    8.1316162048820289E+00    4.6243517534057972E+00    7.7861574373764624E+00
Ga    8.1241180310780674E+00    2.7628190626219791E+00    8.4242348544619716E+00
N    8.1157870192083568E+00    2.7675105810495939E+00    1.0426686223652858E+01
Ga    8.1432942994695559E+00    4.6214081341803803E+00    1.1073847120150981E+01
N    8.1567842104831190E+00    4.6328062665234988E+00    1.3070452115846988E+01
Ga    8.1120950860303509E+00    2.7624151151474079E+00    1.3618554988075271E+01
N    8.1330163445546297E+00    2.7462300310647305E+00    1.5587725558334169E+01
Ga    7.9823515550843815E+00    4.5307067992916776E+00    1.6468348062903441E+01
N    6.3733410216094555E+00    7.4901255540078839E+00    2.6300390229528809E+00
Ga    6.4792144248017074E+00    5.6794510150832833E+00    3.2757882699921508E+00
N    6.5149131152609021E+00    5.5698969468971082E+00    5.2350393558034307E+00
Ga    6.5361763532974155E+00    7.3907712907533600E+00    5.9408656847887285E+00
N    6.5253192363052790E+00    7.3955383050264052E+00    7.8924545859735495E+00
Ga    6.5224174748650823E+00    5.5240607667746673E+00    8.4619337205268863E+00
N    6.5177477135242379E+00    5.5290522410714162E+00    1.0449373659076068E+01
Ga    6.5138717367499019E+00    7.4031936278081458E+00    1.1031121324730414E+01
N    6.5141003199771665E+00    7.3998887447524000E+00    1.3005548813391332E+01
Ga    6.5158214656595979E+00    5.5295513182475844E+00    1.3621391021849304E+01
N    6.5144425008236455E+00    5.5566656039868292E+00    1.5592102888655239E+01
Ga    6.5134008842991342E+00    7.3990008010618808E+00    1.5867345408503438E+01
N    4.9217620795744308E+00    1.0040107207612081E+01    2.5134502831547763E+00
Ga    4.8937786101569252E+00    8.3555137501642918E+00    3.5821099599008339E+00
N    4.9030427419134490E+00    8.3363913772701874E+00    5.4494726359302383E+00
Ga    4.9120387392933473E+00    1.0264733309410472E+01    5.8352712936762527E+00
N    4.9146243361873934E+00    1.0208579740636962E+01    7.8261203807630650E+00
Ga    4.8911460855312434E+00    8.3425208748607247E+00    8.4361457760989058E+00
N    4.8963556680428848E+00    8.3371091773062727E+00    1.0435202074029959E+01
Ga    4.9187302860417432E+00    1.0197347075769811E+01    1.1068809557761572E+01
N    4.9378513805957542E+00    1.0204605651857644E+01    1.3067288086540543E+01
Ga    4.8935895735031760E+00    8.3363162678749987E+00    1.3623169400438819E+01
N    4.9199931787422244E+00    8.3149565659486235E+00    1.5587397981181054E+01
Ga    4.7508105967276624E+00    1.0095292364267149E+01    1.6483532364031142E+01
O    7.6809533222035417E-02    4.1009599592418091E+00   -4.1183618773039421E-01
H   -1.6411537573220503E-01    5.9111455547370531E+00   -3.6523262842587051E-01
C    1.2362000899474219E+00    3.6900653044517178E+00   -1.1602693245559401E+00
H    2.1738890544426104E+00    4.0367335332746306E+00   -6.9751342942917616E-01
H    1.2823083534287696E+00    2.5956864083957694E+00   -1.2635910706560172E+00
H    1.1577242840795454E+00    4.1292657457488797E+00   -2.1644051969149061E+00
Ga    3.2876929641592687E+00    5.5307255893432101E+00    2.9189542685091632E+00
O   -2.0818438646416371E-01    6.8886192171366680E+00   -1.9144678683002836E-01
H   -3.0847767796949598E-02    7.2726284942033379E+00    1.6389032823764003E+00
C    1.0651985443357623E+00    7.4532518613934462E+00   -5.4909636676566731E-01
H    1.0622749122605633E+00    8.5028822905244255E+00   -2.2517743833937631E-01
H    1.8968141375665128E+00    6.9457049332273151E+00   -3.4410153706383333E-02
H    1.2384141286052945E+00    7.4173679518403768E+00   -1.6336032352621743E+00
     &END COORD
     &KIND C
       BASIS_SET DZVP-MOLOPT-SR-GTH-q4
       POTENTIAL GTH-PBE-q4
       &POTENTIAL
 2 2
  0.3384712400000000E+00 2 -0.8803673979999999E+01  0.1339210850000000E+01
 2
  0.3025757500000000E+00 1  0.9622486650000001E+01
  0.2915069400000000E+00 0
         # Potential name:  GTH-PBE-Q4  for symbol:  C
         # Potential read from the potential filename: GTH_POTENTIALS
       &END POTENTIAL
     &END KIND
     &KIND O
       BASIS_SET DZVP-MOLOPT-SR-GTH-q6
       POTENTIAL GTH-PBE-q6
       &POTENTIAL
 2 4
  0.2445543000000000E+00 2 -0.1666721480000000E+02  0.2487311320000000E+01
 2
  0.2209559200000000E+00 1  0.1833745811000000E+02
  0.2113324700000000E+00 0
         # Potential name:  GTH-PBE-Q6  for symbol:  O
         # Potential read from the potential filename: GTH_POTENTIALS
       &END POTENTIAL
     &END KIND
     &KIND H
       BASIS_SET DZVP-MOLOPT-SR-GTH-q1
       POTENTIAL GTH-PBE-q1
       &POTENTIAL
 1
  0.2000000000000000E+00 2 -0.4178900440000000E+01  0.7244633100000000E+00
 0
         # Potential name:  GTH-PBE-Q1  for symbol:  H
         # Potential read from the potential filename: GTH_POTENTIALS
       &END POTENTIAL
     &END KIND
     &KIND N
       BASIS_SET DZVP-MOLOPT-SR-GTH
       POTENTIAL GTH-PBE-q5
       &POTENTIAL
 2 3
  0.2837905100000000E+00 2 -0.1241522559000000E+02  0.1868095920000000E+01
 2
  0.2554050000000000E+00 1  0.1363026257000000E+02
  0.2454945300000000E+00 0
         # Potential name:  GTH-PBE-Q5  for symbol:  N
         # Potential read from the potential filename: GTH_POTENTIALS
       &END POTENTIAL
     &END KIND
     &KIND Ga
       BASIS_SET DZVP-MOLOPT-SR-GTH
       POTENTIAL GTH-PBE-q13
       &POTENTIAL
 2 1 10
  0.4900000000000000E+00 0
 3
  0.4167772300000000E+00 3  0.1047568975000000E+02 -0.4921768140000000E+01  0.8707055900000000E+00
  0.7770178090000000E+01 -0.2248152160000000E+01
  0.1784415450000000E+01
  0.5696265200000000E+00 2  0.1777985340000000E+01  0.1958597600000000E+00
 -0.2317443900000000E+00
  0.2381265000000000E+00 1 -0.1624868022000000E+02
         # Potential name:  GTH-PBE-Q13  for symbol:  GA
         # Potential read from the potential filename: GTH_POTENTIALS
       &END POTENTIAL
     &END KIND
     &TOPOLOGY
       NUMBER_OF_ATOMS  212
       MULTIPLE_UNIT_CELL  1 1 1
     &END TOPOLOGY
   &END SUBSYS
 &END FORCE_EVAL
