 # Version information for this restart file 
 # current date 2019-07-07 15:39:37.037
 # current working dir /lustre04/scratch/rzk/rzk/GaN-carbene/443-adatoms-both-2x2/04-2Methanol/04-GaJumps1Ring-Attempt2
 # Program compiled at                              Sun Apr  7 00:48:11 EDT 2019
 # Program compiled on                          beluga2.int.ets1.calculquebec.ca
 # Program compiled for                        Beluga-Linux-x86-64-intel-openmpi
 # Source code revision number                                         svn:18619
 &GLOBAL
   PRINT_LEVEL  MEDIUM
   PROJECT_NAME TEST
   RUN_TYPE  GEO_OPT
 &END GLOBAL
 &MOTION
   &GEO_OPT
     MAX_ITER  500
     STEP_START_VAL  40
   &END GEO_OPT
 &END MOTION
 &FORCE_EVAL
   METHOD  QS
   STRESS_TENSOR  ANALYTICAL
   &DFT
     BASIS_SET_FILE_NAME BASIS_MOLOPT
     POTENTIAL_FILE_NAME GTH_POTENTIALS
     UKS  T
     SURFACE_DIPOLE_CORRECTION  T
     SURF_DIP_DIR  Z
     &SCF
       MAX_SCF  80
       EPS_SCF     5.0000000000000004E-06
       &OT  T
         PRECONDITIONER  FULL_ALL
       &END OT
       &OUTER_SCF  T
         OPTIMIZER  NONE
         EPS_SCF     5.0000000000000004E-06
         MAX_SCF  4
       &END OUTER_SCF
       &PRINT
         &RESTART  OFF
           BACKUP_COPIES  1
           &EACH
             JUST_ENERGY  0
             QS_SCF  0
             MD  20
           &END EACH
         &END RESTART
       &END PRINT
     &END SCF
     &QS
       EPS_DEFAULT     1.0000000000000000E-14
       METHOD  GPW
     &END QS
     &MGRID
       NGRIDS  5
       CUTOFF     1.2000000000000000E+03
     &END MGRID
     &XC
       DENSITY_CUTOFF     1.0000000000000000E-10
       GRADIENT_CUTOFF     1.0000000000000000E-10
       TAU_CUTOFF     1.0000000000000000E-10
       &XC_FUNCTIONAL  NO_SHORTCUT
         &PBE  T
         &END PBE
       &END XC_FUNCTIONAL
       &VDW_POTENTIAL
         POTENTIAL_TYPE  PAIR_POTENTIAL
         &PAIR_POTENTIAL
           R_CUTOFF     1.0000000000000004E+01
           TYPE  DFTD3
           PARAMETER_FILE_NAME dftd3.dat
           REFERENCE_FUNCTIONAL PBE
           EPS_CN     9.9999999999999995E-07
           CALCULATE_C9_TERM  T
           REFERENCE_C9_TERM  T
           LONG_RANGE_CORRECTION  F
           VERBOSE_OUTPUT  F
         &END PAIR_POTENTIAL
       &END VDW_POTENTIAL
     &END XC
   &END DFT
   &SUBSYS
     &CELL
       A     1.2864472766435110E+01    0.0000000000000000E+00    0.0000000000000000E+00
       B    -6.4322363581020028E+00    1.1140960178524473E+01    0.0000000000000000E+00
       C     0.0000000000000000E+00    0.0000000000000000E+00    3.2000000000000000E+01
       MULTIPLE_UNIT_CELL  1 1 1
       &CELL_REF
         A     1.2982353780853531E+01    0.0000000000000000E+00    0.0000000000000000E+00
         B    -6.4911768904267628E+00    1.1243048175136114E+01    0.0000000000000000E+00
         C     0.0000000000000000E+00    0.0000000000000000E+00    3.2000000000000000E+01
         MULTIPLE_UNIT_CELL  1 1 1
       &END CELL_REF
     &END CELL
     &COORD
N    9.6382118023121785E-02    1.9735696305969195E+00    2.5095730106219412E+00
Ga    7.5577098819878091E-02    8.2034699019542939E-03    2.8834443204657441E+00
N    9.3024529044532206E-02   -1.8903422517885581E-02    5.0457513573625272E+00
Ga    8.8651269714809022E-02    1.8138818317543248E+00    5.8079132454148805E+00
N    8.7670709851690551E-02    1.8222501577580161E+00    7.8090840248210558E+00
Ga    8.6171935152943108E-02   -1.9288107817786126E-02    8.4595724646161354E+00
N    8.6141089938316706E-02   -2.5208722931410323E-02    1.0432197533247734E+01
Ga    8.0884310505984755E-02    1.8163997562704295E+00    1.1073577803410931E+01
N    8.1057829607066589E-02    1.7942821156336504E+00    1.3068301192906860E+01
Ga    8.0781497500945404E-02   -2.4301861513982916E-02    1.3875201814285260E+01
N    8.0903334436105243E-02   -2.5991290788755613E-02    1.6072939347296760E+01
Ga    8.0538590916686845E-02    2.0299224210601232E+00    1.6497548551112679E+01
Ga    6.3906540314805818E-02    3.6908161535403474E+00    1.3846809891820864E+00
N   -1.3921428984508661E+00    4.5494773534887312E+00    2.5431268954432467E+00
Ga   -1.5935144816359263E+00    2.6876802756349543E+00    3.2781178269795981E+00
N   -1.5235749293286296E+00    2.7567583301195793E+00    5.2563828016330243E+00
Ga   -1.5503298163763688E+00    4.6222783954517892E+00    5.8016317264401165E+00
N   -1.5353268223463759E+00    4.6235293042714796E+00    7.7993186886689347E+00
Ga   -1.5220804920105195E+00    2.7591473302690437E+00    8.4267177516339160E+00
N   -1.5158155309860939E+00    2.7646354688161554E+00    1.0427754057119735E+01
Ga   -1.5403663518224071E+00    4.6232571707345640E+00    1.1065502904476990E+01
N   -1.5580221356646615E+00    4.6322162326912686E+00    1.3062038345710828E+01
Ga   -1.5161848456538702E+00    2.7644268908537120E+00    1.3624283821543852E+01
N   -1.5472940705027856E+00    2.7461356881507886E+00    1.5582327088592084E+01
Ga   -1.3511953542273958E+00    4.5109781114604433E+00    1.6499329739350319E+01
N    7.9714217972085527E-02    3.6857515576705078E+00    1.7642594762495939E+01
N   -3.1502016520681364E+00    7.5253375287895370E+00    2.5314523070209920E+00
Ga   -3.0955846940959209E+00    5.5135046237686129E+00    2.8515266500289886E+00
N   -3.1298617391971875E+00    5.5470314926333879E+00    5.0156177755912319E+00
Ga   -3.1368351623953470E+00    7.3675501952471381E+00    5.7912618139646543E+00
N   -3.1346027772482614E+00    7.3938290091672085E+00    7.7874574470708868E+00
Ga   -3.1337853403213316E+00    5.5448194883286792E+00    8.4399712673306961E+00
N   -3.1347978626300521E+00    5.5464137617314160E+00    1.0416693334066647E+01
Ga   -3.1295598601906813E+00    7.3825180361364762E+00    1.1075221470357510E+01
N   -3.1329745176714905E+00    7.3628820441753167E+00    1.3068546662712954E+01
Ga   -3.1276163051373240E+00    5.5433534409212362E+00    1.3869714103183478E+01
N   -3.1284792123957241E+00    5.5440624309371023E+00    1.6073646370289474E+01
Ga   -3.1336204491249839E+00    7.5906839603138767E+00    1.6485038913118466E+01
Ga   -3.1229343692624778E+00    9.2753247101855525E+00    1.5351522393770940E+00
N   -4.6291277897153371E+00    1.0131749667072812E+01    2.5154647122090767E+00
Ga   -4.8792803735562309E+00    8.3026514703876781E+00    3.2690150191696774E+00
N   -4.7604769992336760E+00    8.3224774401590924E+00    5.2285563761300828E+00
Ga   -4.7736140410650361E+00    1.0201717426035891E+01    5.8144071157163042E+00
N   -4.7506324494574894E+00    1.0187754161428270E+01    7.8088376536229669E+00
Ga   -4.7210322671823457E+00    8.3390919238196108E+00    8.4612785886834878E+00
N   -4.7260550828012855E+00    8.3381043030318036E+00    1.0448407456563496E+01
Ga   -4.7545467516645763E+00    1.0198173702708850E+01    1.1082036594813191E+01
N   -4.7731472931888366E+00    1.0204084841559380E+01    1.3075015966889058E+01
Ga   -4.7302685021051163E+00    8.3337605633199789E+00    1.3625416874662562E+01
N   -4.7584306347872189E+00    8.3129559611338237E+00    1.5586823077758188E+01
Ga   -4.5858208594811956E+00    1.0092769808902679E+01    1.6483193206364003E+01
N   -3.1399656386484822E+00    9.2625984099582528E+00    1.7622361972833506E+01
N    3.2966900015506546E+00    1.8374147250122921E+00    2.6388708258411961E+00
Ga    3.2880981813225545E+00    9.8761393779670803E-02    3.3098681923988678E+00
N    3.2927574463770450E+00   -3.1061645948405228E-02    5.2687769006353404E+00
Ga    3.2963017264100785E+00    1.8339261093348742E+00    5.8892867530523958E+00
N    3.3029302575418189E+00    1.8306949416400260E+00    7.8642795275399342E+00
Ga    3.3002130828954885E+00   -3.6377079757313115E-02    8.4481629626418311E+00
N    3.2994284614547360E+00   -3.7795271527195855E-02    1.0440806610488456E+01
Ga    3.3000992695453539E+00    1.8319310004024918E+00    1.1032993560006901E+01
N    3.2997597953150550E+00    1.8298056644014367E+00    1.3005705613563752E+01
Ga    3.3007400235192121E+00   -4.0657229554493773E-02    1.3624580489679101E+01
N    3.3022766395202159E+00   -1.0180253660857301E-02    1.5587211786363119E+01
Ga    3.2964312783713305E+00    1.8269859260555541E+00    1.5863022759372964E+01
N    1.5921602437712123E+00    4.5560276120622625E+00    2.5444079658218879E+00
Ga    1.7661567635057320E+00    2.7244583386731178E+00    3.2840321731965174E+00
N    1.6992163222819492E+00    2.7585512258189708E+00    5.2669431650544665E+00
Ga    1.7211127579749972E+00    4.6193774133086425E+00    5.8220052879976789E+00
N    1.7016860201025805E+00    4.6207602631790676E+00    7.8160420366099181E+00
Ga    1.6822311148576143E+00    2.7646911026702008E+00    8.4494573189774478E+00
N    1.6811932059471215E+00    2.7657152387138737E+00    1.0442198778823890E+01
Ga    1.7026919057404850E+00    4.6253875735944483E+00    1.1073989695812127E+01
N    1.7192074584137298E+00    4.6329204644274666E+00    1.3068262985769538E+01
Ga    1.6779143780267576E+00    2.7641502210040976E+00    1.3626724703678102E+01
N    1.7094809930502881E+00    2.7450744068167174E+00    1.5584718989361551E+01
Ga    1.5117795467715585E+00    4.5107218607873421E+00    1.6499366534632987E+01
N    1.0392537394631710E-01    7.3816601469451202E+00    2.6640041025414805E+00
Ga    1.1161802093035744E-01    5.5571402472770997E+00    3.3431748741504537E+00
N    8.8437178896290269E-02    5.5577911411673924E+00    5.2802730850530581E+00
Ga    1.2075633741117006E-01    7.4168287369493751E+00    5.8652331862663445E+00
N    8.9142812442287403E-02    7.4078561047341953E+00    7.8408133108223419E+00
Ga    8.2413809198083471E-02    5.5378049587123614E+00    8.4358339030285006E+00
N    8.1782904522762850E-02    5.5341725116017333E+00    1.0431642431616522E+01
Ga    8.1789081274612124E-02    7.4010895700705523E+00    1.1029527793273994E+01
N    8.0589975766003658E-02    7.3995902710339196E+00    1.3001546973188898E+01
Ga    7.9590011642188208E-02    5.5293623944368688E+00    1.3625982143275284E+01
N    7.9902300488988484E-02    5.5629032765909043E+00    1.5584911249279163E+01
Ga    8.0107394149896399E-02    7.3972527189753778E+00    1.5860979473709374E+01
N   -1.6423501944110535E+00    1.0117878297743539E+01    2.5451617688306269E+00
Ga   -1.4554101808648789E+00    8.3008188163998096E+00    3.3330013409053696E+00
N   -1.5121852884387643E+00    8.3251875823598933E+00    5.2569996532121870E+00
Ga   -1.5013345399926128E+00    1.0209687199115873E+01    5.8241950281133477E+00
N   -1.5197990291091708E+00    1.0188313234270939E+01    7.8112727721694384E+00
Ga   -1.5312945384014638E+00    8.3316935890181849E+00    8.4347789157103179E+00
N   -1.5361171335915427E+00    8.3331864614061519E+00    1.0429935734959447E+01
Ga   -1.5066568977124244E+00    1.0194349582958321E+01    1.1063911145970264E+01
N   -1.4935993709239279E+00    1.0202537349356147E+01    1.3061871325306187E+01
Ga   -1.5363358729027596E+00    8.3349176942499330E+00    1.3623271429891965E+01
N   -1.5114848555574745E+00    8.3180402508056499E+00    1.5583780082135060E+01
Ga   -1.6904315804804537E+00    1.0087306835722687E+01    1.6485718434514364E+01
N    6.5091841686702239E+00    1.9602102487129744E+00    2.5574758345322346E+00
Ga    6.5269024677717313E+00   -2.8921119172363695E-02    2.9096266139653904E+00
N    6.4850709954745698E+00   -1.1344836647487908E-02    5.0673405396103846E+00
Ga    6.5182384029135818E+00    1.8050268026061764E+00    5.8176939361144635E+00
N    6.5185367804587742E+00    1.8251841680098064E+00    7.8113869164556560E+00
Ga    6.5291643224468157E+00   -3.2415157943924008E-02    8.4251448170664833E+00
N    6.5179521150793720E+00   -2.7359131861946349E-02    1.0409726463662135E+01
Ga    6.5198054237746694E+00    1.8117928601378892E+00    1.1062209690436420E+01
N    6.5150195982739936E+00    1.7915001910261967E+00    1.3063918967892615E+01
Ga    6.5138248693495173E+00   -3.1004513449242474E-02    1.3861357268371302E+01
N    6.5126887175655508E+00   -3.2423246244802410E-02    1.6073323737090853E+01
Ga    6.5138017778215529E+00    1.9925304201213521E+00    1.6461425803199219E+01
Ga    6.5234778377505069E+00    3.6605741113106762E+00    1.5589575861366967E+00
N    5.0204404930420807E+00    4.5452317763154984E+00    2.5356139005078324E+00
Ga    4.8044118547903185E+00    2.6999013841315542E+00    3.3216048673479803E+00
N    4.9084947079740751E+00    2.7660633397078431E+00    5.2782284062822313E+00
Ga    4.8889018152400769E+00    4.6349943433104546E+00    5.8216715138664421E+00
N    4.9055201239626189E+00    4.6260412960093564E+00    7.8148138325102199E+00
Ga    4.9213730343036133E+00    2.7645994933691829E+00    8.4485523135438907E+00
N    4.9193256716326861E+00    2.7668140665105407E+00    1.0442057231904933E+01
Ga    4.8918843766304061E+00    4.6237915933641149E+00    1.1080464215314684E+01
N    4.8733331821994321E+00    4.6330370690358755E+00    1.3076356668006987E+01
Ga    4.9183625390920289E+00    2.7619017815538207E+00    1.3620599213273785E+01
N    4.8952092385000698E+00    2.7463829086369884E+00    1.5589282300249792E+01
Ga    5.0410754452888229E+00    4.5332352611415914E+00    1.6459911333510370E+01
N    6.5144300795565497E+00    3.6934308068173514E+00    1.7588401141421393E+01
N    3.4405774861276939E+00    7.4581654216344946E+00    2.5271556455869431E+00
N    3.3065475936550581E+00    5.5357218477918151E+00    5.0680734499551656E+00
Ga    3.2449169810132696E+00    7.3578234064310655E+00    5.8429987147587799E+00
N    3.2846165807428775E+00    7.3875901724116586E+00    7.8290198599711891E+00
Ga    3.2987546086725232E+00    5.5415213342307705E+00    8.4623254938399448E+00
N    3.3004134463572226E+00    5.5432051372580524E+00    1.0433670372177357E+01
Ga    3.2977097706253282E+00    7.3863282336872036E+00    1.1071411935064438E+01
N    3.2966010881557430E+00    7.3638889995214374E+00    1.3067175361890401E+01
Ga    3.2909574461657138E+00    5.5447274414422250E+00    1.3869780964657323E+01
N    3.2904264081686527E+00    5.5433989562820347E+00    1.6074033058421744E+01
Ga    3.2943488568051378E+00    7.5887042641559583E+00    1.6482701876595272E+01
Ga    4.8700917569760751E+00    8.3555034981384342E+00    1.1750481024753616E+00
N    1.6749011683942425E+00    1.0180503411556357E+01    2.4971831909614308E+00
Ga    1.7621930959607759E+00    8.3862088919587148E+00    3.0708859601978191E+00
N    1.6993153116049136E+00    8.3096603518202254E+00    5.1346464299017818E+00
Ga    1.6895237391728832E+00    1.0193120018570214E+01    5.7060517937036890E+00
N    1.6872333745338439E+00    1.0184693612358807E+01    7.7564179788464545E+00
Ga    1.6947786835745144E+00    8.3500367218255924E+00    8.4472930846774066E+00
N    1.6987532537679773E+00    8.3393514106882041E+00    1.0439696916491405E+01
Ga    1.6748836689264928E+00    1.0197507235264441E+01    1.1071977478431139E+01
N    1.6577548996120304E+00    1.0202944678277426E+01    1.3067012008695043E+01
Ga    1.6989486197060648E+00    8.3336367479897699E+00    1.3622490918764164E+01
N    1.6725694201002219E+00    8.3170240726819795E+00    1.5583633151567891E+01
Ga    1.8498889286647535E+00    1.0088373296325674E+01    1.6481823985465507E+01
N    3.3009399238631372E+00    9.2633215873144028E+00    1.7618173872652907E+01
N    9.7611297156904957E+00    1.8133564920626919E+00    2.5970221324322273E+00
Ga    9.7079369032709728E+00   -4.2078711079782338E-02    2.9822660939069277E+00
N    9.7456631014282156E+00   -3.9590966788068289E-02    5.1398259668315252E+00
Ga    9.7385819169882701E+00    1.7888038687683678E+00    5.8218826860341926E+00
N    9.7310348213116438E+00    1.8238799124921377E+00    7.8244433822153576E+00
Ga    9.7176094344435384E+00   -3.4025674498244382E-02    8.4321151724914092E+00
N    9.7270617785548446E+00   -3.8112837858229713E-02    1.0432840789378808E+01
Ga    9.7318594904322655E+00    1.8306553966333514E+00    1.1025491721910063E+01
N    9.7286485846341648E+00    1.8293173350076177E+00    1.3000276884138252E+01
Ga    9.7295869526715464E+00   -4.0214777111940728E-02    1.3622641356606568E+01
N    9.7251367528835235E+00   -1.0109202772568613E-02    1.5585845314988278E+01
Ga    9.7309893704263661E+00    1.8273814187257962E+00    1.5861955456675872E+01
N    8.0081042265217839E+00    4.5751443118937072E+00    2.5375616402612931E+00
Ga    8.2531547041547082E+00    2.6610393160073444E+00    3.2896656393048116E+00
N    8.1263867627222410E+00    2.7568229493707954E+00    5.2473826831790227E+00
Ga    8.1515556437891590E+00    4.6268395433815810E+00    5.7834999507124261E+00
N    8.1320249684526011E+00    4.6240528321816461E+00    7.7871594208136479E+00
Ga    8.1253994854904139E+00    2.7628694700065375E+00    8.4261922900544963E+00
N    8.1162421705609109E+00    2.7677756522267614E+00    1.0428256814473002E+01
Ga    8.1426930355869960E+00    4.6221041553365163E+00    1.1074627409233313E+01
N    8.1560791297783393E+00    4.6326109068505907E+00    1.3072118049503725E+01
Ga    8.1114227586164276E+00    2.7619549729087463E+00    1.3619216141432393E+01
N    8.1322192808629392E+00    2.7467394853147935E+00    1.5588060443823833E+01
Ga    7.9866609673491471E+00    4.5336280589977305E+00    1.6459946306054967E+01
N    6.3682524530471918E+00    7.4900685425365117E+00    2.6309732459155009E+00
Ga    6.4797490808171885E+00    5.6775040519233713E+00    3.2765672595498407E+00
N    6.5165284973185766E+00    5.5691790353412207E+00    5.2358975163345916E+00
Ga    6.5368894936020707E+00    7.3902519414199173E+00    5.9422554105852381E+00
N    6.5263423575461292E+00    7.3968463636100177E+00    7.8935693143535479E+00
Ga    6.5229513914312323E+00    5.5246791762920457E+00    8.4620968393939524E+00
N    6.5174579938010666E+00    5.5295704893652875E+00    1.0450339636637455E+01
Ga    6.5147473426947711E+00    7.4033058628868016E+00    1.1031900824444552E+01
N    6.5138042699257745E+00    7.3992084996868694E+00    1.3005871918386534E+01
Ga    6.5151917064332849E+00    5.5298966743062783E+00    1.3622220856804010E+01
N    6.5136843587132072E+00    5.5565739058187624E+00    1.5592399675203113E+01
Ga    6.5125120032965018E+00    7.3999275725798555E+00    1.5864238426710649E+01
N    4.9216912479604105E+00    1.0035386346183190E+01    2.5164166655068052E+00
Ga    4.8845664874523216E+00    8.3560513554063753E+00    3.5857237128825843E+00
N    4.9025853758583997E+00    8.3348710082474700E+00    5.4521738194783689E+00
Ga    4.9110302517105122E+00    1.0264965697457015E+01    5.8353075705310351E+00
N    4.9171944412265356E+00    1.0207894612694725E+01    7.8269475227463525E+00
Ga    4.8922307417505904E+00    8.3425735411327224E+00    8.4392403222035366E+00
N    4.8962246673148933E+00    8.3369701920891455E+00    1.0436865401635595E+01
Ga    4.9193765323220386E+00    1.0197324661468889E+01    1.1070487928204487E+01
N    4.9374509000570015E+00    1.0204065201422447E+01    1.3068303699221614E+01
Ga    4.8932116972316546E+00    8.3351113893945712E+00    1.3623428421498430E+01
N    4.9189227204117003E+00    8.3134600226658133E+00    1.5585586097308553E+01
Ga    4.7489492553914507E+00    1.0093889980509061E+01    1.6481338950867972E+01
O    7.8101769256269757E-02    4.1034784454415796E+00   -4.0844938168196243E-01
H   -1.6553347124710308E-01    5.9037504790071056E+00   -3.5950341127323343E-01
C    1.2359117762744114E+00    3.6907184691942665E+00   -1.1599017850138971E+00
H    2.1760666023803461E+00    4.0377015706462185E+00   -6.9788231113410115E-01
H    1.2785921226406982E+00    2.5945261559190009E+00   -1.2584877185945833E+00
H    1.1540637851522637E+00    4.1290885086929068E+00   -2.1653986002757972E+00
Ga    3.2900737416007453E+00    5.5269119810285909E+00    2.9161888706021131E+00
O   -2.1369923799885693E-01    6.8822735422178685E+00   -1.8887804672310901E-01
H   -3.6356663225000800E-02    7.2646549821187882E+00    1.6382630765100328E+00
C    1.0592389851995927E+00    7.4538428217095367E+00   -5.3761991477948012E-01
H    1.0464055334398952E+00    8.5029432379843861E+00   -2.1030257879319278E-01
H    1.8889839411202127E+00    6.9467012141497815E+00   -1.8424393748639658E-02
H    1.2390905991493739E+00    7.4198175821652779E+00   -1.6210920067794765E+00
     &END COORD
     &KIND C
       BASIS_SET DZVP-MOLOPT-SR-GTH-q4
       POTENTIAL GTH-PBE-q4
       &POTENTIAL
 2 2
  0.3384712400000000E+00 2 -0.8803673979999999E+01  0.1339210850000000E+01
 2
  0.3025757500000000E+00 1  0.9622486650000001E+01
  0.2915069400000000E+00 0
         # Potential name:  GTH-PBE-Q4  for symbol:  C
         # Potential read from the potential filename: GTH_POTENTIALS
       &END POTENTIAL
     &END KIND
     &KIND O
       BASIS_SET DZVP-MOLOPT-SR-GTH-q6
       POTENTIAL GTH-PBE-q6
       &POTENTIAL
 2 4
  0.2445543000000000E+00 2 -0.1666721480000000E+02  0.2487311320000000E+01
 2
  0.2209559200000000E+00 1  0.1833745811000000E+02
  0.2113324700000000E+00 0
         # Potential name:  GTH-PBE-Q6  for symbol:  O
         # Potential read from the potential filename: GTH_POTENTIALS
       &END POTENTIAL
     &END KIND
     &KIND H
       BASIS_SET DZVP-MOLOPT-SR-GTH-q1
       POTENTIAL GTH-PBE-q1
       &POTENTIAL
 1
  0.2000000000000000E+00 2 -0.4178900440000000E+01  0.7244633100000000E+00
 0
         # Potential name:  GTH-PBE-Q1  for symbol:  H
         # Potential read from the potential filename: GTH_POTENTIALS
       &END POTENTIAL
     &END KIND
     &KIND N
       BASIS_SET DZVP-MOLOPT-SR-GTH
       POTENTIAL GTH-PBE-q5
       &POTENTIAL
 2 3
  0.2837905100000000E+00 2 -0.1241522559000000E+02  0.1868095920000000E+01
 2
  0.2554050000000000E+00 1  0.1363026257000000E+02
  0.2454945300000000E+00 0
         # Potential name:  GTH-PBE-Q5  for symbol:  N
         # Potential read from the potential filename: GTH_POTENTIALS
       &END POTENTIAL
     &END KIND
     &KIND Ga
       BASIS_SET DZVP-MOLOPT-SR-GTH
       POTENTIAL GTH-PBE-q13
       &POTENTIAL
 2 1 10
  0.4900000000000000E+00 0
 3
  0.4167772300000000E+00 3  0.1047568975000000E+02 -0.4921768140000000E+01  0.8707055900000000E+00
  0.7770178090000000E+01 -0.2248152160000000E+01
  0.1784415450000000E+01
  0.5696265200000000E+00 2  0.1777985340000000E+01  0.1958597600000000E+00
 -0.2317443900000000E+00
  0.2381265000000000E+00 1 -0.1624868022000000E+02
         # Potential name:  GTH-PBE-Q13  for symbol:  GA
         # Potential read from the potential filename: GTH_POTENTIALS
       &END POTENTIAL
     &END KIND
     &TOPOLOGY
       NUMBER_OF_ATOMS  212
       MULTIPLE_UNIT_CELL  1 1 1
     &END TOPOLOGY
   &END SUBSYS
 &END FORCE_EVAL
