 # Version information for this restart file 
 # current date 2019-07-07 18:41:24.635
 # current working dir /lustre04/scratch/rzk/rzk/GaN-carbene/443-adatoms-both-2x2/04-2Methanol/04-GaJumps1Ring-Attempt2
 # Program compiled at                              Sun Apr  7 00:48:11 EDT 2019
 # Program compiled on                          beluga2.int.ets1.calculquebec.ca
 # Program compiled for                        Beluga-Linux-x86-64-intel-openmpi
 # Source code revision number                                         svn:18619
 &GLOBAL
   PRINT_LEVEL  MEDIUM
   PROJECT_NAME TEST
   RUN_TYPE  GEO_OPT
 &END GLOBAL
 &MOTION
   &GEO_OPT
     MAX_ITER  500
     STEP_START_VAL  105
   &END GEO_OPT
 &END MOTION
 &FORCE_EVAL
   METHOD  QS
   STRESS_TENSOR  ANALYTICAL
   &DFT
     BASIS_SET_FILE_NAME BASIS_MOLOPT
     POTENTIAL_FILE_NAME GTH_POTENTIALS
     UKS  T
     SURFACE_DIPOLE_CORRECTION  T
     SURF_DIP_DIR  Z
     &SCF
       MAX_SCF  80
       EPS_SCF     5.0000000000000004E-06
       &OT  T
         PRECONDITIONER  FULL_ALL
       &END OT
       &OUTER_SCF  T
         OPTIMIZER  NONE
         EPS_SCF     5.0000000000000004E-06
         MAX_SCF  4
       &END OUTER_SCF
       &PRINT
         &RESTART  OFF
           BACKUP_COPIES  1
           &EACH
             JUST_ENERGY  0
             QS_SCF  0
             MD  20
           &END EACH
         &END RESTART
       &END PRINT
     &END SCF
     &QS
       EPS_DEFAULT     1.0000000000000000E-14
       METHOD  GPW
     &END QS
     &MGRID
       NGRIDS  5
       CUTOFF     1.2000000000000000E+03
     &END MGRID
     &XC
       DENSITY_CUTOFF     1.0000000000000000E-10
       GRADIENT_CUTOFF     1.0000000000000000E-10
       TAU_CUTOFF     1.0000000000000000E-10
       &XC_FUNCTIONAL  NO_SHORTCUT
         &PBE  T
         &END PBE
       &END XC_FUNCTIONAL
       &VDW_POTENTIAL
         POTENTIAL_TYPE  PAIR_POTENTIAL
         &PAIR_POTENTIAL
           R_CUTOFF     1.0000000000000004E+01
           TYPE  DFTD3
           PARAMETER_FILE_NAME dftd3.dat
           REFERENCE_FUNCTIONAL PBE
           EPS_CN     9.9999999999999995E-07
           CALCULATE_C9_TERM  T
           REFERENCE_C9_TERM  T
           LONG_RANGE_CORRECTION  F
           VERBOSE_OUTPUT  F
         &END PAIR_POTENTIAL
       &END VDW_POTENTIAL
     &END XC
   &END DFT
   &SUBSYS
     &CELL
       A     1.2864472766435110E+01    0.0000000000000000E+00    0.0000000000000000E+00
       B    -6.4322363581020028E+00    1.1140960178524473E+01    0.0000000000000000E+00
       C     0.0000000000000000E+00    0.0000000000000000E+00    3.2000000000000000E+01
       MULTIPLE_UNIT_CELL  1 1 1
       &CELL_REF
         A     1.2982353780853531E+01    0.0000000000000000E+00    0.0000000000000000E+00
         B    -6.4911768904267628E+00    1.1243048175136114E+01    0.0000000000000000E+00
         C     0.0000000000000000E+00    0.0000000000000000E+00    3.2000000000000000E+01
         MULTIPLE_UNIT_CELL  1 1 1
       &END CELL_REF
     &END CELL
     &COORD
N    8.9251520893442599E-02    1.9846388967278545E+00    2.4955654961502254E+00
Ga    7.3470220830905097E-02    1.4689620091522556E-02    2.8254874427026402E+00
N    9.2893140955187914E-02   -1.7549122783832340E-02    5.0183642704559404E+00
Ga    9.1228813411421333E-02    1.8074515714218715E+00    5.8006549545063448E+00
N    9.0668878711156559E-02    1.8229065569819056E+00    7.8035550315440450E+00
Ga    8.8436193875343364E-02   -2.2493748209437683E-02    8.4450251765336031E+00
N    9.0643764478064520E-02   -2.2908651531137643E-02    1.0421578923461714E+01
Ga    9.0483541576335702E-02    1.8173277831118539E+00    1.1069968808885145E+01
N    9.1140238751902330E-02    1.7977437416934732E+00    1.3065640445135113E+01
Ga    9.0387876979527534E-02   -2.2125502603504685E-02    1.3866647346021580E+01
N    9.0825755447343032E-02   -2.0649917468204420E-02    1.6071979648668698E+01
Ga    9.1357799731377767E-02    2.0217875137292669E+00    1.6481029377651847E+01
Ga    6.2671337604191094E-02    3.6891440948007306E+00    1.3699182708023270E+00
N   -1.3958953321481367E+00    4.5557676676941758E+00    2.5247290715444395E+00
Ga   -1.5907650158824447E+00    2.7127019739774050E+00    3.2818516396031860E+00
N   -1.5191124393020663E+00    2.7624844834104274E+00    5.2604112609614679E+00
Ga   -1.5475247610273524E+00    4.6275382743461630E+00    5.8096902568705131E+00
N   -1.5278631797665274E+00    4.6266918786586464E+00    7.8058829104510297E+00
Ga   -1.5087655320153890E+00    2.7656519665575527E+00    8.4373145777301541E+00
N   -1.5065184822888356E+00    2.7695802238524685E+00    1.0433870378090026E+01
Ga   -1.5326813350752710E+00    4.6270904585588788E+00    1.1073211923773126E+01
N   -1.5486804708690591E+00    4.6376956224731032E+00    1.3068097717777965E+01
Ga   -1.5056259705796209E+00    2.7682336000497720E+00    1.3622129887291745E+01
N   -1.5309402954853377E+00    2.7530189737542083E+00    1.5585526846355876E+01
Ga   -1.3614633186214378E+00    4.5302538477433281E+00    1.6480308868264238E+01
N    9.2103174078639036E-02    3.7008561995915534E+00    1.7613330807260191E+01
N   -3.1202307549616979E+00    7.5267159355632813E+00    2.5301495537051983E+00
Ga   -3.0997918377790175E+00    5.5232096745886379E+00    2.8516016896065395E+00
N   -3.1251892552230620E+00    5.5490613775023618E+00    5.0237988131817328E+00
Ga   -3.1321631936290748E+00    7.3695159554530658E+00    5.8086661369482684E+00
N   -3.1245211804508677E+00    7.3943393699438591E+00    7.8013146904232089E+00
Ga   -3.1263962862841415E+00    5.5471952832046751E+00    8.4513872633583151E+00
N   -3.1255165279583461E+00    5.5490370186091216E+00    1.0424733899314267E+01
Ga   -3.1269751225426745E+00    7.3881850586515814E+00    1.1073892589876410E+01
N   -3.1252177394115366E+00    7.3684027479228922E+00    1.3067823164989752E+01
Ga   -3.1256456480545896E+00    5.5476666196067272E+00    1.3868864501265881E+01
N   -3.1252043817673694E+00    5.5496430161025092E+00    1.6072582092357614E+01
Ga   -3.1248460523340875E+00    7.5922384510595213E+00    1.6481338185658057E+01
Ga   -3.1400085647589804E+00    9.2644311406613991E+00    1.4966375908941025E+00
N   -4.6291980721029811E+00    1.0130937905358399E+01    2.5186932242565487E+00
Ga   -4.8445754205620144E+00    8.2804147555739647E+00    3.2910361745202099E+00
N   -4.7323920787146436E+00    8.3348188573476474E+00    5.2534170296057567E+00
Ga   -4.7649813177342395E+00    1.0209634482256664E+01    5.8008039247133896E+00
N   -4.7431526487401676E+00    1.0195793515066933E+01    7.7995134130781709E+00
Ga   -4.7262093074015947E+00    8.3401171983378273E+00    8.4382252383363934E+00
N   -4.7221880370501408E+00    8.3400508110371412E+00    1.0432903986498184E+01
Ga   -4.7488194746965631E+00    1.0198947344061354E+01    1.1071207560674303E+01
N   -4.7646203349938174E+00    1.0208267697035820E+01    1.3066772101320550E+01
Ga   -4.7222977765338596E+00    8.3394941765907067E+00    1.3622861596740995E+01
N   -4.7476492396951171E+00    8.3234386964187212E+00    1.5585940661864054E+01
Ga   -4.5777195887731272E+00    1.0100926810905712E+01    1.6480351815647829E+01
N   -3.1243424002250095E+00    9.2715524599290795E+00    1.7612401065360295E+01
N    3.2949078521552160E+00    1.8402228206123594E+00    2.6207244183332614E+00
Ga    3.2978413007396474E+00    9.9822473697441474E-02    3.2900440921700178E+00
N    3.3075835207738997E+00   -2.5183798416926882E-02    5.2533886566739580E+00
Ga    3.2987797487924522E+00    1.8365510126929450E+00    5.8765191167779181E+00
N    3.3068270853083606E+00    1.8329982623063912E+00    7.8536310896651056E+00
Ga    3.3045162650610047E+00   -3.2749503438020779E-02    8.4415773332363155E+00
N    3.3071223062938713E+00   -3.4926592425370391E-02    1.0435793266369030E+01
Ga    3.3068796039762391E+00    1.8351623799055874E+00    1.1029254807277519E+01
N    3.3071567561351274E+00    1.8343583093560114E+00    1.3002351536430531E+01
Ga    3.3069791388649130E+00   -3.5259359141707115E-02    1.3623222441848615E+01
N    3.3071057649964319E+00   -3.3439350310129176E-03    1.5587567134779352E+01
Ga    3.3076764466824482E+00    1.8351228780432529E+00    1.5864843641002832E+01
N    1.5819900569421570E+00    4.5579127750291049E+00    2.5241612356139163E+00
Ga    1.7667497215470582E+00    2.7251472367734331E+00    3.2725843119854199E+00
N    1.6994016109452383E+00    2.7621917160389393E+00    5.2563097328388864E+00
Ga    1.7301454345903864E+00    4.6271026489362788E+00    5.8107062793448128E+00
N    1.7075201828597995E+00    4.6254193875349072E+00    7.8076099657172957E+00
Ga    1.6881365922270470E+00    2.7662921105878575E+00    8.4407526370488437E+00
N    1.6883209914304507E+00    2.7693614803138717E+00    1.0436167914470026E+01
Ga    1.7148215781072469E+00    4.6278382588354523E+00    1.1073363791645015E+01
N    1.7312508788744503E+00    4.6378861764922172E+00    1.3068399624775072E+01
Ga    1.6876157905196318E+00    2.7684867814272276E+00    1.3622622674876949E+01
N    1.7139297871312298E+00    2.7525795357931275E+00    1.5585996958454285E+01
Ga    1.5454180589190643E+00    4.5308959971296643E+00    1.6480140177570171E+01
N    9.2874258495282053E-02    7.3879245618139571E+00    2.6955201930284280E+00
Ga    9.9506578805073825E-02    5.5469408607858979E+00    3.3384445446963658E+00
N    9.0166171275726764E-02    5.5614560490114453E+00    5.2761895235083260E+00
Ga    9.7506998473637072E-02    7.4024795583977445E+00    5.9083175183548695E+00
N    9.1056418555190685E-02    7.4065580393087309E+00    7.8680791062760962E+00
Ga    9.0446754345592531E-02    5.5333584751042535E+00    8.4481706439224187E+00
N    9.0704270215884286E-02    5.5358828890093958E+00    1.0439971390483628E+01
Ga    9.1334083493459256E-02    7.4054753019749011E+00    1.1031773433917527E+01
N    9.1214819451519408E-02    7.4051270266983726E+00    1.3003580889246559E+01
Ga    9.1196561353647468E-02    5.5346927447239898E+00    1.3623575405607161E+01
N    9.1184637030997093E-02    5.5667480826578535E+00    1.5587800253137070E+01
Ga    9.2154508334390359E-02    7.4051268138789403E+00    1.5865431256430155E+01
N   -1.6206111230477966E+00    1.0119593517285043E+01    2.5249630229615962E+00
Ga   -1.4770802764259185E+00    8.3060838782161230E+00    3.3348040519599094E+00
N   -1.5052884670039206E+00    8.3262523646211459E+00    5.2630168181110912E+00
Ga   -1.4925711510205986E+00    1.0211875270790497E+01    5.8117481346269235E+00
N   -1.5089772961364967E+00    1.0193439706468183E+01    7.8034928896669413E+00
Ga   -1.5297093759904343E+00    8.3398799123442622E+00    8.4497880398410281E+00
N   -1.5288325730187484E+00    8.3401501572626788E+00    1.0439465566192029E+01
Ga   -1.5024195713082054E+00    1.0200176735182787E+01    1.1074268629464736E+01
N   -1.4849537624396494E+00    1.0208561118497208E+01    1.3068689076745622E+01
Ga   -1.5282576366677032E+00    8.3393197548468638E+00    1.3623808893560131E+01
N   -1.5015522161320141E+00    8.3227753287847275E+00    1.5586811710840268E+01
Ga   -1.6709490904263629E+00    1.0101421357760355E+01    1.6480282111316036E+01
N    6.5200602792008757E+00    1.9583392198701224E+00    2.5398868941822825E+00
Ga    6.5383674654842157E+00   -2.2306093119262755E-02    2.8645365023909939E+00
N    6.5181687222203868E+00   -2.2085914380759283E-02    5.0279513273141880E+00
Ga    6.5206734296966156E+00    1.8076490147118551E+00    5.8068111239687754E+00
N    6.5218459580808394E+00    1.8223219522128329E+00    7.8036067682511545E+00
Ga    6.5239923365519479E+00   -2.3089286320981745E-02    8.4487014065687731E+00
N    6.5232776054852710E+00   -2.3028693884638882E-02    1.0422751312603543E+01
Ga    6.5235340602070764E+00    1.8181160549642248E+00    1.1070797576354616E+01
N    6.5236288426186251E+00    1.7975947110988240E+00    1.3065533244975398E+01
Ga    6.5243704747275899E+00   -2.1353916248268927E-02    1.3869742974408256E+01
N    6.5246206465536662E+00   -2.0123601117724207E-02    1.6072339843855691E+01
Ga    6.5240863505786182E+00    2.0261381148970248E+00    1.6484607784807562E+01
Ga    6.5241644408315320E+00    3.6902071193673947E+00    1.5337527723606366E+00
N    5.0193369416804074E+00    4.5576360875884960E+00    2.5332636353811111E+00
Ga    4.8025375596404807E+00    2.7065189980729065E+00    3.3000769278798856E+00
N    4.9114878128277448E+00    2.7624891015151216E+00    5.2614174588341607E+00
Ga    4.8876490259687149E+00    4.6353255869451591E+00    5.8069388141275526E+00
N    4.9052336994817800E+00    4.6253142653118680E+00    7.8043753969224401E+00
Ga    4.9233402301468185E+00    2.7677951769978857E+00    8.4412168722599077E+00
N    4.9257816364973568E+00    2.7694173014075720E+00    1.0435559218244016E+01
Ga    4.9007890487468115E+00    4.6288142936007670E+00    1.1071543922595724E+01
N    4.8839478474034905E+00    4.6379818417537226E+00    1.3066675860774835E+01
Ga    4.9270540474179496E+00    2.7688377831067386E+00    1.3622666859489330E+01
N    4.9003179074893310E+00    2.7524599068577356E+00    1.5585055935762057E+01
Ga    5.0748001511817433E+00    4.5285246101047942E+00    1.6483841383480865E+01
N    6.5234629535796369E+00    3.7004355683008998E+00    1.7618974550055089E+01
N    3.3037247262833103E+00    7.5206422306829532E+00    2.5066450315494948E+00
N    3.3063069268781144E+00    5.5468359004872756E+00    5.0333460596666848E+00
Ga    3.3102982816492874E+00    7.3735928991689033E+00    5.7994135668264777E+00
N    3.3042148630772781E+00    7.3955574120137220E+00    7.7978533452561836E+00
Ga    3.3066610397283269E+00    5.5492521771992767E+00    8.4490693919643540E+00
N    3.3071090851670264E+00    5.5493446809054943E+00    1.0423697130103429E+01
Ga    3.3089857928004789E+00    7.3884905964962444E+00    1.1072709757460677E+01
N    3.3079093831212965E+00    7.3685870536942044E+00    1.3066649818667933E+01
Ga    3.3081623555984723E+00    5.5486980873466063E+00    1.3869421879871274E+01
N    3.3083485423375061E+00    5.5505312335817560E+00    1.6072146325169463E+01
Ga    3.3081394687785295E+00    7.5957383579601849E+00    1.6483916530097513E+01
Ga    3.3442920663797011E+00    9.2856106296880938E+00    1.3399033613007523E+00
N    1.7959390891267915E+00    1.0126379579964686E+01    2.5101734052378752E+00
Ga    1.6898835843241722E+00    8.3208723529232653E+00    3.2939149208943062E+00
N    1.6845139885372438E+00    8.3253912971587400E+00    5.2417621513302484E+00
Ga    1.6745359224285659E+00    1.0206696369247892E+01    5.7993184155500535E+00
N    1.6878987295874217E+00    1.0192624210699302E+01    7.7971657281061253E+00
Ga    1.7121279038145303E+00    8.3412518740165353E+00    8.4481926608340014E+00
N    1.7105590376017181E+00    8.3404279758019886E+00    1.0438712301589327E+01
Ga    1.6854431924366560E+00    1.0200330129615770E+01    1.1073042831129040E+01
N    1.6679213999001457E+00    1.0208658477135335E+01    1.3067292640534493E+01
Ga    1.7113422793365094E+00    8.3396993079420554E+00    1.3623381725885992E+01
N    1.6843394118662405E+00    8.3229813810996323E+00    1.5585308828681111E+01
Ga    1.8582362108102590E+00    1.0099538589857065E+01    1.6482947570162963E+01
N    3.3076576014583128E+00    9.2710395948385642E+00    1.7618222593890419E+01
N    9.7476790981517905E+00    1.8338627937926510E+00    2.6319950936583907E+00
Ga    9.7417861840983999E+00    7.2457613460188489E-02    3.2647021923572761E+00
N    9.7349676754563781E+00   -2.5703046699127392E-02    5.2450162858119915E+00
Ga    9.7436547401438354E+00    1.8292595758491115E+00    5.8700597778241779E+00
N    9.7378348428589323E+00    1.8328634853926353E+00    7.8501052649143794E+00
Ga    9.7401074693683434E+00   -3.3986178906309165E-02    8.4339695835231883E+00
N    9.7389728655878365E+00   -3.5153312099715443E-02    1.0431401628978593E+01
Ga    9.7394213257283972E+00    1.8344905905597053E+00    1.1026223155447692E+01
N    9.7399141426540314E+00    1.8344117757493830E+00    1.2999857645018228E+01
Ga    9.7400986587967751E+00   -3.4938751427810458E-02    1.3622609034850539E+01
N    9.7406196033791339E+00   -2.7109273592251224E-03    1.5585771720572396E+01
Ga    9.7400324008392225E+00    1.8347896088053814E+00    1.5864242743375096E+01
N    8.0242171010898637E+00    4.5582800200784312E+00    2.5397405476826154E+00
Ga    8.2406512875083386E+00    2.6994349419134287E+00    3.3019234139346021E+00
N    8.1300448104198750E+00    2.7620612403579594E+00    5.2626815805832843E+00
Ga    8.1543282650303652E+00    4.6343796472823451E+00    5.8034456347855281E+00
N    8.1405992139512886E+00    4.6263686562592889E+00    7.8013381696461623E+00
Ga    8.1224622293014175E+00    2.7673281905240903E+00    8.4377753322003404E+00
N    8.1202377965593868E+00    2.7696997336429332E+00    1.0433279895496865E+01
Ga    8.1450593465815082E+00    4.6280649015566127E+00    1.1071666410666618E+01
N    8.1628588740696557E+00    4.6376984312434697E+00    1.3066546097902402E+01
Ga    8.1206854107805171E+00    2.7683481503841327E+00    1.3622229169363990E+01
N    8.1475210509082476E+00    2.7527716715015789E+00    1.5584576738077727E+01
Ga    7.9723387634623544E+00    4.5278802677148979E+00    1.6483874470968534E+01
N    6.5172112835180318E+00    7.4076790843543847E+00    2.6137278233889782E+00
Ga    6.5167293317930337E+00    5.6704199676914815E+00    3.2975241143397112E+00
N    6.5214214143414777E+00    5.5506441788478451E+00    5.2586979728450274E+00
Ga    6.5156465827010859E+00    7.4098901314314451E+00    5.8714785099355726E+00
N    6.5221919618310560E+00    7.4059504724285041E+00    7.8483313342106271E+00
Ga    6.5226123397335369E+00    5.5385308948008083E+00    8.4392585182016013E+00
N    6.5233006946922130E+00    5.5367747120388060E+00    1.0434168918504996E+01
Ga    6.5226587006851995E+00    7.4062958120654212E+00    1.1026890214190470E+01
N    6.5236194304050956E+00    7.4056292910607606E+00    1.3000112091337623E+01
Ga    6.5234470525534736E+00    5.5357242660920045E+00    1.3622751602931540E+01
N    6.5241735182040603E+00    5.5677405424011415E+00    1.5586149533592730E+01
Ga    6.5234490712392184E+00    7.4051756383002623E+00    1.5865231364825258E+01
N    4.8149040576295681E+00    1.0134337021109625E+01    2.5170588213076228E+00
Ga    4.9923543977207503E+00    8.2888511056388339E+00    3.2610120269856306E+00
N    4.9118717522075936E+00    8.3334588514865597E+00    5.2416835947760392E+00
Ga    4.9403045651256878E+00    1.0206267959228132E+01    5.7878564111637179E+00
N    4.9243392649272177E+00    1.0195689889754966E+01    7.7933200700323910E+00
Ga    4.9047447258097652E+00    8.3413529938696094E+00    8.4346124724368980E+00
N    4.9039875308630965E+00    8.3401255845252091E+00    1.0431054593690508E+01
Ga    4.9293672061917118E+00    1.0198767996431513E+01    1.1069563936294346E+01
N    4.9467174456358460E+00    1.0208145805911837E+01    1.3065142962885057E+01
Ga    4.9046604397322024E+00    8.3397019084690047E+00    1.3622690989237579E+01
N    4.9314597821668729E+00    8.3235829527351122E+00    1.5584610553530149E+01
Ga    4.7571109742353714E+00    1.0099049601382323E+01    1.6483069376426080E+01
O    1.0412681997697176E-01    4.0670046012298551E+00   -4.3200172184644953E-01
H   -9.1499117101304997E-02    5.8531599881773175E+00   -3.5563010386159050E-01
C    1.2865475011178567E+00    3.6355830362715862E+00   -1.1351127186532153E+00
H    2.2127809639927336E+00    3.9336414741389616E+00   -6.1620503475928778E-01
H    1.2961096915913306E+00    2.5424290978295945E+00   -1.2634597085334496E+00
H    1.2753909250819389E+00    4.1027409966380679E+00   -2.1300931222964037E+00
Ga    3.2776711232622340E+00    5.5425368299011231E+00    2.8576918703474621E+00
O   -8.3433437954740952E-02    6.8393003876759799E+00   -2.1822628736296606E-01
H    5.2497310745734722E-02    7.3158913782693169E+00    1.6582312293753452E+00
C    1.0927284328014417E+00    7.3415284123084872E+00   -8.6595501208977865E-01
H    1.1217486098224556E+00    8.4278747788062152E+00   -6.9977233164563291E-01
H    2.0137519378918372E+00    6.9016832062133604E+00   -4.4791652129635762E-01
H    1.0729919777580279E+00    7.1605158806780933E+00   -1.9519660636622718E+00
     &END COORD
     &KIND C
       BASIS_SET DZVP-MOLOPT-SR-GTH-q4
       POTENTIAL GTH-PBE-q4
       &POTENTIAL
 2 2
  0.3384712400000000E+00 2 -0.8803673979999999E+01  0.1339210850000000E+01
 2
  0.3025757500000000E+00 1  0.9622486650000001E+01
  0.2915069400000000E+00 0
         # Potential name:  GTH-PBE-Q4  for symbol:  C
         # Potential read from the potential filename: GTH_POTENTIALS
       &END POTENTIAL
     &END KIND
     &KIND O
       BASIS_SET DZVP-MOLOPT-SR-GTH-q6
       POTENTIAL GTH-PBE-q6
       &POTENTIAL
 2 4
  0.2445543000000000E+00 2 -0.1666721480000000E+02  0.2487311320000000E+01
 2
  0.2209559200000000E+00 1  0.1833745811000000E+02
  0.2113324700000000E+00 0
         # Potential name:  GTH-PBE-Q6  for symbol:  O
         # Potential read from the potential filename: GTH_POTENTIALS
       &END POTENTIAL
     &END KIND
     &KIND H
       BASIS_SET DZVP-MOLOPT-SR-GTH-q1
       POTENTIAL GTH-PBE-q1
       &POTENTIAL
 1
  0.2000000000000000E+00 2 -0.4178900440000000E+01  0.7244633100000000E+00
 0
         # Potential name:  GTH-PBE-Q1  for symbol:  H
         # Potential read from the potential filename: GTH_POTENTIALS
       &END POTENTIAL
     &END KIND
     &KIND N
       BASIS_SET DZVP-MOLOPT-SR-GTH
       POTENTIAL GTH-PBE-q5
       &POTENTIAL
 2 3
  0.2837905100000000E+00 2 -0.1241522559000000E+02  0.1868095920000000E+01
 2
  0.2554050000000000E+00 1  0.1363026257000000E+02
  0.2454945300000000E+00 0
         # Potential name:  GTH-PBE-Q5  for symbol:  N
         # Potential read from the potential filename: GTH_POTENTIALS
       &END POTENTIAL
     &END KIND
     &KIND Ga
       BASIS_SET DZVP-MOLOPT-SR-GTH
       POTENTIAL GTH-PBE-q13
       &POTENTIAL
 2 1 10
  0.4900000000000000E+00 0
 3
  0.4167772300000000E+00 3  0.1047568975000000E+02 -0.4921768140000000E+01  0.8707055900000000E+00
  0.7770178090000000E+01 -0.2248152160000000E+01
  0.1784415450000000E+01
  0.5696265200000000E+00 2  0.1777985340000000E+01  0.1958597600000000E+00
 -0.2317443900000000E+00
  0.2381265000000000E+00 1 -0.1624868022000000E+02
         # Potential name:  GTH-PBE-Q13  for symbol:  GA
         # Potential read from the potential filename: GTH_POTENTIALS
       &END POTENTIAL
     &END KIND
     &TOPOLOGY
       NUMBER_OF_ATOMS  212
       MULTIPLE_UNIT_CELL  1 1 1
     &END TOPOLOGY
   &END SUBSYS
 &END FORCE_EVAL
