 # Version information for this restart file 
 # current date 2019-05-28 05:09:56.823
 # current working dir /lustre03/project/6004141/rzk/GaN-carbene/334-native/08-2Methanol-Htransfer/02-NH-constraint/1.84
 # Program compiled at                              Sun Apr  7 00:48:11 EDT 2019
 # Program compiled on                          beluga2.int.ets1.calculquebec.ca
 # Program compiled for                        Beluga-Linux-x86-64-intel-openmpi
 # Source code revision number                                         svn:18619
 &GLOBAL
   PRINT_LEVEL  MEDIUM
   PROJECT_NAME TEST
   RUN_TYPE  GEO_OPT
 &END GLOBAL
 &MOTION
   &GEO_OPT
     MAX_ITER  500
     STEP_START_VAL  306
   &END GEO_OPT
   &CONSTRAINT
     &COLLECTIVE
       COLVAR  1
       INTERMOLECULAR  T
       TARGET     3.4770960845095833E+00
       &RESTRAINT
         K     1.0000000000000001E-01
       &END RESTRAINT
     &END COLLECTIVE
     &COLVAR_RESTART
           3.4770960845095833E+00
     &END COLVAR_RESTART
   &END CONSTRAINT
 &END MOTION
 &FORCE_EVAL
   METHOD  QS
   STRESS_TENSOR  ANALYTICAL
   &DFT
     BASIS_SET_FILE_NAME BASIS_MOLOPT
     POTENTIAL_FILE_NAME GTH_POTENTIALS
     &SCF
       MAX_SCF  100
       EPS_SCF     5.0000000000000004E-06
       &OT  T
         PRECONDITIONER  FULL_ALL
       &END OT
       &OUTER_SCF  T
         OPTIMIZER  NONE
         EPS_SCF     5.0000000000000004E-06
         MAX_SCF  4
       &END OUTER_SCF
       &PRINT
         &RESTART  OFF
           BACKUP_COPIES  1
           &EACH
             JUST_ENERGY  0
             QS_SCF  0
             MD  20
           &END EACH
         &END RESTART
       &END PRINT
     &END SCF
     &QS
       EPS_DEFAULT     1.0000000000000000E-14
       ALMO_SCF  F
       METHOD  GPW
     &END QS
     &MGRID
       NGRIDS  5
       CUTOFF     1.2000000000000000E+03
     &END MGRID
     &XC
       DENSITY_CUTOFF     1.0000000000000000E-10
       GRADIENT_CUTOFF     1.0000000000000000E-10
       TAU_CUTOFF     1.0000000000000000E-10
       &XC_FUNCTIONAL  NO_SHORTCUT
         &PBE  T
         &END PBE
       &END XC_FUNCTIONAL
       &VDW_POTENTIAL
         POTENTIAL_TYPE  PAIR_POTENTIAL
         &PAIR_POTENTIAL
           R_CUTOFF     1.0000000000000005E+01
           TYPE  DFTD3
           PARAMETER_FILE_NAME dftd3.dat
           REFERENCE_FUNCTIONAL PBE
           EPS_CN     9.9999999999999995E-07
           CALCULATE_C9_TERM  T
           REFERENCE_C9_TERM  T
           LONG_RANGE_CORRECTION  F
           VERBOSE_OUTPUT  F
         &END PAIR_POTENTIAL
       &END VDW_POTENTIAL
     &END XC
   &END DFT
   &SUBSYS
     &CELL
       A     9.7367653356401487E+00    0.0000000000000000E+00    0.0000000000000000E+00
       B    -4.8591341382960209E+00    8.4162672083210595E+00    0.0000000000000000E+00
       C     0.0000000000000000E+00    0.0000000000000000E+00    3.0744000000000000E+01
       MULTIPLE_UNIT_CELL  1 1 1
       &CELL_REF
         A     9.5580000000000052E+00    0.0000000000000000E+00    0.0000000000000000E+00
         B    -4.7790000000000026E+00    8.2774708093716640E+00    0.0000000000000000E+00
         C     0.0000000000000000E+00    0.0000000000000000E+00    3.0744000000000000E+01
         MULTIPLE_UNIT_CELL  1 1 1
       &END CELL_REF
     &END CELL
     &COORD
Ga    1.9362535704627373E-01    3.6623036280879727E-02   -5.4388128208267239E-01
N    1.9655576087625817E-01    1.9111575498242619E+00    6.0877675056225355E-01
Ga    1.9602274832016778E-01    1.8792750023499396E+00    2.6380480216171902E+00
N    1.9317170155691102E-01    3.5775231118021417E-02    3.2708992953707798E+00
Ga    1.9357413814532706E-01    3.6921648902588151E-02    5.2601965791217449E+00
N    1.9601840646455343E-01    1.9110883428502379E+00    5.8506644630003724E+00
Ga    1.9541194200120190E-01    1.9090401426772110E+00    7.8492149490792107E+00
N    1.9261658529160161E-01    3.6107562172576269E-02    8.4535267991273599E+00
Ga    1.9347657333145254E-01    3.6870453654419058E-02    1.0451898280017646E+01
N    1.9684074375231694E-01    1.9083704075720735E+00    1.1056695373431999E+01
Ga    1.9636883856888823E-01    1.9057936211365187E+00    1.3055106358320941E+01
N    1.8843767542323603E-01    3.3988520411342871E-02    1.3658452031536052E+01
Ga    1.9419100834990741E-01    3.1901927972556608E-02    1.5669172954620235E+01
N    1.7626188563581099E-01    1.9190036059157078E+00    1.6212645213388718E+01
Ga    2.4575654547228265E-01    1.8426608276547138E+00    1.8237295817894410E+01
N    1.9551076415549373E-01    4.0941886923116606E-03    1.8721706336588220E+01
Ga   -1.4259842301763257E+00    2.8413552321801063E+00    3.2570785074696645E-01
N   -1.4275724231557745E+00    4.7112589380455061E+00    6.0865640524313425E-01
Ga   -1.3993846082523369E+00    4.7272096148463296E+00    2.6379391462230815E+00
N   -1.4265363032114133E+00    2.8414179605396748E+00    3.2309008196924638E+00
Ga   -1.4263030903327181E+00    2.8422970859282879E+00    5.2410501925259636E+00
N   -1.4258593248896683E+00    4.7123859666718380E+00    5.8504602519518301E+00
Ga   -1.4254474810283093E+00    4.7124595432599659E+00    7.8486270207883964E+00
N   -1.4264759000402847E+00    2.8421829461465444E+00    8.4553905599350312E+00
Ga   -1.4254487663296476E+00    2.8425184389458837E+00    1.0451526766289877E+01
N   -1.4250546336812548E+00    4.7170528435571404E+00    1.1051385466230380E+01
Ga   -1.4295039836038013E+00    4.7192660900788361E+00    1.3044546884403056E+01
N   -1.4325678812511284E+00    2.8455821855727432E+00    1.3634119654876530E+01
Ga   -1.4313707804411793E+00    2.8475158521397836E+00    1.5619539916095732E+01
N   -1.4122820879394893E+00    4.7226806955357805E+00    1.6221292984717259E+01
Ga   -1.4569509857824323E+00    4.7472202443519169E+00    1.8206082294946484E+01
N   -1.4211598353984312E+00    2.8237424994375826E+00    1.8649345802424332E+01
Ga   -3.0464322853923695E+00    5.6471413599961711E+00    3.2508909560366417E-01
N   -3.0394794444017879E+00    7.5171451252338901E+00    6.0838418690261598E-01
Ga   -3.0675949893789616E+00    7.5323830171638013E+00    2.6377570724320831E+00
N   -3.0462568636714806E+00    5.6468839675683995E+00    3.2311928996771400E+00
Ga   -3.0458099986429619E+00    5.6480146995991269E+00    5.2414583904536078E+00
N   -3.0407134684973056E+00    7.5183322952532476E+00    5.8503782305359220E+00
Ga   -3.0424807226641519E+00    7.5189385530847019E+00    7.8486637196847999E+00
N   -3.0465441443442787E+00    5.6480580705243373E+00    8.4518515690282072E+00
Ga   -3.0458496172535723E+00    5.6517499539724154E+00    1.0445903942527607E+01
N   -3.0437741288049311E+00    7.5197054639862202E+00    1.1058923973914400E+01
Ga   -3.0447200266802725E+00    7.5211116148101089E+00    1.3058961602616380E+01
N   -3.0497488443103546E+00    5.6492667890813184E+00    1.3666578995718229E+01
Ga   -3.0543037701997493E+00    5.6627827580864185E+00    1.5671343158265376E+01
N   -3.0439718518673953E+00    7.5322257451579659E+00    1.6262554648934895E+01
Ga   -3.0383547344278128E+00    7.4893771495697834E+00    1.8367351717607114E+01
N   -3.0396572751950486E+00    5.6142421236941606E+00    1.8773212001263005E+01
Ga    3.4396522751170786E+00    3.5535460916704710E-02    3.2519704023518026E-01
N    3.4375074998860304E+00    1.9053341592222575E+00    6.0862793869471910E-01
Ga    3.4659534793743521E+00    1.9213040923194331E+00    2.6377046494054399E+00
N    3.4387570276642587E+00    3.5914418268311654E-02    3.2308579247750484E+00
Ga    3.4390676686591548E+00    3.6766212328507714E-02    5.2408642697481120E+00
N    3.4393719875610675E+00    1.9066736875405705E+00    5.8506293525435336E+00
Ga    3.4400343133188898E+00    1.9068500387249834E+00    7.8490075821424394E+00
N    3.4384931701784431E+00    3.6312973551947306E-02    8.4561857047930875E+00
Ga    3.4381728878570326E+00    3.7026124227972121E-02    1.0453065470442020E+01
N    3.4406552247333155E+00    1.9087197287209599E+00    1.1056473999856010E+01
Ga    3.4390749776155207E+00    1.9055329852414911E+00    1.3054823735718537E+01
N    3.4414203447798029E+00    3.3365892391033908E-02    1.3657166360123423E+01
Ga    3.4368054635756748E+00    3.6447467275176726E-02    1.5668191984686260E+01
N    3.4640649140515078E+00    1.9199283682826529E+00    1.6218352629557241E+01
Ga    3.4153950936986566E+00    1.8569209040880970E+00    1.8227476246217936E+01
N    3.4452784296221757E+00    1.0843733606269251E-02    1.8707903427965846E+01
Ga    1.8189132253929960E+00    2.8418545599134850E+00    3.2539906057611084E-01
N    1.8256915431783507E+00    4.7117596865899554E+00    6.0869120161814139E-01
Ga    1.7972365247582636E+00    4.7271060947320533E+00    2.6379930523122099E+00
N    1.8191108573696013E+00    2.8413407291098660E+00    3.2311593093616828E+00
Ga    1.8192842664753879E+00    2.8420951757252038E+00    5.2414060670083069E+00
N    1.8244654959514506E+00    4.7124507624147967E+00    5.8503156968045262E+00
Ga    1.8231030777084245E+00    4.7123033511862760E+00    7.8483943594420342E+00
N    1.8187294857432170E+00    2.8414745645742259E+00    8.4534351131803547E+00
Ga    1.8189763550549922E+00    2.8403504113405877E+00    1.0448718026760051E+01
N    1.8224237439318429E+00    4.7136843262364119E+00    1.1048873364135332E+01
Ga    1.8237545414344674E+00    4.7095442511853323E+00    1.3039467703017733E+01
N    1.8180674244863670E+00    2.8455121958562599E+00    1.3658171578287373E+01
Ga    1.8228540142017027E+00    2.8436031803455193E+00    1.5661898285982447E+01
N    1.8216593136694532E+00    4.7340770603236608E+00    1.6265968006704774E+01
Ga    1.8221909258585984E+00    4.6779568933995739E+00    1.8253567713579208E+01
N    1.8238289822307525E+00    2.8164271619751022E+00    1.8664416257337894E+01
Ga    1.9966698478427000E-01    5.6481846918334115E+00   -5.4508830078065129E-01
N    2.0274716874458040E-01    7.5217587426914623E+00    6.0923716259015870E-01
Ga    2.0217380946085503E-01    7.4899257491364564E+00    2.6383733507765075E+00
N    1.9922833981461330E-01    5.6465838777561546E+00    3.2715640085163646E+00
Ga    1.9948631264523178E-01    5.6477870983224348E+00    5.2609228866669202E+00
N    2.0200102910389620E-01    7.5220648305108897E+00    5.8501700858025618E+00
Ga    2.0121313172822261E-01    7.5205259776688544E+00    7.8480826005784960E+00
N    1.9919559110679455E-01    5.6474774373249339E+00    8.4510616344751650E+00
Ga    1.9913864040536461E-01    5.6495901256015735E+00    1.0447282981559217E+01
N    2.0407707017353630E-01    7.5204102338488017E+00    1.1055200535641928E+01
Ga    2.0184735055461497E-01    7.5227746694481930E+00    1.3050110231096719E+01
N    2.0264220036049210E-01    5.6451845083571657E+00    1.3644286722060652E+01
Ga    2.0676692477400271E-01    5.6507807797830649E+00    1.5627439166486905E+01
N    2.0358077547048464E-01    7.5061719953420125E+00    1.6262409209414749E+01
Ga    2.1835076090170571E-01    7.5400112242231181E+00    1.8309076359803736E+01
N    1.9791781956051233E-01    5.6209179626367929E+00    1.8840420828097777E+01
Ga    6.6839022072979501E+00    3.6116860802928440E-02    3.2513472337363991E-01
N    6.6913513003936451E+00    1.9058724344782745E+00    6.0901020027875763E-01
Ga    6.6626084011326974E+00    1.9213136239656181E+00    2.6380252908905719E+00
N    6.6842881081901826E+00    3.5913888273835147E-02    3.2314256159206636E+00
Ga    6.6843021274305583E+00    3.6884469716330463E-02    5.2416087424763926E+00
N    6.6899226063595076E+00    1.9072207319929562E+00    5.8507684813964440E+00
Ga    6.6883956143688756E+00    1.9078898644018050E+00    7.8492297108138054E+00
N    6.6844461221261602E+00    3.5758806232975247E-02    8.4511147478800748E+00
Ga    6.6846320366767209E+00    3.5025878792348170E-02    1.0444452001331101E+01
N    6.6868328418170533E+00    1.9051053002534131E+00    1.1048348032837993E+01
Ga    6.6864442697430482E+00    1.9040487318439590E+00    1.3039791660692504E+01
N    6.6844125783034283E+00    3.5420096335310569E-02    1.3670251883214378E+01
Ga    6.6852905244653291E+00    3.3528772412233926E-02    1.5678842123379457E+01
N    6.6818526735206936E+00    1.9261108405785816E+00    1.6247243901527096E+01
Ga    6.6652669543564373E+00    1.8268471517239899E+00    1.8253387444607700E+01
N    6.6844873117858734E+00    1.1571198410059613E-02    1.8774144535267503E+01
Ga    5.0651897239931536E+00    2.8410193200106706E+00   -5.4551239141674113E-01
N    5.0680101461453733E+00    4.7164535136072478E+00    6.0876228044579417E-01
Ga    5.0674991787043773E+00    4.6844699541790824E+00    2.6379560229216321E+00
N    5.0644807245824959E+00    2.8410744337569933E+00    3.2714397685521668E+00
Ga    5.0648246665414449E+00    2.8419177943218474E+00    5.2608700027522168E+00
N    5.0675988749444647E+00    4.7166046917851165E+00    5.8499781700704530E+00
Ga    5.0671611946231812E+00    4.7151081111794086E+00    7.8480869730127996E+00
N    5.0640368651973819E+00    2.8421997736892464E+00    8.4518189172032088E+00
Ga    5.0633485179991542E+00    2.8416539301573218E+00    1.0448889581165693E+01
N    5.0684679255632004E+00    4.7164216405433583E+00    1.1048564835516405E+01
Ga    5.0712617553709602E+00    4.7193885220165548E+00    1.3039739513643550E+01
N    5.0687243386187344E+00    2.8471020142872425E+00    1.3632445923710140E+01
Ga    5.0639136692662516E+00    2.8496056060372084E+00    1.5615939080601880E+01
N    5.0593684688628047E+00    4.7090465768796026E+00    1.6263573275392620E+01
Ga    5.1051459913890938E+00    4.7246042063173146E+00    1.8260780578836581E+01
N    5.0579410741849555E+00    2.8223048152626946E+00    1.8836737516189409E+01
Ga    3.4454696209101265E+00    5.6466437358382588E+00    3.2530832643070190E-01
N    3.4438427477653852E+00    7.5166441540383975E+00    6.0850546556715190E-01
Ga    3.4717404187187562E+00    7.5324135449977279E+00    2.6379723962860555E+00
N    3.4448803631013365E+00    5.6467265196484195E+00    3.2307348662467876E+00
Ga    3.4450187317107970E+00    5.6476518028261280E+00    5.2407890016932335E+00
N    3.4457754036695247E+00    7.5178626027875941E+00    5.8494380322957422E+00
Ga    3.4469559819748721E+00    7.5180638290579243E+00    7.8471028679431569E+00
N    3.4446674740398766E+00    5.6477691274233095E+00    8.4527610915008911E+00
Ga    3.4449547955274418E+00    5.6497026416383749E+00    1.0446829783450257E+01
N    3.4460588270349493E+00    7.5196316157630960E+00    1.1057144483536637E+01
Ga    3.4477681978079024E+00    7.5202768395465931E+00    1.3053252642606239E+01
N    3.4448284022036688E+00    5.6432777426706808E+00    1.3654919845321318E+01
Ga    3.4456510875468314E+00    5.6438864289263568E+00    1.5643417663265899E+01
N    3.4464098120515607E+00    7.5052409946879246E+00    1.6266832402127633E+01
Ga    3.4376462238704559E+00    7.5427124990211754E+00    1.8315888933665811E+01
N    3.4444775205192948E+00    5.6234659495558468E+00    1.8844682553240403E+01
O   -2.7461682149040884E-01    4.2972985006544269E+00    2.1684036440166640E+01
H    1.6439843650882324E-01    5.5784540888728644E+00    1.9869655181756901E+01
C   -1.4130667440512392E+00    3.7671464052548056E+00    2.1473630121558895E+01
H   -1.3176786176820761E+00    3.0624156119372064E+00    2.0341211695687370E+01
H   -1.7093559435108889E+00    2.8679711287413818E+00    2.2062881110349760E+01
H   -2.2474837795857066E+00    4.4033190596804328E+00    2.1091913035956477E+01
O    3.3153645256722619E+00    4.2657341920864988E+00    2.1747233684741516E+01
H    3.4533733728737142E+00    5.5662364369116348E+00    1.9872794554657681E+01
C    2.4213966357844239E+00    3.4292874484671865E+00    2.1784013116687596E+01
H    5.0303799538752560E+00    2.8232773253124579E+00    1.9863035723117591E+01
H    2.0329290088711391E+00    3.0418720780565742E+00    2.2747694576896848E+01
H    1.9748783339704017E+00    3.0202742836239445E+00    2.0846171313018623E+01
     &END COORD
     &KIND C
       BASIS_SET DZVP-MOLOPT-SR-GTH-q4
       POTENTIAL GTH-PBE-q4
       &POTENTIAL
 2 2
  0.3384712400000000E+00 2 -0.8803673979999999E+01  0.1339210850000000E+01
 2
  0.3025757500000000E+00 1  0.9622486650000001E+01
  0.2915069400000000E+00 0
         # Potential name:  GTH-PBE-Q4  for symbol:  C
         # Potential read from the potential filename: GTH_POTENTIALS
       &END POTENTIAL
     &END KIND
     &KIND O
       BASIS_SET DZVP-MOLOPT-SR-GTH-q6
       POTENTIAL GTH-PBE-q6
       &POTENTIAL
 2 4
  0.2445543000000000E+00 2 -0.1666721480000000E+02  0.2487311320000000E+01
 2
  0.2209559200000000E+00 1  0.1833745811000000E+02
  0.2113324700000000E+00 0
         # Potential name:  GTH-PBE-Q6  for symbol:  O
         # Potential read from the potential filename: GTH_POTENTIALS
       &END POTENTIAL
     &END KIND
     &KIND H
       BASIS_SET DZVP-MOLOPT-SR-GTH-q1
       POTENTIAL GTH-PBE-q1
       &POTENTIAL
 1
  0.2000000000000000E+00 2 -0.4178900440000000E+01  0.7244633100000000E+00
 0
         # Potential name:  GTH-PBE-Q1  for symbol:  H
         # Potential read from the potential filename: GTH_POTENTIALS
       &END POTENTIAL
     &END KIND
     &KIND N
       BASIS_SET DZVP-MOLOPT-SR-GTH-q5
       POTENTIAL GTH-PBE-q5
       &POTENTIAL
 2 3
  0.2837905100000000E+00 2 -0.1241522559000000E+02  0.1868095920000000E+01
 2
  0.2554050000000000E+00 1  0.1363026257000000E+02
  0.2454945300000000E+00 0
         # Potential name:  GTH-PBE-Q5  for symbol:  N
         # Potential read from the potential filename: GTH_POTENTIALS
       &END POTENTIAL
     &END KIND
     &KIND Ga
       BASIS_SET DZVP-MOLOPT-SR-GTH-q13
       POTENTIAL GTH-PBE-q13
       &POTENTIAL
 2 1 10
  0.4900000000000000E+00 0
 3
  0.4167772300000000E+00 3  0.1047568975000000E+02 -0.4921768140000000E+01  0.8707055900000000E+00
  0.7770178090000000E+01 -0.2248152160000000E+01
  0.1784415450000000E+01
  0.5696265200000000E+00 2  0.1777985340000000E+01  0.1958597600000000E+00
 -0.2317443900000000E+00
  0.2381265000000000E+00 1 -0.1624868022000000E+02
         # Potential name:  GTH-PBE-Q13  for symbol:  GA
         # Potential read from the potential filename: GTH_POTENTIALS
       &END POTENTIAL
     &END KIND
     &TOPOLOGY
       COORD_FILE_NAME ../start-first.xyz
       COORD_FILE_FORMAT  XYZ
       NUMBER_OF_ATOMS  156
       MULTIPLE_UNIT_CELL  1 1 1
     &END TOPOLOGY
     &COLVAR
       &DISTANCE
         ATOMS  32 148
       &END DISTANCE
       &PRINT
       &END PRINT
     &END COLVAR
   &END SUBSYS
 &END FORCE_EVAL
