 # Version information for this restart file 
 # current date 2019-05-28 05:10:54.420
 # current working dir /lustre03/project/6004141/rzk/GaN-carbene/334-native/08-2Methanol-Htransfer/02-NH-constraint/1.84
 # Program compiled at                              Sun Apr  7 00:48:11 EDT 2019
 # Program compiled on                          beluga2.int.ets1.calculquebec.ca
 # Program compiled for                        Beluga-Linux-x86-64-intel-openmpi
 # Source code revision number                                         svn:18619
 &GLOBAL
   PRINT_LEVEL  MEDIUM
   PROJECT_NAME TEST
   RUN_TYPE  GEO_OPT
 &END GLOBAL
 &MOTION
   &GEO_OPT
     MAX_ITER  500
     STEP_START_VAL  307
   &END GEO_OPT
   &CONSTRAINT
     &COLLECTIVE
       COLVAR  1
       INTERMOLECULAR  T
       TARGET     3.4770960845095833E+00
       &RESTRAINT
         K     1.0000000000000001E-01
       &END RESTRAINT
     &END COLLECTIVE
     &COLVAR_RESTART
           3.4770960845095833E+00
     &END COLVAR_RESTART
   &END CONSTRAINT
 &END MOTION
 &FORCE_EVAL
   METHOD  QS
   STRESS_TENSOR  ANALYTICAL
   &DFT
     BASIS_SET_FILE_NAME BASIS_MOLOPT
     POTENTIAL_FILE_NAME GTH_POTENTIALS
     &SCF
       MAX_SCF  100
       EPS_SCF     5.0000000000000004E-06
       &OT  T
         PRECONDITIONER  FULL_ALL
       &END OT
       &OUTER_SCF  T
         OPTIMIZER  NONE
         EPS_SCF     5.0000000000000004E-06
         MAX_SCF  4
       &END OUTER_SCF
       &PRINT
         &RESTART  OFF
           BACKUP_COPIES  1
           &EACH
             JUST_ENERGY  0
             QS_SCF  0
             MD  20
           &END EACH
         &END RESTART
       &END PRINT
     &END SCF
     &QS
       EPS_DEFAULT     1.0000000000000000E-14
       ALMO_SCF  F
       METHOD  GPW
     &END QS
     &MGRID
       NGRIDS  5
       CUTOFF     1.2000000000000000E+03
     &END MGRID
     &XC
       DENSITY_CUTOFF     1.0000000000000000E-10
       GRADIENT_CUTOFF     1.0000000000000000E-10
       TAU_CUTOFF     1.0000000000000000E-10
       &XC_FUNCTIONAL  NO_SHORTCUT
         &PBE  T
         &END PBE
       &END XC_FUNCTIONAL
       &VDW_POTENTIAL
         POTENTIAL_TYPE  PAIR_POTENTIAL
         &PAIR_POTENTIAL
           R_CUTOFF     1.0000000000000005E+01
           TYPE  DFTD3
           PARAMETER_FILE_NAME dftd3.dat
           REFERENCE_FUNCTIONAL PBE
           EPS_CN     9.9999999999999995E-07
           CALCULATE_C9_TERM  T
           REFERENCE_C9_TERM  T
           LONG_RANGE_CORRECTION  F
           VERBOSE_OUTPUT  F
         &END PAIR_POTENTIAL
       &END VDW_POTENTIAL
     &END XC
   &END DFT
   &SUBSYS
     &CELL
       A     9.7367653356401487E+00    0.0000000000000000E+00    0.0000000000000000E+00
       B    -4.8591341382960209E+00    8.4162672083210595E+00    0.0000000000000000E+00
       C     0.0000000000000000E+00    0.0000000000000000E+00    3.0744000000000000E+01
       MULTIPLE_UNIT_CELL  1 1 1
       &CELL_REF
         A     9.5580000000000052E+00    0.0000000000000000E+00    0.0000000000000000E+00
         B    -4.7790000000000026E+00    8.2774708093716640E+00    0.0000000000000000E+00
         C     0.0000000000000000E+00    0.0000000000000000E+00    3.0744000000000000E+01
         MULTIPLE_UNIT_CELL  1 1 1
       &END CELL_REF
     &END CELL
     &COORD
Ga    1.9376898775936002E-01    3.6612893573259760E-02   -5.4356987756021269E-01
N    1.9672551804970032E-01    1.9111121334109518E+00    6.0878280737785406E-01
Ga    1.9616830817291359E-01    1.8791377810374998E+00    2.6381179287084180E+00
N    1.9330066820407504E-01    3.5638657815156058E-02    3.2708993897324228E+00
Ga    1.9371818656666612E-01    3.6851106556303297E-02    5.2602298088816299E+00
N    1.9613366935354387E-01    1.9110237538458905E+00    5.8507120111267676E+00
Ga    1.9549142376293210E-01    1.9090693580351470E+00    7.8493067348971328E+00
N    1.9270156388371915E-01    3.6178348363631943E-02    8.4535067031851625E+00
Ga    1.9350398565869317E-01    3.6978287486397386E-02    1.0451919444080973E+01
N    1.9686390874677753E-01    1.9084341040475601E+00    1.1056733549053970E+01
Ga    1.9643412246562786E-01    1.9058428017716094E+00    1.3055159265768108E+01
N    1.8848464468089579E-01    3.3999603333136307E-02    1.3658436628408719E+01
Ga    1.9415431693172511E-01    3.2029123543792011E-02    1.5669091346863130E+01
N    1.7635206950129886E-01    1.9189821944882828E+00    1.6212749758659545E+01
Ga    2.4591475345602029E-01    1.8427453528064646E+00    1.8237341346838644E+01
N    1.9554816052346419E-01    4.2008240480902797E-03    1.8721680457634257E+01
Ga   -1.4258448886983814E+00    2.8413421848623233E+00    3.2575635382440660E-01
N   -1.4274629753152936E+00    4.7111828750610902E+00    6.0874153132158537E-01
Ga   -1.3992211148018374E+00    4.7271470246099065E+00    2.6379199625968570E+00
N   -1.4264120331736094E+00    2.8412960011249266E+00    3.2309230641488775E+00
Ga   -1.4261800917955212E+00    2.8421895881153012E+00    5.2411059261476503E+00
N   -1.4257457013042936E+00    4.7122767332909312E+00    5.8504589811395897E+00
Ga   -1.4253544174752213E+00    4.7124692061915860E+00    7.8486988359249050E+00
N   -1.4264145390008265E+00    2.8421857693107895E+00    8.4553674862506583E+00
Ga   -1.4254374931137033E+00    2.8425234072260883E+00    1.0451554556843426E+01
N   -1.4250196437642477E+00    4.7171144918999151E+00    1.1051350688622007E+01
Ga   -1.4294929690401061E+00    4.7192523337347740E+00    1.3044609890385006E+01
N   -1.4325088984159715E+00    2.8455769085850871E+00    1.3634177847320688E+01
Ga   -1.4314364171953644E+00    2.8474426882704180E+00    1.5619693243099992E+01
N   -1.4121763657705648E+00    4.7226589155057681E+00    1.6221525916176621E+01
Ga   -1.4568545809545668E+00    4.7472612863826287E+00    1.8206368233531293E+01
N   -1.4210124503087833E+00    2.8237317133308961E+00    1.8649660847128921E+01
Ga   -3.0462638613701079E+00    5.6470597231385984E+00    3.2512003541143031E-01
N   -3.0393275394170383E+00    7.5170852543246864E+00    6.0832825954258329E-01
Ga   -3.0674689456916093E+00    7.5322626473266885E+00    2.6377951225421632E+00
N   -3.0461284820314760E+00    5.6467825683826440E+00    3.2312181298943492E+00
Ga   -3.0456503067216949E+00    5.6479420275777947E+00    5.2415136026137743E+00
N   -3.0405822240626987E+00    7.5182825877923865E+00    5.8504127977030693E+00
Ga   -3.0423843732594937E+00    7.5190224737915905E+00    7.8487707420859012E+00
N   -3.0464616641873210E+00    5.6481269164162642E+00    8.4517730012714196E+00
Ga   -3.0458229618336916E+00    5.6518426551974192E+00    1.0445884941805110E+01
N   -3.0437314212888187E+00    7.5198090090539838E+00    1.1058942788371622E+01
Ga   -3.0446471677692859E+00    7.5211538258095914E+00    1.3059048983554121E+01
N   -3.0497244935184300E+00    5.6492931208771617E+00    1.3666744895010957E+01
Ga   -3.0541400847293918E+00    5.6626813533720437E+00    1.5671670921056560E+01
N   -3.0440299234989499E+00    7.5323692766893870E+00    1.6262607403540052E+01
Ga   -3.0385109253675040E+00    7.4892833465220914E+00    1.8367369795482972E+01
N   -3.0396306744140933E+00    5.6142529411060416E+00    1.8773287384082462E+01
Ga    3.4398386431912997E+00    3.5456341654593812E-02    3.2518572440404148E-01
N    3.4376701436564585E+00    1.9052627330407099E+00    6.0865769448310925E-01
Ga    3.4661070408352943E+00    1.9211983534162329E+00    2.6378227590917347E+00
N    3.4388772753860888E+00    3.5801564744368068E-02    3.2308712577993557E+00
Ga    3.4391891017128589E+00    3.6712087165929448E-02    5.2409248269640791E+00
N    3.4394998147827698E+00    1.9066274383793931E+00    5.8506598090381718E+00
Ga    3.4400920055726734E+00    1.9068860276224837E+00    7.8490987880477787E+00
N    3.4385829008417614E+00    3.6384849068138055E-02    8.4561708160973197E+00
Ga    3.4382242726087675E+00    3.7084286296310769E-02    1.0453096290011812E+01
N    3.4406554995552412E+00    1.9087465630505986E+00    1.1056483058353638E+01
Ga    3.4390774953579482E+00    1.9055891320465501E+00    1.3054834717524010E+01
N    3.4415055488082174E+00    3.3391116079598597E-02    1.3657320877687170E+01
Ga    3.4369166326539133E+00    3.6448516474705782E-02    1.5668439791582408E+01
N    3.4641170811660422E+00    1.9199820310452875E+00    1.6218460007059232E+01
Ga    3.4155627585193429E+00    1.8570140992812565E+00    1.8227629135940798E+01
N    3.4451928515926848E+00    1.0851549736854791E-02    1.8707797676705113E+01
Ga    1.8191092122147541E+00    2.8418339184043440E+00    3.2548009570583791E-01
N    1.8258725630131143E+00    4.7116737552953829E+00    6.0882544903935054E-01
Ga    1.7973915550397688E+00    4.7270275480340045E+00    2.6380030466095548E+00
N    1.8192498872360372E+00    2.8412322663821437E+00    3.2312078849737000E+00
Ga    1.8193970298605469E+00    2.8420073283719094E+00    5.2415104141927644E+00
N    1.8246090097335987E+00    4.7123825155708472E+00    5.8503399832582970E+00
Ga    1.8231935049403167E+00    4.7123209777170070E+00    7.8484987012511658E+00
N    1.8187949724653736E+00    2.8415029007096995E+00    8.4534430013940476E+00
Ga    1.8190025749482179E+00    2.8403511435215694E+00    1.0448731406819764E+01
N    1.8224683306611427E+00    4.7136507595035910E+00    1.1048886782261492E+01
Ga    1.8238192943323281E+00    4.7094346741535018E+00    1.3039503299590480E+01
N    1.8180904069964174E+00    2.8454634022032606E+00    1.3658279572083574E+01
Ga    1.8228360632972280E+00    2.8436124231353506E+00    1.5662025276138744E+01
N    1.8216312949202860E+00    4.7340878686582073E+00    1.6266114235729074E+01
Ga    1.8222256563547663E+00    4.6780119990689606E+00    1.8253691414584662E+01
N    1.8239377671552244E+00    2.8165308291678510E+00    1.8664587543088075E+01
Ga    1.9983955811767576E-01    5.6480876842862875E+00   -5.4550798676166790E-01
N    2.0288414991686463E-01    7.5217195578603455E+00    6.0928889847729051E-01
Ga    2.0230122266267106E-01    7.4897978701545735E+00    2.6383202399247061E+00
N    1.9938816895041336E-01    5.6464798944070740E+00    3.2716310259277277E+00
Ga    1.9959306717575981E-01    5.6477210280359973E+00    5.2609699101643868E+00
N    2.0210762353033104E-01    7.5220127846574139E+00    5.8501450012077303E+00
Ga    2.0126627337891173E-01    7.5205674446746631E+00    7.8481647186701844E+00
N    1.9928173355202597E-01    5.6475171869444978E+00    8.4509933660054930E+00
Ga    1.9921950256196577E-01    5.6496288252545428E+00    1.0447329825870487E+01
N    2.0412072560475986E-01    7.5204314607365683E+00    1.1055201294340661E+01
Ga    2.0196850348796905E-01    7.5227495827092179E+00    1.3050171701155504E+01
N    2.0272948599006099E-01    5.6451549358940891E+00    1.3644314650748555E+01
Ga    2.0680326590227080E-01    5.6506993607927107E+00    1.5627536947130729E+01
N    2.0375807861644124E-01    7.5061335877866169E+00    1.6262454122897257E+01
Ga    2.1837430798944876E-01    7.5399926615851482E+00    1.8309246673546745E+01
N    1.9800264434440573E-01    5.6209756769104269E+00    1.8840684661020614E+01
Ga    6.6840034518118800E+00    3.6060008810901580E-02    3.2518774895379565E-01
N    6.6914713466005962E+00    1.9058426846350982E+00    6.0900170657543740E-01
Ga    6.6627342788958321E+00    1.9212055559239845E+00    2.6381140081053553E+00
N    6.6844361136804453E+00    3.5799785415642854E-02    3.2314368725376563E+00
Ga    6.6844323560638177E+00    3.6810894456452206E-02    5.2416652518216731E+00
N    6.6900422660064862E+00    1.9071364263939672E+00    5.8507843960336157E+00
Ga    6.6884644086796738E+00    1.9079031954085288E+00    7.8493053624279527E+00
N    6.6845384349189647E+00    3.5755356746222308E-02    8.4510311461361916E+00
Ga    6.6846742700061084E+00    3.5029115430199799E-02    1.0444449664140590E+01
N    6.6868225074181789E+00    1.9051189349463757E+00    1.1048348813536643E+01
Ga    6.6864461180071597E+00    1.9040719817894454E+00    1.3039911406504141E+01
N    6.6845010060313825E+00    3.5411368812763383E-02    1.3670318286062683E+01
Ga    6.6853395884050855E+00    3.3691475594181612E-02    1.5679120911512394E+01
N    6.6817493960675574E+00    1.9261708535562290E+00    1.6247412228256895E+01
Ga    6.6652125654972743E+00    1.8270541590351783E+00    1.8253749297946406E+01
N    6.6845980259598132E+00    1.1662666751795590E-02    1.8774328197442600E+01
Ga    5.0653457456315563E+00    2.8410027334315267E+00   -5.4498967218718952E-01
N    5.0681623242562788E+00    4.7163741394898775E+00    6.0879385470413183E-01
Ga    5.0676359669942137E+00    4.6843713395732447E+00    2.6380710052954202E+00
N    5.0646418927319914E+00    2.8409844639990443E+00    3.2714690845222729E+00
Ga    5.0649719727597686E+00    2.8418137886597150E+00    5.2609209428502908E+00
N    5.0677435070571812E+00    4.7165116386988615E+00    5.8499925721159611E+00
Ga    5.0672621142967360E+00    4.7151040303292406E+00    7.8481667317694015E+00
N    5.0640875083529169E+00    2.8421984848100301E+00    8.4517654457034865E+00
Ga    5.0633405300498957E+00    2.8416316778647293E+00    1.0448917388003871E+01
N    5.0685081785852839E+00    4.7164427453684699E+00    1.1048527852661989E+01
Ga    5.0712365142944025E+00    4.7193992158489868E+00    1.3039768779445078E+01
N    5.0686704525247128E+00    2.8471091935519288E+00    1.3632389210668531E+01
Ga    5.0639471816130746E+00    2.8496083000506864E+00    1.5615920297499962E+01
N    5.0593356486687577E+00    4.7090526641391124E+00    1.6263598881198046E+01
Ga    5.1051627090113634E+00    4.7246367103362266E+00    1.8260943214766097E+01
N    5.0579090713979946E+00    2.8224044030695992E+00    1.8837032701827468E+01
Ga    3.4455949317238694E+00    5.6465511118325198E+00    3.2541300133061601E-01
N    3.4439991961634053E+00    7.5165890693926025E+00    6.0847835917586168E-01
Ga    3.4718819970582895E+00    7.5322691668077324E+00    2.6380266616996444E+00
N    3.4450483711865871E+00    5.6466197798268345E+00    3.2307793500052999E+00
Ga    3.4451613194959201E+00    5.6475814408900451E+00    5.2408526363808692E+00
N    3.4459333821275413E+00    7.5177943187705161E+00    5.8494476123423889E+00
Ga    3.4470836609706712E+00    7.5180859605354664E+00    7.8471883406167562E+00
N    3.4447652577463157E+00    5.6478004904426511E+00    8.4527307953039585E+00
Ga    3.4449947043000706E+00    5.6497467484949286E+00    1.0446884770196938E+01
N    3.4461160205186410E+00    7.5196749576731925E+00    1.1057117146685753E+01
Ga    3.4478107285561004E+00    7.5202672539716016E+00    1.3053268343498974E+01
N    3.4448513490209489E+00    5.6432914155752361E+00    1.3654979340236700E+01
Ga    3.4457977573399590E+00    5.6438130564389919E+00    1.5643502929278030E+01
N    3.4465641392383159E+00    7.5051777828779134E+00    1.6266926361035637E+01
Ga    3.4376278629052757E+00    7.5426629007947277E+00    1.8315909113816602E+01
N    3.4444535861307708E+00    5.6235176866829368E+00    1.8844816002781080E+01
O   -2.7559888689524298E-01    4.2984785923175064E+00    2.1684538754845889E+01
H    1.6398164137071675E-01    5.5787712997327263E+00    1.9869949133109667E+01
C   -1.4138148964897024E+00    3.7683587620367800E+00    2.1473909282845959E+01
H   -1.3181336928401559E+00    3.0631430230230081E+00    2.0341665191199869E+01
H   -1.7104876833097502E+00    2.8693329126856706E+00    2.2063234635421477E+01
H   -2.2480786001566728E+00    4.4046846105882160E+00    2.1091683895160951E+01
O    3.3151261703778974E+00    4.2650914038150782E+00    2.1747254718762296E+01
H    3.4534614292412837E+00    5.5662847083972125E+00    1.9872949715204328E+01
C    2.4210512777727149E+00    3.4287721122085619E+00    2.1783840535133013E+01
H    5.0300182277241499E+00    2.8233943042757694E+00    1.9863408144584348E+01
H    2.0332866737502093E+00    3.0404581247404527E+00    2.2747347935014005E+01
H    1.9739368196681459E+00    3.0205779837069175E+00    2.0845909788644619E+01
     &END COORD
     &KIND C
       BASIS_SET DZVP-MOLOPT-SR-GTH-q4
       POTENTIAL GTH-PBE-q4
       &POTENTIAL
 2 2
  0.3384712400000000E+00 2 -0.8803673979999999E+01  0.1339210850000000E+01
 2
  0.3025757500000000E+00 1  0.9622486650000001E+01
  0.2915069400000000E+00 0
         # Potential name:  GTH-PBE-Q4  for symbol:  C
         # Potential read from the potential filename: GTH_POTENTIALS
       &END POTENTIAL
     &END KIND
     &KIND O
       BASIS_SET DZVP-MOLOPT-SR-GTH-q6
       POTENTIAL GTH-PBE-q6
       &POTENTIAL
 2 4
  0.2445543000000000E+00 2 -0.1666721480000000E+02  0.2487311320000000E+01
 2
  0.2209559200000000E+00 1  0.1833745811000000E+02
  0.2113324700000000E+00 0
         # Potential name:  GTH-PBE-Q6  for symbol:  O
         # Potential read from the potential filename: GTH_POTENTIALS
       &END POTENTIAL
     &END KIND
     &KIND H
       BASIS_SET DZVP-MOLOPT-SR-GTH-q1
       POTENTIAL GTH-PBE-q1
       &POTENTIAL
 1
  0.2000000000000000E+00 2 -0.4178900440000000E+01  0.7244633100000000E+00
 0
         # Potential name:  GTH-PBE-Q1  for symbol:  H
         # Potential read from the potential filename: GTH_POTENTIALS
       &END POTENTIAL
     &END KIND
     &KIND N
       BASIS_SET DZVP-MOLOPT-SR-GTH-q5
       POTENTIAL GTH-PBE-q5
       &POTENTIAL
 2 3
  0.2837905100000000E+00 2 -0.1241522559000000E+02  0.1868095920000000E+01
 2
  0.2554050000000000E+00 1  0.1363026257000000E+02
  0.2454945300000000E+00 0
         # Potential name:  GTH-PBE-Q5  for symbol:  N
         # Potential read from the potential filename: GTH_POTENTIALS
       &END POTENTIAL
     &END KIND
     &KIND Ga
       BASIS_SET DZVP-MOLOPT-SR-GTH-q13
       POTENTIAL GTH-PBE-q13
       &POTENTIAL
 2 1 10
  0.4900000000000000E+00 0
 3
  0.4167772300000000E+00 3  0.1047568975000000E+02 -0.4921768140000000E+01  0.8707055900000000E+00
  0.7770178090000000E+01 -0.2248152160000000E+01
  0.1784415450000000E+01
  0.5696265200000000E+00 2  0.1777985340000000E+01  0.1958597600000000E+00
 -0.2317443900000000E+00
  0.2381265000000000E+00 1 -0.1624868022000000E+02
         # Potential name:  GTH-PBE-Q13  for symbol:  GA
         # Potential read from the potential filename: GTH_POTENTIALS
       &END POTENTIAL
     &END KIND
     &TOPOLOGY
       COORD_FILE_NAME ../start-first.xyz
       COORD_FILE_FORMAT  XYZ
       NUMBER_OF_ATOMS  156
       MULTIPLE_UNIT_CELL  1 1 1
     &END TOPOLOGY
     &COLVAR
       &DISTANCE
         ATOMS  32 148
       &END DISTANCE
       &PRINT
       &END PRINT
     &END COLVAR
   &END SUBSYS
 &END FORCE_EVAL
