 # Version information for this restart file 
 # current date 2019-05-28 05:09:01.027
 # current working dir /lustre03/project/6004141/rzk/GaN-carbene/334-native/08-2Methanol-Htransfer/02-NH-constraint/1.84
 # Program compiled at                              Sun Apr  7 00:48:11 EDT 2019
 # Program compiled on                          beluga2.int.ets1.calculquebec.ca
 # Program compiled for                        Beluga-Linux-x86-64-intel-openmpi
 # Source code revision number                                         svn:18619
 &GLOBAL
   PRINT_LEVEL  MEDIUM
   PROJECT_NAME TEST
   RUN_TYPE  GEO_OPT
 &END GLOBAL
 &MOTION
   &GEO_OPT
     MAX_ITER  500
     STEP_START_VAL  305
   &END GEO_OPT
   &CONSTRAINT
     &COLLECTIVE
       COLVAR  1
       INTERMOLECULAR  T
       TARGET     3.4770960845095833E+00
       &RESTRAINT
         K     1.0000000000000001E-01
       &END RESTRAINT
     &END COLLECTIVE
     &COLVAR_RESTART
           3.4770960845095833E+00
     &END COLVAR_RESTART
   &END CONSTRAINT
 &END MOTION
 &FORCE_EVAL
   METHOD  QS
   STRESS_TENSOR  ANALYTICAL
   &DFT
     BASIS_SET_FILE_NAME BASIS_MOLOPT
     POTENTIAL_FILE_NAME GTH_POTENTIALS
     &SCF
       MAX_SCF  100
       EPS_SCF     5.0000000000000004E-06
       &OT  T
         PRECONDITIONER  FULL_ALL
       &END OT
       &OUTER_SCF  T
         OPTIMIZER  NONE
         EPS_SCF     5.0000000000000004E-06
         MAX_SCF  4
       &END OUTER_SCF
       &PRINT
         &RESTART  OFF
           BACKUP_COPIES  1
           &EACH
             JUST_ENERGY  0
             QS_SCF  0
             MD  20
           &END EACH
         &END RESTART
       &END PRINT
     &END SCF
     &QS
       EPS_DEFAULT     1.0000000000000000E-14
       ALMO_SCF  F
       METHOD  GPW
     &END QS
     &MGRID
       NGRIDS  5
       CUTOFF     1.2000000000000000E+03
     &END MGRID
     &XC
       DENSITY_CUTOFF     1.0000000000000000E-10
       GRADIENT_CUTOFF     1.0000000000000000E-10
       TAU_CUTOFF     1.0000000000000000E-10
       &XC_FUNCTIONAL  NO_SHORTCUT
         &PBE  T
         &END PBE
       &END XC_FUNCTIONAL
       &VDW_POTENTIAL
         POTENTIAL_TYPE  PAIR_POTENTIAL
         &PAIR_POTENTIAL
           R_CUTOFF     1.0000000000000005E+01
           TYPE  DFTD3
           PARAMETER_FILE_NAME dftd3.dat
           REFERENCE_FUNCTIONAL PBE
           EPS_CN     9.9999999999999995E-07
           CALCULATE_C9_TERM  T
           REFERENCE_C9_TERM  T
           LONG_RANGE_CORRECTION  F
           VERBOSE_OUTPUT  F
         &END PAIR_POTENTIAL
       &END VDW_POTENTIAL
     &END XC
   &END DFT
   &SUBSYS
     &CELL
       A     9.7367653356401487E+00    0.0000000000000000E+00    0.0000000000000000E+00
       B    -4.8591341382960209E+00    8.4162672083210595E+00    0.0000000000000000E+00
       C     0.0000000000000000E+00    0.0000000000000000E+00    3.0744000000000000E+01
       MULTIPLE_UNIT_CELL  1 1 1
       &CELL_REF
         A     9.5580000000000052E+00    0.0000000000000000E+00    0.0000000000000000E+00
         B    -4.7790000000000026E+00    8.2774708093716640E+00    0.0000000000000000E+00
         C     0.0000000000000000E+00    0.0000000000000000E+00    3.0744000000000000E+01
         MULTIPLE_UNIT_CELL  1 1 1
       &END CELL_REF
     &END CELL
     &COORD
Ga    1.9250327743633194E-01    3.6999784224818033E-02   -5.4345590105655606E-01
N    1.9580395719452645E-01    1.9114386771918506E+00    6.0925574957987227E-01
Ga    1.9540095713993128E-01    1.8798527897614208E+00    2.6382175455128101E+00
N    1.9266337728726174E-01    3.6295965626490442E-02    3.2710951035653029E+00
Ga    1.9261867796013243E-01    3.6871499996871324E-02    5.2604274038884027E+00
N    1.9507307944136626E-01    1.9110591043443430E+00    5.8503618943484028E+00
Ga    1.9431621173364202E-01    1.9086469273415354E+00    7.8487159424706228E+00
N    1.9160660227643683E-01    3.5488027667299291E-02    8.4531500038822731E+00
Ga    1.9288552700722719E-01    3.6093576738792876E-02    1.0451416810171207E+01
N    1.9579929801698334E-01    1.9078917368689552E+00    1.1055905329793463E+01
Ga    1.9476809639393877E-01    1.9050093966516002E+00    1.3054471902654045E+01
N    1.8768601715329988E-01    3.3330940270722136E-02    1.3657544923640671E+01
Ga    1.9319796385483365E-01    3.1411572001497925E-02    1.5668286474333195E+01
N    1.7440086821590384E-01    1.9185885719770797E+00    1.6212224322019082E+01
Ga    2.4385417704879345E-01    1.8425373731392858E+00    1.8237090207699936E+01
N    1.9461383096118362E-01    3.2851135103127496E-03    1.8719775866431128E+01
Ga   -1.4265704296856259E+00    2.8416322610240350E+00    3.2604606896528116E-01
N   -1.4282476944913667E+00    4.7115651819384645E+00    6.0857750486120465E-01
Ga   -1.3999871815520355E+00    4.7275061674116552E+00    2.6379832634862734E+00
N   -1.4270053599971946E+00    2.8419120012393044E+00    3.2310291283026280E+00
Ga   -1.4272171079784564E+00    2.8425216187473001E+00    5.2410248417073193E+00
N   -1.4267436639642335E+00    4.7126915386741821E+00    5.8502510449325378E+00
Ga   -1.4264137298656863E+00    4.7122882885339923E+00    7.8479867519269462E+00
N   -1.4275148301357701E+00    2.8419936503999672E+00    8.4548096471042165E+00
Ga   -1.4263282281277851E+00    2.8423577130112974E+00    1.0450829354694875E+01
N   -1.4259240397965900E+00    4.7166331729054676E+00    1.1050761680071108E+01
Ga   -1.4304571408987314E+00    4.7190958358182193E+00    1.3043759887728164E+01
N   -1.4339957656589704E+00    2.8453768752945430E+00    1.3633480701641085E+01
Ga   -1.4328663829280415E+00    2.8471022207756249E+00    1.5619167556030336E+01
N   -1.4135138122200130E+00    4.7225711005611464E+00    1.6221224939173872E+01
Ga   -1.4577319069356380E+00    4.7476864937991774E+00    1.8206190308456229E+01
N   -1.4221256060763683E+00    2.8244487300671195E+00    1.8648748292669040E+01
Ga   -3.0471076180549388E+00    5.6474073568635346E+00    3.2533776070829806E-01
N   -3.0403487702871046E+00    7.5174826074747791E+00    6.0857305349349067E-01
Ga   -3.0681996657522381E+00    7.5327487579989194E+00    2.6378161819830059E+00
N   -3.0468294254539843E+00    5.6472171235272821E+00    3.2312383261042723E+00
Ga   -3.0469715971697058E+00    5.6480954080055481E+00    5.2413977447911737E+00
N   -3.0416937992037201E+00    7.5182418508353264E+00    5.8501750963556445E+00
Ga   -3.0435048460600931E+00    7.5183222983305846E+00    7.8480706881794049E+00
N   -3.0475186053425030E+00    5.6475418063133604E+00    8.4515420427936156E+00
Ga   -3.0464704380155028E+00    5.6513239458107396E+00    1.0445197535913731E+01
N   -3.0444726108193954E+00    7.5190388488877415E+00    1.1058231661931913E+01
Ga   -3.0455492217230407E+00    7.5207361761013773E+00    1.3057910150620620E+01
N   -3.0504886769518129E+00    5.6492397291902510E+00    1.3665253471214314E+01
Ga   -3.0555875872206206E+00    5.6626587075862362E+00    1.5669541120181455E+01
N   -3.0446479250064593E+00    7.5317895982435630E+00    1.6260573277184658E+01
Ga   -3.0382861743735914E+00    7.4887742885050503E+00    1.8364363109722742E+01
N   -3.0408513918928208E+00    5.6142207374044997E+00    1.8773312975366309E+01
Ga    3.4387803079336812E+00    3.5923748770688234E-02    3.2563771963739452E-01
N    3.4366530737925203E+00    1.9057285393792598E+00    6.0879589434075243E-01
Ga    3.4651458419162648E+00    1.9218097105259544E+00    2.6376099612048698E+00
N    3.4380783695624890E+00    3.6439291865764008E-02    3.2309641124270967E+00
Ga    3.4380311555436793E+00    3.6861153904471512E-02    5.2409205333993585E+00
N    3.4383417706347394E+00    1.9067369668677510E+00    5.8504973065229731E+00
Ga    3.4390730975868267E+00    1.9065077188607793E+00    7.8485948032749890E+00
N    3.4374639218486442E+00    3.5821174063923676E-02    8.4557668129113459E+00
Ga    3.4372591679722015E+00    3.6563332566260050E-02    1.0452458406453990E+01
N    3.4397837343957169E+00    1.9083724779157589E+00    1.1055784342329773E+01
Ga    3.4380013915670258E+00    1.9049349254647918E+00    1.3054048754999990E+01
N    3.4402939884542660E+00    3.3054627078926861E-02    1.3656034356436715E+01
Ga    3.4357666166982908E+00    3.6709658973950454E-02    1.5666450448612725E+01
N    3.4625580028176133E+00    1.9201429638551550E+00    1.6217115351059729E+01
Ga    3.4142654334601308E+00    1.8571432309591176E+00    1.8225730343327950E+01
N    3.4444726380420962E+00    1.1183926000791067E-02    1.8704721164546498E+01
Ga    1.8179503152353271E+00    2.8423078631978993E+00    3.2587343186790335E-01
N    1.8250829751458657E+00    4.7121447984787492E+00    6.0892514994295888E-01
Ga    1.7965325050368550E+00    4.7274662479247436E+00    2.6383371196305001E+00
N    1.8184202944035917E+00    2.8417199094273657E+00    3.2313025666201565E+00
Ga    1.8183896584733519E+00    2.8422930832354556E+00    5.2412993074796814E+00
N    1.8234011958863925E+00    4.7126098280634894E+00    5.8500737808515391E+00
Ga    1.8220196233310999E+00    4.7122311941216166E+00    7.8476887322222897E+00
N    1.8176426329397446E+00    2.8412650787603746E+00    8.4528500725573767E+00
Ga    1.8179765003611397E+00    2.8402470807981386E+00    1.0448144651094337E+01
N    1.8215819819430219E+00    4.7137434395987494E+00    1.1048077724195384E+01
Ga    1.8225017760294793E+00    4.7096724464301136E+00    1.3038697978322652E+01
N    1.8167512675410515E+00    2.8452874372276922E+00    1.3657082937506996E+01
Ga    1.8214197785296100E+00    2.8431081868295789E+00    1.5660495882671785E+01
N    1.8206900575999563E+00    4.7335440536961286E+00    1.6264769533619454E+01
Ga    1.8205415381238044E+00    4.6780929094168773E+00    1.8252342421569413E+01
N    1.8224896081433191E+00    2.8165192657763600E+00    1.8662767077121561E+01
Ga    1.9918905385444716E-01    5.6486665848317816E+00   -5.4491794522613124E-01
N    2.0204378530647826E-01    7.5223627937460948E+00    6.0936914596609215E-01
Ga    2.0159891531765284E-01    7.4904558195068169E+00    2.6387068971450045E+00
N    1.9845189957138831E-01    5.6470604166711329E+00    3.2714736309801604E+00
Ga    1.9862936328652170E-01    5.6479557346548157E+00    5.2608514584652282E+00
N    2.0105180434985437E-01    7.5221502355389323E+00    5.8501379114068257E+00
Ga    2.0037490357183405E-01    7.5202009996087229E+00    7.8474920110091535E+00
N    1.9819775122306599E-01    5.6471980523144039E+00    8.4507696225701601E+00
Ga    1.9812826181317261E-01    5.6493170768119940E+00    1.0446638628391337E+01
N    2.0318981653929816E-01    7.5201771029475299E+00    1.1054702827558536E+01
Ga    2.0043854457918700E-01    7.5226933449330842E+00    1.3049565685289034E+01
N    2.0148626871656775E-01    5.6449808199874552E+00    1.3643315247059581E+01
Ga    2.0585001270161482E-01    5.6509597743983981E+00    1.5626225693917011E+01
N    2.0221764896573885E-01    7.5055691826441642E+00    1.6261186821176352E+01
Ga    2.1789606035627826E-01    7.5400232521468560E+00    1.8307614645597191E+01
N    1.9688065090620241E-01    5.6216004231702561E+00    1.8839571165438791E+01
Ga    6.6832822751180343E+00    3.6427544690270354E-02    3.2540206094445262E-01
N    6.6907994520715501E+00    1.9061169307620887E+00    6.0910108028145493E-01
Ga    6.6621954218657260E+00    1.9218612992026125E+00    2.6379744872558542E+00
N    6.6837132613112207E+00    3.6458563660758843E-02    3.2315442959363927E+00
Ga    6.6833762734806026E+00    3.7005210258461853E-02    5.2416240720161831E+00
N    6.6889223717604649E+00    1.9074105294080477E+00    5.8505048060927516E+00
Ga    6.6874208694298938E+00    1.9074464653375347E+00    7.8486949080480697E+00
N    6.6834702558204881E+00    3.5493949305902280E-02    8.4510074062675340E+00
Ga    6.6837965664870689E+00    3.4740652391571529E-02    1.0444106234329434E+01
N    6.6861171984074010E+00    1.9047657585764242E+00    1.1047833287111938E+01
Ga    6.6853545091554167E+00    1.9036686477057632E+00    1.3039061809393845E+01
N    6.6832229091694817E+00    3.4770719030440503E-02    1.3669068835892128E+01
Ga    6.6840150494114541E+00    3.3387203564034018E-02    1.5676948488465138E+01
N    6.6801089689953050E+00    1.9256474342852756E+00    1.6246084616365291E+01
Ga    6.6647586914449066E+00    1.8272062503135991E+00    1.8251880958506710E+01
N    6.6830437384902881E+00    1.2261318157555205E-02    1.8774074353015912E+01
Ga    5.0641948202617479E+00    2.8410854013895923E+00   -5.4597541746329648E-01
N    5.0672597474711116E+00    4.7168353245208330E+00    6.0861549862869557E-01
Ga    5.0669202669398832E+00    4.6849277119890393E+00    2.6376997133257039E+00
N    5.0637488427438457E+00    2.8414637239524860E+00    3.2714269982479554E+00
Ga    5.0637357045349400E+00    2.8422329862067381E+00    5.2609108834190446E+00
N    5.0665843222983469E+00    4.7167332869698670E+00    5.8499076169143924E+00
Ga    5.0660989368414144E+00    4.7149147916845697E+00    7.8475777857286468E+00
N    5.0631421963587719E+00    2.8420261689187956E+00    8.4516245222217261E+00
Ga    5.0626821502183228E+00    2.8415229503215493E+00    1.0448406171277419E+01
N    5.0678542618647953E+00    4.7162462995883052E+00    1.1047860750041377E+01
Ga    5.0707569090920277E+00    4.7192394314457946E+00    1.3038857161249316E+01
N    5.0676159701343915E+00    2.8470492803853333E+00    1.3631653008067145E+01
Ga    5.0627394675744535E+00    2.8497089394039068E+00    1.5614962285233064E+01
N    5.0589100189100122E+00    4.7089948059814564E+00    1.6263616282713730E+01
Ga    5.1036562886827221E+00    4.7243855632138185E+00    1.8260827875980031E+01
N    5.0566681846281094E+00    2.8221460708401778E+00    1.8835352238441494E+01
Ga    3.4446988309928157E+00    5.6470622303214872E+00    3.2553004900657739E-01
N    3.4430928695838960E+00    7.5170043772652280E+00    6.0909487735518242E-01
Ga    3.4711762014425087E+00    7.5329163738541203E+00    2.6382021185468347E+00
N    3.4442275336050128E+00    5.6471001223128212E+00    3.2308588319326690E+00
Ga    3.4441394084709072E+00    5.6476714955472946E+00    5.2407746367468464E+00
N    3.4446943626944324E+00    7.5178228178514015E+00    5.8492609047910324E+00
Ga    3.4457237447806626E+00    7.5177054201902660E+00    7.8465839305735638E+00
N    3.4436271423484022E+00    5.6473931877857231E+00    8.4523043773402744E+00
Ga    3.4442251628932934E+00    5.6492195082398746E+00    1.0445964060416049E+01
N    3.4452120414012115E+00    7.5192090409654178E+00    1.1056672674227841E+01
Ga    3.4469103892346467E+00    7.5200183655132768E+00    1.3052807193288640E+01
N    3.4440793082674075E+00    5.6428220071480339E+00    1.3653923559390760E+01
Ga    3.4443153871307426E+00    5.6437186283537670E+00    1.5642415197358694E+01
N    3.4449394755888312E+00    7.5050347343609358E+00    1.6265826416496502E+01
Ga    3.4356077022588769E+00    7.5426715401472260E+00    1.8314835350085108E+01
N    3.4427524108114622E+00    5.6237170744873000E+00    1.8843766421785844E+01
O   -2.6860262303039345E-01    4.2918186343508209E+00    2.1679778819262538E+01
H    1.6643211989349457E-01    5.5771370464061816E+00    1.9868568856853589E+01
C   -1.4078360030367345E+00    3.7616389294170882E+00    2.1470781829631456E+01
H   -1.3160896994484517E+00    3.0620164010799664E+00    2.0340915080094028E+01
H   -1.7029032980122969E+00    2.8622872942300726E+00    2.2059970727340090E+01
H   -2.2430093947510601E+00    4.3980943179633636E+00    2.1092772848742488E+01
O    3.3202969944304299E+00    4.2716403795964064E+00    2.1751604676324074E+01
H    3.4508801831635898E+00    5.5672997358845873E+00    1.9871871894590619E+01
C    2.4283219534618281E+00    3.4330966717650426E+00    2.1786185248529531E+01
H    5.0309160085330156E+00    2.8217856268677028E+00    1.9861350729512747E+01
H    2.0330414620820982E+00    3.0505911643746924E+00    2.2749739827336789E+01
H    1.9894964316506512E+00    3.0181474190675934E+00    2.0847462776433847E+01
     &END COORD
     &KIND C
       BASIS_SET DZVP-MOLOPT-SR-GTH-q4
       POTENTIAL GTH-PBE-q4
       &POTENTIAL
 2 2
  0.3384712400000000E+00 2 -0.8803673979999999E+01  0.1339210850000000E+01
 2
  0.3025757500000000E+00 1  0.9622486650000001E+01
  0.2915069400000000E+00 0
         # Potential name:  GTH-PBE-Q4  for symbol:  C
         # Potential read from the potential filename: GTH_POTENTIALS
       &END POTENTIAL
     &END KIND
     &KIND O
       BASIS_SET DZVP-MOLOPT-SR-GTH-q6
       POTENTIAL GTH-PBE-q6
       &POTENTIAL
 2 4
  0.2445543000000000E+00 2 -0.1666721480000000E+02  0.2487311320000000E+01
 2
  0.2209559200000000E+00 1  0.1833745811000000E+02
  0.2113324700000000E+00 0
         # Potential name:  GTH-PBE-Q6  for symbol:  O
         # Potential read from the potential filename: GTH_POTENTIALS
       &END POTENTIAL
     &END KIND
     &KIND H
       BASIS_SET DZVP-MOLOPT-SR-GTH-q1
       POTENTIAL GTH-PBE-q1
       &POTENTIAL
 1
  0.2000000000000000E+00 2 -0.4178900440000000E+01  0.7244633100000000E+00
 0
         # Potential name:  GTH-PBE-Q1  for symbol:  H
         # Potential read from the potential filename: GTH_POTENTIALS
       &END POTENTIAL
     &END KIND
     &KIND N
       BASIS_SET DZVP-MOLOPT-SR-GTH-q5
       POTENTIAL GTH-PBE-q5
       &POTENTIAL
 2 3
  0.2837905100000000E+00 2 -0.1241522559000000E+02  0.1868095920000000E+01
 2
  0.2554050000000000E+00 1  0.1363026257000000E+02
  0.2454945300000000E+00 0
         # Potential name:  GTH-PBE-Q5  for symbol:  N
         # Potential read from the potential filename: GTH_POTENTIALS
       &END POTENTIAL
     &END KIND
     &KIND Ga
       BASIS_SET DZVP-MOLOPT-SR-GTH-q13
       POTENTIAL GTH-PBE-q13
       &POTENTIAL
 2 1 10
  0.4900000000000000E+00 0
 3
  0.4167772300000000E+00 3  0.1047568975000000E+02 -0.4921768140000000E+01  0.8707055900000000E+00
  0.7770178090000000E+01 -0.2248152160000000E+01
  0.1784415450000000E+01
  0.5696265200000000E+00 2  0.1777985340000000E+01  0.1958597600000000E+00
 -0.2317443900000000E+00
  0.2381265000000000E+00 1 -0.1624868022000000E+02
         # Potential name:  GTH-PBE-Q13  for symbol:  GA
         # Potential read from the potential filename: GTH_POTENTIALS
       &END POTENTIAL
     &END KIND
     &TOPOLOGY
       COORD_FILE_NAME ../start-first.xyz
       COORD_FILE_FORMAT  XYZ
       NUMBER_OF_ATOMS  156
       MULTIPLE_UNIT_CELL  1 1 1
     &END TOPOLOGY
     &COLVAR
       &DISTANCE
         ATOMS  32 148
       &END DISTANCE
       &PRINT
       &END PRINT
     &END COLVAR
   &END SUBSYS
 &END FORCE_EVAL
