 # Version information for this restart file 
 # current date 2019-07-04 14:14:50.133
 # current working dir /lustre04/scratch/rzk/rzk/GaN-carbene/443-adatoms-both-2x2/01-Surface/03-GaJumps1Ring
 # Program compiled at                              Sun Apr  7 00:48:11 EDT 2019
 # Program compiled on                          beluga2.int.ets1.calculquebec.ca
 # Program compiled for                        Beluga-Linux-x86-64-intel-openmpi
 # Source code revision number                                         svn:18619
 &GLOBAL
   PRINT_LEVEL  MEDIUM
   PROJECT_NAME TEST
   RUN_TYPE  GEO_OPT
 &END GLOBAL
 &MOTION
   &GEO_OPT
     STEP_START_VAL  33
   &END GEO_OPT
   &CELL_OPT
     MAX_ITER  300
     EXTERNAL_PRESSURE     1.0000000000000000E+00
     KEEP_ANGLES  T
     KEEP_SYMMETRY  T
     CONSTRAINT  Z
     PRESSURE_TOLERANCE     5.0000000000000000E+02
   &END CELL_OPT
 &END MOTION
 &FORCE_EVAL
   METHOD  QS
   STRESS_TENSOR  ANALYTICAL
   &DFT
     BASIS_SET_FILE_NAME BASIS_MOLOPT
     POTENTIAL_FILE_NAME GTH_POTENTIALS
     UKS  T
     SURFACE_DIPOLE_CORRECTION  T
     SURF_DIP_DIR  Z
     &SCF
       MAX_SCF  80
       EPS_SCF     5.0000000000000004E-06
       &OT  T
         PRECONDITIONER  FULL_ALL
       &END OT
       &OUTER_SCF  T
         OPTIMIZER  NONE
         EPS_SCF     5.0000000000000004E-06
         MAX_SCF  4
       &END OUTER_SCF
       &PRINT
         &RESTART  OFF
           BACKUP_COPIES  1
           &EACH
             JUST_ENERGY  0
             QS_SCF  0
             MD  20
           &END EACH
         &END RESTART
       &END PRINT
     &END SCF
     &QS
       EPS_DEFAULT     1.0000000000000000E-14
       METHOD  GPW
     &END QS
     &MGRID
       NGRIDS  5
       CUTOFF     1.2000000000000000E+03
     &END MGRID
     &XC
       DENSITY_CUTOFF     1.0000000000000000E-10
       GRADIENT_CUTOFF     1.0000000000000000E-10
       TAU_CUTOFF     1.0000000000000000E-10
       &XC_FUNCTIONAL  NO_SHORTCUT
         &PBE  T
         &END PBE
       &END XC_FUNCTIONAL
       &VDW_POTENTIAL
         POTENTIAL_TYPE  PAIR_POTENTIAL
         &PAIR_POTENTIAL
           R_CUTOFF     1.0000000000000004E+01
           TYPE  DFTD3
           PARAMETER_FILE_NAME dftd3.dat
           REFERENCE_FUNCTIONAL PBE
           EPS_CN     9.9999999999999995E-07
           CALCULATE_C9_TERM  T
           REFERENCE_C9_TERM  T
           LONG_RANGE_CORRECTION  F
           VERBOSE_OUTPUT  F
         &END PAIR_POTENTIAL
       &END VDW_POTENTIAL
     &END XC
   &END DFT
   &SUBSYS
     &CELL
       A     1.2864472766435110E+01    0.0000000000000000E+00    0.0000000000000000E+00
       B    -6.4322363581020028E+00    1.1140960178524473E+01    0.0000000000000000E+00
       C     0.0000000000000000E+00    0.0000000000000000E+00    3.2000000000000000E+01
       MULTIPLE_UNIT_CELL  1 1 1
       &CELL_REF
         A     1.2982353780853531E+01    0.0000000000000000E+00    0.0000000000000000E+00
         B    -6.4911768904267628E+00    1.1243048175136114E+01    0.0000000000000000E+00
         C     0.0000000000000000E+00    0.0000000000000000E+00    3.2000000000000000E+01
         MULTIPLE_UNIT_CELL  1 1 1
       &END CELL_REF
     &END CELL
     &COORD
N    4.6871044882982285E-02    2.0196304186848208E+00    2.5084317752739631E+00
Ga    3.4448428898289064E-02    3.0369187761994428E-02    2.8662749718607081E+00
N    3.9903982329961889E-02    5.1567315230127315E-02    5.0079161385275466E+00
Ga    3.2018210637756464E-02    1.8814842752984517E+00    5.7701088403139735E+00
N    3.0434656744652594E-02    1.8970549688983156E+00    7.7640942354557669E+00
Ga    2.9555975715163319E-02    5.3500679151058488E-02    8.4151910947807700E+00
N    2.9596246310634611E-02    5.0816700899822549E-02    1.0386606317916213E+01
Ga    2.4227641844317759E-02    1.8925170213849554E+00    1.1026163798431671E+01
N    2.5184986157516669E-02    1.8720669800555614E+00    1.3021089863678897E+01
Ga    2.7332094297744580E-02    5.1762001380823507E-02    1.3821907404228460E+01
N    2.7425486657396941E-02    5.2838656953461606E-02    1.6026783064427494E+01
Ga    2.5204176583550092E-02    2.0970975232321440E+00    1.6436986387533878E+01
Ga    4.0727685974787216E-02    3.7569845694801383E+00    1.5178345798541328E+00
N   -1.4566549198075787E+00    4.6218226981758868E+00    2.5059489595677178E+00
Ga   -1.6809527984860202E+00    2.7378666874485349E+00    3.2524367929991160E+00
N   -1.5771870287482912E+00    2.8296069914623661E+00    5.2096775390184851E+00
Ga   -1.5974616214458317E+00    4.7029338890100645E+00    5.7456976834502891E+00
N   -1.5895956761423020E+00    4.6983867954778029E+00    7.7444298622251155E+00
Ga   -1.5781178084110694E+00    2.8381805600850587E+00    8.3813134111720640E+00
N   -1.5718364695641580E+00    2.8421535541930019E+00    1.0381138001323285E+01
Ga   -1.5955268899014157E+00    4.7012822701300410E+00    1.1018403665250419E+01
N   -1.6136743551219730E+00    4.7107777164001883E+00    1.3016399447536322E+01
Ga   -1.5716599931888144E+00    2.8427404543878763E+00    1.3575497865162141E+01
N   -1.5980194114013275E+00    2.8249485515078105E+00    1.5538535201026294E+01
Ga   -1.4274143247606941E+00    4.6029399174362355E+00    1.6436325797253389E+01
N    2.1857635129036979E-02    3.7732718071567279E+00    1.7571275929515430E+01
N   -3.2089077293011745E+00    7.5999861691120429E+00    2.4874027718384140E+00
Ga   -3.1743188793539927E+00    5.6141862596351997E+00    2.8112769933207322E+00
N   -3.1832499232782574E+00    5.6188261233222958E+00    4.9584832271309534E+00
Ga   -3.1803077589161091E+00    7.4497769817649582E+00    5.7361004005925924E+00
N   -3.1891707304588097E+00    7.4666913861091890E+00    7.7382241397803542E+00
Ga   -3.1875267707165515E+00    5.6209291462384519E+00    8.3900211014969823E+00
N   -3.1896494609978632E+00    5.6213597377966851E+00    1.0367980372601444E+01
Ga   -3.1840317834189715E+00    7.4580724653481543E+00    1.1027702765006662E+01
N   -3.1887310092287779E+00    7.4401286314170356E+00    1.3021208769933683E+01
Ga   -3.1883117761158291E+00    5.6217006741191682E+00    1.3824536110684964E+01
N   -3.1904159452328069E+00    5.6226696960955014E+00    1.6026076068312950E+01
Ga   -3.1904771777886616E+00    7.6737195509934404E+00    1.6447162765880549E+01
Ga   -3.1673386289363417E+00    9.3417894837678013E+00    1.5072278123488592E+00
N   -4.6771923144994973E+00    1.0201824370625763E+01    2.4923747786630197E+00
Ga   -4.9290609902662821E+00    8.3669156112885066E+00    3.2322560286054358E+00
N   -4.8132925941265263E+00    8.3947975257888068E+00    5.1921493528156182E+00
Ga   -4.8219437073477254E+00    1.0270846328945114E+01    5.7742437619740361E+00
N   -4.8061223576701346E+00    1.0262471833198031E+01    7.7666926457437828E+00
Ga   -4.7747573891642503E+00    8.4108724782620481E+00    8.4135923271409272E+00
N   -4.7815467723641163E+00    8.4126283681425047E+00    1.0400647918674739E+01
Ga   -4.8100389399790648E+00    1.0272578281370707E+01    1.1034321543592847E+01
N   -4.8287234909024752E+00    1.0280789823494054E+01    1.3026204563773202E+01
Ga   -4.7859128452361421E+00    8.4110569357610121E+00    1.3579548177549160E+01
N   -4.8152218394589914E+00    8.3951865025495991E+00    1.5540377048210210E+01
Ga   -4.6325548525056277E+00    1.0167436862239857E+01    1.6445956851553440E+01
N   -3.1904705394783606E+00    9.3408021757860045E+00    1.7585852298036954E+01
N    3.2562323142590395E+00    1.9014105393977843E+00    2.5905172829955019E+00
Ga    3.2507591588546929E+00    1.6323401062452400E-01    3.2782644061112940E+00
N    3.2401503344942406E+00    4.6816060964297752E-02    5.2333571485474755E+00
Ga    3.2502215095392053E+00    1.9046520317532025E+00    5.8551181127651120E+00
N    3.2460750129297349E+00    1.9065026211572762E+00    7.8240259327913577E+00
Ga    3.2468644776145696E+00    3.5758446558880379E-02    8.4037943271245386E+00
N    3.2431770301130758E+00    3.8069142200615934E-02    1.0395636660847906E+01
Ga    3.2437808447220964E+00    1.9078213950933460E+00    1.0986470810478727E+01
N    3.2421739783657806E+00    1.9075286796155346E+00    1.2958888821343827E+01
Ga    3.2443764339395522E+00    3.6564432163276137E-02    1.3579131783472638E+01
N    3.2427254020544822E+00    6.9995734263245249E-02    1.5540999981763450E+01
Ga    3.2416403220347036E+00    1.9068323065153601E+00    1.5817563377794452E+01
N    1.5483589739707682E+00    4.6208325488758550E+00    2.5082379922327691E+00
Ga    1.7504702571833837E+00    2.7701656801475587E+00    3.2749944699308520E+00
N    1.6445915889664051E+00    2.8312488077258102E+00    5.2307905432322022E+00
Ga    1.6609667793122143E+00    4.7026252301123330E+00    5.7700696076495310E+00
N    1.6463226294497564E+00    4.6958715372129367E+00    7.7640642609181292E+00
Ga    1.6255263526790256E+00    2.8419659586046491E+00    8.4039368251898008E+00
N    1.6239809792511153E+00    2.8424087246134024E+00    1.0395423236911563E+01
Ga    1.6462557711919530E+00    4.7025890310599765E+00    1.1025947867671995E+01
N    1.6639451284623221E+00    4.7108117594007108E+00    1.3021113590491614E+01
Ga    1.6223166979546004E+00    2.8420568108453215E+00    1.3577048585681625E+01
N    1.6486133991285343E+00    2.8260966038693094E+00    1.5539737595670580E+01
Ga    1.4732968882697757E+00    4.6003685408627684E+00    1.6436147039019026E+01
N    5.9052687914995690E-02    7.4725393538348373E+00    2.5301472197441299E+00
Ga    6.2475106529515087E-02    5.7580772771852287E+00    3.2523885124530807E+00
N    3.5107434735402024E-02    5.6219980400310536E+00    5.2096941644952821E+00
Ga    6.7628358071150127E-02    7.5004609386045340E+00    5.7841514525948678E+00
N    3.3140463052371942E-02    7.4814050281099798E+00    7.7793298632573453E+00
Ga    2.7078288541029547E-02    5.6184950403047633E+00    8.3814056824778653E+00
N    2.6263873790953646E-02    5.6107570908409423E+00    1.0381262314757075E+01
Ga    2.6752874942008550E-02    7.4788243178574136E+00    1.0979294438818954E+01
N    2.6213282934734471E-02    7.4775522417761247E+00    1.2954013038894491E+01
Ga    2.4650619815966928E-02    5.6082179074876599E+00    1.3575661041457520E+01
N    2.6189279017641311E-02    5.6399514607717203E+00    1.5539787377107226E+01
Ga    2.4062374131282926E-02    7.4779370474872362E+00    1.5818474802567232E+01
N   -1.6977335708452879E+00    1.0202437324322013E+01    2.5014505382918135E+00
Ga   -1.4303294679617935E+00    8.3497392455338986E+00    3.2374613317806902E+00
N   -1.5737855398319731E+00    8.4058675720170690E+00    5.1957915165016892E+00
Ga   -1.5500886903111966E+00    1.0276020133922909E+01    5.7718089164597037E+00
N   -1.5737473542590539E+00    1.0264058195546378E+01    7.7652234390785626E+00
Ga   -1.5833936761735816E+00    8.4047314379623383E+00    8.3810228544992533E+00
N   -1.5916588147935473E+00    8.4087451191703337E+00    1.0380954386163246E+01
Ga   -1.5623589459343197E+00    1.0269292196954098E+01    1.1018431325044235E+01
N   -1.5497656242821369E+00    1.0280198443852960E+01    1.3016281120472515E+01
Ga   -1.5926063297154220E+00    8.4126625710429543E+00    1.3577641462049591E+01
N   -1.5662843701719824E+00    8.3964748985237261E+00    1.5538719933886776E+01
Ga   -1.7482118269711193E+00    1.0167383817835338E+01    1.6446949388599737E+01
N    6.4548027918718587E+00    2.0409204008562263E+00    2.5011431641884618E+00
Ga    6.4745950859918571E+00    4.3085664122092561E-02    2.8427446758355939E+00
N    6.4317330377763922E+00    6.7851737890734690E-02    5.0147184279693846E+00
Ga    6.4644735736528638E+00    1.8759402217718886E+00    5.7719685736650073E+00
N    6.4628562196798134E+00    1.9017094307542965E+00    7.7653976640365192E+00
Ga    6.4738932716216819E+00    4.2723621056457696E-02    8.3797422953268228E+00
N    6.4615507563317598E+00    4.9176067829055620E-02    1.0365442304366175E+01
Ga    6.4634733514967833E+00    1.8877736270861629E+00    1.1017750621866082E+01
N    6.4591800127475505E+00    1.8702463531778628E+00    1.3016020400145180E+01
Ga    6.4555684347592583E+00    5.0975352508782178E-02    1.3819039921303252E+01
N    6.4551361563756400E+00    5.2416890328075290E-02    1.6026491367928585E+01
Ga    6.4571506034176185E+00    2.0951305442399288E+00    1.6436469078665088E+01
Ga    6.4654793224044926E+00    3.7435557351736963E+00    1.5069895830480868E+00
N    4.9657974551136412E+00    4.6220547324167711E+00    2.4918704649368579E+00
Ga    4.7590036649385556E+00    2.7751165043605410E+00    3.2778954910407823E+00
N    4.8540766917971148E+00    2.8421273872057036E+00    5.2331108594434737E+00
Ga    4.8332630615543080E+00    4.7119023010776315E+00    5.7739707699828715E+00
N    4.8481755925761405E+00    4.7018344660217046E+00    7.7665660912493877E+00
Ga    4.8665123423180585E+00    2.8410162279670486E+00    8.4036251009667442E+00
N    4.8628447837046869E+00    2.8427269649860532E+00    1.0395462486107952E+01
Ga    4.8366804694819896E+00    4.6996215412414521E+00    1.1033359009563011E+01
N    4.8192269594046842E+00    4.7101825080758006E+00    1.3025878539385685E+01
Ga    4.8628091091584285E+00    2.8401087395639344E+00    1.3576417668531516E+01
N    4.8353304266106791E+00    2.8253960463908649E+00    1.5539277711291314E+01
Ga    5.0078584418027097E+00    4.6003208090720742E+00    1.6434818538341993E+01
N    6.4603248556686239E+00    3.7725302916622891E+00    1.7569896446198982E+01
N    3.3786116428910264E+00    7.5472408333195711E+00    2.4755034599102941E+00
Ga    3.2648616648463111E+00    5.6269419343687295E+00    2.8663708178690728E+00
N    3.2496944457177834E+00    5.6110308370518709E+00    5.0080242254131466E+00
Ga    3.1847405754713600E+00    7.4428510202033111E+00    5.7926186084091151E+00
N    3.2312058154583907E+00    7.4613665735810244E+00    7.7821568543010926E+00
Ga    3.2425589415690026E+00    5.6184035106929313E+00    8.4147408914049411E+00
N    3.2441274719115434E+00    5.6187121825510564E+00    1.0386246024082576E+01
Ga    3.2400296103936226E+00    7.4633773381168886E+00    1.1022142532312806E+01
N    3.2411830712333192E+00    7.4416753999438221E+00    1.3020057156598490E+01
Ga    3.2407866814541930E+00    5.6206444287774060E+00    1.3818581536118556E+01
N    3.2408952226301531E+00    5.6207051364395042E+00    1.6026322003559915E+01
Ga    3.2408630278002053E+00    7.6563971076663941E+00    1.6426456591274739E+01
Ga    4.7319226391206453E+00    8.4771065815775195E+00    1.1192110461851474E+00
N    1.6313188685643176E+00    1.0266524912392331E+01    2.4522873257894604E+00
Ga    1.6414195410148364E+00    8.4383606553043329E+00    2.9551030567770940E+00
N    1.6548891461053430E+00    8.3951675286521805E+00    5.0963484526846745E+00
Ga    1.6344641753565854E+00    1.0264800645439218E+01    5.6520064765458784E+00
N    1.6326144088556400E+00    1.0265313867957854E+01    7.7101575773216871E+00
Ga    1.6361763247778651E+00    8.4253961831660060E+00    8.3874643301814658E+00
N    1.6427176351629986E+00    8.4163231458874890E+00    1.0387497415562313E+01
Ga    1.6177791486682493E+00    1.0273203132720395E+01    1.1024967180374828E+01
N    1.6017058175169043E+00    1.0281419290155906E+01    1.3022453242023568E+01
Ga    1.6442301897677214E+00    8.4119922414901307E+00    1.3574000376436441E+01
N    1.6200204812128565E+00    8.3962897639017573E+00    1.5540598954683077E+01
Ga    1.7796152249979391E+00    1.0178398075121445E+01    1.6425343306263841E+01
N    3.2408911873737929E+00    9.3448816942790245E+00    1.7555376943578278E+01
N    9.6972528062069507E+00    1.8837543905400751E+00    2.5301836107656794E+00
Ga    9.6513390957256302E+00    3.0679197925218709E-02    2.9554022587676516E+00
N    9.6958451544510087E+00    4.0659416172580495E-02    5.0965274291402718E+00
Ga    9.6767176597450728E+00    1.8624280049136421E+00    5.7843418075482731E+00
N    9.6758620465172065E+00    1.9014146785971735E+00    7.7795937985562977E+00
Ga    9.6599096295975553E+00    4.1109128217377500E-02    8.3879930533667064E+00
N    9.6707555753999230E+00    3.9806599053011149E-02    1.0388342709361281E+01
Ga    9.6751752990165816E+00    1.9083649703478283E+00    1.0979385843880515E+01
N    9.6744220962911474E+00    1.9073472904286854E+00    1.2954518472003480E+01
Ga    9.6738434184759576E+00    3.7937033953096250E-02    1.3574434505459278E+01
N    9.6733784060987329E+00    6.7860897482461130E-02    1.5542349093670538E+01
Ga    9.6735082957749370E+00    1.9082959417035577E+00    1.5818345271038147E+01
N    7.9534023901306359E+00    4.6505330590270688E+00    2.4870213399365100E+00
Ga    8.1927314734531773E+00    2.7349438514353039E+00    3.2373587129386276E+00
N    8.0721662970757908E+00    2.8314573809177221E+00    5.1957595965880312E+00
Ga    8.0969594555874789E+00    4.7008126387382214E+00    5.7360138157203950E+00
N    8.0775872383885385E+00    4.6994498378253038E+00    7.7382554443044693E+00
Ga    8.0682141139952961E+00    2.8398615761559336E+00    8.3812141391729593E+00
N    8.0600371829410502E+00    2.8443379697957938E+00    1.0381492678455430E+01
Ga    8.0871008958722186E+00    4.6986661161101768E+00    1.1028171578034828E+01
N    8.0997356980800657E+00    4.7103052507003520E+00    1.3022834718772542E+01
Ga    8.0548362456726785E+00    2.8406145578223563E+00    1.3575570534455951E+01
N    8.0795589285466658E+00    2.8238721422788085E+00    1.5538896776824721E+01
Ga    7.9107589203037039E+00    4.6029486920772733E+00    1.6435070257899383E+01
N    6.3178109477743218E+00    7.5611437217525568E+00    2.5897806597954478E+00
Ga    6.4291905893248185E+00    5.7570495247019000E+00    3.2317970748635281E+00
N    6.4622210377336291E+00    5.6426715325105734E+00    5.1917848161816798E+00
Ga    6.4830742911820556E+00    7.4652448175301105E+00    5.8977279024184970E+00
N    6.4701628586905198E+00    7.4721611996780526E+00    7.8491305021117865E+00
Ga    6.4672956384876485E+00    5.6003654844468871E+00    8.4138720864837655E+00
N    6.4619199841980794E+00    5.6052938033596735E+00    1.0401285209739489E+01
Ga    6.4587581228143467E+00    7.4791605083886017E+00    1.0984450502536138E+01
N    6.4576586690921758E+00    7.4779144240311242E+00    1.2958022390097859E+01
Ga    6.4594722044884145E+00    5.6078284030897114E+00    1.3577705741969444E+01
N    6.4561251483780149E+00    5.6399712709631089E+00    1.5541850189696246E+01
Ga    6.4579575300994323E+00    7.4782903355212218E+00    1.5819188182227478E+01
N    4.8604282581180049E+00    1.0112770958534709E+01    2.4760516145082487E+00
Ga    4.8349477606496167E+00    8.4156904061218327E+00    3.5349240199320264E+00
N    4.8500226895897800E+00    8.4079594551497721E+00    5.4026449949076545E+00
Ga    4.8532626683133300E+00    1.0332875546538197E+01    5.7924392013734396E+00
N    4.8601395039170434E+00    1.0283057663955717E+01    7.7820427599287898E+00
Ga    4.8355318485225336E+00    8.4162107684443193E+00    8.3937121093280158E+00
N    4.8398314946843239E+00    8.4131778711829401E+00    1.0391391424278975E+01
Ga    4.8623624802045171E+00    1.0273277538551715E+01    1.1023313996551572E+01
N    4.8813029499223806E+00    1.0281797840928627E+01    1.3021779135160076E+01
Ga    4.8380316343924754E+00    8.4125429830535676E+00    1.3574377091885507E+01
N    4.8619528791935274E+00    8.3964627444557145E+00    1.5541010812029020E+01
Ga    4.7025975992859639E+00    1.0178651924264628E+01    1.6425826216068586E+01
     &END COORD
     &KIND N
       BASIS_SET DZVP-MOLOPT-SR-GTH
       POTENTIAL GTH-PBE-q5
       &POTENTIAL
 2 3
  0.2837905100000000E+00 2 -0.1241522559000000E+02  0.1868095920000000E+01
 2
  0.2554050000000000E+00 1  0.1363026257000000E+02
  0.2454945300000000E+00 0
         # Potential name:  GTH-PBE-Q5  for symbol:  N
         # Potential read from the potential filename: GTH_POTENTIALS
       &END POTENTIAL
     &END KIND
     &KIND Ga
       BASIS_SET DZVP-MOLOPT-SR-GTH
       POTENTIAL GTH-PBE-q13
       &POTENTIAL
 2 1 10
  0.4900000000000000E+00 0
 3
  0.4167772300000000E+00 3  0.1047568975000000E+02 -0.4921768140000000E+01  0.8707055900000000E+00
  0.7770178090000000E+01 -0.2248152160000000E+01
  0.1784415450000000E+01
  0.5696265200000000E+00 2  0.1777985340000000E+01  0.1958597600000000E+00
 -0.2317443900000000E+00
  0.2381265000000000E+00 1 -0.1624868022000000E+02
         # Potential name:  GTH-PBE-Q13  for symbol:  GA
         # Potential read from the potential filename: GTH_POTENTIALS
       &END POTENTIAL
     &END KIND
     &TOPOLOGY
       NUMBER_OF_ATOMS  200
       MULTIPLE_UNIT_CELL  1 1 1
     &END TOPOLOGY
   &END SUBSYS
 &END FORCE_EVAL
