 # Version information for this restart file 
 # current date 2019-07-04 14:18:34.558
 # current working dir /lustre04/scratch/rzk/rzk/GaN-carbene/443-adatoms-both-2x2/01-Surface/03-GaJumps1Ring
 # Program compiled at                              Sun Apr  7 00:48:11 EDT 2019
 # Program compiled on                          beluga2.int.ets1.calculquebec.ca
 # Program compiled for                        Beluga-Linux-x86-64-intel-openmpi
 # Source code revision number                                         svn:18619
 &GLOBAL
   PRINT_LEVEL  MEDIUM
   PROJECT_NAME TEST
   RUN_TYPE  GEO_OPT
 &END GLOBAL
 &MOTION
   &GEO_OPT
     STEP_START_VAL  34
   &END GEO_OPT
   &CELL_OPT
     MAX_ITER  300
     EXTERNAL_PRESSURE     1.0000000000000000E+00
     KEEP_ANGLES  T
     KEEP_SYMMETRY  T
     CONSTRAINT  Z
     PRESSURE_TOLERANCE     5.0000000000000000E+02
   &END CELL_OPT
 &END MOTION
 &FORCE_EVAL
   METHOD  QS
   STRESS_TENSOR  ANALYTICAL
   &DFT
     BASIS_SET_FILE_NAME BASIS_MOLOPT
     POTENTIAL_FILE_NAME GTH_POTENTIALS
     UKS  T
     SURFACE_DIPOLE_CORRECTION  T
     SURF_DIP_DIR  Z
     &SCF
       MAX_SCF  80
       EPS_SCF     5.0000000000000004E-06
       &OT  T
         PRECONDITIONER  FULL_ALL
       &END OT
       &OUTER_SCF  T
         OPTIMIZER  NONE
         EPS_SCF     5.0000000000000004E-06
         MAX_SCF  4
       &END OUTER_SCF
       &PRINT
         &RESTART  OFF
           BACKUP_COPIES  1
           &EACH
             JUST_ENERGY  0
             QS_SCF  0
             MD  20
           &END EACH
         &END RESTART
       &END PRINT
     &END SCF
     &QS
       EPS_DEFAULT     1.0000000000000000E-14
       METHOD  GPW
     &END QS
     &MGRID
       NGRIDS  5
       CUTOFF     1.2000000000000000E+03
     &END MGRID
     &XC
       DENSITY_CUTOFF     1.0000000000000000E-10
       GRADIENT_CUTOFF     1.0000000000000000E-10
       TAU_CUTOFF     1.0000000000000000E-10
       &XC_FUNCTIONAL  NO_SHORTCUT
         &PBE  T
         &END PBE
       &END XC_FUNCTIONAL
       &VDW_POTENTIAL
         POTENTIAL_TYPE  PAIR_POTENTIAL
         &PAIR_POTENTIAL
           R_CUTOFF     1.0000000000000004E+01
           TYPE  DFTD3
           PARAMETER_FILE_NAME dftd3.dat
           REFERENCE_FUNCTIONAL PBE
           EPS_CN     9.9999999999999995E-07
           CALCULATE_C9_TERM  T
           REFERENCE_C9_TERM  T
           LONG_RANGE_CORRECTION  F
           VERBOSE_OUTPUT  F
         &END PAIR_POTENTIAL
       &END VDW_POTENTIAL
     &END XC
   &END DFT
   &SUBSYS
     &CELL
       A     1.2864472766435110E+01    0.0000000000000000E+00    0.0000000000000000E+00
       B    -6.4322363581020028E+00    1.1140960178524473E+01    0.0000000000000000E+00
       C     0.0000000000000000E+00    0.0000000000000000E+00    3.2000000000000000E+01
       MULTIPLE_UNIT_CELL  1 1 1
       &CELL_REF
         A     1.2982353780853531E+01    0.0000000000000000E+00    0.0000000000000000E+00
         B    -6.4911768904267628E+00    1.1243048175136114E+01    0.0000000000000000E+00
         C     0.0000000000000000E+00    0.0000000000000000E+00    3.2000000000000000E+01
         MULTIPLE_UNIT_CELL  1 1 1
       &END CELL_REF
     &END CELL
     &COORD
N    4.6815305409259447E-02    2.0197014116873895E+00    2.5085055992564129E+00
Ga    3.4042326043789733E-02    3.0307253001587993E-02    2.8656301259355055E+00
N    3.9850966314686591E-02    5.1534118457905419E-02    5.0077647538559402E+00
Ga    3.1911253448717210E-02    1.8814322832312969E+00    5.7698410781394438E+00
N    3.0481532158905447E-02    1.8970629068678961E+00    7.7638744346642516E+00
Ga    2.9608241184379880E-02    5.3509065252334086E-02    8.4149410115782945E+00
N    2.9693824649939839E-02    5.0784424701212541E-02    1.0386414633980603E+01
Ga    2.4334275053230263E-02    1.8924501535813427E+00    1.1026073939854207E+01
N    2.5253004898622942E-02    1.8720194827358470E+00    1.3021063953299018E+01
Ga    2.7407388983215077E-02    5.1696017354594004E-02    1.3822008324094970E+01
N    2.7592092875010247E-02    5.2712404843072443E-02    1.6026794739654321E+01
Ga    2.5307073903395691E-02    2.0969640173495465E+00    1.6437165987838544E+01
Ga    4.0840047020254872E-02    3.7570810766600604E+00    1.5182172027137875E+00
N   -1.4567888427849200E+00    4.6217971947561667E+00    2.5062994122219724E+00
Ga   -1.6811165331584257E+00    2.7376307905783794E+00    3.2525245435325645E+00
N   -1.5772345999714541E+00    2.8296042102374668E+00    5.2097061707105281E+00
Ga   -1.5974362832800661E+00    4.7029137629563706E+00    5.7456279964309838E+00
N   -1.5895703370813858E+00    4.6983573857066858E+00    7.7443862332919595E+00
Ga   -1.5781069829418377E+00    2.8381023790215640E+00    8.3810966790450383E+00
N   -1.5717082403318456E+00    2.8421467688601583E+00    1.0380966687152027E+01
Ga   -1.5954989958227768E+00    4.7013052259081256E+00    1.1018279598245684E+01
N   -1.6136296082171115E+00    4.7107619851233089E+00    1.3016340748454558E+01
Ga   -1.5716131614266493E+00    2.8427018751011968E+00    1.3575538119518578E+01
N   -1.5978882936312537E+00    2.8250053141687941E+00    1.5538635108109069E+01
Ga   -1.4273998593999908E+00    4.6029635632515271E+00    1.6436489583174300E+01
N    2.1973676310797042E-02    3.7732464408731619E+00    1.7571447642303966E+01
N   -3.2089307544851602E+00    7.5999575593555830E+00    2.4874663720851924E+00
Ga   -3.1746241660211094E+00    5.6141938685331469E+00    2.8114351547254230E+00
N   -3.1833432059111844E+00    5.6188497723894111E+00    4.9585935822131795E+00
Ga   -3.1802433100309666E+00    7.4498390570408501E+00    5.7359709288450391E+00
N   -3.1891956044964203E+00    7.4667251059439756E+00    7.7380870531319328E+00
Ga   -3.1875230550962694E+00    5.6209594452641829E+00    8.3897896775082152E+00
N   -3.1896104168359392E+00    5.6214112005507060E+00    1.0367790137696710E+01
Ga   -3.1839927590397008E+00    7.4581074703278478E+00    1.1027627888808599E+01
N   -3.1886710601187049E+00    7.4401682142618748E+00    1.3021201721151114E+01
Ga   -3.1882519010277375E+00    5.6217271520131744E+00    1.3824562271423007E+01
N   -3.1903418035854236E+00    5.6228521166288905E+00    1.6026138397259988E+01
Ga   -3.1903795251006160E+00    7.6736809058784745E+00    1.6446943547507551E+01
Ga   -3.1672982649642192E+00    9.3419033208948914E+00    1.5078999493440570E+00
N   -4.6772259947353279E+00    1.0202063484414042E+01    2.4929690753579905E+00
Ga   -4.9290934156052399E+00    8.3667637460786359E+00    3.2323017452318492E+00
N   -4.8133589544027453E+00    8.3947300754316103E+00    5.1921549527338158E+00
Ga   -4.8220133282062880E+00    1.0270865929392597E+01    5.7740658495611497E+00
N   -4.8060770065132745E+00    1.0262466770950640E+01    7.7665589437898568E+00
Ga   -4.7747234163678129E+00    8.4109148933974431E+00    8.4133939943377865E+00
N   -4.7814436951956312E+00    8.4126744594690486E+00    1.0400478502084820E+01
Ga   -4.8099709693996839E+00    1.0272573316765900E+01    1.1034263667970531E+01
N   -4.8286190423266717E+00    1.0280753732979550E+01    1.3026209128580918E+01
Ga   -4.7859096578882321E+00    8.4110111540607289E+00    1.3579504989379403E+01
N   -4.8151175574503826E+00    8.3951436404948829E+00    1.5540409679814278E+01
Ga   -4.6325768163393066E+00    1.0167505374625732E+01    1.6445727785436290E+01
N   -3.1903491925913920E+00    9.3408969960862720E+00    1.7585836653382390E+01
N    3.2561063611891181E+00    1.9013619504662507E+00    2.5910463995440218E+00
Ga    3.2510123040405410E+00    1.6321419118888372E-01    3.2784515116681949E+00
N    3.2401672208975043E+00    4.6825793100328937E-02    5.2334279324801853E+00
Ga    3.2501097164904968E+00    1.9046854836224079E+00    5.8549828021549084E+00
N    3.2460744899334957E+00    1.9064575992687214E+00    7.8238446333300180E+00
Ga    3.2468989262028596E+00    3.5728563313827968E-02    8.4035367669988652E+00
N    3.2431998119236067E+00    3.7992441493351597E-02    1.0395419092489020E+01
Ga    3.2438189292107862E+00    1.9077315559879329E+00    1.0986246401523070E+01
N    3.2422435867840420E+00    1.9075170831724060E+00    1.2958694823377808E+01
Ga    3.2444543570351798E+00    3.6635165654491458E-02    1.3579081307185234E+01
N    3.2428258060157193E+00    7.0016144452457602E-02    1.5541046804992074E+01
Ga    3.2417705995627499E+00    1.9068841614733136E+00    1.5817929054737181E+01
N    1.5482419849034741E+00    4.6207980734569176E+00    2.5085273768237299E+00
Ga    1.7503677208218358E+00    2.7702233073356384E+00    3.2751121934076273E+00
N    1.6444807713881551E+00    2.8312533358298304E+00    5.2307563695832533E+00
Ga    1.6608784794893132E+00    4.7026311978076833E+00    5.7698322868359480E+00
N    1.6463259323002464E+00    4.6958020031014938E+00    7.7638357501004691E+00
Ga    1.6255780770450710E+00    2.8419154080805828E+00    8.4036582935842343E+00
N    1.6240152990244971E+00    2.8423824838061624E+00    1.0395208571214157E+01
Ga    1.6462943731212039E+00    4.7025279186135442E+00    1.1025859096420044E+01
N    1.6640044911526297E+00    4.7107890418101546E+00    1.3021136092112794E+01
Ga    1.6224614904374361E+00    2.8419495645861930E+00    1.3577093396436769E+01
N    1.6486554588730333E+00    2.8260959524630085E+00    1.5539830152326823E+01
Ga    1.4735246144015604E+00    4.6004252470504490E+00    1.6436382882287305E+01
N    5.8992820716031839E-02    7.4725472036013469E+00    2.5305859768977808E+00
Ga    6.2525135984384250E-02    5.7580979379673902E+00    3.2524634960895926E+00
N    3.5080072483616540E-02    5.6219880711771459E+00    5.2097194713906836E+00
Ga    6.7571233552406740E-02    7.5004971602392745E+00    5.7840030085575043E+00
N    3.3038024172008761E-02    7.4813995453281752E+00    7.7791631286757488E+00
Ga    2.7129923358270761E-02    5.6185328740655587E+00    8.3811678155549050E+00
N    2.6326118296102766E-02    5.6107222459687307E+00    1.0381068876638750E+01
Ga    2.6700818850317293E-02    7.4788420371399056E+00    1.0979146135371222E+01
N    2.6275024243711108E-02    7.4775281022472084E+00    1.2953897760523505E+01
Ga    2.4678458950178034E-02    5.6083017067066772E+00    1.3575710741206954E+01
N    2.6218303870382476E-02    5.6398659526175301E+00    1.5539877737765870E+01
Ga    2.4205365964646348E-02    7.4779173723981254E+00    1.5818821359812018E+01
N   -1.6976224135378553E+00    1.0202453600004201E+01    2.5016752763945407E+00
Ga   -1.4303583917837084E+00    8.3498309579252830E+00    3.2375082575944072E+00
N   -1.5738543103533642E+00    8.4058970234998824E+00    5.1957055236000311E+00
Ga   -1.5500771083342189E+00    1.0275941342296155E+01    5.7715857979622376E+00
N   -1.5737847945065442E+00    1.0264049436188012E+01    7.7649796457875082E+00
Ga   -1.5834237278837133E+00    8.4047845259215901E+00    8.3808186307609152E+00
N   -1.5916950186345729E+00    8.4087826628764812E+00    1.0380769069883321E+01
Ga   -1.5623504857319073E+00    1.0269283745912022E+01    1.1018358650541591E+01
N   -1.5497239696666745E+00    1.0280172959998378E+01    1.3016286305101751E+01
Ga   -1.5924644646182051E+00    8.4126182667724301E+00    1.3577569655375285E+01
N   -1.5661997780375008E+00    8.3964329672040598E+00    1.5538727105631301E+01
Ga   -1.7479714163152740E+00    1.0167461475632205E+01    1.6446716855077156E+01
N    6.4547553050798774E+00    2.0408226268127709E+00    2.5013469374920021E+00
Ga    6.4745427021790549E+00    4.2966356830469371E-02    2.8429854753187622E+00
N    6.4317191486215730E+00    6.7809504754499150E-02    5.0147125791548541E+00
Ga    6.4644895411524699E+00    1.8759228808060775E+00    5.7717191717984342E+00
N    6.4628038411336890E+00    1.9016961547417921E+00    7.7651571779534967E+00
Ga    6.4738106294750803E+00    4.2708133286355886E-02    8.3795356764210247E+00
N    6.4615172487010417E+00    4.9163874228001392E-02    1.0365275738963613E+01
Ga    6.4634619676360288E+00    1.8877189092057423E+00    1.1017655450385165E+01
N    6.4592736142947267E+00    1.8702306754572162E+00    1.3015984499134547E+01
Ga    6.4556645323627446E+00    5.0942426836759196E-02    1.3819096704737721E+01
N    6.4551563649511579E+00    5.2322704786062810E-02    1.6026503023913659E+01
Ga    6.4572573974184406E+00    2.0950566661578520E+00    1.6436700510371303E+01
Ga    6.4654260496857008E+00    3.7435928199248654E+00    1.5074978761499123E+00
N    4.9655964453072006E+00    4.6220192643008771E+00    2.4921304045217938E+00
Ga    4.7589657639576624E+00    2.7749590549136314E+00    3.2779282555854485E+00
N    4.8540165754443594E+00    2.8420550290579789E+00    5.2330593996676598E+00
Ga    4.8331564005628156E+00    4.7118391943614260E+00    5.7738509317907676E+00
N    4.8481428047207817E+00    4.7017739555187488E+00    7.7664573720273307E+00
Ga    4.8664838735946434E+00    2.8409365877405168E+00    8.4034045126112495E+00
N    4.8628781665984677E+00    2.8427134685854867E+00    1.0395269906071933E+01
Ga    4.8367311522761485E+00    4.6995789533195662E+00    1.1033262795901864E+01
N    4.8193332349085400E+00    4.7101721890835107E+00    1.3025891209455748E+01
Ga    4.8628197774731321E+00    2.8400115231251735E+00    1.3576428463186485E+01
N    4.8355030224122109E+00    2.8254105158591072E+00    1.5539324233106495E+01
Ga    5.0078904056283857E+00    4.6003434854599083E+00    1.6435121808188661E+01
N    6.4604095134864190E+00    3.7724850908771534E+00    1.7570195608113124E+01
N    3.3784768347529233E+00    7.5474298327296871E+00    2.4757691855103978E+00
Ga    3.2645646713519461E+00    5.6268425414907277E+00    2.8662102359669444E+00
N    3.2496398068127208E+00    5.6111651086386560E+00    5.0078982094827325E+00
Ga    3.1845561284479196E+00    7.4430004067163091E+00    5.7927070978117605E+00
N    3.2312069405091641E+00    7.4612622881230433E+00    7.7822209641367239E+00
Ga    3.2425155120588194E+00    5.6183063646521365E+00    8.4145816950927728E+00
N    3.2441676148120142E+00    5.6186707385220318E+00    1.0386116229565619E+01
Ga    3.2401036809190620E+00    7.4633709340192667E+00    1.1022045100867635E+01
N    3.2412762554421461E+00    7.4416887952089175E+00    1.3020050728697850E+01
Ga    3.2408814600044042E+00    5.6206833562798710E+00    1.3818808720987818E+01
N    3.2410010929170556E+00    5.6207817291683799E+00    1.6026322769943228E+01
Ga    3.2409633244106906E+00    7.6566920303856918E+00    1.6426942032876390E+01
Ga    4.7313573377425051E+00    8.4763722208623680E+00    1.1193888461753960E+00
N    1.6311226864771371E+00    1.0266611782595520E+01    2.4519821772826602E+00
Ga    1.6410530823103682E+00    8.4387148038661408E+00    2.9553938852204928E+00
N    1.6547567988058074E+00    8.3952246646233988E+00    5.0963276207704515E+00
Ga    1.6344191669776111E+00    1.0264768378845945E+01    5.6520370123363488E+00
N    1.6324960134769844E+00    1.0265324714078979E+01    7.7101651456266032E+00
Ga    1.6361168884784327E+00    8.4254195904768192E+00    8.3872714026367028E+00
N    1.6427555450826592E+00    8.4162625580448296E+00    1.0387370340679958E+01
Ga    1.6177897745456726E+00    1.0273198189156789E+01    1.1024812631549702E+01
N    1.6017983399146563E+00    1.0281423426094500E+01    1.3022391509122365E+01
Ga    1.6442111278124190E+00    8.4119663670207814E+00    1.3574043759691131E+01
N    1.6201172401631381E+00    8.3962937083743157E+00    1.5540574915619315E+01
Ga    1.7799326582446955E+00    1.0178254576514453E+01    1.6425765911376853E+01
N    3.2409805453181137E+00    9.3449271693637552E+00    1.7556440090474396E+01
N    9.6970049234063893E+00    1.8837618233389710E+00    2.5306146814156616E+00
Ga    9.6510455437672213E+00    3.0744108068959355E-02    2.9558299924756706E+00
N    9.6955632832018814E+00    4.0781623660102344E-02    5.0966959813497459E+00
Ga    9.6766260054480284E+00    1.8624172379584116E+00    5.7842543711990757E+00
N    9.6758206868095336E+00    1.9014823132591012E+00    7.7794734572422426E+00
Ga    9.6598834427507061E+00    4.1062616354251250E-02    8.3876606069176365E+00
N    9.6708486629269785E+00    3.9750680167544204E-02    1.0388136903428320E+01
Ga    9.6752361048461388E+00    1.9083408758170797E+00    1.0979218992969814E+01
N    9.6745131679071275E+00    1.9073466675436976E+00    1.2954427207624992E+01
Ga    9.6739368165023389E+00    3.7965508435768201E-02    1.3574499630179673E+01
N    9.6734736313386360E+00    6.7885494497536780E-02    1.5542379967529065E+01
Ga    9.6735846018725695E+00    1.9083059635799187E+00    1.5818804732621457E+01
N    7.9533197473922472E+00    4.6504345020782747E+00    2.4871843525621005E+00
Ga    8.1926140435621040E+00    2.7350154433025127E+00    3.2374554743400332E+00
N    8.0720919037717493E+00    2.8314326334792090E+00    5.1957444838198601E+00
Ga    8.0969148356277163E+00    4.7006559742165637E+00    5.7359299257902689E+00
N    8.0775741272630590E+00    4.6994343019251392E+00    7.7381659038373467E+00
Ga    8.0681555100439244E+00    2.8398205375713075E+00    8.3810580530848782E+00
N    8.0600111999183550E+00    2.8443386928967498E+00    1.0381363989200683E+01
Ga    8.0871423234708768E+00    4.6987087215880070E+00    1.1028013519055309E+01
N    8.0998168617921174E+00    4.7103038674369131E+00    1.3022750531217236E+01
Ga    8.0549591046686366E+00    2.8405915957047223E+00    1.3575571582231184E+01
N    8.0796267521964982E+00    2.8239411037141235E+00    1.5538938470918128E+01
Ga    7.9108740555954498E+00    4.6029336288926253E+00    1.6435306132228011E+01
N    6.3177616687035396E+00    7.5609443965870629E+00    2.5906454218054979E+00
Ga    6.4292894642068141E+00    5.7568187644337776E+00    3.2321353029106450E+00
N    6.4621854070857268E+00    5.6426288512617155E+00    5.1920554240302454E+00
Ga    6.4828117461368473E+00    7.4653561577515761E+00    5.8976541551558403E+00
N    6.4702168980690642E+00    7.4721617739228403E+00    7.8490983584069376E+00
Ga    6.4672752189973002E+00    5.6003552316900960E+00    8.4136154114970800E+00
N    6.4619286145466610E+00    5.6052922341232643E+00    1.0401090484633272E+01
Ga    6.4588813688448967E+00    7.4791967490775315E+00    1.0984279425510270E+01
N    6.4577586443347581E+00    7.4779008012306960E+00    1.2957876375972278E+01
Ga    6.4595966656820361E+00    5.6079306573581551E+00    1.3577749887811798E+01
N    6.4562877469406192E+00    5.6398820968751515E+00    1.5541918871484496E+01
Ga    6.4580088473542991E+00    7.4782449748161799E+00    1.5819524709644872E+01
N    4.8599727313285417E+00    1.0112842940863853E+01    2.4767162445645710E+00
Ga    4.8348419827929980E+00    8.4158336670761589E+00    3.5343427694394358E+00
N    4.8497972331606851E+00    8.4079186003043880E+00    5.4020492706599690E+00
Ga    4.8530520526617114E+00    1.0332887416303796E+01    5.7921494145261736E+00
N    4.8602189540462781E+00    1.0283058392883339E+01    7.7819248032264747E+00
Ga    4.8355416415281329E+00    8.4162313142117160E+00    8.3934613984051687E+00
N    4.8399026886007617E+00    8.4131552909995033E+00    1.0391188174508766E+01
Ga    4.8624691937304405E+00    1.0273244298812347E+01    1.1023217243822661E+01
N    4.8813960996674215E+00    1.0281796397690606E+01    1.3021732853141030E+01
Ga    4.8382302456082780E+00    8.4125178055095748E+00    1.3574434106408512E+01
N    4.8620584847034527E+00    8.3964591660436874E+00    1.5540988396689823E+01
Ga    4.7024505219017581E+00    1.0178488340791073E+01    1.6426235384961213E+01
     &END COORD
     &KIND N
       BASIS_SET DZVP-MOLOPT-SR-GTH
       POTENTIAL GTH-PBE-q5
       &POTENTIAL
 2 3
  0.2837905100000000E+00 2 -0.1241522559000000E+02  0.1868095920000000E+01
 2
  0.2554050000000000E+00 1  0.1363026257000000E+02
  0.2454945300000000E+00 0
         # Potential name:  GTH-PBE-Q5  for symbol:  N
         # Potential read from the potential filename: GTH_POTENTIALS
       &END POTENTIAL
     &END KIND
     &KIND Ga
       BASIS_SET DZVP-MOLOPT-SR-GTH
       POTENTIAL GTH-PBE-q13
       &POTENTIAL
 2 1 10
  0.4900000000000000E+00 0
 3
  0.4167772300000000E+00 3  0.1047568975000000E+02 -0.4921768140000000E+01  0.8707055900000000E+00
  0.7770178090000000E+01 -0.2248152160000000E+01
  0.1784415450000000E+01
  0.5696265200000000E+00 2  0.1777985340000000E+01  0.1958597600000000E+00
 -0.2317443900000000E+00
  0.2381265000000000E+00 1 -0.1624868022000000E+02
         # Potential name:  GTH-PBE-Q13  for symbol:  GA
         # Potential read from the potential filename: GTH_POTENTIALS
       &END POTENTIAL
     &END KIND
     &TOPOLOGY
       NUMBER_OF_ATOMS  200
       MULTIPLE_UNIT_CELL  1 1 1
     &END TOPOLOGY
   &END SUBSYS
 &END FORCE_EVAL
