 # Version information for this restart file 
 # current date 2019-07-04 14:10:31.315
 # current working dir /lustre04/scratch/rzk/rzk/GaN-carbene/443-adatoms-both-2x2/01-Surface/03-GaJumps1Ring
 # Program compiled at                              Sun Apr  7 00:48:11 EDT 2019
 # Program compiled on                          beluga2.int.ets1.calculquebec.ca
 # Program compiled for                        Beluga-Linux-x86-64-intel-openmpi
 # Source code revision number                                         svn:18619
 &GLOBAL
   PRINT_LEVEL  MEDIUM
   PROJECT_NAME TEST
   RUN_TYPE  GEO_OPT
 &END GLOBAL
 &MOTION
   &GEO_OPT
     STEP_START_VAL  32
   &END GEO_OPT
   &CELL_OPT
     MAX_ITER  300
     EXTERNAL_PRESSURE     1.0000000000000000E+00
     KEEP_ANGLES  T
     KEEP_SYMMETRY  T
     CONSTRAINT  Z
     PRESSURE_TOLERANCE     5.0000000000000000E+02
   &END CELL_OPT
 &END MOTION
 &FORCE_EVAL
   METHOD  QS
   STRESS_TENSOR  ANALYTICAL
   &DFT
     BASIS_SET_FILE_NAME BASIS_MOLOPT
     POTENTIAL_FILE_NAME GTH_POTENTIALS
     UKS  T
     SURFACE_DIPOLE_CORRECTION  T
     SURF_DIP_DIR  Z
     &SCF
       MAX_SCF  80
       EPS_SCF     5.0000000000000004E-06
       &OT  T
         PRECONDITIONER  FULL_ALL
       &END OT
       &OUTER_SCF  T
         OPTIMIZER  NONE
         EPS_SCF     5.0000000000000004E-06
         MAX_SCF  4
       &END OUTER_SCF
       &PRINT
         &RESTART  OFF
           BACKUP_COPIES  1
           &EACH
             JUST_ENERGY  0
             QS_SCF  0
             MD  20
           &END EACH
         &END RESTART
       &END PRINT
     &END SCF
     &QS
       EPS_DEFAULT     1.0000000000000000E-14
       METHOD  GPW
     &END QS
     &MGRID
       NGRIDS  5
       CUTOFF     1.2000000000000000E+03
     &END MGRID
     &XC
       DENSITY_CUTOFF     1.0000000000000000E-10
       GRADIENT_CUTOFF     1.0000000000000000E-10
       TAU_CUTOFF     1.0000000000000000E-10
       &XC_FUNCTIONAL  NO_SHORTCUT
         &PBE  T
         &END PBE
       &END XC_FUNCTIONAL
       &VDW_POTENTIAL
         POTENTIAL_TYPE  PAIR_POTENTIAL
         &PAIR_POTENTIAL
           R_CUTOFF     1.0000000000000004E+01
           TYPE  DFTD3
           PARAMETER_FILE_NAME dftd3.dat
           REFERENCE_FUNCTIONAL PBE
           EPS_CN     9.9999999999999995E-07
           CALCULATE_C9_TERM  T
           REFERENCE_C9_TERM  T
           LONG_RANGE_CORRECTION  F
           VERBOSE_OUTPUT  F
         &END PAIR_POTENTIAL
       &END VDW_POTENTIAL
     &END XC
   &END DFT
   &SUBSYS
     &CELL
       A     1.2864472766435110E+01    0.0000000000000000E+00    0.0000000000000000E+00
       B    -6.4322363581020028E+00    1.1140960178524473E+01    0.0000000000000000E+00
       C     0.0000000000000000E+00    0.0000000000000000E+00    3.2000000000000000E+01
       MULTIPLE_UNIT_CELL  1 1 1
       &CELL_REF
         A     1.2982353780853531E+01    0.0000000000000000E+00    0.0000000000000000E+00
         B    -6.4911768904267628E+00    1.1243048175136114E+01    0.0000000000000000E+00
         C     0.0000000000000000E+00    0.0000000000000000E+00    3.2000000000000000E+01
         MULTIPLE_UNIT_CELL  1 1 1
       &END CELL_REF
     &END CELL
     &COORD
N    4.6447934717260671E-02    2.0183729730790683E+00    2.5076446485233101E+00
Ga    3.6788914524290520E-02    2.7650331528852993E-02    2.8620156484472465E+00
N    3.8975165746707487E-02    5.0884215491637207E-02    5.0067513911830677E+00
Ga    3.1401853238915839E-02    1.8814771801595198E+00    5.7691802445095650E+00
N    3.0294187268742872E-02    1.8971919916330151E+00    7.7637006237893527E+00
Ga    2.9227883724385808E-02    5.3984509247081154E-02    8.4144371442698311E+00
N    2.9560291553713626E-02    5.1047565384922125E-02    1.0385965680535366E+01
Ga    2.4371811642233940E-02    1.8924641420365582E+00    1.1025964474566411E+01
N    2.5403763083090981E-02    1.8732380248994838E+00    1.3020766034631803E+01
Ga    2.7038788887784479E-02    5.2389176554125047E-02    1.3821025442657977E+01
N    2.6249778025876531E-02    5.3598486497082320E-02    1.6026446798432907E+01
Ga    2.4975479126960881E-02    2.0981026631504154E+00    1.6437278750196647E+01
Ga    3.9660901744592809E-02    3.7565479274544935E+00    1.5189947083767501E+00
N   -1.4565700859508308E+00    4.6214347062448757E+00    2.5067388577994669E+00
Ga   -1.6805396754450137E+00    2.7375046597249604E+00    3.2516217948145885E+00
N   -1.5769789365257099E+00    2.8293699092343489E+00    5.2084459475914322E+00
Ga   -1.5976166538127352E+00    4.7023574777090209E+00    5.7449122662291048E+00
N   -1.5890136010687013E+00    4.6982875341946491E+00    7.7439793666058616E+00
Ga   -1.5779667640429991E+00    2.8383937609917465E+00    8.3811258908622790E+00
N   -1.5715640518411018E+00    2.8420808446520742E+00    1.0381175907594070E+01
Ga   -1.5954369207199171E+00    4.7013063087360072E+00    1.1018041971405037E+01
N   -1.6126652822111767E+00    4.7102380352492164E+00    1.3015908374049145E+01
Ga   -1.5722285201479156E+00    2.8424044512994815E+00    1.3575000040861708E+01
N   -1.5981248441930811E+00    2.8248090088096784E+00    1.5537784719318163E+01
Ga   -1.4264049446061258E+00    4.6020573716388835E+00    1.6436540191717690E+01
N    2.2221085536502098E-02    3.7731791712522669E+00    1.7573784000204206E+01
N   -3.2104692739447351E+00    7.6000874570112904E+00    2.4875696868665083E+00
Ga   -3.1731327581248281E+00    5.6145037581743900E+00    2.8120473653323086E+00
N   -3.1832220225659897E+00    5.6190898784227086E+00    4.9588178050597715E+00
Ga   -3.1805893694355345E+00    7.4492290542622381E+00    5.7359446950426518E+00
N   -3.1891655872437066E+00    7.4665939022381700E+00    7.7382358814863785E+00
Ga   -3.1867394337351005E+00    5.6206613727572661E+00    8.3893521377700910E+00
N   -3.1893140646244880E+00    5.6211830615189848E+00    1.0367244377426127E+01
Ga   -3.1839865001352008E+00    7.4576273812082885E+00    1.1027135615210259E+01
N   -3.1886424207275694E+00    7.4404173717126687E+00    1.3021081922159047E+01
Ga   -3.1882591567138370E+00    5.6208099602998729E+00    1.3823010641009720E+01
N   -3.1905616131403738E+00    5.6209834246016026E+00    1.6025804313819410E+01
Ga   -3.1901898722037960E+00    7.6709772186360299E+00    1.6446825014000940E+01
Ga   -3.1691681552118074E+00    9.3421830148803693E+00    1.5085644537904042E+00
N   -4.6762087554329037E+00    1.0202667135497864E+01    2.4951000286183587E+00
Ga   -4.9296054258710296E+00    8.3674599084394607E+00    3.2314066424345746E+00
N   -4.8135409543436323E+00    8.3942026979455324E+00    5.1916815105699339E+00
Ga   -4.8225728560543155E+00    1.0270041136758131E+01    5.7741747547161326E+00
N   -4.8067170331898756E+00    1.0262302166072306E+01    7.7669730968628370E+00
Ga   -4.7746025277923385E+00    8.4108798019821727E+00    8.4133256826064660E+00
N   -4.7814774320826192E+00    8.4126148155149547E+00    1.0400700346641688E+01
Ga   -4.8102367356111637E+00    1.0272732283184048E+01    1.1033748687075612E+01
N   -4.8282719516579480E+00    1.0280686116361341E+01    1.3026163739799788E+01
Ga   -4.7860871559080520E+00    8.4108829544173069E+00    1.3579245163681353E+01
N   -4.8141191804321135E+00    8.3958605753297419E+00    1.5541317330076728E+01
Ga   -4.6345866059799539E+00    1.0168952874035838E+01    1.6445871394874320E+01
N   -3.1902586653997016E+00    9.3406335093128448E+00    1.7584118594996159E+01
N    3.2571994077231632E+00    1.9007154189505844E+00    2.5911180182601883E+00
Ga    3.2504717747096610E+00    1.6329229599102113E-01    3.2806013290766427E+00
N    3.2408193212353833E+00    4.6112857667568140E-02    5.2350972947703935E+00
Ga    3.2501971293676046E+00    1.9047417096610657E+00    5.8554970112379445E+00
N    3.2459235811379070E+00    1.9070456995771685E+00    7.8244949173234950E+00
Ga    3.2467084144474407E+00    3.5812862898547182E-02    8.4026115179896035E+00
N    3.2430930399666620E+00    3.8174577472223602E-02    1.0395254575651027E+01
Ga    3.2437437368275157E+00    1.9080229663704655E+00    1.0985751788814284E+01
N    3.2422607094290297E+00    1.9075931722826331E+00    1.2958329691079511E+01
Ga    3.2444789147511397E+00    3.7168102183180333E-02    1.3578976639174925E+01
N    3.2429426361211120E+00    6.9010809412379956E-02    1.5541990197574986E+01
Ga    3.2419389671053871E+00    1.9067496120963485E+00    1.5819751920106581E+01
N    1.5476404423486885E+00    4.6206218179784244E+00    2.5088254577355196E+00
Ga    1.7506154587282980E+00    2.7686957702047521E+00    3.2742487805455855E+00
N    1.6444522207776906E+00    2.8310421790729778E+00    5.2299950311211880E+00
Ga    1.6607661697684901E+00    4.7023568200770338E+00    5.7702369563193425E+00
N    1.6464312244030144E+00    4.6955969077233233E+00    7.7644898513991336E+00
Ga    1.6250038058577203E+00    2.8419469516059412E+00    8.4036038831608408E+00
N    1.6239155148405990E+00    2.8426225018922269E+00    1.0395468391932958E+01
Ga    1.6466836040005903E+00    4.7027585725221446E+00    1.1025693088711702E+01
N    1.6635773855438956E+00    4.7104983544325352E+00    1.3020613273849934E+01
Ga    1.6229212220867282E+00    2.8420411731843536E+00    1.3576783617140588E+01
N    1.6489925724865340E+00    2.8256449414003679E+00    1.5539561992107863E+01
Ga    1.4728254132447622E+00    4.6000487821756169E+00    1.6436517551794815E+01
N    5.9377177162857515E-02    7.4717537850229938E+00    2.5306593288141661E+00
Ga    6.1168585660207102E-02    5.7575455324316662E+00    3.2529757846314329E+00
N    3.5256316615533669E-02    5.6212752477590611E+00    5.2096462925024500E+00
Ga    6.7178450388207495E-02    7.5006272064397157E+00    5.7826440355542212E+00
N    3.3342370083448668E-02    7.4812199906574639E+00    7.7782034929759316E+00
Ga    2.7211511532983436E-02    5.6181126981584395E+00    8.3814045985383707E+00
N    2.6654564073053715E-02    5.6105980289770931E+00    1.0381483393112541E+01
Ga    2.6985417861964303E-02    7.4784171713823238E+00    1.0979659148861822E+01
N    2.6310815530563979E-02    7.4776086441364100E+00    1.2954198815767080E+01
Ga    2.4834273166182429E-02    5.6083330518037782E+00    1.3575084424659339E+01
N    2.6037831875336682E-02    5.6403904639257911E+00    1.5539259009361015E+01
Ga    2.3815556097401210E-02    7.4780731365584314E+00    1.5820381881340355E+01
N   -1.6975939514246559E+00    1.0202904626009687E+01    2.5016901565264336E+00
Ga   -1.4311607398139328E+00    8.3486927722859878E+00    3.2362881701113597E+00
N   -1.5749150481754042E+00    8.4060639749080028E+00    5.1947939727659014E+00
Ga   -1.5490992401004580E+00    1.0275464077291753E+01    5.7723537665845894E+00
N   -1.5729965855266497E+00    1.0263916974722555E+01    7.7657626821686572E+00
Ga   -1.5833655797886252E+00    8.4043046688241834E+00    8.3810289722020244E+00
N   -1.5913363432911209E+00    8.4084470727050995E+00    1.0381357685354525E+01
Ga   -1.5622154393591137E+00    1.0269321794982874E+01    1.1017745484572108E+01
N   -1.5500740245540092E+00    1.0280058607240390E+01    1.3016163911592047E+01
Ga   -1.5923812732812046E+00    8.4125569763933061E+00    1.3577240229290902E+01
N   -1.5671115582643458E+00    8.3973400832628631E+00    1.5539432084248869E+01
Ga   -1.7458181036864391E+00    1.0168861903321337E+01    1.6446851405932069E+01
N    6.4545950199501796E+00    2.0418873817504233E+00    2.5009428926217678E+00
Ga    6.4752649245142706E+00    4.3510293220060288E-02    2.8400959145147260E+00
N    6.4333923560892794E+00    6.7770033862428442E-02    5.0151165377437197E+00
Ga    6.4652368453643367E+00    1.8765359620468065E+00    5.7722184489219961E+00
N    6.4633245255997549E+00    1.9017765411948655E+00    7.7657639724344412E+00
Ga    6.4741292446580339E+00    4.3025828487387653E-02    8.3805193431515530E+00
N    6.4618243508151432E+00    4.9215749666569525E-02    1.0366024605066665E+01
Ga    6.4635783194272198E+00    1.8877446005854497E+00    1.1017685717297208E+01
N    6.4592361638123013E+00    1.8712960987711036E+00    1.3015836326311561E+01
Ga    6.4561052778390646E+00    5.1461104233200473E-02    1.3817881235301353E+01
N    6.4565611229513600E+00    5.3411112587183222E-02    1.6026189532481173E+01
Ga    6.4576893697178148E+00    2.0962604383144514E+00    1.6436555136523229E+01
Ga    6.4658564231019451E+00    3.7460878659485375E+00    1.5081476804186136E+00
N    4.9660745470001872E+00    4.6234643523169501E+00    2.4925240627490419E+00
Ga    4.7588236027114368E+00    2.7762785968431971E+00    3.2776656463112546E+00
N    4.8545721019648091E+00    2.8422174307614423E+00    5.2330816317404256E+00
Ga    4.8332863864600002E+00    4.7121811106343632E+00    5.7744672125610013E+00
N    4.8482390301166314E+00    4.7021496720598064E+00    7.7671992632759812E+00
Ga    4.8666955854062062E+00    2.8411563712783900E+00    8.4036740219796258E+00
N    4.8629010387117297E+00    2.8429058864590804E+00    1.0395825146920370E+01
Ga    4.8365912430445990E+00    4.6998226697095102E+00    1.1033155738257232E+01
N    4.8199799969826937E+00    4.7098120780432762E+00    1.3025431263590391E+01
Ga    4.8625465006098079E+00    2.8400818508086156E+00    1.3576036614705915E+01
N    4.8354668108279819E+00    2.8249098151446317E+00    1.5538928489570987E+01
Ga    5.0089694187975509E+00    4.5997780372034232E+00    1.6434918281550438E+01
N    6.4603643666568331E+00    3.7723592784783495E+00    1.7572133262178081E+01
N    3.3769265815899394E+00    7.5464576319381056E+00    2.4782588363328997E+00
Ga    3.2649123801598074E+00    5.6262523490955969E+00    2.8665970128439175E+00
N    3.2495031594294534E+00    5.6120258119257427E+00    5.0083753833983264E+00
Ga    3.1837749959184629E+00    7.4433738090232948E+00    5.7947337991786618E+00
N    3.2308122728436097E+00    7.4615916794774719E+00    7.7836614107269373E+00
Ga    3.2423631785467291E+00    5.6181480293837627E+00    8.4145641943348686E+00
N    3.2442602707011101E+00    5.6187721742489849E+00    1.0385814662586158E+01
Ga    3.2402921892064351E+00    7.4629083083408103E+00    1.1022579812628646E+01
N    3.2413331741411664E+00    7.4420620392431243E+00    1.3020103780017255E+01
Ga    3.2410317999903704E+00    5.6203129473173528E+00    1.3817339879046003E+01
N    3.2413507727431679E+00    5.6206681791295070E+00    1.6025853091488287E+01
Ga    3.2410327627816451E+00    7.6570154917433504E+00    1.6426019747673422E+01
Ga    4.7187472124924872E+00    8.4689203273216123E+00    1.1180869344303892E+00
N    1.6332408233975406E+00    1.0265502634949495E+01    2.4451204273949290E+00
Ga    1.6408575119665110E+00    8.4368820749601152E+00    2.9540379824647651E+00
N    1.6552771294847899E+00    8.3965195898600129E+00    5.0962950218822591E+00
Ga    1.6347064834600962E+00    1.0265050737652162E+01    5.6543423415904241E+00
N    1.6327904384358261E+00    1.0265331104103458E+01    7.7116728033213162E+00
Ga    1.6357077362022605E+00    8.4254056960920298E+00    8.3888285144082957E+00
N    1.6429832625046030E+00    8.4161509146390596E+00    1.0388503432710843E+01
Ga    1.6178339841071339E+00    1.0273286113817058E+01    1.1025444557441078E+01
N    1.6025715204631470E+00    1.0280949781510984E+01    1.3022683984173890E+01
Ga    1.6442604717361760E+00    8.4117665654555918E+00    1.3573368643319137E+01
N    1.6195187554988264E+00    8.3964151385870274E+00    1.5540012640900606E+01
Ga    1.7807988721054813E+00    1.0178294341233009E+01    1.6424858115799871E+01
N    3.2410209865075879E+00    9.3446490851236756E+00    1.7558647112145007E+01
N    9.6979926239424632E+00    1.8837552796446801E+00    2.5300209848595525E+00
Ga    9.6503210489228568E+00    3.2493562099523365E-02    2.9553475347758127E+00
N    9.6946484600083362E+00    4.0198036428012285E-02    5.0971266780941820E+00
Ga    9.6765718865288974E+00    1.8629177701997903E+00    5.7831468425201287E+00
N    9.6758643474622144E+00    1.9016330456047748E+00    7.7786574153041226E+00
Ga    9.6600857970865377E+00    4.1812658724237117E-02    8.3888088788043245E+00
N    9.6708335162698340E+00    3.9885290907054095E-02    1.0389266214883303E+01
Ga    9.6754881262034420E+00    1.9084490420068387E+00    1.0979807247644811E+01
N    9.6745414673561925E+00    1.9073707976926428E+00    1.2954298333636354E+01
Ga    9.6739765367481443E+00    3.8762043915420104E-02    1.3574032767133829E+01
N    9.6735778931382530E+00    6.8456185673676048E-02    1.5541699313611200E+01
Ga    9.6734698018240532E+00    1.9087246264234916E+00    1.5819400788585030E+01
N    7.9540103207514710E+00    4.6521103591171968E+00    2.4888212512392771E+00
Ga    8.1935956714475520E+00    2.7358182136881681E+00    3.2364374704648262E+00
N    8.0718781941825490E+00    2.8322883341002845E+00    5.1951515534270154E+00
Ga    8.0978481646874272E+00    4.7010246032130967E+00    5.7368633623636853E+00
N    8.0777233699117588E+00    4.6997187986844216E+00    7.7388070818311343E+00
Ga    8.0687441961803028E+00    2.8401731660015974E+00    8.3818022289370031E+00
N    8.0603066736323790E+00    2.8444091522422954E+00    1.0382130719275940E+01
Ga    8.0875610031845824E+00    4.6988925719508225E+00    1.1027970474082473E+01
N    8.0989208611025347E+00    4.7097586226931192E+00    1.3022459833908339E+01
Ga    8.0555614893387446E+00    2.8402913423108491E+00    1.3574986988497765E+01
N    8.0797260809670828E+00    2.8237344776049573E+00    1.5537906101540628E+01
Ga    7.9098539155968357E+00    4.6018831659664814E+00    1.6435043179141267E+01
N    6.3162604457803084E+00    7.5616306488383165E+00    2.5927236749707627E+00
Ga    6.4294237618300691E+00    5.7568013897768173E+00    3.2340278992623728E+00
N    6.4625742907255699E+00    5.6425048663070321E+00    5.1934365526636039E+00
Ga    6.4836018251915561E+00    7.4649383654046497E+00    5.8993636247945007E+00
N    6.4701071404758794E+00    7.4719137830110771E+00    7.8503545156122874E+00
Ga    6.4674636187522481E+00    5.6001080294827110E+00    8.4144403910563756E+00
N    6.4620252221246446E+00    5.6051818181197302E+00    1.0401833301661577E+01
Ga    6.4586645791944788E+00    7.4791678446480656E+00    1.0984324802979412E+01
N    6.4577897504203179E+00    7.4779218955781843E+00    1.2957987977068372E+01
Ga    6.4595141215839806E+00    5.6080313217523763E+00    1.3577128706718920E+01
N    6.4565946956621447E+00    5.6403333285706143E+00    1.5541278843904312E+01
Ga    6.4585454078539630E+00    7.4781674905192821E+00    1.5821294702657038E+01
N    4.8608454236494483E+00    1.0114404713069396E+01    2.4807441678152382E+00
Ga    4.8347109517483569E+00    8.4155881920211595E+00    3.5393645179655477E+00
N    4.8494837531427937E+00    8.4075478294661874E+00    5.4051048402596527E+00
Ga    4.8523297495796855E+00    1.0333233980572398E+01    5.7923681852131024E+00
N    4.8597316055345292E+00    1.0283288284773958E+01    7.7823074814129809E+00
Ga    4.8355897055087507E+00    8.4166314581132209E+00    8.3940205885309691E+00
N    4.8395258295672257E+00    8.4131952660515044E+00    1.0391791356233286E+01
Ga    4.8626122955249276E+00    1.0273378695838806E+01    1.1023551237280840E+01
N    4.8807201375177618E+00    1.0281447450023343E+01    1.3022001419718062E+01
Ga    4.8384250401630435E+00    8.4123368329477888E+00    1.3573821071059339E+01
N    4.8629213800624305E+00    8.3965998221290139E+00    1.5540647156126587E+01
Ga    4.7017789830762071E+00    1.0178606444446054E+01    1.6425561743752194E+01
     &END COORD
     &KIND N
       BASIS_SET DZVP-MOLOPT-SR-GTH
       POTENTIAL GTH-PBE-q5
       &POTENTIAL
 2 3
  0.2837905100000000E+00 2 -0.1241522559000000E+02  0.1868095920000000E+01
 2
  0.2554050000000000E+00 1  0.1363026257000000E+02
  0.2454945300000000E+00 0
         # Potential name:  GTH-PBE-Q5  for symbol:  N
         # Potential read from the potential filename: GTH_POTENTIALS
       &END POTENTIAL
     &END KIND
     &KIND Ga
       BASIS_SET DZVP-MOLOPT-SR-GTH
       POTENTIAL GTH-PBE-q13
       &POTENTIAL
 2 1 10
  0.4900000000000000E+00 0
 3
  0.4167772300000000E+00 3  0.1047568975000000E+02 -0.4921768140000000E+01  0.8707055900000000E+00
  0.7770178090000000E+01 -0.2248152160000000E+01
  0.1784415450000000E+01
  0.5696265200000000E+00 2  0.1777985340000000E+01  0.1958597600000000E+00
 -0.2317443900000000E+00
  0.2381265000000000E+00 1 -0.1624868022000000E+02
         # Potential name:  GTH-PBE-Q13  for symbol:  GA
         # Potential read from the potential filename: GTH_POTENTIALS
       &END POTENTIAL
     &END KIND
     &TOPOLOGY
       NUMBER_OF_ATOMS  200
       MULTIPLE_UNIT_CELL  1 1 1
     &END TOPOLOGY
   &END SUBSYS
 &END FORCE_EVAL
