#p freq pbepbe/cc-pvdz

i =        4, E =       -17.2195219556

0 1
 O                 -0.00000105   -0.00000011    0.10941759
 H                  0.00000094    0.76550457   -0.48643716
 H                  0.00000021   -0.76550445   -0.48643754

