&GLOBAL
  PROJECT TEST 
  RUN_TYPE GEO_OPT
  PRINT_LEVEL MEDIUM 
&END GLOBAL

&MOTION
  &GEO_OPT
    MAX_ITER  500
  &END
&END MOTION

&FORCE_EVAL
  METHOD QS
  STRESS_TENSOR ANALYTICAL
  &DFT

    BASIS_SET_FILE_NAME BASIS_MOLOPT
    POTENTIAL_FILE_NAME GTH_POTENTIALS
    
    &QS
      METHOD GPW
      EPS_DEFAULT 1.0E-14 # overall accuracy of the Kohn-Sham matrix build
    &END QS
    
    &MGRID
      CUTOFF 1200
      NGRIDS 5
    &END MGRID

    &XC
      &XC_FUNCTIONAL PBE
      &END XC_FUNCTIONAL
      &vdW_POTENTIAL
         DISPERSION_FUNCTIONAL PAIR_POTENTIAL
         &PAIR_POTENTIAL
            TYPE DFTD3
            CALCULATE_C9_TERM .TRUE.
            REFERENCE_C9_TERM .TRUE.
            LONG_RANGE_CORRECTION .FALSE.
            PARAMETER_FILE_NAME dftd3.dat
            VERBOSE_OUTPUT .FALSE.
            REFERENCE_FUNCTIONAL PBE
            R_CUTOFF [angstrom] 10.0
            EPS_CN 1.0E-6
         &END PAIR_POTENTIAL
      &END vdW_POTENTIAL
    &END XC
  
    &SCF

      EPS_SCF 5.0E-6
      MAX_SCF 100
      &OUTER_SCF
        OPTIMIZER NONE
        EPS_SCF 5.0E-6
        MAX_SCF 4
      &END OUTER_SCF

      &OT
        PRECONDITIONER FULL_ALL
      &END OT

      &PRINT
        &RESTART OFF
          BACKUP_COPIES 1
          &EACH
            QS_SCF 0
            JUST_ENERGY 0
            MD 20
          &END EACH
        &END RESTART
      &END PRINT

    &END SCF

  &END DFT

  &SUBSYS

    &CELL
      ABC    16.227942226066915 16.227942226066915 29.0
      ALPHA_BETA_GAMMA 90.0 90.0 120.0
      MULTIPLE_UNIT_CELL 1 1 1 
    &END CELL

    &TOPOLOGY
      COORD_FILE_NAME start.xyz
      COORDINATE XYZ
      MULTIPLE_UNIT_CELL 1 1 1
    &END
    
    &KIND N
      BASIS_SET DZVP-MOLOPT-SR-GTH
      POTENTIAL GTH-PBE-q5
    &END KIND

    &KIND Ga
      BASIS_SET DZVP-MOLOPT-SR-GTH
      POTENTIAL GTH-PBE-q13
    &END KIND

  &END SUBSYS

&END FORCE_EVAL

