 # Version information for this restart file 
 # current date 2019-05-24 17:33:32.007
 # current working dir /lustre03/project/6004141/rzk/GaN-carbene/00-Surface/00-Preoptimization/554-native
 # Program compiled at                              Sun Apr  7 00:48:11 EDT 2019
 # Program compiled on                          beluga2.int.ets1.calculquebec.ca
 # Program compiled for                        Beluga-Linux-x86-64-intel-openmpi
 # Source code revision number                                         svn:18619
 &GLOBAL
   PRINT_LEVEL  MEDIUM
   PROJECT_NAME TEST
   RUN_TYPE  GEO_OPT
 &END GLOBAL
 &MOTION
   &GEO_OPT
     MAX_ITER  500
     STEP_START_VAL  34
   &END GEO_OPT
 &END MOTION
 &FORCE_EVAL
   METHOD  QS
   STRESS_TENSOR  ANALYTICAL
   &DFT
     BASIS_SET_FILE_NAME BASIS_MOLOPT
     POTENTIAL_FILE_NAME GTH_POTENTIALS
     &SCF
       MAX_SCF  100
       EPS_SCF     5.0000000000000004E-06
       &OT  T
         PRECONDITIONER  FULL_ALL
       &END OT
       &OUTER_SCF  T
         OPTIMIZER  NONE
         EPS_SCF     5.0000000000000004E-06
         MAX_SCF  4
       &END OUTER_SCF
       &PRINT
         &RESTART  OFF
           BACKUP_COPIES  1
           &EACH
             JUST_ENERGY  0
             QS_SCF  0
             MD  20
           &END EACH
         &END RESTART
       &END PRINT
     &END SCF
     &QS
       EPS_DEFAULT     1.0000000000000000E-14
       METHOD  GPW
     &END QS
     &MGRID
       NGRIDS  5
       CUTOFF     1.2000000000000000E+03
     &END MGRID
     &XC
       DENSITY_CUTOFF     1.0000000000000000E-10
       GRADIENT_CUTOFF     1.0000000000000000E-10
       TAU_CUTOFF     1.0000000000000000E-10
       &XC_FUNCTIONAL  NO_SHORTCUT
         &PBE  T
         &END PBE
       &END XC_FUNCTIONAL
       &VDW_POTENTIAL
         POTENTIAL_TYPE  PAIR_POTENTIAL
         &PAIR_POTENTIAL
           R_CUTOFF     1.0000000000000002E+01
           TYPE  DFTD3
           PARAMETER_FILE_NAME dftd3.dat
           REFERENCE_FUNCTIONAL PBE
           EPS_CN     9.9999999999999995E-07
           CALCULATE_C9_TERM  T
           REFERENCE_C9_TERM  T
           LONG_RANGE_CORRECTION  F
           VERBOSE_OUTPUT  F
         &END PAIR_POTENTIAL
       &END VDW_POTENTIAL
     &END XC
   &END DFT
   &SUBSYS
     &CELL
       A     1.6227942226066915E+01    0.0000000000000000E+00    0.0000000000000000E+00
       B    -8.1139711130334540E+00    1.4053810218920143E+01    0.0000000000000000E+00
       C     0.0000000000000000E+00    0.0000000000000000E+00    2.9000000000000000E+01
       MULTIPLE_UNIT_CELL  1 1 1
     &END CELL
     &COORD
Ga    1.9127219982310742E-04   -4.3172618594319825E-02    3.0374723641115053E-01
N    2.4762831005716523E-04    1.8623086187891855E+00    5.0921709411747773E-01
Ga    3.1449828376016610E-04    1.8850844747829656E+00    2.7144134087783134E+00
N    2.9034389964550022E-04   -2.3195701935496710E-03    3.1592940628876933E+00
Ga    2.6780476157822839E-04   -6.2873527725117130E-03    5.2303093338845610E+00
N    4.6741904534402747E-05    1.8756445977683269E+00    5.7594855630853887E+00
Ga    1.0994869179074517E-05    1.8748948395699061E+00    7.8223065894190738E+00
N    2.2322994029241666E-04    2.3589332437320685E-03    8.3750146947073016E+00
Ga    1.0855748649806231E-03    7.1219159738200957E-04    1.0432269708894214E+01
N    2.4134378790549400E-03    1.8706158397122488E+00    1.0959269153108712E+01
Ga    6.1652695524332200E-03    1.8706617632841493E+00    1.3072404935927530E+01
N    4.8406513964125153E-03   -2.5227334731230473E-03    1.3397898253450084E+01
Ga   -1.6510990401790318E+00    2.8306654527241628E+00    2.9839004711861072E-01
N   -1.6397541490748553E+00    4.7025573119776221E+00    5.5561635007845089E-01
Ga   -1.6600688519743714E+00    4.7018096008364205E+00    2.6084617262114267E+00
N   -1.6389853430909480E+00    2.8125912074921611E+00    3.1630017686501590E+00
Ga   -1.6358556702480609E+00    2.8127672612608974E+00    5.2300499504565447E+00
N   -1.6234114081396680E+00    4.6826496788594101E+00    5.7842869630287552E+00
Ga   -1.6240502756982997E+00    4.6841882165770263E+00    7.8317698488520211E+00
N   -1.6224924414685400E+00    2.8094454816473324E+00    8.3812880692957688E+00
Ga   -1.6181676248050292E+00    2.8088031313355866E+00    1.0436883329789559E+01
N   -1.6192839491137194E+00    4.6832431482924433E+00    1.0956081791634233E+01
Ga   -1.6154628629344185E+00    4.6810896881661233E+00    1.3069036189810825E+01
N   -1.6157953329768668E+00    2.8083281393119930E+00    1.3395833503932453E+01
Ga   -3.2659265628041116E+00    5.6091280652487994E+00   -6.6062643399952248E-01
N   -3.2382014626065900E+00    7.4708964152863926E+00    5.5567625279794786E-01
Ga   -3.2489858654392925E+00    7.4542162822490265E+00    2.6089431205351490E+00
N   -3.2487213587944139E+00    5.6194336766158814E+00    3.2193067555744359E+00
Ga   -3.2533709786763576E+00    5.6171081676291381E+00    5.2398262049402025E+00
N   -3.2470963912321182E+00    7.4956838004964537E+00    5.7845809143194513E+00
Ga   -3.2470235063232384E+00    7.4952989265114356E+00    7.8327598645501952E+00
N   -3.2483055965526497E+00    5.6207354390146067E+00    8.3822062028091082E+00
Ga   -3.2446467480585537E+00    5.6203100275410627E+00    1.0438081677194914E+01
N   -3.2456477810650557E+00    7.4959336736170652E+00    1.0956248210859838E+01
Ga   -3.2423482241706050E+00    7.4943060901440433E+00    1.3066829202605396E+01
N   -3.2394442182438676E+00    5.6194088600862928E+00    1.3382790092388822E+01
Ga   -4.8649449241599285E+00    8.3971408600544262E+00    2.9853403441620308E-01
N   -4.8779213608866723E+00    1.0311578806344265E+01    5.0911564470790538E-01
Ga   -4.8580825409210897E+00    1.0300178433160566E+01    2.7141495172350352E+00
N   -4.8748311338773025E+00    8.4169368436324650E+00    3.1628091573305270E+00
Ga   -4.8729770804548913E+00    8.4196997191082872E+00    5.2305582902279069E+00
N   -4.8666701857108254E+00    1.0305111083165801E+01    5.7601395078342357E+00
Ga   -4.8669802987282136E+00    1.0305971686266373E+01    7.8229260923242006E+00
N   -4.8702662484662440E+00    8.4343488902663157E+00    8.3807568152530418E+00
Ga   -4.8681232366457801E+00    8.4336643552886894E+00    1.0436407442248917E+01
N   -4.8652155923557876E+00    1.0306032356636720E+01    1.0959939634598816E+01
Ga   -4.8621551003171799E+00    1.0302504495452570E+01    1.3074505761251539E+01
N   -4.8623536393012943E+00    8.4303437029492372E+00    1.3405731974857375E+01
Ga   -6.5282144921915748E+00    1.1264366283093066E+01    3.0359719809180502E-01
N   -6.4556261440171312E+00    1.3137106314999855E+01    5.5235939649663546E-01
Ga   -6.4540273837975919E+00    1.3138096814472672E+01    2.6079783756220132E+00
N   -6.4927120886002898E+00    1.1243970552504994E+01    3.1588832408375871E+00
Ga   -6.4962766944437211E+00    1.1246026719147240E+01    5.2294876130179633E+00
N   -6.4907855069167528E+00    1.3116482944977685E+01    5.7797586355346047E+00
Ga   -6.4902566633344252E+00    1.3117740182358844E+01    7.8288824771064673E+00
N   -6.4900758427485759E+00    1.1242652179039066E+01    8.3768107338735636E+00
Ga   -6.4871649723958180E+00    1.1241567554900703E+01    1.0434363874407733E+01
N   -6.4901993042819255E+00    1.3116519828155882E+01    1.0951512633648706E+01
Ga   -6.4887092305373706E+00    1.3114373937423297E+01    1.3061080597138563E+01
N   -6.4873037195716332E+00    1.1240734616296995E+01    1.3384459720975556E+01
Ga    3.2632321057823761E+00    9.2744557235900360E-03   -6.6401890157004961E-01
N    3.2407620556996051E+00    1.8609680457963005E+00    5.4905162424959209E-01
Ga    3.2648841351598001E+00    1.8395052503507823E+00    2.5974641155865479E+00
N    3.2478851953536227E+00    1.1468396019025488E-03    3.2190845944091864E+00
Ga    3.2523211217020140E+00    3.4949681347062858E-03    5.2386839761875370E+00
N    3.2525884778822647E+00    1.8781722857076741E+00    5.7864427280383888E+00
Ga    3.2499427627976845E+00    1.8772517782076461E+00    7.8286420258903870E+00
N    3.2471947221598767E+00    1.0704941725176934E-03    8.3806446371014509E+00
Ga    3.2493223319895050E+00   -2.9438285906342172E-03    1.0435348130125218E+01
N    3.2442652623578887E+00    1.8731628443903592E+00    1.0956093578165236E+01
Ga    3.2476091401140499E+00    1.8718935883162817E+00    1.3063340069238780E+01
N    3.2494528763120929E+00   -2.3934804080782586E-03    1.3380995155999504E+01
Ga    1.6516814995501283E+00    2.8307028660318485E+00    2.9875189445786127E-01
N    1.6403419023690740E+00    4.7025437977857507E+00    5.5611443935482952E-01
Ga    1.6602851649666106E+00    4.7016137095830706E+00    2.6091757509356541E+00
N    1.6395377284316930E+00    2.8123466410395781E+00    3.1630383478519200E+00
Ga    1.6362799851940344E+00    2.8127579626240107E+00    5.2308484834828803E+00
N    1.6234905223128471E+00    4.6829084590150059E+00    5.7830402912150012E+00
Ga    1.6239970035326110E+00    4.6840230660149871E+00    7.8307456813633074E+00
N    1.6216703900839493E+00    2.8096183179873324E+00    8.3778170405619878E+00
Ga    1.6209424527355436E+00    2.8105513096930190E+00    1.0432894015504679E+01
N    1.6253545305427406E+00    4.6819186041508756E+00    1.0957003897700922E+01
Ga    1.6277776853444339E+00    4.6819633486909602E+00    1.3069516500142711E+01
N    1.6265585605763917E+00    2.8095819106756132E+00    1.3399219546583819E+01
Ga    3.2354975183427378E-04    5.5878684962585465E+00    2.9745044254135078E-01
N    1.2658637966069092E-04    7.4951049719141754E+00    5.1567297263461298E-01
Ga    7.9535229826829947E-05    7.4951208402164653E+00    2.7251014487831222E+00
N   -2.1036461139975116E-05    5.6121365641017009E+00    3.1663427337693690E+00
Ga   -4.1690945538822656E-05    5.6106264306419336E+00    5.2351718927110698E+00
N    2.4482302122487019E-04    7.4954295202720065E+00    5.7642164438182677E+00
Ga   -6.7924655882539893E-04    7.4953510652289772E+00    7.8253328078843198E+00
N   -1.1863642538213495E-04    5.6229929150845042E+00    8.3787362704603208E+00
Ga    3.4761386186580269E-03    5.6203982630669831E+00    1.0436252092656442E+01
N    2.0484053426170819E-03    7.4933968583633996E+00    1.0959757204420402E+01
Ga    7.7127297832310909E-03    7.4920417508109685E+00    1.3073674052363227E+01
N    6.5306974541804296E-03    5.6184979595976099E+00    1.3397520396340349E+01
Ga   -1.6515937618423844E+00    8.4489418512957695E+00    2.9798837732702116E-01
N   -1.5983153785195519E+00    1.0311880255584832E+01    5.5651537588900157E-01
Ga   -1.5889281671108781E+00    1.0329654900521369E+01    2.6093380655488518E+00
N   -1.6305499211717522E+00    8.4367172020778352E+00    3.1665883330338600E+00
Ga   -1.6321287460265528E+00    8.4378677131993296E+00    5.2357853476732119E+00
N   -1.6236861937953726E+00    1.0307342885912364E+01    5.7853639246915973E+00
Ga   -1.6232652188520975E+00    1.0307720792737710E+01    7.8337324252887717E+00
N   -1.6221692658968472E+00    8.4319609763918528E+00    8.3799698334308665E+00
Ga   -1.6207365984852926E+00    8.4315331539141827E+00    1.0438003608941752E+01
N   -1.6218274283334964E+00    1.0305662551624229E+01    1.0956936962287378E+01
Ga   -1.6210829575052998E+00    1.0304150161523458E+01    1.3067284104549648E+01
N   -1.6180039248766964E+00    8.4297101629189175E+00    1.3384741028434235E+01
Ga   -3.2136127742929861E+00    1.1257612091139155E+01    2.9879124969401710E-01
N   -3.2585949561838112E+00    1.3118464764328358E+01    5.4995010504696107E-01
Ga   -3.2653451148955956E+00    1.3150193081987844E+01    2.5983500875101577E+00
N   -3.2355202714711409E+00    1.1256064439941580E+01    3.1636411870285559E+00
Ga   -3.2368231804806338E+00    1.1253362872203180E+01    5.2312754839285445E+00
N   -3.2383071100292895E+00    1.3119966095673938E+01    5.7864131977592406E+00
Ga   -3.2394986572348312E+00    1.3119340317402145E+01    7.8288574467916137E+00
N   -3.2479815191936732E+00    1.1244057349486935E+01    8.3808852741044859E+00
Ga   -3.2456441699122158E+00    1.1242735777720194E+01    1.0437386174728179E+01
N   -3.2426340489327865E+00    1.3114477380486289E+01    1.0964240526846117E+01
Ga   -3.2377269402070543E+00    1.3112422897140968E+01    1.3079827431483155E+01
N   -3.2402421621802167E+00    1.1239335516334760E+01    1.3407142520645387E+01
Ga    6.4939117893856224E+00    8.2826073374406685E-04    2.8122066538615265E-01
N    6.4911179551050502E+00    1.8730239197495913E+00    5.4555580316791530E-01
Ga    6.5224461939387304E+00    1.8913833784906471E+00    2.5882702844832068E+00
N    6.4949289377930413E+00    2.2784627531996040E-03    3.1661637301521584E+00
Ga    6.4959923187367306E+00    5.6463082307027816E-03    5.2119833025332980E+00
N    6.4903127139314085E+00    1.8732881866524138E+00    5.7863194817228987E+00
Ga    6.4924700164854396E+00    1.8735222193824326E+00    7.8254335520151779E+00
N    6.4909507964988311E+00    2.9622879962444945E-03    8.3936469027873688E+00
Ga    6.4924349881788830E+00    4.9103622365082196E-04    1.0444003669068266E+01
N    6.4977279913669115E+00    1.8730901256873200E+00    1.0971924626841172E+01
Ga    6.5010477168831740E+00    1.8680055484759901E+00    1.3085967334160591E+01
N    6.4961563031488394E+00   -4.3438804268276631E-03    1.3416534993597340E+01
Ga    4.8711497296493764E+00    2.8111881319360639E+00    2.7973965489695829E-01
N    4.8578379970512495E+00    4.6902384104849073E+00    5.4068456991166647E-01
Ga    4.8456194688610488E+00    4.6975287350626909E+00    2.5892294717918740E+00
N    4.8724580526126449E+00    2.8124148036942977E+00    3.1651531483763291E+00
Ga    4.8760778712933694E+00    2.8116411801802252E+00    5.2104999206275648E+00
N    4.8752812440564117E+00    4.6805935585303873E+00    5.7878075168308136E+00
Ga    4.8733228061694236E+00    4.6819734126337851E+00    7.8275511025384397E+00
N    4.8706514660880247E+00    2.8105998336593960E+00    8.3927593223591206E+00
Ga    4.8737213945814757E+00    2.8076420039345602E+00    1.0442262890321535E+01
N    4.8683934395397586E+00    4.6849976262234962E+00    1.0959813241903941E+01
Ga    4.8713956981593514E+00    4.6833839712483485E+00    1.3065663756865037E+01
N    4.8726533873690565E+00    2.8073810188268831E+00    1.3380899317073458E+01
Ga    3.2658062281133984E+00    5.6095739062045391E+00   -6.6003213452341414E-01
N    3.2385395806953490E+00    7.4708828017249758E+00    5.5625027063950472E-01
Ga    3.2494932529918854E+00    7.4541909054096296E+00    2.6093384819977903E+00
N    3.2492335011044968E+00    5.6193141815129355E+00    3.2192895160765409E+00
Ga    3.2534834622696249E+00    5.6169839920977260E+00    5.2398945864046036E+00
N    3.2474355974315836E+00    7.4957074414151927E+00    5.7839250319090585E+00
Ga    3.2473071589315676E+00    7.4948457325385007E+00    7.8317598111370277E+00
N    3.2475267149587697E+00    5.6204150291718831E+00    8.3799913555965322E+00
Ga    3.2447250399745200E+00    5.6222015242427705E+00    1.0434951936377196E+01
N    3.2497206670655703E+00    7.4952729122292361E+00    1.0956332636412801E+01
Ga    3.2517965108703129E+00    7.4937084616098870E+00    1.3069105353765835E+01
N    3.2488585195473503E+00    5.6206421058640359E+00    1.3395582741279446E+01
Ga    1.6518974675809983E+00    8.4486797616804736E+00    2.9808740177864601E-01
N    1.5985471804787916E+00    1.0311616292156158E+01    5.5622814602534765E-01
Ga    1.5889533960111888E+00    1.0329526569873433E+01    2.6091474792482483E+00
N    1.6307811262551544E+00    8.4366749439294768E+00    3.1665433890258865E+00
Ga    1.6323350166682016E+00    8.4375197473091177E+00    5.2352206411699358E+00
N    1.6244924058140593E+00    1.0307425955166741E+01    5.7847534887625907E+00
Ga    1.6223248687116691E+00    1.0307945499129447E+01    7.8318548014545950E+00
N    1.6209734214230689E+00    8.4322720277248155E+00    8.3804168540486739E+00
Ga    1.6255040502666860E+00    8.4298069803780553E+00    1.0437807084743667E+01
N    1.6257267598929905E+00    1.0305780700100966E+01    1.0957171517527412E+01
Ga    1.6301954879201364E+00    1.0301248168581736E+01    1.3071176311729600E+01
N    1.6294223299836650E+00    8.4286174069760467E+00    1.3399993676699994E+01
Ga   -6.6064911181532200E-05    1.1266691656224145E+01   -6.5961986738183331E-01
N    4.1762549525105038E-04    1.3103822200704004E+01    5.4298671305873780E-01
Ga    3.9924286415496949E-04    1.3090183753213157E+01    2.5913555436320999E+00
N    1.4326324356396896E-04    1.1246409903535429E+01    3.2203984558495882E+00
Ga   -1.2456895118245558E-04    1.1251904398954506E+01    5.2408294895110892E+00
N    3.9782757970906608E-04    1.3123909850345335E+01    5.7887918436060994E+00
Ga   -8.5117022330964643E-04    1.3123426387174080E+01    7.8291804256032371E+00
N   -2.2947691250272713E-04    1.1246415904810418E+01    8.3826524243544807E+00
Ga    9.4531356777717362E-04    1.1244198973347618E+01    1.0438604236770775E+01
N    1.5922621223029433E-03    1.3116510080054804E+01    1.0965313904235058E+01
Ga    2.0662326119606019E-03    1.3115667630277800E+01    1.3072647310665605E+01
N    3.8357655238009324E-03    1.1239327516446796E+01    1.3383042565038137E+01
Ga    9.7349205018035772E+00    7.1089284366335919E-04    2.8119601635995717E-01
N    9.7377295021522237E+00    1.8727453141036770E+00    5.4634118109668706E-01
Ga    9.7063295310394597E+00    1.8913098115047613E+00    2.5889127532653387E+00
N    9.7338266189804390E+00    2.0434981795217494E-03    3.1664836353108856E+00
Ga    9.7324300537992592E+00    5.7216915450885742E-03    5.2122969276582802E+00
N    9.7383157458674479E+00    1.8729768788211250E+00    5.7871416384846546E+00
Ga    9.7368902582684367E+00    1.8744100402157906E+00    7.8269748650909419E+00
N    9.7355386798354395E+00    1.8012824067613110E-03    8.3908357474893016E+00
Ga    9.7369128714042539E+00    6.3756001500577734E-04    1.0439867025635392E+01
N    9.7383279257721789E+00    1.8727801533848618E+00    1.0965091667843252E+01
Ga    9.7396975171683309E+00    1.8734172390523192E+00    1.3069788388826277E+01
N    9.7414450891103375E+00   -1.9963829145260869E-03    1.3387379550465431E+01
Ga    8.1147709411311464E+00    2.8092546476909894E+00   -6.5250068496145308E-01
N    8.1141777915848809E+00    4.6846923218064713E+00    5.4487758885970128E-01
Ga    8.1142373678650248E+00    4.6485924538827819E+00    2.5875901704426103E+00
N    8.1142486199209163E+00    2.8105601564966425E+00    3.2101580452588414E+00
Ga    8.1144301706405653E+00    2.8105980826003276E+00    5.2276803024904401E+00
N    8.1140655136028439E+00    4.6858452634805339E+00    5.7858233579463905E+00
Ga    8.1143524444484907E+00    4.6841312342429253E+00    7.8248889125349725E+00
N    8.1132729853637109E+00    2.8114594506182380E+00    8.3878021767016424E+00
Ga    8.1162733889958094E+00    2.8099173486859592E+00    1.0438325623663205E+01
N    8.1175268985618612E+00    4.6806871965814700E+00    1.0971158084807948E+01
Ga    8.1232569601018394E+00    4.6796772979891132E+00    1.3085112600963793E+01
N    8.1213228483411743E+00    2.8073569979785153E+00    1.3420035267697290E+01
Ga    6.4916169582089847E+00    5.6183089289089381E+00    2.7898500195199261E-01
N    6.4994642448375872E+00    7.5054483066065050E+00    5.4865986735143801E-01
Ga    6.5303941935575605E+00    7.4954954807509697E+00    2.5970892272863613E+00
N    6.4916036340310530E+00    5.6169049919456562E+00    3.1650064200001236E+00
Ga    6.4941943618360245E+00    5.6146038431531720E+00    5.2105055089852117E+00
N    6.4909925384051084E+00    7.4872152799330314E+00    5.7864922499088163E+00
Ga    6.4911778951593089E+00    7.4900625347918695E+00    7.8290386320026517E+00
N    6.4921525087330281E+00    5.6196033631027538E+00    8.3919597280636697E+00
Ga    6.4962673806491056E+00    5.6192374034922992E+00    1.0441235592224782E+01
N    6.4937638907519259E+00    7.4956678754714678E+00    1.0956047680260980E+01
Ga    6.4939397637014489E+00    7.4954459610734965E+00    1.3063372627014465E+01
N    6.4956658210755576E+00    5.6202353645694050E+00    1.3382631813025037E+01
Ga    4.8651870453273833E+00    8.3969611799747099E+00    2.9848969143215393E-01
N    4.8784462080373450E+00    1.0311308475625960E+01    5.0917949265041307E-01
Ga    4.8588193209494008E+00    1.0299923687961053E+01    2.7146479524953597E+00
N    4.8753266398909973E+00    8.4167181329874907E+00    3.1633344127590206E+00
Ga    4.8735709198579231E+00    8.4195234482301267E+00    5.2312030512641314E+00
N    4.8669360372108317E+00    1.0305202926083529E+01    5.7599754708683211E+00
Ga    4.8682524116758996E+00    1.0305156943573195E+01    7.8230754591697842E+00
N    4.8692211631241049E+00    8.4335737739029124E+00    8.3782319640503982E+00
Ga    4.8696507502982787E+00    8.4329119636559984E+00    1.0433721596315612E+01
N    4.8734517714348211E+00    1.0304458691018247E+01    1.0957885409234610E+01
Ga    4.8748821735967542E+00    1.0302657586885909E+01    1.3070896441457714E+01
N    4.8725385252892268E+00    8.4302819555419060E+00    1.3401106007675486E+01
Ga    3.2140385852119056E+00    1.1257194278700450E+01    2.9960372240113009E-01
N    3.2593857889301097E+00    1.3118188010066318E+01    5.4957967792113649E-01
Ga    3.2659948247232222E+00    1.3150229421106264E+01    2.5980928447262590E+00
N    3.2358456523826735E+00    1.1255965179796155E+01    3.1630915295766742E+00
Ga    3.2375658799892637E+00    1.1253268628380368E+01    5.2302111018899620E+00
N    3.2392812050408781E+00    1.3119656046585296E+01    5.7870410301515607E+00
Ga    3.2403379671096579E+00    1.3119611041091229E+01    7.8288207012796187E+00
N    3.2470002539203011E+00    1.1243436504655323E+01    8.3811661422174808E+00
Ga    3.2509745384742126E+00    1.1240020000117951E+01    1.0437025897813212E+01
N    3.2481707889081433E+00    1.3114924796180770E+01    1.0958786658388556E+01
Ga    3.2528744726152810E+00    1.3113372649180548E+01    1.3070482120131944E+01
N    3.2522367575469477E+00    1.1239322753926958E+01    1.3396264112272782E+01
Ga    1.2965821279701712E+01    9.4037768731927984E-03   -6.6428139235298023E-01
N    1.2987790781509696E+01    1.8611135518278690E+00    5.4944523214932817E-01
Ga    1.2963560460207914E+01    1.8395104750174667E+00    2.5976131360718693E+00
N    1.2980469323759724E+01    1.0918296823023924E-03    3.2193272772072583E+00
Ga    1.2976620670623188E+01    3.4131275027041450E-03    5.2387186245299846E+00
N    1.2976695933892099E+01    1.8778494363249911E+00    5.7865892296644477E+00
Ga    1.2977432713905580E+01    1.8776259864765603E+00    7.8283788163034522E+00
N    1.2980879129451690E+01    1.1244143954390574E-03    8.3817710410509623E+00
Ga    1.2987001461044775E+01   -2.2041811742309794E-03    1.0435985495958041E+01
N    1.2984723654691338E+01    1.8725065940000181E+00    1.0959499073841521E+01
Ga    1.2990437045056012E+01    1.8705077704985660E+00    1.3070541255941412E+01
N    1.2989579575830343E+01   -3.4165190718115613E-03    1.3395346652115483E+01
Ga    1.1357376827431258E+01    2.8112589146548452E+00    2.7994868232022824E-01
N    1.1370546810443948E+01    4.6901971524719608E+00    5.4153867939806166E-01
Ga    1.1382499237015210E+01    4.6972990479991390E+00    2.5901931458342000E+00
N    1.1356158417291901E+01    2.8122222653027995E+00    3.1661207247923642E+00
Ga    1.1352520257032008E+01    2.8117683675071259E+00    5.2120389020619555E+00
N    1.1353586907116179E+01    4.6809563255525148E+00    5.7880176502348109E+00
Ga    1.1353931183688024E+01    4.6820478690441165E+00    7.8285350387319452E+00
N    1.1357613776412810E+01    2.8110916450821080E+00    8.3906026197914034E+00
Ga    1.1359178359843597E+01    2.8102709858010089E+00    1.0439759200182706E+01
N    1.1360267919651033E+01    4.6848294236377228E+00    1.0962108403772620E+01
Ga    1.1362908444047259E+01    4.6840130268022167E+00    1.3068505378115294E+01
N    1.1365023695462600E+01    2.8094185547506187E+00    1.3385765073703833E+01
Ga    9.7368518261270474E+00    5.6183183315501175E+00    2.7929683397160043E-01
N    9.7287081339574932E+00    7.5055789432921367E+00    5.4854921151942038E-01
Ga    9.6977762384028949E+00    7.4955800812464801E+00    2.5971944719768727E+00
N    9.7364824482509693E+00    5.6170340583230134E+00    3.1653646423178281E+00
Ga    9.7343202888397862E+00    5.6146071038667902E+00    5.2113556241919650E+00
N    9.7378324963351925E+00    7.4877020519396700E+00    5.7857949746826307E+00
Ga    9.7372201476516516E+00    7.4897599656515688E+00    7.8281147669206899E+00
N    9.7342078917702022E+00    5.6206700314932236E+00    8.3915474592991330E+00
Ga    9.7370042045428349E+00    5.6210415167387753E+00    1.0440992989584270E+01
N    9.7404962157565471E+00    7.4943855948240721E+00    1.0962988912632143E+01
Ga    9.7445630993274168E+00    7.4921885926740162E+00    1.3076946831724902E+01
N    9.7431929324209730E+00    5.6196873494692463E+00    1.3412033256592030E+01
Ga    8.1141144159446128E+00    8.4127570182918117E+00   -6.6454827255527782E-01
N    8.1141204744553139E+00    1.0265076096876511E+01    5.5244045638925254E-01
Ga    8.1141871248661968E+00    1.0263274118347180E+01    2.6080731590352113E+00
N    8.1140334472597537E+00    8.4294090247606022E+00    3.2186871365943626E+00
Ga    8.1141888630272057E+00    8.4247212562483611E+00    5.2384094431452439E+00
N    8.1144651681124245E+00    1.0306093211849626E+01    5.7794294438111935E+00
Ga    8.1138725720432738E+00    1.0305052093438110E+01    7.8285699290791158E+00
N    8.1140587599065537E+00    8.4312927961969653E+00    8.3802668036583157E+00
Ga    8.1181916096717490E+00    8.4313242057712312E+00    1.0434965649576263E+01
N    8.1152016667767306E+00    1.0306922482965559E+01    1.0951946732443449E+01
Ga    8.1177617809888929E+00    1.0305216244273748E+01    1.3061868943052808E+01
N    8.1182633831977924E+00    8.4310365615536167E+00    1.3382706153658077E+01
Ga    6.5284857753834524E+00    1.1264263287428344E+01    3.0347452728299940E-01
N    6.4561404798132518E+00    1.3136901777159437E+01    5.5282618824409313E-01
Ga    6.4546169884986933E+00    1.3137946998113923E+01    2.6083224565360124E+00
N    6.4932376781328616E+00    1.1243861464850701E+01    3.1594396531384947E+00
Ga    6.4968031143640257E+00    1.1246169036271683E+01    5.2304844411074987E+00
N    6.4916360671012576E+00    1.3116770698183030E+01    5.7798383966067473E+00
Ga    6.4911111153800505E+00    1.3117421658727842E+01    7.8290577726272756E+00
N    6.4893969014070869E+00    1.1242807711497159E+01    8.3747100430294257E+00
Ga    6.4914609930958749E+00    1.1243222968466426E+01    1.0431761221968767E+01
N    6.4959601379913119E+00    1.3114724458110175E+01    1.0954551651828517E+01
Ga    6.4979983220006572E+00    1.3113604356704306E+01    1.3068495962919188E+01
N    6.4956629420386598E+00    1.1240971485003895E+01    1.3398853647628545E+01
     &END COORD
     &KIND N
       BASIS_SET DZVP-MOLOPT-SR-GTH
       POTENTIAL GTH-PBE-q5
       &POTENTIAL
 2 3
  0.2837905100000000E+00 2 -0.1241522559000000E+02  0.1868095920000000E+01
 2
  0.2554050000000000E+00 1  0.1363026257000000E+02
  0.2454945300000000E+00 0
         # Potential name:  GTH-PBE-Q5  for symbol:  N
         # Potential read from the potential filename: GTH_POTENTIALS
       &END POTENTIAL
     &END KIND
     &KIND Ga
       BASIS_SET DZVP-MOLOPT-SR-GTH
       POTENTIAL GTH-PBE-q13
       &POTENTIAL
 2 1 10
  0.4900000000000000E+00 0
 3
  0.4167772300000000E+00 3  0.1047568975000000E+02 -0.4921768140000000E+01  0.8707055900000000E+00
  0.7770178090000000E+01 -0.2248152160000000E+01
  0.1784415450000000E+01
  0.5696265200000000E+00 2  0.1777985340000000E+01  0.1958597600000000E+00
 -0.2317443900000000E+00
  0.2381265000000000E+00 1 -0.1624868022000000E+02
         # Potential name:  GTH-PBE-Q13  for symbol:  GA
         # Potential read from the potential filename: GTH_POTENTIALS
       &END POTENTIAL
     &END KIND
     &TOPOLOGY
       COORD_FILE_NAME start.xyz
       COORD_FILE_FORMAT  XYZ
       NUMBER_OF_ATOMS  300
       MULTIPLE_UNIT_CELL  1 1 1
     &END TOPOLOGY
   &END SUBSYS
 &END FORCE_EVAL
