 # Version information for this restart file 
 # current date 2019-05-24 17:16:50.854
 # current working dir /lustre03/project/6004141/rzk/GaN-carbene/00-Surface/00-Preoptimization/554-native
 # Program compiled at                              Sun Apr  7 00:48:11 EDT 2019
 # Program compiled on                          beluga2.int.ets1.calculquebec.ca
 # Program compiled for                        Beluga-Linux-x86-64-intel-openmpi
 # Source code revision number                                         svn:18619
 &GLOBAL
   PRINT_LEVEL  MEDIUM
   PROJECT_NAME TEST
   RUN_TYPE  GEO_OPT
 &END GLOBAL
 &MOTION
   &GEO_OPT
     MAX_ITER  500
     STEP_START_VAL  32
   &END GEO_OPT
 &END MOTION
 &FORCE_EVAL
   METHOD  QS
   STRESS_TENSOR  ANALYTICAL
   &DFT
     BASIS_SET_FILE_NAME BASIS_MOLOPT
     POTENTIAL_FILE_NAME GTH_POTENTIALS
     &SCF
       MAX_SCF  100
       EPS_SCF     5.0000000000000004E-06
       &OT  T
         PRECONDITIONER  FULL_ALL
       &END OT
       &OUTER_SCF  T
         OPTIMIZER  NONE
         EPS_SCF     5.0000000000000004E-06
         MAX_SCF  4
       &END OUTER_SCF
       &PRINT
         &RESTART  OFF
           BACKUP_COPIES  1
           &EACH
             JUST_ENERGY  0
             QS_SCF  0
             MD  20
           &END EACH
         &END RESTART
       &END PRINT
     &END SCF
     &QS
       EPS_DEFAULT     1.0000000000000000E-14
       METHOD  GPW
     &END QS
     &MGRID
       NGRIDS  5
       CUTOFF     1.2000000000000000E+03
     &END MGRID
     &XC
       DENSITY_CUTOFF     1.0000000000000000E-10
       GRADIENT_CUTOFF     1.0000000000000000E-10
       TAU_CUTOFF     1.0000000000000000E-10
       &XC_FUNCTIONAL  NO_SHORTCUT
         &PBE  T
         &END PBE
       &END XC_FUNCTIONAL
       &VDW_POTENTIAL
         POTENTIAL_TYPE  PAIR_POTENTIAL
         &PAIR_POTENTIAL
           R_CUTOFF     1.0000000000000002E+01
           TYPE  DFTD3
           PARAMETER_FILE_NAME dftd3.dat
           REFERENCE_FUNCTIONAL PBE
           EPS_CN     9.9999999999999995E-07
           CALCULATE_C9_TERM  T
           REFERENCE_C9_TERM  T
           LONG_RANGE_CORRECTION  F
           VERBOSE_OUTPUT  F
         &END PAIR_POTENTIAL
       &END VDW_POTENTIAL
     &END XC
   &END DFT
   &SUBSYS
     &CELL
       A     1.6227942226066915E+01    0.0000000000000000E+00    0.0000000000000000E+00
       B    -8.1139711130334540E+00    1.4053810218920143E+01    0.0000000000000000E+00
       C     0.0000000000000000E+00    0.0000000000000000E+00    2.9000000000000000E+01
       MULTIPLE_UNIT_CELL  1 1 1
     &END CELL
     &COORD
Ga    3.2982684687838802E-04   -4.3361995992752540E-02    3.0406834753269979E-01
N    2.3090767900266313E-04    1.8619826812380551E+00    5.0924123898344631E-01
Ga    3.1653926171831115E-04    1.8849060787654273E+00    2.7145832452065619E+00
N    1.9584275046462648E-04   -2.3710084105072714E-03    3.1600949185513123E+00
Ga    1.5767425898046051E-04   -6.3523909985122202E-03    5.2310827191718428E+00
N   -4.2184673829106172E-06    1.8756137882390758E+00    5.7605452649579743E+00
Ga    3.0781161779350246E-04    1.8749776777175302E+00    7.8233856021206947E+00
N   -3.4765083248121192E-04    2.5322277277660282E-03    8.3764279770492625E+00
Ga    6.3874420031260462E-04    1.1179821606085939E-03    1.0433790623021599E+01
N    3.8478870430159197E-03    1.8715043224726435E+00    1.0959319547403430E+01
Ga    5.9234647492802375E-03    1.8710187638987357E+00    1.3072920652525207E+01
N    3.9750262540543127E-03   -1.8889187495086919E-03    1.3399938549767221E+01
Ga   -1.6512243065719454E+00    2.8305788930011531E+00    2.9853867858260430E-01
N   -1.6395548030407610E+00    4.7024840188445856E+00    5.5595226872331471E-01
Ga   -1.6599009856642430E+00    4.7017359472880109E+00    2.6088290675178545E+00
N   -1.6389508357902920E+00    2.8124604349672500E+00    3.1633585027551470E+00
Ga   -1.6357901343000161E+00    2.8126625154076113E+00    5.2305209064894678E+00
N   -1.6233844723589050E+00    4.6825793171881616E+00    5.7848633357825250E+00
Ga   -1.6243734331546251E+00    4.6844316637724335E+00    7.8323318589873701E+00
N   -1.6225614814114269E+00    2.8094483600426745E+00    8.3826534993826325E+00
Ga   -1.6181249896186185E+00    2.8086948149255568E+00    1.0438008178436416E+01
N   -1.6205951790764146E+00    4.6836698652487563E+00    1.0956827425510516E+01
Ga   -1.6150808433102095E+00    4.6806778082722227E+00    1.3070132308002375E+01
N   -1.6164594077870813E+00    2.8079853687661265E+00    1.3396527572559565E+01
Ga   -3.2657258753635579E+00    5.6090602660711637E+00   -6.6005721446120347E-01
N   -3.2379177878382066E+00    7.4711511232013876E+00    5.5577344397469997E-01
Ga   -3.2487085204915616E+00    7.4541547399214521E+00    2.6089928217608485E+00
N   -3.2485464617248452E+00    5.6195900962222955E+00    3.2194709549477740E+00
Ga   -3.2533350069035682E+00    5.6173917999029435E+00    5.2400814099414523E+00
N   -3.2472332598380724E+00    7.4957651935740266E+00    5.7853581236622285E+00
Ga   -3.2468411031505506E+00    7.4955172385736946E+00    7.8334521416162906E+00
N   -3.2484868863615364E+00    5.6208663691639540E+00    8.3822065359032418E+00
Ga   -3.2450655576805896E+00    5.6208794455232240E+00    1.0438141288001137E+01
N   -3.2451757480130441E+00    7.4962638551376140E+00    1.0956593963514907E+01
Ga   -3.2427097333197854E+00    7.4953596477357509E+00    1.3067012753390200E+01
N   -3.2400441741218295E+00    5.6197361711425193E+00    1.3381177240048295E+01
Ga   -4.8648300994920817E+00    8.3973124532443357E+00    2.9841244192258176E-01
N   -4.8779345329009649E+00    1.0311833737877548E+01    5.0892555693445185E-01
Ga   -4.8579598578532996E+00    1.0300231084018643E+01    2.7139476861420246E+00
N   -4.8747294942422714E+00    8.4169802269122460E+00    3.1628893385203654E+00
Ga   -4.8728024310452849E+00    8.4198928647490856E+00    5.2308540621262187E+00
N   -4.8665765660291207E+00    1.0305249073076959E+01    5.7610899082640374E+00
Ga   -4.8670328926300472E+00    1.0306097209936819E+01    7.8236608919963260E+00
N   -4.8704261862790776E+00    8.4344268726840923E+00    8.3812854868420334E+00
Ga   -4.8679746580991390E+00    8.4340436971134594E+00    1.0436858921045836E+01
N   -4.8661665112232209E+00    1.0305649116782291E+01    1.0961102219912819E+01
Ga   -4.8619487023518557E+00    1.0302666560990943E+01    1.3076639444512233E+01
N   -4.8625528391440254E+00    8.4298850088571555E+00    1.3407407530944328E+01
Ga   -6.5281726170628191E+00    1.1264441025780863E+01    3.0365717026062100E-01
N   -6.4553311425838569E+00    1.3137160461139514E+01    5.5297409724147073E-01
Ga   -6.4539986164881267E+00    1.3138198420945063E+01    2.6085220034926162E+00
N   -6.4925230801701419E+00    1.1243826213883921E+01    3.1593950760365526E+00
Ga   -6.4961165746006424E+00    1.1246010728485954E+01    5.2300345711048397E+00
N   -6.4910983961074979E+00    1.3116360650350545E+01    5.7806356446991716E+00
Ga   -6.4905832163076393E+00    1.3117668531158634E+01    7.8298889353008487E+00
N   -6.4902827115004396E+00    1.1242488253652692E+01    8.3774369560216080E+00
Ga   -6.4876089440101659E+00    1.1241322001944692E+01    1.0435271696839719E+01
N   -6.4905429313841241E+00    1.3116233020843335E+01    1.0952660352802397E+01
Ga   -6.4894566047825455E+00    1.3115563529143106E+01    1.3062250033960080E+01
N   -6.4880291030066859E+00    1.1241389792496459E+01    1.3384532159953777E+01
Ga    3.2633233230188656E+00    9.1972514136653815E-03   -6.6378539464462138E-01
N    3.2407036057167908E+00    1.8606956559918428E+00    5.4965463313195617E-01
Ga    3.2646900629828091E+00    1.8391941331614863E+00    2.5982428355050384E+00
N    3.2477648877711696E+00    1.1352459704843036E-03    3.2201320424326623E+00
Ga    3.2519075156426100E+00    3.4473006703660465E-03    5.2397777129303300E+00
N    3.2524067358266575E+00    1.8781679018567745E+00    5.7871459747166387E+00
Ga    3.2501048598763558E+00    1.8771105895343101E+00    7.8296320724758690E+00
N    3.2467174278341817E+00    8.3786061157513077E-04    8.3808944731718533E+00
Ga    3.2488150326587606E+00   -2.1052965197948669E-03    1.0435805280642509E+01
N    3.2451966908421399E+00    1.8729889942900624E+00    1.0956681263600800E+01
Ga    3.2470527188238201E+00    1.8726058890146238E+00    1.3063716764736409E+01
N    3.2487300461251580E+00   -2.0062809536965896E-03    1.3382829506068987E+01
Ga    1.6517482808030366E+00    2.8303450668432379E+00    2.9886140340611972E-01
N    1.6402308936591479E+00    4.7021387603043978E+00    5.5635369164095383E-01
Ga    1.6602235146725142E+00    4.7013759295727144E+00    2.6095551972807178E+00
N    1.6393092437306211E+00    2.8121605026650278E+00    3.1634858131217194E+00
Ga    1.6361531608660418E+00    2.8126417511151880E+00    5.2315025804723208E+00
N    1.6232683411960303E+00    4.6828466716575434E+00    5.7833781690841155E+00
Ga    1.6238246467410433E+00    4.6840682737217723E+00    7.8313430729660700E+00
N    1.6220007714948066E+00    2.8098704923590287E+00    8.3781805258625184E+00
Ga    1.6221444194696111E+00    2.8104561047502532E+00    1.0433418440648666E+01
N    1.6253743621793086E+00    4.6818971432805796E+00    1.0957376259988093E+01
Ga    1.6273883289958089E+00    4.6820426225548513E+00    1.3070132215298193E+01
N    1.6265937532948143E+00    2.8095391664282223E+00    1.3401836563073712E+01
Ga    4.5096102168585677E-04    5.5878606559835715E+00    2.9770090621447171E-01
N    2.7680903715527147E-04    7.4951549588707254E+00    5.1571381875819322E-01
Ga    2.6324643206322739E-04    7.4951790746476581E+00    2.7253137747182468E+00
N    5.1888048496794808E-06    5.6122068709693833E+00    3.1664662450543295E+00
Ga   -1.1653403968721637E-04    5.6107381706383652E+00    5.2354429974420844E+00
N    2.7833618716585868E-05    7.4952184748462489E+00    5.7649013550507311E+00
Ga   -3.4429521272755562E-04    7.4954064662774593E+00    7.8259766921631684E+00
N   -4.1239386477582690E-04    5.6229937021854175E+00    8.3803303085851812E+00
Ga    3.0822305788417801E-03    5.6201222268215609E+00    1.0437921633732115E+01
N    2.5480129324229402E-03    7.4939230758544193E+00    1.0959705944284648E+01
Ga    7.6219105099959005E-03    7.4916906360539839E+00    1.3073766314957551E+01
N    5.9962916357589663E-03    5.6183885214938920E+00    1.3397978973952966E+01
Ga   -1.6513938244779482E+00    8.4490213975974306E+00    2.9796483322460743E-01
N   -1.5983870375338034E+00    1.0311723179499173E+01    5.5717744648147960E-01
Ga   -1.5890357948821374E+00    1.0329593366664655E+01    2.6095677853908912E+00
N   -1.6305842660106076E+00    8.4366983665782023E+00    3.1673034208613200E+00
Ga   -1.6322228951684512E+00    8.4378775118378151E+00    5.2364434651034228E+00
N   -1.6240726377831174E+00    1.0307301602952395E+01    5.7866592188941670E+00
Ga   -1.6235885768411247E+00    1.0307957613045948E+01    7.8351260959501747E+00
N   -1.6216957307197171E+00    8.4320164020672053E+00    8.3807978463537882E+00
Ga   -1.6206208139996954E+00    8.4316890743226107E+00    1.0438686884311499E+01
N   -1.6227075408010256E+00    1.0305558741319246E+01    1.0957706854407107E+01
Ga   -1.6204128057340768E+00    1.0304492674546340E+01    1.3068467001886500E+01
N   -1.6176557431741949E+00    8.4297784375612643E+00    1.3386242968480515E+01
Ga   -3.2134482219470901E+00    1.1257929635992358E+01    2.9928701733941510E-01
N   -3.2585493769580562E+00    1.3118605644485699E+01    5.5084535036440130E-01
Ga   -3.2654205579432256E+00    1.3150222826567109E+01    2.5994469094222037E+00
N   -3.2357040183882742E+00    1.1255948178826779E+01    3.1639688481322943E+00
Ga   -3.2368686953236878E+00    1.1253216059492775E+01    5.2315880444294143E+00
N   -3.2384499344462223E+00    1.3119783820262620E+01    5.7868964584857974E+00
Ga   -3.2398139268349504E+00    1.3119504837116599E+01    7.8294469442583452E+00
N   -3.2481853735845685E+00    1.1244521931100865E+01    8.3830376627070446E+00
Ga   -3.2458160607434299E+00    1.1243491365849177E+01    1.0439832855536704E+01
N   -3.2434680471965933E+00    1.3115912979331071E+01    1.0965460441570336E+01
Ga   -3.2380576960832612E+00    1.3112868521423389E+01    1.3081546242081254E+01
N   -3.2402734608216326E+00    1.1239464271433114E+01    1.3406922830107483E+01
Ga    6.4941290301460057E+00    8.0709353574343111E-04    2.8257923184681843E-01
N    6.4912234259088208E+00    1.8729787160957341E+00    5.4618993381425518E-01
Ga    6.5224084947017129E+00    1.8914569604973144E+00    2.5887411317117968E+00
N    6.4947828640953187E+00    2.3766194533248091E-03    3.1669400772354726E+00
Ga    6.4958769437314414E+00    5.6887743778908486E-03    5.2128586648950064E+00
N    6.4902409583477683E+00    1.8732743710057975E+00    5.7872190145034628E+00
Ga    6.4920714936715340E+00    1.8739105838435508E+00    7.8262093143843474E+00
N    6.4910619725564747E+00    2.9783971155025717E-03    8.3938611625194213E+00
Ga    6.4918326254840171E+00    2.4723007481837532E-04    1.0444099103581264E+01
N    6.4968676361386404E+00    1.8725828081884421E+00    1.0971900207509281E+01
Ga    6.5000488013773774E+00    1.8683653173639136E+00    1.3085822425698767E+01
N    6.4960008984929738E+00   -3.9598621778264313E-03    1.3416595560866671E+01
Ga    4.8712939568294633E+00    2.8108353547184435E+00    2.8009400034600707E-01
N    4.8578027301704596E+00    4.6900254660821563E+00    5.4082506925890250E-01
Ga    4.8454858648141546E+00    4.6976203940070960E+00    2.5895256649352145E+00
N    4.8723397180628192E+00    2.8124231981810044E+00    3.1659037561367382E+00
Ga    4.8758915709454858E+00    2.8116751414531578E+00    5.2114463548320638E+00
N    4.8753345876074992E+00    4.6807645507868099E+00    5.7885323290641262E+00
Ga    4.8734127439536374E+00    4.6821323699053261E+00    7.8284785974287114E+00
N    4.8704347079074379E+00    2.8109047248697250E+00    8.3931499456981271E+00
Ga    4.8731936401813565E+00    2.8079336667262611E+00    1.0442730999613792E+01
N    4.8683781189860591E+00    4.6850123526085792E+00    1.0960716878349313E+01
Ga    4.8715249208934415E+00    4.6833412507624823E+00    1.3066796696863394E+01
N    4.8722672634157460E+00    2.8079012807879260E+00    1.3382367298190481E+01
Ga    3.2658172995091928E+00    5.6094140511525197E+00   -6.5995742315977957E-01
N    3.2384836583732843E+00    7.4710297463010580E+00    5.5657304909888328E-01
Ga    3.2494242031480405E+00    7.4540796966552030E+00    2.6097800157290196E+00
N    3.2491583112603863E+00    5.6191867385059462E+00    3.2197205504514321E+00
Ga    3.2533951258564531E+00    5.6169680366332653E+00    5.2404787747049015E+00
N    3.2475605564074383E+00    7.4956133290938896E+00    5.7842781644174357E+00
Ga    3.2472020025794102E+00    7.4947075667605336E+00    7.8321933782411390E+00
N    3.2472626003208558E+00    5.6204236104023275E+00    8.3807981008166976E+00
Ga    3.2452078695326709E+00    5.6223519862645963E+00    1.0436172168358056E+01
N    3.2494326409400407E+00    7.4955370810526345E+00    1.0957277035316947E+01
Ga    3.2504886569081797E+00    7.4936663208753869E+00    1.3070010261063011E+01
N    3.2486073962988158E+00    5.6204801941461193E+00    1.3395033671687257E+01
Ga    1.6518256705463839E+00    8.4488240225514808E+00    2.9816529334729980E-01
N    1.5984956943399986E+00    1.0311619057138550E+01    5.5726190477837589E-01
Ga    1.5888612180975028E+00    1.0329468458421546E+01    2.6101457896428357E+00
N    1.6308808885726718E+00    8.4367289817754560E+00    3.1672573950085621E+00
Ga    1.6321347095518177E+00    8.4374224112806679E+00    5.2362926050930501E+00
N    1.6243475084194194E+00    1.0307489250617108E+01    5.7857084717275153E+00
Ga    1.6224995589315772E+00    1.0307934421661885E+01    7.8331550036015853E+00
N    1.6213701224841710E+00    8.4321834159058859E+00    8.3803554427006439E+00
Ga    1.6254500280569126E+00    8.4304142108225815E+00    1.0437973440914302E+01
N    1.6252435685969948E+00    1.0305296257688974E+01    1.0957885776155143E+01
Ga    1.6293642992962680E+00    1.0301755885595311E+01    1.3072027322867283E+01
N    1.6289853995085672E+00    8.4290056782745424E+00    1.3401236388721339E+01
Ga    1.9608142903702397E-04    1.1267061241467214E+01   -6.5943179752559022E-01
N    6.1877931523872788E-04    1.3103803470736276E+01    5.4420683941983194E-01
Ga    3.7994762261448286E-04    1.3090100652678144E+01    2.5927171613952384E+00
N   -1.0698055498793386E-04    1.1246240892649858E+01    3.2212381399918786E+00
Ga   -4.5052159226386973E-04    1.1251566838125756E+01    5.2418799134766525E+00
N    3.2735017807669240E-04    1.3123929115270228E+01    5.7892655880791155E+00
Ga   -7.0210627777195060E-04    1.3123249008224368E+01    7.8299433795314739E+00
N   -3.2849444117736632E-04    1.1246292394391713E+01    8.3837476139409119E+00
Ga    5.3639447053911553E-04    1.1243593101705532E+01    1.0440010317884321E+01
N    8.5858639840146812E-04    1.3115922204761780E+01    1.0965570537600072E+01
Ga    1.8501905918087455E-03    1.3115900357022474E+01    1.3072927602865779E+01
N    4.2554558431074198E-03    1.1239851538778339E+01    1.3385574754512502E+01
Ga    9.7352555784516905E+00    4.0303774478588712E-04    2.8270064018108176E-01
N    9.7379117799331052E+00    1.8724291319141793E+00    5.4702335396466772E-01
Ga    9.7063085889123073E+00    1.8912008438540262E+00    2.5895517494608029E+00
N    9.7339540139216680E+00    1.9831371083894734E-03    3.1672880437927780E+00
Ga    9.7325094168795889E+00    5.8282129147192155E-03    5.2132780423626928E+00
N    9.7379814613355613E+00    1.8732225897906665E+00    5.7876282389505951E+00
Ga    9.7362724965387049E+00    1.8744528418426829E+00    7.8274293457903248E+00
N    9.7353702317418893E+00    2.2620305723540257E-03    8.3921476231975607E+00
Ga    9.7366055304693653E+00    6.9393394271644775E-04    1.0441652527029687E+01
N    9.7381933566608918E+00    1.8733220572468261E+00    1.0965917294740320E+01
Ga    9.7388569592561112E+00    1.8732324417713522E+00    1.3071029272243871E+01
N    9.7406651235018167E+00   -2.1803250718727455E-03    1.3389084070707899E+01
Ga    8.1148761243345611E+00    2.8091120032434285E+00   -6.5199389447996270E-01
N    8.1142549450957926E+00    4.6847506439568036E+00    5.4514526158972221E-01
Ga    8.1141381721070758E+00    4.6486422970331134E+00    2.5879335782426374E+00
N    8.1141873076642668E+00    2.8105910763215340E+00    3.2105220999019859E+00
Ga    8.1140657978764743E+00    2.8106189475692651E+00    5.2281194634268244E+00
N    8.1139090001700414E+00    4.6858541162640686E+00    5.7861264619316630E+00
Ga    8.1141801969310379E+00    4.6843282337508843E+00    7.8252532978452818E+00
N    8.1128587799021457E+00    2.8118054232913905E+00    8.3891228114116387E+00
Ga    8.1153208797947638E+00    2.8101935072690205E+00    1.0439844360447459E+01
N    8.1185930924931125E+00    4.6810619079758338E+00    1.0971829285420494E+01
Ga    8.1225295618966022E+00    4.6802644319374851E+00    1.3085647625124738E+01
N    8.1200541053677391E+00    2.8077218658542744E+00    1.3419026877650957E+01
Ga    6.4917041649267135E+00    5.6182121503584890E+00    2.7929292118160959E-01
N    6.4994395152048972E+00    7.5054342902402302E+00    5.4865030376010138E-01
Ga    6.5304726924551151E+00    7.4955069084030441E+00    2.5973122424198265E+00
N    6.4916762445221492E+00    5.6169534731274862E+00    3.1652089240800358E+00
Ga    6.4940746208140574E+00    5.6146510656844910E+00    5.2108197934154568E+00
N    6.4911279136666860E+00    7.4871849748595984E+00    5.7872812243089529E+00
Ga    6.4909657530482558E+00    7.4900695863913178E+00    7.8299657600982293E+00
N    6.4923318797915286E+00    5.6198217447512153E+00    8.3937786334660611E+00
Ga    6.4962151543794517E+00    5.6196559020694217E+00    1.0443124951385471E+01
N    6.4925796364122039E+00    7.4965994662916984E+00    1.0956569823452623E+01
Ga    6.4948460368294345E+00    7.4948486874134650E+00    1.3063932612607601E+01
N    6.4956227868269325E+00    5.6200857696906192E+00    1.3383192388291556E+01
Ga    4.8653006798836902E+00    8.3969972020312227E+00    2.9893540386224632E-01
N    4.8784118058693542E+00    1.0311188720167401E+01    5.1038854585045701E-01
Ga    4.8590265910921602E+00    1.0299898410372027E+01    2.7160356162310899E+00
N    4.8754216187254427E+00    8.4166218913851729E+00    3.1639898119126162E+00
Ga    4.8735682600780272E+00    8.4194781091852438E+00    5.2319405451629954E+00
N    4.8668593529635213E+00    1.0305281364743916E+01    5.7607187928317174E+00
Ga    4.8679607601869694E+00    1.0305602216364633E+01    7.8241108410212759E+00
N    4.8690986520625685E+00    8.4339521980079439E+00    8.3789309879812084E+00
Ga    4.8692707999645775E+00    8.4334046950675887E+00    1.0434599010920397E+01
N    4.8727719369242974E+00    1.0304437709646152E+01    1.0960113543047827E+01
Ga    4.8750291420431111E+00    1.0303360788883605E+01    1.3073255154348786E+01
N    4.8724617376747812E+00    8.4299204742754110E+00    1.3399111895027204E+01
Ga    3.2139851124743810E+00    1.1257039870396115E+01    3.0135759778954641E-01
N    3.2597177863195994E+00    1.3117871928757401E+01    5.5058808277613658E-01
Ga    3.2662162086865849E+00    1.3150083653487975E+01    2.5992975431740550E+00
N    3.2358304254153722E+00    1.1255777802591780E+01    3.1638170258212468E+00
Ga    3.2373043999223863E+00    1.1253182867338113E+01    5.2312168078858949E+00
N    3.2393204806606719E+00    1.3119597749515004E+01    5.7878072892274499E+00
Ga    3.2398916773050463E+00    1.3119478500445949E+01    7.8299096193393094E+00
N    3.2469500182143376E+00    1.1243690529617171E+01    8.3831283536204122E+00
Ga    3.2504707883538293E+00    1.1240629471873687E+01    1.0439729976653638E+01
N    3.2481923571173210E+00    1.3115994490634192E+01    1.0960579184456094E+01
Ga    3.2518170967062825E+00    1.3113842150210838E+01    1.3072552786594260E+01
N    3.2516800541116604E+00    1.1239743585891963E+01    1.3396293590419008E+01
Ga    1.2965825738212137E+01    8.6838938324489117E-03   -6.6393439250378850E-01
N    1.2987746625596067E+01    1.8612926295569754E+00    5.5001648583475593E-01
Ga    1.2963517789838553E+01    1.8393613584424733E+00    2.5979481771766895E+00
N    1.2980661056366900E+01    1.0036443368792831E-03    3.2200622171684192E+00
Ga    1.2976728718618027E+01    3.2785728816650773E-03    5.2396598391369773E+00
N    1.2976799483118143E+01    1.8778034684730556E+00    5.7876817865752370E+00
Ga    1.2977346093354816E+01    1.8774835047215686E+00    7.8294404456997944E+00
N    1.2980682909218903E+01    8.9771512057648173E-04    8.3820882727753752E+00
Ga    1.2986411028478276E+01   -2.2695441838893270E-03    1.0436180666121096E+01
N    1.2984853346683485E+01    1.8717575082829661E+00    1.0959371483734959E+01
Ga    1.2989644897409974E+01    1.8710219887063952E+00    1.3070665543940233E+01
N    1.2989368618187543E+01   -3.1132268737926161E-03    1.3395094887832009E+01
Ga    1.1357151222396032E+01    2.8111951126810872E+00    2.8048725417150761E-01
N    1.1370566831439110E+01    4.6902181619025018E+00    5.4169593040830033E-01
Ga    1.1382539113113603E+01    4.6973478699564239E+00    2.5906078033276065E+00
N    1.1356233441523694E+01    2.8122503461975210E+00    3.1667846288610022E+00
Ga    1.1352509521632104E+01    2.8119018194245222E+00    5.2128262879568146E+00
N    1.1353495769085326E+01    4.6812670058390253E+00    5.7882960468440183E+00
Ga    1.1353932710006100E+01    4.6821603769106961E+00    7.8289005929339348E+00
N    1.1357141474438471E+01    2.8109336611865752E+00    8.3913277824834509E+00
Ga    1.1359588582897741E+01    2.8108178393331280E+00    1.0440570771068469E+01
N    1.1360812442737355E+01    4.6850607412524035E+00    1.0962624609413952E+01
Ga    1.1362090620885203E+01    4.6840336334434802E+00    1.3068839454623189E+01
N    1.1364416017195683E+01    2.8094240421348702E+00    1.3385623146963612E+01
Ga    9.7368257634787092E+00    5.6183826381469331E+00    2.7962683612569744E-01
N    9.7289328047823638E+00    7.5056141963563441E+00    5.4886363522077963E-01
Ga    9.6977592700003115E+00    7.4955766310941483E+00    2.5975661674474679E+00
N    9.7364509847688385E+00    5.6171336742079161E+00    3.1655615340379040E+00
Ga    9.7341950960560002E+00    5.6148728102944041E+00    5.2116663754722241E+00
N    9.7378963330839969E+00    7.4879571318394840E+00    5.7860697104747985E+00
Ga    9.7372178706933763E+00    7.4896586024872320E+00    7.8284657546104013E+00
N    9.7340400434616310E+00    5.6205495620239390E+00    8.3917659171770538E+00
Ga    9.7370534129207886E+00    5.6209063286148799E+00    1.0441327934828562E+01
N    9.7401108311094386E+00    7.4943936551054895E+00    1.0962553689327766E+01
Ga    9.7442480310339388E+00    7.4925258238475587E+00    1.3076810518096988E+01
N    9.7433216289911915E+00    5.6200116873357446E+00    1.3412544335529464E+01
Ga    8.1143450027794835E+00    8.4127466524889236E+00   -6.6443493641182394E-01
N    8.1143800833692570E+00    1.0264891406004793E+01    5.5285970852549504E-01
Ga    8.1142476843740674E+00    1.0263396269186755E+01    2.6086113038619083E+00
N    8.1139941842751870E+00    8.4294233718078733E+00    3.2188700314778380E+00
Ga    8.1142564645665320E+00    8.4249321377090798E+00    5.2387067841266797E+00
N    8.1147116573034204E+00    1.0306068236555623E+01    5.7802953685126903E+00
Ga    8.1136895900110382E+00    1.0305199740522939E+01    7.8294265706501704E+00
N    8.1140430153782095E+00    8.4312664563896149E+00    8.3810228074552064E+00
Ga    8.1177130994544200E+00    8.4310116291201656E+00    1.0435543140713401E+01
N    8.1152143954633242E+00    1.0306480330771508E+01    1.0952079517052834E+01
Ga    8.1165338639737481E+00    1.0305178820821915E+01    1.3062138962570545E+01
N    8.1181502574639097E+00    8.4310915071256147E+00    1.3383297302705838E+01
Ga    6.5284493602884925E+00    1.1263835992919816E+01    3.0442760188405105E-01
N    6.4565359982157142E+00    1.3136510377662866E+01    5.5318781883765678E-01
Ga    6.4547018125478903E+00    1.3137999739067793E+01    2.6087472266160634E+00
N    6.4934687727015632E+00    1.1243977310605253E+01    3.1604415543580604E+00
Ga    6.4970405619429892E+00    1.1246133231246676E+01    5.2315795913500844E+00
N    6.4916571634357183E+00    1.3116639855407216E+01    5.7810923246000465E+00
Ga    6.4910649979632202E+00    1.3117147480666912E+01    7.8302351182340377E+00
N    6.4892541558792161E+00    1.1242410769566320E+01    8.3765258064610215E+00
Ga    6.4908647166671285E+00    1.1242534266609754E+01    1.0433944927906877E+01
N    6.4954547380600616E+00    1.3114871445879807E+01    1.0955527886275592E+01
Ga    6.4977952027815329E+00    1.3113284771958691E+01    1.3069901868774664E+01
N    6.4958689456765137E+00    1.1241118691687396E+01    1.3401274854907502E+01
     &END COORD
     &KIND N
       BASIS_SET DZVP-MOLOPT-SR-GTH
       POTENTIAL GTH-PBE-q5
       &POTENTIAL
 2 3
  0.2837905100000000E+00 2 -0.1241522559000000E+02  0.1868095920000000E+01
 2
  0.2554050000000000E+00 1  0.1363026257000000E+02
  0.2454945300000000E+00 0
         # Potential name:  GTH-PBE-Q5  for symbol:  N
         # Potential read from the potential filename: GTH_POTENTIALS
       &END POTENTIAL
     &END KIND
     &KIND Ga
       BASIS_SET DZVP-MOLOPT-SR-GTH
       POTENTIAL GTH-PBE-q13
       &POTENTIAL
 2 1 10
  0.4900000000000000E+00 0
 3
  0.4167772300000000E+00 3  0.1047568975000000E+02 -0.4921768140000000E+01  0.8707055900000000E+00
  0.7770178090000000E+01 -0.2248152160000000E+01
  0.1784415450000000E+01
  0.5696265200000000E+00 2  0.1777985340000000E+01  0.1958597600000000E+00
 -0.2317443900000000E+00
  0.2381265000000000E+00 1 -0.1624868022000000E+02
         # Potential name:  GTH-PBE-Q13  for symbol:  GA
         # Potential read from the potential filename: GTH_POTENTIALS
       &END POTENTIAL
     &END KIND
     &TOPOLOGY
       COORD_FILE_NAME start.xyz
       COORD_FILE_FORMAT  XYZ
       NUMBER_OF_ATOMS  300
       MULTIPLE_UNIT_CELL  1 1 1
     &END TOPOLOGY
   &END SUBSYS
 &END FORCE_EVAL
