 # Version information for this restart file 
 # current date 2019-05-24 17:25:30.215
 # current working dir /lustre03/project/6004141/rzk/GaN-carbene/00-Surface/00-Preoptimization/554-native
 # Program compiled at                              Sun Apr  7 00:48:11 EDT 2019
 # Program compiled on                          beluga2.int.ets1.calculquebec.ca
 # Program compiled for                        Beluga-Linux-x86-64-intel-openmpi
 # Source code revision number                                         svn:18619
 &GLOBAL
   PRINT_LEVEL  MEDIUM
   PROJECT_NAME TEST
   RUN_TYPE  GEO_OPT
 &END GLOBAL
 &MOTION
   &GEO_OPT
     MAX_ITER  500
     STEP_START_VAL  33
   &END GEO_OPT
 &END MOTION
 &FORCE_EVAL
   METHOD  QS
   STRESS_TENSOR  ANALYTICAL
   &DFT
     BASIS_SET_FILE_NAME BASIS_MOLOPT
     POTENTIAL_FILE_NAME GTH_POTENTIALS
     &SCF
       MAX_SCF  100
       EPS_SCF     5.0000000000000004E-06
       &OT  T
         PRECONDITIONER  FULL_ALL
       &END OT
       &OUTER_SCF  T
         OPTIMIZER  NONE
         EPS_SCF     5.0000000000000004E-06
         MAX_SCF  4
       &END OUTER_SCF
       &PRINT
         &RESTART  OFF
           BACKUP_COPIES  1
           &EACH
             JUST_ENERGY  0
             QS_SCF  0
             MD  20
           &END EACH
         &END RESTART
       &END PRINT
     &END SCF
     &QS
       EPS_DEFAULT     1.0000000000000000E-14
       METHOD  GPW
     &END QS
     &MGRID
       NGRIDS  5
       CUTOFF     1.2000000000000000E+03
     &END MGRID
     &XC
       DENSITY_CUTOFF     1.0000000000000000E-10
       GRADIENT_CUTOFF     1.0000000000000000E-10
       TAU_CUTOFF     1.0000000000000000E-10
       &XC_FUNCTIONAL  NO_SHORTCUT
         &PBE  T
         &END PBE
       &END XC_FUNCTIONAL
       &VDW_POTENTIAL
         POTENTIAL_TYPE  PAIR_POTENTIAL
         &PAIR_POTENTIAL
           R_CUTOFF     1.0000000000000002E+01
           TYPE  DFTD3
           PARAMETER_FILE_NAME dftd3.dat
           REFERENCE_FUNCTIONAL PBE
           EPS_CN     9.9999999999999995E-07
           CALCULATE_C9_TERM  T
           REFERENCE_C9_TERM  T
           LONG_RANGE_CORRECTION  F
           VERBOSE_OUTPUT  F
         &END PAIR_POTENTIAL
       &END VDW_POTENTIAL
     &END XC
   &END DFT
   &SUBSYS
     &CELL
       A     1.6227942226066915E+01    0.0000000000000000E+00    0.0000000000000000E+00
       B    -8.1139711130334540E+00    1.4053810218920143E+01    0.0000000000000000E+00
       C     0.0000000000000000E+00    0.0000000000000000E+00    2.9000000000000000E+01
       MULTIPLE_UNIT_CELL  1 1 1
     &END CELL
     &COORD
Ga    2.3622652944474905E-04   -4.3288134061659524E-02    3.0393382579728001E-01
N    1.9816364218411267E-04    1.8620912443459419E+00    5.0919251654183972E-01
Ga    2.3065608474267507E-04    1.8849114317469657E+00    2.7145419316764565E+00
N    2.7783100154292337E-04   -2.3789876681341538E-03    3.1597932185388879E+00
Ga    1.2943266858221419E-04   -6.3210089073573970E-03    5.2308336144048235E+00
N    2.6001684419287511E-05    1.8756130736349319E+00    5.7600471196372700E+00
Ga   -9.2216877263029353E-06    1.8749413050673811E+00    7.8229170521357201E+00
N    1.1454541289605595E-04    2.4428184808338296E-03    8.3758426622609630E+00
Ga    6.7416674932929016E-04    6.8332356297221843E-04    1.0433201777561443E+01
N    2.7307300271935497E-03    1.8708144462111000E+00    1.0959643812158594E+01
Ga    6.0768741300652506E-03    1.8710807860008829E+00    1.3072969032811457E+01
N    4.3980822955483586E-03   -2.2609954102642766E-03    1.3398846638244086E+01
Ga   -1.6512573379630646E+00    2.8304800337700886E+00    2.9858884127779856E-01
N   -1.6396730407551925E+00    4.7024035587228887E+00    5.5568851214242965E-01
Ga   -1.6599899905692661E+00    4.7017193654848199E+00    2.6085788501101121E+00
N   -1.6389923671706572E+00    2.8124987377810746E+00    3.1631898489052195E+00
Ga   -1.6358401280385102E+00    2.8126785526514038E+00    5.2303791185589255E+00
N   -1.6234566605793024E+00    4.6825684779856420E+00    5.7845993168563439E+00
Ga   -1.6241013443142094E+00    4.6843302208344246E+00    7.8321488492351863E+00
N   -1.6225470455527697E+00    2.8094453562258610E+00    8.3820110643855390E+00
Ga   -1.6182105756032374E+00    2.8089218604600519E+00    1.0437424582488102E+01
N   -1.6197649696012426E+00    4.6833728772271597E+00    1.0956572724173128E+01
Ga   -1.6151125980588334E+00    4.6810476994805130E+00    1.3069473339467200E+01
N   -1.6163256390558109E+00    2.8083861416745979E+00    1.3395948535069161E+01
Ga   -3.2657249631099226E+00    5.6090767031458979E+00   -6.6052289949898124E-01
N   -3.2380761160251499E+00    7.4710916700627257E+00    5.5568617949626731E-01
Ga   -3.2487673613185386E+00    7.4541902835088925E+00    2.6088486772685373E+00
N   -3.2485978187898428E+00    5.6195089719560656E+00    3.2193710513826925E+00
Ga   -3.2533413506682693E+00    5.6171946264446548E+00    5.2399607620842898E+00
N   -3.2472174850985502E+00    7.4956774000874269E+00    5.7849861022420788E+00
Ga   -3.2467675946185248E+00    7.4953669657153252E+00    7.8331832448865351E+00
N   -3.2484495820723551E+00    5.6207240291965297E+00    8.3821909130910175E+00
Ga   -3.2445482973907298E+00    5.6205014860083740E+00    1.0438081696941518E+01
N   -3.2455219315616568E+00    7.4958966646621539E+00    1.0956426455681559E+01
Ga   -3.2425735016035624E+00    7.4947681866930500E+00    1.3066932839699525E+01
N   -3.2395548455021324E+00    5.6192979013590882E+00    1.3382002966577556E+01
Ga   -4.8648828824545705E+00    8.3972100226794382E+00    2.9837976893637441E-01
N   -4.8778013109904625E+00    1.0311629453786880E+01    5.0894647814501615E-01
Ga   -4.8580258592555436E+00    1.0300251239673068E+01    2.7140182830180941E+00
N   -4.8747267289204936E+00    8.4169707461091505E+00    3.1628213855783658E+00
Ga   -4.8728830609047895E+00    8.4198152822750814E+00    5.2307172619006463E+00
N   -4.8666074219118203E+00    1.0305135975184626E+01    5.7606440104717072E+00
Ga   -4.8669865168633626E+00    1.0306081704368436E+01    7.8233227244674790E+00
N   -4.8703780304386202E+00    8.4342788990442816E+00    8.3810753198887440E+00
Ga   -4.8678838626537004E+00    8.4338827662710614E+00    1.0436804362692662E+01
N   -4.8655589619595796E+00    1.0306225744817061E+01    1.0960620649671252E+01
Ga   -4.8622862002826297E+00    1.0302533020592515E+01    1.3075808923739434E+01
N   -4.8623990147591076E+00    8.4302996621048649E+00    1.3406796098588247E+01
Ga   -6.5280382753172423E+00    1.1264383551250827E+01    3.0363079892021988E-01
N   -6.4555344694052019E+00    1.3137105408680034E+01    5.5275478669815492E-01
Ga   -6.4540744470373363E+00    1.3138072546819018E+01    2.6082162561755320E+00
N   -6.4926007771716927E+00    1.1243906488159139E+01    3.1592628217099024E+00
Ga   -6.4961678859672061E+00    1.1245970821135160E+01    5.2299058992180321E+00
N   -6.4909369522480524E+00    1.3116430550309007E+01    5.7802052830668540E+00
Ga   -6.4904858208928529E+00    1.3117608735962078E+01    7.8294285167354003E+00
N   -6.4901850622443780E+00    1.1242486371578256E+01    8.3772244222563312E+00
Ga   -6.4875281283426327E+00    1.1241567240979306E+01    1.0434972025753702E+01
N   -6.4901555794537149E+00    1.3116638409073133E+01    1.0952354240827715E+01
Ga   -6.4891024435439242E+00    1.3114780293165133E+01    1.3062120558026502E+01
N   -6.4877678010492943E+00    1.1240921528243319E+01    1.3384968989532474E+01
Ga    3.2631555189231132E+00    9.2014954740240532E-03   -6.6370429406573694E-01
N    3.2407700163256292E+00    1.8608190277081089E+00    5.4936395766090440E-01
Ga    3.2647724825007285E+00    1.8393341112930055E+00    2.5978713433936629E+00
N    3.2477616705759904E+00    1.0982506472334654E-03    3.2196350838289822E+00
Ga    3.2521528889309841E+00    3.4583552184600744E-03    5.2392882921306718E+00
N    3.2524270208689043E+00    1.8781845861216588E+00    5.7867988656464107E+00
Ga    3.2499550785280871E+00    1.8772030508709765E+00    7.8291800303823447E+00
N    3.2469006605606481E+00    9.2135771796886224E-04    8.3808597048166611E+00
Ga    3.2493100642411736E+00   -2.4771882292507082E-03    1.0435747846006032E+01
N    3.2443095802693218E+00    1.8733088140665108E+00    1.0956634058866074E+01
Ga    3.2474673218472949E+00    1.8723188886606663E+00    1.3063824646666072E+01
N    3.2490873667453783E+00   -1.9945186072396928E-03    1.3382001183375273E+01
Ga    1.6516861403727237E+00    2.8304180514447999E+00    2.9894627913843891E-01
N    1.6403010774064533E+00    4.7022660551762785E+00    5.5610775616129915E-01
Ga    1.6602238113786740E+00    4.7014592182576669E+00    2.6092957249875841E+00
N    1.6393858585170007E+00    2.8122112915097954E+00    3.1632145961211839E+00
Ga    1.6361454316895363E+00    2.8127221442120467E+00    5.2311388773288847E+00
N    1.6234019207088870E+00    4.6828665389358131E+00    5.7831787621676307E+00
Ga    1.6237884252233417E+00    4.6841526747480486E+00    7.8310148578850667E+00
N    1.6217396142557223E+00    2.8097935152889280E+00    8.3780075973811083E+00
Ga    1.6211205906019699E+00    2.8105752958858230E+00    1.0433226532745907E+01
N    1.6253577597283184E+00    4.6819165274327936E+00    1.0957287923910700E+01
Ga    1.6274522690047835E+00    4.6823237623092995E+00    1.3069944679189176E+01
N    1.6266089903972432E+00    2.8097742165583233E+00    1.3400062335122088E+01
Ga    3.3845604122458841E-04    5.5878149095264513E+00    2.9775397820251953E-01
N    2.7810651261690717E-04    7.4951261887122040E+00    5.1566351810937472E-01
Ga    1.0578787541163218E-04    7.4951083201228057E+00    2.7252272650101683E+00
N   -2.4424606604133720E-05    5.6121360989956903E+00    3.1664162806933787E+00
Ga   -1.2727399160908780E-04    5.6105804719967303E+00    5.2353753162668220E+00
N    2.4311883825547121E-04    7.4953081390176406E+00    5.7645507905891016E+00
Ga   -6.7650517324014346E-04    7.4951234756984215E+00    7.8257362927798999E+00
N   -1.8541099947413193E-04    5.6229107936908651E+00    8.3796114359164307E+00
Ga    3.1273418089732795E-03    5.6201431852513011E+00    1.0437146089607715E+01
N    1.9517196551592452E-03    7.4933382402676321E+00    1.0959902209461589E+01
Ga    7.8397185200307969E-03    7.4918043477837388E+00    1.3073974979354649E+01
N    6.2184244164499511E-03    5.6186076637080884E+00    1.3398099885533290E+01
Ga   -1.6514024826929299E+00    8.4489568710385523E+00    2.9787095239265093E-01
N   -1.5983190409754575E+00    1.0311797730793334E+01    5.5678739789279286E-01
Ga   -1.5889593691567290E+00    1.0329567560049956E+01    2.6094424149878392E+00
N   -1.6305342100817164E+00    8.4367030392832607E+00    3.1670613627815758E+00
Ga   -1.6321615483365977E+00    8.4378923830306078E+00    5.2363029827349088E+00
N   -1.6239078303505687E+00    1.0307314822434893E+01    5.7862214809330945E+00
Ga   -1.6234895072307920E+00    1.0307909100164611E+01    7.8346862144825735E+00
N   -1.6218681908053343E+00    8.4320239315386942E+00    8.3803112227233711E+00
Ga   -1.6208073196317339E+00    8.4316177561733756E+00    1.0438299702910529E+01
N   -1.6221912121191195E+00    1.0305385466613838E+01    1.0957553485467741E+01
Ga   -1.6209202647571550E+00    1.0304363266328725E+01    1.3067913191393043E+01
N   -1.6178299916298831E+00    8.4297838383361459E+00    1.3385566513127218E+01
Ga   -3.2134288904716306E+00    1.1257868904071010E+01    2.9914951040082860E-01
N   -3.2585155941018784E+00    1.3118620205987689E+01    5.5042266491049219E-01
Ga   -3.2654203144852940E+00    1.3150191702505671E+01    2.5989168392778916E+00
N   -3.2355741365034842E+00    1.1256013168911828E+01    3.1639120710654707E+00
Ga   -3.2368319355402324E+00    1.1253290450746357E+01    5.2315869396068697E+00
N   -3.2384345110136277E+00    1.3119869488296031E+01    5.7867874861490787E+00
Ga   -3.2395555053284184E+00    1.3119379522220203E+01    7.8293151749471424E+00
N   -3.2482403286640005E+00    1.1244323512122552E+01    8.3819122703016475E+00
Ga   -3.2453906388803069E+00    1.1243083494121967E+01    1.0438535398631400E+01
N   -3.2431182249206123E+00    1.3114938802016185E+01    1.0965207059295567E+01
Ga   -3.2379787217464235E+00    1.3112784136724587E+01    1.3081006336161495E+01
N   -3.2402971582681976E+00    1.1239423427159627E+01    1.3407009971802617E+01
Ga    6.4941296738949887E+00    8.4405823214831507E-04    2.8220480513903995E-01
N    6.4911253641567814E+00    1.8730583618307222E+00    5.4597389670175034E-01
Ga    6.5223893994182376E+00    1.8914348040206532E+00    2.5886731400838277E+00
N    6.4948241167412615E+00    2.2933845105009391E-03    3.1667251400818710E+00
Ga    6.4958483596118608E+00    5.6997809314528070E-03    5.2126472394667287E+00
N    6.4902364326576780E+00    1.8733540885150370E+00    5.7868854699403123E+00
Ga    6.4922637408909090E+00    1.8736706409722923E+00    7.8259510981880709E+00
N    6.4909711045085654E+00    3.0633579098211733E-03    8.3938998630092083E+00
Ga    6.4920490368531487E+00    4.5552933167440992E-04    1.0444193006652430E+01
N    6.4975720207080725E+00    1.8729949110493944E+00    1.0972090883844476E+01
Ga    6.5003982428186386E+00    1.8682120936836055E+00    1.3086061380844454E+01
N    6.4960046022088376E+00   -4.1601113716368144E-03    1.3416548139791439E+01
Ga    4.8711890547046268E+00    2.8110294034654886E+00    2.7998986639915491E-01
N    4.8578184997877401E+00    4.6901154813506967E+00    5.4070650710361523E-01
Ga    4.8456073924485583E+00    4.6976179759942251E+00    2.5893317091412982E+00
N    4.8723379395676343E+00    2.8124633701609429E+00    3.1655277683230940E+00
Ga    4.8759472757230489E+00    2.8116408593819888E+00    5.2110302423307600E+00
N    4.8753076963636719E+00    4.6806639170823976E+00    5.7882333633769667E+00
Ga    4.8733689467747290E+00    4.6822288597618975E+00    7.8281483348573788E+00
N    4.8704806709527926E+00    2.8107990483537337E+00    8.3930069993404466E+00
Ga    4.8735352075925613E+00    2.8076397554340091E+00    1.0442688870502421E+01
N    4.8683694829795936E+00    4.6848043991219237E+00    1.0960342301374315E+01
Ga    4.8713807592675566E+00    4.6834908680293230E+00    1.3066286539134898E+01
N    4.8723727670556576E+00    2.8075385127408481E+00    1.3381827180410825E+01
Ga    3.2658905178043058E+00    5.6094500342421485E+00   -6.6021053004627139E-01
N    3.2384950826617676E+00    7.4709561947888590E+00    5.5632572712260564E-01
Ga    3.2494989597064325E+00    7.4541504017745961E+00    2.6095184288338413E+00
N    3.2491773172861871E+00    5.6192366178070978E+00    3.2194783069395614E+00
Ga    3.2534292218944056E+00    5.6169367492989197E+00    5.2402293020472754E+00
N    3.2474674937388692E+00    7.4956716858528827E+00    5.7842285737258594E+00
Ga    3.2474023401556753E+00    7.4946364705105299E+00    7.8322269423380506E+00
N    3.2473018519047661E+00    5.6203114675045400E+00    8.3805598690188923E+00
Ga    3.2451092118392419E+00    5.6223177926636252E+00    1.0435758523058144E+01
N    3.2493860642974308E+00    7.4954326212385407E+00    1.0956818858634886E+01
Ga    3.2513047402517841E+00    7.4936646947416179E+00    1.3069629723402842E+01
N    3.2486358763590140E+00    5.6206927808051272E+00    1.3395657420255054E+01
Ga    1.6519169287921767E+00    8.4488559667649437E+00    2.9822629340920681E-01
N    1.5985673627528425E+00    1.0311668355768209E+01    5.5684420392625256E-01
Ga    1.5889110633870780E+00    1.0329443245555337E+01    2.6097591199103540E+00
N    1.6308147977565310E+00    8.4366299703788599E+00    3.1668453699434185E+00
Ga    1.6322461518298623E+00    8.4374780653371069E+00    5.2357598368753777E+00
N    1.6244874531612272E+00    1.0307409742075187E+01    5.7853496827032691E+00
Ga    1.6223735306789477E+00    1.0308146590827036E+01    7.8326606829625298E+00
N    1.6211010750735553E+00    8.4323309254522503E+00    8.3805378646905737E+00
Ga    1.6252297511454328E+00    8.4301606492313290E+00    1.0438322369447373E+01
N    1.6255575339993229E+00    1.0306022690322377E+01    1.0957682460955212E+01
Ga    1.6298616735490385E+00    1.0301448358660586E+01    1.3071988439774174E+01
N    1.6292273643514150E+00    8.4288303733908005E+00    1.3401002981915571E+01
Ga    4.3919248357748072E-04    1.1267089592676729E+01   -6.5950930678654218E-01
N    5.9276471661968630E-04    1.3103855366479463E+01    5.4371242896162564E-01
Ga    3.8388998482316588E-04    1.3090193228576220E+01    2.5921205630479420E+00
N    4.1688939654985682E-05    1.1246352740696439E+01    3.2210400353341457E+00
Ga   -3.3219404585037906E-04    1.1251675062341404E+01    5.2416592439806102E+00
N    4.0300444507637592E-04    1.3123929410017725E+01    5.7892226947542111E+00
Ga   -9.3032889533122378E-04    1.3123288510028591E+01    7.8298121413282313E+00
N   -2.8766909790391788E-04    1.1246377320576149E+01    8.3832012043332096E+00
Ga    4.2015319701694463E-04    1.1244003878611997E+01    1.0439316539959490E+01
N    1.0914166714593081E-03    1.3116275916663357E+01    1.0965666309641080E+01
Ga    2.1610279017862887E-03    1.3115826165170073E+01    1.3072991202506378E+01
N    3.7683746373878908E-03    1.1239520473853796E+01    1.3384392641538049E+01
Ga    9.7351380968020997E+00    6.3085138836031871E-04    2.8231636540465738E-01
N    9.7377275986622962E+00    1.8726739113513120E+00    5.4673302610154306E-01
Ga    9.7062607543264541E+00    1.8912636002155072E+00    2.5893560763307994E+00
N    9.7338677404090319E+00    2.0227488274457508E-03    3.1670657566323031E+00
Ga    9.7324558691657312E+00    5.8391020502966337E-03    5.2129382174932823E+00
N    9.7381174123989265E+00    1.8731342089703447E+00    5.7875324631126670E+00
Ga    9.7366561506866187E+00    1.8745864220827793E+00    7.8273756097151574E+00
N    9.7353823237753137E+00    2.0679410290736101E-03    8.3916586764511791E+00
Ga    9.7364756686129308E+00    6.4007606004299071E-04    1.0441041177921537E+01
N    9.7382318016560703E+00    1.8730187333574742E+00    1.0965625018720463E+01
Ga    9.7395942816988015E+00    1.8734953353687036E+00    1.3070450795706520E+01
N    9.7410839372974429E+00   -1.7546954299400216E-03    1.3388431953015132E+01
Ga    8.1147471414327601E+00    2.8092430995774929E+00   -6.5232275890064351E-01
N    8.1142596093557486E+00    4.6847384404718726E+00    5.4494988017064805E-01
Ga    8.1141117296173633E+00    4.6486310065521002E+00    2.5877002049692033E+00
N    8.1142089217427085E+00    2.8106435152449554E+00    3.2104911009520913E+00
Ga    8.1141989252892905E+00    2.8106485225331799E+00    5.2280548301981735E+00
N    8.1140310939236855E+00    4.6859263171588657E+00    5.7859692904885405E+00
Ga    8.1141691253443788E+00    4.6842748950365012E+00    7.8250238408367174E+00
N    8.1130481835710100E+00    2.8116922960831396E+00    8.3884045064084827E+00
Ga    8.1157984331891928E+00    2.8098638966648135E+00    1.0438980756582389E+01
N    8.1177030180027572E+00    4.6809128692392914E+00    1.0971479878229635E+01
Ga    8.1227055501702932E+00    4.6799734406037006E+00    1.3085525952971899E+01
N    8.1208939301056908E+00    2.8073836876005478E+00    1.3419323237332033E+01
Ga    6.4916654616248728E+00    5.6182108872167245E+00    2.7918845637790357E-01
N    6.4995311908501030E+00    7.5054642272141505E+00    5.4845818238699950E-01
Ga    6.5304999256326832E+00    7.4954993815626505E+00    2.5970448543118350E+00
N    6.4916390716907673E+00    5.6169876261041232E+00    3.1651419497332625E+00
Ga    6.4941345093551170E+00    5.6146603494489806E+00    5.2107192568626743E+00
N    6.4910756563611480E+00    7.4871892303786414E+00    5.7870510876381394E+00
Ga    6.4910060494261357E+00    7.4900721949671478E+00    7.8297566053021352E+00
N    6.4922932497863028E+00    5.6196644619978535E+00    8.3928616403510912E+00
Ga    6.4957509368059680E+00    5.6196949766125481E+00    1.0442184444189772E+01
N    6.4935674820431730E+00    7.4960091526747759E+00    1.0956392840200810E+01
Ga    6.4940150763704088E+00    7.4951324918728988E+00    1.3063593557521870E+01
N    6.4954390371336954E+00    5.6203840640845213E+00    1.3383143803615425E+01
Ga    4.8651904457701161E+00    8.3969872372841987E+00    2.9885727009328700E-01
N    4.8784513144793840E+00    1.0311257206810094E+01    5.0994031817851904E-01
Ga    4.8589554557507668E+00    1.0299850094491028E+01    2.7154570992818514E+00
N    4.8754247296285378E+00    8.4166095943491666E+00    3.1636856292264137E+00
Ga    4.8736333921537662E+00    8.4194578483590732E+00    5.2316645243840094E+00
N    4.8668769466903496E+00    1.0305243507516945E+01    5.7603599360751740E+00
Ga    4.8682637841736698E+00    1.0305318242280428E+01    7.8236577635628031E+00
N    4.8690713415485565E+00    8.4338322119272746E+00    8.3788451468684428E+00
Ga    4.8695768697646393E+00    8.4326793532240334E+00    1.0434528189942212E+01
N    4.8732083716858137E+00    1.0304071618636097E+01    1.0959149300502839E+01
Ga    4.8749109438620284E+00    1.0302974424022525E+01    1.3072281782997372E+01
N    4.8724610847620662E+00    8.4301181022134006E+00    1.3400497309229996E+01
Ga    3.2140435714960636E+00    1.1257155101709472E+01    3.0074877583078691E-01
N    3.2595682398425545E+00    1.3118035775165565E+01    5.5028456768735468E-01
Ga    3.2660869584413526E+00    1.3150229586458019E+01    2.5988551482641098E+00
N    3.2358552205489142E+00    1.1255898234797870E+01    3.1635257748397771E+00
Ga    3.2374322379234859E+00    1.1253224420381086E+01    5.2308366623356415E+00
N    3.2392628589070402E+00    1.3119613519625961E+01    5.7875645552056598E+00
Ga    3.2401009156500185E+00    1.3119550832318062E+01    7.8295121243158983E+00
N    3.2471229822962258E+00    1.1243553502121422E+01    8.3821493278079835E+00
Ga    3.2509226207998876E+00    1.1240316098454104E+01    1.0438429402792679E+01
N    3.2482053960039186E+00    1.3115427078899877E+01    1.0959695676639528E+01
Ga    3.2520285442980259E+00    1.3113719230170268E+01    1.3071692685015217E+01
N    3.2520455913091073E+00    1.1239678496331733E+01    1.3396633017536578E+01
Ga    1.2965688087690813E+01    8.5754244131836955E-03   -6.6417728992948633E-01
N    1.2987670771503481E+01    1.8611416738103714E+00    5.4974348553660035E-01
Ga    1.2963509315613576E+01    1.8394266442561875E+00    2.5978988577835223E+00
N    1.2980560903400274E+01    1.0326556090094511E-03    3.2198868116190433E+00
Ga    1.2976710922306715E+01    3.3759190709876648E-03    5.2394175097541869E+00
N    1.2976718623390694E+01    1.8778428908250382E+00    5.7871741876968530E+00
Ga    1.2977370509005315E+01    1.8776578278962177E+00    7.8289834140641927E+00
N    1.2980688384029136E+01    1.0894786009097994E-03    8.3820135934752695E+00
Ga    1.2986945637700407E+01   -2.1215141875907989E-03    1.0436197934577761E+01
N    1.2984788202166980E+01    1.8722277987688360E+00    1.0959738038086062E+01
Ga    1.2989776968449872E+01    1.8709493910339092E+00    1.3070938955804770E+01
N    1.2989382357782532E+01   -3.2195232331001453E-03    1.3395182222705877E+01
Ga    1.1357255357572873E+01    2.8111695893639390E+00    2.8035075645843627E-01
N    1.1370579851826729E+01    4.6902078575150288E+00    5.4153802077516500E-01
Ga    1.1382591700552334E+01    4.6973430146955657E+00    2.5903735604965838E+00
N    1.1356143087763693E+01    2.8122482103611359E+00    3.1665083544966079E+00
Ga    1.1352524795883516E+01    2.8118534083734734E+00    5.2125886139678066E+00
N    1.1353492732870722E+01    4.6811586081121135E+00    5.7881645711201193E+00
Ga    1.1353990932328973E+01    4.6819104292913840E+00    7.8287256510692913E+00
N    1.1357413046355433E+01    2.8109644513254088E+00    8.3912865542235728E+00
Ga    1.1359424557287378E+01    2.8105887107293150E+00    1.0440556231351358E+01
N    1.1360476334993518E+01    4.6852315877629707E+00    1.0962337720139354E+01
Ga    1.1362557031441371E+01    4.6836915749176677E+00    1.3068681344236442E+01
N    1.1364689220133927E+01    2.8095051755575855E+00    1.3386244800267958E+01
Ga    9.7368714095071294E+00    5.6183651695649859E+00    2.7956525732258636E-01
N    9.7288700657314582E+00    7.5056291706031590E+00    5.4868579841712573E-01
Ga    9.6978346038215442E+00    7.4956160135202694E+00    2.5973580050747258E+00
N    9.7364679898788715E+00    5.6170650491064142E+00    3.1653972903367853E+00
Ga    9.7342869969260413E+00    5.6147131519716824E+00    5.2114536280884476E+00
N    9.7378767027132653E+00    7.4877848208788915E+00    5.7859033468363545E+00
Ga    9.7370374827622381E+00    7.4898223380727433E+00    7.8282525067816513E+00
N    9.7341708451036322E+00    5.6206281510490044E+00    8.3915426147047896E+00
Ga    9.7370087672205852E+00    5.6209443388312055E+00    1.0441040661609749E+01
N    9.7401858109205381E+00    7.4944613985315351E+00    1.0962928427064151E+01
Ga    9.7443599766586342E+00    7.4924757034870275E+00    1.3077244175198212E+01
N    9.7432658476347829E+00    5.6197290852131783E+00    1.3412233638747391E+01
Ga    8.1143032532261241E+00    8.4128116758316729E+00   -6.6464401042854415E-01
N    8.1143175985857052E+00    1.0264994603065848E+01    5.5260355448824805E-01
Ga    8.1143297713789355E+00    1.0263314772385774E+01    2.6082957870025103E+00
N    8.1140487496977958E+00    8.4293930803424146E+00    3.2188446891269074E+00
Ga    8.1141889053759169E+00    8.4248658574969877E+00    5.2386678928490644E+00
N    8.1146050942695513E+00    1.0306089166119289E+01    5.7799863968644685E+00
Ga    8.1136987023116429E+00    1.0305142218699261E+01    7.8291306193421031E+00
N    8.1139870147030457E+00    8.4313352400057902E+00    8.3807063939951956E+00
Ga    8.1177346004980055E+00    8.4313577949522447E+00    1.0435340448735603E+01
N    8.1150802753370233E+00    1.0306959476438223E+01    1.0952163814898224E+01
Ga    8.1171457555287496E+00    1.0305287460597603E+01    1.3062197527504988E+01
N    8.1178391587785423E+00    8.4312203846180243E+00    1.3383287196734564E+01
Ga    6.5284669916996272E+00    1.1263993797739356E+01    3.0410333699167780E-01
N    6.4563261725057428E+00    1.3136639945600368E+01    5.5309817891018564E-01
Ga    6.4546900974063659E+00    1.3138007299696994E+01    2.6086241446940135E+00
N    6.4933854355669940E+00    1.1243901764492934E+01    3.1600252711348209E+00
Ga    6.4969904814990258E+00    1.1246135198927830E+01    5.2311626863656375E+00
N    6.4916175054849132E+00    1.3116642752195864E+01    5.7807644632253394E+00
Ga    6.4911212135087979E+00    1.3117278356362842E+01    7.8300501552333648E+00
N    6.4892744408237180E+00    1.1242606105069873E+01    8.3758228033636524E+00
Ga    6.4910538565548226E+00    1.1243317518926558E+01    1.0433118431718636E+01
N    6.4955782764740446E+00    1.3115034739097418E+01    1.0955399340562222E+01
Ga    6.4979016173847661E+00    1.3113169605030036E+01    1.3069406156587048E+01
N    6.4956529338640481E+00    1.1240907543986197E+01    1.3400285690595261E+01
     &END COORD
     &KIND N
       BASIS_SET DZVP-MOLOPT-SR-GTH
       POTENTIAL GTH-PBE-q5
       &POTENTIAL
 2 3
  0.2837905100000000E+00 2 -0.1241522559000000E+02  0.1868095920000000E+01
 2
  0.2554050000000000E+00 1  0.1363026257000000E+02
  0.2454945300000000E+00 0
         # Potential name:  GTH-PBE-Q5  for symbol:  N
         # Potential read from the potential filename: GTH_POTENTIALS
       &END POTENTIAL
     &END KIND
     &KIND Ga
       BASIS_SET DZVP-MOLOPT-SR-GTH
       POTENTIAL GTH-PBE-q13
       &POTENTIAL
 2 1 10
  0.4900000000000000E+00 0
 3
  0.4167772300000000E+00 3  0.1047568975000000E+02 -0.4921768140000000E+01  0.8707055900000000E+00
  0.7770178090000000E+01 -0.2248152160000000E+01
  0.1784415450000000E+01
  0.5696265200000000E+00 2  0.1777985340000000E+01  0.1958597600000000E+00
 -0.2317443900000000E+00
  0.2381265000000000E+00 1 -0.1624868022000000E+02
         # Potential name:  GTH-PBE-Q13  for symbol:  GA
         # Potential read from the potential filename: GTH_POTENTIALS
       &END POTENTIAL
     &END KIND
     &TOPOLOGY
       COORD_FILE_NAME start.xyz
       COORD_FILE_FORMAT  XYZ
       NUMBER_OF_ATOMS  300
       MULTIPLE_UNIT_CELL  1 1 1
     &END TOPOLOGY
   &END SUBSYS
 &END FORCE_EVAL
