 # Version information for this restart file 
 # current date 2019-05-16 04:05:24.557
 # current working dir /lustre03/project/6004141/rzk/GaN-carbene/00-Surface/00-Preoptimization/334-native/Trial4
 # Program compiled at                              Sun Apr  7 00:48:11 EDT 2019
 # Program compiled on                          beluga2.int.ets1.calculquebec.ca
 # Program compiled for                        Beluga-Linux-x86-64-intel-openmpi
 # Source code revision number                                         svn:18619
 &GLOBAL
   PRINT_LEVEL  MEDIUM
   PROJECT_NAME TEST
   RUN_TYPE  CELL_OPT
 &END GLOBAL
 &MOTION
   &CELL_OPT
     MAX_ITER  100
     STEP_START_VAL  66
     EXTERNAL_PRESSURE     1.0000000000000000E+00
     KEEP_ANGLES  T
     KEEP_SYMMETRY  T
     CONSTRAINT  Z
     PRESSURE_TOLERANCE     1.0000000000000000E+02
   &END CELL_OPT
 &END MOTION
 &FORCE_EVAL
   METHOD  QS
   STRESS_TENSOR  ANALYTICAL
   &DFT
     BASIS_SET_FILE_NAME BASIS_MOLOPT
     POTENTIAL_FILE_NAME GTH_POTENTIALS
     &SCF
       MAX_SCF  100
       EPS_SCF     5.0000000000000004E-06
       &OT  T
         PRECONDITIONER  FULL_ALL
       &END OT
       &OUTER_SCF  T
         OPTIMIZER  NONE
         EPS_SCF     5.0000000000000004E-06
         MAX_SCF  10
       &END OUTER_SCF
       &PRINT
         &RESTART  OFF
           BACKUP_COPIES  1
           &EACH
             JUST_ENERGY  0
             QS_SCF  0
             MD  20
           &END EACH
         &END RESTART
       &END PRINT
     &END SCF
     &ALMO_SCF
       EPS_FILTER     9.9999999999999994E-12
       ALMO_SCF_GUESS  ATOMIC
       MO_OVERLAP_INV_ALG  DENSE_CHOLESKY
       ALMO_EXTRAPOLATION_ORDER  4
       XALMO_EXTRAPOLATION_ORDER  4
       ALMO_ALGORITHM  SKIP
       XALMO_TRIAL_WF  SIMPLE
       DELOCALIZE_METHOD  XALMO_SCF
       XALMO_R_CUTOFF_FACTOR     1.8000000000000000E+00
       &ALMO_OPTIMIZER_DIIS
         MAX_ITER  100
         EPS_ERROR     1.0000000000000001E-05
         N_DIIS  5
       &END ALMO_OPTIMIZER_DIIS
       &ALMO_OPTIMIZER_PCG
         MAX_ITER  50
         EPS_ERROR     1.0000000000000001E-05
         LIN_SEARCH_EPS_ERROR     5.0000000000000003E-02
         LIN_SEARCH_STEP_SIZE_GUESS     5.0000000000000001E-03
         CONJUGATOR  DAI_YUAN
         MAX_ITER_OUTER_LOOP  10
       &END ALMO_OPTIMIZER_PCG
       &XALMO_OPTIMIZER_PCG
         MAX_ITER  1000
         EPS_ERROR     1.0000000000000001E-05
         LIN_SEARCH_EPS_ERROR     1.0000000000000001E-01
         LIN_SEARCH_STEP_SIZE_GUESS     1.0000000000000000E-02
         CONJUGATOR  DAI_YUAN
         PRECOND_FILTER_THRESHOLD     1.0000000000000000E-03
         MAX_ITER_OUTER_LOOP  0
       &END XALMO_OPTIMIZER_PCG
       &MATRIX_ITERATE
         EPS_TARGET_FACTOR     1.0000000000000000E+01
       &END MATRIX_ITERATE
     &END ALMO_SCF
     &QS
       EPS_DEFAULT     1.0000000000000000E-14
       ALMO_SCF  F
       METHOD  GPW
     &END QS
     &MGRID
       NGRIDS  5
       CUTOFF     1.2000000000000000E+03
     &END MGRID
     &XC
       DENSITY_CUTOFF     1.0000000000000000E-10
       GRADIENT_CUTOFF     1.0000000000000000E-10
       TAU_CUTOFF     1.0000000000000000E-10
       &XC_FUNCTIONAL  NO_SHORTCUT
         &PBE  T
         &END PBE
       &END XC_FUNCTIONAL
       &VDW_POTENTIAL
         POTENTIAL_TYPE  PAIR_POTENTIAL
         &PAIR_POTENTIAL
           R_CUTOFF     1.0000000000000002E+01
           TYPE  DFTD3
           PARAMETER_FILE_NAME dftd3.dat
           REFERENCE_FUNCTIONAL PBE
           EPS_CN     9.9999999999999995E-07
           CALCULATE_C9_TERM  T
           REFERENCE_C9_TERM  T
           LONG_RANGE_CORRECTION  F
           VERBOSE_OUTPUT  F
         &END PAIR_POTENTIAL
       &END VDW_POTENTIAL
     &END XC
   &END DFT
   &SUBSYS
     &CELL
       A     9.7463233315975408E+00    0.0000000000000000E+00    0.0000000000000000E+00
       B    -4.8521945428997251E+00    8.4042474765107471E+00    0.0000000000000000E+00
       C     0.0000000000000000E+00    0.0000000000000000E+00    3.0744000000000000E+01
       MULTIPLE_UNIT_CELL  1 1 1
       &CELL_REF
         A     9.5580000000000016E+00    0.0000000000000000E+00    0.0000000000000000E+00
         B    -4.7790000000000008E+00    8.2774708093716640E+00    0.0000000000000000E+00
         C     0.0000000000000000E+00    0.0000000000000000E+00    3.0744000000000000E+01
         MULTIPLE_UNIT_CELL  1 1 1
       &END CELL_REF
     &END CELL
     &COORD
Ga   -4.8089351514228558E-04   -2.3056516153815458E-03   -5.8924763547544012E-01
N    6.7716591173958840E-03    1.8718504333185715E+00    5.6652763428431463E-01
Ga    5.5233383444990795E-03    1.8386609899197988E+00    2.5950431551206870E+00
N   -1.1343408730089218E-03   -2.8475101042356515E-03    3.2300829908707422E+00
Ga    2.6511484699378267E-04   -8.1892725481496481E-04    5.2212656176048560E+00
N    6.4198977067210557E-03    1.8729260670821195E+00    5.8082601039986592E+00
Ga    5.7395488281198840E-03    1.8704301301295745E+00    7.8070177894119501E+00
N    3.0997551701150586E-04   -2.5222509640438107E-03    8.4080879410373264E+00
Ga    1.0206411059605260E-03   -1.7574224664247554E-03    1.0405507215233614E+01
N    7.2306293732054142E-03    1.8683691905295441E+00    1.1011934053312599E+01
Ga    4.9836816820988811E-03    1.8693752295433039E+00    1.3007155853298404E+01
N    7.6658287478076077E-04    2.7422823053274231E-04    1.3621691561777926E+01
Ga   -1.5662518502647060E-02   -2.0526152536166414E-03    1.5627673089308537E+01
N   -6.6990726154232015E-03    1.8796585970970332E+00    1.6229446504331346E+01
Ga    2.5517729664754549E-02    1.9089894121386013E+00    1.8316763311691240E+01
N    6.4906811727271094E-03    1.2896156371334297E-02    1.8659331287680732E+01
Ga   -1.6156925012321837E+00    2.7999018874388968E+00    2.7904977401433045E-01
N   -1.6168979628692934E+00    4.6685990428895163E+00    5.6244661462493273E-01
Ga   -1.5878370961348125E+00    4.6833871697537584E+00    2.5934788031630420E+00
N   -1.6178306696357141E+00    2.7992125848574538E+00    3.1868316907007075E+00
Ga   -1.6164352074402875E+00    2.8008818423979034E+00    5.1980597374969371E+00
N   -1.6135301601732555E+00    4.6695095922052987E+00    5.8077077018057190E+00
Ga   -1.6124773431961903E+00    4.6687059337442571E+00    7.8066969972973057E+00
N   -1.6174392413960601E+00    2.7996147449600843E+00    8.4134070137675625E+00
Ga   -1.6164287050264461E+00    2.8001641435847353E+00    1.0409269599912136E+01
N   -1.6080613880694445E+00    4.6711510464401051E+00    1.1013555718483220E+01
Ga   -1.6074955154577364E+00    4.6695147813174946E+00    1.3008836527051640E+01
N   -1.6191984822267516E+00    2.7985051174259610E+00    1.3613249454511191E+01
Ga   -1.6305747221186635E+00    2.7873425395575793E+00    1.5616246660970491E+01
N   -1.6252884130286112E+00    4.6696175127579682E+00    1.6209255514567907E+01
Ga   -1.6065712241982835E+00    4.6811827188569985E+00    1.8284666388581144E+01
N   -1.6140946501186899E+00    2.8041387959282349E+00    1.8704874408984871E+01
Ga   -3.2349202219220805E+00    5.6032524853720398E+00    2.7793364423391931E-01
N   -3.2255982604488032E+00    7.4715204480711863E+00    5.6712508928370386E-01
Ga   -3.2545940120413657E+00    7.4848844383580824E+00    2.5956017420653597E+00
N   -3.2354021894302250E+00    5.6000580640779685E+00    3.1876673030712861E+00
Ga   -3.2343461182685234E+00    5.6021290837601798E+00    5.1987223528157962E+00
N   -3.2250838797646182E+00    7.4707271437392011E+00    5.8076490252221626E+00
Ga   -3.2265146645535929E+00    7.4695605542341239E+00    7.8064618202999299E+00
N   -3.2348623102046337E+00    5.6002680730193983E+00    8.4135131429712011E+00
Ga   -3.2345377548410608E+00    5.6008539540853945E+00    1.0410709495616791E+01
N   -3.2289128983886752E+00    7.4720740025458099E+00    1.1015682522191124E+01
Ga   -3.2305451325765651E+00    7.4720143806099308E+00    1.3012019806729098E+01
N   -3.2361516563638779E+00    5.5958335390554463E+00    1.3605363640037616E+01
Ga   -3.2487205244186739E+00    5.5851338529623051E+00    1.5602052165015941E+01
N   -3.2436505596841712E+00    7.4587023043651577E+00    1.6195865900877752E+01
Ga   -3.2266226178700577E+00    7.4911149120265161E+00    1.8263653289611728E+01
N   -3.2422367978004392E+00    5.6023730683892055E+00    1.8626477624154237E+01
Ga    3.2490304803690142E+00   -3.4760172659793680E-03    2.8091906095987063E-01
N    3.2515640299996980E+00    1.8683773874173895E+00    5.6410006414942282E-01
Ga    3.2776312698530545E+00    1.8818154125973761E+00    2.5982994319055375E+00
N    3.2476352734706264E+00   -2.4316751900696557E-03    3.1868272483778193E+00
Ga    3.2489606739143189E+00   -8.4699501571314272E-04    5.1977787014908081E+00
N    3.2525037442973281E+00    1.8679177425719218E+00    5.8070786834240984E+00
Ga    3.2529963849290628E+00    1.8664051336721950E+00    7.8062614405822499E+00
N    3.2484811830238240E+00   -2.9082503647911606E-03    8.4126666605209461E+00
Ga    3.2485393920758878E+00   -2.9368669002292529E-03    1.0408771916406492E+01
N    3.2535548978395497E+00    1.8675060112981965E+00    1.1012097602596825E+01
Ga    3.2470737169999229E+00    1.8612600967587496E+00    1.3007880862930026E+01
N    3.2450537667362593E+00   -6.8115398723292229E-03    1.3626499393939802E+01
Ga    3.2424414232478389E+00   -1.4414323748361912E-02    1.5632739447388410E+01
N    3.2254041620694585E+00    1.8682003297780438E+00    1.6212782805363567E+01
Ga    3.2564625555921562E+00    1.8951577555412911E+00    1.8288168796656588E+01
N    3.2519972898984588E+00   -4.7963124197903974E-03    1.8614305673518714E+01
Ga    1.6287804639946630E+00    2.8013890333602385E+00    2.7930137101081476E-01
N    1.6420589825015199E+00    4.6694901829804341E+00    5.6565044280468391E-01
Ga    1.6123135715784045E+00    4.6836081102220790E+00    2.5957866379292263E+00
N    1.6302375935534443E+00    2.7987786873315263E+00    3.1877743156891194E+00
Ga    1.6311519952043507E+00    2.8004901859857352E+00    5.1987177725959635E+00
N    1.6406871692058926E+00    4.6698571514823515E+00    5.8065621068787623E+00
Ga    1.6392685915595837E+00    4.6695297849532729E+00    7.8056717348847107E+00
N    1.6313025590518824E+00    2.7996773901023633E+00    8.4099945301720140E+00
Ga    1.6312772577090358E+00    2.7997371248442944E+00    1.0405676068588974E+01
N    1.6352256659406263E+00    4.6700793499607531E+00    1.1010936083551286E+01
Ga    1.6287076475694524E+00    4.6668754763478901E+00    1.3005263386507066E+01
N    1.6275200763667905E+00    2.7978486275324652E+00    1.3615067023511143E+01
Ga    1.6141054000556250E+00    2.7940747155108787E+00    1.5619231088645527E+01
N    1.6358537628574605E+00    4.6704594859307145E+00    1.6207774836843939E+01
Ga    1.6566394985507280E+00    4.6868022684365513E+00    1.8286459833615986E+01
N    1.6411478407933575E+00    2.8107262496299539E+00    1.8734582173162860E+01
Ga    1.5358086928043078E-02    5.6025740943126792E+00   -5.9235980881128858E-01
N    2.0311607593275459E-02    7.4753866347299400E+00    5.6606632757317343E-01
Ga    1.9456429874101185E-02    7.4421001047054016E+00    2.5959686504483588E+00
N    1.2361018685731289E-02    5.5996578302500186E+00    3.2286360833660068E+00
Ga    1.3865353345423650E-02    5.6021173695531443E+00    5.2194408287251237E+00
N    2.0524045126616881E-02    7.4757735061432422E+00    5.8067663358000114E+00
Ga    1.9795634154991897E-02    7.4729115379349933E+00    7.8058271210427277E+00
N    1.3974227818690448E-02    5.6011651024290812E+00    8.4075444797549892E+00
Ga    1.4273335663448640E-02    5.6032033038313926E+00    1.0404454199413713E+01
N    2.0181048942612752E-02    7.4716118309993957E+00    1.1015576547495334E+01
Ga    1.7198446285990560E-02    7.4697380080325058E+00    1.3014050591262441E+01
N    1.1522765178271688E-02    5.6016251459240589E+00    1.3629466546039284E+01
Ga    4.6932137123309493E-03    5.6009508561454000E+00    1.5637968267745574E+01
N    1.7978118773582054E-02    7.4795530963603758E+00    1.6207845701063427E+01
Ga    3.4477819360639192E-02    7.4770048900548938E+00    1.8267941553594284E+01
N    1.4329428334924335E-02    5.5872448987062047E+00    1.8661101955157410E+01
Ga    6.4960033630231058E+00   -2.2355258031855636E-03    2.8043428482983335E-01
N    6.5060182539089864E+00    1.8695081494773949E+00    5.6461432080916252E-01
Ga    6.4795126451757961E+00    1.8817858891983130E+00    2.5987698199872855E+00
N    6.4967914289627213E+00   -2.4287711712735701E-03    3.1882918266101692E+00
Ga    6.4983781471406603E+00   -6.6543771846469773E-04    5.1993290614819987E+00
N    6.5074785962670187E+00    1.8684950131481886E+00    5.8077215801827045E+00
Ga    6.5058678093790627E+00    1.8671241430684968E+00    7.8072040629068846E+00
N    6.4973027975728161E+00   -2.9087811472729200E-03    8.4118184203895918E+00
Ga    6.4986188214888312E+00   -2.7742813843346500E-03    1.0408863983565908E+01
N    6.5051950034225507E+00    1.8682624584930516E+00    1.1012420134756196E+01
Ga    6.5048133399314354E+00    1.8634323235075563E+00    1.3008278904738670E+01
N    6.4969803798031220E+00   -7.3881670760768819E-03    1.3612487796817526E+01
Ga    6.4862873085532025E+00   -1.7738885601802992E-02    1.5613233500391868E+01
N    6.5048431027916571E+00    1.8630365805430527E+00    1.6196860699502174E+01
Ga    6.5302573703981608E+00    1.8963771014467450E+00    1.8261189476383063E+01
N    6.5101903221591915E+00   -1.4283813360187185E-03    1.8598315066657296E+01
Ga    4.8804587586881665E+00    2.7997609239893002E+00   -5.5131943603042588E-01
N    4.8872088100559488E+00    4.6711796588064560E+00    5.6365195901884979E-01
Ga    4.8859796772975894E+00    4.6414087202919871E+00    2.5984307487402494E+00
N    4.8791066237667646E+00    2.7984796949676172E+00    3.2291113266424660E+00
Ga    4.8805618506683670E+00    2.8005376981323638E+00    5.2211551309696063E+00
N    4.8870245905740619E+00    4.6741000701495672E+00    5.8084141059994980E+00
Ga    4.8861082578587540E+00    4.6706947220656998E+00    7.8080715873439441E+00
N    4.8796648335812840E+00    2.7978346750165821E+00    8.4089385748274772E+00
Ga    4.8802689347390311E+00    2.7967910723339959E+00    1.0406622750738210E+01
N    4.8876230900586348E+00    4.6657333619192407E+00    1.1014357935304872E+01
Ga    4.8848398172777472E+00    4.6574749240466105E+00    1.3010281522217500E+01
N    4.8747357517996628E+00    2.7799054173189566E+00    1.3615002276051111E+01
Ga    4.8642808713887025E+00    2.7686177652108412E+00    1.5617878865682163E+01
N    4.8707407627924431E+00    4.6565780441583389E+00    1.6146508522805139E+01
Ga    4.8962083928947759E+00    4.6884954640213099E+00    1.8191798395230567E+01
N    4.8906878962104887E+00    2.8079971645183455E+00    1.8609615070999197E+01
Ga    3.2621807472554831E+00    5.6013896935449239E+00    2.8032545196861536E-01
N    3.2637481595655342E+00    7.4697356349565220E+00    5.6711422856536020E-01
Ga    3.2928007376296340E+00    7.4848949144528243E+00    2.5955690702141827E+00
N    3.2622939795886645E+00    5.6001630431195348E+00    3.1876049744066206E+00
Ga    3.2635558292193423E+00    5.6023829202730644E+00    5.1986844207248959E+00
N    3.2667376912265440E+00    7.4706902865475033E+00    5.8085046137584735E+00
Ga    3.2672722234208611E+00    7.4690739786191038E+00    7.8074470841085404E+00
N    3.2627241357298997E+00    5.5999433228765101E+00    8.4146212323943992E+00
Ga    3.2639653081494790E+00    5.6007525561307023E+00    1.0412002014178134E+01
N    3.2716685723233900E+00    7.4725838747347710E+00    1.1014141852826903E+01
Ga    3.2705623821968652E+00    7.4721463767193583E+00    1.3010676813756264E+01
N    3.2584077886065907E+00    5.5935124287045888E+00    1.3593856564118489E+01
Ga    3.2475001598748769E+00    5.5887932359690886E+00    1.5587118821901869E+01
N    3.2652031906792751E+00    7.4548210462095588E+00    1.6176797514360345E+01
Ga    3.2967122976953727E+00    7.4978425457658471E+00    1.8230808925662064E+01
N    3.2809938769622726E+00    5.6115911774332430E+00    1.8626488611418296E+01
     &END COORD
     &KIND N
       BASIS_SET DZVP-MOLOPT-SR-GTH
       POTENTIAL GTH-PBE-q5
       &POTENTIAL
 2 3
  0.2837905100000000E+00 2 -0.1241522559000000E+02  0.1868095920000000E+01
 2
  0.2554050000000000E+00 1  0.1363026257000000E+02
  0.2454945300000000E+00 0
         # Potential name:  GTH-PBE-Q5  for symbol:  N
         # Potential read from the potential filename: GTH_POTENTIALS
       &END POTENTIAL
     &END KIND
     &KIND Ga
       BASIS_SET DZVP-MOLOPT-SR-GTH
       POTENTIAL GTH-PBE-q13
       &POTENTIAL
 2 1 10
  0.4900000000000000E+00 0
 3
  0.4167772300000000E+00 3  0.1047568975000000E+02 -0.4921768140000000E+01  0.8707055900000000E+00
  0.7770178090000000E+01 -0.2248152160000000E+01
  0.1784415450000000E+01
  0.5696265200000000E+00 2  0.1777985340000000E+01  0.1958597600000000E+00
 -0.2317443900000000E+00
  0.2381265000000000E+00 1 -0.1624868022000000E+02
         # Potential name:  GTH-PBE-Q13  for symbol:  GA
         # Potential read from the potential filename: GTH_POTENTIALS
       &END POTENTIAL
     &END KIND
     &TOPOLOGY
       COORD_FILE_NAME 334-native.xyz
       COORD_FILE_FORMAT  XYZ
       NUMBER_OF_ATOMS  144
       MULTIPLE_UNIT_CELL  1 1 1
     &END TOPOLOGY
   &END SUBSYS
 &END FORCE_EVAL
