 # Version information for this restart file 
 # current date 2019-05-16 14:39:46.117
 # current working dir /lustre03/project/6004141/rzk/GaN-carbene/00-Surface/00-Preoptimization/334-native/Trial4
 # Program compiled at                              Sun Apr  7 00:48:11 EDT 2019
 # Program compiled on                          beluga2.int.ets1.calculquebec.ca
 # Program compiled for                        Beluga-Linux-x86-64-intel-openmpi
 # Source code revision number                                         svn:18619
 &GLOBAL
   PRINT_LEVEL  MEDIUM
   PROJECT_NAME TEST
   RUN_TYPE  CELL_OPT
 &END GLOBAL
 &MOTION
   &CELL_OPT
     MAX_ITER  150
     STEP_START_VAL  108
     EXTERNAL_PRESSURE     1.0000000000000000E+00
     KEEP_ANGLES  T
     KEEP_SYMMETRY  T
     CONSTRAINT  Z
     PRESSURE_TOLERANCE     3.0000000000000000E+02
   &END CELL_OPT
 &END MOTION
 &FORCE_EVAL
   METHOD  QS
   STRESS_TENSOR  ANALYTICAL
   &DFT
     BASIS_SET_FILE_NAME BASIS_MOLOPT
     POTENTIAL_FILE_NAME GTH_POTENTIALS
     &SCF
       MAX_SCF  100
       EPS_SCF     5.0000000000000004E-06
       &OT  T
         PRECONDITIONER  FULL_ALL
       &END OT
       &OUTER_SCF  T
         OPTIMIZER  NONE
         EPS_SCF     5.0000000000000004E-06
         MAX_SCF  10
       &END OUTER_SCF
       &PRINT
         &RESTART  OFF
           BACKUP_COPIES  1
           &EACH
             JUST_ENERGY  0
             QS_SCF  0
             MD  20
           &END EACH
         &END RESTART
       &END PRINT
     &END SCF
     &ALMO_SCF
       EPS_FILTER     9.9999999999999994E-12
       ALMO_SCF_GUESS  ATOMIC
       MO_OVERLAP_INV_ALG  DENSE_CHOLESKY
       ALMO_EXTRAPOLATION_ORDER  4
       XALMO_EXTRAPOLATION_ORDER  4
       ALMO_ALGORITHM  SKIP
       XALMO_TRIAL_WF  SIMPLE
       DELOCALIZE_METHOD  XALMO_SCF
       XALMO_R_CUTOFF_FACTOR     1.8000000000000000E+00
       &ALMO_OPTIMIZER_DIIS
         MAX_ITER  100
         EPS_ERROR     1.0000000000000001E-05
         N_DIIS  5
       &END ALMO_OPTIMIZER_DIIS
       &ALMO_OPTIMIZER_PCG
         MAX_ITER  50
         EPS_ERROR     1.0000000000000001E-05
         LIN_SEARCH_EPS_ERROR     5.0000000000000003E-02
         LIN_SEARCH_STEP_SIZE_GUESS     5.0000000000000001E-03
         CONJUGATOR  DAI_YUAN
         MAX_ITER_OUTER_LOOP  10
       &END ALMO_OPTIMIZER_PCG
       &XALMO_OPTIMIZER_PCG
         MAX_ITER  1000
         EPS_ERROR     1.0000000000000001E-05
         LIN_SEARCH_EPS_ERROR     1.0000000000000001E-01
         LIN_SEARCH_STEP_SIZE_GUESS     1.0000000000000000E-02
         CONJUGATOR  DAI_YUAN
         PRECOND_FILTER_THRESHOLD     1.0000000000000000E-03
         MAX_ITER_OUTER_LOOP  0
       &END XALMO_OPTIMIZER_PCG
       &MATRIX_ITERATE
         EPS_TARGET_FACTOR     1.0000000000000000E+01
       &END MATRIX_ITERATE
     &END ALMO_SCF
     &QS
       EPS_DEFAULT     1.0000000000000000E-14
       ALMO_SCF  F
       METHOD  GPW
     &END QS
     &MGRID
       NGRIDS  5
       CUTOFF     1.2000000000000000E+03
     &END MGRID
     &XC
       DENSITY_CUTOFF     1.0000000000000000E-10
       GRADIENT_CUTOFF     1.0000000000000000E-10
       TAU_CUTOFF     1.0000000000000000E-10
       &XC_FUNCTIONAL  NO_SHORTCUT
         &PBE  T
         &END PBE
       &END XC_FUNCTIONAL
       &VDW_POTENTIAL
         POTENTIAL_TYPE  PAIR_POTENTIAL
         &PAIR_POTENTIAL
           R_CUTOFF     1.0000000000000004E+01
           TYPE  DFTD3
           PARAMETER_FILE_NAME dftd3.dat
           REFERENCE_FUNCTIONAL PBE
           EPS_CN     9.9999999999999995E-07
           CALCULATE_C9_TERM  T
           REFERENCE_C9_TERM  T
           LONG_RANGE_CORRECTION  F
           VERBOSE_OUTPUT  F
         &END PAIR_POTENTIAL
       &END VDW_POTENTIAL
     &END XC
   &END DFT
   &SUBSYS
     &CELL
       A     9.7411647156896564E+00    0.0000000000000000E+00    0.0000000000000000E+00
       B    -4.8568425674067077E+00    8.4122980911116425E+00    0.0000000000000000E+00
       C     0.0000000000000000E+00    0.0000000000000000E+00    3.0744000000000000E+01
       MULTIPLE_UNIT_CELL  1 1 1
       &CELL_REF
         A     9.5580000000000034E+00    0.0000000000000000E+00    0.0000000000000000E+00
         B    -4.7790000000000017E+00    8.2774708093716640E+00    0.0000000000000000E+00
         C     0.0000000000000000E+00    0.0000000000000000E+00    3.0744000000000000E+01
         MULTIPLE_UNIT_CELL  1 1 1
       &END CELL_REF
     &END CELL
     &COORD
Ga    1.1526464309668351E-03   -1.5248751979087560E-04   -5.8932452961062454E-01
N    5.1906805766652134E-03    1.8721950044998306E+00    5.6520440673718897E-01
Ga    4.1247946993657678E-03    1.8395229603222061E+00    2.5955731023734940E+00
N   -1.7284505941565284E-05   -3.0914134322775721E-03    3.2291939467140032E+00
Ga    2.2899415083509772E-04   -3.1405023510679025E-03    5.2204087858482140E+00
N    4.2408151349486488E-03    1.8712964304420991E+00    5.8067422388213616E+00
Ga    3.4119217425452085E-03    1.8682582539858801E+00    7.8059697797639513E+00
N   -5.4428927757639535E-04   -4.8904895200354266E-03    8.4081445313725531E+00
Ga    7.1576095742324490E-05   -3.8419971821791366E-03    1.0406185114276331E+01
N    3.7864591564368815E-03    1.8678597873174192E+00    1.1010894396385458E+01
Ga    3.3070163460701203E-03    1.8735896133127612E+00    1.3005559655269595E+01
N   -1.1501466552589108E-03    3.7383266566949265E-03    1.3610694100157517E+01
Ga   -6.7117508674107975E-03    1.3870147110372566E-02    1.5614547038331198E+01
N    5.7948820929829405E-04    1.8835462394460432E+00    1.6258570290601956E+01
Ga    1.4227315052408566E-02    1.9057041931446965E+00    1.8369222986210154E+01
N    3.7009886087335979E-03    9.5395601006671611E-03    1.8661268137110696E+01
Ga   -1.6167325813871072E+00    2.8029034669105446E+00    2.7973983539357522E-01
N   -1.6196871302122864E+00    4.6716474384463060E+00    5.6518201683819580E-01
Ga   -1.5909900999596795E+00    4.6865870416183926E+00    2.5949158161405337E+00
N   -1.6188794847476977E+00    2.8012269114734818E+00    3.1870880711689837E+00
Ga   -1.6185142344190337E+00    2.8012972232745077E+00    5.1983101773083824E+00
N   -1.6174729629174189E+00    4.6710481585230550E+00    5.8067066130854599E+00
Ga   -1.6171030643788280E+00    4.6696220190632358E+00    7.8060974571600736E+00
N   -1.6200395318330432E+00    2.7990953246379102E+00    8.4102590845148271E+00
Ga   -1.6194076950306606E+00    2.7995413677693159E+00    1.0406707047326172E+01
N   -1.6114469669206524E+00    4.6700040895138484E+00    1.1014201242351861E+01
Ga   -1.6076492458112490E+00    4.6690195017145264E+00    1.3010416597435279E+01
N   -1.6181667719453263E+00    2.8001545074680143E+00    1.3623045131432063E+01
Ga   -1.6244880485088640E+00    2.7978395027389147E+00    1.5631433523097700E+01
N   -1.6238420828441682E+00    4.6784807718925991E+00    1.6216130659076882E+01
Ga   -1.6124448107546765E+00    4.6784315511183872E+00    1.8296901359629860E+01
N   -1.6210290377813590E+00    2.8139454453515795E+00    1.8736865202635926E+01
Ga   -3.2372534008681910E+00    5.6079743858590323E+00    2.7965749835495879E-01
N   -3.2299721709600200E+00    7.4772697124520153E+00    5.6500165699948657E-01
Ga   -3.2588112875796464E+00    7.4912150020628188E+00    2.5952421291042689E+00
N   -3.2382477600058022E+00    5.6059035983161518E+00    3.1876615441114962E+00
Ga   -3.2379056208727262E+00    5.6058447900961674E+00    5.1989506797914027E+00
N   -3.2308760818016151E+00    7.4748933111710079E+00    5.8078562544841992E+00
Ga   -3.2326112287912570E+00    7.4729863896411564E+00    7.8074650308562950E+00
N   -3.2382293803734910E+00    5.6027365313272908E+00    8.4145567209869849E+00
Ga   -3.2373980245745018E+00    5.6031021752216068E+00    1.0412721899934333E+01
N   -3.2342180384182706E+00    7.4765134605799908E+00    1.1013412519535279E+01
Ga   -3.2336972187491373E+00    7.4797746203822060E+00    1.3010060683360239E+01
N   -3.2357605235493878E+00    5.6011254573955966E+00    1.3594831060222582E+01
Ga   -3.2416744577711554E+00    5.6015410639670176E+00    1.5588273214728490E+01
N   -3.2425107948384433E+00    7.4753470914461833E+00    1.6160232210377565E+01
Ga   -3.2465991713388060E+00    7.4946351126687496E+00    1.8212082766499826E+01
N   -3.2486818542945914E+00    5.6165601553198146E+00    1.8610016248710028E+01
Ga    3.2481766472965510E+00   -3.1279397617125166E-03    2.7963169031177332E-01
N    3.2483778332210105E+00    1.8683081662928689E+00    5.6389927506810622E-01
Ga    3.2745742839494243E+00    1.8821096067573555E+00    2.5978607620329028E+00
N    3.2465394513172590E+00   -3.0119762959774608E-03    3.1870800955857881E+00
Ga    3.2469635800460455E+00   -3.1692957427425653E-03    5.1982724716742794E+00
N    3.2485815373571154E+00    1.8665736696613169E+00    5.8063628505393261E+00
Ga    3.2487434778990116E+00    1.8647800483018504E+00    7.8058892431536151E+00
N    3.2468268067445907E+00   -5.3723544642651812E-03    8.4118609325052596E+00
Ga    3.2473253811235590E+00   -4.6612741817330661E-03    1.0409131632864929E+01
N    3.2494443183415496E+00    1.8668152220148728E+00    1.1014024799842881E+01
Ga    3.2449007860726273E+00    1.8654759870570559E+00    1.3011390615619904E+01
N    3.2470602854701252E+00   -3.9172360568161414E-03    1.3624137660652421E+01
Ga    3.2510751227721046E+00   -7.1616006123593795E-04    1.5629141091708300E+01
N    3.2293445420810389E+00    1.8809105520792710E+00    1.6211903361101417E+01
Ga    3.2430995648404020E+00    1.8961267450440802E+00    1.8283702516083380E+01
N    3.2407486916393236E+00   -2.0462906775963983E-03    1.8576170917047655E+01
Ga    1.6269169205990714E+00    2.8037194636766083E+00    2.7934116965843747E-01
N    1.6375060492871261E+00    4.6725052565590195E+00    5.6481838780328741E-01
Ga    1.6079244612419958E+00    4.6867317260490617E+00    2.5944364407180327E+00
N    1.6278004187371449E+00    2.8013214835017899E+00    3.1872440718612247E+00
Ga    1.6280691595612751E+00    2.8015032630099364E+00    5.1986904683311197E+00
N    1.6351590678481669E+00    4.6712583813298192E+00    5.8067265335883000E+00
Ga    1.6330862109462188E+00    4.6697568231034925E+00    7.8061222854095149E+00
N    1.6275852508601312E+00    2.7992229282102752E+00    8.4102634144920430E+00
Ga    1.6276564410835086E+00    2.7998716094415070E+00    1.0406603305289558E+01
N    1.6283311539473726E+00    4.6705688278247566E+00    1.1013050266770474E+01
Ga    1.6221765152446852E+00    4.6695618148812956E+00    1.3008781533104809E+01
N    1.6240019038432052E+00    2.8009397786545249E+00    1.3618854127452758E+01
Ga    1.6198870127478355E+00    2.8010241283240846E+00    1.5626394130646325E+01
N    1.6362271780205211E+00    4.6773515432305777E+00    1.6210841967327369E+01
Ga    1.6502032691313153E+00    4.6798841127892841E+00    1.8291054077069074E+01
N    1.6357335980929033E+00    2.8162504753147193E+00    1.8748313287986015E+01
Ga    9.8074944043703288E-03    5.6075559384460716E+00   -5.8920823955344015E-01
N    1.4310099624787331E-02    7.4816989728888128E+00    5.6507210641789407E-01
Ga    1.2977858959370054E-02    7.4482341389102178E+00    2.5944907679456715E+00
N    8.9736548144523018E-03    5.6050015676034999E+00    3.2276850128976537E+00
Ga    9.3916135397492245E-03    5.6054653291435734E+00    5.2186296185821579E+00
N    1.3401564325647262E-02    7.4796012020916161E+00    5.8060498640301130E+00
Ga    1.2612951585155536E-02    7.4760514949716930E+00    7.8052526428467450E+00
N    8.3627160025210520E-03    5.6035858870808752E+00    8.4072453594575070E+00
Ga    8.6146167737470563E-03    5.6054432303147106E+00    1.0404785030645858E+01
N    1.2948703305145626E-02    7.4744463824376011E+00    1.1016989286559209E+01
Ga    1.2218846867033636E-02    7.4749138704690026E+00    1.3016043761214306E+01
N    7.2799624795492285E-03    5.6081275778937458E+00    1.3635633802691997E+01
Ga    2.9609342854618119E-03    5.6163741292488769E+00    1.5646969333483398E+01
N    1.0601349829581096E-02    7.4904613859502174E+00    1.6220646167124130E+01
Ga    2.3620621936328082E-02    7.4791620654843589E+00    1.8284107821830485E+01
N    1.3756621527492980E-02    5.5935196914267067E+00    1.8646856821296364E+01
Ga    6.4942087998798135E+00   -2.2666416060027990E-03    2.7915926440908528E-01
N    6.5013717968454738E+00    1.8692732071400424E+00    5.6395971618886964E-01
Ga    6.4741697158298219E+00    1.8821735723023116E+00    2.5979720980884653E+00
N    6.4942053034938096E+00   -2.5561178916867497E-03    3.1872041097127184E+00
Ga    6.4947820391393405E+00   -3.1278601162972267E-03    5.1985796089410821E+00
N    6.5010888986782582E+00    1.8666543234989210E+00    5.8063795878080935E+00
Ga    6.4991678602631042E+00    1.8645941211339241E+00    7.8056396103163888E+00
N    6.4929239795472835E+00   -5.3797326284958855E-03    8.4121989386706790E+00
Ga    6.4934773296325341E+00   -4.8378457364223271E-03    1.0409658359643442E+01
N    6.4996945620005215E+00    1.8663084891045134E+00    1.1015539863931657E+01
Ga    6.5028079906436460E+00    1.8646935501645845E+00    1.3013136315211428E+01
N    6.4930535832034693E+00   -6.0348602765791003E-03    1.3622181996202668E+01
Ga    6.4812215386070404E+00   -5.7866833813595012E-03    1.5625945178882317E+01
N    6.5100615508575519E+00    1.8722930225583947E+00    1.6210853758868531E+01
Ga    6.5231202481589277E+00    1.8953499941139893E+00    1.8281800131464262E+01
N    6.5078910585460852E+00   -5.5448008631277365E-04    1.8583116385119848E+01
Ga    4.8757698659442230E+00    2.8036254754588468E+00   -5.5325312075501443E-01
N    4.8802295181335165E+00    4.6757035141227927E+00    5.6466633454331772E-01
Ga    4.8791549082266439E+00    4.6450462569578059E+00    2.5982348242505000E+00
N    4.8747602807037822E+00    2.8012794678135853E+00    3.2285236468643674E+00
Ga    4.8753293643292279E+00    2.8014517998444504E+00    5.2204294605373249E+00
N    4.8794006024781593E+00    4.6755999640703809E+00    5.8082465626725357E+00
Ga    4.8785954849053041E+00    4.6717280207667615E+00    7.8085865349953494E+00
N    4.8746054380983130E+00    2.7976263357860267E+00    8.4083822257948420E+00
Ga    4.8753960738717455E+00    2.7964790854221890E+00    1.0407030699144222E+01
N    4.8794206477201865E+00    4.6663438225146860E+00    1.1012531067603151E+01
Ga    4.8792146472870552E+00    4.6609765949023805E+00    1.3008355271264820E+01
N    4.8742155588873999E+00    2.7845490700929898E+00    1.3619126501488710E+01
Ga    4.8678657464299562E+00    2.7784755069757585E+00    1.5622931674963779E+01
N    4.8744240338491132E+00    4.6689424492470231E+00    1.6131806695573996E+01
Ga    4.8863511030073985E+00    4.6885860856399475E+00    1.8173914406101666E+01
N    4.8794854500726323E+00    2.8151147968827330E+00    1.8596521966371167E+01
Ga    3.2565758620444698E+00    5.6073055358087709E+00    2.7951944425936592E-01
N    3.2572875658501528E+00    7.4765123401956268E+00    5.6456848268278381E-01
Ga    3.2852919088282251E+00    7.4908773468709819E+00    2.5949940160477865E+00
N    3.2561783531160531E+00    5.6056393067537478E+00    3.1874262304460306E+00
Ga    3.2566337337341680E+00    5.6058763317366376E+00    5.1987505826134308E+00
N    3.2579793433373809E+00    7.4748432886542320E+00    5.8079947969232677E+00
Ga    3.2578249127166892E+00    7.4729725772579663E+00    7.8077116295833520E+00
N    3.2553334086839034E+00    5.6026754588573153E+00    8.4143185992769798E+00
Ga    3.2557787617833340E+00    5.6030533884684655E+00    1.0412355809000241E+01
N    3.2609794957481677E+00    7.4764273733513997E+00    1.1012612048576850E+01
Ga    3.2604202565208062E+00    7.4789635781613564E+00    1.3008520430267598E+01
N    3.2522903077671059E+00    5.6002614715644841E+00    1.3590563915836428E+01
Ga    3.2469437573638871E+00    5.6019545513575499E+00    1.5583605941566436E+01
N    3.2632707768331577E+00    7.4719761678936187E+00    1.6162589743381051E+01
Ga    3.2879319891765553E+00    7.4962384862963853E+00    1.8214593148152876E+01
N    3.2749503102730597E+00    5.6194768736967076E+00    1.8615227296344827E+01
     &END COORD
     &KIND N
       BASIS_SET DZVP-MOLOPT-SR-GTH
       POTENTIAL GTH-PBE-q5
       &POTENTIAL
2 3
0.2837905100000000E+00 2 -0.1241522559000000E+02  0.1868095920000000E+01
2
0.2554050000000000E+00 1  0.1363026257000000E+02
0.2454945300000000E+00 0
       &END POTENTIAL
     &END KIND
     &KIND Ga
       BASIS_SET DZVP-MOLOPT-SR-GTH
       POTENTIAL GTH-PBE-q13
       &POTENTIAL
2 1 10
0.4900000000000000E+00 0
3
0.4167772300000000E+00 3  0.1047568975000000E+02 -0.4921768140000000E+01  0.8707055900000000E+00
0.7770178090000000E+01 -0.2248152160000000E+01
0.1784415450000000E+01
0.5696265200000000E+00 2  0.1777985340000000E+01  0.1958597600000000E+00
-0.2317443900000000E+00
0.2381265000000000E+00 1 -0.1624868022000000E+02
       &END POTENTIAL
     &END KIND
     &TOPOLOGY
       COORD_FILE_NAME 334-native.xyz
       COORD_FILE_FORMAT  XYZ
       NUMBER_OF_ATOMS  144
       MULTIPLE_UNIT_CELL  1 1 1
     &END TOPOLOGY
   &END SUBSYS
 &END FORCE_EVAL
