 # Version information for this restart file 
 # current date 2019-05-16 02:13:17.935
 # current working dir /lustre03/project/6004141/rzk/GaN-carbene/00-Surface/00-Preoptimization/334-native/Trial4
 # Program compiled at                              Sun Apr  7 00:48:11 EDT 2019
 # Program compiled on                          beluga2.int.ets1.calculquebec.ca
 # Program compiled for                        Beluga-Linux-x86-64-intel-openmpi
 # Source code revision number                                         svn:18619
 &GLOBAL
   PRINT_LEVEL  MEDIUM
   PROJECT_NAME TEST
   RUN_TYPE  CELL_OPT
 &END GLOBAL
 &MOTION
   &CELL_OPT
     MAX_ITER  100
     STEP_START_VAL  14
     EXTERNAL_PRESSURE     1.0000000000000000E+00
     KEEP_ANGLES  T
     KEEP_SYMMETRY  T
     CONSTRAINT  Z
     PRESSURE_TOLERANCE     1.0000000000000000E+02
   &END CELL_OPT
 &END MOTION
 &FORCE_EVAL
   METHOD  QS
   STRESS_TENSOR  ANALYTICAL
   &DFT
     BASIS_SET_FILE_NAME BASIS_MOLOPT
     POTENTIAL_FILE_NAME GTH_POTENTIALS
     &SCF
       MAX_SCF  100
       EPS_SCF     5.0000000000000004E-06
       &OT  T
         PRECONDITIONER  FULL_ALL
       &END OT
       &OUTER_SCF  T
         OPTIMIZER  NONE
         EPS_SCF     5.0000000000000004E-06
         MAX_SCF  10
       &END OUTER_SCF
       &PRINT
         &RESTART  OFF
           BACKUP_COPIES  1
           &EACH
             JUST_ENERGY  0
             QS_SCF  0
             MD  20
           &END EACH
         &END RESTART
       &END PRINT
     &END SCF
     &ALMO_SCF
       EPS_FILTER     9.9999999999999994E-12
       ALMO_SCF_GUESS  ATOMIC
       MO_OVERLAP_INV_ALG  DENSE_CHOLESKY
       ALMO_EXTRAPOLATION_ORDER  4
       XALMO_EXTRAPOLATION_ORDER  4
       ALMO_ALGORITHM  SKIP
       XALMO_TRIAL_WF  SIMPLE
       DELOCALIZE_METHOD  XALMO_SCF
       XALMO_R_CUTOFF_FACTOR     1.8000000000000000E+00
       &ALMO_OPTIMIZER_DIIS
         MAX_ITER  100
         EPS_ERROR     1.0000000000000001E-05
         N_DIIS  5
       &END ALMO_OPTIMIZER_DIIS
       &ALMO_OPTIMIZER_PCG
         MAX_ITER  50
         EPS_ERROR     1.0000000000000001E-05
         LIN_SEARCH_EPS_ERROR     5.0000000000000003E-02
         LIN_SEARCH_STEP_SIZE_GUESS     5.0000000000000001E-03
         CONJUGATOR  DAI_YUAN
         MAX_ITER_OUTER_LOOP  10
       &END ALMO_OPTIMIZER_PCG
       &XALMO_OPTIMIZER_PCG
         MAX_ITER  1000
         EPS_ERROR     1.0000000000000001E-05
         LIN_SEARCH_EPS_ERROR     1.0000000000000001E-01
         LIN_SEARCH_STEP_SIZE_GUESS     1.0000000000000000E-02
         CONJUGATOR  DAI_YUAN
         PRECOND_FILTER_THRESHOLD     1.0000000000000000E-03
         MAX_ITER_OUTER_LOOP  0
       &END XALMO_OPTIMIZER_PCG
       &MATRIX_ITERATE
         EPS_TARGET_FACTOR     1.0000000000000000E+01
       &END MATRIX_ITERATE
     &END ALMO_SCF
     &QS
       EPS_DEFAULT     1.0000000000000000E-14
       ALMO_SCF  F
       METHOD  GPW
     &END QS
     &MGRID
       NGRIDS  5
       CUTOFF     1.2000000000000000E+03
     &END MGRID
     &XC
       DENSITY_CUTOFF     1.0000000000000000E-10
       GRADIENT_CUTOFF     1.0000000000000000E-10
       TAU_CUTOFF     1.0000000000000000E-10
       &XC_FUNCTIONAL  NO_SHORTCUT
         &PBE  T
         &END PBE
       &END XC_FUNCTIONAL
       &VDW_POTENTIAL
         POTENTIAL_TYPE  PAIR_POTENTIAL
         &PAIR_POTENTIAL
           R_CUTOFF     1.0000000000000002E+01
           TYPE  DFTD3
           PARAMETER_FILE_NAME dftd3.dat
           REFERENCE_FUNCTIONAL PBE
           EPS_CN     9.9999999999999995E-07
           CALCULATE_C9_TERM  T
           REFERENCE_C9_TERM  T
           LONG_RANGE_CORRECTION  F
           VERBOSE_OUTPUT  F
         &END PAIR_POTENTIAL
       &END VDW_POTENTIAL
     &END XC
   &END DFT
   &SUBSYS
     &CELL
       A     9.6742261261867704E+00    0.0000000000000000E+00    0.0000000000000000E+00
       B    -4.8688741846260841E+00    8.4331374634328480E+00    0.0000000000000000E+00
       C     0.0000000000000000E+00    0.0000000000000000E+00    3.0744000000000000E+01
       MULTIPLE_UNIT_CELL  1 1 1
       &CELL_REF
         A     9.5580000000000016E+00    0.0000000000000000E+00    0.0000000000000000E+00
         B    -4.7790000000000008E+00    8.2774708093716640E+00    0.0000000000000000E+00
         C     0.0000000000000000E+00    0.0000000000000000E+00    3.0744000000000000E+01
         MULTIPLE_UNIT_CELL  1 1 1
       &END CELL_REF
     &END CELL
     &COORD
Ga    3.3596675280784549E-03   -1.2156888451980351E-01   -6.4980260057583658E-02
N   -8.6312129343226220E-03    1.7960584885303659E+00    5.4009239739093540E-01
Ga   -9.7770857611734797E-03    1.8480158403833276E+00    2.5944902198321467E+00
N    1.3339574060069583E-03   -3.0611930684479754E-03    3.2200632341241042E+00
Ga    1.1035892129084199E-03    2.5809392908005720E-03    5.2270731197444649E+00
N   -1.0278437488893970E-02    1.8731840361137815E+00    5.8073602212008666E+00
Ga   -8.4267035080805384E-03    1.8742025397312407E+00    7.8121678770319392E+00
N    1.1138174785248144E-03    2.5072408124194806E-03    8.3982574438145576E+00
Ga    9.0564032731752951E-04    1.6679902942825567E-03    1.0402036424144171E+01
N   -7.9734612873893912E-03    1.8715236646391482E+00    1.0991698562124423E+01
Ga   -7.3138452175301200E-03    1.8747911705464253E+00    1.2998274055158454E+01
N    5.7386113015581294E-03    4.9988379752963072E-03    1.3600551632990992E+01
Ga    7.5753428988175157E-03    1.2093618741520927E-02    1.5619800046781597E+01
N   -1.2493994206144053E-02    1.8754888559979439E+00    1.6196253634165664E+01
Ga   -1.3835655754421267E-02    1.8607161279505600E+00    1.8277713698882053E+01
N    7.5404312263747169E-03    1.5770364295186239E-02    1.8669430582075201E+01
Ga   -1.5371862271212597E+00    2.8680820071975304E+00   -4.3605563558527433E-02
N   -1.6985718275330965E+00    4.7212326142373557E+00    5.5256069800854346E-01
Ga   -1.6485971284404837E+00    4.6907013064569760E+00    2.6007719414917698E+00
N   -1.6136462018798396E+00    2.8145824186756863E+00    3.1801861962802067E+00
Ga   -1.6185128864439482E+00    2.8130726873059544E+00    5.2058998306099538E+00
N   -1.6315564012219541E+00    4.6803720381613783E+00    5.8047435173248489E+00
Ga   -1.6298391601973552E+00    4.6827860382787190E+00    7.8111715730630813E+00
N   -1.6212464477338253E+00    2.8137126378322241E+00    8.4001690117388979E+00
Ga   -1.6219859439565585E+00    2.8122170858937601E+00    1.0402963500385335E+01
N   -1.6309603238070987E+00    4.6831357979486494E+00    1.0992126223727649E+01
Ga   -1.6316752118422877E+00    4.6820723205532166E+00    1.2999185101882869E+01
N   -1.6194445513478026E+00    2.8141035921208566E+00    1.3595437124316234E+01
Ga   -1.6245388252149955E+00    2.8118738012968105E+00    1.5612809947044434E+01
N   -1.6399093137787626E+00    4.6789535245316261E+00    1.6185961740449514E+01
Ga   -1.6431982337767430E+00    4.6640042160717501E+00    1.8261227650873273E+01
N   -1.6130660427966506E+00    2.8241243869205692E+00    1.8670334762754639E+01
Ga   -3.3362422368088080E+00    5.6944806975267710E+00   -2.4596257719340427E-02
N   -3.1976136254382106E+00    7.5271462062931391E+00    6.3831665895784695E-01
Ga   -3.2460421342367689E+00    7.4974870048105782E+00    2.6533874077208410E+00
N   -3.2534632032164534E+00    5.6216350329706257E+00    3.2137195202846591E+00
Ga   -3.2463427521582684E+00    5.6217423623458771E+00    5.2241318304429623E+00
N   -3.2523744928620215E+00    7.4939438007694497E+00    5.8095653150834661E+00
Ga   -3.2532397301589495E+00    7.4945778137792791E+00    7.8148977729068436E+00
N   -3.2443047647968855E+00    5.6235270854614470E+00    8.3984208214422633E+00
Ga   -3.2449714035350503E+00    5.6231903386364790E+00    1.0402410034610844E+01
N   -3.2542019987743203E+00    7.4940321998503263E+00    1.0991814815221835E+01
Ga   -3.2514289917132624E+00    7.4928626589418350E+00    1.2999110496149305E+01
N   -3.2444602796313724E+00    5.6234314682123525E+00    1.3596486781930373E+01
Ga   -3.2491585420373745E+00    5.6297679292885965E+00    1.5613735839707568E+01
N   -3.2563450045315854E+00    7.4796537656289113E+00    1.6192194070790364E+01
Ga   -3.2579357168979963E+00    7.4778332209439808E+00    1.8270626645809589E+01
N   -3.2390228146091511E+00    5.6396431874218615E+00    1.8667466578890338E+01
Ga    3.2769817722836643E+00    3.5870830611511854E-02    4.1414413667253888E-02
N    3.1605187244970696E+00    1.9082880852286050E+00    5.5379567450503009E-01
Ga    3.2023780328781117E+00    1.8770914985847686E+00    2.6241508230754969E+00
N    3.2383941909252196E+00    9.3233767054662648E-03    3.2117417118356077E+00
Ga    3.2301461830068510E+00    4.5387064741455822E-03    5.2311799438296260E+00
N    3.2136797164750970E+00    1.8758860993842945E+00    5.8079528896955681E+00
Ga    3.2160233612353348E+00    1.8745626926233219E+00    7.8148930879648244E+00
N    3.2267759630573369E+00    2.6562380195886046E-03    8.3981184688652579E+00
Ga    3.2258392409970496E+00    1.6614897659654874E-03    1.0402892830439592E+01
N    3.2161206045795052E+00    1.8720509737839579E+00    1.0991450449766745E+01
Ga    3.2147103465104299E+00    1.8712466344368779E+00    1.2999701900408436E+01
N    3.2268275423289370E+00    1.8064427483834823E-03    1.3594679916815208E+01
Ga    3.2344645181383882E+00    8.9854140508370210E-03    1.5612191142898988E+01
N    3.1996188890396313E+00    1.8608374268957675E+00    1.6189693524968654E+01
Ga    3.2124265924040887E+00    1.8596018253993618E+00    1.8267611710194156E+01
N    3.2341382619226029E+00    1.1794092444145756E-02    1.8659473520769595E+01
Ga    1.5217111597910076E+00    2.8694815204658721E+00   -3.7549007352370677E-02
N    1.6642963512980713E+00    4.7236355846461855E+00    5.6958126302942302E-01
Ga    1.6089775105902806E+00    4.6898110002206170E+00    2.6199903155225939E+00
N    1.5887804814300186E+00    2.8131832266318995E+00    3.1913376561612954E+00
Ga    1.5965139706914648E+00    2.8123073581459526E+00    5.2153066295680075E+00
N    1.5933079766210774E+00    4.6819865729155739E+00    5.8046485422755421E+00
Ga    1.5933990850915183E+00    4.6834771283037213E+00    7.8111119861039837E+00
N    1.6023839039669947E+00    2.8138292406013594E+00    8.3990657621627385E+00
Ga    1.6021646259204674E+00    2.8124364754169346E+00    1.0402716430278456E+01
N    1.5935497176373068E+00    4.6831570790806216E+00    1.0991871498577298E+01
Ga    1.5922489229567423E+00    4.6826995972720882E+00    1.3000546969864581E+01
N    1.6023523184227082E+00    2.8147065568033192E+00    1.3597022003989769E+01
Ga    1.6055168227945571E+00    2.8259766132739115E+00    1.5617200875370148E+01
N    1.5949994868697936E+00    4.6900192599686346E+00    1.6192876878427132E+01
Ga    1.5874207100504447E+00    4.6673540106528044E+00    1.8271630158631744E+01
N    1.6150356118939240E+00    2.8297796808954594E+00    1.8665110567661024E+01
Ga   -1.5280976760664521E-02    5.5315928408111503E+00   -5.7410778775216623E-02
N   -2.8336943975552028E-02    7.4332043411092679E+00    5.6249755083437025E-01
Ga   -3.0170737422841334E-02    7.4766018227675524E+00    2.6278320951088023E+00
N   -2.2988703468969553E-02    5.6085054349400503E+00    3.1950389374511023E+00
Ga   -2.1748865886834765E-02    5.6176965447327234E+00    5.2153051032923345E+00
N   -2.8444402123973412E-02    7.4889929051367412E+00    5.8090157605757096E+00
Ga   -2.8215783732598927E-02    7.4926038658136243E+00    7.8150091979347174E+00
N   -1.9807978977132427E-02    5.6231044069892508E+00    8.3990111627970556E+00
Ga   -2.0269271107535708E-02    5.6232282783597611E+00    1.0402504164443553E+01
N   -2.9048119451078908E-02    7.4940285333723198E+00    1.0991339685146347E+01
Ga   -2.8874329760373751E-02    7.4935133485337522E+00    1.2999344251148056E+01
N   -1.9889134491777892E-02    5.6274931306990856E+00    1.3597512445183535E+01
Ga   -1.4368192262729973E-02    5.6363866764337942E+00    1.5619137848477200E+01
N   -2.7650408772558321E-02    7.4997444652315641E+00    1.6193291655328100E+01
Ga   -3.9554420414254964E-02    7.4748607794419542E+00    1.8274168952931095E+01
N   -2.6959417233357479E-02    5.6281120020129922E+00    1.8668039144596175E+01
Ga    6.4009272436590079E+00    2.6310464163991628E-02    6.4242293830101454E-03
N    6.5024558407216766E+00    1.9055452470798624E+00    5.2112153514312742E-01
Ga    6.4551751869666978E+00    1.8751598734285855E+00    2.5997316791033422E+00
N    6.4345130435083702E+00    1.1573244954017257E-02    3.2057382859063188E+00
Ga    6.4447790103664664E+00    6.3571807026356801E-03    5.2246176057851246E+00
N    6.4455508676481843E+00    1.8750440041109677E+00    5.8067807115171295E+00
Ga    6.4435276845142306E+00    1.8740625080579802E+00    7.8131699470394915E+00
N    6.4505866386532436E+00    2.8597725939828022E-03    8.3985005669684440E+00
Ga    6.4504754764920049E+00    1.6589277601817393E-03    1.0402616184854368E+01
N    6.4411875387710449E+00    1.8720745035549036E+00    1.0992169242050378E+01
Ga    6.4418256938851481E+00    1.8707856842194961E+00    1.3001664306427658E+01
N    6.4538533978962214E+00    9.9903053654767427E-04    1.3595308093793106E+01
Ga    6.4549358087969724E+00    1.4848947699960266E-02    1.5614569747710275E+01
N    6.4378239737092251E+00    1.8645599645353743E+00    1.6194056947393694E+01
Ga    6.4371273346356856E+00    1.8544126084425809E+00    1.8269699237907048E+01
N    6.4648361465761193E+00    1.3426731990624514E-02    1.8655502995772824E+01
Ga    4.8250746290051634E+00    2.7527028368858439E+00   -1.2202192420007992E-03
N    4.8196937203435972E+00    4.6270014286524841E+00    5.9818486925565284E-01
Ga    4.8181504253039975E+00    4.6700885533392746E+00    2.6375062089759282E+00
N    4.8299336583471817E+00    2.7955607802502342E+00    3.1941111298651608E+00
Ga    4.8291985442600183E+00    2.8060932239842109E+00    5.2212457395200458E+00
N    4.8185278342662992E+00    4.6781361336167437E+00    5.8077804778995983E+00
Ga    4.8189056296809589E+00    4.6826197859389627E+00    7.8130711990179647E+00
N    4.8283094315998234E+00    2.8126998020281144E+00    8.3990085425509662E+00
Ga    4.8272169277046437E+00    2.8118483190120429E+00    1.0402536966337712E+01
N    4.8182862116883074E+00    4.6826629707019203E+00    1.0992125616113093E+01
Ga    4.8174035091088783E+00    4.6822978584850743E+00    1.3000439847286543E+01
N    4.8262224330765031E+00    2.8097867905026770E+00    1.3597668545297232E+01
Ga    4.8343743991261414E+00    2.8180348195378779E+00    1.5619401221134339E+01
N    4.8095487834969477E+00    4.6765647080782200E+00    1.6195226564823493E+01
Ga    4.8095773906483634E+00    4.6701859728855517E+00    1.8272393285842593E+01
N    4.8361593387511395E+00    2.8261460943029637E+00    1.8665317238876050E+01
Ga    3.2907371338913110E+00    5.6927287159764424E+00    1.3322141765046654E-02
N    3.1446986120981615E+00    7.5269867753865460E+00    6.4372093856896651E-01
Ga    3.1865214986629335E+00    7.4995411394228944E+00    2.6609208604734458E+00
N    3.2129259666892769E+00    5.6230910233132834E+00    3.2191894144794766E+00
Ga    3.2065276177730557E+00    5.6227522250662814E+00    5.2274499185294232E+00
N    3.1921720008920507E+00    7.4955458853734624E+00    5.8074762863791909E+00
Ga    3.1950482712118964E+00    7.4952380767714484E+00    7.8134906435023099E+00
N    3.2047939333358433E+00    5.6241392410562527E+00    8.3977783275703484E+00
Ga    3.2042246718887450E+00    5.6236096858909628E+00    1.0402190568201689E+01
N    3.1959644329925578E+00    7.4943508383035420E+00    1.0992185106987401E+01
Ga    3.1949912705816965E+00    7.4937267298895982E+00    1.2999877492999195E+01
N    3.2065785774338855E+00    5.6262538996438902E+00    1.3593225823835258E+01
Ga    3.2053518211929526E+00    5.6283095516950894E+00    1.5609419510423521E+01
N    3.1944768513627055E+00    7.4842162465407878E+00    1.6185613811151853E+01
Ga    3.1909330035390009E+00    7.4789223287651261E+00    1.8258012005456415E+01
N    3.2153253678796498E+00    5.6373544192222598E+00    1.8663931130156008E+01
     &END COORD
     &KIND N
       BASIS_SET DZVP-MOLOPT-SR-GTH
       POTENTIAL GTH-PBE-q5
       &POTENTIAL
 2 3
  0.2837905100000000E+00 2 -0.1241522559000000E+02  0.1868095920000000E+01
 2
  0.2554050000000000E+00 1  0.1363026257000000E+02
  0.2454945300000000E+00 0
         # Potential name:  GTH-PBE-Q5  for symbol:  N
         # Potential read from the potential filename: GTH_POTENTIALS
       &END POTENTIAL
     &END KIND
     &KIND Ga
       BASIS_SET DZVP-MOLOPT-SR-GTH
       POTENTIAL GTH-PBE-q13
       &POTENTIAL
 2 1 10
  0.4900000000000000E+00 0
 3
  0.4167772300000000E+00 3  0.1047568975000000E+02 -0.4921768140000000E+01  0.8707055900000000E+00
  0.7770178090000000E+01 -0.2248152160000000E+01
  0.1784415450000000E+01
  0.5696265200000000E+00 2  0.1777985340000000E+01  0.1958597600000000E+00
 -0.2317443900000000E+00
  0.2381265000000000E+00 1 -0.1624868022000000E+02
         # Potential name:  GTH-PBE-Q13  for symbol:  GA
         # Potential read from the potential filename: GTH_POTENTIALS
       &END POTENTIAL
     &END KIND
     &TOPOLOGY
       COORD_FILE_NAME 334-native.xyz
       COORD_FILE_FORMAT  XYZ
       NUMBER_OF_ATOMS  144
       MULTIPLE_UNIT_CELL  1 1 1
     &END TOPOLOGY
   &END SUBSYS
 &END FORCE_EVAL
