 # Version information for this restart file 
 # current date 2019-05-16 03:46:19.282
 # current working dir /lustre03/project/6004141/rzk/GaN-carbene/00-Surface/00-Preoptimization/334-native/Trial4
 # Program compiled at                              Sun Apr  7 00:48:11 EDT 2019
 # Program compiled on                          beluga2.int.ets1.calculquebec.ca
 # Program compiled for                        Beluga-Linux-x86-64-intel-openmpi
 # Source code revision number                                         svn:18619
 &GLOBAL
   PRINT_LEVEL  MEDIUM
   PROJECT_NAME TEST
   RUN_TYPE  CELL_OPT
 &END GLOBAL
 &MOTION
   &CELL_OPT
     MAX_ITER  100
     STEP_START_VAL  46
     EXTERNAL_PRESSURE     1.0000000000000000E+00
     KEEP_ANGLES  T
     KEEP_SYMMETRY  T
     CONSTRAINT  Z
     PRESSURE_TOLERANCE     1.0000000000000000E+02
   &END CELL_OPT
 &END MOTION
 &FORCE_EVAL
   METHOD  QS
   STRESS_TENSOR  ANALYTICAL
   &DFT
     BASIS_SET_FILE_NAME BASIS_MOLOPT
     POTENTIAL_FILE_NAME GTH_POTENTIALS
     &SCF
       MAX_SCF  100
       EPS_SCF     5.0000000000000004E-06
       &OT  T
         PRECONDITIONER  FULL_ALL
       &END OT
       &OUTER_SCF  T
         OPTIMIZER  NONE
         EPS_SCF     5.0000000000000004E-06
         MAX_SCF  10
       &END OUTER_SCF
       &PRINT
         &RESTART  OFF
           BACKUP_COPIES  1
           &EACH
             JUST_ENERGY  0
             QS_SCF  0
             MD  20
           &END EACH
         &END RESTART
       &END PRINT
     &END SCF
     &ALMO_SCF
       EPS_FILTER     9.9999999999999994E-12
       ALMO_SCF_GUESS  ATOMIC
       MO_OVERLAP_INV_ALG  DENSE_CHOLESKY
       ALMO_EXTRAPOLATION_ORDER  4
       XALMO_EXTRAPOLATION_ORDER  4
       ALMO_ALGORITHM  SKIP
       XALMO_TRIAL_WF  SIMPLE
       DELOCALIZE_METHOD  XALMO_SCF
       XALMO_R_CUTOFF_FACTOR     1.8000000000000000E+00
       &ALMO_OPTIMIZER_DIIS
         MAX_ITER  100
         EPS_ERROR     1.0000000000000001E-05
         N_DIIS  5
       &END ALMO_OPTIMIZER_DIIS
       &ALMO_OPTIMIZER_PCG
         MAX_ITER  50
         EPS_ERROR     1.0000000000000001E-05
         LIN_SEARCH_EPS_ERROR     5.0000000000000003E-02
         LIN_SEARCH_STEP_SIZE_GUESS     5.0000000000000001E-03
         CONJUGATOR  DAI_YUAN
         MAX_ITER_OUTER_LOOP  10
       &END ALMO_OPTIMIZER_PCG
       &XALMO_OPTIMIZER_PCG
         MAX_ITER  1000
         EPS_ERROR     1.0000000000000001E-05
         LIN_SEARCH_EPS_ERROR     1.0000000000000001E-01
         LIN_SEARCH_STEP_SIZE_GUESS     1.0000000000000000E-02
         CONJUGATOR  DAI_YUAN
         PRECOND_FILTER_THRESHOLD     1.0000000000000000E-03
         MAX_ITER_OUTER_LOOP  0
       &END XALMO_OPTIMIZER_PCG
       &MATRIX_ITERATE
         EPS_TARGET_FACTOR     1.0000000000000000E+01
       &END MATRIX_ITERATE
     &END ALMO_SCF
     &QS
       EPS_DEFAULT     1.0000000000000000E-14
       ALMO_SCF  F
       METHOD  GPW
     &END QS
     &MGRID
       NGRIDS  5
       CUTOFF     1.2000000000000000E+03
     &END MGRID
     &XC
       DENSITY_CUTOFF     1.0000000000000000E-10
       GRADIENT_CUTOFF     1.0000000000000000E-10
       TAU_CUTOFF     1.0000000000000000E-10
       &XC_FUNCTIONAL  NO_SHORTCUT
         &PBE  T
         &END PBE
       &END XC_FUNCTIONAL
       &VDW_POTENTIAL
         POTENTIAL_TYPE  PAIR_POTENTIAL
         &PAIR_POTENTIAL
           R_CUTOFF     1.0000000000000002E+01
           TYPE  DFTD3
           PARAMETER_FILE_NAME dftd3.dat
           REFERENCE_FUNCTIONAL PBE
           EPS_CN     9.9999999999999995E-07
           CALCULATE_C9_TERM  T
           REFERENCE_C9_TERM  T
           LONG_RANGE_CORRECTION  F
           VERBOSE_OUTPUT  F
         &END PAIR_POTENTIAL
       &END VDW_POTENTIAL
     &END XC
   &END DFT
   &SUBSYS
     &CELL
       A     9.7470881707990493E+00    0.0000000000000000E+00    0.0000000000000000E+00
       B    -4.8523262056271506E+00    8.4044755230441304E+00    0.0000000000000000E+00
       C     0.0000000000000000E+00    0.0000000000000000E+00    3.0744000000000000E+01
       MULTIPLE_UNIT_CELL  1 1 1
       &CELL_REF
         A     9.5580000000000016E+00    0.0000000000000000E+00    0.0000000000000000E+00
         B    -4.7790000000000008E+00    8.2774708093716640E+00    0.0000000000000000E+00
         C     0.0000000000000000E+00    0.0000000000000000E+00    3.0744000000000000E+01
         MULTIPLE_UNIT_CELL  1 1 1
       &END CELL_REF
     &END CELL
     &COORD
Ga    6.5424737911377255E-04   -3.2176815790946642E-03   -5.8839262919398860E-01
N    6.1005373025719159E-03    1.8689143500661520E+00    5.6684286060203315E-01
Ga    4.6439550123455915E-03    1.8397522318878741E+00    2.5972847114055133E+00
N   -1.5435922424292343E-03   -2.4693478798466680E-03    3.2286854980300177E+00
Ga    6.2380035446997289E-04    8.6329053484331315E-04    5.2201222114560490E+00
N    7.7038697428373527E-03    1.8749492995773824E+00    5.8059457231501073E+00
Ga    6.4800035615664581E-03    1.8725536127945113E+00    7.8053176812517222E+00
N    5.5305941732205599E-04    5.2882415518608838E-04    8.4073871230390260E+00
Ga    2.1703484836049095E-03    2.3260298737112148E-03    1.0405105261550004E+01
N    7.5042235765453201E-03    1.8710208172769927E+00    1.1013068344705857E+01
Ga    4.6657443549264930E-03    1.8725522479534611E+00    1.3009566572925381E+01
N    1.1251948048796592E-03    2.8180030149803060E-03    1.3623337623740445E+01
Ga   -1.7283828853998047E-02   -7.1230821985636666E-03    1.5632631225278592E+01
N   -6.5662556943525928E-03    1.8821098248631718E+00    1.6208606734949239E+01
Ga    1.7707415833971937E-02    1.9004591950583960E+00    1.8285481801175614E+01
N    6.3242121934483416E-03    8.5730206045458342E-03    1.8650080884794825E+01
Ga   -1.6163044406122735E+00    2.7986145154546049E+00    2.8218711064163854E-01
N   -1.6194201035212601E+00    4.6662495172703782E+00    5.7047963125726520E-01
Ga   -1.5875858637626934E+00    4.6824314600452537E+00    2.5989808769981058E+00
N   -1.6185160039634656E+00    2.7986058098229023E+00    3.1895995643986192E+00
Ga   -1.6164554610338715E+00    2.8024574268374352E+00    5.2005696279343629E+00
N   -1.6137431426876334E+00    4.6718228538121584E+00    5.8068529060638374E+00
Ga   -1.6127373846030491E+00    4.6704089375145958E+00    7.8062608495657040E+00
N   -1.6168148324601499E+00    2.8013316866472131E+00    8.4116090396532854E+00
Ga   -1.6156853709731847E+00    2.8031405530404783E+00    1.0409644115063871E+01
N   -1.6068110667166953E+00    4.6751831988925296E+00    1.1012825941624309E+01
Ga   -1.6056133386212228E+00    4.6743440000961272E+00    1.3008430255058581E+01
N   -1.6186537950281938E+00    2.8049393284515176E+00    1.3610109717331436E+01
Ga   -1.6354735256257580E+00    2.7914342815635780E+00    1.5613309937080587E+01
N   -1.6228031613067702E+00    4.6728301773819609E+00    1.6214885603982232E+01
Ga   -1.6081463812180317E+00    4.6798662008414702E+00    1.8293370827466354E+01
N   -1.6223121796460200E+00    2.7932066262586948E+00    1.8675913310901457E+01
Ga   -3.2372173314675554E+00    5.5993602406272585E+00    2.8715383769980934E-01
N   -3.2251894757093473E+00    7.4700571027053506E+00    5.6472764003734965E-01
Ga   -3.2541739279726567E+00    7.4869827452410149E+00    2.5964861400915922E+00
N   -3.2362459418686984E+00    5.6017515081473457E+00    3.1872252697919827E+00
Ga   -3.2344312739408871E+00    5.6056639407259974E+00    5.1988134280144473E+00
N   -3.2255776439049550E+00    7.4734574293242755E+00    5.8084869900612803E+00
Ga   -3.2268534933218107E+00    7.4716497988080883E+00    7.8075926351008693E+00
N   -3.2341264885126626E+00    5.6024440155879658E+00    8.4137851592188149E+00
Ga   -3.2327381322832447E+00    5.6050603080934307E+00    1.0410881282060693E+01
N   -3.2283867534559301E+00    7.4758628092741759E+00    1.1016121609197754E+01
Ga   -3.2293560793686789E+00    7.4753653440071481E+00    1.3013474177752839E+01
N   -3.2334843375255122E+00    5.5993916519076476E+00    1.3607781772830581E+01
Ga   -3.2474828788802141E+00    5.5846654527931063E+00    1.5606476677857584E+01
N   -3.2449294263860295E+00    7.4547653744612310E+00    1.6206909078939518E+01
Ga   -3.2215491206156646E+00    7.4853367958810466E+00    1.8280323021690371E+01
N   -3.2424153471391981E+00    5.5965557977700193E+00    1.8645427209036885E+01
Ga    3.2493294876409742E+00   -5.9537234167683631E-03    2.7762648661056460E-01
N    3.2497652587526904E+00    1.8648939609820219E+00    5.6507314401008824E-01
Ga    3.2785211488626986E+00    1.8806334513690797E+00    2.5989780316450397E+00
N    3.2477377914833432E+00   -2.1428416358963281E-03    3.1894052715532903E+00
Ga    3.2492307000064051E+00    8.7722645179075796E-04    5.2000143460261459E+00
N    3.2528215780965466E+00    1.8700073423019610E+00    5.8077987889845710E+00
Ga    3.2530606902481689E+00    1.8683230232292958E+00    7.8074095738301992E+00
N    3.2494572631280603E+00   -1.6543893123980131E-03    8.4112339534025384E+00
Ga    3.2493487652533437E+00   -7.7078924343946685E-04    1.0407493619180782E+01
N    3.2552202668142507E+00    1.8691565889333035E+00    1.1010247657174615E+01
Ga    3.2493538747769350E+00    1.8618795446584422E+00    1.3006127686023296E+01
N    3.2479252437745831E+00   -6.3589596730793431E-03    1.3625599151165840E+01
Ga    3.2414185630079007E+00   -2.0009558723070496E-02    1.5634392469653305E+01
N    3.2250070555112798E+00    1.8575017697711378E+00    1.6208693171083162E+01
Ga    3.2580580891179141E+00    1.8852459884121398E+00    1.8283690499633479E+01
N    3.2526477206158551E+00   -1.0876618030812994E-02    1.8643250769671550E+01
Ga    1.6277571669008764E+00    2.7991816015281032E+00    2.8229854963918039E-01
N    1.6420881330250241E+00    4.6679219955727218E+00    5.6732139967136752E-01
Ga    1.6125895975003490E+00    4.6841807343047179E+00    2.5977468337940954E+00
N    1.6309592674148923E+00    2.7989978990548057E+00    3.1863351562886728E+00
Ga    1.6327664492239058E+00    2.8028807350187166E+00    5.1979051792479742E+00
N    1.6419369114745912E+00    4.6709985876739086E+00    5.8086382648217594E+00
Ga    1.6402074064782139E+00    4.6695612721674600E+00    7.8081428682429141E+00
N    1.6311533772186888E+00    2.8002358755203405E+00    8.4121784460934670E+00
Ga    1.6317486398762342E+00    2.8015562524934134E+00    1.0408587938615943E+01
N    1.6378640258164441E+00    4.6732934066360254E+00    1.1011065165718197E+01
Ga    1.6350363445520266E+00    4.6711598043065257E+00    1.3006675815229846E+01
N    1.6309505203886514E+00    2.8006070982981246E+00    1.3609794906301595E+01
Ga    1.6205596978965824E+00    2.7923647129777249E+00    1.5611655681093742E+01
N    1.6401678079710511E+00    4.6689079693286297E+00    1.6199633376636886E+01
Ga    1.6533221627875654E+00    4.6854687137681017E+00    1.8270806698235578E+01
N    1.6358960304139760E+00    2.8033552369618526E+00    1.8694533955500834E+01
Ga    1.0034850420576348E-02    5.5965576764802236E+00   -5.8424521645667327E-01
N    2.0566831873380247E-02    7.4732598769479841E+00    5.6806253659333750E-01
Ga    1.8560370528079451E-02    7.4421793501466862E+00    2.5971806467369376E+00
N    1.3195485771231199E-02    5.6004196206220085E+00    3.2305040597755492E+00
Ga    1.5514076021904244E-02    5.6040416943643985E+00    5.2216668933126051E+00
N    2.2215589809336262E-02    7.4784156503821011E+00    5.8065347082422516E+00
Ga    2.1422315889507954E-02    7.4747229042701822E+00    7.8058105406389737E+00
N    1.4355549237505608E-02    5.6023115995715731E+00    8.4057505797868313E+00
Ga    1.6021396380423651E-02    5.6048414654617709E+00    1.0402890182175609E+01
N    2.0680775615268931E-02    7.4733091816629447E+00    1.1012342134029021E+01
Ga    1.7200237974209453E-02    7.4704537196727241E+00    1.3008512758552872E+01
N    1.6902332577605827E-02    5.6046266443370225E+00    1.3629271851491952E+01
Ga    8.7629385353056432E-03    5.5978696302998854E+00    1.5638438568774765E+01
N    1.9356919808109885E-02    7.4764429307250841E+00    1.6217051933953975E+01
Ga    3.4074085056108136E-02    7.4761386559182039E+00    1.8288175359136439E+01
N    1.4273686608070079E-02    5.5821368064665258E+00    1.8671364995813519E+01
Ga    6.4946197462807884E+00   -5.3499293177949872E-03    2.8149506327035795E-01
N    6.5044381648277394E+00    1.8672158164733721E+00    5.6563322636507818E-01
Ga    6.4797686550149836E+00    1.8821050663059993E+00    2.6002330421866255E+00
N    6.4982083899431355E+00   -2.8234126208018899E-03    3.1853406635507051E+00
Ga    6.5002541698061442E+00    6.7689658868138290E-04    5.1974349263996809E+00
N    6.5084169666264646E+00    1.8693792187964517E+00    5.8075087728314321E+00
Ga    6.5066409733454469E+00    1.8682057904159863E+00    7.8077453144481455E+00
N    6.4977497110630678E+00   -7.6889561834561041E-04    8.4131609573976505E+00
Ga    6.4996442766936156E+00    1.0260971961664248E-03    1.0410147401442453E+01
N    6.5060620770411575E+00    1.8720753620857016E+00    1.1012257259703276E+01
Ga    6.5053891359671576E+00    1.8692032944851660E+00    1.3009449471224347E+01
N    6.4977766498849316E+00   -6.4178478832598237E-03    1.3601938828275696E+01
Ga    6.4832277361242197E+00   -2.0013343587346695E-02    1.5600540398636475E+01
N    6.4996944755614967E+00    1.8576316189150044E+00    1.6176586104172809E+01
Ga    6.5197682134917843E+00    1.8862403895333584E+00    1.8231339152022617E+01
N    6.5063322273976887E+00   -1.2071074435626280E-03    1.8627205448732745E+01
Ga    4.8787473862000814E+00    2.7984500576153959E+00   -5.4676023880102653E-01
N    4.8856566989475647E+00    4.6704483849520750E+00    5.7029790387271451E-01
Ga    4.8842557788738166E+00    4.6420877200282868E+00    2.6035767892014920E+00
N    4.8795863323219910E+00    2.7985719218313738E+00    3.2301986404167251E+00
Ga    4.8812298450766498E+00    2.8024039681716317E+00    5.2228797486414242E+00
N    4.8882014202108230E+00    4.6767157265295660E+00    5.8078985271465564E+00
Ga    4.8876992333529632E+00    4.6729161105645787E+00    7.8078951872408746E+00
N    4.8805646073344136E+00    2.8000255656734980E+00    8.4075088632206629E+00
Ga    4.8816512925925348E+00    2.8002167324661906E+00    1.0406056986357326E+01
N    4.8898296821736729E+00    4.6703511455014217E+00    1.1012078490615853E+01
Ga    4.8883888747334927E+00    4.6641929758285130E+00    1.3008622535781264E+01
N    4.8736595575716111E+00    2.7863468480704396E+00    1.3610546304037818E+01
Ga    4.8617528943217518E+00    2.7696928642985839E+00    1.5613573253952930E+01
N    4.8766983864596245E+00    4.6547743604705420E+00    1.6155988372618321E+01
Ga    4.8959344875658726E+00    4.6901913812554934E+00    1.8204934404952869E+01
N    4.8868721940960622E+00    2.8050252491137555E+00    1.8612109047602438E+01
Ga    3.2615510915168775E+00    5.5987163975410121E+00    2.7947705996765315E-01
N    3.2632674665489740E+00    7.4688636060904203E+00    5.6270047302111592E-01
Ga    3.2941308407113779E+00    7.4847468966291499E+00    2.5938464512287629E+00
N    3.2617345887665148E+00    5.6022168361888687E+00    3.1904803359282035E+00
Ga    3.2638144892560037E+00    5.6055592441954829E+00    5.2017106195322871E+00
N    3.2679023006021328E+00    7.4741115410879448E+00    5.8093845000784254E+00
Ga    3.2674957367143920E+00    7.4722848363351773E+00    7.8087565078068657E+00
N    3.2639332771645355E+00    5.6021284283041606E+00    8.4126151252972985E+00
Ga    3.2657098998722787E+00    5.6041365102550440E+00    1.0410065356460054E+01
N    3.2735534254934846E+00    7.4756826958940961E+00    1.1011355645881933E+01
Ga    3.2741193570116387E+00    7.4749811913044191E+00    1.3007096083059452E+01
N    3.2642221375461409E+00    5.5992192526220048E+00    1.3598365486700912E+01
Ga    3.2532697504188386E+00    5.5876576100848583E+00    1.5594904617217011E+01
N    3.2559774327699231E+00    7.4569533519226461E+00    1.6185268330597175E+01
Ga    3.2879205694267473E+00    7.5002497590365698E+00    1.8247435058586273E+01
N    3.2759452166127274E+00    5.6093587227836315E+00    1.8622191754415137E+01
     &END COORD
     &KIND N
       BASIS_SET DZVP-MOLOPT-SR-GTH
       POTENTIAL GTH-PBE-q5
       &POTENTIAL
 2 3
  0.2837905100000000E+00 2 -0.1241522559000000E+02  0.1868095920000000E+01
 2
  0.2554050000000000E+00 1  0.1363026257000000E+02
  0.2454945300000000E+00 0
         # Potential name:  GTH-PBE-Q5  for symbol:  N
         # Potential read from the potential filename: GTH_POTENTIALS
       &END POTENTIAL
     &END KIND
     &KIND Ga
       BASIS_SET DZVP-MOLOPT-SR-GTH
       POTENTIAL GTH-PBE-q13
       &POTENTIAL
 2 1 10
  0.4900000000000000E+00 0
 3
  0.4167772300000000E+00 3  0.1047568975000000E+02 -0.4921768140000000E+01  0.8707055900000000E+00
  0.7770178090000000E+01 -0.2248152160000000E+01
  0.1784415450000000E+01
  0.5696265200000000E+00 2  0.1777985340000000E+01  0.1958597600000000E+00
 -0.2317443900000000E+00
  0.2381265000000000E+00 1 -0.1624868022000000E+02
         # Potential name:  GTH-PBE-Q13  for symbol:  GA
         # Potential read from the potential filename: GTH_POTENTIALS
       &END POTENTIAL
     &END KIND
     &TOPOLOGY
       COORD_FILE_NAME 334-native.xyz
       COORD_FILE_FORMAT  XYZ
       NUMBER_OF_ATOMS  144
       MULTIPLE_UNIT_CELL  1 1 1
     &END TOPOLOGY
   &END SUBSYS
 &END FORCE_EVAL
