 # Version information for this restart file 
 # current date 2019-05-16 04:03:45.769
 # current working dir /lustre03/project/6004141/rzk/GaN-carbene/00-Surface/00-Preoptimization/334-native/Trial4
 # Program compiled at                              Sun Apr  7 00:48:11 EDT 2019
 # Program compiled on                          beluga2.int.ets1.calculquebec.ca
 # Program compiled for                        Beluga-Linux-x86-64-intel-openmpi
 # Source code revision number                                         svn:18619
 &GLOBAL
   PRINT_LEVEL  MEDIUM
   PROJECT_NAME TEST
   RUN_TYPE  CELL_OPT
 &END GLOBAL
 &MOTION
   &CELL_OPT
     MAX_ITER  100
     STEP_START_VAL  64
     EXTERNAL_PRESSURE     1.0000000000000000E+00
     KEEP_ANGLES  T
     KEEP_SYMMETRY  T
     CONSTRAINT  Z
     PRESSURE_TOLERANCE     1.0000000000000000E+02
   &END CELL_OPT
 &END MOTION
 &FORCE_EVAL
   METHOD  QS
   STRESS_TENSOR  ANALYTICAL
   &DFT
     BASIS_SET_FILE_NAME BASIS_MOLOPT
     POTENTIAL_FILE_NAME GTH_POTENTIALS
     &SCF
       MAX_SCF  100
       EPS_SCF     5.0000000000000004E-06
       &OT  T
         PRECONDITIONER  FULL_ALL
       &END OT
       &OUTER_SCF  T
         OPTIMIZER  NONE
         EPS_SCF     5.0000000000000004E-06
         MAX_SCF  10
       &END OUTER_SCF
       &PRINT
         &RESTART  OFF
           BACKUP_COPIES  1
           &EACH
             JUST_ENERGY  0
             QS_SCF  0
             MD  20
           &END EACH
         &END RESTART
       &END PRINT
     &END SCF
     &ALMO_SCF
       EPS_FILTER     9.9999999999999994E-12
       ALMO_SCF_GUESS  ATOMIC
       MO_OVERLAP_INV_ALG  DENSE_CHOLESKY
       ALMO_EXTRAPOLATION_ORDER  4
       XALMO_EXTRAPOLATION_ORDER  4
       ALMO_ALGORITHM  SKIP
       XALMO_TRIAL_WF  SIMPLE
       DELOCALIZE_METHOD  XALMO_SCF
       XALMO_R_CUTOFF_FACTOR     1.8000000000000000E+00
       &ALMO_OPTIMIZER_DIIS
         MAX_ITER  100
         EPS_ERROR     1.0000000000000001E-05
         N_DIIS  5
       &END ALMO_OPTIMIZER_DIIS
       &ALMO_OPTIMIZER_PCG
         MAX_ITER  50
         EPS_ERROR     1.0000000000000001E-05
         LIN_SEARCH_EPS_ERROR     5.0000000000000003E-02
         LIN_SEARCH_STEP_SIZE_GUESS     5.0000000000000001E-03
         CONJUGATOR  DAI_YUAN
         MAX_ITER_OUTER_LOOP  10
       &END ALMO_OPTIMIZER_PCG
       &XALMO_OPTIMIZER_PCG
         MAX_ITER  1000
         EPS_ERROR     1.0000000000000001E-05
         LIN_SEARCH_EPS_ERROR     1.0000000000000001E-01
         LIN_SEARCH_STEP_SIZE_GUESS     1.0000000000000000E-02
         CONJUGATOR  DAI_YUAN
         PRECOND_FILTER_THRESHOLD     1.0000000000000000E-03
         MAX_ITER_OUTER_LOOP  0
       &END XALMO_OPTIMIZER_PCG
       &MATRIX_ITERATE
         EPS_TARGET_FACTOR     1.0000000000000000E+01
       &END MATRIX_ITERATE
     &END ALMO_SCF
     &QS
       EPS_DEFAULT     1.0000000000000000E-14
       ALMO_SCF  F
       METHOD  GPW
     &END QS
     &MGRID
       NGRIDS  5
       CUTOFF     1.2000000000000000E+03
     &END MGRID
     &XC
       DENSITY_CUTOFF     1.0000000000000000E-10
       GRADIENT_CUTOFF     1.0000000000000000E-10
       TAU_CUTOFF     1.0000000000000000E-10
       &XC_FUNCTIONAL  NO_SHORTCUT
         &PBE  T
         &END PBE
       &END XC_FUNCTIONAL
       &VDW_POTENTIAL
         POTENTIAL_TYPE  PAIR_POTENTIAL
         &PAIR_POTENTIAL
           R_CUTOFF     1.0000000000000002E+01
           TYPE  DFTD3
           PARAMETER_FILE_NAME dftd3.dat
           REFERENCE_FUNCTIONAL PBE
           EPS_CN     9.9999999999999995E-07
           CALCULATE_C9_TERM  T
           REFERENCE_C9_TERM  T
           LONG_RANGE_CORRECTION  F
           VERBOSE_OUTPUT  F
         &END PAIR_POTENTIAL
       &END VDW_POTENTIAL
     &END XC
   &END DFT
   &SUBSYS
     &CELL
       A     9.7463666936879640E+00    0.0000000000000000E+00    0.0000000000000000E+00
       B    -4.8521214101084258E+00    8.4041208068005222E+00    0.0000000000000000E+00
       C     0.0000000000000000E+00    0.0000000000000000E+00    3.0744000000000000E+01
       MULTIPLE_UNIT_CELL  1 1 1
       &CELL_REF
         A     9.5580000000000016E+00    0.0000000000000000E+00    0.0000000000000000E+00
         B    -4.7790000000000008E+00    8.2774708093716640E+00    0.0000000000000000E+00
         C     0.0000000000000000E+00    0.0000000000000000E+00    3.0744000000000000E+01
         MULTIPLE_UNIT_CELL  1 1 1
       &END CELL_REF
     &END CELL
     &COORD
Ga   -8.5516778681067347E-04   -2.2833997533311121E-03   -5.8675943442696510E-01
N    6.4711364067002886E-03    1.8713451925022542E+00    5.6576756312744458E-01
Ga    5.6190199526680558E-03    1.8388766313498903E+00    2.5953929604205057E+00
N   -1.0922268223214717E-03   -2.9688637265558732E-03    3.2299274135384723E+00
Ga    3.0500313388246738E-04   -8.1610113047442831E-04    5.2214003545976038E+00
N    6.5250698107168657E-03    1.8730047749706531E+00    5.8082453978312811E+00
Ga    6.1750355128118934E-03    1.8708132467086545E+00    7.8069997104058642E+00
N    5.5742394690157942E-04   -2.0843659783347773E-03    8.4080243307913456E+00
Ga    1.3822707910505579E-03   -9.5662314953420065E-04    1.0405510834522687E+01
N    7.3695564271204521E-03    1.8688736286741203E+00    1.1012603416065474E+01
Ga    5.0605236002900398E-03    1.8696864718652251E+00    1.3008009382343065E+01
N    5.9677679739103182E-04    1.6580226939917392E-04    1.3622370271858138E+01
Ga   -1.6564838067705537E-02   -3.6227123211933312E-03    1.5629414015075968E+01
N   -6.9837746221516409E-03    1.8806304588906682E+00    1.6225486084153392E+01
Ga    2.4881951071308365E-02    1.9089502331723183E+00    1.8310517906097740E+01
N    7.2745833134599041E-03    1.3521120739907192E-02    1.8656282517452013E+01
Ga   -1.6160924426631742E+00    2.7996187827164101E+00    2.7906985895986397E-01
N   -1.6171118080285665E+00    4.6679824648641617E+00    5.6288668612476589E-01
Ga   -1.5878214495018119E+00    4.6834131809748003E+00    2.5940546386018268E+00
N   -1.6181148035947439E+00    2.7990348247775909E+00    3.1870718195071022E+00
Ga   -1.6166027531385398E+00    2.8008535249035753E+00    5.1984466285630129E+00
N   -1.6132265929571676E+00    4.6698065870245440E+00    5.8076670221769486E+00
Ga   -1.6122701831465289E+00    4.6694983244370887E+00    7.8067889153623176E+00
N   -1.6172734187212701E+00    2.8000275987759888E+00    8.4128942090840955E+00
Ga   -1.6160622680004328E+00    2.8006068754925764E+00    1.0409122269920296E+01
N   -1.6075119848356751E+00    4.6715522021441149E+00    1.1013863346142946E+01
Ga   -1.6071806630781444E+00    4.6701034392646044E+00    1.3009457898301054E+01
N   -1.6189311268204873E+00    2.7989576049498019E+00    1.3612108431676438E+01
Ga   -1.6312756178887735E+00    2.7881779868907883E+00    1.5614239759967402E+01
N   -1.6255574321538042E+00    4.6699994704536341E+00    1.6209382051199295E+01
Ga   -1.6070224160219067E+00    4.6808042952516331E+00    1.8284882511056594E+01
N   -1.6147022469465231E+00    2.8029815006135768E+00    1.8702259405072258E+01
Ga   -3.2349501423135703E+00    5.6026661823038051E+00    2.7702967415649554E-01
N   -3.2259564899948070E+00    7.4711199230635668E+00    5.6776257599514257E-01
Ga   -3.2545532621890092E+00    7.4844547374128529E+00    2.5963455196279543E+00
N   -3.2354159709179346E+00    5.5999783325060672E+00    3.1882100779654796E+00
Ga   -3.2342846026511487E+00    5.6020097082637088E+00    5.1990378165333784E+00
N   -3.2250369963507022E+00    7.4706696316349204E+00    5.8075930172249244E+00
Ga   -3.2263563150363588E+00    7.4698777337483042E+00    7.8065044944811781E+00
N   -3.2347455334211874E+00    5.6006772344427960E+00    8.4138903567862418E+00
Ga   -3.2342323598878191E+00    5.6009593589186952E+00    1.0411451788650020E+01
N   -3.2284538265930545E+00    7.4726082923677257E+00    1.1015478049223944E+01
Ga   -3.2306033816538910E+00    7.4717513267084268E+00    1.3012149636278483E+01
N   -3.2361222652731776E+00    5.5958210331300275E+00    1.3605737949823581E+01
Ga   -3.2491950755205785E+00    5.5844101782670963E+00    1.5603242499143747E+01
N   -3.2439345747455617E+00    7.4577995121521417E+00    1.6198996731949247E+01
Ga   -3.2250223740187804E+00    7.4912329555108341E+00    1.8268449596334417E+01
N   -3.2428192683273549E+00    5.6015651972702845E+00    1.8628466527566736E+01
Ga    3.2486140371556029E+00   -3.4093161033527642E-03    2.8213092189575978E-01
N    3.2512026425514091E+00    1.8681439149517745E+00    5.6433007450263550E-01
Ga    3.2772174888320142E+00    1.8819424203564004E+00    2.5987972824669736E+00
N    3.2475718973671492E+00   -2.6079282505114361E-03    3.1866406911571219E+00
Ga    3.2489151127489651E+00   -8.5554006884493757E-04    5.1981995840311086E+00
N    3.2526633638375513E+00    1.8682009322569670E+00    5.8067318521129341E+00
Ga    3.2533163117223327E+00    1.8671887542655601E+00    7.8059301722546177E+00
N    3.2486896163323475E+00   -2.3241539248471982E-03    8.4117469121172093E+00
Ga    3.2488065849323120E+00   -2.2896941671745608E-03    1.0408075290882161E+01
N    3.2540484973330850E+00    1.8679120971096286E+00    1.1012114677526700E+01
Ga    3.2474626113289426E+00    1.8611727253183921E+00    1.3007879472024864E+01
N    3.2447031021881787E+00   -7.1811913200213982E-03    1.3626529757354151E+01
Ga    3.2408384013412310E+00   -1.5086299072701426E-02    1.5633002004293724E+01
N    3.2246235199119697E+00    1.8660940716063599E+00    1.6211990296691077E+01
Ga    3.2563711990590862E+00    1.8938203165949161E+00    1.8286735240332838E+01
N    3.2527158953689188E+00   -5.2239946207832729E-03    1.8618979997150049E+01
Ga    1.6287167692004105E+00    2.8006093354437360E+00    2.7826309988095066E-01
N    1.6420324291293003E+00    4.6689585263049116E+00    5.6577364898593807E-01
Ga    1.6120635404298915E+00    4.6831016923214657E+00    2.5957027277383027E+00
N    1.6300999833806147E+00    2.7986926607502212E+00    3.1883133144183424E+00
Ga    1.6311441146516030E+00    2.8006957519554159E+00    5.1991490494984580E+00
N    1.6407623426850233E+00    4.6701691149096494E+00    5.8066527523029938E+00
Ga    1.6394928355632890E+00    4.6700924168986200E+00    7.8059331859702779E+00
N    1.6315999341409695E+00    2.8000829699355205E+00    8.4101575455588407E+00
Ga    1.6314082380102877E+00    2.8001286212511145E+00    1.0406412680927646E+01
N    1.6354854960387293E+00    4.6708978356782458E+00    1.1010695601539920E+01
Ga    1.6294807735403922E+00    4.6678973984925447E+00    1.3005022551372743E+01
N    1.6281692462887485E+00    2.7983687773605501E+00    1.3613975855054326E+01
Ga    1.6149824963453472E+00    2.7940713939761359E+00    1.5618079647146121E+01
N    1.6358280204830342E+00    4.6699234844739719E+00    1.6207374397287726E+01
Ga    1.6561433961863405E+00    4.6864122247658999E+00    1.8285582140472368E+01
N    1.6406663361240488E+00    2.8099109218835623E+00    1.8730416178319171E+01
Ga    1.5434122410358533E-02    5.6027065711527131E+00   -5.9201314926513438E-01
N    2.1066696803924166E-02    7.4751421696903639E+00    5.6544060570908838E-01
Ga    1.9805403330069055E-02    7.4421057874377432E+00    2.5960363546447032E+00
N    1.2624060979991292E-02    5.5996958857567956E+00    3.2280281703528866E+00
Ga    1.4090965506922064E-02    5.6020772720264098E+00    5.2188350877776397E+00
N    2.0681518687746543E-02    7.4756503979763957E+00    5.8065220352619367E+00
Ga    2.0322660762596083E-02    7.4733961359645784E+00    7.8056645951742709E+00
N    1.4166188364552426E-02    5.6017147402399905E+00    8.4073765904071340E+00
Ga    1.4382923312904795E-02    5.6037042544296041E+00    1.0404274606002954E+01
N    2.0189055967170379E-02    7.4720538568855632E+00    1.1015468417257559E+01
Ga    1.7129304457850714E-02    7.4699740607243621E+00    1.3014069569039012E+01
N    1.2346470678570117E-02    5.6019225743876557E+00    1.3630499687271046E+01
Ga    4.1265795064080405E-03    5.6002660502406263E+00    1.5639315355730380E+01
N    1.7196740371541903E-02    7.4791129974438393E+00    1.6208562475437397E+01
Ga    3.4027291232885469E-02    7.4768698275120249E+00    1.8270087054481522E+01
N    1.4391089636717173E-02    5.5866591757254538E+00    1.8662017633545712E+01
Ga    6.4959731741929758E+00   -2.5142098800253468E-03    2.7946478584876244E-01
N    6.5064294370446687E+00    1.8686515587799790E+00    5.6441642544954174E-01
Ga    6.4794536089795587E+00    1.8816159447021479E+00    2.5992760041859926E+00
N    6.4965473158389990E+00   -2.3849945226007089E-03    3.1889306655598402E+00
Ga    6.4982063278956348E+00   -6.5708961650450524E-04    5.1998671942456944E+00
N    6.5072534920639775E+00    1.8685500702547035E+00    5.8077056911620764E+00
Ga    6.5058356452422892E+00    1.8675062866786505E+00    7.8072236014709864E+00
N    6.4975013964733606E+00   -2.4656634843423998E-03    8.4118797662594318E+00
Ga    6.4986970887670736E+00   -2.1722583478370754E-03    1.0409291349520743E+01
N    6.5054256873313951E+00    1.8691460859418165E+00    1.1012025131508453E+01
Ga    6.5050623473727720E+00    1.8638418013003655E+00    1.3008033268428695E+01
N    6.4972235408317918E+00   -7.5582475352717754E-03    1.3611055020491065E+01
Ga    6.4861666581425110E+00   -1.8063553602176253E-02    1.5612116900049838E+01
N    6.5049401668262945E+00    1.8625196082114353E+00    1.6194101450422959E+01
Ga    6.5297841664109466E+00    1.8953079089917060E+00    1.8256990829818662E+01
N    6.5097804833126531E+00   -1.5497679352619168E-03    1.8599109455321898E+01
Ga    4.8804023559627012E+00    2.7996989806420722E+00   -5.5035756606560771E-01
N    4.8873798615391379E+00    4.6707644050355857E+00    5.6339854747142193E-01
Ga    4.8864867974715605E+00    4.6414559906734603E+00    2.5983190071373721E+00
N    4.8789880685128120E+00    2.7985262255170942E+00    3.2287687963242262E+00
Ga    4.8805406633737123E+00    2.8006981033618525E+00    5.2209482734272470E+00
N    4.8871272537990658E+00    4.6742548859588746E+00    5.8082256135928638E+00
Ga    4.8863808804518838E+00    4.6713549639914760E+00    7.8081068814916756E+00
N    4.8797698673472549E+00    2.7984314225077309E+00    8.4086721650810077E+00
Ga    4.8804002613708928E+00    2.7972133004381772E+00    1.0406457606981292E+01
N    4.8877990200042323E+00    4.6659421919583206E+00    1.1014647763432004E+01
Ga    4.8850472700157654E+00    4.6576149916115854E+00    1.3010820177532308E+01
N    4.8748148299309895E+00    2.7797327004822319E+00    1.3614714459964469E+01
Ga    4.8638961087456707E+00    2.7678574042153730E+00    1.5617781685864371E+01
N    4.8712052391399716E+00    4.6551719758556942E+00    1.6147009717330832E+01
Ga    4.8965238711159111E+00    4.6875711266373772E+00    1.8192763912000363E+01
N    4.8904023536717469E+00    2.8064970638106357E+00    1.8609892374205369E+01
Ga    3.2620715539083101E+00    5.6012580681500461E+00    2.8169349568833685E-01
N    3.2639079010752994E+00    7.4700933812396073E+00    5.6836667229208337E-01
Ga    3.2925552915275942E+00    7.4852223666027804E+00    2.5967372147747301E+00
N    3.2621963578261997E+00    5.5999708675334867E+00    3.1869930929974046E+00
Ga    3.2635575424438956E+00    5.6022162242375240E+00    5.1985395799008982E+00
N    3.2668255902619534E+00    7.4707187608363608E+00    5.8082018114026983E+00
Ga    3.2675886994554175E+00    7.4696185370412476E+00    7.8075377953591714E+00
N    3.2629764342003287E+00    5.6003836758713206E+00    8.4143579009275253E+00
Ga    3.2643213477076665E+00    5.6008987876899523E+00    1.0411656262841039E+01
N    3.2722903584632821E+00    7.4728274545785887E+00    1.1013325615023666E+01
Ga    3.2711938670344565E+00    7.4720443867135860E+00    1.3009971174144015E+01
N    3.2591039874010370E+00    5.5936515577985544E+00    1.3594550604494895E+01
Ga    3.2477675820690801E+00    5.5887962471735575E+00    1.5588247637096629E+01
N    3.2634793200329688E+00    7.4541286022102264E+00    1.6178534077659553E+01
Ga    3.2961547030185110E+00    7.4978497306724048E+00    1.8234307917976693E+01
N    3.2812766208202859E+00    5.6112462410081791E+00    1.8625527406233616E+01
     &END COORD
     &KIND N
       BASIS_SET DZVP-MOLOPT-SR-GTH
       POTENTIAL GTH-PBE-q5
       &POTENTIAL
 2 3
  0.2837905100000000E+00 2 -0.1241522559000000E+02  0.1868095920000000E+01
 2
  0.2554050000000000E+00 1  0.1363026257000000E+02
  0.2454945300000000E+00 0
         # Potential name:  GTH-PBE-Q5  for symbol:  N
         # Potential read from the potential filename: GTH_POTENTIALS
       &END POTENTIAL
     &END KIND
     &KIND Ga
       BASIS_SET DZVP-MOLOPT-SR-GTH
       POTENTIAL GTH-PBE-q13
       &POTENTIAL
 2 1 10
  0.4900000000000000E+00 0
 3
  0.4167772300000000E+00 3  0.1047568975000000E+02 -0.4921768140000000E+01  0.8707055900000000E+00
  0.7770178090000000E+01 -0.2248152160000000E+01
  0.1784415450000000E+01
  0.5696265200000000E+00 2  0.1777985340000000E+01  0.1958597600000000E+00
 -0.2317443900000000E+00
  0.2381265000000000E+00 1 -0.1624868022000000E+02
         # Potential name:  GTH-PBE-Q13  for symbol:  GA
         # Potential read from the potential filename: GTH_POTENTIALS
       &END POTENTIAL
     &END KIND
     &TOPOLOGY
       COORD_FILE_NAME 334-native.xyz
       COORD_FILE_FORMAT  XYZ
       NUMBER_OF_ATOMS  144
       MULTIPLE_UNIT_CELL  1 1 1
     &END TOPOLOGY
   &END SUBSYS
 &END FORCE_EVAL
