 # Version information for this restart file 
 # current date 2019-05-16 05:44:46.521
 # current working dir /lustre03/project/6004141/rzk/GaN-carbene/00-Surface/00-Preoptimization/334-native/Trial4
 # Program compiled at                              Sun Apr  7 00:48:11 EDT 2019
 # Program compiled on                          beluga2.int.ets1.calculquebec.ca
 # Program compiled for                        Beluga-Linux-x86-64-intel-openmpi
 # Source code revision number                                         svn:18619
 &GLOBAL
   PRINT_LEVEL  MEDIUM
   PROJECT_NAME TEST
   RUN_TYPE  CELL_OPT
 &END GLOBAL
 &MOTION
   &CELL_OPT
     MAX_ITER  100
     STEP_START_VAL  97
     EXTERNAL_PRESSURE     1.0000000000000000E+00
     KEEP_ANGLES  T
     KEEP_SYMMETRY  T
     CONSTRAINT  Z
     PRESSURE_TOLERANCE     1.0000000000000000E+02
   &END CELL_OPT
 &END MOTION
 &FORCE_EVAL
   METHOD  QS
   STRESS_TENSOR  ANALYTICAL
   &DFT
     BASIS_SET_FILE_NAME BASIS_MOLOPT
     POTENTIAL_FILE_NAME GTH_POTENTIALS
     &SCF
       MAX_SCF  100
       EPS_SCF     5.0000000000000004E-06
       &OT  T
         PRECONDITIONER  FULL_ALL
       &END OT
       &OUTER_SCF  T
         OPTIMIZER  NONE
         EPS_SCF     5.0000000000000004E-06
         MAX_SCF  10
       &END OUTER_SCF
       &PRINT
         &RESTART  OFF
           BACKUP_COPIES  1
           &EACH
             JUST_ENERGY  0
             QS_SCF  0
             MD  20
           &END EACH
         &END RESTART
       &END PRINT
     &END SCF
     &ALMO_SCF
       EPS_FILTER     9.9999999999999994E-12
       ALMO_SCF_GUESS  ATOMIC
       MO_OVERLAP_INV_ALG  DENSE_CHOLESKY
       ALMO_EXTRAPOLATION_ORDER  4
       XALMO_EXTRAPOLATION_ORDER  4
       ALMO_ALGORITHM  SKIP
       XALMO_TRIAL_WF  SIMPLE
       DELOCALIZE_METHOD  XALMO_SCF
       XALMO_R_CUTOFF_FACTOR     1.8000000000000000E+00
       &ALMO_OPTIMIZER_DIIS
         MAX_ITER  100
         EPS_ERROR     1.0000000000000001E-05
         N_DIIS  5
       &END ALMO_OPTIMIZER_DIIS
       &ALMO_OPTIMIZER_PCG
         MAX_ITER  50
         EPS_ERROR     1.0000000000000001E-05
         LIN_SEARCH_EPS_ERROR     5.0000000000000003E-02
         LIN_SEARCH_STEP_SIZE_GUESS     5.0000000000000001E-03
         CONJUGATOR  DAI_YUAN
         MAX_ITER_OUTER_LOOP  10
       &END ALMO_OPTIMIZER_PCG
       &XALMO_OPTIMIZER_PCG
         MAX_ITER  1000
         EPS_ERROR     1.0000000000000001E-05
         LIN_SEARCH_EPS_ERROR     1.0000000000000001E-01
         LIN_SEARCH_STEP_SIZE_GUESS     1.0000000000000000E-02
         CONJUGATOR  DAI_YUAN
         PRECOND_FILTER_THRESHOLD     1.0000000000000000E-03
         MAX_ITER_OUTER_LOOP  0
       &END XALMO_OPTIMIZER_PCG
       &MATRIX_ITERATE
         EPS_TARGET_FACTOR     1.0000000000000000E+01
       &END MATRIX_ITERATE
     &END ALMO_SCF
     &QS
       EPS_DEFAULT     1.0000000000000000E-14
       ALMO_SCF  F
       METHOD  GPW
     &END QS
     &MGRID
       NGRIDS  5
       CUTOFF     1.2000000000000000E+03
     &END MGRID
     &XC
       DENSITY_CUTOFF     1.0000000000000000E-10
       GRADIENT_CUTOFF     1.0000000000000000E-10
       TAU_CUTOFF     1.0000000000000000E-10
       &XC_FUNCTIONAL  NO_SHORTCUT
         &PBE  T
         &END PBE
       &END XC_FUNCTIONAL
       &VDW_POTENTIAL
         POTENTIAL_TYPE  PAIR_POTENTIAL
         &PAIR_POTENTIAL
           R_CUTOFF     1.0000000000000002E+01
           TYPE  DFTD3
           PARAMETER_FILE_NAME dftd3.dat
           REFERENCE_FUNCTIONAL PBE
           EPS_CN     9.9999999999999995E-07
           CALCULATE_C9_TERM  T
           REFERENCE_C9_TERM  T
           LONG_RANGE_CORRECTION  F
           VERBOSE_OUTPUT  F
         &END PAIR_POTENTIAL
       &END VDW_POTENTIAL
     &END XC
   &END DFT
   &SUBSYS
     &CELL
       A     9.7436707023729063E+00    0.0000000000000000E+00    0.0000000000000000E+00
       B    -4.8554929246604068E+00    8.4099604413029816E+00    0.0000000000000000E+00
       C     0.0000000000000000E+00    0.0000000000000000E+00    3.0744000000000000E+01
       MULTIPLE_UNIT_CELL  1 1 1
       &CELL_REF
         A     9.5580000000000016E+00    0.0000000000000000E+00    0.0000000000000000E+00
         B    -4.7790000000000008E+00    8.2774708093716640E+00    0.0000000000000000E+00
         C     0.0000000000000000E+00    0.0000000000000000E+00    3.0744000000000000E+01
         MULTIPLE_UNIT_CELL  1 1 1
       &END CELL_REF
     &END CELL
     &COORD
Ga    1.5270824718403922E-03   -1.1555309066900034E-04   -5.9244733817618933E-01
N    6.0350544458702658E-03    1.8737404912113760E+00    5.6628807507660495E-01
Ga    4.9585098927498635E-03    1.8396697876367460E+00    2.5947601970138559E+00
N   -2.5227309461240419E-04   -2.6535484117283046E-03    3.2286288203647042E+00
Ga    2.4225751441450674E-04   -2.9940830403808677E-03    5.2199452356411253E+00
N    4.9922739927670693E-03    1.8713954515773668E+00    5.8068320157075624E+00
Ga    3.7675943941942974E-03    1.8680097444670689E+00    7.8060201311198867E+00
N   -6.7886732842156099E-04   -5.2396679922277704E-03    8.4080214710039005E+00
Ga   -2.1616739837750329E-04   -4.3962977974466438E-03    1.0405979033888011E+01
N    4.2837098346536527E-03    1.8672841858934939E+00    1.1011079263486028E+01
Ga    3.6541154495397408E-03    1.8724214073327725E+00    1.3005354109402466E+01
N   -4.9651826941553832E-04    2.8157814061735053E-03    1.3611590874372476E+01
Ga   -8.5178266787866910E-03    1.2689747394856061E-02    1.5613949413523621E+01
N    1.3415084306471542E-03    1.8826046701278840E+00    1.6255588361002488E+01
Ga    1.5921596686015383E-02    1.9072339637573064E+00    1.8362133633399370E+01
N    3.1871318278433392E-03    1.0733852439966171E-02    1.8664835703976287E+01
Ga   -1.6163905205820515E+00    2.8021127271880917E+00    2.8081754428587685E-01
N   -1.6185926429672364E+00    4.6708618380709570E+00    5.6467008490139670E-01
Ga   -1.5897161780323088E+00    4.6859845956901633E+00    2.5945711996446987E+00
N   -1.6184801059075007E+00    2.8007306222845187E+00    3.1866301184709056E+00
Ga   -1.6180524886915941E+00    2.8005261774938650E+00    5.1977774470867493E+00
N   -1.6163945206116261E+00    4.6700654278922835E+00    5.8066555241747428E+00
Ga   -1.6162372142796313E+00    4.6680869691838618E+00    7.8061337686019714E+00
N   -1.6198373235954240E+00    2.7978976409165752E+00    8.4115865633748221E+00
Ga   -1.6192781612085321E+00    2.7983494214032660E+00    1.0407498599832074E+01
N   -1.6109210372893612E+00    4.6688044801714650E+00    1.1014221875008062E+01
Ga   -1.6067777566265997E+00    4.6673879010602999E+00    1.3010288366770672E+01
N   -1.6181467022864837E+00    2.7981872083930321E+00    1.3624427143485168E+01
Ga   -1.6241413179348088E+00    2.7938482138051381E+00    1.5631948241785144E+01
N   -1.6237158130052398E+00    4.6758331192833449E+00    1.6216666314750686E+01
Ga   -1.6094765909522661E+00    4.6796212361140812E+00    1.8296721142753942E+01
N   -1.6217488327304372E+00    2.8130994323347172E+00    1.8733746938867171E+01
Ga   -3.2361208657240228E+00    5.6067251367996658E+00    2.8012036321231626E-01
N   -3.2276793125305567E+00    7.4756214193238453E+00    5.6531921705318777E-01
Ga   -3.2570347745043704E+00    7.4896727529290592E+00    2.5948017560064702E+00
N   -3.2370059544999097E+00    5.6042690218474478E+00    3.1871983839513205E+00
Ga   -3.2369046744982861E+00    5.6044748834515641E+00    5.1982235253781184E+00
N   -3.2289403701047474E+00    7.4733428434718014E+00    5.8077762289473620E+00
Ga   -3.2308101625733836E+00    7.4712097642662725E+00    7.8073388105597665E+00
N   -3.2377548374477936E+00    5.6009489221738322E+00    8.4144122477295404E+00
Ga   -3.2371672347128717E+00    5.6012489945655979E+00    1.0412343190839358E+01
N   -3.2329909648567026E+00    7.4741986203930670E+00    1.1014293165872319E+01
Ga   -3.2323405107287826E+00    7.4775785597744253E+00    1.3010801875786219E+01
N   -3.2354641734911764E+00    5.5988599298024155E+00    1.3597031448389371E+01
Ga   -3.2419049736579515E+00    5.5972414038999769E+00    1.5590900437371264E+01
N   -3.2416289788614217E+00    7.4727671576971879E+00    1.6163282255411051E+01
Ga   -3.2437907362332554E+00    7.4938881909308970E+00    1.8214544635038294E+01
N   -3.2465334626101447E+00    5.6152291894756150E+00    1.8614250436017816E+01
Ga    3.2492333478812045E+00   -3.3178872051489662E-03    2.7955268403409050E-01
N    3.2497032022930554E+00    1.8684026146330668E+00    5.6438239396175272E-01
Ga    3.2760275238745118E+00    1.8822576092885426E+00    2.5976380973819913E+00
N    3.2479204177077801E+00   -2.8525752965012077E-03    3.1859267538543241E+00
Ga    3.2480031807129937E+00   -3.1821248721634076E-03    5.1973859977209260E+00
N    3.2500468510115366E+00    1.8665413287421486E+00    5.8059344881054997E+00
Ga    3.2499785813344721E+00    1.8642300334787709E+00    7.8056557017690968E+00
N    3.2472653601212551E+00   -5.5858967621152875E-03    8.4127020114231801E+00
Ga    3.2474872254705813E+00   -5.3880840233377740E-03    1.0409574594580370E+01
N    3.2506332479214106E+00    1.8659801045677149E+00    1.1014332628687807E+01
Ga    3.2467578957143139E+00    1.8639810648612383E+00    1.3011332899219186E+01
N    3.2470907858269062E+00   -4.8733990694600016E-03    1.3625156707460699E+01
Ga    3.2496913559454024E+00   -1.2394740292792259E-03    1.5629546455523602E+01
N    3.2314577484066360E+00    1.8814334709747125E+00    1.6213235715392738E+01
Ga    3.2460199754504271E+00    1.8981485421403497E+00    1.8286343929011910E+01
N    3.2420138283529498E+00   -1.7694444673923570E-03    1.8576577121940645E+01
Ga    1.6279770916153835E+00    2.8031472577049890E+00    2.7916440157601763E-01
N    1.6392427152028799E+00    4.6718579552945050E+00    5.6371720876884246E-01
Ga    1.6097700707757705E+00    4.6863490589608139E+00    2.5941337519170711E+00
N    1.6289294399093117E+00    2.8010326779409591E+00    3.1865228149028879E+00
Ga    1.6291035918587211E+00    2.8005991336307372E+00    5.1975244433709111E+00
N    1.6371571523144333E+00    4.6700838866633241E+00    5.8064661608593822E+00
Ga    1.6349387112140255E+00    4.6683083213336660E+00    7.8058675988414929E+00
N    1.6285212372002593E+00    2.7979419340753306E+00    8.4106228625380268E+00
Ga    1.6286471490600338E+00    2.7987133857915190E+00    1.0406711188708213E+01
N    1.6306133664194538E+00    4.6692674843733712E+00    1.1013101328348846E+01
Ga    1.6247332341717720E+00    4.6680370002012213E+00    1.3008772906135160E+01
N    1.6251726441206034E+00    2.7988412890839709E+00    1.3618442220492657E+01
Ga    1.6188148922036889E+00    2.7995046894605347E+00    1.5624980441425025E+01
N    1.6377510966118822E+00    4.6759255229809682E+00    1.6209962582895162E+01
Ga    1.6545239855344722E+00    4.6810131553131171E+00    1.8289625417641677E+01
N    1.6360330162584966E+00    2.8155715116236926E+00    1.8748901343769074E+01
Ga    1.0828044690976535E-02    5.6052485159037095E+00   -5.9021117118697763E-01
N    1.7137052997643065E-02    7.4800803414073531E+00    5.6404299159767068E-01
Ga    1.6053023297246855E-02    7.4466311736205881E+00    2.5939157821648782E+00
N    1.0418694699143102E-02    5.6036365637300287E+00    3.2275123521911682E+00
Ga    1.0927080249149627E-02    5.6039965263303504E+00    5.2187337003964069E+00
N    1.6002918722095187E-02    7.4781033907105838E+00    5.8062354371974116E+00
Ga    1.4626492620977150E-02    7.4741132157887238E+00    7.8055740057567311E+00
N    9.7810152034693114E-03    5.6014125486744035E+00    8.4074290863894081E+00
Ga    1.0213894545245360E-02    5.6030237253772768E+00    1.0404945889771662E+01
N    1.5155374526984308E-02    7.4723333650279429E+00    1.1016348991888039E+01
Ga    1.4175316157512448E-02    7.4724650116552160E+00    1.3016017235435662E+01
N    8.0161628371195164E-03    5.6048422413566499E+00    1.3633845201411189E+01
Ga    5.2027811048875224E-03    5.6127562590898181E+00    1.5645118261708379E+01
N    1.2844557072378188E-02    7.4879768827776712E+00    1.6215117316497849E+01
Ga    2.8013167153849761E-02    7.4792452041328694E+00    1.8275654651716518E+01
N    1.5837472437477889E-02    5.5927586316589091E+00    1.8643537199886257E+01
Ga    6.4956750844760389E+00   -1.8086849475742459E-03    2.7880963293463573E-01
N    6.5040157694256262E+00    1.8696956480193616E+00    5.6406824755789831E-01
Ga    6.4768028904968649E+00    1.8822484703569273E+00    2.5977367921190195E+00
N    6.4957618788342950E+00   -2.7565070615324398E-03    3.1865313755552527E+00
Ga    6.4963724585677447E+00   -2.9922927334773116E-03    5.1977619663682502E+00
N    6.5035050150621423E+00    1.8667651874989453E+00    5.8061674091647610E+00
Ga    6.5014385253377958E+00    1.8645541045829599E+00    7.8058030600086008E+00
N    6.4943629598010340E+00   -5.6442682151993983E-03    8.4116678886540743E+00
Ga    6.4950266484620949E+00   -5.5009117451572109E-03    1.0408788709251033E+01
N    6.5017315300911473E+00    1.8656383315640082E+00    1.1015368809222977E+01
Ga    6.5050168242941950E+00    1.8632143647455255E+00    1.3013052301716929E+01
N    6.4945455681387108E+00   -7.6099281052643348E-03    1.3621794606399664E+01
Ga    6.4842990824849585E+00   -1.0464894585811478E-02    1.5625072698694789E+01
N    6.5108691286705387E+00    1.8698859034492030E+00    1.6210675209658252E+01
Ga    6.5236024535890786E+00    1.8974396589722178E+00    1.8281924653469844E+01
N    6.5090290767266215E+00   -6.5645245292782450E-05    1.8585143394312496E+01
Ga    4.8776615102730485E+00    2.8026017358963817E+00   -5.5100103670237188E-01
N    4.8833487322974181E+00    4.6750375350169078E+00    5.6521225390611163E-01
Ga    4.8819721542465384E+00    4.6447872439190201E+00    2.5984851877448540E+00
N    4.8768811418722686E+00    2.8005700440329755E+00    3.2277108960525922E+00
Ga    4.8773400407143415E+00    2.8008123646087326E+00    5.2196956739322591E+00
N    4.8824151010087524E+00    4.6748101359154139E+00    5.8079054746185008E+00
Ga    4.8812441496973014E+00    4.6704558070533588E+00    7.8082323013683599E+00
N    4.8761156203855940E+00    2.7965330972070710E+00    8.4089052082623645E+00
Ga    4.8768121086684051E+00    2.7952348601295331E+00    1.0407334955275791E+01
N    4.8820476515192928E+00    4.6651253445041325E+00    1.1013152579542821E+01
Ga    4.8822006902762380E+00    4.6590564622248145E+00    1.3008731283125591E+01
N    4.8760288862234864E+00    2.7827448350022856E+00    1.3619582476199300E+01
Ga    4.8696164105123483E+00    2.7770463097946099E+00    1.5623062688332071E+01
N    4.8750355097015046E+00    4.6679600133954340E+00    1.6137249562659207E+01
Ga    4.8902547686730804E+00    4.6897892273060222E+00    1.8181903467393777E+01
N    4.8817521750057837E+00    2.8151958025173904E+00    1.8603300277965246E+01
Ga    3.2588433879690299E+00    5.6057804768486577E+00    2.7958233466180599E-01
N    3.2595664905654234E+00    7.4745606705381880E+00    5.6485623417784270E-01
Ga    3.2883819372812328E+00    7.4896611515523404E+00    2.5942554067860444E+00
N    3.2583270734124881E+00    5.6044248043460669E+00    3.1869975245980462E+00
Ga    3.2590632969695448E+00    5.6045000660028368E+00    5.1984462381340979E+00
N    3.2612146789853615E+00    7.4734078278860254E+00    5.8078376809987953E+00
Ga    3.2610531436600567E+00    7.4709997318754500E+00    7.8073790220192851E+00
N    3.2576251662784395E+00    5.6007106662027182E+00    8.4142875344137629E+00
Ga    3.2581871053938887E+00    5.6011682182126643E+00    1.0412198367590808E+01
N    3.2641881375521309E+00    7.4743999605326801E+00    1.1012611647298208E+01
Ga    3.2633583232298697E+00    7.4769111051304993E+00    1.3008993017431845E+01
N    3.2552996319858325E+00    5.5977447358405765E+00    1.3590759888449059E+01
Ga    3.2493846296300477E+00    5.6000562147222039E+00    1.5584119397437348E+01
N    3.2688696118353078E+00    7.4691529555601690E+00    1.6164539084167753E+01
Ga    3.2921979759791258E+00    7.4967596210854088E+00    1.8215622522296872E+01
N    3.2761219659810208E+00    5.6189902343287557E+00    1.8618622189575294E+01
     &END COORD
     &KIND N
       BASIS_SET DZVP-MOLOPT-SR-GTH
       POTENTIAL GTH-PBE-q5
       &POTENTIAL
 2 3
  0.2837905100000000E+00 2 -0.1241522559000000E+02  0.1868095920000000E+01
 2
  0.2554050000000000E+00 1  0.1363026257000000E+02
  0.2454945300000000E+00 0
         # Potential name:  GTH-PBE-Q5  for symbol:  N
         # Potential read from the potential filename: GTH_POTENTIALS
       &END POTENTIAL
     &END KIND
     &KIND Ga
       BASIS_SET DZVP-MOLOPT-SR-GTH
       POTENTIAL GTH-PBE-q13
       &POTENTIAL
 2 1 10
  0.4900000000000000E+00 0
 3
  0.4167772300000000E+00 3  0.1047568975000000E+02 -0.4921768140000000E+01  0.8707055900000000E+00
  0.7770178090000000E+01 -0.2248152160000000E+01
  0.1784415450000000E+01
  0.5696265200000000E+00 2  0.1777985340000000E+01  0.1958597600000000E+00
 -0.2317443900000000E+00
  0.2381265000000000E+00 1 -0.1624868022000000E+02
         # Potential name:  GTH-PBE-Q13  for symbol:  GA
         # Potential read from the potential filename: GTH_POTENTIALS
       &END POTENTIAL
     &END KIND
     &TOPOLOGY
       COORD_FILE_NAME 334-native.xyz
       COORD_FILE_FORMAT  XYZ
       NUMBER_OF_ATOMS  144
       MULTIPLE_UNIT_CELL  1 1 1
     &END TOPOLOGY
   &END SUBSYS
 &END FORCE_EVAL
