 # Version information for this restart file 
 # current date 2019-05-16 05:12:49.084
 # current working dir /lustre03/project/6004141/rzk/GaN-carbene/00-Surface/00-Preoptimization/334-native/Trial4
 # Program compiled at                              Sun Apr  7 00:48:11 EDT 2019
 # Program compiled on                          beluga2.int.ets1.calculquebec.ca
 # Program compiled for                        Beluga-Linux-x86-64-intel-openmpi
 # Source code revision number                                         svn:18619
 &GLOBAL
   PRINT_LEVEL  MEDIUM
   PROJECT_NAME TEST
   RUN_TYPE  CELL_OPT
 &END GLOBAL
 &MOTION
   &CELL_OPT
     MAX_ITER  100
     STEP_START_VAL  81
     EXTERNAL_PRESSURE     1.0000000000000000E+00
     KEEP_ANGLES  T
     KEEP_SYMMETRY  T
     CONSTRAINT  Z
     PRESSURE_TOLERANCE     1.0000000000000000E+02
   &END CELL_OPT
 &END MOTION
 &FORCE_EVAL
   METHOD  QS
   STRESS_TENSOR  ANALYTICAL
   &DFT
     BASIS_SET_FILE_NAME BASIS_MOLOPT
     POTENTIAL_FILE_NAME GTH_POTENTIALS
     &SCF
       MAX_SCF  100
       EPS_SCF     5.0000000000000004E-06
       &OT  T
         PRECONDITIONER  FULL_ALL
       &END OT
       &OUTER_SCF  T
         OPTIMIZER  NONE
         EPS_SCF     5.0000000000000004E-06
         MAX_SCF  10
       &END OUTER_SCF
       &PRINT
         &RESTART  OFF
           BACKUP_COPIES  1
           &EACH
             JUST_ENERGY  0
             QS_SCF  0
             MD  20
           &END EACH
         &END RESTART
       &END PRINT
     &END SCF
     &ALMO_SCF
       EPS_FILTER     9.9999999999999994E-12
       ALMO_SCF_GUESS  ATOMIC
       MO_OVERLAP_INV_ALG  DENSE_CHOLESKY
       ALMO_EXTRAPOLATION_ORDER  4
       XALMO_EXTRAPOLATION_ORDER  4
       ALMO_ALGORITHM  SKIP
       XALMO_TRIAL_WF  SIMPLE
       DELOCALIZE_METHOD  XALMO_SCF
       XALMO_R_CUTOFF_FACTOR     1.8000000000000000E+00
       &ALMO_OPTIMIZER_DIIS
         MAX_ITER  100
         EPS_ERROR     1.0000000000000001E-05
         N_DIIS  5
       &END ALMO_OPTIMIZER_DIIS
       &ALMO_OPTIMIZER_PCG
         MAX_ITER  50
         EPS_ERROR     1.0000000000000001E-05
         LIN_SEARCH_EPS_ERROR     5.0000000000000003E-02
         LIN_SEARCH_STEP_SIZE_GUESS     5.0000000000000001E-03
         CONJUGATOR  DAI_YUAN
         MAX_ITER_OUTER_LOOP  10
       &END ALMO_OPTIMIZER_PCG
       &XALMO_OPTIMIZER_PCG
         MAX_ITER  1000
         EPS_ERROR     1.0000000000000001E-05
         LIN_SEARCH_EPS_ERROR     1.0000000000000001E-01
         LIN_SEARCH_STEP_SIZE_GUESS     1.0000000000000000E-02
         CONJUGATOR  DAI_YUAN
         PRECOND_FILTER_THRESHOLD     1.0000000000000000E-03
         MAX_ITER_OUTER_LOOP  0
       &END XALMO_OPTIMIZER_PCG
       &MATRIX_ITERATE
         EPS_TARGET_FACTOR     1.0000000000000000E+01
       &END MATRIX_ITERATE
     &END ALMO_SCF
     &QS
       EPS_DEFAULT     1.0000000000000000E-14
       ALMO_SCF  F
       METHOD  GPW
     &END QS
     &MGRID
       NGRIDS  5
       CUTOFF     1.2000000000000000E+03
     &END MGRID
     &XC
       DENSITY_CUTOFF     1.0000000000000000E-10
       GRADIENT_CUTOFF     1.0000000000000000E-10
       TAU_CUTOFF     1.0000000000000000E-10
       &XC_FUNCTIONAL  NO_SHORTCUT
         &PBE  T
         &END PBE
       &END XC_FUNCTIONAL
       &VDW_POTENTIAL
         POTENTIAL_TYPE  PAIR_POTENTIAL
         &PAIR_POTENTIAL
           R_CUTOFF     1.0000000000000002E+01
           TYPE  DFTD3
           PARAMETER_FILE_NAME dftd3.dat
           REFERENCE_FUNCTIONAL PBE
           EPS_CN     9.9999999999999995E-07
           CALCULATE_C9_TERM  T
           REFERENCE_C9_TERM  T
           LONG_RANGE_CORRECTION  F
           VERBOSE_OUTPUT  F
         &END PAIR_POTENTIAL
       &END VDW_POTENTIAL
     &END XC
   &END DFT
   &SUBSYS
     &CELL
       A     9.7448054226030330E+00    0.0000000000000000E+00    0.0000000000000000E+00
       B    -4.8536218029551961E+00    8.4067195634424170E+00    0.0000000000000000E+00
       C     0.0000000000000000E+00    0.0000000000000000E+00    3.0744000000000000E+01
       MULTIPLE_UNIT_CELL  1 1 1
       &CELL_REF
         A     9.5580000000000016E+00    0.0000000000000000E+00    0.0000000000000000E+00
         B    -4.7790000000000008E+00    8.2774708093716640E+00    0.0000000000000000E+00
         C     0.0000000000000000E+00    0.0000000000000000E+00    3.0744000000000000E+01
         MULTIPLE_UNIT_CELL  1 1 1
       &END CELL_REF
     &END CELL
     &COORD
Ga    1.1923787958497062E-03   -3.2823057607838730E-04   -5.8987855142072698E-01
N    6.4207919854940322E-03    1.8708627663159378E+00    5.6295748862964445E-01
Ga    5.2487390949841721E-03    1.8395676547448390E+00    2.5946681959419826E+00
N   -7.6631379004323897E-04   -2.6849819429088130E-03    3.2278983018646086E+00
Ga    1.1471392059932165E-04   -2.1343818312694563E-03    5.2199171327325571E+00
N    6.1772411028135918E-03    1.8719800022747286E+00    5.8060498917235730E+00
Ga    4.7634174541341156E-03    1.8680131410590755E+00    7.8053792332878986E+00
N   -5.9460463064855572E-04   -4.5138522367320589E-03    8.4078542065488744E+00
Ga    2.1901949190157694E-04   -3.6230537786395463E-03    1.0405985873590986E+01
N    4.7023788575406723E-03    1.8670297195359817E+00    1.1011933945564264E+01
Ga    2.9181339275910793E-03    1.8706463583725228E+00    1.3007466569523011E+01
N    2.5131055473099418E-05    1.1614264439319211E-03    1.3617106479095931E+01
Ga   -1.0784692461982029E-02    6.5566735789523252E-03    1.5622523931835678E+01
N   -1.6039067076768112E-03    1.8817720597780847E+00    1.6248736641517880E+01
Ga    2.3608052838480040E-02    1.9074176007581785E+00    1.8346311281174163E+01
N    5.1906796756774820E-03    1.0233309274109093E-02    1.8671168179753373E+01
Ga   -1.6151642620069779E+00    2.8017488138929090E+00    2.7820137865453387E-01
N   -1.6177825417441507E+00    4.6698097067129574E+00    5.6468779918617584E-01
Ga   -1.5882998496752458E+00    4.6848480450434442E+00    2.5944057155671882E+00
N   -1.6177870218575425E+00    2.8000866847132770E+00    3.1867969827673339E+00
Ga   -1.6171009215449019E+00    2.8009112621243943E+00    5.1987094292681189E+00
N   -1.6149137915684404E+00    4.6702118522432547E+00    5.8065711632244694E+00
Ga   -1.6148059466065259E+00    4.6678008941812896E+00    7.8062059905851919E+00
N   -1.6188662220496897E+00    2.7975183498541503E+00    8.4105001778951287E+00
Ga   -1.6186394748046604E+00    2.7980184973001410E+00    1.0407147775615826E+01
N   -1.6101834719752428E+00    4.6681618715944797E+00    1.1013699237787057E+01
Ga   -1.6084847804080138E+00    4.6667887760659994E+00    1.3010243333409926E+01
N   -1.6195208973382356E+00    2.7973005135066491E+00    1.3621586434168265E+01
Ga   -1.6272792606561477E+00    2.7889646377356532E+00    1.5628660971886257E+01
N   -1.6246945866151605E+00    4.6733468021978597E+00    1.6210948583889611E+01
Ga   -1.6054698873202680E+00    4.6795733443861840E+00    1.8287164382801699E+01
N   -1.6158177428698697E+00    2.8085816407555662E+00    1.8719739328407766E+01
Ga   -3.2351800284323158E+00    5.6052364492888644E+00    2.7825482966036780E-01
N   -3.2270639385791036E+00    7.4746986813240026E+00    5.6315947955021317E-01
Ga   -3.2551907159182938E+00    7.4877415181803526E+00    2.5945590189128027E+00
N   -3.2361505194385183E+00    5.6027050031092749E+00    3.1864345759275219E+00
Ga   -3.2356205846325810E+00    5.6034026673392905E+00    5.1982725566127863E+00
N   -3.2272933545341962E+00    7.4716979788959899E+00    5.8076335118536999E+00
Ga   -3.2292441366047187E+00    7.4691153842802676E+00    7.8073282385885010E+00
N   -3.2365660933600928E+00    5.5995268079416221E+00    8.4142034991026691E+00
Ga   -3.2360552281025896E+00    5.5999007317041363E+00    1.0412184931382411E+01
N   -3.2306963719240618E+00    7.4723131654031443E+00    1.1014303298344471E+01
Ga   -3.2310524781182339E+00    7.4739837555929238E+00    1.3011442528986379E+01
N   -3.2367846256425872E+00    5.5966632615083425E+00    1.3600676235440103E+01
Ga   -3.2467779206541394E+00    5.5908089011989412E+00    1.5596866965447440E+01
N   -3.2427461114215559E+00    7.4653264097546526E+00    1.6179871729123199E+01
Ga   -3.2354050020281706E+00    7.4937384062166794E+00    1.8238902224880249E+01
N   -3.2410948510448208E+00    5.6088935809877851E+00    1.8618249386749959E+01
Ga    3.2496234714466841E+00   -2.8845506208537435E-03    2.7780231923490806E-01
N    3.2511493923771182E+00    1.8692784730042278E+00    5.6214908910858830E-01
Ga    3.2772549470821009E+00    1.8819162401981548E+00    2.5978297138291335E+00
N    3.2474681875283009E+00   -2.2620729611539190E-03    3.1869887799381575E+00
Ga    3.2482270182588207E+00   -1.9785661127610914E-03    5.1990673936967093E+00
N    3.2514752253384223E+00    1.8674151145935891E+00    5.8065066735798245E+00
Ga    3.2512193765098898E+00    1.8644812573298333E+00    7.8059992697324603E+00
N    3.2475463681139276E+00   -5.2000766615369638E-03    8.4115475945754543E+00
Ga    3.2478422862270659E+00   -4.5521470951572982E-03    1.0408685894586247E+01
N    3.2517045428877838E+00    1.8660049512966586E+00    1.1013857080882083E+01
Ga    3.2463782610310408E+00    1.8625823172202443E+00    1.3011215596278866E+01
N    3.2459953187772999E+00   -6.0616556239768502E-03    1.3626638055169211E+01
Ga    3.2467410440513573E+00   -8.2240332790527136E-03    1.5632861163031977E+01
N    3.2268402958873099E+00    1.8741457591150688E+00    1.6216523272818460E+01
Ga    3.2530476968225859E+00    1.9005011048924736E+00    1.8291283654237681E+01
N    3.2498268339402041E+00   -1.3101481487965839E-03    1.8584572823318897E+01
Ga    1.6278651754057696E+00    2.8029216267060413E+00    2.7916573828397873E-01
N    1.6409741760023473E+00    4.6710062791555123E+00    5.6630640593744741E-01
Ga    1.6115494311602279E+00    4.6851322510899474E+00    2.5955542368843045E+00
N    1.6299588272386278E+00    2.7997084783176724E+00    3.1865287800396467E+00
Ga    1.6306589416880690E+00    2.8008908258783243E+00    5.1985073006993270E+00
N    1.6390764989950919E+00    4.6699889335148068E+00    5.8069787108675666E+00
Ga    1.6367207162697803E+00    4.6676347902667521E+00    7.8068249861055685E+00
N    1.6294876779246303E+00    2.7971589399802506E+00    8.4101278596512419E+00
Ga    1.6292226297361629E+00    2.7973485305256407E+00    1.0406449150366996E+01
N    1.6322644234526835E+00    4.6680535524584315E+00    1.1010308025577796E+01
Ga    1.6259781628928365E+00    4.6659349770606688E+00    1.3005314258339261E+01
N    1.6253260777495879E+00    2.7975343692124670E+00    1.3617651406108816E+01
Ga    1.6158122487213578E+00    2.7963038281800126E+00    1.5624018046857314E+01
N    1.6357324586388433E+00    4.6717046839789775E+00    1.6209308509202160E+01
Ga    1.6558388159195330E+00    4.6864622618325171E+00    1.8288164771204784E+01
N    1.6406262963477425E+00    2.8154921946619105E+00    1.8746661553540306E+01
Ga    1.3263674533546758E-02    5.6046763877210335E+00   -5.9337972164576958E-01
N    1.8912261268866172E-02    7.4781740164138588E+00    5.6575914138487615E-01
Ga    1.7528805723979822E-02    7.4446688858595556E+00    2.5952024093101294E+00
N    1.1858273298778088E-02    5.6019226150865062E+00    3.2279453114794134E+00
Ga    1.2819908862261725E-02    5.6029670667101534E+00    5.2190699222545121E+00
N    1.8800769388513775E-02    7.4767576734238155E+00    5.8060467811515268E+00
Ga    1.7527373400341634E-02    7.4723965120157230E+00    7.8057088331719182E+00
N    1.1358572094776949E-02    5.6002396192794315E+00    8.4071252441085011E+00
Ga    1.1156477521142251E-02    5.6019465039673522E+00    1.0404790908398626E+01
N    1.7057439143565230E-02    7.4707989136841411E+00    1.1015609699010493E+01
Ga    1.5253184112964509E-02    7.4703006311876967E+00    1.3015027869801431E+01
N    9.5713281589404082E-03    5.6017291242180329E+00    1.3628137928052949E+01
Ga    4.6258610996923535E-03    5.6054336409373873E+00    1.5637549865132911E+01
N    1.7051415077599389E-02    7.4810019415040854E+00    1.6206720471070447E+01
Ga    3.4063507893558262E-02    7.4781869795465186E+00    1.8264306320728338E+01
N    1.6076963458729138E-02    5.5916231211294463E+00    1.8650990596350649E+01
Ga    6.4954402150680979E+00   -1.7578849343417456E-03    2.7918483676267408E-01
N    6.5051152301781636E+00    1.8703557587750510E+00    5.6288624533004050E-01
Ga    6.4786237199390930E+00    1.8823641709301209E+00    2.5985772821954187E+00
N    6.4967499716600070E+00   -2.5873799999976939E-03    3.1861290612891717E+00
Ga    6.4976093250829736E+00   -2.1410265322633877E-03    5.1980474069977767E+00
N    6.5054650922529724E+00    1.8670760365489019E+00    5.8062040388636307E+00
Ga    6.5030806489636044E+00    1.8643006320143711E+00    7.8061329397701709E+00
N    6.4952886356118764E+00   -5.1383194727369734E-03    8.4125086403783271E+00
Ga    6.4959403434251648E+00   -4.5090898961593377E-03    1.0410173462671503E+01
N    6.5025131740366335E+00    1.8668247425032347E+00    1.1014275524491747E+01
Ga    6.5037271344024674E+00    1.8641457380313904E+00    1.3012112926606981E+01
N    6.4960340444691713E+00   -7.5999480079075596E-03    1.3615207433595018E+01
Ga    6.4847496217769347E+00   -1.4188224387200153E-02    1.5617226720693424E+01
N    6.5066299019717926E+00    1.8656200182032112E+00    1.6207369138458763E+01
Ga    6.5271624079105370E+00    1.8990577987245383E+00    1.8277462208439090E+01
N    6.5110618622692327E+00    1.9932164832903301E-04    1.8589475464829729E+01
Ga    4.8796290671209972E+00    2.8022074987570091E+00   -5.4847276641296339E-01
N    4.8849068444483548E+00    4.6731278293313121E+00    5.6314365725462412E-01
Ga    4.8837289255955669E+00    4.6434182962921371E+00    2.5985943381631933E+00
N    4.8782132500253157E+00    2.7996761870217033E+00    3.2281079509781261E+00
Ga    4.8790908436576998E+00    2.8006507907961740E+00    5.2210449842767312E+00
N    4.8848909588847711E+00    4.6744445734253155E+00    5.8079615570139778E+00
Ga    4.8835046451804196E+00    4.6697602547754444E+00    7.8084244854276426E+00
N    4.8776006797254796E+00    2.7961026064592751E+00    8.4081497270884533E+00
Ga    4.8777349741038645E+00    2.7951278454037651E+00    1.0406625971832321E+01
N    4.8840843005120016E+00    4.6643153340779691E+00    1.1013097099291970E+01
Ga    4.8823837200879288E+00    4.6578301112852492E+00    1.3009500864364504E+01
N    4.8742979589733322E+00    2.7813544268809620E+00    1.3620401819509885E+01
Ga    4.8659518344741191E+00    2.7727395053030666E+00    1.5625261529366908E+01
N    4.8716549777371991E+00    4.6617696270298055E+00    1.6144204459432558E+01
Ga    4.8931868068474440E+00    4.6915195109299530E+00    1.8190486686157076E+01
N    4.8878116402145153E+00    2.8139910790088232E+00    1.8611205084032406E+01
Ga    3.2600108285721872E+00    5.6041511667350976E+00    2.7715604493616097E-01
N    3.2630799899742025E+00    7.4733516112631975E+00    5.6220599768132862E-01
Ga    3.2909639735722580E+00    7.4868693342022805E+00    2.5936024217237041E+00
N    3.2605698994745018E+00    5.6026890430496152E+00    3.1873258821436461E+00
Ga    3.2613527325904843E+00    5.6034432216950103E+00    5.1993564312160476E+00
N    3.2641312957544240E+00    7.4719545953815727E+00    5.8081875992935954E+00
Ga    3.2637476144310167E+00    7.4691874071918507E+00    7.8081256991409651E+00
N    3.2598992471865591E+00    5.5992082772537222E+00    8.4139233646045621E+00
Ga    3.2604522604417987E+00    5.5995666145736793E+00    1.0411647126698602E+01
N    3.2677779701272920E+00    7.4721142930647870E+00    1.1012035251488530E+01
Ga    3.2675217424946754E+00    7.4736788813166406E+00    1.3008624939649241E+01
N    3.2556170727884850E+00    5.5947625025210153E+00    1.3590999782669368E+01
Ga    3.2471416537191744E+00    5.5922504948883196E+00    1.5585089004533311E+01
N    3.2666836312181080E+00    7.4605495345792878E+00    1.6166885157151139E+01
Ga    3.2954816617796854E+00    7.4982521164983122E+00    1.8220137263684521E+01
N    3.2789046687158132E+00    5.6170844528838479E+00    1.8627193760275471E+01
     &END COORD
     &KIND N
       BASIS_SET DZVP-MOLOPT-SR-GTH
       POTENTIAL GTH-PBE-q5
       &POTENTIAL
 2 3
  0.2837905100000000E+00 2 -0.1241522559000000E+02  0.1868095920000000E+01
 2
  0.2554050000000000E+00 1  0.1363026257000000E+02
  0.2454945300000000E+00 0
         # Potential name:  GTH-PBE-Q5  for symbol:  N
         # Potential read from the potential filename: GTH_POTENTIALS
       &END POTENTIAL
     &END KIND
     &KIND Ga
       BASIS_SET DZVP-MOLOPT-SR-GTH
       POTENTIAL GTH-PBE-q13
       &POTENTIAL
 2 1 10
  0.4900000000000000E+00 0
 3
  0.4167772300000000E+00 3  0.1047568975000000E+02 -0.4921768140000000E+01  0.8707055900000000E+00
  0.7770178090000000E+01 -0.2248152160000000E+01
  0.1784415450000000E+01
  0.5696265200000000E+00 2  0.1777985340000000E+01  0.1958597600000000E+00
 -0.2317443900000000E+00
  0.2381265000000000E+00 1 -0.1624868022000000E+02
         # Potential name:  GTH-PBE-Q13  for symbol:  GA
         # Potential read from the potential filename: GTH_POTENTIALS
       &END POTENTIAL
     &END KIND
     &TOPOLOGY
       COORD_FILE_NAME 334-native.xyz
       COORD_FILE_FORMAT  XYZ
       NUMBER_OF_ATOMS  144
       MULTIPLE_UNIT_CELL  1 1 1
     &END TOPOLOGY
   &END SUBSYS
 &END FORCE_EVAL
