 # Version information for this restart file 
 # current date 2019-05-16 05:26:53.020
 # current working dir /lustre03/project/6004141/rzk/GaN-carbene/00-Surface/00-Preoptimization/334-native/Trial4
 # Program compiled at                              Sun Apr  7 00:48:11 EDT 2019
 # Program compiled on                          beluga2.int.ets1.calculquebec.ca
 # Program compiled for                        Beluga-Linux-x86-64-intel-openmpi
 # Source code revision number                                         svn:18619
 &GLOBAL
   PRINT_LEVEL  MEDIUM
   PROJECT_NAME TEST
   RUN_TYPE  CELL_OPT
 &END GLOBAL
 &MOTION
   &CELL_OPT
     MAX_ITER  100
     STEP_START_VAL  89
     EXTERNAL_PRESSURE     1.0000000000000000E+00
     KEEP_ANGLES  T
     KEEP_SYMMETRY  T
     CONSTRAINT  Z
     PRESSURE_TOLERANCE     1.0000000000000000E+02
   &END CELL_OPT
 &END MOTION
 &FORCE_EVAL
   METHOD  QS
   STRESS_TENSOR  ANALYTICAL
   &DFT
     BASIS_SET_FILE_NAME BASIS_MOLOPT
     POTENTIAL_FILE_NAME GTH_POTENTIALS
     &SCF
       MAX_SCF  100
       EPS_SCF     5.0000000000000004E-06
       &OT  T
         PRECONDITIONER  FULL_ALL
       &END OT
       &OUTER_SCF  T
         OPTIMIZER  NONE
         EPS_SCF     5.0000000000000004E-06
         MAX_SCF  10
       &END OUTER_SCF
       &PRINT
         &RESTART  OFF
           BACKUP_COPIES  1
           &EACH
             JUST_ENERGY  0
             QS_SCF  0
             MD  20
           &END EACH
         &END RESTART
       &END PRINT
     &END SCF
     &ALMO_SCF
       EPS_FILTER     9.9999999999999994E-12
       ALMO_SCF_GUESS  ATOMIC
       MO_OVERLAP_INV_ALG  DENSE_CHOLESKY
       ALMO_EXTRAPOLATION_ORDER  4
       XALMO_EXTRAPOLATION_ORDER  4
       ALMO_ALGORITHM  SKIP
       XALMO_TRIAL_WF  SIMPLE
       DELOCALIZE_METHOD  XALMO_SCF
       XALMO_R_CUTOFF_FACTOR     1.8000000000000000E+00
       &ALMO_OPTIMIZER_DIIS
         MAX_ITER  100
         EPS_ERROR     1.0000000000000001E-05
         N_DIIS  5
       &END ALMO_OPTIMIZER_DIIS
       &ALMO_OPTIMIZER_PCG
         MAX_ITER  50
         EPS_ERROR     1.0000000000000001E-05
         LIN_SEARCH_EPS_ERROR     5.0000000000000003E-02
         LIN_SEARCH_STEP_SIZE_GUESS     5.0000000000000001E-03
         CONJUGATOR  DAI_YUAN
         MAX_ITER_OUTER_LOOP  10
       &END ALMO_OPTIMIZER_PCG
       &XALMO_OPTIMIZER_PCG
         MAX_ITER  1000
         EPS_ERROR     1.0000000000000001E-05
         LIN_SEARCH_EPS_ERROR     1.0000000000000001E-01
         LIN_SEARCH_STEP_SIZE_GUESS     1.0000000000000000E-02
         CONJUGATOR  DAI_YUAN
         PRECOND_FILTER_THRESHOLD     1.0000000000000000E-03
         MAX_ITER_OUTER_LOOP  0
       &END XALMO_OPTIMIZER_PCG
       &MATRIX_ITERATE
         EPS_TARGET_FACTOR     1.0000000000000000E+01
       &END MATRIX_ITERATE
     &END ALMO_SCF
     &QS
       EPS_DEFAULT     1.0000000000000000E-14
       ALMO_SCF  F
       METHOD  GPW
     &END QS
     &MGRID
       NGRIDS  5
       CUTOFF     1.2000000000000000E+03
     &END MGRID
     &XC
       DENSITY_CUTOFF     1.0000000000000000E-10
       GRADIENT_CUTOFF     1.0000000000000000E-10
       TAU_CUTOFF     1.0000000000000000E-10
       &XC_FUNCTIONAL  NO_SHORTCUT
         &PBE  T
         &END PBE
       &END XC_FUNCTIONAL
       &VDW_POTENTIAL
         POTENTIAL_TYPE  PAIR_POTENTIAL
         &PAIR_POTENTIAL
           R_CUTOFF     1.0000000000000002E+01
           TYPE  DFTD3
           PARAMETER_FILE_NAME dftd3.dat
           REFERENCE_FUNCTIONAL PBE
           EPS_CN     9.9999999999999995E-07
           CALCULATE_C9_TERM  T
           REFERENCE_C9_TERM  T
           LONG_RANGE_CORRECTION  F
           VERBOSE_OUTPUT  F
         &END PAIR_POTENTIAL
       &END VDW_POTENTIAL
     &END XC
   &END DFT
   &SUBSYS
     &CELL
       A     9.7447152770659944E+00    0.0000000000000000E+00    0.0000000000000000E+00
       B    -4.8547378950637974E+00    8.4086526916804392E+00    0.0000000000000000E+00
       C     0.0000000000000000E+00    0.0000000000000000E+00    3.0744000000000000E+01
       MULTIPLE_UNIT_CELL  1 1 1
       &CELL_REF
         A     9.5580000000000016E+00    0.0000000000000000E+00    0.0000000000000000E+00
         B    -4.7790000000000008E+00    8.2774708093716640E+00    0.0000000000000000E+00
         C     0.0000000000000000E+00    0.0000000000000000E+00    3.0744000000000000E+01
         MULTIPLE_UNIT_CELL  1 1 1
       &END CELL_REF
     &END CELL
     &COORD
Ga    1.7669428639421993E-03    4.5939118302468169E-04   -5.9189546663140546E-01
N    6.3539335867060292E-03    1.8726808504346024E+00    5.6421519615242299E-01
Ga    5.3898918965436310E-03    1.8398617200218814E+00    2.5945941686428755E+00
N   -2.3468433838029799E-04   -2.6122472161751098E-03    3.2278341037579192E+00
Ga    1.3687315141876617E-04   -2.6429577702637079E-03    5.2193660993335760E+00
N    5.6042562782583853E-03    1.8713913608676755E+00    5.8063197141621217E+00
Ga    4.2304094227103668E-03    1.8674389160208715E+00    7.8059437095233912E+00
N   -7.3629447391346183E-04   -5.3988972556705973E-03    8.4079298042961010E+00
Ga   -4.9979477855387662E-05   -4.2499532738118351E-03    1.0406064457653351E+01
N    3.7474711967999132E-03    1.8668488913340830E+00    1.1011811980094429E+01
Ga    2.8860179457503472E-03    1.8714804158447103E+00    1.3007354055059094E+01
N   -6.1891626739095796E-04    1.9351318526481529E-03    1.3613933902736333E+01
Ga   -9.3316235933533012E-03    1.0200556441410998E-02    1.5617962826507664E+01
N    1.1689909236758493E-03    1.8825091683325288E+00    1.6254403839225297E+01
Ga    2.0560671120848906E-02    1.9074753593507694E+00    1.8357259342477917E+01
N    4.0095983353571271E-03    1.0310187113084662E-02    1.8671172957025107E+01
Ga   -1.6158369278069962E+00    2.8022088274830450E+00    2.7897463526485600E-01
N   -1.6183460292456509E+00    4.6707608067493309E+00    5.6548467573096772E-01
Ga   -1.5889603074206236E+00    4.6859897003145159E+00    2.5954836912072858E+00
N   -1.6180932312022900E+00    2.8004176984607696E+00    3.1867792278565839E+00
Ga   -1.6175554673567147E+00    2.8005429695143738E+00    5.1983545748413791E+00
N   -1.6156695201080749E+00    4.6702096581607808E+00    5.8062851147036758E+00
Ga   -1.6158981477747218E+00    4.6678936434244598E+00    7.8061604735362167E+00
N   -1.6197585645817865E+00    2.7973826218759772E+00    8.4099845906454878E+00
Ga   -1.6195575812122305E+00    2.7977055293935562E+00    1.0406566817540298E+01
N   -1.6108755966583754E+00    4.6676726608724897E+00    1.1014027252468605E+01
Ga   -1.6077946887361947E+00    4.6666438756078596E+00    1.3010540274283230E+01
N   -1.6193080801647248E+00    2.7974823104680944E+00    1.3625044605285490E+01
Ga   -1.6249782967671471E+00    2.7908124089149955E+00    1.5632740978754949E+01
N   -1.6236754616047595E+00    4.6750996878799684E+00    1.6214084111971648E+01
Ga   -1.6075043018479098E+00    4.6788679432151454E+00    1.8292407311194538E+01
N   -1.6197726005750899E+00    2.8112714256056179E+00    1.8727593173994705E+01
Ga   -3.2355990593022299E+00    5.6061110682991817E+00    2.7886650550921055E-01
N   -3.2270330214838188E+00    7.4750999207944329E+00    5.6426704992603427E-01
Ga   -3.2559588848142091E+00    7.4892057325529580E+00    2.5942268089340774E+00
N   -3.2369121939791325E+00    5.6041990374474464E+00    3.1871312131285845E+00
Ga   -3.2365241183163937E+00    5.6041882036787252E+00    5.1986210461621916E+00
N   -3.2283508203665980E+00    7.4729454156370494E+00    5.8072231611207892E+00
Ga   -3.2303992948594606E+00    7.4699974204690935E+00    7.8071754064750118E+00
N   -3.2374808230947743E+00    5.6000328081389146E+00    8.4144838253358891E+00
Ga   -3.2370818626836084E+00    5.6001513627864785E+00    1.0412938884701344E+01
N   -3.2320339131846163E+00    7.4733011269868026E+00    1.1014030047714073E+01
Ga   -3.2317667855241803E+00    7.4763957406095551E+00    1.3011288539536839E+01
N   -3.2359966403220795E+00    5.5976823161821185E+00    1.3597647186784458E+01
Ga   -3.2450980400767619E+00    5.5958127257529195E+00    1.5592792064583961E+01
N   -3.2423516444345211E+00    7.4697087788485685E+00    1.6169571257117543E+01
Ga   -3.2403831284481637E+00    7.4946086762641748E+00    1.8225804526117376E+01
N   -3.2439896633793488E+00    5.6125181935913098E+00    1.8615732713740922E+01
Ga    3.2494378247861495E+00   -3.2942656493649631E-03    2.7788410219158710E-01
N    3.2509822248462701E+00    1.8690743158954923E+00    5.6295836777466401E-01
Ga    3.2769336453699665E+00    1.8823699847013124E+00    2.5978805428084635E+00
N    3.2479456201287160E+00   -2.3724049024392859E-03    3.1865351117360317E+00
Ga    3.2482714501671115E+00   -2.6528211024409872E-03    5.1983306963699611E+00
N    3.2510225081438620E+00    1.8669289215653599E+00    5.8057997246296127E+00
Ga    3.2507182969962121E+00    1.8641922372781004E+00    7.8055686482008211E+00
N    3.2475092659247355E+00   -5.7475636918919984E-03    8.4112429787420950E+00
Ga    3.2477161806973647E+00   -5.1785063519504152E-03    1.0408617259246716E+01
N    3.2513281390501847E+00    1.8655878507908656E+00    1.1014550211641001E+01
Ga    3.2468203022798754E+00    1.8624197642914104E+00    1.3012238083262725E+01
N    3.2469163670558356E+00   -5.9103132400880921E-03    1.3626405630249689E+01
Ga    3.2485441044137335E+00   -5.8214200036843964E-03    1.5632577418479279E+01
N    3.2304737970423774E+00    1.8792399874253440E+00    1.6216132224048277E+01
Ga    3.2496249135397393E+00    1.9003684520168520E+00    1.8290486951625397E+01
N    3.2458163430396167E+00   -9.2129917565744968E-05    1.8575482631204451E+01
Ga    1.6280927811500103E+00    2.8031522607986479E+00    2.7836043424950557E-01
N    1.6400675909929043E+00    4.6716151046071115E+00    5.6484512843912260E-01
Ga    1.6108726133654703E+00    4.6860331502688650E+00    2.5950067865885988E+00
N    1.6297104274821508E+00    2.8004612869012373E+00    3.1866572794721275E+00
Ga    1.6299046396497145E+00    2.8005944584682574E+00    5.1983006405526098E+00
N    1.6383307286862212E+00    4.6701217820760927E+00    5.8062607168545650E+00
Ga    1.6355750845652650E+00    4.6675906715060149E+00    7.8061883209899312E+00
N    1.6289994837170914E+00    2.7971415725023014E+00    8.4100800063438719E+00
Ga    1.6286852441509765E+00    2.7974304910447549E+00    1.0406927936892401E+01
N    1.6313850365367328E+00    4.6683513977856608E+00    1.1011235034619647E+01
Ga    1.6257469509299796E+00    4.6669043991263672E+00    1.3006787865578024E+01
N    1.6254481874347442E+00    2.7981699715589179E+00    1.3618213441317051E+01
Ga    1.6167174968077371E+00    2.7978654000833454E+00    1.5625211698489730E+01
N    1.6386536887272698E+00    4.6735735500339874E+00    1.6209617273277235E+01
Ga    1.6562473361946308E+00    4.6844650380534860E+00    1.8288578802130655E+01
N    1.6377413293720740E+00    2.8168256108495946E+00    1.8748964858803443E+01
Ga    1.2201150129501459E-02    5.6055883750459294E+00   -5.9249209822477811E-01
N    1.7937580318997892E-02    7.4794969917291141E+00    5.6385609795139569E-01
Ga    1.7184894504077348E-02    7.4462451280253772E+00    2.5943787112058989E+00
N    1.1501566103031617E-02    5.6033292788676308E+00    3.2281484771216000E+00
Ga    1.2015772525003326E-02    5.6036141999446256E+00    5.2191782188166274E+00
N    1.7349070737545467E-02    7.4775279932616208E+00    5.8060611289597839E+00
Ga    1.6148330990306371E-02    7.4729509260835894E+00    7.8057817544164898E+00
N    1.0339504692554435E-02    5.6004247677154435E+00    8.4071428237477779E+00
Ga    1.0247338384457686E-02    5.6021580548782755E+00    1.0405083136353376E+01
N    1.5826863153117904E-02    7.4713994733177946E+00    1.1015829753657888E+01
Ga    1.4192904882382455E-02    7.4712718760691921E+00    1.3015445778754067E+01
N    8.3972133842842717E-03    5.6028596267286845E+00    1.3630118160981741E+01
Ga    5.6862662363617901E-03    5.6091727334096104E+00    1.5640252677052262E+01
N    1.5015670318517299E-02    7.4836858206157562E+00    1.6210081854853154E+01
Ga    3.2282587915479902E-02    7.4792025758725540E+00    1.8268616522812525E+01
N    1.5998053946390346E-02    5.5928678277839552E+00    1.8645493750554127E+01
Ga    6.4963468403267823E+00   -2.2166171308084189E-03    2.7771067491544316E-01
N    6.5046194465986282E+00    1.8699749830399055E+00    5.6333946323153095E-01
Ga    6.4778822746397768E+00    1.8825923778814659E+00    2.5982080998496606E+00
N    6.4968527240202416E+00   -2.3333983304298467E-03    3.1864643455913177E+00
Ga    6.4972537395300716E+00   -2.7460550980177960E-03    5.1981723476255892E+00
N    6.5047417875557887E+00    1.8668659325488839E+00    5.8058202036465616E+00
Ga    6.5022126714725355E+00    1.8640816851471669E+00    7.8056489283121673E+00
N    6.4949914879337767E+00   -5.7088171633879452E-03    8.4119684655505811E+00
Ga    6.4954812012843943E+00   -5.2268904132975313E-03    1.0409793944912163E+01
N    6.5020748644367785E+00    1.8661792676557643E+00    1.1014977489449397E+01
Ga    6.5047320872063494E+00    1.8641943644537302E+00    1.3012812725565601E+01
N    6.4955946021676336E+00   -7.4360374143757676E-03    1.3617313157594774E+01
Ga    6.4848717351213701E+00   -1.1920624109217673E-02    1.5620424002017891E+01
N    6.5093703731368988E+00    1.8671973146892022E+00    1.6210270379582088E+01
Ga    6.5251926197826275E+00    1.8996381608242432E+00    1.8282300509286468E+01
N    6.5101660726955028E+00    7.3453678489576962E-04    1.8585756584864022E+01
Ga    4.8790385721748066E+00    2.8035322736136834E+00   -5.4750662974796926E-01
N    4.8840089531252957E+00    4.6743516759707182E+00    5.6356949049458205E-01
Ga    4.8832974123760602E+00    4.6445818720583567E+00    2.5984236817064716E+00
N    4.8777543444685776E+00    2.8005872763058415E+00    3.2277865957692358E+00
Ga    4.8785200111078355E+00    2.8008035374395988E+00    5.2203967873649280E+00
N    4.8838882249689402E+00    4.6747011104679128E+00    5.8077616506280094E+00
Ga    4.8825685258579670E+00    4.6699659340066413E+00    7.8083334903204253E+00
N    4.8769637174930160E+00    2.7960791419413771E+00    8.4081911873982342E+00
Ga    4.8771930182004244E+00    2.7949638895764446E+00    1.0406923358184921E+01
N    4.8828906055871313E+00    4.6642886290445462E+00    1.1013570917619870E+01
Ga    4.8825864927348128E+00    4.6583674347030977E+00    1.3009925595153554E+01
N    4.8755669252916052E+00    2.7817833361601436E+00    1.3621785071082320E+01
Ga    4.8682740523651784E+00    2.7757073017362592E+00    1.5625973699217733E+01
N    4.8733440217328985E+00    4.6646305348183335E+00    1.6141885445198501E+01
Ga    4.8929625686760874E+00    4.6918052312359153E+00    1.8187422603581290E+01
N    4.8843990267628508E+00    2.8160777508514125E+00    1.8609201353798419E+01
Ga    3.2591217029372896E+00    5.6053968048371203E+00    2.7773591602392100E-01
N    3.2616738283285294E+00    7.4740858664830139E+00    5.6302006231232371E-01
Ga    3.2899254999882701E+00    7.4889058765864354E+00    2.5934902816924406E+00
N    3.2599585399066697E+00    5.6041018360006589E+00    3.1870064770560367E+00
Ga    3.2605595334950834E+00    5.6042036474755088E+00    5.1989200570396585E+00
N    3.2630156153466525E+00    7.4729367328676952E+00    5.8076535315628925E+00
Ga    3.2625658876303270E+00    7.4701144662803127E+00    7.8077527114094041E+00
N    3.2586227769178402E+00    5.5996989866639062E+00    8.4133021259860232E+00
Ga    3.2593543568652210E+00    5.5999910460064983E+00    1.0411316357442699E+01
N    3.2661584424662200E+00    7.4730850383432941E+00    1.1011503476585068E+01
Ga    3.2659919848937240E+00    7.4753820966865732E+00    1.3007925970875970E+01
N    3.2557032085757935E+00    5.5965521911263556E+00    1.3590557491912586E+01
Ga    3.2486701160530296E+00    5.5967542447942638E+00    1.5583886004557364E+01
N    3.2689965094208295E+00    7.4652822767714415E+00    1.6164785619383736E+01
Ga    3.2946218523338104E+00    7.4978531274141611E+00    1.8216095163135289E+01
N    3.2776036791094052E+00    5.6189719815795200E+00    1.8623452604533490E+01
     &END COORD
     &KIND N
       BASIS_SET DZVP-MOLOPT-SR-GTH
       POTENTIAL GTH-PBE-q5
       &POTENTIAL
 2 3
  0.2837905100000000E+00 2 -0.1241522559000000E+02  0.1868095920000000E+01
 2
  0.2554050000000000E+00 1  0.1363026257000000E+02
  0.2454945300000000E+00 0
         # Potential name:  GTH-PBE-Q5  for symbol:  N
         # Potential read from the potential filename: GTH_POTENTIALS
       &END POTENTIAL
     &END KIND
     &KIND Ga
       BASIS_SET DZVP-MOLOPT-SR-GTH
       POTENTIAL GTH-PBE-q13
       &POTENTIAL
 2 1 10
  0.4900000000000000E+00 0
 3
  0.4167772300000000E+00 3  0.1047568975000000E+02 -0.4921768140000000E+01  0.8707055900000000E+00
  0.7770178090000000E+01 -0.2248152160000000E+01
  0.1784415450000000E+01
  0.5696265200000000E+00 2  0.1777985340000000E+01  0.1958597600000000E+00
 -0.2317443900000000E+00
  0.2381265000000000E+00 1 -0.1624868022000000E+02
         # Potential name:  GTH-PBE-Q13  for symbol:  GA
         # Potential read from the potential filename: GTH_POTENTIALS
       &END POTENTIAL
     &END KIND
     &TOPOLOGY
       COORD_FILE_NAME 334-native.xyz
       COORD_FILE_FORMAT  XYZ
       NUMBER_OF_ATOMS  144
       MULTIPLE_UNIT_CELL  1 1 1
     &END TOPOLOGY
   &END SUBSYS
 &END FORCE_EVAL
