 # Version information for this restart file 
 # current date 2019-05-16 03:52:09.036
 # current working dir /lustre03/project/6004141/rzk/GaN-carbene/00-Surface/00-Preoptimization/334-native/Trial4
 # Program compiled at                              Sun Apr  7 00:48:11 EDT 2019
 # Program compiled on                          beluga2.int.ets1.calculquebec.ca
 # Program compiled for                        Beluga-Linux-x86-64-intel-openmpi
 # Source code revision number                                         svn:18619
 &GLOBAL
   PRINT_LEVEL  MEDIUM
   PROJECT_NAME TEST
   RUN_TYPE  CELL_OPT
 &END GLOBAL
 &MOTION
   &CELL_OPT
     MAX_ITER  100
     STEP_START_VAL  51
     EXTERNAL_PRESSURE     1.0000000000000000E+00
     KEEP_ANGLES  T
     KEEP_SYMMETRY  T
     CONSTRAINT  Z
     PRESSURE_TOLERANCE     1.0000000000000000E+02
   &END CELL_OPT
 &END MOTION
 &FORCE_EVAL
   METHOD  QS
   STRESS_TENSOR  ANALYTICAL
   &DFT
     BASIS_SET_FILE_NAME BASIS_MOLOPT
     POTENTIAL_FILE_NAME GTH_POTENTIALS
     &SCF
       MAX_SCF  100
       EPS_SCF     5.0000000000000004E-06
       &OT  T
         PRECONDITIONER  FULL_ALL
       &END OT
       &OUTER_SCF  T
         OPTIMIZER  NONE
         EPS_SCF     5.0000000000000004E-06
         MAX_SCF  10
       &END OUTER_SCF
       &PRINT
         &RESTART  OFF
           BACKUP_COPIES  1
           &EACH
             JUST_ENERGY  0
             QS_SCF  0
             MD  20
           &END EACH
         &END RESTART
       &END PRINT
     &END SCF
     &ALMO_SCF
       EPS_FILTER     9.9999999999999994E-12
       ALMO_SCF_GUESS  ATOMIC
       MO_OVERLAP_INV_ALG  DENSE_CHOLESKY
       ALMO_EXTRAPOLATION_ORDER  4
       XALMO_EXTRAPOLATION_ORDER  4
       ALMO_ALGORITHM  SKIP
       XALMO_TRIAL_WF  SIMPLE
       DELOCALIZE_METHOD  XALMO_SCF
       XALMO_R_CUTOFF_FACTOR     1.8000000000000000E+00
       &ALMO_OPTIMIZER_DIIS
         MAX_ITER  100
         EPS_ERROR     1.0000000000000001E-05
         N_DIIS  5
       &END ALMO_OPTIMIZER_DIIS
       &ALMO_OPTIMIZER_PCG
         MAX_ITER  50
         EPS_ERROR     1.0000000000000001E-05
         LIN_SEARCH_EPS_ERROR     5.0000000000000003E-02
         LIN_SEARCH_STEP_SIZE_GUESS     5.0000000000000001E-03
         CONJUGATOR  DAI_YUAN
         MAX_ITER_OUTER_LOOP  10
       &END ALMO_OPTIMIZER_PCG
       &XALMO_OPTIMIZER_PCG
         MAX_ITER  1000
         EPS_ERROR     1.0000000000000001E-05
         LIN_SEARCH_EPS_ERROR     1.0000000000000001E-01
         LIN_SEARCH_STEP_SIZE_GUESS     1.0000000000000000E-02
         CONJUGATOR  DAI_YUAN
         PRECOND_FILTER_THRESHOLD     1.0000000000000000E-03
         MAX_ITER_OUTER_LOOP  0
       &END XALMO_OPTIMIZER_PCG
       &MATRIX_ITERATE
         EPS_TARGET_FACTOR     1.0000000000000000E+01
       &END MATRIX_ITERATE
     &END ALMO_SCF
     &QS
       EPS_DEFAULT     1.0000000000000000E-14
       ALMO_SCF  F
       METHOD  GPW
     &END QS
     &MGRID
       NGRIDS  5
       CUTOFF     1.2000000000000000E+03
     &END MGRID
     &XC
       DENSITY_CUTOFF     1.0000000000000000E-10
       GRADIENT_CUTOFF     1.0000000000000000E-10
       TAU_CUTOFF     1.0000000000000000E-10
       &XC_FUNCTIONAL  NO_SHORTCUT
         &PBE  T
         &END PBE
       &END XC_FUNCTIONAL
       &VDW_POTENTIAL
         POTENTIAL_TYPE  PAIR_POTENTIAL
         &PAIR_POTENTIAL
           R_CUTOFF     1.0000000000000002E+01
           TYPE  DFTD3
           PARAMETER_FILE_NAME dftd3.dat
           REFERENCE_FUNCTIONAL PBE
           EPS_CN     9.9999999999999995E-07
           CALCULATE_C9_TERM  T
           REFERENCE_C9_TERM  T
           LONG_RANGE_CORRECTION  F
           VERBOSE_OUTPUT  F
         &END PAIR_POTENTIAL
       &END VDW_POTENTIAL
     &END XC
   &END DFT
   &SUBSYS
     &CELL
       A     9.7460777932596248E+00    0.0000000000000000E+00    0.0000000000000000E+00
       B    -4.8520238398674005E+00    8.4039518101857720E+00    0.0000000000000000E+00
       C     0.0000000000000000E+00    0.0000000000000000E+00    3.0744000000000000E+01
       MULTIPLE_UNIT_CELL  1 1 1
       &CELL_REF
         A     9.5580000000000016E+00    0.0000000000000000E+00    0.0000000000000000E+00
         B    -4.7790000000000008E+00    8.2774708093716640E+00    0.0000000000000000E+00
         C     0.0000000000000000E+00    0.0000000000000000E+00    3.0744000000000000E+01
         MULTIPLE_UNIT_CELL  1 1 1
       &END CELL_REF
     &END CELL
     &COORD
Ga   -1.3402009038010810E-03   -6.1894331150472636E-04   -5.8888874084274889E-01
N    5.3847579269642610E-03    1.8701657469797976E+00    5.6785805835308834E-01
Ga    5.1406099752739527E-03    1.8390184056630865E+00    2.5967820243230824E+00
N   -9.6590243375143292E-04   -2.7868269929769533E-03    3.2297020610058849E+00
Ga    7.0393062527412042E-04    3.7965425356774069E-04    5.2201665059768638E+00
N    7.2787716019546414E-03    1.8742738188725119E+00    5.8062546693125627E+00
Ga    6.9170364472002218E-03    1.8720916761613684E+00    7.8047521623424752E+00
N    7.2779654984409686E-04    4.7543419934053116E-05    8.4077871270236955E+00
Ga    2.2488693219927009E-03    2.0185786022563993E-03    1.0405097503510595E+01
N    7.0888948365152860E-03    1.8706494549934438E+00    1.1014307986566115E+01
Ga    5.6602563994202918E-03    1.8711363988738379E+00    1.3010433443410909E+01
N    3.1769303377926863E-04    1.6235601015638754E-03    1.3624059767401809E+01
Ga   -1.5579765503410725E-02   -8.4535481268992602E-03    1.5631625899418090E+01
N   -7.8639391302372293E-03    1.8816954176409917E+00    1.6212519829728368E+01
Ga    1.9240463029067779E-02    1.9047931330859824E+00    1.8288979847774176E+01
N    8.0046180139682586E-03    1.1147971769989032E-02    1.8650992486878959E+01
Ga   -1.6170236666816067E+00    2.7972410614543262E+00    2.8251769538096222E-01
N   -1.6169869615887986E+00    4.6648657112656258E+00    5.6837233703180412E-01
Ga   -1.5876172591769089E+00    4.6830994076951438E+00    2.5970247361762406E+00
N   -1.6189603115536673E+00    2.7985201277263130E+00    3.1891547882679485E+00
Ga   -1.6171401006994468E+00    2.8016307579324917E+00    5.1992093191375170E+00
N   -1.6131789594023032E+00    4.6712527888956012E+00    5.8070142779278298E+00
Ga   -1.6125603956471795E+00    4.6708054031708137E+00    7.8058293202815960E+00
N   -1.6168410159971280E+00    2.8009857430218958E+00    8.4109873589741664E+00
Ga   -1.6155146094847572E+00    2.8024107876349609E+00    1.0407949943175215E+01
N   -1.6062334240978882E+00    4.6732793332116023E+00    1.1013812871993347E+01
Ga   -1.6056904965501135E+00    4.6728829687871754E+00    1.3010504387640568E+01
N   -1.6181436363543684E+00    2.8023172877715603E+00    1.3610679528956316E+01
Ga   -1.6342516500471758E+00    2.7899816172669052E+00    1.5610974265364550E+01
N   -1.6243674094131457E+00    4.6725745927255264E+00    1.6213205854110019E+01
Ga   -1.6091458334200521E+00    4.6809786125181470E+00    1.8289621427850140E+01
N   -1.6189172361244959E+00    2.7956667680571838E+00    1.8685795910745977E+01
Ga   -3.2351584700411662E+00    5.6004588153535826E+00    2.8485517609990341E-01
N   -3.2259602997479311E+00    7.4691967456751547E+00    5.6636634784186346E-01
Ga   -3.2543343509649958E+00    7.4851078294985083E+00    2.5949833628899621E+00
N   -3.2356808715256173E+00    5.6008754255401598E+00    3.1881602901074770E+00
Ga   -3.2339460842950998E+00    5.6036475571999516E+00    5.1984175783884901E+00
N   -3.2252098625603196E+00    7.4717221848413704E+00    5.8081467989448026E+00
Ga   -3.2265914260434814E+00    7.4706355946517364E+00    7.8066027410495611E+00
N   -3.2341978564138185E+00    5.6018863798972847E+00    8.4149669089855852E+00
Ga   -3.2329447730262317E+00    5.6029289612911475E+00    1.0412420712328663E+01
N   -3.2278153978315007E+00    7.4750306530894779E+00    1.1015134909353534E+01
Ga   -3.2295648345417667E+00    7.4732343380099611E+00    1.3013218270834267E+01
N   -3.2345089712809716E+00    5.5973113733803936E+00    1.3608429057521636E+01
Ga   -3.2488708913032380E+00    5.5821646412131640E+00    1.5606482622246851E+01
N   -3.2462013932835285E+00    7.4560099767664134E+00    1.6206382169619026E+01
Ga   -3.2223593532723855E+00    7.4875914207995091E+00    1.8278079138137262E+01
N   -3.2420660791408205E+00    5.5980153024281654E+00    1.8640370934199861E+01
Ga    3.2486756132811148E+00   -5.9798673836006710E-03    2.8148354091800765E-01
N    3.2511123624759044E+00    1.8657287083717158E+00    5.6604305295516943E-01
Ga    3.2775637951423469E+00    1.8812120199894247E+00    2.5996921547463741E+00
N    3.2471710188870078E+00   -2.9248454676009772E-03    3.1885006296492180E+00
Ga    3.2488136630978692E+00    2.6213187794438091E-04    5.1994957047770480E+00
N    3.2529391385187623E+00    1.8694273265855159E+00    5.8069334735808793E+00
Ga    3.2530644527861194E+00    1.8685915692444144E+00    7.8059156137794359E+00
N    3.2491912668556080E+00   -1.3809800003344453E-03    8.4099526082057139E+00
Ga    3.2492996441139721E+00   -4.5667276783326684E-04    1.0406126210008809E+01
N    3.2550578728055197E+00    1.8690624906456748E+00    1.1011264539670599E+01
Ga    3.2486123523183328E+00    1.8615045018070751E+00    1.3007506381711671E+01
N    3.2460300786861480E+00   -6.9592348815143909E-03    1.3625847942966688E+01
Ga    3.2391733717764635E+00   -1.8402889999364094E-02    1.5633181545265622E+01
N    3.2229345804582814E+00    1.8597069579506433E+00    1.6210406255475348E+01
Ga    3.2572559644244845E+00    1.8887961395191832E+00    1.8282957397693629E+01
N    3.2538400592206651E+00   -8.5650929378165083E-03    1.8636278333768281E+01
Ga    1.6282050984586527E+00    2.7990835369112128E+00    2.8282074875259577E-01
N    1.6405994184315227E+00    4.6674184597049448E+00    5.6585536167778361E-01
Ga    1.6120965405228354E+00    4.6834569714658372E+00    2.5947145104017655E+00
N    1.6303268264564466E+00    2.7992698901708737E+00    3.1879253329036179E+00
Ga    1.6321362023491981E+00    2.8023945140343285E+00    5.1985138406307287E+00
N    1.6413226088938122E+00    4.6708903750633004E+00    5.8084684093741119E+00
Ga    1.6397306384395387E+00    4.6698313327993564E+00    7.8071252174246348E+00
N    1.6313784709654722E+00    2.8003840817224521E+00    8.4121554303377266E+00
Ga    1.6314592604785143E+00    2.8011036073167728E+00    1.0408586170824382E+01
N    1.6364660994378459E+00    4.6728830126710719E+00    1.1010319630263922E+01
Ga    1.6322014803380156E+00    4.6705877981873156E+00    1.3006023035321785E+01
N    1.6299210367250760E+00    2.8001327384493075E+00    1.3611603166710989E+01
Ga    1.6191201210736030E+00    2.7949982559670175E+00    1.5614128189174201E+01
N    1.6374388559642599E+00    4.6695154376331374E+00    1.6203227027389779E+01
Ga    1.6537188304932793E+00    4.6851954972280492E+00    1.8275337801358418E+01
N    1.6378757314096366E+00    2.8040773993255392E+00    1.8707128203036024E+01
Ga    1.1823769094077907E-02    5.6011762810674215E+00   -5.8960233323245459E-01
N    1.9801497459186600E-02    7.4731915966570650E+00    5.6777622560113294E-01
Ga    1.9164932968544577E-02    7.4418410894312688E+00    2.5968079489837361E+00
N    1.3194966774699382E-02    5.5993875662115880E+00    3.2294993666012868E+00
Ga    1.5262441095391259E-02    5.6029829051539020E+00    5.2195661276485801E+00
N    2.1345248768541498E-02    7.4769315516350616E+00    5.8058594490067739E+00
Ga    2.1404909978496828E-02    7.4744543641769123E+00    7.8045789003615678E+00
N    1.4309675269437550E-02    5.6026038526219004E+00    8.4061602011771424E+00
Ga    1.5063152961320186E-02    5.6046108845099676E+00    1.0402587579344116E+01
N    2.0344358810813014E-02    7.4729395244115384E+00    1.1013425111533149E+01
Ga    1.7063013284830640E-02    7.4702858591186638E+00    1.3011269603213860E+01
N    1.5499761111970614E-02    5.6035128071707385E+00    1.3631562708736901E+01
Ga    4.9893896811958908E-03    5.5965518116036197E+00    1.5640654103344199E+01
N    1.8031771923723305E-02    7.4791092173802465E+00    1.6214896985278667E+01
Ga    3.2201380644256691E-02    7.4768956549544576E+00    1.8280712948441710E+01
N    1.4973437859235035E-02    5.5832393119672545E+00    1.8669085567435360E+01
Ga    6.4962642554131920E+00   -3.6070647803478515E-03    2.8276706096085885E-01
N    6.5046906792616523E+00    1.8677093295534501E+00    5.6502873143025634E-01
Ga    6.4782382393917670E+00    1.8816826602946863E+00    2.5987925722193479E+00
N    6.4963976215487227E+00   -2.2308643953951844E-03    3.1877322460664788E+00
Ga    6.4985986837583640E+00    5.9749318891261824E-04    5.1981315168831612E+00
N    6.5067599791697894E+00    1.8689213759743635E+00    5.8078235801055520E+00
Ga    6.5056173794524641E+00    1.8678396734078830E+00    7.8067519020771359E+00
N    6.4973952366269323E+00   -1.0373881491670478E-03    8.4137287563174947E+00
Ga    6.4988486705898030E+00    6.6306547059906027E-04    1.0410846301183401E+01
N    6.5055496454373998E+00    1.8718058107432594E+00    1.1012275303172469E+01
Ga    6.5045765817029153E+00    1.8667927016423291E+00    1.3008795837451281E+01
N    6.4978383570149409E+00   -7.2004029932461518E-03    1.3605070164600802E+01
Ga    6.4839025879222518E+00   -2.0228478122136174E-02    1.5604726802469669E+01
N    6.5014442629135845E+00    1.8587523584685806E+00    1.6182098238312953E+01
Ga    6.5233935574963171E+00    1.8881060354830150E+00    1.8237525010891535E+01
N    6.5080355822502556E+00   -2.7186008428205363E-03    1.8615223882968039E+01
Ga    4.8784536093065407E+00    2.8004442413249939E+00   -5.4952350874334666E-01
N    4.8857629212948313E+00    4.6685382489481357E+00    5.6770279050653460E-01
Ga    4.8850522099348890E+00    4.6415106899531491E+00    2.6007473252171600E+00
N    4.8787701954450959E+00    2.7982345083146827E+00    3.2298346812106944E+00
Ga    4.8808632989060436E+00    2.8015188860676865E+00    5.2211655920573738E+00
N    4.8873496620887797E+00    4.6756089152578060E+00    5.8076543990595821E+00
Ga    4.8871362609721931E+00    4.6729870036897845E+00    7.8073068685607758E+00
N    4.8800846438492931E+00    2.8000690296105102E+00    8.4075081451748606E+00
Ga    4.8810072839322451E+00    2.7996250759606056E+00    1.0405427052773680E+01
N    4.8884320659235234E+00    4.6682142710818999E+00    1.1013739670982027E+01
Ga    4.8868881742327455E+00    4.6607611234706399E+00    1.3010208948583701E+01
N    4.8740071416505106E+00    2.7832521821539897E+00    1.3612860848447484E+01
Ga    4.8616056145297009E+00    2.7681762336786844E+00    1.5614806571939898E+01
N    4.8727647722272067E+00    4.6537443566263450E+00    1.6152838116721831E+01
Ga    4.8948495492855084E+00    4.6882449746544586E+00    1.8199294140825650E+01
N    4.8901241932973063E+00    2.8034536095659011E+00    1.8610933176342137E+01
Ga    3.2616534941986215E+00    5.6000552030151090E+00    2.8281240561181409E-01
N    3.2641269296214674E+00    7.4680496033593879E+00    5.6723551767433822E-01
Ga    3.2924981068311858E+00    7.4845573476600942E+00    2.5965749556571525E+00
N    3.2611694673047658E+00    5.6001700302921309E+00    3.1891100511651596E+00
Ga    3.2630576104601690E+00    5.6035588772234952E+00    5.2000677279700023E+00
N    3.2670817058590425E+00    7.4722975088918391E+00    5.8084394908645374E+00
Ga    3.2673306261379138E+00    7.4716195519584456E+00    7.8078288465692829E+00
N    3.2634193705877643E+00    5.6017881673329333E+00    8.4130970260187379E+00
Ga    3.2652879032830371E+00    5.6025513549954331E+00    1.0409846731050649E+01
N    3.2730286169528804E+00    7.4746195740551098E+00    1.1011437959231088E+01
Ga    3.2734514634984966E+00    7.4735136619181164E+00    1.3007085242742770E+01
N    3.2623640191639200E+00    5.5968219241356314E+00    1.3597017137201313E+01
Ga    3.2489904159260168E+00    5.5873664282896485E+00    1.5591636306336898E+01
N    3.2562225807984122E+00    7.4556688945094960E+00    1.6185331047733662E+01
Ga    3.2909711607915280E+00    7.5005642602345750E+00    1.8245207808684032E+01
N    3.2795061124215374E+00    5.6089675257691312E+00    1.8622240269682894E+01
     &END COORD
     &KIND N
       BASIS_SET DZVP-MOLOPT-SR-GTH
       POTENTIAL GTH-PBE-q5
       &POTENTIAL
 2 3
  0.2837905100000000E+00 2 -0.1241522559000000E+02  0.1868095920000000E+01
 2
  0.2554050000000000E+00 1  0.1363026257000000E+02
  0.2454945300000000E+00 0
         # Potential name:  GTH-PBE-Q5  for symbol:  N
         # Potential read from the potential filename: GTH_POTENTIALS
       &END POTENTIAL
     &END KIND
     &KIND Ga
       BASIS_SET DZVP-MOLOPT-SR-GTH
       POTENTIAL GTH-PBE-q13
       &POTENTIAL
 2 1 10
  0.4900000000000000E+00 0
 3
  0.4167772300000000E+00 3  0.1047568975000000E+02 -0.4921768140000000E+01  0.8707055900000000E+00
  0.7770178090000000E+01 -0.2248152160000000E+01
  0.1784415450000000E+01
  0.5696265200000000E+00 2  0.1777985340000000E+01  0.1958597600000000E+00
 -0.2317443900000000E+00
  0.2381265000000000E+00 1 -0.1624868022000000E+02
         # Potential name:  GTH-PBE-Q13  for symbol:  GA
         # Potential read from the potential filename: GTH_POTENTIALS
       &END POTENTIAL
     &END KIND
     &TOPOLOGY
       COORD_FILE_NAME 334-native.xyz
       COORD_FILE_FORMAT  XYZ
       NUMBER_OF_ATOMS  144
       MULTIPLE_UNIT_CELL  1 1 1
     &END TOPOLOGY
   &END SUBSYS
 &END FORCE_EVAL
