 # Version information for this restart file 
 # current date 2019-05-16 00:43:53.180
 # current working dir /lustre03/project/6004141/rzk/GaN-carbene/00-Surface/00-Preoptimization/334-native/Trial4
 # Program compiled at                              Sun Apr  7 00:48:11 EDT 2019
 # Program compiled on                          beluga2.int.ets1.calculquebec.ca
 # Program compiled for                        Beluga-Linux-x86-64-intel-openmpi
 # Source code revision number                                         svn:18619
 &GLOBAL
   PRINT_LEVEL  MEDIUM
   PROJECT_NAME TEST
   RUN_TYPE  CELL_OPT
 &END GLOBAL
 &MOTION
   &CELL_OPT
     MAX_ITER  100
     STEP_START_VAL  4
     EXTERNAL_PRESSURE     1.0000000000000000E+00
     KEEP_ANGLES  T
     KEEP_SYMMETRY  T
     CONSTRAINT  Z
     PRESSURE_TOLERANCE     1.0000000000000000E+02
   &END CELL_OPT
 &END MOTION
 &FORCE_EVAL
   METHOD  QS
   STRESS_TENSOR  ANALYTICAL
   &DFT
     BASIS_SET_FILE_NAME BASIS_MOLOPT
     POTENTIAL_FILE_NAME GTH_POTENTIALS
     &SCF
       MAX_SCF  100
       EPS_SCF     5.0000000000000004E-06
       &OT  T
         PRECONDITIONER  FULL_ALL
       &END OT
       &OUTER_SCF  T
         OPTIMIZER  NONE
         EPS_SCF     5.0000000000000004E-06
         MAX_SCF  10
       &END OUTER_SCF
       &PRINT
         &RESTART  OFF
           BACKUP_COPIES  1
           &EACH
             JUST_ENERGY  0
             QS_SCF  0
             MD  20
           &END EACH
         &END RESTART
       &END PRINT
     &END SCF
     &ALMO_SCF
       EPS_FILTER     9.9999999999999994E-12
       ALMO_SCF_GUESS  ATOMIC
       MO_OVERLAP_INV_ALG  DENSE_CHOLESKY
       ALMO_EXTRAPOLATION_ORDER  4
       XALMO_EXTRAPOLATION_ORDER  4
       ALMO_ALGORITHM  SKIP
       XALMO_TRIAL_WF  SIMPLE
       DELOCALIZE_METHOD  XALMO_SCF
       XALMO_R_CUTOFF_FACTOR     1.8000000000000000E+00
       &ALMO_OPTIMIZER_DIIS
         MAX_ITER  100
         EPS_ERROR     1.0000000000000001E-05
         N_DIIS  5
       &END ALMO_OPTIMIZER_DIIS
       &ALMO_OPTIMIZER_PCG
         MAX_ITER  50
         EPS_ERROR     1.0000000000000001E-05
         LIN_SEARCH_EPS_ERROR     5.0000000000000003E-02
         LIN_SEARCH_STEP_SIZE_GUESS     5.0000000000000001E-03
         CONJUGATOR  DAI_YUAN
         MAX_ITER_OUTER_LOOP  10
       &END ALMO_OPTIMIZER_PCG
       &XALMO_OPTIMIZER_PCG
         MAX_ITER  1000
         EPS_ERROR     1.0000000000000001E-05
         LIN_SEARCH_EPS_ERROR     1.0000000000000001E-01
         LIN_SEARCH_STEP_SIZE_GUESS     1.0000000000000000E-02
         CONJUGATOR  DAI_YUAN
         PRECOND_FILTER_THRESHOLD     1.0000000000000000E-03
         MAX_ITER_OUTER_LOOP  0
       &END XALMO_OPTIMIZER_PCG
       &MATRIX_ITERATE
         EPS_TARGET_FACTOR     1.0000000000000000E+01
       &END MATRIX_ITERATE
     &END ALMO_SCF
     &QS
       EPS_DEFAULT     1.0000000000000000E-14
       ALMO_SCF  F
       METHOD  GPW
     &END QS
     &MGRID
       NGRIDS  5
       CUTOFF     1.2000000000000000E+03
     &END MGRID
     &XC
       DENSITY_CUTOFF     1.0000000000000000E-10
       GRADIENT_CUTOFF     1.0000000000000000E-10
       TAU_CUTOFF     1.0000000000000000E-10
       &XC_FUNCTIONAL  NO_SHORTCUT
         &PBE  T
         &END PBE
       &END XC_FUNCTIONAL
       &VDW_POTENTIAL
         POTENTIAL_TYPE  PAIR_POTENTIAL
         &PAIR_POTENTIAL
           R_CUTOFF     1.0000000000000002E+01
           TYPE  DFTD3
           PARAMETER_FILE_NAME dftd3.dat
           REFERENCE_FUNCTIONAL PBE
           EPS_CN     9.9999999999999995E-07
           CALCULATE_C9_TERM  T
           REFERENCE_C9_TERM  T
           LONG_RANGE_CORRECTION  F
           VERBOSE_OUTPUT  F
         &END PAIR_POTENTIAL
       &END VDW_POTENTIAL
     &END XC
   &END DFT
   &SUBSYS
     &CELL
       A     9.7013033292783568E+00    0.0000000000000000E+00    0.0000000000000000E+00
       B    -4.8645102529584525E+00    8.4255789120637665E+00    0.0000000000000000E+00
       C     0.0000000000000000E+00    0.0000000000000000E+00    3.0744000000000000E+01
       MULTIPLE_UNIT_CELL  1 1 1
       &CELL_REF
         A     9.5580000000000016E+00    0.0000000000000000E+00    0.0000000000000000E+00
         B    -4.7790000000000008E+00    8.2774708093716640E+00    0.0000000000000000E+00
         C     0.0000000000000000E+00    0.0000000000000000E+00    3.0744000000000000E+01
         MULTIPLE_UNIT_CELL  1 1 1
       &END CELL_REF
     &END CELL
     &COORD
Ga    9.9986740700195413E-03   -2.8188622981981996E-02   -5.8092926656647548E-03
N   -4.3114420740862948E-03    1.8501870115316890E+00    5.8035699566335430E-01
Ga   -3.0904858270093651E-03    1.8617619534810692E+00    2.6410638160051114E+00
N    7.0281096226476158E-04   -3.7874240024920086E-04    3.2112751975504730E+00
Ga    1.0709440122279805E-03    5.7537445687977601E-04    5.2194481553241632E+00
N   -3.9302544888017554E-03    1.8718687838349299E+00    5.8007012785079404E+00
Ga   -3.5775374971528558E-03    1.8717329469766946E+00    7.8089400359045174E+00
N    6.3907127692477430E-04    1.3043409701590978E-03    8.3948441316167806E+00
Ga    5.2653885813407357E-04    9.5010255235195614E-04    1.0399541650509905E+01
N   -3.6874156030286568E-03    1.8711588665543699E+00    1.0988657597601144E+01
Ga   -3.5630142649918260E-03    1.8716639604093399E+00    1.2991628106327905E+01
N    7.6287140110298918E-04    1.1194641762275177E-03    1.3580365757386046E+01
Ga    5.0922686808329285E-04    8.6016667794921022E-04    1.5585742755943102E+01
N   -4.0600807877511254E-03    1.8709788506829115E+00    1.6169416893978607E+01
Ga   -3.8525799728517112E-03    1.8711176978423039E+00    1.8246414348416419E+01
N    7.5929707847341074E-04    9.9292316458855280E-04    1.8736746602906898E+01
Ga   -1.6039582491407107E+00    2.8372023336939187E+00   -2.9398852754373744E-02
N   -1.6371458110990393E+00    4.6921811675534491E+00    5.8682599723660356E-01
Ga   -1.6291737469768337E+00    4.6817769706777490E+00    2.6407070177737095E+00
N   -1.6202240067751303E+00    2.8091695801343541E+00    3.2005564621043421E+00
Ga   -1.6207180430203703E+00    2.8095819348437607E+00    5.2210332307335490E+00
N   -1.6250933620640144E+00    4.6797228146809289E+00    5.8005507678451425E+00
Ga   -1.6247892686885217E+00    4.6801527080745924E+00    7.8089082719895666E+00
N   -1.6208284214006929E+00    2.8098252260178849E+00    8.3948200034662666E+00
Ga   -1.6208481107037338E+00    2.8092320072939807E+00    1.0399635036718582E+01
N   -1.6252894589658691E+00    4.6797188195854487E+00    1.0988609461359079E+01
Ga   -1.6247634739144015E+00    4.6801102167784618E+00    1.2991560211153502E+01
N   -1.6209202606835542E+00    2.8096668539189849E+00    1.3580402917347048E+01
Ga   -1.6208582449514464E+00    2.8091876240705207E+00    1.5585777408006829E+01
N   -1.6250222423329739E+00    4.6793217940044336E+00    1.6169317791898074E+01
Ga   -1.6244098304340029E+00    4.6798688279304193E+00    1.8246287567506847E+01
N   -1.6207026994531071E+00    2.8095352361357149E+00    1.8736352124069128E+01
Ga   -3.2701729687216683E+00    5.6380303914292478E+00   -2.5308211411180152E-03
N   -3.2352407160439141E+00    7.4884778373671068E+00    6.2246840666753478E-01
Ga   -3.2443761623412755E+00    7.4860573600942990E+00    2.6432132379750390E+00
N   -3.2438752069387515E+00    5.6154548426606814E+00    3.2105851161979992E+00
Ga   -3.2430205592279147E+00    5.6189734946170846E+00    5.2200355788628254E+00
N   -3.2467485550609627E+00    7.4885044644014620E+00    5.8019184558891466E+00
Ga   -3.2463326990105994E+00    7.4885038573703886E+00    7.8083232486529095E+00
N   -3.2422159995121342E+00    5.6179981145859044E+00    8.3948050758122967E+00
Ga   -3.2425912032777289E+00    5.6181524318589604E+00    1.0399593466881923E+01
N   -3.2467876766110675E+00    7.4883054238575468E+00    1.0988658286801181E+01
Ga   -3.2463898859149691E+00    7.4884022025195458E+00    1.2991598455594854E+01
N   -3.2422707601335472E+00    5.6181083944337953E+00    1.3580618801035008E+01
Ga   -3.2426376982425840E+00    5.6180984742813793E+00    1.5586223770312285E+01
N   -3.2464009026481975E+00    7.4881784128198454E+00    1.6169365495460994E+01
Ga   -3.2464202105228690E+00    7.4886956884435323E+00    1.8246340459539617E+01
N   -3.2425085258581166E+00    5.6182125988686211E+00    1.8735894018020826E+01
Ga    3.2336387550044878E+00    1.1768728101774125E-02   -2.7673300658002890E-03
N    3.2265310737259059E+00    1.8669433797011434E+00    5.9812900563812932E-01
Ga    3.2301594062079300E+00    1.8633531257700537E+00    2.6418256440900230E+00
N    3.2355437903705115E+00    9.1751471499313222E-04    3.2164744799215814E+00
Ga    3.2344423923114514E+00    1.5452069371793453E-03    5.2190476732449387E+00
N    3.2298254047459540E+00    1.8722686749227602E+00    5.8017646383755670E+00
Ga    3.2301733198146985E+00    1.8714826182393414E+00    7.8085491924030377E+00
N    3.2346012834209370E+00    1.1764123979123783E-03    8.3949873939305100E+00
Ga    3.2340743378768262E+00    9.3349091967899912E-04    1.0399510475133994E+01
N    3.2299311513221363E+00    1.8712624622096683E+00    1.0988630352563435E+01
Ga    3.2301523335534790E+00    1.8714416816757995E+00    1.2991573973230070E+01
N    3.2345378711230701E+00    1.0886358824494543E-03    1.3580392732413850E+01
Ga    3.2340389888675327E+00    9.4931577596842716E-04    1.5585787179496563E+01
N    3.2296786076482533E+00    1.8709262347439373E+00    1.6169335932002056E+01
Ga    3.2306280229686473E+00    1.8714536921208409E+00    1.8246331410103092E+01
N    3.2345440455378718E+00    1.4582306258177438E-03    1.8736274092260082E+01
Ga    1.6033082895680457E+00    2.8317194823616352E+00   -1.7709968848925291E-02
N    1.6216100957476176E+00    4.6808570196701362E+00    5.9786986469620129E-01
Ga    1.6106206445469984E+00    4.6783378146845749E+00    2.6415562956789080E+00
N    1.6105436688376964E+00    2.8082830133325438E+00    3.2039337842412130E+00
Ga    1.6126479528993951E+00    2.8089744708808029E+00    5.2205010129601197E+00
N    1.6086832664870667E+00    4.6798195478492692E+00    5.8001012087832571E+00
Ga    1.6084436578395027E+00    4.6801402226562825E+00    7.8088428619209544E+00
N    1.6128136528803707E+00    2.8098881864035481E+00    8.3947938314314232E+00
Ga    1.6126430082545029E+00    2.8092529888177977E+00    1.0399544498204351E+01
N    1.6086137598961454E+00    4.6797516042824467E+00    1.0988589026419545E+01
Ga    1.6084209148534951E+00    4.6801407222915872E+00    1.2991574341603274E+01
N    1.6128929304042192E+00    2.8097114448655285E+00    1.3580618686921301E+01
Ga    1.6126938127571884E+00    2.8092087268698287E+00    1.5586164987793548E+01
N    1.6086326544062326E+00    4.6800681246588240E+00    1.6169427610738904E+01
Ga    1.6081142556249921E+00    4.6806839655456649E+00    1.8246425158814322E+01
N    1.6130416786182200E+00    2.8098055298292328E+00    1.8735561371343085E+01
Ga    8.9132539606423308E-03    5.6092734983774504E+00   -1.5633255714266086E-02
N   -2.2389036181570263E-02    7.4836368180182902E+00    5.9946673029153530E-01
Ga   -1.6937526847541070E-02    7.4873234186913216E+00    2.6418544857826523E+00
N   -8.6915200591208813E-03    5.6148121977536647E+00    3.2051241344438304E+00
Ga   -8.6388926060785021E-03    5.6184755172239331E+00    5.2203782344090950E+00
N   -1.2746988279352015E-02    7.4880837996271801E+00    5.8018485766524064E+00
Ga   -1.2811103048758859E-02    7.4882776598240772E+00    7.8084934533233561E+00
N   -8.5444087541001190E-03    5.6180780437366789E+00    8.3948783747715261E+00
Ga   -8.6998556044311798E-03    5.6179445791922120E+00    1.0399517244211459E+01
N   -1.2905943676436632E-02    7.4883417786059985E+00    1.0988602626068010E+01
Ga   -1.2805648303088193E-02    7.4881585837138074E+00    1.2991552845241124E+01
N   -8.5883363037229012E-03    5.6181422205702392E+00    1.3580374911151242E+01
Ga   -8.7703645678110578E-03    5.6179463499332698E+00    1.5585671166118136E+01
N   -1.2796366143213507E-02    7.4879517750129834E+00    1.6169413776722500E+01
Ga   -1.3058291692316018E-02    7.4876902097595712E+00    1.8246404024364523E+01
N   -9.0452380803124361E-03    5.6182385756127733E+00    1.8736485701158387E+01
Ga    6.4656732788498035E+00   -9.5163127926645094E-03   -1.1554392346576490E-02
N    6.4654223928979162E+00    1.8635653520220818E+00    5.8044673026137794E-01
Ga    6.4604986376416154E+00    1.8643753475566567E+00    2.6405688755271290E+00
N    6.4659387674890390E+00    4.1130282396512578E-04    3.2104714973278647E+00
Ga    6.4675639710844584E+00    1.2690230021149039E-03    5.2194744019660178E+00
N    6.4645115864861555E+00    1.8719860270173518E+00    5.8013637734181271E+00
Ga    6.4640735455175715E+00    1.8714788666853788E+00    7.8088409234771508E+00
N    6.4681539609089178E+00    1.2443191854691739E-03    8.3948784673178078E+00
Ga    6.4682952634599769E+00    9.3646062991257725E-04    1.0399458546317879E+01
N    6.4638324855771616E+00    1.8711942746051453E+00    1.0988632164058297E+01
Ga    6.4640060801497166E+00    1.8714217286560031E+00    1.2991569409076705E+01
N    6.4681485647698072E+00    1.1215813228955831E-03    1.3580633410452402E+01
Ga    6.4682721889093724E+00    8.5193770008361010E-04    1.5586152032041683E+01
N    6.4632254816170596E+00    1.8713644761934682E+00    1.6169332069185554E+01
Ga    6.4633594403347168E+00    1.8719531520496133E+00    1.8246383486446110E+01
N    6.4682011838933926E+00    9.0307000570591606E-04    1.8735589802269722E+01
Ga    4.8454867931311449E+00    2.8219588386906924E+00   -1.4652205760728289E-02
N    4.8387774886668700E+00    4.6699707235304144E+00    6.0629131318354557E-01
Ga    4.8415806775152159E+00    4.6763381367719363E+00    2.6434361457780038E+00
N    4.8471253685663429E+00    2.8067549335631248E+00    3.2083322061460762E+00
Ga    4.8466924964541969E+00    2.8088207604434197E+00    5.2201536324384552E+00
N    4.8423059022069532E+00    4.6797560726442224E+00    5.8007628595485130E+00
Ga    4.8424898795188600E+00    4.6800152483793580E+00    7.8086286221584169E+00
N    4.8467443169973095E+00    2.8097128048787736E+00    8.3948680026730464E+00
Ga    4.8465551320158848E+00    2.8094277354827937E+00    1.0399629199972635E+01
N    4.8422490611291673E+00    4.6798463814327933E+00    1.0988614835816998E+01
Ga    4.8424312860101333E+00    4.6799979937548475E+00    1.2991581284572810E+01
N    4.8466111036259134E+00    2.8096779216019723E+00    1.3580323996571810E+01
Ga    4.8465487279565069E+00    2.8093868351862001E+00    1.5585778112179632E+01
N    4.8418658672251071E+00    4.6797710114342905E+00    1.6169339071410157E+01
Ga    4.8421297737141664E+00    4.6794645206425214E+00    1.8246385747120765E+01
N    4.8470536270544891E+00    2.8096858543812302E+00    1.8736829296256211E+01
Ga    3.2414855718502160E+00    5.6430382880223871E+00   -6.5609366994587052E-05
N    3.2158187943885972E+00    7.4938561992769941E+00    6.1311932726427065E-01
Ga    3.2196731987413272E+00    7.4863508776955090E+00    2.6415378657006103E+00
N    3.2256525477016051E+00    5.6169707481835340E+00    3.2078708644839402E+00
Ga    3.2257607777745521E+00    5.6190559106269946E+00    5.2199949011867313E+00
N    3.2207938089447850E+00    7.4887294404851943E+00    5.8011380469193732E+00
Ga    3.2207419396301979E+00    7.4885141618912945E+00    7.8085336743277827E+00
N    3.2250828413023847E+00    5.6181521503086875E+00    8.3947605127021863E+00
Ga    3.2251527105812818E+00    5.6181791894045903E+00    1.0399535652494468E+01
N    3.2209141798741046E+00    7.4883559751117676E+00    1.0988640116402086E+01
Ga    3.2207793438241668E+00    7.4883606397627851E+00    1.2991618452417415E+01
N    3.2251586595982640E+00    5.6181878205245441E+00    1.3580395509556784E+01
Ga    3.2251551207121696E+00    5.6180756911548428E+00    1.5585743326805977E+01
N    3.2213228560445391E+00    7.4885567908611330E+00    1.6169447936494166E+01
Ga    3.2216365152798652E+00    7.4885276346627236E+00    1.8246442835048846E+01
N    3.2249096257974128E+00    5.6179545911766589E+00    1.8736065140745559E+01
     &END COORD
     &KIND N
       BASIS_SET DZVP-MOLOPT-SR-GTH
       POTENTIAL GTH-PBE-q5
       &POTENTIAL
 2 3
  0.2837905100000000E+00 2 -0.1241522559000000E+02  0.1868095920000000E+01
 2
  0.2554050000000000E+00 1  0.1363026257000000E+02
  0.2454945300000000E+00 0
         # Potential name:  GTH-PBE-Q5  for symbol:  N
         # Potential read from the potential filename: GTH_POTENTIALS
       &END POTENTIAL
     &END KIND
     &KIND Ga
       BASIS_SET DZVP-MOLOPT-SR-GTH
       POTENTIAL GTH-PBE-q13
       &POTENTIAL
 2 1 10
  0.4900000000000000E+00 0
 3
  0.4167772300000000E+00 3  0.1047568975000000E+02 -0.4921768140000000E+01  0.8707055900000000E+00
  0.7770178090000000E+01 -0.2248152160000000E+01
  0.1784415450000000E+01
  0.5696265200000000E+00 2  0.1777985340000000E+01  0.1958597600000000E+00
 -0.2317443900000000E+00
  0.2381265000000000E+00 1 -0.1624868022000000E+02
         # Potential name:  GTH-PBE-Q13  for symbol:  GA
         # Potential read from the potential filename: GTH_POTENTIALS
       &END POTENTIAL
     &END KIND
     &TOPOLOGY
       COORD_FILE_NAME 334-native.xyz
       COORD_FILE_FORMAT  XYZ
       NUMBER_OF_ATOMS  144
       MULTIPLE_UNIT_CELL  1 1 1
     &END TOPOLOGY
   &END SUBSYS
 &END FORCE_EVAL
