 # Version information for this restart file 
 # current date 2019-05-16 14:42:36.832
 # current working dir /lustre03/project/6004141/rzk/GaN-carbene/00-Surface/00-Preoptimization/334-native/Trial4
 # Program compiled at                              Sun Apr  7 00:48:11 EDT 2019
 # Program compiled on                          beluga2.int.ets1.calculquebec.ca
 # Program compiled for                        Beluga-Linux-x86-64-intel-openmpi
 # Source code revision number                                         svn:18619
 &GLOBAL
   PRINT_LEVEL  MEDIUM
   PROJECT_NAME TEST
   RUN_TYPE  CELL_OPT
 &END GLOBAL
 &MOTION
   &CELL_OPT
     MAX_ITER  150
     STEP_START_VAL  110
     EXTERNAL_PRESSURE     1.0000000000000000E+00
     KEEP_ANGLES  T
     KEEP_SYMMETRY  T
     CONSTRAINT  Z
     PRESSURE_TOLERANCE     3.0000000000000000E+02
   &END CELL_OPT
 &END MOTION
 &FORCE_EVAL
   METHOD  QS
   STRESS_TENSOR  ANALYTICAL
   &DFT
     BASIS_SET_FILE_NAME BASIS_MOLOPT
     POTENTIAL_FILE_NAME GTH_POTENTIALS
     &SCF
       MAX_SCF  100
       EPS_SCF     5.0000000000000004E-06
       &OT  T
         PRECONDITIONER  FULL_ALL
       &END OT
       &OUTER_SCF  T
         OPTIMIZER  NONE
         EPS_SCF     5.0000000000000004E-06
         MAX_SCF  10
       &END OUTER_SCF
       &PRINT
         &RESTART  OFF
           BACKUP_COPIES  1
           &EACH
             JUST_ENERGY  0
             QS_SCF  0
             MD  20
           &END EACH
         &END RESTART
       &END PRINT
     &END SCF
     &ALMO_SCF
       EPS_FILTER     9.9999999999999994E-12
       ALMO_SCF_GUESS  ATOMIC
       MO_OVERLAP_INV_ALG  DENSE_CHOLESKY
       ALMO_EXTRAPOLATION_ORDER  4
       XALMO_EXTRAPOLATION_ORDER  4
       ALMO_ALGORITHM  SKIP
       XALMO_TRIAL_WF  SIMPLE
       DELOCALIZE_METHOD  XALMO_SCF
       XALMO_R_CUTOFF_FACTOR     1.8000000000000000E+00
       &ALMO_OPTIMIZER_DIIS
         MAX_ITER  100
         EPS_ERROR     1.0000000000000001E-05
         N_DIIS  5
       &END ALMO_OPTIMIZER_DIIS
       &ALMO_OPTIMIZER_PCG
         MAX_ITER  50
         EPS_ERROR     1.0000000000000001E-05
         LIN_SEARCH_EPS_ERROR     5.0000000000000003E-02
         LIN_SEARCH_STEP_SIZE_GUESS     5.0000000000000001E-03
         CONJUGATOR  DAI_YUAN
         MAX_ITER_OUTER_LOOP  10
       &END ALMO_OPTIMIZER_PCG
       &XALMO_OPTIMIZER_PCG
         MAX_ITER  1000
         EPS_ERROR     1.0000000000000001E-05
         LIN_SEARCH_EPS_ERROR     1.0000000000000001E-01
         LIN_SEARCH_STEP_SIZE_GUESS     1.0000000000000000E-02
         CONJUGATOR  DAI_YUAN
         PRECOND_FILTER_THRESHOLD     1.0000000000000000E-03
         MAX_ITER_OUTER_LOOP  0
       &END XALMO_OPTIMIZER_PCG
       &MATRIX_ITERATE
         EPS_TARGET_FACTOR     1.0000000000000000E+01
       &END MATRIX_ITERATE
     &END ALMO_SCF
     &QS
       EPS_DEFAULT     1.0000000000000000E-14
       ALMO_SCF  F
       METHOD  GPW
     &END QS
     &MGRID
       NGRIDS  5
       CUTOFF     1.2000000000000000E+03
     &END MGRID
     &XC
       DENSITY_CUTOFF     1.0000000000000000E-10
       GRADIENT_CUTOFF     1.0000000000000000E-10
       TAU_CUTOFF     1.0000000000000000E-10
       &XC_FUNCTIONAL  NO_SHORTCUT
         &PBE  T
         &END PBE
       &END XC_FUNCTIONAL
       &VDW_POTENTIAL
         POTENTIAL_TYPE  PAIR_POTENTIAL
         &PAIR_POTENTIAL
           R_CUTOFF     1.0000000000000004E+01
           TYPE  DFTD3
           PARAMETER_FILE_NAME dftd3.dat
           REFERENCE_FUNCTIONAL PBE
           EPS_CN     9.9999999999999995E-07
           CALCULATE_C9_TERM  T
           REFERENCE_C9_TERM  T
           LONG_RANGE_CORRECTION  F
           VERBOSE_OUTPUT  F
         &END PAIR_POTENTIAL
       &END VDW_POTENTIAL
     &END XC
   &END DFT
   &SUBSYS
     &CELL
       A     9.7409436893298267E+00    0.0000000000000000E+00    0.0000000000000000E+00
       B    -4.8565725953379895E+00    8.4118304857719988E+00    0.0000000000000000E+00
       C     0.0000000000000000E+00    0.0000000000000000E+00    3.0744000000000000E+01
       MULTIPLE_UNIT_CELL  1 1 1
       &CELL_REF
         A     9.5580000000000034E+00    0.0000000000000000E+00    0.0000000000000000E+00
         B    -4.7790000000000017E+00    8.2774708093716640E+00    0.0000000000000000E+00
         C     0.0000000000000000E+00    0.0000000000000000E+00    3.0744000000000000E+01
         MULTIPLE_UNIT_CELL  1 1 1
       &END CELL_REF
     &END CELL
     &COORD
Ga    1.1956932392505003E-03   -2.5175724935865820E-04   -5.8884200063443792E-01
N    5.1589356017755156E-03    1.8719835029771437E+00    5.6490679461308257E-01
Ga    4.1854193264178469E-03    1.8394202859495723E+00    2.5956719107646982E+00
N   -2.4075735625667404E-04   -3.1480010084569410E-03    3.2291818433642265E+00
Ga    2.3094008681757370E-04   -3.1658017954062341E-03    5.2204015263871328E+00
N    4.2826488702087107E-03    1.8711697773817353E+00    5.8068855972248832E+00
Ga    3.5102651490860936E-03    1.8681806109862549E+00    7.8058603908528728E+00
N   -5.2461535964363158E-04   -4.8400941564159068E-03    8.4082795709225664E+00
Ga    6.6647504407302033E-05   -3.6774815781510711E-03    1.0406120338882690E+01
N    3.7840474404564968E-03    1.8678954735216848E+00    1.1010956241515784E+01
Ga    3.1942235114361178E-03    1.8734929683307429E+00    1.3005465178153024E+01
N   -1.0800099655594072E-03    3.8851861689307276E-03    1.3610927840092366E+01
Ga   -6.8855099690981149E-03    1.3753916955994606E-02    1.5614902753285087E+01
N    1.1536674664306523E-03    1.8840488185042052E+00    1.6259303282551382E+01
Ga    1.4349871914181387E-02    1.9050109077586215E+00    1.8370890359923369E+01
N    3.9035029457336035E-03    9.4274512798983839E-03    1.8661041225966180E+01
Ga   -1.6165933689680194E+00    2.8026168429509828E+00    2.7962505912413765E-01
N   -1.6195499507670097E+00    4.6712768500050830E+00    5.6528074613480539E-01
Ga   -1.5908872093293533E+00    4.6863611469345798E+00    2.5952271122167723E+00
N   -1.6188640396612866E+00    2.8009246251597681E+00    3.1871270988481282E+00
Ga   -1.6183663074294974E+00    2.8011376028849684E+00    5.1984389432030618E+00
N   -1.6173434529036279E+00    4.6708371394127370E+00    5.8068191865845007E+00
Ga   -1.6169409884106025E+00    4.6694926453339560E+00    7.8059785690530150E+00
N   -1.6198535435505712E+00    2.7990001936927031E+00    8.4103224595795592E+00
Ga   -1.6191818085672467E+00    2.7994444284913111E+00    1.0406456678229109E+01
N   -1.6112532144857630E+00    4.6698472176090524E+00    1.1014171930548292E+01
Ga   -1.6071752554105401E+00    4.6691638476849162E+00    1.3010179295571932E+01
N   -1.6180925841526039E+00    2.8003657517099421E+00    1.3623433235399403E+01
Ga   -1.6238382408875855E+00    2.7979526229582614E+00    1.5631356689086061E+01
N   -1.6235312665241135E+00    4.6790777635624066E+00    1.6215642240544959E+01
Ga   -1.6120515191125486E+00    4.6774813394114370E+00    1.8296170837283604E+01
N   -1.6214467377389079E+00    2.8143191261970579E+00    1.8737550430137915E+01
Ga   -3.2370516850173829E+00    5.6075698437744359E+00    2.7960452332689267E-01
N   -3.2298218356989241E+00    7.4767899063451990E+00    5.6481326290234968E-01
Ga   -3.2585798070166216E+00    7.4906716903620598E+00    2.5954184505719140E+00
N   -3.2380811563497307E+00    5.6054324966536440E+00    3.1876798583182837E+00
Ga   -3.2377798116506442E+00    5.6054902811218712E+00    5.1989538555849411E+00
N   -3.2307270527246414E+00    7.4744555604037073E+00    5.8080513483868783E+00
Ga   -3.2323768929126522E+00    7.4726398876705202E+00    7.8074591410661212E+00
N   -3.2380037806830817E+00    5.6024746279975695E+00    8.4147481774319228E+00
Ga   -3.2371359918690796E+00    5.6028868651959653E+00    1.0412654282327464E+01
N   -3.2339005404665953E+00    7.4762666257882104E+00    1.1013382356680886E+01
Ga   -3.2335466669101081E+00    7.4800640599334729E+00    1.3010158728735863E+01
N   -3.2356870851037551E+00    5.6009927824036589E+00    1.3594255143931045E+01
Ga   -3.2407275158316233E+00    5.6017775261688900E+00    1.5587545448565422E+01
N   -3.2418819832880637E+00    7.4746544899139149E+00    1.6160238848711259E+01
Ga   -3.2463909023310551E+00    7.4941111198252317E+00    1.8211578777754049E+01
N   -3.2495503830838635E+00    5.6152409149878313E+00    1.8608591616561313E+01
Ga    3.2478358634612561E+00   -3.3692974927970903E-03    2.7949546476208237E-01
N    3.2483791417954420E+00    1.8682698457629976E+00    5.6394708659765125E-01
Ga    3.2744615152317778E+00    1.8819354389686143E+00    2.5979879121544140E+00
N    3.2465153893299648E+00   -3.0166189855976447E-03    3.1871669012150630E+00
Ga    3.2467540179844692E+00   -3.1762361556620339E-03    5.1984049704976210E+00
N    3.2485985078950659E+00    1.8664826120967304E+00    5.8065997047546238E+00
Ga    3.2488267108960107E+00    1.8647561286361021E+00    7.8058538885299473E+00
N    3.2468108047948676E+00   -5.3426209123896770E-03    8.4118775850044400E+00
Ga    3.2472966637997658E+00   -4.5103784783314897E-03    1.0408858113699871E+01
N    3.2494573255811905E+00    1.8668718999401364E+00    1.1014036584434322E+01
Ga    3.2448217597676328E+00    1.8653351480776323E+00    1.3011549698294459E+01
N    3.2470492622170588E+00   -3.9660445636517661E-03    1.3624298818881542E+01
Ga    3.2509497626405679E+00   -1.1658985670896607E-03    1.5629377916546041E+01
N    3.2300836722506734E+00    1.8810187705895587E+00    1.6211388393813461E+01
Ga    3.2424987111691332E+00    1.8952747471102549E+00    1.8282190270320310E+01
N    3.2403921174744204E+00   -1.6134847479482076E-03    1.8576216060249415E+01
Ga    1.6267568747780468E+00    2.8033082364962247E+00    2.7942510325399827E-01
N    1.6375128688578282E+00    4.6721922077759883E+00    5.6510737810143896E-01
Ga    1.6079508293080327E+00    4.6863835745156548E+00    2.5949296335872551E+00
N    1.6278015129162384E+00    2.8010467816942457E+00    3.1873159317509150E+00
Ga    1.6280989447453202E+00    2.8012341877504379E+00    5.1987367671807663E+00
N    1.6352342836563796E+00    4.6710506592550294E+00    5.8069063847378226E+00
Ga    1.6332220567367854E+00    4.6695962206408490E+00    7.8060807417218090E+00
N    1.6276312792793863E+00    2.7991105898913800E+00    8.4103677935433776E+00
Ga    1.6275891138982117E+00    2.7997419224689879E+00    1.0406467875413799E+01
N    1.6284077592389024E+00    4.6704116971966547E+00    1.1012981637068325E+01
Ga    1.6223268229444709E+00    4.6694288928202328E+00    1.3008628522358125E+01
N    1.6238217435445668E+00    2.8010290276163228E+00    1.3618743208354159E+01
Ga    1.6192825888366729E+00    2.8005499935508329E+00    1.5626282225726790E+01
N    1.6357338103820582E+00    4.6769113550617156E+00    1.6211385678454590E+01
Ga    1.6504055812803704E+00    4.6793829118760133E+00    1.8291238566422834E+01
N    1.6357461020927433E+00    2.8154431650363425E+00    1.8748653584807819E+01
Ga    1.0019764529856980E-02    5.6073106384130842E+00   -5.8928380015976778E-01
N    1.4500459589270856E-02    7.4812940635119070E+00    5.6520350153831145E-01
Ga    1.3186000582448079E-02    7.4478132078440282E+00    2.5949467674756170E+00
N    9.0603334390858114E-03    5.6046969768730497E+00    3.2277264318704386E+00
Ga    9.4495565593633070E-03    5.6050910482587923E+00    5.2186612457377022E+00
N    1.3618899238192464E-02    7.4792535941066669E+00    5.8062038975950809E+00
Ga    1.2865167240510757E-02    7.4757965447240489E+00    7.8052421425525580E+00
N    8.5025311691584466E-03    5.6033369490049916E+00    8.4073375446448182E+00
Ga    8.7280973411013475E-03    5.6051830402881109E+00    1.0404593785078220E+01
N    1.3091203559668413E-02    7.4741566962525985E+00    1.1016886243130950E+01
Ga    1.2317526177374367E-02    7.4749048841369978E+00    1.3015894691702792E+01
N    6.9875556058741056E-03    5.6081077803357875E+00    1.3635761136147583E+01
Ga    4.0748865577543364E-03    5.6164328658419560E+00    1.5647151337486690E+01
N    9.9768280238760939E-03    7.4898084182105018E+00    1.6221958104058590E+01
Ga    2.4199626047618328E-02    7.4777654585739173E+00    1.8286135486884280E+01
N    1.4051116799980591E-02    5.5924659476423235E+00    1.8648117638647108E+01
Ga    6.4939633965996002E+00   -2.5816725363065366E-03    2.7928686149505927E-01
N    6.5012583751369952E+00    1.8691273592997113E+00    5.6413217657425840E-01
Ga    6.4741811906527778E+00    1.8821799545237006E+00    2.5980703070247979E+00
N    6.4941055910932555E+00   -3.0093742535195751E-03    3.1871880475830223E+00
Ga    6.4946411669387247E+00   -3.2057916340834818E-03    5.1985310624440686E+00
N    6.5010343918027180E+00    1.8664921919193007E+00    5.8064555401116795E+00
Ga    6.4991437818646833E+00    1.8644967963572476E+00    7.8056480034770157E+00
N    6.4928052420546623E+00   -5.3354275736462965E-03    8.4124090821746691E+00
Ga    6.4934279361265430E+00   -4.7188333971856736E-03    1.0409560702714991E+01
N    6.4996442400713796E+00    1.8664909184462890E+00    1.1015336375543260E+01
Ga    6.5025788275647018E+00    1.8649388168411158E+00    1.3012740573379794E+01
N    6.4926177393713660E+00   -5.6425930670276070E-03    1.3622414663354999E+01
Ga    6.4810054545380442E+00   -5.7592243666664024E-03    1.5626191500997082E+01
N    6.5110320665039545E+00    1.8723144953916540E+00    1.6210877149991514E+01
Ga    6.5223727327520589E+00    1.8950546818600045E+00    1.8281977484369499E+01
N    6.5077988487513583E+00   -8.9560153872705504E-04    1.8582650815184930E+01
Ga    4.8758236914882422E+00    2.8034950505449228E+00   -5.5395541310678953E-01
N    4.8801571106857589E+00    4.6753382214694561E+00    5.6459733213171359E-01
Ga    4.8792279041711888E+00    4.6448449417466389E+00    2.5982063044491368E+00
N    4.8747536007481713E+00    2.8009308076613180E+00    3.2285622878956248E+00
Ga    4.8752310478079472E+00    2.8012928685862781E+00    5.2206375439915131E+00
N    4.8794171874222361E+00    4.6753557871561258E+00    5.8084770656998561E+00
Ga    4.8786619578964787E+00    4.6715668248625688E+00    7.8085813962793234E+00
N    4.8745964255597194E+00    2.7975008857488213E+00    8.4085138919399611E+00
Ga    4.8753318025128349E+00    2.7963925271170607E+00    1.0406803662113946E+01
N    4.8794027467598617E+00    4.6662257874282487E+00    1.1012559534421920E+01
Ga    4.8791744780093289E+00    4.6608551201971693E+00    1.3008295089077318E+01
N    4.8741356400818567E+00    2.7846409256719182E+00    1.3619050021664464E+01
Ga    4.8670720082908874E+00    2.7783657295871937E+00    1.5622603340566839E+01
N    4.8742219948722463E+00    4.6689273964551425E+00    1.6130549728655122E+01
Ga    4.8865106618109611E+00    4.6883728012016332E+00    1.8172083077699718E+01
N    4.8799330607684457E+00    2.8145405741108145E+00    1.8594738041732441E+01
Ga    3.2564139581672782E+00    5.6068314304156344E+00    2.7935370911169149E-01
N    3.2573442631750433E+00    7.4760593555689132E+00    5.6432534462705208E-01
Ga    3.2852842053230971E+00    7.4905042803910229E+00    2.5952376596984035E+00
N    3.2562463957547036E+00    5.6053333742762570E+00    3.1874434072182809E+00
Ga    3.2567242472245885E+00    5.6054896521835600E+00    5.1988238923809664E+00
N    3.2579908250931071E+00    7.4744688199457556E+00    5.8081768448202542E+00
Ga    3.2579550224235834E+00    7.4726811169460339E+00    7.8077942532042997E+00
N    3.2553980521742196E+00    5.6023828747504343E+00    8.4144314086058554E+00
Ga    3.2557533232026765E+00    5.6028022259726642E+00    1.0412189254017960E+01
N    3.2611060332123656E+00    7.4760734560136699E+00    1.1012597736725406E+01
Ga    3.2603682344055862E+00    7.4790375614103661E+00    1.3008664750930652E+01
N    3.2522436465352094E+00    5.5999821895540673E+00    1.3590221946822933E+01
Ga    3.2470208766413222E+00    5.6021690919857354E+00    1.5583422508720082E+01
N    3.2635820957260782E+00    7.4717454097880651E+00    1.6162505727526529E+01
Ga    3.2880600729459815E+00    7.4948824769669953E+00    1.8214233708114410E+01
N    3.2744369402390703E+00    5.6188440978569449E+00    1.8614656419649993E+01
     &END COORD
     &KIND N
       BASIS_SET DZVP-MOLOPT-SR-GTH
       POTENTIAL GTH-PBE-q5
       &POTENTIAL
2 3
0.2837905100000000E+00 2 -0.1241522559000000E+02  0.1868095920000000E+01
2
0.2554050000000000E+00 1  0.1363026257000000E+02
0.2454945300000000E+00 0
       &END POTENTIAL
     &END KIND
     &KIND Ga
       BASIS_SET DZVP-MOLOPT-SR-GTH
       POTENTIAL GTH-PBE-q13
       &POTENTIAL
2 1 10
0.4900000000000000E+00 0
3
0.4167772300000000E+00 3  0.1047568975000000E+02 -0.4921768140000000E+01  0.8707055900000000E+00
0.7770178090000000E+01 -0.2248152160000000E+01
0.1784415450000000E+01
0.5696265200000000E+00 2  0.1777985340000000E+01  0.1958597600000000E+00
-0.2317443900000000E+00
0.2381265000000000E+00 1 -0.1624868022000000E+02
       &END POTENTIAL
     &END KIND
     &TOPOLOGY
       COORD_FILE_NAME 334-native.xyz
       COORD_FILE_FORMAT  XYZ
       NUMBER_OF_ATOMS  144
       MULTIPLE_UNIT_CELL  1 1 1
     &END TOPOLOGY
   &END SUBSYS
 &END FORCE_EVAL
