 # Version information for this restart file 
 # current date 2019-05-16 15:28:05.018
 # current working dir /lustre03/project/6004141/rzk/GaN-carbene/00-Surface/00-Preoptimization/334-native/Trial4
 # Program compiled at                              Sun Apr  7 00:48:11 EDT 2019
 # Program compiled on                          beluga2.int.ets1.calculquebec.ca
 # Program compiled for                        Beluga-Linux-x86-64-intel-openmpi
 # Source code revision number                                         svn:18619
 &GLOBAL
   PRINT_LEVEL  MEDIUM
   PROJECT_NAME TEST
   RUN_TYPE  CELL_OPT
 &END GLOBAL
 &MOTION
   &CELL_OPT
     MAX_ITER  150
     STEP_START_VAL  131
     EXTERNAL_PRESSURE     1.0000000000000000E+00
     KEEP_ANGLES  T
     KEEP_SYMMETRY  T
     CONSTRAINT  Z
     PRESSURE_TOLERANCE     3.0000000000000000E+02
   &END CELL_OPT
 &END MOTION
 &FORCE_EVAL
   METHOD  QS
   STRESS_TENSOR  ANALYTICAL
   &DFT
     BASIS_SET_FILE_NAME BASIS_MOLOPT
     POTENTIAL_FILE_NAME GTH_POTENTIALS
     &SCF
       MAX_SCF  100
       EPS_SCF     5.0000000000000004E-06
       &OT  T
         PRECONDITIONER  FULL_ALL
       &END OT
       &OUTER_SCF  T
         OPTIMIZER  NONE
         EPS_SCF     5.0000000000000004E-06
         MAX_SCF  10
       &END OUTER_SCF
       &PRINT
         &RESTART  OFF
           BACKUP_COPIES  1
           &EACH
             JUST_ENERGY  0
             QS_SCF  0
             MD  20
           &END EACH
         &END RESTART
       &END PRINT
     &END SCF
     &ALMO_SCF
       EPS_FILTER     9.9999999999999994E-12
       ALMO_SCF_GUESS  ATOMIC
       MO_OVERLAP_INV_ALG  DENSE_CHOLESKY
       ALMO_EXTRAPOLATION_ORDER  4
       XALMO_EXTRAPOLATION_ORDER  4
       ALMO_ALGORITHM  SKIP
       XALMO_TRIAL_WF  SIMPLE
       DELOCALIZE_METHOD  XALMO_SCF
       XALMO_R_CUTOFF_FACTOR     1.8000000000000000E+00
       &ALMO_OPTIMIZER_DIIS
         MAX_ITER  100
         EPS_ERROR     1.0000000000000001E-05
         N_DIIS  5
       &END ALMO_OPTIMIZER_DIIS
       &ALMO_OPTIMIZER_PCG
         MAX_ITER  50
         EPS_ERROR     1.0000000000000001E-05
         LIN_SEARCH_EPS_ERROR     5.0000000000000003E-02
         LIN_SEARCH_STEP_SIZE_GUESS     5.0000000000000001E-03
         CONJUGATOR  DAI_YUAN
         MAX_ITER_OUTER_LOOP  10
       &END ALMO_OPTIMIZER_PCG
       &XALMO_OPTIMIZER_PCG
         MAX_ITER  1000
         EPS_ERROR     1.0000000000000001E-05
         LIN_SEARCH_EPS_ERROR     1.0000000000000001E-01
         LIN_SEARCH_STEP_SIZE_GUESS     1.0000000000000000E-02
         CONJUGATOR  DAI_YUAN
         PRECOND_FILTER_THRESHOLD     1.0000000000000000E-03
         MAX_ITER_OUTER_LOOP  0
       &END XALMO_OPTIMIZER_PCG
       &MATRIX_ITERATE
         EPS_TARGET_FACTOR     1.0000000000000000E+01
       &END MATRIX_ITERATE
     &END ALMO_SCF
     &QS
       EPS_DEFAULT     1.0000000000000000E-14
       ALMO_SCF  F
       METHOD  GPW
     &END QS
     &MGRID
       NGRIDS  5
       CUTOFF     1.2000000000000000E+03
     &END MGRID
     &XC
       DENSITY_CUTOFF     1.0000000000000000E-10
       GRADIENT_CUTOFF     1.0000000000000000E-10
       TAU_CUTOFF     1.0000000000000000E-10
       &XC_FUNCTIONAL  NO_SHORTCUT
         &PBE  T
         &END PBE
       &END XC_FUNCTIONAL
       &VDW_POTENTIAL
         POTENTIAL_TYPE  PAIR_POTENTIAL
         &PAIR_POTENTIAL
           R_CUTOFF     1.0000000000000004E+01
           TYPE  DFTD3
           PARAMETER_FILE_NAME dftd3.dat
           REFERENCE_FUNCTIONAL PBE
           EPS_CN     9.9999999999999995E-07
           CALCULATE_C9_TERM  T
           REFERENCE_C9_TERM  T
           LONG_RANGE_CORRECTION  F
           VERBOSE_OUTPUT  F
         &END PAIR_POTENTIAL
       &END VDW_POTENTIAL
     &END XC
   &END DFT
   &SUBSYS
     &CELL
       A     9.7376857651907045E+00    0.0000000000000000E+00    0.0000000000000000E+00
       B    -4.8586261371873665E+00    8.4153873245905810E+00    0.0000000000000000E+00
       C     0.0000000000000000E+00    0.0000000000000000E+00    3.0744000000000000E+01
       MULTIPLE_UNIT_CELL  1 1 1
       &CELL_REF
         A     9.5580000000000034E+00    0.0000000000000000E+00    0.0000000000000000E+00
         B    -4.7790000000000017E+00    8.2774708093716640E+00    0.0000000000000000E+00
         C     0.0000000000000000E+00    0.0000000000000000E+00    3.0744000000000000E+01
         MULTIPLE_UNIT_CELL  1 1 1
       &END CELL_REF
     &END CELL
     &COORD
Ga    5.7989220984107381E-04   -2.4371103093425986E-03   -5.8731802779810449E-01
N    3.7439489091190439E-03    1.8717474581167972E+00    5.6605738906547332E-01
Ga    3.0280068224825167E-03    1.8391331658869445E+00    2.5963874081348894E+00
N   -2.4162746838832773E-04   -3.8498416783865766E-03    3.2296406044516086E+00
Ga    3.8248292223994968E-04   -3.2841116029697155E-03    5.2207995551040902E+00
N    3.5489738733572979E-03    1.8715524092781042E+00    5.8072879503927135E+00
Ga    3.1321994862898513E-03    1.8697960541741012E+00    7.8062488968036678E+00
N   -5.0534943705956690E-05   -3.5048585404503715E-03    8.4089639324804395E+00
Ga   -1.9839501066853658E-04   -1.6247147203597219E-03    1.0406762398729686E+01
N    2.8642972785162695E-03    1.8706129411402357E+00    1.1010804809787071E+01
Ga    1.8031538674996256E-03    1.8772827136312837E+00    1.3004212296057407E+01
N   -1.5652406767058158E-03    7.7048543341515664E-03    1.3609035550248322E+01
Ga   -4.1306500704370369E-03    1.7214693860301711E-02    1.5611539675349563E+01
N    2.2640043581248826E-03    1.8837158517961421E+00    1.6264999203691453E+01
Ga    8.6085416373432779E-03    1.8978027428449933E+00    1.8385438655391496E+01
N    3.5939612940126199E-03    2.9287541541377872E-03    1.8660332024980246E+01
Ga   -1.6177511264575295E+00    2.8026636385109005E+00    2.8021269147092892E-01
N   -1.6210550818101874E+00    4.6718355600725188E+00    5.6510601457003085E-01
Ga   -1.5923854498737573E+00    4.6872426272390282E+00    2.5952853174548438E+00
N   -1.6193135176890592E+00    2.8017789689814609E+00    3.1877766667392886E+00
Ga   -1.6188447120352289E+00    2.8023655643059358E+00    5.1987804756871663E+00
N   -1.6190087520795049E+00    4.6724173184381463E+00    5.8075120439722783E+00
Ga   -1.6181587879809327E+00    4.6723879184926078E+00    7.8065047845263420E+00
N   -1.6197739278951639E+00    2.8016862931063389E+00    8.4109327950557535E+00
Ga   -1.6194659422686692E+00    2.8031158328701498E+00    1.0406664075931312E+01
N   -1.6122613903329888E+00    4.6738801531792857E+00    1.1013866653687028E+01
Ga   -1.6082526445495209E+00    4.6736053470426571E+00    1.3009415075016243E+01
N   -1.6177659578444905E+00    2.8048301330907925E+00    1.3623430606262865E+01
Ga   -1.6201862846305490E+00    2.8029247292343968E+00    1.5631659630066343E+01
N   -1.6224517754433883E+00    4.6820769909123729E+00    1.6213779062295028E+01
Ga   -1.6146590387066799E+00    4.6720428023050768E+00    1.8294436359799057E+01
N   -1.6229168839902746E+00    2.8121965878279900E+00    1.8746686034127453E+01
Ga   -3.2386273254674562E+00    5.6086847322343338E+00    2.7984854684347704E-01
N   -3.2323411169408889E+00    7.4780274940155911E+00    5.6564982797906338E-01
Ga   -3.2610285777137671E+00    7.4925700216517050E+00    2.5960042527342679E+00
N   -3.2392192326123674E+00    5.6070163630937948E+00    3.1879433894408700E+00
Ga   -3.2389448523789914E+00    5.6077740567506282E+00    5.1991092530348340E+00
N   -3.2329550079073548E+00    7.4771757528706857E+00    5.8086659026023604E+00
Ga   -3.2340765751444627E+00    7.4767213296487762E+00    7.8081109973867440E+00
N   -3.2386016549882823E+00    5.6064297283237172E+00    8.4153248146034496E+00
Ga   -3.2380593353767990E+00    5.6079041760282884E+00    1.0413050471612991E+01
N   -3.2363789778543510E+00    7.4817063854717780E+00    1.1013614733215999E+01
Ga   -3.2363316270498776E+00    7.4856495554973552E+00    1.3009551045428765E+01
N   -3.2363828514740449E+00    5.6064305409116857E+00    1.3590516415934246E+01
Ga   -3.2369228760133777E+00    5.6084516000421809E+00    1.5582615505718843E+01
N   -3.2436601003318275E+00    7.4806923478266176E+00    1.6155710351196316E+01
Ga   -3.2507138316350330E+00    7.4909404200360266E+00    1.8205443623313570E+01
N   -3.2506215727688752E+00    5.6135587688731903E+00    1.8596235526273624E+01
Ga    3.2464448195835973E+00   -3.8533749395159066E-03    2.8033900304210296E-01
N    3.2458729263144082E+00    1.8673748481564745E+00    5.6483294052180899E-01
Ga    3.2726296822026613E+00    1.8816350911778035E+00    2.5980030853365319E+00
N    3.2453699953428825E+00   -3.6743936990058243E-03    3.1878463680524098E+00
Ga    3.2458594718882234E+00   -3.1249851140805981E-03    5.1987690248319955E+00
N    3.2466945586596960E+00    1.8669635533951074E+00    5.8070815255763533E+00
Ga    3.2474006845954246E+00    1.8663946886044964E+00    7.8062871939057210E+00
N    3.2464109770772565E+00   -3.7908966684797314E-03    8.4127037300801017E+00
Ga    3.2464212709320348E+00   -2.2774442847905375E-03    1.0409511186169428E+01
N    3.2470656197258019E+00    1.8691959754381531E+00    1.1014805385637345E+01
Ga    3.2421216705240212E+00    1.8683832966422336E+00    1.3011901975289600E+01
N    3.2463975635568123E+00   -1.5255709595236215E-03    1.3623850646580149E+01
Ga    3.2534778832734426E+00    3.2011383565677188E-04    1.5627664346104368E+01
N    3.2304972791418924E+00    1.8812154189649055E+00    1.6201855651561193E+01
Ga    3.2346755323282244E+00    1.8853253501730931E+00    1.8268945156435699E+01
N    3.2385682762967938E+00   -7.4716259357407531E-03    1.8576132683034473E+01
Ga    1.6251389120760955E+00    2.8033172771313510E+00    2.8059223006507095E-01
N    1.6341004434605930E+00    4.6724317146023582E+00    5.6588048792477752E-01
Ga    1.6051513890494653E+00    4.6874463716407426E+00    2.5957674040695009E+00
N    1.6261226586022672E+00    2.8016704508991626E+00    3.1877155449464256E+00
Ga    1.6266420505717305E+00    2.8023287647721307E+00    5.1987671558090565E+00
N    1.6327386059836786E+00    4.6723613042246539E+00    5.8076405020763362E+00
Ga    1.6313150702520045E+00    4.6722648875955679E+00    7.8067333556005236E+00
N    1.6265941303322451E+00    2.8015025716860835E+00    8.4109496969006567E+00
Ga    1.6262435965855744E+00    2.8028150098557472E+00    1.0406587642363371E+01
N    1.6253191808303613E+00    4.6738581822850991E+00    1.1012710612076235E+01
Ga    1.6182961571312042E+00    4.6736441069734083E+00    1.3007732290462647E+01
N    1.6214639916184681E+00    2.8052926584213975E+00    1.3620002180348964E+01
Ga    1.6200264103214588E+00    2.8055095178853700E+00    1.5628039056444138E+01
N    1.6320250698077752E+00    4.6819834555575701E+00    1.6214197217418207E+01
Ga    1.6441717252270123E+00    4.6705431577369687E+00    1.8296694998622041E+01
N    1.6358514785999905E+00    2.8093299644746859E+00    1.8747526731240384E+01
Ga    7.3425495896616210E-03    5.6084849886016332E+00   -5.8460597091189392E-01
N    1.0369560310370559E-02    7.4833138928519940E+00    5.6618712508063729E-01
Ga    9.7470537649710313E-03    7.4500125604053373E+00    2.5959266363812263E+00
N    6.5617642498274229E-03    5.6064955914631627E+00    3.2288006907709610E+00
Ga    7.2023469746184962E-03    5.6075068532009862E+00    5.2199100610597045E+00
N    1.0305760458262129E-02    7.4822472739980119E+00    5.8068220686997734E+00
Ga    9.9722103018108649E-03    7.4801638792759295E+00    7.8056266313806173E+00
N    6.8426510585230813E-03    5.6073124092576094E+00    8.4071516376442936E+00
Ga    6.8223492190598390E-03    5.6099767597556749E+00    1.0404018968188774E+01
N    1.0315553918196333E-02    7.4793089004071174E+00    1.1016907588021322E+01
Ga    9.1902851502161879E-03    7.4807274556774326E+00    1.3015561744944087E+01
N    5.0739952419764575E-03    5.6143816464967431E+00    1.3636772167611126E+01
Ga    3.8349060322482378E-03    5.6243114459407639E+00    1.5647670653428460E+01
N    7.4230623878021162E-03    7.4941440809870254E+00    1.6229632627008325E+01
Ga    1.8309526514140226E-02    7.4715531060151372E+00    1.8297338013540614E+01
N    1.2280111884299985E-02    5.5879398231139152E+00    1.8658830780802010E+01
Ga    6.4915473110835080E+00   -3.2635514510978409E-03    2.8038529488522085E-01
N    6.4982035153902133E+00    1.8680720375822415E+00    5.6503623315283757E-01
Ga    6.4710669251610131E+00    1.8819101220062724E+00    2.5981632408321138E+00
N    6.4920679153927576E+00   -3.6516866222231718E-03    3.1876897058370957E+00
Ga    6.4927538406452943E+00   -3.1673277748793930E-03    5.1986796342515378E+00
N    6.4981059627662452E+00    1.8669480760313113E+00    5.8070230843558504E+00
Ga    6.4965867794459964E+00    1.8664430632361557E+00    7.8060762179468144E+00
N    6.4915207372568249E+00   -3.7646372833320652E-03    8.4124069813967282E+00
Ga    6.4917711702087537E+00   -2.2877687504564031E-03    1.0409028870006443E+01
N    6.4972654237114753E+00    1.8687337212334767E+00    1.1015606383328960E+01
Ga    6.5005261955868718E+00    1.8671219287025020E+00    1.3012818796523947E+01
N    6.4885531527655607E+00   -1.9421048010715696E-03    1.3627282725763756E+01
Ga    6.4792756839139347E+00   -2.0869138611148866E-03    1.5631425617373880E+01
N    6.5110059080916400E+00    1.8766987386733898E+00    1.6209676700693493E+01
Ga    6.5198653336928576E+00    1.8866220306581594E+00    1.8280514555381654E+01
N    6.5070752102094964E+00   -6.2076715872457743E-03    1.8586173826521740E+01
Ga    4.8728094568016536E+00    2.8027364302614144E+00   -5.5904340017601850E-01
N    4.8760190345543704E+00    4.6764257228872124E+00    5.6495081594373342E-01
Ga    4.8752728347537797E+00    4.6455728207278613E+00    2.5979198278495685E+00
N    4.8720687883000364E+00    2.8016342720921221E+00    3.2289628992693991E+00
Ga    4.8727327017716302E+00    2.8024854119676355E+00    5.2207128691530063E+00
N    4.8758772677551239E+00    4.6768523891983218E+00    5.8094227183265277E+00
Ga    4.8754221084150631E+00    4.6743716316221420E+00    7.8097057145566016E+00
N    4.8724030643274165E+00    2.7999321264985206E+00    8.4095824749995209E+00
Ga    4.8726175972125247E+00    2.7995271928727377E+00    1.0408090937894732E+01
N    4.8755329627965915E+00    4.6704409132487896E+00    1.1011453026595269E+01
Ga    4.8746774055010231E+00    4.6661571211957620E+00    1.3006532206742945E+01
N    4.8719954586639238E+00    2.7889701249246710E+00    1.3613771520323347E+01
Ga    4.8701353715277556E+00    2.7830439961223346E+00    1.5615269144010675E+01
N    4.8722794396120097E+00    4.6742162725016136E+00    1.6115968441579273E+01
Ga    4.8814742788974987E+00    4.6853488123904814E+00    1.8152154756942629E+01
N    4.8742795911918533E+00    2.8117621328986844E+00    1.8566458081242207E+01
Ga    3.2527060012338329E+00    5.6077762198900736E+00    2.7988081202218035E-01
N    3.2520131195845967E+00    7.4771026608475823E+00    5.6526247251167450E-01
Ga    3.2804370840522026E+00    7.4921614063427340E+00    2.5957865787218650E+00
N    3.2528245753950977E+00    5.6068681413754407E+00    3.1883713722120093E+00
Ga    3.2535441079994465E+00    5.6076379772804250E+00    5.1994308588379674E+00
N    3.2536070303628035E+00    7.4770858897853527E+00    5.8086750277840347E+00
Ga    3.2540212020680657E+00    7.4765222238922835E+00    7.8079348585823025E+00
N    3.2524557271148424E+00    5.6064169773080508E+00    8.4155436695534238E+00
Ga    3.2520973633122527E+00    5.6081187277190514E+00    1.0413364886685379E+01
N    3.2559200827124197E+00    7.4818335788101038E+00    1.1014556473513197E+01
Ga    3.2533206232456120E+00    7.4856697753757686E+00    1.3010652088675338E+01
N    3.2470459136883449E+00    5.6056757497277676E+00    1.3588451053574817E+01
Ga    3.2429344482843212E+00    5.6091166101452323E+00    1.5580804372116301E+01
N    3.2609615962769336E+00    7.4790982157899437E+00    1.6159536238284975E+01
Ga    3.2809040561220932E+00    7.4904582421295887E+00    1.8209605487810126E+01
N    3.2732750225583906E+00    5.6139744539797531E+00    1.8602646366996741E+01
     &END COORD
     &KIND N
       BASIS_SET DZVP-MOLOPT-SR-GTH
       POTENTIAL GTH-PBE-q5
       &POTENTIAL
2 3
0.2837905100000000E+00 2 -0.1241522559000000E+02  0.1868095920000000E+01
2
0.2554050000000000E+00 1  0.1363026257000000E+02
0.2454945300000000E+00 0
       &END POTENTIAL
     &END KIND
     &KIND Ga
       BASIS_SET DZVP-MOLOPT-SR-GTH
       POTENTIAL GTH-PBE-q13
       &POTENTIAL
2 1 10
0.4900000000000000E+00 0
3
0.4167772300000000E+00 3  0.1047568975000000E+02 -0.4921768140000000E+01  0.8707055900000000E+00
0.7770178090000000E+01 -0.2248152160000000E+01
0.1784415450000000E+01
0.5696265200000000E+00 2  0.1777985340000000E+01  0.1958597600000000E+00
-0.2317443900000000E+00
0.2381265000000000E+00 1 -0.1624868022000000E+02
       &END POTENTIAL
     &END KIND
     &TOPOLOGY
       COORD_FILE_NAME 334-native.xyz
       COORD_FILE_FORMAT  XYZ
       NUMBER_OF_ATOMS  144
       MULTIPLE_UNIT_CELL  1 1 1
     &END TOPOLOGY
   &END SUBSYS
 &END FORCE_EVAL
