 # Version information for this restart file 
 # current date 2019-05-16 14:26:44.166
 # current working dir /lustre03/project/6004141/rzk/GaN-carbene/00-Surface/00-Preoptimization/334-native/Trial4
 # Program compiled at                              Sun Apr  7 00:48:11 EDT 2019
 # Program compiled on                          beluga2.int.ets1.calculquebec.ca
 # Program compiled for                        Beluga-Linux-x86-64-intel-openmpi
 # Source code revision number                                         svn:18619
 &GLOBAL
   PRINT_LEVEL  MEDIUM
   PROJECT_NAME TEST
   RUN_TYPE  CELL_OPT
 &END GLOBAL
 &MOTION
   &CELL_OPT
     MAX_ITER  150
     STEP_START_VAL  102
     EXTERNAL_PRESSURE     1.0000000000000000E+00
     KEEP_ANGLES  T
     KEEP_SYMMETRY  T
     CONSTRAINT  Z
     PRESSURE_TOLERANCE     3.0000000000000000E+02
   &END CELL_OPT
 &END MOTION
 &FORCE_EVAL
   METHOD  QS
   STRESS_TENSOR  ANALYTICAL
   &DFT
     BASIS_SET_FILE_NAME BASIS_MOLOPT
     POTENTIAL_FILE_NAME GTH_POTENTIALS
     &SCF
       MAX_SCF  100
       EPS_SCF     5.0000000000000004E-06
       &OT  T
         PRECONDITIONER  FULL_ALL
       &END OT
       &OUTER_SCF  T
         OPTIMIZER  NONE
         EPS_SCF     5.0000000000000004E-06
         MAX_SCF  10
       &END OUTER_SCF
       &PRINT
         &RESTART  OFF
           BACKUP_COPIES  1
           &EACH
             JUST_ENERGY  0
             QS_SCF  0
             MD  20
           &END EACH
         &END RESTART
       &END PRINT
     &END SCF
     &ALMO_SCF
       EPS_FILTER     9.9999999999999994E-12
       ALMO_SCF_GUESS  ATOMIC
       MO_OVERLAP_INV_ALG  DENSE_CHOLESKY
       ALMO_EXTRAPOLATION_ORDER  4
       XALMO_EXTRAPOLATION_ORDER  4
       ALMO_ALGORITHM  SKIP
       XALMO_TRIAL_WF  SIMPLE
       DELOCALIZE_METHOD  XALMO_SCF
       XALMO_R_CUTOFF_FACTOR     1.8000000000000000E+00
       &ALMO_OPTIMIZER_DIIS
         MAX_ITER  100
         EPS_ERROR     1.0000000000000001E-05
         N_DIIS  5
       &END ALMO_OPTIMIZER_DIIS
       &ALMO_OPTIMIZER_PCG
         MAX_ITER  50
         EPS_ERROR     1.0000000000000001E-05
         LIN_SEARCH_EPS_ERROR     5.0000000000000003E-02
         LIN_SEARCH_STEP_SIZE_GUESS     5.0000000000000001E-03
         CONJUGATOR  DAI_YUAN
         MAX_ITER_OUTER_LOOP  10
       &END ALMO_OPTIMIZER_PCG
       &XALMO_OPTIMIZER_PCG
         MAX_ITER  1000
         EPS_ERROR     1.0000000000000001E-05
         LIN_SEARCH_EPS_ERROR     1.0000000000000001E-01
         LIN_SEARCH_STEP_SIZE_GUESS     1.0000000000000000E-02
         CONJUGATOR  DAI_YUAN
         PRECOND_FILTER_THRESHOLD     1.0000000000000000E-03
         MAX_ITER_OUTER_LOOP  0
       &END XALMO_OPTIMIZER_PCG
       &MATRIX_ITERATE
         EPS_TARGET_FACTOR     1.0000000000000000E+01
       &END MATRIX_ITERATE
     &END ALMO_SCF
     &QS
       EPS_DEFAULT     1.0000000000000000E-14
       ALMO_SCF  F
       METHOD  GPW
     &END QS
     &MGRID
       NGRIDS  5
       CUTOFF     1.2000000000000000E+03
     &END MGRID
     &XC
       DENSITY_CUTOFF     1.0000000000000000E-10
       GRADIENT_CUTOFF     1.0000000000000000E-10
       TAU_CUTOFF     1.0000000000000000E-10
       &XC_FUNCTIONAL  NO_SHORTCUT
         &PBE  T
         &END PBE
       &END XC_FUNCTIONAL
       &VDW_POTENTIAL
         POTENTIAL_TYPE  PAIR_POTENTIAL
         &PAIR_POTENTIAL
           R_CUTOFF     1.0000000000000004E+01
           TYPE  DFTD3
           PARAMETER_FILE_NAME dftd3.dat
           REFERENCE_FUNCTIONAL PBE
           EPS_CN     9.9999999999999995E-07
           CALCULATE_C9_TERM  T
           REFERENCE_C9_TERM  T
           LONG_RANGE_CORRECTION  F
           VERBOSE_OUTPUT  F
         &END PAIR_POTENTIAL
       &END VDW_POTENTIAL
     &END XC
   &END DFT
   &SUBSYS
     &CELL
       A     9.7425020836598986E+00    0.0000000000000000E+00    0.0000000000000000E+00
       B    -4.8555735660343418E+00    8.4101001162598266E+00    0.0000000000000000E+00
       C     0.0000000000000000E+00    0.0000000000000000E+00    3.0744000000000000E+01
       MULTIPLE_UNIT_CELL  1 1 1
       &CELL_REF
         A     9.5580000000000034E+00    0.0000000000000000E+00    0.0000000000000000E+00
         B    -4.7790000000000017E+00    8.2774708093716640E+00    0.0000000000000000E+00
         C     0.0000000000000000E+00    0.0000000000000000E+00    3.0744000000000000E+01
         MULTIPLE_UNIT_CELL  1 1 1
       &END CELL_REF
     &END CELL
     &COORD
Ga    1.2516968853474688E-03   -1.3598461614305578E-04   -5.9014183175721002E-01
N    5.8584768897952241E-03    1.8731192406975405E+00    5.6624674979644352E-01
Ga    4.7406842390364497E-03    1.8394109036403585E+00    2.5956053951612255E+00
N   -2.6293328530065151E-04   -2.9796826359265835E-03    3.2290493993586495E+00
Ga    2.9818066107255682E-04   -3.3208929186637334E-03    5.2201691324625363E+00
N    4.7488046721751980E-03    1.8711884756166515E+00    5.8065378584583538E+00
Ga    3.7054377928273192E-03    1.8680369757251785E+00    7.8058666468323414E+00
N   -7.1114126211558693E-04   -5.1454965325459156E-03    8.4079375016774822E+00
Ga   -1.9277598427128403E-04   -4.4186601514451095E-03    1.0405992774010207E+01
N    4.3456606803345564E-03    1.8673594450616122E+00    1.1010780346113334E+01
Ga    3.9608754300660054E-03    1.8724862298276241E+00    1.3004667727166012E+01
N   -6.7406628217596550E-04    3.4393526209553667E-03    1.3610299467523646E+01
Ga   -7.6681506458019409E-03    1.2526582473283327E-02    1.5612614311526880E+01
N    1.7838886630354971E-03    1.8837215377089946E+00    1.6255976893813525E+01
Ga    1.5408601064873618E-02    1.9072869777117585E+00    1.8364671093956993E+01
N    2.5992351557232087E-03    1.1048372600476957E-02    1.8662635552672597E+01
Ga   -1.6162820572826480E+00    2.8020917098474842E+00    2.8033261588477526E-01
N   -1.6185692191124137E+00    4.6707847125039494E+00    5.6461234234617863E-01
Ga   -1.5898674295095416E+00    4.6856910341457709E+00    2.5944674566415098E+00
N   -1.6186127427813783E+00    2.8005041417875414E+00    3.1866339690994816E+00
Ga   -1.6181759037711265E+00    2.8005058457702678E+00    5.1979224149892014E+00
N   -1.6165676902787736E+00    4.6699016768925876E+00    5.8066044233185172E+00
Ga   -1.6163361305212454E+00    4.6681713374064380E+00    7.8060939168794006E+00
N   -1.6198203794912533E+00    2.7979693209919594E+00    8.4115225821625543E+00
Ga   -1.6190953942517454E+00    2.7985418752484574E+00    1.0407448587907634E+01
N   -1.6107994943294544E+00    4.6688210563375678E+00    1.1014378268570601E+01
Ga   -1.6068872789875541E+00    4.6681277999761850E+00    1.3010320713959089E+01
N   -1.6171670024883342E+00    2.7987165052113960E+00    1.3624074495740256E+01
Ga   -1.6235579452147821E+00    2.7950074992621845E+00    1.5631670845873636E+01
N   -1.6239627030170494E+00    4.6761127460780436E+00    1.6217266675874654E+01
Ga   -1.6105825128819267E+00    4.6788022598672283E+00    1.8297831465698923E+01
N   -1.6229162520494771E+00    2.8134045522783993E+00    1.8736826882006891E+01
Ga   -3.2363186739318475E+00    5.6065966591739027E+00    2.7979472044336307E-01
N   -3.2281339865134284E+00    7.4757516031304645E+00    5.6517849781700791E-01
Ga   -3.2574431149095586E+00    7.4895328734008766E+00    2.5953204873640097E+00
N   -3.2369533815150366E+00    5.6041635073075531E+00    3.1872198276113464E+00
Ga   -3.2368951027507995E+00    5.6043176864737356E+00    5.1982211881408320E+00
N   -3.2292334811289876E+00    7.4730679535697826E+00    5.8078814896909066E+00
Ga   -3.2310054683705922E+00    7.4712342704618582E+00    7.8075684827679988E+00
N   -3.2376640625324478E+00    5.6009931897033818E+00    8.4143527900128454E+00
Ga   -3.2368836219643851E+00    5.6013142245629695E+00    1.0412338954170849E+01
N   -3.2331634836649994E+00    7.4742563911670654E+00    1.1014003414444218E+01
Ga   -3.2322167879253483E+00    7.4771374086959996E+00    1.3010825017389971E+01
N   -3.2351411916581636E+00    5.5985296186675200E+00    1.3595815537882716E+01
Ga   -3.2413170074368134E+00    5.5992293261846129E+00    1.5589594886883418E+01
N   -3.2408172112643272E+00    7.4740422661270109E+00    1.6160875758809706E+01
Ga   -3.2452074817086149E+00    7.4936063282491920E+00    1.8210273660087712E+01
N   -3.2467295422923010E+00    5.6153666325432416E+00    1.8613706445636176E+01
Ga    3.2487889759967614E+00   -3.2922846372953089E-03    2.7973117086199750E-01
N    3.2489961238511977E+00    1.8680269533955078E+00    5.6494808349377301E-01
Ga    3.2752396678415039E+00    1.8818352982069682E+00    2.5977698148738462E+00
N    3.2473035125746423E+00   -3.2525669626470915E-03    3.1862365706551183E+00
Ga    3.2475191240868870E+00   -3.4985240142519241E-03    5.1975528850465613E+00
N    3.2493655586151231E+00    1.8662792308437390E+00    5.8059233705270747E+00
Ga    3.2495059187433299E+00    1.8642173818465164E+00    7.8056564470752914E+00
N    3.2470142609504822E+00   -5.4917214956194298E-03    8.4126936285319918E+00
Ga    3.2472618871031220E+00   -5.3113638401365145E-03    1.0409725177025932E+01
N    3.2502117773959491E+00    1.8661436555587998E+00    1.1014231370643239E+01
Ga    3.2465851010013620E+00    1.8646491892388180E+00    1.3011119771931194E+01
N    3.2472033132785767E+00   -4.1089611775562279E-03    1.3623826859008723E+01
Ga    3.2485287000451737E+00   -9.9356053472506359E-05    1.5627829866187929E+01
N    3.2323269105787107E+00    1.8803915737384764E+00    1.6213281274122441E+01
Ga    3.2445762959688191E+00    1.8966104390189527E+00    1.8286369154760049E+01
N    3.2406222436193133E+00   -2.1533888354620862E-03    1.8577984258538692E+01
Ga    1.6277303403338388E+00    2.8029346818667658E+00    2.7893960601080381E-01
N    1.6389237007551507E+00    4.6718177520123954E+00    5.6361822289239694E-01
Ga    1.6091086944073119E+00    4.6860986408021867E+00    2.5939291762014776E+00
N    1.6283916147667261E+00    2.8009154928895463E+00    3.1866106437600967E+00
Ga    1.6286858428818964E+00    2.8006995029402617E+00    5.1975473747566685E+00
N    1.6364354684952473E+00    4.6700018473526521E+00    5.8066962014979380E+00
Ga    1.6345075047954722E+00    4.6684653074910676E+00    7.8060692950092001E+00
N    1.6282466788815588E+00    2.7980979008233087E+00    8.4106121115387644E+00
Ga    1.6284894752759325E+00    2.7990476741235222E+00    1.0406644266322886E+01
N    1.6298707812369968E+00    4.6693810869459096E+00    1.1013538054734324E+01
Ga    1.6240037509000993E+00    4.6685419489215381E+00    1.3009637775686729E+01
N    1.6247274415618274E+00    2.7991626542053485E+00    1.3618696937599349E+01
Ga    1.6193889919937783E+00    2.8019294398067576E+00    1.5625422156879893E+01
N    1.6347020092493985E+00    4.6764683770028270E+00    1.6210932117874137E+01
Ga    1.6530842173865605E+00    4.6793844847926698E+00    1.8290162941727090E+01
N    1.6364334957299640E+00    2.8149287714332996E+00    1.8747316855867727E+01
Ga    1.0485438909709330E-02    5.6055280941741472E+00   -5.8839368822192084E-01
N    1.6503501852223119E-02    7.4800542903757599E+00    5.6437123169480896E-01
Ga    1.6188529068757750E-02    7.4468704386012199E+00    2.5946323965591267E+00
N    9.8654036368597039E-03    5.6033494801326835E+00    3.2271105956882451E+00
Ga    1.0501916520805206E-02    5.6037725050451055E+00    5.2182762872537580E+00
N    1.5361651133764708E-02    7.4778865904317184E+00    5.8061010539186517E+00
Ga    1.4013993588675942E-02    7.4742748580021345E+00    7.8053494605391851E+00
N    9.4279960813135107E-03    5.6016717945660943E+00    8.4073494574073457E+00
Ga    9.8966316646976939E-03    5.6032317087437411E+00    1.0404824259669597E+01
N    1.4718997218329982E-02    7.4724077992706501E+00    1.1016904678711686E+01
Ga    1.3576932122747997E-02    7.4725198718080286E+00    1.3016379885602161E+01
N    7.5546330322118563E-03    5.6054397456999787E+00    1.3635157148261543E+01
Ga    6.3417579547003266E-03    5.6132652490455905E+00    1.5646646058615739E+01
N    1.2540989666964831E-02    7.4904721014055893E+00    1.6216098066217157E+01
Ga    2.5827497060498354E-02    7.4786646026234385E+00    1.8277762931742945E+01
N    1.5642973421298209E-02    5.5935354517899585E+00    1.8643408861073890E+01
Ga    6.4950487373039048E+00   -2.1526187703276990E-03    2.7900851628517193E-01
N    6.5031205923267832E+00    1.8692978339240327E+00    5.6435716469817676E-01
Ga    6.4759173126686989E+00    1.8822138273628892E+00    2.5975663681433874E+00
N    6.4950442795974697E+00   -3.9001050830156339E-03    3.1865440323974616E+00
Ga    6.4955196377701965E+00   -3.4130507307163298E-03    5.1973235424264450E+00
N    6.5024816910855359E+00    1.8664429449785107E+00    5.8061468720025466E+00
Ga    6.5004836339332330E+00    1.8644669402617735E+00    7.8058368423610025E+00
N    6.4935877867875167E+00   -5.6112573280257426E-03    8.4116716361509205E+00
Ga    6.4943371125810714E+00   -5.5566287743648414E-03    1.0408693416734017E+01
N    6.5011143553271182E+00    1.8654909196546527E+00    1.1015642700140173E+01
Ga    6.5044146758996995E+00    1.8630756577665408E+00    1.3013363267182816E+01
N    6.4939283093135209E+00   -7.5741778577513314E-03    1.3623185444522040E+01
Ga    6.4834537257455231E+00   -9.4902228272774492E-03    1.5626514021242633E+01
N    6.5105301651359255E+00    1.8707976460520450E+00    1.6210854534187959E+01
Ga    6.5230449968299187E+00    1.8970209235681090E+00    1.8282240350534199E+01
N    6.5077275429076185E+00   -4.4743032712160516E-04    1.8585432985234981E+01
Ga    4.8766446845330895E+00    2.8024224145362711E+00   -5.5271699154041154E-01
N    4.8824834824612235E+00    4.6752092126879621E+00    5.6578249876855469E-01
Ga    4.8809388532313118E+00    4.6446543452537288E+00    2.5986129922836958E+00
N    4.8760794707735693E+00    2.8002601696844240E+00    3.2278682511362389E+00
Ga    4.8763800800579169E+00    2.8006503810601475E+00    5.2196825279135233E+00
N    4.8813718284765404E+00    4.6746489425080826E+00    5.8078175511627403E+00
Ga    4.8802980894351125E+00    4.6705375526282653E+00    7.8083420082675934E+00
N    4.8754420005157506E+00    2.7965498714014814E+00    8.4088754936133725E+00
Ga    4.8762616262182288E+00    2.7953223663455069E+00    1.0407331103536329E+01
N    4.8812390308384028E+00    4.6651672514797564E+00    1.1012615487430949E+01
Ga    4.8816538029770760E+00    4.6594795426542488E+00    1.3008415614506397E+01
N    4.8756529932528450E+00    2.7829672328864379E+00    1.3618839967907178E+01
Ga    4.8697905222445028E+00    2.7782637970010637E+00    1.5622542890071051E+01
N    4.8748629682835096E+00    4.6682217831997432E+00    1.6134951174102316E+01
Ga    4.8891790052155937E+00    4.6884525828567467E+00    1.8179269945314584E+01
N    4.8801851733418777E+00    2.8149229350450971E+00    1.8600566406740516E+01
Ga    3.2584971131426292E+00    5.6057753971120281E+00    2.7983271279038396E-01
N    3.2589330437509116E+00    7.4748264027192617E+00    5.6527775633098321E-01
Ga    3.2863811970591237E+00    7.4898423750424170E+00    2.5954088921397247E+00
N    3.2574440598975154E+00    5.6042751157598953E+00    3.1870664854022897E+00
Ga    3.2580101554747083E+00    5.6042839085944953E+00    5.1984026720637031E+00
N    3.2601139185355463E+00    7.4732329744657839E+00    5.8078204448692663E+00
Ga    3.2600837402768295E+00    7.4710052840874148E+00    7.8073969829374867E+00
N    3.2568851761895563E+00    5.6008833237824405E+00    8.4145536845145550E+00
Ga    3.2573488416568397E+00    5.6012913810999603E+00    1.0412584386373950E+01
N    3.2630853632626793E+00    7.4745368617959427E+00    1.1012684362038966E+01
Ga    3.2623149601328221E+00    7.4768997362393677E+00    1.3009120496733036E+01
N    3.2544053466759508E+00    5.5978815384215777E+00    1.3590655491087592E+01
Ga    3.2488523955383930E+00    5.6005860962644638E+00    1.5584370050236290E+01
N    3.2682720850262874E+00    7.4699580304491873E+00    1.6163920816315272E+01
Ga    3.2903623739933532E+00    7.4955210545618076E+00    1.8215215740868505E+01
N    3.2759714653595937E+00    5.6182111177488760E+00    1.8616241569686345E+01
     &END COORD
     &KIND N
       BASIS_SET DZVP-MOLOPT-SR-GTH
       POTENTIAL GTH-PBE-q5
       &POTENTIAL
2 3
0.2837905100000000E+00 2 -0.1241522559000000E+02  0.1868095920000000E+01
2
0.2554050000000000E+00 1  0.1363026257000000E+02
0.2454945300000000E+00 0
       &END POTENTIAL
     &END KIND
     &KIND Ga
       BASIS_SET DZVP-MOLOPT-SR-GTH
       POTENTIAL GTH-PBE-q13
       &POTENTIAL
2 1 10
0.4900000000000000E+00 0
3
0.4167772300000000E+00 3  0.1047568975000000E+02 -0.4921768140000000E+01  0.8707055900000000E+00
0.7770178090000000E+01 -0.2248152160000000E+01
0.1784415450000000E+01
0.5696265200000000E+00 2  0.1777985340000000E+01  0.1958597600000000E+00
-0.2317443900000000E+00
0.2381265000000000E+00 1 -0.1624868022000000E+02
       &END POTENTIAL
     &END KIND
     &TOPOLOGY
       COORD_FILE_NAME 334-native.xyz
       COORD_FILE_FORMAT  XYZ
       NUMBER_OF_ATOMS  144
       MULTIPLE_UNIT_CELL  1 1 1
     &END TOPOLOGY
   &END SUBSYS
 &END FORCE_EVAL
