 # Version information for this restart file 
 # current date 2019-05-16 14:56:51.124
 # current working dir /lustre03/project/6004141/rzk/GaN-carbene/00-Surface/00-Preoptimization/334-native/Trial4
 # Program compiled at                              Sun Apr  7 00:48:11 EDT 2019
 # Program compiled on                          beluga2.int.ets1.calculquebec.ca
 # Program compiled for                        Beluga-Linux-x86-64-intel-openmpi
 # Source code revision number                                         svn:18619
 &GLOBAL
   PRINT_LEVEL  MEDIUM
   PROJECT_NAME TEST
   RUN_TYPE  CELL_OPT
 &END GLOBAL
 &MOTION
   &CELL_OPT
     MAX_ITER  150
     STEP_START_VAL  114
     EXTERNAL_PRESSURE     1.0000000000000000E+00
     KEEP_ANGLES  T
     KEEP_SYMMETRY  T
     CONSTRAINT  Z
     PRESSURE_TOLERANCE     3.0000000000000000E+02
   &END CELL_OPT
 &END MOTION
 &FORCE_EVAL
   METHOD  QS
   STRESS_TENSOR  ANALYTICAL
   &DFT
     BASIS_SET_FILE_NAME BASIS_MOLOPT
     POTENTIAL_FILE_NAME GTH_POTENTIALS
     &SCF
       MAX_SCF  100
       EPS_SCF     5.0000000000000004E-06
       &OT  T
         PRECONDITIONER  FULL_ALL
       &END OT
       &OUTER_SCF  T
         OPTIMIZER  NONE
         EPS_SCF     5.0000000000000004E-06
         MAX_SCF  10
       &END OUTER_SCF
       &PRINT
         &RESTART  OFF
           BACKUP_COPIES  1
           &EACH
             JUST_ENERGY  0
             QS_SCF  0
             MD  20
           &END EACH
         &END RESTART
       &END PRINT
     &END SCF
     &ALMO_SCF
       EPS_FILTER     9.9999999999999994E-12
       ALMO_SCF_GUESS  ATOMIC
       MO_OVERLAP_INV_ALG  DENSE_CHOLESKY
       ALMO_EXTRAPOLATION_ORDER  4
       XALMO_EXTRAPOLATION_ORDER  4
       ALMO_ALGORITHM  SKIP
       XALMO_TRIAL_WF  SIMPLE
       DELOCALIZE_METHOD  XALMO_SCF
       XALMO_R_CUTOFF_FACTOR     1.8000000000000000E+00
       &ALMO_OPTIMIZER_DIIS
         MAX_ITER  100
         EPS_ERROR     1.0000000000000001E-05
         N_DIIS  5
       &END ALMO_OPTIMIZER_DIIS
       &ALMO_OPTIMIZER_PCG
         MAX_ITER  50
         EPS_ERROR     1.0000000000000001E-05
         LIN_SEARCH_EPS_ERROR     5.0000000000000003E-02
         LIN_SEARCH_STEP_SIZE_GUESS     5.0000000000000001E-03
         CONJUGATOR  DAI_YUAN
         MAX_ITER_OUTER_LOOP  10
       &END ALMO_OPTIMIZER_PCG
       &XALMO_OPTIMIZER_PCG
         MAX_ITER  1000
         EPS_ERROR     1.0000000000000001E-05
         LIN_SEARCH_EPS_ERROR     1.0000000000000001E-01
         LIN_SEARCH_STEP_SIZE_GUESS     1.0000000000000000E-02
         CONJUGATOR  DAI_YUAN
         PRECOND_FILTER_THRESHOLD     1.0000000000000000E-03
         MAX_ITER_OUTER_LOOP  0
       &END XALMO_OPTIMIZER_PCG
       &MATRIX_ITERATE
         EPS_TARGET_FACTOR     1.0000000000000000E+01
       &END MATRIX_ITERATE
     &END ALMO_SCF
     &QS
       EPS_DEFAULT     1.0000000000000000E-14
       ALMO_SCF  F
       METHOD  GPW
     &END QS
     &MGRID
       NGRIDS  5
       CUTOFF     1.2000000000000000E+03
     &END MGRID
     &XC
       DENSITY_CUTOFF     1.0000000000000000E-10
       GRADIENT_CUTOFF     1.0000000000000000E-10
       TAU_CUTOFF     1.0000000000000000E-10
       &XC_FUNCTIONAL  NO_SHORTCUT
         &PBE  T
         &END PBE
       &END XC_FUNCTIONAL
       &VDW_POTENTIAL
         POTENTIAL_TYPE  PAIR_POTENTIAL
         &PAIR_POTENTIAL
           R_CUTOFF     1.0000000000000004E+01
           TYPE  DFTD3
           PARAMETER_FILE_NAME dftd3.dat
           REFERENCE_FUNCTIONAL PBE
           EPS_CN     9.9999999999999995E-07
           CALCULATE_C9_TERM  T
           REFERENCE_C9_TERM  T
           LONG_RANGE_CORRECTION  F
           VERBOSE_OUTPUT  F
         &END PAIR_POTENTIAL
       &END VDW_POTENTIAL
     &END XC
   &END DFT
   &SUBSYS
     &CELL
       A     9.7408005220710194E+00    0.0000000000000000E+00    0.0000000000000000E+00
       B    -4.8565157531569216E+00    8.4117320322263787E+00    0.0000000000000000E+00
       C     0.0000000000000000E+00    0.0000000000000000E+00    3.0744000000000000E+01
       MULTIPLE_UNIT_CELL  1 1 1
       &CELL_REF
         A     9.5580000000000034E+00    0.0000000000000000E+00    0.0000000000000000E+00
         B    -4.7790000000000017E+00    8.2774708093716640E+00    0.0000000000000000E+00
         C     0.0000000000000000E+00    0.0000000000000000E+00    3.0744000000000000E+01
         MULTIPLE_UNIT_CELL  1 1 1
       &END CELL_REF
     &END CELL
     &COORD
Ga    1.2042220752100290E-03   -5.1203509518430660E-04   -5.8861360516246530E-01
N    5.0900953183238579E-03    1.8720010263492246E+00    5.6508574946121848E-01
Ga    4.1271975189417099E-03    1.8393922818869637E+00    2.5955850574189809E+00
N   -2.9858727673583824E-04   -3.2158004831254836E-03    3.2292463501925770E+00
Ga    8.6397409098350200E-05   -3.2844723262649201E-03    5.2203668438410453E+00
N    4.3963268222104186E-03    1.8711934045402119E+00    5.8069426645835946E+00
Ga    3.6271266702056957E-03    1.8682999885081590E+00    7.8058811230580574E+00
N   -4.8483966108637633E-04   -4.7384753531614678E-03    8.4083059617883489E+00
Ga    1.0107660921751733E-04   -3.6327953181580592E-03    1.0406243843110399E+01
N    3.7696236469796089E-03    1.8681065853801619E+00    1.1010928884321446E+01
Ga    2.7873886411096363E-03    1.8735610448828908E+00    1.3005300335430313E+01
N   -7.1487531749474362E-04    4.4798163504988081E-03    1.3611232941062230E+01
Ga   -7.5917207990737088E-03    1.3726974434434967E-02    1.5615081660922405E+01
N    1.4479899135145169E-03    1.8842573138564096E+00    1.6259918227766075E+01
Ga    1.3663285025563720E-02    1.9042150104658293E+00    1.8372563380228431E+01
N    3.3475547173827027E-03    8.9035766641238998E-03    1.8661205917261121E+01
Ga   -1.6168093363248244E+00    2.8022931879947404E+00    2.7956668495030446E-01
N   -1.6194114201982375E+00    4.6711637276782323E+00    5.6527960179299053E-01
Ga   -1.5907700908051856E+00    4.6862295714814577E+00    2.5953397183852536E+00
N   -1.6187717728352469E+00    2.8008517264767656E+00    3.1873262630235688E+00
Ga   -1.6183426084192312E+00    2.8010120473945084E+00    5.1984676200025310E+00
N   -1.6173452385948339E+00    4.6708548422653999E+00    5.8068387326080364E+00
Ga   -1.6168559459761058E+00    4.6696369377722728E+00    7.8060747251648586E+00
N   -1.6197220555018981E+00    2.7990138002361609E+00    8.4104391164320536E+00
Ga   -1.6190250174597114E+00    2.7996953466370478E+00    1.0406483715656028E+01
N   -1.6111030942638864E+00    4.6699880295472704E+00    1.1014010381754753E+01
Ga   -1.6068273564681084E+00    4.6696443834726473E+00    1.3010129848749186E+01
N   -1.6178857184828479E+00    2.8007566420164283E+00    1.3623477798947977E+01
Ga   -1.6232398561470582E+00    2.7987675198533704E+00    1.5631354866101203E+01
N   -1.6230919716111392E+00    4.6790741970955718E+00    1.6215420021512060E+01
Ga   -1.6119202913025017E+00    4.6775328380091521E+00    1.8295794346208833E+01
N   -1.6220884461323839E+00    2.8136517917741068E+00    1.8738710940750142E+01
Ga   -3.2370877653339414E+00    5.6071800824589788E+00    2.7949120138370426E-01
N   -3.2298838438052595E+00    7.4765311279726365E+00    5.6494913071458841E-01
Ga   -3.2585581872776803E+00    7.4905299735023565E+00    2.5955164322955420E+00
N   -3.2379753670078930E+00    5.6051471116537765E+00    3.1877942299421966E+00
Ga   -3.2378004175536499E+00    5.6053560872320336E+00    5.1988778283660784E+00
N   -3.2307241267211815E+00    7.4743437082328050E+00    5.8082068618630105E+00
Ga   -3.2322247648333193E+00    7.4726743839901708E+00    7.8077110971788350E+00
N   -3.2379107315565467E+00    5.6024854961062465E+00    8.4147608042879316E+00
Ga   -3.2371160595428390E+00    5.6030008446339901E+00    1.0412827879658284E+01
N   -3.2337609055360486E+00    7.4765962253360687E+00    1.1013472365321807E+01
Ga   -3.2337412300225488E+00    7.4804714356485409E+00    1.3010131886314650E+01
N   -3.2357604886163527E+00    5.6015124780701058E+00    1.3593476385536716E+01
Ga   -3.2399966093713406E+00    5.6016388997939570E+00    1.5586511808627861E+01
N   -3.2414822531999010E+00    7.4751025733231469E+00    1.6160291380101803E+01
Ga   -3.2459875414844919E+00    7.4927142784907099E+00    1.8210459168902410E+01
N   -3.2494208495131525E+00    5.6150739155315810E+00    1.8606976642232311E+01
Ga    3.2477866091225400E+00   -3.3799816784332716E-03    2.7936237041932749E-01
N    3.2483094147879346E+00    1.8681164338770071E+00    5.6412002542475936E-01
Ga    3.2745214475230773E+00    1.8818956708981522E+00    2.5978917383815663E+00
N    3.2464185237552345E+00   -3.1854576612504360E-03    3.1873172007321844E+00
Ga    3.2467016406494924E+00   -3.2724922056973833E-03    5.1984896093357849E+00
N    3.2485196554246363E+00    1.8665322141454495E+00    5.8067636242307161E+00
Ga    3.2488617954739252E+00    1.8648527014744634E+00    7.8059632723469896E+00
N    3.2467863163492523E+00   -5.2274471381799411E-03    8.4118823234782312E+00
Ga    3.2471465977522387E+00   -4.3800352076730185E-03    1.0408880214078904E+01
N    3.2493872677302500E+00    1.8670076108570501E+00    1.1014129854255932E+01
Ga    3.2449103872236238E+00    1.8654687693015619E+00    1.3011612249795583E+01
N    3.2469343288531105E+00   -3.6803275698429260E-03    1.3624814774285714E+01
Ga    3.2507911812958512E+00   -1.1381995677005505E-03    1.5629415949438979E+01
N    3.2300516166379381E+00    1.8801451803291540E+00    1.6210572638343073E+01
Ga    3.2424354463155129E+00    1.8948117122602455E+00    1.8280647144815166E+01
N    3.2399645338755523E+00   -1.9999331352564924E-03    1.8576424349031939E+01
Ga    1.6267299320402595E+00    2.8030651905083528E+00    2.7948381497415686E-01
N    1.6372571831600746E+00    4.6719244822250880E+00    5.6531011906348938E-01
Ga    1.6079743660815302E+00    4.6863631139121757E+00    2.5952986749686660E+00
N    1.6276661285181833E+00    2.8008651296290052E+00    3.1875021723394275E+00
Ga    1.6280494297790362E+00    2.8011169378545038E+00    5.1986943406831330E+00
N    1.6352539068899394E+00    4.6709210866649249E+00    5.8069776561256612E+00
Ga    1.6333086251195013E+00    4.6696988811219251E+00    7.8062018896144858E+00
N    1.6276371180349594E+00    2.7990582251123306E+00    8.4104124947027099E+00
Ga    1.6275411963438726E+00    2.7998294550853013E+00    1.0406563090226586E+01
N    1.6283543690729962E+00    4.6705234512071216E+00    1.1012889202399384E+01
Ga    1.6221661766707351E+00    4.6700086809694312E+00    1.3008575032276362E+01
N    1.6234832767332581E+00    2.8009797455742924E+00    1.3618846382135388E+01
Ga    1.6190254070240484E+00    2.8010621959919426E+00    1.5626036150464788E+01
N    1.6351856955602435E+00    4.6770284224656411E+00    1.6211826708686100E+01
Ga    1.6503905308638989E+00    4.6783033853247140E+00    1.8291763594840262E+01
N    1.6363632277654561E+00    2.8149836712819960E+00    1.8748866775841613E+01
Ga    1.0069275727366420E-02    5.6071817024570327E+00   -5.8892527815573359E-01
N    1.4268980386204709E-02    7.4811413558602098E+00    5.6534090975340867E-01
Ga    1.3455031922849657E-02    7.4478088183950160E+00    2.5953385963905102E+00
N    8.8778308896872767E-03    5.6044562450355375E+00    3.2279865211419732E+00
Ga    9.3993357448765268E-03    5.6050171150538075E+00    5.2187458141135465E+00
N    1.3635400532172963E-02    7.4792394503925559E+00    5.8063494863878091E+00
Ga    1.2984619795028180E-02    7.4759139625466871E+00    7.8053671111096898E+00
N    8.5325716265767845E-03    5.6033496602779111E+00    8.4072443399328680E+00
Ga    8.7540702064834806E-03    5.6051355103234606E+00    1.0404582599123783E+01
N    1.3143980377741058E-02    7.4744080758646376E+00    1.1016654482666553E+01
Ga    1.2431811327256268E-02    7.4751165726742448E+00    1.3015898593160017E+01
N    7.0210247880511112E-03    5.6083698473049903E+00    1.3635563999687516E+01
Ga    4.9504847199759077E-03    5.6172230563703751E+00    1.5647166296627052E+01
N    1.0626269719453579E-02    7.4895126119582933E+00    1.6223315060502173E+01
Ga    2.4400093195792557E-02    7.4762873548584601E+00    1.8287997962328461E+01
N    1.3725277949712698E-02    5.5913642419348983E+00    1.8650190425249932E+01
Ga    6.4938233444513473E+00   -2.6126377433339492E-03    2.7948847636167784E-01
N    6.5012229680672000E+00    1.8690035828060949E+00    5.6427909065806769E-01
Ga    6.4741594822239268E+00    1.8821259880742609E+00    2.5979894333516467E+00
N    6.4940234944238728E+00   -3.5706472859596988E-03    3.1871848262447751E+00
Ga    6.4945381920793475E+00   -3.3567722778218593E-03    5.1982821435163613E+00
N    6.5010348778090217E+00    1.8665024530716887E+00    5.8065700132935163E+00
Ga    6.4992272847408223E+00    1.8645958507024554E+00    7.8057876307461598E+00
N    6.4927844998209778E+00   -5.2474110098320627E-03    8.4124420752150577E+00
Ga    6.4934747271898692E+00   -4.6640021662908218E-03    1.0409535461671926E+01
N    6.4997183220134964E+00    1.8668055903264937E+00    1.1014979064898576E+01
Ga    6.5026895467327828E+00    1.8652615242558064E+00    1.3012756582491276E+01
N    6.4920693926518700E+00   -5.2281182996464530E-03    1.3622754703641039E+01
Ga    6.4805676908833316E+00   -6.5037921533625401E-03    1.5627400716996863E+01
N    6.5107805992493519E+00    1.8732014628665421E+00    1.6210772034966599E+01
Ga    6.5230180373183488E+00    1.8938747273059904E+00    1.8281607362761225E+01
N    6.5079495135621785E+00   -1.1563514196410926E-03    1.8582969339999195E+01
Ga    4.8758652428483309E+00    2.8032627229217577E+00   -5.5463647215815870E-01
N    4.8801074699388511E+00    4.6752912111278908E+00    5.6461501576089412E-01
Ga    4.8790900929446428E+00    4.6446658894336803E+00    2.5980941095894163E+00
N    4.8746247158430878E+00    2.8007949732226733E+00    3.2286915676537578E+00
Ga    4.8751623008911587E+00    2.8011602257856816E+00    5.2206259361984735E+00
N    4.8794437580709697E+00    4.6753322804339197E+00    5.8086411929017530E+00
Ga    4.8787356734561698E+00    4.6717191366714674E+00    7.8087960880161935E+00
N    4.8745667652057136E+00    2.7974897116810484E+00    8.4085602251550604E+00
Ga    4.8751040813485389E+00    2.7966571070743793E+00    1.0406917103793136E+01
N    4.8793982937940523E+00    4.6664520139475716E+00    1.1012393047669125E+01
Ga    4.8790079569033180E+00    4.6612420819491707E+00    1.3008065280675183E+01
N    4.8736390483060843E+00    2.7848247558152792E+00    1.3618747219493347E+01
Ga    4.8683570425342797E+00    2.7785072403471789E+00    1.5621654271978427E+01
N    4.8739854872205237E+00    4.6694373514080514E+00    1.6128560689078636E+01
Ga    4.8854336823558109E+00    4.6876632645373597E+00    1.8169531055624713E+01
N    4.8787009036280846E+00    2.8147689121145563E+00    1.8591822640164082E+01
Ga    3.2562545265418912E+00    5.6065360717803951E+00    2.7924044146579835E-01
N    3.2571517033028301E+00    7.4757502716532036E+00    5.6441712804834887E-01
Ga    3.2849138617432554E+00    7.4903943970225422E+00    2.5952172772630502E+00
N    3.2561954778171445E+00    5.6051268426786551E+00    3.1876090265377042E+00
Ga    3.2566827237103309E+00    5.6054037586810246E+00    5.1988832767111033E+00
N    3.2579597740287278E+00    7.4744180789031667E+00    5.8083778561758015E+00
Ga    3.2579708335415205E+00    7.4727332601348939E+00    7.8079428942884430E+00
N    3.2553766567762157E+00    5.6023769084485604E+00    8.4144680745746019E+00
Ga    3.2557194688729032E+00    5.6028136358978076E+00    1.0412370756771985E+01
N    3.2610929930107329E+00    7.4763444365331129E+00    1.1012647386277822E+01
Ga    3.2599827817559413E+00    7.4794932966803591E+00    1.3009174637754354E+01
N    3.2519860092411896E+00    5.6001276970949583E+00    1.3589689982560813E+01
Ga    3.2466288063647371E+00    5.6030625241345877E+00    1.5583020123581553E+01
N    3.2643435509968359E+00    7.4718587271131964E+00    1.6162184395158395E+01
Ga    3.2879484418649105E+00    7.4941227281887377E+00    1.8213102655367479E+01
N    3.2747644916528009E+00    5.6175634321680281E+00    1.8613750679362212E+01
     &END COORD
     &KIND N
       BASIS_SET DZVP-MOLOPT-SR-GTH
       POTENTIAL GTH-PBE-q5
       &POTENTIAL
2 3
0.2837905100000000E+00 2 -0.1241522559000000E+02  0.1868095920000000E+01
2
0.2554050000000000E+00 1  0.1363026257000000E+02
0.2454945300000000E+00 0
       &END POTENTIAL
     &END KIND
     &KIND Ga
       BASIS_SET DZVP-MOLOPT-SR-GTH
       POTENTIAL GTH-PBE-q13
       &POTENTIAL
2 1 10
0.4900000000000000E+00 0
3
0.4167772300000000E+00 3  0.1047568975000000E+02 -0.4921768140000000E+01  0.8707055900000000E+00
0.7770178090000000E+01 -0.2248152160000000E+01
0.1784415450000000E+01
0.5696265200000000E+00 2  0.1777985340000000E+01  0.1958597600000000E+00
-0.2317443900000000E+00
0.2381265000000000E+00 1 -0.1624868022000000E+02
       &END POTENTIAL
     &END KIND
     &TOPOLOGY
       COORD_FILE_NAME 334-native.xyz
       COORD_FILE_FORMAT  XYZ
       NUMBER_OF_ATOMS  144
       MULTIPLE_UNIT_CELL  1 1 1
     &END TOPOLOGY
   &END SUBSYS
 &END FORCE_EVAL
