 # Version information for this restart file 
 # current date 2019-05-16 00:40:17.527
 # current working dir /lustre03/project/6004141/rzk/GaN-carbene/00-Surface/00-Preoptimization/334-native/Trial4
 # Program compiled at                              Sun Apr  7 00:48:11 EDT 2019
 # Program compiled on                          beluga2.int.ets1.calculquebec.ca
 # Program compiled for                        Beluga-Linux-x86-64-intel-openmpi
 # Source code revision number                                         svn:18619
 &GLOBAL
   PRINT_LEVEL  MEDIUM
   PROJECT_NAME TEST
   RUN_TYPE  CELL_OPT
 &END GLOBAL
 &MOTION
   &CELL_OPT
     MAX_ITER  100
     STEP_START_VAL  3
     EXTERNAL_PRESSURE     1.0000000000000000E+00
     KEEP_ANGLES  T
     KEEP_SYMMETRY  T
     CONSTRAINT  Z
     PRESSURE_TOLERANCE     1.0000000000000000E+02
   &END CELL_OPT
 &END MOTION
 &FORCE_EVAL
   METHOD  QS
   STRESS_TENSOR  ANALYTICAL
   &DFT
     BASIS_SET_FILE_NAME BASIS_MOLOPT
     POTENTIAL_FILE_NAME GTH_POTENTIALS
     &SCF
       MAX_SCF  100
       EPS_SCF     5.0000000000000004E-06
       &OT  T
         PRECONDITIONER  FULL_ALL
       &END OT
       &OUTER_SCF  T
         OPTIMIZER  NONE
         EPS_SCF     5.0000000000000004E-06
         MAX_SCF  10
       &END OUTER_SCF
       &PRINT
         &RESTART  OFF
           BACKUP_COPIES  1
           &EACH
             JUST_ENERGY  0
             QS_SCF  0
             MD  20
           &END EACH
         &END RESTART
       &END PRINT
     &END SCF
     &ALMO_SCF
       EPS_FILTER     9.9999999999999994E-12
       ALMO_SCF_GUESS  ATOMIC
       MO_OVERLAP_INV_ALG  DENSE_CHOLESKY
       ALMO_EXTRAPOLATION_ORDER  4
       XALMO_EXTRAPOLATION_ORDER  4
       ALMO_ALGORITHM  SKIP
       XALMO_TRIAL_WF  SIMPLE
       DELOCALIZE_METHOD  XALMO_SCF
       XALMO_R_CUTOFF_FACTOR     1.8000000000000000E+00
       &ALMO_OPTIMIZER_DIIS
         MAX_ITER  100
         EPS_ERROR     1.0000000000000001E-05
         N_DIIS  5
       &END ALMO_OPTIMIZER_DIIS
       &ALMO_OPTIMIZER_PCG
         MAX_ITER  50
         EPS_ERROR     1.0000000000000001E-05
         LIN_SEARCH_EPS_ERROR     5.0000000000000003E-02
         LIN_SEARCH_STEP_SIZE_GUESS     5.0000000000000001E-03
         CONJUGATOR  DAI_YUAN
         MAX_ITER_OUTER_LOOP  10
       &END ALMO_OPTIMIZER_PCG
       &XALMO_OPTIMIZER_PCG
         MAX_ITER  1000
         EPS_ERROR     1.0000000000000001E-05
         LIN_SEARCH_EPS_ERROR     1.0000000000000001E-01
         LIN_SEARCH_STEP_SIZE_GUESS     1.0000000000000000E-02
         CONJUGATOR  DAI_YUAN
         PRECOND_FILTER_THRESHOLD     1.0000000000000000E-03
         MAX_ITER_OUTER_LOOP  0
       &END XALMO_OPTIMIZER_PCG
       &MATRIX_ITERATE
         EPS_TARGET_FACTOR     1.0000000000000000E+01
       &END MATRIX_ITERATE
     &END ALMO_SCF
     &QS
       EPS_DEFAULT     1.0000000000000000E-14
       ALMO_SCF  F
       METHOD  GPW
     &END QS
     &MGRID
       NGRIDS  5
       CUTOFF     1.2000000000000000E+03
     &END MGRID
     &XC
       DENSITY_CUTOFF     1.0000000000000000E-10
       GRADIENT_CUTOFF     1.0000000000000000E-10
       TAU_CUTOFF     1.0000000000000000E-10
       &XC_FUNCTIONAL  NO_SHORTCUT
         &PBE  T
         &END PBE
       &END XC_FUNCTIONAL
       &VDW_POTENTIAL
         POTENTIAL_TYPE  PAIR_POTENTIAL
         &PAIR_POTENTIAL
           R_CUTOFF     1.0000000000000002E+01
           TYPE  DFTD3
           PARAMETER_FILE_NAME dftd3.dat
           REFERENCE_FUNCTIONAL PBE
           EPS_CN     9.9999999999999995E-07
           CALCULATE_C9_TERM  T
           REFERENCE_C9_TERM  T
           LONG_RANGE_CORRECTION  F
           VERBOSE_OUTPUT  F
         &END PAIR_POTENTIAL
       &END VDW_POTENTIAL
     &END XC
   &END DFT
   &SUBSYS
     &CELL
       A     9.7069203174373886E+00    0.0000000000000000E+00    0.0000000000000000E+00
       B    -4.8691722391524621E+00    8.4336537090159762E+00    0.0000000000000000E+00
       C     0.0000000000000000E+00    0.0000000000000000E+00    3.0744000000000000E+01
       MULTIPLE_UNIT_CELL  1 1 1
       &CELL_REF
         A     9.5580000000000016E+00    0.0000000000000000E+00    0.0000000000000000E+00
         B    -4.7790000000000008E+00    8.2774708093716640E+00    0.0000000000000000E+00
         C     0.0000000000000000E+00    0.0000000000000000E+00    3.0744000000000000E+01
         MULTIPLE_UNIT_CELL  1 1 1
       &END CELL_REF
     &END CELL
     &COORD
Ga    8.1641359830588144E-03   -1.4864892050344577E-02   -7.4700333721325523E-03
N   -4.9095812364867162E-03    1.8590779014395449E+00    6.0261568169448099E-01
Ga   -3.3074669342269486E-03    1.8666717679014302E+00    2.6315784015869697E+00
N    1.1724144851264738E-05    3.5980973481730211E-04    3.2158532912583722E+00
Ga    7.2825829864486911E-04    2.6379067404490520E-04    5.2107026668361494E+00
N   -3.9762301547848359E-03    1.8740659301255087E+00    5.8078659347141555E+00
Ga   -3.7582817318677192E-03    1.8738659970782929E+00    7.8012076093118292E+00
N    3.2777692440486261E-04    7.4921900204622611E-04    8.4021780827490424E+00
Ga    2.8145598009781531E-04    5.3956130817299150E-04    1.0392168614880536E+01
N   -3.7794827337567722E-03    1.8735070106676570E+00    1.0995985209724514E+01
Ga   -3.8825943192632435E-03    1.8737020037114107E+00    1.2984716990078338E+01
N    3.7968670727536079E-04    6.2011313247478000E-04    1.3588242854635144E+01
Ga    3.1122196035221603E-04    4.8148173123903430E-04    1.5577678479572393E+01
N   -4.1415514177374230E-03    1.8733083596990765E+00    1.6174131252747966E+01
Ga   -4.3695431270244405E-03    1.8730662773145064E+00    1.8221671969588634E+01
N    4.1623387785592951E-04    5.7595278280195034E-04    1.8756011580233128E+01
Ga   -1.6115862881779246E+00    2.8309332010176576E+00   -2.3797349628814048E-02
N   -1.6345293406564529E+00    4.6905091434974757E+00    6.0565394843890319E-01
Ga   -1.6299890620675648E+00    4.6860366582268824E+00    2.6314680622658999E+00
N   -1.6222381824409402E+00    2.8118196214595428E+00    3.2094217552955238E+00
Ga   -1.6227079036251111E+00    2.8118091049500280E+00    5.2123432587064960E+00
N   -1.6267033733420870E+00    4.6846561681967218E+00    5.8078945826153694E+00
Ga   -1.6266007684870771E+00    4.6850070250925624E+00    7.8011533495109475E+00
N   -1.6226860287996736E+00    2.8119200074587702E+00    8.4021513954272660E+00
Ga   -1.6226613118111870E+00    2.8115749881078398E+00    1.0392191933991707E+01
N   -1.6269793253522780E+00    4.6847311143484403E+00    1.0995960423127439E+01
Ga   -1.6264284822779207E+00    4.6849110276432322E+00    1.2984683018770042E+01
N   -1.6227408687907483E+00    2.8118646276787072E+00    1.3588279380267808E+01
Ga   -1.6226885191098468E+00    2.8115702974705332E+00    1.5577708915203393E+01
N   -1.6265305527735174E+00    4.6845044655752384E+00    1.6174079267608331E+01
Ga   -1.6257780238618236E+00    4.6846759576459203E+00    1.8221602158625881E+01
N   -1.6226831962491890E+00    2.8117692309720326E+00    1.8755739971766339E+01
Ga   -3.2636021011200183E+00    5.6377218443198851E+00   -4.9769254293252465E-03
N   -3.2434161475261081E+00    7.4935016703861832E+00    6.2867669226236045E-01
Ga   -3.2484715472174148E+00    7.4936564164906887E+00    2.6311497582079624E+00
N   -3.2462499798159792E+00    5.6210459797378967E+00    3.2160331188466849E+00
Ga   -3.2461506320586193E+00    5.6237105142859933E+00    5.2108141435220068E+00
N   -3.2500602838421861E+00    7.4961583795860607E+00    5.8087701009528017E+00
Ga   -3.2496898695908087E+00    7.4960455519456106E+00    7.8007008326891230E+00
N   -3.2456771956297428E+00    5.6229255607985014E+00    8.4021613737148062E+00
Ga   -3.2459062600719815E+00    5.6231046444450365E+00    1.0392104506058294E+01
N   -3.2499867306487276E+00    7.4959547105752247E+00    1.0995991713616325E+01
Ga   -3.2497479720325115E+00    7.4961442533198603E+00    1.2984711253325822E+01
N   -3.2457091632052846E+00    5.6230035234707207E+00    1.3588552730522279E+01
Ga   -3.2459229981410593E+00    5.6231265147861427E+00    1.5578126699793927E+01
N   -3.2498488860291297E+00    7.4960470518236155E+00    1.6174115161165187E+01
Ga   -3.2499319551367014E+00    7.4967524931964347E+00    1.8221609389592270E+01
N   -3.2458631306021801E+00    5.6230562145535972E+00    1.8755310172926130E+01
Ga    3.2329392429508639E+00    9.0457777258451909E-03   -6.2260213733987277E-03
N    3.2304683580003988E+00    1.8676033228502540E+00    6.1361688650981994E-01
Ga    3.2321829953850068E+00    1.8673224940325557E+00    2.6315599658622517E+00
N    3.2367889159507923E+00    8.3454295763444306E-04    3.2195071899646002E+00
Ga    3.2359309296922545E+00    8.7631573530695965E-04    5.2099706544335609E+00
N    3.2316292348864737E+00    1.8742988656072943E+00    5.8085921959878952E+00
Ga    3.2318555264277724E+00    1.8736503835022191E+00    7.8008838390310533E+00
N    3.2361049836292795E+00    6.5748165927254532E-04    8.4022804356060270E+00
Ga    3.2357637614905816E+00    5.2686239719004790E-04    1.0392102160439666E+01
N    3.2316909213598612E+00    1.8735662927960697E+00    1.0995978952615793E+01
Ga    3.2320013385003294E+00    1.8735667279438180E+00    1.2984701689559934E+01
N    3.2360321345467278E+00    5.9079997304189449E-04    1.3588273374191312E+01
Ga    3.2357206967617365E+00    5.5331475522147483E-04    1.5577715724610240E+01
N    3.2316903645473189E+00    1.8732840004785616E+00    1.6174101028756564E+01
Ga    3.2327226986498685E+00    1.8734242216537786E+00    1.8221619678127929E+01
N    3.2361022327502025E+00    7.7269309956539756E-04    1.8755662815254833E+01
Ga    1.6086634624957417E+00    2.8277771045098841E+00   -1.5382087581456639E-02
N    1.6155269993437298E+00    4.6831618741186727E+00    6.1168133192827190E-01
Ga    1.6099886756340582E+00    4.6834593780451703E+00    2.6313485456491024E+00
N    1.6113841804240603E+00    2.8114571642070656E+00    3.2111933435702817E+00
Ga    1.6129074200663609E+00    2.8113191265778616E+00    5.2118652095184421E+00
N    1.6087912047029269E+00    4.6847924298173096E+00    5.8075169912104236E+00
Ga    1.6086129328133514E+00    4.6849872123254643E+00    7.8012014609591827E+00
N    1.6128610871277258E+00    2.8119792256357625E+00    8.4021234308088761E+00
Ga    1.6127665115679819E+00    2.8115933388540033E+00    1.0392072690186291E+01
N    1.6088018018032744E+00    4.6846990291776498E+00    1.0995948982593335E+01
Ga    1.6085641814214067E+00    4.6851540590617207E+00    1.2984686766662310E+01
N    1.6129171222394179E+00    2.8118496913119766E+00    1.3588567248151497E+01
Ga    1.6128389891171677E+00    2.8115413106058087E+00    1.5578078634624204E+01
N    1.6088121074595998E+00    4.6851128048340227E+00    1.6174162886607320E+01
Ga    1.6082949068973407E+00    4.6858533792189760E+00    1.8221694154861542E+01
N    1.6129788202768971E+00    2.8119367612708102E+00    1.8755099167612890E+01
Ga    2.8876800036885357E-03    5.6199617068952055E+00   -1.4695255975926282E-02
N   -2.1193047354434887E-02    7.4925412765740367E+00    6.1486498233806963E-01
Ga   -1.7524650055833518E-02    7.4952436768984585E+00    2.6314228616853401E+00
N   -9.9954896816399925E-03    5.6208508424311905E+00    3.2120493211046717E+00
Ga   -1.0222084989802187E-02    5.6234708193894551E+00    5.2116726561064279E+00
N   -1.4078298200157787E-02    7.4958438087501111E+00    5.8086953983131497E+00
Ga   -1.4229540726476246E-02    7.4958913129019011E+00    7.8008514858915010E+00
N   -1.0084671403500341E-02    5.6229795380653886E+00    8.4022022934601175E+00
Ga   -1.0162269500941604E-02    5.6229434276300472E+00    1.0392086930886157E+01
N   -1.4264097289952316E-02    7.4960449175680921E+00    1.0995957502735335E+01
Ga   -1.4356357111859966E-02    7.4956869598488316E+00    1.2984681023754456E+01
N   -1.0100569257046601E-02    5.6230400798967510E+00    1.3588220198871021E+01
Ga   -1.0230073093346717E-02    5.6229347261554397E+00    1.5577587211339463E+01
N   -1.4363009729164163E-02    7.4957170987958763E+00    1.6174145415454216E+01
Ga   -1.4843088366432260E-02    7.4951838198352032E+00    1.8221679577076294E+01
N   -1.0358046540954260E-02    5.6230408815421544E+00    1.8755794987589294E+01
Ga    6.4720528793651910E+00   -5.9055182583149755E-03   -1.3588850600252516E-02
N    6.4670621475747563E+00    1.8665851327741110E+00    6.0326586889249256E-01
Ga    6.4645842931317405E+00    1.8687044170566043E+00    2.6314840763570095E+00
N    6.4706989590058681E+00    4.0340421330577870E-04    3.2152836655768979E+00
Ga    6.4712881652872163E+00    7.6014205673010976E-04    5.2108833865464739E+00
N    6.4679377450017439E+00    1.8740462311479194E+00    5.8083686071737270E+00
Ga    6.4675835978996288E+00    1.8736296152406471E+00    7.8010756946545099E+00
N    6.4716348167339977E+00    7.0097651673473526E-04    8.4021969658050057E+00
Ga    6.4717691930166108E+00    5.2965914913034493E-04    1.0392013855127793E+01
N    6.4674526156949783E+00    1.8734778020241118E+00    1.0995978715046373E+01
Ga    6.4675073113402304E+00    1.8737601624376841E+00    1.2984692143177783E+01
N    6.4716005048307057E+00    6.2577960593955941E-04    1.3588566932560143E+01
Ga    6.4717560980023876E+00    5.0734885245140961E-04    1.5578070008738495E+01
N    6.4671189719392270E+00    1.8737628445832146E+00    1.6174087364585116E+01
Ga    6.4669929092659348E+00    1.8745437311204223E+00    1.8221658202025189E+01
N    6.4716518663935574E+00    4.6178997648448360E-04    1.8755139964789088E+01
Ga    4.8467689339877325E+00    2.8252544786423122E+00   -1.4151283089985199E-02
N    4.8425134939074521E+00    4.6774273522555205E+00    6.1871941654298646E-01
Ga    4.8442535033169527E+00    4.6824681594639053E+00    2.6316701079814120E+00
N    4.8490234254090918E+00    2.8103389085816084E+00    3.2144633479964897E+00
Ga    4.8486055620386539E+00    2.8113977454305483E+00    5.2111826847638829E+00
N    4.8443251749333989E+00    4.6848163432074319E+00    5.8080527032554086E+00
Ga    4.8444826823698364E+00    4.6849057987766480E+00    7.8009481140937407E+00
N    4.8486110470573678E+00    2.8118667960127035E+00    8.4022001078141244E+00
Ga    4.8485254364880914E+00    2.8117341330274450E+00    1.0392188383882919E+01
N    4.8443674262968353E+00    4.6848243235161631E+00    1.0995973333862134E+01
Ga    4.8443015925473434E+00    4.6847691190769707E+00    1.2984691675655487E+01
N    4.8485445533845821E+00    2.8118325560026034E+00    1.3588189873306685E+01
Ga    4.8485317779315258E+00    2.8117120177312764E+00    1.5577692759442291E+01
N    4.8439985583374270E+00    4.6846281644761438E+00    1.6174103402070202E+01
Ga    4.8439168672285948E+00    4.6840847990867278E+00    1.8221659872341235E+01
N    4.8487347865496835E+00    2.8118451356759255E+00    1.8756039192959594E+01
Ga    3.2355570666158751E+00    5.6390806212125648E+00   -3.5263969534230651E-03
N    3.2185497963418115E+00    7.4973467217645506E+00    6.2000029854291483E-01
Ga    3.2209838000669437E+00    7.4938294862806014E+00    2.6312113041211020E+00
N    3.2253267603571447E+00    5.6224663383642550E+00    3.2135896956662919E+00
Ga    3.2260002991373691E+00    5.6237173860619745E+00    5.2112601796596021E+00
N    3.2213229314122138E+00    7.4962441130847886E+00    5.8081693054801509E+00
Ga    3.2212108681721481E+00    7.4960484663073910E+00    7.8009508674408909E+00
N    3.2254442540611556E+00    5.6230490870630581E+00    8.4021270842681872E+00
Ga    3.2255402491754559E+00    5.6231253742334895E+00    1.0392111523760979E+01
N    3.2213674745284004E+00    7.4960339350373273E+00    1.0995980162065790E+01
Ga    3.2213969238070437E+00    7.4959018301162637E+00    1.2984711069311290E+01
N    3.2255360991036346E+00    5.6230244780943801E+00    1.3588281644574501E+01
Ga    3.2255693153382512E+00    5.6230808670724084E+00    1.5577646853878445E+01
N    3.2216978406576069E+00    7.4959995617980626E+00    1.6174158840225921E+01
Ga    3.2223483137502007E+00    7.4959795782589058E+00    1.8221680791939363E+01
N    3.2253863305636639E+00    5.6229299824736234E+00    1.8755506629571887E+01
     &END COORD
     &KIND N
       BASIS_SET DZVP-MOLOPT-SR-GTH
       POTENTIAL GTH-PBE-q5
       &POTENTIAL
 2 3
  0.2837905100000000E+00 2 -0.1241522559000000E+02  0.1868095920000000E+01
 2
  0.2554050000000000E+00 1  0.1363026257000000E+02
  0.2454945300000000E+00 0
         # Potential name:  GTH-PBE-Q5  for symbol:  N
         # Potential read from the potential filename: GTH_POTENTIALS
       &END POTENTIAL
     &END KIND
     &KIND Ga
       BASIS_SET DZVP-MOLOPT-SR-GTH
       POTENTIAL GTH-PBE-q13
       &POTENTIAL
 2 1 10
  0.4900000000000000E+00 0
 3
  0.4167772300000000E+00 3  0.1047568975000000E+02 -0.4921768140000000E+01  0.8707055900000000E+00
  0.7770178090000000E+01 -0.2248152160000000E+01
  0.1784415450000000E+01
  0.5696265200000000E+00 2  0.1777985340000000E+01  0.1958597600000000E+00
 -0.2317443900000000E+00
  0.2381265000000000E+00 1 -0.1624868022000000E+02
         # Potential name:  GTH-PBE-Q13  for symbol:  GA
         # Potential read from the potential filename: GTH_POTENTIALS
       &END POTENTIAL
     &END KIND
     &TOPOLOGY
       COORD_FILE_NAME 334-native.xyz
       COORD_FILE_FORMAT  XYZ
       NUMBER_OF_ATOMS  144
       MULTIPLE_UNIT_CELL  1 1 1
     &END TOPOLOGY
   &END SUBSYS
 &END FORCE_EVAL
