 # Version information for this restart file 
 # current date 2019-05-16 01:24:18.332
 # current working dir /lustre03/project/6004141/rzk/GaN-carbene/00-Surface/00-Preoptimization/334-native/Trial4
 # Program compiled at                              Sun Apr  7 00:48:11 EDT 2019
 # Program compiled on                          beluga2.int.ets1.calculquebec.ca
 # Program compiled for                        Beluga-Linux-x86-64-intel-openmpi
 # Source code revision number                                         svn:18619
 &GLOBAL
   PRINT_LEVEL  MEDIUM
   PROJECT_NAME TEST
   RUN_TYPE  CELL_OPT
 &END GLOBAL
 &MOTION
   &CELL_OPT
     MAX_ITER  100
     STEP_START_VAL  9
     EXTERNAL_PRESSURE     1.0000000000000000E+00
     KEEP_ANGLES  T
     KEEP_SYMMETRY  T
     CONSTRAINT  Z
     PRESSURE_TOLERANCE     1.0000000000000000E+02
   &END CELL_OPT
 &END MOTION
 &FORCE_EVAL
   METHOD  QS
   STRESS_TENSOR  ANALYTICAL
   &DFT
     BASIS_SET_FILE_NAME BASIS_MOLOPT
     POTENTIAL_FILE_NAME GTH_POTENTIALS
     &SCF
       MAX_SCF  100
       EPS_SCF     5.0000000000000004E-06
       &OT  T
         PRECONDITIONER  FULL_ALL
       &END OT
       &OUTER_SCF  T
         OPTIMIZER  NONE
         EPS_SCF     5.0000000000000004E-06
         MAX_SCF  10
       &END OUTER_SCF
       &PRINT
         &RESTART  OFF
           BACKUP_COPIES  1
           &EACH
             JUST_ENERGY  0
             QS_SCF  0
             MD  20
           &END EACH
         &END RESTART
       &END PRINT
     &END SCF
     &ALMO_SCF
       EPS_FILTER     9.9999999999999994E-12
       ALMO_SCF_GUESS  ATOMIC
       MO_OVERLAP_INV_ALG  DENSE_CHOLESKY
       ALMO_EXTRAPOLATION_ORDER  4
       XALMO_EXTRAPOLATION_ORDER  4
       ALMO_ALGORITHM  SKIP
       XALMO_TRIAL_WF  SIMPLE
       DELOCALIZE_METHOD  XALMO_SCF
       XALMO_R_CUTOFF_FACTOR     1.8000000000000000E+00
       &ALMO_OPTIMIZER_DIIS
         MAX_ITER  100
         EPS_ERROR     1.0000000000000001E-05
         N_DIIS  5
       &END ALMO_OPTIMIZER_DIIS
       &ALMO_OPTIMIZER_PCG
         MAX_ITER  50
         EPS_ERROR     1.0000000000000001E-05
         LIN_SEARCH_EPS_ERROR     5.0000000000000003E-02
         LIN_SEARCH_STEP_SIZE_GUESS     5.0000000000000001E-03
         CONJUGATOR  DAI_YUAN
         MAX_ITER_OUTER_LOOP  10
       &END ALMO_OPTIMIZER_PCG
       &XALMO_OPTIMIZER_PCG
         MAX_ITER  1000
         EPS_ERROR     1.0000000000000001E-05
         LIN_SEARCH_EPS_ERROR     1.0000000000000001E-01
         LIN_SEARCH_STEP_SIZE_GUESS     1.0000000000000000E-02
         CONJUGATOR  DAI_YUAN
         PRECOND_FILTER_THRESHOLD     1.0000000000000000E-03
         MAX_ITER_OUTER_LOOP  0
       &END XALMO_OPTIMIZER_PCG
       &MATRIX_ITERATE
         EPS_TARGET_FACTOR     1.0000000000000000E+01
       &END MATRIX_ITERATE
     &END ALMO_SCF
     &QS
       EPS_DEFAULT     1.0000000000000000E-14
       ALMO_SCF  F
       METHOD  GPW
     &END QS
     &MGRID
       NGRIDS  5
       CUTOFF     1.2000000000000000E+03
     &END MGRID
     &XC
       DENSITY_CUTOFF     1.0000000000000000E-10
       GRADIENT_CUTOFF     1.0000000000000000E-10
       TAU_CUTOFF     1.0000000000000000E-10
       &XC_FUNCTIONAL  NO_SHORTCUT
         &PBE  T
         &END PBE
       &END XC_FUNCTIONAL
       &VDW_POTENTIAL
         POTENTIAL_TYPE  PAIR_POTENTIAL
         &PAIR_POTENTIAL
           R_CUTOFF     1.0000000000000002E+01
           TYPE  DFTD3
           PARAMETER_FILE_NAME dftd3.dat
           REFERENCE_FUNCTIONAL PBE
           EPS_CN     9.9999999999999995E-07
           CALCULATE_C9_TERM  T
           REFERENCE_C9_TERM  T
           LONG_RANGE_CORRECTION  F
           VERBOSE_OUTPUT  F
         &END PAIR_POTENTIAL
       &END VDW_POTENTIAL
     &END XC
   &END DFT
   &SUBSYS
     &CELL
       A     9.6960259563839273E+00    0.0000000000000000E+00    0.0000000000000000E+00
       B    -4.8504622682071608E+00    8.4012470887305692E+00    0.0000000000000000E+00
       C     0.0000000000000000E+00    0.0000000000000000E+00    3.0744000000000000E+01
       MULTIPLE_UNIT_CELL  1 1 1
       &CELL_REF
         A     9.5580000000000016E+00    0.0000000000000000E+00    0.0000000000000000E+00
         B    -4.7790000000000008E+00    8.2774708093716640E+00    0.0000000000000000E+00
         C     0.0000000000000000E+00    0.0000000000000000E+00    3.0744000000000000E+01
         MULTIPLE_UNIT_CELL  1 1 1
       &END CELL_REF
     &END CELL
     &COORD
Ga    4.2450851374242890E-03   -9.2440443948755474E-02   -1.4776084967105974E-02
N    4.9374663562863489E-04    1.8162574922875792E+00    5.3204202685970692E-01
Ga   -1.1388323155852825E-03    1.8502653226459418E+00    2.6082369088830957E+00
N    6.9227851142720728E-04   -8.3158782874313813E-03    3.2253157497107452E+00
Ga    3.9931797284125574E-04   -5.6840922216185735E-04    5.2261618834627290E+00
N   -1.5279898417375800E-03    1.8667169838038120E+00    5.8059811149169764E+00
Ga   -6.7918094889191235E-04    1.8674456053151276E+00    7.8090340849929802E+00
N    4.9012592674096609E-04    8.0916224204009716E-04    8.3968954052743712E+00
Ga    7.9168355297893521E-05    1.3629124374881123E-04    1.0399763224094480E+01
N   -9.3768478078644834E-04    1.8661646624727353E+00    1.0988626986261238E+01
Ga   -6.1769782739314473E-04    1.8670710276968197E+00    1.2991322350177020E+01
N    1.0442408407689472E-03    8.7818583055819890E-04    1.3581695896172180E+01
Ga    1.8336859301812585E-03    1.1017683837412046E-04    1.5598778624711628E+01
N   -2.2858041398501621E-03    1.8657958042707732E+00    1.6197049188043746E+01
Ga   -3.0430638680834605E-04    1.8660843421246698E+00    1.8277795377913964E+01
N    2.2503757801672622E-03    3.3542047317454415E-03    1.8686006771249986E+01
Ga   -1.5609539268227643E+00    2.8418668435114771E+00   -4.1148189176036305E-02
N   -1.6585198201962312E+00    4.7108077390443865E+00    5.4678868555302151E-01
Ga   -1.6271968106898280E+00    4.6717267231949533E+00    2.6126998954352585E+00
N   -1.6158118679360522E+00    2.7972973635845508E+00    3.1948427899028311E+00
Ga   -1.6151486538500825E+00    2.8009424654194102E+00    5.2193658530965488E+00
N   -1.6177588037191277E+00    4.6665334916422028E+00    5.8045576385222244E+00
Ga   -1.6169220669976581E+00    4.6672480289281753E+00    7.8089760566032176E+00
N   -1.6163232653053414E+00    2.8014841874090610E+00    8.3971760801461528E+00
Ga   -1.6166211829266428E+00    2.8002704353217629E+00    1.0400136462875219E+01
N   -1.6177463619599020E+00    4.6666841251576869E+00    1.0988591703663060E+01
Ga   -1.6173360912840460E+00    4.6672542968369504E+00    1.2991410617949304E+01
N   -1.6164668035751388E+00    2.8008502001143709E+00    1.3581726965892576E+01
Ga   -1.6173795781707430E+00    2.8009698614538427E+00    1.5598833286153706E+01
N   -1.6175490005525939E+00    4.6648967940159052E+00    1.6192753927895861E+01
Ga   -1.6179033538898828E+00    4.6602961372100422E+00    1.8270968700872633E+01
N   -1.6152959894543879E+00    2.8029282494880707E+00    1.8685364565632316E+01
Ga   -3.3023630955935652E+00    5.6451949471952778E+00   -9.4002813013410493E-03
N   -3.1907208965839251E+00    7.4951588906539737E+00    6.3083808008204179E-01
Ga   -3.2282497993475925E+00    7.4700725374481243E+00    2.6443336286086767E+00
N   -3.2400924669149620E+00    5.5982989816707347E+00    3.2192245744402213E+00
Ga   -3.2349373200872549E+00    5.6013212323402710E+00    5.2269696420991600E+00
N   -3.2335157648575308E+00    7.4676364350102684E+00    5.8084235995536657E+00
Ga   -3.2338686473596376E+00    7.4678236634988329E+00    7.8093038907596419E+00
N   -3.2329756906118581E+00    5.6012916630425895E+00    8.3966476582611556E+00
Ga   -3.2336892127411234E+00    5.6009288855736292E+00    1.0400076940862878E+01
N   -3.2345560288149007E+00    7.4671928611470424E+00    1.0988638773502743E+01
Ga   -3.2337604645934426E+00    7.4674241902344205E+00    1.2991584600895047E+01
N   -3.2330716691648251E+00    5.6010263802269566E+00    1.3582040388151434E+01
Ga   -3.2327400312667023E+00    5.6023203414241474E+00    1.5598847020568412E+01
N   -3.2343380757570008E+00    7.4649856140715363E+00    1.6192396231815987E+01
Ga   -3.2354334048735365E+00    7.4643890026416706E+00    1.8270660149552103E+01
N   -3.2328082420782036E+00    5.6044606551928142E+00    1.8685144829006802E+01
Ga    3.2602350166722567E+00    1.8455849419317293E-02    3.5587083488685563E-02
N    3.2055580764239342E+00    1.8906089561891271E+00    5.5374857435356284E-01
Ga    3.2257941408946134E+00    1.8634046318700033E+00    2.6251948700389471E+00
N    3.2377443645638508E+00   -4.3493210200451133E-05    3.2306922650725078E+00
Ga    3.2339376876365193E+00    1.8909931438750357E-03    5.2316962328039871E+00
N    3.2301327603961791E+00    1.8683658381762245E+00    5.8078993041760301E+00
Ga    3.2312348588116637E+00    1.8675538960565830E+00    7.8096367469490371E+00
N    3.2328156092572997E+00    8.0301856516559354E-04    8.3968757935377134E+00
Ga    3.2319129609113171E+00    2.6357612093395021E-05    1.0400177703104598E+01
N    3.2308929530831185E+00    1.8663491537908277E+00    1.0988559637644547E+01
Ga    3.2311574076087393E+00    1.8669130558876563E+00    1.2991456076373797E+01
N    3.2329451703954559E+00    6.1312951123670067E-04    1.3581643143636562E+01
Ga    3.2320132485382205E+00    2.0566160036370757E-03    1.5598892547196968E+01
N    3.2287990561270874E+00    1.8644014395842661E+00    1.6192104207258801E+01
Ga    3.2315478763016943E+00    1.8610018326224578E+00    1.8270515580582668E+01
N    3.2337930116982956E+00    4.3779670952417823E-03    1.8686020814850693E+01
Ga    1.5642355963177774E+00    2.8337976832805731E+00   -2.4540372523964345E-02
N    1.6699322744636773E+00    4.6972334629774517E+00    5.7696578164243539E-01
Ga    1.6238408208707964E+00    4.6672929587264722E+00    2.6251502107337581E+00
N    1.6091750084377763E+00    2.7955140654896748E+00    3.2076224769329444E+00
Ga    1.6130169681392341E+00    2.8001174991267619E+00    5.2216751258781011E+00
N    1.6148845074202098E+00    4.6667287237751021E+00    5.8040696075448270E+00
Ga    1.6145334867097496E+00    4.6674184353011006E+00    7.8083247677290570E+00
N    1.6154035506124775E+00    2.8014760271990720E+00    8.3969570592237925E+00
Ga    1.6148922778735100E+00    2.8003573913351318E+00    1.0400097685896265E+01
N    1.6143625417332801E+00    4.6667718308075763E+00    1.0988560027011598E+01
Ga    1.6148359874302480E+00    4.6672351719420746E+00    1.2991453725334891E+01
N    1.6152342282975949E+00    2.8014803923999887E+00    1.3581899452352392E+01
Ga    1.6158004478379486E+00    2.8025382945518489E+00    1.5599008755472179E+01
N    1.6141368450982052E+00    4.6667159035754624E+00    1.6192875455729475E+01
Ga    1.6112340672283603E+00    4.6648966196152912E+00    1.8271122567845712E+01
N    1.6175178168677600E+00    2.8047961784944024E+00    1.8684709236987619E+01
Ga    1.5425340475972720E-02    5.5475436091758361E+00   -2.6879728961829608E-02
N   -1.1859919282308467E-02    7.4459534773684206E+00    5.6174923462415371E-01
Ga   -7.5635304867713920E-03    7.4630511233387127E+00    2.6283771263522970E+00
N   -2.8924842705506724E-03    5.5938103496204574E+00    3.2067359553566694E+00
Ga   -1.5704582684813572E-03    5.5992570654395228E+00    5.2231245809818327E+00
N   -2.1409806443420864E-03    7.4655774216328261E+00    5.8078606138988782E+00
Ga   -1.8692209389974800E-03    7.4671846996529894E+00    7.8093908009387585E+00
N   -1.1402382046234987E-03    5.6012383154567189E+00    8.3968834769363543E+00
Ga   -1.6397269141549254E-03    5.6007588812952429E+00    1.0400182058258784E+01
N   -2.4067839987119777E-03    7.4671322426994431E+00    1.0988395017157329E+01
Ga   -1.9609522019376838E-03    7.4672491250548232E+00    1.2991117251479793E+01
N   -1.5225644758165937E-03    5.6018775175535058E+00    1.3582041259261743E+01
Ga   -2.1864916922173698E-03    5.6007015533579185E+00    1.5598972384955493E+01
N   -1.3036030132185501E-03    7.4671229340069649E+00    1.6196504809042231E+01
Ga   -2.2038784552203157E-03    7.4668147619428762E+00    1.8277137971137360E+01
N   -2.5984343967259435E-03    5.6042738751337415E+00    1.8685615080484979E+01
Ga    6.4370726114408976E+00   -1.0532194265970650E-02    1.4869749437327922E-02
N    6.4905963464425360E+00    1.8774543603259426E+00    5.0809038778166016E-01
Ga    6.4644344205062412E+00    1.8614338800961241E+00    2.6122742442067195E+00
N    6.4536225565695489E+00   -3.0566635614821271E-04    3.2194764004711880E+00
Ga    6.4618552230981390E+00    1.5500519628582324E-03    5.2268191602772642E+00
N    6.4652335779220049E+00    1.8676256379107430E+00    5.8063264143426521E+00
Ga    6.4641874001104735E+00    1.8673558289128103E+00    7.8096423557975285E+00
N    6.4641969648712054E+00    8.6461252768870887E-04    8.3968896875247481E+00
Ga    6.4642425603813374E+00    5.0475852287652434E-05    1.0399927777746099E+01
N    6.4631095832235532E+00    1.8662657247753687E+00    1.0988632752139679E+01
Ga    6.4637313317366099E+00    1.8668202954221684E+00    1.2991612105245412E+01
N    6.4646247289145817E+00    4.1939244429103456E-04    1.3582115584892957E+01
Ga    6.4651074000707016E+00    1.8515443081240188E-03    1.5599177999892323E+01
N    6.4609217731331832E+00    1.8652899974937500E+00    1.6192754240476788E+01
Ga    6.4596585212943340E+00    1.8637730340930996E+00    1.8271062282429991E+01
N    6.4662968119696904E+00    2.2282658189650521E-03    1.8683998902164227E+01
Ga    4.8484358471437563E+00    2.7678323238886966E+00    6.1722797875370730E-03
N    4.8355655370124166E+00    4.6354569889896045E+00    5.9460868087198016E-01
Ga    4.8425001602541977E+00    4.6571390445831042E+00    2.6351065463148280E+00
N    4.8477864113101408E+00    2.7869687185870631E+00    3.2133873267880846E+00
Ga    4.8479705638941324E+00    2.7975142074426111E+00    5.2258566260992225E+00
N    4.8462551105013780E+00    4.6650993629026871E+00    5.8059241715922107E+00
Ga    4.8467200459261646E+00    4.6671196089738425E+00    7.8087842645410612E+00
N    4.8477624523767098E+00    2.8009829910570421E+00    8.3968702608258070E+00
Ga    4.8471876923198467E+00    2.8004184662829963E+00    1.0400255523268903E+01
N    4.8462207970324105E+00    4.6668340362456133E+00    1.0988416710557331E+01
Ga    4.8465246554432326E+00    4.6673903286774312E+00    1.2991281232590431E+01
N    4.8471065492898866E+00    2.8011602841624250E+00    1.3581711632655926E+01
Ga    4.8477190235684722E+00    2.8007574516106435E+00    1.5598873301040973E+01
N    4.8459585873299762E+00    4.6660053726855883E+00    1.6196371386374512E+01
Ga    4.8450359065116606E+00    4.6671600853677937E+00    1.8276724601774074E+01
N    4.8496292659673177E+00    2.8043117203312553E+00    1.8686781055681838E+01
Ga    3.2874673956660865E+00    5.6598626440074380E+00    8.9076355242521856E-03
N    3.1991555189891803E+00    7.4988469992049049E+00    6.3837143586022582E-01
Ga    3.2239438637605606E+00    7.4707805049976468E+00    2.6379294530016484E+00
N    3.2345091778592496E+00    5.6001467598296131E+00    3.2208698111514655E+00
Ga    3.2319298644537584E+00    5.6022711268211731E+00    5.2245886597127367E+00
N    3.2284029639994030E+00    7.4684883034298393E+00    5.8067079438385250E+00
Ga    3.2296178928905412E+00    7.4680860972256431E+00    7.8086068899807257E+00
N    3.2307163642972934E+00    5.6014763795450992E+00    8.3964258674707555E+00
Ga    3.2304422881547596E+00    5.6010823537716981E+00    1.0400044871438812E+01
N    3.2296640438725626E+00    7.4673217735204229E+00    1.0988645096459310E+01
Ga    3.2297211360058755E+00    7.4676978548223305E+00    1.2991534186688659E+01
N    3.2307776824871257E+00    5.6015030948767013E+00    1.3581564164265465E+01
Ga    3.2294675674423381E+00    5.6031580792179136E+00    1.5598732339709509E+01
N    3.2310316305621720E+00    7.4658015056377254E+00    1.6193397047840485E+01
Ga    3.2307491506867447E+00    7.4626766041857380E+00    1.8272249912542872E+01
N    3.2304184292934970E+00    5.6036431592141733E+00    1.8685803548286021E+01
     &END COORD
     &KIND N
       BASIS_SET DZVP-MOLOPT-SR-GTH
       POTENTIAL GTH-PBE-q5
       &POTENTIAL
 2 3
  0.2837905100000000E+00 2 -0.1241522559000000E+02  0.1868095920000000E+01
 2
  0.2554050000000000E+00 1  0.1363026257000000E+02
  0.2454945300000000E+00 0
         # Potential name:  GTH-PBE-Q5  for symbol:  N
         # Potential read from the potential filename: GTH_POTENTIALS
       &END POTENTIAL
     &END KIND
     &KIND Ga
       BASIS_SET DZVP-MOLOPT-SR-GTH
       POTENTIAL GTH-PBE-q13
       &POTENTIAL
 2 1 10
  0.4900000000000000E+00 0
 3
  0.4167772300000000E+00 3  0.1047568975000000E+02 -0.4921768140000000E+01  0.8707055900000000E+00
  0.7770178090000000E+01 -0.2248152160000000E+01
  0.1784415450000000E+01
  0.5696265200000000E+00 2  0.1777985340000000E+01  0.1958597600000000E+00
 -0.2317443900000000E+00
  0.2381265000000000E+00 1 -0.1624868022000000E+02
         # Potential name:  GTH-PBE-Q13  for symbol:  GA
         # Potential read from the potential filename: GTH_POTENTIALS
       &END POTENTIAL
     &END KIND
     &TOPOLOGY
       COORD_FILE_NAME 334-native.xyz
       COORD_FILE_FORMAT  XYZ
       NUMBER_OF_ATOMS  144
       MULTIPLE_UNIT_CELL  1 1 1
     &END TOPOLOGY
   &END SUBSYS
 &END FORCE_EVAL
