 # Version information for this restart file 
 # current date 2019-05-16 03:56:44.214
 # current working dir /lustre03/project/6004141/rzk/GaN-carbene/00-Surface/00-Preoptimization/334-native/Trial4
 # Program compiled at                              Sun Apr  7 00:48:11 EDT 2019
 # Program compiled on                          beluga2.int.ets1.calculquebec.ca
 # Program compiled for                        Beluga-Linux-x86-64-intel-openmpi
 # Source code revision number                                         svn:18619
 &GLOBAL
   PRINT_LEVEL  MEDIUM
   PROJECT_NAME TEST
   RUN_TYPE  CELL_OPT
 &END GLOBAL
 &MOTION
   &CELL_OPT
     MAX_ITER  100
     STEP_START_VAL  56
     EXTERNAL_PRESSURE     1.0000000000000000E+00
     KEEP_ANGLES  T
     KEEP_SYMMETRY  T
     CONSTRAINT  Z
     PRESSURE_TOLERANCE     1.0000000000000000E+02
   &END CELL_OPT
 &END MOTION
 &FORCE_EVAL
   METHOD  QS
   STRESS_TENSOR  ANALYTICAL
   &DFT
     BASIS_SET_FILE_NAME BASIS_MOLOPT
     POTENTIAL_FILE_NAME GTH_POTENTIALS
     &SCF
       MAX_SCF  100
       EPS_SCF     5.0000000000000004E-06
       &OT  T
         PRECONDITIONER  FULL_ALL
       &END OT
       &OUTER_SCF  T
         OPTIMIZER  NONE
         EPS_SCF     5.0000000000000004E-06
         MAX_SCF  10
       &END OUTER_SCF
       &PRINT
         &RESTART  OFF
           BACKUP_COPIES  1
           &EACH
             JUST_ENERGY  0
             QS_SCF  0
             MD  20
           &END EACH
         &END RESTART
       &END PRINT
     &END SCF
     &ALMO_SCF
       EPS_FILTER     9.9999999999999994E-12
       ALMO_SCF_GUESS  ATOMIC
       MO_OVERLAP_INV_ALG  DENSE_CHOLESKY
       ALMO_EXTRAPOLATION_ORDER  4
       XALMO_EXTRAPOLATION_ORDER  4
       ALMO_ALGORITHM  SKIP
       XALMO_TRIAL_WF  SIMPLE
       DELOCALIZE_METHOD  XALMO_SCF
       XALMO_R_CUTOFF_FACTOR     1.8000000000000000E+00
       &ALMO_OPTIMIZER_DIIS
         MAX_ITER  100
         EPS_ERROR     1.0000000000000001E-05
         N_DIIS  5
       &END ALMO_OPTIMIZER_DIIS
       &ALMO_OPTIMIZER_PCG
         MAX_ITER  50
         EPS_ERROR     1.0000000000000001E-05
         LIN_SEARCH_EPS_ERROR     5.0000000000000003E-02
         LIN_SEARCH_STEP_SIZE_GUESS     5.0000000000000001E-03
         CONJUGATOR  DAI_YUAN
         MAX_ITER_OUTER_LOOP  10
       &END ALMO_OPTIMIZER_PCG
       &XALMO_OPTIMIZER_PCG
         MAX_ITER  1000
         EPS_ERROR     1.0000000000000001E-05
         LIN_SEARCH_EPS_ERROR     1.0000000000000001E-01
         LIN_SEARCH_STEP_SIZE_GUESS     1.0000000000000000E-02
         CONJUGATOR  DAI_YUAN
         PRECOND_FILTER_THRESHOLD     1.0000000000000000E-03
         MAX_ITER_OUTER_LOOP  0
       &END XALMO_OPTIMIZER_PCG
       &MATRIX_ITERATE
         EPS_TARGET_FACTOR     1.0000000000000000E+01
       &END MATRIX_ITERATE
     &END ALMO_SCF
     &QS
       EPS_DEFAULT     1.0000000000000000E-14
       ALMO_SCF  F
       METHOD  GPW
     &END QS
     &MGRID
       NGRIDS  5
       CUTOFF     1.2000000000000000E+03
     &END MGRID
     &XC
       DENSITY_CUTOFF     1.0000000000000000E-10
       GRADIENT_CUTOFF     1.0000000000000000E-10
       TAU_CUTOFF     1.0000000000000000E-10
       &XC_FUNCTIONAL  NO_SHORTCUT
         &PBE  T
         &END PBE
       &END XC_FUNCTIONAL
       &VDW_POTENTIAL
         POTENTIAL_TYPE  PAIR_POTENTIAL
         &PAIR_POTENTIAL
           R_CUTOFF     1.0000000000000002E+01
           TYPE  DFTD3
           PARAMETER_FILE_NAME dftd3.dat
           REFERENCE_FUNCTIONAL PBE
           EPS_CN     9.9999999999999995E-07
           CALCULATE_C9_TERM  T
           REFERENCE_C9_TERM  T
           LONG_RANGE_CORRECTION  F
           VERBOSE_OUTPUT  F
         &END PAIR_POTENTIAL
       &END VDW_POTENTIAL
     &END XC
   &END DFT
   &SUBSYS
     &CELL
       A     9.7471441637121625E+00    0.0000000000000000E+00    0.0000000000000000E+00
       B    -4.8520773495978693E+00    8.4040444917576398E+00    0.0000000000000000E+00
       C     0.0000000000000000E+00    0.0000000000000000E+00    3.0744000000000000E+01
       MULTIPLE_UNIT_CELL  1 1 1
       &CELL_REF
         A     9.5580000000000016E+00    0.0000000000000000E+00    0.0000000000000000E+00
         B    -4.7790000000000008E+00    8.2774708093716640E+00    0.0000000000000000E+00
         C     0.0000000000000000E+00    0.0000000000000000E+00    3.0744000000000000E+01
         MULTIPLE_UNIT_CELL  1 1 1
       &END CELL_REF
     &END CELL
     &COORD
Ga   -2.5399023501828490E-03   -4.1564010784850134E-04   -5.8236623509525431E-01
N    6.8294275382747441E-03    1.8692867910257904E+00    5.6713712825155060E-01
Ga    5.0460800608905509E-03    1.8386180451067617E+00    2.5983180044361593E+00
N   -1.0695798434249924E-03   -3.5083953709410436E-03    3.2306260282551111E+00
Ga    6.5812489565384975E-04   -6.7134799628156797E-04    5.2211345139681331E+00
N    6.8429236256433990E-03    1.8736164189790503E+00    5.8066982062834507E+00
Ga    6.9007876711559132E-03    1.8718157965137232E+00    7.8058785586710089E+00
N    7.9011731917601679E-04   -9.2169290758506623E-04    8.4072900418245062E+00
Ga    2.1890312021594308E-03    6.0583383798833417E-04    1.0405339571288778E+01
N    7.7120054315897779E-03    1.8699038069551928E+00    1.1013373793521787E+01
Ga    6.0616040548360254E-03    1.8702495790172691E+00    1.3009723079568412E+01
N    3.7660397077483800E-04   -3.5832605096184505E-04    1.3623166013230001E+01
Ga   -1.6255696899025885E-02   -6.6260795494992126E-03    1.5631452550435050E+01
N   -6.1006394306586196E-03    1.8823987355296421E+00    1.6217792633654604E+01
Ga    2.2648535271248556E-02    1.9084002638451887E+00    1.8297493743283006E+01
N    7.8138072808538045E-03    1.4195093832725957E-02    1.8653224229479836E+01
Ga   -1.6160988458714005E+00    2.7992715512227901E+00    2.7847859088882410E-01
N   -1.6167056900338845E+00    4.6675925328392722E+00    5.6497172917957239E-01
Ga   -1.5876428041656261E+00    4.6825746256007417E+00    2.5947555383105363E+00
N   -1.6188444022318580E+00    2.7982653504441646E+00    3.1871351036797391E+00
Ga   -1.6170959083344238E+00    2.8010824984153317E+00    5.1987692666788750E+00
N   -1.6129856963166866E+00    4.6702737641522125E+00    5.8068454000039447E+00
Ga   -1.6122917251104085E+00    4.6706882144412187E+00    7.8061130050148000E+00
N   -1.6169332317430063E+00    2.8008262845287888E+00    8.4110435526151335E+00
Ga   -1.6154494734603839E+00    2.8014960589550983E+00    1.0408171131945581E+01
N   -1.6067574855963482E+00    4.6726300241412329E+00    1.1014456534432991E+01
Ga   -1.6063211702066351E+00    4.6709642734970371E+00    1.3010060596779310E+01
N   -1.6185507434961419E+00    2.8006078711560813E+00    1.3609954840955714E+01
Ga   -1.6328049384617178E+00    2.7886342020064454E+00    1.5611563125159559E+01
N   -1.6266436710302221E+00    4.6706808247139975E+00    1.6210831511251882E+01
Ga   -1.6073436131926655E+00    4.6809644093986815E+00    1.8286741686373880E+01
N   -1.6164226963553283E+00    2.8001639563454073E+00    1.8696552896639261E+01
Ga   -3.2349161747877853E+00    5.6005577652431695E+00    2.7880158557820189E-01
N   -3.2263378490632544E+00    7.4707316888248361E+00    5.6616786964008992E-01
Ga   -3.2547206190827991E+00    7.4845587729941272E+00    2.5970268900239035E+00
N   -3.2355430188985528E+00    5.6000416988525963E+00    3.1877324439269974E+00
Ga   -3.2340200960596652E+00    5.6024953817436574E+00    5.1987620019447638E+00
N   -3.2250804239524302E+00    7.4708952265516579E+00    5.8075777516330120E+00
Ga   -3.2262159571064375E+00    7.4703609110630760E+00    7.8065009861919998E+00
N   -3.2344661950745377E+00    5.6013646654175142E+00    8.4145478656840087E+00
Ga   -3.2336065710625079E+00    5.6016334043500668E+00    1.0412355649203041E+01
N   -3.2276378225713702E+00    7.4737803988581142E+00    1.1015170641386016E+01
Ga   -3.2302548846329584E+00    7.4715507888534614E+00    1.3011749645089591E+01
N   -3.2356862600225784E+00    5.5959154610477952E+00    1.3607609211001577E+01
Ga   -3.2506763094538367E+00    5.5835418572531434E+00    1.5605510317310729E+01
N   -3.2437929752432066E+00    7.4552644163400581E+00    1.6204274782898064E+01
Ga   -3.2227968322698821E+00    7.4899786478985630E+00    1.8275940925352984E+01
N   -3.2430915150755757E+00    5.6003795428543093E+00    1.8633447150399039E+01
Ga    3.2495746229121960E+00   -4.2249494589078149E-03    2.8240494415264700E-01
N    3.2511584051427320E+00    1.8672118624382033E+00    5.6621692802094448E-01
Ga    3.2770691498315561E+00    1.8809000999851271E+00    2.6002343541092738E+00
N    3.2469808726094409E+00   -3.3901200964153310E-03    3.1879436624990345E+00
Ga    3.2488144531412462E+00   -7.8354701493110930E-04    5.1990464452590981E+00
N    3.2530193598292794E+00    1.8689875077837479E+00    5.8061009677246789E+00
Ga    3.2539633813896813E+00    1.8687182831197382E+00    7.8054034182951968E+00
N    3.2494274020244673E+00   -1.3577387398365289E-03    8.4095387883429549E+00
Ga    3.2495193173193524E+00   -9.8219367971333761E-04    1.0406517693645389E+01
N    3.2550595943435829E+00    1.8688882205981892E+00    1.1011675929238216E+01
Ga    3.2484711999617102E+00    1.8617275222420409E+00    1.3008093416475283E+01
N    3.2444694384637902E+00   -7.5030146733763492E-03    1.3625885500959974E+01
Ga    3.2383070385402104E+00   -1.5814925038384258E-02    1.5632547077858060E+01
N    3.2235528769038133E+00    1.8632951849587067E+00    1.6211185212103626E+01
Ga    3.2581086515891826E+00    1.8922672707813217E+00    1.8283591696604820E+01
N    3.2536988853820303E+00   -5.9910921707885647E-03    1.8628607344505262E+01
Ga    1.6291364885338608E+00    2.8002152627174253E+00    2.7967240291666723E-01
N    1.6427190169890284E+00    4.6692449466110455E+00    5.6407309428825647E-01
Ga    1.6125636635243981E+00    4.6830891578400857E+00    2.5939367907699244E+00
N    1.6298848149491492E+00    2.7988679379984056E+00    3.1881128085796115E+00
Ga    1.6316180625484771E+00    2.8017666597318218E+00    5.1993837564643597E+00
N    1.6414302875923021E+00    4.6705740406153735E+00    5.8074662818687663E+00
Ga    1.6402408299369722E+00    4.6706136382673682E+00    7.8065285862305220E+00
N    1.6320105709789041E+00    2.8005590366513808E+00    8.4105884864738147E+00
Ga    1.6318293717059538E+00    2.8007021148583022E+00    1.0407474824101637E+01
N    1.6363034332445354E+00    4.6724886821615774E+00    1.1010333995989642E+01
Ga    1.6305235676915637E+00    4.6689906653191446E+00    1.3004964637938366E+01
N    1.6293260663977684E+00    2.7998271435932134E+00    1.3612286403033618E+01
Ga    1.6176468504779462E+00    2.7945717567083537E+00    1.5615054715264082E+01
N    1.6358897922836242E+00    4.6695639624760368E+00    1.6206557825063872E+01
Ga    1.6559587340534483E+00    4.6850570268752234E+00    1.8281129879959572E+01
N    1.6400610653838577E+00    2.8074585115449739E+00    1.8721373370380444E+01
Ga    1.4729999891779996E-02    5.6046354418927100E+00   -5.9058537921356857E-01
N    2.1579007488172156E-02    7.4740441252648591E+00    5.6779301516675185E-01
Ga    1.9589587765001856E-02    7.4419492570895409E+00    2.5973204928552232E+00
N    1.3348726265985007E-02    5.5990691746810857E+00    3.2280719989880118E+00
Ga    1.4935624535901198E-02    5.6019588398748494E+00    5.2188940744316037E+00
N    2.1382120130138068E-02    7.4759938630560860E+00    5.8057918008814404E+00
Ga    2.1689559967987659E-02    7.4744679675069676E+00    7.8047566395070325E+00
N    1.4424588369723639E-02    5.6026536732917878E+00    8.4061605631098484E+00
Ga    1.4729606433321590E-02    5.6046392156832399E+00    1.0403377258133375E+01
N    2.0642038345118189E-02    7.4731093542579847E+00    1.1015127698292206E+01
Ga    1.7532118375835074E-02    7.4699774286906875E+00    1.3013417866287494E+01
N    1.3680450890842039E-02    5.6027024802369727E+00    1.3631913689865893E+01
Ga    4.9589895937611535E-03    5.5991903822542701E+00    1.5640748175441511E+01
N    1.6160978080049487E-02    7.4785320057061284E+00    1.6211229078298530E+01
Ga    3.3993086018339551E-02    7.4781547313030732E+00    1.8273925441461941E+01
N    1.4501325580827153E-02    5.5861004212388030E+00    1.8665289372575035E+01
Ga    6.4961465297463512E+00   -4.0889901773998290E-03    2.8137826597188215E-01
N    6.5065357947050817E+00    1.8680495771925543E+00    5.6322120753926630E-01
Ga    6.4796019382842385E+00    1.8816028865612415E+00    2.5981610590012778E+00
N    6.4967160969974058E+00   -2.3463055802739646E-03    3.1891139084549978E+00
Ga    6.4986407391187768E+00   -1.5128885912313309E-04    5.1999395019331249E+00
N    6.5078949791664131E+00    1.8689392205108895E+00    5.8076528507129934E+00
Ga    6.5065104390628372E+00    1.8681757484606112E+00    7.8070731119334313E+00
N    6.4982217647119453E+00   -1.5370834630169018E-03    8.4122022225638684E+00
Ga    6.4993665159704426E+00   -8.6849882046797144E-04    1.0409786040036661E+01
N    6.5064413189813166E+00    1.8707804312959111E+00    1.1011279239451241E+01
Ga    6.5060250586333224E+00    1.8649026900957859E+00    1.3007979108957882E+01
N    6.4986174948479611E+00   -8.2226344551655089E-03    1.3608051054951861E+01
Ga    6.4846452881699994E+00   -1.9147023278592121E-02    1.5608696072284461E+01
N    6.5052587237279997E+00    1.8609210198257282E+00    1.6188990509371294E+01
Ga    6.5288355643162017E+00    1.8919710059940487E+00    1.8247729562662158E+01
N    6.5095456942249577E+00   -1.6838666471518280E-03    1.8603754985656462E+01
Ga    4.8790607740508021E+00    2.8009542899913495E+00   -5.4982050435859142E-01
N    4.8880322198804000E+00    4.6700368576024704E+00    5.6573986568373780E-01
Ga    4.8865689707180495E+00    4.6412626890004356E+00    2.5997725659865600E+00
N    4.8791057401522071E+00    2.7980042386716240E+00    3.2291528184800824E+00
Ga    4.8812399179550159E+00    2.8010397653917281E+00    5.2211493635283457E+00
N    4.8881932651810427E+00    4.6749153832458443E+00    5.8074865811744925E+00
Ga    4.8876558895229589E+00    4.6727098017788684E+00    7.8074154169529892E+00
N    4.8805660581206043E+00    2.7996772201980566E+00    8.4075069172165744E+00
Ga    4.8811191612300169E+00    2.7984448480457833E+00    1.0405676913758109E+01
N    4.8888493904322896E+00    4.6672498963563820E+00    1.1014697914121003E+01
Ga    4.8865908257362243E+00    4.6578726062619973E+00    1.3011316835418320E+01
N    4.8753719816096757E+00    2.7803140478724573E+00    1.3613777480012663E+01
Ga    4.8628819041565272E+00    2.7655517697266494E+00    1.5617434392374873E+01
N    4.8720486058132133E+00    4.6537773396543400E+00    1.6149432507671289E+01
Ga    4.8968745114619479E+00    4.6862879818704632E+00    1.8196063994723627E+01
N    4.8907924702638566E+00    2.8047767590529555E+00    1.8610879408650970E+01
Ga    3.2633245319971196E+00    5.6004085414266331E+00    2.8228155731922744E-01
N    3.2656887391188349E+00    7.4700598384891812E+00    5.7076747991164911E-01
Ga    3.2931272036192922E+00    7.4846113142761554E+00    2.6004851755173055E+00
N    3.2621106660943826E+00    5.5993593149334533E+00    3.1876769688218176E+00
Ga    3.2638561360718379E+00    5.6022710894883003E+00    5.1989991063819989E+00
N    3.2676691797859445E+00    7.4714814720064000E+00    5.8074673116468825E+00
Ga    3.2683964422860954E+00    7.4709562663249098E+00    7.8071704609994921E+00
N    3.2639763565523503E+00    5.6013513985886805E+00    8.4130643541140451E+00
Ga    3.2654348289652941E+00    5.6014931808295847E+00    1.0410747527949155E+01
N    3.2736923297252400E+00    7.4736617826363441E+00    1.1011559585457320E+01
Ga    3.2727326716551390E+00    7.4721238592656292E+00    1.3007043360157521E+01
N    3.2606008021681960E+00    5.5949943817386139E+00    1.3595160426729750E+01
Ga    3.2476156665402760E+00    5.5859752120903359E+00    1.5589997787975157E+01
N    3.2601316394038764E+00    7.4533905420474795E+00    1.6181958199609053E+01
Ga    3.2953556672420712E+00    7.4992025504498825E+00    1.8241855486448102E+01
N    3.2810328749810873E+00    5.6103033164763154E+00    1.8624634976961417E+01
     &END COORD
     &KIND N
       BASIS_SET DZVP-MOLOPT-SR-GTH
       POTENTIAL GTH-PBE-q5
       &POTENTIAL
 2 3
  0.2837905100000000E+00 2 -0.1241522559000000E+02  0.1868095920000000E+01
 2
  0.2554050000000000E+00 1  0.1363026257000000E+02
  0.2454945300000000E+00 0
         # Potential name:  GTH-PBE-Q5  for symbol:  N
         # Potential read from the potential filename: GTH_POTENTIALS
       &END POTENTIAL
     &END KIND
     &KIND Ga
       BASIS_SET DZVP-MOLOPT-SR-GTH
       POTENTIAL GTH-PBE-q13
       &POTENTIAL
 2 1 10
  0.4900000000000000E+00 0
 3
  0.4167772300000000E+00 3  0.1047568975000000E+02 -0.4921768140000000E+01  0.8707055900000000E+00
  0.7770178090000000E+01 -0.2248152160000000E+01
  0.1784415450000000E+01
  0.5696265200000000E+00 2  0.1777985340000000E+01  0.1958597600000000E+00
 -0.2317443900000000E+00
  0.2381265000000000E+00 1 -0.1624868022000000E+02
         # Potential name:  GTH-PBE-Q13  for symbol:  GA
         # Potential read from the potential filename: GTH_POTENTIALS
       &END POTENTIAL
     &END KIND
     &TOPOLOGY
       COORD_FILE_NAME 334-native.xyz
       COORD_FILE_FORMAT  XYZ
       NUMBER_OF_ATOMS  144
       MULTIPLE_UNIT_CELL  1 1 1
     &END TOPOLOGY
   &END SUBSYS
 &END FORCE_EVAL
