 # Version information for this restart file 
 # current date 2019-05-16 02:18:53.017
 # current working dir /lustre03/project/6004141/rzk/GaN-carbene/00-Surface/00-Preoptimization/334-native/Trial4
 # Program compiled at                              Sun Apr  7 00:48:11 EDT 2019
 # Program compiled on                          beluga2.int.ets1.calculquebec.ca
 # Program compiled for                        Beluga-Linux-x86-64-intel-openmpi
 # Source code revision number                                         svn:18619
 &GLOBAL
   PRINT_LEVEL  MEDIUM
   PROJECT_NAME TEST
   RUN_TYPE  CELL_OPT
 &END GLOBAL
 &MOTION
   &CELL_OPT
     MAX_ITER  100
     STEP_START_VAL  15
     EXTERNAL_PRESSURE     1.0000000000000000E+00
     KEEP_ANGLES  T
     KEEP_SYMMETRY  T
     CONSTRAINT  Z
     PRESSURE_TOLERANCE     1.0000000000000000E+02
   &END CELL_OPT
 &END MOTION
 &FORCE_EVAL
   METHOD  QS
   STRESS_TENSOR  ANALYTICAL
   &DFT
     BASIS_SET_FILE_NAME BASIS_MOLOPT
     POTENTIAL_FILE_NAME GTH_POTENTIALS
     &SCF
       MAX_SCF  100
       EPS_SCF     5.0000000000000004E-06
       &OT  T
         PRECONDITIONER  FULL_ALL
       &END OT
       &OUTER_SCF  T
         OPTIMIZER  NONE
         EPS_SCF     5.0000000000000004E-06
         MAX_SCF  10
       &END OUTER_SCF
       &PRINT
         &RESTART  OFF
           BACKUP_COPIES  1
           &EACH
             JUST_ENERGY  0
             QS_SCF  0
             MD  20
           &END EACH
         &END RESTART
       &END PRINT
     &END SCF
     &ALMO_SCF
       EPS_FILTER     9.9999999999999994E-12
       ALMO_SCF_GUESS  ATOMIC
       MO_OVERLAP_INV_ALG  DENSE_CHOLESKY
       ALMO_EXTRAPOLATION_ORDER  4
       XALMO_EXTRAPOLATION_ORDER  4
       ALMO_ALGORITHM  SKIP
       XALMO_TRIAL_WF  SIMPLE
       DELOCALIZE_METHOD  XALMO_SCF
       XALMO_R_CUTOFF_FACTOR     1.8000000000000000E+00
       &ALMO_OPTIMIZER_DIIS
         MAX_ITER  100
         EPS_ERROR     1.0000000000000001E-05
         N_DIIS  5
       &END ALMO_OPTIMIZER_DIIS
       &ALMO_OPTIMIZER_PCG
         MAX_ITER  50
         EPS_ERROR     1.0000000000000001E-05
         LIN_SEARCH_EPS_ERROR     5.0000000000000003E-02
         LIN_SEARCH_STEP_SIZE_GUESS     5.0000000000000001E-03
         CONJUGATOR  DAI_YUAN
         MAX_ITER_OUTER_LOOP  10
       &END ALMO_OPTIMIZER_PCG
       &XALMO_OPTIMIZER_PCG
         MAX_ITER  1000
         EPS_ERROR     1.0000000000000001E-05
         LIN_SEARCH_EPS_ERROR     1.0000000000000001E-01
         LIN_SEARCH_STEP_SIZE_GUESS     1.0000000000000000E-02
         CONJUGATOR  DAI_YUAN
         PRECOND_FILTER_THRESHOLD     1.0000000000000000E-03
         MAX_ITER_OUTER_LOOP  0
       &END XALMO_OPTIMIZER_PCG
       &MATRIX_ITERATE
         EPS_TARGET_FACTOR     1.0000000000000000E+01
       &END MATRIX_ITERATE
     &END ALMO_SCF
     &QS
       EPS_DEFAULT     1.0000000000000000E-14
       ALMO_SCF  F
       METHOD  GPW
     &END QS
     &MGRID
       NGRIDS  5
       CUTOFF     1.2000000000000000E+03
     &END MGRID
     &XC
       DENSITY_CUTOFF     1.0000000000000000E-10
       GRADIENT_CUTOFF     1.0000000000000000E-10
       TAU_CUTOFF     1.0000000000000000E-10
       &XC_FUNCTIONAL  NO_SHORTCUT
         &PBE  T
         &END PBE
       &END XC_FUNCTIONAL
       &VDW_POTENTIAL
         POTENTIAL_TYPE  PAIR_POTENTIAL
         &PAIR_POTENTIAL
           R_CUTOFF     1.0000000000000002E+01
           TYPE  DFTD3
           PARAMETER_FILE_NAME dftd3.dat
           REFERENCE_FUNCTIONAL PBE
           EPS_CN     9.9999999999999995E-07
           CALCULATE_C9_TERM  T
           REFERENCE_C9_TERM  T
           LONG_RANGE_CORRECTION  F
           VERBOSE_OUTPUT  F
         &END PAIR_POTENTIAL
       &END VDW_POTENTIAL
     &END XC
   &END DFT
   &SUBSYS
     &CELL
       A     9.6811215229538572E+00    0.0000000000000000E+00    0.0000000000000000E+00
       B    -4.8706789658154230E+00    8.4362634361493285E+00    0.0000000000000000E+00
       C     0.0000000000000000E+00    0.0000000000000000E+00    3.0744000000000000E+01
       MULTIPLE_UNIT_CELL  1 1 1
       &CELL_REF
         A     9.5580000000000016E+00    0.0000000000000000E+00    0.0000000000000000E+00
         B    -4.7790000000000008E+00    8.2774708093716640E+00    0.0000000000000000E+00
         C     0.0000000000000000E+00    0.0000000000000000E+00    3.0744000000000000E+01
         MULTIPLE_UNIT_CELL  1 1 1
       &END CELL_REF
     &END CELL
     &COORD
Ga    3.5254790993547776E-03   -1.2027222234041603E-01   -6.4497600360577667E-02
N   -8.2009527414448283E-03    1.7976505703756960E+00    5.4052825136673222E-01
Ga   -9.3403627804478986E-03    1.8491527337590374E+00    2.5944150042643379E+00
N    1.2574972247422845E-03   -3.2079587603805223E-03    3.2205644599002219E+00
Ga    1.0837874158139799E-03    2.4421364098427848E-03    5.2267923446914333E+00
N   -9.8453124255396193E-03    1.8739020921503373E+00    5.8075408680281617E+00
Ga   -8.0450540506162693E-03    1.8749117287111643E+00    7.8116372502087179E+00
N    1.1073940735808949E-03    2.5091992620632111E-03    8.3986232165022159E+00
Ga    9.2351115312375132E-04    1.6015445699445862E-03    1.0401776721521959E+01
N   -7.6364422062417002E-03    1.8723003287795794E+00    1.0992232040256047E+01
Ga   -6.8835176095376803E-03    1.8750248939846053E+00    1.2997988319899138E+01
N    5.3633057759383783E-03    5.0412697061888202E-03    1.3600363829795290E+01
Ga    7.3000599134416585E-03    1.1210787430220893E-02    1.5618638126524885E+01
N   -1.2027682805263916E-02    1.8764508199617427E+00    1.6196919363586918E+01
Ga   -1.2868605659510863E-02    1.8622251387350595E+00    1.8276846309246711E+01
N    7.4843459305107421E-03    1.5073761780770450E-02    1.8670469064099802E+01
Ga   -1.5389751492027337E+00    2.8681480300319371E+00   -4.2981576034536992E-02
N   -1.6980118810544642E+00    4.7232105059609584E+00    5.5310426987820771E-01
Ga   -1.6485732164540663E+00    4.6924519845560981E+00    2.6006955124492328E+00
N   -1.6143083685804434E+00    2.8154713798099302E+00    3.1812311066746721E+00
Ga   -1.6191733167080498E+00    2.8141047854323626E+00    5.2059045241267965E+00
N   -1.6317536557147774E+00    4.6821580281536228E+00    5.8049712524220451E+00
Ga   -1.6301061570222211E+00    4.6845563095043614E+00    7.8106426053128715E+00
N   -1.6218664755618366E+00    2.8147323177813957E+00    8.4005412732181490E+00
Ga   -1.6226139075493053E+00    2.8132423584080910E+00    1.0402603834211577E+01
N   -1.6311982643482843E+00    4.6848362084563844E+00    1.0992675549937315E+01
Ga   -1.6316915072674418E+00    4.6841888652305705E+00    1.2998993314812173E+01
N   -1.6203748769808286E+00    2.8150337689864520E+00    1.3595598609790830E+01
Ga   -1.6246988908585189E+00    2.8140410175128374E+00    1.5611918251744019E+01
N   -1.6398729558936287E+00    4.6806248651047166E+00    1.6186272930412855E+01
Ga   -1.6437444578724325E+00    4.6666608380370551E+00    1.8260010183378114E+01
N   -1.6148609325368561E+00    2.8237838544848262E+00    1.8671683864885782E+01
Ga   -3.3362194288692595E+00    5.6955532102896260E+00   -2.3899637426052341E-02
N   -3.1989938302153291E+00    7.5298345712966199E+00    6.3833910013344908E-01
Ga   -3.2468618409211212E+00    7.5003161714719857E+00    2.6521891024954103E+00
N   -3.2545816976486015E+00    5.6238129180656857E+00    3.2142728817351163E+00
Ga   -3.2475701174931886E+00    5.6238812624883394E+00    5.2238918366530447E+00
N   -3.2531798545936614E+00    7.4967891853027586E+00    5.8097190074580460E+00
Ga   -3.2540381208226368E+00    7.4973794347174652E+00    7.8142454071911498E+00
N   -3.2454978432282515E+00    5.6256022293374786E+00    8.3987783582820192E+00
Ga   -3.2462342196446494E+00    5.6252664102988099E+00    1.0402123426957488E+01
N   -3.2550060269243537E+00    7.4968142490217495E+00    1.0992242176175374E+01
Ga   -3.2525105992105661E+00    7.4958084191741667E+00    1.2998916797098023E+01
N   -3.2459460440538512E+00    5.6253925641744287E+00    1.3596332312729109E+01
Ga   -3.2499844376008298E+00    5.6313508578999283E+00    1.5612433337383299E+01
N   -3.2569708969557443E+00    7.4837342152119630E+00    1.6193005080322695E+01
Ga   -3.2590951793868754E+00    7.4824348414807202E+00    1.8269628411476997E+01
N   -3.2401262098432890E+00    5.6399577186396987E+00    1.8668921035029509E+01
Ga    3.2784742582696564E+00    3.5244163437126538E-02    4.1571905731755253E-02
N    3.1640461680745102E+00    1.9085766014617955E+00    5.5414601841029631E-01
Ga    3.2054068386362951E+00    1.8776902405321483E+00    2.6235549276816950E+00
N    3.2405294577640738E+00    9.0715140698485568E-03    3.2125502086815354E+00
Ga    3.2323384377110718E+00    4.4104613894698826E-03    5.2306417549429574E+00
N    3.2163857863559602E+00    1.8765256376916990E+00    5.8080530507304013E+00
Ga    3.2187270941221864E+00    1.8752439418486362E+00    7.8142548496062769E+00
N    3.2290789545043355E+00    2.6470724787442971E-03    8.3985155986922866E+00
Ga    3.2280632604858215E+00    1.5983667621186567E-03    1.0402560608890445E+01
N    3.2187705031659637E+00    1.8727526761058615E+00    1.0992028696609232E+01
Ga    3.2174392791265496E+00    1.8720040155734696E+00    1.2999326114172460E+01
N    3.2292770238378967E+00    1.7295271007980806E-03    1.3594768617172928E+01
Ga    3.2355816809774063E+00    8.1682560402494015E-03    1.5611232697234080E+01
N    3.2037316575610753E+00    1.8622261113979988E+00    1.6190195135276127E+01
Ga    3.2148874188415628E+00    1.8608023108081562E+00    1.8266298726782850E+01
N    3.2356703509266556E+00    1.1346338081464857E-02    1.8661106349457775E+01
Ga    1.5244918055488328E+00    2.8693216189940558E+00   -3.7079944524814550E-02
N    1.6658209060301290E+00    4.7252449496729598E+00    5.7038872856516520E-01
Ga    1.6108245770729459E+00    4.6914929464634092E+00    2.6194705057002357E+00
N    1.5906839641482549E+00    2.8141404297353714E+00    3.1922587839399110E+00
Ga    1.5982797905977404E+00    2.8133421907365617E+00    5.2150364364865869E+00
N    1.5953504517032324E+00    4.6837078620390695E+00    5.8049016748184750E+00
Ga    1.5954905185946420E+00    4.6852399810235923E+00    7.8106032684661155E+00
N    1.6040846317153064E+00    2.8148474838008966E+00    8.3994518489250289E+00
Ga    1.6038634507562275E+00    2.8134795274313462E+00    1.0402349757099417E+01
N    1.5956169406045360E+00    4.6848901191494408E+00    1.0992435575326359E+01
Ga    1.5943939261008291E+00    4.6846163348612171E+00    1.3000119860416481E+01
N    1.6042353271619718E+00    2.8158707092047774E+00    1.3597022734041108E+01
Ga    1.6071171637191337E+00    2.8267529112901593E+00    1.5615807017541583E+01
N    1.5963842951882146E+00    4.6913164951693060E+00    1.6193517928108122E+01
Ga    1.5892816967173691E+00    4.6715046385117267E+00    1.8270410294991578E+01
N    1.6166258138511369E+00    2.8286391298717510E+00    1.8666389564400994E+01
Ga   -1.4317566100442576E-02    5.5348239357061457E+00   -5.7077967576620349E-02
N   -2.6943363906955935E-02    7.4370751529599390E+00    5.6255294340836492E-01
Ga   -2.8795125920417029E-02    7.4798797965218728E+00    2.6271166672947892E+00
N   -2.1814679045288152E-02    5.6108277968328419E+00    3.1957610251329855E+00
Ga   -2.0665027747891241E-02    5.6198479888038095E+00    5.2151472509814027E+00
N   -2.7020775221932098E-02    7.4918842440841233E+00    5.8091262021859356E+00
Ga   -2.6763212159933460E-02    7.4954715121305737E+00    7.8143458504571814E+00
N   -1.8727038382198746E-02    5.6251947897667431E+00    8.3993803844530301E+00
Ga   -1.9184336228377522E-02    5.6252595036342408E+00    1.0402208532681232E+01
N   -2.7567487185651510E-02    7.4968407988927588E+00    1.0991859593654389E+01
Ga   -2.7535201736318540E-02    7.4964203959706008E+00    1.2998944408835722E+01
N   -1.8832570083025288E-02    5.6292020929875859E+00    1.3597601030832383E+01
Ga   -1.3674002367049482E-02    5.6374611433448854E+00    1.5617868462393094E+01
N   -2.5637560279952579E-02    7.5027411852670953E+00    1.6194143607848261E+01
Ga   -3.6504553044048031E-02    7.4787449527031331E+00    1.8273351180409733E+01
N   -2.4634840643036421E-02    5.6294349706939162E+00    1.8669173050460852E+01
Ga    6.4060382814267971E+00    2.5617094708195454E-02    6.6366216590468931E-03
N    6.5065340849444429E+00    1.9056440332996873E+00    5.2218049498064945E-01
Ga    6.4597977294255147E+00    1.8758800128368618E+00    2.5996580770449236E+00
N    6.4393988140542291E+00    1.1193646776890361E-02    3.2064931006519335E+00
Ga    6.4494592313106258E+00    6.1909072591288033E-03    5.2242826490679652E+00
N    6.4504438360088399E+00    1.8757180913830174E+00    5.8069223399750234E+00
Ga    6.4484934212762433E+00    1.8747902594966011E+00    7.8126080768796244E+00
N    6.4551587453919979E+00    2.8427285107625144E-03    8.3988925391068374E+00
Ga    6.4550844557682598E+00    1.6476387648640498E-03    1.0402281907739363E+01
N    6.4461830007299525E+00    1.8727463500561832E+00    1.0992816132453148E+01
Ga    6.4467614564795630E+00    1.8717012009943808E+00    1.3000911421995445E+01
N    6.4582496797417637E+00    1.1867418335599466E-03    1.3595500084925122E+01
Ga    6.4591590391862557E+00    1.2920027299258972E-02    1.5613276079241293E+01
N    6.4430558707983066E+00    1.8659932460046840E+00    1.6194586240552034E+01
Ga    6.4426273368303191E+00    1.8569375217145008E+00    1.8268947415301628E+01
N    6.4679283332425568E+00    1.1859468648873295E-02    1.8657198244292069E+01
Ga    4.8290754875885256E+00    2.7542344035147108E+00   -1.4812128680174556E-03
N    4.8236213530843859E+00    4.6299031536766639E+00    5.9801499609783648E-01
Ga    4.8225596499962435E+00    4.6720571090168947E+00    2.6367807326976496E+00
N    4.8338066279993095E+00    2.7967447961081207E+00    3.1951253697860214E+00
Ga    4.8331262665004564E+00    2.8072292801518999E+00    5.2208135856353364E+00
N    4.8228992277774569E+00    4.6799082299529999E+00    5.8079808049790342E+00
Ga    4.8233158263414477E+00    4.6843942079806293E+00    7.8125196098883540E+00
N    4.8322875673437240E+00    2.8137012002625887E+00    8.3993827326834776E+00
Ga    4.8312213265707582E+00    2.8129180563835998E+00    1.0402251670062089E+01
N    4.8226192185086507E+00    4.6843976558227647E+00    1.0992626797406109E+01
Ga    4.8220734739997821E+00    4.6840620588319446E+00    1.3000007640078305E+01
N    4.8303700166449213E+00    2.8108893517762286E+00    1.3597834750386408E+01
Ga    4.8369204625375319E+00    2.8191510153778641E+00    1.5618139558375113E+01
N    4.8142802487673571E+00    4.6779071107624066E+00    1.6195486940617080E+01
Ga    4.8147604039016247E+00    4.6723786164910797E+00    1.8271064331011480E+01
N    4.8402110618973211E+00    2.8265383180633563E+00    1.8666672712687109E+01
Ga    3.2929940765537324E+00    5.6937004100701776E+00    1.3956058070386169E-02
N    3.1490228632172546E+00    7.5296310875910919E+00    6.4334591666894536E-01
Ga    3.1904546984362518E+00    7.5023509622960338E+00    2.6592943823709034E+00
N    3.2161802092750937E+00    5.6252442395554798E+00    3.2194916781729197E+00
Ga    3.2099011453346402E+00    5.6248614950175888E+00    5.2271083543378349E+00
N    3.1959714064517790E+00    7.4983597051184772E+00    5.8076486325878873E+00
Ga    3.1988306390919909E+00    7.4980528525018570E+00    7.8128640277847268E+00
N    3.2081664041471387E+00    5.6262115779990785E+00    8.3981336929785186E+00
Ga    3.2076486947889644E+00    5.6256353933144334E+00    1.0401906377506196E+01
N    3.1996646041449477E+00    7.4971254251374528E+00    1.0992686688091363E+01
Ga    3.1993827818540801E+00    7.4968416990511431E+00    1.2999549371374211E+01
N    3.2097550295020163E+00    5.6280439886122764E+00    1.3593370718411357E+01
Ga    3.2091420849214689E+00    5.6304208602277930E+00    1.5608448689859802E+01
N    3.1985732908532416E+00    7.4879943666840303E+00    1.6186071076830782E+01
Ga    3.1952101577824097E+00    7.4825182078220829E+00    1.8257170369274800E+01
N    3.2176162162054065E+00    5.6387348287339467E+00    1.8665254640929874E+01
     &END COORD
     &KIND N
       BASIS_SET DZVP-MOLOPT-SR-GTH
       POTENTIAL GTH-PBE-q5
       &POTENTIAL
 2 3
  0.2837905100000000E+00 2 -0.1241522559000000E+02  0.1868095920000000E+01
 2
  0.2554050000000000E+00 1  0.1363026257000000E+02
  0.2454945300000000E+00 0
         # Potential name:  GTH-PBE-Q5  for symbol:  N
         # Potential read from the potential filename: GTH_POTENTIALS
       &END POTENTIAL
     &END KIND
     &KIND Ga
       BASIS_SET DZVP-MOLOPT-SR-GTH
       POTENTIAL GTH-PBE-q13
       &POTENTIAL
 2 1 10
  0.4900000000000000E+00 0
 3
  0.4167772300000000E+00 3  0.1047568975000000E+02 -0.4921768140000000E+01  0.8707055900000000E+00
  0.7770178090000000E+01 -0.2248152160000000E+01
  0.1784415450000000E+01
  0.5696265200000000E+00 2  0.1777985340000000E+01  0.1958597600000000E+00
 -0.2317443900000000E+00
  0.2381265000000000E+00 1 -0.1624868022000000E+02
         # Potential name:  GTH-PBE-Q13  for symbol:  GA
         # Potential read from the potential filename: GTH_POTENTIALS
       &END POTENTIAL
     &END KIND
     &TOPOLOGY
       COORD_FILE_NAME 334-native.xyz
       COORD_FILE_FORMAT  XYZ
       NUMBER_OF_ATOMS  144
       MULTIPLE_UNIT_CELL  1 1 1
     &END TOPOLOGY
   &END SUBSYS
 &END FORCE_EVAL
