 # Version information for this restart file 
 # current date 2019-05-16 05:04:45.662
 # current working dir /lustre03/project/6004141/rzk/GaN-carbene/00-Surface/00-Preoptimization/334-native/Trial4
 # Program compiled at                              Sun Apr  7 00:48:11 EDT 2019
 # Program compiled on                          beluga2.int.ets1.calculquebec.ca
 # Program compiled for                        Beluga-Linux-x86-64-intel-openmpi
 # Source code revision number                                         svn:18619
 &GLOBAL
   PRINT_LEVEL  MEDIUM
   PROJECT_NAME TEST
   RUN_TYPE  CELL_OPT
 &END GLOBAL
 &MOTION
   &CELL_OPT
     MAX_ITER  100
     STEP_START_VAL  77
     EXTERNAL_PRESSURE     1.0000000000000000E+00
     KEEP_ANGLES  T
     KEEP_SYMMETRY  T
     CONSTRAINT  Z
     PRESSURE_TOLERANCE     1.0000000000000000E+02
   &END CELL_OPT
 &END MOTION
 &FORCE_EVAL
   METHOD  QS
   STRESS_TENSOR  ANALYTICAL
   &DFT
     BASIS_SET_FILE_NAME BASIS_MOLOPT
     POTENTIAL_FILE_NAME GTH_POTENTIALS
     &SCF
       MAX_SCF  100
       EPS_SCF     5.0000000000000004E-06
       &OT  T
         PRECONDITIONER  FULL_ALL
       &END OT
       &OUTER_SCF  T
         OPTIMIZER  NONE
         EPS_SCF     5.0000000000000004E-06
         MAX_SCF  10
       &END OUTER_SCF
       &PRINT
         &RESTART  OFF
           BACKUP_COPIES  1
           &EACH
             JUST_ENERGY  0
             QS_SCF  0
             MD  20
           &END EACH
         &END RESTART
       &END PRINT
     &END SCF
     &ALMO_SCF
       EPS_FILTER     9.9999999999999994E-12
       ALMO_SCF_GUESS  ATOMIC
       MO_OVERLAP_INV_ALG  DENSE_CHOLESKY
       ALMO_EXTRAPOLATION_ORDER  4
       XALMO_EXTRAPOLATION_ORDER  4
       ALMO_ALGORITHM  SKIP
       XALMO_TRIAL_WF  SIMPLE
       DELOCALIZE_METHOD  XALMO_SCF
       XALMO_R_CUTOFF_FACTOR     1.8000000000000000E+00
       &ALMO_OPTIMIZER_DIIS
         MAX_ITER  100
         EPS_ERROR     1.0000000000000001E-05
         N_DIIS  5
       &END ALMO_OPTIMIZER_DIIS
       &ALMO_OPTIMIZER_PCG
         MAX_ITER  50
         EPS_ERROR     1.0000000000000001E-05
         LIN_SEARCH_EPS_ERROR     5.0000000000000003E-02
         LIN_SEARCH_STEP_SIZE_GUESS     5.0000000000000001E-03
         CONJUGATOR  DAI_YUAN
         MAX_ITER_OUTER_LOOP  10
       &END ALMO_OPTIMIZER_PCG
       &XALMO_OPTIMIZER_PCG
         MAX_ITER  1000
         EPS_ERROR     1.0000000000000001E-05
         LIN_SEARCH_EPS_ERROR     1.0000000000000001E-01
         LIN_SEARCH_STEP_SIZE_GUESS     1.0000000000000000E-02
         CONJUGATOR  DAI_YUAN
         PRECOND_FILTER_THRESHOLD     1.0000000000000000E-03
         MAX_ITER_OUTER_LOOP  0
       &END XALMO_OPTIMIZER_PCG
       &MATRIX_ITERATE
         EPS_TARGET_FACTOR     1.0000000000000000E+01
       &END MATRIX_ITERATE
     &END ALMO_SCF
     &QS
       EPS_DEFAULT     1.0000000000000000E-14
       ALMO_SCF  F
       METHOD  GPW
     &END QS
     &MGRID
       NGRIDS  5
       CUTOFF     1.2000000000000000E+03
     &END MGRID
     &XC
       DENSITY_CUTOFF     1.0000000000000000E-10
       GRADIENT_CUTOFF     1.0000000000000000E-10
       TAU_CUTOFF     1.0000000000000000E-10
       &XC_FUNCTIONAL  NO_SHORTCUT
         &PBE  T
         &END PBE
       &END XC_FUNCTIONAL
       &VDW_POTENTIAL
         POTENTIAL_TYPE  PAIR_POTENTIAL
         &PAIR_POTENTIAL
           R_CUTOFF     1.0000000000000002E+01
           TYPE  DFTD3
           PARAMETER_FILE_NAME dftd3.dat
           REFERENCE_FUNCTIONAL PBE
           EPS_CN     9.9999999999999995E-07
           CALCULATE_C9_TERM  T
           REFERENCE_C9_TERM  T
           LONG_RANGE_CORRECTION  F
           VERBOSE_OUTPUT  F
         &END PAIR_POTENTIAL
       &END VDW_POTENTIAL
     &END XC
   &END DFT
   &SUBSYS
     &CELL
       A     9.7456150357365079E+00    0.0000000000000000E+00    0.0000000000000000E+00
       B    -4.8534016008329459E+00    8.4063381621787467E+00    0.0000000000000000E+00
       C     0.0000000000000000E+00    0.0000000000000000E+00    3.0744000000000000E+01
       MULTIPLE_UNIT_CELL  1 1 1
       &CELL_REF
         A     9.5580000000000016E+00    0.0000000000000000E+00    0.0000000000000000E+00
         B    -4.7790000000000008E+00    8.2774708093716640E+00    0.0000000000000000E+00
         C     0.0000000000000000E+00    0.0000000000000000E+00    3.0744000000000000E+01
         MULTIPLE_UNIT_CELL  1 1 1
       &END CELL_REF
     &END CELL
     &COORD
Ga    1.0279591022988436E-03   -6.8536326749153102E-04   -5.8774509953084697E-01
N    6.5966060194523552E-03    1.8704813801503226E+00    5.6195685860383815E-01
Ga    5.5076373696273081E-03    1.8396959010064577E+00    2.5951040789785740E+00
N   -7.9724309027325317E-04   -2.9559289210479719E-03    3.2281849070683695E+00
Ga    1.3400268029837507E-04   -2.1346994459098515E-03    5.2198950938393818E+00
N    6.3363011120440857E-03    1.8720158593580170E+00    5.8059211682285827E+00
Ga    5.0476242594791739E-03    1.8682768549604745E+00    7.8053897422660832E+00
N   -4.6431345295640930E-04   -4.2356313005708713E-03    8.4078415632774650E+00
Ga    4.1775968695937515E-04   -3.2278944188114836E-03    1.0406370574280626E+01
N    5.1541045502044936E-03    1.8672924596811746E+00    1.1012180884323540E+01
Ga    3.2443478358493271E-03    1.8705990642284787E+00    1.3008164895661231E+01
N    8.6587146805005191E-06    9.0541246747441895E-04    1.3617302995982731E+01
Ga   -1.0516217327239943E-02    5.3463146024828809E-03    1.5623726467343651E+01
N   -1.5689555930133339E-03    1.8825855382297134E+00    1.6246370672260291E+01
Ga    2.3907916775294392E-02    1.9082644047686295E+00    1.8341740787113938E+01
N    5.4524321580718734E-03    1.0215002606304367E-02    1.8670128818587276E+01
Ga   -1.6149189689674370E+00    2.8017093854243202E+00    2.7749004225189411E-01
N   -1.6179541969380520E+00    4.6697601377336140E+00    5.6452504191975894E-01
Ga   -1.5882649691988378E+00    4.6846848246391746E+00    2.5940330952736450E+00
N   -1.6177206443476890E+00    2.7999919540483567E+00    3.1872649589046151E+00
Ga   -1.6171294354018528E+00    2.8008963669410445E+00    5.1987315730780512E+00
N   -1.6146277692303150E+00    4.6702482618629588E+00    5.8065531215058499E+00
Ga   -1.6145011606295452E+00    4.6680735022904152E+00    7.8063476552188424E+00
N   -1.6186729442336885E+00    2.7976753050356642E+00    8.4103335194608455E+00
Ga   -1.6183376563388985E+00    2.7981755893793965E+00    1.0407452298992899E+01
N   -1.6097606649007210E+00    4.6685134496608427E+00    1.1013818270649328E+01
Ga   -1.6084961502258557E+00    4.6669247253694515E+00    1.3010759086048632E+01
N   -1.6196231352397472E+00    2.7973193763594848E+00    1.3620148917870905E+01
Ga   -1.6278948123191836E+00    2.7892918339483437E+00    1.5627237358455806E+01
N   -1.6248693051166545E+00    4.6731289114505490E+00    1.6210100838209911E+01
Ga   -1.6047358355522052E+00    4.6800686073981934E+00    1.8286265613626959E+01
N   -1.6158647219299773E+00    2.8071828404695758E+00    1.8718261077788259E+01
Ga   -3.2349943490817497E+00    5.6045687889733031E+00    2.7708021017872209E-01
N   -3.2269761887167845E+00    7.4747356488231356E+00    5.6341958473303622E-01
Ga   -3.2548591258736348E+00    7.4873719636930831E+00    2.5951027846344719E+00
N   -3.2360482658519509E+00    5.6025595184480501E+00    3.1868423363417206E+00
Ga   -3.2354819304512992E+00    5.6031525982237387E+00    5.1983832769832876E+00
N   -3.2269672435621213E+00    7.4714985413952677E+00    5.8074797988936666E+00
Ga   -3.2288848611692269E+00    7.4690925353176869E+00    7.8071914712706949E+00
N   -3.2363674092163013E+00    5.5996190637522645E+00    8.4143042999007811E+00
Ga   -3.2357840586700259E+00    5.5998124716100000E+00    1.0412628975789778E+01
N   -3.2301975447732332E+00    7.4722732686323283E+00    1.1014206880869791E+01
Ga   -3.2309659113014839E+00    7.4734254454561500E+00    1.3011735589175373E+01
N   -3.2370591662582577E+00    5.5963517197799222E+00    1.3601110973627565E+01
Ga   -3.2475181057667348E+00    5.5896731764541761E+00    1.5598255786000667E+01
N   -3.2424889308318079E+00    7.4642168679550700E+00    1.6182552316012007E+01
Ga   -3.2339833554563255E+00    7.4935185643554370E+00    1.8242469992420812E+01
N   -3.2408072709704023E+00    5.6076119899741874E+00    1.8619434606898640E+01
Ga    3.2499572332714295E+00   -3.1715767395837221E-03    2.7820903586834234E-01
N    3.2511561294885087E+00    1.8693734290619421E+00    5.6203297622352877E-01
Ga    3.2773583386434870E+00    1.8818936892878977E+00    2.5979695530684399E+00
N    3.2476071559565720E+00   -2.4841878615020582E-03    3.1872754216226613E+00
Ga    3.2484254145962979E+00   -1.9224326225232671E-03    5.1991055584878767E+00
N    3.2519871041370321E+00    1.8675251004466451E+00    5.8063107296712584E+00
Ga    3.2518452566409564E+00    1.8648827648500277E+00    7.8058115715997083E+00
N    3.2478586408091434E+00   -4.8750393208226543E-03    8.4111760413115082E+00
Ga    3.2481459025959203E+00   -4.2359372754314905E-03    1.0408708888097445E+01
N    3.2522010624400979E+00    1.8662803000868728E+00    1.1013817150136818E+01
Ga    3.2465612359612401E+00    1.8626736775282009E+00    1.3011445090238750E+01
N    3.2461241411353576E+00   -6.1698674671360632E-03    1.3626326925341480E+01
Ga    3.2456330505365689E+00   -8.1138636659280512E-03    1.5632886936399029E+01
N    3.2263425259605647E+00    1.8728221753107446E+00    1.6216503147308849E+01
Ga    3.2542981157950925E+00    1.9004836685125281E+00    1.8290754131797375E+01
N    3.2511624254953015E+00   -1.8811020770655000E-03    1.8588123545575243E+01
Ga    1.6276700973860201E+00    2.8024694906669154E+00    2.7809447945260096E-01
N    1.6414166359709461E+00    4.6706009695139459E+00    5.6665042912456265E-01
Ga    1.6120799794038980E+00    4.6847065293279782E+00    2.5951458535221721E+00
N    1.6301728258353150E+00    2.7996584959292430E+00    3.1869850775390702E+00
Ga    1.6310248903687545E+00    2.8009726625634941E+00    5.1986319486890231E+00
N    1.6396290640086975E+00    4.6700859128642831E+00    5.8070093394985731E+00
Ga    1.6374418887428293E+00    4.6679459255866060E+00    7.8069307770655660E+00
N    1.6299843792178881E+00    2.7973293717689360E+00    8.4101717813292609E+00
Ga    1.6296125639435788E+00    2.7973975271361722E+00    1.0406910089123837E+01
N    1.6328867608014990E+00    4.6683316315148389E+00    1.1010332771861629E+01
Ga    1.6264876052707167E+00    4.6659231236452214E+00    1.3005501902286722E+01
N    1.6258680262294454E+00    2.7978780442337960E+00    1.3617114121869712E+01
Ga    1.6161822886171409E+00    2.7960692793910304E+00    1.5623245306918266E+01
N    1.6356168042708894E+00    4.6714180964928840E+00    1.6209345199289526E+01
Ga    1.6560689470624530E+00    4.6870281506240765E+00    1.8287439457517092E+01
N    1.6410966565535694E+00    2.8135354954711604E+00    1.8745100267656390E+01
Ga    1.3824356502529566E-02    5.6044152461643231E+00   -5.9132973433298242E-01
N    1.9693724608695198E-02    7.4780576285706477E+00    5.6502563080733614E-01
Ga    1.8195478505841477E-02    7.4447259253013973E+00    2.5949480165206067E+00
N    1.2321078718655617E-02    5.6016740422098561E+00    3.2276874433607907E+00
Ga    1.3271432172472170E-02    5.6027655305624400E+00    5.2186125117649240E+00
N    1.9351450492989732E-02    7.4765971626167147E+00    5.8058327410859798E+00
Ga    1.8353509684890613E-02    7.4725950176679543E+00    7.8055496090721803E+00
N    1.1885235683698980E-02    5.6004679516405318E+00    8.4070287944924029E+00
Ga    1.1558497210849528E-02    5.6020660009251362E+00    1.0404918582878965E+01
N    1.7724881408228310E-02    7.4708649983187483E+00    1.1015709993807942E+01
Ga    1.5655716283712661E-02    7.4700693644399045E+00    1.3015286556079579E+01
N    1.0401853234236603E-02    5.6017732908080440E+00    1.3627948853319605E+01
Ga    4.2195265912427496E-03    5.6038854343187250E+00    1.5637666974260647E+01
N    1.7302367926183219E-02    7.4806805165179098E+00    1.6206465844273062E+01
Ga    3.4700401579646656E-02    7.4785273530363217E+00    1.8264119479434516E+01
N    1.6761224994260932E-02    5.5913389845364820E+00    1.8652114240904631E+01
Ga    6.4956981389951327E+00   -2.0538128251257714E-03    2.7837811053975903E-01
N    6.5060229813641444E+00    1.8698196182330293E+00    5.6319430307776674E-01
Ga    6.4793491078500054E+00    1.8822224059141235E+00    2.5990885129855021E+00
N    6.4972390080942652E+00   -2.7685674549899585E-03    3.1866686783209732E+00
Ga    6.4980417787171465E+00   -2.0712783425369625E-03    5.1981638882334753E+00
N    6.5060869303086823E+00    1.8671838703428576E+00    5.8061141917255821E+00
Ga    6.5038798143375596E+00    1.8645358841243220E+00    7.8062322634500063E+00
N    6.4959641676892366E+00   -4.8757330686413020E-03    8.4126278593983859E+00
Ga    6.4966083837591562E+00   -4.1590036029968925E-03    1.0410617808539961E+01
N    6.5032919307877251E+00    1.8671354896381296E+00    1.1013983469218987E+01
Ga    6.5045481293740295E+00    1.8644853675401996E+00    1.3011990483303377E+01
N    6.4967563815132676E+00   -7.7434085779688518E-03    1.3614245436891970E+01
Ga    6.4853629839290967E+00   -1.5152856791589921E-02    1.5616688605977611E+01
N    6.5065646040481546E+00    1.8650793831749093E+00    1.6205535790903188E+01
Ga    6.5278407193209329E+00    1.8986031154685037E+00    1.8274653044729654E+01
N    6.5113906040910070E+00   -6.3294377507222294E-04    1.8590392045018316E+01
Ga    4.8803435259484109E+00    2.8017765662414233E+00   -5.4719023701709502E-01
N    4.8858533119247287E+00    4.6730931556263045E+00    5.6237228835926101E-01
Ga    4.8846773913531232E+00    4.6434002440669229E+00    2.5984771525640129E+00
N    4.8787675325899684E+00    2.7995985081901349E+00    3.2280768843968133E+00
Ga    4.8796360924586253E+00    2.8006155608181706E+00    5.2208200620060667E+00
N    4.8856542547754795E+00    4.6743697121265324E+00    5.8078909193593491E+00
Ga    4.8843973393104037E+00    4.6700000283129208E+00    7.8084158946737752E+00
N    4.8782714677568366E+00    2.7963185638631609E+00    8.4079899344017743E+00
Ga    4.8783989791707301E+00    2.7952697889308475E+00    1.0406805476301296E+01
N    4.8849522908493475E+00    4.6644587651641167E+00    1.1013234325636700E+01
Ga    4.8833485227936455E+00    4.6578818851043584E+00    1.3009874272249206E+01
N    4.8747415424298852E+00    2.7812265605877839E+00    1.3619728151270564E+01
Ga    4.8653996976587255E+00    2.7720200262382311E+00    1.5625019465255523E+01
N    4.8716563119441885E+00    4.6608962398390732E+00    1.6144848505208078E+01
Ga    4.8940211614184852E+00    4.6916816831351937E+00    1.8191949034044722E+01
N    4.8892673593350047E+00    2.8122205894358481E+00    1.8611532813101679E+01
Ga    3.2605447368470495E+00    5.6036471772225935E+00    2.7783939205835761E-01
N    3.2635409743763213E+00    7.4738544653647834E+00    5.6215037609598340E-01
Ga    3.2915153273107496E+00    7.4867144803753112E+00    2.5940597603234861E+00
N    3.2612120913183298E+00    5.6023881300316019E+00    3.1873421306655478E+00
Ga    3.2619752763123429E+00    5.6031083945488485E+00    5.1992571439762347E+00
N    3.2649904532517549E+00    7.4717395955159098E+00    5.8079785229905996E+00
Ga    3.2646858891886303E+00    7.4692846057743560E+00    7.8080324631147455E+00
N    3.2607388719964230E+00    5.5993165918729995E+00    8.4139535219756159E+00
Ga    3.2613399846104008E+00    5.5994917133540385E+00    1.0411982373900628E+01
N    3.2687965546263751E+00    7.4720212552779950E+00    1.1011943311506142E+01
Ga    3.2689749292202546E+00    7.4734609269391408E+00    1.3008573856335282E+01
N    3.2563329246081980E+00    5.5945773229456375E+00    1.3590865106921489E+01
Ga    3.2472808136238451E+00    5.5910530740455693E+00    1.5585823259749935E+01
N    3.2659596017769283E+00    7.4598998810902444E+00    1.6167383344616823E+01
Ga    3.2963578934524667E+00    7.4984704460860110E+00    1.8222075485235504E+01
N    3.2790090260553213E+00    5.6162081933240531E+00    1.8627178904059686E+01
     &END COORD
     &KIND N
       BASIS_SET DZVP-MOLOPT-SR-GTH
       POTENTIAL GTH-PBE-q5
       &POTENTIAL
 2 3
  0.2837905100000000E+00 2 -0.1241522559000000E+02  0.1868095920000000E+01
 2
  0.2554050000000000E+00 1  0.1363026257000000E+02
  0.2454945300000000E+00 0
         # Potential name:  GTH-PBE-Q5  for symbol:  N
         # Potential read from the potential filename: GTH_POTENTIALS
       &END POTENTIAL
     &END KIND
     &KIND Ga
       BASIS_SET DZVP-MOLOPT-SR-GTH
       POTENTIAL GTH-PBE-q13
       &POTENTIAL
 2 1 10
  0.4900000000000000E+00 0
 3
  0.4167772300000000E+00 3  0.1047568975000000E+02 -0.4921768140000000E+01  0.8707055900000000E+00
  0.7770178090000000E+01 -0.2248152160000000E+01
  0.1784415450000000E+01
  0.5696265200000000E+00 2  0.1777985340000000E+01  0.1958597600000000E+00
 -0.2317443900000000E+00
  0.2381265000000000E+00 1 -0.1624868022000000E+02
         # Potential name:  GTH-PBE-Q13  for symbol:  GA
         # Potential read from the potential filename: GTH_POTENTIALS
       &END POTENTIAL
     &END KIND
     &TOPOLOGY
       COORD_FILE_NAME 334-native.xyz
       COORD_FILE_FORMAT  XYZ
       NUMBER_OF_ATOMS  144
       MULTIPLE_UNIT_CELL  1 1 1
     &END TOPOLOGY
   &END SUBSYS
 &END FORCE_EVAL
