 # Version information for this restart file 
 # current date 2019-05-16 05:43:23.343
 # current working dir /lustre03/project/6004141/rzk/GaN-carbene/00-Surface/00-Preoptimization/334-native/Trial4
 # Program compiled at                              Sun Apr  7 00:48:11 EDT 2019
 # Program compiled on                          beluga2.int.ets1.calculquebec.ca
 # Program compiled for                        Beluga-Linux-x86-64-intel-openmpi
 # Source code revision number                                         svn:18619
 &GLOBAL
   PRINT_LEVEL  MEDIUM
   PROJECT_NAME TEST
   RUN_TYPE  CELL_OPT
 &END GLOBAL
 &MOTION
   &CELL_OPT
     MAX_ITER  100
     STEP_START_VAL  96
     EXTERNAL_PRESSURE     1.0000000000000000E+00
     KEEP_ANGLES  T
     KEEP_SYMMETRY  T
     CONSTRAINT  Z
     PRESSURE_TOLERANCE     1.0000000000000000E+02
   &END CELL_OPT
 &END MOTION
 &FORCE_EVAL
   METHOD  QS
   STRESS_TENSOR  ANALYTICAL
   &DFT
     BASIS_SET_FILE_NAME BASIS_MOLOPT
     POTENTIAL_FILE_NAME GTH_POTENTIALS
     &SCF
       MAX_SCF  100
       EPS_SCF     5.0000000000000004E-06
       &OT  T
         PRECONDITIONER  FULL_ALL
       &END OT
       &OUTER_SCF  T
         OPTIMIZER  NONE
         EPS_SCF     5.0000000000000004E-06
         MAX_SCF  10
       &END OUTER_SCF
       &PRINT
         &RESTART  OFF
           BACKUP_COPIES  1
           &EACH
             JUST_ENERGY  0
             QS_SCF  0
             MD  20
           &END EACH
         &END RESTART
       &END PRINT
     &END SCF
     &ALMO_SCF
       EPS_FILTER     9.9999999999999994E-12
       ALMO_SCF_GUESS  ATOMIC
       MO_OVERLAP_INV_ALG  DENSE_CHOLESKY
       ALMO_EXTRAPOLATION_ORDER  4
       XALMO_EXTRAPOLATION_ORDER  4
       ALMO_ALGORITHM  SKIP
       XALMO_TRIAL_WF  SIMPLE
       DELOCALIZE_METHOD  XALMO_SCF
       XALMO_R_CUTOFF_FACTOR     1.8000000000000000E+00
       &ALMO_OPTIMIZER_DIIS
         MAX_ITER  100
         EPS_ERROR     1.0000000000000001E-05
         N_DIIS  5
       &END ALMO_OPTIMIZER_DIIS
       &ALMO_OPTIMIZER_PCG
         MAX_ITER  50
         EPS_ERROR     1.0000000000000001E-05
         LIN_SEARCH_EPS_ERROR     5.0000000000000003E-02
         LIN_SEARCH_STEP_SIZE_GUESS     5.0000000000000001E-03
         CONJUGATOR  DAI_YUAN
         MAX_ITER_OUTER_LOOP  10
       &END ALMO_OPTIMIZER_PCG
       &XALMO_OPTIMIZER_PCG
         MAX_ITER  1000
         EPS_ERROR     1.0000000000000001E-05
         LIN_SEARCH_EPS_ERROR     1.0000000000000001E-01
         LIN_SEARCH_STEP_SIZE_GUESS     1.0000000000000000E-02
         CONJUGATOR  DAI_YUAN
         PRECOND_FILTER_THRESHOLD     1.0000000000000000E-03
         MAX_ITER_OUTER_LOOP  0
       &END XALMO_OPTIMIZER_PCG
       &MATRIX_ITERATE
         EPS_TARGET_FACTOR     1.0000000000000000E+01
       &END MATRIX_ITERATE
     &END ALMO_SCF
     &QS
       EPS_DEFAULT     1.0000000000000000E-14
       ALMO_SCF  F
       METHOD  GPW
     &END QS
     &MGRID
       NGRIDS  5
       CUTOFF     1.2000000000000000E+03
     &END MGRID
     &XC
       DENSITY_CUTOFF     1.0000000000000000E-10
       GRADIENT_CUTOFF     1.0000000000000000E-10
       TAU_CUTOFF     1.0000000000000000E-10
       &XC_FUNCTIONAL  NO_SHORTCUT
         &PBE  T
         &END PBE
       &END XC_FUNCTIONAL
       &VDW_POTENTIAL
         POTENTIAL_TYPE  PAIR_POTENTIAL
         &PAIR_POTENTIAL
           R_CUTOFF     1.0000000000000002E+01
           TYPE  DFTD3
           PARAMETER_FILE_NAME dftd3.dat
           REFERENCE_FUNCTIONAL PBE
           EPS_CN     9.9999999999999995E-07
           CALCULATE_C9_TERM  T
           REFERENCE_C9_TERM  T
           LONG_RANGE_CORRECTION  F
           VERBOSE_OUTPUT  F
         &END PAIR_POTENTIAL
       &END VDW_POTENTIAL
     &END XC
   &END DFT
   &SUBSYS
     &CELL
       A     9.7438115015710558E+00    0.0000000000000000E+00    0.0000000000000000E+00
       B    -4.8554270305267249E+00    8.4098463093155242E+00    0.0000000000000000E+00
       C     0.0000000000000000E+00    0.0000000000000000E+00    3.0744000000000000E+01
       MULTIPLE_UNIT_CELL  1 1 1
       &CELL_REF
         A     9.5580000000000016E+00    0.0000000000000000E+00    0.0000000000000000E+00
         B    -4.7790000000000008E+00    8.2774708093716640E+00    0.0000000000000000E+00
         C     0.0000000000000000E+00    0.0000000000000000E+00    3.0744000000000000E+01
         MULTIPLE_UNIT_CELL  1 1 1
       &END CELL_REF
     &END CELL
     &COORD
Ga    1.5228900912972545E-03    7.9237665239038105E-05   -5.9269457725737074E-01
N    6.0740356607400237E-03    1.8736351008767747E+00    5.6599503514235627E-01
Ga    5.0445323050981594E-03    1.8397716643785813E+00    2.5945479456558824E+00
N   -1.7880763780704065E-04   -2.6252043055049724E-03    3.2285257781993950E+00
Ga    2.5032814339580951E-04   -2.8482973067882602E-03    5.2198518647304049E+00
N    4.9919624226157314E-03    1.8713800623626955E+00    5.8069485790546285E+00
Ga    3.8310126089184993E-03    1.8678999884165588E+00    7.8060492320048374E+00
N   -6.5629476203886504E-04   -5.2513046816477582E-03    8.4080782508984093E+00
Ga   -1.5401598465376832E-04   -4.3304576841166464E-03    1.0405996648770843E+01
N    4.1577879433373315E-03    1.8672494930410293E+00    1.1011361000933588E+01
Ga    3.5437339381517606E-03    1.8722681276451731E+00    1.3005817304819049E+01
N   -6.6359348047186463E-04    2.6791228371255953E-03    1.3611985592302197E+01
Ga   -8.4677379875745563E-03    1.2266973251240650E-02    1.5614784471772321E+01
N    1.3523755807653961E-03    1.8825982436392090E+00    1.6255198096742632E+01
Ga    1.6535675901016619E-02    1.9073870120416843E+00    1.8360835071696851E+01
N    3.4801189792724417E-03    1.0848932198397492E-02    1.8665767737424307E+01
Ga   -1.6162322733095051E+00    2.8022193133396121E+00    2.8070122995346741E-01
N   -1.6186530328177771E+00    4.6708286331822491E+00    5.6480592361822812E-01
Ga   -1.5896380321401709E+00    4.6861200272594905E+00    2.5947366289392639E+00
N   -1.6184932439234738E+00    2.8007242628587448E+00    3.1866027554596870E+00
Ga   -1.6180011847738367E+00    2.8004884895762205E+00    5.1977191662178406E+00
N   -1.6162921658480354E+00    4.6700450719945925E+00    5.8066867600120533E+00
Ga   -1.6162469156020420E+00    4.6681338083478199E+00    7.8061246985898318E+00
N   -1.6198411596404640E+00    2.7978592184660562E+00    8.4111947329111096E+00
Ga   -1.6193514658358623E+00    2.7982621465279398E+00    1.0407199291598575E+01
N   -1.6109362545252133E+00    4.6686369747885168E+00    1.1014243869228677E+01
Ga   -1.6070952124759628E+00    4.6672349545486682E+00    1.3010358263097690E+01
N   -1.6183069298135557E+00    2.7979918401105421E+00    1.3624598647568140E+01
Ga   -1.6242547744754499E+00    2.7931757820220691E+00    1.5632163645390341E+01
N   -1.6236939272559641E+00    4.6758733188157020E+00    1.6216301273381315E+01
Ga   -1.6093960542334462E+00    4.6795047063134136E+00    1.8296222552124764E+01
N   -1.6216096289770461E+00    2.8129035908448943E+00    1.8732666358370842E+01
Ga   -3.2361711645636810E+00    5.6067449585517961E+00    2.8002043742672172E-01
N   -3.2275264270501181E+00    7.4754523868182918E+00    5.6521969810190975E-01
Ga   -3.2568558752713215E+00    7.4896203967936881E+00    2.5946585885901468E+00
N   -3.2371349030952992E+00    5.6043136444808601E+00    3.1873131061014033E+00
Ga   -3.2368974434194060E+00    5.6044286172659499E+00    5.1984269190996919E+00
N   -3.2288802049653311E+00    7.4733984031894822E+00    5.8075946810765213E+00
Ga   -3.2308276252234456E+00    7.4710709287643731E+00    7.8071560500200174E+00
N   -3.2377599036488567E+00    5.6008715016736081E+00    8.4145643015917102E+00
Ga   -3.2372518785642099E+00    5.6011046107575240E+00    1.0412607525884994E+01
N   -3.2328824302616925E+00    7.4741326239762342E+00    1.1014260544141012E+01
Ga   -3.2323236824215260E+00    7.4774294418774190E+00    1.3010893808427875E+01
N   -3.2355453636023443E+00    5.5987249713242440E+00    1.3597161235651473E+01
Ga   -3.2427152017364511E+00    5.5969834716428517E+00    1.5591327674902386E+01
N   -3.2419695834835096E+00    7.4723320440317513E+00    1.6164352172691160E+01
Ga   -3.2435064703557828E+00    7.4941359535182670E+00    1.8216559828315681E+01
N   -3.2463180775979210E+00    5.6148571194848147E+00    1.8614668477060363E+01
Ga    3.2492582978737103E+00   -3.2982601773774000E-03    2.7947057054802388E-01
N    3.2497485088654741E+00    1.8684875531773799E+00    5.6418504225316823E-01
Ga    3.2760952367066336E+00    1.8824167403497425E+00    2.5977661747139091E+00
N    3.2480629006888955E+00   -2.7091793259822815E-03    3.1859268526832358E+00
Ga    3.2480677662337341E+00   -3.0554656178285542E-03    5.1973458420601242E+00
N    3.2502441861837275E+00    1.8666032824353971E+00    5.8058476764386517E+00
Ga    3.2500553292755692E+00    1.8642990590671504E+00    7.8055464622336954E+00
N    3.2472945975734735E+00   -5.6037946521657420E-03    8.4123511738268828E+00
Ga    3.2474952197048621E+00   -5.3393405496715302E-03    1.0409252445596996E+01
N    3.2507080869704761E+00    1.8659169468299390E+00    1.1014514054350037E+01
Ga    3.2467371884470384E+00    1.8635356164803154E+00    1.3011595556652718E+01
N    3.2470239966361500E+00   -5.1693405300822400E-03    1.3625423954613705E+01
Ga    3.2493038805903929E+00   -1.9298498104831998E-03    1.5630307608927147E+01
N    3.2312480857278416E+00    1.8812906253786470E+00    1.6213686873308298E+01
Ga    3.2464861695721914E+00    1.8985367462201321E+00    1.8286989530585679E+01
N    3.2425494459614637E+00   -1.3724991706975773E-03    1.8576374351849839E+01
Ga    1.6279593029264541E+00    2.8032435364765851E+00    2.7908776305569605E-01
N    1.6392981199135976E+00    4.6718912225031959E+00    5.6365454892923339E-01
Ga    1.6098594506631527E+00    4.6863749290812970E+00    2.5941524626177466E+00
N    1.6290349743632155E+00    2.8010600493724827E+00    3.1866056689833249E+00
Ga    1.6291534858950598E+00    2.8005414556371289E+00    5.1977533111124314E+00
N    1.6373499949840871E+00    4.6701393143069003E+00    5.8063516359413763E+00
Ga    1.6349394959942281E+00    4.6682269524424749E+00    7.8057339120836433E+00
N    1.6285271151165324E+00    2.7978804216509578E+00    8.4106007152117019E+00
Ga    1.6285814941938093E+00    2.7985428803250323E+00    1.0406823854944530E+01
N    1.6306816355456122E+00    4.6691613978042232E+00    1.1012909307614562E+01
Ga    1.6249490475667152E+00    4.6679130732525538E+00    1.3008402049095482E+01
N    1.6252845045291946E+00    2.7988094616590007E+00    1.3618521933268779E+01
Ga    1.6184415935559742E+00    2.7992597980417018E+00    1.5625074386678692E+01
N    1.6381437653916651E+00    4.6754057224103063E+00    1.6210003165102329E+01
Ga    1.6548285329630887E+00    4.6814654429188760E+00    1.8289418144525612E+01
N    1.6361302120778187E+00    2.8157488330318552E+00    1.8748855001639242E+01
Ga    1.1028011669586685E-02    5.6053815814543313E+00   -5.9102384454264556E-01
N    1.7294860780576054E-02    7.4799498062862941E+00    5.6385626356542440E-01
Ga    1.6286198015659920E-02    7.4465578696868828E+00    2.5938245673946003E+00
N    1.0616820637555091E-02    5.6037150951962920E+00    3.2276000537740601E+00
Ga    1.1060664109447272E-02    5.6040076739770424E+00    5.2187637342401905E+00
N    1.6088884265726029E-02    7.4780998286952540E+00    5.8062989457072423E+00
Ga    1.4832739997464929E-02    7.4739742139304353E+00    7.8055662769137744E+00
N    9.8148523644518478E-03    5.6012906016887705E+00    8.4073999964671025E+00
Ga    1.0177475006778154E-02    5.6029474820636347E+00    1.0404953913066013E+01
N    1.5192144440581463E-02    7.4722679492638475E+00    1.1016293550632989E+01
Ga    1.4084514954026879E-02    7.4723646439875600E+00    1.3015843829660644E+01
N    8.0993059667846361E-03    5.6046055027946302E+00    1.3633356362173142E+01
Ga    5.0478136445446129E-03    5.6120615346030025E+00    1.5644504668751633E+01
N    1.2886955093466396E-02    7.4874580540251552E+00    1.6214197664814158E+01
Ga    2.8727090788479022E-02    7.4794982354121391E+00    1.8274362594591299E+01
N    1.6083525163649987E-02    5.5929370185002236E+00    1.8643435271071020E+01
Ga    6.4957859152945590E+00   -1.8770651545303629E-03    2.7859933293315764E-01
N    6.5040809655474217E+00    1.8697316356769822E+00    5.6399407915415412E-01
Ga    6.4769015712159197E+00    1.8824012440815450E+00    2.5976814453788584E+00
N    6.4958154019642524E+00   -2.5142116617400518E-03    3.1866277234239129E+00
Ga    6.4964291643829286E+00   -2.8885357256988892E-03    5.1979910074647657E+00
N    6.5036373239751848E+00    1.8668515774736167E+00    5.8061731801702638E+00
Ga    6.5015080872802811E+00    1.8645146798702612E+00    7.8057072327837940E+00
N    6.4944789042757227E+00   -5.6228115896122723E-03    8.4117586501825272E+00
Ga    6.4950787890292689E+00   -5.4346259776158609E-03    1.0408947504200485E+01
N    6.5017188528261860E+00    1.8657328012563155E+00    1.1015333311325291E+01
Ga    6.5049571074762333E+00    1.8633375119315432E+00    1.3012947828133962E+01
N    6.4946913808304449E+00   -7.6090399292018081E-03    1.3621085489184257E+01
Ga    6.4845324736907761E+00   -1.0505199114277853E-02    1.5624413683180125E+01
N    6.5107099452518078E+00    1.8691619002976148E+00    1.6210615066067071E+01
Ga    6.5238737465526437E+00    1.8975667783586792E+00    1.8281810054188341E+01
N    6.5092221631864575E+00   -2.1192718061321018E-05    1.8584881097871349E+01
Ga    4.8778585878361067E+00    2.8029700107273303E+00   -5.5027444855959740E-01
N    4.8834107101403994E+00    4.6748769581920300E+00    5.6490264056836725E-01
Ga    4.8822095264979453E+00    4.6447767792233572E+00    2.5983263662761362E+00
N    4.8770035632344673E+00    2.8007187611416122E+00    3.2276288674629754E+00
Ga    4.8775226535349505E+00    2.8008720153541393E+00    5.2196628430807630E+00
N    4.8825486028289431E+00    4.6748135807746936E+00    5.8079013512065556E+00
Ga    4.8814176989503153E+00    4.6704782103607494E+00    7.8081375991464919E+00
N    4.8762381441370799E+00    2.7965644537367123E+00    8.4087537917826758E+00
Ga    4.8768176760063042E+00    2.7952504964385061E+00    1.0407236320713411E+01
N    4.8820983226480745E+00    4.6649627618649783E+00    1.1013501453076449E+01
Ga    4.8823016344407755E+00    4.6589309381829542E+00    1.3009132992000330E+01
N    4.8760137351025064E+00    2.7824165119115838E+00    1.3620166235644149E+01
Ga    4.8693388488282956E+00    2.7769590461139484E+00    1.5623603025139072E+01
N    4.8746536640155291E+00    4.6672082282197218E+00    1.6138201267622065E+01
Ga    4.8907574246780987E+00    4.6904381418367924E+00    1.8182981878279030E+01
N    4.8821827626276262E+00    2.8154156897048028E+00    1.8604538522314421E+01
Ga    3.2589308505090293E+00    5.6057740406056222E+00    2.7946010163167923E-01
N    3.2597343736671434E+00    7.4744476660722965E+00    5.6469622986125445E-01
Ga    3.2884460293285160E+00    7.4896949534216937E+00    2.5943778922743945E+00
N    3.2586309412349603E+00    5.6043935822300943E+00    3.1869255824837301E+00
Ga    3.2593091070958482E+00    5.6044660076605819E+00    5.1983392290124533E+00
N    3.2614542965943509E+00    7.4733763019658985E+00    5.8077320990300487E+00
Ga    3.2612693460889082E+00    7.4709722007967168E+00    7.8073406842295858E+00
N    3.2577062373551038E+00    5.6006137382298000E+00    8.4139923381462474E+00
Ga    3.2583513545885552E+00    5.6010280930211414E+00    1.0411944520761324E+01
N    3.2644317612253855E+00    7.4742851260316741E+00    1.1012377777849627E+01
Ga    3.2637448688019095E+00    7.4767386676144607E+00    1.3008663165404444E+01
N    3.2553836257335136E+00    5.5976024808150857E+00    1.3590689532191817E+01
Ga    3.2492676895917554E+00    5.5998712498527272E+00    1.5583980332916187E+01
N    3.2688797768865272E+00    7.4684947465671394E+00    1.6164738275113002E+01
Ga    3.2925487439750039E+00    7.4970458786792360E+00    1.8215905706688019E+01
N    3.2764388923447436E+00    5.6193892945491015E+00    1.8619185649756357E+01
     &END COORD
     &KIND N
       BASIS_SET DZVP-MOLOPT-SR-GTH
       POTENTIAL GTH-PBE-q5
       &POTENTIAL
 2 3
  0.2837905100000000E+00 2 -0.1241522559000000E+02  0.1868095920000000E+01
 2
  0.2554050000000000E+00 1  0.1363026257000000E+02
  0.2454945300000000E+00 0
         # Potential name:  GTH-PBE-Q5  for symbol:  N
         # Potential read from the potential filename: GTH_POTENTIALS
       &END POTENTIAL
     &END KIND
     &KIND Ga
       BASIS_SET DZVP-MOLOPT-SR-GTH
       POTENTIAL GTH-PBE-q13
       &POTENTIAL
 2 1 10
  0.4900000000000000E+00 0
 3
  0.4167772300000000E+00 3  0.1047568975000000E+02 -0.4921768140000000E+01  0.8707055900000000E+00
  0.7770178090000000E+01 -0.2248152160000000E+01
  0.1784415450000000E+01
  0.5696265200000000E+00 2  0.1777985340000000E+01  0.1958597600000000E+00
 -0.2317443900000000E+00
  0.2381265000000000E+00 1 -0.1624868022000000E+02
         # Potential name:  GTH-PBE-Q13  for symbol:  GA
         # Potential read from the potential filename: GTH_POTENTIALS
       &END POTENTIAL
     &END KIND
     &TOPOLOGY
       COORD_FILE_NAME 334-native.xyz
       COORD_FILE_FORMAT  XYZ
       NUMBER_OF_ATOMS  144
       MULTIPLE_UNIT_CELL  1 1 1
     &END TOPOLOGY
   &END SUBSYS
 &END FORCE_EVAL
