 # Version information for this restart file 
 # current date 2019-05-16 02:06:31.822
 # current working dir /lustre03/project/6004141/rzk/GaN-carbene/00-Surface/00-Preoptimization/334-native/Trial4
 # Program compiled at                              Sun Apr  7 00:48:11 EDT 2019
 # Program compiled on                          beluga2.int.ets1.calculquebec.ca
 # Program compiled for                        Beluga-Linux-x86-64-intel-openmpi
 # Source code revision number                                         svn:18619
 &GLOBAL
   PRINT_LEVEL  MEDIUM
   PROJECT_NAME TEST
   RUN_TYPE  CELL_OPT
 &END GLOBAL
 &MOTION
   &CELL_OPT
     MAX_ITER  100
     STEP_START_VAL  13
     EXTERNAL_PRESSURE     1.0000000000000000E+00
     KEEP_ANGLES  T
     KEEP_SYMMETRY  T
     CONSTRAINT  Z
     PRESSURE_TOLERANCE     1.0000000000000000E+02
   &END CELL_OPT
 &END MOTION
 &FORCE_EVAL
   METHOD  QS
   STRESS_TENSOR  ANALYTICAL
   &DFT
     BASIS_SET_FILE_NAME BASIS_MOLOPT
     POTENTIAL_FILE_NAME GTH_POTENTIALS
     &SCF
       MAX_SCF  100
       EPS_SCF     5.0000000000000004E-06
       &OT  T
         PRECONDITIONER  FULL_ALL
       &END OT
       &OUTER_SCF  T
         OPTIMIZER  NONE
         EPS_SCF     5.0000000000000004E-06
         MAX_SCF  10
       &END OUTER_SCF
       &PRINT
         &RESTART  OFF
           BACKUP_COPIES  1
           &EACH
             JUST_ENERGY  0
             QS_SCF  0
             MD  20
           &END EACH
         &END RESTART
       &END PRINT
     &END SCF
     &ALMO_SCF
       EPS_FILTER     9.9999999999999994E-12
       ALMO_SCF_GUESS  ATOMIC
       MO_OVERLAP_INV_ALG  DENSE_CHOLESKY
       ALMO_EXTRAPOLATION_ORDER  4
       XALMO_EXTRAPOLATION_ORDER  4
       ALMO_ALGORITHM  SKIP
       XALMO_TRIAL_WF  SIMPLE
       DELOCALIZE_METHOD  XALMO_SCF
       XALMO_R_CUTOFF_FACTOR     1.8000000000000000E+00
       &ALMO_OPTIMIZER_DIIS
         MAX_ITER  100
         EPS_ERROR     1.0000000000000001E-05
         N_DIIS  5
       &END ALMO_OPTIMIZER_DIIS
       &ALMO_OPTIMIZER_PCG
         MAX_ITER  50
         EPS_ERROR     1.0000000000000001E-05
         LIN_SEARCH_EPS_ERROR     5.0000000000000003E-02
         LIN_SEARCH_STEP_SIZE_GUESS     5.0000000000000001E-03
         CONJUGATOR  DAI_YUAN
         MAX_ITER_OUTER_LOOP  10
       &END ALMO_OPTIMIZER_PCG
       &XALMO_OPTIMIZER_PCG
         MAX_ITER  1000
         EPS_ERROR     1.0000000000000001E-05
         LIN_SEARCH_EPS_ERROR     1.0000000000000001E-01
         LIN_SEARCH_STEP_SIZE_GUESS     1.0000000000000000E-02
         CONJUGATOR  DAI_YUAN
         PRECOND_FILTER_THRESHOLD     1.0000000000000000E-03
         MAX_ITER_OUTER_LOOP  0
       &END XALMO_OPTIMIZER_PCG
       &MATRIX_ITERATE
         EPS_TARGET_FACTOR     1.0000000000000000E+01
       &END MATRIX_ITERATE
     &END ALMO_SCF
     &QS
       EPS_DEFAULT     1.0000000000000000E-14
       ALMO_SCF  F
       METHOD  GPW
     &END QS
     &MGRID
       NGRIDS  5
       CUTOFF     1.2000000000000000E+03
     &END MGRID
     &XC
       DENSITY_CUTOFF     1.0000000000000000E-10
       GRADIENT_CUTOFF     1.0000000000000000E-10
       TAU_CUTOFF     1.0000000000000000E-10
       &XC_FUNCTIONAL  NO_SHORTCUT
         &PBE  T
         &END PBE
       &END XC_FUNCTIONAL
       &VDW_POTENTIAL
         POTENTIAL_TYPE  PAIR_POTENTIAL
         &PAIR_POTENTIAL
           R_CUTOFF     1.0000000000000002E+01
           TYPE  DFTD3
           PARAMETER_FILE_NAME dftd3.dat
           REFERENCE_FUNCTIONAL PBE
           EPS_CN     9.9999999999999995E-07
           CALCULATE_C9_TERM  T
           REFERENCE_C9_TERM  T
           LONG_RANGE_CORRECTION  F
           VERBOSE_OUTPUT  F
         &END PAIR_POTENTIAL
       &END VDW_POTENTIAL
     &END XC
   &END DFT
   &SUBSYS
     &CELL
       A     9.7032524492136378E+00    0.0000000000000000E+00    0.0000000000000000E+00
       B    -4.8696192869344976E+00    8.4344280184878588E+00    0.0000000000000000E+00
       C     0.0000000000000000E+00    0.0000000000000000E+00    3.0744000000000000E+01
       MULTIPLE_UNIT_CELL  1 1 1
       &CELL_REF
         A     9.5580000000000016E+00    0.0000000000000000E+00    0.0000000000000000E+00
         B    -4.7790000000000008E+00    8.2774708093716640E+00    0.0000000000000000E+00
         C     0.0000000000000000E+00    0.0000000000000000E+00    3.0744000000000000E+01
         MULTIPLE_UNIT_CELL  1 1 1
       &END CELL_REF
     &END CELL
     &COORD
Ga    4.2286436546985834E-03   -1.1347597264372965E-01   -4.4839658500311561E-02
N   -5.0088437539487643E-03    1.8047193878470598E+00    5.3660238510707958E-01
Ga   -5.7644845110986342E-03    1.8520731105965473E+00    2.5975887561248392E+00
N    1.5550106533313503E-04   -5.4652720020241484E-03    3.2211584101489601E+00
Ga    2.9767639020213533E-04    4.2269480315078393E-04    5.2277264479901397E+00
N   -5.7543440675411799E-03    1.8743671346111892E+00    5.8076424719004152E+00
Ga   -4.4669896694456250E-03    1.8752215257902436E+00    7.8108010793384501E+00
N    4.3590598812810955E-04    1.0778531897550642E-03    8.3980045303631670E+00
Ga    2.6192221847157182E-04    3.2185483184852409E-04    1.0400247720379994E+01
N   -4.4211953822662431E-03    1.8733707439493570E+00    1.0990417278693636E+01
Ga   -4.5444540097909734E-03    1.8740696981273670E+00    1.2994165461323037E+01
N    3.0804957699594247E-03    2.3657816415751918E-03    1.3591452865509369E+01
Ga    3.1533913738211595E-03    6.8601275402404077E-03    1.5609879032890646E+01
N   -8.1033309761260018E-03    1.8730751396590488E+00    1.6200356294619034E+01
Ga   -5.1368354999121362E-03    1.8626629896639637E+00    1.8279710763861907E+01
N    3.2063190775353128E-03    1.3116626428352152E-02    1.8675251133485720E+01
Ga   -1.5493519952684347E+00    2.8631272825949274E+00   -4.5381050860617771E-02
N   -1.6854595268510708E+00    4.7258117916400151E+00    5.4881722774342068E-01
Ga   -1.6422396244164814E+00    4.6920518024322098E+00    2.6035548008321112E+00
N   -1.6181689382754552E+00    2.8107791338771206E+00    3.1850449704102957E+00
Ga   -1.6202876633562684E+00    2.8121952565399342E+00    5.2122969667407997E+00
N   -1.6277586010612783E+00    4.6834505041388592E+00    5.8056875697973505E+00
Ga   -1.6266153602450366E+00    4.6851024265232502E+00    7.8102926837076749E+00
N   -1.6224467417869679E+00    2.8126887245331336E+00    8.3991529226692414E+00
Ga   -1.6229053875320127E+00    2.8115204477137428E+00    1.0400525066850433E+01
N   -1.6276880991393983E+00    4.6849352192244025E+00    1.0990626636154168E+01
Ga   -1.6270947115692087E+00    4.6846480240101114E+00    1.2994418528636889E+01
N   -1.6221838994155136E+00    2.8123682440396105E+00    1.3589787441672989E+01
Ga   -1.6208263886761642E+00    2.8157952559585326E+00    1.5607217235672861E+01
N   -1.6326612195617782E+00    4.6779099684788790E+00    1.6188945251222048E+01
Ga   -1.6354288694045056E+00    4.6685093508827302E+00    1.8262902950390213E+01
N   -1.6196887992595543E+00    2.8199971822445051E+00    1.8672611550744431E+01
Ga   -3.3321739592872874E+00    5.6864501459012518E+00   -2.1188501134717142E-02
N   -3.1983516275239858E+00    7.5280003879907271E+00    6.3784500414112399E-01
Ga   -3.2433159733459953E+00    7.4987678988988060E+00    2.6506037100285944E+00
N   -3.2541640857291050E+00    5.6207713831725812E+00    3.2153553602318716E+00
Ga   -3.2476345472624737E+00    5.6223942626722776E+00    5.2257691283553536E+00
N   -3.2494438023323302E+00    7.4967415473669998E+00    5.8103736648611415E+00
Ga   -3.2501117781088005E+00    7.4969841026069188E+00    7.8126550952974805E+00
N   -3.2456699294667830E+00    5.6233689500373494E+00    8.3979081660487385E+00
Ga   -3.2462838617987884E+00    5.6231463809942301E+00    1.0400279253521655E+01
N   -3.2507638490047523E+00    7.4963509424918353E+00    1.0990282067378587E+01
Ga   -3.2496930304563869E+00    7.4962146861727277E+00    1.2994717533605042E+01
N   -3.2469103071173611E+00    5.6226959372493530E+00    1.3590717987656353E+01
Ga   -3.2452704298622552E+00    5.6296032516203347E+00    1.5608539683291891E+01
N   -3.2487045494509816E+00    7.4887627440425453E+00    1.6195817192159758E+01
Ga   -3.2526721569263519E+00    7.4876395749958080E+00    1.8271668007469074E+01
N   -3.2416189057959590E+00    5.6352571552848261E+00    1.8673810382478280E+01
Ga    3.2777134422181451E+00    3.2226046137416489E-02    3.9074889096573799E-02
N    3.1843064299859822E+00    1.9060216365198079E+00    5.5102588032876143E-01
Ga    3.2195292390138635E+00    1.8749955273778571E+00    2.6233896786633868E+00
N    3.2444916483424748E+00    5.8339335043516563E-03    3.2195138085536437E+00
Ga    3.2380183018016808E+00    2.7387982017110556E-03    5.2341018111830646E+00
N    3.2279513904948631E+00    1.8768052304866556E+00    5.8090754858231612E+00
Ga    3.2297107695735594E+00    1.8755499769356352E+00    7.8128225958421176E+00
N    3.2355239164946719E+00    1.2314019124081428E-03    8.3979016685086734E+00
Ga    3.2344997167867446E+00    1.9407952484734123E-04    1.0400677514647972E+01
N    3.2296322197396212E+00    1.8736100514827203E+00    1.0990490585025745E+01
Ga    3.2296200334923282E+00    1.8732846363142595E+00    1.2994339470113125E+01
N    3.2360770970796886E+00    7.0871044528233204E-04    1.3589658064722141E+01
Ga    3.2378494173393810E+00    4.6136270673400072E-03    1.5606867729743144E+01
N    3.2233764526360189E+00    1.8647045746884061E+00    1.6191232959735533E+01
Ga    3.2260298327672259E+00    1.8615709185055564E+00    1.8267318186085351E+01
N    3.2373202558395939E+00    1.0293757197606704E-02    1.8669452790656525E+01
Ga    1.5421392537376197E+00    2.8610182701227940E+00   -3.3936668029153655E-02
N    1.6737082357133588E+00    4.7225302026277847E+00    5.7285655930213575E-01
Ga    1.6202712575263452E+00    4.6893838479474619E+00    2.6217687919937154E+00
N    1.6007736463331543E+00    2.8091696571483746E+00    3.1976861147733309E+00
Ga    1.6068559499404191E+00    2.8112962844856333E+00    5.2192588503473827E+00
N    1.6070634538790811E+00    4.6843874156108409E+00    5.8052834487595284E+00
Ga    1.6069016727128780E+00    4.6855700087370975E+00    7.8098758359648635E+00
N    1.6113117451726879E+00    2.8127646266002464E+00    8.3985239466244792E+00
Ga    1.6108520708587710E+00    2.8117041180476874E+00    1.0400376496813438E+01
N    1.6068956689253142E+00    4.6850220032572194E+00    1.0990428916956281E+01
Ga    1.6065656084158626E+00    4.6852675027121711E+00    1.2994687894114010E+01
N    1.6114676812699780E+00    2.8139886071523956E+00    1.3591241346016114E+01
Ga    1.6120984150136874E+00    2.8190955803463629E+00    1.5610171466579651E+01
N    1.6055181545045740E+00    4.6883474812765247E+00    1.6196222961406733E+01
Ga    1.6007063323678936E+00    4.6775306063772017E+00    1.8272478354277901E+01
N    1.6217496551572330E+00    2.8245545306945168E+00    1.8671718492128832E+01
Ga   -1.2562148309478876E-03    5.5462188334324276E+00   -4.5031568208501113E-02
N   -1.8011845939214045E-02    7.4478237746154798E+00    5.6314901083119762E-01
Ga   -1.9526538198475208E-02    7.4838261953933731E+00    2.6273259054965372E+00
N   -1.3833825527018834E-02    5.6114668267762227E+00    3.1992536862602687E+00
Ga   -1.2659668156009883E-02    5.6192901632994188E+00    5.2191583160153545E+00
N   -1.5605044805532141E-02    7.4929719756332442E+00    5.8098349670200893E+00
Ga   -1.5472924801638725E-02    7.4956583907438956E+00    7.8126422949975920E+00
N   -1.1347056722569799E-02    5.6231244905352789E+00    8.3983958904754026E+00
Ga   -1.1869340910936966E-02    5.6228566109717253E+00    1.0400550614757119E+01
N   -1.6150794321785619E-02    7.4965760375537345E+00    1.0990167222962649E+01
Ga   -1.6534996683373149E-02    7.4958280895635472E+00    1.2994532503337584E+01
N   -1.2612951685017252E-02    5.6249121110843197E+00    1.3590716524323703E+01
Ga   -1.0510852338475637E-02    5.6310439266534500E+00    1.5609883456525319E+01
N   -1.3928052039082614E-02    7.4993342197249353E+00    1.6198307664346384E+01
Ga   -1.9237313973814878E-02    7.4827468922529787E+00    1.8276384588913778E+01
N   -1.4574073038738842E-02    5.6302980181673750E+00    1.8673127978381736E+01
Ga    6.4258950241191082E+00    1.2768541171516016E-02    9.6452527412509790E-03
N    6.5164366252353814E+00    1.8976867457560624E+00    5.0969058368760123E-01
Ga    6.4730387439622952E+00    1.8728863589337106E+00    2.6023359853680845E+00
N    6.4549712336234908E+00    6.2915080633929839E-03    3.2107418394997360E+00
Ga    6.4649890069442160E+00    3.4982723742345910E-03    5.2271794121756674E+00
N    6.4677456202051395E+00    1.8757721681049353E+00    5.8075402593402581E+00
Ga    6.4661542288958502E+00    1.8751453144184556E+00    7.8117785114904592E+00
N    6.4691632832092942E+00    1.3042573885793712E-03    8.3981530173499284E+00
Ga    6.4691520749050930E+00    2.9865628153569245E-04    1.0400302997215652E+01
N    6.4643541799121884E+00    1.8734936581449217E+00    1.0990715471037305E+01
Ga    6.4649303996087131E+00    1.8735257264904150E+00    1.2994616639080380E+01
N    6.4712165642740826E+00    7.5767897198090453E-04    1.3591391973366145E+01
Ga    6.4708335817726850E+00    3.8206697631296546E-03    1.5609673594940508E+01
N    6.4622961276845610E+00    1.8703663553770953E+00    1.6198324448870633E+01
Ga    6.4615911110881008E+00    1.8646179935442440E+00    1.8275804925038884E+01
N    6.4757215279299025E+00    9.1577042868345379E-03    1.8668403513345741E+01
Ga    4.8437193764100357E+00    2.7609213025469916E+00    3.1556203671157207E-03
N    4.8373173657982687E+00    4.6363219519249013E+00    5.9959200393051471E-01
Ga    4.8392103690171853E+00    4.6733094052509214E+00    2.6354082647673636E+00
N    4.8470917213400879E+00    2.7948886106997097E+00    3.2019782977799194E+00
Ga    4.8472135815165043E+00    2.8066941559290424E+00    5.2250104312138372E+00
N    4.8411130080963192E+00    4.6814921104915062E+00    5.8080386016371932E+00
Ga    4.8416439626867422E+00    4.6850182352152929E+00    7.8111662829076272E+00
N    4.8464751954588978E+00    2.8119533412546787E+00    8.3984955419421592E+00
Ga    4.8456944282419014E+00    2.8114264976832128E+00    1.0400428084796081E+01
N    4.8411074038679605E+00    4.6849485252323850E+00    1.0990426008129589E+01
Ga    4.8409226834048535E+00    4.6852912818554620E+00    1.2994634356708637E+01
N    4.8452991407462482E+00    2.8103603228898182E+00    1.3591356716475751E+01
Ga    4.8477592302690171E+00    2.8183663721734495E+00    1.5609917791409771E+01
N    4.8337745952357531E+00    4.6784841194111184E+00    1.6198272470687076E+01
Ga    4.8368681251020700E+00    4.6726794241354446E+00    1.8275401822689673E+01
N    4.8515477926903356E+00    2.8240548450943872E+00    1.8673654011005773E+01
Ga    3.3007322881631573E+00    5.6912933099874010E+00    7.3300390784498516E-03
N    3.1739614236651152E+00    7.5298558549947598E+00    6.4779781692433602E-01
Ga    3.2104407700147704E+00    7.5005791264504680E+00    2.6534515550796187E+00
N    3.2287878870360127E+00    5.6231048073087875E+00    3.2197746478534204E+00
Ga    3.2245157448222268E+00    5.6237068264004444E+00    5.2262778967058372E+00
N    3.2157273474426287E+00    7.4979228036849461E+00    5.8083741440597123E+00
Ga    3.2179012639493370E+00    7.4974339157396850E+00    7.8113581846802589E+00
N    3.2229076968027224E+00    5.6238140255834876E+00    8.3975460472601924E+00
Ga    3.2224517817688323E+00    5.6233345648114890E+00    1.0400119065833323E+01
N    3.2182222701702434E+00    7.4966421163864174E+00    1.0990606056525118E+01
Ga    3.2187901184544776E+00    7.4964637590159144E+00    1.2994871902452942E+01
N    3.2229622758708962E+00    5.6243552293851860E+00    1.3588917932184076E+01
Ga    3.2243566817533273E+00    5.6305130772534522E+00    1.5605715815310518E+01
N    3.2235474414161516E+00    7.4899259167949594E+00    1.6189654846695074E+01
Ga    3.2147788369536441E+00    7.4825677977641822E+00    1.8263213334035850E+01
N    3.2254589551865660E+00    5.6333977079968252E+00    1.8672445460241551E+01
     &END COORD
     &KIND N
       BASIS_SET DZVP-MOLOPT-SR-GTH
       POTENTIAL GTH-PBE-q5
       &POTENTIAL
 2 3
  0.2837905100000000E+00 2 -0.1241522559000000E+02  0.1868095920000000E+01
 2
  0.2554050000000000E+00 1  0.1363026257000000E+02
  0.2454945300000000E+00 0
         # Potential name:  GTH-PBE-Q5  for symbol:  N
         # Potential read from the potential filename: GTH_POTENTIALS
       &END POTENTIAL
     &END KIND
     &KIND Ga
       BASIS_SET DZVP-MOLOPT-SR-GTH
       POTENTIAL GTH-PBE-q13
       &POTENTIAL
 2 1 10
  0.4900000000000000E+00 0
 3
  0.4167772300000000E+00 3  0.1047568975000000E+02 -0.4921768140000000E+01  0.8707055900000000E+00
  0.7770178090000000E+01 -0.2248152160000000E+01
  0.1784415450000000E+01
  0.5696265200000000E+00 2  0.1777985340000000E+01  0.1958597600000000E+00
 -0.2317443900000000E+00
  0.2381265000000000E+00 1 -0.1624868022000000E+02
         # Potential name:  GTH-PBE-Q13  for symbol:  GA
         # Potential read from the potential filename: GTH_POTENTIALS
       &END POTENTIAL
     &END KIND
     &TOPOLOGY
       COORD_FILE_NAME 334-native.xyz
       COORD_FILE_FORMAT  XYZ
       NUMBER_OF_ATOMS  144
       MULTIPLE_UNIT_CELL  1 1 1
     &END TOPOLOGY
   &END SUBSYS
 &END FORCE_EVAL
