 # Version information for this restart file 
 # current date 2019-05-16 15:29:09.560
 # current working dir /lustre03/project/6004141/rzk/GaN-carbene/00-Surface/00-Preoptimization/334-native/Trial4
 # Program compiled at                              Sun Apr  7 00:48:11 EDT 2019
 # Program compiled on                          beluga2.int.ets1.calculquebec.ca
 # Program compiled for                        Beluga-Linux-x86-64-intel-openmpi
 # Source code revision number                                         svn:18619
 &GLOBAL
   PRINT_LEVEL  MEDIUM
   PROJECT_NAME TEST
   RUN_TYPE  CELL_OPT
 &END GLOBAL
 &MOTION
   &CELL_OPT
     MAX_ITER  150
     STEP_START_VAL  132
     EXTERNAL_PRESSURE     1.0000000000000000E+00
     KEEP_ANGLES  T
     KEEP_SYMMETRY  T
     CONSTRAINT  Z
     PRESSURE_TOLERANCE     3.0000000000000000E+02
   &END CELL_OPT
 &END MOTION
 &FORCE_EVAL
   METHOD  QS
   STRESS_TENSOR  ANALYTICAL
   &DFT
     BASIS_SET_FILE_NAME BASIS_MOLOPT
     POTENTIAL_FILE_NAME GTH_POTENTIALS
     &SCF
       MAX_SCF  100
       EPS_SCF     5.0000000000000004E-06
       &OT  T
         PRECONDITIONER  FULL_ALL
       &END OT
       &OUTER_SCF  T
         OPTIMIZER  NONE
         EPS_SCF     5.0000000000000004E-06
         MAX_SCF  10
       &END OUTER_SCF
       &PRINT
         &RESTART  OFF
           BACKUP_COPIES  1
           &EACH
             JUST_ENERGY  0
             QS_SCF  0
             MD  20
           &END EACH
         &END RESTART
       &END PRINT
     &END SCF
     &ALMO_SCF
       EPS_FILTER     9.9999999999999994E-12
       ALMO_SCF_GUESS  ATOMIC
       MO_OVERLAP_INV_ALG  DENSE_CHOLESKY
       ALMO_EXTRAPOLATION_ORDER  4
       XALMO_EXTRAPOLATION_ORDER  4
       ALMO_ALGORITHM  SKIP
       XALMO_TRIAL_WF  SIMPLE
       DELOCALIZE_METHOD  XALMO_SCF
       XALMO_R_CUTOFF_FACTOR     1.8000000000000000E+00
       &ALMO_OPTIMIZER_DIIS
         MAX_ITER  100
         EPS_ERROR     1.0000000000000001E-05
         N_DIIS  5
       &END ALMO_OPTIMIZER_DIIS
       &ALMO_OPTIMIZER_PCG
         MAX_ITER  50
         EPS_ERROR     1.0000000000000001E-05
         LIN_SEARCH_EPS_ERROR     5.0000000000000003E-02
         LIN_SEARCH_STEP_SIZE_GUESS     5.0000000000000001E-03
         CONJUGATOR  DAI_YUAN
         MAX_ITER_OUTER_LOOP  10
       &END ALMO_OPTIMIZER_PCG
       &XALMO_OPTIMIZER_PCG
         MAX_ITER  1000
         EPS_ERROR     1.0000000000000001E-05
         LIN_SEARCH_EPS_ERROR     1.0000000000000001E-01
         LIN_SEARCH_STEP_SIZE_GUESS     1.0000000000000000E-02
         CONJUGATOR  DAI_YUAN
         PRECOND_FILTER_THRESHOLD     1.0000000000000000E-03
         MAX_ITER_OUTER_LOOP  0
       &END XALMO_OPTIMIZER_PCG
       &MATRIX_ITERATE
         EPS_TARGET_FACTOR     1.0000000000000000E+01
       &END MATRIX_ITERATE
     &END ALMO_SCF
     &QS
       EPS_DEFAULT     1.0000000000000000E-14
       ALMO_SCF  F
       METHOD  GPW
     &END QS
     &MGRID
       NGRIDS  5
       CUTOFF     1.2000000000000000E+03
     &END MGRID
     &XC
       DENSITY_CUTOFF     1.0000000000000000E-10
       GRADIENT_CUTOFF     1.0000000000000000E-10
       TAU_CUTOFF     1.0000000000000000E-10
       &XC_FUNCTIONAL  NO_SHORTCUT
         &PBE  T
         &END PBE
       &END XC_FUNCTIONAL
       &VDW_POTENTIAL
         POTENTIAL_TYPE  PAIR_POTENTIAL
         &PAIR_POTENTIAL
           R_CUTOFF     1.0000000000000004E+01
           TYPE  DFTD3
           PARAMETER_FILE_NAME dftd3.dat
           REFERENCE_FUNCTIONAL PBE
           EPS_CN     9.9999999999999995E-07
           CALCULATE_C9_TERM  T
           REFERENCE_C9_TERM  T
           LONG_RANGE_CORRECTION  F
           VERBOSE_OUTPUT  F
         &END PAIR_POTENTIAL
       &END VDW_POTENTIAL
     &END XC
   &END DFT
   &SUBSYS
     &CELL
       A     9.7373128198108567E+00    0.0000000000000000E+00    0.0000000000000000E+00
       B    -4.8590259149992532E+00    8.4160797600725026E+00    0.0000000000000000E+00
       C     0.0000000000000000E+00    0.0000000000000000E+00    3.0744000000000000E+01
       MULTIPLE_UNIT_CELL  1 1 1
       &CELL_REF
         A     9.5580000000000034E+00    0.0000000000000000E+00    0.0000000000000000E+00
         B    -4.7790000000000017E+00    8.2774708093716640E+00    0.0000000000000000E+00
         C     0.0000000000000000E+00    0.0000000000000000E+00    3.0744000000000000E+01
         MULTIPLE_UNIT_CELL  1 1 1
       &END CELL_REF
     &END CELL
     &COORD
Ga    4.3542222482915028E-04   -2.5817208817182549E-03   -5.8727352821014667E-01
N    3.5595882202196756E-03    1.8718013924024581E+00    5.6620727124128023E-01
Ga    2.8897956727149164E-03    1.8391700843741798E+00    2.5963942577729924E+00
N   -1.7801196207273482E-04   -3.8882375827528357E-03    3.2297263380069432E+00
Ga    4.6374393717957046E-04   -3.2707803057219309E-03    5.2208482992628360E+00
N    3.3971610155069582E-03    1.8716828928473224E+00    5.8072986537329463E+00
Ga    2.9476185150839958E-03    1.8700582955114800E+00    7.8062485034010276E+00
N   -5.1940255477819368E-05   -3.3415920268732831E-03    8.4089784785900008E+00
Ga   -2.6500049172412029E-04   -1.3676251711680959E-03    1.0406762476046946E+01
N    2.7356275710388009E-03    1.8710726955060732E+00    1.1010699432706920E+01
Ga    1.8521439485187699E-03    1.8778432114677384E+00    1.3003988163549145E+01
N   -1.3362729417101566E-03    8.0216762731280689E-03    1.3608507334221377E+01
Ga   -3.9574613827797530E-03    1.7506950029350727E-02    1.5610901582604528E+01
N    2.6531087707560856E-03    1.8839389795472692E+00    1.6265117476399940E+01
Ga    7.8600436091438557E-03    1.8969359394380132E+00    1.8386076278999692E+01
N    3.5991165696475417E-03    2.3346720457037254E-03    1.8660274858130908E+01
Ga   -1.6178194110359081E+00    2.8027776210572970E+00    2.8051537481867206E-01
N   -1.6214999640071537E+00    4.6719827758432233E+00    5.6535639385428305E-01
Ga   -1.5926411645203893E+00    4.6875813839564540E+00    2.5952949122964784E+00
N   -1.6194203771920210E+00    2.8020085748292050E+00    3.1878032072886389E+00
Ga   -1.6189673035748213E+00    2.8026028126158891E+00    5.1987508835073335E+00
N   -1.6192349996561954E+00    4.6727481873305399E+00    5.8075213324646784E+00
Ga   -1.6183911531778863E+00    4.6728696189530954E+00    7.8065183911775389E+00
N   -1.6199439236057873E+00    2.8020608231974333E+00    8.4110166050896282E+00
Ga   -1.6196392310074745E+00    2.8036197162909025E+00    1.0406636472669939E+01
N   -1.6125657193266889E+00    4.6744270111105974E+00    1.1013886031095241E+01
Ga   -1.6084989320990686E+00    4.6739920868352662E+00    1.3009268649169885E+01
N   -1.6176654372756263E+00    2.8052806045791332E+00    1.3623445353346431E+01
Ga   -1.6200916541779926E+00    2.8032370714245949E+00    1.5631589464761067E+01
N   -1.6226944027174515E+00    4.6823285930592826E+00    1.6214023057233383E+01
Ga   -1.6152790733489459E+00    4.6713106284752799E+00    1.8294811426674599E+01
N   -1.6229442842758766E+00    2.8117584354959244E+00    1.8747505023772678E+01
Ga   -3.2388921891273879E+00    5.6091096651869652E+00    2.8004559562117221E-01
N   -3.2327377236646524E+00    7.4784127902135600E+00    5.6580394121064637E-01
Ga   -3.2614504040256129E+00    7.4930754496346950E+00    2.5959517870592657E+00
N   -3.2394418325805403E+00    5.6074468024513298E+00    3.1880476903084771E+00
Ga   -3.2391564459564215E+00    5.6082282015086484E+00    5.1991625072250143E+00
N   -3.2332882760174693E+00    7.4777552178397837E+00    5.8086576346312944E+00
Ga   -3.2344376515451430E+00    7.4774820057095672E+00    7.8080961006096068E+00
N   -3.2388384145903384E+00    5.6070706632904441E+00    8.4152488010326802E+00
Ga   -3.2383362098959858E+00    5.6085803186891212E+00    1.0412928460194431E+01
N   -3.2368623053974011E+00    7.4824584076583420E+00    1.1013556493959525E+01
Ga   -3.2367189712366335E+00    7.4863010741390248E+00    1.3009247362359437E+01
N   -3.2364366675059779E+00    5.6071326946811855E+00    1.3590300216203078E+01
Ga   -3.2365518568060385E+00    5.6095309362764292E+00    1.5582281997280845E+01
N   -3.2436510324962486E+00    7.4817080053013676E+00    1.6155345700097573E+01
Ga   -3.2514510225205631E+00    7.4906458713485016E+00    1.8205137538048184E+01
N   -3.2507521555945917E+00    5.6136903094509618E+00    1.8595791843046793E+01
Ga    3.2462997881446785E+00   -4.0087841755108277E-03    2.8064372951980171E-01
N    3.2455234593332754E+00    1.8673126830908271E+00    5.6502611065489194E-01
Ga    3.2723541333738395E+00    1.8817117688002456E+00    2.5980476286113032E+00
N    3.2453016351412445E+00   -3.7332811893708308E-03    3.1878155650176465E+00
Ga    3.2458152937816154E+00   -3.1223129470941435E-03    5.1986916376712990E+00
N    3.2464515980371056E+00    1.8670830571921926E+00    5.8070639800374870E+00
Ga    3.2472010002638285E+00    1.8666261619162066E+00    7.8062541135746102E+00
N    3.2463519567855474E+00   -3.6178333962104967E-03    8.4127847613353239E+00
Ga    3.2463040625017725E+00   -2.0962097579155276E-03    1.0409577961155437E+01
N    3.2467467157088157E+00    1.8695544996866891E+00    1.1014761717363879E+01
Ga    3.2418932958265070E+00    1.8688579433448886E+00    1.3011827320829317E+01
N    3.2463290838356587E+00   -1.2832527385372968E-03    1.3623592165448080E+01
Ga    3.2539276790462486E+00    6.8550917517746026E-04    1.5627111058889801E+01
N    3.2302723424712307E+00    1.8810587621327064E+00    1.6201583134412129E+01
Ga    3.2338557697744297E+00    1.8844098294735541E+00    1.8268273215763685E+01
N    3.2382335938093028E+00   -7.7597519911428540E-03    1.8575998253775200E+01
Ga    1.6248149026028937E+00    2.8034094720604350E+00    2.8079203760196042E-01
N    1.6338155963931877E+00    4.6725574664429503E+00    5.6593917306000874E-01
Ga    1.6047153352039514E+00    4.6877717692739536E+00    2.5956520358754323E+00
N    1.6258785167082599E+00    2.8019046317409289E+00    3.1877598279515942E+00
Ga    1.6263890260991900E+00    2.8025802167237384E+00    5.1987658813196544E+00
N    1.6323466681922414E+00    4.6726889435477004E+00    5.8076596578827351E+00
Ga    1.6309478552232894E+00    4.6727948273451529E+00    7.8067343172520083E+00
N    1.6263900701728635E+00    2.8018951794743958E+00    8.4108448327359895E+00
Ga    1.6260274794481437E+00    2.8033749563834642E+00    1.0406392547275814E+01
N    1.6248335431420535E+00    4.6744441928170666E+00    1.1012787687322110E+01
Ga    1.6178933196588465E+00    4.6742434216208881E+00    1.3007843732170913E+01
N    1.6213197495408918E+00    2.8058383125945658E+00    1.3620405811346629E+01
Ga    1.6200793143583840E+00    2.8063403533824021E+00    1.5628291977540988E+01
N    1.6316591452621514E+00    4.6826048843971773E+00    1.6214478709437628E+01
Ga    1.6433717119569879E+00    4.6696430680127525E+00    1.8296684847546686E+01
N    1.6357642122885525E+00    2.8089353982036998E+00    1.8747311328851250E+01
Ga    6.8279745592578506E-03    5.6087583092162392E+00   -5.8451367523477171E-01
N    9.8276578516546149E-03    7.4839152476959399E+00    5.6632235899649563E-01
Ga    9.2684995655903015E-03    7.4505245010265826E+00    2.5959231989044205E+00
N    6.1946090474797235E-03    5.6069363180477341E+00    3.2287597510165278E+00
Ga    6.8551476951021761E-03    5.6079558829893976E+00    5.2197955390150392E+00
N    9.7884828514915086E-03    7.4827996054747663E+00    5.8067954958023549E+00
Ga    9.4363273917193197E-03    7.4809012885754447E+00    7.8055660601842574E+00
N    6.4877090895313558E-03    5.6079844440226427E+00    8.4071821838972198E+00
Ga    6.4213209665968003E-03    5.6106835374237445E+00    1.0403985269417243E+01
N    9.7891908178278121E-03    7.4800721538298012E+00    1.1016942126495938E+01
Ga    8.5662662291620742E-03    7.4814005222519260E+00    1.3015455430503128E+01
N    4.5076984393585739E-03    5.6150558927662813E+00    1.3636876465870346E+01
Ga    4.1685097253711390E-03    5.6255937999479633E+00    1.5647712736862239E+01
N    7.0584692526759083E-03    7.4946498895732327E+00    1.6229591604697905E+01
Ga    1.6935869499004125E-02    7.4713573337392596E+00    1.8297218856699782E+01
N    1.1919788298391354E-02    5.5878668853521338E+00    1.8658889650641648E+01
Ga    6.4914147511346174E+00   -3.4215067794774413E-03    2.8055061395119341E-01
N    6.4978430389387789E+00    1.8679724130203268E+00    5.6509462538514599E-01
Ga    6.4706598902593511E+00    1.8819643206870542E+00    2.5981314796686306E+00
N    6.4918169693108645E+00   -3.6532252772408093E-03    3.1878001142274544E+00
Ga    6.4925139195746038E+00   -3.1306035813624053E-03    5.1987107615662538E+00
N    6.4976817533998270E+00    1.8671095359933703E+00    5.8070354938884687E+00
Ga    6.4961638013805905E+00    1.8667415137372985E+00    7.8060287490581795E+00
N    6.4912799254148856E+00   -3.5567181420660299E-03    8.4123084764494376E+00
Ga    6.4914139443574435E+00   -2.0582261277197291E-03    1.0408833666234084E+01
N    6.4969225726283089E+00    1.8690035375346326E+00    1.1015606567075340E+01
Ga    6.5002719049981676E+00    1.8674706014401550E+00    1.3012729850478706E+01
N    6.4883021334065578E+00   -1.7195957786796017E-03    1.3627034419605691E+01
Ga    6.4792374695639392E+00   -1.3370004210766925E-03    1.5631128967483574E+01
N    6.5106715656609104E+00    1.8773876550499409E+00    1.6209323801196152E+01
Ga    6.5193891308833027E+00    1.8857058468797130E+00    1.8279798599252025E+01
N    6.5067669530760837E+00   -6.7038254593229816E-03    1.8586447100822920E+01
Ga    4.8722809137596590E+00    2.8028010759725697E+00   -5.5931614433719834E-01
N    4.8754748866944686E+00    4.6767272907112138E+00    5.6512882862951319E-01
Ga    4.8747491571477521E+00    4.6459151825321729E+00    2.5979866744086197E+00
N    4.8716965576254152E+00    2.8018883117248796E+00    3.2289357090716417E+00
Ga    4.8723569394043649E+00    2.8027574827760535E+00    5.2206577411828547E+00
N    4.8753429024702681E+00    4.6771838253273206E+00    5.8094559240483914E+00
Ga    4.8748924766040194E+00    4.6748405497261993E+00    7.8097306889944598E+00
N    4.8720571327089521E+00    2.8003170834285713E+00    8.4097084267863007E+00
Ga    4.8722834374045787E+00    2.7999843519495018E+00    1.0408198987770181E+01
N    4.8749819480407730E+00    4.6710658976453905E+00    1.1011408137692776E+01
Ga    4.8741078015426247E+00    4.6667931652046653E+00    1.3006439681501568E+01
N    4.8716719973467555E+00    2.7894677376034025E+00    1.3613504504494054E+01
Ga    4.8706847875679982E+00    2.7836296871743742E+00    1.5614787888222185E+01
N    4.8719584519849732E+00    4.6747402855116160E+00    1.6115222438620329E+01
Ga    4.8809131852977004E+00    4.6850315157560001E+00    1.8151198754708371E+01
N    4.8737479207808860E+00    2.8114987733034060E+00    1.8564240440137180E+01
Ga    3.2522444985615016E+00    5.6082704336661804E+00    2.8013379651599846E-01
N    3.2513396373113466E+00    7.4775533224938719E+00    5.6550704339050539E-01
Ga    3.2797527970736366E+00    7.4927161127676172E+00    2.5959048939480622E+00
N    3.2522936564673399E+00    5.6072855581154446E+00    3.1883907170662442E+00
Ga    3.2530147523072683E+00    5.6080657481173848E+00    5.1993815915768247E+00
N    3.2529646034627944E+00    7.4776413618405799E+00    5.8085932776614406E+00
Ga    3.2533688517562638E+00    7.4772713343878277E+00    7.8078030056514702E+00
N    3.2519671943474733E+00    5.6071076260681973E+00    8.4155651292952953E+00
Ga    3.2515235664618891E+00    5.6088592836606024E+00    1.0413341309522256E+01
N    3.2550843177812552E+00    7.4827123377140969E+00    1.1014430108585255E+01
Ga    3.2524874339343905E+00    7.4862672227438400E+00    1.3010442230080727E+01
N    3.2465913488884786E+00    5.6064790907845161E+00    1.3588502520959365E+01
Ga    3.2427666636766448E+00    5.6098883646397946E+00    1.5580991271017322E+01
N    3.2605277993089263E+00    7.4803146280487498E+00    1.6159185159054761E+01
Ga    3.2796112410262346E+00    7.4901409831437968E+00    1.8209422938453987E+01
N    3.2730197138069004E+00    5.6135558647176982E+00    1.8601569117344482E+01
     &END COORD
     &KIND N
       BASIS_SET DZVP-MOLOPT-SR-GTH
       POTENTIAL GTH-PBE-q5
       &POTENTIAL
2 3
0.2837905100000000E+00 2 -0.1241522559000000E+02  0.1868095920000000E+01
2
0.2554050000000000E+00 1  0.1363026257000000E+02
0.2454945300000000E+00 0
       &END POTENTIAL
     &END KIND
     &KIND Ga
       BASIS_SET DZVP-MOLOPT-SR-GTH
       POTENTIAL GTH-PBE-q13
       &POTENTIAL
2 1 10
0.4900000000000000E+00 0
3
0.4167772300000000E+00 3  0.1047568975000000E+02 -0.4921768140000000E+01  0.8707055900000000E+00
0.7770178090000000E+01 -0.2248152160000000E+01
0.1784415450000000E+01
0.5696265200000000E+00 2  0.1777985340000000E+01  0.1958597600000000E+00
-0.2317443900000000E+00
0.2381265000000000E+00 1 -0.1624868022000000E+02
       &END POTENTIAL
     &END KIND
     &TOPOLOGY
       COORD_FILE_NAME 334-native.xyz
       COORD_FILE_FORMAT  XYZ
       NUMBER_OF_ATOMS  144
       MULTIPLE_UNIT_CELL  1 1 1
     &END TOPOLOGY
   &END SUBSYS
 &END FORCE_EVAL
