 # Version information for this restart file 
 # current date 2019-05-16 15:10:56.854
 # current working dir /lustre03/project/6004141/rzk/GaN-carbene/00-Surface/00-Preoptimization/334-native/Trial4
 # Program compiled at                              Sun Apr  7 00:48:11 EDT 2019
 # Program compiled on                          beluga2.int.ets1.calculquebec.ca
 # Program compiled for                        Beluga-Linux-x86-64-intel-openmpi
 # Source code revision number                                         svn:18619
 &GLOBAL
   PRINT_LEVEL  MEDIUM
   PROJECT_NAME TEST
   RUN_TYPE  CELL_OPT
 &END GLOBAL
 &MOTION
   &CELL_OPT
     MAX_ITER  150
     STEP_START_VAL  119
     EXTERNAL_PRESSURE     1.0000000000000000E+00
     KEEP_ANGLES  T
     KEEP_SYMMETRY  T
     CONSTRAINT  Z
     PRESSURE_TOLERANCE     3.0000000000000000E+02
   &END CELL_OPT
 &END MOTION
 &FORCE_EVAL
   METHOD  QS
   STRESS_TENSOR  ANALYTICAL
   &DFT
     BASIS_SET_FILE_NAME BASIS_MOLOPT
     POTENTIAL_FILE_NAME GTH_POTENTIALS
     &SCF
       MAX_SCF  100
       EPS_SCF     5.0000000000000004E-06
       &OT  T
         PRECONDITIONER  FULL_ALL
       &END OT
       &OUTER_SCF  T
         OPTIMIZER  NONE
         EPS_SCF     5.0000000000000004E-06
         MAX_SCF  10
       &END OUTER_SCF
       &PRINT
         &RESTART  OFF
           BACKUP_COPIES  1
           &EACH
             JUST_ENERGY  0
             QS_SCF  0
             MD  20
           &END EACH
         &END RESTART
       &END PRINT
     &END SCF
     &ALMO_SCF
       EPS_FILTER     9.9999999999999994E-12
       ALMO_SCF_GUESS  ATOMIC
       MO_OVERLAP_INV_ALG  DENSE_CHOLESKY
       ALMO_EXTRAPOLATION_ORDER  4
       XALMO_EXTRAPOLATION_ORDER  4
       ALMO_ALGORITHM  SKIP
       XALMO_TRIAL_WF  SIMPLE
       DELOCALIZE_METHOD  XALMO_SCF
       XALMO_R_CUTOFF_FACTOR     1.8000000000000000E+00
       &ALMO_OPTIMIZER_DIIS
         MAX_ITER  100
         EPS_ERROR     1.0000000000000001E-05
         N_DIIS  5
       &END ALMO_OPTIMIZER_DIIS
       &ALMO_OPTIMIZER_PCG
         MAX_ITER  50
         EPS_ERROR     1.0000000000000001E-05
         LIN_SEARCH_EPS_ERROR     5.0000000000000003E-02
         LIN_SEARCH_STEP_SIZE_GUESS     5.0000000000000001E-03
         CONJUGATOR  DAI_YUAN
         MAX_ITER_OUTER_LOOP  10
       &END ALMO_OPTIMIZER_PCG
       &XALMO_OPTIMIZER_PCG
         MAX_ITER  1000
         EPS_ERROR     1.0000000000000001E-05
         LIN_SEARCH_EPS_ERROR     1.0000000000000001E-01
         LIN_SEARCH_STEP_SIZE_GUESS     1.0000000000000000E-02
         CONJUGATOR  DAI_YUAN
         PRECOND_FILTER_THRESHOLD     1.0000000000000000E-03
         MAX_ITER_OUTER_LOOP  0
       &END XALMO_OPTIMIZER_PCG
       &MATRIX_ITERATE
         EPS_TARGET_FACTOR     1.0000000000000000E+01
       &END MATRIX_ITERATE
     &END ALMO_SCF
     &QS
       EPS_DEFAULT     1.0000000000000000E-14
       ALMO_SCF  F
       METHOD  GPW
     &END QS
     &MGRID
       NGRIDS  5
       CUTOFF     1.2000000000000000E+03
     &END MGRID
     &XC
       DENSITY_CUTOFF     1.0000000000000000E-10
       GRADIENT_CUTOFF     1.0000000000000000E-10
       TAU_CUTOFF     1.0000000000000000E-10
       &XC_FUNCTIONAL  NO_SHORTCUT
         &PBE  T
         &END PBE
       &END XC_FUNCTIONAL
       &VDW_POTENTIAL
         POTENTIAL_TYPE  PAIR_POTENTIAL
         &PAIR_POTENTIAL
           R_CUTOFF     1.0000000000000004E+01
           TYPE  DFTD3
           PARAMETER_FILE_NAME dftd3.dat
           REFERENCE_FUNCTIONAL PBE
           EPS_CN     9.9999999999999995E-07
           CALCULATE_C9_TERM  T
           REFERENCE_C9_TERM  T
           LONG_RANGE_CORRECTION  F
           VERBOSE_OUTPUT  F
         &END PAIR_POTENTIAL
       &END VDW_POTENTIAL
     &END XC
   &END DFT
   &SUBSYS
     &CELL
       A     9.7398383525034369E+00    0.0000000000000000E+00    0.0000000000000000E+00
       B    -4.8570209487958920E+00    8.4126070567408355E+00    0.0000000000000000E+00
       C     0.0000000000000000E+00    0.0000000000000000E+00    3.0744000000000000E+01
       MULTIPLE_UNIT_CELL  1 1 1
       &CELL_REF
         A     9.5580000000000034E+00    0.0000000000000000E+00    0.0000000000000000E+00
         B    -4.7790000000000017E+00    8.2774708093716640E+00    0.0000000000000000E+00
         C     0.0000000000000000E+00    0.0000000000000000E+00    3.0744000000000000E+01
         MULTIPLE_UNIT_CELL  1 1 1
       &END CELL_REF
     &END CELL
     &COORD
Ga    1.1425931394726712E-03   -1.3249634795949206E-03   -5.8814463284063956E-01
N    4.6188211013202521E-03    1.8717067792298994E+00    5.6558507693972504E-01
Ga    3.7727065097797725E-03    1.8393150569846932E+00    2.5955887508585973E+00
N   -4.6557406868058651E-04   -3.5224030104390428E-03    3.2293378450960946E+00
Ga    1.1969510401618062E-05   -3.4296803992721627E-03    5.2206456212719150E+00
N    4.2785557357002913E-03    1.8712212214680737E+00    5.8071311831750219E+00
Ga    3.6935106415283887E-03    1.8687681531508258E+00    7.8060650251324208E+00
N   -2.5529398143720898E-04   -4.3485888813829367E-03    8.4086022319561700E+00
Ga    1.4530017876819156E-04   -2.9976630550509900E-03    1.0406421870950433E+01
N    3.4750871307111342E-03    1.8687924382666805E+00    1.1011027568571313E+01
Ga    2.2678516031971593E-03    1.8747012819932862E+00    1.3005117317704563E+01
N   -8.8871678803733537E-04    5.6344039023357691E-03    1.3611510080839132E+01
Ga   -7.2949303545686624E-03    1.5234247095243769E-02    1.5615191772007037E+01
N    1.5459635953839796E-03    1.8832481310507412E+00    1.6262967507458693E+01
Ga    1.1975605040322395E-02    1.9017724212547622E+00    1.8379529569887957E+01
N    3.0995146175470073E-03    6.3256233837891409E-03    1.8660800323066667E+01
Ga   -1.6173371953773248E+00    2.8021608394640589E+00    2.7920730580856429E-01
N   -1.6194343719712561E+00    4.6713026913222286E+00    5.6507105729811935E-01
Ga   -1.5911398967954506E+00    4.6862762663573605E+00    2.5955240563357496E+00
N   -1.6188917148514612E+00    2.8009230857645906E+00    3.1877218805171101E+00
Ga   -1.6183589323376546E+00    2.8013217122183596E+00    5.1988959789685127E+00
N   -1.6178133187530672E+00    4.6713122432754792E+00    5.8070784830605975E+00
Ga   -1.6170587928033560E+00    4.6705055603412804E+00    7.8062714666121575E+00
N   -1.6194474384085851E+00    2.7998280225443604E+00    8.4103700594981667E+00
Ga   -1.6189252657904556E+00    2.8008041815962534E+00    1.0406353803338607E+01
N   -1.6111482140045856E+00    4.6711858958334513E+00    1.1013759690050703E+01
Ga   -1.6069025788219611E+00    4.6713025601066658E+00    1.3009575092712408E+01
N   -1.6179958883743317E+00    2.8024209542911684E+00    1.3623356643223630E+01
Ga   -1.6218062554113446E+00    2.8011891634862938E+00    1.5631769740970302E+01
N   -1.6215984412180697E+00    4.6797181880664329E+00    1.6213651474007875E+01
Ga   -1.6125654724304965E+00    4.6756230616305832E+00    1.8294693198715947E+01
N   -1.6225614083530617E+00    2.8139005734623264E+00    1.8741990666282000E+01
Ga   -3.2375688220942163E+00    5.6071671842452773E+00    2.7919529139121813E-01
N   -3.2307017276039454E+00    7.4766862063887531E+00    5.6539005978615819E-01
Ga   -3.2592032337548864E+00    7.4909005664481301E+00    2.5956920363250657E+00
N   -3.2383944222581564E+00    5.6053289357162761E+00    3.1879199857277603E+00
Ga   -3.2382004656028900E+00    5.6059066162943667E+00    5.1991533785822686E+00
N   -3.2314312666586313E+00    7.4750231204497544E+00    5.8085389250612280E+00
Ga   -3.2326569881474461E+00    7.4737151521598451E+00    7.8081046253560009E+00
N   -3.2379138020088578E+00    5.6035393642009286E+00    8.4151714991553295E+00
Ga   -3.2371985136910726E+00    5.6044557749307184E+00    1.0413181735718910E+01
N   -3.2342370911851881E+00    7.4783211061809620E+00    1.1013633914059614E+01
Ga   -3.2344911569543524E+00    7.4827842264821607E+00    1.3009745968788158E+01
N   -3.2357975850578762E+00    5.6034970528476755E+00    1.3591475195857967E+01
Ga   -3.2389970317842094E+00    5.6032377277859942E+00    1.5584596669567755E+01
N   -3.2421671560386720E+00    7.4769012900675147E+00    1.6158543193736556E+01
Ga   -3.2475371243039635E+00    7.4909719759460653E+00    1.8207995704262100E+01
N   -3.2505798321112809E+00    5.6139220693818288E+00    1.8601273374310065E+01
Ga    3.2472288474580870E+00   -3.4078407953134016E-03    2.7915469266576431E-01
N    3.2478640658183071E+00    1.8679483269230701E+00    5.6423041364525672E-01
Ga    3.2741037705003544E+00    1.8817991954381648E+00    2.5977401055977216E+00
N    3.2460354365750259E+00   -3.4342000728553482E-03    3.1878348040761382E+00
Ga    3.2462386663070806E+00   -3.3143177293822501E-03    5.1990626036133110E+00
N    3.2479981998189968E+00    1.8666708985283418E+00    5.8070920883782788E+00
Ga    3.2485019429954476E+00    1.8654311742350129E+00    7.8062827027031361E+00
N    3.2466807998035536E+00   -4.8091553568421451E-03    8.4119726623863134E+00
Ga    3.2469752655604647E+00   -3.6100756003918134E-03    1.0408889889687451E+01
N    3.2487513245199509E+00    1.8676520366220908E+00    1.1014519735759739E+01
Ga    3.2439478833713640E+00    1.8663694503716144E+00    1.3011962476993551E+01
N    3.2467070608502238E+00   -3.1904961955882979E-03    1.3625214873483140E+01
Ga    3.2521917385927108E+00   -8.7851210379282928E-04    1.5629203230440222E+01
N    3.2300734822935833E+00    1.8808907936525459E+00    1.6206800032461018E+01
Ga    3.2400740856654315E+00    1.8915394644119956E+00    1.8275489735809430E+01
N    3.2398002762375824E+00   -4.0867299941665094E-03    1.8576605272806539E+01
Ga    1.6264014308851940E+00    2.8028816275711868E+00    2.7969761697678730E-01
N    1.6359220507925951E+00    4.6719442289152653E+00    5.6582782177304258E-01
Ga    1.6072892729242572E+00    4.6864945492970405E+00    2.5961393459402404E+00
N    1.6272057634891435E+00    2.8007927135285633E+00    3.1878410210664816E+00
Ga    1.6276574366528382E+00    2.8012947121368783E+00    5.1990437780894174E+00
N    1.6346570612873390E+00    4.6712854289749304E+00    5.8071872029547817E+00
Ga    1.6328442516816788E+00    4.6703704695706829E+00    7.8065202105659672E+00
N    1.6273805113631314E+00    2.7997021921406526E+00    8.4106789470303074E+00
Ga    1.6270940547954349E+00    2.8005706917727409E+00    1.0406869506496431E+01
N    1.6274482930102137E+00    4.6714362652021748E+00    1.1012687742001313E+01
Ga    1.6210467679940901E+00    4.6711433811055523E+00    1.3007850768814619E+01
N    1.6225135497575760E+00    2.8024333710457197E+00    1.3618796682373247E+01
Ga    1.6193702683751874E+00    2.8020109257230246E+00    1.5626128165341544E+01
N    1.6352887818824788E+00    4.6780013683792783E+00    1.6212801208933470E+01
Ga    1.6486448282677135E+00    4.6759857491059984E+00    1.8294780736114951E+01
N    1.6358127031156970E+00    2.8137706745374036E+00    1.8748560916575371E+01
Ga    9.6054372196738482E-03    5.6075733300988961E+00   -5.8727290338238525E-01
N    1.2987739999252765E-02    7.4813303002926048E+00    5.6581536690562739E-01
Ga    1.2268929195120768E-02    7.4482200438381003E+00    2.5958799701272008E+00
N    8.1971250579890680E-03    5.6048189779547197E+00    3.2287132289209310E+00
Ga    8.7412643515602569E-03    5.6055973962396282E+00    5.2195238897063598E+00
N    1.2778992929745771E-02    7.4800453171520438E+00    5.8066178596918352E+00
Ga    1.2378355021966434E-02    7.4770957664038171E+00    7.8056766152436676E+00
N    8.1673106149708057E-03    5.6043872152619230E+00    8.4071180041899538E+00
Ga    8.2887696368264385E-03    5.6064957787154395E+00    1.0404379705978030E+01
N    1.2409105368916528E-02    7.4759052740434218E+00    1.1016411791200969E+01
Ga    1.1496295574139941E-02    7.4771681475156493E+00    1.3015483640810366E+01
N    6.7204387232507063E-03    5.6105814590836811E+00    1.3635975664981515E+01
Ga    3.9549597021845502E-03    5.6202581454698581E+00    1.5647600055349226E+01
N    9.1179072628557734E-03    7.4900032466438642E+00    1.6227089995532062E+01
Ga    2.4649716235794660E-02    7.4731254930252753E+00    1.8294474630049798E+01
N    1.3628165242543589E-02    5.5894802606924978E+00    1.8655625849568906E+01
Ga    6.4929349573959065E+00   -2.7742241730655693E-03    2.7970275017104451E-01
N    6.5000379018370449E+00    1.8687197591118845E+00    5.6470410027060225E-01
Ga    6.4732476796877023E+00    1.8818578844000642E+00    2.5980234524049384E+00
N    6.4934188903371544E+00   -3.5936832600961858E-03    3.1873708604435866E+00
Ga    6.4940023827314244E+00   -3.4893254105666234E-03    5.1985603210727582E+00
N    6.5002994364178184E+00    1.8664700436010224E+00    5.8067732231700147E+00
Ga    6.4987453774228854E+00    1.8651104016847677E+00    7.8061224027433820E+00
N    6.4925135583902822E+00   -4.8690187985269860E-03    8.4126087581556011E+00
Ga    6.4931372283301041E+00   -3.8298859712993945E-03    1.0409652676529326E+01
N    6.4991490735252393E+00    1.8677387546731830E+00    1.1014738306326690E+01
Ga    6.5018044902127441E+00    1.8665211571588696E+00    1.3012629837308351E+01
N    6.4903587356200108E+00   -3.7023757769982461E-03    1.3624907278858231E+01
Ga    6.4803079002891142E+00   -5.8641182736106062E-03    1.5631061889965709E+01
N    6.5114549546258020E+00    1.8747078271066127E+00    1.6210273081785150E+01
Ga    6.5228508824511353E+00    1.8904555642891971E+00    1.8281217815233628E+01
N    6.5079117078135695E+00   -3.2375227111527492E-03    1.8583973691287408E+01
Ga    4.8753066814436323E+00    2.8029791686775964E+00   -5.5665899764071691E-01
N    4.8788037910449482E+00    4.6752527004655420E+00    5.6444251977046467E-01
Ga    4.8779702776006451E+00    4.6445420039565546E+00    2.5977126441201448E+00
N    4.8738996478580106E+00    2.8008458212039278E+00    3.2290061582900962E+00
Ga    4.8744651506971710E+00    2.8014028204710932E+00    5.2210509544550741E+00
N    4.8784785431709192E+00    4.6756707327453215E+00    5.8090809424460392E+00
Ga    4.8779759147964059E+00    4.6725527587188589E+00    7.8093032469812673E+00
N    4.8740441284586788E+00    2.7981703469064678E+00    8.4087369074748395E+00
Ga    4.8743087487292858E+00    2.7976275881512973E+00    1.0407230078024636E+01
N    4.8784591595813476E+00    4.6677270371498416E+00    1.1011962250120066E+01
Ga    4.8773966358180125E+00    4.6628333874636532E+00    1.3007254767590153E+01
N    4.8729021840487645E+00    2.7862096283591731E+00    1.3616809219682780E+01
Ga    4.8690238470665728E+00    2.7794270901893872E+00    1.5618789088751567E+01
N    4.8726379794671058E+00    4.6710208720252124E+00    1.6122460942886047E+01
Ga    4.8840942254711877E+00    4.6874444343295503E+00    1.8161644315834781E+01
N    4.8773111948927736E+00    2.8142430009048018E+00    1.8581286694324771E+01
Ga    3.2550578724084414E+00    5.6063990390608982E+00    2.7896531213491643E-01
N    3.2556581274493239E+00    7.4757654570176610E+00    5.6480079489863821E-01
Ga    3.2837432922137966E+00    7.4904441209706922E+00    2.5949989853018600E+00
N    3.2553541953408334E+00    5.6053498303229352E+00    3.1880648648648080E+00
Ga    3.2559370171531645E+00    5.6059146760395677E+00    5.1994421292311532E+00
N    3.2567299880793525E+00    7.4750543222266028E+00    5.8087853318624685E+00
Ga    3.2570212286273006E+00    7.4737911091619935E+00    7.8083350594473471E+00
N    3.2546055162305203E+00    5.6033884694452869E+00    8.4148328643055414E+00
Ga    3.2547551423935452E+00    5.6042471541007801E+00    1.0412848469190935E+01
N    3.2599602101082175E+00    7.4779939944170160E+00    1.1013502673620771E+01
Ga    3.2581583161780303E+00    7.4816026662951280E+00    1.3010256049937274E+01
N    3.2499778807879052E+00    5.6019065279589215E+00    1.3588660560144294E+01
Ga    3.2445207022734608E+00    5.6060664832092701E+00    1.5581590601850529E+01
N    3.2641603105343369E+00    7.4739565364023957E+00    1.6161032222584616E+01
Ga    3.2856777845337368E+00    7.4914871298675116E+00    1.8210488020771319E+01
N    3.2739162958197485E+00    5.6162864006845608E+00    1.8609325675596089E+01
     &END COORD
     &KIND N
       BASIS_SET DZVP-MOLOPT-SR-GTH
       POTENTIAL GTH-PBE-q5
       &POTENTIAL
2 3
0.2837905100000000E+00 2 -0.1241522559000000E+02  0.1868095920000000E+01
2
0.2554050000000000E+00 1  0.1363026257000000E+02
0.2454945300000000E+00 0
       &END POTENTIAL
     &END KIND
     &KIND Ga
       BASIS_SET DZVP-MOLOPT-SR-GTH
       POTENTIAL GTH-PBE-q13
       &POTENTIAL
2 1 10
0.4900000000000000E+00 0
3
0.4167772300000000E+00 3  0.1047568975000000E+02 -0.4921768140000000E+01  0.8707055900000000E+00
0.7770178090000000E+01 -0.2248152160000000E+01
0.1784415450000000E+01
0.5696265200000000E+00 2  0.1777985340000000E+01  0.1958597600000000E+00
-0.2317443900000000E+00
0.2381265000000000E+00 1 -0.1624868022000000E+02
       &END POTENTIAL
     &END KIND
     &TOPOLOGY
       COORD_FILE_NAME 334-native.xyz
       COORD_FILE_FORMAT  XYZ
       NUMBER_OF_ATOMS  144
       MULTIPLE_UNIT_CELL  1 1 1
     &END TOPOLOGY
   &END SUBSYS
 &END FORCE_EVAL
