 # Version information for this restart file 
 # current date 2019-05-16 04:02:53.789
 # current working dir /lustre03/project/6004141/rzk/GaN-carbene/00-Surface/00-Preoptimization/334-native/Trial4
 # Program compiled at                              Sun Apr  7 00:48:11 EDT 2019
 # Program compiled on                          beluga2.int.ets1.calculquebec.ca
 # Program compiled for                        Beluga-Linux-x86-64-intel-openmpi
 # Source code revision number                                         svn:18619
 &GLOBAL
   PRINT_LEVEL  MEDIUM
   PROJECT_NAME TEST
   RUN_TYPE  CELL_OPT
 &END GLOBAL
 &MOTION
   &CELL_OPT
     MAX_ITER  100
     STEP_START_VAL  63
     EXTERNAL_PRESSURE     1.0000000000000000E+00
     KEEP_ANGLES  T
     KEEP_SYMMETRY  T
     CONSTRAINT  Z
     PRESSURE_TOLERANCE     1.0000000000000000E+02
   &END CELL_OPT
 &END MOTION
 &FORCE_EVAL
   METHOD  QS
   STRESS_TENSOR  ANALYTICAL
   &DFT
     BASIS_SET_FILE_NAME BASIS_MOLOPT
     POTENTIAL_FILE_NAME GTH_POTENTIALS
     &SCF
       MAX_SCF  100
       EPS_SCF     5.0000000000000004E-06
       &OT  T
         PRECONDITIONER  FULL_ALL
       &END OT
       &OUTER_SCF  T
         OPTIMIZER  NONE
         EPS_SCF     5.0000000000000004E-06
         MAX_SCF  10
       &END OUTER_SCF
       &PRINT
         &RESTART  OFF
           BACKUP_COPIES  1
           &EACH
             JUST_ENERGY  0
             QS_SCF  0
             MD  20
           &END EACH
         &END RESTART
       &END PRINT
     &END SCF
     &ALMO_SCF
       EPS_FILTER     9.9999999999999994E-12
       ALMO_SCF_GUESS  ATOMIC
       MO_OVERLAP_INV_ALG  DENSE_CHOLESKY
       ALMO_EXTRAPOLATION_ORDER  4
       XALMO_EXTRAPOLATION_ORDER  4
       ALMO_ALGORITHM  SKIP
       XALMO_TRIAL_WF  SIMPLE
       DELOCALIZE_METHOD  XALMO_SCF
       XALMO_R_CUTOFF_FACTOR     1.8000000000000000E+00
       &ALMO_OPTIMIZER_DIIS
         MAX_ITER  100
         EPS_ERROR     1.0000000000000001E-05
         N_DIIS  5
       &END ALMO_OPTIMIZER_DIIS
       &ALMO_OPTIMIZER_PCG
         MAX_ITER  50
         EPS_ERROR     1.0000000000000001E-05
         LIN_SEARCH_EPS_ERROR     5.0000000000000003E-02
         LIN_SEARCH_STEP_SIZE_GUESS     5.0000000000000001E-03
         CONJUGATOR  DAI_YUAN
         MAX_ITER_OUTER_LOOP  10
       &END ALMO_OPTIMIZER_PCG
       &XALMO_OPTIMIZER_PCG
         MAX_ITER  1000
         EPS_ERROR     1.0000000000000001E-05
         LIN_SEARCH_EPS_ERROR     1.0000000000000001E-01
         LIN_SEARCH_STEP_SIZE_GUESS     1.0000000000000000E-02
         CONJUGATOR  DAI_YUAN
         PRECOND_FILTER_THRESHOLD     1.0000000000000000E-03
         MAX_ITER_OUTER_LOOP  0
       &END XALMO_OPTIMIZER_PCG
       &MATRIX_ITERATE
         EPS_TARGET_FACTOR     1.0000000000000000E+01
       &END MATRIX_ITERATE
     &END ALMO_SCF
     &QS
       EPS_DEFAULT     1.0000000000000000E-14
       ALMO_SCF  F
       METHOD  GPW
     &END QS
     &MGRID
       NGRIDS  5
       CUTOFF     1.2000000000000000E+03
     &END MGRID
     &XC
       DENSITY_CUTOFF     1.0000000000000000E-10
       GRADIENT_CUTOFF     1.0000000000000000E-10
       TAU_CUTOFF     1.0000000000000000E-10
       &XC_FUNCTIONAL  NO_SHORTCUT
         &PBE  T
         &END PBE
       &END XC_FUNCTIONAL
       &VDW_POTENTIAL
         POTENTIAL_TYPE  PAIR_POTENTIAL
         &PAIR_POTENTIAL
           R_CUTOFF     1.0000000000000002E+01
           TYPE  DFTD3
           PARAMETER_FILE_NAME dftd3.dat
           REFERENCE_FUNCTIONAL PBE
           EPS_CN     9.9999999999999995E-07
           CALCULATE_C9_TERM  T
           REFERENCE_C9_TERM  T
           LONG_RANGE_CORRECTION  F
           VERBOSE_OUTPUT  F
         &END PAIR_POTENTIAL
       &END VDW_POTENTIAL
     &END XC
   &END DFT
   &SUBSYS
     &CELL
       A     9.7464578657800818E+00    0.0000000000000000E+00    0.0000000000000000E+00
       B    -4.8522020790009277E+00    8.4042605294209274E+00    0.0000000000000000E+00
       C     0.0000000000000000E+00    0.0000000000000000E+00    3.0744000000000000E+01
       MULTIPLE_UNIT_CELL  1 1 1
       &CELL_REF
         A     9.5580000000000016E+00    0.0000000000000000E+00    0.0000000000000000E+00
         B    -4.7790000000000008E+00    8.2774708093716640E+00    0.0000000000000000E+00
         C     0.0000000000000000E+00    0.0000000000000000E+00    3.0744000000000000E+01
         MULTIPLE_UNIT_CELL  1 1 1
       &END CELL_REF
     &END CELL
     &COORD
Ga   -1.0495590515361415E-03   -2.3672567938595817E-03   -5.8499637176794805E-01
N    6.4493744708598050E-03    1.8708659984477549E+00    5.6508922870153777E-01
Ga    5.6336920126258015E-03    1.8389001304590298E+00    2.5955961404478161E+00
N   -1.0764006873097943E-03   -3.0053425045497126E-03    3.2301002025880665E+00
Ga    3.2519229073692588E-04   -7.8905642445513933E-04    5.2215457972712755E+00
N    6.4532825036705587E-03    1.8729928090695342E+00    5.8083047810049155E+00
Ga    6.2631207110436776E-03    1.8709406126565844E+00    7.8071169402862459E+00
N    6.4059251770702378E-04   -1.9659201155662067E-03    8.4079881296075900E+00
Ga    1.5360705111192839E-03   -7.6728175843295172E-04    1.0405619484841022E+01
N    7.4902901437525786E-03    1.8690449293153166E+00    1.1012619902317200E+01
Ga    5.0927014789061394E-03    1.8697361386293678E+00    1.3008322290483148E+01
N    5.1806457518351176E-04    1.0340961387752302E-04    1.3622436357401028E+01
Ga   -1.6709040758634001E-02   -3.8393490290608689E-03    1.5630056773333196E+01
N   -6.8486417289269136E-03    1.8810263396142233E+00    1.6224529433033400E+01
Ga    2.4808676451601116E-02    1.9090865528734537E+00    1.8308943303605403E+01
N    7.4211787409665178E-03    1.3886774320176574E-02    1.8655323764938167E+01
Ga   -1.6159444235062270E+00    2.7998276896512668E+00    2.7873600977638308E-01
N   -1.6173417111385759E+00    4.6680918868756773E+00    5.6292595209117036E-01
Ga   -1.5879380516439123E+00    4.6835105431511170E+00    2.5939957956550868E+00
N   -1.6181693525404752E+00    2.7990198737458329E+00    3.1870575279927227E+00
Ga   -1.6166503063829591E+00    2.8008871537339259E+00    5.1985590263289509E+00
N   -1.6131947596478649E+00    4.6698830127601800E+00    5.8076776364449509E+00
Ga   -1.6122542719140913E+00    4.6698073213651909E+00    7.8068830693029625E+00
N   -1.6172406441474878E+00    2.8002393442757776E+00    8.4126278732394990E+00
Ga   -1.6159869311573329E+00    2.8007919385818201E+00    1.0409078361572181E+01
N   -1.6074523023839031E+00    4.6717993597743721E+00    1.1013858258024058E+01
Ga   -1.6072525425094464E+00    4.6702623272996355E+00    1.3009700663137835E+01
N   -1.6188720545984578E+00    2.7991518103221913E+00    1.3611526890621468E+01
Ga   -1.6316334335912219E+00    2.7885869330257105E+00    1.5613696667252670E+01
N   -1.6256958273363924E+00    4.6701500165788277E+00    1.6209189859887115E+01
Ga   -1.6070930752832773E+00    4.6807660279322452E+00    1.8284825695503443E+01
N   -1.6149188567925956E+00    2.8028667241913960E+00    1.8701870912407614E+01
Ga   -3.2352067987630049E+00    5.6027071805546829E+00    2.7642237451859925E-01
N   -3.2261685564884170E+00    7.4713279424918992E+00    5.6759623163301232E-01
Ga   -3.2546468881931809E+00    7.4844216368267507E+00    2.5968181499873855E+00
N   -3.2355208529067205E+00    5.6000299822774968E+00    3.1884327663155942E+00
Ga   -3.2343205410382376E+00    5.6020224331067476E+00    5.1992653125195929E+00
N   -3.2251084066276490E+00    7.4707919445808812E+00    5.8074699597856823E+00
Ga   -3.2264061001379667E+00    7.4701016254772554E+00    7.8064685171094785E+00
N   -3.2347753257936933E+00    5.6009061228974204E+00    8.4139716794445860E+00
Ga   -3.2342433969662356E+00    5.6010791310811587E+00    1.0411696099162167E+01
N   -3.2283840702135898E+00    7.4728336828912791E+00    1.1015296721804948E+01
Ga   -3.2307971257342509E+00    7.4716702181757100E+00    1.3012150099417539E+01
N   -3.2362329656147906E+00    5.5958863906609970E+00    1.3605836507082660E+01
Ga   -3.2495791803336540E+00    5.5843226565883493E+00    1.5603549216942147E+01
N   -3.2439572904098402E+00    7.4575660723178103E+00    1.6200021334094707E+01
Ga   -3.2246468921231104E+00    7.4913829585089786E+00    1.8270021583157359E+01
N   -3.2430344068133659E+00    5.6015173776229563E+00    1.8628788644509417E+01
Ga    3.2486419105326991E+00   -3.3637761148902889E-03    2.8246594890703919E-01
N    3.2509312920771416E+00    1.8681744384969465E+00    5.6435279464633215E-01
Ga    3.2770026469746716E+00    1.8820339505588681E+00    2.5989755771536083E+00
N    3.2475974269234378E+00   -2.6920418807104209E-03    3.1866604266168368E+00
Ga    3.2489561829373002E+00   -8.6933498669739483E-04    5.1983145623870932E+00
N    3.2527147827736882E+00    1.8682541622763817E+00    5.8065938207004493E+00
Ga    3.2534170708475840E+00    1.8674686153431583E+00    7.8058310505087158E+00
N    3.2487812445481419E+00   -2.1318468003153801E-03    8.4113891664581288E+00
Ga    3.2489134567814966E+00   -2.0974934040245041E-03    1.0407893975229202E+01
N    3.2541059211234860E+00    1.8680488706418117E+00    1.1012081144731845E+01
Ga    3.2476059077516495E+00    1.8611889141309230E+00    1.3008044419207437E+01
N    3.2445494307747911E+00   -7.2638682082549312E-03    1.3626404682838826E+01
Ga    3.2402747491983130E+00   -1.4853073395215823E-02    1.5633008968555979E+01
N    3.2241711088108755E+00    1.8654149315991182E+00    1.6211791596866114E+01
Ga    3.2564194674109408E+00    1.8936461785338150E+00    1.8286250587706991E+01
N    3.2529245454807478E+00   -5.1666278204875755E-03    1.8620040852082067E+01
Ga    1.6285443990898361E+00    2.8006527140426805E+00    2.7776150771560337E-01
N    1.6422100362841368E+00    4.6690387245413199E+00    5.6576777550413204E-01
Ga    1.6119960579922739E+00    4.6829820485158891E+00    2.5956001051202695E+00
N    1.6299400856194277E+00    2.7987152504585557E+00    3.1885306047429864E+00
Ga    1.6310663086821149E+00    2.8007842668572906E+00    5.1994468594175300E+00
N    1.6407998242981439E+00    4.6703664372911957E+00    5.8065734420827733E+00
Ga    1.6395349756657234E+00    4.6703946705488582E+00    7.8059390711083392E+00
N    1.6316803759617515E+00    2.8003264232254446E+00    8.4101074300527916E+00
Ga    1.6314719151638299E+00    2.8003307131469821E+00    1.0406579055605821E+01
N    1.6354939047605996E+00    4.6711820686104799E+00    1.1010620211540129E+01
Ga    1.6295704611469168E+00    4.6681832594584591E+00    1.3004999683049613E+01
N    1.6283142675003535E+00    2.7986974853052660E+00    1.3613616612954328E+01
Ga    1.6153487857464714E+00    2.7940391410987666E+00    1.5617599237973508E+01
N    1.6357793086941057E+00    4.6698642864506761E+00    1.6207450746248188E+01
Ga    1.6561787628543188E+00    4.6863181145900086E+00    1.8285500290653076E+01
N    1.6405911982354651E+00    2.8097362499781791E+00    1.8729605161552186E+01
Ga    1.5585407479846681E-02    5.6029399753031717E+00   -5.9208317345206862E-01
N    2.1194848364362855E-02    7.4751505799152955E+00    5.6537918772424023E-01
Ga    1.9878364506952323E-02    7.4422435580416915E+00    2.5959872687694632E+00
N    1.2649851526717748E-02    5.5997916567777137E+00    3.2277997723194392E+00
Ga    1.4083795254114764E-02    5.6021525108223589E+00    5.2186261411533037E+00
N    2.0588492944673503E-02    7.4757218943156740E+00    5.8065174040651311E+00
Ga    2.0408501157228091E-02    7.4736706375499056E+00    7.8056411907841063E+00
N    1.4186446971961310E-02    5.6020057442885252E+00    8.4073147308342548E+00
Ga    1.4364696573124010E-02    5.6040178896389259E+00    1.0404310858470787E+01
N    2.0143616478370173E-02    7.4723686929604805E+00    1.1015499817472202E+01
Ga    1.7009001807516681E-02    7.4701469830998253E+00    1.3014209272769159E+01
N    1.2589136926095534E-02    5.6021059732431668E+00    1.3630745499093036E+01
Ga    3.6169761967550689E-03    5.6000911949479484E+00    1.5639693809113247E+01
N    1.6976471887347477E-02    7.4792207045520946E+00    1.6208659120876987E+01
Ga    3.3909971402422120E-02    7.4770367021976281E+00    1.8270556680824136E+01
N    1.4452745103301960E-02    5.5868614335807854E+00    1.8662076448376297E+01
Ga    6.4959835636420191E+00   -2.7115156062433254E-03    2.7911329538837343E-01
N    6.5066811656561914E+00    1.8684489416936323E+00    5.6420518034126643E-01
Ga    6.4794678618696011E+00    1.8815692915278164E+00    2.5992902623676311E+00
N    6.4965035406629497E+00   -2.3546643504041447E-03    3.1892746408061234E+00
Ga    6.4981486835573268E+00   -6.3939032236560197E-04    5.2002293424900934E+00
N    6.5072556380360913E+00    1.8686424429044950E+00    5.8077031803360466E+00
Ga    6.5058898077068292E+00    1.8676879456894708E+00    7.8072816268308163E+00
N    6.4976504522135130E+00   -2.3195636403012133E-03    8.4117866170913906E+00
Ga    6.4987676688952307E+00   -2.0201312849081011E-03    1.0409362717738428E+01
N    6.5055303330696637E+00    1.8693218828502400E+00    1.1011761830729341E+01
Ga    6.5052166852629059E+00    1.8639517031308006E+00    1.3008010265226837E+01
N    6.4973301838590016E+00   -7.6402058382254567E-03    1.3610726173676902E+01
Ga    6.4860289584733328E+00   -1.8040409974701580E-02    1.5612033556781300E+01
N    6.5051376064114965E+00    1.8625385439641962E+00    1.6193762098634632E+01
Ga    6.5298734962868181E+00    1.8950296121855927E+00    1.8256171438737233E+01
N    6.5097459479049036E+00   -1.5533880045683910E-03    1.8598650604730608E+01
Ga    4.8804099684939519E+00    2.7997604256837842E+00   -5.5001555773541255E-01
N    4.8874624233598070E+00    4.6707982247143933E+00    5.6329147365200982E-01
Ga    4.8866606164506301E+00    4.6415176043125870E+00    2.5982375322850029E+00
N    4.8789991607178660E+00    2.7985757565747758E+00    3.2286452079573671E+00
Ga    4.8805641537219300E+00    2.8008036133811274E+00    5.2209357612158742E+00
N    4.8870980619520479E+00    4.6743761486310724E+00    5.8081862067305057E+00
Ga    4.8864346953374564E+00    4.6716543803608621E+00    7.8081265253125371E+00
N    4.8798424661000501E+00    2.7987022527220877E+00    8.4085183213266479E+00
Ga    4.8804489612253379E+00    2.7973912157630019E+00    1.0406483413694851E+01
N    4.8878727020541719E+00    4.6660962724916937E+00    1.1014711272114015E+01
Ga    4.8851511580088340E+00    4.6575989396926119E+00    1.3011165509123213E+01
N    4.8748483622219689E+00    2.7796185080956954E+00    1.3614602492459440E+01
Ga    4.8639021625303229E+00    2.7676431428539092E+00    1.5617941254071779E+01
N    4.8712701463315096E+00    4.6547906715719769E+00    1.6147060340184289E+01
Ga    4.8965543910669656E+00    4.6872656822395582E+00    1.8193089699193763E+01
N    4.8903589044268747E+00    2.8061514037161199E+00    1.8610087333236354E+01
Ga    3.2622676590740447E+00    5.6014401040176054E+00    2.8191103720941663E-01
N    3.2639637597348257E+00    7.4705220815651208E+00    5.6860560790848569E-01
Ga    3.2923752412026155E+00    7.4854947102929046E+00    2.5974986826777382E+00
N    3.2622193011137148E+00    5.6000133971535568E+00    3.1868205434342500E+00
Ga    3.2635751684525736E+00    5.6022199872499874E+00    5.1984011252762148E+00
N    3.2668487040971645E+00    7.4707763671579555E+00    5.8080145223412742E+00
Ga    3.2676862661366362E+00    7.4698844279410439E+00    7.8075135395658153E+00
N    3.2630386438302339E+00    5.6006357076383706E+00    8.4142100911541053E+00
Ga    3.2644261735238276E+00    5.6010193333787166E+00    1.0411617274379694E+01
N    3.2723855895338438E+00    7.4730326308490787E+00    1.1012966464824709E+01
Ga    3.2713495651113385E+00    7.4721127059541717E+00    1.3009696720440418E+01
N    3.2591065537634187E+00    5.5937541992633033E+00    1.3594607486420728E+01
Ga    3.2479017408698736E+00    5.5885086152146908E+00    1.5588638074267140E+01
N    3.2627996580293859E+00    7.4539899029404220E+00    1.6178938012352504E+01
Ga    3.2961857046728475E+00    7.4979894575671713E+00    1.8235498172892697E+01
N    3.2812607403388676E+00    5.6112591218136680E+00    1.8625268948346545E+01
     &END COORD
     &KIND N
       BASIS_SET DZVP-MOLOPT-SR-GTH
       POTENTIAL GTH-PBE-q5
       &POTENTIAL
 2 3
  0.2837905100000000E+00 2 -0.1241522559000000E+02  0.1868095920000000E+01
 2
  0.2554050000000000E+00 1  0.1363026257000000E+02
  0.2454945300000000E+00 0
         # Potential name:  GTH-PBE-Q5  for symbol:  N
         # Potential read from the potential filename: GTH_POTENTIALS
       &END POTENTIAL
     &END KIND
     &KIND Ga
       BASIS_SET DZVP-MOLOPT-SR-GTH
       POTENTIAL GTH-PBE-q13
       &POTENTIAL
 2 1 10
  0.4900000000000000E+00 0
 3
  0.4167772300000000E+00 3  0.1047568975000000E+02 -0.4921768140000000E+01  0.8707055900000000E+00
  0.7770178090000000E+01 -0.2248152160000000E+01
  0.1784415450000000E+01
  0.5696265200000000E+00 2  0.1777985340000000E+01  0.1958597600000000E+00
 -0.2317443900000000E+00
  0.2381265000000000E+00 1 -0.1624868022000000E+02
         # Potential name:  GTH-PBE-Q13  for symbol:  GA
         # Potential read from the potential filename: GTH_POTENTIALS
       &END POTENTIAL
     &END KIND
     &TOPOLOGY
       COORD_FILE_NAME 334-native.xyz
       COORD_FILE_FORMAT  XYZ
       NUMBER_OF_ATOMS  144
       MULTIPLE_UNIT_CELL  1 1 1
     &END TOPOLOGY
   &END SUBSYS
 &END FORCE_EVAL
