 # Version information for this restart file 
 # current date 2019-05-16 01:50:16.317
 # current working dir /lustre03/project/6004141/rzk/GaN-carbene/00-Surface/00-Preoptimization/334-native/Trial4
 # Program compiled at                              Sun Apr  7 00:48:11 EDT 2019
 # Program compiled on                          beluga2.int.ets1.calculquebec.ca
 # Program compiled for                        Beluga-Linux-x86-64-intel-openmpi
 # Source code revision number                                         svn:18619
 &GLOBAL
   PRINT_LEVEL  MEDIUM
   PROJECT_NAME TEST
   RUN_TYPE  CELL_OPT
 &END GLOBAL
 &MOTION
   &CELL_OPT
     MAX_ITER  100
     STEP_START_VAL  11
     EXTERNAL_PRESSURE     1.0000000000000000E+00
     KEEP_ANGLES  T
     KEEP_SYMMETRY  T
     CONSTRAINT  Z
     PRESSURE_TOLERANCE     1.0000000000000000E+02
   &END CELL_OPT
 &END MOTION
 &FORCE_EVAL
   METHOD  QS
   STRESS_TENSOR  ANALYTICAL
   &DFT
     BASIS_SET_FILE_NAME BASIS_MOLOPT
     POTENTIAL_FILE_NAME GTH_POTENTIALS
     &SCF
       MAX_SCF  100
       EPS_SCF     5.0000000000000004E-06
       &OT  T
         PRECONDITIONER  FULL_ALL
       &END OT
       &OUTER_SCF  T
         OPTIMIZER  NONE
         EPS_SCF     5.0000000000000004E-06
         MAX_SCF  10
       &END OUTER_SCF
       &PRINT
         &RESTART  OFF
           BACKUP_COPIES  1
           &EACH
             JUST_ENERGY  0
             QS_SCF  0
             MD  20
           &END EACH
         &END RESTART
       &END PRINT
     &END SCF
     &ALMO_SCF
       EPS_FILTER     9.9999999999999994E-12
       ALMO_SCF_GUESS  ATOMIC
       MO_OVERLAP_INV_ALG  DENSE_CHOLESKY
       ALMO_EXTRAPOLATION_ORDER  4
       XALMO_EXTRAPOLATION_ORDER  4
       ALMO_ALGORITHM  SKIP
       XALMO_TRIAL_WF  SIMPLE
       DELOCALIZE_METHOD  XALMO_SCF
       XALMO_R_CUTOFF_FACTOR     1.8000000000000000E+00
       &ALMO_OPTIMIZER_DIIS
         MAX_ITER  100
         EPS_ERROR     1.0000000000000001E-05
         N_DIIS  5
       &END ALMO_OPTIMIZER_DIIS
       &ALMO_OPTIMIZER_PCG
         MAX_ITER  50
         EPS_ERROR     1.0000000000000001E-05
         LIN_SEARCH_EPS_ERROR     5.0000000000000003E-02
         LIN_SEARCH_STEP_SIZE_GUESS     5.0000000000000001E-03
         CONJUGATOR  DAI_YUAN
         MAX_ITER_OUTER_LOOP  10
       &END ALMO_OPTIMIZER_PCG
       &XALMO_OPTIMIZER_PCG
         MAX_ITER  1000
         EPS_ERROR     1.0000000000000001E-05
         LIN_SEARCH_EPS_ERROR     1.0000000000000001E-01
         LIN_SEARCH_STEP_SIZE_GUESS     1.0000000000000000E-02
         CONJUGATOR  DAI_YUAN
         PRECOND_FILTER_THRESHOLD     1.0000000000000000E-03
         MAX_ITER_OUTER_LOOP  0
       &END XALMO_OPTIMIZER_PCG
       &MATRIX_ITERATE
         EPS_TARGET_FACTOR     1.0000000000000000E+01
       &END MATRIX_ITERATE
     &END ALMO_SCF
     &QS
       EPS_DEFAULT     1.0000000000000000E-14
       ALMO_SCF  F
       METHOD  GPW
     &END QS
     &MGRID
       NGRIDS  5
       CUTOFF     1.2000000000000000E+03
     &END MGRID
     &XC
       DENSITY_CUTOFF     1.0000000000000000E-10
       GRADIENT_CUTOFF     1.0000000000000000E-10
       TAU_CUTOFF     1.0000000000000000E-10
       &XC_FUNCTIONAL  NO_SHORTCUT
         &PBE  T
         &END PBE
       &END XC_FUNCTIONAL
       &VDW_POTENTIAL
         POTENTIAL_TYPE  PAIR_POTENTIAL
         &PAIR_POTENTIAL
           R_CUTOFF     1.0000000000000002E+01
           TYPE  DFTD3
           PARAMETER_FILE_NAME dftd3.dat
           REFERENCE_FUNCTIONAL PBE
           EPS_CN     9.9999999999999995E-07
           CALCULATE_C9_TERM  T
           REFERENCE_C9_TERM  T
           LONG_RANGE_CORRECTION  F
           VERBOSE_OUTPUT  F
         &END PAIR_POTENTIAL
       &END VDW_POTENTIAL
     &END XC
   &END DFT
   &SUBSYS
     &CELL
       A     9.7314814125007683E+00    0.0000000000000000E+00    0.0000000000000000E+00
       B    -4.8871022021593200E+00    8.4647093159216684E+00    0.0000000000000000E+00
       C     0.0000000000000000E+00    0.0000000000000000E+00    3.0744000000000000E+01
       MULTIPLE_UNIT_CELL  1 1 1
       &CELL_REF
         A     9.5580000000000016E+00    0.0000000000000000E+00    0.0000000000000000E+00
         B    -4.7790000000000008E+00    8.2774708093716640E+00    0.0000000000000000E+00
         C     0.0000000000000000E+00    0.0000000000000000E+00    3.0744000000000000E+01
         MULTIPLE_UNIT_CELL  1 1 1
       &END CELL_REF
     &END CELL
     &COORD
Ga    4.2689171739033254E-03   -1.3175760147938836E-01   -5.6562498907587772E-02
N   -6.5903871048291623E-03    1.7988143972027142E+00    5.3196807539107982E-01
Ga   -6.9429306108201730E-03    1.8563988029755079E+00    2.5875658401255870E+00
N   -9.2584664291954413E-04   -5.9201441965316057E-03    3.2206834891959502E+00
Ga   -3.0957550993610959E-04   -2.4577154148422713E-04    5.2300846401545797E+00
N   -6.2650327850046449E-03    1.8817699821677067E+00    5.8096482081355489E+00
Ga   -4.9003127071563773E-03    1.8827681488886230E+00    7.8110970221166394E+00
N    2.0822798883470449E-05    4.5916179166981367E-04    8.3991161808130705E+00
Ga    3.3335271415740792E-05   -3.4861854203181101E-04    1.0399402162463197E+01
N   -4.8743200932487296E-03    1.8807260903910257E+00    1.0991260122457879E+01
Ga   -5.5841196032315405E-03    1.8810324085319716E+00    1.2993831717062744E+01
N    2.9640303088461217E-03    1.6930336037730136E-03    1.3594699801025609E+01
Ga    2.3561097176182824E-03    9.7088052725838349E-03    1.5614752364538642E+01
N   -9.8957460425886570E-03    1.8789507031435415E+00    1.6207857468460222E+01
Ga   -4.5133380939920299E-03    1.8621758765087557E+00    1.8285878102721849E+01
N    2.6075707041072990E-03    1.8852401739197035E-02    1.8663327976758712E+01
Ga   -1.5443122704384604E+00    2.8787614151591643E+00   -5.0472874883425729E-02
N   -1.7022861547411083E+00    4.7467226843332861E+00    5.4359447831661911E-01
Ga   -1.6512118645968228E+00    4.7109347280354479E+00    2.5950418556309751E+00
N   -1.6233385963348512E+00    2.8197932330604241E+00    3.1806161171856639E+00
Ga   -1.6259284302509283E+00    2.8217221422036833E+00    5.2104117983570823E+00
N   -1.6339408224062673E+00    4.7004716486983424E+00    5.8075709539361924E+00
Ga   -1.6327561883749273E+00    4.7024296925514246E+00    7.8104855712953905E+00
N   -1.6285957545248060E+00    2.8221207882967079E+00    8.4005007880255267E+00
Ga   -1.6291107021398801E+00    2.8210058139580929E+00    1.0399553803629161E+01
N   -1.6339953628043140E+00    4.7023208874890150E+00    1.0991556879139351E+01
Ga   -1.6324799064566855E+00    4.7013230170517559E+00    1.2993927696434330E+01
N   -1.6287955629369522E+00    2.8219521089578596E+00    1.3592339995390750E+01
Ga   -1.6244576676112426E+00    2.8296906728361555E+00    1.5611449917051923E+01
N   -1.6413092815311408E+00    4.6908931935033529E+00    1.6190943054292880E+01
Ga   -1.6459920142321878E+00    4.6801421421701344E+00    1.8262036132869458E+01
N   -1.6270541650390531E+00    2.8319010131897984E+00    1.8660163418270752E+01
Ga   -3.3583060882719349E+00    5.7181777607412076E+00   -2.7987884636423557E-02
N   -3.2026392896508740E+00    7.5606170585286412E+00    6.4327060773385902E-01
Ga   -3.2541723348079952E+00    7.5257927303670948E+00    2.6532400969449461E+00
N   -3.2675855403046610E+00    5.6403650820125115E+00    3.2148670153303018E+00
Ga   -3.2598256929452689E+00    5.6415962824378205E+00    5.2266067633369717E+00
N   -3.2612374245610196E+00    7.5243974720439182E+00    5.8129845711074024E+00
Ga   -3.2621302085100710E+00    7.5245026354734019E+00    7.8136156896325435E+00
N   -3.2577204975029952E+00    5.6429315374144142E+00    8.3990000673027385E+00
Ga   -3.2583078772369403E+00    5.6428359948991202E+00    1.0399248896592093E+01
N   -3.2627543567665218E+00    7.5237681226100444E+00    1.0990988831778685E+01
Ga   -3.2616949932260617E+00    7.5237335729495838E+00    1.2993997899387448E+01
N   -3.2601894074660467E+00    5.6423871757602697E+00    1.3594201544443594E+01
Ga   -3.2549148518388766E+00    5.6507493556413202E+00    1.5613592146584244E+01
N   -3.2582620138465894E+00    7.5157600432712481E+00    1.6203303331090108E+01
Ga   -3.2642797098284775E+00    7.5143055695948542E+00    1.8277564701838330E+01
N   -3.2508555153591305E+00    5.6593642113114813E+00    1.8662229221254375E+01
Ga    3.2967518712943762E+00    4.1101625666154655E-02    4.4894655867050867E-02
N    3.1817624574740360E+00    1.9208323444456845E+00    5.4219856351776297E-01
Ga    3.2263533031251561E+00    1.8841913867649844E+00    2.6192378031200261E+00
N    3.2554382529117518E+00    7.8681269591596732E-03    3.2178628125532054E+00
Ga    3.2477495817786606E+00    2.3364202378297312E-03    5.2387362977388934E+00
N    3.2365464268024651E+00    1.8847752906265998E+00    5.8111886433183511E+00
Ga    3.2385902930931216E+00    1.8832473820065734E+00    7.8138409536129361E+00
N    3.2446434422320296E+00    7.2283138829709799E-04    8.3989247681359060E+00
Ga    3.2434646432014667E+00   -4.9851688607594033E-04    1.0399843818322807E+01
N    3.2385839902239768E+00    1.8809746380749999E+00    1.0991451893966435E+01
Ga    3.2388261648607504E+00    1.8806457943173391E+00    1.2993676069204884E+01
N    3.2453106541578136E+00   -3.0745964366288097E-04    1.3593008408943735E+01
Ga    3.2476217148348097E+00    5.4269103820136959E-03    1.5611471686883613E+01
N    3.2315150824660046E+00    1.8686744429872015E+00    1.6194646236029623E+01
Ga    3.2317468893510402E+00    1.8636683716804781E+00    1.8268399887047110E+01
N    3.2451276483287033E+00    1.4041806457347336E-02    1.8656265019918120E+01
Ga    1.5338804214354875E+00    2.8784186414256396E+00   -3.9558031488786935E-02
N    1.6886136109439749E+00    4.7476813204435819E+00    5.6895432896507281E-01
Ga    1.6260787111448687E+00    4.7085386379788217E+00    2.6182669235296312E+00
N    1.6020908079734038E+00    2.8182096528813387E+00    3.1948587885075570E+00
Ga    1.6090468830087010E+00    2.8206768276457712E+00    5.2196939225399577E+00
N    1.6103957668731412E+00    4.7015673619441261E+00    5.8070258819287286E+00
Ga    1.6101973939416276E+00    4.7029917645922454E+00    7.8100104121112555E+00
N    1.6144959063520066E+00    2.8222219647761397E+00    8.3997797248627855E+00
Ga    1.6139944914068258E+00    2.8212305579311292E+00    1.0399364786580747E+01
N    1.6102309322748867E+00    4.7024748068723703E+00    1.0991330000098246E+01
Ga    1.6093997130514646E+00    4.7022361438471769E+00    1.2993724884864763E+01
N    1.6151523304812725E+00    2.8243096487624038E+00    1.3594336999402547E+01
Ga    1.6157763033012253E+00    2.8291512334373761E+00    1.5614801052264017E+01
N    1.6075426201012775E+00    4.7057030704535538E+00    1.6202619636711116E+01
Ga    1.6017290761894725E+00    4.6942849570068343E+00    1.8276943477226130E+01
N    1.6295050618611622E+00    2.8381122898058191E+00    1.8660555204038140E+01
Ga   -6.2135631228049156E-03    5.5514368115260391E+00   -5.2819749294516175E-02
N   -1.6259418887941472E-02    7.4598769781976859E+00    5.5972185345261727E-01
Ga   -2.2171195487315918E-02    7.5074252800381576E+00    2.6242292364948590E+00
N   -1.6625023032694843E-02    5.6290591325250761E+00    3.1967892016535111E+00
Ga   -1.5539215868251181E-02    5.6380173952038257E+00    5.2186710280095543E+00
N   -1.7993686828796051E-02    7.5198143991240585E+00    5.8123601421362059E+00
Ga   -1.7960384520590823E-02    7.5229683137221475E+00    7.8134854843276091E+00
N   -1.3893188276772824E-02    5.6426381302491002E+00    8.3995680582701926E+00
Ga   -1.4493483014243183E-02    5.6422941631925179E+00    1.0399691890710645E+01
N   -1.8688241312910945E-02    7.5241861685886393E+00    1.0990976051209765E+01
Ga   -1.9791010223085753E-02    7.5230688732349593E+00    1.2994348390374883E+01
N   -1.5750728107160147E-02    5.6440459056353083E+00    1.3593682699458588E+01
Ga   -1.4005097039002469E-02    5.6545047888506241E+00    1.5614453543782869E+01
N   -1.4295656732334915E-02    7.5253369814766646E+00    1.6205766408568870E+01
Ga   -2.0637106104518549E-02    7.5036476934601302E+00    1.8281675211326764E+01
N   -1.5951475762331378E-02    5.6537164665008630E+00    1.8661435891190436E+01
Ga    6.4326022338478275E+00    2.2763533965354396E-02    1.0418484135854444E-02
N    6.5508917465646643E+00    1.9117604534049328E+00    4.9655646406221837E-01
Ga    6.4944215537056094E+00    1.8816964976386021E+00    2.5929873358905806E+00
N    6.4710297031685222E+00    7.8666148158212466E-03    3.2087158293044888E+00
Ga    6.4828548485422788E+00    3.3086873414673724E-03    5.2296508187263751E+00
N    6.4867022877379918E+00    1.8834037599230817E+00    5.8094081365878232E+00
Ga    6.4848687927104525E+00    1.8827364602481733E+00    7.8124062270424464E+00
N    6.4876334708411436E+00    7.4118504080174046E-04    8.3992920940742497E+00
Ga    6.4875631038609809E+00   -2.8074658299653973E-04    1.0399330637668518E+01
N    6.4828031259005909E+00    1.8807703670126228E+00    1.0991636734250102E+01
Ga    6.4833273555369617E+00    1.8812068444990584E+00    1.2993471550127367E+01
N    6.4906151578558671E+00    2.7688689008446236E-04    1.3595466176082500E+01
Ga    6.4875007100017941E+00    1.4453735849463173E-03    1.5615061339444543E+01
N    6.4823030595875251E+00    1.8776105470512647E+00    1.6207130274383257E+01
Ga    6.4813876051929418E+00    1.8705598845131337E+00    1.8283732695954889E+01
N    6.4936586575176314E+00    1.3459116976452860E-02    1.8656918972339042E+01
Ga    4.8541084075847767E+00    2.7558667252606797E+00    5.2405487363321466E-03
N    4.8507463300845224E+00    4.6433334703091260E+00    6.0202754375069212E-01
Ga    4.8518880735545737E+00    4.6891854730972611E+00    2.6332307045009165E+00
N    4.8595001080436671E+00    2.8007570121003358E+00    3.1992405360704805E+00
Ga    4.8602025119461469E+00    2.8152361476586205E+00    5.2269132070314503E+00
N    4.8535328749733146E+00    4.6980738332052132E+00    5.8103612688626862E+00
Ga    4.8542154661130894E+00    4.7023982139999827E+00    7.8115750694657082E+00
N    4.8591611264800196E+00    2.8213162593414554E+00    8.3997560625131804E+00
Ga    4.8583126000546901E+00    2.8208256480311151E+00    1.0399461310393487E+01
N    4.8536495521207756E+00    4.7024371311270130E+00    1.0991284628166825E+01
Ga    4.8536972072626936E+00    4.7024879046891241E+00    1.2993957041717106E+01
N    4.8578993511884905E+00    2.8194481117261416E+00    1.3594643885710374E+01
Ga    4.8592476789880878E+00    2.8332487087935179E+00    1.5614403601416633E+01
N    4.8432942963797228E+00    4.6910028485473259E+00    1.6203856770871113E+01
Ga    4.8492833690958204E+00    4.6804629330440113E+00    1.8279201532760560E+01
N    4.8649955431786260E+00    2.8401987274195246E+00    1.8662524201265363E+01
Ga    3.3233654319417369E+00    5.7201187845551695E+00    5.2927620625908807E-03
N    3.1713781410044470E+00    7.5618321203906600E+00    6.5890246391040108E-01
Ga    3.2159852319547055E+00    7.5283553118486015E+00    2.6594119708791868E+00
N    3.2362854039245068E+00    5.6434401402554961E+00    3.2209587310446866E+00
Ga    3.2316442373580068E+00    5.6434300049811483E+00    5.2274334526476691E+00
N    3.2220119061145671E+00    7.5256448822596074E+00    5.8106992287285966E+00
Ga    3.2246657422042238E+00    7.5249790373289915E+00    7.8118637346338256E+00
N    3.2297523485185606E+00    5.6434800647322190E+00    8.3986346321334153E+00
Ga    3.2292068049359166E+00    5.6428916652244432E+00    1.0398941475782154E+01
N    3.2249099373851449E+00    7.5240860723307250E+00    1.0991551423781452E+01
Ga    3.2261318346639638E+00    7.5240859628505259E+00    1.2994025200314315E+01
N    3.2293767554872201E+00    5.6441453625201410E+00    1.3592410453083588E+01
Ga    3.2335815772561967E+00    5.6539193387630267E+00    1.5610189721885629E+01
N    3.2332502030083887E+00    7.5146816041203071E+00    1.6192639934983124E+01
Ga    3.2195247853632432E+00    7.5039067487627751E+00    1.8264648323827625E+01
N    3.2310614715978261E+00    5.6581276115086503E+00    1.8661022580775082E+01
     &END COORD
     &KIND N
       BASIS_SET DZVP-MOLOPT-SR-GTH
       POTENTIAL GTH-PBE-q5
       &POTENTIAL
 2 3
  0.2837905100000000E+00 2 -0.1241522559000000E+02  0.1868095920000000E+01
 2
  0.2554050000000000E+00 1  0.1363026257000000E+02
  0.2454945300000000E+00 0
         # Potential name:  GTH-PBE-Q5  for symbol:  N
         # Potential read from the potential filename: GTH_POTENTIALS
       &END POTENTIAL
     &END KIND
     &KIND Ga
       BASIS_SET DZVP-MOLOPT-SR-GTH
       POTENTIAL GTH-PBE-q13
       &POTENTIAL
 2 1 10
  0.4900000000000000E+00 0
 3
  0.4167772300000000E+00 3  0.1047568975000000E+02 -0.4921768140000000E+01  0.8707055900000000E+00
  0.7770178090000000E+01 -0.2248152160000000E+01
  0.1784415450000000E+01
  0.5696265200000000E+00 2  0.1777985340000000E+01  0.1958597600000000E+00
 -0.2317443900000000E+00
  0.2381265000000000E+00 1 -0.1624868022000000E+02
         # Potential name:  GTH-PBE-Q13  for symbol:  GA
         # Potential read from the potential filename: GTH_POTENTIALS
       &END POTENTIAL
     &END KIND
     &TOPOLOGY
       COORD_FILE_NAME 334-native.xyz
       COORD_FILE_FORMAT  XYZ
       NUMBER_OF_ATOMS  144
       MULTIPLE_UNIT_CELL  1 1 1
     &END TOPOLOGY
   &END SUBSYS
 &END FORCE_EVAL
