 # Version information for this restart file 
 # current date 2019-05-16 03:18:06.444
 # current working dir /lustre03/project/6004141/rzk/GaN-carbene/00-Surface/00-Preoptimization/334-native/Trial4
 # Program compiled at                              Sun Apr  7 00:48:11 EDT 2019
 # Program compiled on                          beluga2.int.ets1.calculquebec.ca
 # Program compiled for                        Beluga-Linux-x86-64-intel-openmpi
 # Source code revision number                                         svn:18619
 &GLOBAL
   PRINT_LEVEL  MEDIUM
   PROJECT_NAME TEST
   RUN_TYPE  CELL_OPT
 &END GLOBAL
 &MOTION
   &CELL_OPT
     MAX_ITER  100
     STEP_START_VAL  29
     EXTERNAL_PRESSURE     1.0000000000000000E+00
     KEEP_ANGLES  T
     KEEP_SYMMETRY  T
     CONSTRAINT  Z
     PRESSURE_TOLERANCE     1.0000000000000000E+02
   &END CELL_OPT
 &END MOTION
 &FORCE_EVAL
   METHOD  QS
   STRESS_TENSOR  ANALYTICAL
   &DFT
     BASIS_SET_FILE_NAME BASIS_MOLOPT
     POTENTIAL_FILE_NAME GTH_POTENTIALS
     &SCF
       MAX_SCF  100
       EPS_SCF     5.0000000000000004E-06
       &OT  T
         PRECONDITIONER  FULL_ALL
       &END OT
       &OUTER_SCF  T
         OPTIMIZER  NONE
         EPS_SCF     5.0000000000000004E-06
         MAX_SCF  10
       &END OUTER_SCF
       &PRINT
         &RESTART  OFF
           BACKUP_COPIES  1
           &EACH
             JUST_ENERGY  0
             QS_SCF  0
             MD  20
           &END EACH
         &END RESTART
       &END PRINT
     &END SCF
     &ALMO_SCF
       EPS_FILTER     9.9999999999999994E-12
       ALMO_SCF_GUESS  ATOMIC
       MO_OVERLAP_INV_ALG  DENSE_CHOLESKY
       ALMO_EXTRAPOLATION_ORDER  4
       XALMO_EXTRAPOLATION_ORDER  4
       ALMO_ALGORITHM  SKIP
       XALMO_TRIAL_WF  SIMPLE
       DELOCALIZE_METHOD  XALMO_SCF
       XALMO_R_CUTOFF_FACTOR     1.8000000000000000E+00
       &ALMO_OPTIMIZER_DIIS
         MAX_ITER  100
         EPS_ERROR     1.0000000000000001E-05
         N_DIIS  5
       &END ALMO_OPTIMIZER_DIIS
       &ALMO_OPTIMIZER_PCG
         MAX_ITER  50
         EPS_ERROR     1.0000000000000001E-05
         LIN_SEARCH_EPS_ERROR     5.0000000000000003E-02
         LIN_SEARCH_STEP_SIZE_GUESS     5.0000000000000001E-03
         CONJUGATOR  DAI_YUAN
         MAX_ITER_OUTER_LOOP  10
       &END ALMO_OPTIMIZER_PCG
       &XALMO_OPTIMIZER_PCG
         MAX_ITER  1000
         EPS_ERROR     1.0000000000000001E-05
         LIN_SEARCH_EPS_ERROR     1.0000000000000001E-01
         LIN_SEARCH_STEP_SIZE_GUESS     1.0000000000000000E-02
         CONJUGATOR  DAI_YUAN
         PRECOND_FILTER_THRESHOLD     1.0000000000000000E-03
         MAX_ITER_OUTER_LOOP  0
       &END XALMO_OPTIMIZER_PCG
       &MATRIX_ITERATE
         EPS_TARGET_FACTOR     1.0000000000000000E+01
       &END MATRIX_ITERATE
     &END ALMO_SCF
     &QS
       EPS_DEFAULT     1.0000000000000000E-14
       ALMO_SCF  F
       METHOD  GPW
     &END QS
     &MGRID
       NGRIDS  5
       CUTOFF     1.2000000000000000E+03
     &END MGRID
     &XC
       DENSITY_CUTOFF     1.0000000000000000E-10
       GRADIENT_CUTOFF     1.0000000000000000E-10
       TAU_CUTOFF     1.0000000000000000E-10
       &XC_FUNCTIONAL  NO_SHORTCUT
         &PBE  T
         &END PBE
       &END XC_FUNCTIONAL
       &VDW_POTENTIAL
         POTENTIAL_TYPE  PAIR_POTENTIAL
         &PAIR_POTENTIAL
           R_CUTOFF     1.0000000000000002E+01
           TYPE  DFTD3
           PARAMETER_FILE_NAME dftd3.dat
           REFERENCE_FUNCTIONAL PBE
           EPS_CN     9.9999999999999995E-07
           CALCULATE_C9_TERM  T
           REFERENCE_C9_TERM  T
           LONG_RANGE_CORRECTION  F
           VERBOSE_OUTPUT  F
         &END PAIR_POTENTIAL
       &END VDW_POTENTIAL
     &END XC
   &END DFT
   &SUBSYS
     &CELL
       A     9.7412311671573821E+00    0.0000000000000000E+00    0.0000000000000000E+00
       B    -4.8520517447521279E+00    8.4040001428638984E+00    0.0000000000000000E+00
       C     0.0000000000000000E+00    0.0000000000000000E+00    3.0744000000000000E+01
       MULTIPLE_UNIT_CELL  1 1 1
       &CELL_REF
         A     9.5580000000000016E+00    0.0000000000000000E+00    0.0000000000000000E+00
         B    -4.7790000000000008E+00    8.2774708093716640E+00    0.0000000000000000E+00
         C     0.0000000000000000E+00    0.0000000000000000E+00    3.0744000000000000E+01
         MULTIPLE_UNIT_CELL  1 1 1
       &END CELL_REF
     &END CELL
     &COORD
Ga    2.9572477571859154E-02   -3.6347825090625563E-02   -6.2578759104941173E-01
N   -6.4393194031366384E-03    1.8800761287587640E+00    5.1411419031790084E-01
Ga    1.3871366493144367E-02    1.8576949052998453E+00    2.5626766374830914E+00
N   -3.7277583337420885E-03    2.0358604488086480E-02    3.2054627018109949E+00
Ga   -6.2968489860921427E-03    2.8825343426972620E-03    5.2025198291695851E+00
N    6.8000050513404376E-03    1.8614574267768058E+00    5.8224947721601694E+00
Ga    6.6707366858883097E-03    1.8666373515641854E+00    7.8227797875215650E+00
N    1.9807664132524779E-03    4.4297841135444217E-04    8.4208937271319648E+00
Ga    2.5995202862126371E-03    5.3819571820538804E-03    1.0413219775767798E+01
N    2.2569461000611114E-03    1.8684447031292251E+00    1.1019114300670619E+01
Ga    1.3519717979366618E-03    1.8810312027139255E+00    1.3017380648340737E+01
N    9.8874038287270600E-05    2.0383823630380153E-02    1.3634019236636171E+01
Ga   -1.0627931355558395E-02    1.1634269142425145E-02    1.5641660450780485E+01
N   -1.0588542314729138E-02    1.9017967489670695E+00    1.6206730715094185E+01
Ga    6.0935770453093095E-03    1.9059820797052240E+00    1.8284368720384673E+01
N    4.3207314851366561E-03   -3.6482519703451249E-03    1.8615116998255367E+01
Ga   -1.6277574767164302E+00    2.8000819940087274E+00    2.9669600750768776E-01
N   -1.6490225343663742E+00    4.6596561619430030E+00    5.7467208800588021E-01
Ga   -1.5976297256271017E+00    4.6904653779247703E+00    2.6068878341979982E+00
N   -1.6009974332499948E+00    2.8108048425957324E+00    3.2045254441071980E+00
Ga   -1.6084373025799583E+00    2.8032444407537644E+00    5.2244956848768931E+00
N   -1.6109948525173827E+00    4.6736674871196904E+00    5.8178228574369122E+00
Ga   -1.6118248258165291E+00    4.6707696088287225E+00    7.8234207292900573E+00
N   -1.6177085288215900E+00    2.8012838606554715E+00    8.4196043354132826E+00
Ga   -1.6161356235887294E+00    2.8035883022695343E+00    1.0418801192870156E+01
N   -1.6063805635969117E+00    4.6715972329904556E+00    1.1014265862614421E+01
Ga   -1.6041703579425104E+00    4.6814684562488997E+00    1.3015391644054683E+01
N   -1.6169468294951381E+00    2.8196647787082010E+00    1.3619247329344413E+01
Ga   -1.6449320585057132E+00    2.8043361170513332E+00    1.5615794235917647E+01
N   -1.6124738553616078E+00    4.6877792193836516E+00    1.6211213475292642E+01
Ga   -1.6140156434969213E+00    4.6695423672678125E+00    1.8288368616187373E+01
N   -1.6419207675781431E+00    2.7803886206630333E+00    1.8668478725398490E+01
Ga   -3.2384521017438712E+00    5.6048179267274891E+00    2.2758894361079923E-01
N   -3.2227143816174308E+00    7.4537372813675953E+00    6.1550585242577971E-01
Ga   -3.2516427865401489E+00    7.4783758018851545E+00    2.6374547850873573E+00
N   -3.2320404079677996E+00    5.6039357113503856E+00    3.2153357596791787E+00
Ga   -3.2378048082606807E+00    5.6018123618128230E+00    5.2185554354113526E+00
N   -3.2320948073062103E+00    7.4742796536695151E+00    5.8080512265421742E+00
Ga   -3.2297175633401687E+00    7.4709451432282163E+00    7.8217451439690464E+00
N   -3.2340558576276015E+00    5.6046781111479298E+00    8.4247532693310188E+00
Ga   -3.2318010036110154E+00    5.6046476798058329E+00    1.0424646456837447E+01
N   -3.2312376449613951E+00    7.4760144370649879E+00    1.1017821093021842E+01
Ga   -3.2298654527638577E+00    7.4823783797472583E+00    1.3023183513971510E+01
N   -3.2284566210536561E+00    5.6088571854971017E+00    1.3603242662457275E+01
Ga   -3.2468422740858993E+00    5.6001127868624181E+00    1.5606332688697243E+01
N   -3.2546065095364436E+00    7.4625490040810929E+00    1.6204890448393826E+01
Ga   -3.2171503935990531E+00    7.4732051895377838E+00    1.8273693562717074E+01
N   -3.2407271724525040E+00    5.5835295170182659E+00    1.8649673276578266E+01
Ga    3.2375193532845841E+00   -8.3282970821009026E-03    2.9174680683219256E-01
N    3.2388310187678773E+00    1.8777205556182883E+00    5.4159822935670154E-01
Ga    3.2708987421282787E+00    1.9033337651443747E+00    2.5842222187644674E+00
N    3.2640963094733455E+00    1.3277217613401088E-02    3.1584073455117405E+00
Ga    3.2535238482019353E+00    1.0383165857010043E-03    5.1964981510587771E+00
N    3.2513648899363123E+00    1.8652703157009116E+00    5.8093589220001149E+00
Ga    3.2505517397950054E+00    1.8658543598674906E+00    7.8133464890982536E+00
N    3.2491358703490167E+00    1.4435555654160176E-03    8.4156032929833113E+00
Ga    3.2471390531142501E+00   -1.0715408194679906E-03    1.0411092197945431E+01
N    3.2515211552306722E+00    1.8597126052105448E+00    1.1012520199397162E+01
Ga    3.2445142112694332E+00    1.8512355816518695E+00    1.3015646930803349E+01
N    3.2477501185715920E+00   -7.6776157378889206E-03    1.3641167338696166E+01
Ga    3.2423061009155307E+00   -2.7587954601567662E-02    1.5644229091209706E+01
N    3.2203177503309681E+00    1.8398261334874548E+00    1.6207496846632772E+01
Ga    3.2476909665525020E+00    1.8644266051271836E+00    1.8280063644366535E+01
N    3.2566933625837611E+00   -2.6613174044632034E-02    1.8649562027932244E+01
Ga    1.6085557186980808E+00    2.7883962809001925E+00    2.0371786080636878E-01
N    1.6273607164981607E+00    4.6335160081733378E+00    6.1327778314368486E-01
Ga    1.6043125769011666E+00    4.6620423457380289E+00    2.6323926636823209E+00
N    1.6292879841835310E+00    2.7912049886783206E+00    3.2056291619667605E+00
Ga    1.6277392380966806E+00    2.7963729108403195E+00    5.2103289333670775E+00
N    1.6366405096913867E+00    4.6715594447035818E+00    5.8019734257155546E+00
Ga    1.6360666086099249E+00    4.6692180800336764E+00    7.8194330149418194E+00
N    1.6337496561607647E+00    2.8017261305134848E+00    8.4216107278288277E+00
Ga    1.6313019052402551E+00    2.8007849775352458E+00    1.0424503898991784E+01
N    1.6376377254943697E+00    4.6722920771047090E+00    1.1011501758331875E+01
Ga    1.6467750824447021E+00    4.6750190898541621E+00    1.3019082282793176E+01
N    1.6325429414205983E+00    2.8026638037645024E+00    1.3610002782520402E+01
Ga    1.6258020929396739E+00    2.7974808617361648E+00    1.5618865717539530E+01
N    1.6560718336950753E+00    4.6670429594569391E+00    1.6184811948148361E+01
Ga    1.6579119744090802E+00    4.6774097378095503E+00    1.8246799612947772E+01
N    1.6255238969607224E+00    2.7918725113963734E+00    1.8666106321953816E+01
Ga    1.1251623821293678E-02    5.5413772046225329E+00   -5.2736582042574387E-01
N    2.5802636712331645E-02    7.4800267052735414E+00    4.9246885101249904E-01
Ga    3.9736783062513596E-02    7.4598628188574327E+00    2.5475551554626383E+00
N    1.0309904039904921E-02    5.6237734369235364E+00    3.2088879202715326E+00
Ga    1.2169442838514800E-02    5.6121075876438056E+00    5.2051939565741012E+00
N    1.7562684883457722E-02    7.4723312037432619E+00    5.8136196982373640E+00
Ga    1.8039936596989058E-02    7.4710344805090818E+00    7.8184348111713078E+00
N    1.5616243572627616E-02    5.6053761662275470E+00    8.4184290694573516E+00
Ga    1.6466925687983882E-02    5.6055164598564406E+00    1.0412890016247525E+01
N    1.2596372657677221E-02    7.4697153718525975E+00    1.1012646179671789E+01
Ga    9.4900682908161740E-03    7.4696188294784669E+00    1.3014472095976583E+01
N    2.7998252043682614E-02    5.6089075725336217E+00    1.3629835432420228E+01
Ga    2.6898913688733640E-02    5.5917691390401130E+00    1.5639743694249805E+01
N    2.4476435328772073E-02    7.4721975744095808E+00    1.6218022343122595E+01
Ga    3.7273424790816689E-02    7.4648311519886805E+00    1.8291874924190360E+01
N    9.9746987455626140E-03    5.5607313316380820E+00    1.8655037861629815E+01
Ga    6.4900883778164253E+00    1.0192843970188608E-02    1.8080412087288336E-01
N    6.5009305141388189E+00    1.8533597763507381E+00    6.1438191992105839E-01
Ga    6.4881812658540872E+00    1.8732407332061474E+00    2.6450068476993778E+00
N    6.5016485902290277E+00   -2.9081688697000139E-03    3.1969998023693700E+00
Ga    6.4977692162329239E+00   -1.1434040658961196E-02    5.2039477622288670E+00
N    6.4950082028274370E+00    1.8618916482769408E+00    5.8024884270607382E+00
Ga    6.4968780653987181E+00    1.8638933513264986E+00    7.8149745723328401E+00
N    6.4945148063904377E+00    4.1532846241897970E-04    8.4227838499742731E+00
Ga    6.4961346959654698E+00    2.0080301983279990E-03    1.0424393323845889E+01
N    6.4996806996068406E+00    1.8712931967078743E+00    1.1013678807908088E+01
Ga    6.5002375091458093E+00    1.8749793467231193E+00    1.3018514616458408E+01
N    6.4930944343964931E+00   -1.2184622419975000E-03    1.3594988811727269E+01
Ga    6.4775362102671821E+00   -1.0016370223935990E-02    1.5599018253829188E+01
N    6.4937144304760084E+00    1.8547464161950964E+00    1.6151435746858045E+01
Ga    6.4971109912917786E+00    1.8818181164361700E+00    1.8204423156911499E+01
N    6.4980797550015330E+00   -3.0658164961785564E-03    1.8625794149151616E+01
Ga    4.9158776847003525E+00    2.7662897246737335E+00   -4.8362559548821732E-01
N    4.8781982078756556E+00    4.6731078342372925E+00    5.2313302410778750E-01
Ga    4.8991853181804572E+00    4.6593490281981955E+00    2.5725985337718886E+00
N    4.8812898615873204E+00    2.8207907202380862E+00    3.2051227517023517E+00
Ga    4.8723510323459394E+00    2.8105649184470405E+00    5.2120376759475020E+00
N    4.8738687023817224E+00    4.6735795301799641E+00    5.8176660022445406E+00
Ga    4.8788274919977432E+00    4.6689545287209357E+00    7.8253106778854429E+00
N    4.8757610650768965E+00    2.7985910594668097E+00    8.4151954318493782E+00
Ga    4.8763515717278736E+00    2.7963331109874843E+00    1.0413163790737190E+01
N    4.8817793839815282E+00    4.6637861150483158E+00    1.1008098507822972E+01
Ga    4.8841399663031231E+00    4.6688439600280249E+00    1.3013162015786031E+01
N    4.8658111897386753E+00    2.7944761175476018E+00    1.3610751484849706E+01
Ga    4.8596992549074427E+00    2.7822040550297760E+00    1.5618090873266283E+01
N    4.8916221137723861E+00    4.6616717757022670E+00    1.6161127655962471E+01
Ga    4.8960767657498296E+00    4.6885444890837924E+00    1.8215390381992492E+01
N    4.8601922602596241E+00    2.7948924347141482E+00    1.8602403623365188E+01
Ga    3.2288463954561029E+00    5.5966762608967109E+00    3.1015444265471021E-01
N    3.2294758298662409E+00    7.4774501755910148E+00    5.3047694078643304E-01
Ga    3.2831104935736724E+00    7.5136804005399220E+00    2.5632812880131763E+00
N    3.2677519063924936E+00    5.6211054161196641E+00    3.1537638814403226E+00
Ga    3.2631279654587253E+00    5.6104805279878347E+00    5.1879685318333566E+00
N    3.2652454649042602E+00    7.4668237569497480E+00    5.8183763466417826E+00
Ga    3.2633495992155237E+00    7.4688096148843393E+00    7.8270941901472399E+00
N    3.2600955812404453E+00    5.6035754991345215E+00    8.4233107709753128E+00
Ga    3.2640942884159148E+00    5.6045168331304120E+00    1.0413804779238562E+01
N    3.2707267241457800E+00    7.4711541000844779E+00    1.1011944123694176E+01
Ga    3.2736399028393905E+00    7.4763776608093693E+00    1.3014670697908123E+01
N    3.2748400690357546E+00    5.6120628101661350E+00    1.3615578597674968E+01
Ga    3.2574849693844570E+00    5.5904434348469270E+00    1.5612566413834074E+01
N    3.2400309465346004E+00    7.4708946788035240E+00    1.6181375563081851E+01
Ga    3.2772802000609733E+00    7.4970739686586763E+00    1.8237756551667168E+01
N    3.2698015002543235E+00    5.6046860755112524E+00    1.8598985403035400E+01
     &END COORD
     &KIND N
       BASIS_SET DZVP-MOLOPT-SR-GTH
       POTENTIAL GTH-PBE-q5
       &POTENTIAL
 2 3
  0.2837905100000000E+00 2 -0.1241522559000000E+02  0.1868095920000000E+01
 2
  0.2554050000000000E+00 1  0.1363026257000000E+02
  0.2454945300000000E+00 0
         # Potential name:  GTH-PBE-Q5  for symbol:  N
         # Potential read from the potential filename: GTH_POTENTIALS
       &END POTENTIAL
     &END KIND
     &KIND Ga
       BASIS_SET DZVP-MOLOPT-SR-GTH
       POTENTIAL GTH-PBE-q13
       &POTENTIAL
 2 1 10
  0.4900000000000000E+00 0
 3
  0.4167772300000000E+00 3  0.1047568975000000E+02 -0.4921768140000000E+01  0.8707055900000000E+00
  0.7770178090000000E+01 -0.2248152160000000E+01
  0.1784415450000000E+01
  0.5696265200000000E+00 2  0.1777985340000000E+01  0.1958597600000000E+00
 -0.2317443900000000E+00
  0.2381265000000000E+00 1 -0.1624868022000000E+02
         # Potential name:  GTH-PBE-Q13  for symbol:  GA
         # Potential read from the potential filename: GTH_POTENTIALS
       &END POTENTIAL
     &END KIND
     &TOPOLOGY
       COORD_FILE_NAME 334-native.xyz
       COORD_FILE_FORMAT  XYZ
       NUMBER_OF_ATOMS  144
       MULTIPLE_UNIT_CELL  1 1 1
     &END TOPOLOGY
   &END SUBSYS
 &END FORCE_EVAL
