 # Version information for this restart file 
 # current date 2019-05-16 04:17:25.597
 # current working dir /lustre03/project/6004141/rzk/GaN-carbene/00-Surface/00-Preoptimization/334-native/Trial4
 # Program compiled at                              Sun Apr  7 00:48:11 EDT 2019
 # Program compiled on                          beluga2.int.ets1.calculquebec.ca
 # Program compiled for                        Beluga-Linux-x86-64-intel-openmpi
 # Source code revision number                                         svn:18619
 &GLOBAL
   PRINT_LEVEL  MEDIUM
   PROJECT_NAME TEST
   RUN_TYPE  CELL_OPT
 &END GLOBAL
 &MOTION
   &CELL_OPT
     MAX_ITER  100
     STEP_START_VAL  72
     EXTERNAL_PRESSURE     1.0000000000000000E+00
     KEEP_ANGLES  T
     KEEP_SYMMETRY  T
     CONSTRAINT  Z
     PRESSURE_TOLERANCE     1.0000000000000000E+02
   &END CELL_OPT
 &END MOTION
 &FORCE_EVAL
   METHOD  QS
   STRESS_TENSOR  ANALYTICAL
   &DFT
     BASIS_SET_FILE_NAME BASIS_MOLOPT
     POTENTIAL_FILE_NAME GTH_POTENTIALS
     &SCF
       MAX_SCF  100
       EPS_SCF     5.0000000000000004E-06
       &OT  T
         PRECONDITIONER  FULL_ALL
       &END OT
       &OUTER_SCF  T
         OPTIMIZER  NONE
         EPS_SCF     5.0000000000000004E-06
         MAX_SCF  10
       &END OUTER_SCF
       &PRINT
         &RESTART  OFF
           BACKUP_COPIES  1
           &EACH
             JUST_ENERGY  0
             QS_SCF  0
             MD  20
           &END EACH
         &END RESTART
       &END PRINT
     &END SCF
     &ALMO_SCF
       EPS_FILTER     9.9999999999999994E-12
       ALMO_SCF_GUESS  ATOMIC
       MO_OVERLAP_INV_ALG  DENSE_CHOLESKY
       ALMO_EXTRAPOLATION_ORDER  4
       XALMO_EXTRAPOLATION_ORDER  4
       ALMO_ALGORITHM  SKIP
       XALMO_TRIAL_WF  SIMPLE
       DELOCALIZE_METHOD  XALMO_SCF
       XALMO_R_CUTOFF_FACTOR     1.8000000000000000E+00
       &ALMO_OPTIMIZER_DIIS
         MAX_ITER  100
         EPS_ERROR     1.0000000000000001E-05
         N_DIIS  5
       &END ALMO_OPTIMIZER_DIIS
       &ALMO_OPTIMIZER_PCG
         MAX_ITER  50
         EPS_ERROR     1.0000000000000001E-05
         LIN_SEARCH_EPS_ERROR     5.0000000000000003E-02
         LIN_SEARCH_STEP_SIZE_GUESS     5.0000000000000001E-03
         CONJUGATOR  DAI_YUAN
         MAX_ITER_OUTER_LOOP  10
       &END ALMO_OPTIMIZER_PCG
       &XALMO_OPTIMIZER_PCG
         MAX_ITER  1000
         EPS_ERROR     1.0000000000000001E-05
         LIN_SEARCH_EPS_ERROR     1.0000000000000001E-01
         LIN_SEARCH_STEP_SIZE_GUESS     1.0000000000000000E-02
         CONJUGATOR  DAI_YUAN
         PRECOND_FILTER_THRESHOLD     1.0000000000000000E-03
         MAX_ITER_OUTER_LOOP  0
       &END XALMO_OPTIMIZER_PCG
       &MATRIX_ITERATE
         EPS_TARGET_FACTOR     1.0000000000000000E+01
       &END MATRIX_ITERATE
     &END ALMO_SCF
     &QS
       EPS_DEFAULT     1.0000000000000000E-14
       ALMO_SCF  F
       METHOD  GPW
     &END QS
     &MGRID
       NGRIDS  5
       CUTOFF     1.2000000000000000E+03
     &END MGRID
     &XC
       DENSITY_CUTOFF     1.0000000000000000E-10
       GRADIENT_CUTOFF     1.0000000000000000E-10
       TAU_CUTOFF     1.0000000000000000E-10
       &XC_FUNCTIONAL  NO_SHORTCUT
         &PBE  T
         &END PBE
       &END XC_FUNCTIONAL
       &VDW_POTENTIAL
         POTENTIAL_TYPE  PAIR_POTENTIAL
         &PAIR_POTENTIAL
           R_CUTOFF     1.0000000000000002E+01
           TYPE  DFTD3
           PARAMETER_FILE_NAME dftd3.dat
           REFERENCE_FUNCTIONAL PBE
           EPS_CN     9.9999999999999995E-07
           CALCULATE_C9_TERM  T
           REFERENCE_C9_TERM  T
           LONG_RANGE_CORRECTION  F
           VERBOSE_OUTPUT  F
         &END PAIR_POTENTIAL
       &END VDW_POTENTIAL
     &END XC
   &END DFT
   &SUBSYS
     &CELL
       A     9.7388766156791426E+00    0.0000000000000000E+00    0.0000000000000000E+00
       B    -4.8579515327399649E+00    8.4142188754125371E+00    0.0000000000000000E+00
       C     0.0000000000000000E+00    0.0000000000000000E+00    3.0744000000000000E+01
       MULTIPLE_UNIT_CELL  1 1 1
       &CELL_REF
         A     9.5580000000000016E+00    0.0000000000000000E+00    0.0000000000000000E+00
         B    -4.7790000000000008E+00    8.2774708093716640E+00    0.0000000000000000E+00
         C     0.0000000000000000E+00    0.0000000000000000E+00    3.0744000000000000E+01
         MULTIPLE_UNIT_CELL  1 1 1
       &END CELL_REF
     &END CELL
     &COORD
Ga    1.4236832061553671E-02    5.2924673864780704E-03   -6.4151374673973205E-01
N    7.0799038794510469E-03    1.8871345209227905E+00    5.6532043452583458E-01
Ga    2.1319289073421640E-03    1.8451715708664944E+00    2.5755736006111425E+00
N   -1.2050826472748183E-03   -1.6610167444256483E-03    3.2088273178607056E+00
Ga   -1.9089885516449627E-03   -1.0463126918262820E-02    5.2145715115618154E+00
N    8.9713805744769080E-03    1.8679886878502523E+00    5.7944399238610851E+00
Ga   -3.8852166988390903E-03    1.8505254352331761E+00    7.7943195757952939E+00
N   -9.6036528500163844E-03   -2.0286621689425952E-02    8.4090647663535396E+00
Ga   -1.2097934156948525E-02   -2.3502950435483491E-02    1.0397840900307322E+01
N   -1.0111585478907184E-02    1.8512436739392304E+00    1.1009933002852661E+01
Ga   -9.0547640035699480E-03    1.8724474591411169E+00    1.2979658066919368E+01
N    3.8952137080368993E-03    7.3910406055108305E-03    1.3588706464150818E+01
Ga    1.3901206047338532E-02    5.6459723555140583E-02    1.5576968341946479E+01
N    1.6805511743678440E-02    1.8778337663485294E+00    1.6393196663281977E+01
Ga    3.3248405777592888E-02    1.8963249050613884E+00    1.8576971608942298E+01
N   -2.7581241593397873E-03   -1.7249797412427156E-02    1.8774413762127320E+01
Ga   -1.6079141106860728E+00    2.8048279853393630E+00    2.7645010461573793E-01
N   -1.6159551977750433E+00    4.6798606561572207E+00    5.5553415434599285E-01
Ga   -1.5828481252527815E+00    4.6876849840767481E+00    2.5886160071280968E+00
N   -1.6198593019429481E+00    2.8035012972236526E+00    3.1794318380673956E+00
Ga   -1.6195728602651593E+00    2.7995099400267862E+00    5.1968151050477074E+00
N   -1.6221190318695062E+00    4.6719106916820357E+00    5.8040711848020035E+00
Ga   -1.6262677424617591E+00    4.6516338417452907E+00    7.8038967211467964E+00
N   -1.6259421526181650E+00    2.7777440588297200E+00    8.4105005664327326E+00
Ga   -1.6311596719251042E+00    2.7785684025853761E+00    1.0398830273632596E+01
N   -1.6247184203964922E+00    4.6446052537133564E+00    1.1011969134793071E+01
Ga   -1.6213265683384108E+00    4.6458465030004374E+00    1.2995325485752430E+01
N   -1.6212277400238229E+00    2.7746653845876303E+00    1.3679696124074058E+01
Ga   -1.6028654788651684E+00    2.7647811131314541E+00    1.5708094367264785E+01
N   -1.6155597412975777E+00    4.6718641336714244E+00    1.6215523928452114E+01
Ga   -1.5855489898097679E+00    4.6754871652804244E+00    1.8290914527135961E+01
N   -1.6029806913910758E+00    2.8460554226752599E+00    1.8814177403138689E+01
Ga   -3.2341954723399331E+00    5.6249753816348589E+00    2.9272766547282175E-01
N   -3.2226266878019101E+00    7.4858096616554093E+00    5.4849540651037421E-01
Ga   -3.2558654082909539E+00    7.5008345363784690E+00    2.5792674915885798E+00
N   -3.2376888899102783E+00    5.6084222206974754E+00    3.1637055059368286E+00
Ga   -3.2422700429409548E+00    5.6070890409243193E+00    5.1872779487313991E+00
N   -3.2360115233250935E+00    7.4723126052992237E+00    5.8135636402584971E+00
Ga   -3.2414007438479069E+00    7.4582843180535647E+00    7.8179324764962104E+00
N   -3.2446572574759598E+00    5.5859687819909682E+00    8.4129827041018945E+00
Ga   -3.2449268284871930E+00    5.5914471982490381E+00    1.0400494373591334E+01
N   -3.2437999739499328E+00    7.4623492065594386E+00    1.1014252195966247E+01
Ga   -3.2231208467444410E+00    7.4821313754822460E+00    1.2999440979585318E+01
N   -3.2401559666366171E+00    5.5949935587591435E+00    1.3578745224464919E+01
Ga   -3.2306611879984706E+00    5.6196682340900592E+00    1.5568651336009482E+01
N   -3.2277052354727407E+00    7.5015751514785380E+00    1.6069904284380570E+01
Ga   -3.2950285366678012E+00    7.5188426695742523E+00    1.8060780374299018E+01
N   -3.2283533909247373E+00    5.6461138258805530E+00    1.8550346462957126E+01
Ga    3.2595699364623130E+00    3.2718562243572598E-03    2.4118386813249162E-01
N    3.2571942509282468E+00    1.8846899943373223E+00    5.4728911341839681E-01
Ga    3.2870220214915373E+00    1.8809723242865242E+00    2.5885357254646135E+00
N    3.2451485196447605E+00    3.1613526399678145E-03    3.1840899511585397E+00
Ga    3.2430914108841327E+00   -6.4182672549080123E-03    5.2064866406268315E+00
N    3.2463679996093329E+00    1.8632645407976740E+00    5.8132896374703256E+00
Ga    3.2405463711864995E+00    1.8432861161643845E+00    7.8138265689029414E+00
N    3.2394819084913911E+00   -2.6116225412042435E-02    8.4256102956120422E+00
Ga    3.2416679305722846E+00   -2.2657506284067531E-02    1.0416559360921820E+01
N    3.2411938153136006E+00    1.8544774273107867E+00    1.1023410283924406E+01
Ga    3.2314824544760272E+00    1.8677561987793736E+00    1.3008108693861098E+01
N    3.2544295873829978E+00    3.2324348568590151E-04    1.3629730967201542E+01
Ga    3.2971437574171945E+00    2.5399940424087736E-02    1.5630282986866836E+01
N    3.2443568883828244E+00    1.9310963477910832E+00    1.6246170170722863E+01
Ga    3.2451664447739699E+00    1.9345121905069167E+00    1.8335556983834078E+01
N    3.2324650688163503E+00    2.3439007351655598E-02    1.8381257854042474E+01
Ga    1.6251428144481199E+00    2.8106625193670332E+00    2.9959376683257372E-01
N    1.6406314303088296E+00    4.6825223646431349E+00    5.6877268289470806E-01
Ga    1.6089825299083897E+00    4.6965750158573378E+00    2.6038718272866412E+00
N    1.6375067709448294E+00    2.7993404412609633E+00    3.1676979460794543E+00
Ga    1.6336130516330769E+00    2.7972570085238946E+00    5.1884444043425333E+00
N    1.6323101781865730E+00    4.6640756157286516E+00    5.8134102767097264E+00
Ga    1.6257909548613236E+00    4.6492788293570815E+00    7.8162524375749500E+00
N    1.6171134179957951E+00    2.7746084222336953E+00    8.4099248458326912E+00
Ga    1.6173148881414745E+00    2.7774031444313265E+00    1.0396665805826785E+01
N    1.6172234429340229E+00    4.6445748731210994E+00    1.1010303208504519E+01
Ga    1.6093120555727098E+00    4.6464586216968673E+00    1.2993938110039721E+01
N    1.6018138114092380E+00    2.7768572516015491E+00    1.3656748943571140E+01
Ga    1.6021386126470119E+00    2.8038575844118596E+00    1.5676974816805856E+01
N    1.6275233626537418E+00    4.6709875970519903E+00    1.6228606918536293E+01
Ga    1.6515850059962947E+00    4.6924589390618134E+00    1.8320946628120879E+01
N    1.6568916229628086E+00    2.8514712265933317E+00    1.8869204863439041E+01
Ga    4.7054419053974526E-03    5.6101917061884139E+00   -5.9267829896429114E-01
N    1.1413747034235953E-02    7.4960590620079337E+00    5.7986363232344806E-01
Ga    5.9024704330366551E-03    7.4489333835457918E+00    2.5927213558899558E+00
N    6.8090717265440375E-03    5.6085551788125532E+00    3.2268283051354807E+00
Ga    8.1824372559798526E-03    5.6050115325744958E+00    5.2262841205036947E+00
N    1.7230035192728865E-02    7.4818854037081159E+00    5.8055931846338966E+00
Ga    4.2933347971448538E-03    7.4607536656783644E+00    7.8104666621024705E+00
N   -1.1213597723967745E-03    5.5843827581336640E+00    8.4068752147087498E+00
Ga   -1.5497839620357201E-03    5.5856185522781612E+00    1.0401317468238995E+01
N    6.9894487590244723E-03    7.4548146624247584E+00    1.1016349909251447E+01
Ga    1.2919787355464658E-02    7.4720752283273972E+00    1.3007563773970048E+01
N   -1.7325689515075456E-02    5.5916749723264010E+00    1.3606275633842893E+01
Ga    7.2716960926286264E-03    5.6404108258533965E+00    1.5609535499050841E+01
N    1.3134602197840838E-02    7.4810906659116299E+00    1.6185166403091877E+01
Ga    4.1545063395731101E-02    7.4927345580434279E+00    1.8201709006276563E+01
N    2.5757628763229477E-02    5.6162434969003812E+00    1.8596977543319163E+01
Ga    6.4915048326551981E+00    7.1893448236519351E-03    2.9515581526491819E-01
N    6.5031362503593186E+00    1.8888582748132445E+00    5.4128016726587791E-01
Ga    6.4796905195014434E+00    1.8852338070692687E+00    2.5943784580726388E+00
N    6.4989690317617956E+00   -4.6472762981345566E-03    3.1572785286199423E+00
Ga    6.5008402448146967E+00   -1.0123056801383389E-02    5.1817604534006225E+00
N    6.5011597067344464E+00    1.8557127000815772E+00    5.8021604063573724E+00
Ga    6.4934120580072809E+00    1.8433472095178103E+00    7.8029065847435524E+00
N    6.4832992645322092E+00   -2.4659432015339718E-02    8.4194437024903959E+00
Ga    6.4822654688182926E+00   -2.3337077728696514E-02    1.0408449672351788E+01
N    6.4903354664460817E+00    1.8511889763803875E+00    1.1031720045686503E+01
Ga    6.4967890362672751E+00    1.8543266227758017E+00    1.3023373327104421E+01
N    6.4876702774553889E+00   -4.2548209669616222E-03    1.3654516477141643E+01
Ga    6.4974476911603274E+00    7.0584262970728676E-03    1.5658724576279546E+01
N    6.5152264693441397E+00    1.8841106285509466E+00    1.6289487653696941E+01
Ga    6.5301492882557444E+00    1.9242102849980387E+00    1.8414826669899668E+01
N    6.5225959252137304E+00    8.0251992727818841E-03    1.8553214940911996E+01
Ga    4.8799689612030033E+00    2.8077033185383375E+00   -5.4978257356608262E-01
N    4.8767732569595763E+00    4.6782426275286833E+00    5.7638890632083872E-01
Ga    4.8698298437712655E+00    4.6464146366951677E+00    2.5965261988412460E+00
N    4.8765220706049899E+00    2.8013964134694724E+00    3.2216166444588845E+00
Ga    4.8741087212807335E+00    2.7970285369756405E+00    5.2265198925648795E+00
N    4.8789061543765904E+00    4.6737032738377788E+00    5.8081299825295680E+00
Ga    4.8727097818730121E+00    4.6542887481611546E+00    7.8117035052392740E+00
N    4.8675912473482592E+00    2.7751067004337466E+00    8.4096695851862560E+00
Ga    4.8650930921115432E+00    2.7770708249202012E+00    1.0402377265064215E+01
N    4.8701564182320505E+00    4.6512754766532032E+00    1.1003412296171634E+01
Ga    4.8633053798494661E+00    4.6667683415310313E+00    1.2983444468848838E+01
N    4.8748861620727002E+00    2.7879086451312389E+00    1.3649818056763944E+01
Ga    4.8785200349650912E+00    2.8041848080414948E+00    1.5658558476575855E+01
N    4.8657022916402273E+00    4.6932995927433412E+00    1.6136087915262067E+01
Ga    4.8790387275387159E+00    4.7232589592353893E+00    1.8178803076197539E+01
N    4.8862531017095909E+00    2.8650858309648379E+00    1.8611862488890683E+01
Ga    3.2578088434281063E+00    5.6260783324249326E+00    2.3092908423739075E-01
N    3.2545975074781599E+00    7.4801586622351159E+00    5.4161852861100812E-01
Ga    3.2905048101622256E+00    7.4861104086932775E+00    2.5609993602751122E+00
N    3.2545977457796420E+00    5.6100124760924848E+00    3.1898109055428083E+00
Ga    3.2538687293304367E+00    5.6076879774899506E+00    5.2080614675979984E+00
N    3.2548874941812262E+00    7.4765658483370201E+00    5.8156057354844988E+00
Ga    3.2471753791902773E+00    7.4590963981983931E+00    7.8158640184014700E+00
N    3.2466104546635255E+00    5.5854587786575847E+00    8.4208540591706598E+00
Ga    3.2393684451785663E+00    5.5895840783657205E+00    1.0411592990208117E+01
N    3.2495231022126116E+00    7.4635912128623314E+00    1.1017331372072984E+01
Ga    3.2439567014035893E+00    7.4752347135579216E+00    1.3012011774440511E+01
N    3.2373912299579439E+00    5.5851801331334876E+00    1.3570562926125719E+01
Ga    3.2298931838261362E+00    5.6334809925812923E+00    1.5548406842359919E+01
N    3.3217805225134489E+00    7.4789048444081887E+00    1.6095862836342629E+01
Ga    3.2951053721910419E+00    7.4899606930301497E+00    1.8114729651380113E+01
N    3.2775350054342671E+00    5.6474129203971071E+00    1.8647363930652407E+01
     &END COORD
     &KIND N
       BASIS_SET DZVP-MOLOPT-SR-GTH
       POTENTIAL GTH-PBE-q5
       &POTENTIAL
 2 3
  0.2837905100000000E+00 2 -0.1241522559000000E+02  0.1868095920000000E+01
 2
  0.2554050000000000E+00 1  0.1363026257000000E+02
  0.2454945300000000E+00 0
         # Potential name:  GTH-PBE-Q5  for symbol:  N
         # Potential read from the potential filename: GTH_POTENTIALS
       &END POTENTIAL
     &END KIND
     &KIND Ga
       BASIS_SET DZVP-MOLOPT-SR-GTH
       POTENTIAL GTH-PBE-q13
       &POTENTIAL
 2 1 10
  0.4900000000000000E+00 0
 3
  0.4167772300000000E+00 3  0.1047568975000000E+02 -0.4921768140000000E+01  0.8707055900000000E+00
  0.7770178090000000E+01 -0.2248152160000000E+01
  0.1784415450000000E+01
  0.5696265200000000E+00 2  0.1777985340000000E+01  0.1958597600000000E+00
 -0.2317443900000000E+00
  0.2381265000000000E+00 1 -0.1624868022000000E+02
         # Potential name:  GTH-PBE-Q13  for symbol:  GA
         # Potential read from the potential filename: GTH_POTENTIALS
       &END POTENTIAL
     &END KIND
     &TOPOLOGY
       COORD_FILE_NAME 334-native.xyz
       COORD_FILE_FORMAT  XYZ
       NUMBER_OF_ATOMS  144
       MULTIPLE_UNIT_CELL  1 1 1
     &END TOPOLOGY
   &END SUBSYS
 &END FORCE_EVAL
