 # Version information for this restart file 
 # current date 2019-05-16 04:02:02.500
 # current working dir /lustre03/project/6004141/rzk/GaN-carbene/00-Surface/00-Preoptimization/334-native/Trial4
 # Program compiled at                              Sun Apr  7 00:48:11 EDT 2019
 # Program compiled on                          beluga2.int.ets1.calculquebec.ca
 # Program compiled for                        Beluga-Linux-x86-64-intel-openmpi
 # Source code revision number                                         svn:18619
 &GLOBAL
   PRINT_LEVEL  MEDIUM
   PROJECT_NAME TEST
   RUN_TYPE  CELL_OPT
 &END GLOBAL
 &MOTION
   &CELL_OPT
     MAX_ITER  100
     STEP_START_VAL  62
     EXTERNAL_PRESSURE     1.0000000000000000E+00
     KEEP_ANGLES  T
     KEEP_SYMMETRY  T
     CONSTRAINT  Z
     PRESSURE_TOLERANCE     1.0000000000000000E+02
   &END CELL_OPT
 &END MOTION
 &FORCE_EVAL
   METHOD  QS
   STRESS_TENSOR  ANALYTICAL
   &DFT
     BASIS_SET_FILE_NAME BASIS_MOLOPT
     POTENTIAL_FILE_NAME GTH_POTENTIALS
     &SCF
       MAX_SCF  100
       EPS_SCF     5.0000000000000004E-06
       &OT  T
         PRECONDITIONER  FULL_ALL
       &END OT
       &OUTER_SCF  T
         OPTIMIZER  NONE
         EPS_SCF     5.0000000000000004E-06
         MAX_SCF  10
       &END OUTER_SCF
       &PRINT
         &RESTART  OFF
           BACKUP_COPIES  1
           &EACH
             JUST_ENERGY  0
             QS_SCF  0
             MD  20
           &END EACH
         &END RESTART
       &END PRINT
     &END SCF
     &ALMO_SCF
       EPS_FILTER     9.9999999999999994E-12
       ALMO_SCF_GUESS  ATOMIC
       MO_OVERLAP_INV_ALG  DENSE_CHOLESKY
       ALMO_EXTRAPOLATION_ORDER  4
       XALMO_EXTRAPOLATION_ORDER  4
       ALMO_ALGORITHM  SKIP
       XALMO_TRIAL_WF  SIMPLE
       DELOCALIZE_METHOD  XALMO_SCF
       XALMO_R_CUTOFF_FACTOR     1.8000000000000000E+00
       &ALMO_OPTIMIZER_DIIS
         MAX_ITER  100
         EPS_ERROR     1.0000000000000001E-05
         N_DIIS  5
       &END ALMO_OPTIMIZER_DIIS
       &ALMO_OPTIMIZER_PCG
         MAX_ITER  50
         EPS_ERROR     1.0000000000000001E-05
         LIN_SEARCH_EPS_ERROR     5.0000000000000003E-02
         LIN_SEARCH_STEP_SIZE_GUESS     5.0000000000000001E-03
         CONJUGATOR  DAI_YUAN
         MAX_ITER_OUTER_LOOP  10
       &END ALMO_OPTIMIZER_PCG
       &XALMO_OPTIMIZER_PCG
         MAX_ITER  1000
         EPS_ERROR     1.0000000000000001E-05
         LIN_SEARCH_EPS_ERROR     1.0000000000000001E-01
         LIN_SEARCH_STEP_SIZE_GUESS     1.0000000000000000E-02
         CONJUGATOR  DAI_YUAN
         PRECOND_FILTER_THRESHOLD     1.0000000000000000E-03
         MAX_ITER_OUTER_LOOP  0
       &END XALMO_OPTIMIZER_PCG
       &MATRIX_ITERATE
         EPS_TARGET_FACTOR     1.0000000000000000E+01
       &END MATRIX_ITERATE
     &END ALMO_SCF
     &QS
       EPS_DEFAULT     1.0000000000000000E-14
       ALMO_SCF  F
       METHOD  GPW
     &END QS
     &MGRID
       NGRIDS  5
       CUTOFF     1.2000000000000000E+03
     &END MGRID
     &XC
       DENSITY_CUTOFF     1.0000000000000000E-10
       GRADIENT_CUTOFF     1.0000000000000000E-10
       TAU_CUTOFF     1.0000000000000000E-10
       &XC_FUNCTIONAL  NO_SHORTCUT
         &PBE  T
         &END PBE
       &END XC_FUNCTIONAL
       &VDW_POTENTIAL
         POTENTIAL_TYPE  PAIR_POTENTIAL
         &PAIR_POTENTIAL
           R_CUTOFF     1.0000000000000002E+01
           TYPE  DFTD3
           PARAMETER_FILE_NAME dftd3.dat
           REFERENCE_FUNCTIONAL PBE
           EPS_CN     9.9999999999999995E-07
           CALCULATE_C9_TERM  T
           REFERENCE_C9_TERM  T
           LONG_RANGE_CORRECTION  F
           VERBOSE_OUTPUT  F
         &END PAIR_POTENTIAL
       &END VDW_POTENTIAL
     &END XC
   &END DFT
   &SUBSYS
     &CELL
       A     9.7464710267084680E+00    0.0000000000000000E+00    0.0000000000000000E+00
       B    -4.8523247908441460E+00    8.4044730725680754E+00    0.0000000000000000E+00
       C     0.0000000000000000E+00    0.0000000000000000E+00    3.0744000000000000E+01
       MULTIPLE_UNIT_CELL  1 1 1
       &CELL_REF
         A     9.5580000000000016E+00    0.0000000000000000E+00    0.0000000000000000E+00
         B    -4.7790000000000008E+00    8.2774708093716640E+00    0.0000000000000000E+00
         C     0.0000000000000000E+00    0.0000000000000000E+00    3.0744000000000000E+01
         MULTIPLE_UNIT_CELL  1 1 1
       &END CELL_REF
     &END CELL
     &COORD
Ga   -1.4470698060741608E-03   -2.0981888732001853E-03   -5.8245309574250415E-01
N    6.5408378012405625E-03    1.8700810995345547E+00    5.6441602073449970E-01
Ga    5.5003424180031539E-03    1.8387577102477768E+00    2.5960384560437615E+00
N   -1.1007672984105338E-03   -2.8236999527429998E-03    3.2307562725701926E+00
Ga    3.5468361394370930E-04   -6.3532681710494921E-04    5.2217969806560927E+00
N    6.2959864056838146E-03    1.8729537147696826E+00    5.8082760217731222E+00
Ga    6.2694238446618072E-03    1.8711444537558417E+00    7.8071985747216557E+00
N    7.0568201697806089E-04   -1.7350719165556700E-03    8.4079442173729326E+00
Ga    1.8298768367760573E-03   -6.2697805050335100E-04    1.0405735816194483E+01
N    7.7637015134749132E-03    1.8692021232235301E+00    1.1012349366495885E+01
Ga    5.2403687570220453E-03    1.8695840483631081E+00    1.3008627560210197E+01
N    4.7609056397222453E-04    5.2797334013438757E-05    1.3622473832648343E+01
Ga   -1.6663077511657135E-02   -3.7024481512835882E-03    1.5630898001191618E+01
N   -6.4058108938699161E-03    1.8812783888666229E+00    1.6223644192870257E+01
Ga    2.4934251340424513E-02    1.9090024661253155E+00    1.8307036009396509E+01
N    7.0488844869506587E-03    1.4575463301333601E-02    1.8654544448957569E+01
Ga   -1.6155554965061270E+00    2.8001186329580303E+00    2.7866996611396255E-01
N   -1.6174977587407382E+00    4.6682803025725175E+00    5.6341906005393472E-01
Ga   -1.5881128149575285E+00    4.6835478270470405E+00    2.5935807849622377E+00
N   -1.6181122075168335E+00    2.7989639441249561E+00    3.1870224543923888E+00
Ga   -1.6166426393209070E+00    2.8009682907995783E+00    5.1986745879518148E+00
N   -1.6132828106940005E+00    4.6698634165322774E+00    5.8076421321138323E+00
Ga   -1.6123213680869326E+00    4.6700393897450860E+00    7.8069129823576127E+00
N   -1.6171263590919511E+00    2.8005712582512907E+00    8.4123373219982742E+00
Ga   -1.6158967601590251E+00    2.8010982676663505E+00    1.0409019750416876E+01
N   -1.6075236519457183E+00    4.6722567026899995E+00    1.1013692531990598E+01
Ga   -1.6074167548078242E+00    4.6704567647713491E+00    1.3009902003520665E+01
N   -1.6188101081755459E+00    2.7995588610048676E+00    1.3610712494158486E+01
Ga   -1.6323983335287802E+00    2.7893861072242725E+00    1.5613226250016615E+01
N   -1.6256639170256282E+00    4.6700717053318881E+00    1.6208811933760039E+01
Ga   -1.6069240123129935E+00    4.6807495810859576E+00    1.8284492314992708E+01
N   -1.6153384088528162E+00    2.8028993597301186E+00    1.8701715832820664E+01
Ga   -3.2353734761828528E+00    5.6029580373380421E+00    2.7639999941928955E-01
N   -3.2264810490716505E+00    7.4716107859788936E+00    5.6630356901282675E-01
Ga   -3.2549206047033183E+00    7.4843999116404474E+00    2.5972643029594220E+00
N   -3.2356137249583128E+00    5.5999942833280798E+00    3.1885055805508298E+00
Ga   -3.2343194839207996E+00    5.6021005528549699E+00    5.1994154614610935E+00
N   -3.2252622771463502E+00    7.4709993439226121E+00    5.8073079995737800E+00
Ga   -3.2264973790195386E+00    7.4703507636012052E+00    7.8064387446240424E+00
N   -3.2347685756105928E+00    5.6011749913680733E+00    8.4140612451484600E+00
Ga   -3.2343082952196127E+00    5.6013774871337896E+00    1.0411769090224833E+01
N   -3.2283545290923934E+00    7.4730455389598704E+00    1.1015019250328374E+01
Ga   -3.2311596800712823E+00    7.4715503407766359E+00    1.3012103873808407E+01
N   -3.2363687984735865E+00    5.5960176364120020E+00    1.3606141984528289E+01
Ga   -3.2502459264135539E+00    5.5843688035575854E+00    1.5603631682985041E+01
N   -3.2439353366100598E+00    7.4571125573579833E+00    1.6201322255872071E+01
Ga   -3.2241312492370029E+00    7.4911743277984071E+00    1.8271647666995399E+01
N   -3.2430984144932671E+00    5.6017181162783052E+00    1.8629426296412021E+01
Ga    3.2487880417488171E+00   -3.6623290026188706E-03    2.8292130082651068E-01
N    3.2505768342813348E+00    1.8679820767241269E+00    5.6479584596417953E-01
Ga    3.2767753147037886E+00    1.8820835731320533E+00    2.5991178177513699E+00
N    3.2475510842901252E+00   -2.8239819369297956E-03    3.1868726990268152E+00
Ga    3.2490286191797000E+00   -8.5032444928610763E-04    5.1983229844240242E+00
N    3.2526351212584927E+00    1.8682468488527399E+00    5.8064494507281781E+00
Ga    3.2533664074481092E+00    1.8677519526335837E+00    7.8057693229638012E+00
N    3.2488976019775624E+00   -1.9002465523581863E-03    8.4111066258429226E+00
Ga    3.2489764984070413E+00   -1.8848546169431388E-03    1.0407758422175771E+01
N    3.2538992128160533E+00    1.8681486074655589E+00    1.1011920546574103E+01
Ga    3.2477845719884204E+00    1.8612124310411924E+00    1.3008306870635231E+01
N    3.2443391984689467E+00   -7.2362397313850352E-03    1.3626212683308124E+01
Ga    3.2394926672177466E+00   -1.4287696261841318E-02    1.5632834485363478E+01
N    3.2232755867009240E+00    1.8645154811416598E+00    1.6211593537209538E+01
Ga    3.2566831471969233E+00    1.8934547610054531E+00    1.8285354533526640E+01
N    3.2528894663887633E+00   -4.8630552943157738E-03    1.8621442464023442E+01
Ga    1.6283012747409462E+00    2.8011369593500342E+00    2.7796666769318207E-01
N    1.6424758517652625E+00    4.6691371774850827E+00    5.6574739960750664E-01
Ga    1.6119387078636229E+00    4.6829470555427948E+00    2.5952380177028727E+00
N    1.6295402064059676E+00    2.7987331887530638E+00    3.1886484910781472E+00
Ga    1.6308826150003677E+00    2.8009447969587495E+00    5.1997585158322961E+00
N    1.6408772879417000E+00    4.6705695264407590E+00    5.8064865842425561E+00
Ga    1.6395017072284501E+00    4.6706772867962441E+00    7.8059130651909872E+00
N    1.6316468781264641E+00    2.8006773795489175E+00    8.4100895126647597E+00
Ga    1.6315797961398362E+00    2.8006526355741821E+00    1.0406557453963964E+01
N    1.6353982206517694E+00    4.6714394452025498E+00    1.1010596271798798E+01
Ga    1.6294796952576862E+00    4.6683404564204123E+00    1.3005057272662549E+01
N    1.6283412953143583E+00    2.7992740942932590E+00    1.3613244005174298E+01
Ga    1.6160181710329948E+00    2.7938570359846731E+00    1.5616442408584923E+01
N    1.6358330895545621E+00    4.6696796130353286E+00    1.6207702266734017E+01
Ga    1.6567403650966903E+00    4.6861728930425333E+00    1.8285029226101543E+01
N    1.6403827211436419E+00    2.8096896750561262E+00    1.8728838508394571E+01
Ga    1.5641456845909913E-02    5.6035254850578013E+00   -5.9358744879922754E-01
N    2.0701242832743539E-02    7.4752116369247128E+00    5.6630201146454207E-01
Ga    1.9827197014281570E-02    7.4423737111495276E+00    2.5958140899114004E+00
N    1.2511072790561021E-02    5.5997939834518942E+00    3.2277382146339262E+00
Ga    1.4017364452685803E-02    5.6022873176474706E+00    5.2185455326484336E+00
N    2.0320362059144493E-02    7.4758703412551277E+00    5.8066184447440543E+00
Ga    2.0363536006129043E-02    7.4739648596716659E+00    7.8055702735068060E+00
N    1.4129138279813512E-02    5.6023459831274778E+00    8.4072696360453207E+00
Ga    1.4316528863934593E-02    5.6044877358076706E+00    1.0404375848534139E+01
N    2.0069667315411290E-02    7.4728082290361924E+00    1.1015589676135864E+01
Ga    1.6727735844269204E-02    7.4702789461518115E+00    1.3014329818940013E+01
N    1.2885980269312534E-02    5.6023152623519579E+00    1.3630963819252177E+01
Ga    2.4462639813090277E-03    5.5998110723392331E+00    1.5639766038506046E+01
N    1.7188800047490595E-02    7.4796991040286160E+00    1.6208844562175656E+01
Ga    3.3898058985593386E-02    7.4771837413988678E+00    1.8270874244922311E+01
N    1.4441514309829311E-02    5.5874836404713246E+00    1.8662480234276956E+01
Ga    6.4962441418091270E+00   -3.0687020178858482E-03    2.7951487850946305E-01
N    6.5067212482518810E+00    1.8684153991923615E+00    5.6419639912097219E-01
Ga    6.4792998465093090E+00    1.8815086611856822E+00    2.5988513612562025E+00
N    6.4964562323153876E+00   -2.2810884443680767E-03    3.1896150855306802E+00
Ga    6.4980622512367985E+00   -5.0575933016921190E-04    5.2005444127317535E+00
N    6.5072914868954053E+00    1.8688447347773454E+00    5.8077367540112057E+00
Ga    6.5059972120913878E+00    1.8679808416400367E+00    7.8073851501713332E+00
N    6.4977931398077624E+00   -2.1012353524681123E-03    8.4116441776888173E+00
Ga    6.4988007362700300E+00   -1.8332705243395927E-03    1.0409234277897323E+01
N    6.5056118315638178E+00    1.8692837428485953E+00    1.1011350242369165E+01
Ga    6.5052879280309659E+00    1.8640225190803879E+00    1.3008080877215145E+01
N    6.4972786413891663E+00   -7.7195183445106863E-03    1.3610516741385274E+01
Ga    6.4851868465267009E+00   -1.8123253514073380E-02    1.5611842924332061E+01
N    6.5053126238261498E+00    1.8626855650542413E+00    1.6193900404390682E+01
Ga    6.5300746048857290E+00    1.8946005183463670E+00    1.8255112939059192E+01
N    6.5095793148811305E+00   -1.3884263157372290E-03    1.8598187895118492E+01
Ga    4.8801806730058717E+00    2.8000127432087534E+00   -5.5090903627556598E-01
N    4.8874037225939011E+00    4.6711409404960174E+00    5.6367763594600295E-01
Ga    4.8865961922135392E+00    4.6415403521656469E+00    2.5982144620424634E+00
N    4.8790010551645553E+00    2.7985721024924746E+00    3.2286357743866976E+00
Ga    4.8806041031486442E+00    2.8009778253456989E+00    5.2209974741935401E+00
N    4.8869461171895523E+00    4.6746138907048520E+00    5.8081933934513899E+00
Ga    4.8864295133310476E+00    4.6720028975799792E+00    7.8080605737562570E+00
N    4.8799094592177763E+00    2.7990848925996548E+00    8.4082730886984542E+00
Ga    4.8804509558101561E+00    2.7977190156345348E+00    1.0406591350582147E+01
N    4.8879559913848265E+00    4.6664706262072233E+00    1.1014667331092141E+01
Ga    4.8852738282910098E+00    4.6574330762698120E+00    1.3011653237012014E+01
N    4.8746918399088246E+00    2.7795401662403303E+00    1.3614475068158844E+01
Ga    4.8639340584319157E+00    2.7674315394959970E+00    1.5618089357344616E+01
N    4.8711815969573626E+00    4.6543342360555542E+00    1.6147063536311840E+01
Ga    4.8962232169044535E+00    4.6868243735542228E+00    1.8193164117134732E+01
N    4.8901818386462015E+00    2.8061814625703745E+00    1.8610764562976122E+01
Ga    3.2625325302035049E+00    5.6017649463983865E+00    2.8219795834069550E-01
N    3.2642399192506795E+00    7.4706889219247525E+00    5.6826691715253275E-01
Ga    3.2920944599600483E+00    7.4856766002600006E+00    2.5985377662843154E+00
N    3.2621985094227601E+00    5.6000383682853832E+00    3.1868354009643141E+00
Ga    3.2635578950780002E+00    5.6023142121215841E+00    5.1981833549551979E+00
N    3.2668805258919908E+00    7.4708163125064635E+00    5.8077963259892504E+00
Ga    3.2677017463483669E+00    7.4701736344698935E+00    7.8073771040740665E+00
N    3.2630651125582775E+00    5.6009872871218009E+00    8.4139888739084228E+00
Ga    3.2645454290254627E+00    5.6012231001310164E+00    1.0411569450598865E+01
N    3.2722766501230995E+00    7.4733725440593979E+00    1.1012432000773886E+01
Ga    3.2714976819846084E+00    7.4722234955587474E+00    1.3009296976351674E+01
N    3.2587787505370520E+00    5.5938947125304814E+00    1.3594652318223677E+01
Ga    3.2482899580978284E+00    5.5874410986062735E+00    1.5589057775193487E+01
N    3.2616807119780504E+00    7.4538650329839244E+00    1.6179424192606206E+01
Ga    3.2966349965588981E+00    7.4983054239392821E+00    1.8236818962718871E+01
N    3.2806816781155481E+00    5.6110984901953849E+00    1.8625242836127402E+01
     &END COORD
     &KIND N
       BASIS_SET DZVP-MOLOPT-SR-GTH
       POTENTIAL GTH-PBE-q5
       &POTENTIAL
 2 3
  0.2837905100000000E+00 2 -0.1241522559000000E+02  0.1868095920000000E+01
 2
  0.2554050000000000E+00 1  0.1363026257000000E+02
  0.2454945300000000E+00 0
         # Potential name:  GTH-PBE-Q5  for symbol:  N
         # Potential read from the potential filename: GTH_POTENTIALS
       &END POTENTIAL
     &END KIND
     &KIND Ga
       BASIS_SET DZVP-MOLOPT-SR-GTH
       POTENTIAL GTH-PBE-q13
       &POTENTIAL
 2 1 10
  0.4900000000000000E+00 0
 3
  0.4167772300000000E+00 3  0.1047568975000000E+02 -0.4921768140000000E+01  0.8707055900000000E+00
  0.7770178090000000E+01 -0.2248152160000000E+01
  0.1784415450000000E+01
  0.5696265200000000E+00 2  0.1777985340000000E+01  0.1958597600000000E+00
 -0.2317443900000000E+00
  0.2381265000000000E+00 1 -0.1624868022000000E+02
         # Potential name:  GTH-PBE-Q13  for symbol:  GA
         # Potential read from the potential filename: GTH_POTENTIALS
       &END POTENTIAL
     &END KIND
     &TOPOLOGY
       COORD_FILE_NAME 334-native.xyz
       COORD_FILE_FORMAT  XYZ
       NUMBER_OF_ATOMS  144
       MULTIPLE_UNIT_CELL  1 1 1
     &END TOPOLOGY
   &END SUBSYS
 &END FORCE_EVAL
