 # Version information for this restart file 
 # current date 2019-05-16 02:53:26.821
 # current working dir /lustre03/project/6004141/rzk/GaN-carbene/00-Surface/00-Preoptimization/334-native/Trial4
 # Program compiled at                              Sun Apr  7 00:48:11 EDT 2019
 # Program compiled on                          beluga2.int.ets1.calculquebec.ca
 # Program compiled for                        Beluga-Linux-x86-64-intel-openmpi
 # Source code revision number                                         svn:18619
 &GLOBAL
   PRINT_LEVEL  MEDIUM
   PROJECT_NAME TEST
   RUN_TYPE  CELL_OPT
 &END GLOBAL
 &MOTION
   &CELL_OPT
     MAX_ITER  100
     STEP_START_VAL  24
     EXTERNAL_PRESSURE     1.0000000000000000E+00
     KEEP_ANGLES  T
     KEEP_SYMMETRY  T
     CONSTRAINT  Z
     PRESSURE_TOLERANCE     1.0000000000000000E+02
   &END CELL_OPT
 &END MOTION
 &FORCE_EVAL
   METHOD  QS
   STRESS_TENSOR  ANALYTICAL
   &DFT
     BASIS_SET_FILE_NAME BASIS_MOLOPT
     POTENTIAL_FILE_NAME GTH_POTENTIALS
     &SCF
       MAX_SCF  100
       EPS_SCF     5.0000000000000004E-06
       &OT  T
         PRECONDITIONER  FULL_ALL
       &END OT
       &OUTER_SCF  T
         OPTIMIZER  NONE
         EPS_SCF     5.0000000000000004E-06
         MAX_SCF  10
       &END OUTER_SCF
       &PRINT
         &RESTART  OFF
           BACKUP_COPIES  1
           &EACH
             JUST_ENERGY  0
             QS_SCF  0
             MD  20
           &END EACH
         &END RESTART
       &END PRINT
     &END SCF
     &ALMO_SCF
       EPS_FILTER     9.9999999999999994E-12
       ALMO_SCF_GUESS  ATOMIC
       MO_OVERLAP_INV_ALG  DENSE_CHOLESKY
       ALMO_EXTRAPOLATION_ORDER  4
       XALMO_EXTRAPOLATION_ORDER  4
       ALMO_ALGORITHM  SKIP
       XALMO_TRIAL_WF  SIMPLE
       DELOCALIZE_METHOD  XALMO_SCF
       XALMO_R_CUTOFF_FACTOR     1.8000000000000000E+00
       &ALMO_OPTIMIZER_DIIS
         MAX_ITER  100
         EPS_ERROR     1.0000000000000001E-05
         N_DIIS  5
       &END ALMO_OPTIMIZER_DIIS
       &ALMO_OPTIMIZER_PCG
         MAX_ITER  50
         EPS_ERROR     1.0000000000000001E-05
         LIN_SEARCH_EPS_ERROR     5.0000000000000003E-02
         LIN_SEARCH_STEP_SIZE_GUESS     5.0000000000000001E-03
         CONJUGATOR  DAI_YUAN
         MAX_ITER_OUTER_LOOP  10
       &END ALMO_OPTIMIZER_PCG
       &XALMO_OPTIMIZER_PCG
         MAX_ITER  1000
         EPS_ERROR     1.0000000000000001E-05
         LIN_SEARCH_EPS_ERROR     1.0000000000000001E-01
         LIN_SEARCH_STEP_SIZE_GUESS     1.0000000000000000E-02
         CONJUGATOR  DAI_YUAN
         PRECOND_FILTER_THRESHOLD     1.0000000000000000E-03
         MAX_ITER_OUTER_LOOP  0
       &END XALMO_OPTIMIZER_PCG
       &MATRIX_ITERATE
         EPS_TARGET_FACTOR     1.0000000000000000E+01
       &END MATRIX_ITERATE
     &END ALMO_SCF
     &QS
       EPS_DEFAULT     1.0000000000000000E-14
       ALMO_SCF  F
       METHOD  GPW
     &END QS
     &MGRID
       NGRIDS  5
       CUTOFF     1.2000000000000000E+03
     &END MGRID
     &XC
       DENSITY_CUTOFF     1.0000000000000000E-10
       GRADIENT_CUTOFF     1.0000000000000000E-10
       TAU_CUTOFF     1.0000000000000000E-10
       &XC_FUNCTIONAL  NO_SHORTCUT
         &PBE  T
         &END PBE
       &END XC_FUNCTIONAL
       &VDW_POTENTIAL
         POTENTIAL_TYPE  PAIR_POTENTIAL
         &PAIR_POTENTIAL
           R_CUTOFF     1.0000000000000002E+01
           TYPE  DFTD3
           PARAMETER_FILE_NAME dftd3.dat
           REFERENCE_FUNCTIONAL PBE
           EPS_CN     9.9999999999999995E-07
           CALCULATE_C9_TERM  T
           REFERENCE_C9_TERM  T
           LONG_RANGE_CORRECTION  F
           VERBOSE_OUTPUT  F
         &END PAIR_POTENTIAL
       &END VDW_POTENTIAL
     &END XC
   &END DFT
   &SUBSYS
     &CELL
       A     9.7522980408913433E+00    0.0000000000000000E+00    0.0000000000000000E+00
       B    -4.8448119809654555E+00    8.3914605041505901E+00    0.0000000000000000E+00
       C     0.0000000000000000E+00    0.0000000000000000E+00    3.0744000000000000E+01
       MULTIPLE_UNIT_CELL  1 1 1
       &CELL_REF
         A     9.5580000000000016E+00    0.0000000000000000E+00    0.0000000000000000E+00
         B    -4.7790000000000008E+00    8.2774708093716640E+00    0.0000000000000000E+00
         C     0.0000000000000000E+00    0.0000000000000000E+00    3.0744000000000000E+01
         MULTIPLE_UNIT_CELL  1 1 1
       &END CELL_REF
     &END CELL
     &COORD
Ga    3.9261628818407120E-02   -9.9602826468983510E-02   -4.3539737226520742E-01
N    2.5031395331881613E-03    1.8480782653989367E+00    5.0422310521102809E-01
Ga    2.2270588239349281E-02    1.8549340130116931E+00    2.6032790444622749E+00
N   -3.5229180473252829E-03   -6.7906357248826319E-03    3.2007188280078025E+00
Ga   -7.8694654762542209E-03   -1.3800355890765658E-02    5.2253115623695292E+00
N    1.2422179587671533E-02    1.8679331833488722E+00    5.7969405721737033E+00
Ga    1.2826727194538591E-02    1.8759662312199519E+00    7.8129416949750636E+00
N    7.3457531652746213E-05   -3.3480369167717215E-03    8.4077084576287824E+00
Ga   -2.4672000268947851E-03   -6.1347299301166038E-03    1.0429786470109260E+01
N    9.8499207750371801E-03    1.8690828804176671E+00    1.1043905412654231E+01
Ga    2.3531505897665017E-03    1.8831949270089214E+00    1.3047000214045179E+01
N    2.6120608445080649E-03    1.0568267769958199E-02    1.3642102231665698E+01
Ga   -3.8466647657897618E-02    2.2460359849470660E-02    1.5654141777933859E+01
N   -7.2211291525809494E-03    1.9122447446537338E+00    1.6196313367099702E+01
Ga   -1.0648607853003483E-02    1.8827758683741342E+00    1.8275260885596108E+01
N    2.0595756666855255E-02    1.5401415062193176E-02    1.8612023430938773E+01
Ga   -1.6188803400247236E+00    2.8059948751408310E+00    1.7773367489092282E-01
N   -1.6557182002936437E+00    4.6739948054557203E+00    5.8002928497310113E-01
Ga   -1.6085495932207050E+00    4.6914053921319967E+00    2.6296665235400614E+00
N   -1.5894581293063226E+00    2.8076298425095856E+00    3.2087838043812886E+00
Ga   -1.6108119231301206E+00    2.7902723000849505E+00    5.2178897806267122E+00
N   -1.6055172336703221E+00    4.6669733943664102E+00    5.7940826753067975E+00
Ga   -1.6013703041207641E+00    4.6680246011998738E+00    7.8120401722047097E+00
N   -1.6183127649012801E+00    2.7929788992313278E+00    8.4173512787373514E+00
Ga   -1.6181564510378716E+00    2.7915628143192279E+00    1.0445255945357021E+01
N   -1.6012334637574817E+00    4.6690972117271663E+00    1.1046375780346073E+01
Ga   -1.5809078505126828E+00    4.6782482442649664E+00    1.3041194860875674E+01
N   -1.6233780431534710E+00    2.8082877159805513E+00    1.3622173141909569E+01
Ga   -1.6348038556156810E+00    2.8260597753553003E+00    1.5628107884660199E+01
N   -1.6155532777661743E+00    4.7004817789733160E+00    1.6187273839186503E+01
Ga   -1.6072191075172344E+00    4.6417735754929597E+00    1.8268054974239568E+01
N   -1.6478645031894263E+00    2.7730288691519740E+00    1.8690042480235743E+01
Ga   -3.2472470268679579E+00    5.6404501479896219E+00    1.0281565661923840E-01
N   -3.1897974686530368E+00    7.4660198315866459E+00    6.2944817280384868E-01
Ga   -3.2200076797647741E+00    7.4807716062961971E+00    2.6140693640788060E+00
N   -3.2359640437235315E+00    5.6094197671860710E+00    3.2100636925396864E+00
Ga   -3.2390017366132353E+00    5.5901264921209091E+00    5.2292406449857118E+00
N   -3.2123878800818795E+00    7.4682448429155874E+00    5.7942819029298551E+00
Ga   -3.2117914724682879E+00    7.4697171345038873E+00    7.8091182017532788E+00
N   -3.2297659987088307E+00    5.5902487940858530E+00    8.4131423058098278E+00
Ga   -3.2326062258623716E+00    5.5856621317931436E+00    1.0441740148142943E+01
N   -3.2223458274413384E+00    7.4647613981198582E+00    1.1039341027252595E+01
Ga   -3.2260651692325180E+00    7.4828780294596919E+00    1.3036502581207079E+01
N   -3.2327792672382953E+00    5.5939357632203182E+00    1.3583460396927231E+01
Ga   -3.2312373465279993E+00    5.5845365699938680E+00    1.5574480374002407E+01
N   -3.2488606724906299E+00    7.4504349608504823E+00    1.6193025220954102E+01
Ga   -3.1974638053517848E+00    7.4499744939404806E+00    1.8266065988401248E+01
N   -3.2327175148447944E+00    5.5849143910830641E+00    1.8653133157383650E+01
Ga    3.2432211507368947E+00    3.9173996006733941E-03    2.6844714523830587E-01
N    3.2137391411974483E+00    1.8667257348538344E+00    5.3004858602389227E-01
Ga    3.2592895555312431E+00    1.8932087581903971E+00    2.6041904182254609E+00
N    3.2703770225314286E+00    7.7197793674009911E-03    3.1760365040880005E+00
Ga    3.2516379033374281E+00   -9.3964760555818230E-03    5.1981198468760814E+00
N    3.2558141391962208E+00    1.8671388594862481E+00    5.7715881215791267E+00
Ga    3.2626765106615960E+00    1.8722191023032155E+00    7.7966836862863031E+00
N    3.2513639052362113E+00   -1.7710274126572982E-03    8.4103659762438667E+00
Ga    3.2456471712861079E+00   -8.0109012681485545E-03    1.0433531232195204E+01
N    3.2600512683945282E+00    1.8664610961807073E+00    1.1041747158389306E+01
Ga    3.2652895364838384E+00    1.8617894453207111E+00    1.3033240419131134E+01
N    3.2467605713020249E+00   -1.3336997801251317E-02    1.3634989291430221E+01
Ga    3.2354735124514140E+00   -2.3709820802641439E-02    1.5657212235798781E+01
N    3.2308863333928719E+00    1.8545892129903156E+00    1.6203137907479739E+01
Ga    3.2524569211096432E+00    1.8511731787888741E+00    1.8276803134774298E+01
N    3.2658835795236945E+00   -3.2387710452861027E-02    1.8649138281997736E+01
Ga    1.5976738434924183E+00    2.8026756145396403E+00    5.8116747395332208E-02
N    1.6489802107051488E+00    4.6384709479406041E+00    6.0482116366853822E-01
Ga    1.6450321406473771E+00    4.6794145545772023E+00    2.6128607281942320E+00
N    1.6323756733517569E+00    2.8010753291273196E+00    3.1860972739282087E+00
Ga    1.6253435668044127E+00    2.7901599752841331E+00    5.2021297168957092E+00
N    1.6422636376129232E+00    4.6639841427970037E+00    5.7930097661323234E+00
Ga    1.6452908548459377E+00    4.6681734331891036E+00    7.8150716194546010E+00
N    1.6363145392587610E+00    2.7916901298377366E+00    8.4149527140685016E+00
Ga    1.6324452648741985E+00    2.7894441738538767E+00    1.0439049415170327E+01
N    1.6469073659031341E+00    4.6691519788855551E+00    1.1037573481771204E+01
Ga    1.6617093713682176E+00    4.6835509795161148E+00    1.3027065790319837E+01
N    1.6399928765651317E+00    2.8012674646800155E+00    1.3590484246697955E+01
Ga    1.6393224493907228E+00    2.7818841614624215E+00    1.5582947290313047E+01
N    1.6734514099592130E+00    4.6582166082722356E+00    1.6182860388498714E+01
Ga    1.6531281880534567E+00    4.6526835725256328E+00    1.8249500026579817E+01
N    1.6318742732838447E+00    2.7917179516581423E+00    1.8642982754778938E+01
Ga    9.0717782607958215E-03    5.4811223699773226E+00   -3.3903264333123340E-01
N    3.3053467093689753E-02    7.4504013158762348E+00    4.3556096588603460E-01
Ga    5.2188850663250422E-02    7.4594691189590288E+00    2.5846384088402634E+00
N    2.3047877482581962E-02    5.6033149637144781E+00    3.1796048928513070E+00
Ga    1.5621946963273164E-02    5.5849356712073686E+00    5.2053398952435757E+00
N    2.6904385572638453E-02    7.4593718651018737E+00    5.7843401192024322E+00
Ga    3.1973486696128768E-02    7.4668556012169436E+00    7.8027214880717377E+00
N    1.7477213682886614E-02    5.5903443500226322E+00    8.4126551605446931E+00
Ga    1.6262472102577336E-02    5.5862719037816246E+00    1.0433834209654892E+01
N    2.9816002337043308E-02    7.4622242166314789E+00    1.1034236310427655E+01
Ga    2.8858835417871580E-02    7.4616090131770711E+00    1.3029824857402165E+01
N    3.6261045043898474E-02    5.5921538806283904E+00    1.3632974299147886E+01
Ga    3.7084849369327710E-02    5.5836404490359328E+00    1.5638408147861432E+01
N    3.6726656816386496E-02    7.4549643562062382E+00    1.6202446885929916E+01
Ga    4.4145551962917286E-02    7.4378847421010565E+00    1.8283361403723525E+01
N    2.3756029204583681E-02    5.5619926925819865E+00    1.8652730417936816E+01
Ga    6.4689472985960537E+00    4.5527755601723403E-02    5.8133706881088876E-02
N    6.5571487009405933E+00    1.8652571850413109E+00    6.5545719617703480E-01
Ga    6.5288831823908415E+00    1.8845932612909357E+00    2.6638169449369826E+00
N    6.5038885517413281E+00   -9.8570692816218018E-03    3.1869351084067508E+00
Ga    6.4945306575707979E+00   -1.4872429171347660E-02    5.2047209943145321E+00
N    6.5088436111023080E+00    1.8699518495742582E+00    5.7771997976641414E+00
Ga    6.5134516834342957E+00    1.8745409539522158E+00    7.8045140790727521E+00
N    6.4967548821268748E+00   -9.0280947591540200E-04    8.4125889175644382E+00
Ga    6.4996649159655098E+00   -6.6017749971255197E-03    1.0440209376751982E+01
N    6.5116736581120946E+00    1.8724514429442469E+00    1.1042573678688038E+01
Ga    6.5099847110755613E+00    1.8894888294541150E+00    1.3035749220273079E+01
N    6.5042600333436500E+00   -1.1666534087557130E-03    1.3567167000437134E+01
Ga    6.4724266884716259E+00   -2.0000052807459912E-02    1.5553561808720680E+01
N    6.4923794802129553E+00    1.8676305304987340E+00    1.6144779390956515E+01
Ga    6.4961135046433611E+00    1.8634550821027269E+00    1.8192640633384098E+01
N    6.5146647091590042E+00    5.6993557027677311E-04    1.8612307296267172E+01
Ga    4.9112864626352897E+00    2.7145406502480220E+00   -2.9814437806702693E-01
N    4.8985311315960747E+00    4.6864191245283724E+00    4.6530852098407161E-01
Ga    4.9190668380045866E+00    4.6775643027656901E+00    2.6148426499254760E+00
N    4.8775005944836796E+00    2.8063882539172722E+00    3.1883479962544259E+00
Ga    4.8761357563301484E+00    2.7878966423880205E+00    5.1982754959342312E+00
N    4.8952124814438402E+00    4.6579041995480202E+00    5.7987898562127596E+00
Ga    4.9000187750549937E+00    4.6630704123864275E+00    7.8176560417412864E+00
N    4.8837644267437490E+00    2.7866236068552106E+00    8.4152460235297877E+00
Ga    4.8814397998912655E+00    2.7833287192379563E+00    1.0437170557184315E+01
N    4.8975998367621889E+00    4.6600089689139264E+00    1.1036931009409335E+01
Ga    4.8981318814948542E+00    4.6570275533074499E+00    1.3028052550226091E+01
N    4.8729392313603030E+00    2.7848204742934373E+00    1.3618680076353773E+01
Ga    4.8442447479118105E+00    2.7691667805796043E+00    1.5613711853147553E+01
N    4.9064884551735766E+00    4.6469085825268808E+00    1.6163474419836223E+01
Ga    4.8956003767235217E+00    4.6666401102288466E+00    1.8220359815119302E+01
N    4.8841303047668427E+00    2.7955503267959885E+00    1.8606985283330999E+01
Ga    3.2428972732287282E+00    5.5957669147948463E+00    3.2811571656208072E-01
N    3.2371870417727786E+00    7.4693730257228026E+00    5.0101520482684314E-01
Ga    3.2933648871033694E+00    7.4956870568707696E+00    2.5584160269056788E+00
N    3.2814286260100780E+00    5.6103257132681899E+00    3.1729597042890876E+00
Ga    3.2686802971996478E+00    5.5892694141995536E+00    5.2245562383271036E+00
N    3.2753290843644374E+00    7.4636301142723891E+00    5.8003185381230118E+00
Ga    3.2803217285712729E+00    7.4695608070157204E+00    7.8116286270522668E+00
N    3.2700174381246039E+00    5.5893772912250750E+00    8.4112506767818100E+00
Ga    3.2699636299791828E+00    5.5869856685539565E+00    1.0438690656867180E+01
N    3.2880703459679617E+00    7.4642699261777361E+00    1.1038170163661134E+01
Ga    3.3031465949862406E+00    7.4742534497972439E+00    1.3034888687779983E+01
N    3.2861229426689484E+00    5.5940664070659851E+00    1.3611838682643345E+01
Ga    3.3014611429550920E+00    5.5998611998723113E+00    1.5621609198312973E+01
N    3.2653019129853158E+00    7.4682242927306275E+00    1.6164073658118522E+01
Ga    3.3001354895889876E+00    7.4905393060493610E+00    1.8236152233186960E+01
N    3.2775106294712040E+00    5.6064763054219959E+00    1.8606460411284690E+01
     &END COORD
     &KIND N
       BASIS_SET DZVP-MOLOPT-SR-GTH
       POTENTIAL GTH-PBE-q5
       &POTENTIAL
 2 3
  0.2837905100000000E+00 2 -0.1241522559000000E+02  0.1868095920000000E+01
 2
  0.2554050000000000E+00 1  0.1363026257000000E+02
  0.2454945300000000E+00 0
         # Potential name:  GTH-PBE-Q5  for symbol:  N
         # Potential read from the potential filename: GTH_POTENTIALS
       &END POTENTIAL
     &END KIND
     &KIND Ga
       BASIS_SET DZVP-MOLOPT-SR-GTH
       POTENTIAL GTH-PBE-q13
       &POTENTIAL
 2 1 10
  0.4900000000000000E+00 0
 3
  0.4167772300000000E+00 3  0.1047568975000000E+02 -0.4921768140000000E+01  0.8707055900000000E+00
  0.7770178090000000E+01 -0.2248152160000000E+01
  0.1784415450000000E+01
  0.5696265200000000E+00 2  0.1777985340000000E+01  0.1958597600000000E+00
 -0.2317443900000000E+00
  0.2381265000000000E+00 1 -0.1624868022000000E+02
         # Potential name:  GTH-PBE-Q13  for symbol:  GA
         # Potential read from the potential filename: GTH_POTENTIALS
       &END POTENTIAL
     &END KIND
     &TOPOLOGY
       COORD_FILE_NAME 334-native.xyz
       COORD_FILE_FORMAT  XYZ
       NUMBER_OF_ATOMS  144
       MULTIPLE_UNIT_CELL  1 1 1
     &END TOPOLOGY
   &END SUBSYS
 &END FORCE_EVAL
