 # Version information for this restart file 
 # current date 2019-05-16 05:56:14.373
 # current working dir /lustre03/project/6004141/rzk/GaN-carbene/00-Surface/00-Preoptimization/334-native/Trial4
 # Program compiled at                              Sun Apr  7 00:48:11 EDT 2019
 # Program compiled on                          beluga2.int.ets1.calculquebec.ca
 # Program compiled for                        Beluga-Linux-x86-64-intel-openmpi
 # Source code revision number                                         svn:18619
 &GLOBAL
   PRINT_LEVEL  MEDIUM
   PROJECT_NAME TEST
   RUN_TYPE  CELL_OPT
 &END GLOBAL
 &MOTION
   &CELL_OPT
     MAX_ITER  100
     STEP_START_VAL  99
     EXTERNAL_PRESSURE     1.0000000000000000E+00
     KEEP_ANGLES  T
     KEEP_SYMMETRY  T
     CONSTRAINT  Z
     PRESSURE_TOLERANCE     1.0000000000000000E+02
   &END CELL_OPT
 &END MOTION
 &FORCE_EVAL
   METHOD  QS
   STRESS_TENSOR  ANALYTICAL
   &DFT
     BASIS_SET_FILE_NAME BASIS_MOLOPT
     POTENTIAL_FILE_NAME GTH_POTENTIALS
     &SCF
       MAX_SCF  100
       EPS_SCF     5.0000000000000004E-06
       &OT  T
         PRECONDITIONER  FULL_ALL
       &END OT
       &OUTER_SCF  T
         OPTIMIZER  NONE
         EPS_SCF     5.0000000000000004E-06
         MAX_SCF  10
       &END OUTER_SCF
       &PRINT
         &RESTART  OFF
           BACKUP_COPIES  1
           &EACH
             JUST_ENERGY  0
             QS_SCF  0
             MD  20
           &END EACH
         &END RESTART
       &END PRINT
     &END SCF
     &ALMO_SCF
       EPS_FILTER     9.9999999999999994E-12
       ALMO_SCF_GUESS  ATOMIC
       MO_OVERLAP_INV_ALG  DENSE_CHOLESKY
       ALMO_EXTRAPOLATION_ORDER  4
       XALMO_EXTRAPOLATION_ORDER  4
       ALMO_ALGORITHM  SKIP
       XALMO_TRIAL_WF  SIMPLE
       DELOCALIZE_METHOD  XALMO_SCF
       XALMO_R_CUTOFF_FACTOR     1.8000000000000000E+00
       &ALMO_OPTIMIZER_DIIS
         MAX_ITER  100
         EPS_ERROR     1.0000000000000001E-05
         N_DIIS  5
       &END ALMO_OPTIMIZER_DIIS
       &ALMO_OPTIMIZER_PCG
         MAX_ITER  50
         EPS_ERROR     1.0000000000000001E-05
         LIN_SEARCH_EPS_ERROR     5.0000000000000003E-02
         LIN_SEARCH_STEP_SIZE_GUESS     5.0000000000000001E-03
         CONJUGATOR  DAI_YUAN
         MAX_ITER_OUTER_LOOP  10
       &END ALMO_OPTIMIZER_PCG
       &XALMO_OPTIMIZER_PCG
         MAX_ITER  1000
         EPS_ERROR     1.0000000000000001E-05
         LIN_SEARCH_EPS_ERROR     1.0000000000000001E-01
         LIN_SEARCH_STEP_SIZE_GUESS     1.0000000000000000E-02
         CONJUGATOR  DAI_YUAN
         PRECOND_FILTER_THRESHOLD     1.0000000000000000E-03
         MAX_ITER_OUTER_LOOP  0
       &END XALMO_OPTIMIZER_PCG
       &MATRIX_ITERATE
         EPS_TARGET_FACTOR     1.0000000000000000E+01
       &END MATRIX_ITERATE
     &END ALMO_SCF
     &QS
       EPS_DEFAULT     1.0000000000000000E-14
       ALMO_SCF  F
       METHOD  GPW
     &END QS
     &MGRID
       NGRIDS  5
       CUTOFF     1.2000000000000000E+03
     &END MGRID
     &XC
       DENSITY_CUTOFF     1.0000000000000000E-10
       GRADIENT_CUTOFF     1.0000000000000000E-10
       TAU_CUTOFF     1.0000000000000000E-10
       &XC_FUNCTIONAL  NO_SHORTCUT
         &PBE  T
         &END PBE
       &END XC_FUNCTIONAL
       &VDW_POTENTIAL
         POTENTIAL_TYPE  PAIR_POTENTIAL
         &PAIR_POTENTIAL
           R_CUTOFF     1.0000000000000002E+01
           TYPE  DFTD3
           PARAMETER_FILE_NAME dftd3.dat
           REFERENCE_FUNCTIONAL PBE
           EPS_CN     9.9999999999999995E-07
           CALCULATE_C9_TERM  T
           REFERENCE_C9_TERM  T
           LONG_RANGE_CORRECTION  F
           VERBOSE_OUTPUT  F
         &END PAIR_POTENTIAL
       &END VDW_POTENTIAL
     &END XC
   &END DFT
   &SUBSYS
     &CELL
       A     9.7429915357200407E+00    0.0000000000000000E+00    0.0000000000000000E+00
       B    -4.8556697587042583E+00    8.4102667268514377E+00    0.0000000000000000E+00
       C     0.0000000000000000E+00    0.0000000000000000E+00    3.0744000000000000E+01
       MULTIPLE_UNIT_CELL  1 1 1
       &CELL_REF
         A     9.5580000000000016E+00    0.0000000000000000E+00    0.0000000000000000E+00
         B    -4.7790000000000008E+00    8.2774708093716640E+00    0.0000000000000000E+00
         C     0.0000000000000000E+00    0.0000000000000000E+00    3.0744000000000000E+01
         MULTIPLE_UNIT_CELL  1 1 1
       &END CELL_REF
     &END CELL
     &COORD
Ga    1.3897861971337664E-03   -3.7017025807142541E-04   -5.9080423441871743E-01
N    5.9194131922386730E-03    1.8736216170278441E+00    5.6656212773991610E-01
Ga    4.7418122288451405E-03    1.8393985457274802E+00    2.5955256051460149E+00
N   -3.4841986344954861E-04   -2.8633352171625998E-03    3.2290622749018350E+00
Ga    2.4831975083145153E-04   -3.3671402975675598E-03    5.2202369760323055E+00
N    4.8524877651621914E-03    1.8712988938254405E+00    5.8065809990219170E+00
Ga    3.6338199832675897E-03    1.8681658491315860E+00    7.8059946052097731E+00
N   -7.1331677378732997E-04   -5.2489214706421842E-03    8.4078760341680834E+00
Ga   -3.1434035923694561E-04   -4.5026954721052569E-03    1.0406068736317968E+01
N    4.5409788614426440E-03    1.8674054216980105E+00    1.1010360889104907E+01
Ga    3.9550199720485837E-03    1.8728438703042922E+00    1.3004454934207795E+01
N   -3.4289477319279538E-04    3.1185144299657954E-03    1.3610058641276021E+01
Ga   -8.1054999899446336E-03    1.3905656828881733E-02    1.5611869739990638E+01
N    1.7872930940570689E-03    1.8830367999113373E+00    1.6256795003918356E+01
Ga    1.4107890085696238E-02    1.9068542946019609E+00    1.8365918604781911E+01
N    2.7284659174881313E-03    1.0651642881283433E-02    1.8662237764473549E+01
Ga   -1.6165882271844423E+00    2.8019961138215086E+00    2.8080689018039373E-01
N   -1.6184709936524824E+00    4.6709853595823265E+00    5.6429222546201785E-01
Ga   -1.5899411197258551E+00    4.6856490798315189E+00    2.5942605042422091E+00
N   -1.6185382560039963E+00    2.8006336708128905E+00    3.1865905030059674E+00
Ga   -1.6182420365076944E+00    2.8005126182446443E+00    5.1979455723993109E+00
N   -1.6166414218168688E+00    4.6700185624752093E+00    5.8065887902178668E+00
Ga   -1.6162885031963004E+00    4.6680590861156599E+00    7.8061861538657800E+00
N   -1.6198619946782007E+00    2.7979881051143973E+00    8.4120827163873564E+00
Ga   -1.6191183711277057E+00    2.7985277716346499E+00    1.0407960559572132E+01
N   -1.6108476853629359E+00    4.6690782278367875E+00    1.1014185247240100E+01
Ga   -1.6061430195703967E+00    4.6676679413541660E+00    1.3010344646531658E+01
N   -1.6176576583638267E+00    2.7985977820458703E+00    1.3623900690999141E+01
Ga   -1.6236124998489043E+00    2.7955785095295735E+00    1.5631583058227887E+01
N   -1.6236417467539177E+00    4.6761395702065673E+00    1.6217732556951169E+01
Ga   -1.6099882959564344E+00    4.6795592785337483E+00    1.8298470607388523E+01
N   -1.6224901832952303E+00    2.8138874816559225E+00    1.8737359406194035E+01
Ga   -3.2361986663899267E+00    5.6066273353477163E+00    2.8017466160952059E-01
N   -3.2280951465725960E+00    7.4760272184764762E+00    5.6538036761563126E-01
Ga   -3.2574911418807551E+00    7.4897455080410422E+00    2.5953511154348679E+00
N   -3.2368274656319524E+00    5.6041726220389565E+00    3.1871169537061426E+00
Ga   -3.2369385104629895E+00    5.6044403958773747E+00    5.1980186189536450E+00
N   -3.2291750060650029E+00    7.4731488982484526E+00    5.8080222169989275E+00
Ga   -3.2309048014893609E+00    7.4714892883295114E+00    7.8076608713830771E+00
N   -3.2377615545342318E+00    5.6011167992144397E+00    8.4141462886448846E+00
Ga   -3.2369533748467916E+00    5.6014782604652220E+00    1.0412004599604121E+01
N   -3.2332333358222387E+00    7.4743506521385656E+00    1.1014119861181047E+01
Ga   -3.2324683223017496E+00    7.4777476625076185E+00    1.3010531912325307E+01
N   -3.2351272735349732E+00    5.5990793228601063E+00    1.3596374328824089E+01
Ga   -3.2400407989119997E+00    5.5982537302674871E+00    1.5589685723608101E+01
N   -3.2406813879135545E+00    7.4739260301958872E+00    1.6159935875466118E+01
Ga   -3.2449142967716629E+00    7.4933989610100014E+00    1.8209094711095823E+01
N   -3.2475193824052040E+00    5.6161856779345731E+00    1.8612758365141904E+01
Ga    3.2489616508546719E+00   -3.3719547781327838E-03    2.7987120799722914E-01
N    3.2493752336930033E+00    1.8680643826883021E+00    5.6480790964661820E-01
Ga    3.2755778668663216E+00    1.8818355925357704E+00    2.5975697422304056E+00
N    3.2474818108043499E+00   -3.3106597369294932E-03    3.1860642024590629E+00
Ga    3.2477265157978032E+00   -3.5518911915478762E-03    5.1975005633461446E+00
N    3.2494665716007036E+00    1.8663024824011363E+00    5.8060250448658595E+00
Ga    3.2496788107945362E+00    1.8641443819122403E+00    7.8057983634697123E+00
N    3.2471060969013692E+00   -5.5391092633395788E-03    8.4131362283607256E+00
Ga    3.2474195209592680E+00   -5.4449365909190542E-03    1.0410138217917362E+01
N    3.2503323535976336E+00    1.8661517903650000E+00    1.1013966561844938E+01
Ga    3.2466941091237693E+00    1.8650759048022514E+00    1.3010973477442260E+01
N    3.2471835696153639E+00   -4.1380258854027008E-03    1.3624068446514517E+01
Ga    3.2504241867506325E+00    9.1349543978394305E-04    1.5627604745435487E+01
N    3.2318352367445518E+00    1.8821695670540013E+00    1.6212073209954632E+01
Ga    3.2445148106707551E+00    1.8971054113237580E+00    1.8284477416604393E+01
N    3.2404034722084072E+00   -2.3273337301778132E-03    1.8576294874181837E+01
Ga    1.6279121849784510E+00    2.8029121423314018E+00    2.7922556134154369E-01
N    1.6391022590249267E+00    4.6718937400045863E+00    5.6356912600296039E-01
Ga    1.6093554321408501E+00    4.6861718214872505E+00    2.5939103255476379E+00
N    1.6285097878223844E+00    2.8009489788462325E+00    3.1865161931279671E+00
Ga    1.6288124729315596E+00    2.8006803953406538E+00    5.1973284717284383E+00
N    1.6365463659505790E+00    4.6699799475957935E+00    5.8066378045083953E+00
Ga    1.6347626500745085E+00    4.6685299324741347E+00    7.8060794687838868E+00
N    1.6284056737601411E+00    2.7981327813307999E+00    8.4105967693457071E+00
Ga    1.6286850581388066E+00    2.7991324007956306E+00    1.0406566805451014E+01
N    1.6302197354414993E+00    4.6695174488873885E+00    1.1013614148874119E+01
Ga    1.6239991303220644E+00    4.6683773919500338E+00    1.3009751052813115E+01
N    1.6249030197541392E+00    2.7991353779865285E+00    1.3618199547478008E+01
Ga    1.6198771758559407E+00    2.8003781904201910E+00    1.5624841065938606E+01
N    1.6368942681247443E+00    4.6769847785456715E+00    1.6210108898191962E+01
Ga    1.6536405651092796E+00    4.6793719466175121E+00    1.8290283457324495E+01
N    1.6354929242523375E+00    2.8150649491626050E+00    1.8749240906690197E+01
Ga    1.0453031071569495E-02    5.6053071234433283E+00   -5.8805149263937795E-01
N    1.6637506000069541E-02    7.4803455731611859E+00    5.6436709541010699E-01
Ga    1.5351512878521186E-02    7.4467626720294371E+00    2.5941558190317693E+00
N    9.9224854826766920E-03    5.6034783552236300E+00    3.2271741124092519E+00
Ga    1.0506604528802426E-02    5.6038924372322390E+00    5.2185579491602700E+00
N    1.5541392403420673E-02    7.4780049517407958E+00    5.8060591735824998E+00
Ga    1.4051653443552227E-02    7.4744497943036361E+00    7.8055206427926871E+00
N    9.5758937842873003E-03    5.6017290364428352E+00    8.4073865580844895E+00
Ga    1.0128130260475680E-02    5.6032643410045964E+00    1.0404944677716330E+01
N    1.4890953481926728E-02    7.4724979803884750E+00    1.1016596655453364E+01
Ga    1.4209072127598626E-02    7.4727107300198297E+00    1.3016603297820661E+01
N    7.7872921733233612E-03    5.6055069484504143E+00    1.3635321726229979E+01
Ga    5.0977184853982973E-03    5.6146389563083652E+00    1.5647097945267744E+01
N    1.2072212660789157E-02    7.4892733017008251E+00    1.6217693611265496E+01
Ga    2.5866411398335738E-02    7.4786660359505035E+00    1.8279342015411242E+01
N    1.5499718655023557E-02    5.5926123866547917E+00    1.8643257473644006E+01
Ga    6.4953200580051496E+00   -2.0049579979071882E-03    2.7922539186516854E-01
N    6.5035294029230002E+00    1.8693667929692823E+00    5.6391735305468826E-01
Ga    6.4761995482437618E+00    1.8818500430496459E+00    2.5978021683391943E+00
N    6.4953130026471015E+00   -3.3025257506571681E-03    3.1866101193373835E+00
Ga    6.4958893308596970E+00   -3.2871436180458456E-03    5.1975768408243850E+00
N    6.5028487450397181E+00    1.8665065395130058E+00    5.8061486232959902E+00
Ga    6.5009088965390243E+00    1.8645715281552420E+00    7.8059546990355964E+00
N    6.4938936740317601E+00   -5.7063476094558318E-03    8.4114078105374208E+00
Ga    6.4946257285307070E+00   -5.6413714836716835E-03    1.0408496532427437E+01
N    6.5015018369062387E+00    1.8653828357658544E+00    1.1015383461885763E+01
Ga    6.5050791529790235E+00    1.8628826529623077E+00    1.3013373984829149E+01
N    6.4940105864712043E+00   -7.6359540111946107E-03    1.3623601987400566E+01
Ga    6.4835312939795058E+00   -9.7879377581857850E-03    1.5627099786924102E+01
N    6.5113984212123297E+00    1.8716369465341762E+00    1.6211062379704853E+01
Ga    6.5227043851416910E+00    1.8969504250263465E+00    1.8282542700361510E+01
N    6.5083513832657713E+00   -1.9637359138911645E-04    1.8584836989048924E+01
Ga    4.8769203750083534E+00    2.8020947283604616E+00   -5.5257661167193373E-01
N    4.8828354181163736E+00    4.6753648133529460E+00    5.6590350013902080E-01
Ga    4.8811850626292772E+00    4.6447177963044064E+00    2.5988082246533235E+00
N    4.8763325505096295E+00    2.8002385556842735E+00    3.2279203256701847E+00
Ga    4.8766709946194835E+00    2.8006374187680665E+00    5.2197552250235963E+00
N    4.8817444375176873E+00    4.6747613666431951E+00    5.8078495015249292E+00
Ga    4.8805327345428031E+00    4.6704745154497376E+00    7.8084277410035048E+00
N    4.8756286038511147E+00    2.7965311277341338E+00    8.4090766855921792E+00
Ga    4.8765919622101359E+00    2.7952065509905588E+00    1.0407536973903156E+01
N    4.8816118609906152E+00    4.6653907907593464E+00    1.1012381853979873E+01
Ga    4.8818684537807124E+00    4.6593439962285945E+00    1.3007999687847516E+01
N    4.8760932887612531E+00    2.7833796403499034E+00    1.3618281602531015E+01
Ga    4.8702299490832477E+00    2.7774708626579563E+00    1.5622112082905129E+01
N    4.8758876445198096E+00    4.6695536335362196E+00    1.6134716096691914E+01
Ga    4.8888339092440400E+00    4.6881136818788152E+00    1.8179188783441518E+01
N    4.8803517909473468E+00    2.8145148596353557E+00    1.8600055686655153E+01
Ga    3.2585897898002081E+00    5.6058914309610355E+00    2.7984681200329031E-01
N    3.2590613587527537E+00    7.4749395754528347E+00    5.6546428232824275E-01
Ga    3.2878399493253418E+00    7.4896299983006651E+00    2.5946190443524584E+00
N    3.2574308551282489E+00    5.6044289356885679E+00    3.1870836990846292E+00
Ga    3.2582281330603604E+00    5.6044291922421579E+00    5.1985422122189764E+00
N    3.2603755458895698E+00    7.4733676034688976E+00    5.8078465014859777E+00
Ga    3.2602900390811222E+00    7.4710841132519752E+00    7.8073812546138956E+00
N    3.2571696442272109E+00    5.6009583850939357E+00    8.4148015436412855E+00
Ga    3.2575598913273360E+00    5.6014297913945512E+00    1.0412776221761069E+01
N    3.2632892537837694E+00    7.4746427220364797E+00    1.1012869905540448E+01
Ga    3.2622276178292493E+00    7.4773329961228754E+00    1.3009421564634845E+01
N    3.2548547976164666E+00    5.5981007382221621E+00    1.3590678506301739E+01
Ga    3.2494252918337350E+00    5.6006931243144926E+00    1.5584439818625492E+01
N    3.2684026474813637E+00    7.4707030772547451E+00    1.6163898102356953E+01
Ga    3.2911005330864875E+00    7.4957623549754340E+00    1.8215276365669727E+01
N    3.2752774731480239E+00    5.6181425355871495E+00    1.8616736818462915E+01
     &END COORD
     &KIND N
       BASIS_SET DZVP-MOLOPT-SR-GTH
       POTENTIAL GTH-PBE-q5
       &POTENTIAL
 2 3
  0.2837905100000000E+00 2 -0.1241522559000000E+02  0.1868095920000000E+01
 2
  0.2554050000000000E+00 1  0.1363026257000000E+02
  0.2454945300000000E+00 0
         # Potential name:  GTH-PBE-Q5  for symbol:  N
         # Potential read from the potential filename: GTH_POTENTIALS
       &END POTENTIAL
     &END KIND
     &KIND Ga
       BASIS_SET DZVP-MOLOPT-SR-GTH
       POTENTIAL GTH-PBE-q13
       &POTENTIAL
 2 1 10
  0.4900000000000000E+00 0
 3
  0.4167772300000000E+00 3  0.1047568975000000E+02 -0.4921768140000000E+01  0.8707055900000000E+00
  0.7770178090000000E+01 -0.2248152160000000E+01
  0.1784415450000000E+01
  0.5696265200000000E+00 2  0.1777985340000000E+01  0.1958597600000000E+00
 -0.2317443900000000E+00
  0.2381265000000000E+00 1 -0.1624868022000000E+02
         # Potential name:  GTH-PBE-Q13  for symbol:  GA
         # Potential read from the potential filename: GTH_POTENTIALS
       &END POTENTIAL
     &END KIND
     &TOPOLOGY
       COORD_FILE_NAME 334-native.xyz
       COORD_FILE_FORMAT  XYZ
       NUMBER_OF_ATOMS  144
       MULTIPLE_UNIT_CELL  1 1 1
     &END TOPOLOGY
   &END SUBSYS
 &END FORCE_EVAL
