 # Version information for this restart file 
 # current date 2019-05-16 03:59:15.845
 # current working dir /lustre03/project/6004141/rzk/GaN-carbene/00-Surface/00-Preoptimization/334-native/Trial4
 # Program compiled at                              Sun Apr  7 00:48:11 EDT 2019
 # Program compiled on                          beluga2.int.ets1.calculquebec.ca
 # Program compiled for                        Beluga-Linux-x86-64-intel-openmpi
 # Source code revision number                                         svn:18619
 &GLOBAL
   PRINT_LEVEL  MEDIUM
   PROJECT_NAME TEST
   RUN_TYPE  CELL_OPT
 &END GLOBAL
 &MOTION
   &CELL_OPT
     MAX_ITER  100
     STEP_START_VAL  59
     EXTERNAL_PRESSURE     1.0000000000000000E+00
     KEEP_ANGLES  T
     KEEP_SYMMETRY  T
     CONSTRAINT  Z
     PRESSURE_TOLERANCE     1.0000000000000000E+02
   &END CELL_OPT
 &END MOTION
 &FORCE_EVAL
   METHOD  QS
   STRESS_TENSOR  ANALYTICAL
   &DFT
     BASIS_SET_FILE_NAME BASIS_MOLOPT
     POTENTIAL_FILE_NAME GTH_POTENTIALS
     &SCF
       MAX_SCF  100
       EPS_SCF     5.0000000000000004E-06
       &OT  T
         PRECONDITIONER  FULL_ALL
       &END OT
       &OUTER_SCF  T
         OPTIMIZER  NONE
         EPS_SCF     5.0000000000000004E-06
         MAX_SCF  10
       &END OUTER_SCF
       &PRINT
         &RESTART  OFF
           BACKUP_COPIES  1
           &EACH
             JUST_ENERGY  0
             QS_SCF  0
             MD  20
           &END EACH
         &END RESTART
       &END PRINT
     &END SCF
     &ALMO_SCF
       EPS_FILTER     9.9999999999999994E-12
       ALMO_SCF_GUESS  ATOMIC
       MO_OVERLAP_INV_ALG  DENSE_CHOLESKY
       ALMO_EXTRAPOLATION_ORDER  4
       XALMO_EXTRAPOLATION_ORDER  4
       ALMO_ALGORITHM  SKIP
       XALMO_TRIAL_WF  SIMPLE
       DELOCALIZE_METHOD  XALMO_SCF
       XALMO_R_CUTOFF_FACTOR     1.8000000000000000E+00
       &ALMO_OPTIMIZER_DIIS
         MAX_ITER  100
         EPS_ERROR     1.0000000000000001E-05
         N_DIIS  5
       &END ALMO_OPTIMIZER_DIIS
       &ALMO_OPTIMIZER_PCG
         MAX_ITER  50
         EPS_ERROR     1.0000000000000001E-05
         LIN_SEARCH_EPS_ERROR     5.0000000000000003E-02
         LIN_SEARCH_STEP_SIZE_GUESS     5.0000000000000001E-03
         CONJUGATOR  DAI_YUAN
         MAX_ITER_OUTER_LOOP  10
       &END ALMO_OPTIMIZER_PCG
       &XALMO_OPTIMIZER_PCG
         MAX_ITER  1000
         EPS_ERROR     1.0000000000000001E-05
         LIN_SEARCH_EPS_ERROR     1.0000000000000001E-01
         LIN_SEARCH_STEP_SIZE_GUESS     1.0000000000000000E-02
         CONJUGATOR  DAI_YUAN
         PRECOND_FILTER_THRESHOLD     1.0000000000000000E-03
         MAX_ITER_OUTER_LOOP  0
       &END XALMO_OPTIMIZER_PCG
       &MATRIX_ITERATE
         EPS_TARGET_FACTOR     1.0000000000000000E+01
       &END MATRIX_ITERATE
     &END ALMO_SCF
     &QS
       EPS_DEFAULT     1.0000000000000000E-14
       ALMO_SCF  F
       METHOD  GPW
     &END QS
     &MGRID
       NGRIDS  5
       CUTOFF     1.2000000000000000E+03
     &END MGRID
     &XC
       DENSITY_CUTOFF     1.0000000000000000E-10
       GRADIENT_CUTOFF     1.0000000000000000E-10
       TAU_CUTOFF     1.0000000000000000E-10
       &XC_FUNCTIONAL  NO_SHORTCUT
         &PBE  T
         &END PBE
       &END XC_FUNCTIONAL
       &VDW_POTENTIAL
         POTENTIAL_TYPE  PAIR_POTENTIAL
         &PAIR_POTENTIAL
           R_CUTOFF     1.0000000000000002E+01
           TYPE  DFTD3
           PARAMETER_FILE_NAME dftd3.dat
           REFERENCE_FUNCTIONAL PBE
           EPS_CN     9.9999999999999995E-07
           CALCULATE_C9_TERM  T
           REFERENCE_C9_TERM  T
           LONG_RANGE_CORRECTION  F
           VERBOSE_OUTPUT  F
         &END PAIR_POTENTIAL
       &END VDW_POTENTIAL
     &END XC
   &END DFT
   &SUBSYS
     &CELL
       A     9.7467852074863170E+00    0.0000000000000000E+00    0.0000000000000000E+00
       B    -4.8523149299919890E+00    8.4044559930711369E+00    0.0000000000000000E+00
       C     0.0000000000000000E+00    0.0000000000000000E+00    3.0744000000000000E+01
       MULTIPLE_UNIT_CELL  1 1 1
       &CELL_REF
         A     9.5580000000000016E+00    0.0000000000000000E+00    0.0000000000000000E+00
         B    -4.7790000000000008E+00    8.2774708093716640E+00    0.0000000000000000E+00
         C     0.0000000000000000E+00    0.0000000000000000E+00    3.0744000000000000E+01
         MULTIPLE_UNIT_CELL  1 1 1
       &END CELL_REF
     &END CELL
     &COORD
Ga   -1.9059584539017115E-03   -1.1576314935216167E-03   -5.8334608446273317E-01
N    6.5555219912347010E-03    1.8696680900822109E+00    5.6507092617510790E-01
Ga    5.2907340618004606E-03    1.8386349125625472E+00    2.5963643460863279E+00
N   -1.1440751832626909E-03   -2.5007337244753293E-03    3.2312193852621323E+00
Ga    3.9484924734089767E-04   -4.1962492670031751E-04    5.2214770275818259E+00
N    6.4110448614873730E-03    1.8730796409567119E+00    5.8079665765302764E+00
Ga    6.4506012269119773E-03    1.8714671213264042E+00    7.8066885196279427E+00
N    7.2734466867900170E-04   -1.2853289226000396E-03    8.4080349807928894E+00
Ga    2.1503313166633077E-03   -1.6704939686088604E-04    1.0405535379853895E+01
N    7.8872413214619904E-03    1.8695022891202755E+00    1.1012638183979270E+01
Ga    5.7461797935989753E-03    1.8696388317812294E+00    1.3008992176625624E+01
N    4.4560328860799653E-04    1.2032798444809413E-04    1.3623031861844751E+01
Ga   -1.6272408002960970E-02   -4.2730789123695805E-03    1.5631511364876415E+01
N   -6.2667478264274972E-03    1.8815106889040183E+00    1.6221691307501956E+01
Ga    2.4188248365739188E-02    1.9086251561492180E+00    1.8302778494385137E+01
N    6.6411525929288761E-03    1.4797396615938072E-02    1.8653769375838735E+01
Ga   -1.6158140588386691E+00    2.7995695723343679E+00    2.8006208287851286E-01
N   -1.6171773518475057E+00    4.6678396948636589E+00    5.6478180514239196E-01
Ga   -1.5880329360291026E+00    4.6833871851646780E+00    2.5933749846962328E+00
N   -1.6181448838728543E+00    2.7987733619389732E+00    3.1873290545158834E+00
Ga   -1.6167255870704198E+00    2.8010746139664464E+00    5.1987614118550525E+00
N   -1.6132449092855281E+00    4.6699920458151523E+00    5.8076116025105886E+00
Ga   -1.6123820426916464E+00    4.6702713261531414E+00    7.8065907536017027E+00
N   -1.6169751754702386E+00    2.8008194344316450E+00    8.4120266085270359E+00
Ga   -1.6157260627079537E+00    2.8014437381180319E+00    1.0408539836663717E+01
N   -1.6073415499521204E+00    4.6726673106595946E+00    1.1013899047005600E+01
Ga   -1.6069409405953072E+00    4.6709347373949921E+00    1.3009885542023655E+01
N   -1.6187156587915836E+00    2.8003087857110756E+00    1.3610410257099604E+01
Ga   -1.6331052632600216E+00    2.7896670359266778E+00    1.5612574384714183E+01
N   -1.6257201206464265E+00    4.6700915610278804E+00    1.6209492489785600E+01
Ga   -1.6068325728446495E+00    4.6807424929301060E+00    1.8284824813451159E+01
N   -1.6161784461391357E+00    2.8019254769592261E+00    1.8699823934314406E+01
Ga   -3.2350745591359304E+00    5.6025851636502884E+00    2.7827762935245448E-01
N   -3.2267051124534185E+00    7.4710952894049596E+00    5.6533337646849025E-01
Ga   -3.2550983703475063E+00    7.4843726282397292E+00    2.5971418638115096E+00
N   -3.2355578584335531E+00    5.5999245257683841E+00    3.1884168042604073E+00
Ga   -3.2342056522907758E+00    5.6022644285792573E+00    5.1991244980789144E+00
N   -3.2253248127937781E+00    7.4711542246872353E+00    5.8074942624310903E+00
Ga   -3.2264720463289800E+00    7.4704408696394404E+00    7.8064274981689143E+00
N   -3.2346473343846269E+00    5.6013657652943643E+00    8.4145693568942868E+00
Ga   -3.2341268659540363E+00    5.6017197786355899E+00    1.0411788973874224E+01
N   -3.2281442648913909E+00    7.4733990299318220E+00    1.1015047572775156E+01
Ga   -3.2310631485896599E+00    7.4717545718059215E+00    1.3011931153713405E+01
N   -3.2361462247651045E+00    5.5960944582614909E+00    1.3607195373432919E+01
Ga   -3.2507538136437830E+00    5.5843661943537288E+00    1.5604139667343036E+01
N   -3.2441400122937654E+00    7.4563896927466642E+00    1.6202996903920244E+01
Ga   -3.2233381871947637E+00    7.4903349675919682E+00    1.8273184522490663E+01
N   -3.2428074838641874E+00    5.6014299810294208E+00    1.8631437480948961E+01
Ga    3.2491703745611074E+00   -4.3880095361264098E-03    2.8373370613831117E-01
N    3.2507752816078170E+00    1.8676232883441424E+00    5.6566422142913331E-01
Ga    3.2770241436409302E+00    1.8819909035642113E+00    2.5990840632586059E+00
N    3.2475045615353126E+00   -2.9344987905733587E-03    3.1871735844704472E+00
Ga    3.2491431762252141E+00   -7.5254905735817998E-04    5.1983506995363369E+00
N    3.2527617914910576E+00    1.8684092045574179E+00    5.8065079482281874E+00
Ga    3.2534531059643901E+00    1.8681200314634034E+00    7.8056122887754515E+00
N    3.2491808832370142E+00   -1.6378399432814736E-03    8.4108085358547395E+00
Ga    3.2491954611258826E+00   -1.5041758826563432E-03    1.0407182440863568E+01
N    3.2540822428695679E+00    1.8683356947388203E+00    1.1011858056828276E+01
Ga    3.2481207770420402E+00    1.8612703960101031E+00    1.3008276447382896E+01
N    3.2443523979376572E+00   -7.2014037212398139E-03    1.3626330582184671E+01
Ga    3.2390127667151560E+00   -1.4749837081207485E-02    1.5632695347039139E+01
N    3.2228810335264422E+00    1.8635289659016643E+00    1.6211629041033934E+01
Ga    3.2574568012601666E+00    1.8926162112637548E+00    1.8283953175090765E+01
N    3.2530191911132906E+00   -5.0402165891685353E-03    1.8624563191560860E+01
Ga    1.6284804972062754E+00    2.8011444528081011E+00    2.7968365282545438E-01
N    1.6423563861681341E+00    4.6687607959045909E+00    5.6572932036662393E-01
Ga    1.6121137859014238E+00    4.6829820000086766E+00    2.5944939897801955E+00
N    1.6294300012375051E+00    2.7987197440425886E+00    3.1886776104540822E+00
Ga    1.6310480945262578E+00    2.8012657994016177E+00    5.1996977416223178E+00
N    1.6412122936542988E+00    4.6706839642477691E+00    5.8069152273100952E+00
Ga    1.6397245525348862E+00    4.6706821330776336E+00    7.8060368532388527E+00
N    1.6317115358958221E+00    2.8008180873703199E+00    8.4106154957841284E+00
Ga    1.6317959766846695E+00    2.8008697347135039E+00    1.0406700521979564E+01
N    1.6356670237901600E+00    4.6718379343633183E+00    1.1010642173910501E+01
Ga    1.6298303829069194E+00    4.6686353341774831E+00    1.3005169761122110E+01
N    1.6286211820509064E+00    2.7997520750580782E+00    1.3613080836295905E+01
Ga    1.6170712280579644E+00    2.7942104268046806E+00    1.5615195381789087E+01
N    1.6361835235191553E+00    4.6695025738169145E+00    1.6207529601001433E+01
Ga    1.6572385654000195E+00    4.6857086597470587E+00    1.8282532987255522E+01
N    1.6400978133227566E+00    2.8088961102020309E+00    1.8725874051456728E+01
Ga    1.5191997607153127E-02    5.6039938338232460E+00   -5.9553606210629129E-01
N    2.0285473774365910E-02    7.4748538498738117E+00    5.6755407188864837E-01
Ga    1.9949664062991566E-02    7.4423555180078811E+00    2.5954364026752712E+00
N    1.2622155478838147E-02    5.5996388558723682E+00    3.2280476537925189E+00
Ga    1.4307023212834351E-02    5.6023976617028737E+00    5.2185294152378887E+00
N    2.0485243360892455E-02    7.4760504716997103E+00    5.8067017912251400E+00
Ga    2.0731340270081944E-02    7.4742142306504791E+00    7.8051698719502367E+00
N    1.4232247293644636E-02    5.6026006656792990E+00    8.4071956897618296E+00
Ga    1.4515415844678388E-02    5.6048021556092049E+00    1.0403975809097084E+01
N    2.0268756355541560E-02    7.4731325167734646E+00    1.1015572962124201E+01
Ga    1.6826534420618624E-02    7.4701775400995380E+00    1.3013967171007197E+01
N    1.3345073168188381E-02    5.6024872488704549E+00    1.3631481112389281E+01
Ga    2.7096296898607391E-03    5.5992997384726655E+00    1.5639844870242861E+01
N    1.7501661180414109E-02    7.4801367700781620E+00    1.6210146104730409E+01
Ga    3.4132590865328792E-02    7.4775392057752761E+00    1.8271738954872415E+01
N    1.4451063564507868E-02    5.5872790234529557E+00    1.8663791664675863E+01
Ga    6.4967876976284114E+00   -3.2479442333605826E-03    2.8107309582467244E-01
N    6.5066363912220995E+00    1.8684544285104745E+00    5.6456828192748665E-01
Ga    6.4792718526584832E+00    1.8814738346779014E+00    2.5980896760841614E+00
N    6.4966547295003245E+00   -2.2119722971963500E-03    3.1896377438660606E+00
Ga    6.4983405415595934E+00   -3.0509968928861406E-04    5.2002051463096883E+00
N    6.5075453246387003E+00    1.8689822923576975E+00    5.8079039586934229E+00
Ga    6.5063424355301560E+00    1.8681743849849115E+00    7.8072491981939969E+00
N    6.4980726068993135E+00   -1.7977839079552770E-03    8.4121125784142041E+00
Ga    6.4990657811264461E+00   -1.3899885482194778E-03    1.0409243793834134E+01
N    6.5060294996300136E+00    1.8696229962463717E+00    1.1011349092090830E+01
Ga    6.5055170841396706E+00    1.8642822555743910E+00    1.3008070493133674E+01
N    6.4977018063275320E+00   -7.7822721686925363E-03    1.3609859949432527E+01
Ga    6.4841153066422876E+00   -1.8778231804310368E-02    1.5610713411777310E+01
N    6.5053238196507994E+00    1.8621603941846856E+00    1.6192619390685330E+01
Ga    6.5298117048714852E+00    1.8933163348135393E+00    1.8251576931478425E+01
N    6.5095731048823220E+00   -1.4337876291092508E-03    1.8600006587532317E+01
Ga    4.8799758160598454E+00    2.8003151102998336E+00   -5.5289077803200981E-01
N    4.8875363244889511E+00    4.6709475801862013E+00    5.6475039371226821E-01
Ga    4.8866227146423675E+00    4.6415179588775777E+00    2.5982162756826255E+00
N    4.8791615863921027E+00    2.7984852588577045E+00    3.2288808622139262E+00
Ga    4.8809508596461413E+00    2.8011723520210259E+00    5.2209498325443340E+00
N    4.8872221619719749E+00    4.6749212853167705E+00    5.8082717626824998E+00
Ga    4.8868964251089189E+00    4.6723910730113705E+00    7.8077314866447542E+00
N    4.8802461879499637E+00    2.7994721396296463E+00    8.4080963316405430E+00
Ga    4.8807406604070209E+00    2.7981752461901639E+00    1.0406254725412559E+01
N    4.8884225940511072E+00    4.6669974210777374E+00    1.1014695036309670E+01
Ga    4.8857757936005211E+00    4.6575196380741266E+00    1.3011638025661007E+01
N    4.8747797264587742E+00    2.7799273527086030E+00    1.3614477750988065E+01
Ga    4.8636505229432982E+00    2.7669438106469721E+00    1.5617742970936964E+01
N    4.8714732989286844E+00    4.6538811794256070E+00    1.6148084688594729E+01
Ga    4.8960133632007699E+00    4.6864053993429851E+00    1.8193648124700623E+01
N    4.8902984202013684E+00    2.8059937030326614E+00    1.8611128673632553E+01
Ga    3.2627698127482456E+00    5.6016219690915801E+00    2.8317053493084832E-01
N    3.2649887087535747E+00    7.4700401445544742E+00    5.6823312960481476E-01
Ga    3.2923610413069579E+00    7.4855559373621166E+00    2.5990849592222527E+00
N    3.2622508859686667E+00    5.5999120148676997E+00    3.1870638475609061E+00
Ga    3.2637395110065159E+00    5.6024843738266448E+00    5.1980235804547963E+00
N    3.2673299293978380E+00    7.4709727865759206E+00    5.8078969585709173E+00
Ga    3.2679942023941755E+00    7.4705308632844876E+00    7.8072080751157866E+00
N    3.2634318108856828E+00    5.6013045895869205E+00    8.4138533312175987E+00
Ga    3.2650153185238833E+00    5.6014533550912073E+00    1.0411100375210324E+01
N    3.2726687128274645E+00    7.4737413956028780E+00    1.1012012035308659E+01
Ga    3.2721130622790855E+00    7.4723194896645362E+00    1.3008335967747040E+01
N    3.2593506106445536E+00    5.5944057190912755E+00    1.3595118130821831E+01
Ga    3.2483218888823422E+00    5.5861762605367327E+00    1.5589525320531362E+01
N    3.2606295035930417E+00    7.4538662937126059E+00    1.6180750402774063E+01
Ga    3.2966197357002609E+00    7.4990559838470165E+00    1.8238481765725968E+01
N    3.2803113146690697E+00    5.6105331644477037E+00    1.8624873368937074E+01
     &END COORD
     &KIND N
       BASIS_SET DZVP-MOLOPT-SR-GTH
       POTENTIAL GTH-PBE-q5
       &POTENTIAL
 2 3
  0.2837905100000000E+00 2 -0.1241522559000000E+02  0.1868095920000000E+01
 2
  0.2554050000000000E+00 1  0.1363026257000000E+02
  0.2454945300000000E+00 0
         # Potential name:  GTH-PBE-Q5  for symbol:  N
         # Potential read from the potential filename: GTH_POTENTIALS
       &END POTENTIAL
     &END KIND
     &KIND Ga
       BASIS_SET DZVP-MOLOPT-SR-GTH
       POTENTIAL GTH-PBE-q13
       &POTENTIAL
 2 1 10
  0.4900000000000000E+00 0
 3
  0.4167772300000000E+00 3  0.1047568975000000E+02 -0.4921768140000000E+01  0.8707055900000000E+00
  0.7770178090000000E+01 -0.2248152160000000E+01
  0.1784415450000000E+01
  0.5696265200000000E+00 2  0.1777985340000000E+01  0.1958597600000000E+00
 -0.2317443900000000E+00
  0.2381265000000000E+00 1 -0.1624868022000000E+02
         # Potential name:  GTH-PBE-Q13  for symbol:  GA
         # Potential read from the potential filename: GTH_POTENTIALS
       &END POTENTIAL
     &END KIND
     &TOPOLOGY
       COORD_FILE_NAME 334-native.xyz
       COORD_FILE_FORMAT  XYZ
       NUMBER_OF_ATOMS  144
       MULTIPLE_UNIT_CELL  1 1 1
     &END TOPOLOGY
   &END SUBSYS
 &END FORCE_EVAL
