 # Version information for this restart file 
 # current date 2019-05-16 15:08:36.949
 # current working dir /lustre03/project/6004141/rzk/GaN-carbene/00-Surface/00-Preoptimization/334-native/Trial4
 # Program compiled at                              Sun Apr  7 00:48:11 EDT 2019
 # Program compiled on                          beluga2.int.ets1.calculquebec.ca
 # Program compiled for                        Beluga-Linux-x86-64-intel-openmpi
 # Source code revision number                                         svn:18619
 &GLOBAL
   PRINT_LEVEL  MEDIUM
   PROJECT_NAME TEST
   RUN_TYPE  CELL_OPT
 &END GLOBAL
 &MOTION
   &CELL_OPT
     MAX_ITER  150
     STEP_START_VAL  118
     EXTERNAL_PRESSURE     1.0000000000000000E+00
     KEEP_ANGLES  T
     KEEP_SYMMETRY  T
     CONSTRAINT  Z
     PRESSURE_TOLERANCE     3.0000000000000000E+02
   &END CELL_OPT
 &END MOTION
 &FORCE_EVAL
   METHOD  QS
   STRESS_TENSOR  ANALYTICAL
   &DFT
     BASIS_SET_FILE_NAME BASIS_MOLOPT
     POTENTIAL_FILE_NAME GTH_POTENTIALS
     &SCF
       MAX_SCF  100
       EPS_SCF     5.0000000000000004E-06
       &OT  T
         PRECONDITIONER  FULL_ALL
       &END OT
       &OUTER_SCF  T
         OPTIMIZER  NONE
         EPS_SCF     5.0000000000000004E-06
         MAX_SCF  10
       &END OUTER_SCF
       &PRINT
         &RESTART  OFF
           BACKUP_COPIES  1
           &EACH
             JUST_ENERGY  0
             QS_SCF  0
             MD  20
           &END EACH
         &END RESTART
       &END PRINT
     &END SCF
     &ALMO_SCF
       EPS_FILTER     9.9999999999999994E-12
       ALMO_SCF_GUESS  ATOMIC
       MO_OVERLAP_INV_ALG  DENSE_CHOLESKY
       ALMO_EXTRAPOLATION_ORDER  4
       XALMO_EXTRAPOLATION_ORDER  4
       ALMO_ALGORITHM  SKIP
       XALMO_TRIAL_WF  SIMPLE
       DELOCALIZE_METHOD  XALMO_SCF
       XALMO_R_CUTOFF_FACTOR     1.8000000000000000E+00
       &ALMO_OPTIMIZER_DIIS
         MAX_ITER  100
         EPS_ERROR     1.0000000000000001E-05
         N_DIIS  5
       &END ALMO_OPTIMIZER_DIIS
       &ALMO_OPTIMIZER_PCG
         MAX_ITER  50
         EPS_ERROR     1.0000000000000001E-05
         LIN_SEARCH_EPS_ERROR     5.0000000000000003E-02
         LIN_SEARCH_STEP_SIZE_GUESS     5.0000000000000001E-03
         CONJUGATOR  DAI_YUAN
         MAX_ITER_OUTER_LOOP  10
       &END ALMO_OPTIMIZER_PCG
       &XALMO_OPTIMIZER_PCG
         MAX_ITER  1000
         EPS_ERROR     1.0000000000000001E-05
         LIN_SEARCH_EPS_ERROR     1.0000000000000001E-01
         LIN_SEARCH_STEP_SIZE_GUESS     1.0000000000000000E-02
         CONJUGATOR  DAI_YUAN
         PRECOND_FILTER_THRESHOLD     1.0000000000000000E-03
         MAX_ITER_OUTER_LOOP  0
       &END XALMO_OPTIMIZER_PCG
       &MATRIX_ITERATE
         EPS_TARGET_FACTOR     1.0000000000000000E+01
       &END MATRIX_ITERATE
     &END ALMO_SCF
     &QS
       EPS_DEFAULT     1.0000000000000000E-14
       ALMO_SCF  F
       METHOD  GPW
     &END QS
     &MGRID
       NGRIDS  5
       CUTOFF     1.2000000000000000E+03
     &END MGRID
     &XC
       DENSITY_CUTOFF     1.0000000000000000E-10
       GRADIENT_CUTOFF     1.0000000000000000E-10
       TAU_CUTOFF     1.0000000000000000E-10
       &XC_FUNCTIONAL  NO_SHORTCUT
         &PBE  T
         &END PBE
       &END XC_FUNCTIONAL
       &VDW_POTENTIAL
         POTENTIAL_TYPE  PAIR_POTENTIAL
         &PAIR_POTENTIAL
           R_CUTOFF     1.0000000000000004E+01
           TYPE  DFTD3
           PARAMETER_FILE_NAME dftd3.dat
           REFERENCE_FUNCTIONAL PBE
           EPS_CN     9.9999999999999995E-07
           CALCULATE_C9_TERM  T
           REFERENCE_C9_TERM  T
           LONG_RANGE_CORRECTION  F
           VERBOSE_OUTPUT  F
         &END PAIR_POTENTIAL
       &END VDW_POTENTIAL
     &END XC
   &END DFT
   &SUBSYS
     &CELL
       A     9.7400828961819759E+00    0.0000000000000000E+00    0.0000000000000000E+00
       B    -4.8569343760104911E+00    8.4124571082779696E+00    0.0000000000000000E+00
       C     0.0000000000000000E+00    0.0000000000000000E+00    3.0744000000000000E+01
       MULTIPLE_UNIT_CELL  1 1 1
       &CELL_REF
         A     9.5580000000000034E+00    0.0000000000000000E+00    0.0000000000000000E+00
         B    -4.7790000000000017E+00    8.2774708093716640E+00    0.0000000000000000E+00
         C     0.0000000000000000E+00    0.0000000000000000E+00    3.0744000000000000E+01
         MULTIPLE_UNIT_CELL  1 1 1
       &END CELL_REF
     &END CELL
     &COORD
Ga    1.1569803435326415E-03   -1.2722279738890086E-03   -5.8818119035485805E-01
N    4.6776667147089730E-03    1.8717393764631889E+00    5.6559365509385096E-01
Ga    3.8112014625939017E-03    1.8393138864527594E+00    2.5955013911252141E+00
N   -4.2198989982970950E-04   -3.4863204889586520E-03    3.2293483651561208E+00
Ga   -3.4603064588508729E-05   -3.4508236486786178E-03    5.2205814203729020E+00
N    4.3467797905263096E-03    1.8712207931669917E+00    5.8071172636467425E+00
Ga    3.7232070661915111E-03    1.8687304467790946E+00    7.8060587089494522E+00
N   -2.7918571648241945E-04   -4.3782689867024492E-03    8.4085623890424550E+00
Ga    1.6642068059342097E-04   -3.0998052571807912E-03    1.0406419063262472E+01
N    3.5188616083733182E-03    1.8687355162059500E+00    1.1011018876467302E+01
Ga    2.3261748218225266E-03    1.8746128232678025E+00    1.3005125748437997E+01
N   -7.7043665070872550E-04    5.6226937587343000E-03    1.3611626835990567E+01
Ga   -7.6279290951563761E-03    1.4949147440130024E-02    1.5615311251002131E+01
N    1.5642035297950055E-03    1.8832958200390819E+00    1.6262817314158571E+01
Ga    1.2188879090565475E-02    1.9021332840856600E+00    1.8379193067214249E+01
N    2.8966127307685267E-03    6.4439362094307461E-03    1.8660849627281124E+01
Ga   -1.6173668353911248E+00    2.8020977778310256E+00    2.7922593743720797E-01
N   -1.6193729609085192E+00    4.6712541597203261E+00    5.6512251821296389E-01
Ga   -1.5910275574998127E+00    4.6862271789102801E+00    2.5954981006342792E+00
N   -1.6188353649143921E+00    2.8009121490919409E+00    3.1877524848786387E+00
Ga   -1.6183465824672487E+00    2.8012439587735316E+00    5.1988282248861637E+00
N   -1.6177366410905849E+00    4.6712508440988838E+00    5.8070354642992941E+00
Ga   -1.6169849170015780E+00    4.6704287389867272E+00    7.8062949140298823E+00
N   -1.6194477433587833E+00    2.7997098462027239E+00    8.4103781407286622E+00
Ga   -1.6189010149345153E+00    2.8007353031553799E+00    1.0406365691114976E+01
N   -1.6110811194860200E+00    4.6710220139091954E+00    1.1013736300906249E+01
Ga   -1.6068333058975866E+00    4.6712140355253613E+00    1.3009605558516933E+01
N   -1.6179361858660177E+00    2.8022848273030507E+00    1.3623361178630740E+01
Ga   -1.6219454972962459E+00    2.8011657716733738E+00    1.5631756788707866E+01
N   -1.6215701729144860E+00    4.6795343325486067E+00    1.6213716040594949E+01
Ga   -1.6125658172794111E+00    4.6759349827392862E+00    1.8294683823855490E+01
N   -1.6226677923075934E+00    2.8136352081565992E+00    1.8741774705154867E+01
Ga   -3.2375323826779776E+00    5.6070314232510388E+00    2.7919819726586653E-01
N   -3.2306028044921518E+00    7.4765886913530846E+00    5.6540883843245238E-01
Ga   -3.2590971525894674E+00    7.4908286723672566E+00    2.5956462126811934E+00
N   -3.2383123727780898E+00    5.6052323725553039E+00    3.1879672392667429E+00
Ga   -3.2381587368121689E+00    5.6057980225273791E+00    5.1990890902037314E+00
N   -3.2313217769402436E+00    7.4749019318118224E+00    5.8085255764726371E+00
Ga   -3.2325457949684400E+00    7.4735566225322367E+00    7.8081418754629901E+00
N   -3.2378848518831482E+00    5.6033921585185329E+00    8.4151048173159708E+00
Ga   -3.2371776680298550E+00    5.6042674345677783E+00    1.0413204920049354E+01
N   -3.2341203748747138E+00    7.4781716811813386E+00    1.1013634295535452E+01
Ga   -3.2343847280148847E+00    7.4825426008369504E+00    1.3009754821582170E+01
N   -3.2357613251878932E+00    5.6033623132592787E+00    1.3591486890108269E+01
Ga   -3.2389615154569773E+00    5.6029487861737541E+00    1.5584616034602050E+01
N   -3.2420231733283220E+00    7.4768977946900401E+00    1.6158795587173497E+01
Ga   -3.2471929034698639E+00    7.4907228942276509E+00    1.8208062280094044E+01
N   -3.2502983784331394E+00    5.6140670166198143E+00    1.8601705290171004E+01
Ga    3.2473743367469141E+00   -3.3422042667354155E-03    2.7913995021594623E-01
N    3.2479562994640725E+00    1.8679029046619298E+00    5.6426238962847053E-01
Ga    3.2742740730338169E+00    1.8818119338217039E+00    2.5976650732776436E+00
N    3.2460892632978369E+00   -3.4481574651777842E-03    3.1878368711412279E+00
Ga    3.2463442728395524E+00   -3.3387067136513597E-03    5.1990020997030477E+00
N    3.2481123572668937E+00    1.8666662983710189E+00    5.8070950296967716E+00
Ga    3.2486279971966678E+00    1.8653862319801695E+00    7.8062855841389345E+00
N    3.2467393404363900E+00   -4.8443684495713150E-03    8.4119272420718083E+00
Ga    3.2470227354456584E+00   -3.7043521072100010E-03    1.0408892919691869E+01
N    3.2488875519779792E+00    1.8675864901217418E+00    1.1014476313665920E+01
Ga    3.2441877852050287E+00    1.8663029940773230E+00    1.3011950715645071E+01
N    3.2467680485302468E+00   -3.2265706268715783E-03    1.3625338139087104E+01
Ga    3.2520719741825945E+00   -9.4190470015104546E-04    1.5629248732568286E+01
N    3.2299804597436252E+00    1.8804655695268289E+00    1.6207212584833641E+01
Ga    3.2405417554382416E+00    1.8921581901285702E+00    1.8275909235687731E+01
N    3.2398619658367998E+00   -3.9900851213349889E-03    1.8576625061613832E+01
Ga    1.6265399323113985E+00    2.8028543668683454E+00    2.7967992911766387E-01
N    1.6360922613607389E+00    4.6718585815522573E+00    5.6583924935202368E-01
Ga    1.6074702579778699E+00    4.6864823862746583E+00    2.5960961876204318E+00
N    1.6272786549695437E+00    2.8007463123016567E+00    3.1878850133420222E+00
Ga    1.6277486665167691E+00    2.8012517936944943E+00    5.1989950523699218E+00
N    1.6348155408360781E+00    4.6711942450529804E+00    5.8071594130354498E+00
Ga    1.6329919227862384E+00    4.6703003885895997E+00    7.8065210737314077E+00
N    1.6274664046889802E+00    2.7995945471267314E+00    8.4106383143863948E+00
Ga    1.6271953652196922E+00    2.8004966306310815E+00    1.0406871673460637E+01
N    1.6276216835045096E+00    4.6713244845516311E+00    1.1012671001951418E+01
Ga    1.6212500827501892E+00    4.6711170069067753E+00    1.3007950430947757E+01
N    1.6225468036940256E+00    2.8021726092026000E+00    1.3618812782063751E+01
Ga    1.6193562184220955E+00    2.8021236663191473E+00    1.5626021008661306E+01
N    1.6353488831456229E+00    4.6778058982791126E+00    1.6212714380694180E+01
Ga    1.6489584110048869E+00    4.6759706381910400E+00    1.8294489718644680E+01
N    1.6359746269435556E+00    2.8139004899530824E+00    1.8748675907084323E+01
Ga    9.7491920493655241E-03    5.6074991791235957E+00   -5.8743153383228786E-01
N    1.3136177192126071E-02    7.4812530523251288E+00    5.6580552370699932E-01
Ga    1.2562919365340076E-02    7.4481696653243263E+00    2.5958659036801373E+00
N    8.2852549525827459E-03    5.6046900636309092E+00    3.2287184577272812E+00
Ga    8.8788006825395154E-03    5.6055040530624645E+00    5.2194097917162754E+00
N    1.2958027300856522E-02    7.4799281861908664E+00    5.8066188323717052E+00
Ga    1.2567659728564801E-02    7.4769411252910025E+00    7.8056867859789856E+00
N    8.2754387766374640E-03    5.6042443124512227E+00    8.4071001385387181E+00
Ga    8.3993007572812813E-03    5.6062914643280317E+00    1.0404418897416775E+01
N    1.2600049892314622E-02    7.4757595725652255E+00    1.1016371623617223E+01
Ga    1.1658785504842589E-02    7.4769274096502807E+00    1.3015502996581020E+01
N    6.8625047016346316E-03    5.6103419294881673E+00    1.3635865055213392E+01
Ga    4.3138413882225094E-03    5.6200371186566596E+00    1.5647557655345475E+01
N    9.6087916234914948E-03    7.4898807191265870E+00    1.6226909839256091E+01
Ga    2.4843076265173712E-02    7.4732570701209502E+00    1.8294149449925644E+01
N    1.3623222610947490E-02    5.5895199118993357E+00    1.8655501529995963E+01
Ga    6.4931242997137604E+00   -2.6951567269710721E-03    2.7973272623316364E-01
N    6.5003250933647045E+00    1.8687050727364087E+00    5.6468916615400644E-01
Ga    6.4734630616421356E+00    1.8818571347769721E+00    2.5979442101289680E+00
N    6.4935746444242506E+00   -3.7059802875315535E-03    3.1873662690187707E+00
Ga    6.4941488915673826E+00   -3.5188723587520187E-03    5.1984417544177637E+00
N    6.5005186035016260E+00    1.8664796604641321E+00    5.8067853343862987E+00
Ga    6.4989627938638366E+00    1.8650484521120778E+00    7.8061269172258347E+00
N    6.4926470225172199E+00   -4.9050373355101441E-03    8.4125917423617107E+00
Ga    6.4932760296271095E+00   -3.9486434863105404E-03    1.0409644768945865E+01
N    6.4993762570583042E+00    1.8676921097521106E+00    1.1014660976821769E+01
Ga    6.5019757672228939E+00    1.8665599291104522E+00    1.3012641089638590E+01
N    6.4905595023309299E+00   -3.8077397534952372E-03    1.3624665169764127E+01
Ga    6.4802618352527261E+00   -6.2241301571311419E-03    1.5631017075676287E+01
N    6.5113350028582939E+00    1.8748424743249379E+00    1.6210246587031534E+01
Ga    6.5233074158979445E+00    1.8906113727385028E+00    1.8281095096883984E+01
N    6.5080241308933156E+00   -3.0949042152502207E-03    1.8583908469943562E+01
Ga    4.8755102758911519E+00    2.8029719176468739E+00   -5.5653974510822168E-01
N    4.8790861236410263E+00    4.6752728205424656E+00    5.6447096747945402E-01
Ga    4.8781852070137344E+00    4.6444827272060456E+00    2.5976755757456598E+00
N    4.8740615083027938E+00    2.8008289039494243E+00    3.2290350847602456E+00
Ga    4.8746446400886105E+00    2.8013321990266071E+00    5.2209726148390772E+00
N    4.8787351907584888E+00    4.6756084995914300E+00    5.8090612355045357E+00
Ga    4.8782141802694614E+00    4.6724738985956851E+00    7.8093086751676397E+00
N    4.8742134544034696E+00    2.7980674876510445E+00    8.4086959250269864E+00
Ga    4.8744593204277029E+00    2.7975780792429585E+00    1.0407226268226850E+01
N    4.8787151444234720E+00    4.6676012390682420E+00    1.1011958930870456E+01
Ga    4.8776969555144376E+00    4.6626776435665382E+00    1.3007289276364485E+01
N    4.8729813650114782E+00    2.7860294155403875E+00    1.3617009284926015E+01
Ga    4.8694664353759780E+00    2.7792494490125068E+00    1.5618952569751062E+01
N    4.8727825931928308E+00    4.6709114356028607E+00    1.6122805215210956E+01
Ga    4.8840790524141653E+00    4.6873354685944078E+00    1.8162102652254521E+01
N    4.8772268757120267E+00    2.8143759849980308E+00    1.8582065714464516E+01
Ga    3.2553021144731273E+00    5.6063265647966389E+00    2.7896554786084543E-01
N    3.2559461701304064E+00    7.4756730276319505E+00    5.6479903011517496E-01
Ga    3.2839298990999954E+00    7.4903911061813728E+00    2.5949492435252135E+00
N    3.2555720259710710E+00    5.6052484809304843E+00    3.1880678567678804E+00
Ga    3.2561282823437052E+00    5.6058302640235924E+00    5.1993623872870156E+00
N    3.2570189062041508E+00    7.4749514571966422E+00    5.8087976320748149E+00
Ga    3.2572698161116098E+00    7.4736593864367915E+00    7.8083395228855403E+00
N    3.2548052985197380E+00    5.6032426802665167E+00    8.4147715698235270E+00
Ga    3.2549932392809704E+00    5.6040198684422320E+00    1.0412837334427417E+01
N    3.2602469903985547E+00    7.4778315042262351E+00    1.1013387275876530E+01
Ga    3.2584845747537932E+00    7.4813244632707336E+00    1.3010230357415287E+01
N    3.2502663902045255E+00    5.6017298148847443E+00    1.3588649429520535E+01
Ga    3.2447051947874925E+00    5.6058397743154140E+00    1.5581666573671079E+01
N    3.2645690457868732E+00    7.4737561027889203E+00    1.6161088917644467E+01
Ga    3.2860693681400579E+00    7.4917653667381545E+00    1.8210532858864763E+01
N    3.2742147015556893E+00    5.6161225193422695E+00    1.8609738597501796E+01
     &END COORD
     &KIND N
       BASIS_SET DZVP-MOLOPT-SR-GTH
       POTENTIAL GTH-PBE-q5
       &POTENTIAL
2 3
0.2837905100000000E+00 2 -0.1241522559000000E+02  0.1868095920000000E+01
2
0.2554050000000000E+00 1  0.1363026257000000E+02
0.2454945300000000E+00 0
       &END POTENTIAL
     &END KIND
     &KIND Ga
       BASIS_SET DZVP-MOLOPT-SR-GTH
       POTENTIAL GTH-PBE-q13
       &POTENTIAL
2 1 10
0.4900000000000000E+00 0
3
0.4167772300000000E+00 3  0.1047568975000000E+02 -0.4921768140000000E+01  0.8707055900000000E+00
0.7770178090000000E+01 -0.2248152160000000E+01
0.1784415450000000E+01
0.5696265200000000E+00 2  0.1777985340000000E+01  0.1958597600000000E+00
-0.2317443900000000E+00
0.2381265000000000E+00 1 -0.1624868022000000E+02
       &END POTENTIAL
     &END KIND
     &TOPOLOGY
       COORD_FILE_NAME 334-native.xyz
       COORD_FILE_FORMAT  XYZ
       NUMBER_OF_ATOMS  144
       MULTIPLE_UNIT_CELL  1 1 1
     &END TOPOLOGY
   &END SUBSYS
 &END FORCE_EVAL
