 # Version information for this restart file 
 # current date 2019-05-16 15:06:16.679
 # current working dir /lustre03/project/6004141/rzk/GaN-carbene/00-Surface/00-Preoptimization/334-native/Trial4
 # Program compiled at                              Sun Apr  7 00:48:11 EDT 2019
 # Program compiled on                          beluga2.int.ets1.calculquebec.ca
 # Program compiled for                        Beluga-Linux-x86-64-intel-openmpi
 # Source code revision number                                         svn:18619
 &GLOBAL
   PRINT_LEVEL  MEDIUM
   PROJECT_NAME TEST
   RUN_TYPE  CELL_OPT
 &END GLOBAL
 &MOTION
   &CELL_OPT
     MAX_ITER  150
     STEP_START_VAL  117
     EXTERNAL_PRESSURE     1.0000000000000000E+00
     KEEP_ANGLES  T
     KEEP_SYMMETRY  T
     CONSTRAINT  Z
     PRESSURE_TOLERANCE     3.0000000000000000E+02
   &END CELL_OPT
 &END MOTION
 &FORCE_EVAL
   METHOD  QS
   STRESS_TENSOR  ANALYTICAL
   &DFT
     BASIS_SET_FILE_NAME BASIS_MOLOPT
     POTENTIAL_FILE_NAME GTH_POTENTIALS
     &SCF
       MAX_SCF  100
       EPS_SCF     5.0000000000000004E-06
       &OT  T
         PRECONDITIONER  FULL_ALL
       &END OT
       &OUTER_SCF  T
         OPTIMIZER  NONE
         EPS_SCF     5.0000000000000004E-06
         MAX_SCF  10
       &END OUTER_SCF
       &PRINT
         &RESTART  OFF
           BACKUP_COPIES  1
           &EACH
             JUST_ENERGY  0
             QS_SCF  0
             MD  20
           &END EACH
         &END RESTART
       &END PRINT
     &END SCF
     &ALMO_SCF
       EPS_FILTER     9.9999999999999994E-12
       ALMO_SCF_GUESS  ATOMIC
       MO_OVERLAP_INV_ALG  DENSE_CHOLESKY
       ALMO_EXTRAPOLATION_ORDER  4
       XALMO_EXTRAPOLATION_ORDER  4
       ALMO_ALGORITHM  SKIP
       XALMO_TRIAL_WF  SIMPLE
       DELOCALIZE_METHOD  XALMO_SCF
       XALMO_R_CUTOFF_FACTOR     1.8000000000000000E+00
       &ALMO_OPTIMIZER_DIIS
         MAX_ITER  100
         EPS_ERROR     1.0000000000000001E-05
         N_DIIS  5
       &END ALMO_OPTIMIZER_DIIS
       &ALMO_OPTIMIZER_PCG
         MAX_ITER  50
         EPS_ERROR     1.0000000000000001E-05
         LIN_SEARCH_EPS_ERROR     5.0000000000000003E-02
         LIN_SEARCH_STEP_SIZE_GUESS     5.0000000000000001E-03
         CONJUGATOR  DAI_YUAN
         MAX_ITER_OUTER_LOOP  10
       &END ALMO_OPTIMIZER_PCG
       &XALMO_OPTIMIZER_PCG
         MAX_ITER  1000
         EPS_ERROR     1.0000000000000001E-05
         LIN_SEARCH_EPS_ERROR     1.0000000000000001E-01
         LIN_SEARCH_STEP_SIZE_GUESS     1.0000000000000000E-02
         CONJUGATOR  DAI_YUAN
         PRECOND_FILTER_THRESHOLD     1.0000000000000000E-03
         MAX_ITER_OUTER_LOOP  0
       &END XALMO_OPTIMIZER_PCG
       &MATRIX_ITERATE
         EPS_TARGET_FACTOR     1.0000000000000000E+01
       &END MATRIX_ITERATE
     &END ALMO_SCF
     &QS
       EPS_DEFAULT     1.0000000000000000E-14
       ALMO_SCF  F
       METHOD  GPW
     &END QS
     &MGRID
       NGRIDS  5
       CUTOFF     1.2000000000000000E+03
     &END MGRID
     &XC
       DENSITY_CUTOFF     1.0000000000000000E-10
       GRADIENT_CUTOFF     1.0000000000000000E-10
       TAU_CUTOFF     1.0000000000000000E-10
       &XC_FUNCTIONAL  NO_SHORTCUT
         &PBE  T
         &END PBE
       &END XC_FUNCTIONAL
       &VDW_POTENTIAL
         POTENTIAL_TYPE  PAIR_POTENTIAL
         &PAIR_POTENTIAL
           R_CUTOFF     1.0000000000000004E+01
           TYPE  DFTD3
           PARAMETER_FILE_NAME dftd3.dat
           REFERENCE_FUNCTIONAL PBE
           EPS_CN     9.9999999999999995E-07
           CALCULATE_C9_TERM  T
           REFERENCE_C9_TERM  T
           LONG_RANGE_CORRECTION  F
           VERBOSE_OUTPUT  F
         &END PAIR_POTENTIAL
       &END VDW_POTENTIAL
     &END XC
   &END DFT
   &SUBSYS
     &CELL
       A     9.7394573293882321E+00    0.0000000000000000E+00    0.0000000000000000E+00
       B    -4.8570062252804433E+00    8.4125815548640173E+00    0.0000000000000000E+00
       C     0.0000000000000000E+00    0.0000000000000000E+00    3.0744000000000000E+01
       MULTIPLE_UNIT_CELL  1 1 1
       &CELL_REF
         A     9.5580000000000034E+00    0.0000000000000000E+00    0.0000000000000000E+00
         B    -4.7790000000000017E+00    8.2774708093716640E+00    0.0000000000000000E+00
         C     0.0000000000000000E+00    0.0000000000000000E+00    3.0744000000000000E+01
         MULTIPLE_UNIT_CELL  1 1 1
       &END CELL_REF
     &END CELL
     &COORD
Ga    1.1317893623142346E-03   -1.8658465571852088E-03   -5.8765511289371941E-01
N    4.3758105344692657E-03    1.8714226412611952E+00    5.6590029487774585E-01
Ga    3.5567481279650394E-03    1.8391376395907222E+00    2.5954076799226646E+00
N   -3.6726063455320323E-04   -3.6132345176422644E-03    3.2294215541399374E+00
Ga   -2.4909627335502002E-04   -3.6249259448762538E-03    5.2206994353099425E+00
N    4.4096871678449981E-03    1.8711721732215845E+00    5.8072365586344858E+00
Ga    3.8604990150322488E-03    1.8689743613627412E+00    7.8062282328652417E+00
N   -1.2188674440673971E-04   -4.0678188280933265E-03    8.4086930376851772E+00
Ga    2.7859558277614009E-04   -2.7740638264302049E-03    1.0406644050769573E+01
N    3.3217091331138190E-03    1.8691610500022393E+00    1.1011080467409796E+01
Ga    1.9405768601822194E-03    1.8752805166020570E+00    1.3004973055336892E+01
N   -6.5831580938920217E-04    6.8541333612480698E-03    1.3612254996910696E+01
Ga   -8.1652569970274685E-03    1.5254473546210645E-02    1.5615834086999950E+01
N    1.7139073719931327E-03    1.8828205052792306E+00    1.6265208667527816E+01
Ga    1.0804961280104447E-02    1.9004534593623301E+00    1.8384748423315518E+01
N    2.0947792800548753E-03    4.4655853030774089E-03    1.8660560162607180E+01
Ga   -1.6179622798492912E+00    2.8016853997430680E+00    2.7895028974074032E-01
N   -1.6192134642231744E+00    4.6710935795049329E+00    5.6509341729309892E-01
Ga   -1.5910309128674451E+00    4.6859709026346232E+00    2.5957544660327576E+00
N   -1.6186977535657088E+00    2.8008978856179509E+00    3.1881595632243758E+00
Ga   -1.6182657403015768E+00    2.8012213756936739E+00    5.1990886018614706E+00
N   -1.6179402783335013E+00    4.6713383779879827E+00    5.8071073720958406E+00
Ga   -1.6169358150333519E+00    4.6708830580895002E+00    7.8065647640341602E+00
N   -1.6191420338683875E+00    2.8000386461398836E+00    8.4103052253688126E+00
Ga   -1.6186572973271347E+00    2.8015045459031591E+00    1.0406254044117460E+01
N   -1.6109021855188490E+00    4.6714764672914226E+00    1.1013402035828520E+01
Ga   -1.6065762996719293E+00    4.6724561171188208E+00    1.3009275195914032E+01
N   -1.6177237254287038E+00    2.8033438219768052E+00    1.3623321884975271E+01
Ga   -1.6207592015926520E+00    2.8035633084272771E+00    1.5631982116096466E+01
N   -1.6202795021204641E+00    4.6796541593718768E+00    1.6212274345868849E+01
Ga   -1.6131606226694457E+00    4.6751677407375718E+00    1.8293492376108496E+01
N   -1.6235030155212531E+00    2.8127802157102599E+00    1.8744259046786826E+01
Ga   -3.2377652595217219E+00    5.6063671675400437E+00    2.7892743809172993E-01
N   -3.2310687191085461E+00    7.4762385142172159E+00    5.6573651802962843E-01
Ga   -3.2593217971236266E+00    7.4907268208011102E+00    2.5958620684351654E+00
N   -3.2383240990680631E+00    5.6049701742885363E+00    3.1881929634514306E+00
Ga   -3.2383024858193465E+00    5.6058396465596498E+00    5.1992004792443929E+00
N   -3.2316089117539586E+00    7.4749200006842385E+00    5.8087851089612839E+00
Ga   -3.2325447672308103E+00    7.4738318377986879E+00    7.8086420646643315E+00
N   -3.2377113831410105E+00    5.6037967773526702E+00    8.4152403873625499E+00
Ga   -3.2370864512883379E+00    5.6049206728748606E+00    1.0413637000754623E+01
N   -3.2341260173110022E+00    7.4791373597269359E+00    1.1013679391652783E+01
Ga   -3.2347053764228115E+00    7.4837999092825518E+00    1.3009504225844301E+01
N   -3.2356915278944234E+00    5.6046240015094693E+00    1.3589632657434768E+01
Ga   -3.2375831616897535E+00    5.6035113541204886E+00    1.5582629340832508E+01
N   -3.2420686101012017E+00    7.4781104618532828E+00    1.6158019481493415E+01
Ga   -3.2473746678791384E+00    7.4884810297324753E+00    1.8206037081083199E+01
N   -3.2502255425632898E+00    5.6131596156563566E+00    1.8597476627424850E+01
Ga    3.2471656279011554E+00   -3.1488335068203029E-03    2.7888299212301598E-01
N    3.2476345292969766E+00    1.8675203038883832E+00    5.6441267289432318E-01
Ga    3.2742009104350500E+00    1.8816693503254995E+00    2.5973903703001606E+00
N    3.2456688939654259E+00   -3.7009501789308729E-03    3.1882730884617545E+00
Ga    3.2460983096460900E+00   -3.4392267031736778E-03    5.1994337880994479E+00
N    3.2477974802177152E+00    1.8667217820712299E+00    5.8074131872179349E+00
Ga    3.2485048952073670E+00    1.8656977238702250E+00    7.8066356839299322E+00
N    3.2466736165543630E+00   -4.5184026528026456E-03    8.4118251184783368E+00
Ga    3.2468572834493359E+00   -3.2135590293477022E-03    1.0408906421441012E+01
N    3.2485300779355555E+00    1.8679390584138680E+00    1.1014643237380259E+01
Ga    3.2438585890386356E+00    1.8668397633710112E+00    1.3012277110539413E+01
N    3.2465950128009546E+00   -2.7743898168656432E-03    1.3626079841663662E+01
Ga    3.2527304604984004E+00   -9.3668282395870420E-04    1.5629353329569494E+01
N    3.2298577858734272E+00    1.8795522191021372E+00    1.6204863988000294E+01
Ga    3.2395217365089355E+00    1.8907989258755924E+00    1.8272009424034337E+01
N    3.2397222416776610E+00   -5.5938466035205673E-03    1.8576722964746260E+01
Ga    1.6265505312076012E+00    2.8025251365820751E+00    2.7985315624830814E-01
N    1.6352305242778564E+00    4.6714464717095812E+00    5.6638828480477599E-01
Ga    1.6072570715102841E+00    4.6864139064550683E+00    2.5968769710200554E+00
N    1.6269415251643853E+00    2.8004503940313645E+00    3.1883008123628644E+00
Ga    1.6275593442645651E+00    2.8012192717830295E+00    5.1992519651734259E+00
N    1.6345918839269187E+00    4.6710873946321918E+00    5.8072804622016223E+00
Ga    1.6328714047678774E+00    4.6706132556852227E+00    7.8068400326880818E+00
N    1.6273986729480929E+00    2.7997994866033129E+00    8.4107257933142581E+00
Ga    1.6269966836197471E+00    2.8009037028394137E+00    1.0407138285416400E+01
N    1.6271637887229427E+00    4.6716995106656167E+00    1.1012334960939897E+01
Ga    1.6206491114745578E+00    4.6720924903719609E+00    1.3007673673192373E+01
N    1.6215376710756846E+00    2.8026241374320313E+00    1.3618806150149988E+01
Ga    1.6194163048941850E+00    2.8033860800213035E+00    1.5625668117098481E+01
N    1.6347986893476412E+00    4.6780608443257679E+00    1.6213414985639979E+01
Ga    1.6482688761240998E+00    4.6738351546363566E+00    1.8296171193152290E+01
N    1.6363089448168153E+00    2.8127625022882499E+00    1.8748791867882080E+01
Ga    9.7104070740050685E-03    5.6075070841139594E+00   -5.8644184946613831E-01
N    1.2258655125021880E-02    7.4809766014837891E+00    5.6618979818117143E-01
Ga    1.2412993754218452E-02    7.4482687550011155E+00    2.5965178177426216E+00
N    7.8270739692706346E-03    5.6044503654783915E+00    3.2293484957586633E+00
Ga    8.6367282453062837E-03    5.6056410895376327E+00    5.2198519288719467E+00
N    1.2590168928779068E-02    7.4800980715543206E+00    5.8068800435841927E+00
Ga    1.2498236695586782E-02    7.4773608865620691E+00    7.8059945628792864E+00
N    8.2172422641527808E-03    5.6046547271989819E+00    8.4069044392397902E+00
Ga    8.2507542372345765E-03    5.6068015287355628E+00    1.0404362331185556E+01
N    1.2396491584510465E-02    7.4765284754683474E+00    1.1015988848034921E+01
Ga    1.1265153392514616E-02    7.4778785321846657E+00    1.3015214916446991E+01
N    6.9052368624834349E-03    5.6115539139182591E+00    1.3635879162005946E+01
Ga    5.0551844189282219E-03    5.6215989037648386E+00    1.5647800974627454E+01
N    9.7650561875133757E-03    7.4900745014345649E+00    1.6230319918558749E+01
Ga    2.5051822570307070E-02    7.4703108602817503E+00    1.8299600621333553E+01
N    1.3356304171185659E-02    5.5875843043360778E+00    1.8660404298128597E+01
Ga    6.4925549056629572E+00   -2.6208916531153667E-03    2.8008506570964781E-01
N    6.4998071357060034E+00    1.8683273647935470E+00    5.6495904380503226E-01
Ga    6.4729560400813675E+00    1.8815788402426821E+00    2.5978342008171671E+00
N    6.4931953684351376E+00   -4.3226273558600800E-03    3.1874608073581592E+00
Ga    6.4937874750606381E+00   -3.7347098879293057E-03    5.1983311646244941E+00
N    6.5001518375053244E+00    1.8664592920405965E+00    5.8070251742590084E+00
Ga    6.4988191728845708E+00    1.8652686601458301E+00    7.8064659726731698E+00
N    6.4924976841950626E+00   -4.6104010937057993E-03    8.4127100169457787E+00
Ga    6.4931120438254277E+00   -3.5078753745665689E-03    1.0409785741030186E+01
N    6.4992002067634864E+00    1.8683744116843697E+00    1.1014155705094542E+01
Ga    6.5012827871610970E+00    1.8677011362027802E+00    1.3012499002295792E+01
N    6.4893105366305965E+00   -2.5688373298651005E-03    1.3625878130876561E+01
Ga    6.4791898744689558E+00   -6.6265741929652476E-03    1.5634017371345411E+01
N    6.5114197271464533E+00    1.8764382462239872E+00    1.6209881682071963E+01
Ga    6.5241855140166303E+00    1.8879660055383847E+00    1.8280550151390734E+01
N    6.5082423420833981E+00   -4.5391082567394483E-03    1.8584266292147589E+01
Ga    4.8753588958385148E+00    2.8026308518148322E+00   -5.5815671790100241E-01
N    4.8784497734863264E+00    4.6751559809358785E+00    5.6432550183333618E-01
Ga    4.8774929857490301E+00    4.6440608419714602E+00    2.5972965645500228E+00
N    4.8736079315744556E+00    2.8007503631533623E+00    3.2294256315251779E+00
Ga    4.8742841858039876E+00    2.8012697627256280E+00    5.2211992201506217E+00
N    4.8783339204318876E+00    4.6755801780575448E+00    5.8094171956929959E+00
Ga    4.8779429992944614E+00    4.6728884877972039E+00    7.8098565666114341E+00
N    4.8739980191192087E+00    2.7983231944886047E+00    8.4087055128266517E+00
Ga    4.8739042313195400E+00    2.7983014103563453E+00    1.0407501557941277E+01
N    4.8782847181290361E+00    4.6682459306566777E+00    1.1011502940317698E+01
Ga    4.8768159117594996E+00    4.6636306746157850E+00    1.3006738552338668E+01
N    4.8722505588151748E+00    2.7867196901886517E+00    1.3615838180828492E+01
Ga    4.8708665255310049E+00    2.7796691517855749E+00    1.5616808080748857E+01
N    4.8720470237419358E+00    4.6718819733834813E+00    1.6117941781504722E+01
Ga    4.8818684439351419E+00    4.6863288216925101E+00    1.8155739437018816E+01
N    4.8753650410694425E+00    2.8142365363671913E+00    1.8574321576630627E+01
Ga    3.2546571001635076E+00    5.6057934904920428E+00    2.7868700028619348E-01
N    3.2552480280534581E+00    7.4752148269633922E+00    5.6496668582914555E-01
Ga    3.2829899849280122E+00    7.4901450397475884E+00    2.5947950858152669E+00
N    3.2552501958109485E+00    5.6049854913001944E+00    3.1884484584446531E+00
Ga    3.2557889630850241E+00    5.6059211603610954E+00    5.1996914220990860E+00
N    3.2565096402246301E+00    7.4750033374268057E+00    5.8092153694592303E+00
Ga    3.2568771863681834E+00    7.4740088690427360E+00    7.8087444554731498E+00
N    3.2544943204382575E+00    5.6036066580033284E+00    8.4148878416420825E+00
Ga    3.2546022096476013E+00    5.6045348727401301E+00    1.0413242851748816E+01
N    3.2597736073101857E+00    7.4786572886999219E+00    1.1013749359154307E+01
Ga    3.2574257226405785E+00    7.4822931276697604E+00    1.3011119445224663E+01
N    3.2490936238113775E+00    5.6027205225610697E+00    1.3587609706752010E+01
Ga    3.2432962018356819E+00    5.6076848736008769E+00    1.5580527898652347E+01
N    3.2652679279710131E+00    7.4749955958041632E+00    1.6160242548819831E+01
Ga    3.2850904281328299E+00    7.4899448750394848E+00    1.8208467727406184E+01
N    3.2742124225742271E+00    5.6140721288444109E+00    1.8606851915996373E+01
     &END COORD
     &KIND N
       BASIS_SET DZVP-MOLOPT-SR-GTH
       POTENTIAL GTH-PBE-q5
       &POTENTIAL
2 3
0.2837905100000000E+00 2 -0.1241522559000000E+02  0.1868095920000000E+01
2
0.2554050000000000E+00 1  0.1363026257000000E+02
0.2454945300000000E+00 0
       &END POTENTIAL
     &END KIND
     &KIND Ga
       BASIS_SET DZVP-MOLOPT-SR-GTH
       POTENTIAL GTH-PBE-q13
       &POTENTIAL
2 1 10
0.4900000000000000E+00 0
3
0.4167772300000000E+00 3  0.1047568975000000E+02 -0.4921768140000000E+01  0.8707055900000000E+00
0.7770178090000000E+01 -0.2248152160000000E+01
0.1784415450000000E+01
0.5696265200000000E+00 2  0.1777985340000000E+01  0.1958597600000000E+00
-0.2317443900000000E+00
0.2381265000000000E+00 1 -0.1624868022000000E+02
       &END POTENTIAL
     &END KIND
     &TOPOLOGY
       COORD_FILE_NAME 334-native.xyz
       COORD_FILE_FORMAT  XYZ
       NUMBER_OF_ATOMS  144
       MULTIPLE_UNIT_CELL  1 1 1
     &END TOPOLOGY
   &END SUBSYS
 &END FORCE_EVAL
