 # Version information for this restart file 
 # current date 2019-05-16 04:01:10.596
 # current working dir /lustre03/project/6004141/rzk/GaN-carbene/00-Surface/00-Preoptimization/334-native/Trial4
 # Program compiled at                              Sun Apr  7 00:48:11 EDT 2019
 # Program compiled on                          beluga2.int.ets1.calculquebec.ca
 # Program compiled for                        Beluga-Linux-x86-64-intel-openmpi
 # Source code revision number                                         svn:18619
 &GLOBAL
   PRINT_LEVEL  MEDIUM
   PROJECT_NAME TEST
   RUN_TYPE  CELL_OPT
 &END GLOBAL
 &MOTION
   &CELL_OPT
     MAX_ITER  100
     STEP_START_VAL  61
     EXTERNAL_PRESSURE     1.0000000000000000E+00
     KEEP_ANGLES  T
     KEEP_SYMMETRY  T
     CONSTRAINT  Z
     PRESSURE_TOLERANCE     1.0000000000000000E+02
   &END CELL_OPT
 &END MOTION
 &FORCE_EVAL
   METHOD  QS
   STRESS_TENSOR  ANALYTICAL
   &DFT
     BASIS_SET_FILE_NAME BASIS_MOLOPT
     POTENTIAL_FILE_NAME GTH_POTENTIALS
     &SCF
       MAX_SCF  100
       EPS_SCF     5.0000000000000004E-06
       &OT  T
         PRECONDITIONER  FULL_ALL
       &END OT
       &OUTER_SCF  T
         OPTIMIZER  NONE
         EPS_SCF     5.0000000000000004E-06
         MAX_SCF  10
       &END OUTER_SCF
       &PRINT
         &RESTART  OFF
           BACKUP_COPIES  1
           &EACH
             JUST_ENERGY  0
             QS_SCF  0
             MD  20
           &END EACH
         &END RESTART
       &END PRINT
     &END SCF
     &ALMO_SCF
       EPS_FILTER     9.9999999999999994E-12
       ALMO_SCF_GUESS  ATOMIC
       MO_OVERLAP_INV_ALG  DENSE_CHOLESKY
       ALMO_EXTRAPOLATION_ORDER  4
       XALMO_EXTRAPOLATION_ORDER  4
       ALMO_ALGORITHM  SKIP
       XALMO_TRIAL_WF  SIMPLE
       DELOCALIZE_METHOD  XALMO_SCF
       XALMO_R_CUTOFF_FACTOR     1.8000000000000000E+00
       &ALMO_OPTIMIZER_DIIS
         MAX_ITER  100
         EPS_ERROR     1.0000000000000001E-05
         N_DIIS  5
       &END ALMO_OPTIMIZER_DIIS
       &ALMO_OPTIMIZER_PCG
         MAX_ITER  50
         EPS_ERROR     1.0000000000000001E-05
         LIN_SEARCH_EPS_ERROR     5.0000000000000003E-02
         LIN_SEARCH_STEP_SIZE_GUESS     5.0000000000000001E-03
         CONJUGATOR  DAI_YUAN
         MAX_ITER_OUTER_LOOP  10
       &END ALMO_OPTIMIZER_PCG
       &XALMO_OPTIMIZER_PCG
         MAX_ITER  1000
         EPS_ERROR     1.0000000000000001E-05
         LIN_SEARCH_EPS_ERROR     1.0000000000000001E-01
         LIN_SEARCH_STEP_SIZE_GUESS     1.0000000000000000E-02
         CONJUGATOR  DAI_YUAN
         PRECOND_FILTER_THRESHOLD     1.0000000000000000E-03
         MAX_ITER_OUTER_LOOP  0
       &END XALMO_OPTIMIZER_PCG
       &MATRIX_ITERATE
         EPS_TARGET_FACTOR     1.0000000000000000E+01
       &END MATRIX_ITERATE
     &END ALMO_SCF
     &QS
       EPS_DEFAULT     1.0000000000000000E-14
       ALMO_SCF  F
       METHOD  GPW
     &END QS
     &MGRID
       NGRIDS  5
       CUTOFF     1.2000000000000000E+03
     &END MGRID
     &XC
       DENSITY_CUTOFF     1.0000000000000000E-10
       GRADIENT_CUTOFF     1.0000000000000000E-10
       TAU_CUTOFF     1.0000000000000000E-10
       &XC_FUNCTIONAL  NO_SHORTCUT
         &PBE  T
         &END PBE
       &END XC_FUNCTIONAL
       &VDW_POTENTIAL
         POTENTIAL_TYPE  PAIR_POTENTIAL
         &PAIR_POTENTIAL
           R_CUTOFF     1.0000000000000002E+01
           TYPE  DFTD3
           PARAMETER_FILE_NAME dftd3.dat
           REFERENCE_FUNCTIONAL PBE
           EPS_CN     9.9999999999999995E-07
           CALCULATE_C9_TERM  T
           REFERENCE_C9_TERM  T
           LONG_RANGE_CORRECTION  F
           VERBOSE_OUTPUT  F
         &END PAIR_POTENTIAL
       &END VDW_POTENTIAL
     &END XC
   &END DFT
   &SUBSYS
     &CELL
       A     9.7465504993680323E+00    0.0000000000000000E+00    0.0000000000000000E+00
       B    -4.8524736588745956E+00    8.4047309195604374E+00    0.0000000000000000E+00
       C     0.0000000000000000E+00    0.0000000000000000E+00    3.0744000000000000E+01
       MULTIPLE_UNIT_CELL  1 1 1
       &CELL_REF
         A     9.5580000000000016E+00    0.0000000000000000E+00    0.0000000000000000E+00
         B    -4.7790000000000008E+00    8.2774708093716640E+00    0.0000000000000000E+00
         C     0.0000000000000000E+00    0.0000000000000000E+00    3.0744000000000000E+01
         MULTIPLE_UNIT_CELL  1 1 1
       &END CELL_REF
     &END CELL
     &COORD
Ga   -1.5724024041721401E-03   -2.0683669793695155E-03   -5.8154850280331927E-01
N    6.6017409509190389E-03    1.8698055891426926E+00    5.6392212047843449E-01
Ga    5.4487477307884110E-03    1.8387137425471309E+00    2.5959879413770452E+00
N   -1.1090783106702227E-03   -2.6656389641296946E-03    3.2311215763518555E+00
Ga    3.4598242777491591E-04   -5.5511001599878936E-04    5.2219458349354060E+00
N    6.1499839436507282E-03    1.8728880745689263E+00    5.8084390439142437E+00
Ga    6.1993491619663074E-03    1.8711840137124378E+00    7.8073397836318339E+00
N    7.2462216613223900E-04   -1.7076282936692097E-03    8.4079917532083144E+00
Ga    1.9293711627054642E-03   -7.0199310622413857E-04    1.0405818549756809E+01
N    7.8878197624150225E-03    1.8692136994281532E+00    1.1012116376752305E+01
Ga    5.2788500488933380E-03    1.8694442814785504E+00    1.3008620360138110E+01
N    4.8008195734253618E-04    4.1867489700315154E-05    1.3622421322304172E+01
Ga   -1.6646152894400326E-02   -3.3092928728855895E-03    1.5631180273905333E+01
N   -6.2249588145600237E-03    1.8812828601713671E+00    1.6224000213385327E+01
Ga    2.5185453433483895E-02    1.9091311922621186E+00    1.8307301460261055E+01
N    6.8034448727245121E-03    1.4924995649607547E-02    1.8654442270561503E+01
Ga   -1.6153045114297910E+00    2.8003799618059744E+00    2.7871132480753186E-01
N   -1.6176487079315116E+00    4.6685642866818169E+00    5.6343145007241335E-01
Ga   -1.5882533071626450E+00    4.6836896380006214E+00    2.5931819123718030E+00
N   -1.6180347628159695E+00    2.7990529288235138E+00    3.1869579961609027E+00
Ga   -1.6166209056369711E+00    2.8010336620391829E+00    5.1986680202177409E+00
N   -1.6133768609825436E+00    4.6698434267733742E+00    5.8077271579887704E+00
Ga   -1.6123891648803690E+00    4.6701211866912855E+00    7.8069812711497413E+00
N   -1.6171095755747720E+00    2.8007300403550848E+00    8.4123088098531422E+00
Ga   -1.6159209717939407E+00    2.8012185753272068E+00    1.0409021992251239E+01
N   -1.6076762607848707E+00    4.6724638088872519E+00    1.1013573561620500E+01
Ga   -1.6076151489254549E+00    4.6705265170830899E+00    1.3009931862149408E+01
N   -1.6188485960683969E+00    2.7996510831981807E+00    1.3610449423247520E+01
Ga   -1.6326863367065521E+00    2.7897385165033786E+00    1.5613228963935379E+01
N   -1.6256959650995375E+00    4.6699422170965779E+00    1.6208473299092887E+01
Ga   -1.6067894845589656E+00    4.6808676234171447E+00    1.8284128791325251E+01
N   -1.6153475961266983E+00    2.8032839870047339E+00    1.8702341513691568E+01
Ga   -3.2355309397622318E+00    5.6033748431423431E+00    2.7624972633223527E-01
N   -3.2266868792529935E+00    7.4719183217959548E+00    5.6569351443869698E-01
Ga   -3.2551276168535437E+00    7.4844766199146342E+00    2.5974654810091020E+00
N   -3.2357080574882726E+00    5.6000272436231793E+00    3.1885968094589896E+00
Ga   -3.2343878091167726E+00    5.6021578790102682E+00    5.1995313542765746E+00
N   -3.2254022188851978E+00    7.4711887033358533E+00    5.8072191425870363E+00
Ga   -3.2266236963005723E+00    7.4705366310599155E+00    7.8064018673172217E+00
N   -3.2348388361607370E+00    5.6013408447821638E+00    8.4140820716754234E+00
Ga   -3.2344564431413247E+00    5.6015564691789201E+00    1.0411731347483174E+01
N   -3.2284628760307030E+00    7.4731378224957270E+00    1.1014893738048210E+01
Ga   -3.2314695503667950E+00    7.4715816250594358E+00    1.3012053633317258E+01
N   -3.2365427415571024E+00    5.5961397693755872E+00    1.3606209997742532E+01
Ga   -3.2506074995776313E+00    5.5846032263012910E+00    1.5603490681004088E+01
N   -3.2439933837532933E+00    7.4571649645319589E+00    1.6201523528232883E+01
Ga   -3.2241858721977725E+00    7.4913684373879237E+00    1.8271792064566114E+01
N   -3.2431247540912489E+00    5.6020183355266813E+00    1.8629180038142820E+01
Ga    3.2488962088527034E+00   -3.7516222410034217E-03    2.8322375999598537E-01
N    3.2504221079431823E+00    1.8680411402745589E+00    5.6487434222866140E-01
Ga    3.2767005379734422E+00    1.8822357057139043E+00    2.5990617496778889E+00
N    3.2476408174357991E+00   -2.8230519522468587E-03    3.1868805491005983E+00
Ga    3.2491269401126992E+00   -8.5072251027036106E-04    5.1981922407062990E+00
N    3.2526050127156818E+00    1.8681811075055097E+00    5.8064422175078745E+00
Ga    3.2533226498410048E+00    1.8678006592579510E+00    7.8057694181400690E+00
N    3.2489478863560999E+00   -1.8559418482180466E-03    8.4111264839765312E+00
Ga    3.2490007250174968E+00   -1.8833563938031907E-03    1.0407794011246123E+01
N    3.2537184583843781E+00    1.8681384204687566E+00    1.1011887196786917E+01
Ga    3.2478043165341210E+00    1.8612041006891062E+00    1.3008450050990636E+01
N    3.2442583089935431E+00   -7.1827177110236054E-03    1.3626157400166910E+01
Ga    3.2393923704375815E+00   -1.3870557106004993E-02    1.5632777316062402E+01
N    3.2229262283334692E+00    1.8644458482401218E+00    1.6211621257583175E+01
Ga    3.2567844756591580E+00    1.8935805661627079E+00    1.8285144029637561E+01
N    3.2528402694995333E+00   -4.5750862659365409E-03    1.8621161734734176E+01
Ga    1.6281532416828772E+00    2.8015288953673312E+00    2.7804513308169126E-01
N    1.6426071519937986E+00    4.6692917772264675E+00    5.6581379588457947E-01
Ga    1.6118768113998785E+00    4.6829903203201706E+00    2.5951301750658264E+00
N    1.6293403249874612E+00    2.7987785828765510E+00    3.1887554852036035E+00
Ga    1.6307505881450017E+00    2.8009765914656577E+00    5.1999395239899115E+00
N    1.6408793937479240E+00    4.6707078249430367E+00    5.8063682183913050E+00
Ga    1.6394293467483867E+00    4.6708574532088614E+00    7.8058095139386499E+00
N    1.6316084887132734E+00    2.8008854908316971E+00    8.4100430299788993E+00
Ga    1.6316276749347685E+00    2.8008157796559479E+00    1.0406422219915234E+01
N    1.6352686010912565E+00    4.6714887994215077E+00    1.1010624190074537E+01
Ga    1.6292877977737830E+00    4.6683453201025085E+00    1.3005083900680628E+01
N    1.6282583861488518E+00    2.7995178169504644E+00    1.3613280555668348E+01
Ga    1.6161418887048440E+00    2.7938230237164139E+00    1.5616104521538064E+01
N    1.6358095967332047E+00    4.6696807102385005E+00    1.6208024392699532E+01
Ga    1.6571024599654856E+00    4.6863594406409907E+00    1.8285209071348810E+01
N    1.6404052852895070E+00    2.8099359576444773E+00    1.8729547617825279E+01
Ga    1.5773658878095436E-02    5.6038559968088668E+00   -5.9475314650058708E-01
N    2.0367627825202888E-02    7.4754440869675669E+00    5.6665280280597508E-01
Ga    1.9809416784245519E-02    7.4425470493161621E+00    2.5955498639765788E+00
N    1.2365749023162892E-02    5.5999375784523533E+00    3.2277010477495152E+00
Ga    1.3895591056879191E-02    5.6024536134035641E+00    5.2184618207029656E+00
N    2.0082634205667752E-02    7.4760193142110856E+00    5.8067773028614358E+00
Ga    2.0211946108053866E-02    7.4741378660572728E+00    7.8055903711446613E+00
N    1.4070491279242075E-02    5.6025463071317585E+00    8.4073574952296486E+00
Ga    1.4247201837083764E-02    5.6047698249867643E+00    1.0404487621533898E+01
N    1.9983392130196648E-02    7.4730743975695724E+00    1.1015715566588806E+01
Ga    1.6539558633914469E-02    7.4704384718432166E+00    1.3014496748922175E+01
N    1.2873381870742273E-02    5.6024401178350312E+00    1.3630978103328516E+01
Ga    1.7867724368005370E-03    5.5999335342890202E+00    1.5639699338364263E+01
N    1.7331333478823815E-02    7.4801753938662126E+00    1.6208672561570292E+01
Ga    3.3935409020371669E-02    7.4773755052968616E+00    1.8270535144260776E+01
N    1.4440014837233214E-02    5.5879730906872807E+00    1.8662300275343295E+01
Ga    6.4964754723876839E+00   -3.1368826355642363E-03    2.7967612044565959E-01
N    6.5067837842120042E+00    1.8685238215753159E+00    5.6426123713881637E-01
Ga    6.4792842323856981E+00    1.8815090446483838E+00    2.5986053400277740E+00
N    6.4964814861612723E+00   -2.2205404232762088E-03    3.1898383791996245E+00
Ga    6.4980582776029596E+00   -4.7234359064682416E-04    5.2007364040949922E+00
N    6.5073522918699913E+00    1.8689504711779303E+00    5.8077917540390427E+00
Ga    6.5060910204203255E+00    1.8681017190860065E+00    7.8074491886026385E+00
N    6.4979097404251576E+00   -2.0647095882216130E-03    8.4115469463397794E+00
Ga    6.4988545627589822E+00   -1.8639111121848872E-03    1.0409097352413289E+01
N    6.5056614707022886E+00    1.8691119394764946E+00    1.1011194767679685E+01
Ga    6.5053287051734481E+00    1.8639193050231129E+00    1.3008108796452024E+01
N    6.4972449559095464E+00   -7.7135807220876217E-03    1.3610784168487289E+01
Ga    6.4849426276717423E+00   -1.8049373970553746E-02    1.5612193169881214E+01
N    6.5055093686269458E+00    1.8629744753023036E+00    1.6194638649821190E+01
Ga    6.5304602211119818E+00    1.8947006142845579E+00    1.8255555269548349E+01
N    6.5096616779616561E+00   -1.3348046255607230E-03    1.8597202630206851E+01
Ga    4.8802477941209119E+00    2.8001240476177141E+00   -5.5162157278001445E-01
N    4.8874016760905201E+00    4.6714584917555211E+00    5.6366539744407007E-01
Ga    4.8866161577408391E+00    4.6415969004187030E+00    2.5980025694447195E+00
N    4.8790672729803513E+00    2.7986732165643087E+00    3.2286031929348353E+00
Ga    4.8806420075319163E+00    2.8010956411382266E+00    5.2209847933961759E+00
N    4.8868175342178892E+00    4.6747409806549909E+00    5.8082903964827706E+00
Ga    4.8863737072155704E+00    4.6721417588348668E+00    7.8080564430424877E+00
N    4.8799545072454746E+00    2.7992386284276143E+00    8.4082332551800025E+00
Ga    4.8804539783491139E+00    2.7978193882683380E+00    1.0406693874263537E+01
N    4.8879730249085913E+00    4.6666113863491745E+00    1.1014673112979171E+01
Ga    4.8852366072898450E+00    4.6573099551494010E+00    1.3011895137352036E+01
N    4.8746593519703225E+00    2.7794359869185170E+00    1.3614548128663113E+01
Ga    4.8641258002406813E+00    2.7674968534298343E+00    1.5618259562833703E+01
N    4.8710319447830619E+00    4.6542650633965348E+00    1.6146838330877863E+01
Ga    4.8960641516475727E+00    4.6867446351522268E+00    1.8192827018360664E+01
N    4.8901792857340274E+00    2.8064105308280403E+00    1.8610978178532346E+01
Ga    3.2626976090341091E+00    5.6021165587748429E+00    2.8232819223961336E-01
N    3.2642922986189409E+00    7.4709055759644345E+00    5.6793490281032621E-01
Ga    3.2919105747019195E+00    7.4859410152185299E+00    2.5988902620448453E+00
N    3.2622605361330166E+00    5.6001634605964989E+00    3.1867710899056516E+00
Ga    3.2635768820957280E+00    5.6024229214313754E+00    5.1979418904543655E+00
N    3.2668661633092468E+00    7.4708519518093368E+00    5.8077442973281563E+00
Ga    3.2676812627564265E+00    7.4703124144128701E+00    7.8073087127986041E+00
N    3.2630345063980739E+00    5.6011804300643275E+00    8.4139776589296016E+00
Ga    3.2645535849367051E+00    5.6013630014691884E+00    1.0411626142574006E+01
N    3.2721157060582211E+00    7.4735872905289940E+00    1.1012306880669406E+01
Ga    3.2714346588453074E+00    7.4723511704097021E+00    1.3009311420307455E+01
N    3.2584553506771736E+00    5.5939211808501392E+00    1.3594555656216439E+01
Ga    3.2484626893585711E+00    5.5871587431179215E+00    1.5589080371717428E+01
N    3.2614760665098101E+00    7.4539243713801202E+00    1.6179350660819001E+01
Ga    3.2970186540575330E+00    7.4985352798036278E+00    1.8236756259535763E+01
N    3.2804703624996305E+00    5.6111729612621835E+00    1.8625310828430688E+01
     &END COORD
     &KIND N
       BASIS_SET DZVP-MOLOPT-SR-GTH
       POTENTIAL GTH-PBE-q5
       &POTENTIAL
 2 3
  0.2837905100000000E+00 2 -0.1241522559000000E+02  0.1868095920000000E+01
 2
  0.2554050000000000E+00 1  0.1363026257000000E+02
  0.2454945300000000E+00 0
         # Potential name:  GTH-PBE-Q5  for symbol:  N
         # Potential read from the potential filename: GTH_POTENTIALS
       &END POTENTIAL
     &END KIND
     &KIND Ga
       BASIS_SET DZVP-MOLOPT-SR-GTH
       POTENTIAL GTH-PBE-q13
       &POTENTIAL
 2 1 10
  0.4900000000000000E+00 0
 3
  0.4167772300000000E+00 3  0.1047568975000000E+02 -0.4921768140000000E+01  0.8707055900000000E+00
  0.7770178090000000E+01 -0.2248152160000000E+01
  0.1784415450000000E+01
  0.5696265200000000E+00 2  0.1777985340000000E+01  0.1958597600000000E+00
 -0.2317443900000000E+00
  0.2381265000000000E+00 1 -0.1624868022000000E+02
         # Potential name:  GTH-PBE-Q13  for symbol:  GA
         # Potential read from the potential filename: GTH_POTENTIALS
       &END POTENTIAL
     &END KIND
     &TOPOLOGY
       COORD_FILE_NAME 334-native.xyz
       COORD_FILE_FORMAT  XYZ
       NUMBER_OF_ATOMS  144
       MULTIPLE_UNIT_CELL  1 1 1
     &END TOPOLOGY
   &END SUBSYS
 &END FORCE_EVAL
