 # Version information for this restart file 
 # current date 2019-05-16 02:43:02.864
 # current working dir /lustre03/project/6004141/rzk/GaN-carbene/00-Surface/00-Preoptimization/334-native/Trial4
 # Program compiled at                              Sun Apr  7 00:48:11 EDT 2019
 # Program compiled on                          beluga2.int.ets1.calculquebec.ca
 # Program compiled for                        Beluga-Linux-x86-64-intel-openmpi
 # Source code revision number                                         svn:18619
 &GLOBAL
   PRINT_LEVEL  MEDIUM
   PROJECT_NAME TEST
   RUN_TYPE  CELL_OPT
 &END GLOBAL
 &MOTION
   &CELL_OPT
     MAX_ITER  100
     STEP_START_VAL  22
     EXTERNAL_PRESSURE     1.0000000000000000E+00
     KEEP_ANGLES  T
     KEEP_SYMMETRY  T
     CONSTRAINT  Z
     PRESSURE_TOLERANCE     1.0000000000000000E+02
   &END CELL_OPT
 &END MOTION
 &FORCE_EVAL
   METHOD  QS
   STRESS_TENSOR  ANALYTICAL
   &DFT
     BASIS_SET_FILE_NAME BASIS_MOLOPT
     POTENTIAL_FILE_NAME GTH_POTENTIALS
     &SCF
       MAX_SCF  100
       EPS_SCF     5.0000000000000004E-06
       &OT  T
         PRECONDITIONER  FULL_ALL
       &END OT
       &OUTER_SCF  T
         OPTIMIZER  NONE
         EPS_SCF     5.0000000000000004E-06
         MAX_SCF  10
       &END OUTER_SCF
       &PRINT
         &RESTART  OFF
           BACKUP_COPIES  1
           &EACH
             JUST_ENERGY  0
             QS_SCF  0
             MD  20
           &END EACH
         &END RESTART
       &END PRINT
     &END SCF
     &ALMO_SCF
       EPS_FILTER     9.9999999999999994E-12
       ALMO_SCF_GUESS  ATOMIC
       MO_OVERLAP_INV_ALG  DENSE_CHOLESKY
       ALMO_EXTRAPOLATION_ORDER  4
       XALMO_EXTRAPOLATION_ORDER  4
       ALMO_ALGORITHM  SKIP
       XALMO_TRIAL_WF  SIMPLE
       DELOCALIZE_METHOD  XALMO_SCF
       XALMO_R_CUTOFF_FACTOR     1.8000000000000000E+00
       &ALMO_OPTIMIZER_DIIS
         MAX_ITER  100
         EPS_ERROR     1.0000000000000001E-05
         N_DIIS  5
       &END ALMO_OPTIMIZER_DIIS
       &ALMO_OPTIMIZER_PCG
         MAX_ITER  50
         EPS_ERROR     1.0000000000000001E-05
         LIN_SEARCH_EPS_ERROR     5.0000000000000003E-02
         LIN_SEARCH_STEP_SIZE_GUESS     5.0000000000000001E-03
         CONJUGATOR  DAI_YUAN
         MAX_ITER_OUTER_LOOP  10
       &END ALMO_OPTIMIZER_PCG
       &XALMO_OPTIMIZER_PCG
         MAX_ITER  1000
         EPS_ERROR     1.0000000000000001E-05
         LIN_SEARCH_EPS_ERROR     1.0000000000000001E-01
         LIN_SEARCH_STEP_SIZE_GUESS     1.0000000000000000E-02
         CONJUGATOR  DAI_YUAN
         PRECOND_FILTER_THRESHOLD     1.0000000000000000E-03
         MAX_ITER_OUTER_LOOP  0
       &END XALMO_OPTIMIZER_PCG
       &MATRIX_ITERATE
         EPS_TARGET_FACTOR     1.0000000000000000E+01
       &END MATRIX_ITERATE
     &END ALMO_SCF
     &QS
       EPS_DEFAULT     1.0000000000000000E-14
       ALMO_SCF  F
       METHOD  GPW
     &END QS
     &MGRID
       NGRIDS  5
       CUTOFF     1.2000000000000000E+03
     &END MGRID
     &XC
       DENSITY_CUTOFF     1.0000000000000000E-10
       GRADIENT_CUTOFF     1.0000000000000000E-10
       TAU_CUTOFF     1.0000000000000000E-10
       &XC_FUNCTIONAL  NO_SHORTCUT
         &PBE  T
         &END PBE
       &END XC_FUNCTIONAL
       &VDW_POTENTIAL
         POTENTIAL_TYPE  PAIR_POTENTIAL
         &PAIR_POTENTIAL
           R_CUTOFF     1.0000000000000002E+01
           TYPE  DFTD3
           PARAMETER_FILE_NAME dftd3.dat
           REFERENCE_FUNCTIONAL PBE
           EPS_CN     9.9999999999999995E-07
           CALCULATE_C9_TERM  T
           REFERENCE_C9_TERM  T
           LONG_RANGE_CORRECTION  F
           VERBOSE_OUTPUT  F
         &END PAIR_POTENTIAL
       &END VDW_POTENTIAL
     &END XC
   &END DFT
   &SUBSYS
     &CELL
       A     9.7218417875258840E+00    0.0000000000000000E+00    0.0000000000000000E+00
       B    -4.8459300461242432E+00    8.3933970498117816E+00    0.0000000000000000E+00
       C     0.0000000000000000E+00    0.0000000000000000E+00    3.0744000000000000E+01
       MULTIPLE_UNIT_CELL  1 1 1
       &CELL_REF
         A     9.5580000000000016E+00    0.0000000000000000E+00    0.0000000000000000E+00
         B    -4.7790000000000008E+00    8.2774708093716640E+00    0.0000000000000000E+00
         C     0.0000000000000000E+00    0.0000000000000000E+00    3.0744000000000000E+01
         MULTIPLE_UNIT_CELL  1 1 1
       &END CELL_REF
     &END CELL
     &COORD
Ga    3.5914863921292367E-02   -1.2076293047377239E-01   -4.2672225185446422E-01
N    1.7585776246354251E-03    1.8194509457558694E+00    5.1145362571355324E-01
Ga    1.5005203391687491E-02    1.8447512142507994E+00    2.6093544230018795E+00
N    1.2208123387795866E-03   -3.8535210382472712E-03    3.2084458912707214E+00
Ga   -3.1512817018333737E-03   -7.4716181480237540E-03    5.2308282466418765E+00
N    2.3673192462760253E-03    1.8665915805695958E+00    5.7866337947721194E+00
Ga    4.9260412260429959E-03    1.8734710463132282E+00    7.8116278804347399E+00
N    3.4148867944518661E-03    4.0842020845575601E-03    8.4075022121871488E+00
Ga    3.6412280622726684E-04   -1.6211900097137758E-03    1.0437792304229605E+01
N    3.5458817799133148E-03    1.8629460925329699E+00    1.1052053586227000E+01
Ga    3.1776874951985157E-03    1.8790386032877988E+00    1.3064792057168766E+01
N    8.0016692517037233E-03    1.8294086900279855E-02    1.3664482395302969E+01
Ga   -2.1334963719610533E-02    2.5712776301568364E-02    1.5672353945836996E+01
N   -9.3202421299265741E-03    1.9293683062791316E+00    1.6184341072505013E+01
Ga   -3.2998304166354714E-02    1.8886057254027859E+00    1.8264497162067048E+01
N    4.3967811291733820E-02    1.1914964640572148E-02    1.8602853270675617E+01
Ga   -1.5792518097505408E+00    2.8227785728030854E+00    1.5302126141887240E-01
N   -1.6908883878836070E+00    4.6791403878217492E+00    5.8720679016922095E-01
Ga   -1.6268812813905718E+00    4.6881428592372458E+00    2.6293936117790500E+00
N   -1.5733242887301961E+00    2.8216870268049026E+00    3.2016905577783219E+00
Ga   -1.6059955374806381E+00    2.7969590341771098E+00    5.1999058852301605E+00
N   -1.6139138612965944E+00    4.6563746851320529E+00    5.7824305093362751E+00
Ga   -1.6081110430519565E+00    4.6618200465408055E+00    7.8082550338884298E+00
N   -1.6141334158005693E+00    2.8009030486874025E+00    8.4200567992293696E+00
Ga   -1.6164455624738465E+00    2.7970781111435907E+00    1.0453157756888336E+01
N   -1.6091900420091743E+00    4.6639142388991059E+00    1.1056844141896155E+01
Ga   -1.5895481984308588E+00    4.6772876508911558E+00    1.3064283692900670E+01
N   -1.6208219831014337E+00    2.8152839045903009E+00    1.3637683878815041E+01
Ga   -1.6413122093765451E+00    2.8286097962267385E+00    1.5637173123200691E+01
N   -1.6319335072538423E+00    4.7171962565568606E+00    1.6177471825324421E+01
Ga   -1.6363666643072250E+00    4.6456599770920279E+00    1.8259886983563955E+01
N   -1.6365401072673980E+00    2.7684428818634124E+00    1.8698647169256283E+01
Ga   -3.2439521835818104E+00    5.6595431214216925E+00    7.9969469073273694E-02
N   -3.1755302744807823E+00    7.4839057875413157E+00    6.1996495432433829E-01
Ga   -3.2181742167808283E+00    7.4859694456134216E+00    2.6048960938759302E+00
N   -3.2354094603946222E+00    5.6184594864102495E+00    3.2106167848220979E+00
Ga   -3.2363273898436176E+00    5.5947558534264461E+00    5.2299704761165753E+00
N   -3.2171440848984898E+00    7.4628194784077202E+00    5.7829296496882092E+00
Ga   -3.2179208054600119E+00    7.4660896142874744E+00    7.8071242448761238E+00
N   -3.2255799300390264E+00    5.5961204223876422E+00    8.4128868165358401E+00
Ga   -3.2309678467648313E+00    5.5903333884870658E+00    1.0449233857461552E+01
N   -3.2303967609962752E+00    7.4598858927991403E+00    1.1048434173576521E+01
Ga   -3.2336655187454579E+00    7.4741458023992600E+00    1.3055490181454452E+01
N   -3.2284719882001736E+00    5.6031100144008894E+00    1.3593588212503290E+01
Ga   -3.2476452211388045E+00    5.5698634435831575E+00    1.5566532567897411E+01
N   -3.2756042088934740E+00    7.4434393186451251E+00    1.6184263452183739E+01
Ga   -3.2237207441872444E+00    7.4404747683102599E+00    1.8259524184426041E+01
N   -3.2251427026968780E+00    5.5775573051267084E+00    1.8642576708585405E+01
Ga    3.2526117097520766E+00    6.4883912211944330E-03    2.6428362099932756E-01
N    3.1738991458894601E+00    1.8564548039100286E+00    5.3896365793038359E-01
Ga    3.2297214409997292E+00    1.8916168020481334E+00    2.6108106085034284E+00
N    3.2726835450613154E+00    1.3246850885252428E-02    3.1709127301665090E+00
Ga    3.2470677323205122E+00   -3.9671975874258931E-03    5.1817867093520782E+00
N    3.2355047632626932E+00    1.8637501743005025E+00    5.7578494334737478E+00
Ga    3.2449934791885227E+00    1.8690081031150618E+00    7.7971365769245029E+00
N    3.2455987429723412E+00    4.4839776032856802E-03    8.4111794288310300E+00
Ga    3.2393885596989898E+00   -1.9718158541578595E-03    1.0441087415788679E+01
N    3.2413367685384977E+00    1.8611338036162455E+00    1.1051161321913073E+01
Ga    3.2445442168300920E+00    1.8621643747691945E+00    1.3055950853015753E+01
N    3.2404569176900639E+00   -1.0888833178795250E-02    1.3642524457335577E+01
Ga    3.2278099656009980E+00   -1.5157462169126956E-02    1.5659056942973095E+01
N    3.1944939965512180E+00    1.8666768308097867E+00    1.6204338670054689E+01
Ga    3.2324349700218598E+00    1.8579775056903340E+00    1.8273810100526600E+01
N    3.2753334099980287E+00   -3.3926867783986667E-02    1.8634888398184764E+01
Ga    1.5552360978251523E+00    2.8252642736543812E+00    2.6750485198084067E-02
N    1.6590012273970256E+00    4.6629249000406068E+00    5.8506614654021649E-01
Ga    1.6397448768959340E+00    4.6874848998892631E+00    2.5997690961028868E+00
N    1.6134020282427926E+00    2.8204623210213140E+00    3.1744227350644061E+00
Ga    1.6121333018845374E+00    2.7981624885927516E+00    5.1897966700226466E+00
N    1.6201884057381855E+00    4.6552109082674002E+00    5.7854921201271718E+00
Ga    1.6260784850512282E+00    4.6629052784459688E+00    7.8134721437753818E+00
N    1.6275764824990804E+00    2.7996200223200320E+00    8.4158015823539820E+00
Ga    1.6255573441315569E+00    2.7968250375015873E+00    1.0445208496724147E+01
N    1.6284808398808492E+00    4.6637835435357387E+00    1.1050657872697535E+01
Ga    1.6361884865750764E+00    4.6778588577352647E+00    1.3046910565571215E+01
N    1.6349678303038224E+00    2.8097606826136485E+00    1.3604751652941259E+01
Ga    1.6404331389349254E+00    2.8080422394431386E+00    1.5578714166523131E+01
N    1.6612764142229370E+00    4.6499225423552506E+00    1.6178142464954504E+01
Ga    1.6277303467661488E+00    4.6518288825152858E+00    1.8245237325890745E+01
N    1.6271513900707801E+00    2.7782765857672906E+00    1.8625229800076962E+01
Ga   -1.7188756020029367E-02    5.4469728828604280E+00   -3.2156368862401818E-01
N    1.0824086027196445E-02    7.4225401276199738E+00    4.2549248843780380E-01
Ga    3.4633092826054833E-02    7.4483841368339370E+00    2.5930459278794848E+00
N    1.4126790135033018E-02    5.5970164718356505E+00    3.1708041132187246E+00
Ga    5.1319968236916138E-03    5.5838383985174680E+00    5.2000491320703963E+00
N    7.5530429012326677E-03    7.4496586937995470E+00    5.7710721186617251E+00
Ga    1.4462886224631252E-02    7.4614354301023447E+00    7.8025384136417681E+00
N    9.3823041351020105E-03    5.5954343353903688E+00    8.4135158706678972E+00
Ga    9.0804067902338307E-03    5.5916192338330388E+00    1.0442337152129575E+01
N    1.2393155033646538E-02    7.4577670004430034E+00    1.1043166020250387E+01
Ga    1.7670262778679578E-02    7.4612176597885052E+00    1.3047368474499462E+01
N    3.5109622886243301E-02    5.6002052292869768E+00    1.3652023420724229E+01
Ga    3.3671933051097842E-02    5.5955392873038390E+00    1.5649944741005877E+01
N    2.8899638721191490E-02    7.4564397054732616E+00    1.6187032972684264E+01
Ga    2.0665163793520208E-02    7.4370950126660231E+00    1.8273270539449427E+01
N    2.5772292153827349E-02    5.5511267966976590E+00    1.8647167968098163E+01
Ga    6.4359203942256968E+00    7.2280628224877866E-02    3.2453664671457674E-02
N    6.5454650752489369E+00    1.8885229667282817E+00    7.0737287361472034E-01
Ga    6.5175717329990794E+00    1.8948228298344547E+00    2.6553934602752371E+00
N    6.4820791279816747E+00    4.2853261441607726E-03    3.1817560616381777E+00
Ga    6.4715954263053579E+00   -3.7621184880592311E-03    5.1989259239188588E+00
N    6.4849916539883647E+00    1.8696354482361721E+00    5.7672692404340609E+00
Ga    6.4888447898430694E+00    1.8723024713892960E+00    7.8034923913938821E+00
N    6.4799599510418453E+00    6.5354876925797526E-03    8.4129974903895679E+00
Ga    6.4826710288207146E+00    1.0760105597674309E-04    1.0447675760062072E+01
N    6.4844155332661870E+00    1.8658147280136343E+00    1.1055202731097037E+01
Ga    6.4814161219554425E+00    1.8803760353182204E+00    1.3057706703638827E+01
N    6.4882934219992787E+00    3.5222659175185469E-03    1.3576972862004665E+01
Ga    6.4692233851429464E+00   -4.5930193484466772E-03    1.5539872646358191E+01
N    6.4492946072743704E+00    1.8590238044627860E+00    1.6134491241159175E+01
Ga    6.4637570878422990E+00    1.8516662237767876E+00    1.8169741928275918E+01
N    6.5075173059416649E+00   -1.4632953891058786E-02    1.8582823991844936E+01
Ga    4.8882319504536502E+00    2.6967082669112510E+00   -2.6884032774094363E-01
N    4.8736792315095609E+00    4.6777461187259499E+00    4.4747675819492660E-01
Ga    4.8946138535221237E+00    4.6738524428149839E+00    2.6291749382107068E+00
N    4.8635817448329703E+00    2.8111770817784096E+00    3.1748574126142755E+00
Ga    4.8601510081124424E+00    2.7888946932622578E+00    5.1813361272114395E+00
N    4.8708208956032557E+00    4.6453022922124196E+00    5.7900733881348136E+00
Ga    4.8744235020256363E+00    4.6567538695861224E+00    7.8173030255909239E+00
N    4.8680147991115001E+00    2.7932292797517069E+00    8.4161232635952956E+00
Ga    4.8648841704297050E+00    2.7894812576751544E+00    1.0446980260603830E+01
N    4.8691051482028591E+00    4.6546654429965484E+00    1.1049327517554520E+01
Ga    4.8753972415944729E+00    4.6439450130655002E+00    1.3051468146137871E+01
N    4.8551127427471705E+00    2.7910061549071110E+00    1.3637408389889783E+01
Ga    4.8234937589550997E+00    2.7664181573846660E+00    1.5628871981061462E+01
N    4.8904531218030387E+00    4.6399620715250975E+00    1.6156455634811973E+01
Ga    4.8631121380336513E+00    4.6778743035288510E+00    1.8206843701063885E+01
N    4.8907794017913329E+00    2.7907025924464666E+00    1.8593789685420809E+01
Ga    3.2326427721542466E+00    5.5883973389635120E+00    3.4854932443597642E-01
N    3.1972957062241254E+00    7.4619220737791556E+00    4.7174003206586740E-01
Ga    3.2605024220450058E+00    7.4905839641113694E+00    2.5663609506872755E+00
N    3.2708864940366191E+00    5.6128642393165640E+00    3.1807878151041185E+00
Ga    3.2513652166013851E+00    5.5907172287553264E+00    5.2370186482735370E+00
N    3.2431746165403172E+00    7.4614538390449949E+00    5.7868147074392180E+00
Ga    3.2513831585584820E+00    7.4675774137970148E+00    7.8093378989209938E+00
N    3.2523461952726773E+00    5.5961532152686768E+00    8.4090625928659612E+00
Ga    3.2516373714043030E+00    5.5918339690042709E+00    1.0448079392565250E+01
N    3.2594427734127973E+00    7.4597040775471166E+00    1.1048961222657004E+01
Ga    3.2788217283584005E+00    7.4784670117187408E+00    1.3056026338014297E+01
N    3.2718804038954716E+00    5.6016810823420071E+00    1.3620722956195458E+01
Ga    3.2892010199288295E+00    5.5939209298538666E+00    1.5619538022184571E+01
N    3.2016409230309404E+00    7.4755758386939561E+00    1.6154220120174376E+01
Ga    3.2801584183394938E+00    7.5032180672229440E+00    1.8223605926328563E+01
N    3.2721881965624973E+00    5.6128791524518515E+00    1.8597206353183243E+01
     &END COORD
     &KIND N
       BASIS_SET DZVP-MOLOPT-SR-GTH
       POTENTIAL GTH-PBE-q5
       &POTENTIAL
 2 3
  0.2837905100000000E+00 2 -0.1241522559000000E+02  0.1868095920000000E+01
 2
  0.2554050000000000E+00 1  0.1363026257000000E+02
  0.2454945300000000E+00 0
         # Potential name:  GTH-PBE-Q5  for symbol:  N
         # Potential read from the potential filename: GTH_POTENTIALS
       &END POTENTIAL
     &END KIND
     &KIND Ga
       BASIS_SET DZVP-MOLOPT-SR-GTH
       POTENTIAL GTH-PBE-q13
       &POTENTIAL
 2 1 10
  0.4900000000000000E+00 0
 3
  0.4167772300000000E+00 3  0.1047568975000000E+02 -0.4921768140000000E+01  0.8707055900000000E+00
  0.7770178090000000E+01 -0.2248152160000000E+01
  0.1784415450000000E+01
  0.5696265200000000E+00 2  0.1777985340000000E+01  0.1958597600000000E+00
 -0.2317443900000000E+00
  0.2381265000000000E+00 1 -0.1624868022000000E+02
         # Potential name:  GTH-PBE-Q13  for symbol:  GA
         # Potential read from the potential filename: GTH_POTENTIALS
       &END POTENTIAL
     &END KIND
     &TOPOLOGY
       COORD_FILE_NAME 334-native.xyz
       COORD_FILE_FORMAT  XYZ
       NUMBER_OF_ATOMS  144
       MULTIPLE_UNIT_CELL  1 1 1
     &END TOPOLOGY
   &END SUBSYS
 &END FORCE_EVAL
