 # Version information for this restart file 
 # current date 2019-05-16 05:49:32.465
 # current working dir /lustre03/project/6004141/rzk/GaN-carbene/00-Surface/00-Preoptimization/334-native/Trial4
 # Program compiled at                              Sun Apr  7 00:48:11 EDT 2019
 # Program compiled on                          beluga2.int.ets1.calculquebec.ca
 # Program compiled for                        Beluga-Linux-x86-64-intel-openmpi
 # Source code revision number                                         svn:18619
 &GLOBAL
   PRINT_LEVEL  MEDIUM
   PROJECT_NAME TEST
   RUN_TYPE  CELL_OPT
 &END GLOBAL
 &MOTION
   &CELL_OPT
     MAX_ITER  100
     STEP_START_VAL  98
     EXTERNAL_PRESSURE     1.0000000000000000E+00
     KEEP_ANGLES  T
     KEEP_SYMMETRY  T
     CONSTRAINT  Z
     PRESSURE_TOLERANCE     1.0000000000000000E+02
   &END CELL_OPT
 &END MOTION
 &FORCE_EVAL
   METHOD  QS
   STRESS_TENSOR  ANALYTICAL
   &DFT
     BASIS_SET_FILE_NAME BASIS_MOLOPT
     POTENTIAL_FILE_NAME GTH_POTENTIALS
     &SCF
       MAX_SCF  100
       EPS_SCF     5.0000000000000004E-06
       &OT  T
         PRECONDITIONER  FULL_ALL
       &END OT
       &OUTER_SCF  T
         OPTIMIZER  NONE
         EPS_SCF     5.0000000000000004E-06
         MAX_SCF  10
       &END OUTER_SCF
       &PRINT
         &RESTART  OFF
           BACKUP_COPIES  1
           &EACH
             JUST_ENERGY  0
             QS_SCF  0
             MD  20
           &END EACH
         &END RESTART
       &END PRINT
     &END SCF
     &ALMO_SCF
       EPS_FILTER     9.9999999999999994E-12
       ALMO_SCF_GUESS  ATOMIC
       MO_OVERLAP_INV_ALG  DENSE_CHOLESKY
       ALMO_EXTRAPOLATION_ORDER  4
       XALMO_EXTRAPOLATION_ORDER  4
       ALMO_ALGORITHM  SKIP
       XALMO_TRIAL_WF  SIMPLE
       DELOCALIZE_METHOD  XALMO_SCF
       XALMO_R_CUTOFF_FACTOR     1.8000000000000000E+00
       &ALMO_OPTIMIZER_DIIS
         MAX_ITER  100
         EPS_ERROR     1.0000000000000001E-05
         N_DIIS  5
       &END ALMO_OPTIMIZER_DIIS
       &ALMO_OPTIMIZER_PCG
         MAX_ITER  50
         EPS_ERROR     1.0000000000000001E-05
         LIN_SEARCH_EPS_ERROR     5.0000000000000003E-02
         LIN_SEARCH_STEP_SIZE_GUESS     5.0000000000000001E-03
         CONJUGATOR  DAI_YUAN
         MAX_ITER_OUTER_LOOP  10
       &END ALMO_OPTIMIZER_PCG
       &XALMO_OPTIMIZER_PCG
         MAX_ITER  1000
         EPS_ERROR     1.0000000000000001E-05
         LIN_SEARCH_EPS_ERROR     1.0000000000000001E-01
         LIN_SEARCH_STEP_SIZE_GUESS     1.0000000000000000E-02
         CONJUGATOR  DAI_YUAN
         PRECOND_FILTER_THRESHOLD     1.0000000000000000E-03
         MAX_ITER_OUTER_LOOP  0
       &END XALMO_OPTIMIZER_PCG
       &MATRIX_ITERATE
         EPS_TARGET_FACTOR     1.0000000000000000E+01
       &END MATRIX_ITERATE
     &END ALMO_SCF
     &QS
       EPS_DEFAULT     1.0000000000000000E-14
       ALMO_SCF  F
       METHOD  GPW
     &END QS
     &MGRID
       NGRIDS  5
       CUTOFF     1.2000000000000000E+03
     &END MGRID
     &XC
       DENSITY_CUTOFF     1.0000000000000000E-10
       GRADIENT_CUTOFF     1.0000000000000000E-10
       TAU_CUTOFF     1.0000000000000000E-10
       &XC_FUNCTIONAL  NO_SHORTCUT
         &PBE  T
         &END PBE
       &END XC_FUNCTIONAL
       &VDW_POTENTIAL
         POTENTIAL_TYPE  PAIR_POTENTIAL
         &PAIR_POTENTIAL
           R_CUTOFF     1.0000000000000002E+01
           TYPE  DFTD3
           PARAMETER_FILE_NAME dftd3.dat
           REFERENCE_FUNCTIONAL PBE
           EPS_CN     9.9999999999999995E-07
           CALCULATE_C9_TERM  T
           REFERENCE_C9_TERM  T
           LONG_RANGE_CORRECTION  F
           VERBOSE_OUTPUT  F
         &END PAIR_POTENTIAL
       &END VDW_POTENTIAL
     &END XC
   &END DFT
   &SUBSYS
     &CELL
       A     9.7370891315901353E+00    0.0000000000000000E+00    0.0000000000000000E+00
       B    -4.8591949184849987E+00    8.4163724826964330E+00    0.0000000000000000E+00
       C     0.0000000000000000E+00    0.0000000000000000E+00    3.0744000000000000E+01
       MULTIPLE_UNIT_CELL  1 1 1
       &CELL_REF
         A     9.5580000000000016E+00    0.0000000000000000E+00    0.0000000000000000E+00
         B    -4.7790000000000008E+00    8.2774708093716640E+00    0.0000000000000000E+00
         C     0.0000000000000000E+00    0.0000000000000000E+00    3.0744000000000000E+01
         MULTIPLE_UNIT_CELL  1 1 1
       &END CELL_REF
     &END CELL
     &COORD
Ga    1.4443521928322980E-03   -1.0253437184788329E-02   -5.8466489283472722E-01
N    3.8793709234351110E-03    1.8796671781281746E+00    5.8045672402760651E-01
Ga    9.6471689132874140E-04    1.8349468423352571E+00    2.6027027492601067E+00
N   -3.4048178443182517E-03   -3.8612688925097911E-03    3.2345287058618126E+00
Ga   -1.1865592990991755E-04   -9.3647676258028154E-03    5.2253385249797351E+00
N    4.3761942913673642E-03    1.8719467872271940E+00    5.8037054016471954E+00
Ga    6.2395998141562758E-04    1.8734638557581387E+00    7.8059264446861416E+00
N   -1.3997079454024603E-03   -4.6842138739458432E-03    8.4062858041954609E+00
Ga   -2.7303707001657992E-03   -7.2573952671102912E-03    1.0404515671767486E+01
N    1.0477988742515130E-02    1.8694899693271063E+00    1.0998296700910650E+01
Ga    9.2654733265801256E-03    1.8800950881314598E+00    1.2982267367361258E+01
N    6.1595266887588731E-03    1.0104734544406947E-02    1.3592590460630881E+01
Ga   -1.0578942852714487E-02    3.1858709415540525E-02    1.5575487337516140E+01
N    8.6853909292349278E-04    1.8827158691204884E+00    1.6272196839752802E+01
Ga   -1.3607226870061480E-02    1.8996675327818326E+00    1.8421282380752075E+01
N   -1.0561926165696048E-02    7.0878325092704631E-03    1.8614302531732076E+01
Ga   -1.6234122121739025E+00    2.7970754887296367E+00    2.8984038687889763E-01
N   -1.6169447467695497E+00    4.6727899641140311E+00    5.5767395265825026E-01
Ga   -1.5936707803490915E+00    4.6805029494571588E+00    2.5865009653107913E+00
N   -1.6184316332592845E+00    2.8009765733333527E+00    3.1873818807367753E+00
Ga   -1.6204691810474938E+00    2.8020791247264052E+00    5.1998056668776176E+00
N   -1.6214317874572743E+00    4.6709181156585959E+00    5.8062105686032162E+00
Ga   -1.6159077599788152E+00    4.6666899367483055E+00    7.8067926495475710E+00
N   -1.6198095695160080E+00    2.8005807958680196E+00    8.4311375353525282E+00
Ga   -1.6157222131066309E+00    2.8034688828492063E+00    1.0421187881498106E+01
N   -1.6099869630578874E+00    4.6776503835336278E+00    1.1013411539127432E+01
Ga   -1.5922501438840910E+00    4.6757618780501904E+00    1.3005897897401210E+01
N   -1.6099689663801195E+00    2.8080642957462447E+00    1.3616436889808622E+01
Ga   -1.6193212212291248E+00    2.8271296240703241E+00    1.5620717885233335E+01
N   -1.6224257879699513E+00    4.6748624869068029E+00    1.6236328894030756E+01
Ga   -1.6158968110654661E+00    4.6835458559966927E+00    1.8322736261329784E+01
N   -1.6317349841293090E+00    2.8239264751131938E+00    1.8783873289033259E+01
Ga   -3.2351501276969974E+00    5.6071622154447658E+00    2.8681806919836045E-01
N   -3.2345884918384096E+00    7.4833127617059416E+00    5.7159406152349845E-01
Ga   -3.2660394813788010E+00    7.4923666407889336E+00    2.6015656858754972E+00
N   -3.2318024657676441E+00    5.6024013343873866E+00    3.1832306058402753E+00
Ga   -3.2377095509034257E+00    5.6067926077619701E+00    5.1896794649999469E+00
N   -3.2320596667920736E+00    7.4717568371130128E+00    5.8160688689407145E+00
Ga   -3.2302828998071043E+00    7.4789819887706637E+00    7.8151526867077763E+00
N   -3.2378602588444805E+00    5.6057377861288300E+00    8.4076735780383878E+00
Ga   -3.2337300825976336E+00    5.6091509645675943E+00    1.0399588791978568E+01
N   -3.2386344521125872E+00    7.4784614368645155E+00    1.1016306192890911E+01
Ga   -3.2334610530848735E+00    7.4853187021949834E+00    1.3006226567238469E+01
N   -3.2308189791901927E+00    5.6060259860860953E+00    1.3590318827157514E+01
Ga   -3.2041633671704921E+00    5.6115579716223731E+00    1.5569830271473952E+01
N   -3.2266592519791115E+00    7.4951879714690293E+00    1.6112130520626568E+01
Ga   -3.2583518792339028E+00    7.4833490637961466E+00    1.8119479024848999E+01
N   -3.2605238206522604E+00    5.6336605906809138E+00    1.8594997779862105E+01
Ga    3.2480021689008312E+00   -4.7225670063700447E-03    2.8743955784902842E-01
N    3.2463812340271008E+00    1.8644749058819794E+00    5.7371127188506210E-01
Ga    3.2725077792807054E+00    1.8758701979234362E+00    2.5912421829449475E+00
N    3.2420517628145977E+00   -9.4510345742752060E-03    3.1849698343950643E+00
Ga    3.2454087286307796E+00   -8.9769546163921184E-03    5.1983813059078594E+00
N    3.2406790855901320E+00    1.8635075308605138E+00    5.8102257010403964E+00
Ga    3.2463407538414302E+00    1.8615542953281454E+00    7.8104816017146677E+00
N    3.2459594503980389E+00   -4.3171384871951990E-03    8.4298305603157218E+00
Ga    3.2470248717980756E+00   -7.4605109587537457E-03    1.0424038460849035E+01
N    3.2472120768896389E+00    1.8692491174927623E+00    1.1006348592378989E+01
Ga    3.2481293023146938E+00    1.8838499487466116E+00    1.2997645699232528E+01
N    3.2502327035565139E+00    8.7906661576529557E-03    1.3613078833691370E+01
Ga    3.2665857172879447E+00    3.0755206035253901E-02    1.5594249944825782E+01
N    3.2423735664101789E+00    1.8892025882953456E+00    1.6189848143117494E+01
Ga    3.2222559947902361E+00    1.8757752191971775E+00    1.8253617711078359E+01
N    3.2139145058177800E+00   -1.9514481999547140E-02    1.8589555845071267E+01
Ga    1.6280195236576416E+00    2.7986173561662446E+00    2.8443157717314305E-01
N    1.6369374891043924E+00    4.6706153697004043E+00    5.6534914363820354E-01
Ga    1.6045584400124038E+00    4.6854815012408046E+00    2.5929318068218148E+00
N    1.6236402055067123E+00    2.7998794458469218E+00    3.1835271099640758E+00
Ga    1.6258934361163375E+00    2.8027763355304747E+00    5.1873944382994894E+00
N    1.6279006246567274E+00    4.6679287482564176E+00    5.8110314576390412E+00
Ga    1.6344903538264475E+00    4.6732561371297798E+00    7.8106553950798467E+00
N    1.6282516372437530E+00    2.8021263447183764E+00    8.4119243547065103E+00
Ga    1.6319559959529268E+00    2.8082094695196917E+00    1.0400921560965825E+01
N    1.6274317908857376E+00    4.6752507154026315E+00    1.1023716413800527E+01
Ga    1.6159538099680257E+00    4.6755675044251559E+00    1.3026297198584542E+01
N    1.6207857377887711E+00    2.8009626899269553E+00    1.3614641305387558E+01
Ga    1.6370935507283657E+00    2.8122665460098921E+00    1.5619367029551046E+01
N    1.6222697091314560E+00    4.6983126724310766E+00    1.6208980119579486E+01
Ga    1.6404579026193640E+00    4.6568010679494236E+00    1.8299560148233354E+01
N    1.6282219445393191E+00    2.8077076169117112E+00    1.8747119684042882E+01
Ga    1.3443744199084519E-03    5.5984363045268424E+00   -5.5740846196021343E-01
N    9.2090693011237096E-03    7.4862645411637274E+00    5.7113177233212775E-01
Ga    5.3798270629947745E-03    7.4500459156671823E+00    2.5968759539791972E+00
N    6.1827141408279766E-04    5.6007427823152263E+00    3.2237249277837501E+00
Ga    4.0387593465667166E-03    5.6040342435187389E+00    5.2174630054713580E+00
N    1.0975943146911893E-02    7.4788411076248407E+00    5.8043967525767410E+00
Ga    4.2449657445233031E-03    7.4814727639049057E+00    7.8062800306715410E+00
N    8.2064617386780388E-03    5.6079245975633549E+00    8.4096521849544619E+00
Ga    1.2347778103020436E-02    5.6078037104834531E+00    1.0404299163468155E+01
N    1.3076139643083419E-02    7.4765525738263161E+00    1.1019424355794820E+01
Ga    1.7971362442339673E-02    7.4784867565974489E+00    1.3023268946381135E+01
N    4.3414688044498585E-03    5.6175199876166717E+00    1.3660217230918592E+01
Ga    1.0222613462815193E-02    5.6469531909745143E+00    1.5676950757802876E+01
N    8.5888668011333564E-03    7.5148672753294914E+00    1.6261911794934079E+01
Ga   -5.8467529500476336E-03    7.4677626949754377E+00    1.8342344335564512E+01
N    4.2595448396701161E-03    5.5853359085688492E+00    1.8645951439265129E+01
Ga    6.4907297405415063E+00    7.0966411974185157E-04    2.9056084785911757E-01
N    6.5014611470666752E+00    1.8674293042719188E+00    5.6661155751769443E-01
Ga    6.4714269631328092E+00    1.8752531667783616E+00    2.5992243294461637E+00
N    6.4926255432457669E+00   -1.3440957135435595E-02    3.1834768410082908E+00
Ga    6.4932794655829467E+00   -7.6158340266087718E-03    5.1885545458224867E+00
N    6.4970110563501153E+00    1.8631772033665459E+00    5.8067425155425871E+00
Ga    6.4980448653860243E+00    1.8674224369703141E+00    7.8101566766416815E+00
N    6.4893404531769763E+00   -6.2597037943640643E-03    8.4069379947825489E+00
Ga    6.4927920739507119E+00   -8.5673930221760314E-03    1.0399853322291458E+01
N    6.5024997233208124E+00    1.8613128667832692E+00    1.1016960000830636E+01
Ga    6.5084400448938498E+00    1.8566902141379622E+00    1.3016355231449978E+01
N    6.4867308013701610E+00   -6.9434344865286933E-03    1.3656668826774760E+01
Ga    6.4732751448716250E+00   -6.1410555250522502E-03    1.5657836190657555E+01
N    6.5212918911175333E+00    1.9032327303756360E+00    1.6212731888091405E+01
Ga    6.5111288998863524E+00    1.8900215027500273E+00    1.8284288179808708E+01
N    6.4976239019517630E+00   -2.1532094707901826E-03    1.8596264489837822E+01
Ga    4.8681339819186267E+00    2.7850431884393876E+00   -5.8877940743909041E-01
N    4.8796659767021611E+00    4.6822427160285267E+00    5.8042778965836483E-01
Ga    4.8708875252351689E+00    4.6450766098734677E+00    2.6050539888385909E+00
N    4.8707484345045851E+00    2.7939824941198279E+00    3.2316819095754079E+00
Ga    4.8685718813073615E+00    2.7983580009823323E+00    5.2210788537556239E+00
N    4.8754591172528059E+00    4.6750848785853893E+00    5.8087247890723877E+00
Ga    4.8727363278352192E+00    4.6702960636667123E+00    7.8124937046782437E+00
N    4.8702606999694664E+00    2.7960176562441608E+00    8.4167407364309490E+00
Ga    4.8765238938281374E+00    2.7953915564302680E+00    1.0411883715643327E+01
N    4.8795695343943333E+00    4.6731277021999880E+00    1.0998300105987971E+01
Ga    4.8778685587214845E+00    4.6659886043711625E+00    1.2990318339908569E+01
N    4.8775612837759335E+00    2.7976683312763573E+00    1.3592436014718615E+01
Ga    4.8836454933383688E+00    2.7834070891634939E+00    1.5596199358208025E+01
N    4.8960148643621100E+00    4.7011641231738821E+00    1.6092162816688816E+01
Ga    4.8674030011805343E+00    4.6592305127086586E+00    1.8128913451349831E+01
N    4.8572850077360039E+00    2.8048107208043804E+00    1.8542965790367010E+01
Ga    3.2552711037727260E+00    5.6073963678441308E+00    2.8808441412201791E-01
N    3.2501102332442717E+00    7.4798355314995995E+00    5.7495907234375621E-01
Ga    3.2843296375118274E+00    7.4897585971585761E+00    2.5890580978565430E+00
N    3.2440856105113394E+00    5.6063266178221900E+00    3.1897238269815902E+00
Ga    3.2475086844176047E+00    5.6065854879608761E+00    5.2021687807512773E+00
N    3.2494754138416537E+00    7.4753952018283698E+00    5.8126894199947348E+00
Ga    3.2508530058879010E+00    7.4732656707751577E+00    7.8084586817703663E+00
N    3.2533518565051547E+00    5.6062996286766573E+00    8.4283779524774207E+00
Ga    3.2504763322580930E+00    5.6088457991557936E+00    1.0423479179094638E+01
N    3.2523846236856233E+00    7.4811649730957166E+00    1.1023572437254947E+01
Ga    3.2444775634827896E+00    7.4856948686934306E+00    1.3024000250016712E+01
N    3.2523088857035205E+00    5.6050456700905906E+00    1.3595623585792358E+01
Ga    3.2561814114961596E+00    5.6135352564086656E+00    1.5590394351661971E+01
N    3.2686527598735693E+00    7.5007451571832142E+00    1.6157851836831060E+01
Ga    3.2752705810224292E+00    7.4824604155010483E+00    1.8203945578865977E+01
N    3.2605212611653136E+00    5.6019219963013400E+00    1.8587886151854910E+01
     &END COORD
     &KIND N
       BASIS_SET DZVP-MOLOPT-SR-GTH
       POTENTIAL GTH-PBE-q5
       &POTENTIAL
 2 3
  0.2837905100000000E+00 2 -0.1241522559000000E+02  0.1868095920000000E+01
 2
  0.2554050000000000E+00 1  0.1363026257000000E+02
  0.2454945300000000E+00 0
         # Potential name:  GTH-PBE-Q5  for symbol:  N
         # Potential read from the potential filename: GTH_POTENTIALS
       &END POTENTIAL
     &END KIND
     &KIND Ga
       BASIS_SET DZVP-MOLOPT-SR-GTH
       POTENTIAL GTH-PBE-q13
       &POTENTIAL
 2 1 10
  0.4900000000000000E+00 0
 3
  0.4167772300000000E+00 3  0.1047568975000000E+02 -0.4921768140000000E+01  0.8707055900000000E+00
  0.7770178090000000E+01 -0.2248152160000000E+01
  0.1784415450000000E+01
  0.5696265200000000E+00 2  0.1777985340000000E+01  0.1958597600000000E+00
 -0.2317443900000000E+00
  0.2381265000000000E+00 1 -0.1624868022000000E+02
         # Potential name:  GTH-PBE-Q13  for symbol:  GA
         # Potential read from the potential filename: GTH_POTENTIALS
       &END POTENTIAL
     &END KIND
     &TOPOLOGY
       COORD_FILE_NAME 334-native.xyz
       COORD_FILE_FORMAT  XYZ
       NUMBER_OF_ATOMS  144
       MULTIPLE_UNIT_CELL  1 1 1
     &END TOPOLOGY
   &END SUBSYS
 &END FORCE_EVAL
