 # Version information for this restart file 
 # current date 2019-05-16 03:31:17.512
 # current working dir /lustre03/project/6004141/rzk/GaN-carbene/00-Surface/00-Preoptimization/334-native/Trial4
 # Program compiled at                              Sun Apr  7 00:48:11 EDT 2019
 # Program compiled on                          beluga2.int.ets1.calculquebec.ca
 # Program compiled for                        Beluga-Linux-x86-64-intel-openmpi
 # Source code revision number                                         svn:18619
 &GLOBAL
   PRINT_LEVEL  MEDIUM
   PROJECT_NAME TEST
   RUN_TYPE  CELL_OPT
 &END GLOBAL
 &MOTION
   &CELL_OPT
     MAX_ITER  100
     STEP_START_VAL  35
     EXTERNAL_PRESSURE     1.0000000000000000E+00
     KEEP_ANGLES  T
     KEEP_SYMMETRY  T
     CONSTRAINT  Z
     PRESSURE_TOLERANCE     1.0000000000000000E+02
   &END CELL_OPT
 &END MOTION
 &FORCE_EVAL
   METHOD  QS
   STRESS_TENSOR  ANALYTICAL
   &DFT
     BASIS_SET_FILE_NAME BASIS_MOLOPT
     POTENTIAL_FILE_NAME GTH_POTENTIALS
     &SCF
       MAX_SCF  100
       EPS_SCF     5.0000000000000004E-06
       &OT  T
         PRECONDITIONER  FULL_ALL
       &END OT
       &OUTER_SCF  T
         OPTIMIZER  NONE
         EPS_SCF     5.0000000000000004E-06
         MAX_SCF  10
       &END OUTER_SCF
       &PRINT
         &RESTART  OFF
           BACKUP_COPIES  1
           &EACH
             JUST_ENERGY  0
             QS_SCF  0
             MD  20
           &END EACH
         &END RESTART
       &END PRINT
     &END SCF
     &ALMO_SCF
       EPS_FILTER     9.9999999999999994E-12
       ALMO_SCF_GUESS  ATOMIC
       MO_OVERLAP_INV_ALG  DENSE_CHOLESKY
       ALMO_EXTRAPOLATION_ORDER  4
       XALMO_EXTRAPOLATION_ORDER  4
       ALMO_ALGORITHM  SKIP
       XALMO_TRIAL_WF  SIMPLE
       DELOCALIZE_METHOD  XALMO_SCF
       XALMO_R_CUTOFF_FACTOR     1.8000000000000000E+00
       &ALMO_OPTIMIZER_DIIS
         MAX_ITER  100
         EPS_ERROR     1.0000000000000001E-05
         N_DIIS  5
       &END ALMO_OPTIMIZER_DIIS
       &ALMO_OPTIMIZER_PCG
         MAX_ITER  50
         EPS_ERROR     1.0000000000000001E-05
         LIN_SEARCH_EPS_ERROR     5.0000000000000003E-02
         LIN_SEARCH_STEP_SIZE_GUESS     5.0000000000000001E-03
         CONJUGATOR  DAI_YUAN
         MAX_ITER_OUTER_LOOP  10
       &END ALMO_OPTIMIZER_PCG
       &XALMO_OPTIMIZER_PCG
         MAX_ITER  1000
         EPS_ERROR     1.0000000000000001E-05
         LIN_SEARCH_EPS_ERROR     1.0000000000000001E-01
         LIN_SEARCH_STEP_SIZE_GUESS     1.0000000000000000E-02
         CONJUGATOR  DAI_YUAN
         PRECOND_FILTER_THRESHOLD     1.0000000000000000E-03
         MAX_ITER_OUTER_LOOP  0
       &END XALMO_OPTIMIZER_PCG
       &MATRIX_ITERATE
         EPS_TARGET_FACTOR     1.0000000000000000E+01
       &END MATRIX_ITERATE
     &END ALMO_SCF
     &QS
       EPS_DEFAULT     1.0000000000000000E-14
       ALMO_SCF  F
       METHOD  GPW
     &END QS
     &MGRID
       NGRIDS  5
       CUTOFF     1.2000000000000000E+03
     &END MGRID
     &XC
       DENSITY_CUTOFF     1.0000000000000000E-10
       GRADIENT_CUTOFF     1.0000000000000000E-10
       TAU_CUTOFF     1.0000000000000000E-10
       &XC_FUNCTIONAL  NO_SHORTCUT
         &PBE  T
         &END PBE
       &END XC_FUNCTIONAL
       &VDW_POTENTIAL
         POTENTIAL_TYPE  PAIR_POTENTIAL
         &PAIR_POTENTIAL
           R_CUTOFF     1.0000000000000002E+01
           TYPE  DFTD3
           PARAMETER_FILE_NAME dftd3.dat
           REFERENCE_FUNCTIONAL PBE
           EPS_CN     9.9999999999999995E-07
           CALCULATE_C9_TERM  T
           REFERENCE_C9_TERM  T
           LONG_RANGE_CORRECTION  F
           VERBOSE_OUTPUT  F
         &END PAIR_POTENTIAL
       &END VDW_POTENTIAL
     &END XC
   &END DFT
   &SUBSYS
     &CELL
       A     9.7421231828210058E+00    0.0000000000000000E+00    0.0000000000000000E+00
       B    -4.8541713093332275E+00    8.4076713364082902E+00    0.0000000000000000E+00
       C     0.0000000000000000E+00    0.0000000000000000E+00    3.0744000000000000E+01
       MULTIPLE_UNIT_CELL  1 1 1
       &CELL_REF
         A     9.5580000000000016E+00    0.0000000000000000E+00    0.0000000000000000E+00
         B    -4.7790000000000008E+00    8.2774708093716640E+00    0.0000000000000000E+00
         C     0.0000000000000000E+00    0.0000000000000000E+00    3.0744000000000000E+01
         MULTIPLE_UNIT_CELL  1 1 1
       &END CELL_REF
     &END CELL
     &COORD
Ga    1.1733930980366184E-02   -9.1955969617161359E-03   -6.1535553546303356E-01
N    2.5968847368922593E-03    1.8621770470646049E+00    5.4878998389100497E-01
Ga    7.3020358683718607E-03    1.8438285822302001E+00    2.5864507718752261E+00
N   -1.4411310648616076E-03    2.1328910864072946E-03    3.2281356016414167E+00
Ga   -2.0823864271458359E-03    6.1140222696513240E-03    5.2178401722724992E+00
N    3.9494046671356940E-03    1.8744310418594026E+00    5.8228232365244397E+00
Ga    4.5244148483425204E-03    1.8698501588181067E+00    7.8161994987133534E+00
N    4.4337706007006568E-04   -2.9091296799653148E-03    8.4144418099522618E+00
Ga    1.7851226372617782E-03    1.6947092429300740E-03    1.0412585639772962E+01
N    6.8239873980092186E-03    1.8761679093221770E+00    1.1010695860787189E+01
Ga    4.5421232133946304E-03    1.8798976271846086E+00    1.3007156652347557E+01
N   -7.7730402957836432E-04    8.9332622248872885E-03    1.3619637551496783E+01
Ga   -1.5211801249163808E-02   -6.0909990428388979E-03    1.5631046181221816E+01
N   -8.2824863441628271E-03    1.8864718825881011E+00    1.6206970511369839E+01
Ga    7.3590607610475832E-03    1.8959500965544158E+00    1.8281705245106952E+01
N    9.0537439357875980E-03    3.0027671174433701E-03    1.8643098955635669E+01
Ga   -1.6227304806983207E+00    2.7980953631722718E+00    2.8905850768083968E-01
N   -1.6243851468360602E+00    4.6693146998720243E+00    5.7586542861840206E-01
Ga   -1.5916444969911794E+00    4.6894216019078510E+00    2.6056173403518876E+00
N   -1.6135539769214589E+00    2.8037142536046922E+00    3.1909762070879446E+00
Ga   -1.6141614525983745E+00    2.8037691086779755E+00    5.2042751332916382E+00
N   -1.6129397444900733E+00    4.6731549635199610E+00    5.8181349458049931E+00
Ga   -1.6126541246712458E+00    4.6728394316572457E+00    7.8136561856143079E+00
N   -1.6197926576253567E+00    2.8011994495804027E+00    8.4111629050855257E+00
Ga   -1.6187751567239856E+00    2.8048835917159929E+00    1.0406854287397238E+01
N   -1.6083781820570169E+00    4.6782535125106719E+00    1.1009947794809783E+01
Ga   -1.6076189823159361E+00    4.6813143429949911E+00    1.3004199511744341E+01
N   -1.6216785539781284E+00    2.8098162789845826E+00    1.3605634172915439E+01
Ga   -1.6375750935730071E+00    2.7968817567309889E+00    1.5613013193770131E+01
N   -1.6222197096618585E+00    4.6837375131428729E+00    1.6214686406700110E+01
Ga   -1.6113670873701653E+00    4.6807821857663239E+00    1.8293469597327210E+01
N   -1.6264801429172946E+00    2.7876354845096127E+00    1.8666880235985957E+01
Ga   -3.2473130351830908E+00    5.6059939547354265E+00    2.8480192642553648E-01
N   -3.2328379113513992E+00    7.4676935493256469E+00    5.7517513513310392E-01
Ga   -3.2518633807861148E+00    7.4913100816615756E+00    2.6028666000159508E+00
N   -3.2408580685959172E+00    5.6050070129097733E+00    3.2016406623952718E+00
Ga   -3.2371597268929695E+00    5.6042980614832549E+00    5.2141606687055546E+00
N   -3.2267646942176365E+00    7.4806663979381689E+00    5.8028482555214778E+00
Ga   -3.2313162674068394E+00    7.4751990672999975E+00    7.8005302352959740E+00
N   -3.2371520638041851E+00    5.6055553584605420E+00    8.4126830997914634E+00
Ga   -3.2351788940534618E+00    5.6087862511423703E+00    1.0410907962840819E+01
N   -3.2307323136451127E+00    7.4780872039996469E+00    1.1018573453429829E+01
Ga   -3.2338174999437741E+00    7.4800383515688207E+00    1.3011972665554131E+01
N   -3.2326049347105315E+00    5.6058641262972815E+00    1.3608970697281391E+01
Ga   -3.2438898857470502E+00    5.5856088068570093E+00    1.5606458775395863E+01
N   -3.2481775603752747E+00    7.4624818083045223E+00    1.6205704997452774E+01
Ga   -3.2287429141443487E+00    7.4814207949771809E+00    1.8279728121679057E+01
N   -3.2397162633572587E+00    5.5955631195688573E+00    1.8656373121107162E+01
Ga    3.2416515766062393E+00   -1.0518537909732270E-02    2.7207201747588167E-01
N    3.2475515709734513E+00    1.8657911187312453E+00    5.5235282851716305E-01
Ga    3.2779840827320288E+00    1.8872384821379176E+00    2.5952535337347729E+00
N    3.2562649545668458E+00    3.1902805468598510E-03    3.1856318593883670E+00
Ga    3.2524942252640217E+00    3.7839973183476780E-03    5.1922594135047735E+00
N    3.2538802863480250E+00    1.8692677674020317E+00    5.8141458510356943E+00
Ga    3.2513313467212703E+00    1.8672503195532684E+00    7.8103204586221144E+00
N    3.2450175926029261E+00   -4.5670196188977779E-03    8.4110722492017462E+00
Ga    3.2460566334785725E+00   -2.3683385972293448E-03    1.0406770513727015E+01
N    3.2518647558513707E+00    1.8690799072715913E+00    1.1012426774211592E+01
Ga    3.2475954157365052E+00    1.8648491368163111E+00    1.3007689306300861E+01
N    3.2478388362661113E+00   -7.0129712460214998E-03    1.3621843746067754E+01
Ga    3.2478754893704744E+00   -1.7105637347095585E-02    1.5633775135689957E+01
N    3.2239888698388124E+00    1.8588517972399692E+00    1.6209252979630552E+01
Ga    3.2510756461107260E+00    1.8786926866494367E+00    1.8278762005053871E+01
N    3.2524483485526297E+00   -1.9367049853054090E-02    1.8657032575181560E+01
Ga    1.6244765165535511E+00    2.8012436202486972E+00    2.7448883317397449E-01
N    1.6295259918243554E+00    4.6639708739648533E+00    5.8398328776729325E-01
Ga    1.6108634254872585E+00    4.6852709067977214E+00    2.6107959335378408E+00
N    1.6304908444684181E+00    2.7987969607007122E+00    3.1980927361501563E+00
Ga    1.6290277925540664E+00    2.7982295977110621E+00    5.2130945379712781E+00
N    1.6395157295201155E+00    4.6757080815373806E+00    5.8019438401236707E+00
Ga    1.6375915233966984E+00    4.6730694032873625E+00    7.7988224715170960E+00
N    1.6289809392319028E+00    2.8038805674867029E+00    8.4115931573545826E+00
Ga    1.6317956121430142E+00    2.8045532388630345E+00    1.0407688655975045E+01
N    1.6378091445053202E+00    4.6736355831261074E+00    1.1017660174084938E+01
Ga    1.6370964616402872E+00    4.6726679573821333E+00    1.3009861175610334E+01
N    1.6299692259713949E+00    2.8016722607480591E+00    1.3612816694220514E+01
Ga    1.6265929706378608E+00    2.7933663341899058E+00    1.5610789409171163E+01
N    1.6399840204026823E+00    4.6683075352309418E+00    1.6194359196785705E+01
Ga    1.6470805096700329E+00    4.6791931440739933E+00    1.8257556158430308E+01
N    1.6303370720645094E+00    2.7973107355865121E+00    1.8685950484274919E+01
Ga    1.3876143227275348E-02    5.5838888959022750E+00   -5.7518164049560327E-01
N    1.0826483909368604E-02    7.4701823868758357E+00    5.4800049861345479E-01
Ga    2.0749013643188059E-02    7.4479877075594798E+00    2.5844218570426749E+00
N    9.7772459249693983E-03    5.6106277391377875E+00    3.2320881999455748E+00
Ga    9.6840296552002797E-03    5.6103895219610500E+00    5.2223021679092776E+00
N    1.5740381687894392E-02    7.4821088718409809E+00    5.8171217762781735E+00
Ga    1.6728838480776932E-02    7.4759231454505537E+00    7.8105193773364636E+00
N    1.4918384158255259E-02    5.6024792876293539E+00    8.4098081391747410E+00
Ga    1.7684669997709471E-02    5.6057777206532613E+00    1.0407229939215503E+01
N    1.8202721223923635E-02    7.4766698354838752E+00    1.1013127232014943E+01
Ga    1.6511697598760068E-02    7.4734792623436617E+00    1.3006857753905360E+01
N    1.8161824404000649E-02    5.6059903817012744E+00    1.3623235534779507E+01
Ga    1.1787526796057150E-02    5.5959697917018634E+00    1.5632139459089030E+01
N    2.0530545523364408E-02    7.4742154133212777E+00    1.6218621164818380E+01
Ga    2.4373065415065568E-02    7.4771841158960060E+00    1.8292587844600398E+01
N    1.5480938087578045E-02    5.5786182649055682E+00    1.8671365210248332E+01
Ga    6.4918851980634988E+00   -5.7850160917453930E-03    2.6038143720321039E-01
N    6.4949558989052827E+00    1.8630412929572073E+00    5.8253595475241815E-01
Ga    6.4781843032866560E+00    1.8826319114002756E+00    2.6105561866668721E+00
N    6.4940435368526384E+00   -2.9461679741224801E-03    3.1958086782374919E+00
Ga    6.4951918179392694E+00   -4.6002449650297823E-04    5.2079591704265349E+00
N    6.5042954795305636E+00    1.8726396920948905E+00    5.8113621169680965E+00
Ga    6.5007392716415726E+00    1.8679760949094544E+00    7.8076866273151344E+00
N    6.4956257697666153E+00   -2.2187596179473641E-03    8.4142358781592979E+00
Ga    6.4963978138018916E+00    7.6135606036863959E-04    1.0410305180266974E+01
N    6.5011725667518787E+00    1.8719786169079864E+00    1.1013513052744745E+01
Ga    6.4975766034549149E+00    1.8724825302879731E+00    1.3008084688284740E+01
N    6.4939382113068707E+00   -2.0331202520986126E-03    1.3602349944368234E+01
Ga    6.4814914043083700E+00   -1.5499660864942068E-02    1.5596681551550102E+01
N    6.4870925576187162E+00    1.8607210394680456E+00    1.6171489094653328E+01
Ga    6.5037531512772233E+00    1.8767405526016192E+00    1.8218592555421278E+01
N    6.5035340399672954E+00   -1.2526497353847247E-03    1.8642871603735976E+01
Ga    4.8874521885646942E+00    2.8013890516471149E+00   -5.3820987815072152E-01
N    4.8728161949034190E+00    4.6684485051010851E+00    5.5904517079219684E-01
Ga    4.8809067390176075E+00    4.6471036424217091E+00    2.5986859483229643E+00
N    4.8750593216045734E+00    2.8071904434259229E+00    3.2347347395276556E+00
Ga    4.8768759090696454E+00    2.8061024773665677E+00    5.2241335561501252E+00
N    4.8788200262020203E+00    4.6789459632821631E+00    5.8157777173786718E+00
Ga    4.8795278587373820E+00    4.6745488221020377E+00    7.8105423676579742E+00
N    4.8765683781230855E+00    2.8006682128560860E+00    8.4100967890163236E+00
Ga    4.8766570431949816E+00    2.8008873326343702E+00    1.0408029887035545E+01
N    4.8860559402170765E+00    4.6722553260776465E+00    1.1013652027609153E+01
Ga    4.8864218410844158E+00    4.6704214441678475E+00    1.3007684535633762E+01
N    4.8701805844491375E+00    2.7925009167506847E+00    1.3607241967742189E+01
Ga    4.8558134657370911E+00    2.7773497210303377E+00    1.5607257554497009E+01
N    4.8794163486876556E+00    4.6578590130814046E+00    1.6163616563247672E+01
Ga    4.8870738586571250E+00    4.6919529410220999E+00    1.8210697479258201E+01
N    4.8794829406196873E+00    2.8023738947447927E+00    1.8613286429265681E+01
Ga    3.2495314519508365E+00    5.5979228455535370E+00    2.7220129339706906E-01
N    3.2591964993623757E+00    7.4661884173120923E+00    5.4033777119850912E-01
Ga    3.2875873295961040E+00    7.4942733826219730E+00    2.5840148106570324E+00
N    3.2617543982042467E+00    5.6098190945225195E+00    3.1839579239858580E+00
Ga    3.2620328332235182E+00    5.6087889893609377E+00    5.1903494271888748E+00
N    3.2643714019076349E+00    7.4749280034001160E+00    5.8115560463789588E+00
Ga    3.2640904239625388E+00    7.4727707150049403E+00    7.8080286588945036E+00
N    3.2565515659013000E+00    5.6030107571033412E+00    8.4139766649120933E+00
Ga    3.2612568527750425E+00    5.6057671344561006E+00    1.0413011906151237E+01
N    3.2654337415864347E+00    7.4787570133009957E+00    1.1014849142918189E+01
Ga    3.2661424328079494E+00    7.4824444284299467E+00    1.3007171406532068E+01
N    3.2639698124996817E+00    5.6061382580302750E+00    1.3598460383279940E+01
Ga    3.2583192672690333E+00    5.5919586293700387E+00    1.5597993782266631E+01
N    3.2475843121007051E+00    7.4650014599685202E+00    1.6183626190582768E+01
Ga    3.2735762167681695E+00    7.5063086339999776E+00    1.8245300412806873E+01
N    3.2734600943558640E+00    5.6120635530358136E+00    1.8620619968293095E+01
     &END COORD
     &KIND N
       BASIS_SET DZVP-MOLOPT-SR-GTH
       POTENTIAL GTH-PBE-q5
       &POTENTIAL
 2 3
  0.2837905100000000E+00 2 -0.1241522559000000E+02  0.1868095920000000E+01
 2
  0.2554050000000000E+00 1  0.1363026257000000E+02
  0.2454945300000000E+00 0
         # Potential name:  GTH-PBE-Q5  for symbol:  N
         # Potential read from the potential filename: GTH_POTENTIALS
       &END POTENTIAL
     &END KIND
     &KIND Ga
       BASIS_SET DZVP-MOLOPT-SR-GTH
       POTENTIAL GTH-PBE-q13
       &POTENTIAL
 2 1 10
  0.4900000000000000E+00 0
 3
  0.4167772300000000E+00 3  0.1047568975000000E+02 -0.4921768140000000E+01  0.8707055900000000E+00
  0.7770178090000000E+01 -0.2248152160000000E+01
  0.1784415450000000E+01
  0.5696265200000000E+00 2  0.1777985340000000E+01  0.1958597600000000E+00
 -0.2317443900000000E+00
  0.2381265000000000E+00 1 -0.1624868022000000E+02
         # Potential name:  GTH-PBE-Q13  for symbol:  GA
         # Potential read from the potential filename: GTH_POTENTIALS
       &END POTENTIAL
     &END KIND
     &TOPOLOGY
       COORD_FILE_NAME 334-native.xyz
       COORD_FILE_FORMAT  XYZ
       NUMBER_OF_ATOMS  144
       MULTIPLE_UNIT_CELL  1 1 1
     &END TOPOLOGY
   &END SUBSYS
 &END FORCE_EVAL
