 # Version information for this restart file 
 # current date 2019-05-16 15:04:07.266
 # current working dir /lustre03/project/6004141/rzk/GaN-carbene/00-Surface/00-Preoptimization/334-native/Trial4
 # Program compiled at                              Sun Apr  7 00:48:11 EDT 2019
 # Program compiled on                          beluga2.int.ets1.calculquebec.ca
 # Program compiled for                        Beluga-Linux-x86-64-intel-openmpi
 # Source code revision number                                         svn:18619
 &GLOBAL
   PRINT_LEVEL  MEDIUM
   PROJECT_NAME TEST
   RUN_TYPE  CELL_OPT
 &END GLOBAL
 &MOTION
   &CELL_OPT
     MAX_ITER  150
     STEP_START_VAL  116
     EXTERNAL_PRESSURE     1.0000000000000000E+00
     KEEP_ANGLES  T
     KEEP_SYMMETRY  T
     CONSTRAINT  Z
     PRESSURE_TOLERANCE     3.0000000000000000E+02
   &END CELL_OPT
 &END MOTION
 &FORCE_EVAL
   METHOD  QS
   STRESS_TENSOR  ANALYTICAL
   &DFT
     BASIS_SET_FILE_NAME BASIS_MOLOPT
     POTENTIAL_FILE_NAME GTH_POTENTIALS
     &SCF
       MAX_SCF  100
       EPS_SCF     5.0000000000000004E-06
       &OT  T
         PRECONDITIONER  FULL_ALL
       &END OT
       &OUTER_SCF  T
         OPTIMIZER  NONE
         EPS_SCF     5.0000000000000004E-06
         MAX_SCF  10
       &END OUTER_SCF
       &PRINT
         &RESTART  OFF
           BACKUP_COPIES  1
           &EACH
             JUST_ENERGY  0
             QS_SCF  0
             MD  20
           &END EACH
         &END RESTART
       &END PRINT
     &END SCF
     &ALMO_SCF
       EPS_FILTER     9.9999999999999994E-12
       ALMO_SCF_GUESS  ATOMIC
       MO_OVERLAP_INV_ALG  DENSE_CHOLESKY
       ALMO_EXTRAPOLATION_ORDER  4
       XALMO_EXTRAPOLATION_ORDER  4
       ALMO_ALGORITHM  SKIP
       XALMO_TRIAL_WF  SIMPLE
       DELOCALIZE_METHOD  XALMO_SCF
       XALMO_R_CUTOFF_FACTOR     1.8000000000000000E+00
       &ALMO_OPTIMIZER_DIIS
         MAX_ITER  100
         EPS_ERROR     1.0000000000000001E-05
         N_DIIS  5
       &END ALMO_OPTIMIZER_DIIS
       &ALMO_OPTIMIZER_PCG
         MAX_ITER  50
         EPS_ERROR     1.0000000000000001E-05
         LIN_SEARCH_EPS_ERROR     5.0000000000000003E-02
         LIN_SEARCH_STEP_SIZE_GUESS     5.0000000000000001E-03
         CONJUGATOR  DAI_YUAN
         MAX_ITER_OUTER_LOOP  10
       &END ALMO_OPTIMIZER_PCG
       &XALMO_OPTIMIZER_PCG
         MAX_ITER  1000
         EPS_ERROR     1.0000000000000001E-05
         LIN_SEARCH_EPS_ERROR     1.0000000000000001E-01
         LIN_SEARCH_STEP_SIZE_GUESS     1.0000000000000000E-02
         CONJUGATOR  DAI_YUAN
         PRECOND_FILTER_THRESHOLD     1.0000000000000000E-03
         MAX_ITER_OUTER_LOOP  0
       &END XALMO_OPTIMIZER_PCG
       &MATRIX_ITERATE
         EPS_TARGET_FACTOR     1.0000000000000000E+01
       &END MATRIX_ITERATE
     &END ALMO_SCF
     &QS
       EPS_DEFAULT     1.0000000000000000E-14
       ALMO_SCF  F
       METHOD  GPW
     &END QS
     &MGRID
       NGRIDS  5
       CUTOFF     1.2000000000000000E+03
     &END MGRID
     &XC
       DENSITY_CUTOFF     1.0000000000000000E-10
       GRADIENT_CUTOFF     1.0000000000000000E-10
       TAU_CUTOFF     1.0000000000000000E-10
       &XC_FUNCTIONAL  NO_SHORTCUT
         &PBE  T
         &END PBE
       &END XC_FUNCTIONAL
       &VDW_POTENTIAL
         POTENTIAL_TYPE  PAIR_POTENTIAL
         &PAIR_POTENTIAL
           R_CUTOFF     1.0000000000000004E+01
           TYPE  DFTD3
           PARAMETER_FILE_NAME dftd3.dat
           REFERENCE_FUNCTIONAL PBE
           EPS_CN     9.9999999999999995E-07
           CALCULATE_C9_TERM  T
           REFERENCE_C9_TERM  T
           LONG_RANGE_CORRECTION  F
           VERBOSE_OUTPUT  F
         &END PAIR_POTENTIAL
       &END VDW_POTENTIAL
     &END XC
   &END DFT
   &SUBSYS
     &CELL
       A     9.7407021404808134E+00    0.0000000000000000E+00    0.0000000000000000E+00
       B    -4.8566880700688326E+00    8.4120304938728108E+00    0.0000000000000000E+00
       C     0.0000000000000000E+00    0.0000000000000000E+00    3.0744000000000000E+01
       MULTIPLE_UNIT_CELL  1 1 1
       &CELL_REF
         A     9.5580000000000034E+00    0.0000000000000000E+00    0.0000000000000000E+00
         B    -4.7790000000000017E+00    8.2774708093716640E+00    0.0000000000000000E+00
         C     0.0000000000000000E+00    0.0000000000000000E+00    3.0744000000000000E+01
         MULTIPLE_UNIT_CELL  1 1 1
       &END CELL_REF
     &END CELL
     &COORD
Ga    1.2048679192115778E-03   -7.5623430482371157E-04   -5.8850881446652037E-01
N    4.9708710001135359E-03    1.8719104938712814E+00    5.6526509374672007E-01
Ga    4.0647043777953425E-03    1.8394297349000457E+00    2.5955006609834705E+00
N   -4.5743736018004160E-04   -3.3637986767082705E-03    3.2293017925820444E+00
Ga    6.7776651211934539E-05   -3.3485275091951045E-03    5.2204837467146250E+00
N    4.3900061629664824E-03    1.8712244097028106E+00    5.8069950270217650E+00
Ga    3.6748688710278080E-03    1.8684661836847565E+00    7.8059433134092071E+00
N   -4.3425081154648649E-04   -4.6491368034968670E-03    8.4083868845034946E+00
Ga    1.3160109712991277E-04   -3.4570976768549550E-03    1.0406297892376397E+01
N    3.7023841243961470E-03    1.8683301914575636E+00    1.1010931252923283E+01
Ga    2.6337993534872417E-03    1.8739555469999687E+00    1.3005288474563837E+01
N   -6.8592176028574260E-04    4.6414724493017735E-03    1.3611328667525779E+01
Ga   -7.5620918833044747E-03    1.4453031042404859E-02    1.5615235918876669E+01
N    1.6102370417804136E-03    1.8838459460174333E+00    1.6260857186960781E+01
Ga    1.3147163259738763E-02    1.9035449068773804E+00    1.8374619985258530E+01
N    3.5210623056975503E-03    8.2117655255670406E-03    1.8661130825829602E+01
Ga   -1.6169507389768145E+00    2.8022232560406319E+00    2.7940225201379371E-01
N   -1.6193303314841136E+00    4.6712561489274655E+00    5.6522842612237023E-01
Ga   -1.5908720912237015E+00    4.6862881325490022E+00    2.5953896559100844E+00
N   -1.6188371130564481E+00    2.8008393820523905E+00    3.1874825829421263E+00
Ga   -1.6183588218099731E+00    2.8011100045130135E+00    5.1986427207619563E+00
N   -1.6174487154602730E+00    4.6710469185400223E+00    5.8069046813080423E+00
Ga   -1.6168960455171775E+00    4.6699424338589273E+00    7.8061379201021834E+00
N   -1.6196454534464348E+00    2.7992598879191428E+00    8.4103770253444310E+00
Ga   -1.6190036694009189E+00    2.8000293169813992E+00    1.0406456045755464E+01
N   -1.6110890403105163E+00    4.6703989923780789E+00    1.1013936390888041E+01
Ga   -1.6067971750668166E+00    4.6701059848085595E+00    1.3009873773766166E+01
N   -1.6180149406991446E+00    2.8012861673630876E+00    1.3623425403528456E+01
Ga   -1.6228577080785580E+00    2.7993597492474769E+00    1.5631557594415414E+01
N   -1.6225256151469492E+00    4.6792489517435865E+00    1.6214795331392207E+01
Ga   -1.6119607649837671E+00    4.6767437602295434E+00    1.8295519236201670E+01
N   -1.6220522794644303E+00    2.8141159975103980E+00    1.8739718738096872E+01
Ga   -3.2373151266999893E+00    5.6072438982792843E+00    2.7937500025076645E-01
N   -3.2301265306756073E+00    7.4766070304497267E+00    5.6511754636080569E-01
Ga   -3.2587295234252873E+00    7.4906694523710993E+00    2.5954772920837539E+00
N   -3.2381430377103606E+00    5.6052032300349381E+00    3.1878602717877582E+00
Ga   -3.2379544897421164E+00    5.6055207588739489E+00    5.1990042187754684E+00
N   -3.2309277400395104E+00    7.4746098337887776E+00    5.8082986833749208E+00
Ga   -3.2323540202665861E+00    7.4730265317800377E+00    7.8078512507832052E+00
N   -3.2379225981403952E+00    5.6028019426198279E+00    8.4148934474403490E+00
Ga   -3.2371681427460146E+00    5.6034277934370085E+00    1.0412935430172043E+01
N   -3.2338848519836514E+00    7.4771481899549119E+00    1.1013560025070293E+01
Ga   -3.2339972403269468E+00    7.4813476996912378E+00    1.3009958118246548E+01
N   -3.2357501491952738E+00    5.6022079518520034E+00    1.3592845783635914E+01
Ga   -3.2397509123088661E+00    5.6022037436924119E+00    1.5585956261996976E+01
N   -3.2415444552760202E+00    7.4755609159416467E+00    1.6159669449580608E+01
Ga   -3.2466932624522618E+00    7.4920653462825104E+00    1.8209647278961608E+01
N   -3.2502664488974400E+00    5.6147155383447522E+00    1.8605138002918522E+01
Ga    3.2475889983073056E+00   -3.4050798799994874E-03    2.7925940982298669E-01
N    3.2482961242612691E+00    1.8681350283524165E+00    5.6415937806353800E-01
Ga    3.2744865321739094E+00    1.8819134098886183E+00    2.5978139405124172E+00
N    3.2464372433069650E+00   -3.2902788246233078E-03    3.1875226270817159E+00
Ga    3.2465797986563176E+00   -3.2981731626076120E-03    5.1986995116201138E+00
N    3.2484527736932711E+00    1.8665952402218928E+00    5.8068702865730346E+00
Ga    3.2488431382987102E+00    1.8650722851815795E+00    7.8060644985788752E+00
N    3.2468196580484339E+00   -5.1431871386574037E-03    8.4118748197733222E+00
Ga    3.2471480284820973E+00   -4.1630013515149633E-03    1.0408880868030966E+01
N    3.2492959681280054E+00    1.8672209224449947E+00    1.1014243773373467E+01
Ga    3.2446821134798642E+00    1.8657974990454607E+00    1.3011746121501169E+01
N    3.2469065150986598E+00   -3.6719566532549463E-03    1.3624941589007683E+01
Ga    3.2513854883636188E+00   -1.2180094725546002E-03    1.5629276523529638E+01
N    3.2300926824417142E+00    1.8808928977433823E+00    1.6209391679967016E+01
Ga    3.2417988950317298E+00    1.8936296072998624E+00    1.8279012410944251E+01
N    3.2399192186318322E+00   -2.3145047395272808E-03    1.8576572645614185E+01
Ga    1.6266730396466320E+00    2.8029335217541953E+00    2.7952399086178586E-01
N    1.6368658316375178E+00    4.6719960332557333E+00    5.6548391050970570E-01
Ga    1.6078453945018403E+00    4.6864223061338972E+00    2.5956039651554415E+00
N    1.6275808760540560E+00    2.8008487149976329E+00    3.1876374508724807E+00
Ga    1.6279815081387152E+00    2.8011493783855173E+00    5.1988365906715046E+00
N    1.6351670180290068E+00    4.6711002216602449E+00    5.8070278941321209E+00
Ga    1.6332489332899476E+00    4.6699147927529880E+00    7.8063210381219434E+00
N    1.6276022843943139E+00    2.7992568220785548E+00    8.4104677327990398E+00
Ga    1.6274278824156552E+00    2.8000346967069385E+00    1.0406682632076087E+01
N    1.6281509951513224E+00    4.6708424136640678E+00    1.1012864437930881E+01
Ga    1.6219781136918763E+00    4.6702571851506649E+00    1.3008249738434710E+01
N    1.6233177886654440E+00    2.8015383820335922E+00    1.3618768554887552E+01
Ga    1.6191973106390365E+00    2.8009747544383834E+00    1.5626100193451327E+01
N    1.6358344086167789E+00    4.6772322865435152E+00    1.6212219132116271E+01
Ga    1.6498733232494742E+00    4.6776529850683817E+00    1.8292878979585144E+01
N    1.6360339763953557E+00    2.8148762397988243E+00    1.8748722281661806E+01
Ga    9.9897452407255744E-03    5.6073400504763304E+00   -5.8841435546108556E-01
N    1.3988893542944022E-02    7.4811773428119377E+00    5.6551019674027381E-01
Ga    1.3057349413373758E-02    7.4479093159109304E+00    2.5954990205862991E+00
N    8.7488746216068600E-03    5.6046244900512816E+00    3.2282352075614056E+00
Ga    9.2222525786772626E-03    5.6051772937161477E+00    5.2189927435394310E+00
N    1.3479603855997063E-02    7.4795392929546969E+00    5.8064040879627887E+00
Ga    1.2876938482443430E-02    7.4763216287155929E+00    7.8054889158185867E+00
N    8.4600671375664929E-03    5.6036669848354368E+00    8.4071927651786371E+00
Ga    8.6454637848852982E-03    5.6055347893444560E+00    1.0404529484620321E+01
N    1.2998323695707097E-02    7.4748921942723596E+00    1.1016568742560334E+01
Ga    1.2182559714213911E-02    7.4758493157824741E+00    1.3015741765075013E+01
N    6.8418862067594656E-03    5.6090939422318007E+00    1.3635728009961381E+01
Ga    4.3117035529266282E-03    5.6186697792620848E+00    1.5647392829257525E+01
N    9.6780947840460433E-03    7.4892228148256788E+00    1.6224368314900786E+01
Ga    2.5096825011881142E-02    7.4752634881700937E+00    1.8290063469853216E+01
N    1.3989554639365137E-02    5.5907973241543596E+00    1.8651745295352804E+01
Ga    6.4936951993206762E+00   -2.6695554586078770E-03    2.7949469469661331E-01
N    6.5009524458248640E+00    1.8689428513568955E+00    5.6446911559807145E-01
Ga    6.4740255853746103E+00    1.8820415408061166E+00    2.5979639582020879E+00
N    6.4939544718282063E+00   -3.4514823459951163E-03    3.1872889417632315E+00
Ga    6.4944928078799347E+00   -3.4095221680303174E-03    5.1984399876036376E+00
N    6.5009769450532957E+00    1.8664633971596547E+00    5.8065892159849000E+00
Ga    6.4992561434455229E+00    1.8647689532685288E+00    7.8058982443847666E+00
N    6.4928185640000029E+00   -5.1752558896048430E-03    8.4124915428982128E+00
Ga    6.4934780587359491E+00   -4.4247075816569968E-03    1.0409592633571872E+01
N    6.4996970871283386E+00    1.8671209927244112E+00    1.1014851411430065E+01
Ga    6.5025933571329988E+00    1.8658167234837857E+00    1.3012704623905631E+01
N    6.4915763641807436E+00   -4.8380488270553541E-03    1.3623378318628463E+01
Ga    6.4808954021935223E+00   -6.1591504712432852E-03    1.5628687990595308E+01
N    6.5113488235743553E+00    1.8736754415070866E+00    1.6210594055015971E+01
Ga    6.5229578296581456E+00    1.8926773462601796E+00    1.8281510401782374E+01
N    6.5079129818729333E+00   -1.8089328582597919E-03    1.8583231309243057E+01
Ga    4.8758289745540386E+00    2.8032125276149178E+00   -5.5528398326999850E-01
N    4.8798307670548082E+00    4.6752675435601381E+00    5.6456675345923324E-01
Ga    4.8789252644506416E+00    4.6446416910506922E+00    2.5979097115392134E+00
N    4.8745259264630203E+00    2.8007865104220850E+00    3.2288023977691234E+00
Ga    4.8750557586339065E+00    2.8012382698524618E+00    5.2208040500508712E+00
N    4.8792816250249755E+00    4.6754861926864120E+00    5.8087707542570417E+00
Ga    4.8786664335679433E+00    4.6720079625435886E+00    7.8089471732130127E+00
N    4.8745188407413371E+00    2.7976908586550717E+00    8.4085909156525460E+00
Ga    4.8749906922499164E+00    2.7969443978261173E+00    1.0407020924166902E+01
N    4.8792916483187483E+00    4.6668898793424836E+00    1.1012297078671891E+01
Ga    4.8786255947038866E+00    4.6616479150622174E+00    1.3007747697788835E+01
N    4.8735256867980103E+00    2.7852588503573839E+00    1.3618205328168653E+01
Ga    4.8686072508058338E+00    2.7785944038018711E+00    1.5620780277168734E+01
N    4.8734446281028996E+00    4.6699840447230141E+00    1.6126734144039418E+01
Ga    4.8855352433565260E+00    4.6878482223384115E+00    1.8167222479243048E+01
N    4.8784867589738097E+00    2.8146446171747139E+00    1.8588706009506087E+01
Ga    3.2560738634482962E+00    5.6065228840737449E+00    2.7911536205122778E-01
N    3.2568392980863878E+00    7.4757985733211640E+00    5.6458408025816120E-01
Ga    3.2848146178491411E+00    7.4903908312197354E+00    2.5950857950820616E+00
N    3.2560272832996424E+00    5.6052440352006263E+00    3.1877697923469239E+00
Ga    3.2565817354530142E+00    5.6055411771628654E+00    5.1990849003148387E+00
N    3.2577079941402851E+00    7.4746638978895499E+00    5.8084818927261761E+00
Ga    3.2578455736266725E+00    7.4731279319457373E+00    7.8080955359374453E+00
N    3.2552392551875586E+00    5.6026812331961793E+00    8.4145585647842776E+00
Ga    3.2555346394362177E+00    5.6032296650618054E+00    1.0412515598016277E+01
N    3.2609144552767027E+00    7.4768881827354781E+00    1.1012900088425985E+01
Ga    3.2596417054290971E+00    7.4801579057931722E+00    1.3009495764865830E+01
N    3.2514373340026088E+00    5.6006955385412072E+00    1.3589380748226917E+01
Ga    3.2460006990560109E+00    5.6041035427825445E+00    1.5582673283456462E+01
N    3.2645939678564053E+00    7.4724036355591084E+00    1.6161839087599354E+01
Ga    3.2871031905674539E+00    7.4929800665552273E+00    1.8212259147359109E+01
N    3.2744582802582163E+00    5.6174109259007281E+00    1.8612331470297466E+01
     &END COORD
     &KIND N
       BASIS_SET DZVP-MOLOPT-SR-GTH
       POTENTIAL GTH-PBE-q5
       &POTENTIAL
2 3
0.2837905100000000E+00 2 -0.1241522559000000E+02  0.1868095920000000E+01
2
0.2554050000000000E+00 1  0.1363026257000000E+02
0.2454945300000000E+00 0
       &END POTENTIAL
     &END KIND
     &KIND Ga
       BASIS_SET DZVP-MOLOPT-SR-GTH
       POTENTIAL GTH-PBE-q13
       &POTENTIAL
2 1 10
0.4900000000000000E+00 0
3
0.4167772300000000E+00 3  0.1047568975000000E+02 -0.4921768140000000E+01  0.8707055900000000E+00
0.7770178090000000E+01 -0.2248152160000000E+01
0.1784415450000000E+01
0.5696265200000000E+00 2  0.1777985340000000E+01  0.1958597600000000E+00
-0.2317443900000000E+00
0.2381265000000000E+00 1 -0.1624868022000000E+02
       &END POTENTIAL
     &END KIND
     &TOPOLOGY
       COORD_FILE_NAME 334-native.xyz
       COORD_FILE_FORMAT  XYZ
       NUMBER_OF_ATOMS  144
       MULTIPLE_UNIT_CELL  1 1 1
     &END TOPOLOGY
   &END SUBSYS
 &END FORCE_EVAL
