 # Version information for this restart file 
 # current date 2019-05-16 05:34:05.727
 # current working dir /lustre03/project/6004141/rzk/GaN-carbene/00-Surface/00-Preoptimization/334-native/Trial4
 # Program compiled at                              Sun Apr  7 00:48:11 EDT 2019
 # Program compiled on                          beluga2.int.ets1.calculquebec.ca
 # Program compiled for                        Beluga-Linux-x86-64-intel-openmpi
 # Source code revision number                                         svn:18619
 &GLOBAL
   PRINT_LEVEL  MEDIUM
   PROJECT_NAME TEST
   RUN_TYPE  CELL_OPT
 &END GLOBAL
 &MOTION
   &CELL_OPT
     MAX_ITER  100
     STEP_START_VAL  92
     EXTERNAL_PRESSURE     1.0000000000000000E+00
     KEEP_ANGLES  T
     KEEP_SYMMETRY  T
     CONSTRAINT  Z
     PRESSURE_TOLERANCE     1.0000000000000000E+02
   &END CELL_OPT
 &END MOTION
 &FORCE_EVAL
   METHOD  QS
   STRESS_TENSOR  ANALYTICAL
   &DFT
     BASIS_SET_FILE_NAME BASIS_MOLOPT
     POTENTIAL_FILE_NAME GTH_POTENTIALS
     &SCF
       MAX_SCF  100
       EPS_SCF     5.0000000000000004E-06
       &OT  T
         PRECONDITIONER  FULL_ALL
       &END OT
       &OUTER_SCF  T
         OPTIMIZER  NONE
         EPS_SCF     5.0000000000000004E-06
         MAX_SCF  10
       &END OUTER_SCF
       &PRINT
         &RESTART  OFF
           BACKUP_COPIES  1
           &EACH
             JUST_ENERGY  0
             QS_SCF  0
             MD  20
           &END EACH
         &END RESTART
       &END PRINT
     &END SCF
     &ALMO_SCF
       EPS_FILTER     9.9999999999999994E-12
       ALMO_SCF_GUESS  ATOMIC
       MO_OVERLAP_INV_ALG  DENSE_CHOLESKY
       ALMO_EXTRAPOLATION_ORDER  4
       XALMO_EXTRAPOLATION_ORDER  4
       ALMO_ALGORITHM  SKIP
       XALMO_TRIAL_WF  SIMPLE
       DELOCALIZE_METHOD  XALMO_SCF
       XALMO_R_CUTOFF_FACTOR     1.8000000000000000E+00
       &ALMO_OPTIMIZER_DIIS
         MAX_ITER  100
         EPS_ERROR     1.0000000000000001E-05
         N_DIIS  5
       &END ALMO_OPTIMIZER_DIIS
       &ALMO_OPTIMIZER_PCG
         MAX_ITER  50
         EPS_ERROR     1.0000000000000001E-05
         LIN_SEARCH_EPS_ERROR     5.0000000000000003E-02
         LIN_SEARCH_STEP_SIZE_GUESS     5.0000000000000001E-03
         CONJUGATOR  DAI_YUAN
         MAX_ITER_OUTER_LOOP  10
       &END ALMO_OPTIMIZER_PCG
       &XALMO_OPTIMIZER_PCG
         MAX_ITER  1000
         EPS_ERROR     1.0000000000000001E-05
         LIN_SEARCH_EPS_ERROR     1.0000000000000001E-01
         LIN_SEARCH_STEP_SIZE_GUESS     1.0000000000000000E-02
         CONJUGATOR  DAI_YUAN
         PRECOND_FILTER_THRESHOLD     1.0000000000000000E-03
         MAX_ITER_OUTER_LOOP  0
       &END XALMO_OPTIMIZER_PCG
       &MATRIX_ITERATE
         EPS_TARGET_FACTOR     1.0000000000000000E+01
       &END MATRIX_ITERATE
     &END ALMO_SCF
     &QS
       EPS_DEFAULT     1.0000000000000000E-14
       ALMO_SCF  F
       METHOD  GPW
     &END QS
     &MGRID
       NGRIDS  5
       CUTOFF     1.2000000000000000E+03
     &END MGRID
     &XC
       DENSITY_CUTOFF     1.0000000000000000E-10
       GRADIENT_CUTOFF     1.0000000000000000E-10
       TAU_CUTOFF     1.0000000000000000E-10
       &XC_FUNCTIONAL  NO_SHORTCUT
         &PBE  T
         &END PBE
       &END XC_FUNCTIONAL
       &VDW_POTENTIAL
         POTENTIAL_TYPE  PAIR_POTENTIAL
         &PAIR_POTENTIAL
           R_CUTOFF     1.0000000000000002E+01
           TYPE  DFTD3
           PARAMETER_FILE_NAME dftd3.dat
           REFERENCE_FUNCTIONAL PBE
           EPS_CN     9.9999999999999995E-07
           CALCULATE_C9_TERM  T
           REFERENCE_C9_TERM  T
           LONG_RANGE_CORRECTION  F
           VERBOSE_OUTPUT  F
         &END PAIR_POTENTIAL
       &END VDW_POTENTIAL
     &END XC
   &END DFT
   &SUBSYS
     &CELL
       A     9.7438338899427865E+00    0.0000000000000000E+00    0.0000000000000000E+00
       B    -4.8548511309828317E+00    8.4088488220454494E+00    0.0000000000000000E+00
       C     0.0000000000000000E+00    0.0000000000000000E+00    3.0744000000000000E+01
       MULTIPLE_UNIT_CELL  1 1 1
       &CELL_REF
         A     9.5580000000000016E+00    0.0000000000000000E+00    0.0000000000000000E+00
         B    -4.7790000000000008E+00    8.2774708093716640E+00    0.0000000000000000E+00
         C     0.0000000000000000E+00    0.0000000000000000E+00    3.0744000000000000E+01
         MULTIPLE_UNIT_CELL  1 1 1
       &END CELL_REF
     &END CELL
     &COORD
Ga    1.0233742640291396E-03    1.0269094066820113E-03   -5.8986434101904994E-01
N    6.4925675136466654E-03    1.8728498804354319E+00    5.6544972176664854E-01
Ga    5.0785072363247535E-03    1.8396189756373034E+00    2.5954489064240684E+00
N   -8.5692307974262770E-05   -2.8780808289330748E-03    3.2288178527761904E+00
Ga    3.1113874282897262E-04   -2.7166717350965066E-03    5.2197959697700833E+00
N    5.1485743693822396E-03    1.8711134139246375E+00    5.8066453453302964E+00
Ga    4.0503518883045668E-03    1.8675778956007671E+00    7.8059483040404825E+00
N   -6.2548842791901695E-04   -5.3087056733133603E-03    8.4078726642271118E+00
Ga    1.1912717853753401E-04   -4.2357488077627856E-03    1.0405896328148607E+01
N    4.0814435310059394E-03    1.8670498019789616E+00    1.1011434067992139E+01
Ga    3.5848191473620019E-03    1.8716042017472660E+00    1.3006691415156794E+01
N   -1.1556700009233737E-03    2.1006635573383422E-03    1.3611942183619123E+01
Ga   -7.7417537523872225E-03    1.1140839659781505E-02    1.5616422223391163E+01
N    2.5491565552554210E-03    1.8827881830130375E+00    1.6254415340469755E+01
Ga    1.8247656025767094E-02    1.9073627556832615E+00    1.8358403120584988E+01
N    3.2294000070876498E-03    1.1508255201113109E-02    1.8668092038036260E+01
Ga   -1.6155149541538461E+00    2.8024354562711538E+00    2.7955190965198651E-01
N   -1.6182434227776925E+00    4.6707666893519377E+00    5.6519866728971502E-01
Ga   -1.5891148008444202E+00    4.6855152084895009E+00    2.5950428283707443E+00
N   -1.6184926669135642E+00    2.8000451800759998E+00    3.1863024491521679E+00
Ga   -1.6177564765313790E+00    2.8001342967394849E+00    5.1977872970933339E+00
N   -1.6159803341133492E+00    4.6696068434006701E+00    5.8063451935479842E+00
Ga   -1.6161364920297918E+00    4.6678260918516123E+00    7.8058581513265359E+00
N   -1.6196907544537573E+00    2.7976101639200910E+00    8.4102290972645228E+00
Ga   -1.6192886912395221E+00    2.7978682106460750E+00    1.0406472283477777E+01
N   -1.6107678107102059E+00    4.6679327944561022E+00    1.1014103284722619E+01
Ga   -1.6074971777213591E+00    4.6663530235812161E+00    1.3010302297452283E+01
N   -1.6185152874100912E+00    2.7976430844738216E+00    1.3624679857435376E+01
Ga   -1.6246117410644245E+00    2.7915779245783514E+00    1.5632840245585648E+01
N   -1.6232025586446241E+00    4.6757219324362920E+00    1.6215913507600057E+01
Ga   -1.6081011390184212E+00    4.6785313784676603E+00    1.8295628111826716E+01
N   -1.6219466157906364E+00    2.8123445382690493E+00    1.8731160371842488E+01
Ga   -3.2359067779253015E+00    5.6056210462098575E+00    2.7979236464374407E-01
N   -3.2268983545979864E+00    7.4748337030014635E+00    5.6385522770576824E-01
Ga   -3.2563433546597684E+00    7.4889594258268728E+00    2.5947406201964633E+00
N   -3.2369918149851049E+00    5.6038551340554559E+00    3.1872352052111395E+00
Ga   -3.2364893668652592E+00    5.6039356817433692E+00    5.1985545324360469E+00
N   -3.2285240460660898E+00    7.4727340110935012E+00    5.8072112651716221E+00
Ga   -3.2304304384879612E+00    7.4701271915092997E+00    7.8068990187897223E+00
N   -3.2374594243116146E+00    5.6001958697893448E+00    8.4146554750081002E+00
Ga   -3.2371111681727460E+00    5.6003076629262836E+00    1.0412882149109951E+01
N   -3.2321510931997901E+00    7.4733207271885309E+00    1.1013880711236682E+01
Ga   -3.2319712448593849E+00    7.4762846902365618E+00    1.3010921959078964E+01
N   -3.2353818038752400E+00    5.5976235478186727E+00    1.3597000088379222E+01
Ga   -3.2441945416035964E+00    5.5971268758657340E+00    1.5591927679621158E+01
N   -3.2419022931143169E+00    7.4703483935843344E+00    1.6166291909405441E+01
Ga   -3.2419505116186711E+00    7.4936912656287866E+00    1.8220764051967084E+01
N   -3.2461207008353394E+00    5.6137681065918725E+00    1.8615413760478027E+01
Ga    3.2495159076367357E+00   -3.4760523358675238E-03    2.7897070797632356E-01
N    3.2499312496804591E+00    1.8683345740885464E+00    5.6421779274360095E-01
Ga    3.2761475817862769E+00    1.8820447305889345E+00    2.5982946641269611E+00
N    3.2476925542674624E+00   -2.9012607254203251E-03    3.1865790567313117E+00
Ga    3.2479871379312231E+00   -2.9596450742668074E-03    5.1977040012588844E+00
N    3.2504034351490518E+00    1.8666100362824147E+00    5.8055513520903164E+00
Ga    3.2502667688459095E+00    1.8643995281427928E+00    7.8051703339559566E+00
N    3.2473333477487802E+00   -5.5368414393342511E-03    8.4113476165546786E+00
Ga    3.2474306141204234E+00   -5.1618281275819938E-03    1.0408460156682937E+01
N    3.2508594037229641E+00    1.8657046541188389E+00    1.1014509328715604E+01
Ga    3.2467424423287974E+00    1.8625713423983032E+00    1.3012055068095833E+01
N    3.2467530887931639E+00   -5.5750473120438349E-03    1.3625479002887484E+01
Ga    3.2476957335442087E+00   -3.1856322720794621E-03    1.5631572317078279E+01
N    3.2310790115602108E+00    1.8807390755453106E+00    1.6214497976778429E+01
Ga    3.2481372583010204E+00    1.8991882909588826E+00    1.8288028352232942E+01
N    3.2432573326622345E+00    6.8014599918768366E-05    1.8576130484108614E+01
Ga    1.6282115093258984E+00    2.8032446108389437E+00    2.7922768480431914E-01
N    1.6401828504571463E+00    4.6718513305841345E+00    5.6295257597498460E-01
Ga    1.6102461907221193E+00    4.6859122529846813E+00    2.5938616343743863E+00
N    1.6290670852788363E+00    2.8005968701519222E+00    3.1866543915009657E+00
Ga    1.6292729981110712E+00    2.8003711726967859E+00    5.1981379442639026E+00
N    1.6378975520641275E+00    4.6697910900804285E+00    5.8061727823870646E+00
Ga    1.6351862887729944E+00    4.6676987893742981E+00    7.8055405052706908E+00
N    1.6286807837785393E+00    2.7974995374059906E+00    8.4102496668318807E+00
Ga    1.6285536290420457E+00    2.7979357200460639E+00    1.0406795750586785E+01
N    1.6309966613426365E+00    4.6686870643076546E+00    1.1012271702411118E+01
Ga    1.6253661142032336E+00    4.6671201008534728E+00    1.3007700253611040E+01
N    1.6255563428381550E+00    2.7985825349106968E+00    1.3617965654632147E+01
Ga    1.6178929144092213E+00    2.7991093741428332E+00    1.5624493298637335E+01
N    1.6391994554947789E+00    4.6732937728286936E+00    1.6210259984371223E+01
Ga    1.6566020300551645E+00    4.6817811180068869E+00    1.8288674212723951E+01
N    1.6358780068382288E+00    2.8163408080146075E+00    1.8748783280968972E+01
Ga    1.1764326370019245E-02    5.6063030470133457E+00   -5.9218133852876254E-01
N    1.7610610158856860E-02    7.4794041036621355E+00    5.6447927063130554E-01
Ga    1.6654627209168112E-02    7.4458510006329632E+00    2.5943610525052891E+00
N    1.1154984660018737E-02    5.6030741623744484E+00    3.2279763844160074E+00
Ga    1.1610038695032588E-02    5.6032977683506759E+00    5.2191755451850090E+00
N    1.6625108072624031E-02    7.4773250549040959E+00    5.8062544230658730E+00
Ga    1.5613215057066776E-02    7.4731289695677274E+00    7.8054591608236894E+00
N    1.0007217997887665E-02    5.6005723043568389E+00    8.4070891416476297E+00
Ga    1.0169468116330982E-02    5.6023897771748361E+00    1.0404848365362948E+01
N    1.5534953474040507E-02    7.4715474585853396E+00    1.1016113054331282E+01
Ga    1.4056793569565417E-02    7.4713362649209030E+00    1.3015542724765771E+01
N    8.3308758386270495E-03    5.6036200424860168E+00    1.3632190905421320E+01
Ga    5.0257425754451886E-03    5.6103451980175238E+00    1.5643177920185282E+01
N    1.3257609055733928E-02    7.4855136436980674E+00    1.6212768350757830E+01
Ga    3.0636679349970008E-02    7.4793332788233098E+00    1.8272479384990369E+01
N    1.5959533868953723E-02    5.5934048045703859E+00    1.8643514236836143E+01
Ga    6.4958790914316342E+00   -3.0195354604457374E-03    2.7907238545561197E-01
N    6.5040184572808188E+00    1.8693550027745616E+00    5.6248660088993940E-01
Ga    6.4767723164198499E+00    1.8824187661462677E+00    2.5971847782307029E+00
N    6.4958816129131467E+00   -2.2906840840442931E-03    3.1869850985051618E+00
Ga    6.4963753937461961E+00   -2.7071929509771653E-03    5.1985099739093039E+00
N    6.5039504519413258E+00    1.8668390184880435E+00    5.8060810147682531E+00
Ga    6.5015497599348784E+00    1.8643690842683722E+00    7.8055015109939099E+00
N    6.4945464692377994E+00   -5.5553967707664626E-03    8.4115324913140856E+00
Ga    6.4949842124667603E+00   -5.3388151237177160E-03    1.0408870009227138E+01
N    6.5016640948592812E+00    1.8657918035401395E+00    1.1014689323805211E+01
Ga    6.5050782563660645E+00    1.8634402891951283E+00    1.3012612302355496E+01
N    6.4947427330075413E+00   -7.7263905336869181E-03    1.3619144233626537E+01
Ga    6.4838090562237776E+00   -1.0715865098212865E-02    1.5622975655276390E+01
N    6.5108078567289498E+00    1.8678487258195444E+00    1.6210572762331637E+01
Ga    6.5246148581910619E+00    1.8979688693240191E+00    1.8281750317781260E+01
N    6.5090450887520532E+00    5.8224379060839394E-04    1.8584298826190693E+01
Ga    4.8775788756285259E+00    2.8039153545501065E+00   -5.4883186493974490E-01
N    4.8834582117750394E+00    4.6746558639930464E+00    5.6509562169579086E-01
Ga    4.8824038663179028E+00    4.6441626387689627E+00    2.5986121664981563E+00
N    4.8770677778972669E+00    2.8003672513809073E+00    3.2278710682271949E+00
Ga    4.8778451946048502E+00    2.8006457119050832E+00    5.2199946225736751E+00
N    4.8830750347800782E+00    4.6745880988062476E+00    5.8076808266971627E+00
Ga    4.8818380492255011E+00    4.6701602157551756E+00    7.8078914616811597E+00
N    4.8764129575906479E+00    2.7964352601189035E+00    8.4082046725277380E+00
Ga    4.8767448079389286E+00    2.7951773691513262E+00    1.0406936585995313E+01
N    4.8822465668045449E+00    4.6644041362121325E+00    1.1013870425737677E+01
Ga    4.8826551800790972E+00    4.6581739778841929E+00    1.3009893296427986E+01
N    4.8759810700584474E+00    2.7815927125334268E+00    1.3621148821802384E+01
Ga    4.8689351783643042E+00    2.7758747341492573E+00    1.5625234784025901E+01
N    4.8746364652204992E+00    4.6651886019016269E+00    1.6140077728308004E+01
Ga    4.8917414052054706E+00    4.6909551225001982E+00    1.8185673635827275E+01
N    4.8818801506717699E+00    2.8158073702763500E+00    1.8607587820956947E+01
Ga    3.2595177455526860E+00    5.6052500723787864E+00    2.7842169942607115E-01
N    3.2608941343108011E+00    7.4739154729215498E+00    5.6508710519011696E-01
Ga    3.2889721888532510E+00    7.4887990425429427E+00    2.5955089762903207E+00
N    3.2591699507816130E+00    5.6037019909001353E+00    3.1871152765944557E+00
Ga    3.2598222136864550E+00    5.6038442885016542E+00    5.1983883174881376E+00
N    3.2622164527320043E+00    7.4727591104243860E+00    5.8072443449349533E+00
Ga    3.2618635099658166E+00    7.4702718477836925E+00    7.8070503836829426E+00
N    3.2580553500400180E+00    5.5999575882344583E+00    8.4131522594216328E+00
Ga    3.2588532010701070E+00    5.6001868281607949E+00    1.0411235378766987E+01
N    3.2651300722725756E+00    7.4732868754174477E+00    1.1011140053657464E+01
Ga    3.2648836889077222E+00    7.4756483647946483E+00    1.3007284623823319E+01
N    3.2556224403570670E+00    5.5967978245955461E+00    1.3590284793328923E+01
Ga    3.2484256395453031E+00    5.5981302122018040E+00    1.5584031842552749E+01
N    3.2687950200344411E+00    7.4660396632902151E+00    1.6165038944745028E+01
Ga    3.2939407640446587E+00    7.4968666983327763E+00    1.8217230475353958E+01
N    3.2764069098784385E+00    5.6191136434900644E+00    1.8620870430678327E+01
     &END COORD
     &KIND N
       BASIS_SET DZVP-MOLOPT-SR-GTH
       POTENTIAL GTH-PBE-q5
       &POTENTIAL
 2 3
  0.2837905100000000E+00 2 -0.1241522559000000E+02  0.1868095920000000E+01
 2
  0.2554050000000000E+00 1  0.1363026257000000E+02
  0.2454945300000000E+00 0
         # Potential name:  GTH-PBE-Q5  for symbol:  N
         # Potential read from the potential filename: GTH_POTENTIALS
       &END POTENTIAL
     &END KIND
     &KIND Ga
       BASIS_SET DZVP-MOLOPT-SR-GTH
       POTENTIAL GTH-PBE-q13
       &POTENTIAL
 2 1 10
  0.4900000000000000E+00 0
 3
  0.4167772300000000E+00 3  0.1047568975000000E+02 -0.4921768140000000E+01  0.8707055900000000E+00
  0.7770178090000000E+01 -0.2248152160000000E+01
  0.1784415450000000E+01
  0.5696265200000000E+00 2  0.1777985340000000E+01  0.1958597600000000E+00
 -0.2317443900000000E+00
  0.2381265000000000E+00 1 -0.1624868022000000E+02
         # Potential name:  GTH-PBE-Q13  for symbol:  GA
         # Potential read from the potential filename: GTH_POTENTIALS
       &END POTENTIAL
     &END KIND
     &TOPOLOGY
       COORD_FILE_NAME 334-native.xyz
       COORD_FILE_FORMAT  XYZ
       NUMBER_OF_ATOMS  144
       MULTIPLE_UNIT_CELL  1 1 1
     &END TOPOLOGY
   &END SUBSYS
 &END FORCE_EVAL
