 # Version information for this restart file 
 # current date 2019-05-16 14:32:34.219
 # current working dir /lustre03/project/6004141/rzk/GaN-carbene/00-Surface/00-Preoptimization/334-native/Trial4
 # Program compiled at                              Sun Apr  7 00:48:11 EDT 2019
 # Program compiled on                          beluga2.int.ets1.calculquebec.ca
 # Program compiled for                        Beluga-Linux-x86-64-intel-openmpi
 # Source code revision number                                         svn:18619
 &GLOBAL
   PRINT_LEVEL  MEDIUM
   PROJECT_NAME TEST
   RUN_TYPE  CELL_OPT
 &END GLOBAL
 &MOTION
   &CELL_OPT
     MAX_ITER  150
     STEP_START_VAL  104
     EXTERNAL_PRESSURE     1.0000000000000000E+00
     KEEP_ANGLES  T
     KEEP_SYMMETRY  T
     CONSTRAINT  Z
     PRESSURE_TOLERANCE     3.0000000000000000E+02
   &END CELL_OPT
 &END MOTION
 &FORCE_EVAL
   METHOD  QS
   STRESS_TENSOR  ANALYTICAL
   &DFT
     BASIS_SET_FILE_NAME BASIS_MOLOPT
     POTENTIAL_FILE_NAME GTH_POTENTIALS
     &SCF
       MAX_SCF  100
       EPS_SCF     5.0000000000000004E-06
       &OT  T
         PRECONDITIONER  FULL_ALL
       &END OT
       &OUTER_SCF  T
         OPTIMIZER  NONE
         EPS_SCF     5.0000000000000004E-06
         MAX_SCF  10
       &END OUTER_SCF
       &PRINT
         &RESTART  OFF
           BACKUP_COPIES  1
           &EACH
             JUST_ENERGY  0
             QS_SCF  0
             MD  20
           &END EACH
         &END RESTART
       &END PRINT
     &END SCF
     &ALMO_SCF
       EPS_FILTER     9.9999999999999994E-12
       ALMO_SCF_GUESS  ATOMIC
       MO_OVERLAP_INV_ALG  DENSE_CHOLESKY
       ALMO_EXTRAPOLATION_ORDER  4
       XALMO_EXTRAPOLATION_ORDER  4
       ALMO_ALGORITHM  SKIP
       XALMO_TRIAL_WF  SIMPLE
       DELOCALIZE_METHOD  XALMO_SCF
       XALMO_R_CUTOFF_FACTOR     1.8000000000000000E+00
       &ALMO_OPTIMIZER_DIIS
         MAX_ITER  100
         EPS_ERROR     1.0000000000000001E-05
         N_DIIS  5
       &END ALMO_OPTIMIZER_DIIS
       &ALMO_OPTIMIZER_PCG
         MAX_ITER  50
         EPS_ERROR     1.0000000000000001E-05
         LIN_SEARCH_EPS_ERROR     5.0000000000000003E-02
         LIN_SEARCH_STEP_SIZE_GUESS     5.0000000000000001E-03
         CONJUGATOR  DAI_YUAN
         MAX_ITER_OUTER_LOOP  10
       &END ALMO_OPTIMIZER_PCG
       &XALMO_OPTIMIZER_PCG
         MAX_ITER  1000
         EPS_ERROR     1.0000000000000001E-05
         LIN_SEARCH_EPS_ERROR     1.0000000000000001E-01
         LIN_SEARCH_STEP_SIZE_GUESS     1.0000000000000000E-02
         CONJUGATOR  DAI_YUAN
         PRECOND_FILTER_THRESHOLD     1.0000000000000000E-03
         MAX_ITER_OUTER_LOOP  0
       &END XALMO_OPTIMIZER_PCG
       &MATRIX_ITERATE
         EPS_TARGET_FACTOR     1.0000000000000000E+01
       &END MATRIX_ITERATE
     &END ALMO_SCF
     &QS
       EPS_DEFAULT     1.0000000000000000E-14
       ALMO_SCF  F
       METHOD  GPW
     &END QS
     &MGRID
       NGRIDS  5
       CUTOFF     1.2000000000000000E+03
     &END MGRID
     &XC
       DENSITY_CUTOFF     1.0000000000000000E-10
       GRADIENT_CUTOFF     1.0000000000000000E-10
       TAU_CUTOFF     1.0000000000000000E-10
       &XC_FUNCTIONAL  NO_SHORTCUT
         &PBE  T
         &END PBE
       &END XC_FUNCTIONAL
       &VDW_POTENTIAL
         POTENTIAL_TYPE  PAIR_POTENTIAL
         &PAIR_POTENTIAL
           R_CUTOFF     1.0000000000000004E+01
           TYPE  DFTD3
           PARAMETER_FILE_NAME dftd3.dat
           REFERENCE_FUNCTIONAL PBE
           EPS_CN     9.9999999999999995E-07
           CALCULATE_C9_TERM  T
           REFERENCE_C9_TERM  T
           LONG_RANGE_CORRECTION  F
           VERBOSE_OUTPUT  F
         &END PAIR_POTENTIAL
       &END VDW_POTENTIAL
     &END XC
   &END DFT
   &SUBSYS
     &CELL
       A     9.7421028807247101E+00    0.0000000000000000E+00    0.0000000000000000E+00
       B    -4.8562263802960084E+00    8.4112308237289373E+00    0.0000000000000000E+00
       C     0.0000000000000000E+00    0.0000000000000000E+00    3.0744000000000000E+01
       MULTIPLE_UNIT_CELL  1 1 1
       &CELL_REF
         A     9.5580000000000034E+00    0.0000000000000000E+00    0.0000000000000000E+00
         B    -4.7790000000000017E+00    8.2774708093716640E+00    0.0000000000000000E+00
         C     0.0000000000000000E+00    0.0000000000000000E+00    3.0744000000000000E+01
         MULTIPLE_UNIT_CELL  1 1 1
       &END CELL_REF
     &END CELL
     &COORD
Ga    1.2149318970429237E-03   -1.1662374427584946E-04   -5.8992768211713553E-01
N    5.6660534165929527E-03    1.8730358039759134E+00    5.6593695612974637E-01
Ga    4.5322343467092251E-03    1.8396387307006519E+00    2.5955789642623337E+00
N   -4.5614746361443721E-04   -3.1703162073501881E-03    3.2291084516459847E+00
Ga    2.8213451032754516E-04   -3.2724060910774922E-03    5.2202197179348033E+00
N    4.5743888122785287E-03    1.8713728259774338E+00    5.8066159343316555E+00
Ga    3.5655508117835781E-03    1.8682332421752692E+00    7.8057889312724038E+00
N   -6.7754097802610240E-04   -5.1319233974295936E-03    8.4080186740643814E+00
Ga   -1.6203017324658550E-04   -4.2893143649576429E-03    1.0406040449769973E+01
N    4.1978301647787493E-03    1.8675926511562115E+00    1.1010701969836198E+01
Ga    3.5632540873419293E-03    1.8730007021613100E+00    1.3005038221714518E+01
N   -5.2925367551524805E-04    3.0449576883438711E-03    1.3610214219064170E+01
Ga   -7.4311433090099629E-03    1.3622651854289607E-02    1.5613144204271309E+01
N    1.7902539953509526E-03    1.8835722768601215E+00    1.6256583212776622E+01
Ga    1.4972480570894516E-02    1.9064263152977741E+00    1.8365369101325523E+01
N    3.2179788486783436E-03    1.0892855311218990E-02    1.8662451362189458E+01
Ga   -1.6163003517246113E+00    2.8024521738376911E+00    2.8017651096258239E-01
N   -1.6190518700690439E+00    4.6713655954410349E+00    5.6473891113871266E-01
Ga   -1.5903500087308371E+00    4.6862700101344537E+00    2.5945728330798574E+00
N   -1.6188300511836438E+00    2.8007949226934246E+00    3.1867676307655923E+00
Ga   -1.6184384989534295E+00    2.8008265799406042E+00    5.1979831956762608E+00
N   -1.6169248529892986E+00    4.6705959613376882E+00    5.8066688745928783E+00
Ga   -1.6166970254079263E+00    4.6688852030873260E+00    7.8060074357934779E+00
N   -1.6200054002196267E+00    2.7984495274274610E+00    8.4111211846598106E+00
Ga   -1.6193632349480569E+00    2.7988809424119374E+00    1.0407317170932416E+01
N   -1.6111550893587576E+00    4.6695531891444313E+00    1.1014359456989162E+01
Ga   -1.6071593038297232E+00    4.6681561319071783E+00    1.3010355444890688E+01
N   -1.6177632628597745E+00    2.7993676345656846E+00    1.3623583309207056E+01
Ga   -1.6243943751572829E+00    2.7952944020810548E+00    1.5631531289220511E+01
N   -1.6240260640549065E+00    4.6771939053809515E+00    1.6217051209037361E+01
Ga   -1.6109702858985515E+00    4.6786276380994805E+00    1.8297801155805519E+01
N   -1.6216771712333109E+00    2.8142544788273285E+00    1.8736857255207045E+01
Ga   -3.2367903658111210E+00    5.6075467586372216E+00    2.7978575726370442E-01
N   -3.2288269120035555E+00    7.4766209762163811E+00    5.6510942834082156E-01
Ga   -3.2580589314548405E+00    7.4904751703731485E+00    2.5952133264872823E+00
N   -3.2376114459447680E+00    5.6049878429782538E+00    3.1873159182618798E+00
Ga   -3.2374100226555398E+00    5.6050338586977331E+00    5.1984609898412453E+00
N   -3.2299094083276434E+00    7.4740917784375434E+00    5.8078649288856878E+00
Ga   -3.2317296005725860E+00    7.4722136199978966E+00    7.8074094787083572E+00
N   -3.2380215580809306E+00    5.6017554503204039E+00    8.4144497583558540E+00
Ga   -3.2372445813797697E+00    5.6021161420132533E+00    1.0412364638496339E+01
N   -3.2337160933472995E+00    7.4753053699587113E+00    1.1013961356373065E+01
Ga   -3.2330593226575299E+00    7.4783930855736109E+00    1.3010428250461597E+01
N   -3.2355220116598140E+00    5.5998233694518262E+00    1.3595742809300283E+01
Ga   -3.2419796657304203E+00    5.5999901232455560E+00    1.5589522312045020E+01
N   -3.2415557755762148E+00    7.4746860728081090E+00    1.6160583592637320E+01
Ga   -3.2460677062445509E+00    7.4941481487044737E+00    1.8211022175090040E+01
N   -3.2481737538927060E+00    5.6165431621267636E+00    1.8612854570184417E+01
Ga    3.2485373431335778E+00   -3.4268347180721522E-03    2.7976920176298420E-01
N    3.2488143706644692E+00    1.8683536752785641E+00    5.6458558188479002E-01
Ga    3.2750053913975159E+00    1.8820861341055561E+00    2.5979746822355656E+00
N    3.2472734558110115E+00   -3.2261760845681913E-03    3.1864961180327227E+00
Ga    3.2473074440665228E+00   -3.3771897573557840E-03    5.1976820188532162E+00
N    3.2490672277154351E+00    1.8664929108774104E+00    5.8060379326230684E+00
Ga    3.2492336130050434E+00    1.8645314854187565E+00    7.8055684079259162E+00
N    3.2469081881526694E+00   -5.5419653202880064E-03    8.4124732694988396E+00
Ga    3.2472521264985854E+00   -5.2027514511238842E-03    1.0409563207054687E+01
N    3.2499464758703978E+00    1.8664699518491883E+00    1.1014207054305309E+01
Ga    3.2458720621401493E+00    1.8650590765983137E+00    1.3011210032881431E+01
N    3.2470016571629006E+00   -4.2563363606769522E-03    1.3623790139077281E+01
Ga    3.2497018966581677E+00    2.2619191428799228E-04    1.5628011821113855E+01
N    3.2305538559066509E+00    1.8812539154337211E+00    1.6212886713638653E+01
Ga    3.2442619934742618E+00    1.8958409843824489E+00    1.8285678932863277E+01
N    3.2403670555399740E+00   -1.6605212685132634E-03    1.8577555815894353E+01
Ga    1.6272231960315400E+00    2.8033205582409013E+00    2.7906092899376439E-01
N    1.6383973129110074E+00    4.6723389386469316E+00    5.6386522007536966E-01
Ga    1.6085648033413458E+00    4.6865720929694179E+00    2.5940684635309550E+00
N    1.6281662272329240E+00    2.8012110535555834E+00    3.1867400427133079E+00
Ga    1.6283916985851279E+00    2.8010288362362812E+00    5.1978665128939374E+00
N    1.6359343146787790E+00    4.6707424640558752E+00    5.8066844509107174E+00
Ga    1.6339329298761998E+00    4.6691201781598703E+00    7.8059909856678384E+00
N    1.6279085344587134E+00    2.7985482748172976E+00    8.4105130470883935E+00
Ga    1.6280989324070938E+00    2.7993819737754086E+00    1.0406691413401813E+01
N    1.6292753069216466E+00    4.6700272889951382E+00    1.1013562618515087E+01
Ga    1.6232709755103361E+00    4.6688289075288338E+00    1.3009157647881944E+01
N    1.6247654320875833E+00    2.8000541295881534E+00    1.3618732759755453E+01
Ga    1.6198379368316100E+00    2.8008309430969742E+00    1.5625988765545149E+01
N    1.6364170893141681E+00    4.6770393771630703E+00    1.6211180740163687E+01
Ga    1.6519029808124510E+00    4.6799221415140337E+00    1.8290825873638724E+01
N    1.6358282149889845E+00    2.8163029661007939E+00    1.8747596789444586E+01
Ga    1.0072737600921901E-02    5.6064366560307652E+00   -5.8856633725479712E-01
N    1.5745912798573271E-02    7.4810217484421155E+00    5.6457148825735148E-01
Ga    1.4496588233780160E-02    7.4474261156947552E+00    2.5944431236352146E+00
N    9.5279989369919296E-03    5.6043019309673676E+00    3.2272651264354835E+00
Ga    9.9446137740259906E-03    5.6045193624453118E+00    5.2183421474751954E+00
N    1.4583422250310089E-02    7.4788279002791587E+00    5.8059893059397005E+00
Ga    1.3386383442289646E-02    7.4752683057104763E+00    7.8052631837273472E+00
N    8.8625511419988274E-03    5.6024755006854594E+00    8.4073255156424302E+00
Ga    9.3070966972652498E-03    5.6041904981275055E+00    1.0404808160299229E+01
N    1.3944542325304135E-02    7.4734047914070443E+00    1.1016985894001591E+01
Ga    1.3110376087321754E-02    7.4736764644806053E+00    1.3016375261099727E+01
N    7.1896449393067940E-03    5.6065132197694068E+00    1.3635355946417123E+01
Ga    3.7853111193059653E-03    5.6159491203488932E+00    1.5646722957118786E+01
N    1.1016064501687765E-02    7.4893199028982309E+00    1.6216996466883746E+01
Ga    2.5287564568663538E-02    7.4794016637546870E+00    1.8278877773736781E+01
N    1.4944057122509095E-02    5.5938067943168921E+00    1.8644019732373735E+01
Ga    6.4948160268379969E+00   -2.3224879343632225E-03    2.7893742266394161E-01
N    6.5024237816261783E+00    1.8694680187462409E+00    5.6428123172785749E-01
Ga    6.4753200891659670E+00    1.8823230970323896E+00    2.5977835443429980E+00
N    6.4947514068748076E+00   -2.9540167853309048E-03    3.1868168901406344E+00
Ga    6.4952868660934868E+00   -3.2605139317414020E-03    5.1979823734004968E+00
N    6.5020260920905137E+00    1.8665562281903758E+00    5.8061297697478418E+00
Ga    6.5000200262218906E+00    1.8646067849677415E+00    7.8056296528592179E+00
N    6.4933497249859897E+00   -5.6331318715385102E-03    8.4118174896254079E+00
Ga    6.4940288122769427E+00   -5.3692832311837109E-03    1.0408989931893288E+01
N    6.5005960150188287E+00    1.8658269608916929E+00    1.1015611197164496E+01
Ga    6.5043260483441001E+00    1.8635490061526638E+00    1.3013524448576669E+01
N    6.4935339092826379E+00   -7.3388708719901701E-03    1.3622781849048017E+01
Ga    6.4836504130618087E+00   -7.8791298152274900E-03    1.5626162962371128E+01
N    6.5103899957696765E+00    1.8714209192016105E+00    1.6210860714287971E+01
Ga    6.5224893426929960E+00    1.8961341088277128E+00    1.8281877158156295E+01
N    6.5076911425350561E+00    2.7168189613843698E-05    1.8585047030262174E+01
Ga    4.8762471631276352E+00    2.8029370160888276E+00   -5.5278529897350315E-01
N    4.8816514446420296E+00    4.6755482116940819E+00    5.6545120924496028E-01
Ga    4.8803438192789450E+00    4.6450277229887114E+00    2.5986160499582733E+00
N    4.8755486387371638E+00    2.8006974780538094E+00    3.2279332608949760E+00
Ga    4.8759812150756989E+00    2.8009794067615865E+00    5.2198953986911141E+00
N    4.8806110091652730E+00    4.6752896636681349E+00    5.8079165120557557E+00
Ga    4.8796435231738178E+00    4.6711592249858569E+00    7.8082593886656815E+00
N    4.8750471642347550E+00    2.7970105912664405E+00    8.4087402157130509E+00
Ga    4.8759433966052468E+00    2.7956920511612662E+00    1.0407241620663013E+01
N    4.8806184268644364E+00    4.6658371665408751E+00    1.1012715286467831E+01
Ga    4.8806403645110805E+00    4.6600687605609430E+00    1.3008327425494157E+01
N    4.8750781010336599E+00    2.7837030478338058E+00    1.3618983620159140E+01
Ga    4.8693981796752057E+00    2.7782693484086973E+00    1.5622684457226590E+01
N    4.8742425969730494E+00    4.6687112210178032E+00    1.6134415702432673E+01
Ga    4.8890829570680276E+00    4.6892169322998907E+00    1.8178182334708318E+01
N    4.8799507936217683E+00    2.8152823439477412E+00    1.8599996636953957E+01
Ga    3.2577669289956188E+00    5.6067102169884695E+00    2.7980287883806038E-01
N    3.2581120383021025E+00    7.4757564315460767E+00    5.6512966787162178E-01
Ga    3.2863614920679427E+00    7.4903886353427902E+00    2.5952050776390800E+00
N    3.2567881829846339E+00    5.6050843515115130E+00    3.1871726821789816E+00
Ga    3.2574224089586381E+00    5.6050166355479796E+00    5.1984909846740255E+00
N    3.2592336612340636E+00    7.4741499789385930E+00    5.8077644900534180E+00
Ga    3.2591585396278262E+00    7.4720766503068914E+00    7.8073852764138172E+00
N    3.2561996364402579E+00    5.6016659382444942E+00    8.4144968324056766E+00
Ga    3.2566389127959199E+00    5.6021177420880770E+00    1.0412506739636060E+01
N    3.2622759129054026E+00    7.4755536129661539E+00    1.1012734891240815E+01
Ga    3.2615471976904788E+00    7.4780148382553362E+00    1.3008920712365230E+01
N    3.2536665188960980E+00    5.5988175351934775E+00    1.3590791260853718E+01
Ga    3.2478970611113223E+00    5.6014867894702434E+00    1.5584374224071409E+01
N    3.2663383972452893E+00    7.4704671622689665E+00    1.6163463342570381E+01
Ga    3.2891296900709426E+00    7.4959073651641095E+00    1.8214730032930618E+01
N    3.2754950432572794E+00    5.6191087795362584E+00    1.8616027528565372E+01
     &END COORD
     &KIND N
       BASIS_SET DZVP-MOLOPT-SR-GTH
       POTENTIAL GTH-PBE-q5
       &POTENTIAL
2 3
0.2837905100000000E+00 2 -0.1241522559000000E+02  0.1868095920000000E+01
2
0.2554050000000000E+00 1  0.1363026257000000E+02
0.2454945300000000E+00 0
       &END POTENTIAL
     &END KIND
     &KIND Ga
       BASIS_SET DZVP-MOLOPT-SR-GTH
       POTENTIAL GTH-PBE-q13
       &POTENTIAL
2 1 10
0.4900000000000000E+00 0
3
0.4167772300000000E+00 3  0.1047568975000000E+02 -0.4921768140000000E+01  0.8707055900000000E+00
0.7770178090000000E+01 -0.2248152160000000E+01
0.1784415450000000E+01
0.5696265200000000E+00 2  0.1777985340000000E+01  0.1958597600000000E+00
-0.2317443900000000E+00
0.2381265000000000E+00 1 -0.1624868022000000E+02
       &END POTENTIAL
     &END KIND
     &TOPOLOGY
       COORD_FILE_NAME 334-native.xyz
       COORD_FILE_FORMAT  XYZ
       NUMBER_OF_ATOMS  144
       MULTIPLE_UNIT_CELL  1 1 1
     &END TOPOLOGY
   &END SUBSYS
 &END FORCE_EVAL
