 # Version information for this restart file 
 # current date 2019-05-16 15:32:58.369
 # current working dir /lustre03/project/6004141/rzk/GaN-carbene/00-Surface/00-Preoptimization/334-native/Trial4
 # Program compiled at                              Sun Apr  7 00:48:11 EDT 2019
 # Program compiled on                          beluga2.int.ets1.calculquebec.ca
 # Program compiled for                        Beluga-Linux-x86-64-intel-openmpi
 # Source code revision number                                         svn:18619
 &GLOBAL
   PRINT_LEVEL  MEDIUM
   PROJECT_NAME TEST
   RUN_TYPE  CELL_OPT
 &END GLOBAL
 &MOTION
   &CELL_OPT
     MAX_ITER  150
     STEP_START_VAL  135
     EXTERNAL_PRESSURE     1.0000000000000000E+00
     KEEP_ANGLES  T
     KEEP_SYMMETRY  T
     CONSTRAINT  Z
     PRESSURE_TOLERANCE     3.0000000000000000E+02
   &END CELL_OPT
 &END MOTION
 &FORCE_EVAL
   METHOD  QS
   STRESS_TENSOR  ANALYTICAL
   &DFT
     BASIS_SET_FILE_NAME BASIS_MOLOPT
     POTENTIAL_FILE_NAME GTH_POTENTIALS
     &SCF
       MAX_SCF  100
       EPS_SCF     5.0000000000000004E-06
       &OT  T
         PRECONDITIONER  FULL_ALL
       &END OT
       &OUTER_SCF  T
         OPTIMIZER  NONE
         EPS_SCF     5.0000000000000004E-06
         MAX_SCF  10
       &END OUTER_SCF
       &PRINT
         &RESTART  OFF
           BACKUP_COPIES  1
           &EACH
             JUST_ENERGY  0
             QS_SCF  0
             MD  20
           &END EACH
         &END RESTART
       &END PRINT
     &END SCF
     &ALMO_SCF
       EPS_FILTER     9.9999999999999994E-12
       ALMO_SCF_GUESS  ATOMIC
       MO_OVERLAP_INV_ALG  DENSE_CHOLESKY
       ALMO_EXTRAPOLATION_ORDER  4
       XALMO_EXTRAPOLATION_ORDER  4
       ALMO_ALGORITHM  SKIP
       XALMO_TRIAL_WF  SIMPLE
       DELOCALIZE_METHOD  XALMO_SCF
       XALMO_R_CUTOFF_FACTOR     1.8000000000000000E+00
       &ALMO_OPTIMIZER_DIIS
         MAX_ITER  100
         EPS_ERROR     1.0000000000000001E-05
         N_DIIS  5
       &END ALMO_OPTIMIZER_DIIS
       &ALMO_OPTIMIZER_PCG
         MAX_ITER  50
         EPS_ERROR     1.0000000000000001E-05
         LIN_SEARCH_EPS_ERROR     5.0000000000000003E-02
         LIN_SEARCH_STEP_SIZE_GUESS     5.0000000000000001E-03
         CONJUGATOR  DAI_YUAN
         MAX_ITER_OUTER_LOOP  10
       &END ALMO_OPTIMIZER_PCG
       &XALMO_OPTIMIZER_PCG
         MAX_ITER  1000
         EPS_ERROR     1.0000000000000001E-05
         LIN_SEARCH_EPS_ERROR     1.0000000000000001E-01
         LIN_SEARCH_STEP_SIZE_GUESS     1.0000000000000000E-02
         CONJUGATOR  DAI_YUAN
         PRECOND_FILTER_THRESHOLD     1.0000000000000000E-03
         MAX_ITER_OUTER_LOOP  0
       &END XALMO_OPTIMIZER_PCG
       &MATRIX_ITERATE
         EPS_TARGET_FACTOR     1.0000000000000000E+01
       &END MATRIX_ITERATE
     &END ALMO_SCF
     &QS
       EPS_DEFAULT     1.0000000000000000E-14
       ALMO_SCF  F
       METHOD  GPW
     &END QS
     &MGRID
       NGRIDS  5
       CUTOFF     1.2000000000000000E+03
     &END MGRID
     &XC
       DENSITY_CUTOFF     1.0000000000000000E-10
       GRADIENT_CUTOFF     1.0000000000000000E-10
       TAU_CUTOFF     1.0000000000000000E-10
       &XC_FUNCTIONAL  NO_SHORTCUT
         &PBE  T
         &END PBE
       &END XC_FUNCTIONAL
       &VDW_POTENTIAL
         POTENTIAL_TYPE  PAIR_POTENTIAL
         &PAIR_POTENTIAL
           R_CUTOFF     1.0000000000000004E+01
           TYPE  DFTD3
           PARAMETER_FILE_NAME dftd3.dat
           REFERENCE_FUNCTIONAL PBE
           EPS_CN     9.9999999999999995E-07
           CALCULATE_C9_TERM  T
           REFERENCE_C9_TERM  T
           LONG_RANGE_CORRECTION  F
           VERBOSE_OUTPUT  F
         &END PAIR_POTENTIAL
       &END VDW_POTENTIAL
     &END XC
   &END DFT
   &SUBSYS
     &CELL
       A     9.7368003514160950E+00    0.0000000000000000E+00    0.0000000000000000E+00
       B    -4.8593106343269081E+00    8.4165729084138903E+00    0.0000000000000000E+00
       C     0.0000000000000000E+00    0.0000000000000000E+00    3.0744000000000000E+01
       MULTIPLE_UNIT_CELL  1 1 1
       &CELL_REF
         A     9.5580000000000034E+00    0.0000000000000000E+00    0.0000000000000000E+00
         B    -4.7790000000000017E+00    8.2774708093716640E+00    0.0000000000000000E+00
         C     0.0000000000000000E+00    0.0000000000000000E+00    3.0744000000000000E+01
         MULTIPLE_UNIT_CELL  1 1 1
       &END CELL_REF
     &END CELL
     &COORD
Ga    3.5399242225068816E-04   -2.4953584134223342E-03   -5.8788146264840324E-01
N    3.3704356471179371E-03    1.8718310729577317E+00    5.6642324958723089E-01
Ga    2.7966671542548434E-03    1.8392764805825839E+00    2.5960690786012077E+00
N   -1.3149459171628717E-04   -3.8093929437160779E-03    3.2299111529280067E+00
Ga    5.2957139709437068E-04   -3.2673871435462986E-03    5.2207620672359978E+00
N    3.2240398000740371E-03    1.8717675762534174E+00    5.8074268809922591E+00
Ga    2.6810787968906871E-03    1.8702223660934054E+00    7.8060579823984844E+00
N   -6.5161698905274050E-05   -3.1853553416146554E-03    8.4090151064818954E+00
Ga   -2.5746414814936756E-04   -1.1410635981653572E-03    1.0406499680622401E+01
N    2.6389433663569469E-03    1.8714240129429403E+00    1.1010636930330032E+01
Ga    2.0853850098364961E-03    1.8778668496542787E+00    1.3003794532821390E+01
N   -8.5855927524667902E-04    7.9744275855728030E-03    1.3608262461799086E+01
Ga   -4.2369345836221197E-03    1.7446809437682901E-02    1.5611169673382284E+01
N    2.5912873855678093E-03    1.8839869056924896E+00    1.6265018532580871E+01
Ga    7.3259958847728688E-03    1.8960770590050815E+00    1.8385924608278891E+01
N    3.3209930872202423E-03    1.7021870625907173E-03    1.8660140283790081E+01
Ga   -1.6179734668562895E+00    2.8026577118940619E+00    2.8067167608047444E-01
N   -1.6217124122538928E+00    4.6721483195245259E+00    5.6590562133243882E-01
Ga   -1.5928868939088763E+00    4.6878910589253007E+00    2.5956380328711224E+00
N   -1.6195407584552655E+00    2.8021723428707577E+00    3.1879553578687236E+00
Ga   -1.6190200543257987E+00    2.8027891453788407E+00    5.1987134407334912E+00
N   -1.6193328325176477E+00    4.6730585246941132E+00    5.8075080674469612E+00
Ga   -1.6185480325508323E+00    4.6732652458134138E+00    7.8062753670225336E+00
N   -1.6200888596248948E+00    2.8023644175816487E+00    8.4108714975116214E+00
Ga   -1.6197182239266898E+00    2.8038649102815945E+00    1.0406162070221056E+01
N   -1.6129643261013669E+00    4.6746251229634082E+00    1.1013881864022741E+01
Ga   -1.6085074008718618E+00    4.6741122104539992E+00    1.3008942478378470E+01
N   -1.6177350770272356E+00    2.8054030518986841E+00    1.3623371778745403E+01
Ga   -1.6197070888398655E+00    2.8043907663580088E+00    1.5631575979286842E+01
N   -1.6222014763705173E+00    4.6823311311100175E+00    1.6214186754155261E+01
Ga   -1.6162111291893315E+00    4.6709526917079867E+00    1.8295728509468969E+01
N   -1.6229392535324560E+00    2.8114635909457237E+00    1.8747413785794016E+01
Ga   -3.2392578413986963E+00    5.6094405703803183E+00    2.8017390392990110E-01
N   -3.2330689512190709E+00    7.4786375139343528E+00    5.6616551487003042E-01
Ga   -3.2617767980036390E+00    7.4935000121933930E+00    2.5957642990947463E+00
N   -3.2396742010633561E+00    5.6077753255926126E+00    3.1884303496944786E+00
Ga   -3.2393829358361299E+00    5.6085644418675091E+00    5.1992881651725549E+00
N   -3.2335757725828405E+00    7.4782094063693672E+00    5.8087471576687291E+00
Ga   -3.2348401571600514E+00    7.4780147850523564E+00    7.8079651638974088E+00
N   -3.2390399091483846E+00    5.6074773923209538E+00    8.4152296237230289E+00
Ga   -3.2385553004395491E+00    5.6088622685050975E+00    1.0412594750531900E+01
N   -3.2371411955711666E+00    7.4828967664150614E+00    1.1013299572333612E+01
Ga   -3.2370145846942147E+00    7.4870200295710685E+00    1.3008500798693964E+01
N   -3.2364120536868533E+00    5.6076152250394635E+00    1.3589905598776159E+01
Ga   -3.2363242262606238E+00    5.6101293806188881E+00    1.5582269716101049E+01
N   -3.2434349558174991E+00    7.4822216883057120E+00    1.6155598228186918E+01
Ga   -3.2518130395476037E+00    7.4900608078869384E+00    1.8205535945358864E+01
N   -3.2514085435051689E+00    5.6134691035403392E+00    1.8596396605181411E+01
Ga    3.2458729295626969E+00   -3.9971216461417878E-03    2.8077936260656677E-01
N    3.2453304161592520E+00    1.8673829898738314E+00    5.6522055209927313E-01
Ga    3.2720670663639475E+00    1.8819171867616575E+00    2.5979738838419713E+00
N    3.2452713036865606E+00   -3.6829677324421222E-03    3.1879531931939202E+00
Ga    3.2456347213250214E+00   -3.1216689160840413E-03    5.1986351362914514E+00
N    3.2461876808169929E+00    1.8671617447542910E+00    5.8071968369975258E+00
Ga    3.2469812392822481E+00    1.8668148994391178E+00    7.8061016829759549E+00
N    3.2461772062174612E+00   -3.5552047965722940E-03    8.4126822856113073E+00
Ga    3.2461419734594723E+00   -2.0339966143027694E-03    1.0409165515731223E+01
N    3.2464596065429863E+00    1.8698405665090216E+00    1.1014709233287231E+01
Ga    3.2415326682375514E+00    1.8690209956248123E+00    1.3011524904791147E+01
N    3.2463225836617458E+00   -1.2344951455794265E-03    1.3623608213665435E+01
Ga    3.2547022231336808E+00    4.4599613909713999E-04    1.5626861389216568E+01
N    3.2297735942011352E+00    1.8811717816115687E+00    1.6202580631082778E+01
Ga    3.2335182720966333E+00    1.8850550702774667E+00    1.8269448175142369E+01
N    3.2378825861402083E+00   -7.4372994581288409E-03    1.8575437621516613E+01
Ga    1.6245526782587272E+00    2.8031945023986760E+00    2.8088857704278275E-01
N    1.6333921797450366E+00    4.6727233988259158E+00    5.6613059080921413E-01
Ga    1.6043430669206673E+00    4.6879970202191963E+00    2.5958133413771476E+00
N    1.6256458679098387E+00    2.8020990767656646E+00    3.1880852439668677E+00
Ga    1.6261051624437672E+00    2.8027580215148151E+00    5.1989080777586585E+00
N    1.6319465179066766E+00    4.6730676978659078E+00    5.8076191441996494E+00
Ga    1.6304500456842732E+00    4.6732999856161221E+00    7.8065025251854205E+00
N    1.6260824146128210E+00    2.8022521602867845E+00    8.4106058060966333E+00
Ga    1.6256584527241171E+00    2.8038101390157464E+00    1.0405949720980752E+01
N    1.6243693869675602E+00    4.6748007572221084E+00    1.1013022474405750E+01
Ga    1.6176449492612250E+00    4.6747332981413070E+00    1.3007960838159775E+01
N    1.6214065053939732E+00    2.8061709497186356E+00    1.3620837288133107E+01
Ga    1.6202420658559002E+00    2.8062746689255378E+00    1.5628119907435662E+01
N    1.6323953426755087E+00    4.6824097578188484E+00    1.6214767738310695E+01
Ga    1.6426991061501297E+00    4.6700469984191226E+00    1.8296463463460100E+01
N    1.6350099335860202E+00    2.8094697007670639E+00    1.8747163211373895E+01
Ga    6.5018753237686870E-03    5.6091023682275258E+00   -5.8532041195620810E-01
N    9.3818791570513416E-03    7.4841806060876568E+00    5.6648187413799322E-01
Ga    8.8045147672511318E-03    7.4509370969311028E+00    2.5960401534696023E+00
N    5.9323416599784424E-03    5.6073507090061092E+00    3.2287153673212585E+00
Ga    6.5273795865591708E-03    5.6082608322533556E+00    5.2193750060329132E+00
N    9.3301206197072776E-03    7.4831411274798683E+00    5.8067464362349765E+00
Ga    8.9470137035745287E-03    7.4813581117142087E+00    7.8053351504466519E+00
N    6.0598972125391268E-03    5.6084180375461079E+00    8.4073586759197987E+00
Ga    5.9389390790463388E-03    5.6110143377385384E+00    1.0403925648512915E+01
N    9.0192068589177391E-03    7.4804987618718082E+00    1.1016824556163327E+01
Ga    7.8526771896391349E-03    7.4816393312771874E+00    1.3014964442714948E+01
N    4.1780513698044140E-03    5.6152312907077899E+00    1.3636810092937658E+01
Ga    4.2705402547332221E-03    5.6264715993166678E+00    1.5647892472893975E+01
N    6.5458370412985597E-03    7.4942812470179119E+00    1.6229185903975413E+01
Ga    1.6076332204983487E-02    7.4710489632289141E+00    1.8297183537299453E+01
N    1.1556913749957416E-02    5.5879877704330427E+00    1.8657709572605544E+01
Ga    6.4914483679768011E+00   -3.5147998209444369E-03    2.8063546030548497E-01
N    6.4972233598051599E+00    1.8679222671888704E+00    5.6520253156551581E-01
Ga    6.4701455024522918E+00    1.8820509728377597E+00    2.5979688545973141E+00
N    6.4914411807577226E+00   -3.5339792904986052E-03    3.1880666499474875E+00
Ga    6.4921472094222672E+00   -3.1321953534826415E-03    5.1987392815544400E+00
N    6.4971915114635257E+00    1.8672076943343119E+00    5.8070525193461808E+00
Ga    6.4956456146184927E+00    1.8668698067051726E+00    7.8058505450071953E+00
N    6.4907951579675904E+00   -3.4728310973636363E-03    8.4123367159482676E+00
Ga    6.4908840831743682E+00   -1.9795947464469896E-03    1.0408695312933469E+01
N    6.4963757093841199E+00    1.8694218117348513E+00    1.1015291996309276E+01
Ga    6.4996667696660158E+00    1.8681821707524413E+00    1.3011932462541319E+01
N    6.4879767558507533E+00   -1.4434721611283235E-03    1.3625553583128790E+01
Ga    6.4795696960023275E+00   -1.4022231446202595E-03    1.5630195220102323E+01
N    6.5098564501516698E+00    1.8779902444631786E+00    1.6208608727786899E+01
Ga    6.5191946367082014E+00    1.8850466763297586E+00    1.8278729202507222E+01
N    6.5058425727042399E+00   -7.0774889515599947E-03    1.8585326226275260E+01
Ga    4.8718150331702201E+00    2.8031121002192760E+00   -5.5925543327765159E-01
N    4.8748261507885209E+00    4.6768202450765788E+00    5.6528298582866776E-01
Ga    4.8742518954369096E+00    4.6461880619093918E+00    2.5979128039987422E+00
N    4.8712995299171586E+00    2.8021407172876920E+00    3.2291115436652400E+00
Ga    4.8718576188947145E+00    2.8029978188615807E+00    5.2206669868258961E+00
N    4.8747158068567877E+00    4.6774543672681963E+00    5.8095563159111387E+00
Ga    4.8742742706612594E+00    4.6752044494959470E+00    7.8095135689203357E+00
N    4.8716007794051706E+00    2.8006471491048996E+00    8.4097275166857770E+00
Ga    4.8718996940304393E+00    2.8003819969559047E+00    1.0407799028320731E+01
N    4.8744169912585651E+00    4.6714020201277462E+00    1.1011669856823694E+01
Ga    4.8735106358563058E+00    4.6671417926968708E+00    1.3006380438547176E+01
N    4.8711777838723416E+00    2.7897119054669939E+00    1.3614306386229911E+01
Ga    4.8699639312339382E+00    2.7835631941935923E+00    1.5615245588170156E+01
N    4.8713542306517166E+00    4.6748082108432003E+00    1.6115443690828794E+01
Ga    4.8803305225071183E+00    4.6849449450352783E+00    1.8151662240839624E+01
N    4.8740823354720870E+00    2.8114000108668127E+00    1.8564469772842124E+01
Ga    3.2518465266598628E+00    5.6088483475077764E+00    2.8024999758051039E-01
N    3.2508148471693059E+00    7.4779532026896396E+00    5.6603551096524862E-01
Ga    3.2791962027596036E+00    7.4932334446007109E+00    2.5957828810952841E+00
N    3.2517838984592022E+00    5.6076402543300130E+00    3.1884353726705834E+00
Ga    3.2524920996531423E+00    5.6083857562315780E+00    5.1992446357263953E+00
N    3.2522900213012313E+00    7.4780899890374073E+00    5.8086161846776214E+00
Ga    3.2526535761447826E+00    7.4779277978773422E+00    7.8077032710212970E+00
N    3.2513550531903852E+00    5.6075179085218378E+00    8.4154172194162236E+00
Ga    3.2509118758432214E+00    5.6091269503891965E+00    1.0412856298861357E+01
N    3.2544788354886030E+00    7.4830778827567626E+00    1.1013729866047600E+01
Ga    3.2525258540591149E+00    7.4864094863653552E+00    1.3009632269721466E+01
N    3.2463345750594912E+00    5.6068688561826141E+00    1.3588794013840994E+01
Ga    3.2427254247624733E+00    5.6109885962985704E+00    1.5581406102113084E+01
N    3.2596469098322483E+00    7.4811635948715436E+00    1.6158402277689561E+01
Ga    3.2783286881787155E+00    7.4895695520687404E+00    1.8208535981258066E+01
N    3.2720552959757603E+00    5.6135627090370361E+00    1.8601691730181734E+01
     &END COORD
     &KIND N
       BASIS_SET DZVP-MOLOPT-SR-GTH
       POTENTIAL GTH-PBE-q5
       &POTENTIAL
2 3
0.2837905100000000E+00 2 -0.1241522559000000E+02  0.1868095920000000E+01
2
0.2554050000000000E+00 1  0.1363026257000000E+02
0.2454945300000000E+00 0
       &END POTENTIAL
     &END KIND
     &KIND Ga
       BASIS_SET DZVP-MOLOPT-SR-GTH
       POTENTIAL GTH-PBE-q13
       &POTENTIAL
2 1 10
0.4900000000000000E+00 0
3
0.4167772300000000E+00 3  0.1047568975000000E+02 -0.4921768140000000E+01  0.8707055900000000E+00
0.7770178090000000E+01 -0.2248152160000000E+01
0.1784415450000000E+01
0.5696265200000000E+00 2  0.1777985340000000E+01  0.1958597600000000E+00
-0.2317443900000000E+00
0.2381265000000000E+00 1 -0.1624868022000000E+02
       &END POTENTIAL
     &END KIND
     &TOPOLOGY
       COORD_FILE_NAME 334-native.xyz
       COORD_FILE_FORMAT  XYZ
       NUMBER_OF_ATOMS  144
       MULTIPLE_UNIT_CELL  1 1 1
     &END TOPOLOGY
   &END SUBSYS
 &END FORCE_EVAL
