 # Version information for this restart file 
 # current date 2019-05-16 05:16:21.053
 # current working dir /lustre03/project/6004141/rzk/GaN-carbene/00-Surface/00-Preoptimization/334-native/Trial4
 # Program compiled at                              Sun Apr  7 00:48:11 EDT 2019
 # Program compiled on                          beluga2.int.ets1.calculquebec.ca
 # Program compiled for                        Beluga-Linux-x86-64-intel-openmpi
 # Source code revision number                                         svn:18619
 &GLOBAL
   PRINT_LEVEL  MEDIUM
   PROJECT_NAME TEST
   RUN_TYPE  CELL_OPT
 &END GLOBAL
 &MOTION
   &CELL_OPT
     MAX_ITER  100
     STEP_START_VAL  83
     EXTERNAL_PRESSURE     1.0000000000000000E+00
     KEEP_ANGLES  T
     KEEP_SYMMETRY  T
     CONSTRAINT  Z
     PRESSURE_TOLERANCE     1.0000000000000000E+02
   &END CELL_OPT
 &END MOTION
 &FORCE_EVAL
   METHOD  QS
   STRESS_TENSOR  ANALYTICAL
   &DFT
     BASIS_SET_FILE_NAME BASIS_MOLOPT
     POTENTIAL_FILE_NAME GTH_POTENTIALS
     &SCF
       MAX_SCF  100
       EPS_SCF     5.0000000000000004E-06
       &OT  T
         PRECONDITIONER  FULL_ALL
       &END OT
       &OUTER_SCF  T
         OPTIMIZER  NONE
         EPS_SCF     5.0000000000000004E-06
         MAX_SCF  10
       &END OUTER_SCF
       &PRINT
         &RESTART  OFF
           BACKUP_COPIES  1
           &EACH
             JUST_ENERGY  0
             QS_SCF  0
             MD  20
           &END EACH
         &END RESTART
       &END PRINT
     &END SCF
     &ALMO_SCF
       EPS_FILTER     9.9999999999999994E-12
       ALMO_SCF_GUESS  ATOMIC
       MO_OVERLAP_INV_ALG  DENSE_CHOLESKY
       ALMO_EXTRAPOLATION_ORDER  4
       XALMO_EXTRAPOLATION_ORDER  4
       ALMO_ALGORITHM  SKIP
       XALMO_TRIAL_WF  SIMPLE
       DELOCALIZE_METHOD  XALMO_SCF
       XALMO_R_CUTOFF_FACTOR     1.8000000000000000E+00
       &ALMO_OPTIMIZER_DIIS
         MAX_ITER  100
         EPS_ERROR     1.0000000000000001E-05
         N_DIIS  5
       &END ALMO_OPTIMIZER_DIIS
       &ALMO_OPTIMIZER_PCG
         MAX_ITER  50
         EPS_ERROR     1.0000000000000001E-05
         LIN_SEARCH_EPS_ERROR     5.0000000000000003E-02
         LIN_SEARCH_STEP_SIZE_GUESS     5.0000000000000001E-03
         CONJUGATOR  DAI_YUAN
         MAX_ITER_OUTER_LOOP  10
       &END ALMO_OPTIMIZER_PCG
       &XALMO_OPTIMIZER_PCG
         MAX_ITER  1000
         EPS_ERROR     1.0000000000000001E-05
         LIN_SEARCH_EPS_ERROR     1.0000000000000001E-01
         LIN_SEARCH_STEP_SIZE_GUESS     1.0000000000000000E-02
         CONJUGATOR  DAI_YUAN
         PRECOND_FILTER_THRESHOLD     1.0000000000000000E-03
         MAX_ITER_OUTER_LOOP  0
       &END XALMO_OPTIMIZER_PCG
       &MATRIX_ITERATE
         EPS_TARGET_FACTOR     1.0000000000000000E+01
       &END MATRIX_ITERATE
     &END ALMO_SCF
     &QS
       EPS_DEFAULT     1.0000000000000000E-14
       ALMO_SCF  F
       METHOD  GPW
     &END QS
     &MGRID
       NGRIDS  5
       CUTOFF     1.2000000000000000E+03
     &END MGRID
     &XC
       DENSITY_CUTOFF     1.0000000000000000E-10
       GRADIENT_CUTOFF     1.0000000000000000E-10
       TAU_CUTOFF     1.0000000000000000E-10
       &XC_FUNCTIONAL  NO_SHORTCUT
         &PBE  T
         &END PBE
       &END XC_FUNCTIONAL
       &VDW_POTENTIAL
         POTENTIAL_TYPE  PAIR_POTENTIAL
         &PAIR_POTENTIAL
           R_CUTOFF     1.0000000000000002E+01
           TYPE  DFTD3
           PARAMETER_FILE_NAME dftd3.dat
           REFERENCE_FUNCTIONAL PBE
           EPS_CN     9.9999999999999995E-07
           CALCULATE_C9_TERM  T
           REFERENCE_C9_TERM  T
           LONG_RANGE_CORRECTION  F
           VERBOSE_OUTPUT  F
         &END PAIR_POTENTIAL
       &END VDW_POTENTIAL
     &END XC
   &END DFT
   &SUBSYS
     &CELL
       A     9.7453897377800303E+00    0.0000000000000000E+00    0.0000000000000000E+00
       B    -4.8536023634024703E+00    8.4066858931494188E+00    0.0000000000000000E+00
       C     0.0000000000000000E+00    0.0000000000000000E+00    3.0744000000000000E+01
       MULTIPLE_UNIT_CELL  1 1 1
       &CELL_REF
         A     9.5580000000000016E+00    0.0000000000000000E+00    0.0000000000000000E+00
         B    -4.7790000000000008E+00    8.2774708093716640E+00    0.0000000000000000E+00
         C     0.0000000000000000E+00    0.0000000000000000E+00    3.0744000000000000E+01
         MULTIPLE_UNIT_CELL  1 1 1
       &END CELL_REF
     &END CELL
     &COORD
Ga    1.3494929189713546E-03   -4.1086529256742488E-04   -5.9030809815836438E-01
N    6.5537059496700058E-03    1.8715764861746103E+00    5.6328338654905297E-01
Ga    5.3978598089887342E-03    1.8396746750488702E+00    2.5945337711694196E+00
N   -7.6337577116261212E-04   -2.8023380393378239E-03    3.2279187792551087E+00
Ga    1.2270635467796139E-04   -2.2158540164066189E-03    5.2196639798733413E+00
N    6.2280004250403788E-03    1.8719068268825507E+00    5.8060656059539335E+00
Ga    4.7742843097234372E-03    1.8679823533131132E+00    7.8053116092172852E+00
N   -6.6301393099359055E-04   -4.5841055714560220E-03    8.4078961442390163E+00
Ga    3.4422602140459039E-05   -3.7956054180366973E-03    1.0405900743179890E+01
N    4.7476170333691425E-03    1.8668909945825432E+00    1.1011948701892234E+01
Ga    2.9468799690784810E-03    1.8704427141453550E+00    1.3007272724179360E+01
N    1.1294896517535608E-04    1.3367574254163415E-03    1.3616846309863236E+01
Ga   -1.1024398544014186E-02    6.5698996411898388E-03    1.5621458279998922E+01
N   -1.4317600715558290E-03    1.8815492674905892E+00    1.6249433858530363E+01
Ga    2.3879203413370517E-02    1.9076086386795565E+00    1.8347985020667409E+01
N    5.1658388723162278E-03    9.9078060489817248E-03    1.8671486945569086E+01
Ga   -1.6153099758649181E+00    2.8017018588217693E+00    2.7822621328492403E-01
N   -1.6175538740071338E+00    4.6699327330863944E+00    5.6436463900217759E-01
Ga   -1.5881281526884454E+00    4.6848387229320965E+00    2.5942997041204827E+00
N   -1.6178169747586384E+00    2.8000079718516151E+00    3.1870366256082909E+00
Ga   -1.6171263089529022E+00    2.8007882607526304E+00    5.1985748675080519E+00
N   -1.6148839406272419E+00    4.6700911931282043E+00    5.8066266195301477E+00
Ga   -1.6147642673939548E+00    4.6676113319939860E+00    7.8061115647806716E+00
N   -1.6189207252746272E+00    2.7974005529443207E+00    8.4106218624419107E+00
Ga   -1.6187257517783633E+00    2.7978264374824677E+00    1.0407283456603505E+01
N   -1.6101750717121794E+00    4.6680737310389890E+00    1.1013784931438117E+01
Ga   -1.6083564821654786E+00    4.6667289665726619E+00    1.3010123248239553E+01
N   -1.6194185392759317E+00    2.7971513217634243E+00    1.3621834670232390E+01
Ga   -1.6270733182054429E+00    2.7885108641714247E+00    1.5628973827241190E+01
N   -1.6244491475096070E+00    4.6735386473114797E+00    1.6210968594684683E+01
Ga   -1.6056169866664518E+00    4.6796785558111447E+00    1.8287374440216755E+01
N   -1.6160327685730780E+00    2.8085782440372151E+00    1.8720282650044307E+01
Ga   -3.2351146087053064E+00    5.6050374735416018E+00    2.7840248963239028E-01
N   -3.2266039571306555E+00    7.4745282545973852E+00    5.6352130550506807E-01
Ga   -3.2551259445322964E+00    7.4877706738839267E+00    2.5943312094340731E+00
N   -3.2361936440485901E+00    5.6027441485717535E+00    3.1864382822313244E+00
Ga   -3.2356609408601282E+00    5.6033802929526946E+00    5.1981899300742915E+00
N   -3.2271866755437686E+00    7.4717238552309428E+00    5.8077135216350930E+00
Ga   -3.2291409781001037E+00    7.4690182131907861E+00    7.8072989612442925E+00
N   -3.2365290285258910E+00    5.5993247736787506E+00    8.4142474929856430E+00
Ga   -3.2361012659534896E+00    5.5997723347582697E+00    1.0412127102335338E+01
N   -3.2307409600518100E+00    7.4721787840193050E+00    1.1014430371694312E+01
Ga   -3.2309736780050997E+00    7.4741816278550290E+00    1.3011418271650276E+01
N   -3.2366357263078789E+00    5.5966031001895207E+00    1.3600455718326112E+01
Ga   -3.2461978594284031E+00    5.5908546590165313E+00    1.5596340992824443E+01
N   -3.2429233790162719E+00    7.4660008499765755E+00    1.6179069644563750E+01
Ga   -3.2356525052680487E+00    7.4937400078662550E+00    1.8237724555126508E+01
N   -3.2414480317198238E+00    5.6085431365494740E+00    1.8617767021203907E+01
Ga    3.2496977082415004E+00   -2.9240303219001348E-03    2.7763606957398618E-01
N    3.2515863315566573E+00    1.8692675803798600E+00    5.6217948894966008E-01
Ga    3.2776245983696342E+00    1.8819667918449254E+00    2.5976679939885972E+00
N    3.2476049967630325E+00   -2.2975937419104802E-03    3.1871677232167883E+00
Ga    3.2483338574145124E+00   -2.0187928552093709E-03    5.1987939263961023E+00
N    3.2517439088667381E+00    1.8672832050521795E+00    5.8065320089209660E+00
Ga    3.2514106938266840E+00    1.8643422936412117E+00    7.8059473455884145E+00
N    3.2477255576574371E+00   -5.3413413513302387E-03    8.4118262206254855E+00
Ga    3.2479794067682763E+00   -4.7701531322452530E-03    1.0408840481965743E+01
N    3.2519193777031061E+00    1.8659048387452188E+00    1.1013950552395634E+01
Ga    3.2466529552897030E+00    1.8624247709437398E+00    1.3011068103351651E+01
N    3.2464443055042236E+00   -5.9649151979162705E-03    1.3626559477666062E+01
Ga    3.2472710656091754E+00   -7.9675945139573625E-03    1.5632921819294278E+01
N    3.2275396694586207E+00    1.8744113779748874E+00    1.6216488013027305E+01
Ga    3.2532417417620616E+00    1.9007162623351768E+00    1.8291695510885582E+01
N    3.2493727170354716E+00   -1.4985082374814464E-03    1.8583666863225886E+01
Ga    1.6283369103288159E+00    2.8027602531868143E+00    2.7907794679184622E-01
N    1.6411419818680388E+00    4.6710091887412579E+00    5.6618170566879833E-01
Ga    1.6117376816524029E+00    4.6851002727500886E+00    2.5954797124241944E+00
N    1.6302920890686803E+00    2.7996712993895461E+00    3.1865111087523696E+00
Ga    1.6309001712590865E+00    2.8007263972716476E+00    5.1981902649799814E+00
N    1.6393911388198383E+00    4.6698739437873371E+00    5.8070427529513173E+00
Ga    1.6369466150570027E+00    4.6674555401499100E+00    7.8067565763734947E+00
N    1.6295999405401114E+00    2.7970047753450098E+00    8.4102110600179927E+00
Ga    1.6293060189307460E+00    2.7971820259902573E+00    1.0406417358872359E+01
N    1.6324973373760274E+00    4.6678868466369163E+00    1.1010487685376194E+01
Ga    1.6261917659976297E+00    4.6658684983125109E+00    1.3005421769997248E+01
N    1.6254571163971243E+00    2.7973540966990882E+00    1.3618024006845603E+01
Ga    1.6153382839277746E+00    2.7962377946548407E+00    1.5624523031278292E+01
N    1.6362822878587504E+00    4.6722220805985701E+00    1.6209393326071645E+01
Ga    1.6562329200731889E+00    4.6867065471411875E+00    1.8288462656778574E+01
N    1.6407949839363090E+00    2.8152169606976036E+00    1.8747309124241291E+01
Ga    1.3397414034448604E-02    5.6044778100463439E+00   -5.9244581657440887E-01
N    1.9272725614516321E-02    7.4784588447684897E+00    5.6543074511797697E-01
Ga    1.7817882760173244E-02    7.4446727551637490E+00    2.5949745523009815E+00
N    1.2086952584354452E-02    5.6019581263941580E+00    3.2281412728153152E+00
Ga    1.3009923385752332E-02    5.6029049806196225E+00    5.2191116689560051E+00
N    1.9042600353812052E-02    7.4768124598913115E+00    5.8060783116581325E+00
Ga    1.7713834448743030E-02    7.4722748679561439E+00    7.8055941159624949E+00
N    1.1471794167981617E-02    5.6000352996542953E+00    8.4071409285183041E+00
Ga    1.1325096216772813E-02    5.6017441913362411E+00    1.0404786404030554E+01
N    1.7395261538155737E-02    7.4706604382672648E+00    1.1015732506537331E+01
Ga    1.5534401462433489E-02    7.4702150308181956E+00    1.3014862863825559E+01
N    9.6673063157419192E-03    5.6016117690242799E+00    1.3627964267585606E+01
Ga    5.0536947836448262E-03    5.6053812615564951E+00    1.5637294991381875E+01
N    1.7706523646867655E-02    7.4811015662965561E+00    1.6207034939610043E+01
Ga    3.4432660685998581E-02    7.4784652449829654E+00    1.8264208669391753E+01
N    1.6232138145793943E-02    5.5913207699187915E+00    1.8650990184879404E+01
Ga    6.4958716255316693E+00   -1.8483844359261446E-03    2.7905683509554813E-01
N    6.5052583592195736E+00    1.8703388131024865E+00    5.6313310373581860E-01
Ga    6.4790594901847482E+00    1.8823940118751672E+00    2.5985736031514555E+00
N    6.4972889008062555E+00   -2.7039761973526970E-03    3.1860181087314707E+00
Ga    6.4980601891475018E+00   -2.2174424646180316E-03    5.1977889974602673E+00
N    6.5059451145746774E+00    1.8670220698827202E+00    5.8062233592891594E+00
Ga    6.5035863885679239E+00    1.8642433944373606E+00    7.8060537361106972E+00
N    6.4955921469721236E+00   -5.2256846675377668E-03    8.4126122775264776E+00
Ga    6.4963432125632403E+00   -4.6595280374039467E-03    1.0410137041850451E+01
N    6.5029488283390569E+00    1.8666146137261934E+00    1.1014555864636298E+01
Ga    6.5042620976385663E+00    1.8640986545236864E+00    1.3012111210340906E+01
N    6.4963259118130861E+00   -7.5473556369782552E-03    1.3615358045308447E+01
Ga    6.4856459567815676E+00   -1.4313014953906092E-02    1.5617468644993091E+01
N    6.5067990495549699E+00    1.8659247629906692E+00    1.6207940360246898E+01
Ga    6.5277017694248380E+00    1.8994727992763940E+00    1.8278502429547732E+01
N    6.5114631726942154E+00   -4.4379740055697011E-05    1.8589500293410421E+01
Ga    4.8800895246311100E+00    2.8020913880419380E+00   -5.4817564772297989E-01
N    4.8853775153853904E+00    4.6734706968090389E+00    5.6309028209486289E-01
Ga    4.8842150304418235E+00    4.6434459196726419E+00    2.5983091233882707E+00
N    4.8786580212224893E+00    2.7997113282778185E+00    3.2281897528633698E+00
Ga    4.8794301359392884E+00    2.8005457962831262E+00    5.2208628019103829E+00
N    4.8853112781497279E+00    4.6743689607888630E+00    5.8079533182651071E+00
Ga    4.8839972915956356E+00    4.6696125971436162E+00    7.8083027413959005E+00
N    4.8779977403957826E+00    2.7959147667120980E+00    8.4082402273088661E+00
Ga    4.8781966761113118E+00    2.7949382343986877E+00    1.0406645800446986E+01
N    4.8845779810331358E+00    4.6642472651903653E+00    1.1013140781832114E+01
Ga    4.8829765804253391E+00    4.6579114062662574E+00    1.3009279499249006E+01
N    4.8746561721669899E+00    2.7812808764969232E+00    1.3620205928261230E+01
Ga    4.8667598443506419E+00    2.7729676894456414E+00    1.5624780641472164E+01
N    4.8717741061345476E+00    4.6623562763485769E+00    1.6144270341649584E+01
Ga    4.8941638756668722E+00    4.6920632685655130E+00    1.8190306786318057E+01
N    4.8883199069305192E+00    2.8141262163411085E+00    1.8610651138414859E+01
Ga    3.2603127408462171E+00    5.6038326176719346E+00    2.7722297696977932E-01
N    3.2631733793738547E+00    7.4732361599933261E+00    5.6213236030751323E-01
Ga    3.2915519462376022E+00    7.4868731760460161E+00    2.5931331229746939E+00
N    3.2610076046406262E+00    5.6027447399355168E+00    3.1875576111602202E+00
Ga    3.2617201086479377E+00    5.6033918726859069E+00    5.1993838209206888E+00
N    3.2646379707920157E+00    7.4719096192732284E+00    5.8083279627188089E+00
Ga    3.2641886118334713E+00    7.4690957555590103E+00    7.8080957979521859E+00
N    3.2602558348967592E+00    5.5990400300151402E+00    8.4139624595753837E+00
Ga    3.2607919347806953E+00    5.5995499293406894E+00    1.0411670540368011E+01
N    3.2681643204378155E+00    7.4720962172862908E+00    1.1012503917075913E+01
Ga    3.2679772963619751E+00    7.4738080807877809E+00    1.3008936079896978E+01
N    3.2559453979550277E+00    5.5945877197563050E+00    1.3590836640906426E+01
Ga    3.2473756888708563E+00    5.5928208082052455E+00    1.5584635208315067E+01
N    3.2678511539550450E+00    7.4609548303088458E+00    1.6166724095467259E+01
Ga    3.2959917737549236E+00    7.4984628255913615E+00    1.8219085098723639E+01
N    3.2793710198996782E+00    5.6166467811463310E+00    1.8626913366256204E+01
     &END COORD
     &KIND N
       BASIS_SET DZVP-MOLOPT-SR-GTH
       POTENTIAL GTH-PBE-q5
       &POTENTIAL
 2 3
  0.2837905100000000E+00 2 -0.1241522559000000E+02  0.1868095920000000E+01
 2
  0.2554050000000000E+00 1  0.1363026257000000E+02
  0.2454945300000000E+00 0
         # Potential name:  GTH-PBE-Q5  for symbol:  N
         # Potential read from the potential filename: GTH_POTENTIALS
       &END POTENTIAL
     &END KIND
     &KIND Ga
       BASIS_SET DZVP-MOLOPT-SR-GTH
       POTENTIAL GTH-PBE-q13
       &POTENTIAL
 2 1 10
  0.4900000000000000E+00 0
 3
  0.4167772300000000E+00 3  0.1047568975000000E+02 -0.4921768140000000E+01  0.8707055900000000E+00
  0.7770178090000000E+01 -0.2248152160000000E+01
  0.1784415450000000E+01
  0.5696265200000000E+00 2  0.1777985340000000E+01  0.1958597600000000E+00
 -0.2317443900000000E+00
  0.2381265000000000E+00 1 -0.1624868022000000E+02
         # Potential name:  GTH-PBE-Q13  for symbol:  GA
         # Potential read from the potential filename: GTH_POTENTIALS
       &END POTENTIAL
     &END KIND
     &TOPOLOGY
       COORD_FILE_NAME 334-native.xyz
       COORD_FILE_FORMAT  XYZ
       NUMBER_OF_ATOMS  144
       MULTIPLE_UNIT_CELL  1 1 1
     &END TOPOLOGY
   &END SUBSYS
 &END FORCE_EVAL
