 # Version information for this restart file 
 # current date 2019-05-16 14:38:06.441
 # current working dir /lustre03/project/6004141/rzk/GaN-carbene/00-Surface/00-Preoptimization/334-native/Trial4
 # Program compiled at                              Sun Apr  7 00:48:11 EDT 2019
 # Program compiled on                          beluga2.int.ets1.calculquebec.ca
 # Program compiled for                        Beluga-Linux-x86-64-intel-openmpi
 # Source code revision number                                         svn:18619
 &GLOBAL
   PRINT_LEVEL  MEDIUM
   PROJECT_NAME TEST
   RUN_TYPE  CELL_OPT
 &END GLOBAL
 &MOTION
   &CELL_OPT
     MAX_ITER  150
     STEP_START_VAL  107
     EXTERNAL_PRESSURE     1.0000000000000000E+00
     KEEP_ANGLES  T
     KEEP_SYMMETRY  T
     CONSTRAINT  Z
     PRESSURE_TOLERANCE     3.0000000000000000E+02
   &END CELL_OPT
 &END MOTION
 &FORCE_EVAL
   METHOD  QS
   STRESS_TENSOR  ANALYTICAL
   &DFT
     BASIS_SET_FILE_NAME BASIS_MOLOPT
     POTENTIAL_FILE_NAME GTH_POTENTIALS
     &SCF
       MAX_SCF  100
       EPS_SCF     5.0000000000000004E-06
       &OT  T
         PRECONDITIONER  FULL_ALL
       &END OT
       &OUTER_SCF  T
         OPTIMIZER  NONE
         EPS_SCF     5.0000000000000004E-06
         MAX_SCF  10
       &END OUTER_SCF
       &PRINT
         &RESTART  OFF
           BACKUP_COPIES  1
           &EACH
             JUST_ENERGY  0
             QS_SCF  0
             MD  20
           &END EACH
         &END RESTART
       &END PRINT
     &END SCF
     &ALMO_SCF
       EPS_FILTER     9.9999999999999994E-12
       ALMO_SCF_GUESS  ATOMIC
       MO_OVERLAP_INV_ALG  DENSE_CHOLESKY
       ALMO_EXTRAPOLATION_ORDER  4
       XALMO_EXTRAPOLATION_ORDER  4
       ALMO_ALGORITHM  SKIP
       XALMO_TRIAL_WF  SIMPLE
       DELOCALIZE_METHOD  XALMO_SCF
       XALMO_R_CUTOFF_FACTOR     1.8000000000000000E+00
       &ALMO_OPTIMIZER_DIIS
         MAX_ITER  100
         EPS_ERROR     1.0000000000000001E-05
         N_DIIS  5
       &END ALMO_OPTIMIZER_DIIS
       &ALMO_OPTIMIZER_PCG
         MAX_ITER  50
         EPS_ERROR     1.0000000000000001E-05
         LIN_SEARCH_EPS_ERROR     5.0000000000000003E-02
         LIN_SEARCH_STEP_SIZE_GUESS     5.0000000000000001E-03
         CONJUGATOR  DAI_YUAN
         MAX_ITER_OUTER_LOOP  10
       &END ALMO_OPTIMIZER_PCG
       &XALMO_OPTIMIZER_PCG
         MAX_ITER  1000
         EPS_ERROR     1.0000000000000001E-05
         LIN_SEARCH_EPS_ERROR     1.0000000000000001E-01
         LIN_SEARCH_STEP_SIZE_GUESS     1.0000000000000000E-02
         CONJUGATOR  DAI_YUAN
         PRECOND_FILTER_THRESHOLD     1.0000000000000000E-03
         MAX_ITER_OUTER_LOOP  0
       &END XALMO_OPTIMIZER_PCG
       &MATRIX_ITERATE
         EPS_TARGET_FACTOR     1.0000000000000000E+01
       &END MATRIX_ITERATE
     &END ALMO_SCF
     &QS
       EPS_DEFAULT     1.0000000000000000E-14
       ALMO_SCF  F
       METHOD  GPW
     &END QS
     &MGRID
       NGRIDS  5
       CUTOFF     1.2000000000000000E+03
     &END MGRID
     &XC
       DENSITY_CUTOFF     1.0000000000000000E-10
       GRADIENT_CUTOFF     1.0000000000000000E-10
       TAU_CUTOFF     1.0000000000000000E-10
       &XC_FUNCTIONAL  NO_SHORTCUT
         &PBE  T
         &END PBE
       &END XC_FUNCTIONAL
       &VDW_POTENTIAL
         POTENTIAL_TYPE  PAIR_POTENTIAL
         &PAIR_POTENTIAL
           R_CUTOFF     1.0000000000000004E+01
           TYPE  DFTD3
           PARAMETER_FILE_NAME dftd3.dat
           REFERENCE_FUNCTIONAL PBE
           EPS_CN     9.9999999999999995E-07
           CALCULATE_C9_TERM  T
           REFERENCE_C9_TERM  T
           LONG_RANGE_CORRECTION  F
           VERBOSE_OUTPUT  F
         &END PAIR_POTENTIAL
       &END VDW_POTENTIAL
     &END XC
   &END DFT
   &SUBSYS
     &CELL
       A     9.7410820271772014E+00    0.0000000000000000E+00    0.0000000000000000E+00
       B    -4.8561597443242750E+00    8.4111154068402865E+00    0.0000000000000000E+00
       C     0.0000000000000000E+00    0.0000000000000000E+00    3.0744000000000000E+01
       MULTIPLE_UNIT_CELL  1 1 1
       &CELL_REF
         A     9.5580000000000034E+00    0.0000000000000000E+00    0.0000000000000000E+00
         B    -4.7790000000000017E+00    8.2774708093716640E+00    0.0000000000000000E+00
         C     0.0000000000000000E+00    0.0000000000000000E+00    3.0744000000000000E+01
         MULTIPLE_UNIT_CELL  1 1 1
       &END CELL_REF
     &END CELL
     &COORD
Ga    1.1726765233097849E-03   -1.3245451712164046E-04   -5.8975742027146716E-01
N    5.4336004834708634E-03    1.8724703510380454E+00    5.6564678192861495E-01
Ga    4.3108457393657455E-03    1.8393954386724043E+00    2.5955859167224578E+00
N   -5.0228862762714611E-05   -3.0462230765848533E-03    3.2291333863917733E+00
Ga    2.3054606202208239E-04   -3.1970596161241291E-03    5.2203130681024126E+00
N    4.4237763078726301E-03    1.8711698715277092E+00    5.8066650410014882E+00
Ga    3.4979941020691469E-03    1.8680853157863746E+00    7.8059250327521132E+00
N   -6.0270475898584165E-04   -4.9822646924858448E-03    8.4080587247289529E+00
Ga   -1.2805777737236287E-05   -4.0803663286536566E-03    1.0406134676794833E+01
N    3.9765407590488556E-03    1.8675727426067481E+00    1.1010835082040582E+01
Ga    3.5308644639752353E-03    1.8731217578325929E+00    1.3005276146491047E+01
N   -8.6150331014605717E-04    3.6357140449405447E-03    1.3610518400186725E+01
Ga   -7.3250653341378541E-03    1.3430924483309549E-02    1.5613779351391376E+01
N    9.1827104740719125E-04    1.8834507402898208E+00    1.6257510838214632E+01
Ga    1.4641238489614078E-02    1.9062561273766747E+00    1.8367236801722083E+01
N    3.1623600348619522E-03    1.0056812912405927E-02    1.8661867531236656E+01
Ga   -1.6165153725089627E+00    2.8024713090190358E+00    2.7996595202122154E-01
N   -1.6192289889771201E+00    4.6711436903904895E+00    5.6495882164028610E-01
Ga   -1.5905231635606003E+00    4.6860191177516599E+00    2.5947414303423431E+00
N   -1.6186699568999265E+00    2.8008901191764957E+00    3.1869215891555953E+00
Ga   -1.6183444687230280E+00    2.8008647423891961E+00    5.1981235867766502E+00
N   -1.6170843339270200E+00    4.6704170647503886E+00    5.8066641996857022E+00
Ga   -1.6167684522772781E+00    4.6688704435251251E+00    7.8060997282920237E+00
N   -1.6199006841857495E+00    2.7985545298465100E+00    8.4106877549911250E+00
Ga   -1.6192433698511675E+00    2.7990485813766792E+00    1.0407011608729912E+01
N   -1.6111668715258511E+00    4.6693435090220801E+00    1.1014274950368778E+01
Ga   -1.6072863787835467E+00    4.6683503975846694E+00    1.3010476786731719E+01
N   -1.6177399727830941E+00    2.7994424722716316E+00    1.3623289587824225E+01
Ga   -1.6242958396357732E+00    2.7967021507790646E+00    1.5631480647670175E+01
N   -1.6238405455540510E+00    4.6772930184269725E+00    1.6216648224731536E+01
Ga   -1.6117989185826826E+00    4.6786032470825551E+00    1.8297362974831699E+01
N   -1.6215537232972537E+00    2.8133544893606564E+00    1.8736753567044055E+01
Ga   -3.2367918970829432E+00    5.6072435688848818E+00    2.7970797150694632E-01
N   -3.2291463164899454E+00    7.4763521686368666E+00    5.6513264294055598E-01
Ga   -3.2581799351316096E+00    7.4902852255213590E+00    2.5952568748277427E+00
N   -3.2376322918441427E+00    5.6050475428099835E+00    3.1874964853496275E+00
Ga   -3.2373896249817156E+00    5.6050327206202404E+00    5.1986875202734089E+00
N   -3.2301404327213152E+00    7.4738910858776739E+00    5.8078469459860402E+00
Ga   -3.2318987804005945E+00    7.4719905462020417E+00    7.8074811078698190E+00
N   -3.2378761382171857E+00    5.6018398052438467E+00    8.4144521427757919E+00
Ga   -3.2370806140510275E+00    5.6021945736340895E+00    1.0412589386751087E+01
N   -3.2337110621745855E+00    7.4753292183604572E+00    1.1013647882163809E+01
Ga   -3.2330525029368267E+00    7.4783862231419196E+00    1.3010220923251621E+01
N   -3.2354104832367567E+00    5.6000067037794228E+00    1.3595329133891235E+01
Ga   -3.2415299870956873E+00    5.6000930999431695E+00    1.5588897671102281E+01
N   -3.2418378811193058E+00    7.4745781399808626E+00    1.6160516913665806E+01
Ga   -3.2456313089904896E+00    7.4937321091067828E+00    1.8211649308977066E+01
N   -3.2476507896216167E+00    5.6161845782358046E+00    1.8611536648013157E+01
Ga    3.2482622426347656E+00   -3.1163460220984601E-03    2.7969342735839431E-01
N    3.2483878788811964E+00    1.8680870000451057E+00    5.6424965162485596E-01
Ga    3.2746509650981777E+00    1.8819337676646062E+00    2.5978468398053494E+00
N    3.2466139491374815E+00   -3.1049304841491788E-03    3.1867656868629561E+00
Ga    3.2470197951819197E+00   -3.2745325276296146E-03    5.1979822703736138E+00
N    3.2486429395050327E+00    1.8663792968918163E+00    5.8061884909202837E+00
Ga    3.2487952364559036E+00    1.8644774204166403E+00    7.8057834037287082E+00
N    3.2466936250375835E+00   -5.4155162533595421E-03    8.4121507281059351E+00
Ga    3.2471037342548184E+00   -4.9191029587726341E-03    1.0409384352134301E+01
N    3.2495143020944548E+00    1.8664582177359501E+00    1.1014097334264205E+01
Ga    3.2452951704118997E+00    1.8651092791822788E+00    1.3011291683443135E+01
N    3.2468455349288758E+00   -3.9758202657589363E-03    1.3624033628848476E+01
Ga    3.2502180864886214E+00   -1.4282484465383226E-04    1.5628628675410168E+01
N    3.2298102210024302E+00    1.8804423604916016E+00    1.6212458447901597E+01
Ga    3.2436209686831936E+00    1.8963267534333450E+00    1.8284768119562777E+01
N    3.2404350149572165E+00   -2.2322380908393444E-03    1.8576732753565466E+01
Ga    1.6271291246662254E+00    2.8033499513428661E+00    2.7918736293300267E-01
N    1.6378853563986846E+00    4.6720194734209795E+00    5.6434029438169764E-01
Ga    1.6082429588423917E+00    4.6863024884203677E+00    2.5942065178326996E+00
N    1.6279090237018541E+00    2.8010646460207673E+00    3.1870046242691479E+00
Ga    1.6281815372161936E+00    2.8011068450861734E+00    5.1982827316636380E+00
N    1.6354904926744052E+00    4.6705720715710237E+00    5.8066923576269263E+00
Ga    1.6334541794499196E+00    4.6690648919147417E+00    7.8060844740163704E+00
N    1.6277072321800188E+00    2.7986788277030668E+00    8.4103692016594565E+00
Ga    1.6278595089227810E+00    2.7994447971614203E+00    1.0406648661656716E+01
N    1.6287450555959937E+00    4.6699081868720986E+00    1.1013241302379974E+01
Ga    1.6226612894604127E+00    4.6689820484485489E+00    1.3009101196806149E+01
N    1.6241714869199770E+00    2.8001376892153234E+00    1.3618861134739728E+01
Ga    1.6198770579379331E+00    2.8011378246966787E+00    1.5626083348286217E+01
N    1.6357733343313874E+00    4.6769659835383912E+00    1.6210829167277264E+01
Ga    1.6512200709987894E+00    4.6795940008202983E+00    1.8290731939204711E+01
N    1.6358958212909640E+00    2.8157929228951546E+00    1.8747957933455158E+01
Ga    1.0006488432742940E-02    5.6065597249553631E+00   -5.8886356931039008E-01
N    1.5009191198279578E-02    7.4807481207392001E+00    5.6480098725847327E-01
Ga    1.4016936591714555E-02    7.4473759506425141E+00    2.5944815800964940E+00
N    9.2681368098493002E-03    5.6041472488029411E+00    3.2274663221108053E+00
Ga    9.7694987033301040E-03    5.6046209459653076E+00    5.2184998681622652E+00
N    1.4028112615336437E-02    7.4786070980469326E+00    5.8060529045590199E+00
Ga    1.3061618369198093E-02    7.4750313195883837E+00    7.8052565509951357E+00
N    8.7024862212091696E-03    5.6026297970436936E+00    8.4072697373428795E+00
Ga    9.0419290275220165E-03    5.6043893249202510E+00    1.0404833621861551E+01
N    1.3538292250324853E-02    7.4733545003929436E+00    1.1016974943872942E+01
Ga    1.2743708689156264E-02    7.4736174041074666E+00    1.3016232460134118E+01
N    7.4399936082131914E-03    5.6068426122318344E+00    1.3635411077680898E+01
Ga    3.7343599549489481E-03    5.6150906695221838E+00    1.5646767278883630E+01
N    1.1469079800897529E-02    7.4899217385617760E+00    1.6218925657498485E+01
Ga    2.4248078933857057E-02    7.4788515506827391E+00    1.8281440030333862E+01
N    1.4176380870288507E-02    5.5932921407218812E+00    1.8645552163854333E+01
Ga    6.4941879354944501E+00   -2.1432642469425521E-03    2.7908814918528746E-01
N    6.5016157507921353E+00    1.8691893173172558E+00    5.6405705433756270E-01
Ga    6.4743772529782619E+00    1.8820451487768430E+00    2.5978569652393704E+00
N    6.4941106569690659E+00   -2.8945333192225611E-03    3.1869695813622414E+00
Ga    6.4946710131042122E+00   -3.2023071360208371E-03    5.1981569439584172E+00
N    6.5011913964218113E+00    1.8665076684952173E+00    5.8063173773914452E+00
Ga    6.4992415892614543E+00    1.8644511982744918E+00    7.8056615984504560E+00
N    6.4927872043061949E+00   -5.4673011983709090E-03    8.4119899090195087E+00
Ga    6.4933908292635421E+00   -5.1156776397822514E-03    1.0409353381522173E+01
N    6.4998113775651900E+00    1.8658863373941594E+00    1.1015603174075700E+01
Ga    6.5030819952290013E+00    1.8639292802652923E+00    1.3013338614078775E+01
N    6.4930300345690783E+00   -6.6035569331617276E-03    1.3622417313365665E+01
Ga    6.4817007110813618E+00   -7.1540996716096920E-03    1.5626061462805390E+01
N    6.5096103029130905E+00    1.8717402733659390E+00    1.6210849701779566E+01
Ga    6.5230033735542587E+00    1.8957895198930452E+00    1.8281785076493147E+01
N    6.5074498745576843E+00   -3.4086361440096669E-04    1.8584063033699792E+01
Ga    4.8757727988494048E+00    2.8030557123715356E+00   -5.5295023966994639E-01
N    4.8807332415140730E+00    4.6753267308918396E+00    5.6506315816636288E-01
Ga    4.8794585890140914E+00    4.6446415616993209E+00    2.5984160496285478E+00
N    4.8749007405137776E+00    2.8008516161779098E+00    3.2282735768650301E+00
Ga    4.8754329412089401E+00    2.8010174341921985E+00    5.2201079159196038E+00
N    4.8797880656164514E+00    4.6750345861157960E+00    5.8080770758985540E+00
Ga    4.8788847459978246E+00    4.6710689044212952E+00    7.8084780521000363E+00
N    4.8746042066325428E+00    2.7971098249741613E+00    8.4085320635024043E+00
Ga    4.8754071800452756E+00    2.7959345202915458E+00    1.0407183716229612E+01
N    4.8797786314399625E+00    4.6656864999599073E+00    1.1012567927540207E+01
Ga    4.8797031876206542E+00    4.6602178990839240E+00    1.3008377706382506E+01
N    4.8744209857110414E+00    2.7838365177211206E+00    1.3619080287750736E+01
Ga    4.8684752160920146E+00    2.7782049830510229E+00    1.5622834513848723E+01
N    4.8743260124749739E+00    4.6684477819305439E+00    1.6133122315851104E+01
Ga    4.8870675012179072E+00    4.6883809215894043E+00    1.8176038648395537E+01
N    4.8792387768972487E+00    2.8150377606989134E+00    1.8598297128108047E+01
Ga    3.2570977467319699E+00    5.6065603788297924E+00    2.7966167002503789E-01
N    3.2576195854154459E+00    7.4755283017829086E+00    5.6488452105513154E-01
Ga    3.2854996933751011E+00    7.4901056449841255E+00    2.5950927970043689E+00
N    3.2564006790637468E+00    5.6048723238389000E+00    3.1872925081185794E+00
Ga    3.2568989641666932E+00    5.6050666101523667E+00    5.1985981966259782E+00
N    3.2585359115096257E+00    7.4738941403370109E+00    5.8079224401517582E+00
Ga    3.2583776659278931E+00    7.4718976412235749E+00    7.8075521589383383E+00
N    3.2556624127947531E+00    5.6017711731775579E+00    8.4143829085664397E+00
Ga    3.2561318566903585E+00    5.6021483692576961E+00    1.0412472465807305E+01
N    3.2614952485804509E+00    7.4754059104139214E+00    1.1012643271492028E+01
Ga    3.2608501699541326E+00    7.4777939749833235E+00    1.3008769526608710E+01
N    3.2528629179381845E+00    5.5991170550983753E+00    1.3590640471856327E+01
Ga    3.2473249863662601E+00    5.6012165490777290E+00    1.5583881082773360E+01
N    3.2647730109166884E+00    7.4708333417884010E+00    1.6163024053748007E+01
Ga    3.2885702225903852E+00    7.4958203838320392E+00    1.8214643899529730E+01
N    3.2752104731136393E+00    5.6186282936859380E+00    1.8615742642727010E+01
     &END COORD
     &KIND N
       BASIS_SET DZVP-MOLOPT-SR-GTH
       POTENTIAL GTH-PBE-q5
       &POTENTIAL
2 3
0.2837905100000000E+00 2 -0.1241522559000000E+02  0.1868095920000000E+01
2
0.2554050000000000E+00 1  0.1363026257000000E+02
0.2454945300000000E+00 0
       &END POTENTIAL
     &END KIND
     &KIND Ga
       BASIS_SET DZVP-MOLOPT-SR-GTH
       POTENTIAL GTH-PBE-q13
       &POTENTIAL
2 1 10
0.4900000000000000E+00 0
3
0.4167772300000000E+00 3  0.1047568975000000E+02 -0.4921768140000000E+01  0.8707055900000000E+00
0.7770178090000000E+01 -0.2248152160000000E+01
0.1784415450000000E+01
0.5696265200000000E+00 2  0.1777985340000000E+01  0.1958597600000000E+00
-0.2317443900000000E+00
0.2381265000000000E+00 1 -0.1624868022000000E+02
       &END POTENTIAL
     &END KIND
     &TOPOLOGY
       COORD_FILE_NAME 334-native.xyz
       COORD_FILE_FORMAT  XYZ
       NUMBER_OF_ATOMS  144
       MULTIPLE_UNIT_CELL  1 1 1
     &END TOPOLOGY
   &END SUBSYS
 &END FORCE_EVAL
