 # Version information for this restart file 
 # current date 2019-05-16 03:27:44.163
 # current working dir /lustre03/project/6004141/rzk/GaN-carbene/00-Surface/00-Preoptimization/334-native/Trial4
 # Program compiled at                              Sun Apr  7 00:48:11 EDT 2019
 # Program compiled on                          beluga2.int.ets1.calculquebec.ca
 # Program compiled for                        Beluga-Linux-x86-64-intel-openmpi
 # Source code revision number                                         svn:18619
 &GLOBAL
   PRINT_LEVEL  MEDIUM
   PROJECT_NAME TEST
   RUN_TYPE  CELL_OPT
 &END GLOBAL
 &MOTION
   &CELL_OPT
     MAX_ITER  100
     STEP_START_VAL  33
     EXTERNAL_PRESSURE     1.0000000000000000E+00
     KEEP_ANGLES  T
     KEEP_SYMMETRY  T
     CONSTRAINT  Z
     PRESSURE_TOLERANCE     1.0000000000000000E+02
   &END CELL_OPT
 &END MOTION
 &FORCE_EVAL
   METHOD  QS
   STRESS_TENSOR  ANALYTICAL
   &DFT
     BASIS_SET_FILE_NAME BASIS_MOLOPT
     POTENTIAL_FILE_NAME GTH_POTENTIALS
     &SCF
       MAX_SCF  100
       EPS_SCF     5.0000000000000004E-06
       &OT  T
         PRECONDITIONER  FULL_ALL
       &END OT
       &OUTER_SCF  T
         OPTIMIZER  NONE
         EPS_SCF     5.0000000000000004E-06
         MAX_SCF  10
       &END OUTER_SCF
       &PRINT
         &RESTART  OFF
           BACKUP_COPIES  1
           &EACH
             JUST_ENERGY  0
             QS_SCF  0
             MD  20
           &END EACH
         &END RESTART
       &END PRINT
     &END SCF
     &ALMO_SCF
       EPS_FILTER     9.9999999999999994E-12
       ALMO_SCF_GUESS  ATOMIC
       MO_OVERLAP_INV_ALG  DENSE_CHOLESKY
       ALMO_EXTRAPOLATION_ORDER  4
       XALMO_EXTRAPOLATION_ORDER  4
       ALMO_ALGORITHM  SKIP
       XALMO_TRIAL_WF  SIMPLE
       DELOCALIZE_METHOD  XALMO_SCF
       XALMO_R_CUTOFF_FACTOR     1.8000000000000000E+00
       &ALMO_OPTIMIZER_DIIS
         MAX_ITER  100
         EPS_ERROR     1.0000000000000001E-05
         N_DIIS  5
       &END ALMO_OPTIMIZER_DIIS
       &ALMO_OPTIMIZER_PCG
         MAX_ITER  50
         EPS_ERROR     1.0000000000000001E-05
         LIN_SEARCH_EPS_ERROR     5.0000000000000003E-02
         LIN_SEARCH_STEP_SIZE_GUESS     5.0000000000000001E-03
         CONJUGATOR  DAI_YUAN
         MAX_ITER_OUTER_LOOP  10
       &END ALMO_OPTIMIZER_PCG
       &XALMO_OPTIMIZER_PCG
         MAX_ITER  1000
         EPS_ERROR     1.0000000000000001E-05
         LIN_SEARCH_EPS_ERROR     1.0000000000000001E-01
         LIN_SEARCH_STEP_SIZE_GUESS     1.0000000000000000E-02
         CONJUGATOR  DAI_YUAN
         PRECOND_FILTER_THRESHOLD     1.0000000000000000E-03
         MAX_ITER_OUTER_LOOP  0
       &END XALMO_OPTIMIZER_PCG
       &MATRIX_ITERATE
         EPS_TARGET_FACTOR     1.0000000000000000E+01
       &END MATRIX_ITERATE
     &END ALMO_SCF
     &QS
       EPS_DEFAULT     1.0000000000000000E-14
       ALMO_SCF  F
       METHOD  GPW
     &END QS
     &MGRID
       NGRIDS  5
       CUTOFF     1.2000000000000000E+03
     &END MGRID
     &XC
       DENSITY_CUTOFF     1.0000000000000000E-10
       GRADIENT_CUTOFF     1.0000000000000000E-10
       TAU_CUTOFF     1.0000000000000000E-10
       &XC_FUNCTIONAL  NO_SHORTCUT
         &PBE  T
         &END PBE
       &END XC_FUNCTIONAL
       &VDW_POTENTIAL
         POTENTIAL_TYPE  PAIR_POTENTIAL
         &PAIR_POTENTIAL
           R_CUTOFF     1.0000000000000002E+01
           TYPE  DFTD3
           PARAMETER_FILE_NAME dftd3.dat
           REFERENCE_FUNCTIONAL PBE
           EPS_CN     9.9999999999999995E-07
           CALCULATE_C9_TERM  T
           REFERENCE_C9_TERM  T
           LONG_RANGE_CORRECTION  F
           VERBOSE_OUTPUT  F
         &END PAIR_POTENTIAL
       &END VDW_POTENTIAL
     &END XC
   &END DFT
   &SUBSYS
     &CELL
       A     9.7423266420352839E+00    0.0000000000000000E+00    0.0000000000000000E+00
       B    -4.8549657481139787E+00    8.4090473447400562E+00    0.0000000000000000E+00
       C     0.0000000000000000E+00    0.0000000000000000E+00    3.0744000000000000E+01
       MULTIPLE_UNIT_CELL  1 1 1
       &CELL_REF
         A     9.5580000000000016E+00    0.0000000000000000E+00    0.0000000000000000E+00
         B    -4.7790000000000008E+00    8.2774708093716640E+00    0.0000000000000000E+00
         C     0.0000000000000000E+00    0.0000000000000000E+00    3.0744000000000000E+01
         MULTIPLE_UNIT_CELL  1 1 1
       &END CELL_REF
     &END CELL
     &COORD
Ga    1.7220073344236003E-02   -1.2336090532075112E-02   -6.1468839221216343E-01
N   -8.8161028720619720E-04    1.8642470090486840E+00    5.3857495480572426E-01
Ga    8.1137302656891942E-03    1.8504862387672281E+00    2.5787270879531556E+00
N   -4.0489181504337838E-03    1.1526539938593969E-02    3.2208189469374826E+00
Ga   -4.8929940978859453E-03    5.8643983093074840E-03    5.2151065119233504E+00
N    4.8784537240265770E-03    1.8720405853036379E+00    5.8247725612911578E+00
Ga    5.6852836109371222E-03    1.8694561806459955E+00    7.8179957992059821E+00
N    1.3827666440475965E-04   -2.3905639802811927E-03    8.4181162262612101E+00
Ga    2.0100716004597188E-03    2.2363524478832067E-03    1.0411243811076293E+01
N    5.3460189264130679E-03    1.8757476593365008E+00    1.1010757027592515E+01
Ga    4.9936235356259143E-03    1.8809866561325050E+00    1.3006488243393191E+01
N   -8.1415645787554403E-04    9.6928531371832174E-03    1.3618335577268381E+01
Ga   -1.6506046031189579E-02   -3.6431162832659060E-03    1.5629232323449733E+01
N   -8.1234191259662476E-03    1.8908823156008383E+00    1.6209790097640870E+01
Ga    6.4606053720225537E-03    1.8927580476049941E+00    1.8281339385749426E+01
N    6.3958101992250905E-03    5.2792460057272334E-03    1.8637621705614627E+01
Ga   -1.6342219650630172E+00    2.7983244323936440E+00    2.9184905586970694E-01
N   -1.6262478694030025E+00    4.6690949069683336E+00    5.7469719274904707E-01
Ga   -1.5926552120102691E+00    4.6918174506067567E+00    2.6072524122023855E+00
N   -1.6108570004893461E+00    2.8044174399818531E+00    3.1922238545988670E+00
Ga   -1.6131688282950993E+00    2.8036067516888608E+00    5.2167437234038756E+00
N   -1.6117799447402097E+00    4.6754538679240829E+00    5.8203209075581945E+00
Ga   -1.6128956190576156E+00    4.6745466421543300E+00    7.8169478517756428E+00
N   -1.6198870613443570E+00    2.8011883326649460E+00    8.4124801573687353E+00
Ga   -1.6190744594958268E+00    2.8050045469765341E+00    1.0405177740015006E+01
N   -1.6083809792660506E+00    4.6780197392403604E+00    1.1008949763047546E+01
Ga   -1.6058896105135252E+00    4.6848511778210558E+00    1.3003789652742032E+01
N   -1.6226326386042942E+00    2.8126578311437562E+00    1.3605604603397403E+01
Ga   -1.6342805529643958E+00    2.8010019755465332E+00    1.5610347040281729E+01
N   -1.6204263188856527E+00    4.6868516305315575E+00    1.6215030826008732E+01
Ga   -1.6131157921099641E+00    4.6781449695702610E+00    1.8291933010294503E+01
N   -1.6319370959300634E+00    2.7866988582471706E+00    1.8667540716079749E+01
Ga   -3.2466279273680616E+00    5.6055312546743732E+00    2.7168537842545060E-01
N   -3.2295424404124438E+00    7.4658408438845631E+00    5.8470268205060771E-01
Ga   -3.2512156033474540E+00    7.4893458807907933E+00    2.6138852647796580E+00
N   -3.2395087526206678E+00    5.6016638877958727E+00    3.2066945897296422E+00
Ga   -3.2389250363980069E+00    5.6034145360698977E+00    5.2205439051173634E+00
N   -3.2301076730145923E+00    7.4817975284693228E+00    5.8037170716504791E+00
Ga   -3.2324805313073353E+00    7.4762185532236716E+00    7.8065593886317375E+00
N   -3.2377694226542482E+00    5.6059438448179311E+00    8.4174388456773688E+00
Ga   -3.2356644300837245E+00    5.6093220081936233E+00    1.0412582592238730E+01
N   -3.2310818088686299E+00    7.4804427608989590E+00    1.1017746468448397E+01
Ga   -3.2356588448911952E+00    7.4829256467862866E+00    1.3011320206419065E+01
N   -3.2335137965687397E+00    5.6098344324757203E+00    1.3608283982947464E+01
Ga   -3.2422162811168866E+00    5.5887663403379788E+00    1.5605693421364334E+01
N   -3.2480037316469441E+00    7.4686861483700664E+00    1.6208140539518883E+01
Ga   -3.2274565146115761E+00    7.4790623228640669E+00    1.8278636393778068E+01
N   -3.2407031451842503E+00    5.5974206557404118E+00    1.8657603087274531E+01
Ga    3.2330935438743200E+00   -8.2751928541127708E-03    2.7501759911969953E-01
N    3.2510437819115783E+00    1.8629699561003989E+00    5.4726628259246168E-01
Ga    3.2797668463145451E+00    1.8918313341356126E+00    2.5911751313427986E+00
N    3.2596974702192361E+00    6.2491374705715523E-03    3.1787377913885750E+00
Ga    3.2532214308082170E+00    2.3698563217425203E-03    5.1932510462013433E+00
N    3.2542067195950581E+00    1.8697253940238452E+00    5.8149254714070677E+00
Ga    3.2508670033279721E+00    1.8678952534335478E+00    7.8124812073813876E+00
N    3.2455471518784780E+00   -4.3939347943897393E-03    8.4121019996322524E+00
Ga    3.2458689807769865E+00   -3.0487985397127152E-03    1.0403257559410168E+01
N    3.2516648344708745E+00    1.8667730977265775E+00    1.1011401883917467E+01
Ga    3.2473648616451221E+00    1.8648237273411101E+00    1.3007572649899807E+01
N    3.2470898011898428E+00   -9.7870436428029086E-03    1.3623883769193725E+01
Ga    3.2434405780646616E+00   -2.2093164888541204E-02    1.5632777601132421E+01
N    3.2284578051719537E+00    1.8597824499805216E+00    1.6209439626382036E+01
Ga    3.2477108921990929E+00    1.8734352219291566E+00    1.8276804391517132E+01
N    3.2511851106363410E+00   -2.2013855590581579E-02    1.8661211748701255E+01
Ga    1.6276556622707448E+00    2.7999465350057897E+00    2.5791549468864544E-01
N    1.6314596263221777E+00    4.6603086561713702E+00    5.9214409929145906E-01
Ga    1.6093951219153440E+00    4.6807985645246264E+00    2.6201081710096958E+00
N    1.6286523662308265E+00    2.7929067911265473E+00    3.2043534355346925E+00
Ga    1.6277551836132034E+00    2.7964218566829340E+00    5.2202053032739375E+00
N    1.6383928110716814E+00    4.6764776742435874E+00    5.8011602806120468E+00
Ga    1.6368855698226037E+00    4.6734741423356549E+00    7.8039058383467497E+00
N    1.6287490964157736E+00    2.8036167861266521E+00    8.4157941763893227E+00
Ga    1.6311314904663969E+00    2.8044750051535376E+00    1.0409393802237521E+01
N    1.6383544038450499E+00    4.6749812518747422E+00    1.1016137613037490E+01
Ga    1.6384856106532810E+00    4.6739122421555894E+00    1.3007584625392113E+01
N    1.6305931351607257E+00    2.8023563917460148E+00    1.3614202157704202E+01
Ga    1.6257280941098893E+00    2.7944030720632349E+00    1.5611460304425563E+01
N    1.6418847985596654E+00    4.6631708155618403E+00    1.6195113579256819E+01
Ga    1.6472130220425338E+00    4.6783699480437004E+00    1.8254122183373312E+01
N    1.6301786420892954E+00    2.8006956256457234E+00    1.8683035792253406E+01
Ga    1.6227526383669182E-02    5.5784417185170501E+00   -5.5843695037125918E-01
N    1.1175955520820046E-02    7.4774920091502652E+00    5.3723667849898238E-01
Ga    2.3956253400329263E-02    7.4557244325868322E+00    2.5695592156553526E+00
N    7.4059095694744368E-03    5.6175558551528635E+00    3.2252563912590961E+00
Ga    8.9935855984029714E-03    5.6140134394136476E+00    5.2219027085731469E+00
N    1.5488015563134271E-02    7.4826736082689855E+00    5.8184896615671047E+00
Ga    1.6638505681612053E-02    7.4772309386021565E+00    7.8127220017770629E+00
N    1.4109372528264748E-02    5.6040766109057820E+00    8.4123048734362751E+00
Ga    1.7093801148299469E-02    5.6067312615061935E+00    1.0406679073073224E+01
N    1.5716527574683066E-02    7.4782640196976367E+00    1.1012249910504972E+01
Ga    1.6437752867349546E-02    7.4758055680460833E+00    1.3005940652147164E+01
N    1.8928085196950637E-02    5.6060684079161991E+00    1.3622207637493160E+01
Ga    9.7676853673776386E-03    5.5986549284839766E+00    1.5628855430152731E+01
N    2.4179297849470344E-02    7.4712639259364533E+00    1.6221097807280646E+01
Ga    2.7252926876989769E-02    7.4737863664153625E+00    1.8291681481275049E+01
N    1.8341513226588356E-02    5.5797209317687857E+00    1.8668287258012004E+01
Ga    6.4928286257774621E+00   -5.8975733593551608E-03    2.3774854291236067E-01
N    6.4918908879351633E+00    1.8605395977691737E+00    5.8716349477653951E-01
Ga    6.4793769141421116E+00    1.8804377143203721E+00    2.6187124239582187E+00
N    6.4950876176148338E+00   -4.2321110678819399E-03    3.1997090683990628E+00
Ga    6.4967972016873849E+00   -5.4240478204914191E-03    5.2123657617245680E+00
N    6.5019483239667171E+00    1.8710076802024587E+00    5.8104636459463057E+00
Ga    6.4997617501047511E+00    1.8670626608932637E+00    7.8095873178539312E+00
N    6.4955001912062258E+00   -2.7929571835009865E-03    8.4187860919132262E+00
Ga    6.4960489372923336E+00    7.1786085128433736E-04    1.0412088444383446E+01
N    6.5016518408374537E+00    1.8725247000844933E+00    1.1012279589016206E+01
Ga    6.4982114841310219E+00    1.8718792177938517E+00    1.3006790551362572E+01
N    6.4924842806617233E+00   -2.4487382539876167E-03    1.3603508271135921E+01
Ga    6.4819662396143780E+00   -1.8944257374046921E-02    1.5594282380705724E+01
N    6.4846755910572043E+00    1.8628896046834951E+00    1.6170497006053232E+01
Ga    6.4984873526531555E+00    1.8786772651462400E+00    1.8217674053017909E+01
N    6.5018682046848655E+00   -4.0899818607761555E-04    1.8645201500754375E+01
Ga    4.8971113122444203E+00    2.7979086991836772E+00   -5.2158008718458349E-01
N    4.8680642083887209E+00    4.6715941503536014E+00    5.5331835722214551E-01
Ga    4.8845012244924897E+00    4.6530683847201191E+00    2.5871860596108345E+00
N    4.8762813845564006E+00    2.8122489881417292E+00    3.2304172396615871E+00
Ga    4.8756293385039262E+00    2.8095070017945614E+00    5.2226676015725984E+00
N    4.8770199317252372E+00    4.6803770430792930E+00    5.8179928887236816E+00
Ga    4.8790822479548899E+00    4.6754698559071022E+00    7.8141213208982716E+00
N    4.8759629114608156E+00    2.8008545492570343E+00    8.4106918125426890E+00
Ga    4.8762393739460235E+00    2.8003003021061832E+00    1.0406332832660951E+01
N    4.8846550252668299E+00    4.6725266466237061E+00    1.1010917940280590E+01
Ga    4.8875208223489848E+00    4.6708417276855139E+00    1.3005406979648312E+01
N    4.8682059255997494E+00    2.7949948004944742E+00    1.3605787575362005E+01
Ga    4.8544033743739670E+00    2.7802418186599085E+00    1.5606719499746182E+01
N    4.8823360262242144E+00    4.6599706100785516E+00    1.6166242209299572E+01
Ga    4.8896942965097496E+00    4.6894079062655409E+00    1.8213301541437762E+01
N    4.8783228143587039E+00    2.8034842084634373E+00    1.8613238544411573E+01
Ga    3.2367183691106898E+00    5.5976084554533987E+00    2.7567779861447222E-01
N    3.2577142153024745E+00    7.4648289632918106E+00    5.4059460811985260E-01
Ga    3.2862031286119988E+00    7.5007901521652780E+00    2.5779620050446082E+00
N    3.2619257323648578E+00    5.6135691718210774E+00    3.1708619622280074E+00
Ga    3.2621940490872881E+00    5.6114939686821499E+00    5.1861394391550162E+00
N    3.2656507601259812E+00    7.4754595406302080E+00    5.8139035683285716E+00
Ga    3.2637006820656587E+00    7.4741389954656494E+00    7.8133620055034845E+00
N    3.2561973831017310E+00    5.6040089218106788E+00    8.4163485685536283E+00
Ga    3.2610228452045953E+00    5.6062079613132756E+00    1.0410391913632353E+01
N    3.2659861166358741E+00    7.4792230455266253E+00    1.1012346244678458E+01
Ga    3.2661760304620060E+00    7.4868699302241959E+00    1.3006306615395914E+01
N    3.2651427949080349E+00    5.6079935385186355E+00    1.3601913689435396E+01
Ga    3.2594311118566721E+00    5.5962309621982556E+00    1.5599954730726095E+01
N    3.2477436741633054E+00    7.4713458862971480E+00    1.6185587478608184E+01
Ga    3.2709757839646150E+00    7.5045592420933041E+00    1.8244004811621341E+01
N    3.2715578556026501E+00    5.6116005026885665E+00    1.8618481201574422E+01
     &END COORD
     &KIND N
       BASIS_SET DZVP-MOLOPT-SR-GTH
       POTENTIAL GTH-PBE-q5
       &POTENTIAL
 2 3
  0.2837905100000000E+00 2 -0.1241522559000000E+02  0.1868095920000000E+01
 2
  0.2554050000000000E+00 1  0.1363026257000000E+02
  0.2454945300000000E+00 0
         # Potential name:  GTH-PBE-Q5  for symbol:  N
         # Potential read from the potential filename: GTH_POTENTIALS
       &END POTENTIAL
     &END KIND
     &KIND Ga
       BASIS_SET DZVP-MOLOPT-SR-GTH
       POTENTIAL GTH-PBE-q13
       &POTENTIAL
 2 1 10
  0.4900000000000000E+00 0
 3
  0.4167772300000000E+00 3  0.1047568975000000E+02 -0.4921768140000000E+01  0.8707055900000000E+00
  0.7770178090000000E+01 -0.2248152160000000E+01
  0.1784415450000000E+01
  0.5696265200000000E+00 2  0.1777985340000000E+01  0.1958597600000000E+00
 -0.2317443900000000E+00
  0.2381265000000000E+00 1 -0.1624868022000000E+02
         # Potential name:  GTH-PBE-Q13  for symbol:  GA
         # Potential read from the potential filename: GTH_POTENTIALS
       &END POTENTIAL
     &END KIND
     &TOPOLOGY
       COORD_FILE_NAME 334-native.xyz
       COORD_FILE_FORMAT  XYZ
       NUMBER_OF_ATOMS  144
       MULTIPLE_UNIT_CELL  1 1 1
     &END TOPOLOGY
   &END SUBSYS
 &END FORCE_EVAL
