 # Version information for this restart file 
 # current date 2019-05-16 02:57:50.598
 # current working dir /lustre03/project/6004141/rzk/GaN-carbene/00-Surface/00-Preoptimization/334-native/Trial4
 # Program compiled at                              Sun Apr  7 00:48:11 EDT 2019
 # Program compiled on                          beluga2.int.ets1.calculquebec.ca
 # Program compiled for                        Beluga-Linux-x86-64-intel-openmpi
 # Source code revision number                                         svn:18619
 &GLOBAL
   PRINT_LEVEL  MEDIUM
   PROJECT_NAME TEST
   RUN_TYPE  CELL_OPT
 &END GLOBAL
 &MOTION
   &CELL_OPT
     MAX_ITER  100
     STEP_START_VAL  25
     EXTERNAL_PRESSURE     1.0000000000000000E+00
     KEEP_ANGLES  T
     KEEP_SYMMETRY  T
     CONSTRAINT  Z
     PRESSURE_TOLERANCE     1.0000000000000000E+02
   &END CELL_OPT
 &END MOTION
 &FORCE_EVAL
   METHOD  QS
   STRESS_TENSOR  ANALYTICAL
   &DFT
     BASIS_SET_FILE_NAME BASIS_MOLOPT
     POTENTIAL_FILE_NAME GTH_POTENTIALS
     &SCF
       MAX_SCF  100
       EPS_SCF     5.0000000000000004E-06
       &OT  T
         PRECONDITIONER  FULL_ALL
       &END OT
       &OUTER_SCF  T
         OPTIMIZER  NONE
         EPS_SCF     5.0000000000000004E-06
         MAX_SCF  10
       &END OUTER_SCF
       &PRINT
         &RESTART  OFF
           BACKUP_COPIES  1
           &EACH
             JUST_ENERGY  0
             QS_SCF  0
             MD  20
           &END EACH
         &END RESTART
       &END PRINT
     &END SCF
     &ALMO_SCF
       EPS_FILTER     9.9999999999999994E-12
       ALMO_SCF_GUESS  ATOMIC
       MO_OVERLAP_INV_ALG  DENSE_CHOLESKY
       ALMO_EXTRAPOLATION_ORDER  4
       XALMO_EXTRAPOLATION_ORDER  4
       ALMO_ALGORITHM  SKIP
       XALMO_TRIAL_WF  SIMPLE
       DELOCALIZE_METHOD  XALMO_SCF
       XALMO_R_CUTOFF_FACTOR     1.8000000000000000E+00
       &ALMO_OPTIMIZER_DIIS
         MAX_ITER  100
         EPS_ERROR     1.0000000000000001E-05
         N_DIIS  5
       &END ALMO_OPTIMIZER_DIIS
       &ALMO_OPTIMIZER_PCG
         MAX_ITER  50
         EPS_ERROR     1.0000000000000001E-05
         LIN_SEARCH_EPS_ERROR     5.0000000000000003E-02
         LIN_SEARCH_STEP_SIZE_GUESS     5.0000000000000001E-03
         CONJUGATOR  DAI_YUAN
         MAX_ITER_OUTER_LOOP  10
       &END ALMO_OPTIMIZER_PCG
       &XALMO_OPTIMIZER_PCG
         MAX_ITER  1000
         EPS_ERROR     1.0000000000000001E-05
         LIN_SEARCH_EPS_ERROR     1.0000000000000001E-01
         LIN_SEARCH_STEP_SIZE_GUESS     1.0000000000000000E-02
         CONJUGATOR  DAI_YUAN
         PRECOND_FILTER_THRESHOLD     1.0000000000000000E-03
         MAX_ITER_OUTER_LOOP  0
       &END XALMO_OPTIMIZER_PCG
       &MATRIX_ITERATE
         EPS_TARGET_FACTOR     1.0000000000000000E+01
       &END MATRIX_ITERATE
     &END ALMO_SCF
     &QS
       EPS_DEFAULT     1.0000000000000000E-14
       ALMO_SCF  F
       METHOD  GPW
     &END QS
     &MGRID
       NGRIDS  5
       CUTOFF     1.2000000000000000E+03
     &END MGRID
     &XC
       DENSITY_CUTOFF     1.0000000000000000E-10
       GRADIENT_CUTOFF     1.0000000000000000E-10
       TAU_CUTOFF     1.0000000000000000E-10
       &XC_FUNCTIONAL  NO_SHORTCUT
         &PBE  T
         &END PBE
       &END XC_FUNCTIONAL
       &VDW_POTENTIAL
         POTENTIAL_TYPE  PAIR_POTENTIAL
         &PAIR_POTENTIAL
           R_CUTOFF     1.0000000000000002E+01
           TYPE  DFTD3
           PARAMETER_FILE_NAME dftd3.dat
           REFERENCE_FUNCTIONAL PBE
           EPS_CN     9.9999999999999995E-07
           CALCULATE_C9_TERM  T
           REFERENCE_C9_TERM  T
           LONG_RANGE_CORRECTION  F
           VERBOSE_OUTPUT  F
         &END PAIR_POTENTIAL
       &END VDW_POTENTIAL
     &END XC
   &END DFT
   &SUBSYS
     &CELL
       A     9.7868010362896047E+00    0.0000000000000000E+00    0.0000000000000000E+00
       B    -4.8450636458741165E+00    8.3918964005588759E+00    0.0000000000000000E+00
       C     0.0000000000000000E+00    0.0000000000000000E+00    3.0744000000000000E+01
       MULTIPLE_UNIT_CELL  1 1 1
       &CELL_REF
         A     9.5580000000000016E+00    0.0000000000000000E+00    0.0000000000000000E+00
         B    -4.7790000000000008E+00    8.2774708093716640E+00    0.0000000000000000E+00
         C     0.0000000000000000E+00    0.0000000000000000E+00    3.0744000000000000E+01
         MULTIPLE_UNIT_CELL  1 1 1
       &END CELL_REF
     &END CELL
     &COORD
Ga    4.2965883548697195E-02   -7.0231390024381779E-02   -5.0725156296804330E-01
N    2.5686432470108660E-03    1.8841598061094407E+00    5.0062007029127908E-01
Ga    2.9101985204145208E-02    1.8650225481127631E+00    2.5872859288429182E+00
N   -6.4962624669560485E-03   -4.7622017750104792E-03    3.1974519313496121E+00
Ga   -1.0971027450051686E-02   -1.5936146940498132E-02    5.2117894043845840E+00
N    2.0531088303977582E-02    1.8663644127694348E+00    5.8109113048654883E+00
Ga    1.9071496428020789E-02    1.8761135102535815E+00    7.8133902617118993E+00
N   -1.5289074735947094E-03   -7.5715088254251339E-03    8.4129573298631986E+00
Ga   -3.4174337993427783E-03   -7.2772716060696060E-03    1.0422095179152803E+01
N    1.4358569685412569E-02    1.8730253063776949E+00    1.1040717031319316E+01
Ga    3.0226629513358020E-03    1.8850566408397522E+00    1.3032032906843071E+01
N   -2.4214881503891966E-03    1.0400738173427170E-02    1.3631739530797764E+01
Ga   -4.8564813918541332E-02    1.7095890125657688E-02    1.5640904136460991E+01
N   -4.0576050869447046E-03    1.9037412892251644E+00    1.6207625400207760E+01
Ga    1.2732102436717099E-02    1.8942093339051753E+00    1.8279738747581160E+01
N    2.7240887914159080E-03    7.6163074912056821E-03    1.8617051301154977E+01
Ga   -1.6532469641701630E+00    2.7851892860434657E+00    2.3652553218880037E-01
N   -1.6268974602487283E+00    4.6643555023829215E+00    5.8038758510484323E-01
Ga   -1.5906300948859893E+00    4.6936684464145291E+00    2.6246084538250503E+00
N   -1.6008840350350064E+00    2.8007090713962750E+00    3.2208868904418186E+00
Ga   -1.6132783259466994E+00    2.7878885730267284E+00    5.2279288776904744E+00
N   -1.5989996723399238E+00    4.6756193909981540E+00    5.8082157180396861E+00
Ga   -1.5966719750226286E+00    4.6725688914408865E+00    7.8145666978102124E+00
N   -1.6210387852691432E+00    2.7889239172096185E+00    8.4199153303334633E+00
Ga   -1.6186939259948820E+00    2.7897423432153921E+00    1.0438042142278249E+01
N   -1.5940999327496825E+00    4.6727263677683464E+00    1.1040096535217938E+01
Ga   -1.5766616273308283E+00    4.6811122952315909E+00    1.3022762378428860E+01
N   -1.6240871116285320E+00    2.8071775266221546E+00    1.3617085663697029E+01
Ga   -1.6376064519933373E+00    2.8223248489139214E+00    1.5620056977187717E+01
N   -1.5986953033126992E+00    4.6912021166198556E+00    1.6199806471857997E+01
Ga   -1.5834506002564115E+00    4.6468742595320416E+00    1.8272766867782686E+01
N   -1.6614687269177657E+00    2.7703943253846153E+00    1.8686119680268131E+01
Ga   -3.2398971686907680E+00    5.6188797404204855E+00    1.4881736799277573E-01
N   -3.2087417198428057E+00    7.4452926603918961E+00    6.3776947686571750E-01
Ga   -3.2267243036858946E+00    7.4774177751827189E+00    2.6183179813662036E+00
N   -3.2344314192788546E+00    5.6049952643873269E+00    3.2142738362749022E+00
Ga   -3.2406700022605155E+00    5.5891205373133879E+00    5.2226779470255646E+00
N   -3.2105001215947238E+00    7.4726740442550144E+00    5.8066358743055453E+00
Ga   -3.2082276223471986E+00    7.4723532717911363E+00    7.8107413458383661E+00
N   -3.2329233038916012E+00    5.5887671548687852E+00    8.4189592858084090E+00
Ga   -3.2334352213868480E+00    5.5851918067628503E+00    1.0436065140688054E+01
N   -3.2166747601751542E+00    7.4699206748481988E+00    1.1034404524726924E+01
Ga   -3.2196172596119004E+00    7.4901665676083349E+00    1.3023269369343994E+01
N   -3.2337050067010704E+00    5.5895464795568435E+00    1.3580281900353196E+01
Ga   -3.2263535797300573E+00    5.5959870039982160E+00    1.5580617381321742E+01
N   -3.2341922994738987E+00    7.4587465158549024E+00    1.6202874297147755E+01
Ga   -3.1791379614235606E+00    7.4666891528230996E+00    1.8265977886548303E+01
N   -3.2413456360373845E+00    5.5807108827236096E+00    1.8661755001213070E+01
Ga    3.2395201754621343E+00   -6.1752150334260653E-03    2.9243087543696911E-01
N    3.2525949314955382E+00    1.8791722140972993E+00    5.2824410387254139E-01
Ga    3.2890171992889328E+00    1.8994088564830602E+00    2.5903828657544432E+00
N    3.2734850616049536E+00    5.0825993365759339E-03    3.1747757962470144E+00
Ga    3.2600747873393536E+00   -1.1630066679676275E-02    5.2027670808496076E+00
N    3.2756304355547270E+00    1.8679355989167385E+00    5.7877225395342737E+00
Ga    3.2800825452207021E+00    1.8731472818259682E+00    7.7949366404580323E+00
N    3.2606417387456665E+00   -4.8008752050915423E-03    8.4140605068392489E+00
Ga    3.2550772742948646E+00   -1.1128061305616397E-02    1.0426197073752093E+01
N    3.2784946906578756E+00    1.8684305698602375E+00    1.1035870764922546E+01
Ga    3.2827209338699412E+00    1.8573021546288802E+00    1.3015456218236267E+01
N    3.2570577132738907E+00   -1.4150699695869795E-02    1.3637847527364174E+01
Ga    3.2453387098814073E+00   -3.3981689839200253E-02    1.5656347374076320E+01
N    3.2597367444633081E+00    1.8410418307717888E+00    1.6205391902321612E+01
Ga    3.2762758050151839E+00    1.8504990737809532E+00    1.8274870567443561E+01
N    3.2621226236102654E+00   -3.5894059042860138E-02    1.8661462164758014E+01
Ga    1.6365966418551854E+00    2.7749783747864361E+00    1.1202075133753218E-01
N    1.6353123790215947E+00    4.6114969412178572E+00    6.2848142843772070E-01
Ga    1.6452852932908753E+00    4.6687799064667885E+00    2.6221552334736895E+00
N    1.6521451693276903E+00    2.7877727513677728E+00    3.2005215169439412E+00
Ga    1.6403627441769928E+00    2.7859554346656483E+00    5.2051009254487832E+00
N    1.6633087042201742E+00    4.6711329125368488E+00    5.8020786931090056E+00
Ga    1.6639790552768714E+00    4.6719124931879419E+00    7.8156607180806033E+00
N    1.6478678930635471E+00    2.7877415588767311E+00    8.4192450367247531E+00
Ga    1.6421570263776557E+00    2.7855490378778991E+00    1.0434672175393546E+01
N    1.6647155110492151E+00    4.6733797177764815E+00    1.1028511032788989E+01
Ga    1.6866288797220808E+00    4.6879384970975035E+00    1.3014521966609280E+01
N    1.6478530695867935E+00    2.7959058520557440E+00    1.3585057647496495E+01
Ga    1.6408259243157854E+00    2.7663512765112457E+00    1.5588762417311273E+01
N    1.6887241905085058E+00    4.6658431529724504E+00    1.6185727441245522E+01
Ga    1.6814637831638390E+00    4.6632693377322036E+00    1.8243091584307038E+01
N    1.6335065173579704E+00    2.7913410258758824E+00    1.8660749666244833E+01
Ga    2.9147763370350181E-02    5.5131890329094801E+00   -4.0460556542010351E-01
N    5.5878377457800457E-02    7.4798697084104235E+00    4.4158487497182425E-01
Ga    7.2730370363594823E-02    7.4686143196025085E+00    2.5641193713586490E+00
N    3.3322862782184492E-02    5.6138943703978095E+00    3.1927058066226324E+00
Ga    2.7765220386323067E-02    5.5900501665395108E+00    5.2022350378087134E+00
N    4.5468616810809541E-02    7.4676811509106296E+00    5.7994568647111917E+00
Ga    4.8706026842528428E-02    7.4712723536641512E+00    7.8025220200824172E+00
N    2.8065612103389571E-02    5.5896966910195722E+00    8.4168708615156760E+00
Ga    2.6054217022022364E-02    5.5857186041532838E+00    1.0425396661576764E+01
N    4.5648015483952024E-02    7.4656874701223686E+00    1.1029541278552665E+01
Ga    3.8428301438183925E-02    7.4629366623261948E+00    1.3015956298213881E+01
N    4.3067631715997666E-02    5.5896428432802203E+00    1.3625134889708603E+01
Ga    4.6394931282381008E-02    5.5706482230117045E+00    1.5631770982920582E+01
N    4.7030610980907432E-02    7.4596719092928705E+00    1.6218406612163776E+01
Ga    7.3400817863605930E-02    7.4477338367536943E+00    1.8288292020644310E+01
N    2.2822113924689282E-02    5.5596965048571478E+00    1.8658379172803741E+01
Ga    6.5088432336875073E+00    2.4281616624572826E-02    9.9944431547303661E-02
N    6.5647447893266113E+00    1.8439600747054690E+00    6.3238855575832709E-01
Ga    6.5427237165510403E+00    1.8763072770511566E+00    2.6686272940681000E+00
N    6.5316060063552772E+00   -1.9524178182896118E-02    3.1936308244412706E+00
Ga    6.5213338463529480E+00   -2.3017246847425225E-02    5.2014755704206905E+00
N    6.5338785632714691E+00    1.8674946332058613E+00    5.7886744870205993E+00
Ga    6.5393445810062616E+00    1.8743046711105722E+00    7.8040804298297530E+00
N    6.5179422432742955E+00   -5.3608399047222676E-03    8.4172508784675895E+00
Ga    6.5213440212654143E+00   -9.9212363940202955E-03    1.0434444885465094E+01
N    6.5404294705102952E+00    1.8769760622198184E+00    1.1034795485018643E+01
Ga    6.5396864705957620E+00    1.8952662092774970E+00    1.3019218539474982E+01
N    6.5232759170551082E+00   -3.2367406907983574E-03    1.3564144996611851E+01
Ga    6.4832167011721822E+00   -3.1467173654159880E-02    1.5565828336769471E+01
N    6.5355931577683144E+00    1.8700901048609861E+00    1.6146819322797757E+01
Ga    6.5339175179373186E+00    1.8798779078211314E+00    1.8195226353519274E+01
N    6.5222210454337635E+00    5.0705419953604785E-03    1.8634692012535243E+01
Ga    4.9418215653765403E+00    2.7317007164483580E+00   -3.7247063624943555E-01
N    4.9259316963053923E+00    4.6970614666272272E+00    4.7747040300367177E-01
Ga    4.9476241031800967E+00    4.6784255433232875E+00    2.5909912187029693E+00
N    4.8978617260710688E+00    2.8093488113388965E+00    3.2013793806842310E+00
Ga    4.8957334415638289E+00    2.7913412025751856E+00    5.2056500077161072E+00
N    4.9198747596070831E+00    4.6688385127421430E+00    5.8101695425556352E+00
Ga    4.9262852709655842E+00    4.6677162394738678E+00    7.8179517159780447E+00
N    4.9033682376203291E+00    2.7834151563587555E+00    8.4185534238343074E+00
Ga    4.9020097305879258E+00    2.7806487507614714E+00    1.0427766443562984E+01
N    4.9264722017421807E+00    4.6629310372264783E+00    1.1028016696984523E+01
Ga    4.9233593808598002E+00    4.6680352673206720E+00    1.3010805019229547E+01
N    4.8941757411405460E+00    2.7813121428597047E+00    1.3608412488646831E+01
Ga    4.8679608216561698E+00    2.7722782906852546E+00    1.5602352709232891E+01
N    4.9319123540832592E+00    4.6533573059307294E+00    1.6165948987751790E+01
Ga    4.9359288132016195E+00    4.6693240673672758E+00    1.8217387049376956E+01
N    4.8788370073457994E+00    2.7930359395024844E+00    1.8614497551283623E+01
Ga    3.2505288656322286E+00    5.5937655549549854E+00    3.3704807293114469E-01
N    3.2728966867840956E+00    7.4762131274980339E+00    5.1574174765039194E-01
Ga    3.3278442197068396E+00    7.5066007554166516E+00    2.5395285856139327E+00
N    3.2976702966217397E+00    5.6125465388929383E+00    3.1630508521657577E+00
Ga    3.2897167505233815E+00    5.5914148832704340E+00    5.2063320877087476E+00
N    3.3074617944299134E+00    7.4645811541125298E+00    5.8157249555954014E+00
Ga    3.3093530428139082E+00    7.4706777070998536E+00    7.8143828003366353E+00
N    3.2910527540009715E+00    5.5870578360458598E+00    8.4186916898377184E+00
Ga    3.2926478918481776E+00    5.5865223177684218E+00    1.0429428803291579E+01
N    3.3174429673383208E+00    7.4681728297044785E+00    1.1031484096600343E+01
Ga    3.3305119202242617E+00    7.4708913484982409E+00    1.3018554699321516E+01
N    3.3059664019776958E+00    5.5924026049328770E+00    1.3610617627510068E+01
Ga    3.3122526539007606E+00    5.5997715796889533E+00    1.5621082870264848E+01
N    3.3147872243257130E+00    7.4679123122916176E+00    1.6173532487916102E+01
Ga    3.3285084828473765E+00    7.4876716379735377E+00    1.8236216422282794E+01
N    3.2866151529171708E+00    5.5997415903683381E+00    1.8609648713541844E+01
     &END COORD
     &KIND N
       BASIS_SET DZVP-MOLOPT-SR-GTH
       POTENTIAL GTH-PBE-q5
       &POTENTIAL
 2 3
  0.2837905100000000E+00 2 -0.1241522559000000E+02  0.1868095920000000E+01
 2
  0.2554050000000000E+00 1  0.1363026257000000E+02
  0.2454945300000000E+00 0
         # Potential name:  GTH-PBE-Q5  for symbol:  N
         # Potential read from the potential filename: GTH_POTENTIALS
       &END POTENTIAL
     &END KIND
     &KIND Ga
       BASIS_SET DZVP-MOLOPT-SR-GTH
       POTENTIAL GTH-PBE-q13
       &POTENTIAL
 2 1 10
  0.4900000000000000E+00 0
 3
  0.4167772300000000E+00 3  0.1047568975000000E+02 -0.4921768140000000E+01  0.8707055900000000E+00
  0.7770178090000000E+01 -0.2248152160000000E+01
  0.1784415450000000E+01
  0.5696265200000000E+00 2  0.1777985340000000E+01  0.1958597600000000E+00
 -0.2317443900000000E+00
  0.2381265000000000E+00 1 -0.1624868022000000E+02
         # Potential name:  GTH-PBE-Q13  for symbol:  GA
         # Potential read from the potential filename: GTH_POTENTIALS
       &END POTENTIAL
     &END KIND
     &TOPOLOGY
       COORD_FILE_NAME 334-native.xyz
       COORD_FILE_FORMAT  XYZ
       NUMBER_OF_ATOMS  144
       MULTIPLE_UNIT_CELL  1 1 1
     &END TOPOLOGY
   &END SUBSYS
 &END FORCE_EVAL
