 # Version information for this restart file 
 # current date 2019-05-16 03:34:20.922
 # current working dir /lustre03/project/6004141/rzk/GaN-carbene/00-Surface/00-Preoptimization/334-native/Trial4
 # Program compiled at                              Sun Apr  7 00:48:11 EDT 2019
 # Program compiled on                          beluga2.int.ets1.calculquebec.ca
 # Program compiled for                        Beluga-Linux-x86-64-intel-openmpi
 # Source code revision number                                         svn:18619
 &GLOBAL
   PRINT_LEVEL  MEDIUM
   PROJECT_NAME TEST
   RUN_TYPE  CELL_OPT
 &END GLOBAL
 &MOTION
   &CELL_OPT
     MAX_ITER  100
     STEP_START_VAL  37
     EXTERNAL_PRESSURE     1.0000000000000000E+00
     KEEP_ANGLES  T
     KEEP_SYMMETRY  T
     CONSTRAINT  Z
     PRESSURE_TOLERANCE     1.0000000000000000E+02
   &END CELL_OPT
 &END MOTION
 &FORCE_EVAL
   METHOD  QS
   STRESS_TENSOR  ANALYTICAL
   &DFT
     BASIS_SET_FILE_NAME BASIS_MOLOPT
     POTENTIAL_FILE_NAME GTH_POTENTIALS
     &SCF
       MAX_SCF  100
       EPS_SCF     5.0000000000000004E-06
       &OT  T
         PRECONDITIONER  FULL_ALL
       &END OT
       &OUTER_SCF  T
         OPTIMIZER  NONE
         EPS_SCF     5.0000000000000004E-06
         MAX_SCF  10
       &END OUTER_SCF
       &PRINT
         &RESTART  OFF
           BACKUP_COPIES  1
           &EACH
             JUST_ENERGY  0
             QS_SCF  0
             MD  20
           &END EACH
         &END RESTART
       &END PRINT
     &END SCF
     &ALMO_SCF
       EPS_FILTER     9.9999999999999994E-12
       ALMO_SCF_GUESS  ATOMIC
       MO_OVERLAP_INV_ALG  DENSE_CHOLESKY
       ALMO_EXTRAPOLATION_ORDER  4
       XALMO_EXTRAPOLATION_ORDER  4
       ALMO_ALGORITHM  SKIP
       XALMO_TRIAL_WF  SIMPLE
       DELOCALIZE_METHOD  XALMO_SCF
       XALMO_R_CUTOFF_FACTOR     1.8000000000000000E+00
       &ALMO_OPTIMIZER_DIIS
         MAX_ITER  100
         EPS_ERROR     1.0000000000000001E-05
         N_DIIS  5
       &END ALMO_OPTIMIZER_DIIS
       &ALMO_OPTIMIZER_PCG
         MAX_ITER  50
         EPS_ERROR     1.0000000000000001E-05
         LIN_SEARCH_EPS_ERROR     5.0000000000000003E-02
         LIN_SEARCH_STEP_SIZE_GUESS     5.0000000000000001E-03
         CONJUGATOR  DAI_YUAN
         MAX_ITER_OUTER_LOOP  10
       &END ALMO_OPTIMIZER_PCG
       &XALMO_OPTIMIZER_PCG
         MAX_ITER  1000
         EPS_ERROR     1.0000000000000001E-05
         LIN_SEARCH_EPS_ERROR     1.0000000000000001E-01
         LIN_SEARCH_STEP_SIZE_GUESS     1.0000000000000000E-02
         CONJUGATOR  DAI_YUAN
         PRECOND_FILTER_THRESHOLD     1.0000000000000000E-03
         MAX_ITER_OUTER_LOOP  0
       &END XALMO_OPTIMIZER_PCG
       &MATRIX_ITERATE
         EPS_TARGET_FACTOR     1.0000000000000000E+01
       &END MATRIX_ITERATE
     &END ALMO_SCF
     &QS
       EPS_DEFAULT     1.0000000000000000E-14
       ALMO_SCF  F
       METHOD  GPW
     &END QS
     &MGRID
       NGRIDS  5
       CUTOFF     1.2000000000000000E+03
     &END MGRID
     &XC
       DENSITY_CUTOFF     1.0000000000000000E-10
       GRADIENT_CUTOFF     1.0000000000000000E-10
       TAU_CUTOFF     1.0000000000000000E-10
       &XC_FUNCTIONAL  NO_SHORTCUT
         &PBE  T
         &END PBE
       &END XC_FUNCTIONAL
       &VDW_POTENTIAL
         POTENTIAL_TYPE  PAIR_POTENTIAL
         &PAIR_POTENTIAL
           R_CUTOFF     1.0000000000000002E+01
           TYPE  DFTD3
           PARAMETER_FILE_NAME dftd3.dat
           REFERENCE_FUNCTIONAL PBE
           EPS_CN     9.9999999999999995E-07
           CALCULATE_C9_TERM  T
           REFERENCE_C9_TERM  T
           LONG_RANGE_CORRECTION  F
           VERBOSE_OUTPUT  F
         &END PAIR_POTENTIAL
       &END VDW_POTENTIAL
     &END XC
   &END DFT
   &SUBSYS
     &CELL
       A     9.7439427899862654E+00    0.0000000000000000E+00    0.0000000000000000E+00
       B    -4.8522068923830393E+00    8.4042688664433136E+00    0.0000000000000000E+00
       C     0.0000000000000000E+00    0.0000000000000000E+00    3.0744000000000000E+01
       MULTIPLE_UNIT_CELL  1 1 1
       &CELL_REF
         A     9.5580000000000016E+00    0.0000000000000000E+00    0.0000000000000000E+00
         B    -4.7790000000000008E+00    8.2774708093716640E+00    0.0000000000000000E+00
         C     0.0000000000000000E+00    0.0000000000000000E+00    3.0744000000000000E+01
         MULTIPLE_UNIT_CELL  1 1 1
       &END CELL_REF
     &END CELL
     &COORD
Ga    9.1953305260457155E-03   -8.2701680094426477E-03   -6.1495737463811218E-01
N    4.0005020651348649E-03    1.8643983115257059E+00    5.5373380943613204E-01
Ga    8.4993196594033080E-03    1.8398537623393012E+00    2.5905404936587080E+00
N   -7.1063272320618731E-04   -6.3121653244592913E-04    3.2283766749513583E+00
Ga   -6.7219142593442189E-04    4.7562378862586688E-03    5.2194461884214496E+00
N    5.1095491211099560E-03    1.8741277960339473E+00    5.8179508226975436E+00
Ga    4.6794640648206943E-03    1.8695034764021405E+00    7.8157869528904174E+00
N    7.2284787469519614E-04   -2.9229126827318053E-03    8.4125092787963620E+00
Ga    1.5239653135914848E-03    2.1383912025668803E-03    1.0410973976758621E+01
N    7.4770625203196047E-03    1.8742209103048684E+00    1.1010914319207609E+01
Ga    3.6165968681984738E-03    1.8777563088587848E+00    1.3007572943933296E+01
N   -7.2713993552841723E-04    8.7239691029062753E-03    1.3621437477916551E+01
Ga   -1.3039846586431290E-02   -6.8009679306861911E-03    1.5631210010429802E+01
N   -7.9417319101894833E-03    1.8847675382332927E+00    1.6205906964201443E+01
Ga    1.0921673196576165E-02    1.8976531597804560E+00    1.8283365477655074E+01
N    6.9860818936794593E-03    2.2934543929819715E-03    1.8644971388733065E+01
Ga   -1.6175277081892152E+00    2.7980900788281966E+00    2.8866402607555719E-01
N   -1.6248234739671668E+00    4.6666440135363221E+00    5.7490484444236167E-01
Ga   -1.5902698751050457E+00    4.6875141760213523E+00    2.6037780154804167E+00
N   -1.6145432820871235E+00    2.8014454794627341E+00    3.1911365924147792E+00
Ga   -1.6138654905243082E+00    2.8034087430137600E+00    5.2009923816397103E+00
N   -1.6128140564633593E+00    4.6710981700227174E+00    5.8141881203968078E+00
Ga   -1.6116978012869319E+00    4.6703392927866885E+00    7.8127578194839913E+00
N   -1.6191522281473298E+00    2.8005993779766634E+00    8.4126528751765619E+00
Ga   -1.6177418300416417E+00    2.8039387794233308E+00    1.0408811084126611E+01
N   -1.6073108618710163E+00    4.6763544741844143E+00    1.1009751384875818E+01
Ga   -1.6070147542859567E+00    4.6770624609411273E+00    1.3005230550410548E+01
N   -1.6200079582322102E+00    2.8084859006145941E+00    1.3608310956039832E+01
Ga   -1.6381538559408104E+00    2.7944539339083065E+00    1.5613455057298435E+01
N   -1.6198307672827854E+00    4.6791744866853957E+00    1.6215413794674649E+01
Ga   -1.6100656786769196E+00    4.6795420262629417E+00    1.8294896487960134E+01
N   -1.6263911612664892E+00    2.7872603423030426E+00    1.8665956502629211E+01
Ga   -3.2422607959248606E+00    5.6001134716078109E+00    2.8903833714625904E-01
N   -3.2312088270090142E+00    7.4687867722343126E+00    5.7237868047925478E-01
Ga   -3.2519528141646248E+00    7.4881627479965776E+00    2.6007594294529297E+00
N   -3.2385670518596710E+00    5.6048474218773094E+00    3.1972929370633305E+00
Ga   -3.2349940451978414E+00    5.6042472177310936E+00    5.2086797735043513E+00
N   -3.2243889292068544E+00    7.4770024008570424E+00    5.8031692366809073E+00
Ga   -3.2286765632488978E+00    7.4722729928746325E+00    7.8013000302771633E+00
N   -3.2356310618773110E+00    5.6038823005736091E+00    8.4110919514214579E+00
Ga   -3.2334247710234942E+00    5.6062206553123852E+00    1.0409496299549350E+01
N   -3.2292767399655165E+00    7.4749576235519655E+00    1.1017728222379823E+01
Ga   -3.2301086309403004E+00    7.4769537610300834E+00    1.3014115069304387E+01
N   -3.2314802901953295E+00    5.6018218828979771E+00    1.3608011642509426E+01
Ga   -3.2438953363423404E+00    5.5845529583899216E+00    1.5606874161061224E+01
N   -3.2452342463090078E+00    7.4578899504176048E+00    1.6204972179761647E+01
Ga   -3.2239341971576740E+00    7.4806343065818446E+00    1.8280720705913932E+01
N   -3.2397638409850193E+00    5.5918077814877103E+00    1.8653696589985891E+01
Ga    3.2450659837489488E+00   -9.1672006624133572E-03    2.7256204779900411E-01
N    3.2478064533182436E+00    1.8663690193226565E+00    5.5595196417319070E-01
Ga    3.2779003942864051E+00    1.8848859679681704E+00    2.5960555220264601E+00
N    3.2530716162771851E+00    1.4180691019651638E-03    3.1859658092066563E+00
Ga    3.2521741383674749E+00    3.6008879144095395E-03    5.1966007484386747E+00
N    3.2540559289947217E+00    1.8685215073019634E+00    5.8122512987030950E+00
Ga    3.2525678429121112E+00    1.8660961525521653E+00    7.8101229327192039E+00
N    3.2460516821006107E+00   -3.4967075602247988E-03    8.4119468070065277E+00
Ga    3.2474713519947445E+00   -1.4687370262051959E-03    1.0408573697610787E+01
N    3.2534641562999216E+00    1.8687768521349446E+00    1.1011455715072177E+01
Ga    3.2483729047261543E+00    1.8621168210908627E+00    1.3006914300422345E+01
N    3.2486157207952036E+00   -5.3176175620339048E-03    1.3623691315802603E+01
Ga    3.2475740905864012E+00   -1.7056354618385783E-02    1.5633943221835242E+01
N    3.2240450376631071E+00    1.8548158797165086E+00    1.6209201023415478E+01
Ga    3.2531789801571431E+00    1.8792905441505239E+00    1.8281386684684094E+01
N    3.2520643133492024E+00   -1.5669330335418768E-02    1.8652736193863380E+01
Ga    1.6227764374206957E+00    2.7981042549744406E+00    2.8027083632058147E-01
N    1.6335118516515936E+00    4.6647095571609896E+00    5.8043010829382558E-01
Ga    1.6117217457693005E+00    4.6838868937938107E+00    2.6070346207273127E+00
N    1.6319530735239209E+00    2.7992476695730524E+00    3.1939538791620725E+00
Ga    1.6310950581312522E+00    2.7992636193087588E+00    5.2073031776459100E+00
N    1.6414665276624389E+00    4.6731079036069918E+00    5.8022857414039199E+00
Ga    1.6396084593414042E+00    4.6710987610264141E+00    7.8006089651682018E+00
N    1.6312983242431862E+00    2.8025949551303304E+00    8.4097425342832750E+00
Ga    1.6330654710770673E+00    2.8036591470716941E+00    1.0407320972151753E+01
N    1.6390393604469600E+00    4.6718813759050999E+00    1.1015786509993324E+01
Ga    1.6380527190311585E+00    4.6711263855854241E+00    1.3011199163639256E+01
N    1.6309416871293467E+00    2.8002020105644885E+00    1.3610464453411183E+01
Ga    1.6253410052282056E+00    2.7926936699081653E+00    1.5611250574723423E+01
N    1.6429311713639092E+00    4.6689641798678929E+00    1.6193608141628214E+01
Ga    1.6508558273240133E+00    4.6802535986769147E+00    1.8260365166848654E+01
N    1.6321339713724876E+00    2.7956562595700625E+00    1.8686330353269330E+01
Ga    1.3286230967003350E-02    5.5847803271871665E+00   -5.8325016555896059E-01
N    1.7585788694242890E-02    7.4668801947336156E+00    5.5285675689482927E-01
Ga    2.1792697410450753E-02    7.4429796347215476E+00    2.5910054300850671E+00
N    1.2460349801101120E-02    5.6051714588134498E+00    3.2340825192265750E+00
Ga    1.2292227034667955E-02    5.6070800292126473E+00    5.2227453399628221E+00
N    1.8834267116777076E-02    7.4789890244345569E+00    5.8136195376029578E+00
Ga    1.8769948779004068E-02    7.4728977615172187E+00    7.8108196310605003E+00
N    1.6688081042375222E-02    5.6007730974524836E+00    8.4089783680235133E+00
Ga    1.9178979373038408E-02    5.6037716268133178E+00    1.0406435686094360E+01
N    2.0459526244954847E-02    7.4729509733881274E+00    1.1011997895059416E+01
Ga    1.7171941939667930E-02    7.4701788421861721E+00    1.3007993680745006E+01
N    1.9147493043262482E-02    5.6041724249405860E+00    1.3624535432084031E+01
Ga    1.4382123400744452E-02    5.5927011271726590E+00    1.5634094223406059E+01
N    2.1274053879714056E-02    7.4739228352405034E+00    1.6218683879426067E+01
Ga    2.9344321409382038E-02    7.4757570500123043E+00    1.8293973911908473E+01
N    1.5425324872948676E-02    5.5770095315798933E+00    1.8671914108979038E+01
Ga    6.4915372512473475E+00   -6.4174578054830671E-03    2.7105109510353020E-01
N    6.5008698479056548E+00    1.8627967707680386E+00    5.7710614242413860E-01
Ga    6.4778121551412635E+00    1.8816058392937409E+00    2.6087352158797859E+00
N    6.4966961720720757E+00   -2.5809310677015218E-03    3.1915863321849578E+00
Ga    6.4966437445134284E+00    8.4421471811196099E-04    5.2048196736349812E+00
N    6.5063133924953709E+00    1.8713935292026276E+00    5.8094096869834058E+00
Ga    6.5028618499446376E+00    1.8676603711076887E+00    7.8086153096996815E+00
N    6.4968800678480401E+00   -1.5121100195877458E-03    8.4119808298957359E+00
Ga    6.4979308897619692E+00    1.2934672665344709E-03    1.0409470689402236E+01
N    6.5025794286267216E+00    1.8715602798276154E+00    1.1012469280477324E+01
Ga    6.5009550974636410E+00    1.8720267518893001E+00    1.3008213298084838E+01
N    6.4956368368120447E+00   -2.2695786752255291E-03    1.3600669825030403E+01
Ga    6.4812772757726469E+00   -1.5434523920436653E-02    1.5599069557712442E+01
N    6.4928125131678476E+00    1.8573954528400765E+00    1.6170477009161893E+01
Ga    6.5086141860160236E+00    1.8796102964159580E+00    1.8220958347389828E+01
N    6.5031797923575247E+00   -1.9674476802120562E-03    1.8640002974619581E+01
Ga    4.8844245509926552E+00    2.7996123227601242E+00   -5.4660382391086204E-01
N    4.8791763097663940E+00    4.6655300329399321E+00    5.6310894478106854E-01
Ga    4.8829882790593393E+00    4.6436729821587752E+00    2.6030206945938956E+00
N    4.8773208438063307E+00    2.8025732908330805E+00    3.2336216684083778E+00
Ga    4.8789704483513203E+00    2.8038750221004438E+00    5.2265137449677068E+00
N    4.8823624834045791E+00    4.6765209183143384E+00    5.8128299623320201E+00
Ga    4.8821157136600570E+00    4.6722483630184168E+00    7.8109497928879383E+00
N    4.8783239494430601E+00    2.7995258255315512E+00    8.4102815021978010E+00
Ga    4.8790142528261695E+00    2.8001747760153481E+00    1.0408338509389074E+01
N    4.8884113503711237E+00    4.6702349170761872E+00    1.1013019291131751E+01
Ga    4.8877196144598614E+00    4.6689400170272908E+00    1.3008776669606348E+01
N    4.8717920934086445E+00    2.7909482308572184E+00    1.3608131721127238E+01
Ga    4.8590055474400291E+00    2.7758496285140248E+00    1.5608910464409917E+01
N    4.8806644350955795E+00    4.6551549461634654E+00    1.6161277330175103E+01
Ga    4.8908158776883406E+00    4.6914312498025490E+00    1.8210828708488755E+01
N    4.8808757915198262E+00    2.8011678684918757E+00    1.8612460371631098E+01
Ga    3.2539629768756000E+00    5.5959233974542633E+00    2.7263621626792295E-01
N    3.2599313463237247E+00    7.4682206750692757E+00    5.4465094837887962E-01
Ga    3.2913403290258052E+00    7.4896045615578721E+00    2.5863332565667942E+00
N    3.2627552191431870E+00    5.6071438052116216E+00    3.1877481677391879E+00
Ga    3.2638926452556341E+00    5.6067531049696919E+00    5.1957378580298643E+00
N    3.2663208499671046E+00    7.4724651995535591E+00    5.8097659237470873E+00
Ga    3.2666804562768319E+00    7.4695493151291013E+00    7.8080015808902887E+00
N    3.2598339502060591E+00    5.6013597923994745E+00    8.4144641676227785E+00
Ga    3.2637689873969191E+00    5.6039033117509680E+00    1.0412621435726418E+01
N    3.2691893671231291E+00    7.4755109799113812E+00    1.1014115603677896E+01
Ga    3.2698741815777708E+00    7.4772431693265347E+00    1.3007819245949134E+01
N    3.2664496350735099E+00    5.6033226883218008E+00    1.3599316026059684E+01
Ga    3.2571892018983135E+00    5.5867317443934423E+00    1.5597287999848323E+01
N    3.2498288240530302E+00    7.4595839261120123E+00    1.6183254615785419E+01
Ga    3.2788837567020326E+00    7.5033300673727688E+00    1.8247063234859557E+01
N    3.2733725399473683E+00    5.6097715746970414E+00    1.8620722684243507E+01
     &END COORD
     &KIND N
       BASIS_SET DZVP-MOLOPT-SR-GTH
       POTENTIAL GTH-PBE-q5
       &POTENTIAL
 2 3
  0.2837905100000000E+00 2 -0.1241522559000000E+02  0.1868095920000000E+01
 2
  0.2554050000000000E+00 1  0.1363026257000000E+02
  0.2454945300000000E+00 0
         # Potential name:  GTH-PBE-Q5  for symbol:  N
         # Potential read from the potential filename: GTH_POTENTIALS
       &END POTENTIAL
     &END KIND
     &KIND Ga
       BASIS_SET DZVP-MOLOPT-SR-GTH
       POTENTIAL GTH-PBE-q13
       &POTENTIAL
 2 1 10
  0.4900000000000000E+00 0
 3
  0.4167772300000000E+00 3  0.1047568975000000E+02 -0.4921768140000000E+01  0.8707055900000000E+00
  0.7770178090000000E+01 -0.2248152160000000E+01
  0.1784415450000000E+01
  0.5696265200000000E+00 2  0.1777985340000000E+01  0.1958597600000000E+00
 -0.2317443900000000E+00
  0.2381265000000000E+00 1 -0.1624868022000000E+02
         # Potential name:  GTH-PBE-Q13  for symbol:  GA
         # Potential read from the potential filename: GTH_POTENTIALS
       &END POTENTIAL
     &END KIND
     &TOPOLOGY
       COORD_FILE_NAME 334-native.xyz
       COORD_FILE_FORMAT  XYZ
       NUMBER_OF_ATOMS  144
       MULTIPLE_UNIT_CELL  1 1 1
     &END TOPOLOGY
   &END SUBSYS
 &END FORCE_EVAL
