 # Version information for this restart file 
 # current date 2019-05-16 15:35:27.798
 # current working dir /lustre03/project/6004141/rzk/GaN-carbene/00-Surface/00-Preoptimization/334-native/Trial4
 # Program compiled at                              Sun Apr  7 00:48:11 EDT 2019
 # Program compiled on                          beluga2.int.ets1.calculquebec.ca
 # Program compiled for                        Beluga-Linux-x86-64-intel-openmpi
 # Source code revision number                                         svn:18619
 &GLOBAL
   PRINT_LEVEL  MEDIUM
   PROJECT_NAME TEST
   RUN_TYPE  CELL_OPT
 &END GLOBAL
 &MOTION
   &CELL_OPT
     MAX_ITER  150
     STEP_START_VAL  137
     EXTERNAL_PRESSURE     1.0000000000000000E+00
     KEEP_ANGLES  T
     KEEP_SYMMETRY  T
     CONSTRAINT  Z
     PRESSURE_TOLERANCE     3.0000000000000000E+02
   &END CELL_OPT
 &END MOTION
 &FORCE_EVAL
   METHOD  QS
   STRESS_TENSOR  ANALYTICAL
   &DFT
     BASIS_SET_FILE_NAME BASIS_MOLOPT
     POTENTIAL_FILE_NAME GTH_POTENTIALS
     &SCF
       MAX_SCF  100
       EPS_SCF     5.0000000000000004E-06
       &OT  T
         PRECONDITIONER  FULL_ALL
       &END OT
       &OUTER_SCF  T
         OPTIMIZER  NONE
         EPS_SCF     5.0000000000000004E-06
         MAX_SCF  10
       &END OUTER_SCF
       &PRINT
         &RESTART  OFF
           BACKUP_COPIES  1
           &EACH
             JUST_ENERGY  0
             QS_SCF  0
             MD  20
           &END EACH
         &END RESTART
       &END PRINT
     &END SCF
     &ALMO_SCF
       EPS_FILTER     9.9999999999999994E-12
       ALMO_SCF_GUESS  ATOMIC
       MO_OVERLAP_INV_ALG  DENSE_CHOLESKY
       ALMO_EXTRAPOLATION_ORDER  4
       XALMO_EXTRAPOLATION_ORDER  4
       ALMO_ALGORITHM  SKIP
       XALMO_TRIAL_WF  SIMPLE
       DELOCALIZE_METHOD  XALMO_SCF
       XALMO_R_CUTOFF_FACTOR     1.8000000000000000E+00
       &ALMO_OPTIMIZER_DIIS
         MAX_ITER  100
         EPS_ERROR     1.0000000000000001E-05
         N_DIIS  5
       &END ALMO_OPTIMIZER_DIIS
       &ALMO_OPTIMIZER_PCG
         MAX_ITER  50
         EPS_ERROR     1.0000000000000001E-05
         LIN_SEARCH_EPS_ERROR     5.0000000000000003E-02
         LIN_SEARCH_STEP_SIZE_GUESS     5.0000000000000001E-03
         CONJUGATOR  DAI_YUAN
         MAX_ITER_OUTER_LOOP  10
       &END ALMO_OPTIMIZER_PCG
       &XALMO_OPTIMIZER_PCG
         MAX_ITER  1000
         EPS_ERROR     1.0000000000000001E-05
         LIN_SEARCH_EPS_ERROR     1.0000000000000001E-01
         LIN_SEARCH_STEP_SIZE_GUESS     1.0000000000000000E-02
         CONJUGATOR  DAI_YUAN
         PRECOND_FILTER_THRESHOLD     1.0000000000000000E-03
         MAX_ITER_OUTER_LOOP  0
       &END XALMO_OPTIMIZER_PCG
       &MATRIX_ITERATE
         EPS_TARGET_FACTOR     1.0000000000000000E+01
       &END MATRIX_ITERATE
     &END ALMO_SCF
     &QS
       EPS_DEFAULT     1.0000000000000000E-14
       ALMO_SCF  F
       METHOD  GPW
     &END QS
     &MGRID
       NGRIDS  5
       CUTOFF     1.2000000000000000E+03
     &END MGRID
     &XC
       DENSITY_CUTOFF     1.0000000000000000E-10
       GRADIENT_CUTOFF     1.0000000000000000E-10
       TAU_CUTOFF     1.0000000000000000E-10
       &XC_FUNCTIONAL  NO_SHORTCUT
         &PBE  T
         &END PBE
       &END XC_FUNCTIONAL
       &VDW_POTENTIAL
         POTENTIAL_TYPE  PAIR_POTENTIAL
         &PAIR_POTENTIAL
           R_CUTOFF     1.0000000000000004E+01
           TYPE  DFTD3
           PARAMETER_FILE_NAME dftd3.dat
           REFERENCE_FUNCTIONAL PBE
           EPS_CN     9.9999999999999995E-07
           CALCULATE_C9_TERM  T
           REFERENCE_C9_TERM  T
           LONG_RANGE_CORRECTION  F
           VERBOSE_OUTPUT  F
         &END PAIR_POTENTIAL
       &END VDW_POTENTIAL
     &END XC
   &END DFT
   &SUBSYS
     &CELL
       A     9.7367653356401487E+00    0.0000000000000000E+00    0.0000000000000000E+00
       B    -4.8591341382960209E+00    8.4162672083210595E+00    0.0000000000000000E+00
       C     0.0000000000000000E+00    0.0000000000000000E+00    3.0744000000000000E+01
       MULTIPLE_UNIT_CELL  1 1 1
       &CELL_REF
         A     9.5580000000000034E+00    0.0000000000000000E+00    0.0000000000000000E+00
         B    -4.7790000000000017E+00    8.2774708093716640E+00    0.0000000000000000E+00
         C     0.0000000000000000E+00    0.0000000000000000E+00    3.0744000000000000E+01
         MULTIPLE_UNIT_CELL  1 1 1
       &END CELL_REF
     &END CELL
     &COORD
Ga    3.5991573997759638E-04   -2.4872605649319960E-03   -5.8789416271577799E-01
N    3.3468491436251216E-03    1.8715151930339606E+00    5.6633200203797585E-01
Ga    2.8175005448685597E-03    1.8391489829096599E+00    2.5962599135154893E+00
N   -2.6016122556456204E-05   -3.6977785760146042E-03    3.2298684147136458E+00
Ga    5.5444231179092103E-04   -3.2073764708853564E-03    5.2207266636086951E+00
N    3.1998871019838387E-03    1.8716093328542907E+00    5.8074796900893837E+00
Ga    2.7126652823248206E-03    1.8701339213892239E+00    7.8059983997113207E+00
N   -3.1052106416455888E-05   -3.0412827718748403E-03    8.4089666902581151E+00
Ga   -1.8633785500019867E-04   -9.6354627410512067E-04    1.0406370689482655E+01
N    2.6600529427001840E-03    1.8713314639504732E+00    1.1010596756320746E+01
Ga    2.1615603807645083E-03    1.8777714343764143E+00    1.3003938496282133E+01
N   -1.0525863708726500E-03    8.0214865553759063E-03    1.3608321179932650E+01
Ga   -3.5858355649420457E-03    1.7478166356466769E-02    1.5611337746163693E+01
N    1.9837845521340448E-03    1.8835867226227316E+00    1.6265172091613181E+01
Ga    7.3500400764095232E-03    1.8958292176755103E+00    1.8386242369230320E+01
N    3.2014098974961565E-03    9.2639010938767364E-04    1.8659709992187210E+01
Ga   -1.6180905377900583E+00    2.8027830304409380E+00    2.8066028902806084E-01
N   -1.6216558545519364E+00    4.6718676660443066E+00    5.6610025200563818E-01
Ga   -1.5929040043761877E+00    4.6876376397902053E+00    2.5957418363302431E+00
N   -1.6194475338153786E+00    2.8020427932668537E+00    3.1879476098878152E+00
Ga   -1.6189365088819661E+00    2.8027254896989233E+00    5.1987110546039768E+00
N   -1.6192582627873253E+00    4.6728396406096460E+00    5.8075145164651234E+00
Ga   -1.6184846913249971E+00    4.6731195174660254E+00    7.8061575174723794E+00
N   -1.6199785391463648E+00    2.8024036161193817E+00    8.4106751148787300E+00
Ga   -1.6195825340173087E+00    2.8038186397335183E+00    1.0405984677593484E+01
N   -1.6129387543396012E+00    4.6743952434451970E+00    1.1013700478841468E+01
Ga   -1.6084169728041737E+00    4.6739757588167832E+00    1.3008991781811359E+01
N   -1.6176275743284740E+00    2.8053472999962712E+00    1.3623149445977775E+01
Ga   -1.6192387899153111E+00    2.8047357419487979E+00    1.5631564943454920E+01
N   -1.6218597189733022E+00    4.6823613543381200E+00    1.6214071475483294E+01
Ga   -1.6163078313958021E+00    4.6709298527276815E+00    1.8295915706022743E+01
N   -1.6229585830511195E+00    2.8110460424998518E+00    1.8747259541761217E+01
Ga   -3.2389914752191893E+00    5.6090071719321513E+00    2.8018511677836649E-01
N   -3.2331079582800495E+00    7.4783363861881211E+00    5.6612848569219509E-01
Ga   -3.2616481321596318E+00    7.4931684190603356E+00    2.5959945029736011E+00
N   -3.2395875431407020E+00    5.6076927343119669E+00    3.1885078816130701E+00
Ga   -3.2392689909786934E+00    5.6084232138925012E+00    5.1993344014255989E+00
N   -3.2334901361938111E+00    7.4778957001939776E+00    5.8088109579647416E+00
Ga   -3.2347527461390420E+00    7.4777343264101326E+00    7.8079237141797178E+00
N   -3.2388926528147288E+00    5.6073583876006508E+00    8.4151909652568317E+00
Ga   -3.2384359262890516E+00    5.6087026514272420E+00    1.0412584361447943E+01
N   -3.2370066175392798E+00    7.4826567447769872E+00    1.1012974547517198E+01
Ga   -3.2366859228597389E+00    7.4867755459864771E+00    1.3008515070766190E+01
N   -3.2361736952028446E+00    5.6074664052421657E+00    1.3589807875740776E+01
Ga   -3.2362415138392620E+00    5.6098575197551250E+00    1.5582405176706471E+01
N   -3.2434936340076166E+00    7.4819336239453280E+00    1.6155651565531876E+01
Ga   -3.2515819997085726E+00    7.4897625139402280E+00    1.8205733006375766E+01
N   -3.2511981323986756E+00    5.6128505976718097E+00    1.8596615882318432E+01
Ga    3.2460463730258149E+00   -3.9551379080346016E-03    2.8078220473578308E-01
N    3.2453824997487599E+00    1.8672328451817199E+00    5.6522477996510323E-01
Ga    3.2720727292523764E+00    1.8818155127762390E+00    2.5980313007672802E+00
N    3.2451829410564246E+00   -3.5730563912308843E-03    3.1879813317028596E+00
Ga    3.2456293077313596E+00   -3.0583824437079867E-03    5.1986635528550798E+00
N    3.2462022422553574E+00    1.8670218032532035E+00    5.8072407949528237E+00
Ga    3.2469553381987626E+00    1.8667358331713484E+00    7.8060949818141427E+00
N    3.2461860122809485E+00   -3.4498177765062005E-03    8.4125434616047681E+00
Ga    3.2461322235175554E+00   -1.8169944369699127E-03    1.0408957101916130E+01
N    3.2464218815540491E+00    1.8697791109954907E+00    1.1014616292723453E+01
Ga    3.2416018662868731E+00    1.8690005302576329E+00    1.3011484846158696E+01
N    3.2464015080631770E+00   -1.0658811864241956E-03    1.3623593433789017E+01
Ga    3.2548144117607314E+00    4.2716715219348043E-05    1.5627316307100685E+01
N    3.2301383454981396E+00    1.8811678019139035E+00    1.6202749898967344E+01
Ga    3.2335412994103949E+00    1.8854881145339470E+00    1.8270085005006116E+01
N    3.2379050117154131E+00   -7.8524385038560799E-03    1.8575037277874852E+01
Ga    1.6247859778863005E+00    2.8032783560283914E+00    2.8088806929718685E-01
N    1.6334517916911493E+00    4.6724369064511873E+00    5.6628587704371647E-01
Ga    1.6044746382648520E+00    4.6876778674071522E+00    2.5958475978547750E+00
N    1.6257084935867272E+00    2.8019790898609349E+00    3.1881457591859363E+00
Ga    1.6261888504481559E+00    2.8026787909838018E+00    5.1989831211244057E+00
N    1.6319844818817033E+00    4.6728855082093874E+00    5.8076090548650621E+00
Ga    1.6304447400537498E+00    4.6731658433652496E+00    7.8063763207263683E+00
N    1.6261348575851906E+00    2.8023147715557895E+00    8.4105207015853569E+00
Ga    1.6257624508652073E+00    2.8038068428256042E+00    1.0405878885911235E+01
N    1.6244284743711623E+00    4.6746078556826394E+00    1.1012947195779335E+01
Ga    1.6177322825392262E+00    4.6746664898048262E+00    1.3008104366190182E+01
N    1.6215434934049771E+00    2.8060784254038440E+00    1.3620733814608338E+01
Ga    1.6205504647624314E+00    2.8059860433790726E+00    1.5628301116462323E+01
N    1.6325479790254933E+00    4.6822517057582225E+00    1.6214538761392710E+01
Ga    1.6424389156243442E+00    4.6697096943852427E+00    1.8296372290167891E+01
N    1.6347373091259356E+00    2.8089940788328089E+00    1.8747091228988985E+01
Ga    6.6643251418367754E-03    5.6089152871621568E+00   -5.8585301005298529E-01
N    9.4831224104685273E-03    7.4838634282621843E+00    5.6657398539354131E-01
Ga    8.9631344121450084E-03    7.4507427998060214E+00    2.5960366187951123E+00
N    6.0949253615627738E-03    5.6071840947477298E+00    3.2287256439042262E+00
Ga    6.6752256236536659E-03    5.6081343234127425E+00    5.2193466679855351E+00
N    9.4175118034976156E-03    7.4827910484600739E+00    5.8067585947202698E+00
Ga    9.0270845389960521E-03    7.4810220456279364E+00    7.8052406163341024E+00
N    6.1927098184097751E-03    5.6082927915634642E+00    8.4073488887774737E+00
Ga    6.0414212754147951E-03    5.6108309801826115E+00    1.0403930116102762E+01
N    8.9993100775532832E-03    7.4801810666507169E+00    1.1016629754037162E+01
Ga    8.0886231962900585E-03    7.4813578312966973E+00    1.3014891783196266E+01
N    4.6610189812543550E-03    5.6150770996914732E+00    1.3636789476565385E+01
Ga    4.7869770035745196E-03    5.6254425526441496E+00    1.5648096531617522E+01
N    7.1336916422239912E-03    7.4946030988937737E+00    1.6229311941188666E+01
Ga    1.5809754425135124E-02    7.4707889082896699E+00    1.8297689875842384E+01
N    1.1365200211427274E-02    5.5876278269663313E+00    1.8657260539553974E+01
Ga    6.4912584751977995E+00   -3.5190116266545640E-03    2.8065059993069336E-01
N    6.4971490735417410E+00    1.8677347726359799E+00    5.6519830351356659E-01
Ga    6.4701023786772023E+00    1.8819579263925608E+00    2.5980615959567928E+00
N    6.4915161662431071E+00   -3.5268841744831862E-03    3.1880738297833369E+00
Ga    6.4921643464755441E+00   -3.0653509259820758E-03    5.1987124084864149E+00
N    6.4971626960287487E+00    1.8671127034045638E+00    5.8070925717627162E+00
Ga    6.4955960788141596E+00    1.8668018350376481E+00    7.8058055936530071E+00
N    6.4907640510744642E+00   -3.3809232961841598E-03    8.4123313042420111E+00
Ga    6.4908664250872992E+00   -1.8399824391427089E-03    1.0408799655185385E+01
N    6.4963202180320954E+00    1.8694329783423880E+00    1.1015090141426164E+01
Ga    6.4994583158433246E+00    1.8682104458882836E+00    1.3011833338331973E+01
N    6.4880804611289049E+00   -1.2950263433794313E-03    1.3625234843222891E+01
Ga    6.4792177118032424E+00   -1.2964552279599848E-03    1.5629767922072112E+01
N    6.5099758565426198E+00    1.8776879743348216E+00    1.6208351433125838E+01
Ga    6.5195338337089810E+00    1.8847748583735597E+00    1.8278542442428389E+01
N    6.5057874147947308E+00   -7.5254092523532462E-03    1.8584358906049545E+01
Ga    4.8718886317428369E+00    2.8030690908766052E+00   -5.5925226126006622E-01
N    4.8748054221211827E+00    4.6765903427328146E+00    5.6525788155132151E-01
Ga    4.8743125595427506E+00    4.6459735462565117E+00    2.5979411076770966E+00
N    4.8713950448154035E+00    2.8020896228454690E+00    3.2291756908999236E+00
Ga    4.8719328375245219E+00    2.8029456082946846E+00    5.2206956172160144E+00
N    4.8747409909658783E+00    4.6772288777185533E+00    5.8096002743609425E+00
Ga    4.8743088967845809E+00    4.6750478191688289E+00    7.8094479481135055E+00
N    4.8716674540043101E+00    2.8006879438324845E+00    8.4096242499688092E+00
Ga    4.8718824159628715E+00    2.8004471101063331E+00    1.0407652698240780E+01
N    4.8743855866083550E+00    4.6712069879499047E+00    1.1011614387069065E+01
Ga    4.8736228344916332E+00    4.6669256978286109E+00    1.3006633934971070E+01
N    4.8711976496811822E+00    2.7897110569428194E+00    1.3614257333454658E+01
Ga    4.8693081674775271E+00    2.7836608828079439E+00    1.5615530893472590E+01
N    4.8720388339167044E+00    4.6748231011248818E+00    1.6115263911171429E+01
Ga    4.8800311035960808E+00    4.6845679816682555E+00    1.8151246856880704E+01
N    4.8743642557972606E+00    2.8108535564801760E+00    1.8564256141013690E+01
Ga    3.2518081902196840E+00    5.6084575130938221E+00    2.8025014739150672E-01
N    3.2511595927162129E+00    7.4777172805892640E+00    5.6605087366459339E-01
Ga    3.2792974570488034E+00    7.4929850438457235E+00    2.5959838548200089E+00
N    3.2519864864150811E+00    5.6075110279828060E+00    3.1884272358399772E+00
Ga    3.2526588944160220E+00    5.6082768683466711E+00    5.1992300083087635E+00
N    3.2524072041542280E+00    7.4777797229768979E+00    5.8086970147074464E+00
Ga    3.2527503744295267E+00    7.4776386132844728E+00    7.8077299608696737E+00
N    3.2514450956667367E+00    5.6073945329213029E+00    8.4153121430966316E+00
Ga    3.2510437249471624E+00    5.6088906220020860E+00    1.0412749793037925E+01
N    3.2546568010057437E+00    7.4827144793017890E+00    1.1013486011145902E+01
Ga    3.2528029919929211E+00    7.4862607042339135E+00    1.3009442528509199E+01
N    3.2464722781479809E+00    5.6068348429883370E+00    1.3588854155788267E+01
Ga    3.2432713516955487E+00    5.6106397861731754E+00    1.5581266213125383E+01
N    3.2593627723061949E+00    7.4811798773397511E+00    1.6158075405263780E+01
Ga    3.2785372372158568E+00    7.4893352306921370E+00    1.8208218306746403E+01
N    3.2721351315806531E+00    5.6133766366871747E+00    1.8601627371104154E+01
     &END COORD
     &KIND N
       BASIS_SET DZVP-MOLOPT-SR-GTH
       POTENTIAL GTH-PBE-q5
       &POTENTIAL
2 3
0.2837905100000000E+00 2 -0.1241522559000000E+02  0.1868095920000000E+01
2
0.2554050000000000E+00 1  0.1363026257000000E+02
0.2454945300000000E+00 0
       &END POTENTIAL
     &END KIND
     &KIND Ga
       BASIS_SET DZVP-MOLOPT-SR-GTH
       POTENTIAL GTH-PBE-q13
       &POTENTIAL
2 1 10
0.4900000000000000E+00 0
3
0.4167772300000000E+00 3  0.1047568975000000E+02 -0.4921768140000000E+01  0.8707055900000000E+00
0.7770178090000000E+01 -0.2248152160000000E+01
0.1784415450000000E+01
0.5696265200000000E+00 2  0.1777985340000000E+01  0.1958597600000000E+00
-0.2317443900000000E+00
0.2381265000000000E+00 1 -0.1624868022000000E+02
       &END POTENTIAL
     &END KIND
     &TOPOLOGY
       COORD_FILE_NAME 334-native.xyz
       COORD_FILE_FORMAT  XYZ
       NUMBER_OF_ATOMS  144
       MULTIPLE_UNIT_CELL  1 1 1
     &END TOPOLOGY
   &END SUBSYS
 &END FORCE_EVAL
