 # Version information for this restart file 
 # current date 2019-05-16 05:17:51.447
 # current working dir /lustre03/project/6004141/rzk/GaN-carbene/00-Surface/00-Preoptimization/334-native/Trial4
 # Program compiled at                              Sun Apr  7 00:48:11 EDT 2019
 # Program compiled on                          beluga2.int.ets1.calculquebec.ca
 # Program compiled for                        Beluga-Linux-x86-64-intel-openmpi
 # Source code revision number                                         svn:18619
 &GLOBAL
   PRINT_LEVEL  MEDIUM
   PROJECT_NAME TEST
   RUN_TYPE  CELL_OPT
 &END GLOBAL
 &MOTION
   &CELL_OPT
     MAX_ITER  100
     STEP_START_VAL  84
     EXTERNAL_PRESSURE     1.0000000000000000E+00
     KEEP_ANGLES  T
     KEEP_SYMMETRY  T
     CONSTRAINT  Z
     PRESSURE_TOLERANCE     1.0000000000000000E+02
   &END CELL_OPT
 &END MOTION
 &FORCE_EVAL
   METHOD  QS
   STRESS_TENSOR  ANALYTICAL
   &DFT
     BASIS_SET_FILE_NAME BASIS_MOLOPT
     POTENTIAL_FILE_NAME GTH_POTENTIALS
     &SCF
       MAX_SCF  100
       EPS_SCF     5.0000000000000004E-06
       &OT  T
         PRECONDITIONER  FULL_ALL
       &END OT
       &OUTER_SCF  T
         OPTIMIZER  NONE
         EPS_SCF     5.0000000000000004E-06
         MAX_SCF  10
       &END OUTER_SCF
       &PRINT
         &RESTART  OFF
           BACKUP_COPIES  1
           &EACH
             JUST_ENERGY  0
             QS_SCF  0
             MD  20
           &END EACH
         &END RESTART
       &END PRINT
     &END SCF
     &ALMO_SCF
       EPS_FILTER     9.9999999999999994E-12
       ALMO_SCF_GUESS  ATOMIC
       MO_OVERLAP_INV_ALG  DENSE_CHOLESKY
       ALMO_EXTRAPOLATION_ORDER  4
       XALMO_EXTRAPOLATION_ORDER  4
       ALMO_ALGORITHM  SKIP
       XALMO_TRIAL_WF  SIMPLE
       DELOCALIZE_METHOD  XALMO_SCF
       XALMO_R_CUTOFF_FACTOR     1.8000000000000000E+00
       &ALMO_OPTIMIZER_DIIS
         MAX_ITER  100
         EPS_ERROR     1.0000000000000001E-05
         N_DIIS  5
       &END ALMO_OPTIMIZER_DIIS
       &ALMO_OPTIMIZER_PCG
         MAX_ITER  50
         EPS_ERROR     1.0000000000000001E-05
         LIN_SEARCH_EPS_ERROR     5.0000000000000003E-02
         LIN_SEARCH_STEP_SIZE_GUESS     5.0000000000000001E-03
         CONJUGATOR  DAI_YUAN
         MAX_ITER_OUTER_LOOP  10
       &END ALMO_OPTIMIZER_PCG
       &XALMO_OPTIMIZER_PCG
         MAX_ITER  1000
         EPS_ERROR     1.0000000000000001E-05
         LIN_SEARCH_EPS_ERROR     1.0000000000000001E-01
         LIN_SEARCH_STEP_SIZE_GUESS     1.0000000000000000E-02
         CONJUGATOR  DAI_YUAN
         PRECOND_FILTER_THRESHOLD     1.0000000000000000E-03
         MAX_ITER_OUTER_LOOP  0
       &END XALMO_OPTIMIZER_PCG
       &MATRIX_ITERATE
         EPS_TARGET_FACTOR     1.0000000000000000E+01
       &END MATRIX_ITERATE
     &END ALMO_SCF
     &QS
       EPS_DEFAULT     1.0000000000000000E-14
       ALMO_SCF  F
       METHOD  GPW
     &END QS
     &MGRID
       NGRIDS  5
       CUTOFF     1.2000000000000000E+03
     &END MGRID
     &XC
       DENSITY_CUTOFF     1.0000000000000000E-10
       GRADIENT_CUTOFF     1.0000000000000000E-10
       TAU_CUTOFF     1.0000000000000000E-10
       &XC_FUNCTIONAL  NO_SHORTCUT
         &PBE  T
         &END PBE
       &END XC_FUNCTIONAL
       &VDW_POTENTIAL
         POTENTIAL_TYPE  PAIR_POTENTIAL
         &PAIR_POTENTIAL
           R_CUTOFF     1.0000000000000002E+01
           TYPE  DFTD3
           PARAMETER_FILE_NAME dftd3.dat
           REFERENCE_FUNCTIONAL PBE
           EPS_CN     9.9999999999999995E-07
           CALCULATE_C9_TERM  T
           REFERENCE_C9_TERM  T
           LONG_RANGE_CORRECTION  F
           VERBOSE_OUTPUT  F
         &END PAIR_POTENTIAL
       &END VDW_POTENTIAL
     &END XC
   &END DFT
   &SUBSYS
     &CELL
       A     9.7441948778114309E+00    0.0000000000000000E+00    0.0000000000000000E+00
       B    -4.8539187459570501E+00    8.4072338838085816E+00    0.0000000000000000E+00
       C     0.0000000000000000E+00    0.0000000000000000E+00    3.0744000000000000E+01
       MULTIPLE_UNIT_CELL  1 1 1
       &CELL_REF
         A     9.5580000000000016E+00    0.0000000000000000E+00    0.0000000000000000E+00
         B    -4.7790000000000008E+00    8.2774708093716640E+00    0.0000000000000000E+00
         C     0.0000000000000000E+00    0.0000000000000000E+00    3.0744000000000000E+01
         MULTIPLE_UNIT_CELL  1 1 1
       &END CELL_REF
     &END CELL
     &COORD
Ga    1.0739367468422087E-03    6.2383140647830895E-04   -5.9165808310537349E-01
N    6.3833079532346322E-03    1.8706622184859860E+00    5.6381816556916664E-01
Ga    4.9096949289341840E-03    1.8395857465731085E+00    2.5946460638617861E+00
N   -6.6407416369601037E-04   -2.4849279036343735E-03    3.2278793967782797E+00
Ga    1.4347392785847452E-04   -2.1659880185891812E-03    5.2194177386669969E+00
N    5.9801739573066004E-03    1.8719002227356552E+00    5.8060131644060728E+00
Ga    4.6105494004026245E-03    1.8677882816453266E+00    7.8049793065603890E+00
N   -6.7160974911297227E-04   -4.6308895974998404E-03    8.4078808973246097E+00
Ga    2.3455147140931214E-04   -3.7261607876605896E-03    1.0405811781563195E+01
N    4.2216309508479877E-03    1.8669811017285836E+00    1.1011965691584333E+01
Ga    2.9445236821145377E-03    1.8709312955435804E+00    1.3007591670242450E+01
N   -6.6302319648798278E-05    1.1598062037265621E-03    1.3616666885224753E+01
Ga   -1.0409044879898497E-02    7.7745021281803292E-03    1.5621457481451538E+01
N   -8.3748708028998033E-04    1.8820783093516984E+00    1.6250598082487997E+01
Ga    2.2691183921626387E-02    1.9070555181602655E+00    1.8349074696265799E+01
N    5.0990007741030258E-03    1.0256578746577276E-02    1.8672118328912351E+01
Ga   -1.6154065016156900E+00    2.8019368106361267E+00    2.7896553263018908E-01
N   -1.6176879786875193E+00    4.6698247206849963E+00    5.6550840941927705E-01
Ga   -1.5884094645808124E+00    4.6848925669474220E+00    2.5946218737582463E+00
N   -1.6178377359587370E+00    2.8002208416609813E+00    3.1865834897629881E+00
Ga   -1.6172488710715276E+00    2.8009064613084238E+00    5.1985663921759295E+00
N   -1.6151717195966122E+00    4.6702432506566209E+00    5.8065921031670289E+00
Ga   -1.6152669704868294E+00    4.6677940789094805E+00    7.8058498049377478E+00
N   -1.6190592907560299E+00    2.7974363472066273E+00    8.4099765131956623E+00
Ga   -1.6189137585144595E+00    2.7978982987235579E+00    1.0406392812438634E+01
N   -1.6104807325285193E+00    4.6678384752790532E+00    1.1013926255180252E+01
Ga   -1.6083486820537773E+00    4.6667401740178658E+00    1.3010225117715967E+01
N   -1.6195469436164756E+00    2.7973844163312664E+00    1.3622925180777916E+01
Ga   -1.6263378149088739E+00    2.7889245763557922E+00    1.5630186370838610E+01
N   -1.6252109957426903E+00    4.6738483338142727E+00    1.6212102929794547E+01
Ga   -1.6059285738152986E+00    4.6792828007500153E+00    1.8288479156759102E+01
N   -1.6162605665229235E+00    2.8095073775372925E+00    1.8721710782888771E+01
Ga   -3.2354216835699741E+00    5.6053472606297490E+00    2.7946903999678341E-01
N   -3.2272944945827327E+00    7.4746628206434522E+00    5.6271143379646926E-01
Ga   -3.2555240717628284E+00    7.4882783991603521E+00    2.5942162656742993E+00
N   -3.2363233590704810E+00    5.6030215153068808E+00    3.1863764323642263E+00
Ga   -3.2357984922273033E+00    5.6036622734066279E+00    5.1981459335778055E+00
N   -3.2277706366944900E+00    7.4719357980843331E+00    5.8077884683754295E+00
Ga   -3.2297618562403549E+00    7.4691860554298790E+00    7.8072962725135984E+00
N   -3.2367957385493824E+00    5.5995621205930339E+00    8.4145872866497342E+00
Ga   -3.2362494908833250E+00    5.5999970698048847E+00    1.0412390663582979E+01
N   -3.2310315321992533E+00    7.4726039105986475E+00    1.1014258802622999E+01
Ga   -3.2312683132844797E+00    7.4744763746013732E+00    1.3011083596219764E+01
N   -3.2365036121661444E+00    5.5970231127442363E+00    1.3600411729092482E+01
Ga   -3.2466734712591543E+00    5.5921763438919019E+00    1.5595973795884790E+01
N   -3.2427699011912821E+00    7.4659867624050058E+00    1.6177298660046432E+01
Ga   -3.2371492565369739E+00    7.4937828277531713E+00    1.8235316205703850E+01
N   -3.2414115589994235E+00    5.6102111736491054E+00    1.8617477995106366E+01
Ga    3.2496457985726006E+00   -2.8114810992164044E-03    2.7785826516174550E-01
N    3.2509559655572811E+00    1.8690237783568464E+00    5.6262423566936814E-01
Ga    3.2770201493007973E+00    1.8818517429879340E+00    2.5977965511667738E+00
N    3.2474134371552070E+00   -2.2242114603902362E-03    3.1870178345512499E+00
Ga    3.2480294859245680E+00   -2.1175172013592355E-03    5.1987247254776641E+00
N    3.2510919370388054E+00    1.8673902369884710E+00    5.8065845018582651E+00
Ga    3.2507503182953057E+00    1.8644042534609893E+00    7.8057947357808057E+00
N    3.2473905935598726E+00   -5.4035707560126456E-03    8.4112183105851912E+00
Ga    3.2476612410400603E+00   -4.6587469783820274E-03    1.0408170643508209E+01
N    3.2513391426258078E+00    1.8658531964732723E+00    1.1014072575715542E+01
Ga    3.2462798380555524E+00    1.8627857903967839E+00    1.3011699668747124E+01
N    3.2459987242238011E+00   -6.1225475449692719E-03    1.3626683221661676E+01
Ga    3.2472379979338464E+00   -7.7392884404509010E-03    1.5632841169085895E+01
N    3.2274453484018157E+00    1.8757229115985423E+00    1.6216744004935400E+01
Ga    3.2520534883200933E+00    1.9008636731529418E+00    1.8290837772305263E+01
N    3.2489913080228385E+00   -8.9987185111294879E-04    1.8581453640444263E+01
Ga    1.6280811081181501E+00    2.8034077017621706E+00    2.8017448923733518E-01
N    1.6404813950256700E+00    4.6713726506252424E+00    5.6574949369936878E-01
Ga    1.6111757621294149E+00    4.6854948058885686E+00    2.5951551299758164E+00
N    1.6295971016480979E+00    2.7999487407193890E+00    3.1864227370209504E+00
Ga    1.6303519553217938E+00    2.8009975050659000E+00    5.1984439496441741E+00
N    1.6386114474557856E+00    4.6700088009965803E+00    5.8072029318254383E+00
Ga    1.6360892463879835E+00    4.6673914767255837E+00    7.8066703807698072E+00
N    1.6290513226895929E+00    2.7970153300508249E+00    8.4104038052418097E+00
Ga    1.6288337907991872E+00    2.7972105379061531E+00    1.0406462121056219E+01
N    1.6317020135117284E+00    4.6680534315471025E+00    1.1010370913455004E+01
Ga    1.6254934261270080E+00    4.6659573334190414E+00    1.3005380731534075E+01
N    1.6251004065346801E+00    2.7977639976717028E+00    1.3618167073573238E+01
Ga    1.6159850431593286E+00    2.7967303876164600E+00    1.5624622413160715E+01
N    1.6357892631715212E+00    4.6723676751577967E+00    1.6209473677635362E+01
Ga    1.6554003074220895E+00    4.6860259607624544E+00    1.8287834693975810E+01
N    1.6399111532966457E+00    2.8164214252839530E+00    1.8747492699297105E+01
Ga    1.2573154639545007E-02    5.6054175772773140E+00   -5.9493736118390428E-01
N    1.8280246594838664E-02    7.4781801625333628E+00    5.6635558415788168E-01
Ga    1.6929583725181014E-02    7.4448865287070705E+00    2.5949922148965494E+00
N    1.1614277584431832E-02    5.6022925647400319E+00    3.2281017541924824E+00
Ga    1.2512999450539681E-02    5.6031710672522106E+00    5.2190345024524971E+00
N    1.8250335237712616E-02    7.4769500941575027E+00    5.8062174933944828E+00
Ga    1.7015255544268117E-02    7.4724750138958882E+00    7.8054532992865688E+00
N    1.0796943061978448E-02    5.6002565829932021E+00    8.4070635574149026E+00
Ga    1.0590345020032714E-02    5.6019956760749317E+00    1.0404555240489669E+01
N    1.6373342999260899E-02    7.4709546294313283E+00    1.1015711240015031E+01
Ga    1.4737600935208230E-02    7.4704495172796710E+00    1.3014988071183661E+01
N    8.9860427677611026E-03    5.6019995884741167E+00    1.3628704834495741E+01
Ga    5.3722425867100635E-03    5.6068965407084175E+00    1.5638218364425251E+01
N    1.6316279475412990E-02    7.4812601349488954E+00    1.6207373387941004E+01
Ga    3.3236517708194406E-02    7.4782318545007618E+00    1.8264777605531890E+01
N    1.5806584084582471E-02    5.5919843583610334E+00    1.8649586044184659E+01
Ga    6.4952390350242659E+00   -1.6367502087236585E-03    2.7980463063262079E-01
N    6.5041931343306549E+00    1.8706235450202411E+00    5.6303263196510145E-01
Ga    6.4780583151466535E+00    1.8825921849826126E+00    2.5977686965773454E+00
N    6.4963041894082494E+00   -2.4112726881863689E-03    3.1860447645274630E+00
Ga    6.4971964436214646E+00   -2.2446946497015367E-03    5.1978285680416549E+00
N    6.5048807512606981E+00    1.8669729919397269E+00    5.8063238139535516E+00
Ga    6.5023197532489565E+00    1.8640137207077134E+00    7.8057732321688116E+00
N    6.4947663697456957E+00   -5.3144861394672409E-03    8.4127468624307689E+00
Ga    6.4953706038653074E+00   -4.6308361578160763E-03    1.0410068342692734E+01
N    6.5018984453573552E+00    1.8667283177580654E+00    1.1014617431346812E+01
Ga    6.5032540958427516E+00    1.8642160594093700E+00    1.3012469016963541E+01
N    6.4957876398768875E+00   -7.7505037208608803E-03    1.3615863993314269E+01
Ga    6.4842551991819368E+00   -1.3424016511334966E-02    1.5617607244719412E+01
N    6.5066249308195259E+00    1.8658013361664276E+00    1.6208521206880878E+01
Ga    6.5257870066965227E+00    1.8990392973550616E+00    1.8278830748265126E+01
N    6.5109807494757694E+00    7.5795561577432166E-04    1.8588482625286453E+01
Ga    4.8789216870327596E+00    2.8030426138212254E+00   -5.4947830410730736E-01
N    4.8841566047874831E+00    4.6733217085515433E+00    5.6381718860454921E-01
Ga    4.8829135772835048E+00    4.6435685487934393E+00    2.5984306997635702E+00
N    4.8777487704533629E+00    2.7999836637443360E+00    3.2282157478506353E+00
Ga    4.8786544151348199E+00    2.8007934378985775E+00    5.2207658733224012E+00
N    4.8842417294955984E+00    4.6745862746494007E+00    5.8080631126968081E+00
Ga    4.8828272439905076E+00    4.6698028613660201E+00    7.8081332491778177E+00
N    4.8770796082510923E+00    2.7961364278524776E+00    8.4080573551822972E+00
Ga    4.8771663023285541E+00    2.7951164241497870E+00    1.0406275783216881E+01
N    4.8832320465574703E+00    4.6642979939050111E+00    1.1013148714685723E+01
Ga    4.8819135235959141E+00    4.6576945725012830E+00    1.3009518405230452E+01
N    4.8742232438496247E+00    2.7814672122314694E+00    1.3621235131483363E+01
Ga    4.8659422712641742E+00    2.7730696874190475E+00    1.5626083603515792E+01
N    4.8713512652626880E+00    4.6628057223979082E+00    1.6143959855081413E+01
Ga    4.8925703770102951E+00    4.6915161716808216E+00    1.8189613123573178E+01
N    4.8870268930138021E+00    2.8149653725086754E+00    1.8611001401770000E+01
Ga    3.2596824913499196E+00    5.6042763597397816E+00    2.7722151855500365E-01
N    3.2628764954680642E+00    7.4731380555342373E+00    5.6242297471443647E-01
Ga    3.2903947580287292E+00    7.4871800026853146E+00    2.5939825265678169E+00
N    3.2599910999433273E+00    5.6030100810905701E+00    3.1873317575395741E+00
Ga    3.2607523485083818E+00    5.6036998160738793E+00    5.1990204331392480E+00
N    3.2634133144515660E+00    7.4722757920821330E+00    5.8082620419710347E+00
Ga    3.2628874527916336E+00    7.4694433218530873E+00    7.8079892919715075E+00
N    3.2591820608214368E+00    5.5992915539132113E+00    8.4136317698951881E+00
Ga    3.2597521309026716E+00    5.5996466066344457E+00    1.0411202192923760E+01
N    3.2668657572786892E+00    7.4723002352070074E+00    1.1011743597517755E+01
Ga    3.2665349451346164E+00    7.4740267988529503E+00    1.3007867873821919E+01
N    3.2550402887725323E+00    5.5954998121118713E+00    1.3590825310416989E+01
Ga    3.2470725952967068E+00    5.5926760259852477E+00    1.5584827138606867E+01
N    3.2665470226374902E+00    7.4616814005811074E+00    1.6166327765010305E+01
Ga    3.2945767431506332E+00    7.4981296632711638E+00    1.8218749985347081E+01
N    3.2786525944270011E+00    5.6180522442397356E+00    1.8626585288287188E+01
     &END COORD
     &KIND N
       BASIS_SET DZVP-MOLOPT-SR-GTH
       POTENTIAL GTH-PBE-q5
       &POTENTIAL
 2 3
  0.2837905100000000E+00 2 -0.1241522559000000E+02  0.1868095920000000E+01
 2
  0.2554050000000000E+00 1  0.1363026257000000E+02
  0.2454945300000000E+00 0
         # Potential name:  GTH-PBE-Q5  for symbol:  N
         # Potential read from the potential filename: GTH_POTENTIALS
       &END POTENTIAL
     &END KIND
     &KIND Ga
       BASIS_SET DZVP-MOLOPT-SR-GTH
       POTENTIAL GTH-PBE-q13
       &POTENTIAL
 2 1 10
  0.4900000000000000E+00 0
 3
  0.4167772300000000E+00 3  0.1047568975000000E+02 -0.4921768140000000E+01  0.8707055900000000E+00
  0.7770178090000000E+01 -0.2248152160000000E+01
  0.1784415450000000E+01
  0.5696265200000000E+00 2  0.1777985340000000E+01  0.1958597600000000E+00
 -0.2317443900000000E+00
  0.2381265000000000E+00 1 -0.1624868022000000E+02
         # Potential name:  GTH-PBE-Q13  for symbol:  GA
         # Potential read from the potential filename: GTH_POTENTIALS
       &END POTENTIAL
     &END KIND
     &TOPOLOGY
       COORD_FILE_NAME 334-native.xyz
       COORD_FILE_FORMAT  XYZ
       NUMBER_OF_ATOMS  144
       MULTIPLE_UNIT_CELL  1 1 1
     &END TOPOLOGY
   &END SUBSYS
 &END FORCE_EVAL
