 # Version information for this restart file 
 # current date 2019-05-16 04:07:04.263
 # current working dir /lustre03/project/6004141/rzk/GaN-carbene/00-Surface/00-Preoptimization/334-native/Trial4
 # Program compiled at                              Sun Apr  7 00:48:11 EDT 2019
 # Program compiled on                          beluga2.int.ets1.calculquebec.ca
 # Program compiled for                        Beluga-Linux-x86-64-intel-openmpi
 # Source code revision number                                         svn:18619
 &GLOBAL
   PRINT_LEVEL  MEDIUM
   PROJECT_NAME TEST
   RUN_TYPE  CELL_OPT
 &END GLOBAL
 &MOTION
   &CELL_OPT
     MAX_ITER  100
     STEP_START_VAL  68
     EXTERNAL_PRESSURE     1.0000000000000000E+00
     KEEP_ANGLES  T
     KEEP_SYMMETRY  T
     CONSTRAINT  Z
     PRESSURE_TOLERANCE     1.0000000000000000E+02
   &END CELL_OPT
 &END MOTION
 &FORCE_EVAL
   METHOD  QS
   STRESS_TENSOR  ANALYTICAL
   &DFT
     BASIS_SET_FILE_NAME BASIS_MOLOPT
     POTENTIAL_FILE_NAME GTH_POTENTIALS
     &SCF
       MAX_SCF  100
       EPS_SCF     5.0000000000000004E-06
       &OT  T
         PRECONDITIONER  FULL_ALL
       &END OT
       &OUTER_SCF  T
         OPTIMIZER  NONE
         EPS_SCF     5.0000000000000004E-06
         MAX_SCF  10
       &END OUTER_SCF
       &PRINT
         &RESTART  OFF
           BACKUP_COPIES  1
           &EACH
             JUST_ENERGY  0
             QS_SCF  0
             MD  20
           &END EACH
         &END RESTART
       &END PRINT
     &END SCF
     &ALMO_SCF
       EPS_FILTER     9.9999999999999994E-12
       ALMO_SCF_GUESS  ATOMIC
       MO_OVERLAP_INV_ALG  DENSE_CHOLESKY
       ALMO_EXTRAPOLATION_ORDER  4
       XALMO_EXTRAPOLATION_ORDER  4
       ALMO_ALGORITHM  SKIP
       XALMO_TRIAL_WF  SIMPLE
       DELOCALIZE_METHOD  XALMO_SCF
       XALMO_R_CUTOFF_FACTOR     1.8000000000000000E+00
       &ALMO_OPTIMIZER_DIIS
         MAX_ITER  100
         EPS_ERROR     1.0000000000000001E-05
         N_DIIS  5
       &END ALMO_OPTIMIZER_DIIS
       &ALMO_OPTIMIZER_PCG
         MAX_ITER  50
         EPS_ERROR     1.0000000000000001E-05
         LIN_SEARCH_EPS_ERROR     5.0000000000000003E-02
         LIN_SEARCH_STEP_SIZE_GUESS     5.0000000000000001E-03
         CONJUGATOR  DAI_YUAN
         MAX_ITER_OUTER_LOOP  10
       &END ALMO_OPTIMIZER_PCG
       &XALMO_OPTIMIZER_PCG
         MAX_ITER  1000
         EPS_ERROR     1.0000000000000001E-05
         LIN_SEARCH_EPS_ERROR     1.0000000000000001E-01
         LIN_SEARCH_STEP_SIZE_GUESS     1.0000000000000000E-02
         CONJUGATOR  DAI_YUAN
         PRECOND_FILTER_THRESHOLD     1.0000000000000000E-03
         MAX_ITER_OUTER_LOOP  0
       &END XALMO_OPTIMIZER_PCG
       &MATRIX_ITERATE
         EPS_TARGET_FACTOR     1.0000000000000000E+01
       &END MATRIX_ITERATE
     &END ALMO_SCF
     &QS
       EPS_DEFAULT     1.0000000000000000E-14
       ALMO_SCF  F
       METHOD  GPW
     &END QS
     &MGRID
       NGRIDS  5
       CUTOFF     1.2000000000000000E+03
     &END MGRID
     &XC
       DENSITY_CUTOFF     1.0000000000000000E-10
       GRADIENT_CUTOFF     1.0000000000000000E-10
       TAU_CUTOFF     1.0000000000000000E-10
       &XC_FUNCTIONAL  NO_SHORTCUT
         &PBE  T
         &END PBE
       &END XC_FUNCTIONAL
       &VDW_POTENTIAL
         POTENTIAL_TYPE  PAIR_POTENTIAL
         &PAIR_POTENTIAL
           R_CUTOFF     1.0000000000000002E+01
           TYPE  DFTD3
           PARAMETER_FILE_NAME dftd3.dat
           REFERENCE_FUNCTIONAL PBE
           EPS_CN     9.9999999999999995E-07
           CALCULATE_C9_TERM  T
           REFERENCE_C9_TERM  T
           LONG_RANGE_CORRECTION  F
           VERBOSE_OUTPUT  F
         &END PAIR_POTENTIAL
       &END VDW_POTENTIAL
     &END XC
   &END DFT
   &SUBSYS
     &CELL
       A     9.7470025206621358E+00    0.0000000000000000E+00    0.0000000000000000E+00
       B    -4.8525544438527577E+00    8.4048708432470889E+00    0.0000000000000000E+00
       C     0.0000000000000000E+00    0.0000000000000000E+00    3.0744000000000000E+01
       MULTIPLE_UNIT_CELL  1 1 1
       &CELL_REF
         A     9.5580000000000016E+00    0.0000000000000000E+00    0.0000000000000000E+00
         B    -4.7790000000000008E+00    8.2774708093716640E+00    0.0000000000000000E+00
         C     0.0000000000000000E+00    0.0000000000000000E+00    3.0744000000000000E+01
         MULTIPLE_UNIT_CELL  1 1 1
       &END CELL_REF
     &END CELL
     &COORD
Ga   -1.9516808527221419E-04   -2.3834866905157277E-03   -5.8925248845409894E-01
N    6.9784558340671441E-03    1.8712396296715450E+00    5.6552989160077194E-01
Ga    5.6075852303003474E-03    1.8387892010294451E+00    2.5953994444247690E+00
N   -1.1866393695994771E-03   -2.8377446715506065E-03    3.2301925737506640E+00
Ga    2.2712481420840644E-04   -8.8485416658095283E-04    5.2208347160046298E+00
N    6.3190005837496562E-03    1.8728339779778829E+00    5.8079041198094670E+00
Ga    5.6227215527944697E-03    1.8703086197741978E+00    7.8068789369127183E+00
N    1.1990537288314423E-04   -2.7117152765455226E-03    8.4081275280197048E+00
Ga    8.8945224077206233E-04   -2.0614516842731422E-03    1.0405943896214906E+01
N    7.2130505450662087E-03    1.8683073222789159E+00    1.1011707023678685E+01
Ga    4.9916468698181279E-03    1.8696214861201879E+00    1.3007671778611588E+01
N    6.0582874930954192E-04    4.0797101646307572E-04    1.3620999358177563E+01
Ga   -1.4050491147611161E-02   -5.8852946726637692E-04    1.5626905156868004E+01
N   -5.4536257131981968E-03    1.8805350996724268E+00    1.6231646350248052E+01
Ga    2.5152049221102778E-02    1.9091709824672396E+00    1.8319762796895471E+01
N    6.1630782976265890E-03    1.2509339218634648E-02    1.8660910406816445E+01
Ga   -1.6153269283309086E+00    2.8006082933817842E+00    2.7850977473061850E-01
N   -1.6172273587032890E+00    4.6693227026465154E+00    5.6272685048283677E-01
Ga   -1.5880945313211150E+00    4.6837564210614300E+00    2.5930116527585119E+00
N   -1.6176236214869886E+00    2.7993780648319073E+00    3.1869294970924678E+00
Ga   -1.6165051679401259E+00    2.8010001134922113E+00    5.1981319181895751E+00
N   -1.6137733363016489E+00    4.6696341224491658E+00    5.8076505292257696E+00
Ga   -1.6127831237225299E+00    4.6687050883852566E+00    7.8067053307941006E+00
N   -1.6176901540392392E+00    2.7994791640775807E+00    8.4128252166658353E+00
Ga   -1.6168181668104686E+00    2.7999634645950460E+00    1.0409186593487547E+01
N   -1.6084684256968098E+00    4.6712784833926655E+00    1.1013522649483313E+01
Ga   -1.6078267190276330E+00    4.6692906827702405E+00    1.3009213384074817E+01
N   -1.6192991208252774E+00    2.7987731521571879E+00    1.3613549002414944E+01
Ga   -1.6305260856013344E+00    2.7872780930781742E+00    1.5617918980190058E+01
N   -1.6253230413894006E+00    4.6705806315893899E+00    1.6209024281839586E+01
Ga   -1.6063281330647587E+00    4.6814093038744975E+00    1.8284907291727901E+01
N   -1.6149198328485308E+00    2.8044482504186767E+00    1.8706536137843180E+01
Ga   -3.2355917924706521E+00    5.6036877463762718E+00    2.7779949009631361E-01
N   -3.2255581918862455E+00    7.4723739225884129E+00    5.6616281159126414E-01
Ga   -3.2547545919166727E+00    7.4856739983121496E+00    2.5960619854964238E+00
N   -3.2357727016601276E+00    5.6006808004658772E+00    3.1875514555527955E+00
Ga   -3.2346385177774346E+00    5.6024735130300760E+00    5.1988774934761235E+00
N   -3.2254271306509179E+00    7.4713645917270197E+00    5.8074511457141362E+00
Ga   -3.2269621217806246E+00    7.4698262594217884E+00    7.8064311927643066E+00
N   -3.2351652771163866E+00    5.6003024997708044E+00    8.4137139394402478E+00
Ga   -3.2348818132342605E+00    5.6009612319982827E+00    1.0411050735327171E+01
N   -3.2292535414259644E+00    7.4723336123710435E+00    1.1015532849818280E+01
Ga   -3.2306758988062572E+00    7.4725041634901741E+00    1.3012060157552522E+01
N   -3.2363522647664400E+00    5.5961738383008930E+00    1.3605205881429624E+01
Ga   -3.2490685426832639E+00    5.5858344507507800E+00    1.5601633192281868E+01
N   -3.2432609617134740E+00    7.4594630946412934E+00    1.6194329203726991E+01
Ga   -3.2278005408624888E+00    7.4911051672069044E+00    1.8260904171446878E+01
N   -3.2420570082903790E+00    5.6028795007345380E+00    1.8625451516120560E+01
Ga    3.2496644293381745E+00   -3.4621099150727590E-03    2.8029534150727270E-01
N    3.2513928854979008E+00    1.8685852417298336E+00    5.6375592527385410E-01
Ga    3.2778260541542967E+00    1.8819642409810560E+00    2.5980988283459645E+00
N    3.2479090197898652E+00   -2.4384789628810991E-03    3.1871397853172598E+00
Ga    3.2491685616531760E+00   -9.5987861578144390E-04    5.1977190244767071E+00
N    3.2527575281354069E+00    1.8678558511753520E+00    5.8069838065614796E+00
Ga    3.2530843106982115E+00    1.8662994459846722E+00    7.8062571814968162E+00
N    3.2486441585736285E+00   -3.2400594229119958E-03    8.4124727392543477E+00
Ga    3.2486966289082049E+00   -3.2376509163068576E-03    1.0408973058460358E+01
N    3.2534453251765543E+00    1.8674266408463234E+00    1.1012288263295950E+01
Ga    3.2472059882907240E+00    1.8616300146304694E+00    1.3008853153268815E+01
N    3.2454530211445829E+00   -6.6370368111596549E-03    1.3626066720464408E+01
Ga    3.2431441797003404E+00   -1.2705862525424513E-02    1.5632676230084705E+01
N    3.2253036086907390E+00    1.8687871374580076E+00    1.6213593277168407E+01
Ga    3.2571941089837280E+00    1.8963291121207488E+00    1.8288471052041199E+01
N    3.2518196223995690E+00   -4.5845776342634207E-03    1.8611017101214916E+01
Ga    1.6286287964153856E+00    2.8020741316406452E+00    2.7900598269089000E-01
N    1.6423373821370799E+00    4.6700976890422679E+00    5.6572198185992228E-01
Ga    1.6127023828194429E+00    4.6839717057212669E+00    2.5954128344637195E+00
N    1.6302656274918366E+00    2.7989995419098079E+00    3.1875919917571380E+00
Ga    1.6312497934417802E+00    2.8006028798893778E+00    5.1988377931605214E+00
N    1.6409793389820655E+00    4.6701147321279439E+00    5.8065742241000668E+00
Ga    1.6393241907999778E+00    4.6694751985030649E+00    7.8057458944630644E+00
N    1.6312017661501927E+00    2.7994763244968208E+00    8.4100759345714948E+00
Ga    1.6312258875536432E+00    2.7995099176525295E+00    1.0405879020182921E+01
N    1.6351729642558264E+00    4.6699629644931644E+00    1.1011142345815550E+01
Ga    1.6283318725904465E+00    4.6666068928144808E+00    1.3005880917121393E+01
N    1.6273068114992286E+00    2.7982111523258886E+00    1.3615501172715526E+01
Ga    1.6145545692663719E+00    2.7942776692433924E+00    1.5619727944502317E+01
N    1.6361544676729094E+00    4.6713019527698894E+00    1.6208093173647679E+01
Ga    1.6573858430933099E+00    4.6864859616073105E+00    1.8285623371730306E+01
N    1.6416558967185375E+00    2.8103546276834668E+00    1.8735985085731539E+01
Ga    1.5263806790454536E-02    5.6026255838518617E+00   -5.9130420829259966E-01
N    2.0335178824697146E-02    7.4756447912498265E+00    5.6587189493025336E-01
Ga    1.9511836456042323E-02    7.4428362991736368E+00    2.5953166989248193E+00
N    1.2454085028982475E-02    5.6001365808969759E+00    3.2285538358770256E+00
Ga    1.3843956661920164E-02    5.6024319092404564E+00    5.2194481550989584E+00
N    2.0406159025609594E-02    7.4763926089358321E+00    5.8067941138477606E+00
Ga    1.9782030870703741E-02    7.4732389367247745E+00    7.8056947421103535E+00
N    1.3757742872485396E-02    5.6012261969531600E+00    8.4073859595534586E+00
Ga    1.4087610733191891E-02    5.6032437209502648E+00    1.0404697549186029E+01
N    2.0170445214490205E-02    7.4719553231673661E+00    1.1015831310632706E+01
Ga    1.7174435130995633E-02    7.4699102774893538E+00    1.3014341250372860E+01
N    1.1555030776637153E-02    5.6018637288520017E+00    1.3628769768870141E+01
Ga    5.0395574606284729E-03    5.6009395870071099E+00    1.5637392755801383E+01
N    1.8312146405176234E-02    7.4802106024838766E+00    1.6208006763473559E+01
Ga    3.4832501736456176E-02    7.4782686469416504E+00    1.8266731366824711E+01
N    1.5058891970940100E-02    5.5881925740262437E+00    1.8660143487519193E+01
Ga    6.4960967330394173E+00   -2.2321671803496551E-03    2.8001146607969901E-01
N    6.5065632243518889E+00    1.8698228028616681E+00    5.6498993506604001E-01
Ga    6.4801613831031517E+00    1.8819961005269343E+00    2.5985950532353153E+00
N    6.4975078763432998E+00   -2.5688515175064050E-03    3.1880413253741287E+00
Ga    6.4988277628445843E+00   -8.3586312948334175E-04    5.1992170074994073E+00
N    6.5080262832283697E+00    1.8685752199562142E+00    5.8074925037270368E+00
Ga    6.5063122709115699E+00    1.8669118738899675E+00    7.8071397795116875E+00
N    6.4976535209222588E+00   -3.1304225392445608E-03    8.4120734072037529E+00
Ga    6.4989348226177857E+00   -3.0005047499229109E-03    1.0409209650448245E+01
N    6.5055185697449343E+00    1.8679662486752953E+00    1.1012620144083591E+01
Ga    6.5054226625849063E+00    1.8638361172879838E+00    1.3009098299467695E+01
N    6.4976266339955409E+00   -7.5786311563991338E-03    1.3612674864809771E+01
Ga    6.4861283577574156E+00   -1.7522357474903754E-02    1.5613692222686302E+01
N    6.5053121473777802E+00    1.8633348166156625E+00    1.6198428477037407E+01
Ga    6.5305268408284034E+00    1.8961965458616881E+00    1.8262848273259184E+01
N    6.5111914545710174E+00   -1.4558648163072985E-03    1.8597364284465399E+01
Ga    4.8809776165902381E+00    2.7999415122970732E+00   -5.5075809197838832E-01
N    4.8875756856794865E+00    4.6718936598557033E+00    5.6345230146072134E-01
Ga    4.8862644305166292E+00    4.6419771460030299E+00    2.5982431371995438E+00
N    4.8795730713952024E+00    2.7987637848422318E+00    3.2290133067212663E+00
Ga    4.8808875001745200E+00    2.8006403264530157E+00    5.2211527174187466E+00
N    4.8872042291691997E+00    4.6743930707669854E+00    5.8084057947184347E+00
Ga    4.8863808043914663E+00    4.6708287294713280E+00    7.8080277112788252E+00
N    4.8800271588163797E+00    2.7977294497815048E+00    8.4087058244932464E+00
Ga    4.8805229136585542E+00    2.7966842260676641E+00    1.0406806082458319E+01
N    4.8879461197474887E+00    4.6660356664092442E+00    1.1014127827216024E+01
Ga    4.8855854082960386E+00    4.6577882738547345E+00    1.3010471876376601E+01
N    4.8749691649593290E+00    2.7802436059337166E+00    1.3615094141972435E+01
Ga    4.8645572697116668E+00    2.7691787285626357E+00    1.5618729970833030E+01
N    4.8707301881354148E+00    4.6577945550953155E+00    1.6146757934127404E+01
Ga    4.8962289794025731E+00    4.6893535926420871E+00    1.8192593023679684E+01
N    4.8914407325217892E+00    2.8088376327068647E+00    1.8609559380309641E+01
Ga    3.2626464752617936E+00    5.6016131240327534E+00    2.7989415303821774E-01
N    3.2638259631812527E+00    7.4705740849673967E+00    5.6556693531710833E-01
Ga    3.2931130292783113E+00    7.4854899839069322E+00    2.5958731427927400E+00
N    3.2626841021779835E+00    5.6008298506204035E+00    3.1878287262954186E+00
Ga    3.2637378846324934E+00    5.6027029883210604E+00    5.1986912786110011E+00
N    3.2671107050938799E+00    7.4711273005747092E+00    5.8084075188431088E+00
Ga    3.2673826676645641E+00    7.4694359661977767E+00    7.8074163674292167E+00
N    3.2628715822223153E+00    5.6000762624693241E+00    8.4144467270481940E+00
Ga    3.2640071584424568E+00    5.6008703368700825E+00    1.0412280919305795E+01
N    3.2715914156628743E+00    7.4729826164214384E+00    1.1014151174407603E+01
Ga    3.2708542383441008E+00    7.4728270737557567E+00    1.3010260970400884E+01
N    3.2582367701780859E+00    5.5941916227008592E+00    1.3593114400422879E+01
Ga    3.2475038660158302E+00    5.5877536749023342E+00    1.5587093500791962E+01
N    3.2653045832079015E+00    7.4560235436214315E+00    1.6175428875355905E+01
Ga    3.2971965282497813E+00    7.4986343332433609E+00    1.8230014787630221E+01
N    3.2807882400395001E+00    5.6122056838266889E+00    1.8626386327079551E+01
     &END COORD
     &KIND N
       BASIS_SET DZVP-MOLOPT-SR-GTH
       POTENTIAL GTH-PBE-q5
       &POTENTIAL
 2 3
  0.2837905100000000E+00 2 -0.1241522559000000E+02  0.1868095920000000E+01
 2
  0.2554050000000000E+00 1  0.1363026257000000E+02
  0.2454945300000000E+00 0
         # Potential name:  GTH-PBE-Q5  for symbol:  N
         # Potential read from the potential filename: GTH_POTENTIALS
       &END POTENTIAL
     &END KIND
     &KIND Ga
       BASIS_SET DZVP-MOLOPT-SR-GTH
       POTENTIAL GTH-PBE-q13
       &POTENTIAL
 2 1 10
  0.4900000000000000E+00 0
 3
  0.4167772300000000E+00 3  0.1047568975000000E+02 -0.4921768140000000E+01  0.8707055900000000E+00
  0.7770178090000000E+01 -0.2248152160000000E+01
  0.1784415450000000E+01
  0.5696265200000000E+00 2  0.1777985340000000E+01  0.1958597600000000E+00
 -0.2317443900000000E+00
  0.2381265000000000E+00 1 -0.1624868022000000E+02
         # Potential name:  GTH-PBE-Q13  for symbol:  GA
         # Potential read from the potential filename: GTH_POTENTIALS
       &END POTENTIAL
     &END KIND
     &TOPOLOGY
       COORD_FILE_NAME 334-native.xyz
       COORD_FILE_FORMAT  XYZ
       NUMBER_OF_ATOMS  144
       MULTIPLE_UNIT_CELL  1 1 1
     &END TOPOLOGY
   &END SUBSYS
 &END FORCE_EVAL
