 # Version information for this restart file 
 # current date 2019-05-16 03:37:07.589
 # current working dir /lustre03/project/6004141/rzk/GaN-carbene/00-Surface/00-Preoptimization/334-native/Trial4
 # Program compiled at                              Sun Apr  7 00:48:11 EDT 2019
 # Program compiled on                          beluga2.int.ets1.calculquebec.ca
 # Program compiled for                        Beluga-Linux-x86-64-intel-openmpi
 # Source code revision number                                         svn:18619
 &GLOBAL
   PRINT_LEVEL  MEDIUM
   PROJECT_NAME TEST
   RUN_TYPE  CELL_OPT
 &END GLOBAL
 &MOTION
   &CELL_OPT
     MAX_ITER  100
     STEP_START_VAL  39
     EXTERNAL_PRESSURE     1.0000000000000000E+00
     KEEP_ANGLES  T
     KEEP_SYMMETRY  T
     CONSTRAINT  Z
     PRESSURE_TOLERANCE     1.0000000000000000E+02
   &END CELL_OPT
 &END MOTION
 &FORCE_EVAL
   METHOD  QS
   STRESS_TENSOR  ANALYTICAL
   &DFT
     BASIS_SET_FILE_NAME BASIS_MOLOPT
     POTENTIAL_FILE_NAME GTH_POTENTIALS
     &SCF
       MAX_SCF  100
       EPS_SCF     5.0000000000000004E-06
       &OT  T
         PRECONDITIONER  FULL_ALL
       &END OT
       &OUTER_SCF  T
         OPTIMIZER  NONE
         EPS_SCF     5.0000000000000004E-06
         MAX_SCF  10
       &END OUTER_SCF
       &PRINT
         &RESTART  OFF
           BACKUP_COPIES  1
           &EACH
             JUST_ENERGY  0
             QS_SCF  0
             MD  20
           &END EACH
         &END RESTART
       &END PRINT
     &END SCF
     &ALMO_SCF
       EPS_FILTER     9.9999999999999994E-12
       ALMO_SCF_GUESS  ATOMIC
       MO_OVERLAP_INV_ALG  DENSE_CHOLESKY
       ALMO_EXTRAPOLATION_ORDER  4
       XALMO_EXTRAPOLATION_ORDER  4
       ALMO_ALGORITHM  SKIP
       XALMO_TRIAL_WF  SIMPLE
       DELOCALIZE_METHOD  XALMO_SCF
       XALMO_R_CUTOFF_FACTOR     1.8000000000000000E+00
       &ALMO_OPTIMIZER_DIIS
         MAX_ITER  100
         EPS_ERROR     1.0000000000000001E-05
         N_DIIS  5
       &END ALMO_OPTIMIZER_DIIS
       &ALMO_OPTIMIZER_PCG
         MAX_ITER  50
         EPS_ERROR     1.0000000000000001E-05
         LIN_SEARCH_EPS_ERROR     5.0000000000000003E-02
         LIN_SEARCH_STEP_SIZE_GUESS     5.0000000000000001E-03
         CONJUGATOR  DAI_YUAN
         MAX_ITER_OUTER_LOOP  10
       &END ALMO_OPTIMIZER_PCG
       &XALMO_OPTIMIZER_PCG
         MAX_ITER  1000
         EPS_ERROR     1.0000000000000001E-05
         LIN_SEARCH_EPS_ERROR     1.0000000000000001E-01
         LIN_SEARCH_STEP_SIZE_GUESS     1.0000000000000000E-02
         CONJUGATOR  DAI_YUAN
         PRECOND_FILTER_THRESHOLD     1.0000000000000000E-03
         MAX_ITER_OUTER_LOOP  0
       &END XALMO_OPTIMIZER_PCG
       &MATRIX_ITERATE
         EPS_TARGET_FACTOR     1.0000000000000000E+01
       &END MATRIX_ITERATE
     &END ALMO_SCF
     &QS
       EPS_DEFAULT     1.0000000000000000E-14
       ALMO_SCF  F
       METHOD  GPW
     &END QS
     &MGRID
       NGRIDS  5
       CUTOFF     1.2000000000000000E+03
     &END MGRID
     &XC
       DENSITY_CUTOFF     1.0000000000000000E-10
       GRADIENT_CUTOFF     1.0000000000000000E-10
       TAU_CUTOFF     1.0000000000000000E-10
       &XC_FUNCTIONAL  NO_SHORTCUT
         &PBE  T
         &END PBE
       &END XC_FUNCTIONAL
       &VDW_POTENTIAL
         POTENTIAL_TYPE  PAIR_POTENTIAL
         &PAIR_POTENTIAL
           R_CUTOFF     1.0000000000000002E+01
           TYPE  DFTD3
           PARAMETER_FILE_NAME dftd3.dat
           REFERENCE_FUNCTIONAL PBE
           EPS_CN     9.9999999999999995E-07
           CALCULATE_C9_TERM  T
           REFERENCE_C9_TERM  T
           LONG_RANGE_CORRECTION  F
           VERBOSE_OUTPUT  F
         &END PAIR_POTENTIAL
       &END VDW_POTENTIAL
     &END XC
   &END DFT
   &SUBSYS
     &CELL
       A     9.7467181592903813E+00    0.0000000000000000E+00    0.0000000000000000E+00
       B    -4.8512127784124512E+00    8.4025470105377416E+00    0.0000000000000000E+00
       C     0.0000000000000000E+00    0.0000000000000000E+00    3.0744000000000000E+01
       MULTIPLE_UNIT_CELL  1 1 1
       &CELL_REF
         A     9.5580000000000016E+00    0.0000000000000000E+00    0.0000000000000000E+00
         B    -4.7790000000000008E+00    8.2774708093716640E+00    0.0000000000000000E+00
         C     0.0000000000000000E+00    0.0000000000000000E+00    3.0744000000000000E+01
         MULTIPLE_UNIT_CELL  1 1 1
       &END CELL_REF
     &END CELL
     &COORD
Ga    6.4765134914960857E-03   -7.3772853387929918E-03   -6.0612619265888001E-01
N    4.6961404880366906E-03    1.8657073316277686E+00    5.6052116450808565E-01
Ga    8.6671590681480989E-03    1.8378639128262906E+00    2.5944464565749090E+00
N   -1.1729323838811046E-03   -1.9889579203112235E-03    3.2284251134644362E+00
Ga   -2.1776443455007194E-04    2.9353571494350403E-03    5.2210298223807463E+00
N    6.9514262602750863E-03    1.8746066562659711E+00    5.8128622056428858E+00
Ga    5.4492773973765845E-03    1.8702284911628093E+00    7.8131478854562113E+00
N    4.8480008300807119E-04   -2.8704348447122644E-03    8.4110830995998267E+00
Ga    1.3225618259770388E-03    1.8657687539438310E-03    1.0408106084549235E+01
N    7.9176402202819143E-03    1.8729788307696023E+00    1.1011354850277291E+01
Ga    3.5863686500073560E-03    1.8755719682349385E+00    1.3007183780650198E+01
N   -5.6108572055101763E-04    6.7888171177737352E-03    1.3621973543638466E+01
Ga   -1.3334217535656834E-02   -8.7432854565073180E-03    1.5629647234027475E+01
N   -6.7663095373216558E-03    1.8834325132560563E+00    1.6206713076591111E+01
Ga    1.4613758966973294E-02    1.8967063903451846E+00    1.8283386802295549E+01
N    4.3030332721469512E-03    4.6025945509331548E-03    1.8648604823996234E+01
Ga   -1.6168910985746270E+00    2.7975278349207731E+00    2.8507259506797317E-01
N   -1.6225257498152379E+00    4.6652739585352609E+00    5.7422036706479240E-01
Ga   -1.5888622072070528E+00    4.6862312952787644E+00    2.6021219614719175E+00
N   -1.6157673024720516E+00    2.7988608131111841E+00    3.1904237907707782E+00
Ga   -1.6142044091752055E+00    2.8027768621346643E+00    5.2001087401199397E+00
N   -1.6126676559519535E+00    4.6708476105146008E+00    5.8106920373125064E+00
Ga   -1.6111342562541662E+00    4.6693718129650899E+00    7.8103813866340364E+00
N   -1.6187439792817460E+00    2.8001113194977796E+00    8.4146202910702890E+00
Ga   -1.6171255122273291E+00    2.8031690051164517E+00    1.0409288094662180E+01
N   -1.6064434576210065E+00    4.6753409955231335E+00    1.1010071686193179E+01
Ga   -1.6053677365388892E+00    4.6750044606143213E+00    1.3005543865330798E+01
N   -1.6195160364447720E+00    2.8070723737774754E+00    1.3610525330151802E+01
Ga   -1.6362246795663096E+00    2.7943358818734216E+00    1.5612999860002549E+01
N   -1.6176317607138366E+00    4.6764614469769059E+00    1.6216163762344070E+01
Ga   -1.6083809430978215E+00    4.6777134174012787E+00    1.8293516884354538E+01
N   -1.6273548739879713E+00    2.7876610236126216E+00    1.8666946031169385E+01
Ga   -3.2390386562333617E+00    5.5979906246429056E+00    2.8936228059326552E-01
N   -3.2277722977815220E+00    7.4705223510698060E+00    5.6982847388658520E-01
Ga   -3.2515524800063464E+00    7.4866394123285085E+00    2.5980188925253964E+00
N   -3.2367392935954360E+00    5.6035686500665065E+00    3.1930332410054953E+00
Ga   -3.2338708528016338E+00    5.6043464910518068E+00    5.2038211467886120E+00
N   -3.2231549666129702E+00    7.4747949235564244E+00    5.8045655466025341E+00
Ga   -3.2264282880788340E+00    7.4711144177595088E+00    7.8026432558112147E+00
N   -3.2348389225868663E+00    5.6024770380834283E+00    8.4106404019705412E+00
Ga   -3.2327637329375070E+00    5.6045119402212835E+00    1.0407489599036696E+01
N   -3.2279179631823443E+00    7.4739844021303607E+00    1.1017456357105281E+01
Ga   -3.2280743754704968E+00    7.4756534379955033E+00    1.3014799003413758E+01
N   -3.2319340209313290E+00    5.5993874458288460E+00    1.3607387900497098E+01
Ga   -3.2430402387708073E+00    5.5836996724159960E+00    1.5605901389758493E+01
N   -3.2417545758981672E+00    7.4568442857499289E+00    1.6206026451536339E+01
Ga   -3.2195343332923185E+00    7.4800720739851103E+00    1.8280440713844332E+01
N   -3.2410545867950242E+00    5.5918472439964626E+00    1.8652327573134556E+01
Ga    3.2468213130358419E+00   -7.0603049124261311E-03    2.7209277808758364E-01
N    3.2497098867369676E+00    1.8650466589963786E+00    5.5971173368128890E-01
Ga    3.2791806294125418E+00    1.8825365966831180E+00    2.5961731467825770E+00
N    3.2503636901431783E+00   -5.2906784678122699E-04    3.1873235368126642E+00
Ga    3.2518547344242315E+00    2.5576653396360777E-03    5.2002910701938703E+00
N    3.2543755688228901E+00    1.8690563383595500E+00    5.8107059653487356E+00
Ga    3.2540355722280032E+00    1.8660851358335158E+00    7.8092233329568073E+00
N    3.2473623477355646E+00   -2.9753208078742419E-03    8.4132227110345514E+00
Ga    3.2485739513138236E+00   -1.3233357855473265E-03    1.0408490561847289E+01
N    3.2554854334822538E+00    1.8688296050505566E+00    1.1010811925186919E+01
Ga    3.2501163399951070E+00    1.8617951629993164E+00    1.3005305880230429E+01
N    3.2490015382242836E+00   -5.4295686115652768E-03    1.3625212670548351E+01
Ga    3.2443395321084791E+00   -1.8886330324355671E-02    1.5632968581483553E+01
N    3.2272242487793532E+00    1.8542847353849286E+00    1.6209490765501190E+01
Ga    3.2558947077426459E+00    1.8796186386485960E+00    1.8281647624170741E+01
N    3.2512047471195795E+00   -1.2628406875582620E-02    1.8650797738051786E+01
Ga    1.6242466471910870E+00    2.7973228414269435E+00    2.8219573585628971E-01
N    1.6392745218206914E+00    4.6670450524270333E+00    5.7624309330029666E-01
Ga    1.6139150378555949E+00    4.6843458928470305E+00    2.6031682997245653E+00
N    1.6324415965572112E+00    2.7982893284349690E+00    3.1907034281081872E+00
Ga    1.6325264556125361E+00    2.8001176913703296E+00    5.2027518093216267E+00
N    1.6430838701535726E+00    4.6714927946847293E+00    5.8037440712081763E+00
Ga    1.6416409693793061E+00    4.6700688344334162E+00    7.8025834976298611E+00
N    1.6328262290920110E+00    2.8011246410908224E+00    8.4094326139011226E+00
Ga    1.6338299507383298E+00    2.8029086877747247E+00    1.0405989567328131E+01
N    1.6405724004186066E+00    4.6717055767826610E+00    1.1014427400109621E+01
Ga    1.6384852492664728E+00    4.6706719313976537E+00    1.3009996819982243E+01
N    1.6316629102273266E+00    2.7989445291404600E+00    1.3608837336733787E+01
Ga    1.6240119023794457E+00    2.7926743100053359E+00    1.5610143000682417E+01
N    1.6445206735106930E+00    4.6672930123935750E+00    1.6195101571907905E+01
Ga    1.6533931212398580E+00    4.6808198456164787E+00    1.8262014680258357E+01
N    1.6342078754623028E+00    2.7981159671853191E+00    1.8687398905271870E+01
Ga    1.2834594964065723E-02    5.5875178785224175E+00   -5.8289659009538941E-01
N    2.1283842123678599E-02    7.4657790071904921E+00    5.5940926107308231E-01
Ga    2.1899053338131375E-02    7.4410447386745133E+00    2.5957370164795588E+00
N    1.3681681715079672E-02    5.6008807857564893E+00    3.2345962933743779E+00
Ga    1.4337311145418719E-02    5.6045760188322600E+00    5.2240543986439532E+00
N    2.2007265820717995E-02    7.4775386678954945E+00    5.8105237471664104E+00
Ga    2.0859974570567732E-02    7.4720896629545406E+00    7.8097334803406557E+00
N    1.7408041429487556E-02    5.5997750798958350E+00    8.4083498473507117E+00
Ga    1.9825714173568491E-02    5.6023024304676952E+00    1.0404688139427783E+01
N    2.2343236563209117E-02    7.4715942313400268E+00    1.1011453070312077E+01
Ga    1.8824531695471731E-02    7.4690495440158546E+00    1.3008002669599460E+01
N    1.8823725633765779E-02    5.6022300030672723E+00    1.3625577735557087E+01
Ga    1.3675917083206045E-02    5.5919365168763768E+00    1.5633826016866340E+01
N    2.3593316955791786E-02    7.4728570283127542E+00    1.6220118900361843E+01
Ga    3.4552351686313501E-02    7.4744454884047213E+00    1.8293474712648923E+01
N    1.6255820625126528E-02    5.5787764395534971E+00    1.8673484724780661E+01
Ga    6.4919647291583154E+00   -6.0200672223026672E-03    2.7745149249465118E-01
N    6.5073371140334517E+00    1.8642650970714079E+00    5.7097448395175143E-01
Ga    6.4789459812665440E+00    1.8813821547116525E+00    2.6051910794871795E+00
N    6.4991174902883291E+00   -3.0898035177423446E-03    3.1885855930675375E+00
Ga    6.4989313217409128E+00    1.0189861273439730E-03    5.2021364511264077E+00
N    6.5090020349552606E+00    1.8707729886247797E+00    5.8081292548864347E+00
Ga    6.5058201607673913E+00    1.8680682250414606E+00    7.8083675088382511E+00
N    6.4983610261417661E+00   -1.4577773948841238E-03    8.4112228315457003E+00
Ga    6.4996970212287470E+00    1.2078904248176909E-03    1.0407956559453485E+01
N    6.5052466420364325E+00    1.8718103889713911E+00    1.1011810273691614E+01
Ga    6.5048055137467236E+00    1.8714744895424251E+00    1.3006931138092057E+01
N    6.4970757619427104E+00   -3.2730807656563862E-03    1.3600349448977600E+01
Ga    6.4816662373325098E+00   -1.9028245444180341E-02    1.5598741168798998E+01
N    6.4971980262311124E+00    1.8561901118251880E+00    1.6171946121829315E+01
Ga    6.5129893635312852E+00    1.8827470850217631E+00    1.8224286610709328E+01
N    6.5034026595284304E+00   -8.7744002000993875E-04    1.8639603167218006E+01
Ga    4.8819265236769587E+00    2.7978937539689337E+00   -5.4736407518792130E-01
N    4.8833317284976783E+00    4.6647564368219712E+00    5.6853218045731391E-01
Ga    4.8849775746488966E+00    4.6425678214703714E+00    2.6054422418187286E+00
N    4.8790945194712991E+00    2.7983439668345613E+00    3.2336420911614305E+00
Ga    4.8811923984891550E+00    2.8020280545590119E+00    5.2276562520405605E+00
N    4.8869006743952728E+00    4.6757904747352308E+00    5.8105910896402460E+00
Ga    4.8856758206151865E+00    4.6714350071872781E+00    7.8102882591261311E+00
N    4.8801391447988678E+00    2.7986144971484785E+00    8.4104641184817837E+00
Ga    4.8813307938057600E+00    2.7998678014199747E+00    1.0407496896054862E+01
N    4.8908904782262299E+00    4.6698529260625046E+00    1.1012469379430861E+01
Ga    4.8901956745223591E+00    4.6674023424628768E+00    1.3008005454660298E+01
N    4.8733070496235440E+00    2.7900033465382772E+00    1.3608867025667255E+01
Ga    4.8604161430799477E+00    2.7741318140487090E+00    1.5609556928733706E+01
N    4.8826188270441868E+00    4.6535460938369901E+00    1.6160295875915811E+01
Ga    4.8946420212625608E+00    4.6893146140220177E+00    1.8209956277357552E+01
N    4.8837354348097213E+00    2.8024078605203084E+00    1.8613546073722475E+01
Ga    3.2573053365880091E+00    5.5959528499208204E+00    2.7149903841971468E-01
N    3.2633754926177732E+00    7.4677946516932971E+00    5.5224164602546033E-01
Ga    3.2952248730836620E+00    7.4857399940142875E+00    2.5878040206293580E+00
N    3.2631717140882213E+00    5.6046790399287483E+00    3.1903097936492446E+00
Ga    3.2654459227645449E+00    5.6056589786055433E+00    5.2001799278142560E+00
N    3.2689256746969200E+00    7.4723141328082088E+00    5.8088593469437377E+00
Ga    3.2693349217214367E+00    7.4686779314752938E+00    7.8074035028457924E+00
N    3.2629105458999503E+00    5.6004074563730839E+00    8.4149901258068436E+00
Ga    3.2660304600556445E+00    5.6024681676851280E+00    1.0411011156265131E+01
N    3.2730884618209446E+00    7.4740435772575200E+00    1.1013127660132250E+01
Ga    3.2740072474803275E+00    7.4755668193274838E+00    1.3007591510770691E+01
N    3.2681694669525667E+00    5.6004521776258995E+00    1.3600549804149360E+01
Ga    3.2569168164240496E+00    5.5848851582679861E+00    1.5595984540804499E+01
N    3.2543711073713104E+00    7.4571472608907277E+00    1.6183808656685205E+01
Ga    3.2834896408341687E+00    7.5007377672147948E+00    1.8247301286725804E+01
N    3.2734548865882114E+00    5.6086680190340408E+00    1.8623450081610798E+01
     &END COORD
     &KIND N
       BASIS_SET DZVP-MOLOPT-SR-GTH
       POTENTIAL GTH-PBE-q5
       &POTENTIAL
 2 3
  0.2837905100000000E+00 2 -0.1241522559000000E+02  0.1868095920000000E+01
 2
  0.2554050000000000E+00 1  0.1363026257000000E+02
  0.2454945300000000E+00 0
         # Potential name:  GTH-PBE-Q5  for symbol:  N
         # Potential read from the potential filename: GTH_POTENTIALS
       &END POTENTIAL
     &END KIND
     &KIND Ga
       BASIS_SET DZVP-MOLOPT-SR-GTH
       POTENTIAL GTH-PBE-q13
       &POTENTIAL
 2 1 10
  0.4900000000000000E+00 0
 3
  0.4167772300000000E+00 3  0.1047568975000000E+02 -0.4921768140000000E+01  0.8707055900000000E+00
  0.7770178090000000E+01 -0.2248152160000000E+01
  0.1784415450000000E+01
  0.5696265200000000E+00 2  0.1777985340000000E+01  0.1958597600000000E+00
 -0.2317443900000000E+00
  0.2381265000000000E+00 1 -0.1624868022000000E+02
         # Potential name:  GTH-PBE-Q13  for symbol:  GA
         # Potential read from the potential filename: GTH_POTENTIALS
       &END POTENTIAL
     &END KIND
     &TOPOLOGY
       COORD_FILE_NAME 334-native.xyz
       COORD_FILE_FORMAT  XYZ
       NUMBER_OF_ATOMS  144
       MULTIPLE_UNIT_CELL  1 1 1
     &END TOPOLOGY
   &END SUBSYS
 &END FORCE_EVAL
