 # Version information for this restart file 
 # current date 2019-05-16 14:34:45.199
 # current working dir /lustre03/project/6004141/rzk/GaN-carbene/00-Surface/00-Preoptimization/334-native/Trial4
 # Program compiled at                              Sun Apr  7 00:48:11 EDT 2019
 # Program compiled on                          beluga2.int.ets1.calculquebec.ca
 # Program compiled for                        Beluga-Linux-x86-64-intel-openmpi
 # Source code revision number                                         svn:18619
 &GLOBAL
   PRINT_LEVEL  MEDIUM
   PROJECT_NAME TEST
   RUN_TYPE  CELL_OPT
 &END GLOBAL
 &MOTION
   &CELL_OPT
     MAX_ITER  150
     STEP_START_VAL  105
     EXTERNAL_PRESSURE     1.0000000000000000E+00
     KEEP_ANGLES  T
     KEEP_SYMMETRY  T
     CONSTRAINT  Z
     PRESSURE_TOLERANCE     3.0000000000000000E+02
   &END CELL_OPT
 &END MOTION
 &FORCE_EVAL
   METHOD  QS
   STRESS_TENSOR  ANALYTICAL
   &DFT
     BASIS_SET_FILE_NAME BASIS_MOLOPT
     POTENTIAL_FILE_NAME GTH_POTENTIALS
     &SCF
       MAX_SCF  100
       EPS_SCF     5.0000000000000004E-06
       &OT  T
         PRECONDITIONER  FULL_ALL
       &END OT
       &OUTER_SCF  T
         OPTIMIZER  NONE
         EPS_SCF     5.0000000000000004E-06
         MAX_SCF  10
       &END OUTER_SCF
       &PRINT
         &RESTART  OFF
           BACKUP_COPIES  1
           &EACH
             JUST_ENERGY  0
             QS_SCF  0
             MD  20
           &END EACH
         &END RESTART
       &END PRINT
     &END SCF
     &ALMO_SCF
       EPS_FILTER     9.9999999999999994E-12
       ALMO_SCF_GUESS  ATOMIC
       MO_OVERLAP_INV_ALG  DENSE_CHOLESKY
       ALMO_EXTRAPOLATION_ORDER  4
       XALMO_EXTRAPOLATION_ORDER  4
       ALMO_ALGORITHM  SKIP
       XALMO_TRIAL_WF  SIMPLE
       DELOCALIZE_METHOD  XALMO_SCF
       XALMO_R_CUTOFF_FACTOR     1.8000000000000000E+00
       &ALMO_OPTIMIZER_DIIS
         MAX_ITER  100
         EPS_ERROR     1.0000000000000001E-05
         N_DIIS  5
       &END ALMO_OPTIMIZER_DIIS
       &ALMO_OPTIMIZER_PCG
         MAX_ITER  50
         EPS_ERROR     1.0000000000000001E-05
         LIN_SEARCH_EPS_ERROR     5.0000000000000003E-02
         LIN_SEARCH_STEP_SIZE_GUESS     5.0000000000000001E-03
         CONJUGATOR  DAI_YUAN
         MAX_ITER_OUTER_LOOP  10
       &END ALMO_OPTIMIZER_PCG
       &XALMO_OPTIMIZER_PCG
         MAX_ITER  1000
         EPS_ERROR     1.0000000000000001E-05
         LIN_SEARCH_EPS_ERROR     1.0000000000000001E-01
         LIN_SEARCH_STEP_SIZE_GUESS     1.0000000000000000E-02
         CONJUGATOR  DAI_YUAN
         PRECOND_FILTER_THRESHOLD     1.0000000000000000E-03
         MAX_ITER_OUTER_LOOP  0
       &END XALMO_OPTIMIZER_PCG
       &MATRIX_ITERATE
         EPS_TARGET_FACTOR     1.0000000000000000E+01
       &END MATRIX_ITERATE
     &END ALMO_SCF
     &QS
       EPS_DEFAULT     1.0000000000000000E-14
       ALMO_SCF  F
       METHOD  GPW
     &END QS
     &MGRID
       NGRIDS  5
       CUTOFF     1.2000000000000000E+03
     &END MGRID
     &XC
       DENSITY_CUTOFF     1.0000000000000000E-10
       GRADIENT_CUTOFF     1.0000000000000000E-10
       TAU_CUTOFF     1.0000000000000000E-10
       &XC_FUNCTIONAL  NO_SHORTCUT
         &PBE  T
         &END PBE
       &END XC_FUNCTIONAL
       &VDW_POTENTIAL
         POTENTIAL_TYPE  PAIR_POTENTIAL
         &PAIR_POTENTIAL
           R_CUTOFF     1.0000000000000004E+01
           TYPE  DFTD3
           PARAMETER_FILE_NAME dftd3.dat
           REFERENCE_FUNCTIONAL PBE
           EPS_CN     9.9999999999999995E-07
           CALCULATE_C9_TERM  T
           REFERENCE_C9_TERM  T
           LONG_RANGE_CORRECTION  F
           VERBOSE_OUTPUT  F
         &END PAIR_POTENTIAL
       &END VDW_POTENTIAL
     &END XC
   &END DFT
   &SUBSYS
     &CELL
       A     9.7419507488531263E+00    0.0000000000000000E+00    0.0000000000000000E+00
       B    -4.8561159349664109E+00    8.4110395268066167E+00    0.0000000000000000E+00
       C     0.0000000000000000E+00    0.0000000000000000E+00    3.0744000000000000E+01
       MULTIPLE_UNIT_CELL  1 1 1
       &CELL_REF
         A     9.5580000000000034E+00    0.0000000000000000E+00    0.0000000000000000E+00
         B    -4.7790000000000017E+00    8.2774708093716640E+00    0.0000000000000000E+00
         C     0.0000000000000000E+00    0.0000000000000000E+00    3.0744000000000000E+01
         MULTIPLE_UNIT_CELL  1 1 1
       &END CELL_REF
     &END CELL
     &COORD
Ga    1.2083298121303150E-03   -1.2116122574407870E-04   -5.8995591952146664E-01
N    5.6513212296116699E-03    1.8729445883653635E+00    5.6593956988363991E-01
Ga    4.5165523415382526E-03    1.8395599708555612E+00    2.5955732979067592E+00
N   -3.4777509153881373E-04   -3.1235722074714617E-03    3.2291150505400581E+00
Ga    2.6917222735305498E-04   -3.2644742574458527E-03    5.2202142504011979E+00
N    4.5729712878440692E-03    1.8713081750351748E+00    5.8066230757000659E+00
Ga    3.5720696938726965E-03    1.8681748369393680E+00    7.8058170143337424E+00
N   -6.6743212986191509E-04   -5.1058846938528673E-03    8.4080218426111539E+00
Ga   -1.3796568521510767E-04   -4.2733606978452368E-03    1.0406046233259559E+01
N    4.1809802233792274E-03    1.8675526231164166E+00    1.1010742266926975E+01
Ga    3.6061105929152404E-03    1.8729501900929586E+00    1.3005033121866724E+01
N   -5.9577465919157207E-04    3.2131269532285713E-03    1.3610286907243259E+01
Ga   -7.4251420630342497E-03    1.3444645524165846E-02    1.5613190359406381E+01
N    1.6465683504303414E-03    1.8835943138893199E+00    1.6256659410097210E+01
Ga    1.4961820092079718E-02    1.9065583779661257E+00    1.8365575825165312E+01
N    3.0817853567537854E-03    1.0734174962405632E-02    1.8662366607006881E+01
Ga   -1.6163345365768367E+00    2.8023970417002277E+00    2.8016072083646226E-01
N   -1.6190208625312168E+00    4.6712384267154912E+00    5.6476878294315791E-01
Ga   -1.5903135897179148E+00    4.6861303521747866E+00    2.5945760002418949E+00
N   -1.6187630990250079E+00    2.8007733207003733E+00    3.1867887188466932E+00
Ga   -1.6183870722333378E+00    2.8007787023999282E+00    5.1979814703034375E+00
N   -1.6169021930436960E+00    4.6704619137076842E+00    5.8066674655196913E+00
Ga   -1.6166568050277632E+00    4.6687745452964169E+00    7.8060315416988590E+00
N   -1.6199593431802857E+00    2.7983984262216262E+00    8.4110974603183397E+00
Ga   -1.6193070214682925E+00    2.7988598540957148E+00    1.0407275859297698E+01
N   -1.6111012481296678E+00    4.6694033900991707E+00    1.1014350908463346E+01
Ga   -1.6071524424260848E+00    4.6681773772178552E+00    1.3010368873873583E+01
N   -1.6176757092129534E+00    2.7992756341301877E+00    1.3623593471812734E+01
Ga   -1.6243022600549533E+00    2.7954442143924716E+00    1.5631547159878195E+01
N   -1.6239914811830007E+00    4.6770328127758276E+00    1.6217058362189039E+01
Ga   -1.6110303384265066E+00    4.6786690003855833E+00    1.8297781607116882E+01
N   -1.6218111378525004E+00    2.8138930965373228E+00    1.8736809185507862E+01
Ga   -3.2367246110211711E+00    5.6073578408106632E+00    2.7977422346653141E-01
N   -3.2287794887971994E+00    7.4764313557481010E+00    5.6513970659344226E-01
Ga   -3.2579907078171870E+00    7.4903012559777062E+00    2.5952230743957094E+00
N   -3.2375236452539307E+00    5.6048816934921248E+00    3.1873470691129597E+00
Ga   -3.2373323740034015E+00    5.6049254878464128E+00    5.1984578909779442E+00
N   -3.2298522091986066E+00    7.4738989392154354E+00    5.8078698986669872E+00
Ga   -3.2316569484167816E+00    7.4720248126439079E+00    7.8074359351888649E+00
N   -3.2379386409635522E+00    5.6016555130112442E+00    8.4144422672431602E+00
Ga   -3.2371600962084539E+00    5.6020105546074417E+00    1.0412403477468583E+01
N   -3.2336333332911136E+00    7.4751553681521283E+00    1.1013916841831710E+01
Ga   -3.2329342910652032E+00    7.4781859316813799E+00    1.3010432925541872E+01
N   -3.2354365691525730E+00    5.5996711607625649E+00    1.3595692736577279E+01
Ga   -3.2418466611992085E+00    5.5998855546375577E+00    1.5589418977325773E+01
N   -3.2414865505292156E+00    7.4745668964519076E+00    1.6160596210512981E+01
Ga   -3.2458431900038947E+00    7.4939835701074911E+00    1.8211042034801515E+01
N   -3.2478573382209301E+00    5.6163268075786652E+00    1.8612728061028914E+01
Ga    3.2485217341346839E+00   -3.3437853322977333E-03    2.7975505403256584E-01
N    3.2487525104047328E+00    1.8682518611950838E+00    5.6456688116458120E-01
Ga    3.2749720506787878E+00    1.8820219679170913E+00    2.5979180321508868E+00
N    3.2471461669598778E+00   -3.2074753882265043E-03    3.1865218827874275E+00
Ga    3.2472840495490045E+00   -3.3716958299980513E-03    5.1977036465517452E+00
N    3.2490203823842183E+00    1.8664391805181868E+00    5.8060587472780707E+00
Ga    3.2491824590161551E+00    1.8644746286400102E+00    7.8056096798327275E+00
N    3.2468747813907535E+00   -5.5128333433549477E-03    8.4124478545909973E+00
Ga    3.2472176138855260E+00   -5.1694209430753410E-03    1.0409551293560909E+01
N    3.2498980553073906E+00    1.8664209703815111E+00    1.1014199734656847E+01
Ga    3.2458539553513934E+00    1.8649977963112714E+00    1.3011194221658563E+01
N    3.2469979973012451E+00   -4.1673550782152201E-03    1.3623830113383086E+01
Ga    3.2496501323575355E+00    1.2640338911144026E-04    1.5628082476331311E+01
N    3.2305820514566768E+00    1.8809638061167013E+00    1.6212874047944467E+01
Ga    3.2441871553897093E+00    1.8960364850724036E+00    1.8285654306771129E+01
N    3.2404147855158230E+00   -1.8478655370770792E-03    1.8577456574020012E+01
Ga    1.6272731130040456E+00    2.8032749165396496E+00    2.7906921720072275E-01
N    1.6383749167557051E+00    4.6721921623639080E+00    5.6392455124211727E-01
Ga    1.6085793245661695E+00    4.6864506655839389E+00    2.5940573053039886E+00
N    1.6281493478340052E+00    2.8011394536455558E+00    3.1867809190413023E+00
Ga    1.6283909754761701E+00    2.8009957736640287E+00    5.1978900111933735E+00
N    1.6359175410448514E+00    4.6705988750117680E+00    5.8066914692329377E+00
Ga    1.6339178173826212E+00    4.6690102537123463E+00    7.8060099109260888E+00
N    1.6279137675545094E+00    2.7985053782830391E+00    8.4105047234535935E+00
Ga    1.6281072661644229E+00    2.7993394653246422E+00    1.0406671494304772E+01
N    1.6292545339222662E+00    4.6699049567798268E+00    1.1013512107007450E+01
Ga    1.6232492829967491E+00    4.6688176227207032E+00    1.3009221072253654E+01
N    1.6246596901955996E+00    2.7999310769329733E+00    1.3618763538813191E+01
Ga    1.6197655697101543E+00    2.8010576272084142E+00    1.5625937009634177E+01
N    1.6361045451960678E+00    4.6769530057741413E+00    1.6211067823288612E+01
Ga    1.6519306849421769E+00    4.6798150195386210E+00    1.8290710056136362E+01
N    1.6359125408018418E+00    2.8160262958247642E+00    1.8747621553554634E+01
Ga    1.0115984005424239E-02    5.6063243521290325E+00   -5.8861330098221298E-01
N    1.5706689778191996E-02    7.4808290147400065E+00    5.6459422708764495E-01
Ga    1.4623489524466063E-02    7.4473207492530946E+00    2.5944538590566673E+00
N    9.5300871557143924E-03    5.6041339105725791E+00    3.2272936010480717E+00
Ga    9.9907863167235586E-03    5.6044297133336896E+00    5.2183489995762029E+00
N    1.4581524308770855E-02    7.4786395669879306E+00    5.8060209192748005E+00
Ga    1.3412938186618319E-02    7.4750727686695173E+00    7.8052635743144831E+00
N    8.9090304965269117E-03    5.6023822969964083E+00    8.4073234725675654E+00
Ga    9.3350290570362784E-03    5.6040890109571677E+00    1.0404811784104240E+01
N    1.3976720737799405E-02    7.4732448077273377E+00    1.1016983583071717E+01
Ga    1.3110037388974790E-02    7.4734868399380909E+00    1.3016349302658883E+01
N    7.2846185915184502E-03    5.6064150389054479E+00    1.3635335989457278E+01
Ga    4.1244596234108876E-03    5.6154205923106968E+00    1.5646722565113825E+01
N    1.1333820058961839E-02    7.4895519410394886E+00    1.6217204141920032E+01
Ga    2.5149159100334280E-02    7.4791990032748661E+00    1.8279137985060633E+01
N    1.4838253884257602E-02    5.5936549573171064E+00    1.8644202267562036E+01
Ga    6.4947285793871572E+00   -2.2562996730422966E-03    2.7897349479559530E-01
N    6.5023581555893424E+00    1.8693874200900202E+00    5.6424465030448978E-01
Ga    6.4752101769071304E+00    1.8822432036990211E+00    2.5977641376521161E+00
N    6.4946593938741168E+00   -3.0421720839916531E-03    3.1868208060894592E+00
Ga    6.4951931984867386E+00   -3.2649009818171357E-03    5.1979195088128023E+00
N    6.5019214453685876E+00    1.8665301119477136E+00    5.8061786180118347E+00
Ga    6.4999250194326752E+00    1.8645534434809967E+00    7.8056498692411198E+00
N    6.4932667765509127E+00   -5.5999114649183642E-03    8.4118360518035313E+00
Ga    6.4939410529853721E+00   -5.3507886547999499E-03    1.0409016308158694E+01
N    6.5005064627623836E+00    1.8657861402925700E+00    1.1015626812752686E+01
Ga    6.5041171597538323E+00    1.8635368585560863E+00    1.3013477507198788E+01
N    6.4935022303694607E+00   -7.2378934852824735E-03    1.3622756476528123E+01
Ga    6.4832355059813818E+00   -7.9428037836952181E-03    1.5626171805271085E+01
N    6.5102138317916118E+00    1.8714112113591692E+00    1.6210834135757764E+01
Ga    6.5227170692334528E+00    1.8962217021175967E+00    1.8281850938124339E+01
N    6.5076496977203213E+00   -1.0918536203157600E-04    1.8584953663641159E+01
Ga    4.8762039087673230E+00    2.8028819443785791E+00   -5.5278877076799127E-01
N    4.8815859090084741E+00    4.6754555652205090E+00    5.6542230849131325E-01
Ga    4.8802496856527124E+00    4.6448870522831669E+00    2.5985748602170227E+00
N    4.8754867081949360E+00    2.8006723699972440E+00    3.2279947415638248E+00
Ga    4.8759294744874406E+00    2.8009318427141450E+00    5.2198870999142084E+00
N    4.8805529678154675E+00    4.6751477150503167E+00    5.8079410199756785E+00
Ga    4.8795813352763346E+00    4.6710454621786202E+00    7.8083017493262705E+00
N    4.8750107838758971E+00    2.7969617749409150E+00    8.4087236712489233E+00
Ga    4.8758798978137428E+00    2.7956820518203314E+00    1.0407238326208356E+01
N    4.8805392476631235E+00    4.6657022176805842E+00    1.1012681385877096E+01
Ga    4.8805951434807291E+00    4.6600239600720990E+00    1.3008345166717337E+01
N    4.8750152260813859E+00    2.7836131165422020E+00    1.3618997960317756E+01
Ga    4.8693383114804485E+00    2.7782308752883198E+00    1.5622698640339339E+01
N    4.8743116733298502E+00    4.6685742493767695E+00    1.6134288301975250E+01
Ga    4.8887179325090973E+00    4.6889966453208878E+00    1.8177981481247542E+01
N    4.8798336042892814E+00    2.8151844205337051E+00    1.8599811386738747E+01
Ga    3.2577450748404808E+00    5.6065565760266649E+00    2.7978602850952095E-01
N    3.2581218242164911E+00    7.4755671229929224E+00    5.6511877626949036E-01
Ga    3.2862121070964943E+00    7.4902367079482044E+00    2.5951934777510686E+00
N    3.2568004766180354E+00    5.6049221560880351E+00    3.1871915800296473E+00
Ga    3.2574012190984316E+00    5.6049191814315931E+00    5.1984823654081733E+00
N    3.2592232745382983E+00    7.4739588381657098E+00    5.8078071247886554E+00
Ga    3.2591311237741873E+00    7.4718826934374754E+00    7.8074069221169893E+00
N    3.2561871517947520E+00    5.6015679910717777E+00    8.4144892271412886E+00
Ga    3.2566387956394873E+00    5.6020012706571185E+00    1.0412507012669577E+01
N    3.2622362545331165E+00    7.4753785975133065E+00    1.1012716362660282E+01
Ga    3.2615085104936261E+00    7.4777969081065176E+00    1.3008906613177009E+01
N    3.2536230829950465E+00    5.5987527380999014E+00    1.3590753554945303E+01
Ga    3.2478659419107037E+00    5.6012543935635266E+00    1.5584275445587650E+01
N    3.2663047980116189E+00    7.4704371051917056E+00    1.6163452274677361E+01
Ga    3.2891953653539105E+00    7.4958554678000224E+00    1.8214778061092069E+01
N    3.2755219246449019E+00    5.6188670516509776E+00    1.8616028080827334E+01
     &END COORD
     &KIND N
       BASIS_SET DZVP-MOLOPT-SR-GTH
       POTENTIAL GTH-PBE-q5
       &POTENTIAL
2 3
0.2837905100000000E+00 2 -0.1241522559000000E+02  0.1868095920000000E+01
2
0.2554050000000000E+00 1  0.1363026257000000E+02
0.2454945300000000E+00 0
       &END POTENTIAL
     &END KIND
     &KIND Ga
       BASIS_SET DZVP-MOLOPT-SR-GTH
       POTENTIAL GTH-PBE-q13
       &POTENTIAL
2 1 10
0.4900000000000000E+00 0
3
0.4167772300000000E+00 3  0.1047568975000000E+02 -0.4921768140000000E+01  0.8707055900000000E+00
0.7770178090000000E+01 -0.2248152160000000E+01
0.1784415450000000E+01
0.5696265200000000E+00 2  0.1777985340000000E+01  0.1958597600000000E+00
-0.2317443900000000E+00
0.2381265000000000E+00 1 -0.1624868022000000E+02
       &END POTENTIAL
     &END KIND
     &TOPOLOGY
       COORD_FILE_NAME 334-native.xyz
       COORD_FILE_FORMAT  XYZ
       NUMBER_OF_ATOMS  144
       MULTIPLE_UNIT_CELL  1 1 1
     &END TOPOLOGY
   &END SUBSYS
 &END FORCE_EVAL
