 # Version information for this restart file 
 # current date 2019-05-24 01:47:32.644
 # current working dir /lustre03/project/6004141/rzk/GaN-carbene/01-Methanol/01-CH3-ads
 # Program compiled at                              Sun Apr  7 00:48:11 EDT 2019
 # Program compiled on                          beluga2.int.ets1.calculquebec.ca
 # Program compiled for                        Beluga-Linux-x86-64-intel-openmpi
 # Source code revision number                                         svn:18619
 &GLOBAL
   PRINT_LEVEL  MEDIUM
   PROJECT_NAME TEST
   RUN_TYPE  GEO_OPT
 &END GLOBAL
 &MOTION
   &GEO_OPT
     MAX_ITER  500
     STEP_START_VAL  101
   &END GEO_OPT
 &END MOTION
 &FORCE_EVAL
   METHOD  QS
   STRESS_TENSOR  ANALYTICAL
   &DFT
     BASIS_SET_FILE_NAME BASIS_MOLOPT
     POTENTIAL_FILE_NAME GTH_POTENTIALS
     &SCF
       MAX_SCF  100
       EPS_SCF     5.0000000000000004E-06
       &OT  T
         PRECONDITIONER  FULL_ALL
       &END OT
       &OUTER_SCF  T
         OPTIMIZER  NONE
         EPS_SCF     5.0000000000000004E-06
         MAX_SCF  4
       &END OUTER_SCF
       &PRINT
         &RESTART  OFF
           BACKUP_COPIES  1
           &EACH
             JUST_ENERGY  0
             QS_SCF  0
             MD  20
           &END EACH
         &END RESTART
       &END PRINT
     &END SCF
     &QS
       EPS_DEFAULT     1.0000000000000000E-14
       ALMO_SCF  F
       METHOD  GPW
     &END QS
     &MGRID
       NGRIDS  5
       CUTOFF     1.2000000000000000E+03
     &END MGRID
     &XC
       DENSITY_CUTOFF     1.0000000000000000E-10
       GRADIENT_CUTOFF     1.0000000000000000E-10
       TAU_CUTOFF     1.0000000000000000E-10
       &XC_FUNCTIONAL  NO_SHORTCUT
         &PBE  T
         &END PBE
       &END XC_FUNCTIONAL
       &VDW_POTENTIAL
         POTENTIAL_TYPE  PAIR_POTENTIAL
         &PAIR_POTENTIAL
           R_CUTOFF     1.0000000000000005E+01
           TYPE  DFTD3
           PARAMETER_FILE_NAME dftd3.dat
           REFERENCE_FUNCTIONAL PBE
           EPS_CN     9.9999999999999995E-07
           CALCULATE_C9_TERM  T
           REFERENCE_C9_TERM  T
           LONG_RANGE_CORRECTION  F
           VERBOSE_OUTPUT  F
         &END PAIR_POTENTIAL
       &END VDW_POTENTIAL
     &END XC
   &END DFT
   &SUBSYS
     &CELL
       A     9.7367653356401487E+00    0.0000000000000000E+00    0.0000000000000000E+00
       B    -4.8591341382960209E+00    8.4162672083210595E+00    0.0000000000000000E+00
       C     0.0000000000000000E+00    0.0000000000000000E+00    3.0744000000000000E+01
       MULTIPLE_UNIT_CELL  1 1 1
       &CELL_REF
         A     9.5580000000000052E+00    0.0000000000000000E+00    0.0000000000000000E+00
         B    -4.7790000000000026E+00    8.2774708093716640E+00    0.0000000000000000E+00
         C     0.0000000000000000E+00    0.0000000000000000E+00    3.0744000000000000E+01
         MULTIPLE_UNIT_CELL  1 1 1
       &END CELL_REF
     &END CELL
     &COORD
Ga   -4.5852581429362028E-02   -6.2358409239986680E-02   -5.3697075751362722E-01
N   -4.3908787926247951E-02    1.8108217997395279E+00    6.0929500958206673E-01
Ga   -4.6327157269121289E-02    1.7790584536191687E+00    2.6388721973359326E+00
N   -5.0043983724973172E-02   -6.4532312561860886E-02    3.2701780906924900E+00
Ga   -5.3151152660927216E-02   -6.4351688907519036E-02    5.2601592766242895E+00
N   -5.0765837096274712E-02    1.8100996539878524E+00    5.8473461399032560E+00
Ga   -5.4656817789519418E-02    1.8069985369611212E+00    7.8463507791409697E+00
N   -5.7843956173785932E-02   -6.6804093842945167E-02    8.4456174440454976E+00
Ga   -6.2414070016284233E-02   -6.6426116592613590E-02    1.0442222441843755E+01
N   -5.9645986718807477E-02    1.8021256913462220E+00    1.1051093152345455E+01
Ga   -6.1830237052352049E-02    1.7951252829545687E+00    1.3050767789949553E+01
N   -6.3795626042089035E-02   -7.9027401547228773E-02    1.3648118145527015E+01
Ga   -6.3799542774648971E-02   -9.6937348727175701E-02    1.5651261374366600E+01
N   -5.3377569520529314E-02    1.7783048135799844E+00    1.6213023847388659E+01
Ga   -7.1456301566476296E-02    1.7933517229174567E+00    1.8287396811490613E+01
N   -9.4809565950211908E-02   -8.5048769310372613E-02    1.8656674793488754E+01
Ga   -1.6666813419027124E+00    2.7417320005723385E+00    3.2485569142054888E-01
N   -1.6673629821910430E+00    4.6118767905879334E+00    6.0836168652729650E-01
Ga   -1.6416746564001949E+00    4.6265877105428928E+00    2.6381793192306540E+00
N   -1.6693600302084624E+00    2.7408791671160326E+00    3.2289483808410431E+00
Ga   -1.6726164854548207E+00    2.7410770571992877E+00    5.2398079590965692E+00
N   -1.6726907772792172E+00    4.6106780878918823E+00    5.8474947745742520E+00
Ga   -1.6764649146444410E+00    4.6093934864015296E+00    7.8464775914508600E+00
N   -1.6778161117539343E+00    2.7384600941072450E+00    8.4501465661085522E+00
Ga   -1.6804052061328452E+00    2.7369083184867935E+00    1.0446222591900121E+01
N   -1.6805002226581531E+00    4.6090348542104103E+00    1.1047010748052585E+01
Ga   -1.6804106639571981E+00    4.6025588629744689E+00    1.3041584186485924E+01
N   -1.6833763445676873E+00    2.7324506076506152E+00    1.3645247160277268E+01
Ga   -1.6797464261707711E+00    2.7263761153542201E+00    1.5653340468088217E+01
N   -1.7085746873442993E+00    4.6060475943651218E+00    1.6216609743370359E+01
Ga   -1.6679256337621162E+00    4.5689415602552783E+00    1.8235593250474082E+01
N   -1.6866547564023731E+00    2.7220652280449409E+00    1.8720442637672861E+01
Ga   -3.2868839953571345E+00    5.5474982164823823E+00    3.2554283204323953E-01
N   -3.2806919054136534E+00    7.4181210237602153E+00    6.0926178349841409E-01
Ga   -3.3104909479009557E+00    7.4321974782548841E+00    2.6389433987040913E+00
N   -3.2892537189453526E+00    5.5461478516337657E+00    3.2294435175987761E+00
Ga   -3.2926150173074928E+00    5.5459395692465216E+00    5.2406592998906616E+00
N   -3.2872139977227941E+00    7.4165022761276287E+00    5.8466029551682377E+00
Ga   -3.2923345694802673E+00    7.4155203721471832E+00    7.8456398765949498E+00
N   -3.2982336692173888E+00    5.5444812030085435E+00    8.4474718212221696E+00
Ga   -3.3012571553399628E+00    5.5435595461826059E+00    1.0441964006211558E+01
N   -3.2983243186509807E+00    7.4157896844698987E+00    1.1044850606723275E+01
Ga   -3.3000247128884594E+00    7.4165579572818539E+00    1.3037457494594712E+01
N   -3.3132329660310491E+00    5.5393475615481806E+00    1.3622972713252802E+01
Ga   -3.3108056080596104E+00    5.5345094268526731E+00    1.5603667913202866E+01
N   -3.3041898270896022E+00    7.3777323514091426E+00    1.6264673940410919E+01
Ga   -3.3256886334208144E+00    7.4075534295675656E+00    1.8297553648221935E+01
N   -3.3234907655133559E+00    5.4981884845317177E+00    1.8825009126235042E+01
Ga    3.1992115920438846E+00   -6.3413540112747122E-02    3.2473560636505311E-01
N    3.1976482010726652E+00    1.8066779694073611E+00    6.0797248489891720E-01
Ga    3.2234993928010889E+00    1.8211904151104574E+00    2.6383590499396767E+00
N    3.1962171059769262E+00   -6.4517039277775662E-02    3.2285061152940782E+00
Ga    3.1926003021893035E+00   -6.4613842609907171E-02    5.2391727698362853E+00
N    3.1919691178432510E+00    1.8050980318576173E+00    5.8464174710993202E+00
Ga    3.1881849926533605E+00    1.8035624122444398E+00    7.8447333338583878E+00
N    3.1879797699576025E+00   -6.6321178710067125E-02    8.4503461455122206E+00
Ga    3.1847076300327997E+00   -6.7043280280678880E-02    1.0444983949510290E+01
N    3.1876417356825963E+00    1.8017835082347415E+00    1.1055332840529342E+01
Ga    3.1846513655210895E+00    1.7923557447433813E+00    1.3054009717403945E+01
N    3.1741127975792165E+00   -7.5055167315312948E-02    1.3679107210282538E+01
Ga    3.1696300772642299E+00   -8.8441939136831307E-02    1.5694759326231489E+01
N    3.2076759975191433E+00    1.7993160803780015E+00    1.6241837537929857E+01
Ga    3.1778459833861126E+00    1.7804756694405741E+00    1.8305530127262045E+01
N    3.1524660223878551E+00   -9.3248945087296364E-02    1.8668960244721017E+01
Ga    1.5786030854835782E+00    2.7425679438516783E+00    3.2504449449930006E-01
N    1.5848759828404801E+00    4.6126172347728511E+00    6.0799566819209760E-01
Ga    1.5546334301304059E+00    4.6270492515763948E+00    2.6376545206291357E+00
N    1.5764764862257274E+00    2.7412014441874950E+00    3.2291782767389727E+00
Ga    1.5723861105463870E+00    2.7414610482473560E+00    5.2401267707582164E+00
N    1.5773787542714106E+00    4.6109984324024698E+00    5.8486852169741272E+00
Ga    1.5712741059133586E+00    4.6093619386144926E+00    7.8481024957864829E+00
N    1.5680911011016072E+00    2.7381014606728620E+00    8.4518034238727004E+00
Ga    1.5638929946570663E+00    2.7344768437243498E+00    1.0449088750645730E+01
N    1.5612558298698518E+00    4.6080638458845664E+00    1.1045956700395260E+01
Ga    1.5523316646508472E+00    4.5994088704795573E+00    1.3039833437227502E+01
N    1.5632501544199020E+00    2.7285704005402942E+00    1.3646612190831950E+01
Ga    1.5686463873040108E+00    2.7211001533778658E+00    1.5650470292199135E+01
N    1.5763510176887892E+00    4.5998167752875840E+00    1.6210412895616674E+01
Ga    1.5294971664981851E+00    4.5835490273831381E+00    1.8223978740619820E+01
N    1.5535941189820748E+00    2.7276660082351900E+00    1.8641593026936498E+01
Ga   -4.0011267331111766E-02    5.5470889660006879E+00   -5.4312726457069593E-01
N   -3.7837875757065667E-02    7.4211960611710373E+00    6.0773756042575300E-01
Ga   -4.0360926904104179E-02    7.3891322437493390E+00    2.6374592306118743E+00
N   -4.3570588303113181E-02    5.5460835616252533E+00    3.2702436012694034E+00
Ga   -4.7071671288438303E-02    5.5460220483409319E+00    5.2601173009078384E+00
N   -4.4418922472863602E-02    7.4208746899668094E+00    5.8467190737636159E+00
Ga   -4.8875291814068703E-02    7.4184830859869164E+00    7.8449056540728854E+00
N   -5.3032949486921527E-02    5.5460661915473857E+00    8.4473941856216186E+00
Ga   -5.8681783087004710E-02    5.5453678316139685E+00    1.0444560929567402E+01
N   -5.4916554675340561E-02    7.4159418308465916E+00    1.1057251042559916E+01
Ga   -6.0636600410191741E-02    7.4144232072729466E+00    1.3055887106977012E+01
N   -6.4277622736499701E-02    5.5412917412599922E+00    1.3654289595801796E+01
Ga   -6.6452584325545766E-02    5.5319622332629033E+00    1.5661635395556912E+01
N   -3.9087341437991356E-02    7.4108701382907078E+00    1.6257581563368106E+01
Ga   -6.4306974539513242E-02    7.4134725666600652E+00    1.8343700908385983E+01
N   -7.1628438586444756E-02    5.5252129459602930E+00    1.8623215024311211E+01
Ga    6.4434823650939643E+00   -6.3247451762008661E-02    3.2484371006996632E-01
N    6.4497394985283760E+00    1.8069487059663298E+00    6.0723008926916866E-01
Ga    6.4203745426399612E+00    1.8214367638260203E+00    2.6375390697439802E+00
N    6.4415985061981358E+00   -6.4422176247826618E-02    3.2283076450343975E+00
Ga    6.4384905883874648E+00   -6.4405693986493526E-02    5.2393765847468154E+00
N    6.4435794251244323E+00    1.8055060098288509E+00    5.8470348462904260E+00
Ga    6.4379237874268105E+00    1.8035485812229552E+00    7.8457367128604840E+00
N    6.4323026605265623E+00   -6.6850589207971406E-02    8.4505332280088155E+00
Ga    6.4268271033384039E+00   -6.7440888472927757E-02    1.0446518701893037E+01
N    6.4313493273290190E+00    1.8038744019499640E+00    1.1047390465245854E+01
Ga    6.4344802150994438E+00    1.8004625721173835E+00    1.3041480369097533E+01
N    6.4233328570433263E+00   -6.7728092241325824E-02    1.3655695440899368E+01
Ga    6.4327779970414039E+00   -8.2983543600214427E-02    1.5661454982679464E+01
N    6.4309999287507358E+00    1.8007477390792475E+00    1.6264638573796116E+01
Ga    6.4353560687587343E+00    1.7832963121219738E+00    1.8351941650837354E+01
N    6.4178342600788874E+00   -8.8350184784857622E-02    1.8724033570190159E+01
Ga    4.8240773693334287E+00    2.7430766460225517E+00   -5.4322261205973654E-01
N    4.8272654431766853E+00    4.6162997415656513E+00    6.0816992166183825E-01
Ga    4.8248201668056376E+00    4.5839928777103820E+00    2.6384158958695938E+00
N    4.8220269794980810E+00    2.7406207139143803E+00    3.2699774159894752E+00
Ga    4.8185253716448129E+00    2.7408155874047173E+00    5.2599392196237815E+00
N    4.8201018491067451E+00    4.6152792653928882E+00    5.8476492329481173E+00
Ga    4.8150404608487500E+00    4.6117541904965140E+00    7.8469239449808592E+00
N    4.8121717582832790E+00    2.7369715069615945E+00    8.4446274544145989E+00
Ga    4.8085833505386599E+00    2.7329041641098510E+00    1.0439641737955860E+01
N    4.8106460017651029E+00    4.6054109319530863E+00    1.1035553020276401E+01
Ga    4.8074369202541449E+00    4.5990812309689426E+00    1.3021948352831814E+01
N    4.8106436304803966E+00    2.7340455443012117E+00    1.3647834910546834E+01
Ga    4.8123805488905509E+00    2.7265382797693123E+00    1.5643402209950500E+01
N    4.8055262788961173E+00    4.6097749539452382E+00    1.6219748342951636E+01
Ga    4.8023345605900412E+00    4.5475513708753423E+00    1.8195375778230108E+01
N    4.7965765391655166E+00    2.7141878830189894E+00    1.8762346490993696E+01
Ga    3.2052445003966867E+00    5.5470156457988766E+00    3.2429163036456105E-01
N    3.2043372803719854E+00    7.4174362226004824E+00    6.0810636814176711E-01
Ga    3.2295157418976794E+00    7.4317664169425761E+00    2.6381466856094953E+00
N    3.2020480142991814E+00    5.5462584522391642E+00    3.2291994800907142E+00
Ga    3.1981760570085722E+00    5.5461653182820640E+00    5.2402810217453428E+00
N    3.1983941032465464E+00    7.4163048454564597E+00    5.8475968723090697E+00
Ga    3.1948165066593677E+00    7.4151961455085296E+00    7.8465096303214494E+00
N    3.1921792626370888E+00    5.5445206156128162E+00    8.4504487971357687E+00
Ga    3.1857116173060804E+00    5.5430075630640072E+00    1.0445469577692187E+01
N    3.1912427064118756E+00    7.4159037518688429E+00    1.1046741235957533E+01
Ga    3.1872502262540676E+00    7.4168058024712371E+00    1.3040902378289491E+01
N    3.1829359166750142E+00    5.5330602432994356E+00    1.3616161265954368E+01
Ga    3.1873174077460704E+00    5.5324530313702081E+00    1.5591970728427718E+01
N    3.1861064722007222E+00    7.3777854693877742E+00    1.6207498461352376E+01
Ga    3.1643137838012727E+00    7.4347838993675524E+00    1.8220031709809554E+01
N    3.1836712370753535E+00    5.5218049184879705E+00    1.8802241365493838E+01
H    3.1981030939097281E+00    5.5278762749125638E+00    1.9828909279039443E+01
H    4.9661123808831178E+00    2.9521469022978448E+00    2.0676371812236390E+01
H    4.8398878363910489E+00    2.8830057181596245E+00    2.2595850721253846E+01
C    5.0426203094110953E+00    3.4773505976000938E+00    2.1679524781786895E+01
O    5.3123341128758756E+00    4.6652808630924074E+00    2.1744198960064367E+01
H    6.3690960292108265E+00    5.4516197538107969E+00    1.9852348006737223E+01
     &END COORD
     &KIND C
       BASIS_SET DZVP-MOLOPT-SR-GTH-q4
       POTENTIAL GTH-PBE-q4
       &POTENTIAL
 2 2
  0.3384712400000000E+00 2 -0.8803673979999999E+01  0.1339210850000000E+01
 2
  0.3025757500000000E+00 1  0.9622486650000001E+01
  0.2915069400000000E+00 0
         # Potential name:  GTH-PBE-Q4  for symbol:  C
         # Potential read from the potential filename: GTH_POTENTIALS
       &END POTENTIAL
     &END KIND
     &KIND O
       BASIS_SET DZVP-MOLOPT-SR-GTH-q6
       POTENTIAL GTH-PBE-q6
       &POTENTIAL
 2 4
  0.2445543000000000E+00 2 -0.1666721480000000E+02  0.2487311320000000E+01
 2
  0.2209559200000000E+00 1  0.1833745811000000E+02
  0.2113324700000000E+00 0
         # Potential name:  GTH-PBE-Q6  for symbol:  O
         # Potential read from the potential filename: GTH_POTENTIALS
       &END POTENTIAL
     &END KIND
     &KIND H
       BASIS_SET DZVP-MOLOPT-SR-GTH-q1
       POTENTIAL GTH-PBE-q1
       &POTENTIAL
 1
  0.2000000000000000E+00 2 -0.4178900440000000E+01  0.7244633100000000E+00
 0
         # Potential name:  GTH-PBE-Q1  for symbol:  H
         # Potential read from the potential filename: GTH_POTENTIALS
       &END POTENTIAL
     &END KIND
     &KIND N
       BASIS_SET DZVP-MOLOPT-SR-GTH-q5
       POTENTIAL GTH-PBE-q5
       &POTENTIAL
 2 3
  0.2837905100000000E+00 2 -0.1241522559000000E+02  0.1868095920000000E+01
 2
  0.2554050000000000E+00 1  0.1363026257000000E+02
  0.2454945300000000E+00 0
         # Potential name:  GTH-PBE-Q5  for symbol:  N
         # Potential read from the potential filename: GTH_POTENTIALS
       &END POTENTIAL
     &END KIND
     &KIND Ga
       BASIS_SET DZVP-MOLOPT-SR-GTH-q13
       POTENTIAL GTH-PBE-q13
       &POTENTIAL
 2 1 10
  0.4900000000000000E+00 0
 3
  0.4167772300000000E+00 3  0.1047568975000000E+02 -0.4921768140000000E+01  0.8707055900000000E+00
  0.7770178090000000E+01 -0.2248152160000000E+01
  0.1784415450000000E+01
  0.5696265200000000E+00 2  0.1777985340000000E+01  0.1958597600000000E+00
 -0.2317443900000000E+00
  0.2381265000000000E+00 1 -0.1624868022000000E+02
         # Potential name:  GTH-PBE-Q13  for symbol:  GA
         # Potential read from the potential filename: GTH_POTENTIALS
       &END POTENTIAL
     &END KIND
     &TOPOLOGY
       NUMBER_OF_ATOMS  150
       MULTIPLE_UNIT_CELL  1 1 1
     &END TOPOLOGY
   &END SUBSYS
 &END FORCE_EVAL
