 # Version information for this restart file 
 # current date 2019-05-24 01:44:51.130
 # current working dir /lustre03/project/6004141/rzk/GaN-carbene/01-Methanol/01-CH3-ads
 # Program compiled at                              Sun Apr  7 00:48:11 EDT 2019
 # Program compiled on                          beluga2.int.ets1.calculquebec.ca
 # Program compiled for                        Beluga-Linux-x86-64-intel-openmpi
 # Source code revision number                                         svn:18619
 &GLOBAL
   PRINT_LEVEL  MEDIUM
   PROJECT_NAME TEST
   RUN_TYPE  GEO_OPT
 &END GLOBAL
 &MOTION
   &GEO_OPT
     MAX_ITER  500
     STEP_START_VAL  98
   &END GEO_OPT
 &END MOTION
 &FORCE_EVAL
   METHOD  QS
   STRESS_TENSOR  ANALYTICAL
   &DFT
     BASIS_SET_FILE_NAME BASIS_MOLOPT
     POTENTIAL_FILE_NAME GTH_POTENTIALS
     &SCF
       MAX_SCF  100
       EPS_SCF     5.0000000000000004E-06
       &OT  T
         PRECONDITIONER  FULL_ALL
       &END OT
       &OUTER_SCF  T
         OPTIMIZER  NONE
         EPS_SCF     5.0000000000000004E-06
         MAX_SCF  4
       &END OUTER_SCF
       &PRINT
         &RESTART  OFF
           BACKUP_COPIES  1
           &EACH
             JUST_ENERGY  0
             QS_SCF  0
             MD  20
           &END EACH
         &END RESTART
       &END PRINT
     &END SCF
     &QS
       EPS_DEFAULT     1.0000000000000000E-14
       ALMO_SCF  F
       METHOD  GPW
     &END QS
     &MGRID
       NGRIDS  5
       CUTOFF     1.2000000000000000E+03
     &END MGRID
     &XC
       DENSITY_CUTOFF     1.0000000000000000E-10
       GRADIENT_CUTOFF     1.0000000000000000E-10
       TAU_CUTOFF     1.0000000000000000E-10
       &XC_FUNCTIONAL  NO_SHORTCUT
         &PBE  T
         &END PBE
       &END XC_FUNCTIONAL
       &VDW_POTENTIAL
         POTENTIAL_TYPE  PAIR_POTENTIAL
         &PAIR_POTENTIAL
           R_CUTOFF     1.0000000000000005E+01
           TYPE  DFTD3
           PARAMETER_FILE_NAME dftd3.dat
           REFERENCE_FUNCTIONAL PBE
           EPS_CN     9.9999999999999995E-07
           CALCULATE_C9_TERM  T
           REFERENCE_C9_TERM  T
           LONG_RANGE_CORRECTION  F
           VERBOSE_OUTPUT  F
         &END PAIR_POTENTIAL
       &END VDW_POTENTIAL
     &END XC
   &END DFT
   &SUBSYS
     &CELL
       A     9.7367653356401487E+00    0.0000000000000000E+00    0.0000000000000000E+00
       B    -4.8591341382960209E+00    8.4162672083210595E+00    0.0000000000000000E+00
       C     0.0000000000000000E+00    0.0000000000000000E+00    3.0744000000000000E+01
       MULTIPLE_UNIT_CELL  1 1 1
       &CELL_REF
         A     9.5580000000000052E+00    0.0000000000000000E+00    0.0000000000000000E+00
         B    -4.7790000000000026E+00    8.2774708093716640E+00    0.0000000000000000E+00
         C     0.0000000000000000E+00    0.0000000000000000E+00    3.0744000000000000E+01
         MULTIPLE_UNIT_CELL  1 1 1
       &END CELL_REF
     &END CELL
     &COORD
Ga   -4.6855344953015396E-02   -6.7496134847111561E-02   -5.4382073969783484E-01
N   -4.4567405243980243E-02    1.8060439881275514E+00    6.0681236525365101E-01
Ga   -4.6942678183454309E-02    1.7757418335967299E+00    2.6370134541320165E+00
N   -5.0022143044462987E-02   -6.7825609399252265E-02    3.2689318505337672E+00
Ga   -5.4436814523173359E-02   -6.4842047145967904E-02    5.2587164025720599E+00
N   -5.1628908874714018E-02    1.8097751864721714E+00    5.8476439855894045E+00
Ga   -5.6998033744996554E-02    1.8086663183205354E+00    7.8459504085428042E+00
N   -6.1395960566496703E-02   -6.4456169411424194E-02    8.4457340979264028E+00
Ga   -6.3979176740941474E-02   -6.4044575065927284E-02    1.0442185431162221E+01
N   -6.1282098523364824E-02    1.8048933483198302E+00    1.1050152170675192E+01
Ga   -6.0266793887532949E-02    1.7979114604638482E+00    1.3048855614947836E+01
N   -6.0472359597290463E-02   -7.6740142475258816E-02    1.3645128627216769E+01
Ga   -6.0065943763288381E-02   -9.5035697079725562E-02    1.5647425392166442E+01
N   -4.8281058524647154E-02    1.7800650384298060E+00    1.6210723828372494E+01
Ga   -6.2826173670270255E-02    1.7946119023633360E+00    1.8285389239170790E+01
N   -9.1340078144141634E-02   -8.4749193319233876E-02    1.8652672966543403E+01
Ga   -1.6663565178276531E+00    2.7363501753496489E+00    3.2335932961567909E-01
N   -1.6688921601154691E+00    4.6057083479952317E+00    6.0756561009874566E-01
Ga   -1.6419321473964117E+00    4.6227319618049281E+00    2.6366279929415524E+00
N   -1.6698417369581824E+00    2.7374281002112237E+00    3.2289933333129408E+00
Ga   -1.6737268920919552E+00    2.7402619809925786E+00    5.2392349989308009E+00
N   -1.6739726502305710E+00    4.6105959775708705E+00    5.8469118601664700E+00
Ga   -1.6785191158428678E+00    4.6116062974169365E+00    7.8447484226723816E+00
N   -1.6805448515111774E+00    2.7408473316880633E+00    8.4496337657083256E+00
Ga   -1.6819933233047561E+00    2.7403365221949705E+00    1.0445581221126613E+01
N   -1.6800996914501163E+00    4.6120179860050099E+00    1.1047509199690699E+01
Ga   -1.6782161500339967E+00    4.6048821345985873E+00    1.3043831228783576E+01
N   -1.6829444118296795E+00    2.7340377681843533E+00    1.3645256574094008E+01
Ga   -1.6766913363465963E+00    2.7266854924499917E+00    1.5652806567573959E+01
N   -1.7040464132404507E+00    4.6074076350750630E+00    1.6218206965458474E+01
Ga   -1.6631307955933707E+00    4.5683247546174650E+00    1.8240753495901188E+01
N   -1.6806643053542629E+00    2.7212281693825440E+00    1.8721172534400171E+01
Ga   -3.2871677730144917E+00    5.5418715600726873E+00    3.2323452625371590E-01
N   -3.2803785406911126E+00    7.4118541026066529E+00    6.0571474070158127E-01
Ga   -3.3106913624778418E+00    7.4286561760524705E+00    2.6358742881895161E+00
N   -3.2891749527422132E+00    5.5434224611361724E+00    3.2285694006771477E+00
Ga   -3.2932983925969510E+00    5.5459603409983540E+00    5.2387442226303866E+00
N   -3.2889924370041181E+00    7.4164293088325870E+00    5.8468117182100130E+00
Ga   -3.2957301510611026E+00    7.4175420124604834E+00    7.8447087760562031E+00
N   -3.2999012865685464E+00    5.5464953495008107E+00    8.4470232856723655E+00
Ga   -3.3006622079503707E+00    5.5457127732057820E+00    1.0441158301909201E+01
N   -3.2987119208753746E+00    7.4181622420871118E+00    1.1042500741933305E+01
Ga   -3.2974422026273387E+00    7.4175157695506648E+00    1.3035734814558689E+01
N   -3.3110085061311336E+00    5.5418223646846414E+00    1.3624812885345937E+01
Ga   -3.3070609374715145E+00    5.5346794184220016E+00    1.5605575603893863E+01
N   -3.2990574992261088E+00    7.3793152214119289E+00    1.6263480296605604E+01
Ga   -3.3203041416813477E+00    7.4084923179305733E+00    1.8297792908296096E+01
N   -3.3215315588469165E+00    5.5006865046857554E+00    1.8827113439470537E+01
Ga    3.1985566477346361E+00   -6.9294232428311078E-02    3.2401243315709638E-01
N    3.1964689317477082E+00    1.8009392798005883E+00    6.0471789979083512E-01
Ga    3.2228277565082624E+00    1.8181627039129848E+00    2.6352296508123079E+00
N    3.1955674685828828E+00   -6.7550608145484456E-02    3.2275900697036310E+00
Ga    3.1910389915895068E+00   -6.5023875984224849E-02    5.2376090656171526E+00
N    3.1910781625235938E+00    1.8057344011759378E+00    5.8450715291451925E+00
Ga    3.1856544907463862E+00    1.8058470142042804E+00    7.8424335758106682E+00
N    3.1852145697895415E+00   -6.4062215782029350E-02    8.4477215353739403E+00
Ga    3.1834923437088496E+00   -6.4090769970363989E-02    1.0442670902177881E+01
N    3.1867221563791581E+00    1.8045356494327824E+00    1.1053653919867346E+01
Ga    3.1858531421102367E+00    1.7955438514679223E+00    1.3050996101225859E+01
N    3.1755470947559084E+00   -7.2865966506257901E-02    1.3678181729424663E+01
Ga    3.1735659865551540E+00   -8.8169960832914673E-02    1.5691994986642127E+01
N    3.2123638363333402E+00    1.7977653510661071E+00    1.6237756354685878E+01
Ga    3.1903936597347298E+00    1.7781895009688908E+00    1.8302915557004955E+01
N    3.1568670792806848E+00   -9.3974266780120802E-02    1.8680695838901052E+01
Ga    1.5773760223004181E+00    2.7367528011442031E+00    3.2319323131715749E-01
N    1.5850628176840889E+00    4.6061553805613302E+00    6.0794089911517113E-01
Ga    1.5544193013207510E+00    4.6229925573180140E+00    2.6363296984939475E+00
N    1.5758227109886456E+00    2.7377442730487456E+00    3.2286181155652023E+00
Ga    1.5713346456445725E+00    2.7406361833505186E+00    5.2384068607789231E+00
N    1.5764391803150952E+00    4.6103901529630988E+00    5.8483173457088240E+00
Ga    1.5694636575620233E+00    4.6109232551356891E+00    7.8468035676791787E+00
N    1.5659324312482723E+00    2.7399860885099274E+00    8.4514118286721054E+00
Ga    1.5620429854483677E+00    2.7382920926966805E+00    1.0447424963432384E+01
N    1.5606340210171448E+00    4.6114675099162472E+00    1.1044324334577412E+01
Ga    1.5532020931054271E+00    4.6027597834214955E+00    1.3037575287019635E+01
N    1.5641446867044002E+00    2.7324848977407052E+00    1.3643968848419007E+01
Ga    1.5724983897816871E+00    2.7228096036949125E+00    1.5649820175850111E+01
N    1.5794960798738644E+00    4.6022714155772100E+00    1.6212509704918148E+01
Ga    1.5362899838900783E+00    4.5853393931709592E+00    1.8227252240715032E+01
N    1.5625988105144981E+00    2.7264926438184101E+00    1.8637183705030665E+01
Ga   -4.1028302995479979E-02    5.5403707519639118E+00   -5.4561409405366645E-01
N   -3.8383026441741415E-02    7.4170518573665705E+00    6.0699702061288763E-01
Ga   -4.0242974943623666E-02    7.3859117972835984E+00    2.6361120754550971E+00
N   -4.3677323750222326E-02    5.5429742985705452E+00    3.2695937631886953E+00
Ga   -4.7780271765988161E-02    5.5452990521603045E+00    5.2585161837381964E+00
N   -4.5749754903051401E-02    7.4203996452348751E+00    5.8456186486769051E+00
Ga   -5.2045270435743606E-02    7.4199826771038655E+00    7.8432198617565119E+00
N   -5.5288152342463821E-02    5.5476802915534229E+00    8.4467892313081059E+00
Ga   -5.9826218720705038E-02    5.5483629474959413E+00    1.0443334343636423E+01
N   -5.6392748307836492E-02    7.4187311706233379E+00    1.1056595764317910E+01
Ga   -5.9206500767859258E-02    7.4168474914585847E+00    1.3056000302791073E+01
N   -6.2670516607778406E-02    5.5447259531735567E+00    1.3657148665812826E+01
Ga   -6.5340158979168048E-02    5.5349234522218040E+00    1.5664363404865759E+01
N   -3.5619634790249044E-02    7.4116605851738528E+00    1.6266746054350833E+01
Ga   -6.0681803949664728E-02    7.4124491282347007E+00    1.8358540055143340E+01
N   -6.7109089552804743E-02    5.5220864654554100E+00    1.8639229839045360E+01
Ga    6.4428705048436417E+00   -6.8693467199624630E-02    3.2299364803560043E-01
N    6.4502074244991201E+00    1.8016379522752133E+00    6.0462165232040166E-01
Ga    6.4198493213347945E+00    1.8182454349703627E+00    2.6350223491428886E+00
N    6.4412942629428169E+00   -6.7244654174713842E-02    3.2280236935084385E+00
Ga    6.4369230146317946E+00   -6.4584029950360208E-02    5.2381093588971197E+00
N    6.4416795267563147E+00    1.8051476206428005E+00    5.8466842646849564E+00
Ga    6.4348870340553104E+00    1.8058254959184286E+00    7.8447820884071104E+00
N    6.4286624907182466E+00   -6.4570974072758330E-02    8.4502848433045887E+00
Ga    6.4253080419636310E+00   -6.4555707817251520E-02    1.0445243474248384E+01
N    6.4293522318742413E+00    1.8075327123371450E+00    1.1046712710270931E+01
Ga    6.4347110137548951E+00    1.8021658044073241E+00    1.3039909115513417E+01
N    6.4239289620720186E+00   -6.4779372939176350E-02    1.3656186667106203E+01
Ga    6.4339358989572339E+00   -8.3227636924907922E-02    1.5662608879246413E+01
N    6.4375158670592416E+00    1.7994924465608508E+00    1.6268285465132365E+01
Ga    6.4387274187507328E+00    1.7828901994799837E+00    1.8354885498925945E+01
N    6.4228905109753676E+00   -8.9974193675881053E-02    1.8721912413923413E+01
Ga    4.8243147283426042E+00    2.7369632225810290E+00   -5.4650545151727126E-01
N    4.8269151563291635E+00    4.6117551116638884E+00    6.0517069512680710E-01
Ga    4.8247913545094931E+00    4.5811785192089927E+00    2.6356021209095193E+00
N    4.8214262503040253E+00    2.7378778961374635E+00    3.2677591782642166E+00
Ga    4.8175499473300620E+00    2.7409129475584662E+00    5.2574979052763684E+00
N    4.8197420082320290E+00    4.6151612627983853E+00    5.8468676480327666E+00
Ga    4.8135892148366022E+00    4.6140813769535622E+00    7.8450656291084693E+00
N    4.8098831204002517E+00    2.7397977147848618E+00    8.4431380208120537E+00
Ga    4.8071035043488068E+00    2.7370647609003145E+00    1.0437259972811175E+01
N    4.8109082871847466E+00    4.6090987918560131E+00    1.1035144758890645E+01
Ga    4.8092986727779889E+00    4.6009716959014533E+00    1.3022087605848361E+01
N    4.8114476215574404E+00    2.7357894854537279E+00    1.3648919367943481E+01
Ga    4.8181347519954949E+00    2.7250826613658226E+00    1.5645954523478389E+01
N    4.8086286553330257E+00    4.6096594373520796E+00    1.6219108399756788E+01
Ga    4.8055078356226826E+00    4.5454785389925298E+00    1.8195607072026938E+01
N    4.8015159258327067E+00    2.7131583458831408E+00    1.8763711199137280E+01
Ga    3.2039881076726004E+00    5.5416033264444735E+00    3.2389734673784332E-01
N    3.2026585477006764E+00    7.4116538740840463E+00    6.0561189188002174E-01
Ga    3.2290901345964858E+00    7.4287355243956874E+00    2.6361424319337425E+00
N    3.2018472575006007E+00    5.5433561494330279E+00    3.2287397059888248E+00
Ga    3.1975476497222761E+00    5.5460254805487175E+00    5.2391735504602712E+00
N    3.1969171824517018E+00    7.4164745954716720E+00    5.8472674184132947E+00
Ga    3.1919483391559513E+00    7.4175559585323132E+00    7.8456346557589258E+00
N    3.1902998382252381E+00    5.5469062182540725E+00    8.4492948898468505E+00
Ga    3.1854858607092047E+00    5.5469603380014263E+00    1.0444660683819052E+01
N    3.1893045436458003E+00    7.4199431867510164E+00    1.1046469535444110E+01
Ga    3.1881031066583980E+00    7.4197276784615038E+00    1.3041249056778950E+01
N    3.1843051017461379E+00    5.5354198630797073E+00    1.3613739020011289E+01
Ga    3.1902322599889725E+00    5.5329047152167901E+00    1.5589408018118039E+01
N    3.1907775621753149E+00    7.3783203051691491E+00    1.6200032723839520E+01
Ga    3.1684764184551986E+00    7.4347793099577677E+00    1.8210791606556267E+01
N    3.1896467204476839E+00    5.5241690892088213E+00    1.8798325352445360E+01
H    3.2094908996093947E+00    5.5384702301517432E+00    1.9824679324189674E+01
H    4.9700341613764270E+00    2.9621867679461733E+00    2.0710918525869864E+01
H    4.8002579138066874E+00    2.9577147203236582E+00    2.2628602981988909E+01
C    5.0319942788031504E+00    3.5157026154723656E+00    2.1695408837254949E+01
O    5.3272813022107712E+00    4.7021488603499950E+00    2.1730828045408700E+01
H    6.3692620930943171E+00    5.4577853071543094E+00    1.9854416750446088E+01
     &END COORD
     &KIND C
       BASIS_SET DZVP-MOLOPT-SR-GTH-q4
       POTENTIAL GTH-PBE-q4
       &POTENTIAL
 2 2
  0.3384712400000000E+00 2 -0.8803673979999999E+01  0.1339210850000000E+01
 2
  0.3025757500000000E+00 1  0.9622486650000001E+01
  0.2915069400000000E+00 0
         # Potential name:  GTH-PBE-Q4  for symbol:  C
         # Potential read from the potential filename: GTH_POTENTIALS
       &END POTENTIAL
     &END KIND
     &KIND O
       BASIS_SET DZVP-MOLOPT-SR-GTH-q6
       POTENTIAL GTH-PBE-q6
       &POTENTIAL
 2 4
  0.2445543000000000E+00 2 -0.1666721480000000E+02  0.2487311320000000E+01
 2
  0.2209559200000000E+00 1  0.1833745811000000E+02
  0.2113324700000000E+00 0
         # Potential name:  GTH-PBE-Q6  for symbol:  O
         # Potential read from the potential filename: GTH_POTENTIALS
       &END POTENTIAL
     &END KIND
     &KIND H
       BASIS_SET DZVP-MOLOPT-SR-GTH-q1
       POTENTIAL GTH-PBE-q1
       &POTENTIAL
 1
  0.2000000000000000E+00 2 -0.4178900440000000E+01  0.7244633100000000E+00
 0
         # Potential name:  GTH-PBE-Q1  for symbol:  H
         # Potential read from the potential filename: GTH_POTENTIALS
       &END POTENTIAL
     &END KIND
     &KIND N
       BASIS_SET DZVP-MOLOPT-SR-GTH-q5
       POTENTIAL GTH-PBE-q5
       &POTENTIAL
 2 3
  0.2837905100000000E+00 2 -0.1241522559000000E+02  0.1868095920000000E+01
 2
  0.2554050000000000E+00 1  0.1363026257000000E+02
  0.2454945300000000E+00 0
         # Potential name:  GTH-PBE-Q5  for symbol:  N
         # Potential read from the potential filename: GTH_POTENTIALS
       &END POTENTIAL
     &END KIND
     &KIND Ga
       BASIS_SET DZVP-MOLOPT-SR-GTH-q13
       POTENTIAL GTH-PBE-q13
       &POTENTIAL
 2 1 10
  0.4900000000000000E+00 0
 3
  0.4167772300000000E+00 3  0.1047568975000000E+02 -0.4921768140000000E+01  0.8707055900000000E+00
  0.7770178090000000E+01 -0.2248152160000000E+01
  0.1784415450000000E+01
  0.5696265200000000E+00 2  0.1777985340000000E+01  0.1958597600000000E+00
 -0.2317443900000000E+00
  0.2381265000000000E+00 1 -0.1624868022000000E+02
         # Potential name:  GTH-PBE-Q13  for symbol:  GA
         # Potential read from the potential filename: GTH_POTENTIALS
       &END POTENTIAL
     &END KIND
     &TOPOLOGY
       NUMBER_OF_ATOMS  150
       MULTIPLE_UNIT_CELL  1 1 1
     &END TOPOLOGY
   &END SUBSYS
 &END FORCE_EVAL
