 # Version information for this restart file 
 # current date 2019-05-24 01:45:43.426
 # current working dir /lustre03/project/6004141/rzk/GaN-carbene/01-Methanol/01-CH3-ads
 # Program compiled at                              Sun Apr  7 00:48:11 EDT 2019
 # Program compiled on                          beluga2.int.ets1.calculquebec.ca
 # Program compiled for                        Beluga-Linux-x86-64-intel-openmpi
 # Source code revision number                                         svn:18619
 &GLOBAL
   PRINT_LEVEL  MEDIUM
   PROJECT_NAME TEST
   RUN_TYPE  GEO_OPT
 &END GLOBAL
 &MOTION
   &GEO_OPT
     MAX_ITER  500
     STEP_START_VAL  99
   &END GEO_OPT
 &END MOTION
 &FORCE_EVAL
   METHOD  QS
   STRESS_TENSOR  ANALYTICAL
   &DFT
     BASIS_SET_FILE_NAME BASIS_MOLOPT
     POTENTIAL_FILE_NAME GTH_POTENTIALS
     &SCF
       MAX_SCF  100
       EPS_SCF     5.0000000000000004E-06
       &OT  T
         PRECONDITIONER  FULL_ALL
       &END OT
       &OUTER_SCF  T
         OPTIMIZER  NONE
         EPS_SCF     5.0000000000000004E-06
         MAX_SCF  4
       &END OUTER_SCF
       &PRINT
         &RESTART  OFF
           BACKUP_COPIES  1
           &EACH
             JUST_ENERGY  0
             QS_SCF  0
             MD  20
           &END EACH
         &END RESTART
       &END PRINT
     &END SCF
     &QS
       EPS_DEFAULT     1.0000000000000000E-14
       ALMO_SCF  F
       METHOD  GPW
     &END QS
     &MGRID
       NGRIDS  5
       CUTOFF     1.2000000000000000E+03
     &END MGRID
     &XC
       DENSITY_CUTOFF     1.0000000000000000E-10
       GRADIENT_CUTOFF     1.0000000000000000E-10
       TAU_CUTOFF     1.0000000000000000E-10
       &XC_FUNCTIONAL  NO_SHORTCUT
         &PBE  T
         &END PBE
       &END XC_FUNCTIONAL
       &VDW_POTENTIAL
         POTENTIAL_TYPE  PAIR_POTENTIAL
         &PAIR_POTENTIAL
           R_CUTOFF     1.0000000000000005E+01
           TYPE  DFTD3
           PARAMETER_FILE_NAME dftd3.dat
           REFERENCE_FUNCTIONAL PBE
           EPS_CN     9.9999999999999995E-07
           CALCULATE_C9_TERM  T
           REFERENCE_C9_TERM  T
           LONG_RANGE_CORRECTION  F
           VERBOSE_OUTPUT  F
         &END PAIR_POTENTIAL
       &END VDW_POTENTIAL
     &END XC
   &END DFT
   &SUBSYS
     &CELL
       A     9.7367653356401487E+00    0.0000000000000000E+00    0.0000000000000000E+00
       B    -4.8591341382960209E+00    8.4162672083210595E+00    0.0000000000000000E+00
       C     0.0000000000000000E+00    0.0000000000000000E+00    3.0744000000000000E+01
       MULTIPLE_UNIT_CELL  1 1 1
       &CELL_REF
         A     9.5580000000000052E+00    0.0000000000000000E+00    0.0000000000000000E+00
         B    -4.7790000000000026E+00    8.2774708093716640E+00    0.0000000000000000E+00
         C     0.0000000000000000E+00    0.0000000000000000E+00    3.0744000000000000E+01
         MULTIPLE_UNIT_CELL  1 1 1
       &END CELL_REF
     &END CELL
     &COORD
Ga   -4.4294895342444671E-02   -6.4175124337757877E-02   -5.3852858547831550E-01
N   -4.2660656294806178E-02    1.8092835108664809E+00    6.0799085679914111E-01
Ga   -4.4968059428805308E-02    1.7778056155503894E+00    2.6379772771867680E+00
N   -4.8506120589697263E-02   -6.5806708952575857E-02    3.2693857544419540E+00
Ga   -5.3110429784672418E-02   -6.4116019525213203E-02    5.2595927532205229E+00
N   -5.0528720700601520E-02    1.8105189204222987E+00    5.8476868295393309E+00
Ga   -5.6281972990322122E-02    1.8084807854226606E+00    7.8464375978362799E+00
N   -6.0143346173446278E-02   -6.4844802282090122E-02    8.4458136503691783E+00
Ga   -6.4016108665225363E-02   -6.4583706153277298E-02    1.0442828649242706E+01
N   -6.1433684272511252E-02    1.8040706934483672E+00    1.1050910566917848E+01
Ga   -6.1904249578472216E-02    1.7970136722093055E+00    1.3050324096439146E+01
N   -6.2915810116745310E-02   -7.7575644192749288E-02    1.3646556955579818E+01
Ga   -6.3441497216961643E-02   -9.7081217692389643E-02    1.5649101534334763E+01
N   -5.1634985205882576E-02    1.7780321364639760E+00    1.6211305734008331E+01
Ga   -6.8177123566460968E-02    1.7927342406456608E+00    1.8287889900265686E+01
N   -9.4027214834508238E-02   -8.6673423125359292E-02    1.8654333962817628E+01
Ga   -1.6649057292383558E+00    2.7396366734684441E+00    3.2480217159924341E-01
N   -1.6668882020196760E+00    4.6089531303614999E+00    6.0868727075446005E-01
Ga   -1.6399167013083573E+00    4.6250890190521696E+00    2.6375829516371647E+00
N   -1.6680243505151311E+00    2.7393556290715049E+00    3.2291320525032874E+00
Ga   -1.6724984136932939E+00    2.7410100205567542E+00    5.2395710680471819E+00
N   -1.6728138872967884E+00    4.6111507569621413E+00    5.8473310746038543E+00
Ga   -1.6778655412067371E+00    4.6111761478479929E+00    7.8458757060799451E+00
N   -1.6798025319027023E+00    2.7402377135464242E+00    8.4500421356914597E+00
Ga   -1.6823521905195129E+00    2.7391793427857269E+00    1.0446389871017713E+01
N   -1.6810913288937261E+00    4.6109111218213972E+00    1.1047153376922505E+01
Ga   -1.6804434505020593E+00    4.6033592596707464E+00    1.3042920048953398E+01
N   -1.6843212108236649E+00    2.7330174192063024E+00    1.3645590488393362E+01
Ga   -1.6797888326108179E+00    2.7259177860625234E+00    1.5653849897255473E+01
N   -1.7076948828869261E+00    4.6063417880768700E+00    1.6216762807906271E+01
Ga   -1.6665951528559899E+00    4.5668350190900666E+00    1.8237563713483439E+01
N   -1.6848823074971726E+00    2.7205284179056917E+00    1.8722199305697085E+01
Ga   -3.2853798416962423E+00    5.5449118504679653E+00    3.2480412481916571E-01
N   -3.2783932310123549E+00    7.4151268698389385E+00    6.0726653570048583E-01
Ga   -3.3087952361120472E+00    7.4308792088536411E+00    2.6372779101198436E+00
N   -3.2876277017784235E+00    5.5452522245272906E+00    3.2289778556605446E+00
Ga   -3.2922233848744447E+00    5.5466003074191281E+00    5.2394742216060193E+00
N   -3.2876470996218523E+00    7.4170721700884963E+00    5.8468799684080803E+00
Ga   -3.2945786106546060E+00    7.4170929229140174E+00    7.8456406272746060E+00
N   -3.2995379426943048E+00    5.5459933280660696E+00    8.4473248256070708E+00
Ga   -3.3019671349952269E+00    5.5447121659327703E+00    1.0442162691263142E+01
N   -3.2993295855875897E+00    7.4173436741209189E+00    1.1043193692494363E+01
Ga   -3.2998340379787425E+00    7.4167197400317137E+00    1.3036131417435850E+01
N   -3.3133363947133700E+00    5.5401619109178046E+00    1.3622935894796294E+01
Ga   -3.3100336879159618E+00    5.5331665838307789E+00    1.5603442447745319E+01
N   -3.3029356316927880E+00    7.3765388632550426E+00    1.6263236587517742E+01
Ga   -3.3237087954355378E+00    7.4057798666667756E+00    1.8296462491905007E+01
N   -3.3235773252934204E+00    5.4974386961472215E+00    1.8825669380921209E+01
Ga    3.2005689170262905E+00   -6.5891658561241642E-02    3.2489351323454191E-01
N    3.1982839150654616E+00    1.8039594564158941E+00    6.0546933490973676E-01
Ga    3.2248884137707088E+00    1.8201972120300856E+00    2.6361306747055719E+00
N    3.1974709317593586E+00   -6.5511640046182734E-02    3.2280345991904813E+00
Ga    3.1923822348066637E+00   -6.4274981598822709E-02    5.2382879169905232E+00
N    3.1923095913098449E+00    1.8060668001095095E+00    5.8454638963280567E+00
Ga    3.1865042716138254E+00    1.8054498712704727E+00    7.8433702123962270E+00
N    3.1862096094342611E+00   -6.4455088819358533E-02    8.4488901636626768E+00
Ga    3.1833422047155677E+00   -6.4943381110565315E-02    1.0444066795133184E+01
N    3.1858019154012540E+00    1.8035876681720069E+00    1.1055191840273894E+01
Ga    3.1838866296206878E+00    1.7940782797919379E+00    1.3053066955160388E+01
N    3.1735097843760642E+00   -7.4561108910540005E-02    1.3678609353773028E+01
Ga    3.1704921185073371E+00   -9.0793042947026517E-02    1.5693078963697751E+01
N    3.2092505835385898E+00    1.7969481363711732E+00    1.6239274964863782E+01
Ga    3.1845487012038389E+00    1.7765665375992479E+00    1.8303607491059630E+01
N    3.1536866861049924E+00   -9.6797855718345566E-02    1.8674872190979634E+01
Ga    1.5796617291599977E+00    2.7400508127101992E+00    3.2443479771538786E-01
N    1.5868495140793266E+00    4.6094508712931592E+00    6.0854285384868878E-01
Ga    1.5559897907073446E+00    4.6253105072747225E+00    2.6369238141824782E+00
N    1.5777801968032663E+00    2.7397870759428278E+00    3.2289417079041525E+00
Ga    1.5726823729662740E+00    2.7414771376852474E+00    5.2391193953915893E+00
N    1.5776937839875966E+00    4.6111617661833471E+00    5.8487116953703815E+00
Ga    1.5702198472356810E+00    4.6108980977904359E+00    7.8476803078109949E+00
N    1.5666042917998457E+00    2.7397041053496065E+00    8.4517027443209738E+00
Ga    1.5618825479420833E+00    2.7371989804056538E+00    1.0448374036459969E+01
N    1.5601816440368343E+00    4.6101968365181811E+00    1.1045159747927329E+01
Ga    1.5515044843290138E+00    4.6013006647209584E+00    1.3038872398735121E+01
N    1.5623926608627174E+00    2.7310109797987061E+00    1.3645553859595269E+01
Ga    1.5691944852399151E+00    2.7211678045753214E+00    1.5651553198224578E+01
N    1.5770209909951975E+00    4.6003927876700725E+00    1.6212887666957073E+01
Ga    1.5328651942463258E+00    4.5820002575931920E+00    1.8226911521643082E+01
N    1.5583390396389709E+00    2.7244387178075984E+00    1.8638912726353496E+01
Ga   -3.9372313077936809E-02    5.5437534838579881E+00   -5.4384635605961595E-01
N   -3.6666374988268170E-02    7.4199673259503793E+00    6.0797756072540965E-01
Ga   -3.8660291665194593E-02    7.3876349821679446E+00    2.6368233492376052E+00
N   -4.1885852026243640E-02    5.5448878118913685E+00    3.2704985762620953E+00
Ga   -4.6544932752576637E-02    5.5460644207541723E+00    5.2596564521711615E+00
N   -4.4503006226357139E-02    7.4210627677978653E+00    5.8462035450173273E+00
Ga   -5.0989338907176197E-02    7.4198071467473223E+00    7.8442163513549419E+00
N   -5.4615931997535783E-02    5.5475891813215528E+00    8.4472123594103845E+00
Ga   -6.0281560098841509E-02    5.5474971883802224E+00    1.0444450886160219E+01
N   -5.6567689112634940E-02    7.4180102766782960E+00    1.1057036003043855E+01
Ga   -6.0721971280980669E-02    7.4154324689048341E+00    1.3056499689769822E+01
N   -6.4467470260377635E-02    5.5425561860272961E+00    1.3655809275938878E+01
Ga   -6.7036140654698553E-02    5.5326687770082508E+00    1.5662989741063475E+01
N   -3.8008294599304944E-02    7.4097793162361496E+00    1.6263356224728859E+01
Ga   -6.3803146816637679E-02    7.4101568624041230E+00    1.8351504026009685E+01
N   -7.0423120573732748E-02    5.5200499835660448E+00    1.8633076701640526E+01
Ga    6.4444314519334327E+00   -6.5494535045771893E-02    3.2435114771488199E-01
N    6.4518039026149072E+00    1.8046895213719560E+00    6.0484664991529791E-01
Ga    6.4215921550551398E+00    1.8203293878375049E+00    2.6357117025491004E+00
N    6.4430643268258025E+00   -6.5405893414566540E-02    3.2280958615127378E+00
Ga    6.4382967648096452E+00   -6.3956443018697365E-02    5.2386735940815230E+00
N    6.4431208135872371E+00    1.8057876391294532E+00    5.8468383299080440E+00
Ga    6.4358367048941165E+00    1.8053939468150928E+00    7.8455305692544446E+00
N    6.4298709671198200E+00   -6.5057335612270617E-02    8.4507491282326335E+00
Ga    6.4252310468392571E+00   -6.5648989340677394E-02    1.0446387268139244E+01
N    6.4288680429404064E+00    1.8062695622252170E+00    1.1047510419769951E+01
Ga    6.4333706791159280E+00    1.8007939654917031E+00    1.3041143461520479E+01
N    6.4229263716422889E+00   -6.6634128993120836E-02    1.3656143807411699E+01
Ga    6.4325036017301453E+00   -8.5082515604186643E-02    1.5662345155282194E+01
N    6.4336176931629687E+00    1.7979504172621785E+00    1.6267513329457174E+01
Ga    6.4361103536629640E+00    1.7818546941550080E+00    1.8355150551614798E+01
N    6.4191228453757923E+00   -9.1334178381040992E-02    1.8722302574290829E+01
Ga    4.8254875420445096E+00    2.7405137754368298E+00   -5.4768798438039623E-01
N    4.8287212663430790E+00    4.6148706109693451E+00    6.0577071228519408E-01
Ga    4.8264856031831123E+00    4.5828873542904462E+00    2.6362897394634839E+00
N    4.8233522905761905E+00    2.7397337187032185E+00    3.2681977002010862E+00
Ga    4.8186827827635170E+00    2.7415052711806855E+00    5.2581648501217924E+00
N    4.8206138004198120E+00    4.6157571952263252E+00    5.8470879949356860E+00
Ga    4.8140839257285890E+00    4.6136532617945925E+00    7.8458880677422513E+00
N    4.8104530880622045E+00    2.7391315551810660E+00    8.4439880029819996E+00
Ga    4.8065850865479325E+00    2.7354821909652078E+00    1.0438687774101496E+01
N    4.8097081572244589E+00    4.6074283590606742E+00    1.1035914608372009E+01
Ga    4.8069394575546589E+00    4.5992719905910038E+00    1.3022712913152560E+01
N    4.8096765884114729E+00    2.7341635419921575E+00    1.3648962820583485E+01
Ga    4.8145606825369480E+00    2.7240206485945873E+00    1.5645849949728495E+01
N    4.8060199386254716E+00    4.6085430748050307E+00    1.6218644958689552E+01
Ga    4.8029596888510673E+00    4.5442984965374151E+00    1.8195030698740080E+01
N    4.7976270503720908E+00    2.7115588728237872E+00    1.8763768210744853E+01
Ga    3.2060493599780622E+00    5.5444301452923721E+00    3.2480940624032989E-01
N    3.2046321310777994E+00    7.4146945992742532E+00    6.0645852096251340E-01
Ga    3.2308727926727698E+00    7.4306762590651241E+00    2.6368999414909857E+00
N    3.2036006805907400E+00    5.5452031202384946E+00    3.2288380505948600E+00
Ga    3.1987194075926357E+00    5.5467169478349261E+00    5.2395230216370221E+00
N    3.1981700320076611E+00    7.4169160324126384E+00    5.8475661233444942E+00
Ga    3.1930176697892607E+00    7.4170858518867551E+00    7.8464017399823813E+00
N    3.1909980973182406E+00    5.5465552940543379E+00    8.4500913649330514E+00
Ga    3.1848931665424205E+00    5.5455763534060045E+00    1.0445725123924911E+01
N    3.1895285492597543E+00    7.4186923726091534E+00    1.1047052347042976E+01
Ga    3.1868272981182817E+00    7.4184295470146902E+00    1.3042033964838756E+01
N    3.1823889668647234E+00    5.5342484619635783E+00    1.3615214103842913E+01
Ga    3.1881952764197687E+00    5.5312307816706916E+00    1.5591067602256851E+01
N    3.1878142216782401E+00    7.3767367901422780E+00    1.6203224127420356E+01
Ga    3.1655875586249484E+00    7.4329871854661400E+00    1.8214514870104825E+01
N    3.1863641471702024E+00    5.5214029799984008E+00    1.8799222807032784E+01
H    3.2065767589283714E+00    5.5327206911837772E+00    1.9825401319583484E+01
H    4.9717237702805281E+00    2.9629070540608002E+00    2.0691533110557096E+01
H    4.8225622721618278E+00    2.9198414682454765E+00    2.2609592967350963E+01
C    5.0376423807055453E+00    3.4994857946213860E+00    2.1685802224828606E+01
O    5.3185298517989725E+00    4.6877042542788230E+00    2.1741498221964875E+01
H    6.3691821073098920E+00    5.4536193539493887E+00    1.9852808884317245E+01
     &END COORD
     &KIND C
       BASIS_SET DZVP-MOLOPT-SR-GTH-q4
       POTENTIAL GTH-PBE-q4
       &POTENTIAL
 2 2
  0.3384712400000000E+00 2 -0.8803673979999999E+01  0.1339210850000000E+01
 2
  0.3025757500000000E+00 1  0.9622486650000001E+01
  0.2915069400000000E+00 0
         # Potential name:  GTH-PBE-Q4  for symbol:  C
         # Potential read from the potential filename: GTH_POTENTIALS
       &END POTENTIAL
     &END KIND
     &KIND O
       BASIS_SET DZVP-MOLOPT-SR-GTH-q6
       POTENTIAL GTH-PBE-q6
       &POTENTIAL
 2 4
  0.2445543000000000E+00 2 -0.1666721480000000E+02  0.2487311320000000E+01
 2
  0.2209559200000000E+00 1  0.1833745811000000E+02
  0.2113324700000000E+00 0
         # Potential name:  GTH-PBE-Q6  for symbol:  O
         # Potential read from the potential filename: GTH_POTENTIALS
       &END POTENTIAL
     &END KIND
     &KIND H
       BASIS_SET DZVP-MOLOPT-SR-GTH-q1
       POTENTIAL GTH-PBE-q1
       &POTENTIAL
 1
  0.2000000000000000E+00 2 -0.4178900440000000E+01  0.7244633100000000E+00
 0
         # Potential name:  GTH-PBE-Q1  for symbol:  H
         # Potential read from the potential filename: GTH_POTENTIALS
       &END POTENTIAL
     &END KIND
     &KIND N
       BASIS_SET DZVP-MOLOPT-SR-GTH-q5
       POTENTIAL GTH-PBE-q5
       &POTENTIAL
 2 3
  0.2837905100000000E+00 2 -0.1241522559000000E+02  0.1868095920000000E+01
 2
  0.2554050000000000E+00 1  0.1363026257000000E+02
  0.2454945300000000E+00 0
         # Potential name:  GTH-PBE-Q5  for symbol:  N
         # Potential read from the potential filename: GTH_POTENTIALS
       &END POTENTIAL
     &END KIND
     &KIND Ga
       BASIS_SET DZVP-MOLOPT-SR-GTH-q13
       POTENTIAL GTH-PBE-q13
       &POTENTIAL
 2 1 10
  0.4900000000000000E+00 0
 3
  0.4167772300000000E+00 3  0.1047568975000000E+02 -0.4921768140000000E+01  0.8707055900000000E+00
  0.7770178090000000E+01 -0.2248152160000000E+01
  0.1784415450000000E+01
  0.5696265200000000E+00 2  0.1777985340000000E+01  0.1958597600000000E+00
 -0.2317443900000000E+00
  0.2381265000000000E+00 1 -0.1624868022000000E+02
         # Potential name:  GTH-PBE-Q13  for symbol:  GA
         # Potential read from the potential filename: GTH_POTENTIALS
       &END POTENTIAL
     &END KIND
     &TOPOLOGY
       NUMBER_OF_ATOMS  150
       MULTIPLE_UNIT_CELL  1 1 1
     &END TOPOLOGY
   &END SUBSYS
 &END FORCE_EVAL
