 # Version information for this restart file 
 # current date 2019-05-24 01:46:41.938
 # current working dir /lustre03/project/6004141/rzk/GaN-carbene/01-Methanol/01-CH3-ads
 # Program compiled at                              Sun Apr  7 00:48:11 EDT 2019
 # Program compiled on                          beluga2.int.ets1.calculquebec.ca
 # Program compiled for                        Beluga-Linux-x86-64-intel-openmpi
 # Source code revision number                                         svn:18619
 &GLOBAL
   PRINT_LEVEL  MEDIUM
   PROJECT_NAME TEST
   RUN_TYPE  GEO_OPT
 &END GLOBAL
 &MOTION
   &GEO_OPT
     MAX_ITER  500
     STEP_START_VAL  100
   &END GEO_OPT
 &END MOTION
 &FORCE_EVAL
   METHOD  QS
   STRESS_TENSOR  ANALYTICAL
   &DFT
     BASIS_SET_FILE_NAME BASIS_MOLOPT
     POTENTIAL_FILE_NAME GTH_POTENTIALS
     &SCF
       MAX_SCF  100
       EPS_SCF     5.0000000000000004E-06
       &OT  T
         PRECONDITIONER  FULL_ALL
       &END OT
       &OUTER_SCF  T
         OPTIMIZER  NONE
         EPS_SCF     5.0000000000000004E-06
         MAX_SCF  4
       &END OUTER_SCF
       &PRINT
         &RESTART  OFF
           BACKUP_COPIES  1
           &EACH
             JUST_ENERGY  0
             QS_SCF  0
             MD  20
           &END EACH
         &END RESTART
       &END PRINT
     &END SCF
     &QS
       EPS_DEFAULT     1.0000000000000000E-14
       ALMO_SCF  F
       METHOD  GPW
     &END QS
     &MGRID
       NGRIDS  5
       CUTOFF     1.2000000000000000E+03
     &END MGRID
     &XC
       DENSITY_CUTOFF     1.0000000000000000E-10
       GRADIENT_CUTOFF     1.0000000000000000E-10
       TAU_CUTOFF     1.0000000000000000E-10
       &XC_FUNCTIONAL  NO_SHORTCUT
         &PBE  T
         &END PBE
       &END XC_FUNCTIONAL
       &VDW_POTENTIAL
         POTENTIAL_TYPE  PAIR_POTENTIAL
         &PAIR_POTENTIAL
           R_CUTOFF     1.0000000000000005E+01
           TYPE  DFTD3
           PARAMETER_FILE_NAME dftd3.dat
           REFERENCE_FUNCTIONAL PBE
           EPS_CN     9.9999999999999995E-07
           CALCULATE_C9_TERM  T
           REFERENCE_C9_TERM  T
           LONG_RANGE_CORRECTION  F
           VERBOSE_OUTPUT  F
         &END PAIR_POTENTIAL
       &END VDW_POTENTIAL
     &END XC
   &END DFT
   &SUBSYS
     &CELL
       A     9.7367653356401487E+00    0.0000000000000000E+00    0.0000000000000000E+00
       B    -4.8591341382960209E+00    8.4162672083210595E+00    0.0000000000000000E+00
       C     0.0000000000000000E+00    0.0000000000000000E+00    3.0744000000000000E+01
       MULTIPLE_UNIT_CELL  1 1 1
       &CELL_REF
         A     9.5580000000000052E+00    0.0000000000000000E+00    0.0000000000000000E+00
         B    -4.7790000000000026E+00    8.2774708093716640E+00    0.0000000000000000E+00
         C     0.0000000000000000E+00    0.0000000000000000E+00    3.0744000000000000E+01
         MULTIPLE_UNIT_CELL  1 1 1
       &END CELL_REF
     &END CELL
     &COORD
Ga   -4.3517412558656848E-02   -6.2375268349067460E-02   -5.3705918597517532E-01
N   -4.1951581734936190E-02    1.8109016913396945E+00    6.0880116015715990E-01
Ga   -4.4412989336090239E-02    1.7791704562894441E+00    2.6386681549023980E+00
N   -4.8124738846210019E-02   -6.4446899813813269E-02    3.2698190386322121E+00
Ga   -5.2619402711794411E-02   -6.3439447042752964E-02    5.2600406695579300E+00
N   -5.0206932411559026E-02    1.8111238891919039E+00    5.8477278434851234E+00
Ga   -5.5895955851478704E-02    1.8085237885302956E+00    7.8466493706052773E+00
N   -5.9490291945679251E-02   -6.5001326673390050E-02    8.4458963026891354E+00
Ga   -6.4108319867267574E-02   -6.4965245728563215E-02    1.0442852578651918E+01
N   -6.1467215891956854E-02    1.8035833428118739E+00    1.1051220837568630E+01
Ga   -6.2800011931121114E-02    1.7961322005421532E+00    1.3050815561999164E+01
N   -6.4274049823189378E-02   -7.8318890295517959E-02    1.3647393400582702E+01
Ga   -6.4745709381617472E-02   -9.7882624308644611E-02    1.5650073626376892E+01
N   -5.3538498042192302E-02    1.7770991950823434E+00    1.6212047800894538E+01
Ga   -7.0874853760180601E-02    1.7914819963205726E+00    1.8287993191006255E+01
N   -9.5692941058074660E-02   -8.7595843697579154E-02    1.8655407075836564E+01
Ga   -1.6644297244405735E+00    2.7414436224810004E+00    3.2532103813883329E-01
N   -1.6659216727781829E+00    4.6110134368475340E+00    6.0905159096531480E-01
Ga   -1.6394965167218474E+00    4.6265550769393302E+00    2.6381844987573237E+00
N   -1.6675138642886802E+00    2.7407691887804053E+00    3.2292246209058466E+00
Ga   -1.6720516336242053E+00    2.7418034606937942E+00    5.2398303017829022E+00
N   -1.6723367348696154E+00    4.6117172206139649E+00    5.8476037754361601E+00
Ga   -1.6775218430631977E+00    4.6110468301970320E+00    7.8464150472282652E+00
N   -1.6793388390502053E+00    2.7400794506523884E+00    8.4502897895669662E+00
Ga   -1.6823798619544299E+00    2.7385487568863538E+00    1.0446615156827368E+01
N   -1.6816866692877652E+00    4.6104082383403373E+00    1.1047127161496981E+01
Ga   -1.6815228387611401E+00    4.6027196967453419E+00    1.3042402413405020E+01
N   -1.6849376811592078E+00    2.7325042778724060E+00    1.3645563013228667E+01
Ga   -1.6808169525784757E+00    2.7252147516564782E+00    1.5653745778295233E+01
N   -1.7093060519786794E+00    4.6053604332881299E+00    1.6216475179522682E+01
Ga   -1.6682047093967622E+00    4.5659836976754571E+00    1.8236338990403816E+01
N   -1.6868785251933247E+00    2.7196791873507595E+00    1.8721931767772467E+01
Ga   -3.2847656107141439E+00    5.5468532372139823E+00    3.2557826593841394E-01
N   -3.2780218085243873E+00    7.4172426622674799E+00    6.0831010644303607E-01
Ga   -3.3083882436544547E+00    7.4322909668022357E+00    2.6382409432648957E+00
N   -3.2872459418641151E+00    5.5464834560548972E+00    3.2293261360215770E+00
Ga   -3.2918653126435924E+00    5.5471281288477305E+00    5.2400996034579128E+00
N   -3.2870579224202818E+00    7.4176224113760085E+00    5.8469179622902034E+00
Ga   -3.2939193379636258E+00    7.4170984166907417E+00    7.8459152998399331E+00
N   -3.2993191480462443E+00    5.5459764418261051E+00    8.4474861579219809E+00
Ga   -3.3025169095242144E+00    5.5445175338322636E+00    1.0442304624517114E+01
N   -3.2997135959974586E+00    7.4169741827323739E+00    1.1043961529363839E+01
Ga   -3.3009858508306311E+00    7.4164767552056077E+00    1.3036699895600881E+01
N   -3.3144600169815215E+00    5.5394867633340894E+00    1.3622821639130294E+01
Ga   -3.3114841381364388E+00    5.5327698930570097E+00    1.5603428604580007E+01
N   -3.3047396188525799E+00    7.3759598785706704E+00    1.6264095417862734E+01
Ga   -3.3256889809953227E+00    7.4049266663691657E+00    1.8297189743980880E+01
N   -3.3246159106846638E+00    5.4960432748637515E+00    1.8825545403456196E+01
Ga    3.2012501165935703E+00   -6.3904348474081232E-02    3.2526107091211326E-01
N    3.1991337137545548E+00    1.8059452717103524E+00    6.0666419274029171E-01
Ga    3.2254113266694957E+00    1.8214806056696820E+00    2.6372070580288827E+00
N    3.1979967119332406E+00   -6.4250950723037381E-02    3.2283524942766091E+00
Ga    3.1929318167065395E+00   -6.3642520385632922E-02    5.2387822912111810E+00
N    3.1926270915215680E+00    1.8064364131399786E+00    5.8459462275524725E+00
Ga    3.1869139310609773E+00    1.8053488750896136E+00    7.8440696446130662E+00
N    3.1866449346400390E+00   -6.4553274465316626E-02    8.4496422253251513E+00
Ga    3.1831363898248859E+00   -6.5439973215409383E-02    1.0444654075517221E+01
N    3.1856284866520541E+00    1.8031219238761522E+00    1.1055574246278253E+01
Ga    3.1830682711226306E+00    1.7931428975714216E+00    1.3053802204650246E+01
N    3.1726469017258681E+00   -7.5192527460472974E-02    1.3679055589895823E+01
Ga    3.1690499023450687E+00   -9.1063648507669473E-02    1.5694014689814217E+01
N    3.2075235772270712E+00    1.7968064203375345E+00    1.6240579967703173E+01
Ga    3.1805883091388365E+00    1.7762207655157498E+00    1.8304387797699178E+01
N    3.1520193107537708E+00   -9.7240361300796940E-02    1.8672864450116574E+01
Ga    1.5804802937109250E+00    2.7420072110856704E+00    3.2511256189272292E-01
N    1.5873175468755878E+00    4.6116026678330915E+00    6.0877824169540051E-01
Ga    1.5564710737360792E+00    4.6268430297974481E+00    2.6375075544282152E+00
N    1.5782968144922960E+00    2.7411860823439587E+00    3.2292343146520190E+00
Ga    1.5730632134187688E+00    2.7422539774134771E+00    5.2397200206339063E+00
N    1.5780609308704561E+00    4.6118795231968974E+00    5.8489220753532285E+00
Ga    1.5704824768623225E+00    4.6109539739781287E+00    7.8481151599045997E+00
N    1.5669029627319999E+00    2.7396896906294885E+00    8.4518864684288957E+00
Ga    1.5619389038721043E+00    2.7364353262809655E+00    1.0448832535583319E+01
N    1.5598526202459770E+00    4.6095782368482734E+00    1.1045592432810434E+01
Ga    1.5508181937783090E+00    4.6002541235412107E+00    1.3039409166769216E+01
N    1.5616936755352651E+00    2.7297934071769445E+00    1.3646415754739234E+01
Ga    1.5676067942808636E+00    2.7201401429866885E+00    1.5651748759167258E+01
N    1.5757333131985962E+00    4.5991525667397992E+00    1.6212173947361102E+01
Ga    1.5302530788214417E+00    4.5810742838345568E+00    1.8225993017644079E+01
N    1.5553647312058281E+00    2.7241196876830900E+00    1.8639894117834992E+01
Ga   -3.8499481261453333E-02    5.5458537412010571E+00   -5.4297797364526301E-01
N   -3.5969105065720389E-02    7.4214436907291006E+00    6.0827910546358366E-01
Ga   -3.8295134426261791E-02    7.3890062580193101E+00    2.6373372170982154E+00
N   -4.1497760755340403E-02    5.5461989747059590E+00    3.2707208976862177E+00
Ga   -4.6233792931597774E-02    5.5467952147112518E+00    5.2601686313719505E+00
N   -4.4055946951454941E-02    7.4217431261733138E+00    5.8465970226271242E+00
Ga   -5.0370442071798138E-02    7.4199238395408456E+00    7.8447490521315375E+00
N   -5.4253043225762555E-02    5.5476201113960535E+00    8.4474193609873129E+00
Ga   -6.0420100046662414E-02    5.5469771023744645E+00    1.0444743257018585E+01
N   -5.6700152063648278E-02    7.4175063840251552E+00    1.1057203202505280E+01
Ga   -6.1670746021273301E-02    7.4147847116780721E+00    1.3056380785211855E+01
N   -6.5409536065402049E-02    5.5416558476912421E+00    1.3655069874743342E+01
Ga   -6.7786829272796834E-02    5.5314588630544756E+00    1.5662302212863610E+01
N   -3.9387161585322426E-02    7.4090793422816459E+00    1.6261014335407229E+01
Ga   -6.5376787978538839E-02    7.4096645055824606E+00    1.8348070397353176E+01
N   -7.2317396012085866E-02    5.5202913931900222E+00    1.8629558908429104E+01
Ga    6.4451978531478460E+00   -6.3622168619603556E-02    3.2501910909830112E-01
N    6.4522229315500175E+00    1.8065271507440923E+00    6.0587256555191316E-01
Ga    6.4221490575179336E+00    1.8216846084949170E+00    2.6365644021167052E+00
N    6.4435241243520789E+00   -6.4157804237174834E-02    3.2282552599107466E+00
Ga    6.4388504257736274E+00   -6.3354907491144294E-02    5.2390874964177643E+00
N    6.4437348887130232E+00    1.8064481312791536E+00    5.8470503993201532E+00
Ga    6.4364041430648582E+00    1.8052923570341939E+00    7.8458465683366168E+00
N    6.4305659790383265E+00   -6.5150491450765721E-02    8.4508855556120910E+00
Ga    6.4251406098758039E+00   -6.6086372579161043E-02    1.0446735616794939E+01
N    6.4289693426850372E+00    1.8055755441533532E+00    1.1047667566975692E+01
Ga    6.4327518473075829E+00    1.8003545922703399E+00    1.3041504032010353E+01
N    6.4221453675869338E+00   -6.7443487469036986E-02    1.3656044528135080E+01
Ga    6.4316319564946918E+00   -8.5224723568312760E-02    1.5662027619448947E+01
N    6.4315282900629516E+00    1.7980816946812721E+00    1.6266433446379278E+01
Ga    6.4346885449716256E+00    1.7811314093405524E+00    1.8353574191444011E+01
N    6.4172601492653163E+00   -9.1524729582824205E-02    1.8722373472995013E+01
Ga    4.8260210876965095E+00    2.7426151614128851E+00   -5.4620820598555231E-01
N    4.8293440790427162E+00    4.6165066471057878E+00    6.0691788459207996E-01
Ga    4.8269060515312194E+00    4.5841641914533939E+00    2.6372914553065709E+00
N    4.8238737922779977E+00    2.7409591815242766E+00    3.2689619135565762E+00
Ga    4.8190948798200193E+00    2.7420521207863611E+00    5.2589745872184119E+00
N    4.8208371914091641E+00    4.6163733856912552E+00    5.8474469420598965E+00
Ga    4.8142191266278589E+00    4.6135431183863957E+00    7.8465067534328146E+00
N    4.8107877436633055E+00    2.7388716517724374E+00    8.4444528184470435E+00
Ga    4.8065454952319140E+00    2.7346947100304959E+00    1.0439333203739805E+01
N    4.8092390763083115E+00    4.6068033532482522E+00    1.1035891025603119E+01
Ga    4.8059965121633335E+00    4.5988185931104191E+00    1.3022472312457131E+01
N    4.8089460787238529E+00    2.7337559763501966E+00    1.3648749404645782E+01
Ga    4.8125344380941195E+00    2.7240614875863667E+00    1.5645177272261233E+01
N    4.8046392903340323E+00    4.6080982266606698E+00    1.6219259413660978E+01
Ga    4.8013680569522652E+00    4.5442300580083819E+00    1.8195419668570331E+01
N    4.7958871651823669E+00    2.7109929481463331E+00    1.8763165613703023E+01
Ga    3.2069259741769662E+00    5.5463434308302295E+00    3.2509635226213190E-01
N    3.2056865492660624E+00    7.4167025153877626E+00    6.0725041151936643E-01
Ga    3.2313988523452539E+00    7.4319742152763375E+00    2.6376126734026673E+00
N    3.2040313247910404E+00    5.5464954509340485E+00    3.2290869658105894E+00
Ga    3.1990283101112267E+00    5.5473026360891913E+00    5.2399360609927630E+00
N    3.1986803486693747E+00    7.4174407048037505E+00    5.8477456645530186E+00
Ga    3.1935203642285539E+00    7.4169842692922519E+00    7.8466888965576587E+00
N    3.1912177996255044E+00    5.5464173415425400E+00    8.4504696016757332E+00
Ga    3.1844900070273114E+00    5.5448677626124114E+00    1.0445926561994845E+01
N    3.1895155752596365E+00    7.4178714342310501E+00    1.1047162539093133E+01
Ga    3.1860535774095116E+00    7.4176180325992238E+00    1.3041900594100584E+01
N    3.1815581578575385E+00    5.5334805523738879E+00    1.3615717496200279E+01
Ga    3.1867752969134138E+00    5.5307853597956305E+00    1.5591537767270150E+01
N    3.1862047799307778E+00    7.3761926900942960E+00    1.6204714832095362E+01
Ga    3.1637902853122526E+00    7.4322312452719164E+00    1.8216256869256018E+01
N    3.1840894061502407E+00    5.5202207179844107E+00    1.8800350997142857E+01
H    3.2021608102562595E+00    5.5303670913586496E+00    1.9826776960920196E+01
H    4.9723699764890821E+00    2.9555149319948462E+00    2.0678555094074369E+01
H    4.8430087718506059E+00    2.8836729794247926E+00    2.2600554122144441E+01
C    5.0433477685182897E+00    3.4804439255578812E+00    2.1681317381298616E+01
O    5.3119528960315998E+00    4.6710485614876918E+00    2.1747967070719511E+01
H    6.3694034284977183E+00    5.4515615791092511E+00    1.9852743056393866E+01
     &END COORD
     &KIND C
       BASIS_SET DZVP-MOLOPT-SR-GTH-q4
       POTENTIAL GTH-PBE-q4
       &POTENTIAL
 2 2
  0.3384712400000000E+00 2 -0.8803673979999999E+01  0.1339210850000000E+01
 2
  0.3025757500000000E+00 1  0.9622486650000001E+01
  0.2915069400000000E+00 0
         # Potential name:  GTH-PBE-Q4  for symbol:  C
         # Potential read from the potential filename: GTH_POTENTIALS
       &END POTENTIAL
     &END KIND
     &KIND O
       BASIS_SET DZVP-MOLOPT-SR-GTH-q6
       POTENTIAL GTH-PBE-q6
       &POTENTIAL
 2 4
  0.2445543000000000E+00 2 -0.1666721480000000E+02  0.2487311320000000E+01
 2
  0.2209559200000000E+00 1  0.1833745811000000E+02
  0.2113324700000000E+00 0
         # Potential name:  GTH-PBE-Q6  for symbol:  O
         # Potential read from the potential filename: GTH_POTENTIALS
       &END POTENTIAL
     &END KIND
     &KIND H
       BASIS_SET DZVP-MOLOPT-SR-GTH-q1
       POTENTIAL GTH-PBE-q1
       &POTENTIAL
 1
  0.2000000000000000E+00 2 -0.4178900440000000E+01  0.7244633100000000E+00
 0
         # Potential name:  GTH-PBE-Q1  for symbol:  H
         # Potential read from the potential filename: GTH_POTENTIALS
       &END POTENTIAL
     &END KIND
     &KIND N
       BASIS_SET DZVP-MOLOPT-SR-GTH-q5
       POTENTIAL GTH-PBE-q5
       &POTENTIAL
 2 3
  0.2837905100000000E+00 2 -0.1241522559000000E+02  0.1868095920000000E+01
 2
  0.2554050000000000E+00 1  0.1363026257000000E+02
  0.2454945300000000E+00 0
         # Potential name:  GTH-PBE-Q5  for symbol:  N
         # Potential read from the potential filename: GTH_POTENTIALS
       &END POTENTIAL
     &END KIND
     &KIND Ga
       BASIS_SET DZVP-MOLOPT-SR-GTH-q13
       POTENTIAL GTH-PBE-q13
       &POTENTIAL
 2 1 10
  0.4900000000000000E+00 0
 3
  0.4167772300000000E+00 3  0.1047568975000000E+02 -0.4921768140000000E+01  0.8707055900000000E+00
  0.7770178090000000E+01 -0.2248152160000000E+01
  0.1784415450000000E+01
  0.5696265200000000E+00 2  0.1777985340000000E+01  0.1958597600000000E+00
 -0.2317443900000000E+00
  0.2381265000000000E+00 1 -0.1624868022000000E+02
         # Potential name:  GTH-PBE-Q13  for symbol:  GA
         # Potential read from the potential filename: GTH_POTENTIALS
       &END POTENTIAL
     &END KIND
     &TOPOLOGY
       NUMBER_OF_ATOMS  150
       MULTIPLE_UNIT_CELL  1 1 1
     &END TOPOLOGY
   &END SUBSYS
 &END FORCE_EVAL
