#p

i =       89, E =     -8480.6276854089

0 1
 N                 -0.00464849    2.04258627    2.50792144
 Ga                -0.02227636    0.08679336    2.83171223
 N                 -0.00157563    0.04780101    5.02183770
 Ga                -0.00246396    1.87737708    5.79429206
 N                 -0.00258397    1.89161664    7.79910081
 Ga                -0.00465511    0.04685383    8.44311242
 N                 -0.00292276    0.04455699   10.41962496
 Ga                -0.00308927    1.88466531   11.06866478
 N                 -0.00265811    1.86447288   13.06452693
 Ga                -0.00197605    0.04392632   13.86674981
 N                 -0.00086857    0.04209851   16.07089304
 Ga                -0.00253367    2.07957723   16.48118829
 Ga                -0.02840977    3.73177982    1.32225955
 N                 -1.48556857    4.62766740    2.50174244
 Ga                -1.67761711    2.78372756    3.26950331
 N                 -1.61248703    2.83405999    5.25329148
 Ga                -1.63989036    4.69688610    5.80533514
 N                 -1.62030530    4.69579836    7.80168319
 Ga                -1.60150057    2.83417761    8.43392150
 N                 -1.59993612    2.83699112   10.43091898
 Ga                -1.62629551    4.69410113   11.07171048
 N                 -1.64263497    4.70452171   13.06568210
 Ga                -1.59983371    2.83573058   13.62129063
 N                 -1.62630747    2.82057596   15.58438495
 Ga                -1.44808395    4.59083011   16.48229423
 N                  0.00495066    3.75145564   17.61682613
 N                 -3.21069290    7.59654322    2.51939421
 Ga                -3.19210075    5.58826752    2.84535322
 N                 -3.21802918    5.61790063    5.01890796
 Ga                -3.22550365    7.43673711    5.80799696
 N                 -3.21716861    7.46262122    7.79942568
 Ga                -3.21873664    5.61524712    8.44991020
 N                 -3.21887832    5.61631261   10.42269605
 Ga                -3.22028416    7.45492638   11.07396386
 N                 -3.21892320    7.43512664   13.06711616
 Ga                -3.21858615    5.61421011   13.86923709
 N                 -3.21758479    5.61285954   16.07092112
 Ga                -3.21904398    7.65340642   16.48326847
 Ga                -3.24815965    9.34912922    1.49254445
 N                 -4.72631006   10.20131169    2.52534462
 Ga                -4.93730838    8.34755766    3.28964282
 N                 -4.82439570    8.40229875    5.25138634
 Ga                -4.85887258   10.27729933    5.80141243
 N                 -4.83622872   10.26327994    7.79913272
 Ga                -4.81926101    8.40796622    8.43806663
 N                 -4.81531158    8.40671236   10.43179747
 Ga                -4.84233515   10.26617257   11.06967705
 N                 -4.85831070   10.27483647   13.06418071
 Ga                -4.81664282    8.40664570   13.62223492
 N                 -4.84429519    8.39080750   15.58413934
 Ga                -4.66158590   10.16006461   16.48404783
 N                 -3.21161654    9.32278306   17.61611399
 N                  3.20117424    1.91015919    2.61948196
 Ga                 3.20209002    0.17239296    3.29266952
 N                  3.21416571    0.04361660    5.25439920
 Ga                 3.20403307    1.90751067    5.87401229
 N                  3.21329808    1.90151140    7.85127635
 Ga                 3.21121161    0.03572194    8.43987614
 N                  3.21371984    0.03196434   10.43329765
 Ga                 3.21339146    1.90182363   11.02733499
 N                  3.21341755    1.90083347   12.99979639
 Ga                 3.21285266    0.03159501   13.62229298
 N                  3.21175427    0.06233663   15.58439496
 Ga                 3.21342902    1.90043495   15.86459523
 N                  1.48138237    4.62595684    2.50308610
 Ga                 1.66627929    2.79357293    3.26236542
 N                  1.60632982    2.83294053    5.25066106
 Ga                 1.63649903    4.69684410    5.80546598
 N                  1.61368528    4.69467086    7.80313347
 Ga                 1.59438885    2.83505792    8.43739489
 N                  1.59483143    2.83648911   10.43328762
 Ga                 1.62091900    4.69449624   11.07192724
 N                  1.63736800    4.70451345   13.06646159
 Ga                 1.59422802    2.83548186   13.62185318
 N                  1.62094291    2.81922525   15.58589906
 Ga                 1.44912768    4.59424148   16.48156522
 N                  0.00353065    7.46378776    2.69804620
 Ga                 0.00428527    5.60132069    3.32337220
 N                 -0.00331876    5.63261736    5.26299686
 Ga                 0.00338536    7.46895255    5.90759268
 N                 -0.00247077    7.47411226    7.86591742
 Ga                -0.00259911    5.60085436    8.44714040
 N                 -0.00290610    5.60275535   10.43767000
 Ga                -0.00180237    7.47182483   11.03107069
 N                 -0.00225135    7.47138726   13.00232307
 Ga                -0.00299056    5.60114420   13.62273831
 N                 -0.00378418    5.63103844   15.58556983
 Ga                -0.00184525    7.47017560   15.86452655
 N                 -1.71481523   10.19062527    2.52259816
 Ga                -1.58112275    8.38260749    3.33556862
 N                 -1.59777210    8.39501331    5.26052293
 Ga                -1.58539631   10.28190558    5.81244144
 N                 -1.60150984   10.26138639    7.80259613
 Ga                -1.62269354    8.40793818    8.44971276
 N                 -1.62197473    8.40687887   10.43841816
 Ga                -1.59645454   10.26721056   11.07352486
 N                 -1.57886389   10.27526925   13.06691226
 Ga                -1.62191814    8.40657026   13.62370830
 N                 -1.59330747    8.38877066   15.58648985
 Ga                -1.76967637   10.16384622   16.48318073
 N                  6.42677623    2.02858570    2.53961726
 Ga                 6.44316402    0.05067606    2.86710684
 N                  6.42541949    0.04714793    5.02752779
 Ga                 6.42765623    1.87800720    5.80639768
 N                  6.42879327    1.89096470    7.80256222
 Ga                 6.43064590    0.04603351    8.44923484
 N                  6.42938747    0.04436743   10.42223735
 Ga                 6.43011745    1.88552304   11.07017514
 N                  6.42970801    1.86438580   13.06504624
 Ga                 6.43009443    0.04448819   13.86924712
 N                  6.43086034    0.04245114   16.07110813
 Ga                 6.42976468    2.08195762   16.48143238
 Ga                 6.42976877    3.75849639    1.53259497
 N                  4.92654840    4.62657684    2.53116806
 Ga                 4.70787857    2.77646733    3.29898896
 N                  4.81836701    2.83127107    5.26002018
 Ga                 4.79315235    4.70433939    5.80416425
 N                  4.81158462    4.69380779    7.80194900
 Ga                 4.82958140    2.83624647    8.43948611
 N                  4.83240758    2.83654043   10.43358089
 Ga                 4.80729481    4.69589494   11.06976969
 N                  4.79019204    4.70459650   13.06437023
 Ga                 4.83226886    2.83594800   13.62131525
 N                  4.80467987    2.82050135   15.58361076
 Ga                 4.98653105    4.58994555   16.48261751
 N                  6.43739817    3.75213197   17.61487602
 N                  3.20744292    7.58941061    2.50697127
 N                  3.21211952    5.61548382    5.02716549
 Ga                 3.21960622    7.43896223    5.80050147
 N                  3.21150547    7.46351164    7.79756593
 Ga                 3.21288303    5.61692582    8.44791629
 N                  3.21322562    5.61635501   10.42210159
 Ga                 3.21527696    7.45533916   11.07240340
 N                  3.21383206    7.43523884   13.06646702
 Ga                 3.21455488    5.61411212   13.86802960
 N                  3.21531743    5.61254103   16.07143374
 Ga                 3.21404742    7.65033237   16.48134459
 Ga                 3.24594129    9.35158430    1.34369791
 N                  1.70094488   10.19516660    2.51264373
 Ga                 1.60719205    8.39713339    3.31014718
 N                  1.59230350    8.39513865    5.24938092
 Ga                 1.58197962   10.27898721    5.80282357
 N                  1.59457312   10.26147443    7.79815478
 Ga                 1.61880435    8.40911222    8.44748149
 N                  1.61697286    8.40745930   10.43725303
 Ga                 1.59177929   10.26756008   11.07192655
 N                  1.57369681   10.27537112   13.06561007
 Ga                 1.61673701    8.40701073   13.62281565
 N                  1.58997508    8.39117953   15.58548014
 Ga                 1.76813999   10.16189656   16.48202130
 N                  3.22181024    9.32287032   17.61644041
 N                  9.65478236    1.90408708    2.63066447
 Ga                 9.65084887    0.14397853    3.26399813
 N                  9.64238329    0.04297716    5.24400500
 Ga                 9.65235498    1.90005410    5.86600154
 N                  9.64506740    1.90128234    7.84699297
 Ga                 9.64742379    0.03509733    8.43391348
 N                  9.64542910    0.03192090   10.43024971
 Ga                 9.64662768    1.90138175   11.02518562
 N                  9.64612169    1.90059310   12.99873888
 Ga                 9.64581876    0.03141499   13.62152102
 N                  9.64487824    0.06061258   15.58470320
 Ga                 9.64625500    1.89972503   15.86400408
 N                  7.92977654    4.62722788    2.53664426
 Ga                 8.14856471    2.76956103    3.30024366
 N                  8.03685638    2.83116178    5.26094026
 Ga                 8.06154018    4.70308799    5.80153984
 N                  8.04813726    4.69486110    7.79916765
 Ga                 8.03017442    2.83572948    8.43615284
 N                  8.02721653    2.83668371   10.43190255
 Ga                 8.05183297    4.69516502   11.07061596
 N                  8.06943302    4.70465703   13.06530841
 Ga                 8.02690720    2.83573288   13.62130453
 N                  8.05484617    2.81854914   15.58481321
 Ga                 7.87989259    4.59382688   16.48177682
 N                  6.42433625    7.47611589    2.61177617
 Ga                 6.42298233    5.73887847    3.29616830
 N                  6.42823976    5.61923663    5.25706765
 Ga                 6.42302750    7.47802256    5.87066055
 N                  6.42924538    7.47405001    7.84708442
 Ga                 6.42957285    5.60614072    8.43747865
 N                  6.43002864    5.60336430   10.43191826
 Ga                 6.42973409    7.47244640   11.02639024
 N                  6.42962281    7.47164977   12.99884483
 Ga                 6.42945372    5.60219377   13.62142802
 N                  6.42814055    5.63252095   15.58378026
 Ga                 6.42928372    7.47055062   15.86560992
 N                  4.71874215   10.20048026    2.51410945
 Ga                 4.90063192    8.35747932    3.26033174
 N                  4.81848064    8.40157872    5.24038912
 Ga                 4.84700513   10.27427344    5.79033503
 N                  4.83070255   10.26317416    7.79411957
 Ga                 4.81207672    8.40917438    8.43563915
 N                  4.81075299    8.40684206   10.43114032
 Ga                 4.83603571   10.26611062   11.06894458
 N                  4.85321911   10.27496724   13.06446021
 Ga                 4.81104751    8.40667577   13.62197677
 N                  4.83735842    8.38997478   15.58589948
 Ga                 4.66623157   10.16547023   16.48121399
 O                 -0.02177434    3.74513078   -0.49173377
 H                 -0.00146187    7.45398659    1.67153888
 C                  0.61152288    2.62044402   -1.12360674
 H                  1.67922446    2.53770753   -0.86173894
 H                  0.11916105    1.66812495   -0.86635173
 H                  0.53138018    2.76818097   -2.21042832
 Ga                 3.23312118    5.61140927    2.56868130
 O                  3.21437588    5.57393118    0.20452531
 H                  3.24955430    4.66843350   -0.14925902
 C                  4.16403612    6.40616884   -0.50318870
 H                  3.78866028    7.43383915   -0.62644720
 H                  5.07704655    6.45115737    0.10641365
 H                  4.38173494    5.97513242   -1.48977935

