 # Version information for this restart file 
 # current date 2019-06-29 07:05:40.467
 # current working dir /scratch/rzk/rzk/GaN-carbene/443-adatoms-both-2x2/05-2DissMethanol/01-Combine0304-0202
 # Program compiled at                              Sun Apr  7 00:48:11 EDT 2019
 # Program compiled on                          beluga2.int.ets1.calculquebec.ca
 # Program compiled for                        Beluga-Linux-x86-64-intel-openmpi
 # Source code revision number                                         svn:18619
 &GLOBAL
   PRINT_LEVEL  MEDIUM
   PROJECT_NAME TEST
   RUN_TYPE  GEO_OPT
 &END GLOBAL
 &MOTION
   &GEO_OPT
     MAX_ITER  500
     STEP_START_VAL  133
   &END GEO_OPT
 &END MOTION
 &FORCE_EVAL
   METHOD  QS
   STRESS_TENSOR  ANALYTICAL
   &DFT
     BASIS_SET_FILE_NAME BASIS_MOLOPT
     POTENTIAL_FILE_NAME GTH_POTENTIALS
     UKS  T
     SURFACE_DIPOLE_CORRECTION  T
     SURF_DIP_DIR  Z
     &SCF
       MAX_SCF  80
       EPS_SCF     5.0000000000000004E-06
       &OT  T
         PRECONDITIONER  FULL_ALL
       &END OT
       &OUTER_SCF  T
         OPTIMIZER  NONE
         EPS_SCF     5.0000000000000004E-06
         MAX_SCF  4
       &END OUTER_SCF
       &PRINT
         &RESTART  OFF
           BACKUP_COPIES  1
           &EACH
             JUST_ENERGY  0
             QS_SCF  0
             MD  20
           &END EACH
         &END RESTART
       &END PRINT
     &END SCF
     &QS
       EPS_DEFAULT     1.0000000000000000E-14
       METHOD  GPW
     &END QS
     &MGRID
       NGRIDS  5
       CUTOFF     1.2000000000000000E+03
     &END MGRID
     &XC
       DENSITY_CUTOFF     1.0000000000000000E-10
       GRADIENT_CUTOFF     1.0000000000000000E-10
       TAU_CUTOFF     1.0000000000000000E-10
       &XC_FUNCTIONAL  NO_SHORTCUT
         &PBE  T
         &END PBE
       &END XC_FUNCTIONAL
       &VDW_POTENTIAL
         POTENTIAL_TYPE  PAIR_POTENTIAL
         &PAIR_POTENTIAL
           R_CUTOFF     1.0000000000000004E+01
           TYPE  DFTD3
           PARAMETER_FILE_NAME dftd3.dat
           REFERENCE_FUNCTIONAL PBE
           EPS_CN     9.9999999999999995E-07
           CALCULATE_C9_TERM  T
           REFERENCE_C9_TERM  T
           LONG_RANGE_CORRECTION  F
           VERBOSE_OUTPUT  F
         &END PAIR_POTENTIAL
       &END VDW_POTENTIAL
     &END XC
   &END DFT
   &SUBSYS
     &CELL
       A     1.2864472766435110E+01    0.0000000000000000E+00    0.0000000000000000E+00
       B    -6.4322363581020028E+00    1.1140960178524473E+01    0.0000000000000000E+00
       C     0.0000000000000000E+00    0.0000000000000000E+00    3.2000000000000000E+01
       MULTIPLE_UNIT_CELL  1 1 1
       &CELL_REF
         A     1.2982353780853531E+01    0.0000000000000000E+00    0.0000000000000000E+00
         B    -6.4911768904267628E+00    1.1243048175136114E+01    0.0000000000000000E+00
         C     0.0000000000000000E+00    0.0000000000000000E+00    3.2000000000000000E+01
         MULTIPLE_UNIT_CELL  1 1 1
       &END CELL_REF
     &END CELL
     &COORD
N   -1.0057718353722214E-03    2.0545814921166108E+00    2.5073058811207058E+00
Ga    2.0421631350196614E-02    8.7093627747482652E-02    2.8486529001011398E+00
N   -1.0427783939076216E-02    6.0922910194632349E-02    5.0159032263140677E+00
Ga   -5.8092091616297028E-03    1.8891879715880910E+00    5.7995033707415153E+00
N   -7.4272363772539289E-03    1.9004965450363689E+00    7.8005094058640481E+00
Ga   -2.9865612785252241E-03    5.5115746134257210E-02    8.4401828340680574E+00
N   -4.9028068165448109E-03    5.4800172078218502E-02    1.0417867069589370E+01
Ga   -5.0487599572812195E-03    1.8935812539097860E+00    1.1070846724807227E+01
N   -5.0612821410527887E-03    1.8755655600344401E+00    1.3066517586252251E+01
Ga   -4.3827512039621265E-03    5.5271468124403020E-02    1.3868190072524419E+01
N   -3.8654945744050111E-03    5.6294015290416742E-02    1.6071242476043881E+01
Ga   -6.2423181090363756E-03    2.0962087818046915E+00    1.6480815351071751E+01
Ga    3.3428826069760657E-02    3.7362632877229589E+00    1.3723213692163139E+00
N   -1.4741885489511213E+00    4.6336764522251999E+00    2.4743273911534538E+00
Ga   -1.6795178860089379E+00    2.7992430506234198E+00    3.2665907831146450E+00
N   -1.6161281455804395E+00    2.8445719489513381E+00    5.2473109964574274E+00
Ga   -1.6445445704150066E+00    4.7081137310354970E+00    5.8116437471180573E+00
N   -1.6246204395533894E+00    4.7047358249882718E+00    7.8054727079058237E+00
Ga   -1.6024469713515197E+00    2.8456946719523515E+00    8.4412950929726982E+00
N   -1.6024655323129007E+00    2.8473350803906925E+00    1.0435196215884590E+01
Ga   -1.6309768548714525E+00    4.7063209791626184E+00    1.1072761762554913E+01
N   -1.6448283545508691E+00    4.7159525121565746E+00    1.3066533016371139E+01
Ga   -1.6023461244533024E+00    2.8471496721092930E+00    1.3620648548924715E+01
N   -1.6304098180041990E+00    2.8347018007977565E+00    1.5583018960477029E+01
Ga   -1.4512701162468349E+00    4.6058665324162025E+00    1.6479582085263313E+01
N   -3.7827548207181503E-03    3.7662325059589641E+00    1.7610667366009316E+01
N   -3.2171701062739406E+00    7.5958027797553305E+00    2.4980388447762896E+00
Ga   -3.1951762760300100E+00    5.6267196961044368E+00    2.8429822488673357E+00
N   -3.2179607216774762E+00    5.6205251062521082E+00    5.0148526192236220E+00
Ga   -3.2297671317389902E+00    7.4504719060509164E+00    5.7879644152013485E+00
N   -3.2207247420162219E+00    7.4731871616054857E+00    7.7875193538491434E+00
Ga   -3.2239410544595817E+00    5.6283091717042844E+00    8.4439040758430401E+00
N   -3.2223386153478830E+00    5.6273659580137334E+00    1.0418920544908806E+01
Ga   -3.2237839844026235E+00    7.4668515347248432E+00    1.1068498456817681E+01
N   -3.2207767964124780E+00    7.4470715213389846E+00    1.3063596049240410E+01
Ga   -3.2193720894958013E+00    5.6271663843271726E+00    1.3867046956222811E+01
N   -3.2190820133332880E+00    5.6282312097035803E+00    1.6070500940306701E+01
Ga   -3.2223435891439136E+00    7.6711943665089830E+00    1.6483453270201203E+01
Ga   -3.2567876608983588E+00    9.3665193752490499E+00    1.2813576142481760E+00
N   -4.7292689392234015E+00    1.0213007980740935E+01    2.5068928653509848E+00
Ga   -4.9085646338304691E+00    8.3673118220713558E+00    3.2399454090664461E+00
N   -4.8325669142062511E+00    8.4086111347507728E+00    5.2254323851172195E+00
Ga   -4.8531838098146185E+00    1.0282819853660209E+01    5.7773609955880065E+00
N   -4.8387801293615169E+00    1.0273751181055260E+01    7.7840751732866948E+00
Ga   -4.8222775062507903E+00    8.4183707237382990E+00    8.4255146503295570E+00
N   -4.8185442622919279E+00    8.4179968605391462E+00    1.0424399511728733E+01
Ga   -4.8438683136518099E+00    1.0275817737188508E+01    1.1066090421688560E+01
N   -4.8602015550528748E+00    1.0286221946031569E+01    1.3062632990639328E+01
Ga   -4.8169139970932795E+00    8.4183704445215746E+00    1.3621684695672348E+01
N   -4.8440354093594973E+00    8.4040480917688622E+00    1.5583400351890372E+01
Ga   -4.6693198579089028E+00    1.0177151077575541E+01    1.6484723765888067E+01
N   -3.2216645224987395E+00    9.3416587173124253E+00    1.7622477340031875E+01
N    3.1917880999972090E+00    1.9247143875428363E+00    2.5993234625549477E+00
Ga    3.2050615904837585E+00    1.5608740877108862E-01    3.2449314367348525E+00
N    3.2127951023793444E+00    6.1364105784330568E-02    5.2304710452455492E+00
Ga    3.2076486068411527E+00    1.9161599410300676E+00    5.8656922367822038E+00
N    3.2124352842699424E+00    1.9137586666831405E+00    7.8464939225655099E+00
Ga    3.2082411061365743E+00    4.6328128476386350E-02    8.4291339667939997E+00
N    3.2105094022087135E+00    4.1963758293370124E-02    1.0427325374368440E+01
Ga    3.2103733275050854E+00    1.9096591694576592E+00    1.1028118891564720E+01
N    3.2105387027249264E+00    1.9112145579516147E+00    1.3001843236664984E+01
Ga    3.2115485966878841E+00    4.1953971373097781E-02    1.3621705116673748E+01
N    3.2111258198198374E+00    7.3971379005329255E-02    1.5583929819885027E+01
Ga    3.2101217635939978E+00    1.9123115951682734E+00    1.5860709835191015E+01
N    1.4705207150128634E+00    4.6410908544255438E+00    2.5215627501882851E+00
Ga    1.6840935791370621E+00    2.8087524205692560E+00    3.2973620576708687E+00
N    1.6008040632545091E+00    2.8476084028232123E+00    5.2628948439057064E+00
Ga    1.6504873898936028E+00    4.7219716150025484E+00    5.8236110551246822E+00
N    1.6001247148496962E+00    4.7005175521169233E+00    7.8284826513055474E+00
Ga    1.5918958937524563E+00    2.8439990084702584E+00    8.4417399309562722E+00
N    1.5919960855359536E+00    2.8440079395511249E+00    1.0438424573323285E+01
Ga    1.6190006814934998E+00    4.7056341579971805E+00    1.1069568359414582E+01
N    1.6346620747047831E+00    4.7160463297661055E+00    1.3065996082155495E+01
Ga    1.5916609980237209E+00    2.8481023342681917E+00    1.3621695900567907E+01
N    1.6198796625631096E+00    2.8338084129961310E+00    1.5585899253348996E+01
Ga    1.4414236923447330E+00    4.6073616087766336E+00    1.6479714370075666E+01
N   -1.5409216594866134E-02    7.4755882969301650E+00    2.6927374577551646E+00
Ga    1.6156218507328741E-03    5.6247978879162073E+00    3.3404815270969519E+00
N   -9.4092463864079105E-03    5.6405893209382478E+00    5.2695350939632455E+00
Ga   -9.5310861760012928E-03    7.4821811946760937E+00    5.9045847215265921E+00
N   -5.1399529370575381E-03    7.4863985009866276E+00    7.8644685070958893E+00
Ga   -7.8186478746920061E-03    5.6129508091542206E+00    8.4543101742173139E+00
N   -8.4903085159090605E-03    5.6159468805096262E+00    1.0444949959468000E+01
Ga   -8.1940626281127721E-03    7.4846401177347754E+00    1.1034622585886543E+01
N   -5.8903064242060458E-03    7.4840417103229306E+00    1.3005948359149428E+01
Ga   -4.5853360720823745E-03    5.6129272797044267E+00    1.3621746144554908E+01
N   -5.9791979802277309E-03    5.6461770537467260E+00    1.5583559591962464E+01
Ga   -4.7368091084412168E-03    7.4847940452471882E+00    1.5858475649073313E+01
N   -1.7092163605739512E+00    1.0212711078911497E+01    2.5066052677407482E+00
Ga   -1.6263715169981010E+00    8.4169926565450996E+00    3.2990700714002408E+00
N   -1.6011231930638821E+00    8.4068442709535933E+00    5.2419008123367075E+00
Ga   -1.5942525693574279E+00    1.0290807941430792E+01    5.7947049024939714E+00
N   -1.6040710149012700E+00    1.0273211239778050E+01    7.7913455874290749E+00
Ga   -1.6281342776824281E+00    8.4200011562909562E+00    8.4408668785600369E+00
N   -1.6258868308083028E+00    8.4187188807300117E+00    1.0433301322521137E+01
Ga   -1.5998778793531021E+00    1.0278177404805517E+01    1.1069326680524949E+01
N   -1.5809785736490816E+00    1.0286527613032247E+01    1.3064300024630395E+01
Ga   -1.6252039713648034E+00    8.4188541469853035E+00    1.3623975669655993E+01
N   -1.5982491738348117E+00    8.4038747577064044E+00    1.5586775645144966E+01
Ga   -1.7745752465713611E+00    1.0177160974073656E+01    1.6484487065157449E+01
N    6.4268402129763560E+00    2.0393662694744923E+00    2.5403529052609333E+00
Ga    6.4058107784058764E+00    5.6474983426210226E-02    2.8820563057148889E+00
N    6.4322559645636455E+00    5.9247371526723012E-02    5.0243979910632808E+00
Ga    6.4203183254147991E+00    1.8940904293707761E+00    5.7990807662285713E+00
N    6.4252636918024031E+00    1.9013289942847122E+00    7.7959972952294700E+00
Ga    6.4245371517560255E+00    5.7352797127014313E-02    8.4444117341786207E+00
N    6.4268317208104326E+00    5.5637188842996371E-02    1.0419193392087465E+01
Ga    6.4276047835484524E+00    1.8950794572367460E+00    1.1071218891860825E+01
N    6.4282528597304509E+00    1.8746618905421661E+00    1.3067046655820571E+01
Ga    6.4282474252337733E+00    5.3592131530585119E-02    1.3869037762652633E+01
N    6.4285596754835082E+00    5.4487752464218289E-02    1.6072137314153171E+01
Ga    6.4257176074431364E+00    2.0891290303116214E+00    1.6473955875864071E+01
Ga    6.4638489541791833E+00    3.7434322941522060E+00    1.5157268413886060E+00
N    4.9206926032355467E+00    4.6396151217992712E+00    2.4193771083143480E+00
Ga    4.6906410927918625E+00    2.8076023847795479E+00    3.2786770978543109E+00
N    4.8176301924648479E+00    2.8514882939830719E+00    5.2386371719580307E+00
Ga    4.7754881772095512E+00    4.7254993497913302E+00    5.8181471302002921E+00
N    4.8205832745917911E+00    4.6978476393252757E+00    7.8240671615721524E+00
Ga    4.8281571836968462E+00    2.8449866220437872E+00    8.4457449028608913E+00
N    4.8298183470565386E+00    2.8442053684034203E+00    1.0439864503487176E+01
Ga    4.8040824816321575E+00    4.7069815868789195E+00    1.1067931732503483E+01
N    4.7873582116933724E+00    4.7164876742956894E+00    1.3065536615223103E+01
Ga    4.8301987035336662E+00    2.8472572829395530E+00    1.3618032213233832E+01
N    4.8023132531825743E+00    2.8334872477429749E+00    1.5583725723440338E+01
Ga    4.9720673448442847E+00    4.6102108673302951E+00    1.6472716532867405E+01
N    6.4284769623486140E+00    3.7686831529847500E+00    1.7599359776465732E+01
N    3.2012153631951192E+00    7.6020144259325635E+00    2.4239113762912150E+00
N    3.2118774331905851E+00    5.6328998315530994E+00    5.1581258310801532E+00
Ga    3.2176720413704296E+00    7.4289293038185003E+00    5.8332538309349955E+00
N    3.2089233301083935E+00    7.4888351946204175E+00    7.8296321360393168E+00
Ga    3.2110626095043857E+00    5.6259782278186883E+00    8.4417546544905111E+00
N    3.2110877188100750E+00    5.6272421181716155E+00    1.0423798626714500E+01
Ga    3.2127053011773814E+00    7.4653794544933954E+00    1.1071690315634696E+01
N    3.2116788949883190E+00    7.4472844143270125E+00    1.3066962843618532E+01
Ga    3.2102061487668858E+00    5.6273626853288548E+00    1.3867066200155362E+01
N    3.2105448459194199E+00    5.6280164695279886E+00    1.6072604603064278E+01
Ga    3.2103971883756728E+00    7.6726400947706219E+00    1.6485714465854404E+01
Ga    3.2335724597316902E+00    9.3883038661255096E+00    1.4987718102592320E+00
N    1.7089187481999104E+00    1.0195426379706360E+01    2.5282032378095165E+00
Ga    1.5859259917719246E+00    8.3646715036552575E+00    3.3265119587084189E+00
N    1.5964276870532690E+00    8.4026372500153865E+00    5.2492392689551082E+00
Ga    1.5768470312081562E+00    1.0286055020889219E+01    5.8092104303618903E+00
N    1.5915574138329078E+00    1.0272662976032114E+01    7.7994805019233082E+00
Ga    1.6127267815823010E+00    8.4218957279555564E+00    8.4590614359411500E+00
N    1.6109866575664944E+00    8.4202103324831512E+00    1.0446868794177050E+01
Ga    1.5875190312925134E+00    1.0279703488714667E+01    1.1074991574557435E+01
N    1.5722384910798712E+00    1.0287103402451258E+01    1.3067820443327774E+01
Ga    1.6155179062869505E+00    8.4183743428491216E+00    1.3624015057185522E+01
N    1.5871197980651857E+00    8.4038051831576865E+00    1.5585163173190223E+01
Ga    1.7678917808547776E+00    1.0174047937450540E+01    1.6487156221861728E+01
N    3.2158113849749075E+00    9.3408855089027920E+00    1.7625645353960767E+01
N    9.6528062897688383E+00    1.9198756166339617E+00    2.6117643576070035E+00
Ga    9.6522079704789370E+00    1.8603979391575839E-01    3.3022031305042998E+00
N    9.6415264566988572E+00    5.6538734609418329E-02    5.2570670528750654E+00
Ga    9.6510496711260458E+00    1.9187126867948838E+00    5.8805440818195303E+00
N    9.6425298826092138E+00    1.9126051366972177E+00    7.8532610269825671E+00
Ga    9.6449989752197798E+00    4.4055035976346135E-02    8.4381588886031800E+00
N    9.6430580181688565E+00    4.2129120442194821E-02    1.0432302276923762E+01
Ga    9.6424046353507133E+00    1.9123417231678193E+00    1.1025267181570031E+01
N    9.6432104202657758E+00    1.9120559412494693E+00    1.2998832178518644E+01
Ga    9.6438602415257257E+00    4.3208283463098678E-02    1.3623827195006720E+01
N    9.6423249419173338E+00    7.5617523283510971E-02    1.5585040205580821E+01
Ga    9.6448884146457896E+00    1.9126780188915333E+00    1.5864072428305581E+01
N    7.9282966315211842E+00    4.6341863477199565E+00    2.5276347273579343E+00
Ga    8.1491559160915354E+00    2.7847163471320275E+00    3.3061944881003185E+00
N    8.0380838991463666E+00    2.8408767033933779E+00    5.2601440603725278E+00
Ga    8.0549958322952513E+00    4.7185767776244472E+00    5.7931932537492541E+00
N    8.0440257973838172E+00    4.7064805822234064E+00    7.7926084316406632E+00
Ga    8.0232853151846086E+00    2.8490661776262183E+00    8.4344226950489496E+00
N    8.0234627911246417E+00    2.8477543874465465E+00    1.0430270205894795E+01
Ga    8.0503506941250507E+00    4.7064323256470200E+00    1.1070423916809620E+01
N    8.0681530019758885E+00    4.7158292672967006E+00    1.3066151025477284E+01
Ga    8.0251342313116645E+00    2.8469187349473937E+00    1.3620510207422210E+01
N    8.0516705490379010E+00    2.8330223394354834E+00    1.5587027434728510E+01
Ga    7.8815267362661849E+00    4.6118025766128241E+00    1.6472538945323315E+01
N    6.4250396901309852E+00    7.4841290119416630E+00    2.5833134134131392E+00
Ga    6.4018529582397772E+00    5.7460751441388327E+00    3.2715974911328685E+00
N    6.4197431985225508E+00    5.6230228969020901E+00    5.2323174591885460E+00
Ga    6.4257211807955565E+00    7.4827940758531106E+00    5.8570171252153918E+00
N    6.4244494264461132E+00    7.4830642263734912E+00    7.8374486859564447E+00
Ga    6.4288980685599908E+00    5.6172490745899157E+00    8.4427476546481905E+00
N    6.4297644829945089E+00    5.6162874605848438E+00    1.0437320752833850E+01
Ga    6.4299915758309965E+00    7.4845472788368150E+00    1.1029019713280398E+01
N    6.4283659545138070E+00    7.4840003705107572E+00    1.3002088638524384E+01
Ga    6.4274306643025474E+00    5.6136474201665640E+00    1.3618679570420046E+01
N    6.4264307876784130E+00    5.6459138815328354E+00    1.5583891597973322E+01
Ga    6.4280651777826341E+00    7.4856886499423547E+00    1.5861753193362222E+01
N    4.7128977102112470E+00    1.0209589876166012E+01    2.5269500826752846E+00
Ga    4.9151954286352240E+00    8.3332674894481862E+00    3.2776611843565080E+00
N    4.8069848365265271E+00    8.4108205912709035E+00    5.2357152226846058E+00
Ga    4.8492698624300408E+00    1.0280617402033657E+01    5.7975370263244752E+00
N    4.8292162004846402E+00    1.0273442701421276E+01    7.7950679207728646E+00
Ga    4.8132844146095835E+00    8.4205601033215149E+00    8.4462970540471023E+00
N    4.8116482016009199E+00    8.4194108774537089E+00    1.0439277576783191E+01
Ga    4.8352406398943728E+00    1.0277924613411150E+01    1.1072085750927997E+01
N    4.8509771920207596E+00    1.0286994523476194E+01    1.3066712282892603E+01
Ga    4.8078653835342582E+00    8.4182846799581927E+00    1.3623698813511599E+01
N    4.8354493238501899E+00    8.4024236058474706E+00    1.5586623979456643E+01
Ga    4.6579237374845972E+00    1.0176989574137842E+01    1.6486450352085480E+01
O    7.3850164155192433E-01    3.8535720665368562E+00   -3.6122334894484670E-01
H   -1.2208213088962014E-02    7.4608030332897881E+00    1.6662532960790915E+00
C    1.1513145126424513E+00    2.5887491281664503E+00   -9.2931239120150899E-01
H    1.8464918087800222E+00    2.0479871132633862E+00   -2.6626502247585493E-01
H    2.8257627639526223E-01    1.9441417292711010E+00   -1.1315774047763194E+00
H    1.6539522420417592E+00    2.7995444010421209E+00   -1.8829616548526296E+00
Ga    3.1640837206596486E+00    5.5896635821689644E+00    2.2488641410380912E+00
O    2.8183085573364135E+00    5.4819313922145758E+00    1.3256522663309667E-01
H    2.0508204469446434E+00    4.8308205351378879E+00   -6.2170321960443593E-02
C    3.9005521503849603E+00    5.2553036941126328E+00   -8.0212719223260109E-01
H    3.5505608072462396E+00    5.4159296389515985E+00   -1.8290614173176805E+00
H    4.6922569518182167E+00    5.9757688955617265E+00   -5.6640514351232285E-01
H    4.3010609336230443E+00    4.2322494146517418E+00   -7.0556572149851116E-01
     &END COORD
     &KIND C
       BASIS_SET DZVP-MOLOPT-SR-GTH-q4
       POTENTIAL GTH-PBE-q4
       &POTENTIAL
 2 2
  0.3384712400000000E+00 2 -0.8803673979999999E+01  0.1339210850000000E+01
 2
  0.3025757500000000E+00 1  0.9622486650000001E+01
  0.2915069400000000E+00 0
         # Potential name:  GTH-PBE-Q4  for symbol:  C
         # Potential read from the potential filename: GTH_POTENTIALS
       &END POTENTIAL
     &END KIND
     &KIND O
       BASIS_SET DZVP-MOLOPT-SR-GTH-q6
       POTENTIAL GTH-PBE-q6
       &POTENTIAL
 2 4
  0.2445543000000000E+00 2 -0.1666721480000000E+02  0.2487311320000000E+01
 2
  0.2209559200000000E+00 1  0.1833745811000000E+02
  0.2113324700000000E+00 0
         # Potential name:  GTH-PBE-Q6  for symbol:  O
         # Potential read from the potential filename: GTH_POTENTIALS
       &END POTENTIAL
     &END KIND
     &KIND H
       BASIS_SET DZVP-MOLOPT-SR-GTH-q1
       POTENTIAL GTH-PBE-q1
       &POTENTIAL
 1
  0.2000000000000000E+00 2 -0.4178900440000000E+01  0.7244633100000000E+00
 0
         # Potential name:  GTH-PBE-Q1  for symbol:  H
         # Potential read from the potential filename: GTH_POTENTIALS
       &END POTENTIAL
     &END KIND
     &KIND N
       BASIS_SET DZVP-MOLOPT-SR-GTH
       POTENTIAL GTH-PBE-q5
       &POTENTIAL
 2 3
  0.2837905100000000E+00 2 -0.1241522559000000E+02  0.1868095920000000E+01
 2
  0.2554050000000000E+00 1  0.1363026257000000E+02
  0.2454945300000000E+00 0
         # Potential name:  GTH-PBE-Q5  for symbol:  N
         # Potential read from the potential filename: GTH_POTENTIALS
       &END POTENTIAL
     &END KIND
     &KIND Ga
       BASIS_SET DZVP-MOLOPT-SR-GTH
       POTENTIAL GTH-PBE-q13
       &POTENTIAL
 2 1 10
  0.4900000000000000E+00 0
 3
  0.4167772300000000E+00 3  0.1047568975000000E+02 -0.4921768140000000E+01  0.8707055900000000E+00
  0.7770178090000000E+01 -0.2248152160000000E+01
  0.1784415450000000E+01
  0.5696265200000000E+00 2  0.1777985340000000E+01  0.1958597600000000E+00
 -0.2317443900000000E+00
  0.2381265000000000E+00 1 -0.1624868022000000E+02
         # Potential name:  GTH-PBE-Q13  for symbol:  GA
         # Potential read from the potential filename: GTH_POTENTIALS
       &END POTENTIAL
     &END KIND
     &TOPOLOGY
       NUMBER_OF_ATOMS  212
       MULTIPLE_UNIT_CELL  1 1 1
     &END TOPOLOGY
   &END SUBSYS
 &END FORCE_EVAL
