 # Version information for this restart file 
 # current date 2019-06-30 09:52:15.379
 # current working dir /scratch/rzk/rzk/GaN-carbene/443-adatoms-both-2x2/05-2DissMethanol/01-Combine0304-0202
 # Program compiled at                              Sun Apr  7 00:48:11 EDT 2019
 # Program compiled on                          beluga2.int.ets1.calculquebec.ca
 # Program compiled for                        Beluga-Linux-x86-64-intel-openmpi
 # Source code revision number                                         svn:18619
 &GLOBAL
   PRINT_LEVEL  MEDIUM
   PROJECT_NAME TEST
   RUN_TYPE  GEO_OPT
 &END GLOBAL
 &MOTION
   &GEO_OPT
     MAX_ITER  500
     STEP_START_VAL  151
   &END GEO_OPT
 &END MOTION
 &FORCE_EVAL
   METHOD  QS
   STRESS_TENSOR  ANALYTICAL
   &DFT
     BASIS_SET_FILE_NAME BASIS_MOLOPT
     POTENTIAL_FILE_NAME GTH_POTENTIALS
     UKS  T
     SURFACE_DIPOLE_CORRECTION  T
     SURF_DIP_DIR  Z
     &SCF
       MAX_SCF  80
       EPS_SCF     5.0000000000000004E-06
       &OT  T
         PRECONDITIONER  FULL_ALL
       &END OT
       &OUTER_SCF  T
         OPTIMIZER  NONE
         EPS_SCF     5.0000000000000004E-06
         MAX_SCF  4
       &END OUTER_SCF
       &PRINT
         &RESTART  OFF
           BACKUP_COPIES  1
           &EACH
             JUST_ENERGY  0
             QS_SCF  0
             MD  20
           &END EACH
         &END RESTART
       &END PRINT
     &END SCF
     &QS
       EPS_DEFAULT     1.0000000000000000E-14
       METHOD  GPW
     &END QS
     &MGRID
       NGRIDS  5
       CUTOFF     1.2000000000000000E+03
     &END MGRID
     &XC
       DENSITY_CUTOFF     1.0000000000000000E-10
       GRADIENT_CUTOFF     1.0000000000000000E-10
       TAU_CUTOFF     1.0000000000000000E-10
       &XC_FUNCTIONAL  NO_SHORTCUT
         &PBE  T
         &END PBE
       &END XC_FUNCTIONAL
       &VDW_POTENTIAL
         POTENTIAL_TYPE  PAIR_POTENTIAL
         &PAIR_POTENTIAL
           R_CUTOFF     1.0000000000000005E+01
           TYPE  DFTD3
           PARAMETER_FILE_NAME dftd3.dat
           REFERENCE_FUNCTIONAL PBE
           EPS_CN     9.9999999999999995E-07
           CALCULATE_C9_TERM  T
           REFERENCE_C9_TERM  T
           LONG_RANGE_CORRECTION  F
           VERBOSE_OUTPUT  F
         &END PAIR_POTENTIAL
       &END VDW_POTENTIAL
     &END XC
   &END DFT
   &SUBSYS
     &CELL
       A     1.2864472766435110E+01    0.0000000000000000E+00    0.0000000000000000E+00
       B    -6.4322363581020028E+00    1.1140960178524475E+01    0.0000000000000000E+00
       C     0.0000000000000000E+00    0.0000000000000000E+00    3.2000000000000000E+01
       MULTIPLE_UNIT_CELL  1 1 1
       &CELL_REF
         A     1.2982353780853531E+01    0.0000000000000000E+00    0.0000000000000000E+00
         B    -6.4911768904267628E+00    1.1243048175136114E+01    0.0000000000000000E+00
         C     0.0000000000000000E+00    0.0000000000000000E+00    3.2000000000000000E+01
         MULTIPLE_UNIT_CELL  1 1 1
       &END CELL_REF
     &END CELL
     &COORD
N    9.3791645646057378E-04    2.0540586403034808E+00    2.5026032474188953E+00
Ga   -1.5277046014998338E-03    9.3370258992838559E-02    2.8542363091567471E+00
N   -6.4745392486970305E-03    5.9383031588429190E-02    5.0082251332125765E+00
Ga   -4.2747683331078633E-03    1.8910869997738142E+00    5.7993432144861874E+00
N   -6.5144604800258460E-03    1.9000479828515666E+00    7.7942878880473225E+00
Ga   -4.6420735806571040E-03    5.5889884488475990E-02    8.4420551987306833E+00
N   -4.6823306436495973E-03    5.5008421341739042E-02    1.0413194561525639E+01
Ga   -4.9075027236967911E-03    1.8939157584964506E+00    1.1073096014961033E+01
N   -5.4670315806514581E-03    1.8752103814520795E+00    1.3061244691992593E+01
Ga   -6.9404915093055431E-03    5.7270677552903257E-02    1.3875329757517145E+01
N   -6.4936348055193820E-03    5.7156352272914476E-02    1.6066617528481299E+01
Ga   -5.7335253585832488E-03    2.1072084969200700E+00    1.6487752302593830E+01
Ga    3.1066211812065609E-02    3.7354919854530544E+00    1.3668575805215690E+00
N   -1.4727653908584408E+00    4.6346802203342827E+00    2.4716153990321432E+00
Ga   -1.6806386901899264E+00    2.7964965450235573E+00    3.2637600404054807E+00
N   -1.6148128454528081E+00    2.8441207166314162E+00    5.2405929988411950E+00
Ga   -1.6409444388664896E+00    4.7063918032400753E+00    5.8115796168992802E+00
N   -1.6244917733982305E+00    4.7048508342751134E+00    7.7992168863333715E+00
Ga   -1.6024793778771396E+00    2.8450872782160372E+00    8.4412554759167513E+00
N   -1.6022629256642118E+00    2.8477065767105274E+00    1.0429607095921112E+01
Ga   -1.6304827599321428E+00    4.7063790912148757E+00    1.1076120131729725E+01
N   -1.6460019918527928E+00    4.7163228176786012E+00    1.3063201186956842E+01
Ga   -1.6017660738421435E+00    2.8471771770387400E+00    1.3622441888603499E+01
N   -1.6285814468481996E+00    2.8323935949022294E+00    1.5578301339112961E+01
Ga   -1.4455427945527766E+00    4.6006443815001248E+00    1.6487879334388818E+01
N   -1.8404026183378364E-04    3.7727212122447273E+00    1.7635164189241664E+01
N   -3.2123393467203565E+00    7.6027886558816578E+00    2.5024451878363370E+00
Ga   -3.1959417153328249E+00    5.6046107652666874E+00    2.8512530699471550E+00
N   -3.2163226811390446E+00    5.6237206727003688E+00    5.0062205399998208E+00
Ga   -3.2283776455501698E+00    7.4470036134130950E+00    5.7997186497542303E+00
N   -3.2200008494140793E+00    7.4728800189473503E+00    7.7873699692088465E+00
Ga   -3.2230436768918267E+00    5.6260479472249925E+00    8.4475412139657404E+00
N   -3.2218684638949395E+00    5.6277492097826611E+00    1.0416021263985501E+01
Ga   -3.2233795590311831E+00    7.4659999397617902E+00    1.1074445511115886E+01
N   -3.2215733183588253E+00    7.4463305343370783E+00    1.3064291331743837E+01
Ga   -3.2215742683934261E+00    5.6238137567429467E+00    1.3876775203291416E+01
N   -3.2213948790721254E+00    5.6255674859815894E+00    1.6066808095940527E+01
Ga   -3.2215688779248088E+00    7.6662947037166953E+00    1.6475537345041509E+01
Ga   -3.2491930525020809E+00    9.3609055954013236E+00    1.4281801002981060E+00
N   -4.7263187444471750E+00    1.0211517032995484E+01    2.5125663979058963E+00
Ga   -4.9328283523543481E+00    8.3534467387723410E+00    3.2647774695292235E+00
N   -4.8304909531646700E+00    8.4087424435579106E+00    5.2295709014756389E+00
Ga   -4.8551565862086514E+00    1.0284624628359200E+01    5.7891325215412683E+00
N   -4.8379128642683282E+00    1.0273765464883423E+01    7.7835319658958850E+00
Ga   -4.8226317996681178E+00    8.4178085606389601E+00    8.4326077536094495E+00
N   -4.8180445708666433E+00    8.4182182478734866E+00    1.0423133972101784E+01
Ga   -4.8449094053788961E+00    1.0276806433099415E+01    1.1071501788952009E+01
N   -4.8613492803741938E+00    1.0286919788602452E+01    1.3062388535358968E+01
Ga   -4.8190630294134245E+00    8.4180880164116321E+00    1.3623218671664960E+01
N   -4.8493984027159476E+00    8.4008871696039673E+00    1.5582199412379859E+01
Ga   -4.6720027373590582E+00    1.0178446955390715E+01    1.6475171578026696E+01
N   -3.2217605349299627E+00    9.3411720037834609E+00    1.7592495913126843E+01
N    3.1951312913573040E+00    1.9294369362467296E+00    2.5904212777192539E+00
Ga    3.2064351306664038E+00    1.8272506898244228E-01    3.2699954478357469E+00
N    3.2140074797522842E+00    5.9956273995731835E-02    5.2345807136324742E+00
Ga    3.2095607519251228E+00    1.9224230131477009E+00    5.8726262524395825E+00
N    3.2133614338941934E+00    1.9132893812955833E+00    7.8448319151242805E+00
Ga    3.2089226504214348E+00    4.7067167166876762E-02    8.4374547904988297E+00
N    3.2109392411493456E+00    4.2190557662656357E-02    1.0426730526114708E+01
Ga    3.2107987632210917E+00    1.9116298755631218E+00    1.1030872405952607E+01
N    3.2111534216874489E+00    1.9121417831187941E+00    1.2996705787320385E+01
Ga    3.2108273182248266E+00    4.4180162439374816E-02    1.3622457335659234E+01
N    3.2107956285679591E+00    7.9438986929629113E-02    1.5581616391197205E+01
Ga    3.2112641783952540E+00    1.9176418111758817E+00    1.5859655290919870E+01
N    1.4706655543744132E+00    4.6379676344763405E+00    2.5135967687024574E+00
Ga    1.6851281123748589E+00    2.8118023881567238E+00    3.2950083163923845E+00
N    1.6032973344380861E+00    2.8461995242819076E+00    5.2572576148413521E+00
Ga    1.6535844337156247E+00    4.7208089310862897E+00    5.8249334250657299E+00
N    1.6016961202901507E+00    4.7001049223010662E+00    7.8234805319024527E+00
Ga    1.5917636529559593E+00    2.8443269274158363E+00    8.4449916341461648E+00
N    1.5920667132463338E+00    2.8445577745463586E+00    1.0433787850098435E+01
Ga    1.6198657506338328E+00    4.7061755708228397E+00    1.1073017792406350E+01
N    1.6349858370455548E+00    4.7163667956146371E+00    1.3062932658067302E+01
Ga    1.5912453576663939E+00    2.8473415017989496E+00    1.3622785887476162E+01
N    1.6167551173033143E+00    2.8310357294344164E+00    1.5579804872763686E+01
Ga    1.4391701134961992E+00    4.6037060649936343E+00    1.6487785351331166E+01
N   -5.1097065065102447E-03    7.4716029868584357E+00    2.6882783291284049E+00
Ga    8.0183322796172282E-03    5.6193965303071796E+00    3.3406501635646841E+00
N   -7.1563509558868216E-03    5.6398367172554744E+00    5.2659357129558675E+00
Ga    9.4564331511688595E-04    7.4786685450758039E+00    5.9082092917091105E+00
N   -3.6945098238691282E-03    7.4860478215836146E+00    7.8613854834558952E+00
Ga   -6.8081495061193074E-03    5.6114594611275743E+00    8.4561059162961278E+00
N   -8.0856201334403594E-03    5.6154282996434235E+00    1.0439731694880356E+01
Ga   -6.5161323373646857E-03    7.4839941297954375E+00    1.1035860010573701E+01
N   -5.7274526105539304E-03    7.4841484211228817E+00    1.2999951052311586E+01
Ga   -5.1878985061710988E-03    5.6128433554334887E+00    1.3623901893965350E+01
N   -7.1650468336767756E-03    5.6440364397909146E+00    1.5580623116951811E+01
Ga   -1.5914281744031878E-03    7.4814756978685280E+00    1.5860596670803384E+01
N   -1.7120946422446524E+00    1.0205542456672795E+01    2.5091027175271976E+00
Ga   -1.5970939704991918E+00    8.4015085947871260E+00    3.3231039764494299E+00
N   -1.5990347468689226E+00    8.4059707837039781E+00    5.2488400926651932E+00
Ga   -1.5896076630000744E+00    1.0292590745426564E+01    5.8058088782609794E+00
N   -1.6037712169879899E+00    1.0272988767394047E+01    7.7913831809623044E+00
Ga   -1.6259676192123835E+00    8.4190785675609252E+00    8.4473793854295405E+00
N   -1.6256085504434796E+00    8.4188744982843673E+00    1.0431782603869806E+01
Ga   -1.5982832684117547E+00    1.0278904703075062E+01    1.1074694529217195E+01
N   -1.5805220732705867E+00    1.0287684574511669E+01    1.3064361886594524E+01
Ga   -1.6241223309962058E+00    8.4183283871356949E+00    1.3623887445078958E+01
N   -1.5933599172496438E+00    8.4007964710606373E+00    1.5582798111447747E+01
Ga   -1.7711825578203979E+00    1.0178387616981729E+01    1.6475389399938880E+01
N    6.4277385041751423E+00    2.0376639081408685E+00    2.5327777561556535E+00
Ga    6.4283240991415855E+00    6.3956219173190235E-02    2.8839919396592464E+00
N    6.4299222865054908E+00    5.6465622605791202E-02    5.0171759401070544E+00
Ga    6.4214127590377830E+00    1.8950340915844242E+00    5.7984466892193680E+00
N    6.4261271559398612E+00    1.9007344730711537E+00    7.7901275311856146E+00
Ga    6.4275092236763260E+00    5.7867336903954181E-02    8.4464754002759275E+00
N    6.4272081633919900E+00    5.5779710368291838E-02    1.0415028334793126E+01
Ga    6.4282382714516419E+00    1.8955482934235151E+00    1.1073573671250609E+01
N    6.4281531870493360E+00    1.8754890693522814E+00    1.3061145340505780E+01
Ga    6.4295752579764160E+00    5.7977333144078165E-02    1.3877276697163587E+01
N    6.4286003281363095E+00    5.7331769785574721E-02    1.6067041027528976E+01
Ga    6.4278274597434679E+00    2.1077310444138178E+00    1.6488370532610279E+01
Ga    6.4679663294158329E+00    3.7417999118628269E+00    1.4896382042534353E+00
N    4.9250173479248662E+00    4.6372354198197447E+00    2.4141608315894052E+00
Ga    4.6978462870096598E+00    2.8125509596081946E+00    3.2739437687199220E+00
N    4.8183658759163563E+00    2.8501592887465272E+00    5.2329455155000897E+00
Ga    4.7758588639729043E+00    4.7248864586179140E+00    5.8170407756033233E+00
N    4.8210303554347913E+00    4.6977844040747101E+00    7.8176674453447283E+00
Ga    4.8302170057623703E+00    2.8458152895199711E+00    8.4482078123153777E+00
N    4.8306533642983815E+00    2.8449078574100133E+00    1.0434844271737273E+01
Ga    4.8042346937018738E+00    4.7076365785595842E+00    1.1071492368007339E+01
N    4.7882085290119525E+00    4.7165065944266633E+00    1.3061540952004616E+01
Ga    4.8311431830869056E+00    2.8475577348299379E+00    1.3622384076462192E+01
N    4.8055083749301275E+00    2.8311857282516555E+00    1.5579274403921195E+01
Ga    4.9829749676660962E+00    4.6038968150570767E+00    1.6487695118936067E+01
N    6.4219344991962695E+00    3.7732514156699022E+00    1.7634938584580382E+01
N    3.2049559225461737E+00    7.6017740687296440E+00    2.4112478639277737E+00
N    3.2126173951330124E+00    5.6307951194764980E+00    5.1459215082835792E+00
Ga    3.2197310903238088E+00    7.4270806658001201E+00    5.8283468126728586E+00
N    3.2101507314656543E+00    7.4876688327283230E+00    7.8212930186351093E+00
Ga    3.2122739784012708E+00    5.6260991657541917E+00    8.4438993320941744E+00
N    3.2115782994441342E+00    5.6274865644738252E+00    1.0419513877427409E+01
Ga    3.2131685518026720E+00    7.4650231765621031E+00    1.1074421948125304E+01
N    3.2116726077136377E+00    7.4472476217951531E+00    1.3063553273710189E+01
Ga    3.2118220121768424E+00    5.6262066326871851E+00    1.3874836572101581E+01
N    3.2111581748813123E+00    5.6270979308530569E+00    1.6066031748308625E+01
Ga    3.2113224609034021E+00    7.6737307004069839E+00    1.6488232237755163E+01
Ga    3.2371521501252487E+00    9.3905818650087269E+00    1.4453198931922966E+00
N    1.7087160567926263E+00    1.0194855178926318E+01    2.5163871024406399E+00
Ga    1.6024584741031969E+00    8.3681247099878622E+00    3.3160870478213833E+00
N    1.5988380196155008E+00    8.4019031755848168E+00    5.2402823523857762E+00
Ga    1.5803485668518957E+00    1.0283817098792664E+01    5.8059873881902266E+00
N    1.5922348757247105E+00    1.0272415487199527E+01    7.7919124768209445E+00
Ga    1.6155730093809644E+00    8.4219845531651245E+00    8.4593135677065572E+00
N    1.6121134747961334E+00    8.4205673352953259E+00    1.0440659132463162E+01
Ga    1.5879433202908646E+00    1.0279977235256535E+01    1.1076869820833128E+01
N    1.5712136061538333E+00    1.0288272152505996E+01    1.3063402584087932E+01
Ga    1.6149034684123722E+00    8.4190850558845973E+00    1.3624324493422447E+01
N    1.5867914903388787E+00    8.4053152751374771E+00    1.5580935201590904E+01
Ga    1.7722164930245845E+00    1.0172571269419192E+01    1.6488728516144871E+01
N    3.2115199424618028E+00    9.3350131287324025E+00    1.7636390064968708E+01
N    9.6535528876795453E+00    1.9176499597435324E+00    2.6056378046281337E+00
Ga    9.6523501203918194E+00    1.7870342274098105E-01    3.2902620155878828E+00
N    9.6423719379229436E+00    5.5517686903333169E-02    5.2466306854616951E+00
Ga    9.6519273737948019E+00    1.9164284326512298E+00    5.8764211033069218E+00
N    9.6435760222752407E+00    1.9121436694047818E+00    7.8453387102926833E+00
Ga    9.6458936900331640E+00    4.4266105625892220E-02    8.4366968637759108E+00
N    9.6434012383084333E+00    4.2406917430056583E-02    1.0425860633146323E+01
Ga    9.6427678796615837E+00    1.9126866769068516E+00    1.1026306142800159E+01
N    9.6429230231546743E+00    1.9126589492055592E+00    1.2994558106918033E+01
Ga    9.6439374228111614E+00    4.3378410351024334E-02    1.3623451429149457E+01
N    9.6437045906506587E+00    7.4890797967264111E-02    1.5578981574861288E+01
Ga    9.6431572393438003E+00    1.9136520798794294E+00    1.5854416091954128E+01
N    7.9302367116991554E+00    4.6340921273909190E+00    2.5231955702990616E+00
Ga    8.1487158494298164E+00    2.7824213483495952E+00    3.3004087097913843E+00
N    8.0391364130723844E+00    2.8399022142356531E+00    5.2530209444480738E+00
Ga    8.0536569259812332E+00    4.7162400558760798E+00    5.7923078925249474E+00
N    8.0456222158998631E+00    4.7067740091893056E+00    7.7863329486083757E+00
Ga    8.0250127040201615E+00    2.8483948239592252E+00    8.4341694914913301E+00
N    8.0240870692282940E+00    2.8482142369395285E+00    1.0424500646431692E+01
Ga    8.0505728798410203E+00    4.7066039657829677E+00    1.1073450317737974E+01
N    8.0677238510674467E+00    4.7161589672094006E+00    1.3061098311347060E+01
Ga    8.0239373046725433E+00    2.8478627316381462E+00    1.3622955969711683E+01
N    8.0507726371718888E+00    2.8327802376843145E+00    1.5578461275658345E+01
Ga    7.8673239010029832E+00    4.6008588740449277E+00    1.6488394793667556E+01
N    6.4222658129302435E+00    7.4793141704908299E+00    2.5742945917045703E+00
Ga    6.3986785173093379E+00    5.7388337734573298E+00    3.2673132652182511E+00
N    6.4208879660297651E+00    5.6231395527371424E+00    5.2267170270957353E+00
Ga    6.4194485560532870E+00    7.4793983815709222E+00    5.8611130051392433E+00
N    6.4252938382760147E+00    7.4831523690774606E+00    7.8340913645276489E+00
Ga    6.4294199783275747E+00    5.6160157091270397E+00    8.4442832180501384E+00
N    6.4302665181595966E+00    5.6160978636131382E+00    1.0431829555135696E+01
Ga    6.4289409931454840E+00    7.4840964983065206E+00    1.1030815226984400E+01
N    6.4280957190442392E+00    7.4840154104267107E+00    1.2996281206428026E+01
Ga    6.4279138484392977E+00    5.6134949386902191E+00    1.3622976197140664E+01
N    6.4294813100645447E+00    5.6440406842807045E+00    1.5579608948221512E+01
Ga    6.4236156288622555E+00    7.4812088461925343E+00    1.5860678169813397E+01
N    4.7151666161977905E+00    1.0207918508152412E+01    2.5168530501080015E+00
Ga    4.9061932675320401E+00    8.3332775928813394E+00    3.2644467533829031E+00
N    4.8089850003845429E+00    8.4094494311989596E+00    5.2250346551512816E+00
Ga    4.8472083709539282E+00    1.0277902525327422E+01    5.7929624344602084E+00
N    4.8303621978859788E+00    1.0273177543229414E+01    7.7864550755037207E+00
Ga    4.8125580706324769E+00    8.4207818463031678E+00    8.4466020584187280E+00
N    4.8114344597810259E+00    8.4198435814098627E+00    1.0432991008064640E+01
Ga    4.8354436515254475E+00    1.0278233271575763E+01    1.1073626648842156E+01
N    4.8511651664858046E+00    1.0287790463272433E+01    1.3061315210506526E+01
Ga    4.8085036105244789E+00    8.4191471409969605E+00    1.3623496420643823E+01
N    4.8356541441948657E+00    8.4054843291297257E+00    1.5580185064354165E+01
Ga    4.6505714207943267E+00    1.0172494527118559E+01    1.6488516124619512E+01
O    7.1559691710172824E-01    3.8560188446165382E+00   -3.7424738958240977E-01
H   -1.0931093459674655E-02    7.4577386831290466E+00    1.6616796253471813E+00
C    1.1439886554279488E+00    2.5933363435650483E+00   -9.3482670506545740E-01
H    1.8458690310498114E+00    2.0641283280126688E+00   -2.6693739932385740E-01
H    2.8375357085668951E-01    1.9363801367685565E+00   -1.1347824194877831E+00
H    1.6477289492229115E+00    2.8044710525308227E+00   -1.8897067906825726E+00
Ga    3.1692690610616445E+00    5.5904135367873593E+00    2.2616573036938568E+00
O    2.8253731746726176E+00    5.4654141148524733E+00    1.3412730426270544E-01
H    2.0507433780410023E+00    4.8303049728613328E+00   -6.3973209134369310E-02
C    3.8941395605142186E+00    5.2535157053308490E+00   -8.0874343177920216E-01
H    3.5316525212588341E+00    5.4254754118127400E+00   -1.8316961734086923E+00
H    4.6881897099648420E+00    5.9742874294663659E+00   -5.7485439592594201E-01
H    4.2973685986364236E+00    4.2312590620081147E+00   -7.2714695305970922E-01
     &END COORD
     &KIND C
       BASIS_SET DZVP-MOLOPT-SR-GTH-q4
       POTENTIAL GTH-PBE-q4
       &POTENTIAL
2 2
0.3384712400000000E+00 2 -0.8803673979999999E+01  0.1339210850000000E+01
2
0.3025757500000000E+00 1  0.9622486650000001E+01
0.2915069400000000E+00 0
       &END POTENTIAL
     &END KIND
     &KIND O
       BASIS_SET DZVP-MOLOPT-SR-GTH-q6
       POTENTIAL GTH-PBE-q6
       &POTENTIAL
2 4
0.2445543000000000E+00 2 -0.1666721480000000E+02  0.2487311320000000E+01
2
0.2209559200000000E+00 1  0.1833745811000000E+02
0.2113324700000000E+00 0
       &END POTENTIAL
     &END KIND
     &KIND H
       BASIS_SET DZVP-MOLOPT-SR-GTH-q1
       POTENTIAL GTH-PBE-q1
       &POTENTIAL
1
0.2000000000000000E+00 2 -0.4178900440000000E+01  0.7244633100000000E+00
0
       &END POTENTIAL
     &END KIND
     &KIND N
       BASIS_SET DZVP-MOLOPT-SR-GTH
       POTENTIAL GTH-PBE-q5
       &POTENTIAL
2 3
0.2837905100000000E+00 2 -0.1241522559000000E+02  0.1868095920000000E+01
2
0.2554050000000000E+00 1  0.1363026257000000E+02
0.2454945300000000E+00 0
       &END POTENTIAL
     &END KIND
     &KIND Ga
       BASIS_SET DZVP-MOLOPT-SR-GTH
       POTENTIAL GTH-PBE-q13
       &POTENTIAL
2 1 10
0.4900000000000000E+00 0
3
0.4167772300000000E+00 3  0.1047568975000000E+02 -0.4921768140000000E+01  0.8707055900000000E+00
0.7770178090000000E+01 -0.2248152160000000E+01
0.1784415450000000E+01
0.5696265200000000E+00 2  0.1777985340000000E+01  0.1958597600000000E+00
-0.2317443900000000E+00
0.2381265000000000E+00 1 -0.1624868022000000E+02
       &END POTENTIAL
     &END KIND
     &TOPOLOGY
       NUMBER_OF_ATOMS  212
       MULTIPLE_UNIT_CELL  1 1 1
     &END TOPOLOGY
   &END SUBSYS
 &END FORCE_EVAL
