 # Version information for this restart file 
 # current date 2019-06-28 21:47:34.791
 # current working dir /scratch/rzk/rzk/GaN-carbene/443-adatoms-both-2x2/05-2DissMethanol/01-Combine0304-0202
 # Program compiled at                              Sun Apr  7 00:48:11 EDT 2019
 # Program compiled on                          beluga2.int.ets1.calculquebec.ca
 # Program compiled for                        Beluga-Linux-x86-64-intel-openmpi
 # Source code revision number                                         svn:18619
 &GLOBAL
   PRINT_LEVEL  MEDIUM
   PROJECT_NAME TEST
   RUN_TYPE  GEO_OPT
 &END GLOBAL
 &MOTION
   &GEO_OPT
     MAX_ITER  500
     STEP_START_VAL  32
   &END GEO_OPT
 &END MOTION
 &FORCE_EVAL
   METHOD  QS
   STRESS_TENSOR  ANALYTICAL
   &DFT
     BASIS_SET_FILE_NAME BASIS_MOLOPT
     POTENTIAL_FILE_NAME GTH_POTENTIALS
     UKS  T
     SURFACE_DIPOLE_CORRECTION  T
     SURF_DIP_DIR  Z
     &SCF
       MAX_SCF  80
       EPS_SCF     5.0000000000000004E-06
       &OT  T
         PRECONDITIONER  FULL_ALL
       &END OT
       &OUTER_SCF  T
         OPTIMIZER  NONE
         EPS_SCF     5.0000000000000004E-06
         MAX_SCF  4
       &END OUTER_SCF
       &PRINT
         &RESTART  OFF
           BACKUP_COPIES  1
           &EACH
             JUST_ENERGY  0
             QS_SCF  0
             MD  20
           &END EACH
         &END RESTART
       &END PRINT
     &END SCF
     &QS
       EPS_DEFAULT     1.0000000000000000E-14
       METHOD  GPW
     &END QS
     &MGRID
       NGRIDS  5
       CUTOFF     1.2000000000000000E+03
     &END MGRID
     &XC
       DENSITY_CUTOFF     1.0000000000000000E-10
       GRADIENT_CUTOFF     1.0000000000000000E-10
       TAU_CUTOFF     1.0000000000000000E-10
       &XC_FUNCTIONAL  NO_SHORTCUT
         &PBE  T
         &END PBE
       &END XC_FUNCTIONAL
       &VDW_POTENTIAL
         POTENTIAL_TYPE  PAIR_POTENTIAL
         &PAIR_POTENTIAL
           R_CUTOFF     1.0000000000000004E+01
           TYPE  DFTD3
           PARAMETER_FILE_NAME dftd3.dat
           REFERENCE_FUNCTIONAL PBE
           EPS_CN     9.9999999999999995E-07
           CALCULATE_C9_TERM  T
           REFERENCE_C9_TERM  T
           LONG_RANGE_CORRECTION  F
           VERBOSE_OUTPUT  F
         &END PAIR_POTENTIAL
       &END VDW_POTENTIAL
     &END XC
   &END DFT
   &SUBSYS
     &CELL
       A     1.2864472766435110E+01    0.0000000000000000E+00    0.0000000000000000E+00
       B    -6.4322363581020028E+00    1.1140960178524473E+01    0.0000000000000000E+00
       C     0.0000000000000000E+00    0.0000000000000000E+00    3.2000000000000000E+01
       MULTIPLE_UNIT_CELL  1 1 1
       &CELL_REF
         A     1.2982353780853531E+01    0.0000000000000000E+00    0.0000000000000000E+00
         B    -6.4911768904267628E+00    1.1243048175136114E+01    0.0000000000000000E+00
         C     0.0000000000000000E+00    0.0000000000000000E+00    3.2000000000000000E+01
         MULTIPLE_UNIT_CELL  1 1 1
       &END CELL_REF
     &END CELL
     &COORD
N    1.2849386235018459E-02    2.0493819057837817E+00    2.5008143606509852E+00
Ga    1.9108178762685144E-02    8.5462809559749803E-02    2.8508246692870811E+00
N   -2.5925476255873403E-03    5.4205124791553955E-02    5.0268257752426937E+00
Ga    1.6474363211239410E-03    1.8853851242642499E+00    5.7934390642766047E+00
N   -5.1003658057919979E-04    1.8957909460454023E+00    7.8008802240232145E+00
Ga    4.6619853240273453E-03    5.0754967524329835E-02    8.4362637364598569E+00
N    1.2515982803894195E-04    5.4607182865710265E-02    1.0418429897034734E+01
Ga   -9.1841369211820192E-04    1.8946875973971076E+00    1.1059713713048872E+01
N   -4.0925229332271018E-03    1.8795698772699700E+00    1.3056005751668856E+01
Ga   -1.0795352883695389E-02    6.6300008612754674E-02    1.3856944590039067E+01
N   -2.4766109740045061E-02    7.7175051852172924E-02    1.6061456224398309E+01
Ga   -9.8676293871013745E-03    2.1322779463940469E+00    1.6496923582555571E+01
Ga    8.6046680866192923E-02    3.7490584649481100E+00    1.3588214195167916E+00
N   -1.4575135327496054E+00    4.6290384488797205E+00    2.4643707873359966E+00
Ga   -1.6610251275222254E+00    2.7937986285953369E+00    3.2494049088068881E+00
N   -1.6071126897659118E+00    2.8358643232152518E+00    5.2401503942275713E+00
Ga   -1.6361717370831670E+00    4.6956357451286133E+00    5.8039851246553811E+00
N   -1.6184168545713040E+00    4.6963148761233731E+00    7.8045960547119533E+00
Ga   -1.5977320760748239E+00    2.8388948010274446E+00    8.4345147635085223E+00
N   -1.5995688099224639E+00    2.8456867002954671E+00    1.0432755208381877E+01
Ga   -1.6273244538081075E+00    4.7038937663830600E+00    1.1064034090012148E+01
N   -1.6430858371244139E+00    4.7181291307094488E+00    1.3060402492681211E+01
Ga   -1.6007683591769959E+00    2.8490843979439711E+00    1.3609898555121180E+01
N   -1.6345294904586631E+00    2.8351966659937582E+00    1.5566836588506709E+01
Ga   -1.4278965846966765E+00    4.5870515038439317E+00    1.6498109047573880E+01
N    8.4476411489302818E-03    3.7865210194137324E+00    1.7657179592171747E+01
N   -3.2113198253348538E+00    7.5850979305119788E+00    2.4872229099767122E+00
Ga   -3.1807760833012222E+00    5.6042835622860778E+00    2.8221599507054203E+00
N   -3.2093682795067835E+00    5.6103894061774167E+00    5.0148451769050402E+00
Ga   -3.2272418466195214E+00    7.4364220768835727E+00    5.7818937872241678E+00
N   -3.2159081608038163E+00    7.4648579251604392E+00    7.7864912113392561E+00
Ga   -3.2184574339836223E+00    5.6192274058398102E+00    8.4340689013188648E+00
N   -3.2186119084523792E+00    5.6253762528448616E+00    1.0416475948930735E+01
Ga   -3.2205186129955585E+00    7.4646794075436436E+00    1.1060307939003829E+01
N   -3.2200742616945361E+00    7.4486497478785063E+00    1.3066247440413109E+01
Ga   -3.2147590308796734E+00    5.6247986159572614E+00    1.3853009395951366E+01
N   -3.2049454502526942E+00    5.6212715183508291E+00    1.6072517929573237E+01
Ga   -3.2153755911812332E+00    7.6258279595721099E+00    1.6452412014056545E+01
Ga   -3.2477041467040260E+00    9.3494344362003563E+00    1.3204885892473301E+00
N   -4.7270527283430246E+00    1.0200738605545569E+01    2.5024168638702369E+00
Ga   -4.9123121255005593E+00    8.3517980626298645E+00    3.2391896200305186E+00
N   -4.8270726000969058E+00    8.3977916712702694E+00    5.2226152974444107E+00
Ga   -4.8484672790591681E+00    1.0273011627452991E+01    5.7689752464622392E+00
N   -4.8322268267769086E+00    1.0265574728166291E+01    7.7815816486782419E+00
Ga   -4.8142427765893974E+00    8.4126785874179824E+00    8.4209091377202796E+00
N   -4.8135242973982404E+00    8.4175565610233249E+00    1.0426212258190459E+01
Ga   -4.8399154234825250E+00    1.0276342024830145E+01    1.1058557110641814E+01
N   -4.8604640484662056E+00    1.0291227071632003E+01    1.3066194279365925E+01
Ga   -4.8114856114906628E+00    8.4240250827460592E+00    1.3617101190197598E+01
N   -4.8241398039294001E+00    8.4038049555621264E+00    1.5601699462660653E+01
Ga   -4.7299257967658681E+00    1.0210549596409567E+01    1.6445407310946628E+01
N   -3.2238996464922924E+00    9.3664332451656218E+00    1.7532002769378483E+01
N    3.2037368786152283E+00    1.9151655399465042E+00    2.6065689000357586E+00
Ga    3.2069461980659515E+00    1.4990246591294160E-01    3.2403282511426665E+00
N    3.2165267896869687E+00    4.9412673175478629E-02    5.2235109082734397E+00
Ga    3.2150161639884609E+00    1.9068553189148734E+00    5.8535356630851672E+00
N    3.2200427613351663E+00    1.9050528281930192E+00    7.8393901709108995E+00
Ga    3.2136150288149139E+00    3.9205084348451741E-02    8.4190619707219394E+00
N    3.2145657008226798E+00    4.2340429252823157E-02    1.0425556492640380E+01
Ga    3.2160383220360957E+00    1.9108700271332648E+00    1.1018226974028540E+01
N    3.2172886474393203E+00    1.9108138598784192E+00    1.3003931173777771E+01
Ga    3.2115969011139001E+00    4.2233275024292430E-02    1.3618901759571973E+01
N    3.2182669171439731E+00    6.2050890716567123E-02    1.5609680147888746E+01
Ga    3.2128701306032252E+00    1.9177349246421851E+00    1.5869394258235827E+01
N    1.4901906221713259E+00    4.6428316980855255E+00    2.5249813242516312E+00
Ga    1.6928818772669416E+00    2.8045421635541956E+00    3.2888209425523049E+00
N    1.6105569984519579E+00    2.8417102764993958E+00    5.2628499566095082E+00
Ga    1.6609028827335943E+00    4.7153143365601125E+00    5.8205623871120533E+00
N    1.6101253526341961E+00    4.6967233531436747E+00    7.8311237262998699E+00
Ga    1.6004887142292468E+00    2.8371998877865798E+00    8.4307394032909944E+00
N    1.5980896781720697E+00    2.8423484735661688E+00    1.0434609504517512E+01
Ga    1.6220630218795395E+00    4.7032918853332113E+00    1.1060696717901122E+01
N    1.6353167190585545E+00    4.7192217561153829E+00    1.3059263136559906E+01
Ga    1.5906619378322417E+00    2.8505443052566761E+00    1.3608717659197797E+01
N    1.6224658255796851E+00    2.8251557768351647E+00    1.5570156478558687E+01
Ga    1.4318305899717001E+00    4.6016551459306347E+00    1.6494286470657524E+01
N   -1.3652560615701860E-03    7.4738847599300922E+00    2.7142366882263707E+00
Ga    1.3675689857594464E-02    5.6134330692771304E+00    3.3414753734246103E+00
N   -9.2823482692608848E-04    5.6313270565217612E+00    5.2744098309660767E+00
Ga   -6.1196078993108792E-03    7.4704670760108653E+00    5.9094076076482551E+00
N   -2.5320459754580643E-03    7.4783956633947088E+00    7.8718994092538646E+00
Ga   -3.3719802571368662E-03    5.6044055220293387E+00    8.4504878659320291E+00
N   -5.0428649247646427E-03    5.6143144846797739E+00    1.0445903105861317E+01
Ga   -5.4372674170984833E-03    7.4832115232858589E+00    1.1028814461985302E+01
N   -1.0955981029663102E-02    7.4883224634657894E+00    1.3004736741964908E+01
Ga   -4.5400089548444959E-03    5.6155043083606930E+00    1.3615732690736907E+01
N   -1.5535148517151681E-02    5.6537757964281470E+00    1.5579638597705737E+01
Ga   -5.2668519043283513E-03    7.4878327395583284E+00    1.5864086166898572E+01
N   -1.7062359608957707E+00    1.0196428168711437E+01    2.5017087860653566E+00
Ga   -1.6178408014629686E+00    8.4001387781566930E+00    3.3084951746650804E+00
N   -1.6003817570868075E+00    8.3945313389907330E+00    5.2451239237703895E+00
Ga   -1.5909050760399055E+00    1.0280231463219685E+01    5.7908065312749519E+00
N   -1.5984418720269029E+00    1.0264766467192278E+01    7.7917703981637869E+00
Ga   -1.6254411445721919E+00    8.4125211601926164E+00    8.4368416088306457E+00
N   -1.6228478550212522E+00    8.4168983954306693E+00    1.0434622839910769E+01
Ga   -1.5971148773657613E+00    1.0277579522636701E+01    1.1059538324716431E+01
N   -1.5810935017517214E+00    1.0289581066617846E+01    1.3066352507250793E+01
Ga   -1.6259472762821443E+00    8.4210044544004976E+00    1.3616015535166456E+01
N   -1.6155033288090619E+00    8.4096153041595674E+00    1.5596410679214801E+01
Ga   -1.7158427611016849E+00    1.0201177052778602E+01    1.6448229226944029E+01
N    6.4379968579971925E+00    2.0209156977910996E+00    2.5323514716652835E+00
Ga    6.4226544531657668E+00    4.4346645912904631E-02    2.8802392837718545E+00
N    6.4344159605033111E+00    4.4211419679954796E-02    5.0353933772212294E+00
Ga    6.4306992997700050E+00    1.8826264269007786E+00    5.7872863041961482E+00
N    6.4334861316497118E+00    1.8944530983469721E+00    7.7921183893569808E+00
Ga    6.4302931058017858E+00    5.2461531136649309E-02    8.4391878061431491E+00
N    6.4299330975534250E+00    5.5170315479639347E-02    1.0420042306340287E+01
Ga    6.4317486460798845E+00    1.8961108547482033E+00    1.1059775722788805E+01
N    6.4296863042104180E+00    1.8789953295842712E+00    1.3063580879617195E+01
Ga    6.4334071983745869E+00    5.8678552646698981E-02    1.3851979503679043E+01
N    6.4468090320370104E+00    5.8816069153321250E-02    1.6068209330674630E+01
Ga    6.4351057428949447E+00    2.0749899233868616E+00    1.6460814623536361E+01
Ga    6.4686581700978039E+00    3.7282672333511284E+00    1.4825537717614305E+00
N    4.9345524635395357E+00    4.6327097266268717E+00    2.4492140439176855E+00
Ga    4.7105595956790713E+00    2.7905461980656878E+00    3.2722190465208252E+00
N    4.8255629818270629E+00    2.8382834100927692E+00    5.2349719101153367E+00
Ga    4.7860225967598433E+00    4.7155352534305557E+00    5.8042356617038280E+00
N    4.8257155850027713E+00    4.6930165199364406E+00    7.8160114663391322E+00
Ga    4.8367253453557453E+00    2.8385070013892078E+00    8.4287969019381670E+00
N    4.8347233870312554E+00    2.8438919791816994E+00    1.0432079295617948E+01
Ga    4.8094905573615625E+00    4.7052225480581598E+00    1.1059817765849198E+01
N    4.7880539569628882E+00    4.7207408024269171E+00    1.3065671746043465E+01
Ga    4.8355273332349498E+00    2.8525608884101081E+00    1.3612677254340801E+01
N    4.8215179718713701E+00    2.8298198589281438E+00    1.5593515769572559E+01
Ga    4.9323147768896574E+00    4.6325808547482410E+00    1.6454216812404546E+01
N    6.4197556422254625E+00    3.7945791722871975E+00    1.7561722424453379E+01
N    3.2183185178377784E+00    7.6086161825061129E+00    2.5087715409396214E+00
N    3.2209750521719638E+00    5.6273571537122509E+00    5.1358591285599413E+00
Ga    3.2263694096262694E+00    7.4213100689506000E+00    5.8370774779272940E+00
N    3.2153753020960525E+00    7.4800298131062721E+00    7.8391590828108235E+00
Ga    3.2203016649215725E+00    5.6197298556733024E+00    8.4447857810344562E+00
N    3.2160331405952993E+00    5.6254141922180843E+00    1.0427433423586780E+01
Ga    3.2164963829047042E+00    7.4647390591741383E+00    1.1067433248990930E+01
N    3.2125464144968414E+00    7.4494447973394609E+00    1.3061758050438216E+01
Ga    3.2052012571868502E+00    5.6333411521639905E+00    1.3857322984467899E+01
N    3.1952779744072264E+00    5.6464924259035696E+00    1.6059572394611799E+01
Ga    3.2078537980896598E+00    7.7008017409155922E+00    1.6493718824953532E+01
Ga    3.2486361497145064E+00    9.3676726761004119E+00    1.4989041180430860E+00
N    1.7148959834919282E+00    1.0187918386911553E+01    2.5436631482592884E+00
Ga    1.5953906521334793E+00    8.3758349894614970E+00    3.3595518000019653E+00
N    1.5995201080019703E+00    8.3968091966644725E+00    5.2809816037712691E+00
Ga    1.5845877497461909E+00    1.0281091040073790E+01    5.8198408943065258E+00
N    1.5991286849470663E+00    1.0267089076519870E+01    7.8137562875255195E+00
Ga    1.6177435059367979E+00    8.4151530810388220E+00    8.4602930240005580E+00
N    1.6141381477424592E+00    8.4185754725711881E+00    1.0450863318373665E+01
Ga    1.5906564036824502E+00    1.0279761788971266E+01    1.1069588144701509E+01
N    1.5733233864494638E+00    1.0291389912005318E+01    1.3063471919896122E+01
Ga    1.6144611282298496E+00    8.4205401397498765E+00    1.3610983772454288E+01
N    1.5790792479600992E+00    8.4081690248784309E+00    1.5567911699817714E+01
Ga    1.7890246187152006E+00    1.0163284470326973E+01    1.6495249839259227E+01
N    3.2207631988109529E+00    9.3550687289587504E+00    1.7661400761108936E+01
N    9.6673559255287760E+00    1.9042205394732516E+00    2.6204626949666885E+00
Ga    9.6656082666312741E+00    1.7111859628014492E-01    3.3069496336354813E+00
N    9.6479889856169194E+00    4.4032952130447660E-02    5.2678178696511280E+00
Ga    9.6600769387279311E+00    1.9085718843752637E+00    5.8698076542173849E+00
N    9.6494763064261520E+00    1.9059899830257854E+00    7.8498832308931732E+00
Ga    9.6506717878379416E+00    4.0941706517501987E-02    8.4417755725657582E+00
N    9.6460720407270095E+00    4.4256989327929097E-02    1.0438965230048984E+01
Ga    9.6452743768669738E+00    1.9150508593541535E+00    1.1019927281800690E+01
N    9.6416415447883708E+00    1.9205117787635246E+00    1.2996777896657157E+01
Ga    9.6452045952404220E+00    5.1212040522583865E-02    1.3614471120142543E+01
N    9.6366684592478542E+00    8.5814478816716652E-02    1.5575290757113288E+01
Ga    9.6442741523321338E+00    1.9193530159232228E+00    1.5864909517237914E+01
N    7.9439281043327190E+00    4.6226860411325150E+00    2.5148622856061973E+00
Ga    8.1581041078918233E+00    2.7730230501245234E+00    3.2902103081826639E+00
N    8.0464834143394572E+00    2.8276641087143988E+00    5.2504130302390113E+00
Ga    8.0657665632360871E+00    4.7026893843515909E+00    5.7794309336931464E+00
N    8.0513845932187280E+00    4.6977554619176889E+00    7.7879586728623886E+00
Ga    8.0302842535153349E+00    2.8423896342139887E+00    8.4210925227655142E+00
N    8.0278425913725897E+00    2.8465379359535401E+00    1.0426117079778688E+01
Ga    8.0538065180179590E+00    4.7041502314442587E+00    1.1060042132214875E+01
N    8.0694055829722284E+00    4.7186926242652953E+00    1.3065404177656115E+01
Ga    8.0258407506595564E+00    2.8499109880307656E+00    1.3614157636892186E+01
N    8.0388660982620905E+00    2.8386663109200430E+00    1.5587972899168276E+01
Ga    7.9173755336077267E+00    4.6203740886457707E+00    1.6460369486746451E+01
N    6.4251492997467992E+00    7.4724414919059496E+00    2.5942825775980891E+00
Ga    6.4271090950420522E+00    5.7297144883811626E+00    3.2694201134367300E+00
N    6.4341079288824297E+00    5.6152995440483311E+00    5.2331058659473682E+00
Ga    6.4344783528632563E+00    7.4710592483838765E+00    5.8625439415578162E+00
N    6.4330833650419192E+00    7.4755064951228105E+00    7.8442094110601106E+00
Ga    6.4375835543159141E+00    5.6082514232222094E+00    8.4322735705967240E+00
N    6.4339257998393435E+00    5.6146337882823314E+00    1.0434889306888431E+01
Ga    6.4354749435623857E+00    7.4834889890813843E+00    1.1023161982487983E+01
N    6.4378866310889054E+00    7.4851107109741921E+00    1.3007395413854455E+01
Ga    6.4289851245845249E+00    5.6129004423998765E+00    1.3618093541381992E+01
N    6.4380201244014570E+00    5.6371780685506883E+00    1.5603560509525307E+01
Ga    6.4289642827925739E+00    7.4877975372012013E+00    1.5869399283852882E+01
N    4.7280084012177710E+00    1.0203231021835547E+01    2.5438393369805357E+00
Ga    4.9320137193299018E+00    8.3421881358389722E+00    3.3067687258525842E+00
N    4.8215609075910821E+00    8.4070094709572736E+00    5.2647329562887260E+00
Ga    4.8544295403484012E+00    1.0277046252798511E+01    5.8081318534386925E+00
N    4.8347786558091537E+00    1.0268883923372584E+01    7.8096336489914444E+00
Ga    4.8205541328141432E+00    8.4142455309625444E+00    8.4482705995206100E+00
N    4.8161840615761804E+00    8.4179439962416964E+00    1.0444872234092896E+01
Ga    4.8392004645887292E+00    1.0279198166428158E+01    1.1065705893859223E+01
N    4.8526994580795595E+00    1.0292972191416609E+01    1.3061053088650803E+01
Ga    4.8088062323781386E+00    8.4228474571416267E+00    1.3609035108293597E+01
N    4.8422332251262379E+00    8.4010738402879479E+00    1.5568476824273253E+01
Ga    4.6453918698296670E+00    1.0173822512259871E+01    1.6492908765202742E+01
O    7.4206239822959885E-01    3.8120921745039933E+00   -3.8287865576905367E-01
H    1.9721082089326249E-02    7.4688199220274702E+00    1.6918037336840455E+00
C    8.3709400431690584E-01    2.4865283262678251E+00   -9.7652225914843149E-01
H    1.7779604891876344E+00    1.9758352737838005E+00   -6.8498069090363112E-01
H   -1.0088085387906884E-02    1.8329373004385667E+00   -6.8836551195864126E-01
H    8.1016212847305857E-01    2.5969651872940451E+00   -2.0662416462473514E+00
Ga    3.2070373122239775E+00    5.6102532042213831E+00    2.3869735079760339E+00
O    2.9566250746159666E+00    5.7477827778267940E+00    2.1701359577300958E-01
H    2.3048696098172399E+00    5.0888150403084769E+00   -1.6352818385390269E-01
C    4.1071475124656383E+00    5.9688955306077505E+00   -6.6247988533200342E-01
H    4.0310664320715608E+00    6.9575681727273340E+00   -1.1604232585560581E+00
H    5.0289033211689871E+00    5.9645603185230183E+00   -6.3181562182392154E-02
H    4.1638329547421220E+00    5.1877506824569481E+00   -1.4285915644356886E+00
     &END COORD
     &KIND C
       BASIS_SET DZVP-MOLOPT-SR-GTH-q4
       POTENTIAL GTH-PBE-q4
       &POTENTIAL
 2 2
  0.3384712400000000E+00 2 -0.8803673979999999E+01  0.1339210850000000E+01
 2
  0.3025757500000000E+00 1  0.9622486650000001E+01
  0.2915069400000000E+00 0
         # Potential name:  GTH-PBE-Q4  for symbol:  C
         # Potential read from the potential filename: GTH_POTENTIALS
       &END POTENTIAL
     &END KIND
     &KIND O
       BASIS_SET DZVP-MOLOPT-SR-GTH-q6
       POTENTIAL GTH-PBE-q6
       &POTENTIAL
 2 4
  0.2445543000000000E+00 2 -0.1666721480000000E+02  0.2487311320000000E+01
 2
  0.2209559200000000E+00 1  0.1833745811000000E+02
  0.2113324700000000E+00 0
         # Potential name:  GTH-PBE-Q6  for symbol:  O
         # Potential read from the potential filename: GTH_POTENTIALS
       &END POTENTIAL
     &END KIND
     &KIND H
       BASIS_SET DZVP-MOLOPT-SR-GTH-q1
       POTENTIAL GTH-PBE-q1
       &POTENTIAL
 1
  0.2000000000000000E+00 2 -0.4178900440000000E+01  0.7244633100000000E+00
 0
         # Potential name:  GTH-PBE-Q1  for symbol:  H
         # Potential read from the potential filename: GTH_POTENTIALS
       &END POTENTIAL
     &END KIND
     &KIND N
       BASIS_SET DZVP-MOLOPT-SR-GTH
       POTENTIAL GTH-PBE-q5
       &POTENTIAL
 2 3
  0.2837905100000000E+00 2 -0.1241522559000000E+02  0.1868095920000000E+01
 2
  0.2554050000000000E+00 1  0.1363026257000000E+02
  0.2454945300000000E+00 0
         # Potential name:  GTH-PBE-Q5  for symbol:  N
         # Potential read from the potential filename: GTH_POTENTIALS
       &END POTENTIAL
     &END KIND
     &KIND Ga
       BASIS_SET DZVP-MOLOPT-SR-GTH
       POTENTIAL GTH-PBE-q13
       &POTENTIAL
 2 1 10
  0.4900000000000000E+00 0
 3
  0.4167772300000000E+00 3  0.1047568975000000E+02 -0.4921768140000000E+01  0.8707055900000000E+00
  0.7770178090000000E+01 -0.2248152160000000E+01
  0.1784415450000000E+01
  0.5696265200000000E+00 2  0.1777985340000000E+01  0.1958597600000000E+00
 -0.2317443900000000E+00
  0.2381265000000000E+00 1 -0.1624868022000000E+02
         # Potential name:  GTH-PBE-Q13  for symbol:  GA
         # Potential read from the potential filename: GTH_POTENTIALS
       &END POTENTIAL
     &END KIND
     &TOPOLOGY
       NUMBER_OF_ATOMS  212
       MULTIPLE_UNIT_CELL  1 1 1
     &END TOPOLOGY
   &END SUBSYS
 &END FORCE_EVAL
