 # Version information for this restart file 
 # current date 2019-06-29 06:56:31.111
 # current working dir /scratch/rzk/rzk/GaN-carbene/443-adatoms-both-2x2/05-2DissMethanol/01-Combine0304-0202
 # Program compiled at                              Sun Apr  7 00:48:11 EDT 2019
 # Program compiled on                          beluga2.int.ets1.calculquebec.ca
 # Program compiled for                        Beluga-Linux-x86-64-intel-openmpi
 # Source code revision number                                         svn:18619
 &GLOBAL
   PRINT_LEVEL  MEDIUM
   PROJECT_NAME TEST
   RUN_TYPE  GEO_OPT
 &END GLOBAL
 &MOTION
   &GEO_OPT
     MAX_ITER  500
     STEP_START_VAL  132
   &END GEO_OPT
 &END MOTION
 &FORCE_EVAL
   METHOD  QS
   STRESS_TENSOR  ANALYTICAL
   &DFT
     BASIS_SET_FILE_NAME BASIS_MOLOPT
     POTENTIAL_FILE_NAME GTH_POTENTIALS
     UKS  T
     SURFACE_DIPOLE_CORRECTION  T
     SURF_DIP_DIR  Z
     &SCF
       MAX_SCF  80
       EPS_SCF     5.0000000000000004E-06
       &OT  T
         PRECONDITIONER  FULL_ALL
       &END OT
       &OUTER_SCF  T
         OPTIMIZER  NONE
         EPS_SCF     5.0000000000000004E-06
         MAX_SCF  4
       &END OUTER_SCF
       &PRINT
         &RESTART  OFF
           BACKUP_COPIES  1
           &EACH
             JUST_ENERGY  0
             QS_SCF  0
             MD  20
           &END EACH
         &END RESTART
       &END PRINT
     &END SCF
     &QS
       EPS_DEFAULT     1.0000000000000000E-14
       METHOD  GPW
     &END QS
     &MGRID
       NGRIDS  5
       CUTOFF     1.2000000000000000E+03
     &END MGRID
     &XC
       DENSITY_CUTOFF     1.0000000000000000E-10
       GRADIENT_CUTOFF     1.0000000000000000E-10
       TAU_CUTOFF     1.0000000000000000E-10
       &XC_FUNCTIONAL  NO_SHORTCUT
         &PBE  T
         &END PBE
       &END XC_FUNCTIONAL
       &VDW_POTENTIAL
         POTENTIAL_TYPE  PAIR_POTENTIAL
         &PAIR_POTENTIAL
           R_CUTOFF     1.0000000000000004E+01
           TYPE  DFTD3
           PARAMETER_FILE_NAME dftd3.dat
           REFERENCE_FUNCTIONAL PBE
           EPS_CN     9.9999999999999995E-07
           CALCULATE_C9_TERM  T
           REFERENCE_C9_TERM  T
           LONG_RANGE_CORRECTION  F
           VERBOSE_OUTPUT  F
         &END PAIR_POTENTIAL
       &END VDW_POTENTIAL
     &END XC
   &END DFT
   &SUBSYS
     &CELL
       A     1.2864472766435110E+01    0.0000000000000000E+00    0.0000000000000000E+00
       B    -6.4322363581020028E+00    1.1140960178524473E+01    0.0000000000000000E+00
       C     0.0000000000000000E+00    0.0000000000000000E+00    3.2000000000000000E+01
       MULTIPLE_UNIT_CELL  1 1 1
       &CELL_REF
         A     1.2982353780853531E+01    0.0000000000000000E+00    0.0000000000000000E+00
         B    -6.4911768904267628E+00    1.1243048175136114E+01    0.0000000000000000E+00
         C     0.0000000000000000E+00    0.0000000000000000E+00    3.2000000000000000E+01
         MULTIPLE_UNIT_CELL  1 1 1
       &END CELL_REF
     &END CELL
     &COORD
N   -2.1460296866369181E-03    2.0564161939732926E+00    2.5084368294733634E+00
Ga    2.0044678170207466E-02    8.8839969728035678E-02    2.8470097361593254E+00
N   -1.1805991348164109E-02    6.2473295419766116E-02    5.0158890104972667E+00
Ga   -7.6677634349404909E-03    1.8909959076231129E+00    5.7983502238169491E+00
N   -8.6527525416964044E-03    1.9016593128121400E+00    7.7994875641613675E+00
Ga   -3.6743715589963163E-03    5.6370598666956914E-02    8.4402611951794420E+00
N   -5.0259853551403713E-03    5.4071027388024683E-02    1.0417648487459120E+01
Ga   -4.2017529926125351E-03    1.8926706685931356E+00    1.1072031970369309E+01
N   -3.1444357303058493E-03    1.8738016821487775E+00    1.3066576156702519E+01
Ga   -7.9028523327272010E-04    5.3217661493430574E-02    1.3871264081752090E+01
N    1.2516396681563774E-03    5.5430631878888401E-02    1.6068567038988444E+01
Ga   -3.3316978193823786E-03    2.0948281788835934E+00    1.6486521819313349E+01
Ga    3.6853507252293471E-02    3.7366323850447207E+00    1.3703497360781667E+00
N   -1.4748063557400986E+00    4.6355544389379322E+00    2.4720013259433045E+00
Ga   -1.6808587915992026E+00    2.8017375458707106E+00    3.2638718404585485E+00
N   -1.6171368732615832E+00    2.8463610957638985E+00    5.2459281407447103E+00
Ga   -1.6462027030048620E+00    4.7093492510768495E+00    5.8105907687874714E+00
N   -1.6251245865628106E+00    4.7050491201776454E+00    7.8043840671127915E+00
Ga   -1.6030458991644545E+00    2.8461448913070759E+00    8.4410299899617591E+00
N   -1.6023904120166106E+00    2.8460870873481463E+00    1.0434904329463256E+01
Ga   -1.6302521852139238E+00    4.7056465053141805E+00    1.1072114155253740E+01
N   -1.6428910169872424E+00    4.7150652277560940E+00    1.3064358786880341E+01
Ga   -1.6005183498855093E+00    2.8463796420783098E+00    1.3617913248740209E+01
N   -1.6289140579140726E+00    2.8337435677332343E+00    1.5578982848110490E+01
Ga   -1.4436679044247827E+00    4.5992717670409053E+00    1.6484998940990415E+01
N   -6.3847311342440111E-03    3.7556926332182039E+00    1.7619725675957270E+01
N   -3.2185701893947165E+00    7.5969360137062241E+00    2.4990792264808181E+00
Ga   -3.1966090149840749E+00    5.6294185964717700E+00    2.8397876652688785E+00
N   -3.2194661588061706E+00    5.6222303725885032E+00    5.0149836991567920E+00
Ga   -3.2311910443645746E+00    7.4516914704349331E+00    5.7877063652231051E+00
N   -3.2210369580200973E+00    7.4738353566444085E+00    7.7878602031063320E+00
Ga   -3.2240784204410828E+00    5.6287667788419267E+00    8.4433881065313994E+00
N   -3.2222651805634461E+00    5.6261541060064362E+00    1.0417990189007639E+01
Ga   -3.2230172932469512E+00    7.4657140300370113E+00    1.1068888667576777E+01
N   -3.2185141475043717E+00    7.4468989170306878E+00    1.3061160627271795E+01
Ga   -3.2155129067209995E+00    5.6286356233378552E+00    1.3865520900518844E+01
N   -3.2146642413458624E+00    5.6293831921169781E+00    1.6068663538435722E+01
Ga   -3.2179317541962851E+00    7.6764190930077190E+00    1.6489566319500568E+01
Ga   -3.2583761031442902E+00    9.3700600092827138E+00    1.2744113154720640E+00
N   -4.7317094331073415E+00    1.0215920115788855E+01    2.5098526895586910E+00
Ga   -4.9088485642750905E+00    8.3702245033450193E+00    3.2387285410699791E+00
N   -4.8342958994371186E+00    8.4102460319340633E+00    5.2265429300376125E+00
Ga   -4.8550052905941445E+00    1.0284468442544956E+01    5.7774478979242128E+00
N   -4.8397284831708012E+00    1.0274518722441885E+01    7.7846714914084085E+00
Ga   -4.8228326206018561E+00    8.4191432670881774E+00    8.4257402238384103E+00
N   -4.8184539338546877E+00    8.4171579834676500E+00    1.0424237635514134E+01
Ga   -4.8437483678391136E+00    1.0275194568041012E+01    1.1068216399166394E+01
N   -4.8575336075996791E+00    1.0284741802921602E+01    1.3062876109546393E+01
Ga   -4.8143118069152662E+00    8.4168883189339816E+00    1.3621090331716303E+01
N   -4.8409898595343677E+00    8.3985244632369493E+00    1.5580249340624004E+01
Ga   -4.6635516295431527E+00    1.0171519914623726E+01    1.6491163318210852E+01
N   -3.2279666056603000E+00    9.3368137849339590E+00    1.7639715734268734E+01
N    3.1895774452335965E+00    1.9259129473882031E+00    2.6006423411136708E+00
Ga    3.2030745192382062E+00    1.5690792254676050E-01    3.2450865629045600E+00
N    3.2108875818098266E+00    6.3507265895029141E-02    5.2322472998987317E+00
Ga    3.2059082426602878E+00    1.9179810569842297E+00    5.8662939614274867E+00
N    3.2117121586715602E+00    1.9148322241421629E+00    7.8468750532351521E+00
Ga    3.2070681627180901E+00    4.7140263955383059E-02    8.4291317318801084E+00
N    3.2106542782146668E+00    4.1140583303019486E-02    1.0426456564250568E+01
Ga    3.2098217569529193E+00    1.9084968527972066E+00    1.1028361054910171E+01
N    3.2132060066678156E+00    1.9097681239932296E+00    1.3001263745064222E+01
Ga    3.2144507639285167E+00    4.0191101947954166E-02    1.3624007452545781E+01
N    3.2189872779177682E+00    7.3128379139044297E-02    1.5584271394250154E+01
Ga    3.2107363603931449E+00    1.9105700311032949E+00    1.5861461874630583E+01
N    1.4695638179387314E+00    4.6439069179855847E+00    2.5245620241047342E+00
Ga    1.6823715341834728E+00    2.8097827564450264E+00    3.2977862152152424E+00
N    1.5992904960062222E+00    2.8489185269613233E+00    5.2639932279601691E+00
Ga    1.6488280737322809E+00    4.7236313222248558E+00    5.8214262815142224E+00
N    1.5994352041979372E+00    4.7016313861708259E+00    7.8269592041819323E+00
Ga    1.5908165628639375E+00    2.8445463516442118E+00    8.4409533144492599E+00
N    1.5922425266659455E+00    2.8431783713809313E+00    1.0436824500471010E+01
Ga    1.6190948606812634E+00    4.7042674463487995E+00    1.1069272867684759E+01
N    1.6357946813900808E+00    4.7146784739808432E+00    1.3064130133368748E+01
Ga    1.5943762599467861E+00    2.8467975280095761E+00    1.3620556262405735E+01
N    1.6240929421824246E+00    2.8355321237148332E+00    1.5582573485041662E+01
Ga    1.4350374820955554E+00    4.5985188648907780E+00    1.6486496696417987E+01
N   -1.7816702213692324E-02    7.4782419902937427E+00    2.6930741430515894E+00
Ga   -1.4232802060979884E-03    5.6267267851469560E+00    3.3392372109732147E+00
N   -1.1350891837227336E-02    5.6425401075415333E+00    5.2695621388710263E+00
Ga   -1.1052600770194952E-02    7.4837242387491942E+00    5.9041173640296147E+00
N   -5.4968123977541224E-03    7.4871703759073425E+00    7.8640213590698096E+00
Ga   -8.6876165309390414E-03    5.6133462412140869E+00    8.4531372447889073E+00
N   -7.8187797810211745E-03    5.6152006270080328E+00    1.0443209824844358E+01
Ga   -7.9960367700281625E-03    7.4830751688212764E+00    1.1035364573473636E+01
N   -3.3379778730303839E-03    7.4835939223517096E+00    1.3005346031596964E+01
Ga   -2.7165555409607760E-03    5.6132647556972195E+00    1.3620441897092608E+01
N   -1.2448406162477387E-03    5.6436404809270782E+00    1.5581520284715040E+01
Ga   -1.5743780722069754E-03    7.4837761337037101E+00    1.5856760492169965E+01
N   -1.7107114667754104E+00    1.0215524358809244E+01    2.5084293147799590E+00
Ga   -1.6295656077118479E+00    8.4201829740331178E+00    3.2985770957600975E+00
N   -1.6026289339034101E+00    8.4088067660572499E+00    5.2429175801612899E+00
Ga   -1.5959863115902120E+00    1.0292672951497156E+01    5.7948076704406182E+00
N   -1.6047291993133894E+00    1.0273727104107319E+01    7.7921778742657732E+00
Ga   -1.6285854797789310E+00    8.4202554318559120E+00    8.4410317475224250E+00
N   -1.6250823782115460E+00    8.4178194591027928E+00    1.0432724204142968E+01
Ga   -1.5995966349232036E+00    1.0277208995262985E+01    1.1069351860461600E+01
N   -1.5793859261665055E+00    1.0285059170834463E+01    1.3061812871132458E+01
Ga   -1.6225647642404120E+00    8.4179680609574135E+00    1.3623391671526861E+01
N   -1.5930983534638450E+00    8.4028569636019075E+00    1.5581063348222145E+01
Ga   -1.7823516469744913E+00    1.0165405625218625E+01    1.6491765231202617E+01
N    6.4251580292325379E+00    2.0417116926612606E+00    2.5412760365032270E+00
Ga    6.4021788322835782E+00    5.9252129957704985E-02    2.8802026290854075E+00
N    6.4302763887875516E+00    6.0926480058953632E-02    5.0242593297256706E+00
Ga    6.4185036643230475E+00    1.8955635899109351E+00    5.7986731708515018E+00
N    6.4245144610725475E+00    1.9022044832322096E+00    7.7955058334697833E+00
Ga    6.4239452364543590E+00    5.8156021471454593E-02    8.4442339723812658E+00
N    6.4273889173925598E+00    5.5156430945193811E-02    1.0419047598839931E+01
Ga    6.4279564599042214E+00    1.8939861262526430E+00    1.1071787774163690E+01
N    6.4299981707236737E+00    1.8723784797653606E+00    1.3069092513562923E+01
Ga    6.4282000810065334E+00    4.9345828535392086E-02    1.3868217600840207E+01
N    6.4299090450612155E+00    5.0525514947669672E-02    1.6073505386656148E+01
Ga    6.4275289175918902E+00    2.0731712728538456E+00    1.6463233041610355E+01
Ga    6.4603187039270589E+00    3.7457929125163161E+00    1.5153541242890625E+00
N    4.9202547594050401E+00    4.6408970936036562E+00    2.4240022728836852E+00
Ga    4.6881178441473885E+00    2.8089320558630351E+00    3.2784220026652062E+00
N    4.8158302306956653E+00    2.8530214503252238E+00    5.2394460889547441E+00
Ga    4.7740129818008201E+00    4.7270584544002210E+00    5.8165644179945133E+00
N    4.8195088842193714E+00    4.6985413470801012E+00    7.8225918238417895E+00
Ga    4.8273905820014793E+00    2.8454728264009885E+00    8.4456224860769620E+00
N    4.8299815395048569E+00    2.8433846117002912E+00    1.0440229881779693E+01
Ga    4.8040437905607201E+00    4.7061629984159543E+00    1.1069056585221464E+01
N    4.7891542490852217E+00    4.7153359264635224E+00    1.3068151957903131E+01
Ga    4.8319145555702692E+00    2.8457447682721320E+00    1.3614158413374403E+01
N    4.8055746705714331E+00    2.8308273616002388E+00    1.5583744791215823E+01
Ga    4.9626951365111900E+00    4.6118050499568604E+00    1.6461741892964564E+01
N    6.4259522610326014E+00    3.7625101683243063E+00    1.7574705963090484E+01
N    3.1987453836743147E+00    7.6042973818743533E+00    2.4249879530268403E+00
N    3.2102970798225194E+00    5.6350682312464624E+00    5.1549768706758181E+00
Ga    3.2166420079279003E+00    7.4307760808073766E+00    5.8319717292060131E+00
N    3.2079931076050379E+00    7.4895362881872449E+00    7.8286053101618052E+00
Ga    3.2102835470590336E+00    5.6265846082354081E+00    8.4413733944041152E+00
N    3.2115319104586391E+00    5.6264098329180712E+00    1.0423278882060975E+01
Ga    3.2132350092524873E+00    7.4641587684443644E+00    1.1073514546411177E+01
N    3.2133980136234852E+00    7.4467607523025166E+00    1.3068070748255717E+01
Ga    3.2096410920668834E+00    5.6267158493894707E+00    1.3866002855233445E+01
N    3.2107925730271099E+00    5.6275940569236438E+00    1.6071786265393445E+01
Ga    3.2114281085525112E+00    7.6702533392905883E+00    1.6486306365664916E+01
Ga    3.2313847282210912E+00    9.3900092341424930E+00    1.5025781930750393E+00
N    1.7074647543324177E+00    1.0197901525442745E+01    2.5287774300051016E+00
Ga    1.5837433754343981E+00    8.3666034068659183E+00    3.3264413938300490E+00
N    1.5952456244343509E+00    8.4048297736168252E+00    5.2500830027072745E+00
Ga    1.5749357485175988E+00    1.0288396636702096E+01    5.8087708395559972E+00
N    1.5909178988580035E+00    1.0273423543756204E+01    7.7989550907273673E+00
Ga    1.6119442482383082E+00    8.4227110671303809E+00    8.4588595716052879E+00
N    1.6114000657266645E+00    8.4193834050520469E+00    1.0447203191458541E+01
Ga    1.5877239991975518E+00    1.0278998207857564E+01    1.1076236126325130E+01
N    1.5735002281558075E+00    1.0286282078600639E+01    1.3068556587993541E+01
Ga    1.6170659105668534E+00    8.4176572570954384E+00    1.3623494778432217E+01
N    1.5903838112303772E+00    8.4017908496622411E+00    1.5582247350045037E+01
Ga    1.7708003346603616E+00    1.0167705033451851E+01    1.6488622591018011E+01
N    3.2188163824377414E+00    9.3368464473634294E+00    1.7630729158314224E+01
N    9.6513994730746493E+00    1.9224209637181693E+00    2.6107683737033422E+00
Ga    9.6507473670499042E+00    1.8964977105668504E-01    3.3012448393334703E+00
N    9.6402757203476135E+00    5.8077517342034216E-02    5.2570419857326742E+00
Ga    9.6504458812528000E+00    1.9210885957094457E+00    5.8788691966291617E+00
N    9.6415589081807731E+00    1.9135417757618181E+00    7.8519266956550524E+00
Ga    9.6441373420649938E+00    4.5111804677653605E-02    8.4377834166145185E+00
N    9.6431830723874583E+00    4.1011510341498497E-02    1.0432190058858552E+01
Ga    9.6424722552948374E+00    1.9110849730792909E+00    1.1025574836956956E+01
N    9.6437290975487038E+00    1.9099951127014494E+00    1.2999066569034250E+01
Ga    9.6451400061730457E+00    4.1556617410192731E-02    1.3626251468299809E+01
N    9.6445043711925091E+00    7.2459231181974643E-02    1.5587814364416465E+01
Ga    9.6502773202005852E+00    1.9109283640297121E+00    1.5866299821443253E+01
N    7.9264012621275288E+00    4.6359477638718332E+00    2.5276881401562630E+00
Ga    8.1477357215758239E+00    2.7861722714808583E+00    3.3048959523510688E+00
N    8.0362332336738387E+00    2.8425174563870446E+00    5.2600460156107394E+00
Ga    8.0541704961784184E+00    4.7206201983381222E+00    5.7927965212270376E+00
N    8.0432692349109249E+00    4.7069197127691149E+00    7.7925089963377010E+00
Ga    8.0224486661074526E+00    2.8493990180956157E+00    8.4340180029435512E+00
N    8.0233934590088936E+00    2.8466162735979448E+00    1.0430386719983392E+01
Ga    8.0508354649487845E+00    4.7054321134176957E+00    1.1069668433269875E+01
N    8.0701048769877861E+00    4.7147084577398930E+00    1.3066544540981214E+01
Ga    8.0271449206835594E+00    2.8453559640589758E+00    1.3617404984747433E+01
N    8.0543206032559809E+00    2.8307518213060585E+00    1.5586700683843777E+01
Ga    7.8913796114092838E+00    4.6112413491124595E+00    1.6460772857265866E+01
N    6.4240336923239392E+00    7.4864262067339693E+00    2.5831469984765958E+00
Ga    6.3997795616177138E+00    5.7488472090578107E+00    3.2708769225764924E+00
N    6.4181847284571001E+00    5.6247660503717389E+00    5.2330043331276794E+00
Ga    6.4242872344878101E+00    7.4844802326726292E+00    5.8571414503515955E+00
N    6.4232591834458335E+00    7.4835338095331601E+00    7.8376613536792004E+00
Ga    6.4280315114293929E+00    5.6173449326691438E+00    8.4422664145703621E+00
N    6.4295733399538300E+00    5.6149273322598052E+00    1.0436922196123934E+01
Ga    6.4301607664507108E+00    7.4834194355104211E+00    1.1029261876291960E+01
N    6.4296730067741450E+00    7.4821643162281779E+00    1.3001076579595692E+01
Ga    6.4293658669691904E+00    5.6138512347999434E+00    1.3616755146703470E+01
N    6.4300621452234381E+00    5.6429469639620873E+00    1.5586779343042563E+01
Ga    6.4313957048504902E+00    7.4866453694674835E+00    1.5863539903089693E+01
N    4.7105766074999336E+00    1.0211756067159820E+01    2.5269532732299611E+00
Ga    4.9138059848824671E+00    8.3346615287082724E+00    3.2760603377124107E+00
N    4.8057154456952400E+00    8.4126445391382152E+00    5.2357116997851776E+00
Ga    4.8485491440850899E+00    1.0282432408016700E+01    5.7969982541514558E+00
N    4.8279429425081766E+00    1.0274249648534784E+01    7.7948333923902595E+00
Ga    4.8124321826689256E+00    8.4212823257173497E+00    8.4464033232961278E+00
N    4.8114431183060082E+00    8.4186192805943243E+00    1.0439239789523162E+01
Ga    4.8357828456432541E+00    1.0277044147022844E+01    1.1073657010769942E+01
N    4.8527860008220687E+00    1.0285808678866106E+01    1.3068098936980100E+01
Ga    4.8104436823846859E+00    8.4164724772618538E+00    1.3624929466427021E+01
N    4.8369055538651091E+00    8.3996466133140029E+00    1.5585941033765804E+01
Ga    4.6620251352790572E+00    1.0172400190875855E+01    1.6487576137457818E+01
O    7.4668829082042143E-01    3.8466721350234918E+00   -3.5914431028653548E-01
H   -1.3630390114150692E-02    7.4645978486258997E+00    1.6661346324516866E+00
C    1.1512695963342547E+00    2.5785070589845773E+00   -9.2722420657182170E-01
H    1.8539956994360585E+00    2.0400023107367331E+00   -2.6944809216427285E-01
H    2.8204801296858711E-01    1.9333295621647253E+00   -1.1141515879223554E+00
H    1.6447265869009271E+00    2.7856659906176668E+00   -1.8884781513747988E+00
Ga    3.1630627260646094E+00    5.5911082737366389E+00    2.2576683967915292E+00
O    2.8314165367963890E+00    5.4756508584389953E+00    1.3305334757218523E-01
H    2.0707737771870383E+00    4.8189462449487950E+00   -6.3947569673035234E-02
C    3.9123923631421063E+00    5.2524769033556362E+00   -7.8908840813382253E-01
H    3.5590439604592841E+00    5.3955618795325435E+00   -1.8168020013298642E+00
H    4.7030387225778112E+00    5.9752828712628396E+00   -5.5530681952631122E-01
H    4.3151961132045971E+00    4.2361010903676197E+00   -6.7911763311290319E-01
     &END COORD
     &KIND C
       BASIS_SET DZVP-MOLOPT-SR-GTH-q4
       POTENTIAL GTH-PBE-q4
       &POTENTIAL
 2 2
  0.3384712400000000E+00 2 -0.8803673979999999E+01  0.1339210850000000E+01
 2
  0.3025757500000000E+00 1  0.9622486650000001E+01
  0.2915069400000000E+00 0
         # Potential name:  GTH-PBE-Q4  for symbol:  C
         # Potential read from the potential filename: GTH_POTENTIALS
       &END POTENTIAL
     &END KIND
     &KIND O
       BASIS_SET DZVP-MOLOPT-SR-GTH-q6
       POTENTIAL GTH-PBE-q6
       &POTENTIAL
 2 4
  0.2445543000000000E+00 2 -0.1666721480000000E+02  0.2487311320000000E+01
 2
  0.2209559200000000E+00 1  0.1833745811000000E+02
  0.2113324700000000E+00 0
         # Potential name:  GTH-PBE-Q6  for symbol:  O
         # Potential read from the potential filename: GTH_POTENTIALS
       &END POTENTIAL
     &END KIND
     &KIND H
       BASIS_SET DZVP-MOLOPT-SR-GTH-q1
       POTENTIAL GTH-PBE-q1
       &POTENTIAL
 1
  0.2000000000000000E+00 2 -0.4178900440000000E+01  0.7244633100000000E+00
 0
         # Potential name:  GTH-PBE-Q1  for symbol:  H
         # Potential read from the potential filename: GTH_POTENTIALS
       &END POTENTIAL
     &END KIND
     &KIND N
       BASIS_SET DZVP-MOLOPT-SR-GTH
       POTENTIAL GTH-PBE-q5
       &POTENTIAL
 2 3
  0.2837905100000000E+00 2 -0.1241522559000000E+02  0.1868095920000000E+01
 2
  0.2554050000000000E+00 1  0.1363026257000000E+02
  0.2454945300000000E+00 0
         # Potential name:  GTH-PBE-Q5  for symbol:  N
         # Potential read from the potential filename: GTH_POTENTIALS
       &END POTENTIAL
     &END KIND
     &KIND Ga
       BASIS_SET DZVP-MOLOPT-SR-GTH
       POTENTIAL GTH-PBE-q13
       &POTENTIAL
 2 1 10
  0.4900000000000000E+00 0
 3
  0.4167772300000000E+00 3  0.1047568975000000E+02 -0.4921768140000000E+01  0.8707055900000000E+00
  0.7770178090000000E+01 -0.2248152160000000E+01
  0.1784415450000000E+01
  0.5696265200000000E+00 2  0.1777985340000000E+01  0.1958597600000000E+00
 -0.2317443900000000E+00
  0.2381265000000000E+00 1 -0.1624868022000000E+02
         # Potential name:  GTH-PBE-Q13  for symbol:  GA
         # Potential read from the potential filename: GTH_POTENTIALS
       &END POTENTIAL
     &END KIND
     &TOPOLOGY
       NUMBER_OF_ATOMS  212
       MULTIPLE_UNIT_CELL  1 1 1
     &END TOPOLOGY
   &END SUBSYS
 &END FORCE_EVAL
