 # Version information for this restart file 
 # current date 2019-06-28 20:13:29.024
 # current working dir /scratch/rzk/rzk/GaN-carbene/443-adatoms-both-2x2/05-2DissMethanol/01-Combine0304-0202
 # Program compiled at                              Sun Apr  7 00:48:11 EDT 2019
 # Program compiled on                          beluga2.int.ets1.calculquebec.ca
 # Program compiled for                        Beluga-Linux-x86-64-intel-openmpi
 # Source code revision number                                         svn:18619
 &GLOBAL
   PRINT_LEVEL  MEDIUM
   PROJECT_NAME TEST
   RUN_TYPE  GEO_OPT
 &END GLOBAL
 &MOTION
   &GEO_OPT
     MAX_ITER  500
     STEP_START_VAL  13
   &END GEO_OPT
 &END MOTION
 &FORCE_EVAL
   METHOD  QS
   STRESS_TENSOR  ANALYTICAL
   &DFT
     BASIS_SET_FILE_NAME BASIS_MOLOPT
     POTENTIAL_FILE_NAME GTH_POTENTIALS
     UKS  T
     SURFACE_DIPOLE_CORRECTION  T
     SURF_DIP_DIR  Z
     &SCF
       MAX_SCF  80
       EPS_SCF     5.0000000000000004E-06
       &OT  T
         PRECONDITIONER  FULL_ALL
       &END OT
       &OUTER_SCF  T
         OPTIMIZER  NONE
         EPS_SCF     5.0000000000000004E-06
         MAX_SCF  4
       &END OUTER_SCF
       &PRINT
         &RESTART  OFF
           BACKUP_COPIES  1
           &EACH
             JUST_ENERGY  0
             QS_SCF  0
             MD  20
           &END EACH
         &END RESTART
       &END PRINT
     &END SCF
     &QS
       EPS_DEFAULT     1.0000000000000000E-14
       METHOD  GPW
     &END QS
     &MGRID
       NGRIDS  5
       CUTOFF     1.2000000000000000E+03
     &END MGRID
     &XC
       DENSITY_CUTOFF     1.0000000000000000E-10
       GRADIENT_CUTOFF     1.0000000000000000E-10
       TAU_CUTOFF     1.0000000000000000E-10
       &XC_FUNCTIONAL  NO_SHORTCUT
         &PBE  T
         &END PBE
       &END XC_FUNCTIONAL
       &VDW_POTENTIAL
         POTENTIAL_TYPE  PAIR_POTENTIAL
         &PAIR_POTENTIAL
           R_CUTOFF     1.0000000000000004E+01
           TYPE  DFTD3
           PARAMETER_FILE_NAME dftd3.dat
           REFERENCE_FUNCTIONAL PBE
           EPS_CN     9.9999999999999995E-07
           CALCULATE_C9_TERM  T
           REFERENCE_C9_TERM  T
           LONG_RANGE_CORRECTION  F
           VERBOSE_OUTPUT  F
         &END PAIR_POTENTIAL
       &END VDW_POTENTIAL
     &END XC
   &END DFT
   &SUBSYS
     &CELL
       A     1.2864472766435110E+01    0.0000000000000000E+00    0.0000000000000000E+00
       B    -6.4322363581020028E+00    1.1140960178524473E+01    0.0000000000000000E+00
       C     0.0000000000000000E+00    0.0000000000000000E+00    3.2000000000000000E+01
       MULTIPLE_UNIT_CELL  1 1 1
       &CELL_REF
         A     1.2982353780853531E+01    0.0000000000000000E+00    0.0000000000000000E+00
         B    -6.4911768904267628E+00    1.1243048175136114E+01    0.0000000000000000E+00
         C     0.0000000000000000E+00    0.0000000000000000E+00    3.2000000000000000E+01
         MULTIPLE_UNIT_CELL  1 1 1
       &END CELL_REF
     &END CELL
     &COORD
N   -8.8514669144634187E-03    2.0433121104973551E+00    2.5052109917718437E+00
Ga   -8.0104514796732751E-03    9.5070482522783009E-02    2.8523468716735625E+00
N   -3.1993376017511012E-03    5.0504681175409689E-02    5.0186818355995477E+00
Ga    1.6410117050844016E-03    1.8837788149768464E+00    5.7944440705604592E+00
N   -1.0509468100276841E-03    1.8924750312877536E+00    7.7932542096492856E+00
Ga    7.7663557183101810E-04    4.8421114591793019E-02    8.4435798191270131E+00
N    7.7565050329170061E-06    4.5497197069516999E-02    1.0414694533439942E+01
Ga   -5.8684815594676641E-04    1.8851400880139275E+00    1.1071071820381167E+01
N   -1.8941306156919156E-03    1.8654736662498275E+00    1.3061177798142849E+01
Ga   -1.2932801330046400E-03    4.5879728689768223E-02    1.3872065666808094E+01
N   -1.4693821114550635E-03    4.5935660421456304E-02    1.6064443714056349E+01
Ga   -1.7787810904565642E-03    2.0932371579835696E+00    1.6483898453967658E+01
Ga   -4.8007415960673754E-02    3.7217984796704195E+00    1.3150322298046351E+00
N   -1.4874506068520714E+00    4.6272940446351445E+00    2.4903856524922796E+00
Ga   -1.6800720551953503E+00    2.7877000177030187E+00    3.2737334981538777E+00
N   -1.6130670392480417E+00    2.8350447878110216E+00    5.2510813487632886E+00
Ga   -1.6362636976634264E+00    4.6996525213802052E+00    5.8051729307916622E+00
N   -1.6187254609591866E+00    4.6964391835453370E+00    7.7969958166050342E+00
Ga   -1.5982135643765349E+00    2.8365214555607037E+00    8.4377293661282629E+00
N   -1.5986564408738617E+00    2.8374407391319791E+00    1.0429275980304396E+01
Ga   -1.6261032391085779E+00    4.6954921171721518E+00    1.1075236366147529E+01
N   -1.6425335191578574E+00    4.7060012291431832E+00    1.3063943587128628E+01
Ga   -1.5992900956198401E+00    2.8363598896697257E+00    1.3622490375272752E+01
N   -1.6305677147030591E+00    2.8182393050318226E+00    1.5578895910564857E+01
Ga   -1.4433946638652517E+00    4.5912617430436606E+00    1.6485227433538526E+01
N   -7.0510801060023739E-03    3.7551907374390248E+00    1.7613980720954839E+01
N   -3.2130928133835868E+00    7.5942550517299772E+00    2.5014687432154545E+00
Ga   -3.1916581471594303E+00    5.5930145838053722E+00    2.8488265720723285E+00
N   -3.2151258849420703E+00    5.6176218061928349E+00    5.0136673176469690E+00
Ga   -3.2267468266169814E+00    7.4383249261743210E+00    5.8011511555984212E+00
N   -3.2175705070037672E+00    7.4634830831312939E+00    7.7903533805909317E+00
Ga   -3.2178565727324502E+00    5.6162643828097778E+00    8.4471904510385141E+00
N   -3.2175911005686899E+00    5.6168008208398792E+00    1.0416509526519624E+01
Ga   -3.2191830394571892E+00    7.4550303034232632E+00    1.1074293978169724E+01
N   -3.2181169766650366E+00    7.4360242670430470E+00    1.3062799557225439E+01
Ga   -3.2183493155971012E+00    5.6160764486419454E+00    1.3874855099416166E+01
N   -3.2173034951061763E+00    5.6159761562355532E+00    1.6065146164551251E+01
Ga   -3.2181858164120212E+00    7.6633067496183163E+00    1.6483737315975560E+01
Ga   -3.2471584151868935E+00    9.3544835882499076E+00    1.4361389033189944E+00
N   -4.7279624301533270E+00    1.0204272304590315E+01    2.5102897062894396E+00
Ga   -4.9324865245539975E+00    8.3472000804154032E+00    3.2645705026844483E+00
N   -4.8250535243585748E+00    8.4026103171592226E+00    5.2310262786501065E+00
Ga   -4.8536460417861669E+00    1.0276880720112514E+01    5.7906345900122700E+00
N   -4.8342251350006933E+00    1.0262984411339865E+01    7.7864680368978441E+00
Ga   -4.8175640758133014E+00    8.4086565610831592E+00    8.4364826230380832E+00
N   -4.8144306948475739E+00    8.4075623800449986E+00    1.0426474643086637E+01
Ga   -4.8399105701360998E+00    1.0267304730065968E+01    1.1070758503377633E+01
N   -4.8572582658491656E+00    1.0276598073521956E+01    1.3060780600271670E+01
Ga   -4.8158117734949597E+00    8.4078361211121546E+00    1.3622538795199175E+01
N   -4.8468672539138717E+00    8.3891286171067634E+00    1.5579383133953359E+01
Ga   -4.6609609838893356E+00    1.0162857808867525E+01    1.6483821727565175E+01
N   -3.2239205055682985E+00    9.3266624877789788E+00    1.7612672665893498E+01
N    3.2011067937112587E+00    1.9199169602275077E+00    2.5915661086597459E+00
Ga    3.2048644690208987E+00    1.7465253923283477E-01    3.2665678850922504E+00
N    3.2149426734903654E+00    4.7905340645819521E-02    5.2320830290714166E+00
Ga    3.2066642534711196E+00    1.9110858304845231E+00    5.8601823182956796E+00
N    3.2151435419435090E+00    1.9021862166859624E+00    7.8365201837239660E+00
Ga    3.2122517573555243E+00    3.7567059488854533E-02    8.4338159120208864E+00
N    3.2147244063379494E+00    3.2421174394256617E-02    1.0423898206718556E+01
Ga    3.2143270703868851E+00    1.9020004060662250E+00    1.1025675238122886E+01
N    3.2149219563380620E+00    1.9022046282670015E+00    1.2991842718034059E+01
Ga    3.2142789062381083E+00    3.4841799628229399E-02    1.3622643776092691E+01
N    3.2168284415835675E+00    6.8310982026591846E-02    1.5578227974233924E+01
Ga    3.2153254872917101E+00    1.9036377489571215E+00    1.5864622402778931E+01
N    1.4664761605751060E+00    4.6167450393523950E+00    2.4615547076193414E+00
Ga    1.6697998845835540E+00    2.7983787951679666E+00    3.2582372835019315E+00
N    1.6069405108257517E+00    2.8378623110580934E+00    5.2381480979222053E+00
Ga    1.6516377140559648E+00    4.7065452655780859E+00    5.8032607447240752E+00
N    1.6119270965094683E+00    4.6943209804491532E+00    7.8050937964339315E+00
Ga    1.5972791204543775E+00    2.8361513267330212E+00    8.4355808632590357E+00
N    1.5960498220754566E+00    2.8358841658073941E+00    1.0427811293256410E+01
Ga    1.6224017647427198E+00    4.6947442100814767E+00    1.1071877588549876E+01
N    1.6379438491207996E+00    4.7057877300997735E+00    1.3062197513695217E+01
Ga    1.5968606784205375E+00    2.8363079530856146E+00    1.3622018741951260E+01
N    1.6268466602971221E+00    2.8215221827330046E+00    1.5577337040608615E+01
Ga    1.4345106336182480E+00    4.5882741569271941E+00    1.6485065296072246E+01
N    5.2160766853541799E-04    7.4662238177229741E+00    2.6919558519868079E+00
Ga    6.7961056053825793E-03    5.6007965563507716E+00    3.3153139442949215E+00
N   -6.2633559628278096E-04    5.6315544166358951E+00    5.2504272399074328E+00
Ga   -2.5123690181945700E-03    7.4665291710924206E+00    5.9058618836373107E+00
N   -3.3809817572771554E-03    7.4745357290342449E+00    7.8607687328356599E+00
Ga   -1.4426731577155581E-03    5.6005687771583421E+00    8.4498636787597263E+00
N   -3.2914335054861211E-03    5.6037919832213241E+00    1.0435828793582015E+01
Ga   -3.1033903240973151E-03    7.4730516185068483E+00    1.1032304732457371E+01
N   -2.2033903120233914E-03    7.4737601481538780E+00    1.2996112543413913E+01
Ga   -1.4555912398230644E-03    5.6042216945066841E+00    1.3623430595383375E+01
N    8.6926908774059982E-04    5.6388625992024002E+00    1.5578704110281830E+01
Ga   -5.7586221216483118E-04    7.4735161576002760E+00    1.5864995457043822E+01
N   -1.7101616267876487E+00    1.0195250913284395E+01    2.5098067639254182E+00
Ga   -1.5967184859277357E+00    8.3890344402788717E+00    3.3215816869231034E+00
N   -1.5994205258299399E+00    8.3964368470299284E+00    5.2478330620253084E+00
Ga   -1.5891995718764054E+00    1.0282821810719788E+01    5.8050466068130611E+00
N   -1.6011587545684811E+00    1.0262467062215814E+01    7.7920774031240070E+00
Ga   -1.6237905166818847E+00    8.4090196059558586E+00    8.4472306588644166E+00
N   -1.6224323984591271E+00    8.4084683771875159E+00    1.0431209762006660E+01
Ga   -1.5962611999861569E+00    1.0268468815901272E+01    1.1072966092944116E+01
N   -1.5783779031885576E+00    1.0276923188558447E+01    1.3061227016657442E+01
Ga   -1.6203156357488016E+00    8.4079409825676379E+00    1.3624100933044907E+01
N   -1.5894585273253132E+00    8.3924018992270870E+00    1.5578898778324495E+01
Ga   -1.7810302723980007E+00    1.0159658843343131E+01    1.6484534922642169E+01
N    6.4300306474823890E+00    2.0288315159745003E+00    2.5351604299352068E+00
Ga    6.4298414228060441E+00    5.8490462443705947E-02    2.8833091038510790E+00
N    6.4291015105830418E+00    4.7743706388371374E-02    5.0238313833014816E+00
Ga    6.4247800247729785E+00    1.8841333455333762E+00    5.8035617603704264E+00
N    6.4295303070927510E+00    1.8916866584326026E+00    7.7950396471034109E+00
Ga    6.4282459092813768E+00    4.8317953977560169E-02    8.4496831795665521E+00
N    6.4297466219426367E+00    4.5645878569953627E-02    1.0417894290544266E+01
Ga    6.4298666185692905E+00    1.8862600629247592E+00    1.1071709189089695E+01
N    6.4301554387076685E+00    1.8656308109325956E+00    1.3061330332994187E+01
Ga    6.4292353770860027E+00    4.5916524451801298E-02    1.3871967358005843E+01
N    6.4282918743058186E+00    4.4018717055978290E-02    1.6065556132485799E+01
Ga    6.4295408527747524E+00    2.0845282163047179E+00    1.6481633264758212E+01
Ga    6.4582541238819546E+00    3.7419323650006984E+00    1.5045298252066528E+00
N    4.9342588213029508E+00    4.6257952046911743E+00    2.4825007881971435E+00
Ga    4.7057754397343006E+00    2.7914359686133046E+00    3.2830979122124497E+00
N    4.8207846792584617E+00    2.8367651287376501E+00    5.2411628066665745E+00
Ga    4.7826226912494239E+00    4.7143034179912755E+00    5.7973851964972392E+00
N    4.8174346243908053E+00    4.6927153111564062E+00    7.8003349348483946E+00
Ga    4.8299649955496520E+00    2.8378293513069170E+00    8.4361297370935002E+00
N    4.8334663932993989E+00    2.8363079641571343E+00    1.0427248252631776E+01
Ga    4.8081796650047428E+00    4.6957090830693176E+00    1.1070256291697634E+01
N    4.7906980788915297E+00    4.7055953235747010E+00    1.3061596486439756E+01
Ga    4.8321475347896241E+00    2.8367640468143791E+00    1.3621589262937221E+01
N    4.8083903740493552E+00    2.8223877082637321E+00    1.5581743621830190E+01
Ga    4.9800229813557282E+00    4.5953530793730968E+00    1.6481964403815287E+01
N    6.4235708468477632E+00    3.7551918786298599E+00    1.7624773263852859E+01
N    3.2046500720622291E+00    7.6234254533029793E+00    2.4998418838511824E+00
N    3.2132295105664452E+00    5.6234694936979386E+00    5.0552468442343779E+00
Ga    3.2212809532105808E+00    7.4236988873923275E+00    5.8147084842203771E+00
N    3.2129159434373404E+00    7.4699382891034407E+00    7.8094774618861242E+00
Ga    3.2158141229081010E+00    5.6158847928709781E+00    8.4461100761408012E+00
N    3.2151191187819990E+00    5.6167134648836843E+00    1.0419351387938956E+01
Ga    3.2158820004002595E+00    7.4553535724256061E+00    1.1073383497949115E+01
N    3.2141279801868237E+00    7.4365738899170788E+00    1.3063418957716852E+01
Ga    3.2139080611530813E+00    5.6153459979941500E+00    1.3870872907741431E+01
N    3.2118146635887492E+00    5.6143162387501722E+00    1.6066911465150834E+01
Ga    3.2136420299396655E+00    7.6549198577710822E+00    1.6481770724500080E+01
Ga    3.2355401470330287E+00    9.3841345465497028E+00    1.4607210890646456E+00
N    1.7023088652663836E+00    1.0200116159772596E+01    2.5308817229309923E+00
Ga    1.5903872031854489E+00    8.3872664038259490E+00    3.3392083595878059E+00
N    1.5945836812050054E+00    8.3991115698280687E+00    5.2617692923588519E+00
Ga    1.5797157343927792E+00    1.0281658007322939E+01    5.8184180873468279E+00
N    1.5950653580087588E+00    1.0263998585083462E+01    7.8029818647996763E+00
Ga    1.6178520032706822E+00    8.4094061572565391E+00    8.4529695341592550E+00
N    1.6162221177596128E+00    8.4092918672036099E+00    1.0437116570744546E+01
Ga    1.5909573752581685E+00    1.0269113432738571E+01    1.1075848359603587E+01
N    1.5740765894244859E+00    1.0277119192039017E+01    1.3064058416347887E+01
Ga    1.6166745349518667E+00    8.4074204202887550E+00    1.3623493732958066E+01
N    1.5922257596647140E+00    8.3926203417842959E+00    1.5582974273210393E+01
Ga    1.7647430624435310E+00    1.0165801292109661E+01    1.6482682935400668E+01
N    3.2085096576594965E+00    9.3255174328861425E+00    1.7625570734900194E+01
N    9.6524126360178357E+00    1.9108615271613236E+00    2.6221905110852832E+00
Ga    9.6512917499275357E+00    1.7324035293785403E-01    3.3016224019646598E+00
N    9.6432447998148252E+00    4.7020184916560806E-02    5.2603171227117045E+00
Ga    9.6518826858748170E+00    1.9097695186232955E+00    5.8798817554878227E+00
N    9.6457819791328454E+00    1.9037465343149953E+00    7.8514423569213783E+00
Ga    9.6486744766009309E+00    3.7108491801888709E-02    8.4426778749107729E+00
N    9.6465750465841573E+00    3.2646039145414939E-02    1.0430883624094271E+01
Ga    9.6463694564928293E+00    1.9031841108444401E+00    1.1027517967515324E+01
N    9.6450150540664801E+00    1.9019840474387744E+00    1.2994710435610287E+01
Ga    9.6474983065964626E+00    3.3200605153988268E-02    1.3622803832837993E+01
N    9.6474578621305955E+00    6.1703596091181340E-02    1.5581494489162084E+01
Ga    9.6451555911582414E+00    1.9016053100700283E+00    1.5860704140767485E+01
N    7.9335217063097074E+00    4.6298714898479929E+00    2.5258695965481262E+00
Ga    8.1473534302593080E+00    2.7772765122429419E+00    3.3027248887931151E+00
N    8.0382156317778310E+00    2.8330209135560613E+00    5.2585524008066926E+00
Ga    8.0599579810180764E+00    4.7068027830026393E+00    5.7987097915475108E+00
N    8.0490217129131842E+00    4.6957977962837791E+00    7.7923415238257263E+00
Ga    8.0285135574725803E+00    2.8385647992746845E+00    8.4385086763411064E+00
N    8.0269520655326119E+00    2.8378990473585017E+00    1.0428208605057470E+01
Ga    8.0535207248635157E+00    4.6965792221891682E+00    1.1071917799814891E+01
N    8.0707996046834385E+00    4.7062863030020177E+00    1.3061034619516636E+01
Ga    8.0272953486564518E+00    2.8377575458648105E+00    1.3622600528186966E+01
N    8.0523299330500961E+00    2.8231219493251780E+00    1.5581158082945095E+01
Ga    7.8759959513242341E+00    4.5937188859670499E+00    1.6480927393321416E+01
N    6.4170666560468153E+00    7.4748769707319740E+00    2.5882882544200312E+00
Ga    6.4177404154582289E+00    5.7336250798613726E+00    3.2815483223108060E+00
N    6.4288110475163336E+00    5.6194496891773786E+00    5.2398425556658550E+00
Ga    6.4296261982141871E+00    7.4747111068389334E+00    5.8678105017827358E+00
N    6.4313657565741540E+00    7.4739955393014403E+00    7.8398598972831186E+00
Ga    6.4305226546910133E+00    5.6053716875810027E+00    8.4379442604449633E+00
N    6.4318174593410555E+00    5.6041645559143483E+00    1.0428179032285909E+01
Ga    6.4310159668886966E+00    7.4726954945881712E+00    1.1028133892030787E+01
N    6.4295846481153252E+00    7.4723264476239120E+00    1.2995309854028882E+01
Ga    6.4305820058417202E+00    5.6029636821157958E+00    1.3622020587547318E+01
N    6.4309290797260994E+00    5.6317376925589295E+00    1.5581290749130787E+01
Ga    6.4285068553617766E+00    7.4717577719178321E+00    1.5860224320056448E+01
N    4.7176044097155607E+00    1.0209641690784432E+01    2.5334462042371499E+00
Ga    4.9153784565015668E+00    8.3506696629797954E+00    3.2898306636228720E+00
N    4.8183811790980640E+00    8.4053529548302475E+00    5.2484528970683630E+00
Ga    4.8509716976429296E+00    1.0276513059759720E+01    5.8057635039403035E+00
N    4.8327120816609428E+00    1.0265536505723606E+01    7.7977321063330205E+00
Ga    4.8151211301120185E+00    8.4093583194056869E+00    8.4414870942767894E+00
N    4.8131199337722776E+00    8.4085390780500919E+00    1.0430502908518951E+01
Ga    4.8392432309009932E+00    1.0267803027466353E+01    1.1071743405809839E+01
N    4.8547074111107538E+00    1.0277204023079669E+01    1.3060862632904685E+01
Ga    4.8117896173642922E+00    8.4084059099559614E+00    1.3622289434411330E+01
N    4.8361961834064857E+00    8.3935777048710314E+00    1.5580912301732440E+01
Ga    4.6602373699679429E+00    1.0164326470223994E+01    1.6480638289317891E+01
O    1.1458421252156421E-02    3.7210958844001545E+00   -5.0848182149165766E-01
H    1.0849197582602960E-02    7.4650047048376527E+00    1.6658705792568591E+00
C    6.3302981336030284E-01    2.5896068529481417E+00   -1.1270556227339794E+00
H    1.6978982498357245E+00    2.4869907579186217E+00   -8.5544963932431883E-01
H    1.3265533336332752E-01    1.6407198988893414E+00   -8.7267341782632391E-01
H    5.6817755026996963E-01    2.7312011590594589E+00   -2.2160781860469543E+00
Ga    3.1742770343705287E+00    5.6138245433721803E+00    2.5373589064898581E+00
O    3.1197097090981609E+00    5.6789292124362820E+00    2.3814520335435357E-01
H    3.0874779768039895E+00    4.7304932457533688E+00    1.6734158119008576E-02
C    4.2157576576706246E+00    6.3171283668465072E+00   -4.7006656010846648E-01
H    3.9077399943026871E+00    7.3570095086917853E+00   -6.5630068820239751E-01
H    5.1285192245846574E+00    6.3261415092364146E+00    1.4379072041392446E-01
H    4.3959995765790749E+00    5.8274464796804466E+00   -1.4366629021029527E+00
     &END COORD
     &KIND C
       BASIS_SET DZVP-MOLOPT-SR-GTH-q4
       POTENTIAL GTH-PBE-q4
       &POTENTIAL
 2 2
  0.3384712400000000E+00 2 -0.8803673979999999E+01  0.1339210850000000E+01
 2
  0.3025757500000000E+00 1  0.9622486650000001E+01
  0.2915069400000000E+00 0
         # Potential name:  GTH-PBE-Q4  for symbol:  C
         # Potential read from the potential filename: GTH_POTENTIALS
       &END POTENTIAL
     &END KIND
     &KIND O
       BASIS_SET DZVP-MOLOPT-SR-GTH-q6
       POTENTIAL GTH-PBE-q6
       &POTENTIAL
 2 4
  0.2445543000000000E+00 2 -0.1666721480000000E+02  0.2487311320000000E+01
 2
  0.2209559200000000E+00 1  0.1833745811000000E+02
  0.2113324700000000E+00 0
         # Potential name:  GTH-PBE-Q6  for symbol:  O
         # Potential read from the potential filename: GTH_POTENTIALS
       &END POTENTIAL
     &END KIND
     &KIND H
       BASIS_SET DZVP-MOLOPT-SR-GTH-q1
       POTENTIAL GTH-PBE-q1
       &POTENTIAL
 1
  0.2000000000000000E+00 2 -0.4178900440000000E+01  0.7244633100000000E+00
 0
         # Potential name:  GTH-PBE-Q1  for symbol:  H
         # Potential read from the potential filename: GTH_POTENTIALS
       &END POTENTIAL
     &END KIND
     &KIND N
       BASIS_SET DZVP-MOLOPT-SR-GTH
       POTENTIAL GTH-PBE-q5
       &POTENTIAL
 2 3
  0.2837905100000000E+00 2 -0.1241522559000000E+02  0.1868095920000000E+01
 2
  0.2554050000000000E+00 1  0.1363026257000000E+02
  0.2454945300000000E+00 0
         # Potential name:  GTH-PBE-Q5  for symbol:  N
         # Potential read from the potential filename: GTH_POTENTIALS
       &END POTENTIAL
     &END KIND
     &KIND Ga
       BASIS_SET DZVP-MOLOPT-SR-GTH
       POTENTIAL GTH-PBE-q13
       &POTENTIAL
 2 1 10
  0.4900000000000000E+00 0
 3
  0.4167772300000000E+00 3  0.1047568975000000E+02 -0.4921768140000000E+01  0.8707055900000000E+00
  0.7770178090000000E+01 -0.2248152160000000E+01
  0.1784415450000000E+01
  0.5696265200000000E+00 2  0.1777985340000000E+01  0.1958597600000000E+00
 -0.2317443900000000E+00
  0.2381265000000000E+00 1 -0.1624868022000000E+02
         # Potential name:  GTH-PBE-Q13  for symbol:  GA
         # Potential read from the potential filename: GTH_POTENTIALS
       &END POTENTIAL
     &END KIND
     &TOPOLOGY
       NUMBER_OF_ATOMS  212
       MULTIPLE_UNIT_CELL  1 1 1
     &END TOPOLOGY
   &END SUBSYS
 &END FORCE_EVAL
