 # Version information for this restart file 
 # current date 2019-06-28 20:16:04.729
 # current working dir /scratch/rzk/rzk/GaN-carbene/443-adatoms-both-2x2/05-2DissMethanol/01-Combine0304-0202
 # Program compiled at                              Sun Apr  7 00:48:11 EDT 2019
 # Program compiled on                          beluga2.int.ets1.calculquebec.ca
 # Program compiled for                        Beluga-Linux-x86-64-intel-openmpi
 # Source code revision number                                         svn:18619
 &GLOBAL
   PRINT_LEVEL  MEDIUM
   PROJECT_NAME TEST
   RUN_TYPE  GEO_OPT
 &END GLOBAL
 &MOTION
   &GEO_OPT
     MAX_ITER  500
     STEP_START_VAL  14
   &END GEO_OPT
 &END MOTION
 &FORCE_EVAL
   METHOD  QS
   STRESS_TENSOR  ANALYTICAL
   &DFT
     BASIS_SET_FILE_NAME BASIS_MOLOPT
     POTENTIAL_FILE_NAME GTH_POTENTIALS
     UKS  T
     SURFACE_DIPOLE_CORRECTION  T
     SURF_DIP_DIR  Z
     &SCF
       MAX_SCF  80
       EPS_SCF     5.0000000000000004E-06
       &OT  T
         PRECONDITIONER  FULL_ALL
       &END OT
       &OUTER_SCF  T
         OPTIMIZER  NONE
         EPS_SCF     5.0000000000000004E-06
         MAX_SCF  4
       &END OUTER_SCF
       &PRINT
         &RESTART  OFF
           BACKUP_COPIES  1
           &EACH
             JUST_ENERGY  0
             QS_SCF  0
             MD  20
           &END EACH
         &END RESTART
       &END PRINT
     &END SCF
     &QS
       EPS_DEFAULT     1.0000000000000000E-14
       METHOD  GPW
     &END QS
     &MGRID
       NGRIDS  5
       CUTOFF     1.2000000000000000E+03
     &END MGRID
     &XC
       DENSITY_CUTOFF     1.0000000000000000E-10
       GRADIENT_CUTOFF     1.0000000000000000E-10
       TAU_CUTOFF     1.0000000000000000E-10
       &XC_FUNCTIONAL  NO_SHORTCUT
         &PBE  T
         &END PBE
       &END XC_FUNCTIONAL
       &VDW_POTENTIAL
         POTENTIAL_TYPE  PAIR_POTENTIAL
         &PAIR_POTENTIAL
           R_CUTOFF     1.0000000000000004E+01
           TYPE  DFTD3
           PARAMETER_FILE_NAME dftd3.dat
           REFERENCE_FUNCTIONAL PBE
           EPS_CN     9.9999999999999995E-07
           CALCULATE_C9_TERM  T
           REFERENCE_C9_TERM  T
           LONG_RANGE_CORRECTION  F
           VERBOSE_OUTPUT  F
         &END PAIR_POTENTIAL
       &END VDW_POTENTIAL
     &END XC
   &END DFT
   &SUBSYS
     &CELL
       A     1.2864472766435110E+01    0.0000000000000000E+00    0.0000000000000000E+00
       B    -6.4322363581020028E+00    1.1140960178524473E+01    0.0000000000000000E+00
       C     0.0000000000000000E+00    0.0000000000000000E+00    3.2000000000000000E+01
       MULTIPLE_UNIT_CELL  1 1 1
       &CELL_REF
         A     1.2982353780853531E+01    0.0000000000000000E+00    0.0000000000000000E+00
         B    -6.4911768904267628E+00    1.1243048175136114E+01    0.0000000000000000E+00
         C     0.0000000000000000E+00    0.0000000000000000E+00    3.2000000000000000E+01
         MULTIPLE_UNIT_CELL  1 1 1
       &END CELL_REF
     &END CELL
     &COORD
N   -8.6617695337686054E-03    2.0438640167473170E+00    2.5053629703318365E+00
Ga   -7.6259430699305722E-03    9.5407537769484713E-02    2.8519524704003696E+00
N   -3.4762882047499576E-03    5.0598437202844113E-02    5.0173017051313140E+00
Ga    1.4865652795342122E-03    1.8839063674599326E+00    5.7940812950092297E+00
N   -1.0648262566617128E-03    1.8925219522514645E+00    7.7925540200964862E+00
Ga    8.1865113764637660E-04    4.8592315177857219E-02    8.4432683962702644E+00
N   -1.9281157413637021E-04    4.5639577937129847E-02    1.0414315694077395E+01
Ga   -6.3592326058576698E-04    1.8852449327229883E+00    1.1070888634930203E+01
N   -1.8882447703837506E-03    1.8654462757728114E+00    1.3061003744914590E+01
Ga   -1.1636053478641078E-03    4.6074677681525872E-02    1.3872947380059083E+01
N   -1.7973275887154506E-03    4.5573855097937620E-02    1.6064578316275902E+01
Ga   -1.9216002411285868E-03    2.0933475059293816E+00    1.6484031153395534E+01
Ga   -4.7787445821914847E-02    3.7211496372436512E+00    1.3148154631002567E+00
N   -1.4866627042127769E+00    4.6275125779391235E+00    2.4896361178212083E+00
Ga   -1.6799295650497017E+00    2.7883416282111573E+00    3.2738920727633150E+00
N   -1.6132732429284058E+00    2.8353826375023226E+00    5.2507763698639165E+00
Ga   -1.6362988321807794E+00    4.7002138181805355E+00    5.8047988337122360E+00
N   -1.6187765479376011E+00    4.6967876337763883E+00    7.7963440421639749E+00
Ga   -1.5979620902167682E+00    2.8368725792158282E+00    8.4376752252800493E+00
N   -1.5986817132586035E+00    2.8375801633194375E+00    1.0429046878792835E+01
Ga   -1.6261819312459569E+00    4.6957367124932485E+00    1.1074755676604722E+01
N   -1.6426625875018144E+00    4.7062031929288928E+00    1.3063510446376116E+01
Ga   -1.5993522883512015E+00    2.8365194740770501E+00    1.3622293468622374E+01
N   -1.6304640846592973E+00    2.8185811549541993E+00    1.5578739659364061E+01
Ga   -1.4437231837300701E+00    4.5914720799666577E+00    1.6485365896064089E+01
N   -7.1698879604241940E-03    3.7553433757677213E+00    1.7613548755685184E+01
N   -3.2131854994683384E+00    7.5948937876147919E+00    2.5012643431783066E+00
Ga   -3.1918898719017550E+00    5.5928723577722108E+00    2.8481725092804799E+00
N   -3.2151720100510137E+00    5.6178122431428763E+00    5.0124781523608268E+00
Ga   -3.2266028134614193E+00    7.4387281723109853E+00    5.8002311981927708E+00
N   -3.2175368235825061E+00    7.4638752646628284E+00    7.7893899997928457E+00
Ga   -3.2178535181643197E+00    5.6167023358729926E+00    8.4467539605553839E+00
N   -3.2177682933281959E+00    5.6169627122369716E+00    1.0416059592252145E+01
Ga   -3.2192977913019507E+00    7.4552003176132748E+00    1.1074019759219793E+01
N   -3.2181191447787629E+00    7.4359946988034533E+00    1.3062550546268826E+01
Ga   -3.2181702199158098E+00    5.6161479802851426E+00    1.3875560746581714E+01
N   -3.2180984368579919E+00    5.6161427112571554E+00    1.6065398018646960E+01
Ga   -3.2184429080785155E+00    7.6637371391840849E+00    1.6484004903311501E+01
Ga   -3.2473524927114612E+00    9.3545275765170359E+00    1.4372671574430580E+00
N   -4.7278559502431623E+00    1.0204193358544755E+01    2.5099321705371174E+00
Ga   -4.9331016193365436E+00    8.3472461083814871E+00    3.2638080299079633E+00
N   -4.8255743551392367E+00    8.4025752017955515E+00    5.2300224004057165E+00
Ga   -4.8535116120289734E+00    1.0277069308663425E+01    5.7898557709482654E+00
N   -4.8342827038746092E+00    1.0263329965756554E+01    7.7857282740086706E+00
Ga   -4.8175846165120477E+00    8.4089653767812766E+00    8.4362212222442334E+00
N   -4.8146162736171565E+00    8.4077182634099135E+00    1.0426054589000419E+01
Ga   -4.8400792318472288E+00    1.0267450662551230E+01    1.1070524775132636E+01
N   -4.8573715223220573E+00    1.0276818664787717E+01    1.3060451134790686E+01
Ga   -4.8157556366272596E+00    8.4079755202863335E+00    1.3622337842315671E+01
N   -4.8467211142798785E+00    8.3894498391263781E+00    1.5578953373600443E+01
Ga   -4.6611322538764810E+00    1.0162950881579800E+01    1.6484012116048927E+01
N   -3.2242259443392176E+00    9.3268635665205455E+00    1.7612706616591510E+01
N    3.2003678286015780E+00    1.9207276750400102E+00    2.5905915670124200E+00
Ga    3.2045768698800603E+00    1.7562047001619158E-01    3.2659122209374689E+00
N    3.2152055187125330E+00    4.8822196224617885E-02    5.2314651334239564E+00
Ga    3.2064557453663731E+00    1.9117032444568456E+00    5.8611633459469195E+00
N    3.2151082907769402E+00    1.9025544294832184E+00    7.8369708210499143E+00
Ga    3.2121748699160930E+00    3.7805205055142323E-02    8.4336318468477725E+00
N    3.2145878154887684E+00    3.2610254414755201E-02    1.0423531812200441E+01
Ga    3.2142770188020555E+00    1.9022385246611138E+00    1.1025377511252657E+01
N    3.2150196675559055E+00    1.9023825015439841E+00    1.2991637851224045E+01
Ga    3.2143697898116761E+00    3.4822220319462423E-02    1.3622349859940160E+01
N    3.2166503672821327E+00    6.8255331613520487E-02    1.5577985491533612E+01
Ga    3.2153623594852832E+00    1.9037050528951693E+00    1.5864039826748387E+01
N    1.4669611288254767E+00    4.6172290262121276E+00    2.4606756104661862E+00
Ga    1.6696515164420278E+00    2.7995698999009000E+00    3.2585086021693224E+00
N    1.6067967149340210E+00    2.8382062425541381E+00    5.2378523680598805E+00
Ga    1.6517888914105070E+00    4.7072113330532783E+00    5.8022472439100570E+00
N    1.6119372854940557E+00    4.6944387058006161E+00    7.8034489144636527E+00
Ga    1.5971007124395746E+00    2.8366657841833023E+00    8.4354983761415454E+00
N    1.5959297387315281E+00    2.8361129506796732E+00    1.0427384488653129E+01
Ga    1.6224595110935180E+00    4.6950119735685929E+00    1.1071783383580502E+01
N    1.6381849621206130E+00    4.7060996450218280E+00    1.3061990419384841E+01
Ga    1.5967246344734158E+00    2.8366165695225711E+00    1.3621741178307214E+01
N    1.6266736708372653E+00    2.8216154252460477E+00    1.5577431392762641E+01
Ga    1.4343759567521075E+00    4.5883899577064504E+00    1.6485293473256192E+01
N    8.8964369245517682E-04    7.4664671104968452E+00    2.6913708586449934E+00
Ga    7.3663445063360221E-03    5.6009679649864506E+00    3.3145204382506899E+00
N   -7.5372940933083037E-04    5.6318159889219794E+00    5.2496094162543026E+00
Ga   -1.9991808669069483E-03    7.4664956344435041E+00    5.9059278810244713E+00
N   -3.1338720321474789E-03    7.4747610743375166E+00    7.8605271706532553E+00
Ga   -1.1082348163615379E-03    5.6006736131091674E+00    8.4495923999622722E+00
N   -3.2424755776506034E-03    5.6039084918243525E+00    1.0435330464104274E+01
Ga   -3.2076205520326678E-03    7.4732346395012685E+00    1.1031899646131652E+01
N   -2.2524105538970830E-03    7.4740272106974128E+00    1.2995900663079240E+01
Ga   -1.4650318360627150E-03    5.6042225086422697E+00    1.3623125372737308E+01
N    6.0796923542680422E-04    5.6388386280180676E+00    1.5578701266636436E+01
Ga   -6.4540522872260904E-04    7.4737459324566800E+00    1.5864388321066359E+01
N   -1.7105775496046736E+00    1.0195446924748328E+01    2.5091828082648058E+00
Ga   -1.5959381995231980E+00    8.3890388715897402E+00    3.3208479774558461E+00
N   -1.5986621362474100E+00    8.3966261938411897E+00    5.2471401012805501E+00
Ga   -1.5888973478272934E+00    1.0283152608223963E+01    5.8042700516081682E+00
N   -1.6012355565593142E+00    1.0262702469307484E+01    7.7912118291190051E+00
Ga   -1.6236648795239828E+00    8.4091902158759027E+00    8.4467264660556953E+00
N   -1.6225704159427294E+00    8.4086400092803899E+00    1.0430664079918602E+01
Ga   -1.5964260167144253E+00    1.0268541835907394E+01    1.1072858144249606E+01
N   -1.5780847579447947E+00    1.0277230627594697E+01    1.3061133538515090E+01
Ga   -1.6204842092545879E+00    8.4082321858782230E+00    1.3623816682065021E+01
N   -1.5897140721475203E+00    8.3925485380559053E+00    1.5578844444384382E+01
Ga   -1.7815165745392725E+00    1.0159656100224220E+01    1.6484944677059403E+01
N    6.4296463023365371E+00    2.0297692300234194E+00    2.5357846532913708E+00
Ga    6.4296498512868450E+00    5.9517710255987448E-02    2.8825370824280991E+00
N    6.4296142874773397E+00    4.8131541723959309E-02    5.0227597621696605E+00
Ga    6.4246984946441774E+00    1.8843925236286230E+00    5.8029951864805556E+00
N    6.4294498772719662E+00    1.8917454167617769E+00    7.7941900157188355E+00
Ga    6.4280686856094160E+00    4.8497354384390040E-02    8.4494462486642714E+00
N    6.4296040953335059E+00    4.5828780829361024E-02    1.0417603069839629E+01
Ga    6.4298361634266428E+00    1.8864964924395697E+00    1.1071370061096088E+01
N    6.4302575057914124E+00    1.8658251848157399E+00    1.3061035503601346E+01
Ga    6.4295653227442369E+00    4.6162012686926719E-02    1.3872385102809792E+01
N    6.4284304571924560E+00    4.4469471930001121E-02    1.6065886637535353E+01
Ga    6.4295479113417278E+00    2.0851220521857825E+00    1.6481712537192266E+01
Ga    6.4581769035970247E+00    3.7422961140102364E+00    1.5057984112896612E+00
N    4.9343310300312382E+00    4.6265048743847750E+00    2.4811688775165393E+00
Ga    4.7045082427895482E+00    2.7925160600332184E+00    3.2837268606949737E+00
N    4.8205711018673876E+00    2.8375512746813696E+00    5.2418489622630737E+00
Ga    4.7817846652799689E+00    4.7150848620184602E+00    5.7978295143055512E+00
N    4.8175967912355731E+00    4.6930807576649016E+00    7.7999834246327335E+00
Ga    4.8300821233487135E+00    2.8381507833118795E+00    8.4362066711381321E+00
N    4.8334295131980030E+00    2.8365590641920551E+00    1.0427082895376584E+01
Ga    4.8082312286670890E+00    4.6960167458222575E+00    1.1069974450645960E+01
N    4.7909725598649713E+00    4.7057057361243855E+00    1.3061174179295534E+01
Ga    4.8324022041584227E+00    2.8369569191992174E+00    1.3621303564889033E+01
N    4.8083928972997789E+00    2.8226450537761547E+00    1.5581473667133695E+01
Ga    4.9800698849629788E+00    4.5956626021970521E+00    1.6481977563392924E+01
N    6.4233964382427331E+00    3.7555150437886025E+00    1.7625299717956551E+01
N    3.2050126418090610E+00    7.6233874490732525E+00    2.4989418486236112E+00
N    3.2133504512894246E+00    5.6240666503265189E+00    5.0530496990270404E+00
Ga    3.2213574954142201E+00    7.4233915234099852E+00    5.8146561393233069E+00
N    3.2132561641366211E+00    7.4702272412294874E+00    7.8085755062523079E+00
Ga    3.2155701675246289E+00    5.6160283302016367E+00    8.4457918113773101E+00
N    3.2151980395791782E+00    5.6169107529346318E+00    1.0418766775403689E+01
Ga    3.2159717542553388E+00    7.4554514849279867E+00    1.1073382263516061E+01
N    3.2142115015683701E+00    7.4368664518631915E+00    1.3063260705858948E+01
Ga    3.2141571964877889E+00    5.6155501271677766E+00    1.3871199172189826E+01
N    3.2123772616883595E+00    5.6147976523814744E+00    1.6067174722898844E+01
Ga    3.2137334267760536E+00    7.6554692470293464E+00    1.6481922321742271E+01
Ga    3.2353583925116389E+00    9.3846193954393087E+00    1.4635073074610296E+00
N    1.7024396521532856E+00    1.0199838765237168E+01    2.5304095322873636E+00
Ga    1.5901669698283649E+00    8.3867414673518006E+00    3.3395689315548354E+00
N    1.5951142926893827E+00    8.3993876459451826E+00    5.2617453532476235E+00
Ga    1.5795825623231645E+00    1.0281801494655106E+01    5.8182353063792451E+00
N    1.5950273950716471E+00    1.0264257445761533E+01    7.8024009194147288E+00
Ga    1.6181007983022422E+00    8.4094958597527789E+00    8.4531664216915559E+00
N    1.6163236857761965E+00    8.4094061774867637E+00    1.0437034884615331E+01
Ga    1.5909197397684829E+00    1.0269280803523523E+01    1.1075479777961442E+01
N    1.5741387939452580E+00    1.0277400053573013E+01    1.3063652692332266E+01
Ga    1.6167825498745101E+00    8.4077875599920429E+00    1.3623187554766599E+01
N    1.5921988395233191E+00    8.3929644807555039E+00    1.5582725331326058E+01
Ga    1.7649430880035302E+00    1.0165999189200628E+01    1.6482825722008652E+01
N    3.2084528065656128E+00    9.3258052079230005E+00    1.7625948221233898E+01
N    9.6531265069820726E+00    1.9113376493764602E+00    2.6210073364975588E+00
Ga    9.6512003878825983E+00    1.7423626612609644E-01    3.3016811570348241E+00
N    9.6431046484417866E+00    4.7426004593806040E-02    5.2596726761527401E+00
Ga    9.6522465048477635E+00    1.9100323949609614E+00    5.8803792555569609E+00
N    9.6459893526722560E+00    1.9038931957157557E+00    7.8512949836971409E+00
Ga    9.6487677723995500E+00    3.7187164228571205E-02    8.4428236503021594E+00
N    9.6466771330713339E+00    3.2815614346597625E-02    1.0430754964333525E+01
Ga    9.6462164241742947E+00    1.9034349339588581E+00    1.1027201502783196E+01
N    9.6448611039621941E+00    1.9021641456128822E+00    1.2994516889233727E+01
Ga    9.6474332814116668E+00    3.3418101569661268E-02    1.3622606684718336E+01
N    9.6473090208036609E+00    6.1922564265145391E-02    1.5581368887383297E+01
Ga    9.6450712666822511E+00    1.9017692682046325E+00    1.5860368012273716E+01
N    7.9330149439323243E+00    4.6300996390639710E+00    2.5263523529651155E+00
Ga    8.1480569639626204E+00    2.7771465259100934E+00    3.3028965611176311E+00
N    8.0386827222587396E+00    2.8330469533769551E+00    5.2583410412458598E+00
Ga    8.0601598073864515E+00    4.7072658523659978E+00    5.7982296623955296E+00
N    8.0490763874067408E+00    4.6962513496708640E+00    7.7915719678840949E+00
Ga    8.0284437896959684E+00    2.8388463639274102E+00    8.4380629327325014E+00
N    8.0268489589222973E+00    2.8381823340836285E+00    1.0427677896415190E+01
Ga    8.0534877434184473E+00    4.6967967592800726E+00    1.1071799789712845E+01
N    8.0707567209860134E+00    4.7064220693217846E+00    1.3061066968717771E+01
Ga    8.0272353051301462E+00    2.8379330283121496E+00    1.3622386592852843E+01
N    8.0523412024474510E+00    2.8232586312722692E+00    1.5581178064678847E+01
Ga    7.8755403630145260E+00    4.5938032956774055E+00    1.6481120995647750E+01
N    6.4163959332231535E+00    7.4748389119969572E+00    2.5868243066326100E+00
Ga    6.4169005603855283E+00    5.7341659506826961E+00    3.2824912149297454E+00
N    6.4282935482768968E+00    5.6195144392382241E+00    5.2406357790269018E+00
Ga    6.4292225570518315E+00    7.4751275856423689E+00    5.8680530190320379E+00
N    6.4312761157364209E+00    7.4744213042076266E+00    7.8398409252122558E+00
Ga    6.4306475562726293E+00    5.6057408755527476E+00    8.4379326345500267E+00
N    6.4319111822348187E+00    5.6044711377918501E+00    1.0427999545420791E+01
Ga    6.4309695340956106E+00    7.4728444905914788E+00    1.1028051830670407E+01
N    6.4295319134188720E+00    7.4724555898034053E+00    1.2995181493719539E+01
Ga    6.4306531692687594E+00    5.6030788512188350E+00    1.3621932944207515E+01
N    6.4308134413096170E+00    5.6320612606758127E+00    1.5581187783517823E+01
Ga    6.4285777511455509E+00    7.4719781902568760E+00    1.5859883438937269E+01
N    4.7176738708226127E+00    1.0209890340238369E+01    2.5327847760530742E+00
Ga    4.9153697391656364E+00    8.3505103973029513E+00    3.2897038657295172E+00
N    4.8177775961466400E+00    8.4055572429060277E+00    5.2479969492169696E+00
Ga    4.8510162495922007E+00    1.0276705246941626E+01    5.8052987427226856E+00
N    4.8327927067759902E+00    1.0265643957945180E+01    7.7969512840281254E+00
Ga    4.8151034832897981E+00    8.4096495138206340E+00    8.4419083551025071E+00
N    4.8132074073860984E+00    8.4088335582707163E+00    1.0430545491773406E+01
Ga    4.8392814983708048E+00    1.0268005483396832E+01    1.1071959714397529E+01
N    4.8547260788289419E+00    1.0277397252801800E+01    1.3061098778664126E+01
Ga    4.8117340952051295E+00    8.4086314057985394E+00    1.3622258909105986E+01
N    4.8363344904126251E+00    8.3936836683144271E+00    1.5580997349275266E+01
Ga    4.6598623891792350E+00    1.0164312111255729E+01    1.6480947560245717E+01
O    1.5470018132132866E-02    3.7196023529076516E+00   -5.0832253702182773E-01
H    1.1931926626658268E-02    7.4658095118938581E+00    1.6651832478100674E+00
C    6.3515856773808022E-01    2.5863111342216190E+00   -1.1265238718730470E+00
H    1.6996674627080925E+00    2.4816782396631072E+00   -8.5352851671797014E-01
H    1.3332464976240099E-01    1.6380194290079573E+00   -8.7227008453374799E-01
H    5.7168977422672040E-01    2.7279628882702376E+00   -2.2158178058579296E+00
Ga    3.1733887751197027E+00    5.6141640125665093E+00    2.5395739078989741E+00
O    3.1152249998207728E+00    5.6826292565341348E+00    2.4240444909975759E-01
H    3.0722112283751448E+00    4.7356633697443176E+00    1.7952381636668523E-02
C    4.2188024457231270E+00    6.3087226629295472E+00   -4.6622221708526379E-01
H    3.9200064707554052E+00    7.3500413994866154E+00   -6.5886225318372071E-01
H    5.1309790779223592E+00    6.3125230450137986E+00    1.4813372328373961E-01
H    4.3950332684371265E+00    5.8112770211458100E+00   -1.4289671901124701E+00
     &END COORD
     &KIND C
       BASIS_SET DZVP-MOLOPT-SR-GTH-q4
       POTENTIAL GTH-PBE-q4
       &POTENTIAL
 2 2
  0.3384712400000000E+00 2 -0.8803673979999999E+01  0.1339210850000000E+01
 2
  0.3025757500000000E+00 1  0.9622486650000001E+01
  0.2915069400000000E+00 0
         # Potential name:  GTH-PBE-Q4  for symbol:  C
         # Potential read from the potential filename: GTH_POTENTIALS
       &END POTENTIAL
     &END KIND
     &KIND O
       BASIS_SET DZVP-MOLOPT-SR-GTH-q6
       POTENTIAL GTH-PBE-q6
       &POTENTIAL
 2 4
  0.2445543000000000E+00 2 -0.1666721480000000E+02  0.2487311320000000E+01
 2
  0.2209559200000000E+00 1  0.1833745811000000E+02
  0.2113324700000000E+00 0
         # Potential name:  GTH-PBE-Q6  for symbol:  O
         # Potential read from the potential filename: GTH_POTENTIALS
       &END POTENTIAL
     &END KIND
     &KIND H
       BASIS_SET DZVP-MOLOPT-SR-GTH-q1
       POTENTIAL GTH-PBE-q1
       &POTENTIAL
 1
  0.2000000000000000E+00 2 -0.4178900440000000E+01  0.7244633100000000E+00
 0
         # Potential name:  GTH-PBE-Q1  for symbol:  H
         # Potential read from the potential filename: GTH_POTENTIALS
       &END POTENTIAL
     &END KIND
     &KIND N
       BASIS_SET DZVP-MOLOPT-SR-GTH
       POTENTIAL GTH-PBE-q5
       &POTENTIAL
 2 3
  0.2837905100000000E+00 2 -0.1241522559000000E+02  0.1868095920000000E+01
 2
  0.2554050000000000E+00 1  0.1363026257000000E+02
  0.2454945300000000E+00 0
         # Potential name:  GTH-PBE-Q5  for symbol:  N
         # Potential read from the potential filename: GTH_POTENTIALS
       &END POTENTIAL
     &END KIND
     &KIND Ga
       BASIS_SET DZVP-MOLOPT-SR-GTH
       POTENTIAL GTH-PBE-q13
       &POTENTIAL
 2 1 10
  0.4900000000000000E+00 0
 3
  0.4167772300000000E+00 3  0.1047568975000000E+02 -0.4921768140000000E+01  0.8707055900000000E+00
  0.7770178090000000E+01 -0.2248152160000000E+01
  0.1784415450000000E+01
  0.5696265200000000E+00 2  0.1777985340000000E+01  0.1958597600000000E+00
 -0.2317443900000000E+00
  0.2381265000000000E+00 1 -0.1624868022000000E+02
         # Potential name:  GTH-PBE-Q13  for symbol:  GA
         # Potential read from the potential filename: GTH_POTENTIALS
       &END POTENTIAL
     &END KIND
     &TOPOLOGY
       NUMBER_OF_ATOMS  212
       MULTIPLE_UNIT_CELL  1 1 1
     &END TOPOLOGY
   &END SUBSYS
 &END FORCE_EVAL
