 # Version information for this restart file 
 # current date 2019-06-28 20:18:24.551
 # current working dir /scratch/rzk/rzk/GaN-carbene/443-adatoms-both-2x2/05-2DissMethanol/01-Combine0304-0202
 # Program compiled at                              Sun Apr  7 00:48:11 EDT 2019
 # Program compiled on                          beluga2.int.ets1.calculquebec.ca
 # Program compiled for                        Beluga-Linux-x86-64-intel-openmpi
 # Source code revision number                                         svn:18619
 &GLOBAL
   PRINT_LEVEL  MEDIUM
   PROJECT_NAME TEST
   RUN_TYPE  GEO_OPT
 &END GLOBAL
 &MOTION
   &GEO_OPT
     MAX_ITER  500
     STEP_START_VAL  15
   &END GEO_OPT
 &END MOTION
 &FORCE_EVAL
   METHOD  QS
   STRESS_TENSOR  ANALYTICAL
   &DFT
     BASIS_SET_FILE_NAME BASIS_MOLOPT
     POTENTIAL_FILE_NAME GTH_POTENTIALS
     UKS  T
     SURFACE_DIPOLE_CORRECTION  T
     SURF_DIP_DIR  Z
     &SCF
       MAX_SCF  80
       EPS_SCF     5.0000000000000004E-06
       &OT  T
         PRECONDITIONER  FULL_ALL
       &END OT
       &OUTER_SCF  T
         OPTIMIZER  NONE
         EPS_SCF     5.0000000000000004E-06
         MAX_SCF  4
       &END OUTER_SCF
       &PRINT
         &RESTART  OFF
           BACKUP_COPIES  1
           &EACH
             JUST_ENERGY  0
             QS_SCF  0
             MD  20
           &END EACH
         &END RESTART
       &END PRINT
     &END SCF
     &QS
       EPS_DEFAULT     1.0000000000000000E-14
       METHOD  GPW
     &END QS
     &MGRID
       NGRIDS  5
       CUTOFF     1.2000000000000000E+03
     &END MGRID
     &XC
       DENSITY_CUTOFF     1.0000000000000000E-10
       GRADIENT_CUTOFF     1.0000000000000000E-10
       TAU_CUTOFF     1.0000000000000000E-10
       &XC_FUNCTIONAL  NO_SHORTCUT
         &PBE  T
         &END PBE
       &END XC_FUNCTIONAL
       &VDW_POTENTIAL
         POTENTIAL_TYPE  PAIR_POTENTIAL
         &PAIR_POTENTIAL
           R_CUTOFF     1.0000000000000004E+01
           TYPE  DFTD3
           PARAMETER_FILE_NAME dftd3.dat
           REFERENCE_FUNCTIONAL PBE
           EPS_CN     9.9999999999999995E-07
           CALCULATE_C9_TERM  T
           REFERENCE_C9_TERM  T
           LONG_RANGE_CORRECTION  F
           VERBOSE_OUTPUT  F
         &END PAIR_POTENTIAL
       &END VDW_POTENTIAL
     &END XC
   &END DFT
   &SUBSYS
     &CELL
       A     1.2864472766435110E+01    0.0000000000000000E+00    0.0000000000000000E+00
       B    -6.4322363581020028E+00    1.1140960178524473E+01    0.0000000000000000E+00
       C     0.0000000000000000E+00    0.0000000000000000E+00    3.2000000000000000E+01
       MULTIPLE_UNIT_CELL  1 1 1
       &CELL_REF
         A     1.2982353780853531E+01    0.0000000000000000E+00    0.0000000000000000E+00
         B    -6.4911768904267628E+00    1.1243048175136114E+01    0.0000000000000000E+00
         C     0.0000000000000000E+00    0.0000000000000000E+00    3.2000000000000000E+01
         MULTIPLE_UNIT_CELL  1 1 1
       &END CELL_REF
     &END CELL
     &COORD
N   -8.0086614384186055E-03    2.0450085994005156E+00    2.5055593679324013E+00
Ga   -6.0149722353540110E-03    9.5921192304076003E-02    2.8500929754226099E+00
N   -3.9210410195869563E-03    5.0860533041464935E-02    5.0137268799165238E+00
Ga    1.0440568424149967E-03    1.8842981149908422E+00    5.7934394480872511E+00
N   -1.3069601471811380E-03    1.8928871768999960E+00    7.7911766603309331E+00
Ga    8.8080511746832610E-04    4.9177673016663551E-02    8.4422039281405858E+00
N   -8.3645669980953700E-04    4.6292597491250344E-02    1.0413475036077307E+01
Ga   -8.7159543921193296E-04    1.8857141215538209E+00    1.1070370275503292E+01
N   -1.6562336657676953E-03    1.8658599966440874E+00    1.3060691986085928E+01
Ga   -8.2898339962185887E-04    4.6780067864470490E-02    1.3874634418853720E+01
N   -2.1688464418001480E-03    4.5447310560570962E-02    1.6064538314456669E+01
Ga   -2.0583593076911226E-03    2.0940986090096709E+00    1.6483663757816473E+01
Ga   -4.6507919373288201E-02    3.7192057383119352E+00    1.3142847944360663E+00
N   -1.4854026203063595E+00    4.6277653454800101E+00    2.4874996347815208E+00
Ga   -1.6789034112035488E+00    2.7899873082409798E+00    3.2741312192750067E+00
N   -1.6138652238486300E+00    2.8362438089581850E+00    5.2497763890436300E+00
Ga   -1.6363738682237239E+00    4.7017758416093205E+00    5.8041129101435978E+00
N   -1.6190216186021538E+00    4.6978944849123003E+00    7.7949422691702965E+00
Ga   -1.5976292345966439E+00    2.8379226149428782E+00    8.4373863241047502E+00
N   -1.5986623265711708E+00    2.8383272413510308E+00    1.0428328644622134E+01
Ga   -1.6263174646136369E+00    4.6966616974699313E+00    1.1073330986495879E+01
N   -1.6425773635767154E+00    4.7068561494272103E+00    1.3062458380789883E+01
Ga   -1.5991312443546177E+00    2.8372938016524136E+00    1.3621469290539094E+01
N   -1.6303569976382479E+00    2.8194130460226936E+00    1.5578260387823800E+01
Ga   -1.4441230397448863E+00    4.5918255753233357E+00    1.6484817169992635E+01
N   -7.5925357524908232E-03    3.7556349851284749E+00    1.7612563294210883E+01
N   -3.2134986409272064E+00    7.5971560722972757E+00    2.5014338891051580E+00
Ga   -3.1923505491490483E+00    5.5938156799093344E+00    2.8472698853352711E+00
N   -3.2160104468822728E+00    5.6184112092987686E+00    5.0099466445481164E+00
Ga   -3.2264799581669834E+00    7.4402676323981094E+00    5.7981609376382544E+00
N   -3.2174257956289600E+00    7.4649864794490535E+00    7.7869151314265981E+00
Ga   -3.2178951812789141E+00    5.6181410182501512E+00    8.4456472173900234E+00
N   -3.2181464170548657E+00    5.6176297363497465E+00    1.0415055442946072E+01
Ga   -3.2197585430294962E+00    7.4558356903987031E+00    1.1073092986415409E+01
N   -3.2180500176448241E+00    7.4363307889570214E+00    1.3061850076868874E+01
Ga   -3.2177256127966496E+00    5.6164172046678535E+00    1.3876455453315927E+01
N   -3.2191362062293685E+00    5.6165660498764005E+00    1.6065552329214082E+01
Ga   -3.2189405262864241E+00    7.6646525215563397E+00    1.6484235946245690E+01
Ga   -3.2479966599976815E+00    9.3542841313261729E+00    1.4425517448642560E+00
N   -4.7273799798231533E+00    1.0204094544643324E+01    2.5099737967005109E+00
Ga   -4.9340588276845043E+00    8.3479110548164996E+00    3.2639324751345695E+00
N   -4.8273990078873945E+00    8.4025665505661777E+00    5.2286028773755824E+00
Ga   -4.8530946260091605E+00    1.0277554938870049E+01    5.7882351883281764E+00
N   -4.8345868887997501E+00    1.0264512525175679E+01    7.7838496238727277E+00
Ga   -4.8174760485049282E+00    8.4101796458868527E+00    8.4352558910293851E+00
N   -4.8150200267068284E+00    8.4084088937929753E+00    1.0424881372030372E+01
Ga   -4.8407228089898089E+00    1.0267943101285542E+01    1.1069859529518643E+01
N   -4.8575105278395778E+00    1.0277402423595724E+01    1.3059688985243973E+01
Ga   -4.8152909317177945E+00    8.4085780763983227E+00    1.3621565532759407E+01
N   -4.8463893942210987E+00    8.3903364741596658E+00    1.5577988519274637E+01
Ga   -4.6616355096028865E+00    1.0163344232682494E+01    1.6483809328175141E+01
N   -3.2250534237216515E+00    9.3273338189714181E+00    1.7612338638983854E+01
N    3.1993558344198347E+00    1.9227225228226987E+00    2.5893158411449706E+00
Ga    3.2035174707012257E+00    1.7822004151811563E-01    3.2665810922220273E+00
N    3.2156237606313938E+00    5.1264617457868929E-02    5.2312868971805750E+00
Ga    3.2057615894816922E+00    1.9128782681474168E+00    5.8654973351908639E+00
N    3.2147742074231509E+00    1.9038423391430230E+00    7.8392862758648985E+00
Ga    3.2118191207081539E+00    3.8406604325035329E-02    8.4334654463382606E+00
N    3.2140169757601256E+00    3.3299560981853243E-02    1.0423062487528805E+01
Ga    3.2138634331264271E+00    1.9030163139492902E+00    1.1024617913083551E+01
N    3.2150215268331155E+00    1.9030000093031902E+00    1.2991424149449632E+01
Ga    3.2144898599258216E+00    3.4831417171157675E-02    1.3621169514014346E+01
N    3.2159680980859888E+00    6.8178670039901509E-02    1.5577308525679019E+01
Ga    3.2155453232703763E+00    1.9039487823356156E+00    1.5861841773006061E+01
N    1.4676725103973800E+00    4.6172080225505860E+00    2.4616137151214574E+00
Ga    1.6688813331474412E+00    2.8016587252859004E+00    3.2598578877934630E+00
N    1.6068278599915033E+00    2.8388587829355219E+00    5.2378180431930028E+00
Ga    1.6518194705177498E+00    4.7085801835023355E+00    5.8000045276626269E+00
N    1.6122241938153423E+00    4.6951389007369748E+00    7.7994779655802562E+00
Ga    1.5964004181951490E+00    2.8380214785116160E+00    8.4356030764564238E+00
N    1.5953909050869861E+00    2.8373360896641207E+00    1.0426603185507259E+01
Ga    1.6224869694494839E+00    4.6958773789261778E+00    1.1071653451704975E+01
N    1.6385755119781305E+00    4.7068416928021177E+00    1.3061379786147969E+01
Ga    1.5962972379742950E+00    2.8375732035421835E+00    1.3620616202787446E+01
N    1.6262952564560249E+00    2.8216928985360639E+00    1.5577266980728735E+01
Ga    1.4337492907882665E+00    4.5883407946466654E+00    1.6485665452834819E+01
N    1.9425239972662158E-03    7.4672501503412372E+00    2.6895445318564399E+00
Ga    8.0947009033992337E-03    5.6012587488139056E+00    3.3120548785803789E+00
N   -7.7499370702199181E-04    5.6330475185747080E+00    5.2475699789747949E+00
Ga   -1.0629197476636448E-03    7.4669221130267678E+00    5.9066035160190236E+00
N   -2.3616881140088781E-03    7.4753581105153630E+00    7.8602091829275906E+00
Ga   -5.1499760156604730E-04    5.6011446726885623E+00    8.4487506784830853E+00
N   -2.7679892141341442E-03    5.6041800875476069E+00    1.0433916174742828E+01
Ga   -3.6054147274042370E-03    7.4736449542326895E+00    1.1030631144170870E+01
N   -2.2716780385850458E-03    7.4744283527316826E+00    1.2995514604560176E+01
Ga   -1.4708560959820827E-03    5.6040996515056314E+00    1.3621993701380974E+01
N   -2.0983935216500925E-04    5.6388019801242173E+00    1.5578386035049936E+01
Ga   -7.4799291864740896E-04    7.4743095396198269E+00    1.5862270340274677E+01
N   -1.7126735475365358E+00    1.0196262484928740E+01    2.5082003687372305E+00
Ga   -1.5932657339663485E+00    8.3891148762640064E+00    3.3199522481990384E+00
N   -1.5969554277127740E+00    8.3974924751893614E+00    5.2461045933858239E+00
Ga   -1.5884382006036910E+00    1.0284263915249666E+01    5.8027843228087228E+00
N   -1.6012826937661309E+00    1.0263652995166124E+01    7.7894061123329026E+00
Ga   -1.6235000886929432E+00    8.4099460855269825E+00    8.4452192623440219E+00
N   -1.6228899524066898E+00    8.4090974580303328E+00    1.0429437449887242E+01
Ga   -1.5969889199151770E+00    1.0268865382530498E+01    1.1072270019208084E+01
N   -1.5778344123375447E+00    1.0277740494697397E+01    1.3060904519199331E+01
Ga   -1.6208855141484739E+00    8.4088824073353887E+00    1.3622601850667529E+01
N   -1.5903427533918333E+00    8.3927218460748101E+00    1.5578603282648908E+01
Ga   -1.7826361113429012E+00    1.0159654346984500E+01    1.6485779526767310E+01
N    6.4286071813874432E+00    2.0314606094807535E+00    2.5378704491674240E+00
Ga    6.4281275646246696E+00    6.1461672062914183E-02    2.8802483365450824E+00
N    6.4303171744885814E+00    4.9957228045018356E-02    5.0202815831380780E+00
Ga    6.4244827125317423E+00    1.8857712216870692E+00    5.8021561213966546E+00
N    6.4291991497106933E+00    1.8923072009541362E+00    7.7926517588775912E+00
Ga    6.4276622247214314E+00    4.9293670649823762E-02    8.4484873050459566E+00
N    6.4292133766497308E+00    4.6458486999977393E-02    1.0416696636264319E+01
Ga    6.4295970695617841E+00    1.8873341068802347E+00    1.1070293564160407E+01
N    6.4304319810256327E+00    1.8666235396852295E+00    1.3060492790725785E+01
Ga    6.4300659796660655E+00    4.6821646493685525E-02    1.3872941943223259E+01
N    6.4283509467593030E+00    4.5321117843830798E-02    1.6066385496060501E+01
Ga    6.4297984952463878E+00    2.0856809130886740E+00    1.6481425524892817E+01
Ga    6.4574083190290548E+00    3.7438844098559096E+00    1.5119366069777735E+00
N    4.9347496388345311E+00    4.6277802330226203E+00    2.4809835648972998E+00
Ga    4.7015895800187382E+00    2.7941425729761029E+00    3.2874287109098921E+00
N    4.8191514989956188E+00    2.8392435186387446E+00    5.2443283704929664E+00
Ga    4.7804530378564909E+00    4.7164937887424134E+00    5.7997585834781455E+00
N    4.8171218949110823E+00    4.6943913401664767E+00    7.7992527796458591E+00
Ga    4.8303917879750520E+00    2.8390675888213841E+00    8.4368205333675945E+00
N    4.8330954332664557E+00    2.8374486140729513E+00    1.0426916668313373E+01
Ga    4.8081826404045342E+00    4.6970280934196147E+00    1.1068987086195046E+01
N    4.7914280443368868E+00    4.7061969065382687E+00    1.3059971065978225E+01
Ga    4.8329285712137686E+00    2.8376279029683289E+00    1.3620177227846568E+01
N    4.8086167321812567E+00    2.8235143260315612E+00    1.5580814509897152E+01
Ga    4.9794440315542232E+00    4.5971149840480132E+00    1.6481484961643446E+01
N    6.4232279826363445E+00    3.7563095226939338E+00    1.7625362591375069E+01
N    3.2067040704626075E+00    7.6234707176034346E+00    2.4965437908490351E+00
N    3.2139467465676650E+00    5.6250076942221083E+00    5.0453235348451049E+00
Ga    3.2218694244155328E+00    7.4235011447814454E+00    5.8132393912579126E+00
N    3.2139760076823731E+00    7.4702484026525218E+00    7.8054494867877544E+00
Ga    3.2148036975316638E+00    5.6164699992389826E+00    8.4453701857067038E+00
N    3.2148651781085076E+00    5.6174771410270985E+00    1.0417424309068329E+01
Ga    3.2160796455190090E+00    7.4556612591998697E+00    1.1073255665398420E+01
N    3.2144053861165118E+00    7.4374932068740156E+00    1.3062762365297722E+01
Ga    3.2145499850417920E+00    5.6159702810976180E+00    1.3871529123738830E+01
N    3.2128219035254593E+00    5.6155716976680683E+00    1.6066791367571184E+01
Ga    3.2143085277384369E+00    7.6559987641095271E+00    1.6482122739768180E+01
Ga    3.2351699981341997E+00    9.3853106445973253E+00    1.4643637263588063E+00
N    1.7032571176430853E+00    1.0199818314309239E+01    2.5271556418411789E+00
Ga    1.5897115484676816E+00    8.3864042673977846E+00    3.3382786435716856E+00
N    1.5957908701243864E+00    8.3995329302773509E+00    5.2599337269250768E+00
Ga    1.5794856771677546E+00    1.0282259523710687E+01    5.8166969511655688E+00
N    1.5949092349001295E+00    1.0265081014304107E+01    7.8004563249405789E+00
Ga    1.6187310563148742E+00    8.4100058594528235E+00    8.4530467040322730E+00
N    1.6166251448354354E+00    8.4095213900119994E+00    1.0436333722651009E+01
Ga    1.5907198235535345E+00    1.0269648469920833E+01    1.1074273510154796E+01
N    1.5743186608922728E+00    1.0277959849021526E+01    1.3062843421919538E+01
Ga    1.6170315264578694E+00    8.4086350397252243E+00    1.3622207464620221E+01
N    1.5923220364424266E+00    8.3940060264178040E+00    1.5582270554044412E+01
Ga    1.7648360856918544E+00    1.0167098164230326E+01    1.6482610614925747E+01
N    3.2084212487960522E+00    9.3267612736588443E+00    1.7625655993249516E+01
N    9.6545619647243903E+00    1.9131363492002267E+00    2.6168909960747215E+00
Ga    9.6516994892050256E+00    1.7635046206760768E-01    3.2995105389632937E+00
N    9.6430812843576224E+00    4.8803277609129017E-02    5.2561915009334639E+00
Ga    9.6530310343704571E+00    1.9106437412936861E+00    5.8814484484143561E+00
N    9.6464561929735932E+00    1.9043675797630042E+00    7.8505970947694319E+00
Ga    9.6488435741628908E+00    3.7596106554848033E-02    8.4425160243015043E+00
N    9.6467394239017175E+00    3.3350836970250562E-02    1.0430065588902142E+01
Ga    9.6458846866149344E+00    1.9043582799518386E+00    1.1025989478178248E+01
N    9.6449313613423051E+00    1.9028654254680655E+00    1.2994183510934947E+01
Ga    9.6472679550967744E+00    3.4020966407082166E-02    1.3621766884110075E+01
N    9.6469503423072833E+00    6.2438724322201301E-02    1.5581157412443606E+01
Ga    9.6447020604723335E+00    1.9022211472256485E+00    1.5859280034149373E+01
N    7.9324544276249540E+00    4.6311207463307893E+00    2.5286418870344729E+00
Ga    8.1497094426390717E+00    2.7770524491268889E+00    3.3039728490689724E+00
N    8.0398662477637188E+00    2.8333847898916069E+00    5.2576555503296722E+00
Ga    8.0601852129495004E+00    4.7083774467690933E+00    5.7979267298179735E+00
N    8.0492627520114670E+00    4.6975890033692762E+00    7.7903438270553620E+00
Ga    8.0282543991454318E+00    2.8396870585199085E+00    8.4365558610668501E+00
N    8.0264905777708542E+00    2.8390179762103425E+00    1.0426161478993686E+01
Ga    8.0533238585368263E+00    4.6976279839281023E+00    1.1071041525354374E+01
N    8.0705260788045017E+00    4.7067859609777054E+00    1.3061014588173427E+01
Ga    8.0271303057806840E+00    2.8385165488089510E+00    1.3621260978497695E+01
N    8.0522814912338685E+00    2.8237503319044488E+00    1.5581133055017913E+01
Ga    7.8754849122744535E+00    4.5945719827054745E+00    1.6481331365895642E+01
N    6.4161738833872093E+00    7.4741609817052188E+00    2.5834687652130266E+00
Ga    6.4156891168314880E+00    5.7355297834805219E+00    3.2869047848132920E+00
N    6.4269212984653024E+00    5.6206487555910192E+00    5.2432259694309264E+00
Ga    6.4283259014359837E+00    7.4765999741837046E+00    5.8702942721964719E+00
N    6.4309139142443019E+00    7.4758024554856739E+00    7.8408067113722959E+00
Ga    6.4308698893896405E+00    5.6068004241344553E+00    8.4377622063462283E+00
N    6.4318634874591387E+00    5.6054239240632500E+00    1.0427537208316851E+01
Ga    6.4310181198285363E+00    7.4734977151653261E+00    1.1027561740786545E+01
N    6.4296824284224696E+00    7.4730271463946645E+00    1.2995018519034103E+01
Ga    6.4308112697260214E+00    5.6032999605455593E+00    1.3621178439599710E+01
N    6.4305592805556930E+00    5.6326986085829560E+00    1.5580836164326177E+01
Ga    6.4287062503325849E+00    7.4724674920966647E+00    1.5858999668010810E+01
N    4.7179290361000570E+00    1.0210002449715819E+01    2.5289212914571997E+00
Ga    4.9157599163944310E+00    8.3506055868072853E+00    3.2873189096338713E+00
N    4.8174915736955901E+00    8.4058750230539676E+00    5.2452772179685914E+00
Ga    4.8510250367861776E+00    1.0277094827455540E+01    5.8034244284566361E+00
N    4.8328802256630992E+00    1.0266135516996309E+01    7.7947930397588108E+00
Ga    4.8148709729833845E+00    8.4106267121039906E+00    8.4425501913153713E+00
N    4.8130173273496899E+00    8.4095692578101069E+00    1.0430517947489307E+01
Ga    4.8393492306586170E+00    1.0268690404072080E+01    1.1072261833004347E+01
N    4.8546831338969145E+00    1.0277829595185427E+01    1.3061735384900457E+01
Ga    4.8115294256602850E+00    8.4092690661106957E+00    1.3621798167587755E+01
N    4.8366823975446440E+00    8.3941014417437803E+00    1.5581204398235608E+01
Ga    4.6598989469618299E+00    1.0164738390449438E+01    1.6481551331304004E+01
O    2.7667931851114682E-02    3.7167721766904176E+00   -5.0783273659590999E-01
H    1.4495044549281950E-02    7.4671117068375210E+00    1.6626746625955307E+00
C    6.4155875017090436E-01    2.5775644722321789E+00   -1.1240932811936595E+00
H    1.7053771713392247E+00    2.4657138325713466E+00   -8.4710268941221711E-01
H    1.3406572380116616E-01    1.6312484212215368E+00   -8.6984901717055907E-01
H    5.8136752088107824E-01    2.7189169372725579E+00   -2.2144260856294093E+00
Ga    3.1725924333004190E+00    5.6142125093597111E+00    2.5497172021322356E+00
O    3.1056941127713555E+00    5.6895917849107533E+00    2.5167395835334794E-01
H    3.0262740863205586E+00    4.7481245229168962E+00    1.3133440000620266E-02
C    4.2261348029136956E+00    6.2843960487608479E+00   -4.5768133445645026E-01
H    3.9525915469196571E+00    7.3284355429047281E+00   -6.6433641046783054E-01
H    5.1364455323052924E+00    6.2753444430637844E+00    1.6098484441966024E-01
H    4.3941945418230270E+00    5.7679825134563618E+00   -1.4098423632705832E+00
     &END COORD
     &KIND C
       BASIS_SET DZVP-MOLOPT-SR-GTH-q4
       POTENTIAL GTH-PBE-q4
       &POTENTIAL
 2 2
  0.3384712400000000E+00 2 -0.8803673979999999E+01  0.1339210850000000E+01
 2
  0.3025757500000000E+00 1  0.9622486650000001E+01
  0.2915069400000000E+00 0
         # Potential name:  GTH-PBE-Q4  for symbol:  C
         # Potential read from the potential filename: GTH_POTENTIALS
       &END POTENTIAL
     &END KIND
     &KIND O
       BASIS_SET DZVP-MOLOPT-SR-GTH-q6
       POTENTIAL GTH-PBE-q6
       &POTENTIAL
 2 4
  0.2445543000000000E+00 2 -0.1666721480000000E+02  0.2487311320000000E+01
 2
  0.2209559200000000E+00 1  0.1833745811000000E+02
  0.2113324700000000E+00 0
         # Potential name:  GTH-PBE-Q6  for symbol:  O
         # Potential read from the potential filename: GTH_POTENTIALS
       &END POTENTIAL
     &END KIND
     &KIND H
       BASIS_SET DZVP-MOLOPT-SR-GTH-q1
       POTENTIAL GTH-PBE-q1
       &POTENTIAL
 1
  0.2000000000000000E+00 2 -0.4178900440000000E+01  0.7244633100000000E+00
 0
         # Potential name:  GTH-PBE-Q1  for symbol:  H
         # Potential read from the potential filename: GTH_POTENTIALS
       &END POTENTIAL
     &END KIND
     &KIND N
       BASIS_SET DZVP-MOLOPT-SR-GTH
       POTENTIAL GTH-PBE-q5
       &POTENTIAL
 2 3
  0.2837905100000000E+00 2 -0.1241522559000000E+02  0.1868095920000000E+01
 2
  0.2554050000000000E+00 1  0.1363026257000000E+02
  0.2454945300000000E+00 0
         # Potential name:  GTH-PBE-Q5  for symbol:  N
         # Potential read from the potential filename: GTH_POTENTIALS
       &END POTENTIAL
     &END KIND
     &KIND Ga
       BASIS_SET DZVP-MOLOPT-SR-GTH
       POTENTIAL GTH-PBE-q13
       &POTENTIAL
 2 1 10
  0.4900000000000000E+00 0
 3
  0.4167772300000000E+00 3  0.1047568975000000E+02 -0.4921768140000000E+01  0.8707055900000000E+00
  0.7770178090000000E+01 -0.2248152160000000E+01
  0.1784415450000000E+01
  0.5696265200000000E+00 2  0.1777985340000000E+01  0.1958597600000000E+00
 -0.2317443900000000E+00
  0.2381265000000000E+00 1 -0.1624868022000000E+02
         # Potential name:  GTH-PBE-Q13  for symbol:  GA
         # Potential read from the potential filename: GTH_POTENTIALS
       &END POTENTIAL
     &END KIND
     &TOPOLOGY
       NUMBER_OF_ATOMS  212
       MULTIPLE_UNIT_CELL  1 1 1
     &END TOPOLOGY
   &END SUBSYS
 &END FORCE_EVAL
