 # Version information for this restart file 
 # current date 2019-06-30 09:54:52.121
 # current working dir /scratch/rzk/rzk/GaN-carbene/443-adatoms-both-2x2/05-2DissMethanol/01-Combine0304-0202
 # Program compiled at                              Sun Apr  7 00:48:11 EDT 2019
 # Program compiled on                          beluga2.int.ets1.calculquebec.ca
 # Program compiled for                        Beluga-Linux-x86-64-intel-openmpi
 # Source code revision number                                         svn:18619
 &GLOBAL
   PRINT_LEVEL  MEDIUM
   PROJECT_NAME TEST
   RUN_TYPE  GEO_OPT
 &END GLOBAL
 &MOTION
   &GEO_OPT
     MAX_ITER  500
     STEP_START_VAL  152
   &END GEO_OPT
 &END MOTION
 &FORCE_EVAL
   METHOD  QS
   STRESS_TENSOR  ANALYTICAL
   &DFT
     BASIS_SET_FILE_NAME BASIS_MOLOPT
     POTENTIAL_FILE_NAME GTH_POTENTIALS
     UKS  T
     SURFACE_DIPOLE_CORRECTION  T
     SURF_DIP_DIR  Z
     &SCF
       MAX_SCF  80
       EPS_SCF     5.0000000000000004E-06
       &OT  T
         PRECONDITIONER  FULL_ALL
       &END OT
       &OUTER_SCF  T
         OPTIMIZER  NONE
         EPS_SCF     5.0000000000000004E-06
         MAX_SCF  4
       &END OUTER_SCF
       &PRINT
         &RESTART  OFF
           BACKUP_COPIES  1
           &EACH
             JUST_ENERGY  0
             QS_SCF  0
             MD  20
           &END EACH
         &END RESTART
       &END PRINT
     &END SCF
     &QS
       EPS_DEFAULT     1.0000000000000000E-14
       METHOD  GPW
     &END QS
     &MGRID
       NGRIDS  5
       CUTOFF     1.2000000000000000E+03
     &END MGRID
     &XC
       DENSITY_CUTOFF     1.0000000000000000E-10
       GRADIENT_CUTOFF     1.0000000000000000E-10
       TAU_CUTOFF     1.0000000000000000E-10
       &XC_FUNCTIONAL  NO_SHORTCUT
         &PBE  T
         &END PBE
       &END XC_FUNCTIONAL
       &VDW_POTENTIAL
         POTENTIAL_TYPE  PAIR_POTENTIAL
         &PAIR_POTENTIAL
           R_CUTOFF     1.0000000000000005E+01
           TYPE  DFTD3
           PARAMETER_FILE_NAME dftd3.dat
           REFERENCE_FUNCTIONAL PBE
           EPS_CN     9.9999999999999995E-07
           CALCULATE_C9_TERM  T
           REFERENCE_C9_TERM  T
           LONG_RANGE_CORRECTION  F
           VERBOSE_OUTPUT  F
         &END PAIR_POTENTIAL
       &END VDW_POTENTIAL
     &END XC
   &END DFT
   &SUBSYS
     &CELL
       A     1.2864472766435110E+01    0.0000000000000000E+00    0.0000000000000000E+00
       B    -6.4322363581020028E+00    1.1140960178524475E+01    0.0000000000000000E+00
       C     0.0000000000000000E+00    0.0000000000000000E+00    3.2000000000000000E+01
       MULTIPLE_UNIT_CELL  1 1 1
       &CELL_REF
         A     1.2982353780853531E+01    0.0000000000000000E+00    0.0000000000000000E+00
         B    -6.4911768904267628E+00    1.1243048175136114E+01    0.0000000000000000E+00
         C     0.0000000000000000E+00    0.0000000000000000E+00    3.2000000000000000E+01
         MULTIPLE_UNIT_CELL  1 1 1
       &END CELL_REF
     &END CELL
     &COORD
N    1.1722891668861331E-03    2.0539898546220350E+00    2.5026257513665255E+00
Ga   -2.8102245854816168E-03    9.3564355816162875E-02    2.8544550383876319E+00
N   -6.0267468549066094E-03    5.9332437062054426E-02    5.0082602379181207E+00
Ga   -4.1997668654049176E-03    1.8911956795520601E+00    5.7989009269608598E+00
N   -6.4349415472219357E-03    1.9001435504943538E+00    7.7940437917057466E+00
Ga   -4.7350676763495943E-03    5.5947872634728210E-02    8.4416181146148350E+00
N   -4.6671556017930625E-03    5.5068614151696983E-02    1.0412885996687514E+01
Ga   -4.9697551924779435E-03    1.8939799437625278E+00    1.1072823127432727E+01
N   -5.5164363177700815E-03    1.8751498728475733E+00    1.3061185161493336E+01
Ga   -7.0130795414447061E-03    5.7289389747324379E-02    1.3875788633682049E+01
N   -6.2709390290744725E-03    5.7092363030930786E-02    1.6066575989457032E+01
Ga   -5.8226976979067315E-03    2.1066998149808174E+00    1.6488093393557978E+01
Ga    3.1160778723032447E-02    3.7356634666172894E+00    1.3673997502397863E+00
N   -1.4727665130203720E+00    4.6350234708390552E+00    2.4717855062136604E+00
Ga   -1.6806300802646630E+00    2.7964195546277462E+00    3.2634908963342086E+00
N   -1.6147226969117934E+00    2.8442380140734560E+00    5.2404889336344427E+00
Ga   -1.6408080763200088E+00    4.7064592841420838E+00    5.8111609000834532E+00
N   -1.6244716791978089E+00    4.7049557873979113E+00    7.7989876007814356E+00
Ga   -1.6025033589874673E+00    2.8451187857262434E+00    8.4409536633404247E+00
N   -1.6022939313975895E+00    2.8477420046066775E+00    1.0429422006490897E+01
Ga   -1.6305073327670447E+00    4.7063468909992503E+00    1.1075869881522618E+01
N   -1.6461713559084390E+00    4.7163719937639375E+00    1.3063100157512210E+01
Ga   -1.6018327892876816E+00    2.8472041737344740E+00    1.3622511450258447E+01
N   -1.6284951362013358E+00    2.8325129637407991E+00    1.5578673278454373E+01
Ga   -1.4458936631873953E+00    4.6008124156703287E+00    1.6488342374485860E+01
N   -1.1652985397816131E-04    3.7726043093297852E+00    1.7635099562544163E+01
N   -3.2121202483022615E+00    7.6030253701478250E+00    2.5034929185781674E+00
Ga   -3.1961844712778649E+00    5.6036055698685603E+00    2.8515877698595831E+00
N   -3.2162415542002734E+00    5.6241995319434546E+00    5.0062123600433672E+00
Ga   -3.2283134843178196E+00    7.4470296114847079E+00    5.7997743469008345E+00
N   -3.2199822583267976E+00    7.4729753329220925E+00    7.7873195902462351E+00
Ga   -3.2230638817123221E+00    5.6260171971164699E+00    8.4472440771082606E+00
N   -3.2219037868938267E+00    5.6277264861179219E+00    1.0415834449885880E+01
Ga   -3.2234163932973097E+00    7.4659928906992841E+00    1.1074067881139362E+01
N   -3.2215957673039033E+00    7.4460438545733059E+00    1.3063882483582088E+01
Ga   -3.2215476801013314E+00    5.6238358347580331E+00    1.3877306870257225E+01
N   -3.2214242979752794E+00    5.6256670689327795E+00    1.6067032876225984E+01
Ga   -3.2215835422794905E+00    7.6660779910349524E+00    1.6475808067751913E+01
Ga   -3.2489812066425130E+00    9.3608648249310473E+00    1.4367639880876859E+00
N   -4.7263751157637497E+00    1.0211663015316502E+01    2.5137030039490011E+00
Ga   -4.9343009799718827E+00    8.3527919901488392E+00    3.2665074394471776E+00
N   -4.8303076674488832E+00    8.4088849800919867E+00    5.2302560154520190E+00
Ga   -4.8552431707399712E+00    1.0284737162768886E+01    5.7892404072787569E+00
N   -4.8378051235999076E+00    1.0273760059276608E+01    7.7835246074928071E+00
Ga   -4.8227238130559789E+00    8.4177704718250261E+00    8.4323543993337466E+00
N   -4.8180130108130017E+00    8.4182613260604118E+00    1.0422825549279851E+01
Ga   -4.8449201680242640E+00    1.0276826919348986E+01    1.1071142027905688E+01
N   -4.8615764516721445E+00    1.0287056339079721E+01    1.3062053474660351E+01
Ga   -4.8189051648184194E+00    8.4181530875421462E+00    1.3622950673930731E+01
N   -4.8493254983510132E+00    8.4009223381240137E+00    1.5582135090804771E+01
Ga   -4.6721985181589396E+00    1.0178521432891980E+01    1.6475369725319084E+01
N   -3.2217498282814208E+00    9.3412114575287379E+00    1.7592161353371882E+01
N    3.1952537870372719E+00    1.9297410847218106E+00    2.5909372141436191E+00
Ga    3.2063792020973390E+00    1.8423443937727862E-01    3.2717592256889683E+00
N    3.2140085126335705E+00    5.9781656610516681E-02    5.2352265852767488E+00
Ga    3.2096265554514845E+00    1.9227134089089728E+00    5.8724820836261173E+00
N    3.2133496936272059E+00    1.9133297798390179E+00    7.8447048227010940E+00
Ga    3.2089446310781065E+00    4.7211751508326572E-02    8.4372370930114169E+00
N    3.2109085853767683E+00    4.2219201897030628E-02    1.0426442572607883E+01
Ga    3.2108363100296922E+00    1.9116624555666293E+00    1.1030554296003389E+01
N    3.2111734441157971E+00    1.9121343826937438E+00    1.2996629559521894E+01
Ga    3.2108268806876286E+00    4.4036929412660415E-02    1.3622235021948169E+01
N    3.2107730480961418E+00    7.9290816343089723E-02    1.5581578446011838E+01
Ga    3.2111297191779036E+00    1.9175482088066156E+00    1.5860530903674679E+01
N    1.4709665159583980E+00    4.6379275273301230E+00    2.5135144311999427E+00
Ga    1.6850866822743014E+00    2.8122457334378632E+00    3.2947871163716651E+00
N    1.6033701245771943E+00    2.8461693917926203E+00    5.2571102384872574E+00
Ga    1.6536614256501287E+00    4.7208403388259264E+00    5.8245789677935775E+00
N    1.6016634797424925E+00    4.7000731441156907E+00    7.8232610525276378E+00
Ga    1.5917754370076149E+00    2.8444537682908444E+00    8.4448071739933575E+00
N    1.5920681270976200E+00    2.8445214040913567E+00    1.0433667997394879E+01
Ga    1.6198269832183447E+00    4.7061777331375119E+00    1.1072680150738245E+01
N    1.6351003595873768E+00    4.7164414808044555E+00    1.3062799502293363E+01
Ga    1.5912330678027129E+00    2.8473862144920075E+00    1.3622743843138796E+01
N    1.6165757807192656E+00    2.8311841818253782E+00    1.5580113946050204E+01
Ga    1.4395493552472320E+00    4.6039704811261464E+00    1.6488268641874168E+01
N   -4.5540885627398092E-03    7.4714787276065344E+00    2.6887622467629746E+00
Ga    8.6486735916755861E-03    5.6190281434959566E+00    3.3404421890421396E+00
N   -7.1541859491750619E-03    5.6398752261918004E+00    5.2657277086899930E+00
Ga    1.3694848635405390E-03    7.4785846125840170E+00    5.9079818859406528E+00
N   -3.7472291059448635E-03    7.4860095386829100E+00    7.8612314912854515E+00
Ga   -6.7070615790403498E-03    5.6114281278383205E+00    8.4558366533745239E+00
N   -8.1644330195252916E-03    5.6154056097867757E+00    1.0439558621836905E+01
Ga   -6.5597651803939606E-03    7.4839976182081340E+00    1.1035377983997279E+01
N   -5.8221138398733881E-03    7.4841604382883613E+00    1.2999725501706276E+01
Ga   -5.2128568463477255E-03    5.6127744104518529E+00    1.3623759678807257E+01
N   -7.1705977319685152E-03    5.6438522683790291E+00    1.5580851444248312E+01
Ga   -1.4737761109577981E-03    7.4815358611192817E+00    1.5861306237968618E+01
N   -1.7121732960478500E+00    1.0205409485111158E+01    2.5100640454567444E+00
Ga   -1.5955704848187819E+00    8.4008099147443165E+00    3.3245708952054653E+00
N   -1.5990507514637198E+00    8.4059747949641217E+00    5.2494137399923257E+00
Ga   -1.5895193514563259E+00    1.0292593346267910E+01    5.8058658219135379E+00
N   -1.6039036761713037E+00    1.0272943300522774E+01    7.7913500318573785E+00
Ga   -1.6258581878680050E+00    8.4190496920610070E+00    8.4471410544049608E+00
N   -1.6256976325287609E+00    8.4189090740572734E+00    1.0431495862044468E+01
Ga   -1.5982903131563886E+00    1.0278953654265830E+01    1.1074288513669730E+01
N   -1.5803274634318301E+00    1.0287829612825170E+01    1.3063966858110074E+01
Ga   -1.6243476685367733E+00    8.4184304738167057E+00    1.3623612834295228E+01
N   -1.5934416500219186E+00    8.4008069513813641E+00    1.5582744297799582E+01
Ga   -1.7709714310829658E+00    1.0178489264717923E+01    1.6475589408733626E+01
N    6.4274689552469111E+00    2.0374281617738386E+00    2.5327124835190009E+00
Ga    6.4293931219790919E+00    6.4321445777022632E-02    2.8840407455317161E+00
N    6.4293335062723020E+00    5.6253056641162195E-02    5.0171864738057170E+00
Ga    6.4212860601545980E+00    1.8950903527260754E+00    5.7978789330638882E+00
N    6.4260487003103046E+00    1.9008025396883668E+00    7.7898447580859305E+00
Ga    6.4275561191739614E+00    5.7924896118600779E-02    8.4460658907490966E+00
N    6.4271773616101138E+00    5.5885488094708571E-02    1.0414774292991252E+01
Ga    6.4282676844165376E+00    1.8956427349376139E+00    1.1073382471313291E+01
N    6.4281775856630423E+00    1.8753983884605703E+00    1.3061201807450972E+01
Ga    6.4295883933304019E+00    5.7944807788579383E-02    1.3877776628828409E+01
N    6.4283913469684908E+00    5.7337242382237932E-02    1.6067123263911352E+01
Ga    6.4278759989884540E+00    2.1073952584458424E+00    1.6488697662837449E+01
Ga    6.4677585795101464E+00    3.7418564033934842E+00    1.4892004810888240E+00
N    4.9247685443402842E+00    4.6372980709855689E+00    2.4144175332397997E+00
Ga    4.6982685519887584E+00    2.8131030226065570E+00    3.2735599198126253E+00
N    4.8182481599005191E+00    2.8500950083246592E+00    5.2327205119447848E+00
Ga    4.7757987938212247E+00    4.7248622959571884E+00    5.8165065965658105E+00
N    4.8210417390874145E+00    4.6977795466403478E+00    7.8173832146298263E+00
Ga    4.8302336902790071E+00    2.8459520483273972E+00    8.4479713741299491E+00
N    4.8306680389411101E+00    2.8449078600175155E+00    1.0434722669892135E+01
Ga    4.8043074399571166E+00    4.7076217981756923E+00    1.1071272812016288E+01
N    4.7880627410047945E+00    4.7166027107016859E+00    1.3061585719558902E+01
Ga    4.8311637703515604E+00    2.8476009796599278E+00    1.3622338055303613E+01
N    4.8055158083429603E+00    2.8312545468436836E+00    1.5579632131850511E+01
Ga    4.9827684934540093E+00    4.6040191850071146E+00    1.6488181434326869E+01
N    6.4219660081112675E+00    3.7731501107480794E+00    1.7635363752308773E+01
N    3.2050873453743076E+00    7.6014109210264049E+00    2.4113308606426931E+00
N    3.2125499043802255E+00    5.6306253789735408E+00    5.1457952584402520E+00
Ga    3.2197286761694941E+00    7.4270481667074009E+00    5.8276687668917466E+00
N    3.2101514848094905E+00    7.4875968310511452E+00    7.8209397077584590E+00
Ga    3.2122816215259591E+00    5.6260956853807436E+00    8.4434589899804937E+00
N    3.2116149407161605E+00    5.6274284720996555E+00    1.0419284039307279E+01
Ga    3.2131608874680069E+00    7.4650736481978885E+00    1.1073976198211156E+01
N    3.2116629890463875E+00    7.4470897750067948E+00    1.3063272063829313E+01
Ga    3.2117552750144220E+00    5.6262826423795378E+00    1.3875286363656448E+01
N    3.2112332007093061E+00    5.6269487543656806E+00    1.6066313235730284E+01
Ga    3.2112517765755442E+00    7.6731041413102448E+00    1.6488740451866626E+01
Ga    3.2371487090591677E+00    9.3904404698970616E+00    1.4433715924776296E+00
N    1.7082672010222979E+00    1.0194917004185035E+01    2.5163123124738882E+00
Ga    1.6037028548656103E+00    8.3684669619292524E+00    3.3152988729909465E+00
N    1.5987327405429741E+00    8.4018147401016012E+00    5.2398011219805252E+00
Ga    1.5803587922631899E+00    1.0283681622866590E+01    5.8052930545960084E+00
N    1.5921637334938346E+00    1.0272386236702740E+01    7.7915798463489452E+00
Ga    1.6156765475078880E+00    8.4219420659451885E+00    8.4589037138125320E+00
N    1.6120439310675514E+00    8.4205968165531928E+00    1.0440413288953307E+01
Ga    1.5879725222951429E+00    1.0280029324688369E+01    1.1076474834380051E+01
N    1.5710906863230500E+00    1.0288394656956608E+01    1.3063162628446394E+01
Ga    1.6149463475021013E+00    8.4191200486847677E+00    1.3624148830828460E+01
N    1.5870943475916219E+00    8.4054769410073220E+00    1.5581083941405085E+01
Ga    1.7716703836023195E+00    1.0172880624796242E+01    1.6489120418958315E+01
N    3.2115271571330641E+00    9.3350423033155643E+00    1.7635844002438244E+01
N    9.6534948401305396E+00    1.9174959719586155E+00    2.6060880870467020E+00
Ga    9.6521807796092958E+00    1.7789801177311407E-01    3.2894217751544694E+00
N    9.6423015579824760E+00    5.5551798354300401E-02    5.2463185444712384E+00
Ga    9.6518627416087117E+00    1.9163413773780300E+00    5.8758273964738841E+00
N    9.6435830858674834E+00    1.9122336509908997E+00    7.8450630088334128E+00
Ga    9.6458632127359412E+00    4.4284590621509516E-02    8.4362844705706141E+00
N    9.6433976007327598E+00    4.2528054762239413E-02    1.0425619199942942E+01
Ga    9.6427232949699295E+00    1.9127693703576485E+00    1.1026004116451571E+01
N    9.6428845583967995E+00    1.9127207209541177E+00    1.2994505269685803E+01
Ga    9.6439001422266166E+00    4.3435622105385450E-02    1.3623478443952397E+01
N    9.6436414207323811E+00    7.4537910789850906E-02    1.5579271116646177E+01
Ga    9.6433023714219264E+00    1.9134063350274069E+00    1.5855396938501681E+01
N    7.9302437372737984E+00    4.6342898264285068E+00    2.5232713546476400E+00
Ga    8.1483465363546621E+00    2.7823693545248189E+00    3.2999400818486557E+00
N    8.0390413076212646E+00    2.8399454265145545E+00    5.2528413436678916E+00
Ga    8.0534574891443178E+00    4.7162484388362218E+00    5.7917186437774584E+00
N    8.0456206482422328E+00    4.7068621276612062E+00    7.7860323354191223E+00
Ga    8.0250000754466715E+00    2.8484119098142613E+00    8.4338779303486096E+00
N    8.0240649712967222E+00    2.8482849262157748E+00    1.0424352185603812E+01
Ga    8.0505454373747067E+00    4.7065794769151177E+00    1.1073292304831131E+01
N    8.0678728900013681E+00    4.7162223766913769E+00    1.3061142700482101E+01
Ga    8.0239508909999682E+00    2.8478947943885013E+00    1.3623043165495009E+01
N    8.0508407325879006E+00    2.8327706607640235E+00    1.5578925363578911E+01
Ga    7.8675893047244152E+00    4.6009664641070618E+00    1.6488792438875148E+01
N    6.4218605071126014E+00    7.4792036589986086E+00    2.5749068905121080E+00
Ga    6.3982011952203504E+00    5.7383511009384023E+00    3.2669651941274629E+00
N    6.4208463952300452E+00    5.6232410270112361E+00    5.2265605610840771E+00
Ga    6.4190907256004577E+00    7.4793000853964431E+00    5.8608393899660509E+00
N    6.4253449072082587E+00    7.4831433678644164E+00    7.8339406331164163E+00
Ga    6.4293223694928399E+00    5.6159659606822698E+00    8.4440269758086757E+00
N    6.4303260193620817E+00    5.6160729693616416E+00    1.0431690073370250E+01
Ga    6.4289742687497897E+00    7.4840679091006077E+00    1.1030421556173451E+01
N    6.4281394561866705E+00    7.4840033227909233E+00    1.2996138617665135E+01
Ga    6.4279248874426758E+00    5.6134473535642817E+00    1.3622880006956146E+01
N    6.4294403367002966E+00    5.6440208443734372E+00    1.5579943482517526E+01
Ga    6.4234670639664966E+00    7.4814376665515328E+00    1.5861478858519817E+01
N    4.7153630835129201E+00    1.0207931809344775E+01    2.5168076157336947E+00
Ga    4.9050929611182363E+00    8.3334899481388760E+00    3.2635877142657894E+00
N    4.8091106397344916E+00    8.4093010700629680E+00    5.2246509447571468E+00
Ga    4.8470317868859008E+00    1.0277721714266804E+01    5.7921874993973415E+00
N    4.8304009374909000E+00    1.0273165555633865E+01    7.7860707050839126E+00
Ga    4.8124385101682661E+00    8.4207458361384848E+00    8.4462298541584335E+00
N    4.8115117347758778E+00    8.4198696404932800E+00    1.0432773922535780E+01
Ga    4.8353795607412824E+00    1.0278280358162872E+01    1.1073246582475713E+01
N    4.8512267540871452E+00    1.0287894755503485E+01    1.3061112916691185E+01
Ga    4.8084309846080107E+00    8.4191608701313800E+00    1.3623382013080773E+01
N    4.8352657471296485E+00    8.4056368342667103E+00    1.5580406505253471E+01
Ga    4.6510594630148701E+00    1.0172865761733854E+01    1.6488869734723288E+01
O    7.1489355578829206E-01    3.8559121342952749E+00   -3.7394548649692605E-01
H   -1.0232203725113881E-02    7.4575693060998720E+00    1.6625404343961516E+00
C    1.1435288189584083E+00    2.5934505384698321E+00   -9.3494930642070040E-01
H    1.8452707070289645E+00    2.0650634864497452E+00   -2.6691951740826292E-01
H    2.8446827396595442E-01    1.9358324002975009E+00   -1.1350710032518532E+00
H    1.6476809354010795E+00    2.8041314115826306E+00   -1.8892480887860295E+00
Ga    3.1694858199259448E+00    5.5907642001782429E+00    2.2626335067378762E+00
O    2.8253607702449317E+00    5.4652503673604391E+00    1.3430966783954604E-01
H    2.0513701960209896E+00    4.8301219377331339E+00   -6.3450567568326774E-02
C    3.8942198963281656E+00    5.2532010957782935E+00   -8.0846134381171031E-01
H    3.5314917760376301E+00    5.4254551465778214E+00   -1.8308908087304137E+00
H    4.6879146149892650E+00    5.9737810838925087E+00   -5.7487787067610052E-01
H    4.2977535575598234E+00    4.2315177852246881E+00   -7.2752725151317121E-01
     &END COORD
     &KIND C
       BASIS_SET DZVP-MOLOPT-SR-GTH-q4
       POTENTIAL GTH-PBE-q4
       &POTENTIAL
2 2
0.3384712400000000E+00 2 -0.8803673979999999E+01  0.1339210850000000E+01
2
0.3025757500000000E+00 1  0.9622486650000001E+01
0.2915069400000000E+00 0
       &END POTENTIAL
     &END KIND
     &KIND O
       BASIS_SET DZVP-MOLOPT-SR-GTH-q6
       POTENTIAL GTH-PBE-q6
       &POTENTIAL
2 4
0.2445543000000000E+00 2 -0.1666721480000000E+02  0.2487311320000000E+01
2
0.2209559200000000E+00 1  0.1833745811000000E+02
0.2113324700000000E+00 0
       &END POTENTIAL
     &END KIND
     &KIND H
       BASIS_SET DZVP-MOLOPT-SR-GTH-q1
       POTENTIAL GTH-PBE-q1
       &POTENTIAL
1
0.2000000000000000E+00 2 -0.4178900440000000E+01  0.7244633100000000E+00
0
       &END POTENTIAL
     &END KIND
     &KIND N
       BASIS_SET DZVP-MOLOPT-SR-GTH
       POTENTIAL GTH-PBE-q5
       &POTENTIAL
2 3
0.2837905100000000E+00 2 -0.1241522559000000E+02  0.1868095920000000E+01
2
0.2554050000000000E+00 1  0.1363026257000000E+02
0.2454945300000000E+00 0
       &END POTENTIAL
     &END KIND
     &KIND Ga
       BASIS_SET DZVP-MOLOPT-SR-GTH
       POTENTIAL GTH-PBE-q13
       &POTENTIAL
2 1 10
0.4900000000000000E+00 0
3
0.4167772300000000E+00 3  0.1047568975000000E+02 -0.4921768140000000E+01  0.8707055900000000E+00
0.7770178090000000E+01 -0.2248152160000000E+01
0.1784415450000000E+01
0.5696265200000000E+00 2  0.1777985340000000E+01  0.1958597600000000E+00
-0.2317443900000000E+00
0.2381265000000000E+00 1 -0.1624868022000000E+02
       &END POTENTIAL
     &END KIND
     &TOPOLOGY
       NUMBER_OF_ATOMS  212
       MULTIPLE_UNIT_CELL  1 1 1
     &END TOPOLOGY
   &END SUBSYS
 &END FORCE_EVAL
