 # Version information for this restart file 
 # current date 2019-06-28 22:46:39.573
 # current working dir /scratch/rzk/rzk/GaN-carbene/443-adatoms-both-2x2/05-2DissMethanol/01-Combine0304-0202
 # Program compiled at                              Sun Apr  7 00:48:11 EDT 2019
 # Program compiled on                          beluga2.int.ets1.calculquebec.ca
 # Program compiled for                        Beluga-Linux-x86-64-intel-openmpi
 # Source code revision number                                         svn:18619
 &GLOBAL
   PRINT_LEVEL  MEDIUM
   PROJECT_NAME TEST
   RUN_TYPE  GEO_OPT
 &END GLOBAL
 &MOTION
   &GEO_OPT
     MAX_ITER  500
     STEP_START_VAL  36
   &END GEO_OPT
 &END MOTION
 &FORCE_EVAL
   METHOD  QS
   STRESS_TENSOR  ANALYTICAL
   &DFT
     BASIS_SET_FILE_NAME BASIS_MOLOPT
     POTENTIAL_FILE_NAME GTH_POTENTIALS
     UKS  T
     SURFACE_DIPOLE_CORRECTION  T
     SURF_DIP_DIR  Z
     &SCF
       MAX_SCF  80
       EPS_SCF     5.0000000000000004E-06
       &OT  T
         PRECONDITIONER  FULL_ALL
       &END OT
       &OUTER_SCF  T
         OPTIMIZER  NONE
         EPS_SCF     5.0000000000000004E-06
         MAX_SCF  4
       &END OUTER_SCF
       &PRINT
         &RESTART  OFF
           BACKUP_COPIES  1
           &EACH
             JUST_ENERGY  0
             QS_SCF  0
             MD  20
           &END EACH
         &END RESTART
       &END PRINT
     &END SCF
     &QS
       EPS_DEFAULT     1.0000000000000000E-14
       METHOD  GPW
     &END QS
     &MGRID
       NGRIDS  5
       CUTOFF     1.2000000000000000E+03
     &END MGRID
     &XC
       DENSITY_CUTOFF     1.0000000000000000E-10
       GRADIENT_CUTOFF     1.0000000000000000E-10
       TAU_CUTOFF     1.0000000000000000E-10
       &XC_FUNCTIONAL  NO_SHORTCUT
         &PBE  T
         &END PBE
       &END XC_FUNCTIONAL
       &VDW_POTENTIAL
         POTENTIAL_TYPE  PAIR_POTENTIAL
         &PAIR_POTENTIAL
           R_CUTOFF     1.0000000000000004E+01
           TYPE  DFTD3
           PARAMETER_FILE_NAME dftd3.dat
           REFERENCE_FUNCTIONAL PBE
           EPS_CN     9.9999999999999995E-07
           CALCULATE_C9_TERM  T
           REFERENCE_C9_TERM  T
           LONG_RANGE_CORRECTION  F
           VERBOSE_OUTPUT  F
         &END PAIR_POTENTIAL
       &END VDW_POTENTIAL
     &END XC
   &END DFT
   &SUBSYS
     &CELL
       A     1.2864472766435110E+01    0.0000000000000000E+00    0.0000000000000000E+00
       B    -6.4322363581020028E+00    1.1140960178524473E+01    0.0000000000000000E+00
       C     0.0000000000000000E+00    0.0000000000000000E+00    3.2000000000000000E+01
       MULTIPLE_UNIT_CELL  1 1 1
       &CELL_REF
         A     1.2982353780853531E+01    0.0000000000000000E+00    0.0000000000000000E+00
         B    -6.4911768904267628E+00    1.1243048175136114E+01    0.0000000000000000E+00
         C     0.0000000000000000E+00    0.0000000000000000E+00    3.2000000000000000E+01
         MULTIPLE_UNIT_CELL  1 1 1
       &END CELL_REF
     &END CELL
     &COORD
N    1.1918742997017121E-02    2.0495849975222500E+00    2.5012459882966840E+00
Ga    1.7757499878597770E-02    8.7568180181016350E-02    2.8424265457169007E+00
N   -6.5311026590709890E-04    5.4974493657383473E-02    5.0173870265366913E+00
Ga    9.5507467846761757E-04    1.8851145485152805E+00    5.7928945041188857E+00
N   -1.9104610426478098E-03    1.8971702862196964E+00    7.7962921027661807E+00
Ga    4.7539557143548567E-04    5.2615814337848565E-02    8.4363183756443387E+00
N   -2.3940987230510152E-03    5.4361336620859936E-02    1.0415184625792801E+01
Ga   -1.8860294900115741E-03    1.8946542499395611E+00    1.1063746038236031E+01
N   -4.2620383820437509E-03    1.8781429063956094E+00    1.3060945733302354E+01
Ga   -6.4738723933881028E-03    5.9465910258504784E-02    1.3857712855045632E+01
N   -1.7646024772886443E-03    5.7621600077056100E-02    1.6067042638772293E+01
Ga   -5.0121902843061946E-03    2.1022819808966551E+00    1.6482084557776300E+01
Ga    7.1963851031458498E-02    3.7458644274718376E+00    1.3542796315959460E+00
N   -1.4609963640260721E+00    4.6307217014720345E+00    2.4715941614491186E+00
Ga   -1.6648976309538064E+00    2.7949060013362406E+00    3.2512937348052056E+00
N   -1.6073600712535943E+00    2.8387830426854794E+00    5.2392992257695461E+00
Ga   -1.6359942461112524E+00    4.6995489836497306E+00    5.8055906578169587E+00
N   -1.6191429193005076E+00    4.7003454767571133E+00    7.8009185754904546E+00
Ga   -1.5983950526830089E+00    2.8410390845945974E+00    8.4331067779037099E+00
N   -1.5995699894576614E+00    2.8461310946299205E+00    1.0428764077547015E+01
Ga   -1.6264764588346876E+00    4.7045400825566217E+00    1.1065925707515907E+01
N   -1.6421011267159338E+00    4.7161381853161091E+00    1.3061429429021315E+01
Ga   -1.6015851008298827E+00    2.8480506985463205E+00    1.3618664634363386E+01
N   -1.6270600156376387E+00    2.8364478785511094E+00    1.5582752923522843E+01
Ga   -1.4483969377103605E+00    4.6044015538256717E+00    1.6482621186466510E+01
N    8.5683695577081324E-03    3.7740745905626394E+00    1.7617701889596781E+01
N   -3.2058426061001599E+00    7.5931469536476657E+00    2.5030314316901721E+00
Ga   -3.1821784157857249E+00    5.6035975423456410E+00    2.8378807619366389E+00
N   -3.2102022047710062E+00    5.6153849131398541E+00    5.0153159355604497E+00
Ga   -3.2233106836330245E+00    7.4409197824954676E+00    5.7919653180184358E+00
N   -3.2163267929095123E+00    7.4686213960614856E+00    7.7891855579509013E+00
Ga   -3.2186478558884888E+00    5.6225908542582816E+00    8.4399019125925800E+00
N   -3.2188308797885559E+00    5.6265298110566606E+00    1.0416193554807288E+01
Ga   -3.2202670622162084E+00    7.4657233033743529E+00    1.1064512596582516E+01
N   -3.2192438249141455E+00    7.4472291739744003E+00    1.3062955019765107E+01
Ga   -3.2176480323757781E+00    5.6234077852297357E+00    1.3857838630297348E+01
N   -3.2208220431614545E+00    5.6315768130776513E+00    1.6067058060841230E+01
Ga   -3.2235847010150906E+00    7.6542182108365795E+00    1.6468549983622825E+01
Ga   -3.2436501179917347E+00    9.3535577730827644E+00    1.3714510625318761E+00
N   -4.7189675275184513E+00    1.0201742760143922E+01    2.5142780500295867E+00
Ga   -4.9135183304527423E+00    8.3510858742522238E+00    3.2568997255223930E+00
N   -4.8241928556876212E+00    8.4019517477215793E+00    5.2318273355608138E+00
Ga   -4.8495856003118831E+00    1.0277412269829121E+01    5.7810473491219199E+00
N   -4.8347531957923371E+00    1.0268639403230047E+01    7.7859110030430925E+00
Ga   -4.8174650221434154E+00    8.4144091598770814E+00    8.4259608147778984E+00
N   -4.8149293787816481E+00    8.4169839448200445E+00    1.0424800696787775E+01
Ga   -4.8417234770604720E+00    1.0275938203054956E+01    1.1060800193027852E+01
N   -4.8599825526112612E+00    1.0288444471522904E+01    1.3059724199762282E+01
Ga   -4.8170160211645499E+00    8.4200199757982102E+00    1.3613152715914623E+01
N   -4.8416661254825808E+00    8.4087462962794728E+00    1.5580668614761016E+01
Ga   -4.6795301393920248E+00    1.0183620302241227E+01    1.6468568958503536E+01
N   -3.2088326359624393E+00    9.3434399495588671E+00    1.7608817831643901E+01
N    3.2064645613428828E+00    1.9153053122592623E+00    2.6140068884111565E+00
Ga    3.2123203432779448E+00    1.5813578118533925E-01    3.2629176427569990E+00
N    3.2185501454819767E+00    5.0821715768949956E-02    5.2376552179086469E+00
Ga    3.2138912253005159E+00    1.9098851480638841E+00    5.8643961400659865E+00
N    3.2170424424333142E+00    1.9076987609603253E+00    7.8445478885457156E+00
Ga    3.2120873707103414E+00    4.2182087211298083E-02    8.4273553848524703E+00
N    3.2139254163398587E+00    4.1287584639638587E-02    1.0426466839170073E+01
Ga    3.2143607100529841E+00    1.9109604562998435E+00    1.1021198675638516E+01
N    3.2129975431998963E+00    1.9128960090525295E+00    1.2998270388639586E+01
Ga    3.2120740186059709E+00    4.3940339671991763E-02    1.3612779788102378E+01
N    3.2076923223815452E+00    7.3340331400630052E-02    1.5582386860177351E+01
Ga    3.2127646026034062E+00    1.9172340009458384E+00    1.5862647868181819E+01
N    1.4875171315041211E+00    4.6343784815078113E+00    2.5279942799302857E+00
Ga    1.6904859118325453E+00    2.7980127706979081E+00    3.2915541672058137E+00
N    1.6101100943432169E+00    2.8395890186836965E+00    5.2608383267021335E+00
Ga    1.6574017767875147E+00    4.7134559682229664E+00    5.8096479111714991E+00
N    1.6099398209564988E+00    4.6986403543202604E+00    7.8153923397893026E+00
Ga    1.5974307922860980E+00    2.8410299810297501E+00    8.4328014264710784E+00
N    1.5957271766056040E+00    2.8442618492176757E+00    1.0431933537536125E+01
Ga    1.6223251310235089E+00    4.7045171447891372E+00    1.1066306575949149E+01
N    1.6356526486973126E+00    4.7173332322447221E+00    1.3064693453879601E+01
Ga    1.5924590570993269E+00    2.8486537494848290E+00    1.3619280742122131E+01
N    1.6180879206043877E+00    2.8317808313385031E+00    1.5585494246102774E+01
Ga    1.4510720562532535E+00    4.6120592072858484E+00    1.6479923570097814E+01
N    3.4809135867030789E-03    7.4689951914881361E+00    2.7002043625823422E+00
Ga    1.0669093990165137E-02    5.6137753369956611E+00    3.3384563418346347E+00
N   -1.0916378547576695E-03    5.6346719755255306E+00    5.2686302265865939E+00
Ga   -5.4380297786843198E-04    7.4734681245869412E+00    5.9054132806893342E+00
N   -1.7319186957541650E-03    7.4814992484976095E+00    7.8639461355163318E+00
Ga   -1.5541775029916743E-03    5.6072494468733662E+00    8.4464638500041040E+00
N   -3.8740354472583611E-03    5.6141922671439870E+00    1.0438783374958565E+01
Ga   -2.6277936970423629E-03    7.4830965521066064E+00    1.1028526275780008E+01
N   -4.5070477397875846E-03    7.4853018877232147E+00    1.3002634876988681E+01
Ga   -4.0462488397957803E-03    5.6146550260512385E+00    1.3620871721469758E+01
N   -8.6320767574008077E-03    5.6462574027926475E+00    1.5586118606299634E+01
Ga   -5.6224156142734762E-03    7.4850511667890789E+00    1.5862347910406887E+01
N   -1.7047158929586899E+00    1.0197596832221222E+01    2.5124288431248352E+00
Ga   -1.6009729265635284E+00    8.3985872454509192E+00    3.3141673916223779E+00
N   -1.5950567314507085E+00    8.3983290423836330E+00    5.2481581347632913E+00
Ga   -1.5868038411074172E+00    1.0283919346377996E+01    5.7988027665313719E+00
N   -1.6002705564493713E+00    1.0267388482017328E+01    7.7931380153372372E+00
Ga   -1.6235435578483315E+00    8.4148695531517745E+00    8.4398408960353546E+00
N   -1.6220046514616904E+00    8.4169779301509973E+00    1.0432558313092027E+01
Ga   -1.5964696277796617E+00    1.0277102795078060E+01    1.1064191063160633E+01
N   -1.5784905972999819E+00    1.0288251654471432E+01    1.3062478357006633E+01
Ga   -1.6230374992470764E+00    8.4196275601901398E+00    1.3616841621821223E+01
N   -1.6027533493908324E+00    8.4058187733721752E+00    1.5587637774653810E+01
Ga   -1.7538926360283360E+00    1.0191421151489495E+01    1.6466747360721321E+01
N    6.4368615793657460E+00    2.0268015183416801E+00    2.5392337164620953E+00
Ga    6.4268655461569972E+00    5.1838824931007589E-02    2.8791743227164797E+00
N    6.4346684549567783E+00    4.9811831916505282E-02    5.0275896616433080E+00
Ga    6.4290949755264117E+00    1.8851944248726951E+00    5.7975506565380401E+00
N    6.4310907447554753E+00    1.8968455585219330E+00    7.7951337269593708E+00
Ga    6.4295524528997889E+00    5.3288238621806719E-02    8.4407490637645175E+00
N    6.4298057583672552E+00    5.4255518645460313E-02    1.0416436909072985E+01
Ga    6.4310360756831519E+00    1.8958646331161531E+00    1.1062387109892224E+01
N    6.4302447469302635E+00    1.8764450681352935E+00    1.3058709557121031E+01
Ga    6.4335524988127215E+00    5.8146818044979280E-02    1.3856858423225958E+01
N    6.4284695186713838E+00    6.0134595656321788E-02    1.6065248687284139E+01
Ga    6.4251323197181982E+00    2.0997163208980365E+00    1.6480757567009679E+01
Ga    6.4635195339101807E+00    3.7352848926438100E+00    1.5004952904648867E+00
N    4.9377290633335811E+00    4.6291498352311242E+00    2.4670851619387775E+00
Ga    4.7120258173640632E+00    2.7927635642700097E+00    3.2854581631072586E+00
N    4.8253827052983977E+00    2.8401956657089378E+00    5.2463978186269147E+00
Ga    4.7850771350383399E+00    4.7163481261854274E+00    5.8046191705597456E+00
N    4.8211683340767930E+00    4.6962888270858540E+00    7.8111388037201586E+00
Ga    4.8325401900715104E+00    2.8425145503675808E+00    8.4349341277225314E+00
N    4.8332830978046148E+00    2.8447408301049126E+00    1.0431900197881015E+01
Ga    4.8072738448311139E+00    4.7063054816065177E+00    1.1062442086155599E+01
N    4.7891844641477812E+00    4.7180431005745609E+00    1.3059791360838188E+01
Ga    4.8334884982602393E+00    2.8495984679910262E+00    1.3613926242539144E+01
N    4.8045537442806925E+00    2.8361634838126730E+00    1.5577798789553420E+01
Ga    4.9774912951990178E+00    4.6082537651507796E+00    1.6480385249073034E+01
N    6.4367617252397888E+00    3.7749445028319872E+00    1.7610437689192235E+01
N    3.2197803862606191E+00    7.6117748254094604E+00    2.4876534746634591E+00
N    3.2203228092926093E+00    5.6250902467144881E+00    5.0953896720011667E+00
Ga    3.2263382557220908E+00    7.4244276483224638E+00    5.8152242849211540E+00
N    3.2146846707361689E+00    7.4789035568393114E+00    7.8151224086821678E+00
Ga    3.2164331324497888E+00    5.6223713688892536E+00    8.4398341543280448E+00
N    3.2141731214369309E+00    5.6269657805613669E+00    1.0420342292222093E+01
Ga    3.2159841966813429E+00    7.4649742293192549E+00    1.1068836369963382E+01
N    3.2127253011670924E+00    7.4493983632947138E+00    1.3065421243889721E+01
Ga    3.2128013264254496E+00    5.6281523199513854E+00    1.3864347462233802E+01
N    3.2153590910275200E+00    5.6310398806310245E+00    1.6067329031155953E+01
Ga    3.2109045757606434E+00    7.6712466307296809E+00    1.6479096805064305E+01
Ga    3.2454033719012996E+00    9.3704975829263013E+00    1.4713580933577974E+00
N    1.7145745510069590E+00    1.0192876686267311E+01    2.5266198051124253E+00
Ga    1.5995783132956258E+00    8.3778059087400329E+00    3.3355067749458058E+00
N    1.6001396305522078E+00    8.3986363383592888E+00    5.2591574078901928E+00
Ga    1.5841307534989078E+00    1.0282637995310578E+01    5.8076029888123282E+00
N    1.5969463450623107E+00    1.0268885891556252E+01    7.7990270886434239E+00
Ga    1.6196336743597892E+00    8.4159967449615660E+00    8.4492878902918367E+00
N    1.6159861247104390E+00    8.4181682998028489E+00    1.0439526293752348E+01
Ga    1.5916149642351864E+00    1.0277922267056242E+01    1.1067303196533743E+01
N    1.5746926342737038E+00    1.0287998799084390E+01    1.3061516570525155E+01
Ga    1.6155937344611493E+00    8.4203429106083885E+00    1.3619459708536150E+01
N    1.5845776013377861E+00    8.4058978273060543E+00    1.5582230633784850E+01
Ga    1.7691146954291765E+00    1.0174512273231018E+01    1.6480276907377494E+01
N    3.2225771520690629E+00    9.3421547560746152E+00    1.7621694772849676E+01
N    9.6640296730117399E+00    1.9117605360660170E+00    2.6153277679854883E+00
Ga    9.6632599100319645E+00    1.7275666443972604E-01    3.2915343525217549E+00
N    9.6484776937117882E+00    4.8481168069811065E-02    5.2524359900274105E+00
Ga    9.6596729494458380E+00    1.9113286699082386E+00    5.8671932449006814E+00
N    9.6486048520931469E+00    1.9082147491593944E+00    7.8442776876009086E+00
Ga    9.6501334148235500E+00    4.2086401526062127E-02    8.4321438721868596E+00
N    9.6463705137774163E+00    4.1939124430168256E-02    1.0428102029518794E+01
Ga    9.6463541575797116E+00    1.9118156337520431E+00    1.1020846487977764E+01
N    9.6446428237478461E+00    1.9143669506447205E+00    1.2995559138194210E+01
Ga    9.6441490622372399E+00    4.6220881492377408E-02    1.3618936767775653E+01
N    9.6415105420538332E+00    7.9075616092503576E-02    1.5583765975767909E+01
Ga    9.6430832346669213E+00    1.9185176047651555E+00    1.5863803330996413E+01
N    7.9419286966415470E+00    4.6262059359754693E+00    2.5262396050454083E+00
Ga    8.1565371453930009E+00    2.7755471190226384E+00    3.2987729251608768E+00
N    8.0442605075908276E+00    2.8325213334250621E+00    5.2563433761216105E+00
Ga    8.0641811748427958E+00    4.7075791266494438E+00    5.7915041883903351E+00
N    8.0497024669117163E+00    4.7007575767219532E+00    7.7915018342575690E+00
Ga    8.0305405251741693E+00    2.8432676718333685E+00    8.4272907158638635E+00
N    8.0283375200798890E+00    2.8460889239038143E+00    1.0425091077400850E+01
Ga    8.0524915222106479E+00    4.7045411152308700E+00    1.1062918469332319E+01
N    8.0694537342170278E+00    4.7167394914276448E+00    1.3059915959038381E+01
Ga    8.0256071893981265E+00    2.8482702606867636E+00    1.3617985971166636E+01
N    8.0485783519528606E+00    2.8350687410361655E+00    1.5584838395968916E+01
Ga    7.8814891671219804E+00    4.6133638064639504E+00    1.6480361172303198E+01
N    6.4316593494283412E+00    7.4716160078596294E+00    2.5924534729477693E+00
Ga    6.4238065104678679E+00    5.7308727589892401E+00    3.2801963353876094E+00
N    6.4314607349775308E+00    5.6174110636568155E+00    5.2412131169214797E+00
Ga    6.4324974933634396E+00    7.4749965679399022E+00    5.8622664458855001E+00
N    6.4309886519610755E+00    7.4786421117760700E+00    7.8402184939803696E+00
Ga    6.4324778819568671E+00    5.6115431421316435E+00    8.4344191830830866E+00
N    6.4322610797117434E+00    5.6146884407614115E+00    1.0431413891277787E+01
Ga    6.4318639888350084E+00    7.4832653148311357E+00    1.1022259118194802E+01
N    6.4303124378479843E+00    7.4853454309036298E+00    1.2997724236185020E+01
Ga    6.4286041339695625E+00    5.6146229055922250E+00    1.3615590724697482E+01
N    6.4254637738770768E+00    5.6460215605593911E+00    1.5580792881826547E+01
Ga    6.4283490858117363E+00    7.4840989471747204E+00    1.5864285858230735E+01
N    4.7282645076430683E+00    1.0206125953974654E+01    2.5247581559818482E+00
Ga    4.9285182559803040E+00    8.3434403236404382E+00    3.2843918314530658E+00
N    4.8217152963207353E+00    8.4061302228575823E+00    5.2447320125663719E+00
Ga    4.8550901587701070E+00    1.0276800601851903E+01    5.7945453081418927E+00
N    4.8338170094809945E+00    1.0269410894415145E+01    7.7939637128665327E+00
Ga    4.8166809464705684E+00    8.4152311018494981E+00    8.4381712045801400E+00
N    4.8134974840347775E+00    8.4179241610724720E+00    1.0433804469036630E+01
Ga    4.8371195446477113E+00    1.0276704932764710E+01    1.1065844235093804E+01
N    4.8508283774389191E+00    1.0288654662470345E+01    1.3062310361079787E+01
Ga    4.8099529460067192E+00    8.4199555733460620E+00    1.3618880583892118E+01
N    4.8381166030466876E+00    8.4036341254241531E+00    1.5583890876372305E+01
Ga    4.6618615376232500E+00    1.0179777891888579E+01    1.6479654851381163E+01
O    6.4229714351617551E-01    3.7995541253651171E+00   -4.0022514940812565E-01
H    9.4994559754904440E-03    7.4570141624756845E+00    1.6750308979287325E+00
C    8.1285497481442559E-01    2.4991045447003151E+00   -1.0012293785240707E+00
H    1.7687796723811087E+00    2.0397318173925947E+00   -6.9726266680921711E-01
H    8.0871330880288965E-03    1.8045595785505255E+00   -7.1524008205101319E-01
H    7.9258804649865311E-01    2.6138768353980546E+00   -2.0932037801985510E+00
Ga    3.1897395478641712E+00    5.5999296888467240E+00    2.4394831852446797E+00
O    2.9790245872191945E+00    5.7055044330239673E+00    2.0923749043221321E-01
H    2.3690621698103733E+00    5.0213559165094406E+00   -1.7309523560212978E-01
C    4.1160657564703271E+00    5.9838515760054447E+00   -6.3348511752649583E-01
H    4.0107810527169372E+00    6.9771168822113729E+00   -1.0799229450805836E+00
H    5.0147234954334401E+00    5.9799118196763104E+00   -8.9670209676447640E-04
H    4.2177146573317206E+00    5.2388011257492462E+00   -1.4258701685295860E+00
     &END COORD
     &KIND C
       BASIS_SET DZVP-MOLOPT-SR-GTH-q4
       POTENTIAL GTH-PBE-q4
       &POTENTIAL
 2 2
  0.3384712400000000E+00 2 -0.8803673979999999E+01  0.1339210850000000E+01
 2
  0.3025757500000000E+00 1  0.9622486650000001E+01
  0.2915069400000000E+00 0
         # Potential name:  GTH-PBE-Q4  for symbol:  C
         # Potential read from the potential filename: GTH_POTENTIALS
       &END POTENTIAL
     &END KIND
     &KIND O
       BASIS_SET DZVP-MOLOPT-SR-GTH-q6
       POTENTIAL GTH-PBE-q6
       &POTENTIAL
 2 4
  0.2445543000000000E+00 2 -0.1666721480000000E+02  0.2487311320000000E+01
 2
  0.2209559200000000E+00 1  0.1833745811000000E+02
  0.2113324700000000E+00 0
         # Potential name:  GTH-PBE-Q6  for symbol:  O
         # Potential read from the potential filename: GTH_POTENTIALS
       &END POTENTIAL
     &END KIND
     &KIND H
       BASIS_SET DZVP-MOLOPT-SR-GTH-q1
       POTENTIAL GTH-PBE-q1
       &POTENTIAL
 1
  0.2000000000000000E+00 2 -0.4178900440000000E+01  0.7244633100000000E+00
 0
         # Potential name:  GTH-PBE-Q1  for symbol:  H
         # Potential read from the potential filename: GTH_POTENTIALS
       &END POTENTIAL
     &END KIND
     &KIND N
       BASIS_SET DZVP-MOLOPT-SR-GTH
       POTENTIAL GTH-PBE-q5
       &POTENTIAL
 2 3
  0.2837905100000000E+00 2 -0.1241522559000000E+02  0.1868095920000000E+01
 2
  0.2554050000000000E+00 1  0.1363026257000000E+02
  0.2454945300000000E+00 0
         # Potential name:  GTH-PBE-Q5  for symbol:  N
         # Potential read from the potential filename: GTH_POTENTIALS
       &END POTENTIAL
     &END KIND
     &KIND Ga
       BASIS_SET DZVP-MOLOPT-SR-GTH
       POTENTIAL GTH-PBE-q13
       &POTENTIAL
 2 1 10
  0.4900000000000000E+00 0
 3
  0.4167772300000000E+00 3  0.1047568975000000E+02 -0.4921768140000000E+01  0.8707055900000000E+00
  0.7770178090000000E+01 -0.2248152160000000E+01
  0.1784415450000000E+01
  0.5696265200000000E+00 2  0.1777985340000000E+01  0.1958597600000000E+00
 -0.2317443900000000E+00
  0.2381265000000000E+00 1 -0.1624868022000000E+02
         # Potential name:  GTH-PBE-Q13  for symbol:  GA
         # Potential read from the potential filename: GTH_POTENTIALS
       &END POTENTIAL
     &END KIND
     &TOPOLOGY
       NUMBER_OF_ATOMS  212
       MULTIPLE_UNIT_CELL  1 1 1
     &END TOPOLOGY
   &END SUBSYS
 &END FORCE_EVAL
