 # Version information for this restart file 
 # current date 2019-06-28 22:29:12.995
 # current working dir /scratch/rzk/rzk/GaN-carbene/443-adatoms-both-2x2/05-2DissMethanol/01-Combine0304-0202
 # Program compiled at                              Sun Apr  7 00:48:11 EDT 2019
 # Program compiled on                          beluga2.int.ets1.calculquebec.ca
 # Program compiled for                        Beluga-Linux-x86-64-intel-openmpi
 # Source code revision number                                         svn:18619
 &GLOBAL
   PRINT_LEVEL  MEDIUM
   PROJECT_NAME TEST
   RUN_TYPE  GEO_OPT
 &END GLOBAL
 &MOTION
   &GEO_OPT
     MAX_ITER  500
     STEP_START_VAL  35
   &END GEO_OPT
 &END MOTION
 &FORCE_EVAL
   METHOD  QS
   STRESS_TENSOR  ANALYTICAL
   &DFT
     BASIS_SET_FILE_NAME BASIS_MOLOPT
     POTENTIAL_FILE_NAME GTH_POTENTIALS
     UKS  T
     SURFACE_DIPOLE_CORRECTION  T
     SURF_DIP_DIR  Z
     &SCF
       MAX_SCF  80
       EPS_SCF     5.0000000000000004E-06
       &OT  T
         PRECONDITIONER  FULL_ALL
       &END OT
       &OUTER_SCF  T
         OPTIMIZER  NONE
         EPS_SCF     5.0000000000000004E-06
         MAX_SCF  4
       &END OUTER_SCF
       &PRINT
         &RESTART  OFF
           BACKUP_COPIES  1
           &EACH
             JUST_ENERGY  0
             QS_SCF  0
             MD  20
           &END EACH
         &END RESTART
       &END PRINT
     &END SCF
     &QS
       EPS_DEFAULT     1.0000000000000000E-14
       METHOD  GPW
     &END QS
     &MGRID
       NGRIDS  5
       CUTOFF     1.2000000000000000E+03
     &END MGRID
     &XC
       DENSITY_CUTOFF     1.0000000000000000E-10
       GRADIENT_CUTOFF     1.0000000000000000E-10
       TAU_CUTOFF     1.0000000000000000E-10
       &XC_FUNCTIONAL  NO_SHORTCUT
         &PBE  T
         &END PBE
       &END XC_FUNCTIONAL
       &VDW_POTENTIAL
         POTENTIAL_TYPE  PAIR_POTENTIAL
         &PAIR_POTENTIAL
           R_CUTOFF     1.0000000000000004E+01
           TYPE  DFTD3
           PARAMETER_FILE_NAME dftd3.dat
           REFERENCE_FUNCTIONAL PBE
           EPS_CN     9.9999999999999995E-07
           CALCULATE_C9_TERM  T
           REFERENCE_C9_TERM  T
           LONG_RANGE_CORRECTION  F
           VERBOSE_OUTPUT  F
         &END PAIR_POTENTIAL
       &END VDW_POTENTIAL
     &END XC
   &END DFT
   &SUBSYS
     &CELL
       A     1.2864472766435110E+01    0.0000000000000000E+00    0.0000000000000000E+00
       B    -6.4322363581020028E+00    1.1140960178524473E+01    0.0000000000000000E+00
       C     0.0000000000000000E+00    0.0000000000000000E+00    3.2000000000000000E+01
       MULTIPLE_UNIT_CELL  1 1 1
       &CELL_REF
         A     1.2982353780853531E+01    0.0000000000000000E+00    0.0000000000000000E+00
         B    -6.4911768904267628E+00    1.1243048175136114E+01    0.0000000000000000E+00
         C     0.0000000000000000E+00    0.0000000000000000E+00    3.2000000000000000E+01
         MULTIPLE_UNIT_CELL  1 1 1
       &END CELL_REF
     &END CELL
     &COORD
N    9.6621042050119444E-03    2.0494105953843316E+00    2.4999110030348501E+00
Ga    1.3405019403911554E-02    9.0354613184911892E-02    2.8462655308919111E+00
N   -1.5534750685677740E-03    5.4661215905935229E-02    5.0162528385460909E+00
Ga    1.6993568398374038E-04    1.8857483168461493E+00    5.7934194347907253E+00
N   -2.1701094321312313E-03    1.8981021566212932E+00    7.7947271982769273E+00
Ga    1.3448407232640098E-03    5.3807875511978513E-02    8.4375294327351504E+00
N   -1.2078094589747903E-03    5.5226139375311581E-02    1.0414054783821701E+01
Ga   -1.6376920384040719E-03    1.8953284819544480E+00    1.1063989826468454E+01
N   -3.2980894370257053E-03    1.8785188360796072E+00    1.3058077709088828E+01
Ga   -4.5471761844158793E-03    6.0746135978341866E-02    1.3861385305185836E+01
N   -3.7515636382021624E-03    5.9955078494997704E-02    1.6064078729869543E+01
Ga   -4.5941770053249389E-03    2.1097684578534990E+00    1.6484145946280464E+01
Ga    6.1464129181390027E-02    3.7437916140788361E+00    1.3493935669446626E+00
N   -1.4636158468100029E+00    4.6294890541498877E+00    2.4691749547527628E+00
Ga   -1.6660338511008250E+00    2.7936140805290188E+00    3.2519187356283705E+00
N   -1.6087712325632315E+00    2.8382284138749698E+00    5.2381779038182543E+00
Ga   -1.6377786091628912E+00    4.6990851637273252E+00    5.8056835487443434E+00
N   -1.6197940181536843E+00    4.7005356292092637E+00    7.7996708533632582E+00
Ga   -1.5988236671259382E+00    2.8418836632024189E+00    8.4346770693532012E+00
N   -1.5999848715794422E+00    2.8469245072784566E+00    1.0428326589940117E+01
Ga   -1.6274037441596101E+00    4.7053135844812415E+00    1.1066636587010104E+01
N   -1.6433290426646772E+00    4.7176613043579652E+00    1.3059268777554555E+01
Ga   -1.6002932877424287E+00    2.8492320031350240E+00    1.3616248488774078E+01
N   -1.6301685741000225E+00    2.8342414442966715E+00    1.5576675557918094E+01
Ga   -1.4394768171832215E+00    4.6005543460699299E+00    1.6486232730164986E+01
N    3.2211699349721048E-03    3.7708852701755458E+00    1.7616312966919477E+01
N   -3.2082152129285086E+00    7.5899106980505824E+00    2.4976780807322210E+00
Ga   -3.1840211516852350E+00    5.5998367478761653E+00    2.8335079156882452E+00
N   -3.2106979347597493E+00    5.6158120431998357E+00    5.0108470259648676E+00
Ga   -3.2252375145267491E+00    7.4395440154741781E+00    5.7920749830816947E+00
N   -3.2170749087572497E+00    7.4689183695126697E+00    7.7878016876197460E+00
Ga   -3.2192421361185564E+00    5.6226110610747400E+00    8.4400593620385251E+00
N   -3.2194688775392715E+00    5.6271962818808152E+00    1.0414981050700341E+01
Ga   -3.2212814826817850E+00    7.4658704766243407E+00    1.1066096945041512E+01
N   -3.2195498525270621E+00    7.4482080448889558E+00    1.3062148701268136E+01
Ga   -3.2178627035273650E+00    5.6250047143111166E+00    1.3860501237236102E+01
N   -3.2181071424476828E+00    5.6258539635366640E+00    1.6064910529332401E+01
Ga   -3.2230544885162367E+00    7.6552014604440162E+00    1.6464305291929193E+01
Ga   -3.2436161361460987E+00    9.3527415204982596E+00    1.3801739262558403E+00
N   -4.7226714212781573E+00    1.0202130337779355E+01    2.5099045806698634E+00
Ga   -4.9175668206348035E+00    8.3490345334664546E+00    3.2532918562574542E+00
N   -4.8249836901390868E+00    8.4022172346011015E+00    5.2276520467274805E+00
Ga   -4.8502487850717655E+00    1.0277326299232348E+01    5.7808161056627005E+00
N   -4.8342367457388127E+00    1.0269226871228284E+01    7.7834992857964940E+00
Ga   -4.8172568657705606E+00    8.4152261768022658E+00    8.4279803681402594E+00
N   -4.8153240076781909E+00    8.4181790944780914E+00    1.0424689400317311E+01
Ga   -4.8414939006847311E+00    1.0277060098197808E+01    1.1063633500067464E+01
N   -4.8586371516508589E+00    1.0288476836601880E+01    1.3060479475291613E+01
Ga   -4.8161737710347374E+00    8.4204986165918623E+00    1.3614241429900719E+01
N   -4.8431725090511852E+00    8.4084292379129266E+00    1.5580555674778370E+01
Ga   -4.6798558980397837E+00    1.0186504954182368E+01    1.6463419693705738E+01
N   -3.2160682661491342E+00    9.3417189821548323E+00    1.7600817513976537E+01
N    3.2046100477678432E+00    1.9159504109231777E+00    2.6036299345787133E+00
Ga    3.2106663196808927E+00    1.6141103925403369E-01    3.2592097520240806E+00
N    3.2180417323083499E+00    5.0581976850196601E-02    5.2328301774371671E+00
Ga    3.2133668285354173E+00    1.9104435698721303E+00    5.8624360091883672E+00
N    3.2171280203373898E+00    1.9083360647269982E+00    7.8409263349011518E+00
Ga    3.2122105154535392E+00    4.2874331703814633E-02    8.4280407021114705E+00
N    3.2131236471690579E+00    4.2056905627326800E-02    1.0424626589561818E+01
Ga    3.2140258005050910E+00    1.9114594310630728E+00    1.1020379023626178E+01
N    3.2135660366676144E+00    1.9132590431381011E+00    1.2994484582091403E+01
Ga    3.2124583603229291E+00    4.5756513004588648E-02    1.3612840538617782E+01
N    3.2105764357930497E+00    7.4512427794231395E-02    1.5579544265749645E+01
Ga    3.2137721781104212E+00    1.9169388912665226E+00    1.5857610681883441E+01
N    1.4828023640833319E+00    4.6337563792061696E+00    2.5224475270948026E+00
Ga    1.6881874839765187E+00    2.7977740490677467E+00    3.2870983173817940E+00
N    1.6095343242820803E+00    2.8399298942591060E+00    5.2568712154513131E+00
Ga    1.6576092034398431E+00    4.7137273490934337E+00    5.8090453904051209E+00
N    1.6106812749129613E+00    4.6996563009401369E+00    7.8128061769317947E+00
Ga    1.5974631217053603E+00    2.8417743711201604E+00    8.4321523924467172E+00
N    1.5958821866402668E+00    2.8450503331540209E+00    1.0429054885634798E+01
Ga    1.6218415801062411E+00    4.7047277159494625E+00    1.1065111858902210E+01
N    1.6360866058555197E+00    4.7176991521814218E+00    1.3059901194326720E+01
Ga    1.5935987056511602E+00    2.8490047327743837E+00    1.3616800088658334E+01
N    1.6225151695759303E+00    2.8315349144004709E+00    1.5578804296265963E+01
Ga    1.4384593209562577E+00    4.6055781587362556E+00    1.6484022030444915E+01
N    1.1899847705773262E-04    7.4681042649030722E+00    2.7023146671391585E+00
Ga    7.4248152184665682E-03    5.6107857286608738E+00    3.3387248183732918E+00
N   -2.0262501536869155E-03    5.6341728551963595E+00    5.2684915698876624E+00
Ga   -2.4173623806620298E-03    7.4723404723979527E+00    5.9090790670121400E+00
N   -2.3817072639859193E-03    7.4813676124304545E+00    7.8657336511124667E+00
Ga   -2.2458369854007456E-03    5.6068366168215107E+00    8.4476034345202251E+00
N   -4.3378166199472632E-03    5.6142390370604058E+00    1.0437316761445379E+01
Ga   -4.6853762065121891E-03    7.4832606856908335E+00    1.1028125589004492E+01
N   -4.7038745927882744E-03    7.4862560904271342E+00    1.2999498415995927E+01
Ga   -3.8893397737066707E-03    5.6143105378112503E+00    1.3617417183590591E+01
N   -6.3800302428254092E-03    5.6497574399785400E+00    1.5577992619293354E+01
Ga   -2.2843964722175690E-03    7.4850609478354437E+00    1.5859376344253889E+01
N   -1.7046116862809768E+00    1.0196685469992243E+01    2.5088792737148120E+00
Ga   -1.6037112216136324E+00    8.3959759777253407E+00    3.3165917508030569E+00
N   -1.5972264648456069E+00    8.3982041377421819E+00    5.2484478395942435E+00
Ga   -1.5869418262589763E+00    1.0284315724501695E+01    5.7992912025068808E+00
N   -1.6002128379932041E+00    1.0268298515554594E+01    7.7920624911538381E+00
Ga   -1.6246881741538342E+00    8.4155275452803124E+00    8.4418018208645229E+00
N   -1.6236160672272200E+00    8.4180329583228328E+00    1.0432079739796382E+01
Ga   -1.5977906584029304E+00    1.0278491766704786E+01    1.1064939873143338E+01
N   -1.5799273833423171E+00    1.0288457171486538E+01    1.3061077042134849E+01
Ga   -1.6233638195480316E+00    8.4201763114499073E+00    1.3616499227341931E+01
N   -1.5995308798411259E+00    8.4078840089906617E+00    1.5585869650649954E+01
Ga   -1.7608597195502338E+00    1.0189466890538185E+01    1.6464480164071816E+01
N    6.4366620704958599E+00    2.0246529995240388E+00    2.5345870747406143E+00
Ga    6.4274056603395566E+00    5.2325215483147280E-02    2.8791514650262613E+00
N    6.4343596831122110E+00    4.8647426980983538E-02    5.0250791873588989E+00
Ga    6.4288852572875008E+00    1.8855676178050673E+00    5.7942765220707511E+00
N    6.4308173002988767E+00    1.8975620716649129E+00    7.7913200440652846E+00
Ga    6.4291301767473836E+00    5.4843369674688718E-02    8.4419854107916734E+00
N    6.4286470308756156E+00    5.5745693841132107E-02    1.0415924951964023E+01
Ga    6.4298373104450963E+00    1.8972260944011012E+00    1.1062719657223505E+01
N    6.4298299915585337E+00    1.8783679241073568E+00    1.3057977600292325E+01
Ga    6.4306606863893849E+00    5.9022037306666005E-02    1.3857787966073865E+01
N    6.4313775200426075E+00    5.9641226368419079E-02    1.6064622160454338E+01
Ga    6.4255290263278315E+00    2.0963986264298580E+00    1.6473945615572386E+01
Ga    6.4653761953568090E+00    3.7320475153247066E+00    1.4952089181065928E+00
N    4.9392397044636143E+00    4.6268217180495128E+00    2.4637370712035405E+00
Ga    4.7100610748740070E+00    2.7911356309725304E+00    3.2793612760551873E+00
N    4.8241136545524705E+00    2.8399766800858166E+00    5.2395639944985426E+00
Ga    4.7844826014391959E+00    4.7172453187235543E+00    5.7995709632854231E+00
N    4.8205539100555619E+00    4.6973245288085215E+00    7.8053134188385132E+00
Ga    4.8329522806852712E+00    2.8432572711557014E+00    8.4331573623155140E+00
N    4.8327753606915724E+00    2.8458949098790529E+00    1.0428621926243363E+01
Ga    4.8075246411224715E+00    4.7063982616447504E+00    1.1062865863486380E+01
N    4.7898918950622393E+00    4.7181494087018976E+00    1.3059181505588919E+01
Ga    4.8321898768466349E+00    2.8495755214917526E+00    1.3612415439141886E+01
N    4.8069963552157091E+00    2.8368247631013577E+00    1.5576891508788760E+01
Ga    4.9743924725765014E+00    4.6119865874881363E+00    1.6472617348609724E+01
N    6.4306209630012070E+00    3.7724184814788599E+00    1.7619440824660114E+01
N    3.2171936241989800E+00    7.6133209486537909E+00    2.4969762414900698E+00
N    3.2188826422597114E+00    5.6267929748426315E+00    5.0875212893197208E+00
Ga    3.2248201439977455E+00    7.4237170682576572E+00    5.8194956315483903E+00
N    3.2138570149866412E+00    7.4786125530181167E+00    7.8163641381229230E+00
Ga    3.2167757113518958E+00    5.6220826477630998E+00    8.4410848099143898E+00
N    3.2143541727778202E+00    5.6267098774143207E+00    1.0418642561162310E+01
Ga    3.2157283924695341E+00    7.4651150208197601E+00    1.1068199131970985E+01
N    3.2132057742447513E+00    7.4486820950744557E+00    1.3062308109988466E+01
Ga    3.2115698323695963E+00    5.6272566218357793E+00    1.3863091152800905E+01
N    3.2132198472224132E+00    5.6278347191281117E+00    1.6063830591211822E+01
Ga    3.2116024272435992E+00    7.6673612320027535E+00    1.6477136894243888E+01
Ga    3.2459689961517739E+00    9.3699543758384660E+00    1.4834975624529496E+00
N    1.7133540475734814E+00    1.0191543428950562E+01    2.5284309473509334E+00
Ga    1.5938293313230714E+00    8.3778986326886873E+00    3.3418108670892996E+00
N    1.5982405460110876E+00    8.3984879411959596E+00    5.2635892582884836E+00
Ga    1.5829732646099424E+00    1.0282815891182068E+01    5.8129171921248819E+00
N    1.5965822654959840E+00    1.0269344530484933E+01    7.8016082342315727E+00
Ga    1.6185284137919287E+00    8.4167349383284531E+00    8.4532358335546629E+00
N    1.6150178347764741E+00    8.4189224878757773E+00    1.0439945174873243E+01
Ga    1.5904484287197220E+00    1.0279625759067148E+01    1.1068302250004066E+01
N    1.5731858419761000E+00    1.0289649948794006E+01    1.3060622020887660E+01
Ga    1.6163301350274681E+00    8.4209236643295338E+00    1.3616995676457709E+01
N    1.5876204271716017E+00    8.4084454792482681E+00    1.5580223766997397E+01
Ga    1.7693890023734058E+00    1.0177506475398385E+01    1.6479530650604008E+01
N    3.2180346693522668E+00    9.3393024116676280E+00    1.7613500601317686E+01
N    9.6632454711581310E+00    1.9096243384717111E+00    2.6121943820816678E+00
Ga    9.6614056041621676E+00    1.7410994408200289E-01    3.2972154060924823E+00
N    9.6470946384853669E+00    4.8062626958591828E-02    5.2555393581882193E+00
Ga    9.6583193123460926E+00    1.9120309905290671E+00    5.8699201738171505E+00
N    9.6476875679388172E+00    1.9091686238731642E+00    7.8450803460469265E+00
Ga    9.6492992149893873E+00    4.3305700814346135E-02    8.4361561955821820E+00
N    9.6458912796616154E+00    4.3147250346260546E-02    1.0428912461271441E+01
Ga    9.6452254260811348E+00    1.9135018318967800E+00    1.1020826041950485E+01
N    9.6443263004524109E+00    1.9149366894292619E+00    1.2993632531139379E+01
Ga    9.6452804386286140E+00    4.6121262498536326E-02    1.3616359064362781E+01
N    9.6427952452568686E+00    7.7144353703030744E-02    1.5579311006669021E+01
Ga    9.6443096522176788E+00    1.9160692272949258E+00    1.5859144189421903E+01
N    7.9417179015116668E+00    4.6255324033473144E+00    2.5192159530481648E+00
Ga    8.1564057027424699E+00    2.7753059511617955E+00    3.2954831050604878E+00
N    8.0440015933336362E+00    2.8327258550454371E+00    5.2517025530990322E+00
Ga    8.0639096406836099E+00    4.7081001936683213E+00    5.7875091712481979E+00
N    8.0494241748439812E+00    4.7016362492537835E+00    7.7874754768592247E+00
Ga    8.0293296423227005E+00    2.8447587880422058E+00    8.4271881120492473E+00
N    8.0269591361770480E+00    2.8476375956624018E+00    1.0423670168653697E+01
Ga    8.0521955610627138E+00    4.7059829947716842E+00    1.1063605625940038E+01
N    8.0690190513104429E+00    4.7174527231907994E+00    1.3058951384345713E+01
Ga    8.0260349513996623E+00    2.8495525525256542E+00    1.3616016870845947E+01
N    8.0483513971597596E+00    2.8362637400427371E+00    1.5582897550965153E+01
Ga    7.8807160409437520E+00    4.6144071833710285E+00    1.6474137072134734E+01
N    6.4268344094443570E+00    7.4718776670883349E+00    2.5874387367524756E+00
Ga    6.4239532799696555E+00    5.7301099015306507E+00    3.2745248174637638E+00
N    6.4312507229663733E+00    5.6188821858163998E+00    5.2351803950351146E+00
Ga    6.4328232884268290E+00    7.4749001153581549E+00    5.8635531340298392E+00
N    6.4313488050379508E+00    7.4793941664040551E+00    7.8397104774980519E+00
Ga    6.4327607517079919E+00    5.6116281751645065E+00    8.4336353942662967E+00
N    6.4316735132123890E+00    5.6152076309278058E+00    1.0429261734356853E+01
Ga    6.4320784401463422E+00    7.4834036169698672E+00    1.1023503702241808E+01
N    6.4304748372245415E+00    7.4859329512309420E+00    1.2997585951537353E+01
Ga    6.4292446589986803E+00    5.6150040097877785E+00    1.3613604615507514E+01
N    6.4270716174014382E+00    5.6453571523758468E+00    1.5577740603904772E+01
Ga    6.4275669697260334E+00    7.4843205835008648E+00    1.5858168776080644E+01
N    4.7269694409098211E+00    1.0205674471900084E+01    2.5298645012657213E+00
Ga    4.9290600699596210E+00    8.3434410536024401E+00    3.2924514712982353E+00
N    4.8206905692553876E+00    8.4072765470010093E+00    5.2494790721756202E+00
Ga    4.8544331787252766E+00    1.0278514631060393E+01    5.8004640856757232E+00
N    4.8335101980347321E+00    1.0270981337017307E+01    7.7964481325877948E+00
Ga    4.8166883010603554E+00    8.4161385661344603E+00    8.4403242735191455E+00
N    4.8137153064906029E+00    8.4184710761105723E+00    1.0433429359738762E+01
Ga    4.8382279667350652E+00    1.0278348259116536E+01    1.1066351120598945E+01
N    4.8526697635833944E+00    1.0289568133170830E+01    1.3060351316809543E+01
Ga    4.8097805988756113E+00    8.4210595142273110E+00    1.3617397780014496E+01
N    4.8374387800752388E+00    8.4061337193893362E+00    1.5581952648896495E+01
Ga    4.6615622084041224E+00    1.0181861756996435E+01    1.6477703575176037E+01
O    6.1666053297377832E-01    3.7980723475821967E+00   -4.1381949336722507E-01
H    6.9936482925182586E-03    7.4571982137887955E+00    1.6768807852508532E+00
C    8.0687593730665141E-01    2.4920574345742414E+00   -1.0028769109148903E+00
H    1.7738599826760117E+00    2.0519365859639294E+00   -7.0078064066431578E-01
H    1.1784130682677930E-02    1.7839604142015484E+00   -7.1130655260572484E-01
H    7.8069277184521868E-01    2.6008629599027326E+00   -2.0956064174658788E+00
Ga    3.1895155660674277E+00    5.6029208478864572E+00    2.4587492326363121E+00
O    2.9812279276829310E+00    5.7308716631684655E+00    2.2086120655479477E-01
H    2.3835395002316790E+00    5.0402989040166233E+00   -1.6269615865724912E-01
C    4.1452509127041450E+00    5.9825256152852297E+00   -6.0403421699225879E-01
H    4.0810069343195616E+00    6.9883286631663886E+00   -1.0502059308312341E+00
H    5.0395445410479427E+00    5.9496603399572239E+00    3.3725874272988926E-02
H    4.2373379410078211E+00    5.2365374124733135E+00   -1.4024173381970242E+00
     &END COORD
     &KIND C
       BASIS_SET DZVP-MOLOPT-SR-GTH-q4
       POTENTIAL GTH-PBE-q4
       &POTENTIAL
 2 2
  0.3384712400000000E+00 2 -0.8803673979999999E+01  0.1339210850000000E+01
 2
  0.3025757500000000E+00 1  0.9622486650000001E+01
  0.2915069400000000E+00 0
         # Potential name:  GTH-PBE-Q4  for symbol:  C
         # Potential read from the potential filename: GTH_POTENTIALS
       &END POTENTIAL
     &END KIND
     &KIND O
       BASIS_SET DZVP-MOLOPT-SR-GTH-q6
       POTENTIAL GTH-PBE-q6
       &POTENTIAL
 2 4
  0.2445543000000000E+00 2 -0.1666721480000000E+02  0.2487311320000000E+01
 2
  0.2209559200000000E+00 1  0.1833745811000000E+02
  0.2113324700000000E+00 0
         # Potential name:  GTH-PBE-Q6  for symbol:  O
         # Potential read from the potential filename: GTH_POTENTIALS
       &END POTENTIAL
     &END KIND
     &KIND H
       BASIS_SET DZVP-MOLOPT-SR-GTH-q1
       POTENTIAL GTH-PBE-q1
       &POTENTIAL
 1
  0.2000000000000000E+00 2 -0.4178900440000000E+01  0.7244633100000000E+00
 0
         # Potential name:  GTH-PBE-Q1  for symbol:  H
         # Potential read from the potential filename: GTH_POTENTIALS
       &END POTENTIAL
     &END KIND
     &KIND N
       BASIS_SET DZVP-MOLOPT-SR-GTH
       POTENTIAL GTH-PBE-q5
       &POTENTIAL
 2 3
  0.2837905100000000E+00 2 -0.1241522559000000E+02  0.1868095920000000E+01
 2
  0.2554050000000000E+00 1  0.1363026257000000E+02
  0.2454945300000000E+00 0
         # Potential name:  GTH-PBE-Q5  for symbol:  N
         # Potential read from the potential filename: GTH_POTENTIALS
       &END POTENTIAL
     &END KIND
     &KIND Ga
       BASIS_SET DZVP-MOLOPT-SR-GTH
       POTENTIAL GTH-PBE-q13
       &POTENTIAL
 2 1 10
  0.4900000000000000E+00 0
 3
  0.4167772300000000E+00 3  0.1047568975000000E+02 -0.4921768140000000E+01  0.8707055900000000E+00
  0.7770178090000000E+01 -0.2248152160000000E+01
  0.1784415450000000E+01
  0.5696265200000000E+00 2  0.1777985340000000E+01  0.1958597600000000E+00
 -0.2317443900000000E+00
  0.2381265000000000E+00 1 -0.1624868022000000E+02
         # Potential name:  GTH-PBE-Q13  for symbol:  GA
         # Potential read from the potential filename: GTH_POTENTIALS
       &END POTENTIAL
     &END KIND
     &TOPOLOGY
       NUMBER_OF_ATOMS  212
       MULTIPLE_UNIT_CELL  1 1 1
     &END TOPOLOGY
   &END SUBSYS
 &END FORCE_EVAL
