 # Version information for this restart file 
 # current date 2019-06-28 21:14:40.617
 # current working dir /scratch/rzk/rzk/GaN-carbene/443-adatoms-both-2x2/05-2DissMethanol/01-Combine0304-0202
 # Program compiled at                              Sun Apr  7 00:48:11 EDT 2019
 # Program compiled on                          beluga2.int.ets1.calculquebec.ca
 # Program compiled for                        Beluga-Linux-x86-64-intel-openmpi
 # Source code revision number                                         svn:18619
 &GLOBAL
   PRINT_LEVEL  MEDIUM
   PROJECT_NAME TEST
   RUN_TYPE  GEO_OPT
 &END GLOBAL
 &MOTION
   &GEO_OPT
     MAX_ITER  500
     STEP_START_VAL  29
   &END GEO_OPT
 &END MOTION
 &FORCE_EVAL
   METHOD  QS
   STRESS_TENSOR  ANALYTICAL
   &DFT
     BASIS_SET_FILE_NAME BASIS_MOLOPT
     POTENTIAL_FILE_NAME GTH_POTENTIALS
     UKS  T
     SURFACE_DIPOLE_CORRECTION  T
     SURF_DIP_DIR  Z
     &SCF
       MAX_SCF  80
       EPS_SCF     5.0000000000000004E-06
       &OT  T
         PRECONDITIONER  FULL_ALL
       &END OT
       &OUTER_SCF  T
         OPTIMIZER  NONE
         EPS_SCF     5.0000000000000004E-06
         MAX_SCF  4
       &END OUTER_SCF
       &PRINT
         &RESTART  OFF
           BACKUP_COPIES  1
           &EACH
             JUST_ENERGY  0
             QS_SCF  0
             MD  20
           &END EACH
         &END RESTART
       &END PRINT
     &END SCF
     &QS
       EPS_DEFAULT     1.0000000000000000E-14
       METHOD  GPW
     &END QS
     &MGRID
       NGRIDS  5
       CUTOFF     1.2000000000000000E+03
     &END MGRID
     &XC
       DENSITY_CUTOFF     1.0000000000000000E-10
       GRADIENT_CUTOFF     1.0000000000000000E-10
       TAU_CUTOFF     1.0000000000000000E-10
       &XC_FUNCTIONAL  NO_SHORTCUT
         &PBE  T
         &END PBE
       &END XC_FUNCTIONAL
       &VDW_POTENTIAL
         POTENTIAL_TYPE  PAIR_POTENTIAL
         &PAIR_POTENTIAL
           R_CUTOFF     1.0000000000000004E+01
           TYPE  DFTD3
           PARAMETER_FILE_NAME dftd3.dat
           REFERENCE_FUNCTIONAL PBE
           EPS_CN     9.9999999999999995E-07
           CALCULATE_C9_TERM  T
           REFERENCE_C9_TERM  T
           LONG_RANGE_CORRECTION  F
           VERBOSE_OUTPUT  F
         &END PAIR_POTENTIAL
       &END VDW_POTENTIAL
     &END XC
   &END DFT
   &SUBSYS
     &CELL
       A     1.2864472766435110E+01    0.0000000000000000E+00    0.0000000000000000E+00
       B    -6.4322363581020028E+00    1.1140960178524473E+01    0.0000000000000000E+00
       C     0.0000000000000000E+00    0.0000000000000000E+00    3.2000000000000000E+01
       MULTIPLE_UNIT_CELL  1 1 1
       &CELL_REF
         A     1.2982353780853531E+01    0.0000000000000000E+00    0.0000000000000000E+00
         B    -6.4911768904267628E+00    1.1243048175136114E+01    0.0000000000000000E+00
         C     0.0000000000000000E+00    0.0000000000000000E+00    3.2000000000000000E+01
         MULTIPLE_UNIT_CELL  1 1 1
       &END CELL_REF
     &END CELL
     &COORD
N    8.5990275768621331E-03    2.0481845705228117E+00    2.4968658111674675E+00
Ga    9.2831776349186716E-03    9.2822660129033147E-02    2.8498407804127313E+00
N   -2.6845091247497035E-03    5.4227071905539846E-02    5.0116872848973122E+00
Ga   -1.6532081681581675E-03    1.8863184704740581E+00    5.7954613321134856E+00
N   -3.8618305852907947E-03    1.9009954935137494E+00    7.7908771498157776E+00
Ga    6.3872328062914850E-04    5.7823325561773040E-02    8.4406936363100584E+00
N   -1.7066699447741494E-03    5.8801356126906734E-02    1.0410859273904876E+01
Ga   -2.4680089475608616E-03    1.8986461034178856E+00    1.1065960356376204E+01
N   -2.5475005464882794E-03    1.8796621842613623E+00    1.3054214928461210E+01
Ga   -2.2947698131407547E-03    6.0797520606395823E-02    1.3867226898913593E+01
N    2.0324965623614801E-04    6.0132089881952969E-02    1.6055779523838449E+01
Ga   -1.9071032387480813E-03    2.1147873557065680E+00    1.6479412935894384E+01
Ga    6.3194750652082021E-02    3.7490174464666328E+00    1.3498948798017134E+00
N   -1.4645926715268982E+00    4.6275577761782882E+00    2.4684580005526855E+00
Ga   -1.6669801105951940E+00    2.7905107777398301E+00    3.2496075503465480E+00
N   -1.6105287742401515E+00    2.8372483584274848E+00    5.2337062621473303E+00
Ga   -1.6416379377072794E+00    4.6975158523414695E+00    5.8086557598089534E+00
N   -1.6220348046267199E+00    4.7023847435248944E+00    7.7976259689384646E+00
Ga   -1.6008874173157994E+00    2.8446138253858426E+00    8.4374470598211957E+00
N   -1.6015633650011245E+00    2.8499878867286430E+00    1.0426289672903469E+01
Ga   -1.6294722041033094E+00    4.7084525822736216E+00    1.1069824434040207E+01
N   -1.6446816895000513E+00    4.7210326375796008E+00    1.3056962064841084E+01
Ga   -1.6001834173971790E+00    2.8510795201047694E+00    1.3613118779394156E+01
N   -1.6327660992145054E+00    2.8309318200387699E+00    1.5567200527287790E+01
Ga   -1.4366244849126157E+00    4.6012200745454521E+00    1.6480269841551344E+01
N   -7.1679914174591353E-03    3.7689048227745685E+00    1.7611170483163562E+01
N   -3.2090358672403769E+00    7.5884988778046472E+00    2.4991872152444032E+00
Ga   -3.1858097410152366E+00    5.5930013947716306E+00    2.8300095686689883E+00
N   -3.2104684258891965E+00    5.6171714326444109E+00    5.0039034620222669E+00
Ga   -3.2269587565878015E+00    7.4374567443238409E+00    5.7984611580046534E+00
N   -3.2188303466478136E+00    7.4715034197514187E+00    7.7881339416958486E+00
Ga   -3.2212003705108487E+00    5.6243089549573542E+00    8.4430481105720929E+00
N   -3.2213890117563149E+00    5.6297887197719509E+00    1.0412317071748593E+01
Ga   -3.2231617505186732E+00    7.4675826924746884E+00    1.1071824544742860E+01
N   -3.2202798895241904E+00    7.4499834252028903E+00    1.3058276241175637E+01
Ga   -3.2191674507372947E+00    5.6297642923091642E+00    1.3871619644219889E+01
N   -3.2169889601184956E+00    5.6313103254439971E+00    1.6056969428376679E+01
Ga   -3.2185340946349026E+00    7.6822113027336041E+00    1.6477397011962598E+01
Ga   -3.2392960334811818E+00    9.3522587122445628E+00    1.4119347067059416E+00
N   -4.7201471366512848E+00    1.0199497666350204E+01    2.5108501828357541E+00
Ga   -4.9260627667522243E+00    8.3424312565375001E+00    3.2554056060906582E+00
N   -4.8244300980126953E+00    8.4035584793605569E+00    5.2264338393118948E+00
Ga   -4.8513638400206185E+00    1.0278402237515158E+01    5.7861712261632592E+00
N   -4.8347184624549415E+00    1.0272328007278567E+01    7.7819268840918081E+00
Ga   -4.8190609956917481E+00    8.4172476450114910E+00    8.4337540975686327E+00
N   -4.8173372400195706E+00    8.4210095749504159E+00    1.0423295731397184E+01
Ga   -4.8428363737226805E+00    1.0280467761892382E+01    1.1068300673759174E+01
N   -4.8586521880425799E+00    1.0290874726513897E+01    1.3056096710129701E+01
Ga   -4.8171558146757203E+00    8.4220354926757075E+00    1.3615403280685490E+01
N   -4.8497996648957322E+00    8.4022865708293057E+00    1.5569639798115038E+01
Ga   -4.6583793601687260E+00    1.0175446128382031E+01    1.6476087020594711E+01
N   -3.2258467176125207E+00    9.3406197917201883E+00    1.7605587171586347E+01
N    3.2030085840923745E+00    1.9149139763805696E+00    2.5889668096084448E+00
Ga    3.2123250921272199E+00    1.6985930019120210E-01    3.2653607733682826E+00
N    3.2193331718173779E+00    4.9656641422898301E-02    5.2335833227090820E+00
Ga    3.2142861395944911E+00    1.9123554158997875E+00    5.8628492577714670E+00
N    3.2166034342376317E+00    1.9114748830379700E+00    7.8364403904725135E+00
Ga    3.2120375312889053E+00    4.6396431645053610E-02    8.4329708048826522E+00
N    3.2116380890608771E+00    4.5331412616151187E-02    1.0421890651208679E+01
Ga    3.2121079168702416E+00    1.9157940531110054E+00    1.1020025548476580E+01
N    3.2151134112198041E+00    1.9176230526126483E+00    1.2985470492880344E+01
Ga    3.2129459967867100E+00    4.9843212670455377E-02    1.3614057217394505E+01
N    3.2165353292839876E+00    8.4388487606140553E-02    1.5568607615157671E+01
Ga    3.2171274050948004E+00    1.9190389605330844E+00    1.5853112597814391E+01
N    1.4741113783653268E+00    4.6319354184489292E+00    2.5281660630009233E+00
Ga    1.6864839617244589E+00    2.7928917000556153E+00    3.2862452251776930E+00
N    1.6086711460303618E+00    2.8380596906745708E+00    5.2528806909108638E+00
Ga    1.6602144439858479E+00    4.7135087918144851E+00    5.8048082727428776E+00
N    1.6117322017315063E+00    4.7025883260377954E+00    7.8030898132308701E+00
Ga    1.5962431149543137E+00    2.8456142223304326E+00    8.4309655874115297E+00
N    1.5939187180897114E+00    2.8490994148613962E+00    1.0421918635366200E+01
Ga    1.6207776570467585E+00    4.7078296708456593E+00    1.1063985631092130E+01
N    1.6369539377139477E+00    4.7204031951123939E+00    1.3052628555176247E+01
Ga    1.5954485211949350E+00    2.8507150604663254E+00    1.3611882376761947E+01
N    1.6281963773249486E+00    2.8344142862524042E+00    1.5566051953520171E+01
Ga    1.4266716903343379E+00    4.5976047086546599E+00    1.6482214579827509E+01
N   -4.4295535914637071E-03    7.4611977931184743E+00    2.7058882518165115E+00
Ga    3.4643306900502462E-04    5.6055593025459496E+00    3.3496172697745474E+00
N   -4.2451126704069874E-03    5.6329895668735848E+00    5.2744329825238871E+00
Ga   -1.3149703528121941E-03    7.4713427785133062E+00    5.9164294364217174E+00
N   -3.0029768926513314E-03    7.4837111763794146E+00    7.8678893241174013E+00
Ga   -2.9456820673609790E-03    5.6078879263578516E+00    8.4481060057784152E+00
N   -5.6194862154637995E-03    5.6159035419922247E+00    1.0431973768207850E+01
Ga   -6.9913295974425816E-03    7.4853455329822234E+00    1.1028151639279065E+01
N   -3.4248490319233292E-03    7.4890345224077395E+00    1.2990666524668439E+01
Ga   -3.3782164047222916E-03    5.6179762590824653E+00    1.3613084968796560E+01
N    3.9014432711993730E-04    5.6538282730460017E+00    1.5566888358662172E+01
Ga    2.3302376530493479E-03    7.4883080550709042E+00    1.5850543642274996E+01
N   -1.7044632846220151E+00    1.0191482113212761E+01    2.5127671225040316E+00
Ga   -1.6005098434811849E+00    8.3881060469980273E+00    3.3295162847446247E+00
N   -1.5981421244156546E+00    8.3984476769971526E+00    5.2561267271726688E+00
Ga   -1.5845157443410953E+00    1.0285920875767983E+01    5.8053293872180731E+00
N   -1.6004137861570733E+00    1.0271576283599783E+01    7.7925421111058002E+00
Ga   -1.6263382606292887E+00    8.4180852923394713E+00    8.4483993660946641E+00
N   -1.6263119234240846E+00    8.4215571231830708E+00    1.0430927085598992E+01
Ga   -1.5987691667302031E+00    1.0282547089236942E+01    1.1069420585629592E+01
N   -1.5795871397001213E+00    1.0291921797717494E+01    1.3056327627845482E+01
Ga   -1.6229686990585401E+00    8.4227393945590538E+00    1.3615706031257066E+01
N   -1.5876467382060628E+00    8.4057146438100983E+00    1.5570139080709335E+01
Ga   -1.7870069988390429E+00    1.0170464572649445E+01    1.6479583078276082E+01
N    6.4385499183694046E+00    2.0203038677790728E+00    2.5283643657035109E+00
Ga    6.4319539792965115E+00    5.1600768180727841E-02    2.8783910321556707E+00
N    6.4358139663090217E+00    4.6292198313580044E-02    5.0184561872811049E+00
Ga    6.4287006442040209E+00    1.8861148442855680E+00    5.7903788388639494E+00
N    6.4295925465089416E+00    1.9005596817583950E+00    7.7839375756353526E+00
Ga    6.4287686798967121E+00    5.9150983763989917E-02    8.4450752988218447E+00
N    6.4271396159151539E+00    6.0091589048342671E-02    1.0412762767723624E+01
Ga    6.4280659389981833E+00    1.9009525083045151E+00    1.1065851730497140E+01
N    6.4291547060357832E+00    1.8810374084149573E+00    1.3055354453440927E+01
Ga    6.4283947645992541E+00    6.0787605190899464E-02    1.3865318658464874E+01
N    6.4272686234121883E+00    5.8326716133589168E-02    1.6058574267336628E+01
Ga    6.4292705245710788E+00    2.0947466184084580E+00    1.6470671092172633E+01
Ga    6.4699231614438357E+00    3.7238426011955141E+00    1.4862266929032628E+00
N    4.9447954629544748E+00    4.6192649505527665E+00    2.4562204153313751E+00
Ga    4.7091805889326421E+00    2.7874146458928397E+00    3.2711357888714057E+00
N    4.8238734110452945E+00    2.8398341741830970E+00    5.2304900913227366E+00
Ga    4.7817966641740348E+00    4.7193425292680464E+00    5.7889834769805786E+00
N    4.8184692887420688E+00    4.7011655677160338E+00    7.7924576445577580E+00
Ga    4.8325383523199879E+00    2.8472624784799105E+00    8.4317290623222423E+00
N    4.8321175744354923E+00    2.8497614344764957E+00    1.0421834844053320E+01
Ga    4.8062806812630630E+00    4.7091907503808548E+00    1.1063148619649544E+01
N    4.7893681399692589E+00    4.7204500614651899E+00    1.3054173835656385E+01
Ga    4.8320445169309707E+00    2.8521087646367396E+00    1.3612955216564639E+01
N    4.8109188567051886E+00    2.8384093879055170E+00    1.5573717068936304E+01
Ga    4.9737826492220636E+00    4.6132010347670978E+00    1.6469918392159723E+01
N    6.4239107538817031E+00    3.7712344381440519E+00    1.7613669697438876E+01
N    3.2147307023010461E+00    7.6103691176658863E+00    2.5012210969035364E+00
N    3.2174559474557651E+00    5.6286794354372107E+00    5.0614743180560948E+00
Ga    3.2214486054072009E+00    7.4208359739158993E+00    5.8187293419703421E+00
N    3.2117476007516212E+00    7.4791167500369191E+00    7.8093406226515025E+00
Ga    3.2157333253540465E+00    5.6236500566039869E+00    8.4401364858003891E+00
N    3.2133242545648031E+00    5.6292570588717439E+00    1.0411662558824535E+01
Ga    3.2147112103225348E+00    7.4675226668360661E+00    1.1067095504287089E+01
N    3.2134413836246134E+00    7.4505460207735963E+00    1.3055096602286053E+01
Ga    3.2119039182226161E+00    5.6292375804972394E+00    1.3861482245722058E+01
N    3.2108424479294211E+00    5.6281802393442435E+00    1.6058072159686368E+01
Ga    3.2136255164148708E+00    7.6642944927346219E+00    1.6468698660627417E+01
Ga    3.2488324919298681E+00    9.3669631046424229E+00    1.4963681277763496E+00
N    1.7120510813407499E+00    1.0187559248849080E+01    2.5267098293993868E+00
Ga    1.5880338725177607E+00    8.3745812238148485E+00    3.3407471910753395E+00
N    1.5958746099239483E+00    8.3972587261511435E+00    5.2607318632181501E+00
Ga    1.5821987892555751E+00    1.0280831631433793E+01    5.8167813275865701E+00
N    1.5951727424888444E+00    1.0270823998983891E+01    7.7998593064161330E+00
Ga    1.6175901259530328E+00    8.4190767012792715E+00    8.4580242609284486E+00
N    1.6140210644626198E+00    8.4227927909479092E+00    1.0437096389121706E+01
Ga    1.5884937798569732E+00    1.0284148474551117E+01    1.1070885058071521E+01
N    1.5726670975120569E+00    1.0292800145432786E+01    1.3057451504331144E+01
Ga    1.6167153985731588E+00    8.4227846460198332E+00    1.3612287461673487E+01
N    1.5950623422834063E+00    8.4090706343215409E+00    1.5571784230958283E+01
Ga    1.7624853974825450E+00    1.0181395030248888E+01    1.6469154753042236E+01
N    3.2104075069633660E+00    9.3396044355789858E+00    1.7609924418783159E+01
N    9.6635336080106455E+00    1.9047048121128205E+00    2.6039713193179326E+00
Ga    9.6571436846896486E+00    1.7296774707769758E-01    3.3006104609644908E+00
N    9.6448950358533594E+00    4.7769354393284738E-02    5.2546559170490070E+00
Ga    9.6564704443334044E+00    1.9135018594594491E+00    5.8707694425766208E+00
N    9.6452039503391429E+00    1.9123812848962314E+00    7.8424589663437390E+00
Ga    9.6470961226008338E+00    4.7153932267464414E-02    8.4393972192345199E+00
N    9.6445142167118938E+00    4.6457809790035415E-02    1.0425985785154914E+01
Ga    9.6428710536830895E+00    1.9171449254847024E+00    1.1021930754409174E+01
N    9.6423478672485246E+00    1.9169023015960118E+00    1.2989029777144898E+01
Ga    9.6468992314824060E+00    4.7469527547263662E-02    1.3613087934481827E+01
N    9.6466914450791279E+00    7.4120186064479024E-02    1.5573020771548764E+01
Ga    9.6434958903532451E+00    1.9142402390433988E+00    1.5849615077258708E+01
N    7.9421147524031035E+00    4.6224168841318507E+00    2.5083984276789062E+00
Ga    8.1582928656326370E+00    2.7727419232291308E+00    3.2911638945918305E+00
N    8.0431713645898189E+00    2.8341886677240025E+00    5.2443186390909045E+00
Ga    8.0632169092919490E+00    4.7104442035528269E+00    5.7829341360090227E+00
N    8.0475613004750262E+00    4.7049957925741479E+00    7.7801508272754107E+00
Ga    8.0272776634647904E+00    2.8486772974682539E+00    8.4287683897568684E+00
N    8.0243111894220878E+00    2.8518812879589217E+00    1.0419522991437061E+01
Ga    8.0509983904920048E+00    4.7098962401235704E+00    1.1067601486783921E+01
N    8.0681829977983632E+00    4.7202284093218685E+00    1.3056196282163164E+01
Ga    8.0248984997684474E+00    2.8531684388702363E+00    1.3615322687161093E+01
N    8.0503484121237943E+00    2.8370277014138390E+00    1.5576096665891448E+01
Ga    7.8816805499685891E+00    4.6119625833525735E+00    1.6470918895593080E+01
N    6.4197290164439522E+00    7.4712270717384586E+00    2.5778234801373028E+00
Ga    6.4230247978987922E+00    5.7270618053555786E+00    3.2636648716305601E+00
N    6.4300847311437606E+00    5.6203838547826974E+00    5.2249042335193376E+00
Ga    6.4323326539234769E+00    7.4749568717027728E+00    5.8633666015892283E+00
N    6.4303705960591797E+00    7.4824417704217963E+00    7.8357875188899877E+00
Ga    6.4312543928343686E+00    5.6140793177568780E+00    8.4327334461893191E+00
N    6.4301169486652610E+00    5.6172937430738870E+00    1.0423176934229897E+01
Ga    6.4288246103606950E+00    7.4852789025964448E+00    1.1024380070588419E+01
N    6.4279682263643929E+00    7.4860446256337481E+00    1.2990929044846144E+01
Ga    6.4290684470463031E+00    5.6163339515672641E+00    1.3614616380747224E+01
N    6.4291240081105601E+00    5.6442721550396593E+00    1.5575284747491949E+01
Ga    6.4262535811252173E+00    7.4849610579627575E+00    1.5849350395636744E+01
N    4.7278537735340578E+00    1.0204939464655608E+01    2.5345403010577567E+00
Ga    4.9273927999107423E+00    8.3410276174579430E+00    3.2983821598657288E+00
N    4.8176470681430930E+00    8.4081336620189013E+00    5.2502753464559309E+00
Ga    4.8532983432633028E+00    1.0280455138045458E+01    5.8056824540600580E+00
N    4.8324402268993643E+00    1.0274862688136684E+01    7.7946550702568835E+00
Ga    4.8146557036549140E+00    8.4186701930004944E+00    8.4396495778079572E+00
N    4.8115899078842608E+00    8.4217960672485663E+00    1.0426997145881460E+01
Ga    4.8381950958746689E+00    1.0281524118376179E+01    1.1066986070892659E+01
N    4.8533411979387333E+00    1.0291216396708084E+01    1.3054585608466258E+01
Ga    4.8097855048471532E+00    8.4232029267496351E+00    1.3612941707022456E+01
N    4.8346021071537342E+00    8.4076841638398374E+00    1.5572806440630950E+01
Ga    4.6661973156240384E+00    1.0181399787915081E+01    1.6468942159464952E+01
O    6.4578953858492905E-01    3.8231994696906870E+00   -4.2353647411610384E-01
H   -1.1363496670169469E-02    7.4436101823039049E+00    1.6794810275610543E+00
C    8.0817528192365340E-01    2.4775569312673982E+00   -9.9190426464806059E-01
H    1.7876612819812445E+00    2.0303008932588797E+00   -6.8592158857759145E-01
H   -6.4737757995228882E-03    1.7726020590073237E+00   -6.7980689615430590E-01
H    7.8057004290448273E-01    2.5686630663368404E+00   -2.0886842684074756E+00
Ga    3.1803468833259472E+00    5.5993083782721023E+00    2.4885054751900331E+00
O    3.0041989360694492E+00    5.7554201842382922E+00    2.1542174599851596E-01
H    2.3545703632827228E+00    5.0948784628739139E+00   -2.0591685047968664E-01
C    4.1848160291795065E+00    5.9548288695331362E+00   -5.8509784942425280E-01
H    4.1779803159138877E+00    6.9601855130177102E+00   -1.0178500192107331E+00
H    5.0513850897092931E+00    5.8738243296590440E+00    9.1804775975255368E-02
H    4.2619936110101015E+00    5.1989840430955745E+00   -1.3830812641779173E+00
     &END COORD
     &KIND C
       BASIS_SET DZVP-MOLOPT-SR-GTH-q4
       POTENTIAL GTH-PBE-q4
       &POTENTIAL
 2 2
  0.3384712400000000E+00 2 -0.8803673979999999E+01  0.1339210850000000E+01
 2
  0.3025757500000000E+00 1  0.9622486650000001E+01
  0.2915069400000000E+00 0
         # Potential name:  GTH-PBE-Q4  for symbol:  C
         # Potential read from the potential filename: GTH_POTENTIALS
       &END POTENTIAL
     &END KIND
     &KIND O
       BASIS_SET DZVP-MOLOPT-SR-GTH-q6
       POTENTIAL GTH-PBE-q6
       &POTENTIAL
 2 4
  0.2445543000000000E+00 2 -0.1666721480000000E+02  0.2487311320000000E+01
 2
  0.2209559200000000E+00 1  0.1833745811000000E+02
  0.2113324700000000E+00 0
         # Potential name:  GTH-PBE-Q6  for symbol:  O
         # Potential read from the potential filename: GTH_POTENTIALS
       &END POTENTIAL
     &END KIND
     &KIND H
       BASIS_SET DZVP-MOLOPT-SR-GTH-q1
       POTENTIAL GTH-PBE-q1
       &POTENTIAL
 1
  0.2000000000000000E+00 2 -0.4178900440000000E+01  0.7244633100000000E+00
 0
         # Potential name:  GTH-PBE-Q1  for symbol:  H
         # Potential read from the potential filename: GTH_POTENTIALS
       &END POTENTIAL
     &END KIND
     &KIND N
       BASIS_SET DZVP-MOLOPT-SR-GTH
       POTENTIAL GTH-PBE-q5
       &POTENTIAL
 2 3
  0.2837905100000000E+00 2 -0.1241522559000000E+02  0.1868095920000000E+01
 2
  0.2554050000000000E+00 1  0.1363026257000000E+02
  0.2454945300000000E+00 0
         # Potential name:  GTH-PBE-Q5  for symbol:  N
         # Potential read from the potential filename: GTH_POTENTIALS
       &END POTENTIAL
     &END KIND
     &KIND Ga
       BASIS_SET DZVP-MOLOPT-SR-GTH
       POTENTIAL GTH-PBE-q13
       &POTENTIAL
 2 1 10
  0.4900000000000000E+00 0
 3
  0.4167772300000000E+00 3  0.1047568975000000E+02 -0.4921768140000000E+01  0.8707055900000000E+00
  0.7770178090000000E+01 -0.2248152160000000E+01
  0.1784415450000000E+01
  0.5696265200000000E+00 2  0.1777985340000000E+01  0.1958597600000000E+00
 -0.2317443900000000E+00
  0.2381265000000000E+00 1 -0.1624868022000000E+02
         # Potential name:  GTH-PBE-Q13  for symbol:  GA
         # Potential read from the potential filename: GTH_POTENTIALS
       &END POTENTIAL
     &END KIND
     &TOPOLOGY
       NUMBER_OF_ATOMS  212
       MULTIPLE_UNIT_CELL  1 1 1
     &END TOPOLOGY
   &END SUBSYS
 &END FORCE_EVAL
