 # Version information for this restart file 
 # current date 2019-06-30 09:57:12.935
 # current working dir /scratch/rzk/rzk/GaN-carbene/443-adatoms-both-2x2/05-2DissMethanol/01-Combine0304-0202
 # Program compiled at                              Sun Apr  7 00:48:11 EDT 2019
 # Program compiled on                          beluga2.int.ets1.calculquebec.ca
 # Program compiled for                        Beluga-Linux-x86-64-intel-openmpi
 # Source code revision number                                         svn:18619
 &GLOBAL
   PRINT_LEVEL  MEDIUM
   PROJECT_NAME TEST
   RUN_TYPE  GEO_OPT
 &END GLOBAL
 &MOTION
   &GEO_OPT
     MAX_ITER  500
     STEP_START_VAL  153
   &END GEO_OPT
 &END MOTION
 &FORCE_EVAL
   METHOD  QS
   STRESS_TENSOR  ANALYTICAL
   &DFT
     BASIS_SET_FILE_NAME BASIS_MOLOPT
     POTENTIAL_FILE_NAME GTH_POTENTIALS
     UKS  T
     SURFACE_DIPOLE_CORRECTION  T
     SURF_DIP_DIR  Z
     &SCF
       MAX_SCF  80
       EPS_SCF     5.0000000000000004E-06
       &OT  T
         PRECONDITIONER  FULL_ALL
       &END OT
       &OUTER_SCF  T
         OPTIMIZER  NONE
         EPS_SCF     5.0000000000000004E-06
         MAX_SCF  4
       &END OUTER_SCF
       &PRINT
         &RESTART  OFF
           BACKUP_COPIES  1
           &EACH
             JUST_ENERGY  0
             QS_SCF  0
             MD  20
           &END EACH
         &END RESTART
       &END PRINT
     &END SCF
     &QS
       EPS_DEFAULT     1.0000000000000000E-14
       METHOD  GPW
     &END QS
     &MGRID
       NGRIDS  5
       CUTOFF     1.2000000000000000E+03
     &END MGRID
     &XC
       DENSITY_CUTOFF     1.0000000000000000E-10
       GRADIENT_CUTOFF     1.0000000000000000E-10
       TAU_CUTOFF     1.0000000000000000E-10
       &XC_FUNCTIONAL  NO_SHORTCUT
         &PBE  T
         &END PBE
       &END XC_FUNCTIONAL
       &VDW_POTENTIAL
         POTENTIAL_TYPE  PAIR_POTENTIAL
         &PAIR_POTENTIAL
           R_CUTOFF     1.0000000000000005E+01
           TYPE  DFTD3
           PARAMETER_FILE_NAME dftd3.dat
           REFERENCE_FUNCTIONAL PBE
           EPS_CN     9.9999999999999995E-07
           CALCULATE_C9_TERM  T
           REFERENCE_C9_TERM  T
           LONG_RANGE_CORRECTION  F
           VERBOSE_OUTPUT  F
         &END PAIR_POTENTIAL
       &END VDW_POTENTIAL
     &END XC
   &END DFT
   &SUBSYS
     &CELL
       A     1.2864472766435110E+01    0.0000000000000000E+00    0.0000000000000000E+00
       B    -6.4322363581020028E+00    1.1140960178524475E+01    0.0000000000000000E+00
       C     0.0000000000000000E+00    0.0000000000000000E+00    3.2000000000000000E+01
       MULTIPLE_UNIT_CELL  1 1 1
       &CELL_REF
         A     1.2982353780853531E+01    0.0000000000000000E+00    0.0000000000000000E+00
         B    -6.4911768904267628E+00    1.1243048175136114E+01    0.0000000000000000E+00
         C     0.0000000000000000E+00    0.0000000000000000E+00    3.2000000000000000E+01
         MULTIPLE_UNIT_CELL  1 1 1
       &END CELL_REF
     &END CELL
     &COORD
N    1.2972958171973263E-03    2.0539226327943720E+00    2.5025660477026408E+00
Ga   -2.7976355509695227E-03    9.3532553081025246E-02    2.8544269186929792E+00
N   -5.8424019526461170E-03    5.9294249590006523E-02    5.0083175819124346E+00
Ga   -4.1516886252719884E-03    1.8911975009756010E+00    5.7987510064304288E+00
N   -6.3764580270882516E-03    1.9001303897476718E+00    7.7939920549211923E+00
Ga   -4.7247988966043573E-03    5.5935365073134770E-02    8.4415130531587614E+00
N   -4.6421675159288786E-03    5.5065552636387662E-02    1.0412854609138730E+01
Ga   -4.9634859291787124E-03    1.8939570098342822E+00    1.1072750419160666E+01
N   -5.5066033735500196E-03    1.8751431267627852E+00    1.3061194768402782E+01
Ga   -6.9932913344293033E-03    5.7248884852286443E-02    1.3875646360906797E+01
N   -6.2708120423931694E-03    5.7062099882640188E-02    1.6066472926063469E+01
Ga   -5.8632682469194437E-03    2.1066011437462344E+00    1.6488092765059545E+01
Ga    3.1151631596549111E-02    3.7356828389059964E+00    1.3675793317464842E+00
N   -1.4726882133169685E+00    4.6350411008939725E+00    2.4718246079882613E+00
Ga   -1.6804956579757053E+00    2.7963703219017768E+00    3.2633866846798365E+00
N   -1.6146739783754531E+00    2.8441914006632922E+00    5.2404277744735435E+00
Ga   -1.6407007644368830E+00    4.7063884877243005E+00    5.8110152722298682E+00
N   -1.6244220225733352E+00    4.7049428343791924E+00    7.7989374212061824E+00
Ga   -1.6024737025986262E+00    2.8450874927414085E+00    8.4407891296263653E+00
N   -1.6022582963510887E+00    2.8477323667619006E+00    1.0429378583144114E+01
Ga   -1.6304861251978890E+00    4.7063213806079673E+00    1.1075785504626735E+01
N   -1.6461714628561643E+00    4.7163903054758265E+00    1.3063080885690013E+01
Ga   -1.6018225883486872E+00    2.8472199565155489E+00    1.3622421410746929E+01
N   -1.6285185353362341E+00    2.8325719697201586E+00    1.5578690704896527E+01
Ga   -1.4459420892072299E+00    4.6008337851044665E+00    1.6488337090659275E+01
N   -1.8845551151773038E-04    3.7725483597811471E+00    1.7635095691121808E+01
N   -3.2119669682427952E+00    7.6028526629720465E+00    2.5040452152540387E+00
Ga   -3.1961433002344299E+00    5.6034622003827517E+00    2.8517102843764008E+00
N   -3.2161498939926814E+00    5.6242362497300427E+00    5.0063167137631037E+00
Ga   -3.2282354930513222E+00    7.4469540315181284E+00    5.7998014449294919E+00
N   -3.2199461023306095E+00    7.4729620863649489E+00    7.7873899535047189E+00
Ga   -3.2230310726113922E+00    5.6259625208674109E+00    8.4471560136310568E+00
N   -3.2218782663478804E+00    5.6277095854185299E+00    1.0415836157185282E+01
Ga   -3.2233934440337748E+00    7.4659786564282236E+00    1.1073973515778997E+01
N   -3.2215808706973061E+00    7.4460360038577376E+00    1.3063805170392321E+01
Ga   -3.2214810864701384E+00    5.6239196697393128E+00    1.3877170224216332E+01
N   -3.2213228933034710E+00    5.6257604832880714E+00    1.6067033145062663E+01
Ga   -3.2215591052819903E+00    7.6660551943153896E+00    1.6475849820691664E+01
Ga   -3.2488286135942750E+00    9.3607856357445360E+00    1.4381673839457985E+00
N   -4.7263797460253008E+00    1.0211672089846585E+01    2.5141976315189050E+00
Ga   -4.9343366553476828E+00    8.3526820141325935E+00    3.2668701122940869E+00
N   -4.8301937443457756E+00    8.4088786437585590E+00    5.2304892924498017E+00
Ga   -4.8552376408385953E+00    1.0284720866593522E+01    5.7892851186437460E+00
N   -4.8377388803799057E+00    1.0273728879043327E+01    7.7836018016525701E+00
Ga   -4.8227191842194435E+00    8.4177312742946580E+00    8.4323287510114007E+00
N   -4.8179703384942272E+00    8.4182710807583927E+00    1.0422849070690475E+01
Ga   -4.8449196920944884E+00    1.0276829913798389E+01    1.1071066987047415E+01
N   -4.8615656736725121E+00    1.0287049111675298E+01    1.3062008212817490E+01
Ga   -4.8188025272750323E+00    8.4181913359564362E+00    1.3622882855194762E+01
N   -4.8492239155638144E+00    8.4009159489872385E+00    1.5582165371276984E+01
Ga   -4.6722972878938291E+00    1.0178560727638951E+01    1.6475409226509090E+01
N   -3.2217862894616518E+00    9.3412482782308608E+00    1.7592077873430512E+01
N    3.1953486228825323E+00    1.9296573437127480E+00    2.5912337694918661E+00
Ga    3.2064454028218674E+00    1.8429087273745656E-01    3.2721456004247305E+00
N    3.2140703491121849E+00    5.9666217342999608E-02    5.2354781704060871E+00
Ga    3.2097099982593713E+00    1.9227918523970540E+00    5.8724153399389021E+00
N    3.2133914884470962E+00    1.9133117212997126E+00    7.8447213665595914E+00
Ga    3.2089858837696728E+00    4.7218449910508546E-02    8.4372372733420047E+00
N    3.2109249116798568E+00    4.2201067992931739E-02    1.0426488997634340E+01
Ga    3.2108636080825534E+00    1.9116258688359176E+00    1.1030536329881320E+01
N    3.2112121755942207E+00    1.9120782703040442E+00    1.2996741570761682E+01
Ga    3.2108412582686001E+00    4.3922407949091115E-02    1.3622184011222528E+01
N    3.2108121134277887E+00    7.9193193891237704E-02    1.5581628562493112E+01
Ga    3.2110850269535680E+00    1.9174551839682761E+00    1.5860761565795791E+01
N    1.4711423526251290E+00    4.6378807289750137E+00    2.5134295745561532E+00
Ga    1.6851264912170405E+00    2.8122504107719264E+00    3.2946767422429706E+00
N    1.6034161042055926E+00    2.8461250111164973E+00    5.2570534491707512E+00
Ga    1.6537440054300416E+00    4.7208021968762637E+00    5.8244400982871403E+00
N    1.6016868770444668E+00    4.7000259437425207E+00    7.8232202939010040E+00
Ga    1.5918034198869300E+00    2.8444509481772413E+00    8.4447379656671018E+00
N    1.5921038973656525E+00    2.8444797505001507E+00    1.0433705878970450E+01
Ga    1.6198521327071425E+00    4.7061665041022147E+00    1.1072574530171137E+01
N    1.6351018199176985E+00    4.7164467677444248E+00    1.3062776333840670E+01
Ga    1.5912403340805941E+00    2.8474013050916804E+00    1.3622640959442814E+01
N    1.6165676460166287E+00    2.8311995657595035E+00    1.5580129312005269E+01
Ga    1.4395178170562342E+00    4.6039839035795751E+00    1.6488279911505735E+01
N   -4.4893051291662314E-03    7.4714309469310054E+00    2.6889414272924173E+00
Ga    8.8511226155782059E-03    5.6189252186213343E+00    3.3403156477074081E+00
N   -7.0844189097679713E-03    5.6398123827253235E+00    5.2656355022990029E+00
Ga    1.6109642402611008E-03    7.4785143060415162E+00    5.9078707447302401E+00
N   -3.6867953125175805E-03    7.4859662275482473E+00    7.8612120604480600E+00
Ga   -6.6442958359929395E-03    5.6113787170272440E+00    8.4557443593665589E+00
N   -8.1504640472196792E-03    5.6153985641893529E+00    1.0439570770293212E+01
Ga   -6.5625973986143428E-03    7.4840041031264226E+00    1.1035306846119843E+01
N   -5.8773121061264913E-03    7.4841837766617143E+00    1.2999733644085589E+01
Ga   -5.2032940544320993E-03    5.6127875072539233E+00    1.3623652520291875E+01
N   -7.2171393165025187E-03    5.6438376400445529E+00    1.5580859558495023E+01
Ga   -1.4805435289914723E-03    7.4815956590652810E+00    1.5861384099193502E+01
N   -1.7119537705345189E+00    1.0205394499634306E+01    2.5105944568398253E+00
Ga   -1.5953408789697485E+00    8.4007015631701965E+00    3.3249790096866376E+00
N   -1.5990076751975535E+00    8.4059440384117359E+00    5.2496722874312365E+00
Ga   -1.5893832026078107E+00    1.0292561511574148E+01    5.8058855353415773E+00
N   -1.6038826262113475E+00    1.0272919181282393E+01    7.7914217430730561E+00
Ga   -1.6257802926997802E+00    8.4190103063977073E+00    8.4470991801177604E+00
N   -1.6256942095633613E+00    8.4189139103395103E+00    1.0431508461475431E+01
Ga   -1.5982556574361846E+00    1.0278953094047665E+01    1.1074210537296201E+01
N   -1.5803185544306320E+00    1.0287817105412998E+01    1.3063912056838200E+01
Ga   -1.6244133379748156E+00    8.4184639638026084E+00    1.3623548152115566E+01
N   -1.5935215711553350E+00    8.4008318854871149E+00    1.5582764746054135E+01
Ga   -1.7709121318266254E+00    1.0178476035957662E+01    1.6475628582012483E+01
N    6.4275134910885585E+00    2.0373396982075120E+00    2.5326083760744060E+00
Ga    6.4295635164847873E+00    6.4314255992874117E-02    2.8840062844310679E+00
N    6.4292913190289873E+00    5.6171209091088317E-02    5.0172309940579103E+00
Ga    6.4213714100910240E+00    1.8950951041419888E+00    5.7976637906322397E+00
N    6.4260791518433971E+00    1.9007909972864581E+00    7.7897545554759846E+00
Ga    6.4276369189874050E+00    5.7924939832641728E-02    8.4459544698915128E+00
N    6.4272050060586876E+00    5.5882389714199801E-02    1.0414761911764650E+01
Ga    6.4283039297039855E+00    1.8956242017423348E+00    1.1073322651766057E+01
N    6.4281796470869974E+00    1.8753707810398994E+00    1.3061274974260481E+01
Ga    6.4295823205581035E+00    5.7836961590223848E-02    1.3877635165101477E+01
N    6.4283908893369475E+00    5.7185986954949704E-02    1.6067095693968746E+01
Ga    6.4279103250913652E+00    2.1069365896024945E+00    1.6488428743070124E+01
Ga    6.4678302121386038E+00    3.7418066241838619E+00    1.4893236651511783E+00
N    4.9247796386884231E+00    4.6372546518760869E+00    2.4142798567720987E+00
Ga    4.6984425460814627E+00    2.8131196891028067E+00    3.2733973970556951E+00
N    4.8183092572382167E+00    2.8500387705596295E+00    5.2326222277608849E+00
Ga    4.7758730968207725E+00    4.7248138772789607E+00    5.8162946894408627E+00
N    4.8211127829956677E+00    4.6977399893516916E+00    7.8172958470255232E+00
Ga    4.8303003852816087E+00    2.8459650407238826E+00    8.4478685210381190E+00
N    4.8306862675300000E+00    2.8448771322034569E+00    1.0434755955015619E+01
Ga    4.8043275641756402E+00    4.7076183319653948E+00    1.1071170569446569E+01
N    4.7880648108410497E+00    4.7166083073133231E+00    1.3061627815997596E+01
Ga    4.8311801968075265E+00    2.8476133462060642E+00    1.3622241170163036E+01
N    4.8055899833077111E+00    2.8312626788097170E+00    1.5579786255536225E+01
Ga    4.9824369205120673E+00    4.6042145651304844E+00    1.6487920354691585E+01
N    6.4220133551001517E+00    3.7731099448842325E+00    1.7634834436729655E+01
N    3.2052063897534095E+00    7.6012950703861000E+00    2.4110402231780546E+00
N    3.2125994923486130E+00    5.6305112832819946E+00    5.1458257114380741E+00
Ga    3.2198106437548075E+00    7.4270126061744017E+00    5.8273757057385307E+00
N    3.2102020970173850E+00    7.4875763542206242E+00    7.8208015357502436E+00
Ga    3.2123440756193133E+00    5.6260779471476532E+00    8.4432348248009905E+00
N    3.2116392069505357E+00    5.6274144920745650E+00    1.0419206171758416E+01
Ga    3.2131936531715386E+00    7.4650786178415043E+00    1.1073848154693037E+01
N    3.2116669325154015E+00    7.4470951807789687E+00    1.3063197927435187E+01
Ga    3.2117100250214867E+00    5.6263466951120824E+00    1.3875113763662958E+01
N    3.2111336377321655E+00    5.6270369226540575E+00    1.6066285518947737E+01
Ga    3.2112277498391526E+00    7.6732385588096097E+00    1.6488887637203401E+01
Ga    3.2372449658916649E+00    9.3904126486775290E+00    1.4431774905515875E+00
N    1.7082872840559424E+00    1.0194881170479119E+01    2.5160779321296509E+00
Ga    1.6039693052805546E+00    8.3684738369534557E+00    3.3148649767551461E+00
N    1.5987905172557679E+00    8.4017599007800641E+00    5.2395084035779247E+00
Ga    1.5804926450014822E+00    1.0283612306639968E+01    5.8050418182838976E+00
N    1.5922008460092032E+00    1.0272350009349445E+01    7.7914664146880295E+00
Ga    1.6157740839435857E+00    8.4219173338546014E+00    8.4587577914945040E+00
N    1.6120529013234191E+00    8.4205895694598532E+00    1.0440394742856167E+01
Ga    1.5880176630275384E+00    1.0280030614843151E+01    1.1076381030759155E+01
N    1.5710905086006195E+00    1.0288382296225773E+01    1.3063113516318813E+01
Ga    1.6149548994306280E+00    8.4191085018944030E+00    1.3624059642336706E+01
N    1.5871153972926038E+00    8.4055180947729209E+00    1.5581049348534593E+01
Ga    1.7717103700491552E+00    1.0172852999336444E+01    1.6489239258292979E+01
N    3.2115238196702194E+00    9.3351425060523052E+00    1.7635996665216805E+01
N    9.6535719505211262E+00    1.9174186075519315E+00    2.6062094881124569E+00
Ga    9.6522514737066363E+00    1.7763811337890908E-01    3.2891015112846649E+00
N    9.6423667707318170E+00    5.5565884721193178E-02    5.2461242339820906E+00
Ga    9.6519005782617242E+00    1.9162496696655418E+00    5.8756024299754310E+00
N    9.6436394383193758E+00    1.9122251390943854E+00    7.8449445349064080E+00
Ga    9.6459119810575267E+00    4.4270295397096079E-02    8.4360501080779784E+00
N    9.6434314930958198E+00    4.2525450020183903E-02    1.0425532977829462E+01
Ga    9.6427353382460819E+00    1.9127691683089014E+00    1.1025874979607611E+01
N    9.6428601043173963E+00    1.9127489680377310E+00    1.2994526962904487E+01
Ga    9.6438998901711823E+00    4.3412790550635794E-02    1.3623409381226626E+01
N    9.6435993119494139E+00    7.4500611340322209E-02    1.5579255605717284E+01
Ga    9.6433494224126193E+00    1.9133226372960681E+00    1.5855658842393657E+01
N    7.9303192714571447E+00    4.6342397447007135E+00    2.5232064906833438E+00
Ga    8.1483280732507826E+00    2.7823211144043416E+00    3.2997873542730032E+00
N    8.0391428640078804E+00    2.8398816579143022E+00    5.2527374061367107E+00
Ga    8.0534556155779633E+00    4.7161566107787030E+00    5.7915032180834611E+00
N    8.0456672889614858E+00    4.7068539263773097E+00    7.7859383207612316E+00
Ga    8.0250547982836995E+00    2.8483848616002545E+00    8.4336762714753153E+00
N    8.0240651741531739E+00    2.8482923013046015E+00    1.0424302847779817E+01
Ga    8.0505800079192831E+00    4.7065634378026004E+00    1.1073223435590727E+01
N    8.0679129858879328E+00    4.7162487008847069E+00    1.3061200463049564E+01
Ga    8.0239432528367249E+00    2.8479081135684599E+00    1.3622951465386745E+01
N    8.0507958491748255E+00    2.8328172794682529E+00    1.5579077592087831E+01
Ga    7.8679830988253485E+00    4.6011621235471951E+00    1.6488526962601011E+01
N    6.4219688764822616E+00    7.4791532528235587E+00    2.5751068326662825E+00
Ga    6.3982378824579289E+00    5.7381966877556216E+00    3.2667998427614555E+00
N    6.4209119099770051E+00    5.6232127848622699E+00    5.2264557515822609E+00
Ga    6.4190034442336286E+00    7.4792120666818693E+00    5.8606950713719979E+00
N    6.4254045623532541E+00    7.4831112741804278E+00    7.8338986728135502E+00
Ga    6.4293495827175970E+00    5.6159229081628359E+00    8.4438919090067319E+00
N    6.4303698160700833E+00    5.6160620534134820E+00    1.0431696889499829E+01
Ga    6.4290223164042999E+00    7.4840689060412382E+00    1.1030349262732031E+01
N    6.4282176116486651E+00    7.4839906788574400E+00    1.2996196641010620E+01
Ga    6.4279310744944222E+00    5.6134362900089840E+00    1.3622774374515885E+01
N    6.4294846808753681E+00    5.6439580009428294E+00    1.5580096439416176E+01
Ga    6.4234747498760569E+00    7.4815515209742296E+00    1.5861654791555841E+01
N    4.7155074675388766E+00    1.0207898393287078E+01    2.5165631981760690E+00
Ga    4.9050064578299075E+00    8.3335202676875362E+00    3.2631942061334187E+00
N    4.8092167245929751E+00    8.4092349048117434E+00    5.2244141239830668E+00
Ga    4.8470175243499982E+00    1.0277633394639842E+01    5.7919163018046129E+00
N    4.8304698308615359E+00    1.0273138899783717E+01    7.7859475015313651E+00
Ga    4.8124568029521155E+00    8.4207187153456502E+00    8.4460554586031176E+00
N    4.8115698963832338E+00    8.4198690177466933E+00    1.0432741911942697E+01
Ga    4.8353969620236601E+00    1.0278285138675157E+01    1.1073149443365246E+01
N    4.8512397443351611E+00    1.0287888568145874E+01    1.3061072985334382E+01
Ga    4.8084224307014116E+00    8.4191521107690370E+00    1.3623290322833883E+01
N    4.8352286401697233E+00    8.4056433270997815E+00    1.5580377747755961E+01
Ga    4.6510256958256742E+00    1.0172875071841498E+01    1.6488995164903354E+01
O    7.1444437224339541E-01    3.8559532068677180E+00   -3.7386886804102004E-01
H   -1.0385923572999485E-02    7.4575726562910516E+00    1.6628542637716692E+00
C    1.1433268010501876E+00    2.5937148267681862E+00   -9.3516297492775524E-01
H    1.8451654119258303E+00    2.0655025737688564E+00   -2.6739247374802994E-01
H    2.8469462456748623E-01    1.9357980806571287E+00   -1.1351419004082648E+00
H    1.6471229432307242E+00    2.8042157003601877E+00   -1.8894724824228695E+00
Ga    3.1695859645012563E+00    5.5907337719793642E+00    2.2622460903813066E+00
O    2.8252041974699700E+00    5.4650499363664027E+00    1.3395448934212575E-01
H    2.0512114281039309E+00    4.8300220222104029E+00   -6.3518835686294739E-02
C    3.8939795792594332E+00    5.2532858217937459E+00   -8.0901895386253464E-01
H    3.5309579686375492E+00    5.4257484948097856E+00   -1.8311229183240840E+00
H    4.6876244925734367E+00    5.9735582251887491E+00   -5.7535592001152958E-01
H    4.2974057261393863E+00    4.2317485833378612E+00   -7.2845861626466113E-01
     &END COORD
     &KIND C
       BASIS_SET DZVP-MOLOPT-SR-GTH-q4
       POTENTIAL GTH-PBE-q4
       &POTENTIAL
2 2
0.3384712400000000E+00 2 -0.8803673979999999E+01  0.1339210850000000E+01
2
0.3025757500000000E+00 1  0.9622486650000001E+01
0.2915069400000000E+00 0
       &END POTENTIAL
     &END KIND
     &KIND O
       BASIS_SET DZVP-MOLOPT-SR-GTH-q6
       POTENTIAL GTH-PBE-q6
       &POTENTIAL
2 4
0.2445543000000000E+00 2 -0.1666721480000000E+02  0.2487311320000000E+01
2
0.2209559200000000E+00 1  0.1833745811000000E+02
0.2113324700000000E+00 0
       &END POTENTIAL
     &END KIND
     &KIND H
       BASIS_SET DZVP-MOLOPT-SR-GTH-q1
       POTENTIAL GTH-PBE-q1
       &POTENTIAL
1
0.2000000000000000E+00 2 -0.4178900440000000E+01  0.7244633100000000E+00
0
       &END POTENTIAL
     &END KIND
     &KIND N
       BASIS_SET DZVP-MOLOPT-SR-GTH
       POTENTIAL GTH-PBE-q5
       &POTENTIAL
2 3
0.2837905100000000E+00 2 -0.1241522559000000E+02  0.1868095920000000E+01
2
0.2554050000000000E+00 1  0.1363026257000000E+02
0.2454945300000000E+00 0
       &END POTENTIAL
     &END KIND
     &KIND Ga
       BASIS_SET DZVP-MOLOPT-SR-GTH
       POTENTIAL GTH-PBE-q13
       &POTENTIAL
2 1 10
0.4900000000000000E+00 0
3
0.4167772300000000E+00 3  0.1047568975000000E+02 -0.4921768140000000E+01  0.8707055900000000E+00
0.7770178090000000E+01 -0.2248152160000000E+01
0.1784415450000000E+01
0.5696265200000000E+00 2  0.1777985340000000E+01  0.1958597600000000E+00
-0.2317443900000000E+00
0.2381265000000000E+00 1 -0.1624868022000000E+02
       &END POTENTIAL
     &END KIND
     &TOPOLOGY
       NUMBER_OF_ATOMS  212
       MULTIPLE_UNIT_CELL  1 1 1
     &END TOPOLOGY
   &END SUBSYS
 &END FORCE_EVAL
