 # Version information for this restart file 
 # current date 2019-06-28 22:00:25.611
 # current working dir /scratch/rzk/rzk/GaN-carbene/443-adatoms-both-2x2/05-2DissMethanol/01-Combine0304-0202
 # Program compiled at                              Sun Apr  7 00:48:11 EDT 2019
 # Program compiled on                          beluga2.int.ets1.calculquebec.ca
 # Program compiled for                        Beluga-Linux-x86-64-intel-openmpi
 # Source code revision number                                         svn:18619
 &GLOBAL
   PRINT_LEVEL  MEDIUM
   PROJECT_NAME TEST
   RUN_TYPE  GEO_OPT
 &END GLOBAL
 &MOTION
   &GEO_OPT
     MAX_ITER  500
     STEP_START_VAL  33
   &END GEO_OPT
 &END MOTION
 &FORCE_EVAL
   METHOD  QS
   STRESS_TENSOR  ANALYTICAL
   &DFT
     BASIS_SET_FILE_NAME BASIS_MOLOPT
     POTENTIAL_FILE_NAME GTH_POTENTIALS
     UKS  T
     SURFACE_DIPOLE_CORRECTION  T
     SURF_DIP_DIR  Z
     &SCF
       MAX_SCF  80
       EPS_SCF     5.0000000000000004E-06
       &OT  T
         PRECONDITIONER  FULL_ALL
       &END OT
       &OUTER_SCF  T
         OPTIMIZER  NONE
         EPS_SCF     5.0000000000000004E-06
         MAX_SCF  4
       &END OUTER_SCF
       &PRINT
         &RESTART  OFF
           BACKUP_COPIES  1
           &EACH
             JUST_ENERGY  0
             QS_SCF  0
             MD  20
           &END EACH
         &END RESTART
       &END PRINT
     &END SCF
     &QS
       EPS_DEFAULT     1.0000000000000000E-14
       METHOD  GPW
     &END QS
     &MGRID
       NGRIDS  5
       CUTOFF     1.2000000000000000E+03
     &END MGRID
     &XC
       DENSITY_CUTOFF     1.0000000000000000E-10
       GRADIENT_CUTOFF     1.0000000000000000E-10
       TAU_CUTOFF     1.0000000000000000E-10
       &XC_FUNCTIONAL  NO_SHORTCUT
         &PBE  T
         &END PBE
       &END XC_FUNCTIONAL
       &VDW_POTENTIAL
         POTENTIAL_TYPE  PAIR_POTENTIAL
         &PAIR_POTENTIAL
           R_CUTOFF     1.0000000000000004E+01
           TYPE  DFTD3
           PARAMETER_FILE_NAME dftd3.dat
           REFERENCE_FUNCTIONAL PBE
           EPS_CN     9.9999999999999995E-07
           CALCULATE_C9_TERM  T
           REFERENCE_C9_TERM  T
           LONG_RANGE_CORRECTION  F
           VERBOSE_OUTPUT  F
         &END PAIR_POTENTIAL
       &END VDW_POTENTIAL
     &END XC
   &END DFT
   &SUBSYS
     &CELL
       A     1.2864472766435110E+01    0.0000000000000000E+00    0.0000000000000000E+00
       B    -6.4322363581020028E+00    1.1140960178524473E+01    0.0000000000000000E+00
       C     0.0000000000000000E+00    0.0000000000000000E+00    3.2000000000000000E+01
       MULTIPLE_UNIT_CELL  1 1 1
       &CELL_REF
         A     1.2982353780853531E+01    0.0000000000000000E+00    0.0000000000000000E+00
         B    -6.4911768904267628E+00    1.1243048175136114E+01    0.0000000000000000E+00
         C     0.0000000000000000E+00    0.0000000000000000E+00    3.2000000000000000E+01
         MULTIPLE_UNIT_CELL  1 1 1
       &END CELL_REF
     &END CELL
     &COORD
N    7.3094192060499646E-03    2.0479383770035384E+00    2.4996770625119087E+00
Ga    1.1479728695431348E-02    9.0401141702506849E-02    2.8468875916311216E+00
N   -2.5060149379791097E-03    5.4600288745365370E-02    5.0175952700579547E+00
Ga   -1.3431252149312425E-04    1.8862946099790023E+00    5.7928518822995620E+00
N   -2.3050662014874380E-03    1.8980270916749313E+00    7.7948817546281512E+00
Ga    8.5821025930655419E-04    5.3720535067506313E-02    8.4372638507589262E+00
N   -1.1007097036979058E-03    5.4703340960842686E-02    1.0413768431586163E+01
Ga   -1.8951690107028988E-03    1.8946465112321660E+00    1.1063146329122201E+01
N   -3.1561050548440136E-03    1.8774790960910117E+00    1.3056354273501551E+01
Ga   -6.6967765608170601E-03    6.0702980107416697E-02    1.3862786180736899E+01
N   -1.0588575356645187E-02    6.3652331345793359E-02    1.6060679155680308E+01
Ga   -4.9475401257038183E-03    2.1155108068155206E+00    1.6487937123585805E+01
Ga    5.3506201354809602E-02    3.7420533706021404E+00    1.3474332525233941E+00
N   -1.4663027951441947E+00    4.6293455555212608E+00    2.4701715325536315E+00
Ga   -1.6673137726371898E+00    2.7932671567742711E+00    3.2528316621000721E+00
N   -1.6092387118914280E+00    2.8381951966632064E+00    5.2388332599571994E+00
Ga   -1.6373932083983485E+00    4.6989112688837418E+00    5.8049948838031975E+00
N   -1.6198353949376367E+00    4.7000741124561962E+00    7.7996532522213382E+00
Ga   -1.5990928990226503E+00    2.8415170247890895E+00    8.4344887157182669E+00
N   -1.6002331628973372E+00    2.8465683010869598E+00    1.0428517057692384E+01
Ga   -1.6276024338088702E+00    4.7049540975222079E+00    1.1066735606265080E+01
N   -1.6430966503195805E+00    4.7168642960558076E+00    1.3058974787744955E+01
Ga   -1.6003275869281712E+00    2.8476810781913628E+00    1.3613651270885162E+01
N   -1.6316414823050833E+00    2.8318859315555391E+00    1.5571862178512161E+01
Ga   -1.4357582660625650E+00    4.5955250381204005E+00    1.6489222699470492E+01
N    1.3287255798123397E-04    3.7734937362779828E+00    1.7628982506671619E+01
N   -3.2092588379159799E+00    7.5908153637728191E+00    2.4971612578041373E+00
Ga   -3.1846401143094898E+00    5.5993816515673593E+00    2.8331369531593462E+00
N   -3.2111970417312059E+00    5.6158311528902036E+00    5.0118616802622000E+00
Ga   -3.2257442628642039E+00    7.4390801177554886E+00    5.7921410010585541E+00
N   -3.2172005267142221E+00    7.4685456785878364E+00    7.7881297937068448E+00
Ga   -3.2191060474209134E+00    5.6220069877449372E+00    8.4398751764525706E+00
N   -3.2195658763969601E+00    5.6265514207606442E+00    1.0415123153152042E+01
Ga   -3.2211281800557559E+00    7.4650916795924003E+00    1.1066078425268215E+01
N   -3.2196891861236128E+00    7.4472917210326655E+00    1.3062620416688686E+01
Ga   -3.2168768213962236E+00    5.6246846531025758E+00    1.3860879167564311E+01
N   -3.2135465301740749E+00    5.6232766704089530E+00    1.6065268911163745E+01
Ga   -3.2176674483732275E+00    7.6519665773330017E+00    1.6463956480533707E+01
Ga   -3.2448547122234115E+00    9.3526866206824053E+00    1.3835392258941548E+00
N   -4.7238217492807850E+00    1.0202199246379809E+01    2.5101245119793592E+00
Ga   -4.9195318032628146E+00    8.3490578562761328E+00    3.2550365484329742E+00
N   -4.8255359801995876E+00    8.4020857207899393E+00    5.2288312662442822E+00
Ga   -4.8515363807295033E+00    1.0277419357436363E+01    5.7808163341245722E+00
N   -4.8343212875652357E+00    1.0268897576903292E+01    7.7838338123164394E+00
Ga   -4.8172290170217220E+00    8.4149858943089448E+00    8.4278993285933623E+00
N   -4.8152216325918928E+00    8.4177571880009534E+00    1.0424879960685713E+01
Ga   -4.8416305486064104E+00    1.0276723626202955E+01    1.1063866284366252E+01
N   -4.8593441302131959E+00    1.0288315858108298E+01    1.3062132416398176E+01
Ga   -4.8146277733679330E+00    8.4201623293648584E+00    1.3615905621442041E+01
N   -4.8384276027853748E+00    8.4018250450756025E+00    1.5585850123766720E+01
Ga   -4.6911840011311456E+00    1.0190023853589913E+01    1.6461032595746861E+01
N   -3.2238587428165322E+00    9.3488612441285923E+00    1.7577854645395504E+01
N    3.2036712935920537E+00    1.9159474191130188E+00    2.6037766131520770E+00
Ga    3.2087349222426993E+00    1.6238245809302035E-01    3.2604583681256272E+00
N    3.2170950234527251E+00    5.0408064348648002E-02    5.2333659606167497E+00
Ga    3.2118969054461606E+00    1.9110403078604219E+00    5.8618050107339981E+00
N    3.2166933866236094E+00    1.9081451937788065E+00    7.8407186335563237E+00
Ga    3.2121341065707116E+00    4.2648250963773456E-02    8.4276888234726890E+00
N    3.2133170221463674E+00    4.1918558105975313E-02    1.0424790950717805E+01
Ga    3.2140433144475820E+00    1.9113838035468194E+00    1.1020206530672475E+01
N    3.2154670060820552E+00    1.9116273067407310E+00    1.2995669960534617E+01
Ga    3.2125835796807451E+00    4.3619505374957700E-02    1.3615678449551448E+01
N    3.2162039685172856E+00    7.1299906298528101E-02    1.5587335616320933E+01
Ga    3.2133637627252276E+00    1.9153260973427351E+00    1.5863079034266338E+01
N    1.4808968285875177E+00    4.6322622124877944E+00    2.5159788175332443E+00
Ga    1.6857191900607975E+00    2.7992249726475382E+00    3.2829201381024844E+00
N    1.6089281256393060E+00    2.8403281995688188E+00    5.2553864462012667E+00
Ga    1.6563576528237898E+00    4.7136422792208013E+00    5.8082681851952707E+00
N    1.6106546450947332E+00    4.6996284646056266E+00    7.8126039800145870E+00
Ga    1.5970452882216239E+00    2.8417493520654800E+00    8.4314895926031710E+00
N    1.5959156243363808E+00    2.8445371467838312E+00    1.0428885822220133E+01
Ga    1.6216766401000304E+00    4.7044498424037622E+00    1.1063750488057501E+01
N    1.6364002092490808E+00    4.7170493126839679E+00    1.3057996394167867E+01
Ga    1.5935939756908697E+00    2.8481095303820352E+00    1.3613039270314559E+01
N    1.6239548857005419E+00    2.8287114943578575E+00    1.5572269841990453E+01
Ga    1.4330873006880538E+00    4.6000753029297607E+00    1.6488102856298124E+01
N   -1.2501957145956405E-04    7.4680962040107133E+00    2.7028743287584303E+00
Ga    8.2305574076204195E-03    5.6088074567484094E+00    3.3357772492554520E+00
N   -2.2846760358757687E-03    5.6341201754969878E+00    5.2668509121702227E+00
Ga   -2.5973864660638569E-03    7.4716513999654790E+00    5.9084260322159388E+00
N   -2.6815795511869046E-03    7.4808031094932250E+00    7.8654786354903532E+00
Ga   -2.4429623356094772E-03    5.6064239785378245E+00    8.4470723209096850E+00
N   -4.6313363146416424E-03    5.6137298499095243E+00    1.0437270321728226E+01
Ga   -4.9313883946071361E-03    7.4828969589685697E+00    1.1027152958493783E+01
N   -6.0505750060106545E-03    7.4858976815760956E+00    1.2997747012414926E+01
Ga   -3.3485910887233340E-03    5.6142139467286665E+00    1.3615761364846465E+01
N   -6.8916988697599602E-03    5.6497848455146880E+00    1.5575578513718982E+01
Ga   -1.1787705470309700E-03    7.4841827859376160E+00    1.5860941118056717E+01
N   -1.7066290686342478E+00    1.0195914908624102E+01    2.5092985543111825E+00
Ga   -1.6036258670529722E+00    8.3945404361682172E+00    3.3178206026668904E+00
N   -1.5981483653803195E+00    8.3978514016835035E+00    5.2488601380779798E+00
Ga   -1.5873920968991011E+00    1.0283986465099916E+01    5.7992100723083375E+00
N   -1.6001572856951187E+00    1.0268047858622584E+01    7.7922686902739802E+00
Ga   -1.6245644528001792E+00    8.4150445949543311E+00    8.4415259442140709E+00
N   -1.6238587984433059E+00    8.4178744111679311E+00    1.0431873492760070E+01
Ga   -1.5973611182273826E+00    1.0278115029604283E+01    1.1065165356217509E+01
N   -1.5799527066212324E+00    1.0288007629735015E+01    1.3062249089254099E+01
Ga   -1.6234574226123741E+00    8.4191207149130278E+00    1.3615651461268087E+01
N   -1.6000397952805840E+00    8.4051802251484098E+00    1.5583890724431074E+01
Ga   -1.7534381529666827E+00    1.0184353013478573E+01    1.6463563693927341E+01
N    6.4357356560736170E+00    2.0245746202956085E+00    2.5344372528486709E+00
Ga    6.4270841607709146E+00    5.2323810835056390E-02    2.8791598403564942E+00
N    6.4336633654545468E+00    4.7980821705298465E-02    5.0262655813675030E+00
Ga    6.4289412540545259E+00    1.8853980217600195E+00    5.7935908410254839E+00
N    6.4308680925785175E+00    1.8973741185780717E+00    7.7913356042305200E+00
Ga    6.4296432605294234E+00    5.4554608815201917E-02    8.4419683803444521E+00
N    6.4287981078498522E+00    5.5469333514437946E-02    1.0416269276413541E+01
Ga    6.4299771523066971E+00    1.8964709087751876E+00    1.1063051580925274E+01
N    6.4294953043345497E+00    1.8776300619762101E+00    1.3059591863395935E+01
Ga    6.4316741390080683E+00    5.7196706595399036E-02    1.3858396208176194E+01
N    6.4352910409027446E+00    5.6518319942254723E-02    1.6064236192780072E+01
Ga    6.4312563496051744E+00    2.0869256898683841E+00    1.6467910476182677E+01
Ga    6.4630782898281902E+00    3.7331070415232794E+00    1.4933840293064056E+00
N    4.9374293567440928E+00    4.6279854291119111E+00    2.4689299805070339E+00
Ga    4.7096795940015195E+00    2.7896901062062072E+00    3.2795397803278155E+00
N    4.8233361779469153E+00    2.8393013732333183E+00    5.2398376525812882E+00
Ga    4.7837637592831159E+00    4.7173339863267847E+00    5.7975846317432271E+00
N    4.8198186711117854E+00    4.6974267463893042E+00    7.8038919538830225E+00
Ga    4.8329146802090470E+00    2.8430995481837362E+00    8.4320115645137967E+00
N    4.8329373506583577E+00    2.8456202413113707E+00    1.0428394507455353E+01
Ga    4.8074078829819920E+00    4.7060884532948144E+00    1.1062718145738746E+01
N    4.7893250326943431E+00    4.7177515531861198E+00    1.3060991297964476E+01
Ga    4.8332018926488765E+00    2.8491486788878997E+00    1.3613296549967275E+01
N    4.8128097545044444E+00    2.8315415439714116E+00    1.5582999636958570E+01
Ga    4.9602656607698092E+00    4.6177181503572475E+00    1.6465050330914629E+01
N    6.4231324035948703E+00    3.7778125608216797E+00    1.7598597366147175E+01
N    3.2167448580700500E+00    7.6120468885267050E+00    2.5010926624941376E+00
N    3.2174075022148441E+00    5.6270862231369581E+00    5.0846459248848772E+00
Ga    3.2238683780336133E+00    7.4245272493669052E+00    5.8182245940276553E+00
N    3.2135176913579286E+00    7.4780334405424123E+00    7.8157058127209540E+00
Ga    3.2163570799208050E+00    5.6221710643123375E+00    8.4405780644117705E+00
N    3.2145144350433243E+00    5.6259508636151390E+00    1.0418305086524649E+01
Ga    3.2154896102347630E+00    7.4646108101356665E+00    1.1066682714106172E+01
N    3.2132917024265666E+00    7.4480205402990052E+00    1.3059209739312385E+01
Ga    3.2094566726632849E+00    5.6288722935349425E+00    1.3861889427891462E+01
N    3.2060619318190295E+00    5.6317598312442305E+00    1.6060518608461127E+01
Ga    3.2116020477221436E+00    7.6776609800623810E+00    1.6484015021536432E+01
Ga    3.2454176702086568E+00    9.3678491794414054E+00    1.4810239520622273E+00
N    1.7112194243810690E+00    1.0192039978651612E+01    2.5293257748734610E+00
Ga    1.5941743836869817E+00    8.3791390097177931E+00    3.3417664192833181E+00
N    1.5971694207093876E+00    8.3988794485820026E+00    5.2638970605733277E+00
Ga    1.5832910060036507E+00    1.0282595826312399E+01    5.8131524229397931E+00
N    1.5967570248749143E+00    1.0269246510633540E+01    7.8022114336753781E+00
Ga    1.6184173750250683E+00    8.4164070082776430E+00    8.4523368097315732E+00
N    1.6147852602359125E+00    8.4185890061101833E+00    1.0439546752066464E+01
Ga    1.5903433575582400E+00    1.0279165004222921E+01    1.1068535015855261E+01
N    1.5736601020074172E+00    1.0288606436922073E+01    1.3059961331701244E+01
Ga    1.6159776693981098E+00    8.4190229618621775E+00    1.3614652966543707E+01
N    1.5875603753000223E+00    8.4062458859098168E+00    1.5574722810472526E+01
Ga    1.7749213952688832E+00    1.0171650045515893E+01    1.6485383669279333E+01
N    3.2154090014312091E+00    9.3433705582287967E+00    1.7633705380101937E+01
N    9.6623579041305323E+00    1.9088913777270087E+00    2.6138248450844435E+00
Ga    9.6607694491452545E+00    1.7267021980584493E-01    3.2957916081922662E+00
N    9.6464416797825265E+00    4.7505846719791966E-02    5.2555223102256505E+00
Ga    9.6579548587821797E+00    1.9111756486461395E+00    5.8694346320578914E+00
N    9.6474834031029690E+00    1.9087502391605808E+00    7.8451546729181798E+00
Ga    9.6489729738834065E+00    4.3006597812612374E-02    8.4366963483833182E+00
N    9.6455868188837783E+00    4.3164410964284278E-02    1.0429734279543014E+01
Ga    9.6447024762065432E+00    1.9135838461827164E+00    1.1020401632927593E+01
N    9.6431026871914511E+00    1.9153019341217863E+00    1.2992944250466184E+01
Ga    9.6458535815179385E+00    4.6056021518417617E-02    1.3615311146276145E+01
N    9.6422785996704441E+00    7.6173656055323488E-02    1.5576156587301570E+01
Ga    9.6453303551163874E+00    1.9134564681011124E+00    1.5858631774385628E+01
N    7.9407046624111217E+00    4.6258115086027445E+00    2.5194965634097084E+00
Ga    8.1555384341365400E+00    2.7753941241422537E+00    3.2944085850220919E+00
N    8.0436980068279684E+00    2.8324674370820748E+00    5.2516414568472918E+00
Ga    8.0638509912711491E+00    4.7073907285371517E+00    5.7873206718466816E+00
N    8.0493370180219053E+00    4.7011677481556493E+00    7.7879415107309340E+00
Ga    8.0292679395901860E+00    2.8443275842003453E+00    8.4269643324790042E+00
N    8.0264404916240082E+00    2.8475322551134443E+00    1.0424124636666656E+01
Ga    8.0523732735296178E+00    4.7055752966783624E+00    1.1063834486285764E+01
N    8.0690389204199793E+00    4.7170161023659327E+00    1.3060655064620605E+01
Ga    8.0261326472911350E+00    2.8485926497472378E+00    1.3614364335655566E+01
N    8.0471234143912120E+00    2.8349954183516073E+00    1.5581455425058403E+01
Ga    7.8926674831485073E+00    4.6121066064435086E+00    1.6467647643217678E+01
N    6.4260160264138797E+00    7.4726267969878988E+00    2.5889866944375668E+00
Ga    6.4252506889770196E+00    5.7310166628271721E+00    3.2754161286774921E+00
N    6.4314594907979830E+00    5.6193624134818290E+00    5.2362595195920525E+00
Ga    6.4315463344023911E+00    7.4752077345399934E+00    5.8643506779788979E+00
N    6.4309488548006835E+00    7.4791674304220344E+00    7.8404185025828887E+00
Ga    6.4325082928312804E+00    5.6111252091300079E+00    8.4328418934274669E+00
N    6.4315279327085815E+00    5.6144288687202977E+00    1.0429077702113233E+01
Ga    6.4320075046348588E+00    7.4829574742566214E+00    1.1023010683432577E+01
N    6.4326002947479450E+00    7.4838863101553841E+00    1.2998425987515553E+01
Ga    6.4294254512743843E+00    5.6132254497235055E+00    1.3615211989649358E+01
N    6.4329576743864907E+00    5.6408327772063416E+00    1.5585893222687185E+01
Ga    6.4271201921225627E+00    7.4842371049938068E+00    1.5861409845367868E+01
N    4.7267932235734351E+00    1.0206087524361322E+01    2.5303411584780391E+00
Ga    4.9278160596828302E+00    8.3451982897186436E+00    3.2923448273463762E+00
N    4.8204466604608429E+00    8.4078892662229059E+00    5.2502897065593901E+00
Ga    4.8530640209219609E+00    1.0278740920902479E+01    5.8009357444083678E+00
N    4.8330152952421983E+00    1.0271040380947852E+01    7.7974886630806441E+00
Ga    4.8158474158680136E+00    8.4160363003729888E+00    8.4398658033043201E+00
N    4.8136092564331916E+00    8.4179782246975456E+00    1.0433146046405010E+01
Ga    4.8380595476796939E+00    1.0278110461820972E+01    1.1065546024363767E+01
N    4.8528122551668371E+00    1.0288926033813016E+01    1.3058303176436372E+01
Ga    4.8098770812691294E+00    8.4200962496498164E+00    1.3613655403121692E+01
N    4.8377974765925904E+00    8.4032073705987163E+00    1.5574248693174995E+01
Ga    4.6556132759635176E+00    1.0175774527739842E+01    1.6483449615076253E+01
O    5.6535188535906256E-01    3.7927485034714099E+00   -4.2193466576204491E-01
H    6.7797182716335920E-03    7.4585297092228195E+00    1.6781784963967334E+00
C    7.9109921574496256E-01    2.4961852708764742E+00   -1.0099930693270454E+00
H    1.7686527784511750E+00    2.0883528112771428E+00   -7.1451695724170328E-01
H    2.3256645322479362E-02    1.7654407077722261E+00   -7.2083613263790802E-01
H    7.6277588995552092E-01    2.6066985948022219E+00   -2.1021099979437454E+00
Ga    3.1915614537592267E+00    5.6032840592873772E+00    2.4762302477665554E+00
O    2.9991981940655292E+00    5.7329718134109724E+00    2.2378152089947076E-01
H    2.4292400262960561E+00    5.0216260868629270E+00   -1.5525400260100480E-01
C    4.1616429655313985E+00    6.0062198478911100E+00   -5.8902525175403564E-01
H    4.0819415688342824E+00    7.0135990456729518E+00   -1.0075168804336008E+00
H    5.0537505133474232E+00    5.9679711970658369E+00    4.9244493905832694E-02
H    4.2577984272044551E+00    5.2835689751207262E+00   -1.3996448887539898E+00
     &END COORD
     &KIND C
       BASIS_SET DZVP-MOLOPT-SR-GTH-q4
       POTENTIAL GTH-PBE-q4
       &POTENTIAL
 2 2
  0.3384712400000000E+00 2 -0.8803673979999999E+01  0.1339210850000000E+01
 2
  0.3025757500000000E+00 1  0.9622486650000001E+01
  0.2915069400000000E+00 0
         # Potential name:  GTH-PBE-Q4  for symbol:  C
         # Potential read from the potential filename: GTH_POTENTIALS
       &END POTENTIAL
     &END KIND
     &KIND O
       BASIS_SET DZVP-MOLOPT-SR-GTH-q6
       POTENTIAL GTH-PBE-q6
       &POTENTIAL
 2 4
  0.2445543000000000E+00 2 -0.1666721480000000E+02  0.2487311320000000E+01
 2
  0.2209559200000000E+00 1  0.1833745811000000E+02
  0.2113324700000000E+00 0
         # Potential name:  GTH-PBE-Q6  for symbol:  O
         # Potential read from the potential filename: GTH_POTENTIALS
       &END POTENTIAL
     &END KIND
     &KIND H
       BASIS_SET DZVP-MOLOPT-SR-GTH-q1
       POTENTIAL GTH-PBE-q1
       &POTENTIAL
 1
  0.2000000000000000E+00 2 -0.4178900440000000E+01  0.7244633100000000E+00
 0
         # Potential name:  GTH-PBE-Q1  for symbol:  H
         # Potential read from the potential filename: GTH_POTENTIALS
       &END POTENTIAL
     &END KIND
     &KIND N
       BASIS_SET DZVP-MOLOPT-SR-GTH
       POTENTIAL GTH-PBE-q5
       &POTENTIAL
 2 3
  0.2837905100000000E+00 2 -0.1241522559000000E+02  0.1868095920000000E+01
 2
  0.2554050000000000E+00 1  0.1363026257000000E+02
  0.2454945300000000E+00 0
         # Potential name:  GTH-PBE-Q5  for symbol:  N
         # Potential read from the potential filename: GTH_POTENTIALS
       &END POTENTIAL
     &END KIND
     &KIND Ga
       BASIS_SET DZVP-MOLOPT-SR-GTH
       POTENTIAL GTH-PBE-q13
       &POTENTIAL
 2 1 10
  0.4900000000000000E+00 0
 3
  0.4167772300000000E+00 3  0.1047568975000000E+02 -0.4921768140000000E+01  0.8707055900000000E+00
  0.7770178090000000E+01 -0.2248152160000000E+01
  0.1784415450000000E+01
  0.5696265200000000E+00 2  0.1777985340000000E+01  0.1958597600000000E+00
 -0.2317443900000000E+00
  0.2381265000000000E+00 1 -0.1624868022000000E+02
         # Potential name:  GTH-PBE-Q13  for symbol:  GA
         # Potential read from the potential filename: GTH_POTENTIALS
       &END POTENTIAL
     &END KIND
     &TOPOLOGY
       NUMBER_OF_ATOMS  212
       MULTIPLE_UNIT_CELL  1 1 1
     &END TOPOLOGY
   &END SUBSYS
 &END FORCE_EVAL
