 # Version information for this restart file 
 # current date 2019-06-30 09:33:15.387
 # current working dir /scratch/rzk/rzk/GaN-carbene/443-adatoms-both-2x2/05-2DissMethanol/01-Combine0304-0202
 # Program compiled at                              Sun Apr  7 00:48:11 EDT 2019
 # Program compiled on                          beluga2.int.ets1.calculquebec.ca
 # Program compiled for                        Beluga-Linux-x86-64-intel-openmpi
 # Source code revision number                                         svn:18619
 &GLOBAL
   PRINT_LEVEL  MEDIUM
   PROJECT_NAME TEST
   RUN_TYPE  GEO_OPT
 &END GLOBAL
 &MOTION
   &GEO_OPT
     MAX_ITER  500
     STEP_START_VAL  143
   &END GEO_OPT
 &END MOTION
 &FORCE_EVAL
   METHOD  QS
   STRESS_TENSOR  ANALYTICAL
   &DFT
     BASIS_SET_FILE_NAME BASIS_MOLOPT
     POTENTIAL_FILE_NAME GTH_POTENTIALS
     UKS  T
     SURFACE_DIPOLE_CORRECTION  T
     SURF_DIP_DIR  Z
     &SCF
       MAX_SCF  80
       EPS_SCF     5.0000000000000004E-06
       &OT  T
         PRECONDITIONER  FULL_ALL
       &END OT
       &OUTER_SCF  T
         OPTIMIZER  NONE
         EPS_SCF     5.0000000000000004E-06
         MAX_SCF  4
       &END OUTER_SCF
       &PRINT
         &RESTART  OFF
           BACKUP_COPIES  1
           &EACH
             JUST_ENERGY  0
             QS_SCF  0
             MD  20
           &END EACH
         &END RESTART
       &END PRINT
     &END SCF
     &QS
       EPS_DEFAULT     1.0000000000000000E-14
       METHOD  GPW
     &END QS
     &MGRID
       NGRIDS  5
       CUTOFF     1.2000000000000000E+03
     &END MGRID
     &XC
       DENSITY_CUTOFF     1.0000000000000000E-10
       GRADIENT_CUTOFF     1.0000000000000000E-10
       TAU_CUTOFF     1.0000000000000000E-10
       &XC_FUNCTIONAL  NO_SHORTCUT
         &PBE  T
         &END PBE
       &END XC_FUNCTIONAL
       &VDW_POTENTIAL
         POTENTIAL_TYPE  PAIR_POTENTIAL
         &PAIR_POTENTIAL
           R_CUTOFF     1.0000000000000005E+01
           TYPE  DFTD3
           PARAMETER_FILE_NAME dftd3.dat
           REFERENCE_FUNCTIONAL PBE
           EPS_CN     9.9999999999999995E-07
           CALCULATE_C9_TERM  T
           REFERENCE_C9_TERM  T
           LONG_RANGE_CORRECTION  F
           VERBOSE_OUTPUT  F
         &END PAIR_POTENTIAL
       &END VDW_POTENTIAL
     &END XC
   &END DFT
   &SUBSYS
     &CELL
       A     1.2864472766435110E+01    0.0000000000000000E+00    0.0000000000000000E+00
       B    -6.4322363581020028E+00    1.1140960178524475E+01    0.0000000000000000E+00
       C     0.0000000000000000E+00    0.0000000000000000E+00    3.2000000000000000E+01
       MULTIPLE_UNIT_CELL  1 1 1
       &CELL_REF
         A     1.2982353780853531E+01    0.0000000000000000E+00    0.0000000000000000E+00
         B    -6.4911768904267628E+00    1.1243048175136114E+01    0.0000000000000000E+00
         C     0.0000000000000000E+00    0.0000000000000000E+00    3.2000000000000000E+01
         MULTIPLE_UNIT_CELL  1 1 1
       &END CELL_REF
     &END CELL
     &COORD
N    4.7144386258220759E-04    2.0545353169409331E+00    2.5033207069313335E+00
Ga   -3.1612562492090890E-03    9.3726081419106128E-02    2.8536929942521900E+00
N   -6.6451700528927498E-03    5.9693257157457658E-02    5.0084104459253345E+00
Ga   -4.6639671236922827E-03    1.8913913422858635E+00    5.7992604087942237E+00
N   -6.7767524992998623E-03    1.9003907414188881E+00    7.7947054541541210E+00
Ga   -4.6882899114535177E-03    5.6080612880380215E-02    8.4419135570858881E+00
N   -4.7256253816313522E-03    5.5116414860737428E-02    1.0413450241782343E+01
Ga   -4.9282370751036666E-03    1.8940469541595053E+00    1.1073170795414354E+01
N   -5.4483654292651782E-03    1.8751420704997359E+00    1.3061669076091569E+01
Ga   -7.0966746076483334E-03    5.7324523139060307E-02    1.3875805835157459E+01
N   -5.9336115977627248E-03    5.6984753647521653E-02    1.6067679324905178E+01
Ga   -5.8376776326575456E-03    2.1067597902049826E+00    1.6487193106422929E+01
Ga    3.1065817942267385E-02    3.7358520916062301E+00    1.3673265256863405E+00
N   -1.4733169677318227E+00    4.6350606955026974E+00    2.4718767180991144E+00
Ga   -1.6812558048564243E+00    2.7969430914816202E+00    3.2637976219301823E+00
N   -1.6151676208686159E+00    2.8445557208380849E+00    5.2411889786107304E+00
Ga   -1.6415506315359376E+00    4.7068359433994331E+00    5.8115313382534906E+00
N   -1.6247701800271601E+00    4.7050228391093434E+00    7.7997055642795443E+00
Ga   -1.6026561677692062E+00    2.8453718778324264E+00    8.4418431912415706E+00
N   -1.6023534044958356E+00    2.8478214818986984E+00    1.0430420790121776E+01
Ga   -1.6305979038136271E+00    4.7064721092575974E+00    1.1076323746084036E+01
N   -1.6462029749852398E+00    4.7164287154220510E+00    1.3063678073546090E+01
Ga   -1.6018149007993630E+00    2.8472129093116094E+00    1.3622785790292196E+01
N   -1.6286697809771660E+00    2.8324224263068101E+00    1.5578810590930301E+01
Ga   -1.4457711212019106E+00    4.6007290237244574E+00    1.6487444736758171E+01
N    2.4906796498176217E-05    3.7725550452116603E+00    1.7634929996379807E+01
N   -3.2132708808892914E+00    7.6023756555199204E+00    2.5012014961292111E+00
Ga   -3.1968968093052870E+00    5.6043609818995916E+00    2.8497874326277546E+00
N   -3.2167225450556711E+00    5.6242937774465824E+00    5.0061034033317071E+00
Ga   -3.2287261917379841E+00    7.4474389210075866E+00    5.7982511971679740E+00
N   -3.2203004936306305E+00    7.4731908478934548E+00    7.7866514821153654E+00
Ga   -3.2233242195232825E+00    5.6263567558818117E+00    8.4474672958824577E+00
N   -3.2220894808192195E+00    5.6277635142224822E+00    1.0416442113565383E+01
Ga   -3.2235732259675265E+00    7.4661787664977108E+00    1.1074158902326380E+01
N   -3.2216571458228045E+00    7.4461303449073073E+00    1.3064445945060477E+01
Ga   -3.2215427724680419E+00    5.6238130161895779E+00    1.3877338524806515E+01
N   -3.2214307735848093E+00    5.6258760751217949E+00    1.6068228822488052E+01
Ga   -3.2214735319292167E+00    7.6663498374465329E+00    1.6475243854269753E+01
Ga   -3.2503191813552434E+00    9.3617754351813396E+00    1.4251072939078808E+00
N   -4.7277155941641249E+00    1.0212428269806656E+01    2.5119915670795536E+00
Ga   -4.9334793104020305E+00    8.3537429674488575E+00    3.2631320466910170E+00
N   -4.8306876256599027E+00    8.4092401024494912E+00    5.2286274108330213E+00
Ga   -4.8554412081869582E+00    1.0284890909837699E+01    5.7877504587992119E+00
N   -4.8380314432970151E+00    1.0273866486033373E+01    7.7828593763668419E+00
Ga   -4.8228050014594777E+00    8.4180112373900560E+00    8.4321319965623474E+00
N   -4.8181644496963418E+00    8.4183105526322688E+00    1.0422936555516491E+01
Ga   -4.8448287325529211E+00    1.0276800789310771E+01    1.1071201197580539E+01
N   -4.8615462607094484E+00    1.0287036239777448E+01    1.3062632868529528E+01
Ga   -4.8188338581883041E+00    8.4182386622536054E+00    1.3623326382560581E+01
N   -4.8494261548918542E+00    8.4008208784049980E+00    1.5582695817818113E+01
Ga   -4.6719214180556614E+00    1.0178409787099161E+01    1.6474721711669488E+01
N   -3.2217530657789739E+00    9.3412877203750622E+00    1.7590945798670685E+01
N    3.1947232973869202E+00    1.9304655129011157E+00    2.5904295954230032E+00
Ga    3.2059611900633991E+00    1.8323952112180938E-01    3.2681102888450324E+00
N    3.2134917589400929E+00    6.0034296551383724E-02    5.2333483403699237E+00
Ga    3.2091459866699319E+00    1.9223987825152451E+00    5.8718338320137029E+00
N    3.2130226078953488E+00    1.9133794300783251E+00    7.8445108361434608E+00
Ga    3.2086222414537979E+00    4.7265853464025724E-02    8.4366984564088749E+00
N    3.2107446465600957E+00    4.2323187582821255E-02    1.0426327003428661E+01
Ga    3.2107028261439234E+00    1.9115192304931492E+00    1.1030782077001668E+01
N    3.2111738571326951E+00    1.9120640539822833E+00    1.2997229663209751E+01
Ga    3.2107616799176504E+00    4.3964451576059875E-02    1.3622587296340106E+01
N    3.2108669430873316E+00    7.9467203663891567E-02    1.5582111981680891E+01
Ga    3.2111047216712412E+00    1.9175166960445520E+00    1.5859487156661391E+01
N    1.4703182997294033E+00    4.6384359658868419E+00    2.5147056319559340E+00
Ga    1.6846222931005908E+00    2.8123562132038464E+00    3.2951119704779446E+00
N    1.6028490614315771E+00    2.8465176412924773E+00    5.2575905678605412E+00
Ga    1.6530870411007270E+00    4.7212617843640778E+00    5.8247733461560554E+00
N    1.6012885317164092E+00    4.7002806020597152E+00    7.8238247101183962E+00
Ga    1.5915908426578476E+00    2.8445314903947927E+00    8.4449281287746185E+00
N    1.5920632154906451E+00    2.8445502536710401E+00    1.0434158241150815E+01
Ga    1.6195610854223472E+00    4.7060878957774124E+00    1.1073028906584554E+01
N    1.6350181167201865E+00    4.7163666016582102E+00    1.3063385250344689E+01
Ga    1.5912061538761875E+00    2.8473280851484080E+00    1.3623102426711537E+01
N    1.6167028122983325E+00    2.8308301193985272E+00    1.5580336070920824E+01
Ga    1.4395852383078680E+00    4.6039839125441446E+00    1.6487322742719364E+01
N   -5.4713623385317916E-03    7.4719523337932028E+00    2.6887170975902164E+00
Ga    7.3959129797136853E-03    5.6197018369514025E+00    3.3405615717219739E+00
N   -7.8380355623984769E-03    5.6401550862664642E+00    5.2661586299130967E+00
Ga   -2.0510839480300980E-04    7.4790740350986704E+00    5.9078064913453430E+00
N   -4.4367092650203230E-03    7.4861949460960471E+00    7.8613852223694591E+00
Ga   -7.1314268599110510E-03    5.6116476874734467E+00    8.4561698177043318E+00
N   -8.2777426757649087E-03    5.6155108262859343E+00    1.0440174925679882E+01
Ga   -6.9371747563211992E-03    7.4841026724825905E+00    1.1035747087489266E+01
N   -5.9188393417479272E-03    7.4841699171127294E+00    1.3000391926750060E+01
Ga   -5.2866237159921049E-03    5.6127054972933337E+00    1.3624147441887112E+01
N   -7.4120857551065091E-03    5.6441282153368819E+00    1.5581125539764580E+01
Ga   -1.3575379506534520E-03    7.4815870031902953E+00    1.5860086487968088E+01
N   -1.7121281931202312E+00    1.0206649206212631E+01    2.5081379549741940E+00
Ga   -1.5981357722943494E+00    8.4021391887490164E+00    3.3206030550779806E+00
N   -1.5998016917475002E+00    8.4063381572026916E+00    5.2470964100582895E+00
Ga   -1.5902822345492613E+00    1.0292632899414597E+01    5.8044075447792087E+00
N   -1.6043161703104980E+00    1.0273009666453731E+01    7.7906257383753097E+00
Ga   -1.6264366376862665E+00    8.4192697046336225E+00    8.4469587873696774E+00
N   -1.6259013301286447E+00    8.4189764901099888E+00    1.0431630897963691E+01
Ga   -1.5986644745204026E+00    1.0278951988224797E+01    1.1074317075586794E+01
N   -1.5804998264783683E+00    1.0287803689907870E+01    1.3064483553680146E+01
Ga   -1.6244878714390933E+00    8.4184881569121295E+00    1.3623869589033617E+01
N   -1.5932463216605182E+00    8.4007494860912324E+00    1.5583175606190954E+01
Ga   -1.7711270875468543E+00    1.0178309824835644E+01    1.6475015340834339E+01
N    6.4270470034162717E+00    2.0381596496926213E+00    2.5339425895495000E+00
Ga    6.4284124261113211E+00    6.4720347361998276E-02    2.8835008002528291E+00
N    6.4289892288042649E+00    5.6684306200002317E-02    5.0174071354344543E+00
Ga    6.4208542115773160E+00    1.8952596546329985E+00    5.7984805159993318E+00
N    6.4257869634114932E+00    1.9010515380667987E+00    7.7907207064229649E+00
Ga    6.4269568022993981E+00    5.8031323309363031E-02    8.4463696933600101E+00
N    6.4269350736914594E+00    5.5972651680358441E-02    1.0415392871025249E+01
Ga    6.4279490061209428E+00    1.8957125337032952E+00    1.1073862378206668E+01
N    6.4280379879443306E+00    1.8754277636213634E+00    1.3061904542539938E+01
Ga    6.4295850576922984E+00    5.7917726727945096E-02    1.3877764283093976E+01
N    6.4281837903313281E+00    5.7280950768083219E-02    1.6068322540937924E+01
Ga    6.4280039554985704E+00    2.1075407226223617E+00    1.6487840139477235E+01
Ga    6.4668151902171127E+00    3.7423585229673542E+00    1.4891634106535225E+00
N    4.9242362969423628E+00    4.6377896512076635E+00    2.4161866172379245E+00
Ga    4.6976388790361918E+00    2.8133377384507643E+00    3.2740432394342567E+00
N    4.8178129738231883E+00    2.8504081786991411E+00    5.2333504295666788E+00
Ga    4.7752877730849859E+00    4.7252226169123182E+00    5.8170754108039064E+00
N    4.8207138882112499E+00    4.6979745118182725E+00    7.8181899219492257E+00
Ga    4.8297928204888727E+00    2.8459910104654926E+00    8.4482239908269587E+00
N    4.8303948829148826E+00    2.8449448572201024E+00    1.0435287303078503E+01
Ga    4.8042536149336126E+00    4.7075175765194599E+00    1.1071761739044662E+01
N    4.7880269654970249E+00    4.7165645764069692E+00    1.3062421672546677E+01
Ga    4.8311135217111296E+00    2.8475841116848204E+00    1.3622825550516728E+01
N    4.8054547042199998E+00    2.8308259033160472E+00    1.5580055047422405E+01
Ga    4.9829233053507620E+00    4.6039414050175784E+00    1.6487188719976832E+01
N    6.4218933085645959E+00    3.7731262405598098E+00    1.7634892653888240E+01
N    3.2041884247340198E+00    7.6020143906054400E+00    2.4144034405012569E+00
N    3.2120696372015547E+00    5.6310749445090966E+00    5.1462204526978503E+00
Ga    3.2190979486304649E+00    7.4270978017324500E+00    5.8292427707245684E+00
N    3.2097789537969970E+00    7.4876914608000762E+00    7.8223864520282342E+00
Ga    3.2119155154820600E+00    5.6260631857816366E+00    8.4443008727967559E+00
N    3.2114676150159207E+00    5.6273658218580112E+00    1.0420223034862119E+01
Ga    3.2129766080104494E+00    7.4651640668446637E+00    1.1074340639621349E+01
N    3.2116416649383903E+00    7.4471016263171430E+00    1.3063843331365076E+01
Ga    3.2116482108576152E+00    5.6263183864079629E+00    1.3875265591877836E+01
N    3.2113512660005861E+00    5.6268527910952990E+00    1.6067121318990523E+01
Ga    3.2112978390618885E+00    7.6729477342673862E+00    1.6487936205582741E+01
Ga    3.2361687404029085E+00    9.3901840853728071E+00    1.4474790926892382E+00
N    1.7081025833629897E+00    1.0195077657339729E+01    2.5185798469947898E+00
Ga    1.6018649706635724E+00    8.3684778243885471E+00    3.3175014695314999E+00
N    1.5980751537029858E+00    8.4021531324148739E+00    5.2417139875792849E+00
Ga    1.5795206188254269E+00    1.0284264733859969E+01    5.8065090838089093E+00
N    1.5918841277243732E+00    1.0272616359104855E+01    7.7928894894660194E+00
Ga    1.6149981096333639E+00    8.4220428916391530E+00    8.4594407162982339E+00
N    1.6117503201938268E+00    8.4205389896627025E+00    1.0441140652616262E+01
Ga    1.5877171188563901E+00    1.0279986041262863E+01    1.1076941143744875E+01
N    1.5709925955148325E+00    1.0288359720549867E+01    1.3063722587478223E+01
Ga    1.6149628901940556E+00    8.4191725144225416E+00    1.3624571293282175E+01
N    1.5868877542291810E+00    8.4056838905128100E+00    1.5581416947327304E+01
Ga    1.7717101444196306E+00    1.0172939066846650E+01    1.6488337551968513E+01
N    3.2116238547768026E+00    9.3349887063819139E+00    1.7635547342424882E+01
N    9.6528253583280197E+00    1.9179413518714246E+00    2.6065976587365700E+00
Ga    9.6515709659052753E+00    1.7899277356595367E-01    3.2911843934830891E+00
N    9.6418206079205202E+00    5.5914854577855624E-02    5.2480531682618734E+00
Ga    9.6514573527782446E+00    1.9169151142606919E+00    5.8771381527550348E+00
N    9.6432966220996654E+00    1.9125005800370689E+00    7.8465019678404682E+00
Ga    9.6455467129581951E+00    4.4459421858973107E-02    8.4374199922525523E+00
N    9.6432173088065394E+00    4.2522786773300743E-02    1.0426752584700109E+01
Ga    9.6425622819036167E+00    1.9128447025026563E+00    1.1026598135665839E+01
N    9.6428187597564161E+00    1.9127424844027248E+00    1.2995255554151653E+01
Ga    9.6438861794583239E+00    4.3371584683418840E-02    1.3623815862280701E+01
N    9.6436618345622218E+00    7.4622620391464098E-02    1.5579490924767921E+01
Ga    9.6434118897588785E+00    1.9132742821257771E+00    1.5854182941223996E+01
N    7.9294491935268727E+00    4.6345923517634473E+00    2.5239862001363025E+00
Ga    8.1478085788097108E+00    2.7830447145002499E+00    3.3005306562096526E+00
N    8.0386135139479649E+00    2.8403029657922696E+00    5.2538152728132426E+00
Ga    8.0533302033645491E+00    4.7167064127128722E+00    5.7923500872053575E+00
N    8.0452899264994002E+00    4.7069596416527828E+00    7.7869743254175203E+00
Ga    8.0246140864165962E+00    2.8486556935102434E+00    8.4348703392122388E+00
N    8.0237891816510327E+00    2.8483617822142042E+00    1.0425472640035570E+01
Ga    8.0503357844946937E+00    4.7066815988027457E+00    1.1073823644835169E+01
N    8.0677871061760182E+00    4.7162734365672927E+00    1.3061884006677497E+01
Ga    8.0238905064452428E+00    2.8479001707570655E+00    1.3623376012296099E+01
N    8.0511035499149397E+00    2.8326068052718871E+00    1.5579163760284594E+01
Ga    7.8675038623270810E+00    4.6007854972386921E+00    1.6487973618851321E+01
N    6.4207612403402923E+00    7.4796218332781139E+00    2.5752879221320506E+00
Ga    6.3979398368289671E+00    5.7388816586813647E+00    3.2675991595594724E+00
N    6.4204826247067670E+00    5.6235187660131993E+00    5.2274075800181619E+00
Ga    6.4194207262562086E+00    7.4797781747568832E+00    5.8609491181397875E+00
N    6.4252246522022354E+00    7.4833195716457741E+00    7.8343496114840585E+00
Ga    6.4290922946478952E+00    5.6161679979363592E+00    8.4445718626060913E+00
N    6.4300914448005688E+00    5.6161255120358691E+00    1.0432472623765459E+01
Ga    6.4290328217265769E+00    7.4841295515467348E+00    1.1030847456855861E+01
N    6.4281827460205605E+00    7.4839556139080523E+00    1.2996938081074033E+01
Ga    6.4278954458828661E+00    5.6133690895749639E+00    1.3623410567039151E+01
N    6.4297687841475204E+00    5.6443358180776348E+00    1.5580417331250278E+01
Ga    6.4234349737289209E+00    7.4815494669516021E+00    1.5860372020081256E+01
N    4.7141374890114696E+00    1.0208124166830951E+01    2.5190346511897910E+00
Ga    4.9049958649669234E+00    8.3336931345620737E+00    3.2659503116190494E+00
N    4.8085389341297438E+00    8.4096556104086080E+00    5.2265943971903308E+00
Ga    4.8468804140433912E+00    1.0278311529370733E+01    5.7935582799126859E+00
N    4.8300589172980377E+00    1.0273384161342305E+01    7.7874542987808342E+00
Ga    4.8123554353642888E+00    8.4208344991218720E+00    8.4469470944184089E+00
N    4.8114403486284676E+00    8.4197874871975404E+00    1.0433634749657212E+01
Ga    4.8353287938014216E+00    1.0278247079670411E+01    1.1073664908376063E+01
N    4.8512696371191248E+00    1.0287837811800776E+01    1.3061611273140784E+01
Ga    4.8083884968795116E+00    8.4192039703848778E+00    1.3623804274751416E+01
N    4.8355508501859816E+00    8.4058186379218363E+00    1.5580718842563096E+01
Ga    4.6511624430215024E+00    1.0172958280988901E+01    1.6488112586408207E+01
O    7.1839293358620127E-01    3.8556407314366630E+00   -3.7278827692127209E-01
H   -7.8585599586292066E-03    7.4574495452620413E+00    1.6619793497715729E+00
C    1.1450472068106705E+00    2.5923693091838573E+00   -9.3342222875140846E-01
H    1.8451652632080036E+00    2.0619098138291507E+00   -2.6428993587642602E-01
H    2.8440052457065734E-01    1.9362912287818017E+00   -1.1348795691094573E+00
H    1.6509984419048738E+00    2.8022890398713609E+00   -1.8876024458135794E+00
Ga    3.1691007446092989E+00    5.5912771933428864E+00    2.2638903695643320E+00
O    2.8258929250266167E+00    5.4671809025173292E+00    1.3552126178149440E-01
H    2.0526272244928165E+00    4.8304165906341439E+00   -6.1901663334405083E-02
C    3.8964040997217730E+00    5.2530453644343140E+00   -8.0463913094056605E-01
H    3.5351389172191552E+00    5.4228805322536813E+00   -1.8285898381580696E+00
H    4.6901351309237160E+00    5.9743970621737894E+00   -5.7121561337168136E-01
H    4.3000934894601830E+00    4.2311773074676067E+00   -7.2068703242637711E-01
     &END COORD
     &KIND C
       BASIS_SET DZVP-MOLOPT-SR-GTH-q4
       POTENTIAL GTH-PBE-q4
       &POTENTIAL
2 2
0.3384712400000000E+00 2 -0.8803673979999999E+01  0.1339210850000000E+01
2
0.3025757500000000E+00 1  0.9622486650000001E+01
0.2915069400000000E+00 0
       &END POTENTIAL
     &END KIND
     &KIND O
       BASIS_SET DZVP-MOLOPT-SR-GTH-q6
       POTENTIAL GTH-PBE-q6
       &POTENTIAL
2 4
0.2445543000000000E+00 2 -0.1666721480000000E+02  0.2487311320000000E+01
2
0.2209559200000000E+00 1  0.1833745811000000E+02
0.2113324700000000E+00 0
       &END POTENTIAL
     &END KIND
     &KIND H
       BASIS_SET DZVP-MOLOPT-SR-GTH-q1
       POTENTIAL GTH-PBE-q1
       &POTENTIAL
1
0.2000000000000000E+00 2 -0.4178900440000000E+01  0.7244633100000000E+00
0
       &END POTENTIAL
     &END KIND
     &KIND N
       BASIS_SET DZVP-MOLOPT-SR-GTH
       POTENTIAL GTH-PBE-q5
       &POTENTIAL
2 3
0.2837905100000000E+00 2 -0.1241522559000000E+02  0.1868095920000000E+01
2
0.2554050000000000E+00 1  0.1363026257000000E+02
0.2454945300000000E+00 0
       &END POTENTIAL
     &END KIND
     &KIND Ga
       BASIS_SET DZVP-MOLOPT-SR-GTH
       POTENTIAL GTH-PBE-q13
       &POTENTIAL
2 1 10
0.4900000000000000E+00 0
3
0.4167772300000000E+00 3  0.1047568975000000E+02 -0.4921768140000000E+01  0.8707055900000000E+00
0.7770178090000000E+01 -0.2248152160000000E+01
0.1784415450000000E+01
0.5696265200000000E+00 2  0.1777985340000000E+01  0.1958597600000000E+00
-0.2317443900000000E+00
0.2381265000000000E+00 1 -0.1624868022000000E+02
       &END POTENTIAL
     &END KIND
     &TOPOLOGY
       NUMBER_OF_ATOMS  212
       MULTIPLE_UNIT_CELL  1 1 1
     &END TOPOLOGY
   &END SUBSYS
 &END FORCE_EVAL
