 # Version information for this restart file 
 # current date 2019-06-28 23:09:02.829
 # current working dir /scratch/rzk/rzk/GaN-carbene/443-adatoms-both-2x2/05-2DissMethanol/01-Combine0304-0202
 # Program compiled at                              Sun Apr  7 00:48:11 EDT 2019
 # Program compiled on                          beluga2.int.ets1.calculquebec.ca
 # Program compiled for                        Beluga-Linux-x86-64-intel-openmpi
 # Source code revision number                                         svn:18619
 &GLOBAL
   PRINT_LEVEL  MEDIUM
   PROJECT_NAME TEST
   RUN_TYPE  GEO_OPT
 &END GLOBAL
 &MOTION
   &GEO_OPT
     MAX_ITER  500
     STEP_START_VAL  37
   &END GEO_OPT
 &END MOTION
 &FORCE_EVAL
   METHOD  QS
   STRESS_TENSOR  ANALYTICAL
   &DFT
     BASIS_SET_FILE_NAME BASIS_MOLOPT
     POTENTIAL_FILE_NAME GTH_POTENTIALS
     UKS  T
     SURFACE_DIPOLE_CORRECTION  T
     SURF_DIP_DIR  Z
     &SCF
       MAX_SCF  80
       EPS_SCF     5.0000000000000004E-06
       &OT  T
         PRECONDITIONER  FULL_ALL
       &END OT
       &OUTER_SCF  T
         OPTIMIZER  NONE
         EPS_SCF     5.0000000000000004E-06
         MAX_SCF  4
       &END OUTER_SCF
       &PRINT
         &RESTART  OFF
           BACKUP_COPIES  1
           &EACH
             JUST_ENERGY  0
             QS_SCF  0
             MD  20
           &END EACH
         &END RESTART
       &END PRINT
     &END SCF
     &QS
       EPS_DEFAULT     1.0000000000000000E-14
       METHOD  GPW
     &END QS
     &MGRID
       NGRIDS  5
       CUTOFF     1.2000000000000000E+03
     &END MGRID
     &XC
       DENSITY_CUTOFF     1.0000000000000000E-10
       GRADIENT_CUTOFF     1.0000000000000000E-10
       TAU_CUTOFF     1.0000000000000000E-10
       &XC_FUNCTIONAL  NO_SHORTCUT
         &PBE  T
         &END PBE
       &END XC_FUNCTIONAL
       &VDW_POTENTIAL
         POTENTIAL_TYPE  PAIR_POTENTIAL
         &PAIR_POTENTIAL
           R_CUTOFF     1.0000000000000004E+01
           TYPE  DFTD3
           PARAMETER_FILE_NAME dftd3.dat
           REFERENCE_FUNCTIONAL PBE
           EPS_CN     9.9999999999999995E-07
           CALCULATE_C9_TERM  T
           REFERENCE_C9_TERM  T
           LONG_RANGE_CORRECTION  F
           VERBOSE_OUTPUT  F
         &END PAIR_POTENTIAL
       &END VDW_POTENTIAL
     &END XC
   &END DFT
   &SUBSYS
     &CELL
       A     1.2864472766435110E+01    0.0000000000000000E+00    0.0000000000000000E+00
       B    -6.4322363581020028E+00    1.1140960178524473E+01    0.0000000000000000E+00
       C     0.0000000000000000E+00    0.0000000000000000E+00    3.2000000000000000E+01
       MULTIPLE_UNIT_CELL  1 1 1
       &CELL_REF
         A     1.2982353780853531E+01    0.0000000000000000E+00    0.0000000000000000E+00
         B    -6.4911768904267628E+00    1.1243048175136114E+01    0.0000000000000000E+00
         C     0.0000000000000000E+00    0.0000000000000000E+00    3.2000000000000000E+01
         MULTIPLE_UNIT_CELL  1 1 1
       &END CELL_REF
     &END CELL
     &COORD
N    1.3530541688872248E-02    2.0506111263008462E+00    2.5021265531127730E+00
Ga    1.7843477339513927E-02    8.8238934454554566E-02    2.8410926329333317E+00
N    2.5154688579810496E-04    5.4884694338821559E-02    5.0154460417588265E+00
Ga    1.2198224235610122E-03    1.8847632523591991E+00    5.7932591563819562E+00
N   -1.6221611858306419E-03    1.8970845281742321E+00    7.7955601309172042E+00
Ga    3.2914501686221272E-04    5.2730892893136025E-02    8.4369217505066114E+00
N   -2.6311629990081386E-03    5.4352044462613332E-02    1.0415097699882629E+01
Ga   -1.7486208264431145E-03    1.8948984764450574E+00    1.1065089592983707E+01
N   -4.5026597988391502E-03    1.8775494071827830E+00    1.3062934370989238E+01
Ga   -4.6344014940541862E-03    5.7465160759494198E-02    1.3858286682279299E+01
N    6.6658284987265216E-04    5.4499850397137860E-02    1.6069548553572517E+01
Ga   -2.6141906278824125E-03    2.0949904327965161E+00    1.6476963204013110E+01
Ga    7.3818578059677800E-02    3.7455234124745571E+00    1.3549126807028291E+00
N   -1.4595529759142531E+00    4.6314398575210562E+00    2.4719728596248296E+00
Ga   -1.6641667978457897E+00    2.7954515086603458E+00    3.2510737785445176E+00
N   -1.6069915783142648E+00    2.8392237209594056E+00    5.2386428062646671E+00
Ga   -1.6353157727355401E+00    4.7003483845028047E+00    5.8058395838753922E+00
N   -1.6185015969660910E+00    4.7008163283295481E+00    7.8000806014381165E+00
Ga   -1.5980439562249502E+00    2.8412408232856388E+00    8.4331546965739346E+00
N   -1.5993347200537607E+00    2.8461036593272415E+00    1.0428630225983559E+01
Ga   -1.6258910993475539E+00    4.7044978228071743E+00    1.1067253022148739E+01
N   -1.6425482146207584E+00    4.7160023215019544E+00    1.3063421453171294E+01
Ga   -1.6015905918191300E+00    2.8479012797904741E+00    1.3621615621295918E+01
N   -1.6254172247839587E+00    2.8370211200624569E+00    1.5587966481739462E+01
Ga   -1.4549346460351238E+00    4.6105298597981461E+00    1.6476800338950465E+01
N    7.3395149053917651E-03    3.7734595416148928E+00    1.7611770853763012E+01
N   -3.2042150296571021E+00    7.5932349188954023E+00    2.5044131836751298E+00
Ga   -3.1817267705031855E+00    5.6036489875543758E+00    2.8396320489314211E+00
N   -3.2095529951532282E+00    5.6161613201614813E+00    5.0142391835096634E+00
Ga   -3.2220398106120012E+00    7.4417801703453135E+00    5.7927313747983638E+00
N   -3.2158719655130192E+00    7.4690572851669108E+00    7.7887300093043450E+00
Ga   -3.2179734667241049E+00    5.6229362587585525E+00    8.4409270280512096E+00
N   -3.2184300055649273E+00    5.6261004128741856E+00    1.0416109457029012E+01
Ga   -3.2198252844160393E+00    7.4654722291382623E+00    1.1065416024008677E+01
N   -3.2195600191940859E+00    7.4471061070537381E+00    1.3061450656201814E+01
Ga   -3.2193018104689624E+00    5.6246876472720722E+00    1.3860216999284699E+01
N   -3.2242465649065815E+00    5.6353503546411341E+00    1.6068608354692817E+01
Ga   -3.2227229025928592E+00    7.6643507315873265E+00    1.6475858323766118E+01
Ga   -3.2423050358439323E+00    9.3544225820911535E+00    1.3729577361477998E+00
N   -4.7171841877572804E+00    1.0202470992695734E+01    2.5145235308449485E+00
Ga   -4.9122063133504623E+00    8.3514476129398325E+00    3.2561765611790103E+00
N   -4.8230665672463680E+00    8.4026922004027984E+00    5.2312073249609847E+00
Ga   -4.8488565897731775E+00    1.0277942832813270E+01    5.7823613578867246E+00
N   -4.8346544761346850E+00    1.0269045700741488E+01    7.7860597051324474E+00
Ga   -4.8174850877480599E+00    8.4142740816268962E+00    8.4266202878031269E+00
N   -4.8148901054079332E+00    8.4164183067383220E+00    1.0424125207497630E+01
Ga   -4.8414413734041677E+00    1.0275524271082492E+01    1.1060875362608234E+01
N   -4.8598154772721758E+00    1.0287931465811088E+01    1.3057281033348064E+01
Ga   -4.8177630006412882E+00    8.4196262509348276E+00    1.3614926563055937E+01
N   -4.8441549683019716E+00    8.4079247153676278E+00    1.5577940733620229E+01
Ga   -4.6690355168404638E+00    1.0177701602481934E+01    1.6476495467018687E+01
N   -3.2077551842147289E+00    9.3427269212027433E+00    1.7619603219593209E+01
N    3.2073323564071692E+00    1.9167252083953301E+00    2.6137356579110245E+00
Ga    3.2143759210614831E+00    1.5940771989082200E-01    3.2629484991144788E+00
N    3.2196884555813279E+00    5.1069462064878682E-02    5.2379237675924317E+00
Ga    3.2147701102269779E+00    1.9100720804719256E+00    5.8659877755853413E+00
N    3.2170215559155357E+00    1.9079452556992855E+00    7.8451557989791398E+00
Ga    3.2123327048358483E+00    4.2449705462039689E-02    8.4287371400054134E+00
N    3.2141813796743013E+00    4.1187347905477754E-02    1.0426272368329169E+01
Ga    3.2140473537300633E+00    1.9108887682654994E+00    1.1022815232419703E+01
N    3.2124756275007185E+00    1.9136872007354977E+00    1.2998092823716576E+01
Ga    3.2118817829111661E+00    4.4109164461031164E-02    1.3614492930815910E+01
N    3.2071583159847967E+00    7.6206920129534755E-02    1.5579578255020685E+01
Ga    3.2127062398216837E+00    1.9167974241138677E+00    1.5861702831628435E+01
N    1.4884252019429844E+00    4.6345343363630107E+00    2.5298757366493705E+00
Ga    1.6915584681092855E+00    2.7970855269765984E+00    3.2949273623251201E+00
N    1.6105561247154629E+00    2.8394949338242634E+00    5.2616474859627642E+00
Ga    1.6589643348706831E+00    4.7139742367625468E+00    5.8101296293544893E+00
N    1.6101445846318336E+00    4.6985200037570118E+00    7.8148991808321355E+00
Ga    1.5973538980664275E+00    2.8414450915099629E+00    8.4339630424949750E+00
N    1.5955744949292534E+00    2.8445310444105991E+00    1.0432066334639799E+01
Ga    1.6222310794451165E+00    4.7045275572212990E+00    1.1068291159051750E+01
N    1.6358606264475208E+00    4.7172901384664074E+00    1.3066941874188680E+01
Ga    1.5925575872140723E+00    2.8484612361476955E+00    1.3621027483131657E+01
N    1.6173445752414233E+00    2.8344011161084151E+00    1.5588161716937423E+01
Ga    1.4570200402468192E+00    4.6150252054531578E+00    1.6475341500523616E+01
N    5.7570273743937890E-03    7.4693027869844242E+00    2.6977867410818637E+00
Ga    1.0401415788281331E-02    5.6156060708216513E+00    3.3392858262855634E+00
N   -8.4034815214508653E-05    5.6353039528376554E+00    5.2683132060753124E+00
Ga    1.0391317992235831E-03    7.4742903924066981E+00    5.9052463753948086E+00
N   -7.8472391962776421E-04    7.4818081597755999E+00    7.8629778942973356E+00
Ga   -7.9443607210148378E-04    5.6076281135541333E+00    8.4468793235011876E+00
N   -3.4504914855459225E-03    5.6140138421696051E+00    1.0438470777905783E+01
Ga   -2.5206118549443838E-03    7.4827492150249126E+00    1.1029666309366663E+01
N   -4.0874015286958250E-03    7.4846329076609814E+00    1.3002995772856980E+01
Ga   -3.9750441698692233E-03    5.6146432356446550E+00    1.3622701698074126E+01
N   -6.4073100458050501E-03    5.6452933885552969E+00    1.5589088014224826E+01
Ga   -6.7326821422432400E-03    7.4861890648275047E+00    1.5861656202838924E+01
N   -1.7027986846387704E+00    1.0198988490591717E+01    2.5126691776352672E+00
Ga   -1.5985392877399638E+00    8.3996542576359801E+00    3.3125737540935156E+00
N   -1.5933715093456577E+00    8.3990438507091536E+00    5.2472274375843622E+00
Ga   -1.5857012044118353E+00    1.0284374779899538E+01    5.7996494316965341E+00
N   -1.6003684937939424E+00    1.0267493477607692E+01    7.7928425424248209E+00
Ga   -1.6226769702729891E+00    8.4147810932229881E+00    8.4403262009292011E+00
N   -1.6216887124761481E+00    8.4166962555924734E+00    1.0431895318497943E+01
Ga   -1.5963160080730157E+00    1.0276582404451592E+01    1.1065462145269251E+01
N   -1.5783324140308361E+00    1.0288407133139605E+01    1.3061370616113711E+01
Ga   -1.6235293274253952E+00    8.4198342558930346E+00    1.3618016612149178E+01
N   -1.5996229743989834E+00    8.4039994564452893E+00    1.5583806595952023E+01
Ga   -1.7615119879270733E+00    1.0186155514810240E+01    1.6473902391548886E+01
N    6.4372877458041557E+00    2.0285379766670961E+00    2.5410170609091609E+00
Ga    6.4286410340175228E+00    5.3351558073880923E-02    2.8785014089264407E+00
N    6.4354355250346646E+00    5.0451914864308077E-02    5.0256357475830340E+00
Ga    6.4290656703309939E+00    1.8855254831146817E+00    5.7991153064450875E+00
N    6.4310416957652059E+00    1.8966637191090232E+00    7.7952722922043467E+00
Ga    6.4296943582918367E+00    5.2901876513069393E-02    8.4414454944779944E+00
N    6.4299567457233735E+00    5.3795685559772551E-02    1.0415934589846614E+01
Ga    6.4312595111656377E+00    1.8955370684753712E+00    1.1063884548428314E+01
N    6.4302745459892323E+00    1.8764007637174203E+00    1.3058798895139175E+01
Ga    6.4324553183433748E+00    5.8603397833950667E-02    1.3859948875166996E+01
N    6.4247476513305015E+00    6.0158684748109578E-02    1.6066383658597893E+01
Ga    6.4257585740654601E+00    2.1045219767300511E+00    1.6484305606540172E+01
Ga    6.4649558945193055E+00    3.7361731807657188E+00    1.5049410148833295E+00
N    4.9400256486511847E+00    4.6282000699501786E+00    2.4643657986503564E+00
Ga    4.7120337087884465E+00    2.7951100597828056E+00    3.2874007599081638E+00
N    4.8260340970410844E+00    2.8410856876857227E+00    5.2478400981261686E+00
Ga    4.7847627807579078E+00    4.7171760359950889E+00    5.8069476179800184E+00
N    4.8213100157091828E+00    4.6962971571235821E+00    7.8127921537796388E+00
Ga    4.8324203640901340E+00    2.8425984688150185E+00    8.4371108671166617E+00
N    4.8332779340330045E+00    2.8443553459324717E+00    1.0432630434623608E+01
Ga    4.8073999070684224E+00    4.7062024122202404E+00    1.1063510871403269E+01
N    4.7897592054500713E+00    4.7175165865463109E+00    1.3059101590240498E+01
Ga    4.8334351427333369E+00    2.8495511832683453E+00    1.3616699966218416E+01
N    4.8016326083717100E+00    2.8372757881082400E+00    1.5577962074448173E+01
Ga    4.9852580839982386E+00    4.6056484276758844E+00    1.6485159768354567E+01
N    6.4377796618666538E+00    3.7731093610425419E+00    1.7610247923702314E+01
N    3.2198878018159105E+00    7.6131985290035882E+00    2.4801849735424044E+00
N    3.2211742470845386E+00    5.6248277613884907E+00    5.0973950426254904E+00
Ga    3.2273068935478570E+00    7.4235244235888969E+00    5.8147933856708507E+00
N    3.2150957098189004E+00    7.4789589177742632E+00    7.8141133487341445E+00
Ga    3.2161592991842207E+00    5.6225591282053653E+00    8.4408324941031392E+00
N    3.2139195424918747E+00    5.6268358993745169E+00    1.0420915818551752E+01
Ga    3.2160510565260281E+00    7.4649083287393214E+00    1.1069900856826285E+01
N    3.2127642990524237E+00    7.4495677095977459E+00    1.3066567435600890E+01
Ga    3.2151563145336253E+00    5.6275630800503595E+00    1.3865004193854789E+01
N    3.2172388985562335E+00    5.6311965403592490E+00    1.6070722190860437E+01
Ga    3.2128669787884427E+00    7.6698634601043150E+00    1.6477896087695846E+01
Ga    3.2458013215359705E+00    9.3741905643633672E+00    1.4645233405277938E+00
N    1.7160196798925429E+00    1.0194170111673381E+01    2.5248241392201480E+00
Ga    1.6020298708379788E+00    8.3780967073146577E+00    3.3323572380247639E+00
N    1.6016055471432300E+00    8.3985615716546000E+00    5.2562119825397620E+00
Ga    1.5844209805158147E+00    1.0282397145445467E+01    5.8065810123841413E+00
N    1.5970175471100283E+00    1.0268672831857211E+01    7.7971661907061049E+00
Ga    1.6202281211825549E+00    8.4159208776060446E+00    8.4496382395928258E+00
N    1.6161028718207575E+00    8.4178224044367767E+00    1.0439298828324782E+01
Ga    1.5919825482360421E+00    1.0277494685772583E+01    1.1068002453451374E+01
N    1.5747710295389332E+00    1.0288030098385128E+01    1.3062566251993989E+01
Ga    1.6154040982587858E+00    8.4200566268469821E+00    1.3621420313465451E+01
N    1.5860789496241239E+00    8.4044194754081776E+00    1.5584385547843434E+01
Ga    1.7651474981456663E+00    1.0176542760772861E+01    1.6477793997456484E+01
N    3.2212744685075045E+00    9.3430076084140907E+00    1.7621682970105809E+01
N    9.6645362019679908E+00    1.9132729121490542E+00    2.6140887471197809E+00
Ga    9.6632824205827959E+00    1.7340446203525309E-01    3.2902419416121966E+00
N    9.6489679104781700E+00    4.9385042170610523E-02    5.2506927743321485E+00
Ga    9.6602257683076633E+00    1.9119912911685122E+00    5.8672558793434977E+00
N    9.6490387257596471E+00    1.9082378846967960E+00    7.8435932350296529E+00
Ga    9.6504083042573416E+00    4.2141970359634781E-02    8.4315369225628931E+00
N    9.6466547707253216E+00    4.1761932425982043E-02    1.0427121893763825E+01
Ga    9.6466914788583349E+00    1.9115465807245344E+00    1.1022296093683893E+01
N    9.6448612625997789E+00    1.9142917750940547E+00    1.2996842322248225E+01
Ga    9.6442354115656546E+00    4.6106318948219510E-02    1.3621031874491702E+01
N    9.6434315201959553E+00    7.8471694230010394E-02    1.5586216956573434E+01
Ga    9.6419666199352463E+00    1.9185778553257298E+00    1.5863930844564271E+01
N    7.9420010128036100E+00    4.6270761543775416E+00    2.5284027326295702E+00
Ga    8.1572781062706223E+00    2.7758832368661497E+00    3.3005362922396628E+00
N    8.0446114220105205E+00    2.8331784599049956E+00    5.2571189573252557E+00
Ga    8.0642886454251705E+00    4.7087148056704651E+00    5.7930689240464233E+00
N    8.0500997527521054E+00    4.7010136096342876E+00    7.7915696972809139E+00
Ga    8.0311459924377289E+00    2.8430133834682807E+00    8.4286252689168908E+00
N    8.0285931101403669E+00    2.8458513981250291E+00    1.0424947481301301E+01
Ga    8.0527183099589781E+00    4.7043462524534423E+00    1.1064644908892653E+01
N    8.0691606042641464E+00    4.7165033293802008E+00    1.3060011145900576E+01
Ga    8.0248317354902099E+00    2.8485850823877112E+00    1.3620273605729047E+01
N    8.0517993579047964E+00    2.8349954134162032E+00    1.5584224352112074E+01
Ga    7.8757229082504487E+00    4.6113348389043844E+00    1.6484236177269931E+01
N    6.4321072606082543E+00    7.4717842092156692E+00    2.5914863931202241E+00
Ga    6.4214861803335062E+00    5.7313350630440425E+00    3.2814855035604880E+00
N    6.4312039002628225E+00    5.6176212470729183E+00    5.2418419009438093E+00
Ga    6.4330695818160981E+00    7.4756739819467297E+00    5.8616956748078337E+00
N    6.4310404280374982E+00    7.4790181299098224E+00    7.8393894391936456E+00
Ga    6.4325073427199060E+00    5.6118744550228561E+00    8.4357538435069941E+00
N    6.4326699592559873E+00    5.6144386688387726E+00    1.0431439739431834E+01
Ga    6.4316138051316889E+00    7.4828745769655800E+00    1.1023285357852664E+01
N    6.4293992192788050E+00    7.4848220186027934E+00    1.2996507540968055E+01
Ga    6.4283923499645175E+00    5.6146685737940087E+00    1.3617856150523730E+01
N    6.4245054107221504E+00    5.6487089598390776E+00    1.5579421140442042E+01
Ga    6.4284364944466779E+00    7.4846727112362981E+00    1.5863198057182935E+01
N    4.7286850335592332E+00    1.0206729606513754E+01    2.5234728014460823E+00
Ga    4.9268274020054186E+00    8.3425965617945970E+00    3.2813531921222672E+00
N    4.8218369984651437E+00    8.4058052320835603E+00    5.2417582499423938E+00
Ga    4.8559444980145301E+00    1.0276512837765592E+01    5.7932875167214011E+00
N    4.8341760392052766E+00    1.0269318971252984E+01    7.7919211902863390E+00
Ga    4.8166548732256382E+00    8.4152920871205215E+00    8.4381040243749226E+00
N    4.8135459589947356E+00    8.4177640456228371E+00    1.0433070467667122E+01
Ga    4.8368709954991171E+00    1.0276102736398403E+01    1.1066703607651771E+01
N    4.8506610140291100E+00    1.0288314095858878E+01    1.3063253731400536E+01
Ga    4.8104786751812298E+00    8.4193514345772549E+00    1.3620311351828871E+01
N    4.8372949513091923E+00    8.4037482292066965E+00    1.5584319912114374E+01
Ga    4.6645897307461919E+00    1.0178639162321860E+01    1.6478519366040054E+01
O    6.6072376456207538E-01    3.8010035000904239E+00   -3.9722967137914844E-01
H    1.0441808628349449E-02    7.4566450408266158E+00    1.6715366199274733E+00
C    8.1782636957089727E-01    2.4995179314403222E+00   -1.0008237223974827E+00
H    1.7684522547458794E+00    2.0305152939804603E+00   -6.9379094874083791E-01
H    3.4804181881684802E-03    1.8125108219109733E+00   -7.1931178937482321E-01
H    8.0434716290339092E-01    2.6182380486115480E+00   -2.0939340669446267E+00
Ga    3.1846193112817547E+00    5.5995892482003082E+00    2.4269917490924033E+00
O    2.9679404715889586E+00    5.6927671010896486E+00    2.0837563933414235E-01
H    2.3521456457365844E+00    5.0141589698037743E+00   -1.6950526125619730E-01
C    4.0998446512096747E+00    5.9750891582793857E+00   -6.4203415491231164E-01
H    3.9869269353029191E+00    6.9657684217203535E+00   -1.1005916686137815E+00
H    5.0033606257537002E+00    5.9834597370889631E+00   -1.3172938195821880E-02
H    4.2061614030363623E+00    5.2193553934178176E+00   -1.4295592515683089E+00
     &END COORD
     &KIND C
       BASIS_SET DZVP-MOLOPT-SR-GTH-q4
       POTENTIAL GTH-PBE-q4
       &POTENTIAL
 2 2
  0.3384712400000000E+00 2 -0.8803673979999999E+01  0.1339210850000000E+01
 2
  0.3025757500000000E+00 1  0.9622486650000001E+01
  0.2915069400000000E+00 0
         # Potential name:  GTH-PBE-Q4  for symbol:  C
         # Potential read from the potential filename: GTH_POTENTIALS
       &END POTENTIAL
     &END KIND
     &KIND O
       BASIS_SET DZVP-MOLOPT-SR-GTH-q6
       POTENTIAL GTH-PBE-q6
       &POTENTIAL
 2 4
  0.2445543000000000E+00 2 -0.1666721480000000E+02  0.2487311320000000E+01
 2
  0.2209559200000000E+00 1  0.1833745811000000E+02
  0.2113324700000000E+00 0
         # Potential name:  GTH-PBE-Q6  for symbol:  O
         # Potential read from the potential filename: GTH_POTENTIALS
       &END POTENTIAL
     &END KIND
     &KIND H
       BASIS_SET DZVP-MOLOPT-SR-GTH-q1
       POTENTIAL GTH-PBE-q1
       &POTENTIAL
 1
  0.2000000000000000E+00 2 -0.4178900440000000E+01  0.7244633100000000E+00
 0
         # Potential name:  GTH-PBE-Q1  for symbol:  H
         # Potential read from the potential filename: GTH_POTENTIALS
       &END POTENTIAL
     &END KIND
     &KIND N
       BASIS_SET DZVP-MOLOPT-SR-GTH
       POTENTIAL GTH-PBE-q5
       &POTENTIAL
 2 3
  0.2837905100000000E+00 2 -0.1241522559000000E+02  0.1868095920000000E+01
 2
  0.2554050000000000E+00 1  0.1363026257000000E+02
  0.2454945300000000E+00 0
         # Potential name:  GTH-PBE-Q5  for symbol:  N
         # Potential read from the potential filename: GTH_POTENTIALS
       &END POTENTIAL
     &END KIND
     &KIND Ga
       BASIS_SET DZVP-MOLOPT-SR-GTH
       POTENTIAL GTH-PBE-q13
       &POTENTIAL
 2 1 10
  0.4900000000000000E+00 0
 3
  0.4167772300000000E+00 3  0.1047568975000000E+02 -0.4921768140000000E+01  0.8707055900000000E+00
  0.7770178090000000E+01 -0.2248152160000000E+01
  0.1784415450000000E+01
  0.5696265200000000E+00 2  0.1777985340000000E+01  0.1958597600000000E+00
 -0.2317443900000000E+00
  0.2381265000000000E+00 1 -0.1624868022000000E+02
         # Potential name:  GTH-PBE-Q13  for symbol:  GA
         # Potential read from the potential filename: GTH_POTENTIALS
       &END POTENTIAL
     &END KIND
     &TOPOLOGY
       NUMBER_OF_ATOMS  212
       MULTIPLE_UNIT_CELL  1 1 1
     &END TOPOLOGY
   &END SUBSYS
 &END FORCE_EVAL
