 # Version information for this restart file 
 # current date 2019-06-28 22:22:08.619
 # current working dir /scratch/rzk/rzk/GaN-carbene/443-adatoms-both-2x2/05-2DissMethanol/01-Combine0304-0202
 # Program compiled at                              Sun Apr  7 00:48:11 EDT 2019
 # Program compiled on                          beluga2.int.ets1.calculquebec.ca
 # Program compiled for                        Beluga-Linux-x86-64-intel-openmpi
 # Source code revision number                                         svn:18619
 &GLOBAL
   PRINT_LEVEL  MEDIUM
   PROJECT_NAME TEST
   RUN_TYPE  GEO_OPT
 &END GLOBAL
 &MOTION
   &GEO_OPT
     MAX_ITER  500
     STEP_START_VAL  34
   &END GEO_OPT
 &END MOTION
 &FORCE_EVAL
   METHOD  QS
   STRESS_TENSOR  ANALYTICAL
   &DFT
     BASIS_SET_FILE_NAME BASIS_MOLOPT
     POTENTIAL_FILE_NAME GTH_POTENTIALS
     UKS  T
     SURFACE_DIPOLE_CORRECTION  T
     SURF_DIP_DIR  Z
     &SCF
       MAX_SCF  80
       EPS_SCF     5.0000000000000004E-06
       &OT  T
         PRECONDITIONER  FULL_ALL
       &END OT
       &OUTER_SCF  T
         OPTIMIZER  NONE
         EPS_SCF     5.0000000000000004E-06
         MAX_SCF  4
       &END OUTER_SCF
       &PRINT
         &RESTART  OFF
           BACKUP_COPIES  1
           &EACH
             JUST_ENERGY  0
             QS_SCF  0
             MD  20
           &END EACH
         &END RESTART
       &END PRINT
     &END SCF
     &QS
       EPS_DEFAULT     1.0000000000000000E-14
       METHOD  GPW
     &END QS
     &MGRID
       NGRIDS  5
       CUTOFF     1.2000000000000000E+03
     &END MGRID
     &XC
       DENSITY_CUTOFF     1.0000000000000000E-10
       GRADIENT_CUTOFF     1.0000000000000000E-10
       TAU_CUTOFF     1.0000000000000000E-10
       &XC_FUNCTIONAL  NO_SHORTCUT
         &PBE  T
         &END PBE
       &END XC_FUNCTIONAL
       &VDW_POTENTIAL
         POTENTIAL_TYPE  PAIR_POTENTIAL
         &PAIR_POTENTIAL
           R_CUTOFF     1.0000000000000004E+01
           TYPE  DFTD3
           PARAMETER_FILE_NAME dftd3.dat
           REFERENCE_FUNCTIONAL PBE
           EPS_CN     9.9999999999999995E-07
           CALCULATE_C9_TERM  T
           REFERENCE_C9_TERM  T
           LONG_RANGE_CORRECTION  F
           VERBOSE_OUTPUT  F
         &END PAIR_POTENTIAL
       &END VDW_POTENTIAL
     &END XC
   &END DFT
   &SUBSYS
     &CELL
       A     1.2864472766435110E+01    0.0000000000000000E+00    0.0000000000000000E+00
       B    -6.4322363581020028E+00    1.1140960178524473E+01    0.0000000000000000E+00
       C     0.0000000000000000E+00    0.0000000000000000E+00    3.2000000000000000E+01
       MULTIPLE_UNIT_CELL  1 1 1
       &CELL_REF
         A     1.2982353780853531E+01    0.0000000000000000E+00    0.0000000000000000E+00
         B    -6.4911768904267628E+00    1.1243048175136114E+01    0.0000000000000000E+00
         C     0.0000000000000000E+00    0.0000000000000000E+00    3.2000000000000000E+01
         MULTIPLE_UNIT_CELL  1 1 1
       &END CELL_REF
     &END CELL
     &COORD
N    8.5087631254252283E-03    2.0491222653986623E+00    2.4994814513034580E+00
Ga    1.1004506514795198E-02    9.1712952476165857E-02    2.8471734153399266E+00
N   -1.7272848870403025E-03    5.4497465044264982E-02    5.0152889694607241E+00
Ga   -3.4991378417440448E-04    1.8859865038668024E+00    5.7932947435178388E+00
N   -2.3888898822450370E-03    1.8985437660958300E+00    7.7938789201293757E+00
Ga    1.1687864168748216E-03    5.4378562527096330E-02    8.4377109794695535E+00
N   -9.7472897728540907E-04    5.5612034999940718E-02    1.0413350220237479E+01
Ga   -1.6564890231360260E-03    1.8956552911501201E+00    1.1064176912965531E+01
N   -2.8607824580445143E-03    1.8783587423415176E+00    1.3056948225754230E+01
Ga   -4.3062642311986052E-03    6.1026314660148004E-02    1.3863244689339567E+01
N   -4.6588579777653927E-03    6.2144186554897542E-02    1.6062596810433931E+01
Ga   -4.0620435360987622E-03    2.1134171697594684E+00    1.6485418692638067E+01
Ga    5.5462260502792626E-02    3.7422517322518636E+00    1.3472081532856230E+00
N   -1.4652196870852163E+00    4.6291998702586872E+00    2.4688211687652211E+00
Ga   -1.6668381385639461E+00    2.7932821684993279E+00    3.2521892498420537E+00
N   -1.6092982561715439E+00    2.8382662908633827E+00    5.2376781404847019E+00
Ga   -1.6383168767312994E+00    4.6991432312796793E+00    5.8055138285029511E+00
N   -1.6200203814773131E+00    4.7008603938883589E+00    7.7989211388855741E+00
Ga   -1.5991115743942752E+00    2.8423275684560259E+00    8.4349853600806242E+00
N   -1.6001497172915822E+00    2.8472608065409704E+00    1.0427899773671093E+01
Ga   -1.6276390836476573E+00    4.7055984903599244E+00    1.1066980866450153E+01
N   -1.6437210646603047E+00    4.7179866599673170E+00    1.3058399748042861E+01
Ga   -1.5999286604601959E+00    2.8492087085336992E+00    1.3614926620598762E+01
N   -1.6307988577083341E+00    2.8323354098766287E+00    1.5573586378182316E+01
Ga   -1.4367400193516824E+00    4.5984266313832531E+00    1.6487380362141238E+01
N    4.3220305101523618E-04    3.7706320557114856E+00    1.7620129050753143E+01
N   -3.2087660558232138E+00    7.5890172654824912E+00    2.4968210079934225E+00
Ga   -3.1850744061620895E+00    5.5978085254968191E+00    2.8330788204922404E+00
N   -3.2109547644643488E+00    5.6165538961440102E+00    5.0094980244127827E+00
Ga   -3.2257178832098292E+00    7.4391696842235744E+00    5.7928739393712512E+00
N   -3.2173241451559553E+00    7.4692632267485646E+00    7.7875477901743473E+00
Ga   -3.2193481768841883E+00    5.6227570089456060E+00    8.4403942654576802E+00
N   -3.2196741174129739E+00    5.6273397745240006E+00    1.0414547954314658E+01
Ga   -3.2215366012652331E+00    7.4657806992727238E+00    1.1066781849091310E+01
N   -3.2196866775618100E+00    7.4481564488381720E+00    1.3061674087737176E+01
Ga   -3.2178825493894285E+00    5.6253758383058816E+00    1.3862014701966409E+01
N   -3.2179415455045031E+00    5.6230169528922893E+00    1.6063658686935952E+01
Ga   -3.2208615443228443E+00    7.6550109418775483E+00    1.6463875624640881E+01
Ga   -3.2435686515603246E+00    9.3526398042968726E+00    1.3891025492668001E+00
N   -4.7239604004317659E+00    1.0202621406950025E+01    2.5094549617356043E+00
Ga   -4.9193892300575595E+00    8.3481362264064511E+00    3.2536191026923507E+00
N   -4.8249204754851274E+00    8.4027246097246930E+00    5.2270490434662253E+00
Ga   -4.8509896345802055E+00    1.0277666925238357E+01    5.7816048979815431E+00
N   -4.8342461762711730E+00    1.0269631491095206E+01    7.7830007134575521E+00
Ga   -4.8173260142078558E+00    8.4156251530975741E+00    8.4288538403193751E+00
N   -4.8154530692597133E+00    8.4185418014416058E+00    1.0424520313251236E+01
Ga   -4.8415856426227339E+00    1.0277455676531863E+01    1.1064747526568230E+01
N   -4.8583280447074122E+00    1.0288443416573498E+01    1.3060934500578439E+01
Ga   -4.8155426302195332E+00    8.4204292611823082E+00    1.3615402600838557E+01
N   -4.8427592287260657E+00    8.4068766982951892E+00    1.5582207181560628E+01
Ga   -4.6818144890461442E+00    1.0188237163545805E+01    1.6462358929486562E+01
N   -3.2210590507485191E+00    9.3427051110384944E+00    1.7591410769216061E+01
N    3.2042516838029371E+00    1.9162298080913012E+00    2.6007660009561899E+00
Ga    3.2101568483549956E+00    1.6353492969575761E-01    3.2598051895905531E+00
N    3.2177834308648592E+00    5.0171943241592777E-02    5.2322740032488326E+00
Ga    3.2127927726134500E+00    1.9108952235294721E+00    5.8623576318582407E+00
N    3.2167866427013845E+00    1.9087289242224517E+00    7.8401065239183652E+00
Ga    3.2121418743956167E+00    4.3242678664035000E-02    8.4287580453052016E+00
N    3.2128891554236660E+00    4.2424637813849760E-02    1.0424168077498814E+01
Ga    3.2136448139675795E+00    1.9118927905036680E+00    1.1020279473781079E+01
N    3.2139508259055161E+00    1.9128487395130682E+00    1.2992894833726835E+01
Ga    3.2127413620083249E+00    4.6056312001772702E-02    1.3613955678761466E+01
N    3.2130388638085630E+00    7.4164280572160068E-02    1.5580466372618126E+01
Ga    3.2135174445874277E+00    1.9162543591575503E+00    1.5857366550810370E+01
N    1.4804214940998370E+00    4.6325869595731000E+00    2.5196857979371718E+00
Ga    1.6869049749428291E+00    2.7974273786717765E+00    3.2849376376031882E+00
N    1.6090693013117412E+00    2.8400538161574849E+00    5.2552479991979366E+00
Ga    1.6574400442947252E+00    4.7138612469831802E+00    5.8081426197272696E+00
N    1.6108721571237750E+00    4.7002381489007528E+00    7.8110874303382865E+00
Ga    1.5970813251721716E+00    2.8424037782125371E+00    8.4318957341565959E+00
N    1.5957009736205865E+00    2.8455056950217630E+00    1.0427739273357899E+01
Ga    1.6215616990812534E+00    4.7048148887826553E+00    1.1064659339250889E+01
N    1.6364836101407734E+00    4.7175866095464665E+00    1.3057917361683252E+01
Ga    1.5943071187210205E+00    2.8487321662741221E+00    1.3615176893512182E+01
N    1.6235747900270137E+00    2.8307051145614794E+00    1.5574730934693513E+01
Ga    1.4338226518337787E+00    4.6017167275620077E+00    1.6486010955309943E+01
N   -5.7649522386608214E-04    7.4675660964164123E+00    2.7021868039846861E+00
Ga    6.1253340211561208E-03    5.6093664626233526E+00    3.3379844759353459E+00
N   -2.3085771108849653E-03    5.6342843067001631E+00    5.2678043670992034E+00
Ga   -2.7396512969826248E-03    7.4721463132193353E+00    5.9098726024391146E+00
N   -2.5594353224743993E-03    7.4814424722900874E+00    7.8657807090970957E+00
Ga   -2.4439006055522305E-03    5.6068518212508529E+00    8.4475520359590686E+00
N   -4.4301227291420765E-03    5.6141864351289099E+00    1.0436290261754356E+01
Ga   -5.3028966415011357E-03    7.4832195392974992E+00    1.1027737596717804E+01
N   -4.7112980564989254E-03    7.4866295524555566E+00    1.2998219933152212E+01
Ga   -3.6216539218367119E-03    5.6139868449103272E+00    1.3615863872267175E+01
N   -5.2587530874236210E-03    5.6506597905327300E+00    1.5574914687597511E+01
Ga   -6.3120209037189289E-04    7.4850092215293982E+00    1.5859116317994216E+01
N   -1.7044973508343098E+00    1.0196607138011899E+01    2.5085752488416464E+00
Ga   -1.6033258815382261E+00    8.3946282004457089E+00    3.3179413589600988E+00
N   -1.5980435240647264E+00    8.3985080642035133E+00    5.2487021882169103E+00
Ga   -1.5866431333855926E+00    1.0284683857126181E+01    5.8001879870160407E+00
N   -1.6002631233938089E+00    1.0268749500921167E+01    7.7919781824192693E+00
Ga   -1.6249096846502384E+00    8.4158236028236715E+00    8.4425293796011349E+00
N   -1.6241261083461391E+00    8.4184454107316320E+00    1.0431724586470859E+01
Ga   -1.5980610126476071E+00    1.0278943358186705E+01    1.1065569137667389E+01
N   -1.5802625584455776E+00    1.0288559082117914E+01    1.3060765906145587E+01
Ga   -1.6236881341444642E+00    8.4202615543073360E+00    1.3616164912086882E+01
N   -1.5975772239221908E+00    8.4078274785035099E+00    1.5584304608201220E+01
Ga   -1.7617851850829458E+00    1.0186991589081549E+01    1.6464636533732101E+01
N    6.4363728506821438E+00    2.0244150532881799E+00    2.5337352872755550E+00
Ga    6.4283117516617843E+00    5.3572347193999469E-02    2.8791435345218988E+00
N    6.4339081134280605E+00    4.8290938568407236E-02    5.0239530813525572E+00
Ga    6.4289117310796167E+00    1.8858841837666707E+00    5.7933288000419960E+00
N    6.4305696737720428E+00    1.8979626928801034E+00    7.7901205793024992E+00
Ga    6.4292229994783412E+00    5.5403107518758855E-02    8.4422887970423588E+00
N    6.4282678891233269E+00    5.6276528440059682E-02    1.0415457606754993E+01
Ga    6.4294336704903614E+00    1.8976126081477453E+00    1.1063303164662246E+01
N    6.4295554782615332E+00    1.8785546216647424E+00    1.3057862317721868E+01
Ga    6.4299391934490053E+00    5.9060224142397096E-02    1.3859016444061330E+01
N    6.4314119499532492E+00    6.1072091565648447E-02    1.6064168055767226E+01
Ga    6.4277182405993996E+00    2.0978492313521491E+00    1.6472793816050515E+01
Ga    6.4654537550420645E+00    3.7315634243374372E+00    1.4936165826733798E+00
N    4.9399457534445368E+00    4.6258341646685270E+00    2.4650189437957759E+00
Ga    4.7096221822561910E+00    2.7904409724087555E+00    3.2782205522044401E+00
N    4.8233937823081483E+00    2.8398256979640832E+00    5.2380692972467804E+00
Ga    4.7839482432862246E+00    4.7177680428402731E+00    5.7973090722843814E+00
N    4.8197313691182195E+00    4.6980423021424382E+00    7.8027591751995491E+00
Ga    4.8328785215270411E+00    2.8438299506643951E+00    8.4327584202409653E+00
N    4.8325458594809687E+00    2.8462657280013159E+00    1.0427483780940127E+01
Ga    4.8074199606208117E+00    4.7064639996586184E+00    1.1063088173357668E+01
N    4.7897843751109477E+00    4.7180630064715308E+00    1.3058949597980119E+01
Ga    4.8317956636683226E+00    2.8492012122721473E+00    1.3612126539123645E+01
N    4.8078810892658677E+00    2.8343076327295758E+00    1.5576609893123070E+01
Ga    4.9738179459750524E+00    4.6119509693145027E+00    1.6470819947194567E+01
N    6.4262907516006704E+00    3.7733740196660230E+00    1.7622050745398568E+01
N    3.2163877772478533E+00    7.6139735716667323E+00    2.4994567156153615E+00
N    3.2178722957491734E+00    5.6273105984391742E+00    5.0814132824977118E+00
Ga    3.2241863934602479E+00    7.4238231657751808E+00    5.8188445521292635E+00
N    3.2133912246903522E+00    7.4782947922078300E+00    7.8148831593222416E+00
Ga    3.2164621077184465E+00    5.6223339743363159E+00    8.4409710969738168E+00
N    3.2141839443547813E+00    5.6265065751234697E+00    1.0417483374067286E+01
Ga    3.2155309982548288E+00    7.4650801533212796E+00    1.1067471265204670E+01
N    3.2134235222697320E+00    7.4482039024122679E+00    1.3060508732175071E+01
Ga    3.2109969967098388E+00    5.6271148022234287E+00    1.3863018998082710E+01
N    3.2120343526806172E+00    5.6254442896022718E+00    1.6061893873118986E+01
Ga    3.2123176764226815E+00    7.6644565260392241E+00    1.6477018391223428E+01
Ga    3.2458625717085119E+00    9.3696608854657715E+00    1.4844214023355133E+00
N    1.7126314654399817E+00    1.0191652167478285E+01    2.5280568041837999E+00
Ga    1.5924518529808456E+00    8.3785465236557162E+00    3.3421160388197615E+00
N    1.5972985206340142E+00    8.3985228579008453E+00    5.2634728218406872E+00
Ga    1.5828086600354307E+00    1.0282948689697374E+01    5.8134420043673964E+00
N    1.5963898408584052E+00    1.0269555612596870E+01    7.8013186839330491E+00
Ga    1.6183483601512760E+00    8.4170510179098255E+00    8.4534689281559583E+00
N    1.6146821269322291E+00    8.4191259381907795E+00    1.0439151737460751E+01
Ga    1.5900750813244304E+00    1.0280065476305447E+01    1.1068540520452691E+01
N    1.5728281079284268E+00    1.0289874876175638E+01    1.3060178163148811E+01
Ga    1.6168834253906668E+00    8.4207996735559050E+00    1.3616384763388496E+01
N    1.5898834106572017E+00    8.4093752289515074E+00    1.5580093755060529E+01
Ga    1.7672350447148863E+00    1.0179503867525360E+01    1.6479230350837227E+01
N    3.2156676557546295E+00    9.3390593715778163E+00    1.7609975763285256E+01
N    9.6625926815964576E+00    1.9093753593792659E+00    2.6112839853489676E+00
Ga    9.6606374103394916E+00    1.7449835273942096E-01    3.2975929496161824E+00
N    9.6466475411908856E+00    4.8151830019993708E-02    5.2553380665975435E+00
Ga    9.6578462671639631E+00    1.9122074471511612E+00    5.8703575162228034E+00
N    9.6473397786584005E+00    1.9095676165797457E+00    7.8448798032208202E+00
Ga    9.6488764622360339E+00    4.3733684118911202E-02    8.4367051377481399E+00
N    9.6456327165736244E+00    4.3577070845327262E-02    1.0428556257603347E+01
Ga    9.6447674277688975E+00    1.9141197510775254E+00    1.1020722369557586E+01
N    9.6442131611514981E+00    1.9146588280266221E+00    1.2992690015980624E+01
Ga    9.6457377911128699E+00    4.5804148602054784E-02    1.3615854328787856E+01
N    9.6436231427281225E+00    7.4601559493592290E-02    1.5578460115829165E+01
Ga    9.6452278842086052E+00    1.9139708058262201E+00    1.5857742931826222E+01
N    7.9412461950376914E+00    4.6256233267263136E+00    2.5180283580981313E+00
Ga    8.1560694288622866E+00    2.7755514653940203E+00    3.2945791406638008E+00
N    8.0439385125541047E+00    2.8330594800889597E+00    5.2503959771880711E+00
Ga    8.0637728442378851E+00    4.7084098311261453E+00    5.7866266386828586E+00
N    8.0492842639948847E+00    4.7021758508422096E+00    7.7863698640494743E+00
Ga    8.0289566109943351E+00    2.8452947173346450E+00    8.4273171978733981E+00
N    8.0263224597036746E+00    2.8481936466589732E+00    1.0423126185917830E+01
Ga    8.0520877707177565E+00    4.7064570150277669E+00    1.1064147910400624E+01
N    8.0690836879246195E+00    4.7176644839523423E+00    1.3058595030788956E+01
Ga    8.0261756837874163E+00    2.8496820595040862E+00    1.3614355253940769E+01
N    8.0499363765641476E+00    2.8347095862286711E+00    1.5579453442608797E+01
Ga    7.8798098796875609E+00    4.6109407250242702E+00    1.6473069601716904E+01
N    6.4257464756440053E+00    7.4719828344970587E+00    2.5860317659074550E+00
Ga    6.4241331668023234E+00    5.7300492707696318E+00    3.2734576965313900E+00
N    6.4311524825682609E+00    5.6198633096304578E+00    5.2338521014638868E+00
Ga    6.4325250165569017E+00    7.4753371497587020E+00    5.8641134856351265E+00
N    6.4312474855181607E+00    7.4799442513442216E+00    7.8394755773426095E+00
Ga    6.4324730961376515E+00    5.6117975241951248E+00    8.4333009865001731E+00
N    6.4313528855050572E+00    5.6152001767210367E+00    1.0428256096016737E+01
Ga    6.4318128389760858E+00    7.4834288095985002E+00    1.1023584953888074E+01
N    6.4307348982942116E+00    7.4860277759333052E+00    1.2997071982091867E+01
Ga    6.4295287206637211E+00    5.6147389625908701E+00    1.3613149399264181E+01
N    6.4292021622280249E+00    5.6458725509554588E+00    1.5577455979183799E+01
Ga    6.4267294464119278E+00    7.4849746339301060E+00    1.5857759482850136E+01
N    4.7264757671630164E+00    1.0205634485090339E+01    2.5304271441950625E+00
Ga    4.9288570443174082E+00    8.3437250810719217E+00    3.2933619271694035E+00
N    4.8204757479244931E+00    8.4078672150407101E+00    5.2497242093555121E+00
Ga    4.8539213748033703E+00    1.0279206925553815E+01    5.8012869118022863E+00
N    4.8332711603878717E+00    1.0271626885663094E+01    7.7962573724196176E+00
Ga    4.8161028327018789E+00    8.4165657441723436E+00    8.4400514831211417E+00
N    4.8134468513788491E+00    8.4186506422916896E+00    1.0432293448249041E+01
Ga    4.8383948838257282E+00    1.0278755439203358E+01    1.1066263605233944E+01
N    4.8532078960253315E+00    1.0289532642375027E+01    1.3059344040380047E+01
Ga    4.8096719929193670E+00    8.4210744997284728E+00    1.3616659192807743E+01
N    4.8360224271733125E+00    8.4074974757258794E+00    1.5580928050777612E+01
Ga    4.6631373096771460E+00    1.0182695582565923E+01    1.6477514204422924E+01
O    5.9618219399057648E-01    3.7978806353121364E+00   -4.2101017284290193E-01
H    5.3094430427292755E-03    7.4565523522698030E+00    1.6768440925411845E+00
C    8.0038815427757981E-01    2.4899268050035110E+00   -1.0048271401110989E+00
H    1.7742770771352065E+00    2.0656785865915070E+00   -7.0547377568823266E-01
H    1.5345461900495988E-02    1.7707138743139874E+00   -7.1349184384216524E-01
H    7.7341416749983183E-01    2.5983421957442925E+00   -2.0976607048088862E+00
Ga    3.1893958305093757E+00    5.6032812650894162E+00    2.4719418236658037E+00
O    2.9826287545673331E+00    5.7369917413555287E+00    2.2407886858387058E-01
H    2.3993964702185839E+00    5.0397890681014559E+00   -1.5882983815803195E-01
C    4.1572627194731178E+00    5.9851945458002564E+00   -5.8891045290269162E-01
H    4.1055823139664316E+00    6.9968107755605651E+00   -1.0295526595619240E+00
H    5.0494158556325308E+00    5.9413496654822451E+00    5.1175121910823122E-02
H    4.2514686084572713E+00    5.2451049020638658E+00   -1.3925834597639879E+00
     &END COORD
     &KIND C
       BASIS_SET DZVP-MOLOPT-SR-GTH-q4
       POTENTIAL GTH-PBE-q4
       &POTENTIAL
 2 2
  0.3384712400000000E+00 2 -0.8803673979999999E+01  0.1339210850000000E+01
 2
  0.3025757500000000E+00 1  0.9622486650000001E+01
  0.2915069400000000E+00 0
         # Potential name:  GTH-PBE-Q4  for symbol:  C
         # Potential read from the potential filename: GTH_POTENTIALS
       &END POTENTIAL
     &END KIND
     &KIND O
       BASIS_SET DZVP-MOLOPT-SR-GTH-q6
       POTENTIAL GTH-PBE-q6
       &POTENTIAL
 2 4
  0.2445543000000000E+00 2 -0.1666721480000000E+02  0.2487311320000000E+01
 2
  0.2209559200000000E+00 1  0.1833745811000000E+02
  0.2113324700000000E+00 0
         # Potential name:  GTH-PBE-Q6  for symbol:  O
         # Potential read from the potential filename: GTH_POTENTIALS
       &END POTENTIAL
     &END KIND
     &KIND H
       BASIS_SET DZVP-MOLOPT-SR-GTH-q1
       POTENTIAL GTH-PBE-q1
       &POTENTIAL
 1
  0.2000000000000000E+00 2 -0.4178900440000000E+01  0.7244633100000000E+00
 0
         # Potential name:  GTH-PBE-Q1  for symbol:  H
         # Potential read from the potential filename: GTH_POTENTIALS
       &END POTENTIAL
     &END KIND
     &KIND N
       BASIS_SET DZVP-MOLOPT-SR-GTH
       POTENTIAL GTH-PBE-q5
       &POTENTIAL
 2 3
  0.2837905100000000E+00 2 -0.1241522559000000E+02  0.1868095920000000E+01
 2
  0.2554050000000000E+00 1  0.1363026257000000E+02
  0.2454945300000000E+00 0
         # Potential name:  GTH-PBE-Q5  for symbol:  N
         # Potential read from the potential filename: GTH_POTENTIALS
       &END POTENTIAL
     &END KIND
     &KIND Ga
       BASIS_SET DZVP-MOLOPT-SR-GTH
       POTENTIAL GTH-PBE-q13
       &POTENTIAL
 2 1 10
  0.4900000000000000E+00 0
 3
  0.4167772300000000E+00 3  0.1047568975000000E+02 -0.4921768140000000E+01  0.8707055900000000E+00
  0.7770178090000000E+01 -0.2248152160000000E+01
  0.1784415450000000E+01
  0.5696265200000000E+00 2  0.1777985340000000E+01  0.1958597600000000E+00
 -0.2317443900000000E+00
  0.2381265000000000E+00 1 -0.1624868022000000E+02
         # Potential name:  GTH-PBE-Q13  for symbol:  GA
         # Potential read from the potential filename: GTH_POTENTIALS
       &END POTENTIAL
     &END KIND
     &TOPOLOGY
       NUMBER_OF_ATOMS  212
       MULTIPLE_UNIT_CELL  1 1 1
     &END TOPOLOGY
   &END SUBSYS
 &END FORCE_EVAL
