 # Version information for this restart file 
 # current date 2019-06-29 06:21:33.490
 # current working dir /scratch/rzk/rzk/GaN-carbene/443-adatoms-both-2x2/05-2DissMethanol/01-Combine0304-0202
 # Program compiled at                              Sun Apr  7 00:48:11 EDT 2019
 # Program compiled on                          beluga2.int.ets1.calculquebec.ca
 # Program compiled for                        Beluga-Linux-x86-64-intel-openmpi
 # Source code revision number                                         svn:18619
 &GLOBAL
   PRINT_LEVEL  MEDIUM
   PROJECT_NAME TEST
   RUN_TYPE  GEO_OPT
 &END GLOBAL
 &MOTION
   &GEO_OPT
     MAX_ITER  500
     STEP_START_VAL  130
   &END GEO_OPT
 &END MOTION
 &FORCE_EVAL
   METHOD  QS
   STRESS_TENSOR  ANALYTICAL
   &DFT
     BASIS_SET_FILE_NAME BASIS_MOLOPT
     POTENTIAL_FILE_NAME GTH_POTENTIALS
     UKS  T
     SURFACE_DIPOLE_CORRECTION  T
     SURF_DIP_DIR  Z
     &SCF
       MAX_SCF  80
       EPS_SCF     5.0000000000000004E-06
       &OT  T
         PRECONDITIONER  FULL_ALL
       &END OT
       &OUTER_SCF  T
         OPTIMIZER  NONE
         EPS_SCF     5.0000000000000004E-06
         MAX_SCF  4
       &END OUTER_SCF
       &PRINT
         &RESTART  OFF
           BACKUP_COPIES  1
           &EACH
             JUST_ENERGY  0
             QS_SCF  0
             MD  20
           &END EACH
         &END RESTART
       &END PRINT
     &END SCF
     &QS
       EPS_DEFAULT     1.0000000000000000E-14
       METHOD  GPW
     &END QS
     &MGRID
       NGRIDS  5
       CUTOFF     1.2000000000000000E+03
     &END MGRID
     &XC
       DENSITY_CUTOFF     1.0000000000000000E-10
       GRADIENT_CUTOFF     1.0000000000000000E-10
       TAU_CUTOFF     1.0000000000000000E-10
       &XC_FUNCTIONAL  NO_SHORTCUT
         &PBE  T
         &END PBE
       &END XC_FUNCTIONAL
       &VDW_POTENTIAL
         POTENTIAL_TYPE  PAIR_POTENTIAL
         &PAIR_POTENTIAL
           R_CUTOFF     1.0000000000000004E+01
           TYPE  DFTD3
           PARAMETER_FILE_NAME dftd3.dat
           REFERENCE_FUNCTIONAL PBE
           EPS_CN     9.9999999999999995E-07
           CALCULATE_C9_TERM  T
           REFERENCE_C9_TERM  T
           LONG_RANGE_CORRECTION  F
           VERBOSE_OUTPUT  F
         &END PAIR_POTENTIAL
       &END VDW_POTENTIAL
     &END XC
   &END DFT
   &SUBSYS
     &CELL
       A     1.2864472766435110E+01    0.0000000000000000E+00    0.0000000000000000E+00
       B    -6.4322363581020028E+00    1.1140960178524473E+01    0.0000000000000000E+00
       C     0.0000000000000000E+00    0.0000000000000000E+00    3.2000000000000000E+01
       MULTIPLE_UNIT_CELL  1 1 1
       &CELL_REF
         A     1.2982353780853531E+01    0.0000000000000000E+00    0.0000000000000000E+00
         B    -6.4911768904267628E+00    1.1243048175136114E+01    0.0000000000000000E+00
         C     0.0000000000000000E+00    0.0000000000000000E+00    3.2000000000000000E+01
         MULTIPLE_UNIT_CELL  1 1 1
       &END CELL_REF
     &END CELL
     &COORD
N   -6.8360101887065866E-04    2.0538686149909386E+00    2.5097080545075054E+00
Ga    2.0239164429673603E-02    8.6819787720486027E-02    2.8507477762143973E+00
N   -1.0080099440891527E-02    6.1130353121214863E-02    5.0175455649210274E+00
Ga   -5.5257159168189936E-03    1.8899079843228577E+00    5.8002689434847401E+00
N   -7.4178243894075556E-03    1.9006518032152673E+00    7.8011719643412105E+00
Ga   -3.0098694156357885E-03    5.5337560144513770E-02    8.4402917491047109E+00
N   -4.9922648568815828E-03    5.4490807356440456E-02    1.0417891800606617E+01
Ga   -5.2115649424149466E-03    1.8934593673989804E+00    1.1070247022900077E+01
N   -5.3773672536106525E-03    1.8748039914387336E+00    1.3066003147503340E+01
Ga   -5.2415214221835735E-03    5.3856865069024540E-02    1.3865164729776977E+01
N   -4.4127822443162587E-03    5.6250412065397264E-02    1.6069979726640142E+01
Ga   -3.5639305336028844E-03    2.0953131891490751E+00    1.6479520688869805E+01
Ga    3.4895441571880910E-02    3.7346296540534416E+00    1.3737443074405622E+00
N   -1.4739173933968581E+00    4.6334730717527881E+00    2.4754194516430639E+00
Ga   -1.6794116348428976E+00    2.7992715078275334E+00    3.2673281174568696E+00
N   -1.6156789939766976E+00    2.8445710021536126E+00    5.2480513217738345E+00
Ga   -1.6437835960091209E+00    4.7079118891307195E+00    5.8116937570310689E+00
N   -1.6244704313901441E+00    4.7046648761139958E+00    7.8057168194400139E+00
Ga   -1.6024471961769227E+00    2.8457516983923723E+00    8.4412905257011612E+00
N   -1.6031656797226066E+00    2.8471134078917455E+00    1.0435598652210768E+01
Ga   -1.6313851688471950E+00    4.7062746279141319E+00    1.1072943651151610E+01
N   -1.6458489563550989E+00    4.7157267273214591E+00    1.3066941179532613E+01
Ga   -1.6026131493510452E+00    2.8464449687207707E+00    1.3619676366579659E+01
N   -1.6285586070426423E+00    2.8337924576377955E+00    1.5583884601367082E+01
Ga   -1.4547263149882619E+00    4.6090557336285434E+00    1.6478147978273512E+01
N   -9.6567050054106162E-03    3.7669127961134183E+00    1.7609809467139772E+01
N   -3.2167981068790485E+00    7.5961057241047509E+00    2.4990591004775307E+00
Ga   -3.1946569574280161E+00    5.6266041462164882E+00    2.8441315678675245E+00
N   -3.2172529553257414E+00    5.6209590799892970E+00    5.0153558032474308E+00
Ga   -3.2296153857641805E+00    7.4505417747210245E+00    5.7886934910053638E+00
N   -3.2207336438703784E+00    7.4730933443707253E+00    7.7884303442970362E+00
Ga   -3.2235630626693137E+00    5.6281432765825805E+00    8.4441809556567140E+00
N   -3.2227203352699423E+00    5.6273635104883164E+00    1.0419471963495246E+01
Ga   -3.2241537078715998E+00    7.4667294008008174E+00    1.1069065779224470E+01
N   -3.2213136019597841E+00    7.4469913134635055E+00    1.3064143684360904E+01
Ga   -3.2221009201881476E+00    5.6263754540281372E+00    1.3865467674927805E+01
N   -3.2211625266119648E+00    5.6281843857495906E+00    1.6069121185271534E+01
Ga   -3.2194411780897823E+00    7.6691504170172191E+00    1.6480360382658080E+01
Ga   -3.2566199685305004E+00    9.3663426612873764E+00    1.2858692661552953E+00
N   -4.7289471530364731E+00    1.0213370111460135E+01    2.5086512518286543E+00
Ga   -4.9086524646650105E+00    8.3675876979894710E+00    3.2409015922389477E+00
N   -4.8323692616800402E+00    8.4088494353332894E+00    5.2265738754154691E+00
Ga   -4.8528441964075402E+00    1.0282955319052574E+01    5.7784631137817071E+00
N   -4.8387852599454515E+00    1.0273680087994354E+01    7.7849862047367226E+00
Ga   -4.8222370574921936E+00    8.4183232958799437E+00    8.4260498391013687E+00
N   -4.8189710460992572E+00    8.4174375527290284E+00    1.0425076688524568E+01
Ga   -4.8440476132381418E+00    1.0275316026486790E+01    1.1066253377598022E+01
N   -4.8600058758905451E+00    1.0285556173709479E+01    1.3062886549125501E+01
Ga   -4.8175283789849255E+00    8.4178310984844025E+00    1.3621561818747420E+01
N   -4.8435480599046565E+00    8.4032355296478940E+00    1.5585433824881637E+01
Ga   -4.6703820998317944E+00    1.0180477965898403E+01    1.6481189965063582E+01
N   -3.2272052377092404E+00    9.3400238853224504E+00    1.7617260826760923E+01
N    3.1922071236501459E+00    1.9249789904213395E+00    2.6005920452839209E+00
Ga    3.2055440403864446E+00    1.5665934790931782E-01    3.2459224528059556E+00
N    3.2127044892483170E+00    6.1668353827931711E-02    5.2315256753521107E+00
Ga    3.2077452890694129E+00    1.9165399238626768E+00    5.8660557282487211E+00
N    3.2123407662029844E+00    1.9138823971663845E+00    7.8469470141419526E+00
Ga    3.2081364750022052E+00    4.6391184774045698E-02    8.4294353248794511E+00
N    3.2103261902893752E+00    4.1848053034300628E-02    1.0427690830767283E+01
Ga    3.2100456439362999E+00    1.9096889015267440E+00    1.1028035381975084E+01
N    3.2115986971903001E+00    1.9111646888760661E+00    1.3001360818277139E+01
Ga    3.2118922094699767E+00    4.2031370860644707E-02    1.3620018890107104E+01
N    3.2144248700985627E+00    7.5512497539396359E-02    1.5581754540437492E+01
Ga    3.2116451906145524E+00    1.9138115050925246E+00    1.5860437921760610E+01
N    1.4707742862199993E+00    4.6410214023424929E+00    2.5229328601925927E+00
Ga    1.6847750425598593E+00    2.8088389059376371E+00    3.2983385576621052E+00
N    1.6010884763460322E+00    2.8476648103460209E+00    5.2640242798300871E+00
Ga    1.6500568785205019E+00    4.7217738053739762E+00    5.8250540233186827E+00
N    1.5997906369959936E+00    4.7005626612538745E+00    7.8299326536037182E+00
Ga    1.5916559182353063E+00    2.8439762571234217E+00    8.4423129520368025E+00
N    1.5918472676181652E+00    2.8438767913931629E+00    1.0438601843974203E+01
Ga    1.6189950882165596E+00    4.7056299696249368E+00    1.1068878247932584E+01
N    1.6351978807599359E+00    4.7159224644479982E+00    1.3064887204278037E+01
Ga    1.5924140730532275E+00    2.8475959245973228E+00    1.3618867658907821E+01
N    1.6205954008222563E+00    2.8352402617883734E+00    1.5582047675529898E+01
Ga    1.4432788576644351E+00    4.6065012308092586E+00    1.6478423349363826E+01
N   -1.5217430886801256E-02    7.4757771252792313E+00    2.6936279010240654E+00
Ga    1.7676449649201282E-03    5.6248364977684462E+00    3.3406283298031583E+00
N   -9.1583211771977813E-03    5.6406977415368740E+00    5.2700000885083291E+00
Ga   -9.4878137816872717E-03    7.4819169528537719E+00    5.9046973083635823E+00
N   -5.3992126732876249E-03    7.4862276997208079E+00    7.8647853349321499E+00
Ga   -8.2603807735876188E-03    5.6129777572365960E+00    8.4549829464017829E+00
N   -8.9456306411366867E-03    5.6160055998933460E+00    1.0445624579855073E+01
Ga   -9.0004421825824465E-03    7.4844891565760108E+00    1.1034954282608876E+01
N   -5.8500356910111944E-03    7.4845285928503973E+00    1.3006023906688927E+01
Ga   -4.2240430629269408E-03    5.6129976154906558E+00    1.3619725965297873E+01
N   -2.7188278505184092E-03    5.6453167556521660E+00    1.5582142380080052E+01
Ga   -3.3272445476938664E-03    7.4850046047014276E+00    1.5858782485157036E+01
N   -1.7087902292651573E+00    1.0212759269859511E+01    2.5080301454707774E+00
Ga   -1.6258957516017918E+00    8.4170502325475294E+00    3.3001941237119792E+00
N   -1.6011939109979547E+00    8.4069268430339505E+00    5.2429500336794455E+00
Ga   -1.5944651662875222E+00    1.0290949883449068E+01    5.7953128724903928E+00
N   -1.6042331524434414E+00    1.0273081139867209E+01    7.7921121866705780E+00
Ga   -1.6281662495304308E+00    8.4198236047276840E+00    8.4413147342499126E+00
N   -1.6263992366634898E+00    8.4185382306182621E+00    1.0433832047808439E+01
Ga   -1.5999272353062273E+00    1.0278023960883274E+01    1.1068943303148991E+01
N   -1.5809758913924932E+00    1.0286842934958246E+01    1.3063307487156546E+01
Ga   -1.6251841530558047E+00    8.4193318612091943E+00    1.3622092440995960E+01
N   -1.5959280955860540E+00    8.4056077222170362E+00    1.5583757002518803E+01
Ga   -1.7746127858842577E+00    1.0177027623471012E+01    1.6481035631318910E+01
N    6.4275287698423345E+00    2.0399867742043889E+00    2.5411387813717772E+00
Ga    6.4064749952995319E+00    5.6990358404615568E-02    2.8823887475578709E+00
N    6.4320540680562486E+00    5.8957572485258521E-02    5.0250264493008832E+00
Ga    6.4206256772671981E+00    1.8943319157642871E+00    5.7988824493241911E+00
N    6.4253747071403078E+00    1.9014739861784404E+00    7.7961453613420684E+00
Ga    6.4246885988305875E+00    5.7322715557545485E-02    8.4441658310682364E+00
N    6.4266956894195975E+00    5.5832164024150838E-02    1.0419121489001803E+01
Ga    6.4272493786982903E+00    1.8952043518885926E+00    1.1071656860084087E+01
N    6.4281026772677903E+00    1.8749531434697404E+00    1.3066677322994169E+01
Ga    6.4273763056539011E+00    5.4860827512232216E-02    1.3867978642076503E+01
N    6.4272042942084546E+00    5.6418375881220478E-02    1.6071657832757850E+01
Ga    6.4289143014256567E+00    2.0929965312233465E+00    1.6475759601906713E+01
Ga    6.4640771061736038E+00    3.7440178240467614E+00    1.5153557251501215E+00
N    4.9215537598011538E+00    4.6396423277648919E+00    2.4205875227611062E+00
Ga    4.6914700203629023E+00    2.8077465062251581E+00    3.2785746500465343E+00
N    4.8177706775524065E+00    2.8514437091480769E+00    5.2389907450921696E+00
Ga    4.7757763144313081E+00    4.7255935686543227E+00    5.8179788113092750E+00
N    4.8206755136459138E+00    4.6979267496932531E+00    7.8243274482475433E+00
Ga    4.8282483723203269E+00    2.8450375911890853E+00    8.4456784516174945E+00
N    4.8296240818604792E+00    2.8441589078668779E+00    1.0439913920450289E+01
Ga    4.8040635975549844E+00    4.7067335117977862E+00    1.1068760607078632E+01
N    4.7881688950130892E+00    4.7158544513618521E+00    1.3065617765700532E+01
Ga    4.8311380471264167E+00    2.8475607967746970E+00    1.3618616025914534E+01
N    4.8040530704662290E+00    2.8330111446456501E+00    1.5584579335690815E+01
Ga    4.9742439461007146E+00    4.6117536022119374E+00    1.6474349446919270E+01
N    6.4205565745104822E+00    3.7674758324146462E+00    1.7601997027468649E+01
N    3.2010170265275777E+00    7.6024792001941268E+00    2.4251165316913537E+00
N    3.2112830452464958E+00    5.6328099873741904E+00    5.1605189321423444E+00
Ga    3.2174855306804617E+00    7.4289906982035214E+00    5.8340994315060906E+00
N    3.2086751108968565E+00    7.4889136883308165E+00    7.8306196980724314E+00
Ga    3.2110280832307199E+00    5.6259736374991220E+00    8.4421897931842125E+00
N    3.2113869056435740E+00    5.6271332618304459E+00    1.0424031081106001E+01
Ga    3.2124355436516465E+00    7.4651099344874838E+00    1.1071650888765626E+01
N    3.2116242860184094E+00    7.4469778133087710E+00    1.3067039835355992E+01
Ga    3.2115148038289774E+00    5.6265317553404577E+00    1.3866193704345644E+01
N    3.2111600854862554E+00    5.6274302215773373E+00    1.6070571903808432E+01
Ga    3.2132951756644381E+00    7.6708606780579105E+00    1.6484690830494575E+01
Ga    3.2341237282055442E+00    9.3881337645852483E+00    1.4990341097662816E+00
N    1.7092316064524258E+00    1.0195592466195869E+01    2.5292756516387840E+00
Ga    1.5861273285344173E+00    8.3650731736430082E+00    3.3270531022163472E+00
N    1.5963641919235876E+00    8.4028514761126747E+00    5.2502337127923839E+00
Ga    1.5769766596932455E+00    1.0286122652913571E+01    5.8097190332355844E+00
N    1.5916835149885931E+00    1.0272449006057171E+01    7.7999071839261491E+00
Ga    1.6123236588870677E+00    8.4217882882771011E+00    8.4591260776948154E+00
N    1.6104117437323118E+00    8.4198290847277448E+00    1.0447181148216035E+01
Ga    1.5869627162175195E+00    1.0279357623188613E+01    1.1074924284288777E+01
N    1.5714581466395607E+00    1.0287492691884637E+01    1.3067988573172475E+01
Ga    1.6159156281697808E+00    8.4186423068931955E+00    1.3624199692629736E+01
N    1.5886616122607491E+00    8.4040326294725638E+00    1.5587311220403667E+01
Ga    1.7658775864873755E+00    1.0178261692046181E+01    1.6485704779648213E+01
N    3.2073233476817458E+00    9.3388147163395594E+00    1.7625318012927284E+01
N    9.6532404706029702E+00    1.9198940293124036E+00    2.6127346592028116E+00
Ga    9.6522651442542724E+00    1.8618322512091370E-01    3.3024613737138582E+00
N    9.6415703237220640E+00    5.6637153690391906E-02    5.2579359441861637E+00
Ga    9.6514250897967209E+00    1.9189815511865131E+00    5.8803632809922313E+00
N    9.6426544767875288E+00    1.9126590886306329E+00    7.8533820118854019E+00
Ga    9.6448939939721221E+00    4.4148745416989439E-02    8.4379178232090890E+00
N    9.6424980600267993E+00    4.1919520538273032E-02    1.0432305490747661E+01
Ga    9.6415134560971438E+00    1.9121737293112950E+00    1.1025307353393323E+01
N    9.6424133452646359E+00    1.9118437335136189E+00    1.2998674141372524E+01
Ga    9.6438741050227659E+00    4.3077217973107040E-02    1.3622812155504969E+01
N    9.6463468308210576E+00    7.5842101629229747E-02    1.5583653943633781E+01
Ga    9.6449751426537595E+00    1.9131795759925814E+00    1.5863074293550508E+01
N    7.9285897137736097E+00    4.6345973531214266E+00    2.5284905971067961E+00
Ga    8.1495859901144598E+00    2.7848512888951986E+00    3.3060001565627237E+00
N    8.0384698947984710E+00    2.8410269408375499E+00    5.2603477022342711E+00
Ga    8.0553562565098247E+00    4.7185836671418198E+00    5.7929962104179964E+00
N    8.0442297845552648E+00    4.7065691119534545E+00    7.7929586163950448E+00
Ga    8.0234639684516225E+00    2.8490314380969775E+00    8.4343605140530862E+00
N    8.0229484128799680E+00    2.8477034101858028E+00    1.0430279233507497E+01
Ga    8.0498021062173493E+00    4.7062893397753616E+00    1.1070134804777837E+01
N    8.0669951972382670E+00    4.7151473093400105E+00    1.3064564627836226E+01
Ga    8.0246353992802177E+00    2.8471171166420084E+00    1.3619506047370226E+01
N    8.0538932637462750E+00    2.8349485117000519E+00    1.5582981138311851E+01
Ga    7.8758244680982532E+00    4.6075009032828218E+00    1.6475469017054309E+01
N    6.4252798336979620E+00    7.4848181848736131E+00    2.5843310644257906E+00
Ga    6.4021472891398759E+00    5.7465915112311992E+00    3.2714222140815510E+00
N    6.4202043692490811E+00    5.6234162889720665E+00    5.2325071407754873E+00
Ga    6.4258298236000133E+00    7.4828080904983603E+00    5.8575085803287319E+00
N    6.4243573389912445E+00    7.4830783105346512E+00    7.8379721345136844E+00
Ga    6.4289918861514934E+00    5.6171460387988805E+00    8.4429750008860793E+00
N    6.4294047842132906E+00    5.6159972632143829E+00    1.0437417886728191E+01
Ga    6.4293793825695351E+00    7.4840453602940409E+00    1.1029180829842758E+01
N    6.4283268089738330E+00    7.4834969283507657E+00    1.3001430120966402E+01
Ga    6.4276148911532438E+00    5.6134967639619591E+00    1.3618171117318212E+01
N    6.4305473316394028E+00    5.6463918108872067E+00    1.5581498436833868E+01
Ga    6.4277895814408748E+00    7.4851742559938881E+00    1.5861665161309277E+01
N    4.7127434523988185E+00    1.0209589017066422E+01    2.5289247644533752E+00
Ga    4.9152523708309444E+00    8.3336279686107346E+00    3.2784550384931239E+00
N    4.8071130760811478E+00    8.4109996831898375E+00    5.2369429169249857E+00
Ga    4.8490603430276060E+00    1.0280821854282792E+01    5.7983757170240189E+00
N    4.8291621919154393E+00    1.0273463245987738E+01    7.7957115330964202E+00
Ga    4.8130755897651136E+00    8.4205185965025020E+00    8.4462940759517711E+00
N    4.8112677115571891E+00    8.4188095930352880E+00    1.0439085734763358E+01
Ga    4.8349125600043710E+00    1.0277256283379728E+01    1.1070666325706124E+01
N    4.8502539505420419E+00    1.0286317951935748E+01    1.3065015193763649E+01
Ga    4.8085004904986262E+00    8.4176943330867502E+00    1.3622479909022031E+01
N    4.8369440907529579E+00    8.4051613988480174E+00    1.5584151347394551E+01
Ga    4.6555217435185199E+00    1.0174867339790582E+01    1.6486669664201088E+01
O    7.3685020202934270E-01    3.8541590509831423E+00   -3.6058636554117751E-01
H   -1.2387466043004055E-02    7.4627232602064328E+00    1.6673701726740899E+00
C    1.1488698598706037E+00    2.5908534603802016E+00   -9.3505146059109545E-01
H    1.8458704997073705E+00    2.0471443317417219E+00   -2.7658552801454361E-01
H    2.8177478363913994E-01    1.9466278721852037E+00   -1.1391107735667321E+00
H    1.6526058677588447E+00    2.8052075786655268E+00   -1.8888121406668432E+00
Ga    3.1646599562107425E+00    5.5895403268803348E+00    2.2522450325537204E+00
O    2.8180191294925860E+00    5.4820011164006672E+00    1.3376088686018855E-01
H    2.0535971948607501E+00    4.8297398884451921E+00   -6.3243764946409292E-02
C    3.8952139008015356E+00    5.2672811378872044E+00   -8.0217925695481052E-01
H    3.5408750804996321E+00    5.4397608224140335E+00   -1.8261286484775721E+00
H    4.6908587819720013E+00    5.9826640440636059E+00   -5.6097214425394282E-01
H    4.2910341741728146E+00    4.2438683201113641E+00   -7.2019835246186492E-01
     &END COORD
     &KIND C
       BASIS_SET DZVP-MOLOPT-SR-GTH-q4
       POTENTIAL GTH-PBE-q4
       &POTENTIAL
 2 2
  0.3384712400000000E+00 2 -0.8803673979999999E+01  0.1339210850000000E+01
 2
  0.3025757500000000E+00 1  0.9622486650000001E+01
  0.2915069400000000E+00 0
         # Potential name:  GTH-PBE-Q4  for symbol:  C
         # Potential read from the potential filename: GTH_POTENTIALS
       &END POTENTIAL
     &END KIND
     &KIND O
       BASIS_SET DZVP-MOLOPT-SR-GTH-q6
       POTENTIAL GTH-PBE-q6
       &POTENTIAL
 2 4
  0.2445543000000000E+00 2 -0.1666721480000000E+02  0.2487311320000000E+01
 2
  0.2209559200000000E+00 1  0.1833745811000000E+02
  0.2113324700000000E+00 0
         # Potential name:  GTH-PBE-Q6  for symbol:  O
         # Potential read from the potential filename: GTH_POTENTIALS
       &END POTENTIAL
     &END KIND
     &KIND H
       BASIS_SET DZVP-MOLOPT-SR-GTH-q1
       POTENTIAL GTH-PBE-q1
       &POTENTIAL
 1
  0.2000000000000000E+00 2 -0.4178900440000000E+01  0.7244633100000000E+00
 0
         # Potential name:  GTH-PBE-Q1  for symbol:  H
         # Potential read from the potential filename: GTH_POTENTIALS
       &END POTENTIAL
     &END KIND
     &KIND N
       BASIS_SET DZVP-MOLOPT-SR-GTH
       POTENTIAL GTH-PBE-q5
       &POTENTIAL
 2 3
  0.2837905100000000E+00 2 -0.1241522559000000E+02  0.1868095920000000E+01
 2
  0.2554050000000000E+00 1  0.1363026257000000E+02
  0.2454945300000000E+00 0
         # Potential name:  GTH-PBE-Q5  for symbol:  N
         # Potential read from the potential filename: GTH_POTENTIALS
       &END POTENTIAL
     &END KIND
     &KIND Ga
       BASIS_SET DZVP-MOLOPT-SR-GTH
       POTENTIAL GTH-PBE-q13
       &POTENTIAL
 2 1 10
  0.4900000000000000E+00 0
 3
  0.4167772300000000E+00 3  0.1047568975000000E+02 -0.4921768140000000E+01  0.8707055900000000E+00
  0.7770178090000000E+01 -0.2248152160000000E+01
  0.1784415450000000E+01
  0.5696265200000000E+00 2  0.1777985340000000E+01  0.1958597600000000E+00
 -0.2317443900000000E+00
  0.2381265000000000E+00 1 -0.1624868022000000E+02
         # Potential name:  GTH-PBE-Q13  for symbol:  GA
         # Potential read from the potential filename: GTH_POTENTIALS
       &END POTENTIAL
     &END KIND
     &TOPOLOGY
       NUMBER_OF_ATOMS  212
       MULTIPLE_UNIT_CELL  1 1 1
     &END TOPOLOGY
   &END SUBSYS
 &END FORCE_EVAL
