 # Version information for this restart file 
 # current date 2019-06-28 21:37:03.446
 # current working dir /scratch/rzk/rzk/GaN-carbene/443-adatoms-both-2x2/05-2DissMethanol/01-Combine0304-0202
 # Program compiled at                              Sun Apr  7 00:48:11 EDT 2019
 # Program compiled on                          beluga2.int.ets1.calculquebec.ca
 # Program compiled for                        Beluga-Linux-x86-64-intel-openmpi
 # Source code revision number                                         svn:18619
 &GLOBAL
   PRINT_LEVEL  MEDIUM
   PROJECT_NAME TEST
   RUN_TYPE  GEO_OPT
 &END GLOBAL
 &MOTION
   &GEO_OPT
     MAX_ITER  500
     STEP_START_VAL  31
   &END GEO_OPT
 &END MOTION
 &FORCE_EVAL
   METHOD  QS
   STRESS_TENSOR  ANALYTICAL
   &DFT
     BASIS_SET_FILE_NAME BASIS_MOLOPT
     POTENTIAL_FILE_NAME GTH_POTENTIALS
     UKS  T
     SURFACE_DIPOLE_CORRECTION  T
     SURF_DIP_DIR  Z
     &SCF
       MAX_SCF  80
       EPS_SCF     5.0000000000000004E-06
       &OT  T
         PRECONDITIONER  FULL_ALL
       &END OT
       &OUTER_SCF  T
         OPTIMIZER  NONE
         EPS_SCF     5.0000000000000004E-06
         MAX_SCF  4
       &END OUTER_SCF
       &PRINT
         &RESTART  OFF
           BACKUP_COPIES  1
           &EACH
             JUST_ENERGY  0
             QS_SCF  0
             MD  20
           &END EACH
         &END RESTART
       &END PRINT
     &END SCF
     &QS
       EPS_DEFAULT     1.0000000000000000E-14
       METHOD  GPW
     &END QS
     &MGRID
       NGRIDS  5
       CUTOFF     1.2000000000000000E+03
     &END MGRID
     &XC
       DENSITY_CUTOFF     1.0000000000000000E-10
       GRADIENT_CUTOFF     1.0000000000000000E-10
       TAU_CUTOFF     1.0000000000000000E-10
       &XC_FUNCTIONAL  NO_SHORTCUT
         &PBE  T
         &END PBE
       &END XC_FUNCTIONAL
       &VDW_POTENTIAL
         POTENTIAL_TYPE  PAIR_POTENTIAL
         &PAIR_POTENTIAL
           R_CUTOFF     1.0000000000000004E+01
           TYPE  DFTD3
           PARAMETER_FILE_NAME dftd3.dat
           REFERENCE_FUNCTIONAL PBE
           EPS_CN     9.9999999999999995E-07
           CALCULATE_C9_TERM  T
           REFERENCE_C9_TERM  T
           LONG_RANGE_CORRECTION  F
           VERBOSE_OUTPUT  F
         &END PAIR_POTENTIAL
       &END VDW_POTENTIAL
     &END XC
   &END DFT
   &SUBSYS
     &CELL
       A     1.2864472766435110E+01    0.0000000000000000E+00    0.0000000000000000E+00
       B    -6.4322363581020028E+00    1.1140960178524473E+01    0.0000000000000000E+00
       C     0.0000000000000000E+00    0.0000000000000000E+00    3.2000000000000000E+01
       MULTIPLE_UNIT_CELL  1 1 1
       &CELL_REF
         A     1.2982353780853531E+01    0.0000000000000000E+00    0.0000000000000000E+00
         B    -6.4911768904267628E+00    1.1243048175136114E+01    0.0000000000000000E+00
         C     0.0000000000000000E+00    0.0000000000000000E+00    3.2000000000000000E+01
         MULTIPLE_UNIT_CELL  1 1 1
       &END CELL_REF
     &END CELL
     &COORD
N    3.5691542961521793E-03    2.0472542994732965E+00    2.4975927439882653E+00
Ga    5.0599429226273959E-03    9.3712126204163609E-02    2.8481559649527268E+00
N   -2.0482366490894824E-03    5.4767760494726994E-02    5.0128050088585132E+00
Ga   -9.6527519207876015E-04    1.8873451585955130E+00    5.7933835828052684E+00
N   -3.3014658614744039E-03    1.8997890064949874E+00    7.7909166390305620E+00
Ga    4.0718944727690342E-04    5.6165596548211280E-02    8.4397080218305973E+00
N   -1.7588802236940468E-03    5.6262596325056313E-02    1.0411315046589044E+01
Ga   -2.1463113116940709E-03    1.8959656503202711E+00    1.1065594421356044E+01
N   -2.6495660564173494E-03    1.8766163785910923E+00    1.3055257216832802E+01
Ga   -2.9148486380931879E-03    5.8040362765707204E-02    1.3867476671140754E+01
N   -4.1680350673962635E-03    5.8472627818450355E-02    1.6058058539068700E+01
Ga   -2.9838137299111156E-03    2.1092262755066811E+00    1.6479730177921592E+01
Ga    3.6473078114560617E-02    3.7382112234835527E+00    1.3390594508876110E+00
N   -1.4708862077823286E+00    4.6282915728122891E+00    2.4691132691957338E+00
Ga   -1.6707557564227296E+00    2.7920568736154516E+00    3.2546290638993285E+00
N   -1.6111538010529782E+00    2.8388704944486607E+00    5.2371508887003433E+00
Ga   -1.6394260145482837E+00    4.7003312088879730E+00    5.8057884776045965E+00
N   -1.6211166066580200E+00    4.7023027358307221E+00    7.7964395804051092E+00
Ga   -1.6000895307388114E+00    2.8436733278905493E+00    8.4359505161467769E+00
N   -1.6007363088320847E+00    2.8476954014790969E+00    1.0426206046286591E+01
Ga   -1.6282078066879970E+00    4.7059539532289634E+00    1.1069476569060484E+01
N   -1.6439218319516804E+00    4.7177209471723085E+00    1.3058067222145729E+01
Ga   -1.5998650341407492E+00    2.8479652967212750E+00    1.3614457382706101E+01
N   -1.6320565958241158E+00    2.8291514100871433E+00    1.5570297832397989E+01
Ga   -1.4403008125205670E+00    4.5991674961225382E+00    1.6480379242588583E+01
N   -6.4476438108396232E-03    3.7675848144677708E+00    1.7611423370006680E+01
N   -3.2097111827069504E+00    7.5920561192242895E+00    2.4973892505971365E+00
Ga   -3.1871069456304615E+00    5.5954222058216248E+00    2.8339111716430874E+00
N   -3.2123827884600864E+00    5.6189872745382567E+00    5.0064838591500243E+00
Ga   -3.2265049856779937E+00    7.4402955636956829E+00    5.7967828278839022E+00
N   -3.2181115783037786E+00    7.4706012440674536E+00    7.7871475382273090E+00
Ga   -3.2200879463770145E+00    5.6237936626093319E+00    8.4428504638111139E+00
N   -3.2199892709760163E+00    5.6273742826139816E+00    1.0412929443633285E+01
Ga   -3.2218751589645458E+00    7.4655289107232328E+00    1.1070045342253193E+01
N   -3.2196654987224078E+00    7.4470969200517505E+00    1.3058930241632192E+01
Ga   -3.2187622067554806E+00    5.6266463684425414E+00    1.3870320579864435E+01
N   -3.2169967482555615E+00    5.6264395585936935E+00    1.6059768691797238E+01
Ga   -3.2185040622947305E+00    7.6712363438139146E+00    1.6475617547247705E+01
Ga   -3.2427936927207255E+00    9.3548016923176860E+00    1.4136318222785347E+00
N   -4.7231905612308207E+00    1.0202817392450321E+01    2.5096167749127662E+00
Ga   -4.9254259079719054E+00    8.3465003119756602E+00    3.2577655592534667E+00
N   -4.8250099706771499E+00    8.4045326114494934E+00    5.2271341761029113E+00
Ga   -4.8515952071670911E+00    1.0279119380331252E+01    5.7855876420585446E+00
N   -4.8348763103207890E+00    1.0271079287584749E+01    7.7822036852712841E+00
Ga   -4.8183175087541423E+00    8.4165249056529348E+00    8.4320897750113843E+00
N   -4.8163587547044004E+00    8.4183691463433998E+00    1.0422880855096517E+01
Ga   -4.8423207878927723E+00    1.0277760889634113E+01    1.1066519940609361E+01
N   -4.8588509175523447E+00    1.0288121696675255E+01    1.3056759299781847E+01
Ga   -4.8161761923173874E+00    8.4195338908282338E+00    1.3616633594866718E+01
N   -4.8459785514187823E+00    8.4002052316658880E+00    1.5574904026166415E+01
Ga   -4.6672287963141086E+00    1.0176351276708054E+01    1.6474132158452278E+01
N   -3.2251760328852641E+00    9.3399639912370382E+00    1.7597734537624305E+01
N    3.2026026921362400E+00    1.9171811119698337E+00    2.5933534827829368E+00
Ga    3.2095226987412828E+00    1.7044222398562262E-01    3.2652806369476481E+00
N    3.2176775581395578E+00    5.1249440025308832E-02    5.2327276393096280E+00
Ga    3.2113498509816356E+00    1.9130903998825586E+00    5.8632566958953172E+00
N    3.2158163905188202E+00    1.9102053266876164E+00    7.8375973995303898E+00
Ga    3.2117752616842687E+00    4.4972725912799806E-02    8.4312971847257128E+00
N    3.2125673497945892E+00    4.2937112781276002E-02    1.0421861596530503E+01
Ga    3.2126600688100071E+00    1.9132057591051912E+00    1.1019888810165979E+01
N    3.2145774705429555E+00    1.9136933643796290E+00    1.2987839755864529E+01
Ga    3.2129939148389783E+00    4.5519060223155113E-02    1.3616028582195780E+01
N    3.2159872066883302E+00    7.7609858299552262E-02    1.5574988111523590E+01
Ga    3.2157091440529344E+00    1.9149388468487740E+00    1.5856391480234048E+01
N    1.4733802035184316E+00    4.6280988229559510E+00    2.5104568373452247E+00
Ga    1.6813879303060284E+00    2.7963814615151326E+00    3.2782061948614953E+00
N    1.6084208010713734E+00    2.8396130377522719E+00    5.2490346688043488E+00
Ga    1.6559475950641644E+00    4.7134459739619423E+00    5.8023203079168884E+00
N    1.6116050973870082E+00    4.7019918910678049E+00    7.8024639504410915E+00
Ga    1.5961504588424522E+00    2.8443700398544345E+00    8.4308801619424525E+00
N    1.5942801774588347E+00    2.8467979552559575E+00    1.0423268755790742E+01
Ga    1.6213457792286712E+00    4.7054566811830600E+00    1.1064823742384634E+01
N    1.6371434851865634E+00    4.7174096585382497E+00    1.3054683565793008E+01
Ga    1.5947865164034838E+00    2.8481074889470990E+00    1.3613365866920249E+01
N    1.6263820154756130E+00    2.8308771378430397E+00    1.5569442910168078E+01
Ga    1.4310166158065618E+00    4.5972363801330722E+00    1.6481712872834422E+01
N   -2.2734747693052594E-03    7.4652251594721175E+00    2.6987951549967550E+00
Ga    2.6613485185775303E-03    5.6056430663473780E+00    3.3346328432554047E+00
N   -3.5542357357082532E-03    5.6350681034762005E+00    5.2639284594203373E+00
Ga   -2.3442130480216122E-03    7.4718186884557296E+00    5.9108886894215056E+00
N   -3.1865657072346720E-03    7.4825131356434156E+00    7.8639905139896014E+00
Ga   -2.5050494937524804E-03    5.6075200724055057E+00    8.4467028043275576E+00
N   -4.7240962391194730E-03    5.6137513183590348E+00    1.0432286777944199E+01
Ga   -5.1917880421292403E-03    7.4831436178093105E+00    1.1027327677749760E+01
N   -3.7388124471301990E-03    7.4853776496972797E+00    1.2992046918843613E+01
Ga   -2.8429592602388361E-03    5.6146543108137408E+00    1.3615154669019766E+01
N   -1.5472012748447982E-03    5.6500065525848937E+00    1.5571249720659093E+01
Ga   -2.8691755448954822E-04    7.4850400290287071E+00    1.5854928911158463E+01
N   -1.7064467672163155E+00    1.0195094441686512E+01    2.5096550135686035E+00
Ga   -1.5993840933117596E+00    8.3910078654887208E+00    3.3236903868764736E+00
N   -1.5984145268258707E+00    8.3997139194767065E+00    5.2507583755632128E+00
Ga   -1.5865173814510194E+00    1.0286303901818146E+01    5.8033121997632682E+00
N   -1.6005002295867055E+00    1.0270363383720500E+01    7.7911963099991199E+00
Ga   -1.6253806515887321E+00    8.4169733796767741E+00    8.4455375429064343E+00
N   -1.6246116709258838E+00    8.4187686394610353E+00    1.0429812307363441E+01
Ga   -1.5978072204964213E+00    1.0279447499724890E+01    1.1068079391599099E+01
N   -1.5794270897437812E+00    1.0288541143824231E+01    1.3057238648288720E+01
Ga   -1.6225350451988694E+00    8.4195336557686673E+00    1.3616859021048386E+01
N   -1.5919811311207073E+00    8.4032297824624251E+00    1.5574389605226990E+01
Ga   -1.7774149582001699E+00    1.0171742260115183E+01    1.6476921948574685E+01
N    6.4350172673410135E+00    2.0245967178940196E+00    2.5311823565669123E+00
Ga    6.4307305477640746E+00    5.5083085398632853E-02    2.8786402594543241E+00
N    6.4330088996618420E+00    4.9491903952462342E-02    5.0202945682922877E+00
Ga    6.4277759675676052E+00    1.8878593083508104E+00    5.7942523987285055E+00
N    6.4296769720751934E+00    1.8993746587584330E+00    7.7876302384298732E+00
Ga    6.4287661973489056E+00    5.7215124411782566E-02    8.4447238567586353E+00
N    6.4283724029988702E+00    5.6953582038814281E-02    1.0413610910782511E+01
Ga    6.4287320179139567E+00    1.8979024681639036E+00    1.1065528868351455E+01
N    6.4293326190588971E+00    1.8774308517018272E+00    1.3056407506695374E+01
Ga    6.4288475608741154E+00    5.7420864599530434E-02    1.3865752706801398E+01
N    6.4300330188223835E+00    5.5793075873253405E-02    1.6060491963611312E+01
Ga    6.4300214959930049E+00    2.0922303236520787E+00    1.6472677830252973E+01
Ga    6.4623512585980620E+00    3.7324089713413668E+00    1.4943841069748696E+00
N    4.9404551287778968E+00    4.6242366319192438E+00    2.4711310090719940E+00
Ga    4.7078084515944267E+00    2.7897343183182328E+00    3.2774318985688442E+00
N    4.8219080220965171E+00    2.8401980275656009E+00    5.2357053728293170E+00
Ga    4.7827134706268444E+00    4.7192160258761664E+00    5.7915889410890449E+00
N    4.8173781978373658E+00    4.7004697196229959E+00    7.7945673196868031E+00
Ga    4.8317167340769558E+00    2.8460303834821770E+00    8.4318140385373805E+00
N    4.8324182939751337E+00    2.8472345794793750E+00    1.0423055198402915E+01
Ga    4.8064579639971967E+00    4.7068671577050711E+00    1.1063270615106978E+01
N    4.7892348392342079E+00    4.7176136812314367E+00    1.3055496610215130E+01
Ga    4.8322904420632353E+00    2.8490456944115667E+00    1.3614062725955545E+01
N    4.8102578690704743E+00    2.8339389545716074E+00    1.5576587663373745E+01
Ga    4.9732553976542588E+00    4.6103914351462612E+00    1.6471639236960094E+01
N    6.4237119656217931E+00    3.7694516355719192E+00    1.7611616953737606E+01
N    3.2142803761265659E+00    7.6164978485917114E+00    2.5039768982182284E+00
N    3.2161076020651933E+00    5.6281930114786505E+00    5.0567235898723899E+00
Ga    3.2221534059282457E+00    7.4246339768790923E+00    5.8138338629187585E+00
N    3.2122237970574798E+00    7.4776282634746059E+00    7.8068270342434047E+00
Ga    3.2153719985033105E+00    5.6232621624803878E+00    8.4402337049775067E+00
N    3.2134311448201163E+00    5.6271668994690103E+00    1.0413124216585002E+01
Ga    3.2149465268291375E+00    7.4653232609454383E+00    1.1067274241416765E+01
N    3.2134282140482204E+00    7.4473417383397660E+00    1.3056528787034187E+01
Ga    3.2118592631931588E+00    5.6267162101638002E+00    1.3863541153008910E+01
N    3.2099105060482773E+00    5.6276914262642652E+00    1.6059590157431103E+01
Ga    3.2132951567872667E+00    7.6673537360307966E+00    1.6474160651091765E+01
Ga    3.2456143687652714E+00    9.3689421597273057E+00    1.4815363472152570E+00
N    1.7100936089219683E+00    1.0192786673102088E+01    2.5247298384616532E+00
Ga    1.5890669577036705E+00    8.3808354277197417E+00    3.3392169677557058E+00
N    1.5951305083655156E+00    8.3997356755909447E+00    5.2600518330953818E+00
Ga    1.5818739421338557E+00    1.0283624898421586E+01    5.8142683777731152E+00
N    1.5953297625373952E+00    1.0270777456941133E+01    7.7989825141380207E+00
Ga    1.6179308351769601E+00    8.4177516872926130E+00    8.4531957401980495E+00
N    1.6149442696809579E+00    8.4198518191937808E+00    1.0435258576527474E+01
Ga    1.5895682956593724E+00    1.0280347361755231E+01    1.1070320810407535E+01
N    1.5729266948074820E+00    1.0289211622130505E+01    1.3058390321742188E+01
Ga    1.6165213942897732E+00    8.4192757632572857E+00    1.3613919611583396E+01
N    1.5918639352960036E+00    8.4048017789336917E+00    1.5573428872692176E+01
Ga    1.7658483448267703E+00    1.0176154634085528E+01    1.6474394580588413E+01
N    3.2103914760122731E+00    9.3385959515992720E+00    1.7619050584391516E+01
N    9.6599779972253970E+00    1.9093561325040320E+00    2.6077738186918906E+00
Ga    9.6569268604746608E+00    1.7490235486701458E-01    3.2967170578992908E+00
N    9.6449398373750697E+00    4.9612980761876854E-02    5.2533398231698838E+00
Ga    9.6556114544999829E+00    1.9137609794471804E+00    5.8716982579202641E+00
N    9.6456883228028900E+00    1.9112064331348293E+00    7.8438005346445125E+00
Ga    9.6478071043263185E+00    4.5428497075365892E-02    8.4380981224651830E+00
N    9.6450498640146094E+00    4.3718962625177708E-02    1.0426384488304164E+01
Ga    9.6440983910907754E+00    1.9141969156049801E+00    1.1021770394123378E+01
N    9.6435542360767244E+00    1.9141096370155626E+00    1.2989909280087039E+01
Ga    9.6466646798922060E+00    4.4784237407131861E-02    1.3614468122663251E+01
N    9.6458900662693967E+00    7.3169166874582858E-02    1.5574231058255403E+01
Ga    9.6437579394784780E+00    1.9124664006644538E+00    1.5852914027109223E+01
N    7.9392116385962881E+00    4.6269701595234620E+00    2.5146778135677130E+00
Ga    8.1549563915544692E+00    2.7762840308384757E+00    3.2938930685322014E+00
N    8.0421263590768568E+00    2.8354549727983844E+00    5.2482057186247593E+00
Ga    8.0623826572123996E+00    4.7104660313097986E+00    5.7879519358426599E+00
N    8.0483496580010296E+00    4.7038871627297807E+00    7.7842736351643742E+00
Ga    8.0277784326235153E+00    2.8470522331461869E+00    8.4297549309829485E+00
N    8.0254680288835214E+00    2.8488323586875013E+00    1.0421302839502655E+01
Ga    8.0517092033843980E+00    4.7071654622132684E+00    1.1066536419327837E+01
N    8.0690555388524441E+00    4.7173841918772874E+00    1.3056942298085028E+01
Ga    8.0257309443255505E+00    2.8494146092681434E+00    1.3615556134816519E+01
N    8.0500920445639768E+00    2.8343279539005284E+00    1.5576693658128278E+01
Ga    7.8818453935344071E+00    4.6077941783868477E+00    1.6472536820440773E+01
N    6.4221635285922751E+00    7.4734545946933730E+00    2.5821221980492064E+00
Ga    6.4230781328371345E+00    5.7314051170933675E+00    3.2724748351680151E+00
N    6.4303112046477793E+00    5.6223438746588039E+00    5.2316921838585246E+00
Ga    6.4316669321762872E+00    7.4769359868879386E+00    5.8651606934141478E+00
N    6.4306557522547090E+00    7.4815841699512236E+00    7.8372830049640818E+00
Ga    6.4308127343321697E+00    5.6130487363670483E+00    8.4326070948444478E+00
N    6.4304358307320140E+00    5.6148407813688630E+00    1.0423956112246131E+01
Ga    6.4295340352747345E+00    7.4832445268384546E+00    1.1023129203260199E+01
N    6.4294248880255545E+00    7.4835823243940318E+00    1.2991773536810832E+01
Ga    6.4292511119783491E+00    5.6135114879206665E+00    1.3615444813151273E+01
N    6.4303586246209763E+00    5.6416757428019704E+00    1.5577742826721984E+01
Ga    6.4275017142940181E+00    7.4827080095131207E+00    1.5853211275416298E+01
N    4.7250501730426118E+00    1.0207222109925214E+01    2.5297677731996346E+00
Ga    4.9265801193322778E+00    8.3465817366195409E+00    3.2939963616251369E+00
N    4.8196057367868743E+00    8.4092683445635625E+00    5.2484748311600553E+00
Ga    4.8525405361481813E+00    1.0281117744139184E+01    5.8025439056429606E+00
N    4.8324749592930223E+00    1.0273538399176642E+01    7.7939217179645253E+00
Ga    4.8145697136851213E+00    8.4174395263526485E+00    8.4381273416923168E+00
N    4.8116669633594045E+00    8.4191310928792706E+00    1.0427081387574809E+01
Ga    4.8380669157519831E+00    1.0278569044982952E+01    1.1066550136815518E+01
N    4.8536533681296543E+00    1.0288569158319632E+01    1.3055635474607760E+01
Ga    4.8099954367458517E+00    8.4200532222564437E+00    1.3613545003717689E+01
N    4.8361403085768613E+00    8.4038818677253690E+00    1.5572971184239300E+01
Ga    4.6613897485571512E+00    1.0176042702545187E+01    1.6473767720844268E+01
O    4.9206239822959885E-01    3.7843679485533257E+00   -4.4632938130783373E-01
H   -8.7775754765898647E-04    7.4538330058644222E+00    1.6727582371919543E+00
C    7.7440292361888774E-01    2.4925024379975893E+00   -1.0229029902334146E+00
H    1.7721366050926430E+00    2.1282193027024685E+00   -7.2312375695245124E-01
H    3.6053586807889053E-02    1.7275855766783370E+00   -7.3079778685746744E-01
H    7.4278904785803423E-01    2.5968528725876148E+00   -2.1173993033196230E+00
Ga    3.1825928432793553E+00    5.6042344677056786E+00    2.5147633089761325E+00
O    3.0099562339104713E+00    5.7440177721954226E+00    2.4001069332614006E-01
H    2.4667326722769984E+00    5.0159054451440683E+00   -1.4186291128983569E-01
C    4.2015772036657593E+00    6.0045769629096082E+00   -5.3756106502786749E-01
H    4.1608839022987691E+00    7.0280312585924518E+00   -9.3839078771936513E-01
H    5.0783614627322953E+00    5.9314686082512127E+00    1.2276112083177404E-01
H    4.3027050154933386E+00    5.2954724000926490E+00   -1.3664925750141830E+00
     &END COORD
     &KIND C
       BASIS_SET DZVP-MOLOPT-SR-GTH-q4
       POTENTIAL GTH-PBE-q4
       &POTENTIAL
 2 2
  0.3384712400000000E+00 2 -0.8803673979999999E+01  0.1339210850000000E+01
 2
  0.3025757500000000E+00 1  0.9622486650000001E+01
  0.2915069400000000E+00 0
         # Potential name:  GTH-PBE-Q4  for symbol:  C
         # Potential read from the potential filename: GTH_POTENTIALS
       &END POTENTIAL
     &END KIND
     &KIND O
       BASIS_SET DZVP-MOLOPT-SR-GTH-q6
       POTENTIAL GTH-PBE-q6
       &POTENTIAL
 2 4
  0.2445543000000000E+00 2 -0.1666721480000000E+02  0.2487311320000000E+01
 2
  0.2209559200000000E+00 1  0.1833745811000000E+02
  0.2113324700000000E+00 0
         # Potential name:  GTH-PBE-Q6  for symbol:  O
         # Potential read from the potential filename: GTH_POTENTIALS
       &END POTENTIAL
     &END KIND
     &KIND H
       BASIS_SET DZVP-MOLOPT-SR-GTH-q1
       POTENTIAL GTH-PBE-q1
       &POTENTIAL
 1
  0.2000000000000000E+00 2 -0.4178900440000000E+01  0.7244633100000000E+00
 0
         # Potential name:  GTH-PBE-Q1  for symbol:  H
         # Potential read from the potential filename: GTH_POTENTIALS
       &END POTENTIAL
     &END KIND
     &KIND N
       BASIS_SET DZVP-MOLOPT-SR-GTH
       POTENTIAL GTH-PBE-q5
       &POTENTIAL
 2 3
  0.2837905100000000E+00 2 -0.1241522559000000E+02  0.1868095920000000E+01
 2
  0.2554050000000000E+00 1  0.1363026257000000E+02
  0.2454945300000000E+00 0
         # Potential name:  GTH-PBE-Q5  for symbol:  N
         # Potential read from the potential filename: GTH_POTENTIALS
       &END POTENTIAL
     &END KIND
     &KIND Ga
       BASIS_SET DZVP-MOLOPT-SR-GTH
       POTENTIAL GTH-PBE-q13
       &POTENTIAL
 2 1 10
  0.4900000000000000E+00 0
 3
  0.4167772300000000E+00 3  0.1047568975000000E+02 -0.4921768140000000E+01  0.8707055900000000E+00
  0.7770178090000000E+01 -0.2248152160000000E+01
  0.1784415450000000E+01
  0.5696265200000000E+00 2  0.1777985340000000E+01  0.1958597600000000E+00
 -0.2317443900000000E+00
  0.2381265000000000E+00 1 -0.1624868022000000E+02
         # Potential name:  GTH-PBE-Q13  for symbol:  GA
         # Potential read from the potential filename: GTH_POTENTIALS
       &END POTENTIAL
     &END KIND
     &TOPOLOGY
       NUMBER_OF_ATOMS  212
       MULTIPLE_UNIT_CELL  1 1 1
     &END TOPOLOGY
   &END SUBSYS
 &END FORCE_EVAL
