 # Version information for this restart file 
 # current date 2019-06-30 09:40:55.201
 # current working dir /scratch/rzk/rzk/GaN-carbene/443-adatoms-both-2x2/05-2DissMethanol/01-Combine0304-0202
 # Program compiled at                              Sun Apr  7 00:48:11 EDT 2019
 # Program compiled on                          beluga2.int.ets1.calculquebec.ca
 # Program compiled for                        Beluga-Linux-x86-64-intel-openmpi
 # Source code revision number                                         svn:18619
 &GLOBAL
   PRINT_LEVEL  MEDIUM
   PROJECT_NAME TEST
   RUN_TYPE  GEO_OPT
 &END GLOBAL
 &MOTION
   &GEO_OPT
     MAX_ITER  500
     STEP_START_VAL  146
   &END GEO_OPT
 &END MOTION
 &FORCE_EVAL
   METHOD  QS
   STRESS_TENSOR  ANALYTICAL
   &DFT
     BASIS_SET_FILE_NAME BASIS_MOLOPT
     POTENTIAL_FILE_NAME GTH_POTENTIALS
     UKS  T
     SURFACE_DIPOLE_CORRECTION  T
     SURF_DIP_DIR  Z
     &SCF
       MAX_SCF  80
       EPS_SCF     5.0000000000000004E-06
       &OT  T
         PRECONDITIONER  FULL_ALL
       &END OT
       &OUTER_SCF  T
         OPTIMIZER  NONE
         EPS_SCF     5.0000000000000004E-06
         MAX_SCF  4
       &END OUTER_SCF
       &PRINT
         &RESTART  OFF
           BACKUP_COPIES  1
           &EACH
             JUST_ENERGY  0
             QS_SCF  0
             MD  20
           &END EACH
         &END RESTART
       &END PRINT
     &END SCF
     &QS
       EPS_DEFAULT     1.0000000000000000E-14
       METHOD  GPW
     &END QS
     &MGRID
       NGRIDS  5
       CUTOFF     1.2000000000000000E+03
     &END MGRID
     &XC
       DENSITY_CUTOFF     1.0000000000000000E-10
       GRADIENT_CUTOFF     1.0000000000000000E-10
       TAU_CUTOFF     1.0000000000000000E-10
       &XC_FUNCTIONAL  NO_SHORTCUT
         &PBE  T
         &END PBE
       &END XC_FUNCTIONAL
       &VDW_POTENTIAL
         POTENTIAL_TYPE  PAIR_POTENTIAL
         &PAIR_POTENTIAL
           R_CUTOFF     1.0000000000000005E+01
           TYPE  DFTD3
           PARAMETER_FILE_NAME dftd3.dat
           REFERENCE_FUNCTIONAL PBE
           EPS_CN     9.9999999999999995E-07
           CALCULATE_C9_TERM  T
           REFERENCE_C9_TERM  T
           LONG_RANGE_CORRECTION  F
           VERBOSE_OUTPUT  F
         &END PAIR_POTENTIAL
       &END VDW_POTENTIAL
     &END XC
   &END DFT
   &SUBSYS
     &CELL
       A     1.2864472766435110E+01    0.0000000000000000E+00    0.0000000000000000E+00
       B    -6.4322363581020028E+00    1.1140960178524475E+01    0.0000000000000000E+00
       C     0.0000000000000000E+00    0.0000000000000000E+00    3.2000000000000000E+01
       MULTIPLE_UNIT_CELL  1 1 1
       &CELL_REF
         A     1.2982353780853531E+01    0.0000000000000000E+00    0.0000000000000000E+00
         B    -6.4911768904267628E+00    1.1243048175136114E+01    0.0000000000000000E+00
         C     0.0000000000000000E+00    0.0000000000000000E+00    3.2000000000000000E+01
         MULTIPLE_UNIT_CELL  1 1 1
       &END CELL_REF
     &END CELL
     &COORD
N    7.3867615581479310E-04    2.0541612595033025E+00    2.5026951167920752E+00
Ga   -3.6156608652577579E-03    9.3783728058736790E-02    2.8544729319466420E+00
N   -6.3344531002102302E-03    5.9577068497822634E-02    5.0085381307779020E+00
Ga   -4.4506142321019387E-03    1.8914794874822747E+00    5.7989798557547276E+00
N   -6.6311432960091390E-03    1.9003295571466223E+00    7.7943877550394980E+00
Ga   -4.7644688606985758E-03    5.6061327897157405E-02    8.4416144842475411E+00
N   -4.7314309282098068E-03    5.5170252921059475E-02    1.0413061091424352E+01
Ga   -5.0265824120926030E-03    1.8940031035833254E+00    1.1072888578017329E+01
N   -5.5749981724896184E-03    1.8751371712922495E+00    1.3061443894568553E+01
Ga   -7.0339011793603143E-03    5.7274820080309562E-02    1.3875699060418723E+01
N   -6.4191974300838650E-03    5.7106989291119216E-02    1.6066274405040755E+01
Ga   -5.8319266254500497E-03    2.1063828437804033E+00    1.6488060961586847E+01
Ga    3.1111055384291885E-02    3.7358641710944966E+00    1.3675506578210104E+00
N   -1.4732618472015968E+00    4.6353132398337635E+00    2.4716201587648041E+00
Ga   -1.6809858805531992E+00    2.7967186386259395E+00    3.2635475696900231E+00
N   -1.6150496352976615E+00    2.8444626656847722E+00    5.2407986887488383E+00
Ga   -1.6411159656631540E+00    4.7066784513409994E+00    5.8112605093102845E+00
N   -1.6247052177964405E+00    4.7050819651082101E+00    7.7993648582834556E+00
Ga   -1.6026524373637721E+00    2.8452981648959401E+00    8.4413773992732501E+00
N   -1.6023786938281015E+00    2.8478181305549164E+00    1.0430015731747732E+01
Ga   -1.6306505700319924E+00    4.7064456872067373E+00    1.1076006610116275E+01
N   -1.6462757598142783E+00    4.7163804977362815E+00    1.3063398307420558E+01
Ga   -1.6018668522619579E+00    2.8472263962105782E+00    1.3622528432744117E+01
N   -1.6285095074815432E+00    2.8325983820600014E+00    1.5578863223680580E+01
Ga   -1.4460414488381621E+00    4.6008987659212819E+00    1.6488416380228070E+01
N    5.5050704355119328E-06    3.7725324482136773E+00    1.7634806770626813E+01
N   -3.2126135998991456E+00    7.6032234993658863E+00    2.5028319387729789E+00
Ga   -3.1967128711943604E+00    5.6036011065409141E+00    2.8510731605733515E+00
N   -3.2165355364934007E+00    5.6244337508188753E+00    5.0062682855910037E+00
Ga   -3.2285393364625725E+00    7.4473014749996098E+00    5.7991022358278057E+00
N   -3.2201873178325626E+00    7.4730972718087214E+00    7.7870539062110034E+00
Ga   -3.2232642498921331E+00    5.6262364809907650E+00    8.4472963401559902E+00
N   -3.2220309676100300E+00    5.6277446444602637E+00    1.0416112088529344E+01
Ga   -3.2235221332862016E+00    7.4660339795691462E+00    1.1073825053977675E+01
N   -3.2216558800266806E+00    7.4459352829292875E+00    1.3063739490315220E+01
Ga   -3.2215151639139878E+00    5.6239353210193022E+00    1.3877353947921451E+01
N   -3.2212495567533450E+00    5.6256719619443398E+00    1.6067106794795567E+01
Ga   -3.2214842583696943E+00    7.6658144289867121E+00    1.6476005470834572E+01
Ga   -3.2495802217236647E+00    9.3612931028427706E+00    1.4379877744456229E+00
N   -4.7270260670298310E+00    1.0212057582609548E+01    2.5134897276382988E+00
Ga   -4.9350015340534217E+00    8.3529043144083346E+00    3.2660989268019263E+00
N   -4.8305899394388856E+00    8.4090939792075563E+00    5.2298933788111919E+00
Ga   -4.8554443004495429E+00    1.0284935930287668E+01    5.7885294021751132E+00
N   -4.8379459983254280E+00    1.0273859204872146E+01    7.7832450478630246E+00
Ga   -4.8227979226808566E+00    8.4179174782803834E+00    8.4321670073704293E+00
N   -4.8181058817281199E+00    8.4183080910287398E+00    1.0422839832269156E+01
Ga   -4.8449732304418998E+00    1.0276875084682842E+01    1.1070822710910459E+01
N   -4.8617121204938671E+00    1.0287133286491656E+01    1.3061883501860764E+01
Ga   -4.8188366094676445E+00    8.4182202379234088E+00    1.3622578522918964E+01
N   -4.8490796072170967E+00    8.4009332859961390E+00    1.5582067392579518E+01
Ga   -4.6724764116312620E+00    1.0178649403748393E+01    1.6475437479060663E+01
N   -3.2217577474923313E+00    9.3412663858142952E+00    1.7591642569800285E+01
N    3.1949861812338236E+00    1.9303449158025163E+00    2.5907873317665464E+00
Ga    3.2060136969020032E+00    1.8483003039555757E-01    3.2711642461482286E+00
N    3.2137156970384644E+00    6.0003567849460530E-02    5.2346780989792121E+00
Ga    3.2093905357655901E+00    1.9228545022133772E+00    5.8723029040134582E+00
N    3.2131657476587265E+00    1.9134270183762765E+00    7.8447560769324225E+00
Ga    3.2087539635924340E+00    4.7276749394852782E-02    8.4369208723505515E+00
N    3.2107937098688950E+00    4.2328474134278891E-02    1.0426365658888470E+01
Ga    3.2107581336985569E+00    1.9116781548430173E+00    1.1030527283198181E+01
N    3.2111784615032972E+00    1.9122183815546121E+00    1.2996917148324100E+01
Ga    3.2107781856243287E+00    4.3952450563821251E-02    1.3621871817824065E+01
N    3.2108506302821604E+00    7.9069419745674635E-02    1.5581528405193072E+01
Ga    3.2110329120269001E+00    1.9174410231335619E+00    1.5860881780685862E+01
N    1.4705856540754638E+00    4.6381827502943702E+00    2.5139294143057684E+00
Ga    1.6847169884282045E+00    2.8125903761704412E+00    3.2947281210798343E+00
N    1.6031196967706793E+00    2.8463481094430740E+00    5.2572052644549068E+00
Ga    1.6533463214865634E+00    4.7210421165296452E+00    5.8246590239066034E+00
N    1.6014550643784111E+00    4.7002231986434619E+00    7.8235884086579182E+00
Ga    1.5916167180672156E+00    2.8445845293062999E+00    8.4448771697427176E+00
N    1.5919919479688140E+00    2.8445630514313924E+00    1.0434007623005034E+01
Ga    1.6196704923864063E+00    4.7061859149849106E+00    1.1072771762688774E+01
N    1.6351071715243284E+00    4.7164670787583374E+00    1.3063060612238468E+01
Ga    1.5911410771815953E+00    2.8474424404406955E+00    1.3622613686387734E+01
N    1.6165646599606742E+00    2.8312331362690299E+00    1.5580195149814562E+01
Ga    1.4398945235373488E+00    4.6041659013673257E+00    1.6488277165906439E+01
N   -4.4437658503947795E-03    7.4715776355177956E+00    2.6887690575845973E+00
Ga    8.2646267325344955E-03    5.6191323193805829E+00    3.3404424417688268E+00
N   -7.5312658117841040E-03    5.6400599718617617E+00    5.2658731407124790E+00
Ga    7.9352942902568581E-04    7.4787754336380159E+00    5.9080057767486336E+00
N   -4.1248636522440100E-03    7.4861045567299813E+00    7.8614542416559789E+00
Ga   -6.9421502624071839E-03    5.6115294889109499E+00    8.4559639360010586E+00
N   -8.2927681357129069E-03    5.6154119599962478E+00    1.0439923048252465E+01
Ga   -6.7670945861358321E-03    7.4840285766096377E+00    1.1035302173553267E+01
N   -5.8994872371032720E-03    7.4841037582412770E+00    1.2999841525010941E+01
Ga   -5.2512151470782246E-03    5.6127054441779043E+00    1.3623613952817227E+01
N   -7.2095098459327494E-03    5.6437654739548258E+00    1.5580945112866987E+01
Ga   -1.4533869027710336E-03    7.4815847188246245E+00    1.5861293833859337E+01
N   -1.7125487707286864E+00    1.0205706623018651E+01    2.5094815046622818E+00
Ga   -1.5957267990777986E+00    8.4008913519649600E+00    3.3236303600565607E+00
N   -1.5993864352646991E+00    8.4061500659965507E+00    5.2486389693969171E+00
Ga   -1.5899162276682233E+00    1.0292663565382652E+01    5.8052283122917823E+00
N   -1.6041719570861468E+00    1.0273015493944992E+01    7.7910766715929913E+00
Ga   -1.6261891801472936E+00    8.4191879403261201E+00    8.4469514560944656E+00
N   -1.6258514430500233E+00    8.4189608726648970E+00    1.0431488422319749E+01
Ga   -1.5984472992030940E+00    1.0279001822561288E+01    1.1073982715151722E+01
N   -1.5803177467842981E+00    1.0287907061349149E+01    1.3063782721645019E+01
Ga   -1.6244966850222144E+00    8.4184891869235958E+00    1.3623156179687481E+01
N   -1.5936263848641106E+00    8.4008675318524961E+00    1.5582556984914078E+01
Ga   -1.7706502163146454E+00    1.0178523468716580E+01    1.6475716955343628E+01
N    6.4271088057374577E+00    2.0375024402088466E+00    2.5328530924281472E+00
Ga    6.4291954163537879E+00    6.4688276915026488E-02    2.8839591676948815E+00
N    6.4289121219565368E+00    5.6447230831642332E-02    5.0174784744168948E+00
Ga    6.4209614792728793E+00    1.8953411023217264E+00    5.7980436283651260E+00
N    6.4258663024407987E+00    1.9009762530383210E+00    7.7902741097761030E+00
Ga    6.4271876671732668E+00    5.8042806166822239E-02    8.4461167825174126E+00
N    6.4270088906126164E+00    5.6007552812544881E-02    1.0415028994700998E+01
Ga    6.4281252800926554E+00    1.8956653510839292E+00    1.1073568039870038E+01
N    6.4281487757418541E+00    1.8754086983456582E+00    1.3061688154556556E+01
Ga    6.4295152412472616E+00    5.7851394900461164E-02    1.3877724827910795E+01
N    6.4285368041089423E+00    5.7157288946499116E-02    1.6067001604553365E+01
Ga    6.4279998237010618E+00    2.1068448683190497E+00    1.6488736417999206E+01
Ga    6.4672250348663640E+00    3.7421561701331516E+00    1.4886115799800406E+00
N    4.9243467429545680E+00    4.6376266474784629E+00    2.4152416193789188E+00
Ga    4.6981726985484435E+00    2.8135257856226499E+00    3.2735286459836201E+00
N    4.8179359478504766E+00    2.8502823071370291E+00    5.2329281955117599E+00
Ga    4.7754868852181485E+00    4.7250449366895619E+00    5.8167165625392991E+00
N    4.8208243932276504E+00    4.6979255064849994E+00    7.8178127884320796E+00
Ga    4.8300411493021427E+00    2.8460752310793063E+00    8.4481089200176633E+00
N    4.8305644421853531E+00    2.8449627029606392E+00    1.0435142674483762E+01
Ga    4.8042393832557684E+00    4.7076219183926034E+00    1.1071463993429935E+01
N    4.7879685521604314E+00    4.7166399008854700E+00    1.3062093235305101E+01
Ga    4.8311703862482442E+00    2.8476578949566602E+00    1.3622383578415333E+01
N    4.8056220602852804E+00    2.8312459505951346E+00    1.5580126745017262E+01
Ga    4.9822730932060120E+00    4.6043036586049473E+00    1.6488202800384144E+01
N    6.4219522962953732E+00    3.7730978211985113E+00    1.7634687955456545E+01
N    3.2046314711428376E+00    7.6016504449387634E+00    2.4125896634153214E+00
N    3.2122177675150168E+00    5.6307601605535069E+00    5.1456657291570407E+00
Ga    3.2193957788936438E+00    7.4270949402205035E+00    5.8283360460028568E+00
N    3.2099117699474000E+00    7.4875913170454691E+00    7.8216696964986374E+00
Ga    3.2120745384573461E+00    5.6260985412030502E+00    8.4438614136301950E+00
N    3.2115097175279583E+00    5.6273809143088966E+00    1.0419802296678364E+01
Ga    3.2130279830917075E+00    7.4651059150183983E+00    1.1074007849711247E+01
N    3.2116192506037251E+00    7.4469961369758293E+00    1.3063390215848541E+01
Ga    3.2116392828507374E+00    5.6263652248494997E+00    1.3875267578218562E+01
N    3.2110892510279987E+00    5.6271112179063580E+00    1.6066358310281188E+01
Ga    3.2112285019720894E+00    7.6729123547441933E+00    1.6488828137830726E+01
Ga    3.2366118553512213E+00    9.3904277188896685E+00    1.4433097304524167E+00
N    1.7076607302476690E+00    1.0195188318034214E+01    2.5169689163187177E+00
Ga    1.6035165336251478E+00    8.3688022677317591E+00    3.3161190625968304E+00
N    1.5983130256071625E+00    8.4019827971900529E+00    5.2406765141994374E+00
Ga    1.5799841080692745E+00    1.0283941188021020E+01    5.8057685321524310E+00
N    1.5919209406432924E+00    1.0272540829660301E+01    7.7922679479918280E+00
Ga    1.6153573769537175E+00    8.4220064394510157E+00    8.4590980996707685E+00
N    1.6118686545154630E+00    8.4206230603336909E+00    1.0440826014553961E+01
Ga    1.5877627777665966E+00    1.0280094611964389E+01    1.1076519372121778E+01
N    1.5709935374130377E+00    1.0288475592049224E+01    1.3063297674895523E+01
Ga    1.6149487422448219E+00    8.4191406988616340E+00    1.3623852791236224E+01
N    1.5871415767135721E+00    8.4055122465859267E+00    1.5580898782459109E+01
Ga    1.7716199452382999E+00    1.0172874182831485E+01    1.6489159505933468E+01
N    3.2115626974521998E+00    9.3350188071478346E+00    1.7635895896638509E+01
N    9.6530208733925615E+00    1.9176880977133597E+00    2.6065065393048452E+00
Ga    9.6516748014861129E+00    1.7793331619023048E-01    3.2898026761191907E+00
N    9.6419470283375102E+00    5.5863336755841111E-02    5.2470105124305286E+00
Ga    9.6515109083107316E+00    1.9166219927357631E+00    5.8763576140724494E+00
N    9.6433886268914346E+00    1.9124465172314677E+00    7.8458188612494366E+00
Ga    9.6456509182836214E+00    4.4438821359315608E-02    8.4368032588688990E+00
N    9.6432803114757331E+00    4.2634519202326401E-02    1.0426272935125445E+01
Ga    9.6426054900459928E+00    1.9128893000458396E+00    1.1026292894986629E+01
N    9.6427997633377718E+00    1.9128377839976136E+00    1.2994962290191342E+01
Ga    9.6438602062168535E+00    4.3473964066710266E-02    1.3623365115496854E+01
N    9.6435850725507422E+00    7.4526621380859734E-02    1.5579220063090094E+01
Ga    9.6434319320688910E+00    1.9132770038865117E+00    1.5855931206999053E+01
N    7.9300126545783005E+00    4.6346965518303529E+00    2.5232875262126138E+00
Ga    8.1476723591483271E+00    2.7827829432511901E+00    3.2999149553257845E+00
N    8.0387439213505107E+00    2.8401826158323273E+00    5.2531729478723221E+00
Ga    8.0531525791927496E+00    4.7164599728576126E+00    5.7919037781279998E+00
N    8.0454455620514569E+00    4.7069882526370961E+00    7.7864922225565918E+00
Ga    8.0247724519889871E+00    2.8485909267204899E+00    8.4343658596119671E+00
N    8.0239084343162865E+00    2.8483826295466748E+00    1.0425037214279175E+01
Ga    8.0504966901660868E+00    4.7066722295523071E+00    1.1073543191461861E+01
N    8.0678878116251997E+00    4.7162405431009455E+00    1.3061670669250647E+01
Ga    8.0239211457230635E+00    2.8479199665175527E+00    1.3623180252132990E+01
N    8.0508697610011080E+00    2.8327994600206496E+00    1.5579420505089734E+01
Ga    7.8680970654737363E+00    4.6011178574779823E+00    1.6488900131060188E+01
N    6.4209941406260249E+00    7.4793657950890440E+00    2.5752327236207697E+00
Ga    6.3977689397957125E+00    5.7383422414307841E+00    3.2670810159302768E+00
N    6.4205846659232062E+00    5.6234519519856550E+00    5.2269388303214006E+00
Ga    6.4189197646645670E+00    7.4794593931632338E+00    5.8610067653601154E+00
N    6.4252642236535351E+00    7.4832407685876232E+00    7.8343084014253224E+00
Ga    6.4291599317400934E+00    5.6160461131643018E+00    8.4443000507548405E+00
N    6.4302359045786854E+00    5.6160506741979308E+00    1.0432200209497255E+01
Ga    6.4289635404082812E+00    7.4840784085172452E+00    1.1030432231520191E+01
N    6.4281250640868022E+00    7.4838959616269030E+00    1.2996412933919220E+01
Ga    6.4278908459784780E+00    5.6133734181071713E+00    1.3622936660997217E+01
N    6.4295369063383303E+00    5.6439186216007240E+00    1.5580467801757344E+01
Ga    6.4234396062872978E+00    7.4816187470283371E+00    1.5861687056741808E+01
N    4.7149238984674149E+00    1.0208200763804250E+01    2.5174719785849264E+00
Ga    4.9043275455473170E+00    8.3337644161612960E+00    3.2643105082550234E+00
N    4.8088368386942859E+00    8.4094399227227310E+00    5.2255100963929140E+00
Ga    4.8466887887710293E+00    1.0277930679825840E+01    5.7926921580457194E+00
N    4.8302074657502745E+00    1.0273320533642959E+01    7.7867568569018744E+00
Ga    4.8122930912371817E+00    8.4208089274529314E+00    8.4465106468827233E+00
N    4.8114477725671847E+00    8.4198885950570066E+00    1.0433253030522719E+01
Ga    4.8353624681133889E+00    1.0278359355447579E+01    1.1073279908523212E+01
N    4.8512414484751751E+00    1.0287975857606975E+01    1.3061247912883601E+01
Ga    4.8083214069488536E+00    8.4191958324076577E+00    1.3623114318175496E+01
N    4.8351951601853598E+00    8.4056256990375076E+00    1.5580244589611315E+01
Ga    4.6511431350651424E+00    1.0172915528119907E+01    1.6488874665084957E+01
O    7.1580443474133937E-01    3.8555245272839764E+00   -3.7346521984927233E-01
H   -8.4492335638260176E-03    7.4573855003751666E+00    1.6626663331046461E+00
C    1.1443115288265902E+00    2.5928470706679212E+00   -9.3409385871485950E-01
H    1.8447555608549762E+00    2.0640059426161632E+00   -2.6530341013669967E-01
H    2.8518974848751305E-01    1.9358604659268512E+00   -1.1351826665240718E+00
H    1.6496931232231138E+00    2.8026734825668722E+00   -1.8877660398755707E+00
Ga    3.1692801808305084E+00    5.5912148367416323E+00    2.2646740627422881E+00
O    2.8260710943181198E+00    5.4657047866224264E+00    1.3574908324350238E-01
H    2.0525840461350189E+00    4.8302103080897938E+00   -6.2176313544720828E-02
C    3.8956093487072785E+00    5.2529712599060163E+00   -8.0608828817269251E-01
H    3.5337353372900546E+00    5.4238870930243834E+00   -1.8288610846322624E+00
H    4.6889520650350160E+00    5.9737440292924759E+00   -5.7270461478776458E-01
H    4.2993470210706199E+00    4.2316368772211383E+00   -7.2366350958503800E-01
     &END COORD
     &KIND C
       BASIS_SET DZVP-MOLOPT-SR-GTH-q4
       POTENTIAL GTH-PBE-q4
       &POTENTIAL
2 2
0.3384712400000000E+00 2 -0.8803673979999999E+01  0.1339210850000000E+01
2
0.3025757500000000E+00 1  0.9622486650000001E+01
0.2915069400000000E+00 0
       &END POTENTIAL
     &END KIND
     &KIND O
       BASIS_SET DZVP-MOLOPT-SR-GTH-q6
       POTENTIAL GTH-PBE-q6
       &POTENTIAL
2 4
0.2445543000000000E+00 2 -0.1666721480000000E+02  0.2487311320000000E+01
2
0.2209559200000000E+00 1  0.1833745811000000E+02
0.2113324700000000E+00 0
       &END POTENTIAL
     &END KIND
     &KIND H
       BASIS_SET DZVP-MOLOPT-SR-GTH-q1
       POTENTIAL GTH-PBE-q1
       &POTENTIAL
1
0.2000000000000000E+00 2 -0.4178900440000000E+01  0.7244633100000000E+00
0
       &END POTENTIAL
     &END KIND
     &KIND N
       BASIS_SET DZVP-MOLOPT-SR-GTH
       POTENTIAL GTH-PBE-q5
       &POTENTIAL
2 3
0.2837905100000000E+00 2 -0.1241522559000000E+02  0.1868095920000000E+01
2
0.2554050000000000E+00 1  0.1363026257000000E+02
0.2454945300000000E+00 0
       &END POTENTIAL
     &END KIND
     &KIND Ga
       BASIS_SET DZVP-MOLOPT-SR-GTH
       POTENTIAL GTH-PBE-q13
       &POTENTIAL
2 1 10
0.4900000000000000E+00 0
3
0.4167772300000000E+00 3  0.1047568975000000E+02 -0.4921768140000000E+01  0.8707055900000000E+00
0.7770178090000000E+01 -0.2248152160000000E+01
0.1784415450000000E+01
0.5696265200000000E+00 2  0.1777985340000000E+01  0.1958597600000000E+00
-0.2317443900000000E+00
0.2381265000000000E+00 1 -0.1624868022000000E+02
       &END POTENTIAL
     &END KIND
     &TOPOLOGY
       NUMBER_OF_ATOMS  212
       MULTIPLE_UNIT_CELL  1 1 1
     &END TOPOLOGY
   &END SUBSYS
 &END FORCE_EVAL
