 # Version information for this restart file 
 # current date 2019-06-30 09:38:20.331
 # current working dir /scratch/rzk/rzk/GaN-carbene/443-adatoms-both-2x2/05-2DissMethanol/01-Combine0304-0202
 # Program compiled at                              Sun Apr  7 00:48:11 EDT 2019
 # Program compiled on                          beluga2.int.ets1.calculquebec.ca
 # Program compiled for                        Beluga-Linux-x86-64-intel-openmpi
 # Source code revision number                                         svn:18619
 &GLOBAL
   PRINT_LEVEL  MEDIUM
   PROJECT_NAME TEST
   RUN_TYPE  GEO_OPT
 &END GLOBAL
 &MOTION
   &GEO_OPT
     MAX_ITER  500
     STEP_START_VAL  145
   &END GEO_OPT
 &END MOTION
 &FORCE_EVAL
   METHOD  QS
   STRESS_TENSOR  ANALYTICAL
   &DFT
     BASIS_SET_FILE_NAME BASIS_MOLOPT
     POTENTIAL_FILE_NAME GTH_POTENTIALS
     UKS  T
     SURFACE_DIPOLE_CORRECTION  T
     SURF_DIP_DIR  Z
     &SCF
       MAX_SCF  80
       EPS_SCF     5.0000000000000004E-06
       &OT  T
         PRECONDITIONER  FULL_ALL
       &END OT
       &OUTER_SCF  T
         OPTIMIZER  NONE
         EPS_SCF     5.0000000000000004E-06
         MAX_SCF  4
       &END OUTER_SCF
       &PRINT
         &RESTART  OFF
           BACKUP_COPIES  1
           &EACH
             JUST_ENERGY  0
             QS_SCF  0
             MD  20
           &END EACH
         &END RESTART
       &END PRINT
     &END SCF
     &QS
       EPS_DEFAULT     1.0000000000000000E-14
       METHOD  GPW
     &END QS
     &MGRID
       NGRIDS  5
       CUTOFF     1.2000000000000000E+03
     &END MGRID
     &XC
       DENSITY_CUTOFF     1.0000000000000000E-10
       GRADIENT_CUTOFF     1.0000000000000000E-10
       TAU_CUTOFF     1.0000000000000000E-10
       &XC_FUNCTIONAL  NO_SHORTCUT
         &PBE  T
         &END PBE
       &END XC_FUNCTIONAL
       &VDW_POTENTIAL
         POTENTIAL_TYPE  PAIR_POTENTIAL
         &PAIR_POTENTIAL
           R_CUTOFF     1.0000000000000005E+01
           TYPE  DFTD3
           PARAMETER_FILE_NAME dftd3.dat
           REFERENCE_FUNCTIONAL PBE
           EPS_CN     9.9999999999999995E-07
           CALCULATE_C9_TERM  T
           REFERENCE_C9_TERM  T
           LONG_RANGE_CORRECTION  F
           VERBOSE_OUTPUT  F
         &END PAIR_POTENTIAL
       &END VDW_POTENTIAL
     &END XC
   &END DFT
   &SUBSYS
     &CELL
       A     1.2864472766435110E+01    0.0000000000000000E+00    0.0000000000000000E+00
       B    -6.4322363581020028E+00    1.1140960178524475E+01    0.0000000000000000E+00
       C     0.0000000000000000E+00    0.0000000000000000E+00    3.2000000000000000E+01
       MULTIPLE_UNIT_CELL  1 1 1
       &CELL_REF
         A     1.2982353780853531E+01    0.0000000000000000E+00    0.0000000000000000E+00
         B    -6.4911768904267628E+00    1.1243048175136114E+01    0.0000000000000000E+00
         C     0.0000000000000000E+00    0.0000000000000000E+00    3.2000000000000000E+01
         MULTIPLE_UNIT_CELL  1 1 1
       &END CELL_REF
     &END CELL
     &COORD
N    9.0482974242509146E-04    2.0540488559126437E+00    2.5022923525685523E+00
Ga   -4.6436767004659797E-03    9.4001417171006171E-02    2.8549153088151238E+00
N   -6.3802623363291150E-03    5.9611997651914161E-02    5.0081892356120346E+00
Ga   -4.3673429580098466E-03    1.8916728683792252E+00    5.7985628549487567E+00
N   -6.5391690252221630E-03    1.9003480623687703E+00    7.7940003941826745E+00
Ga   -4.9317033281336261E-03    5.6120012523022962E-02    8.4412868724972494E+00
N   -4.8218441878560576E-03    5.5286576736547764E-02    1.0412803921017932E+01
Ga   -5.1532672554306363E-03    1.8940367736646249E+00    1.1072872288814315E+01
N   -5.6949114751922809E-03    1.8751042343604620E+00    1.3061639812604174E+01
Ga   -6.7267547973804461E-03    5.7111538976832549E-02    1.3875894074435084E+01
N   -6.6671568994954456E-03    5.7120844491566583E-02    1.6065631731424187E+01
Ga   -5.8366679305157151E-03    2.1061345742999507E+00    1.6488402590194568E+01
Ga    3.1136720212125289E-02    3.7359320069945747E+00    1.3674388966730917E+00
N   -1.4733373566410930E+00    4.6356046432236830E+00    2.4713677934848075E+00
Ga   -1.6809140176366595E+00    2.7966489641601502E+00    3.2632244052520964E+00
N   -1.6150285589818447E+00    2.8445138726093688E+00    5.2404380243388333E+00
Ga   -1.6408557846847736E+00    4.7066566252342117E+00    5.8108915493582733E+00
N   -1.6246722867914025E+00    4.7051607853813779E+00    7.7990030574292204E+00
Ga   -1.6026812971380620E+00    2.8452739512485952E+00    8.4410627455600160E+00
N   -1.6024056022463884E+00    2.8478374064618612E+00    1.0429819703523778E+01
Ga   -1.6307287579286311E+00    4.7063863211374848E+00    1.1076045142085736E+01
N   -1.6464459478200222E+00    4.7163454977012282E+00    1.3063625664229521E+01
Ga   -1.6020157980419820E+00    2.8471846328072834E+00    1.3622667193586036E+01
N   -1.6286192893348443E+00    2.8326529547841477E+00    1.5579283934242911E+01
Ga   -1.4463589762019724E+00    4.6010755949652244E+00    1.6488789991377395E+01
N   -1.0138088811083484E-04    3.7724736346062402E+00    1.7634531608933074E+01
N   -3.2121648423314912E+00    7.6043694509813760E+00    2.5034058170650577E+00
Ga   -3.1967793922536560E+00    5.6026903646857749E+00    2.8517338462267277E+00
N   -3.2164764460623045E+00    5.6244507223641236E+00    5.0058105993646222E+00
Ga   -3.2284093925640502E+00    7.4470205055761731E+00    5.7992464565902155E+00
N   -3.2201509785948885E+00    7.4730227859178830E+00    7.7870277823312604E+00
Ga   -3.2232662985837224E+00    5.6261110309539673E+00    8.4470694978655718E+00
N   -3.2220112001362908E+00    5.6276439467734756E+00    1.0415889395676235E+01
Ga   -3.2235053946628400E+00    7.4659056390103489E+00    1.1073618407337309E+01
N   -3.2217032425693057E+00    7.4456976484464557E+00    1.3063099008315474E+01
Ga   -3.2215992448795481E+00    5.6242141633483476E+00    1.3878108054114607E+01
N   -3.2211285621889041E+00    5.6257315462631583E+00    1.6066876307452411E+01
Ga   -3.2214403426589486E+00    7.6658594254139345E+00    1.6476469718694833E+01
Ga   -3.2490141972816455E+00    9.3609342947557010E+00    1.4509925671713315E+00
N   -4.7265079362936619E+00    1.0211826065801695E+01    2.5142904416019900E+00
Ga   -4.9370671247396354E+00    8.3518682610796766E+00    3.2686788211386686E+00
N   -4.8306855016356023E+00    8.4089632312757026E+00    5.2309500658035466E+00
Ga   -4.8557079026761141E+00    1.0285150711672514E+01    5.7886422192381923E+00
N   -4.8379618869918541E+00    1.0273921660929453E+01    7.7832370268935200E+00
Ga   -4.8228236583252402E+00    8.4178807362565600E+00    8.4319731966145159E+00
N   -4.8180653008604555E+00    8.4183279076931399E+00    1.0422584184966425E+01
Ga   -4.8450809169859648E+00    1.0276950524794586E+01    1.1070471329096883E+01
N   -4.8618624166031745E+00    1.0287235486813413E+01    1.3061075303631917E+01
Ga   -4.8187455287679066E+00    8.4182890376962298E+00    1.3622199530175928E+01
N   -4.8487790996492359E+00    8.4010652676417141E+00    1.5581433671646716E+01
Ga   -4.6722359822410446E+00    1.0178447686610157E+01    1.6475858516723751E+01
N   -3.2216201111465388E+00    9.3411416957721176E+00    1.7592003717673322E+01
N    3.1952586968876897E+00    1.9307924636761860E+00    2.5903898519525348E+00
Ga    3.2059504007707775E+00    1.8707642987165779E-01    3.2737682120804021E+00
N    3.2138136300957370E+00    6.0178798301255457E-02    5.2357350652533778E+00
Ga    3.2095514451839384E+00    1.9234721349058455E+00    5.8727420038443663E+00
N    3.2132262063318398E+00    1.9135665575589513E+00    7.8449583886396601E+00
Ga    3.2088198705437492E+00    4.7340707693209236E-02    8.4368069466049107E+00
N    3.2108083782152015E+00    4.2354476904615503E-02    1.0426155187182502E+01
Ga    3.2107847266872160E+00    1.9118438690340493E+00    1.1030225984712571E+01
N    3.2112046378098222E+00    1.9123331988492680E+00    1.2996672681297550E+01
Ga    3.2107705511271307E+00    4.3841959099941950E-02    1.3621508998332530E+01
N    3.2108186925226296E+00    7.8712201140235069E-02    1.5580918179885854E+01
Ga    3.2110507310688172E+00    1.9170661501190520E+00    1.5861614622449837E+01
N    1.4706022045708189E+00    4.6379912662649510E+00    2.5133813399219447E+00
Ga    1.6847533238925654E+00    2.8129828537075094E+00    3.2943402374343260E+00
N    1.6032696299989264E+00    2.8463237334216327E+00    5.2568576168513674E+00
Ga    1.6536910984706845E+00    4.7210713896007377E+00    5.8244370519522928E+00
N    1.6015361127841170E+00    4.7002245150247735E+00    7.8233409654803401E+00
Ga    1.5915551902881662E+00    2.8446920696544895E+00    8.4447879133254666E+00
N    1.5918372368447218E+00    2.8445967839351702E+00    1.0433912883037793E+01
Ga    1.6197096701017830E+00    4.7062456538628679E+00    1.1072689456051876E+01
N    1.6352279051112903E+00    4.7165499459052214E+00    1.3063052731448868E+01
Ga    1.5911358824107231E+00    2.8475278678670928E+00    1.3622422959040547E+01
N    1.6167045767347088E+00    2.8315071134352499E+00    1.5580408607763173E+01
Ga    1.4401368400879822E+00    4.6042811896059241E+00    1.6488798145432941E+01
N   -3.1030064110003693E-03    7.4711845027774482E+00    2.6887336743973047E+00
Ga    8.8251302592731052E-03    5.6186482834941760E+00    3.3402473741550094E+00
N   -7.3527254744140602E-03    5.6399910294478959E+00    5.2656159946817853E+00
Ga    1.6085966322204974E-03    7.4785054385729213E+00    5.9082211420816293E+00
N   -3.9106517196100497E-03    7.4860153843304147E+00    7.8615962242484798E+00
Ga   -6.8482435761170217E-03    5.6114076873413570E+00    8.4557989841408627E+00
N   -8.3711854956744474E-03    5.6152675805019818E+00    1.0439821408734977E+01
Ga   -6.6574081523991030E-03    7.4839673954979640E+00    1.1034887949795271E+01
N   -5.9462077651495499E-03    7.4840566392230965E+00    1.2999478748778639E+01
Ga   -5.2228490660381583E-03    5.6126974817314830E+00    1.3623442963907964E+01
N   -6.9932550699372629E-03    5.6436799341222228E+00    1.5581153982681030E+01
Ga   -1.8663505135172878E-03    7.4817796933873701E+00    1.5861786405710768E+01
N   -1.7133248027027617E+00    1.0204766983204511E+01    2.5098765367861660E+00
Ga   -1.5930875584958049E+00    8.3994116234778318E+00    3.3259579215934503E+00
N   -1.5990261980149996E+00    8.4059595038625545E+00    5.2497721870217662E+00
Ga   -1.5894896468208157E+00    1.0292804827073043E+01    5.8053447247254137E+00
N   -1.6040951227767970E+00    1.0273063136217438E+01    7.7910818801657173E+00
Ga   -1.6260489462660452E+00    8.4191508873572420E+00    8.4467015406576049E+00
N   -1.6258569924510553E+00    8.4189678167726250E+00    1.0431221302271435E+01
Ga   -1.5982917293557901E+00    1.0279078644169589E+01    1.1073720273766574E+01
N   -1.5801555497255357E+00    1.0288069920184565E+01    1.3063088839616464E+01
Ga   -1.6246939916098553E+00    8.4186038813755975E+00    1.3622758351256707E+01
N   -1.5939720042520313E+00    8.4009933614145265E+00    1.5581855407453402E+01
Ga   -1.7707071749169472E+00    1.0178384780387500E+01    1.6476093437556180E+01
N    6.4270208569417555E+00    2.0370114990329653E+00    2.5322518066137381E+00
Ga    6.4300358132851807E+00    6.4906143508370970E-02    2.8841232334316254E+00
N    6.4289087605343367E+00    5.6357841582827230E-02    5.0171125571224255E+00
Ga    6.4209950668289251E+00    1.8954806574964194E+00    5.7975273649071344E+00
N    6.4258892992403789E+00    1.9009725397045665E+00    7.7898212083720617E+00
Ga    6.4273740004260533E+00    5.8122170289950703E-02    8.4458115237741396E+00
N    6.4271023831464644E+00    5.6117999462058199E-02    1.0414770468927903E+01
Ga    6.4282788071750474E+00    1.8956767850516685E+00    1.1073618193624661E+01
N    6.4282250283916618E+00    1.8754271359806509E+00    1.3061934732019258E+01
Ga    6.4292092924479940E+00    5.7816671400127743E-02    1.3878268398412670E+01
N    6.4286243638852971E+00    5.6978382028008923E-02    1.6066478596622765E+01
Ga    6.4280695813112061E+00    2.1067486080745228E+00    1.6489565078701055E+01
Ga    6.4674360245629128E+00    3.7420804783171189E+00    1.4871461327478961E+00
N    4.9243627905627871E+00    4.6375793280568205E+00    2.4149888750474666E+00
Ga    4.6988015463685233E+00    2.8140594801551471E+00    3.2729769042280128E+00
N    4.8179766315219936E+00    2.8502711130230942E+00    5.2325596807040391E+00
Ga    4.7753653688970097E+00    4.7250812628271195E+00    5.8163432009054352E+00
N    4.8208357651048868E+00    4.6979381013246035E+00    7.8175040464776409E+00
Ga    4.8302535731914427E+00    2.8461936391431593E+00    8.4479867244477660E+00
N    4.8307530529445142E+00    2.8449841176772801E+00    1.0435064035879352E+01
Ga    4.8042370262848175E+00    4.7076791220325935E+00    1.1071355041635870E+01
N    4.7879398887907154E+00    4.7166730685810609E+00    1.3062041571602588E+01
Ga    4.8311814690305557E+00    2.8477448141890962E+00    1.3622471596213249E+01
N    4.8055158207495143E+00    2.8315513881563201E+00    1.5580608788636122E+01
Ga    4.9823636206647484E+00    4.6042367612354562E+00    1.6489295785308769E+01
N    6.4222245646618514E+00    3.7729076512330262E+00    1.7634714983773087E+01
N    3.2049058731248468E+00    7.6014334158806305E+00    2.4120090052196370E+00
N    3.2122416147738471E+00    5.6305667493433482E+00    5.1443246256866351E+00
Ga    3.2195129229147237E+00    7.4268812567466540E+00    5.8276333051830393E+00
N    3.2099358499068757E+00    7.4875000306371540E+00    7.8211673657461347E+00
Ga    3.2121418501392696E+00    5.6261426661077776E+00    8.4435658796326436E+00
N    3.2115085401602190E+00    5.6273754913227982E+00    1.0419585025836943E+01
Ga    3.2130317958432961E+00    7.4650839961931856E+00    1.1073823560710247E+01
N    3.2116015046115449E+00    7.4468231037475379E+00    1.3063234206718256E+01
Ga    3.2117518662603199E+00    5.6263014261624997E+00    1.3875639699487055E+01
N    3.2108857899619445E+00    5.6273370013292849E+00    1.6066756643501929E+01
Ga    3.2111648913750388E+00    7.6726905982342766E+00    1.6489035947742661E+01
Ga    3.2367454753757459E+00    9.3906002029198969E+00    1.4397397137798962E+00
N    1.7070924601857447E+00    1.0195389993804083E+01    2.5163120641819550E+00
Ga    1.6051667470725157E+00    8.3692877972905464E+00    3.3151639440391132E+00
N    1.5984197208163387E+00    8.4018830151995090E+00    5.2399889139029661E+00
Ga    1.5802549214740518E+00    1.0283711152093122E+01    5.8051535416913334E+00
N    1.5919101946585354E+00    1.0272481550465875E+01    7.7918060667570206E+00
Ga    1.6156103208795527E+00    8.4220303563843348E+00    8.4588827132144502E+00
N    1.6119439345588660E+00    8.4207632896568132E+00    1.0440720076596918E+01
Ga    1.5877927769307953E+00    1.0280237274387879E+01    1.1076390249993509E+01
N    1.5709016704931245E+00    1.0288670743296155E+01    1.3063311158455855E+01
Ga    1.6149245309730844E+00    8.4191202431208616E+00    1.3623397356990969E+01
N    1.5872107762235010E+00    8.4052539834640267E+00    1.5580708417282292E+01
Ga    1.7712789918698213E+00    1.0172988510453836E+01    1.6489086164696818E+01
N    3.2114420212981729E+00    9.3351179501797930E+00    1.7635794067399605E+01
N    9.6530099589632368E+00    1.9174720514489465E+00    2.6068530006101076E+00
Ga    9.6515465281032977E+00    1.7692098905225154E-01    3.2886818235094366E+00
N    9.6419050181716361E+00    5.5893749308539270E-02    5.2462393112867849E+00
Ga    9.6514791013842309E+00    1.9164578381745805E+00    5.8758031601822500E+00
N    9.6434295678945752E+00    1.9124620034055844E+00    7.8453970802098141E+00
Ga    9.6456741251448950E+00    4.4461527110328192E-02    8.4364048260806825E+00
N    9.6432962153942494E+00    4.2733501156880960E-02    1.0426034028235058E+01
Ga    9.6426118613438430E+00    1.9129336948346467E+00    1.1026170633731782E+01
N    9.6427475226028569E+00    1.9129448899876309E+00    1.2994856113293519E+01
Ga    9.6438108260151054E+00    4.3680763820085684E-02    1.3623223570531666E+01
N    9.6434871183347166E+00    7.4661597191258644E-02    1.5579260433280149E+01
Ga    9.6433585049448070E+00    1.9133306990651975E+00    1.5857752176540879E+01
N    7.9303929652136764E+00    4.6349789689414225E+00    2.5229804158651747E+00
Ga    8.1472439940816130E+00    2.7827800035192154E+00    3.2991816535936254E+00
N    8.0387956331868473E+00    2.8401444575686181E+00    5.2525879628112566E+00
Ga    8.0529235242055446E+00    4.7162806521664020E+00    5.7914019817430482E+00
N    8.0455218873938783E+00    4.7070307388234349E+00    7.7860289720683724E+00
Ga    8.0248479402477155E+00    2.8485677317639038E+00    8.4340553137677539E+00
N    8.0239659855388563E+00    2.8484214186800014E+00    1.0424838935171024E+01
Ga    8.0506068475663248E+00    4.7066175237659200E+00    1.1073657136416493E+01
N    8.0679600067603641E+00    4.7162013906435813E+00    1.3061964367722867E+01
Ga    8.0239752287765302E+00    2.8479100464662213E+00    1.3623516944222853E+01
N    8.0509220940458750E+00    2.8328431849166513E+00    1.5580001957909699E+01
Ga    7.8682331647586778E+00    4.6010993149219868E+00    1.6489787678414999E+01
N    6.4205618757141378E+00    7.4790783398726042E+00    2.5750624287080157E+00
Ga    6.3973714536490229E+00    5.7376688946799241E+00    3.2665593114748912E+00
N    6.4205960764712549E+00    5.6234331730895910E+00    5.2265903170495118E+00
Ga    6.4182830563838751E+00    7.4791513714593334E+00    5.8612367291814476E+00
N    6.4252206705938537E+00    7.4831789365155803E+00    7.8344322026773696E+00
Ga    6.4291812285201075E+00    5.6158968109897502E+00    8.4441161777391098E+00
N    6.4303739153505575E+00    5.6159155352517471E+00    1.0432072195769912E+01
Ga    6.4288665714099027E+00    7.4840328834087808E+00    1.1030034969028410E+01
N    6.4281057057613111E+00    7.4838207581518263E+00    1.2996034443034773E+01
Ga    6.4278423117164598E+00    5.6133703415074461E+00    1.3623015082917512E+01
N    6.4292818637856755E+00    5.6438055870277637E+00    1.5580947590582786E+01
Ga    6.4237421251146296E+00    7.4817787561996152E+00    1.5862279452743897E+01
N    4.7153562823803616E+00    1.0208232137323940E+01    2.5169773817625694E+00
Ga    4.9031801563280029E+00    8.3338251682353039E+00    3.2632143364949395E+00
N    4.8089363064445481E+00    8.4093002000489410E+00    5.2248477710009293E+00
Ga    4.8463389138012056E+00    1.0277667328143387E+01    5.7919785109030117E+00
N    4.8302647694109933E+00    1.0273298004795528E+01    7.7862247069524964E+00
Ga    4.8121309155393774E+00    8.4208439917125038E+00    8.4462193209440048E+00
N    4.8113826598223390E+00    8.4200453005125073E+00    1.0433064693626305E+01
Ga    4.8353036181210980E+00    1.0278486578822360E+01    1.1073148324136998E+01
N    4.8512551628272398E+00    1.0288152059325387E+01    1.3061284291393918E+01
Ga    4.8082726901440056E+00    8.4191642253633017E+00    1.3622650210813649E+01
N    4.8350370695892657E+00    8.4053210672256373E+00    1.5580091225084896E+01
Ga    4.6512227412810105E+00    1.0172963121868145E+01    1.6488841395715333E+01
O    7.1335182192413804E-01    3.8554306941437111E+00   -3.7438481113091182E-01
H   -8.2200753250127982E-03    7.4571493740739667E+00    1.6630291691592320E+00
C    1.1440823001680076E+00    2.5930525655121177E+00   -9.3413109071704059E-01
H    1.8444827337065115E+00    2.0651223853289737E+00   -2.6545280717810071E-01
H    2.8596706323795773E-01    1.9355281052245747E+00   -1.1355003208133745E+00
H    1.6490974908807503E+00    2.8026830558111744E+00   -1.8875530984444822E+00
Ga    3.1695130359922885E+00    5.5914082786390562E+00    2.2665202572848520E+00
O    2.8266373228879451E+00    5.4644764953484630E+00    1.3659985896410248E-01
H    2.0528514333507522E+00    4.8301595593572193E+00   -6.1804614463985053E-02
C    3.8954002010846391E+00    5.2529000904903764E+00   -8.0670704913606073E-01
H    3.5330131409556880E+00    5.4242629722282807E+00   -1.8287203217361656E+00
H    4.6884766153313144E+00    5.9732929044531335E+00   -5.7325303718677900E-01
H    4.2991603600308723E+00    4.2319182372864548E+00   -7.2497597255782009E-01
     &END COORD
     &KIND C
       BASIS_SET DZVP-MOLOPT-SR-GTH-q4
       POTENTIAL GTH-PBE-q4
       &POTENTIAL
2 2
0.3384712400000000E+00 2 -0.8803673979999999E+01  0.1339210850000000E+01
2
0.3025757500000000E+00 1  0.9622486650000001E+01
0.2915069400000000E+00 0
       &END POTENTIAL
     &END KIND
     &KIND O
       BASIS_SET DZVP-MOLOPT-SR-GTH-q6
       POTENTIAL GTH-PBE-q6
       &POTENTIAL
2 4
0.2445543000000000E+00 2 -0.1666721480000000E+02  0.2487311320000000E+01
2
0.2209559200000000E+00 1  0.1833745811000000E+02
0.2113324700000000E+00 0
       &END POTENTIAL
     &END KIND
     &KIND H
       BASIS_SET DZVP-MOLOPT-SR-GTH-q1
       POTENTIAL GTH-PBE-q1
       &POTENTIAL
1
0.2000000000000000E+00 2 -0.4178900440000000E+01  0.7244633100000000E+00
0
       &END POTENTIAL
     &END KIND
     &KIND N
       BASIS_SET DZVP-MOLOPT-SR-GTH
       POTENTIAL GTH-PBE-q5
       &POTENTIAL
2 3
0.2837905100000000E+00 2 -0.1241522559000000E+02  0.1868095920000000E+01
2
0.2554050000000000E+00 1  0.1363026257000000E+02
0.2454945300000000E+00 0
       &END POTENTIAL
     &END KIND
     &KIND Ga
       BASIS_SET DZVP-MOLOPT-SR-GTH
       POTENTIAL GTH-PBE-q13
       &POTENTIAL
2 1 10
0.4900000000000000E+00 0
3
0.4167772300000000E+00 3  0.1047568975000000E+02 -0.4921768140000000E+01  0.8707055900000000E+00
0.7770178090000000E+01 -0.2248152160000000E+01
0.1784415450000000E+01
0.5696265200000000E+00 2  0.1777985340000000E+01  0.1958597600000000E+00
-0.2317443900000000E+00
0.2381265000000000E+00 1 -0.1624868022000000E+02
       &END POTENTIAL
     &END KIND
     &TOPOLOGY
       NUMBER_OF_ATOMS  212
       MULTIPLE_UNIT_CELL  1 1 1
     &END TOPOLOGY
   &END SUBSYS
 &END FORCE_EVAL
