 # Version information for this restart file 
 # current date 2019-06-30 09:30:13.210
 # current working dir /scratch/rzk/rzk/GaN-carbene/443-adatoms-both-2x2/05-2DissMethanol/01-Combine0304-0202
 # Program compiled at                              Sun Apr  7 00:48:11 EDT 2019
 # Program compiled on                          beluga2.int.ets1.calculquebec.ca
 # Program compiled for                        Beluga-Linux-x86-64-intel-openmpi
 # Source code revision number                                         svn:18619
 &GLOBAL
   PRINT_LEVEL  MEDIUM
   PROJECT_NAME TEST
   RUN_TYPE  GEO_OPT
 &END GLOBAL
 &MOTION
   &GEO_OPT
     MAX_ITER  500
     STEP_START_VAL  142
   &END GEO_OPT
 &END MOTION
 &FORCE_EVAL
   METHOD  QS
   STRESS_TENSOR  ANALYTICAL
   &DFT
     BASIS_SET_FILE_NAME BASIS_MOLOPT
     POTENTIAL_FILE_NAME GTH_POTENTIALS
     UKS  T
     SURFACE_DIPOLE_CORRECTION  T
     SURF_DIP_DIR  Z
     &SCF
       MAX_SCF  80
       EPS_SCF     5.0000000000000004E-06
       &OT  T
         PRECONDITIONER  FULL_ALL
       &END OT
       &OUTER_SCF  T
         OPTIMIZER  NONE
         EPS_SCF     5.0000000000000004E-06
         MAX_SCF  4
       &END OUTER_SCF
       &PRINT
         &RESTART  OFF
           BACKUP_COPIES  1
           &EACH
             JUST_ENERGY  0
             QS_SCF  0
             MD  20
           &END EACH
         &END RESTART
       &END PRINT
     &END SCF
     &QS
       EPS_DEFAULT     1.0000000000000000E-14
       METHOD  GPW
     &END QS
     &MGRID
       NGRIDS  5
       CUTOFF     1.2000000000000000E+03
     &END MGRID
     &XC
       DENSITY_CUTOFF     1.0000000000000000E-10
       GRADIENT_CUTOFF     1.0000000000000000E-10
       TAU_CUTOFF     1.0000000000000000E-10
       &XC_FUNCTIONAL  NO_SHORTCUT
         &PBE  T
         &END PBE
       &END XC_FUNCTIONAL
       &VDW_POTENTIAL
         POTENTIAL_TYPE  PAIR_POTENTIAL
         &PAIR_POTENTIAL
           R_CUTOFF     1.0000000000000005E+01
           TYPE  DFTD3
           PARAMETER_FILE_NAME dftd3.dat
           REFERENCE_FUNCTIONAL PBE
           EPS_CN     9.9999999999999995E-07
           CALCULATE_C9_TERM  T
           REFERENCE_C9_TERM  T
           LONG_RANGE_CORRECTION  F
           VERBOSE_OUTPUT  F
         &END PAIR_POTENTIAL
       &END VDW_POTENTIAL
     &END XC
   &END DFT
   &SUBSYS
     &CELL
       A     1.2864472766435110E+01    0.0000000000000000E+00    0.0000000000000000E+00
       B    -6.4322363581020028E+00    1.1140960178524475E+01    0.0000000000000000E+00
       C     0.0000000000000000E+00    0.0000000000000000E+00    3.2000000000000000E+01
       MULTIPLE_UNIT_CELL  1 1 1
       &CELL_REF
         A     1.2982353780853531E+01    0.0000000000000000E+00    0.0000000000000000E+00
         B    -6.4911768904267628E+00    1.1243048175136114E+01    0.0000000000000000E+00
         C     0.0000000000000000E+00    0.0000000000000000E+00    3.2000000000000000E+01
         MULTIPLE_UNIT_CELL  1 1 1
       &END CELL_REF
     &END CELL
     &COORD
N    5.5416437561304783E-04    2.0546301931684270E+00    2.5032984438869388E+00
Ga   -5.0989549194580298E-03    9.4054877552255986E-02    2.8545743985480225E+00
N   -6.5818333036669185E-03    5.9718485176040843E-02    5.0082310906575254E+00
Ga   -4.5858975511418624E-03    1.8917476986628854E+00    5.7988509669095079E+00
N   -6.7256326383373808E-03    1.9003867176400697E+00    7.7941452742696882E+00
Ga   -4.8618805518766345E-03    5.6129752428636971E-02    8.4413255515317758E+00
N   -4.8263159886437357E-03    5.5238822644827837E-02    1.0412959826697795E+01
Ga   -5.0385278926852947E-03    1.8941070992227376E+00    1.1073103790302394E+01
N   -5.5405865560661915E-03    1.8753310535698593E+00    1.3061946716094706E+01
Ga   -6.6729143464802033E-03    5.7106626112144711E-02    1.3875503446618794E+01
N   -6.1136191672625682E-03    5.6983864779598471E-02    1.6066881017938620E+01
Ga   -5.7977105773984513E-03    2.1064157083733388E+00    1.6487745475583147E+01
Ga    3.1429435315391080E-02    3.7359586371299316E+00    1.3673647410861152E+00
N   -1.4732759581233290E+00    4.6352881629711193E+00    2.4717940082521932E+00
Ga   -1.6814515407350135E+00    2.7969129878485219E+00    3.2638899224437314E+00
N   -1.6151838052710001E+00    2.8446435267631016E+00    5.2410752493500405E+00
Ga   -1.6412700461299610E+00    4.7068130195184734E+00    5.8111502287595602E+00
N   -1.6247879162175378E+00    4.7051258333111603E+00    7.7991937782000056E+00
Ga   -1.6026990521143225E+00    2.8453475416649030E+00    8.4415412120957551E+00
N   -1.6024059654411300E+00    2.8478310811326328E+00    1.0430148666301967E+01
Ga   -1.6306870176419965E+00    4.7064029008572152E+00    1.1076353523013667E+01
N   -1.6462175769511642E+00    4.7163322317748539E+00    1.3063996903119842E+01
Ga   -1.6020615831871610E+00    2.8471480518578147E+00    1.3623009907154920E+01
N   -1.6286642065132766E+00    2.8325074753294905E+00    1.5579567332284066E+01
Ga   -1.4462479839576847E+00    4.6010435858976875E+00    1.6487957911657467E+01
N   -1.3161676295688580E-04    3.7724992815454557E+00    1.7635180954576569E+01
N   -3.2130955932609742E+00    7.6037779637500700E+00    2.5008137721781298E+00
Ga   -3.1973897412628514E+00    5.6027930503636032E+00    2.8505332518206687E+00
N   -3.2166787228757259E+00    5.6245602387283800E+00    5.0058091230570856E+00
Ga   -3.2287509186764551E+00    7.4474742937690870E+00    5.7980987445986267E+00
N   -3.2203112348530691E+00    7.4731994043673593E+00    7.7862626670367865E+00
Ga   -3.2233656034190488E+00    5.6262772126046725E+00    8.4469818795520304E+00
N   -3.2220646544820180E+00    5.6276626781552075E+00    1.0415959556874901E+01
Ga   -3.2235831093737022E+00    7.4659910238541940E+00    1.1073952601108459E+01
N   -3.2217024325336965E+00    7.4460851001369823E+00    1.3063711063104233E+01
Ga   -3.2217079314873129E+00    5.6241102195868411E+00    1.3877866083300978E+01
N   -3.2212584896922940E+00    5.6259436980509872E+00    1.6067816642110873E+01
Ga   -3.2214549525524685E+00    7.6663383797124451E+00    1.6475531362253637E+01
Ga   -3.2502531048378125E+00    9.3617402672496688E+00    1.4353058705932482E+00
N   -4.7272467352190617E+00    1.0212251105428948E+01    2.5119791470273602E+00
Ga   -4.9359995001266475E+00    8.3526028021521785E+00    3.2650078539497303E+00
N   -4.8307875151233395E+00    8.4092663271006298E+00    5.2289487370278493E+00
Ga   -4.8555487373636117E+00    1.0285049893535303E+01    5.7875798524007198E+00
N   -4.8380675891492988E+00    1.0273928099791664E+01    7.7824907006961048E+00
Ga   -4.8228671815428825E+00    8.4180379044807623E+00    8.4316459196570275E+00
N   -4.8181327788619921E+00    8.4183410856260110E+00    1.0422375522966725E+01
Ga   -4.8449687992106565E+00    1.0276913617084135E+01    1.1070789020004852E+01
N   -4.8614694507129430E+00    1.0286991483552718E+01    1.3061676545095366E+01
Ga   -4.8188560494427639E+00    8.4182193649254859E+00    1.3623082699077662E+01
N   -4.8491515526504232E+00    8.4010486716577475E+00    1.5582034824796944E+01
Ga   -4.6714942851020709E+00    1.0178130018474084E+01    1.6475010190695588E+01
N   -3.2214526418759428E+00    9.3410731280611401E+00    1.7591962809890546E+01
N    3.1949284177652419E+00    1.9315018617290858E+00    2.5899639141796409E+00
Ga    3.2057583761365267E+00    1.8588011022604950E-01    3.2699158946714317E+00
N    3.2134861068157754E+00    6.0155732219676648E-02    5.2335774345276000E+00
Ga    3.2091878481011431E+00    1.9227990629894558E+00    5.8720881139643453E+00
N    3.2129943417105418E+00    1.9134451873541702E+00    7.8443557236327148E+00
Ga    3.2086158952112611E+00    4.7349409605185300E-02    8.4361707274018602E+00
N    3.2107393530813728E+00    4.2351478671324272E-02    1.0425706367725441E+01
Ga    3.2106958491146429E+00    1.9117639023521633E+00    1.1030401543847022E+01
N    3.2111690712896497E+00    1.9121357898455891E+00    1.2996778185586360E+01
Ga    3.2107578553527740E+00    4.4000896345641784E-02    1.3622326372090987E+01
N    3.2107700752732664E+00    7.9082110701246960E-02    1.5581434373626653E+01
Ga    3.2111848897124053E+00    1.9170544495514594E+00    1.5860410951041835E+01
N    1.4702962946455245E+00    4.6384659853955492E+00    2.5146306029535275E+00
Ga    1.6844910354004816E+00    2.8129725462593504E+00    3.2952049718481873E+00
N    1.6030068312885077E+00    2.8465502399929856E+00    5.2574048922451020E+00
Ga    1.6533637542850308E+00    4.7213863952323774E+00    5.8245682798629934E+00
N    1.6013098076740380E+00    4.7003291292787495E+00    7.8234186445178846E+00
Ga    1.5914962581174124E+00    2.8446585294317788E+00    8.4445378562356943E+00
N    1.5918750091311817E+00    2.8445879773485232E+00    1.0433736509433807E+01
Ga    1.6196150359061097E+00    4.7061413456217389E+00    1.1072903461022193E+01
N    1.6349379471008347E+00    4.7163428618517091E+00    1.3063387932648450E+01
Ga    1.5913909364111496E+00    2.8473924301988571E+00    1.3622876673041345E+01
N    1.6167721919266289E+00    2.8311793531758518E+00    1.5580728210072440E+01
Ga    1.4399682771556577E+00    4.6041713932619102E+00    1.6487998149432219E+01
N   -4.2147637585810329E-03    7.4715364218117077E+00    2.6884328159331603E+00
Ga    7.7502736436711149E-03    5.6192673482212108E+00    3.3407112957011948E+00
N   -7.7715239436598462E-03    5.6402110696580934E+00    5.2660350112350383E+00
Ga    1.7951807971368984E-04    7.4789371497648212E+00    5.9078902877520321E+00
N   -4.4501949144685167E-03    7.4861579484486942E+00    7.8612401009811768E+00
Ga   -7.0797862463148212E-03    5.6115550320964749E+00    8.4558168862863905E+00
N   -8.3965723332087433E-03    5.6153768841912024E+00    1.0439863530763388E+01
Ga   -6.7860080883860576E-03    7.4840128754750390E+00    1.1035343610739396E+01
N   -5.9845444512747238E-03    7.4841426682694561E+00    1.2999995304567140E+01
Ga   -5.2204389176589133E-03    5.6128129543915826E+00    1.3623999038943341E+01
N   -7.1285596260570443E-03    5.6439818709582106E+00    1.5581510863580574E+01
Ga   -1.8763374521144722E-03    7.4818545524900149E+00    1.5860848929609357E+01
N   -1.7130571005388655E+00    1.0205915877047262E+01    2.5077374652377586E+00
Ga   -1.5955857473504196E+00    8.4006575721490773E+00    3.3220858791756487E+00
N   -1.5996988741496534E+00    8.4062974079965418E+00    5.2473796129375669E+00
Ga   -1.5901942841515573E+00    1.0292759505478976E+01    5.8042936977463020E+00
N   -1.6043425950585335E+00    1.0273035930370119E+01    7.7902648819606863E+00
Ga   -1.6263871306612925E+00    8.4192800329211455E+00    8.4464553995691158E+00
N   -1.6259384004101560E+00    8.4189916442637678E+00    1.0431106009802910E+01
Ga   -1.5984917470760402E+00    1.0279086842417659E+01    1.1074023001691208E+01
N   -1.5805253986792296E+00    1.0287842172050759E+01    1.3063675889695546E+01
Ga   -1.6246171595765231E+00    8.4185456175775943E+00    1.3623662799872312E+01
N   -1.5935685483402653E+00    8.4009041499563057E+00    1.5582528234919106E+01
Ga   -1.7711643338060603E+00    1.0178247644849725E+01    1.6475220018734731E+01
N    6.4269135115011258E+00    2.0380258316405504E+00    2.5339355116850464E+00
Ga    6.4299588229011784E+00    6.5451038648450435E-02    2.8842590267287860E+00
N    6.4286871675510744E+00    5.6525808770967162E-02    5.0172380362085773E+00
Ga    6.4207958880355820E+00    1.8955342504619612E+00    5.7979622746140729E+00
N    6.4257523472418896E+00    1.9010368243491846E+00    7.7900957708190566E+00
Ga    6.4270877633940904E+00    5.8106655368395405E-02    8.4457592924798046E+00
N    6.4270053227166839E+00    5.6066352886936698E-02    1.0414846235814265E+01
Ga    6.4280572936085925E+00    1.8957332643510596E+00    1.1073822274949551E+01
N    6.4280839049567025E+00    1.8756612427399040E+00    1.3062112415253219E+01
Ga    6.4291921494755648E+00    5.7947491808037023E-02    1.3878017621516154E+01
N    6.4282663804478464E+00    5.7071352073136898E-02    1.6067600125947578E+01
Ga    6.4280011750976778E+00    2.1076720937955651E+00    1.6489099585057357E+01
Ga    6.4667095488286943E+00    3.7423778197153990E+00    1.4879482716550843E+00
N    4.9241252482082878E+00    4.6378910639640276E+00    2.4166610020761761E+00
Ga    4.6983042507003949E+00    2.8140611146385455E+00    3.2742266064009975E+00
N    4.8176430092318689E+00    2.8504090907019251E+00    5.2333505581005149E+00
Ga    4.7750474559293963E+00    4.7253287183405934E+00    5.8168537986907989E+00
N    4.8206327258382524E+00    4.6980401120645823E+00    7.8178288274651671E+00
Ga    4.8299042832092240E+00    2.8461034613689895E+00    8.4477974416461841E+00
N    4.8305424759270945E+00    2.8449423542659762E+00    1.0434859619916690E+01
Ga    4.8041855647562057E+00    4.7075627488493037E+00    1.1071555940628683E+01
N    4.7882119084093366E+00    4.7164741135725246E+00    1.3062229465907889E+01
Ga    4.8309538934723291E+00    2.8476597168847246E+00    1.3622904501418043E+01
N    4.8053040420471014E+00    2.8312228960672674E+00    1.5580547344214015E+01
Ga    4.9833361649996073E+00    4.6036900100524081E+00    1.6488702933902854E+01
N    6.4223324594737186E+00    3.7728341349275616E+00    1.7636122137816656E+01
N    3.2041936037091006E+00    7.6019818078350063E+00    2.4150342439874324E+00
N    3.2120155646999158E+00    5.6309959958248292E+00    5.1454221784050329E+00
Ga    3.2190845604710456E+00    7.4268989462056574E+00    5.8288721980635305E+00
N    3.2097351788061079E+00    7.4876177093286680E+00    7.8219326706574464E+00
Ga    3.2118979554359761E+00    5.6261351713614198E+00    8.4439807272301923E+00
N    3.2114180142262843E+00    5.6273603539101451E+00    1.0419864087709357E+01
Ga    3.2129416956192727E+00    7.4651009223046083E+00    1.1074124245070495E+01
N    3.2116132018514318E+00    7.4471410148397874E+00    1.3063741064571204E+01
Ga    3.2118704881085041E+00    5.6261608166918178E+00    1.3875166115551242E+01
N    3.2111620023417995E+00    5.6270450002121546E+00    1.6067484954793244E+01
Ga    3.2112461045110625E+00    7.6723721824302311E+00    1.6488123858033145E+01
Ga    3.2360806855505353E+00    9.3901554923741681E+00    1.4463857161525977E+00
N    1.7077354802457922E+00    1.0195113224792093E+01    2.5188338223901532E+00
Ga    1.6030473032024761E+00    8.3688834647652239E+00    3.3177077746168244E+00
N    1.5979382538931826E+00    8.4020138489654421E+00    5.2416994422338874E+00
Ga    1.5797425085418642E+00    1.0284068189939392E+01    5.8059378725906186E+00
N    1.5917992562443606E+00    1.0272582561941149E+01    7.7923012205236493E+00
Ga    1.6151393895457120E+00    8.4220883336688850E+00    8.4590304504991405E+00
N    1.6117638790476918E+00    8.4206843805257972E+00    1.0440833789793656E+01
Ga    1.5877152873262133E+00    1.0280122560838542E+01    1.1076782312195624E+01
N    1.5710350922102732E+00    1.0288431471065032E+01    1.3063852946400212E+01
Ga    1.6148491445438640E+00    8.4190422384346935E+00    1.3624163113143032E+01
N    1.5870910594520984E+00    8.4054708644054088E+00    1.5581484744895620E+01
Ga    1.7710089336096071E+00    1.0173250120824223E+01    1.6488250317335794E+01
N    3.2114747563684456E+00    9.3351233763527262E+00    1.7635534000452409E+01
N    9.6527051495671525E+00    1.9177778019634426E+00    2.6073939853857699E+00
Ga    9.6514061047728976E+00    1.7847206611000463E-01    3.2912193300480088E+00
N    9.6417070691960056E+00    5.6079303063104477E-02    5.2479653382433638E+00
Ga    9.6513949573647384E+00    1.9168608984721149E+00    5.8770158727554893E+00
N    9.6433338825904418E+00    1.9125482315817284E+00    7.8462039565920190E+00
Ga    9.6455215656323823E+00    4.4481830720877781E-02    8.4370503379294419E+00
N    9.6432034570102889E+00    4.2634274105236354E-02    1.0426464490112989E+01
Ga    9.6425590203980800E+00    1.9128710831653024E+00    1.1026625816625108E+01
N    9.6427935221290380E+00    1.9128072051619587E+00    1.2995231953868993E+01
Ga    9.6438063867246164E+00    4.3674194650397888E-02    1.3623767370850945E+01
N    9.6435835465560444E+00    7.4577576659717912E-02    1.5579905775667537E+01
Ga    9.6432733673193187E+00    1.9133647340375124E+00    1.5856313156956199E+01
N    7.9293524788039180E+00    4.6347326953318984E+00    2.5241046216308285E+00
Ga    8.1475166090071180E+00    2.7831310508589695E+00    3.3004900646026671E+00
N    8.0386563470639008E+00    2.8402894628133453E+00    5.2536885066689409E+00
Ga    8.0529498767670926E+00    4.7165490776943377E+00    5.7918562191623559E+00
N    8.0453303764640207E+00    4.7070434736114546E+00    7.7863898057330259E+00
Ga    8.0246494359239353E+00    2.8486164472679749E+00    8.4345571931120737E+00
N    8.0238635501916704E+00    2.8483643267783099E+00    1.0425168844994740E+01
Ga    8.0504129907369020E+00    4.7066087867571103E+00    1.1073878884122912E+01
N    8.0676700894468087E+00    4.7161552678389036E+00    1.3062149438087699E+01
Ga    8.0240058743381155E+00    2.8478598310002603E+00    1.3623820067825596E+01
N    8.0511346727573780E+00    2.8326523952006730E+00    1.5579982602539136E+01
Ga    7.8674248375312130E+00    4.6007249444288210E+00    1.6489282473477306E+01
N    6.4196565484469295E+00    7.4792599946633835E+00    2.5753223955676829E+00
Ga    6.3975543088538807E+00    5.7382450262285989E+00    3.2678278743590248E+00
N    6.4203902510675297E+00    5.6236976134772076E+00    5.2274881644682010E+00
Ga    6.4190149210671850E+00    7.4796450900274145E+00    5.8612661696301709E+00
N    6.4252236167047414E+00    7.4833387804200360E+00    7.8343321462146465E+00
Ga    6.4290383752384113E+00    5.6160624594336586E+00    8.4442303057945125E+00
N    6.4302083319753001E+00    5.6160037154547311E+00    1.0432112499380613E+01
Ga    6.4288375163409572E+00    7.4840649464097959E+00    1.1030436655044690E+01
N    6.4281685516300850E+00    7.4839324563417247E+00    1.2996427306032320E+01
Ga    6.4277780797346642E+00    5.6135023280347287E+00    1.3623487338027957E+01
N    6.4294053749579163E+00    5.6442329479356621E+00    1.5580895453624967E+01
Ga    6.4238496247070467E+00    7.4817068585605595E+00    1.5861134563146443E+01
N    4.7140494204818175E+00    1.0208068853917647E+01    2.5194526576634595E+00
Ga    4.9037866490681763E+00    8.3338659479875670E+00    3.2662486652582778E+00
N    4.8086470903232277E+00    8.4094476608888247E+00    5.2266873170584676E+00
Ga    4.8463999275822847E+00    1.0278060419529298E+01    5.7929435031478240E+00
N    4.8301147686596533E+00    1.0273396310813361E+01    7.7868383958257157E+00
Ga    4.8121503752177697E+00    8.4208967394975911E+00    8.4465385356379663E+00
N    4.8113378252268024E+00    8.4199544704839671E+00    1.0433274843456463E+01
Ga    4.8352375153760621E+00    1.0278361540729993E+01    1.1073500139817879E+01
N    4.8511009007699890E+00    1.0287868161607712E+01    1.3061771695784936E+01
Ga    4.8084434189483511E+00    8.4190129791711108E+00    1.3623336949987387E+01
N    4.8352628717711168E+00    8.4055843000863923E+00    1.5580811406151906E+01
Ga    4.6515265674267372E+00    1.0173144535523491E+01    1.6488122915270608E+01
O    7.1733268037736664E-01    3.8553730161891120E+00   -3.7326906667060128E-01
H   -6.8799753453146067E-03    7.4570026506513409E+00    1.6620397064396750E+00
C    1.1449386452685570E+00    2.5920878862592374E+00   -9.3326295552825211E-01
H    1.8448789266055261E+00    2.0624586783172938E+00   -2.6402535990199971E-01
H    2.8475088010792793E-01    1.9361279859605880E+00   -1.1350333410453639E+00
H    1.6510362236050309E+00    2.8022450637344756E+00   -1.8869364365256636E+00
Ga    3.1693533142139034E+00    5.5917704106892456E+00    2.2661910964457741E+00
O    2.8263389984423295E+00    5.4665151725194283E+00    1.3632940784911232E-01
H    2.0530692437788192E+00    4.8304442823764253E+00   -6.1245391956896079E-02
C    3.8967378804542019E+00    5.2527863496073079E+00   -8.0449603203789455E-01
H    3.5351241726077531E+00    5.4227478932129358E+00   -1.8279038282873696E+00
H    4.6899658379410187E+00    5.9741738293329369E+00   -5.7110522134845509E-01
H    4.3003486322153419E+00    4.2312044960201121E+00   -7.2069932576226792E-01
     &END COORD
     &KIND C
       BASIS_SET DZVP-MOLOPT-SR-GTH-q4
       POTENTIAL GTH-PBE-q4
       &POTENTIAL
2 2
0.3384712400000000E+00 2 -0.8803673979999999E+01  0.1339210850000000E+01
2
0.3025757500000000E+00 1  0.9622486650000001E+01
0.2915069400000000E+00 0
       &END POTENTIAL
     &END KIND
     &KIND O
       BASIS_SET DZVP-MOLOPT-SR-GTH-q6
       POTENTIAL GTH-PBE-q6
       &POTENTIAL
2 4
0.2445543000000000E+00 2 -0.1666721480000000E+02  0.2487311320000000E+01
2
0.2209559200000000E+00 1  0.1833745811000000E+02
0.2113324700000000E+00 0
       &END POTENTIAL
     &END KIND
     &KIND H
       BASIS_SET DZVP-MOLOPT-SR-GTH-q1
       POTENTIAL GTH-PBE-q1
       &POTENTIAL
1
0.2000000000000000E+00 2 -0.4178900440000000E+01  0.7244633100000000E+00
0
       &END POTENTIAL
     &END KIND
     &KIND N
       BASIS_SET DZVP-MOLOPT-SR-GTH
       POTENTIAL GTH-PBE-q5
       &POTENTIAL
2 3
0.2837905100000000E+00 2 -0.1241522559000000E+02  0.1868095920000000E+01
2
0.2554050000000000E+00 1  0.1363026257000000E+02
0.2454945300000000E+00 0
       &END POTENTIAL
     &END KIND
     &KIND Ga
       BASIS_SET DZVP-MOLOPT-SR-GTH
       POTENTIAL GTH-PBE-q13
       &POTENTIAL
2 1 10
0.4900000000000000E+00 0
3
0.4167772300000000E+00 3  0.1047568975000000E+02 -0.4921768140000000E+01  0.8707055900000000E+00
0.7770178090000000E+01 -0.2248152160000000E+01
0.1784415450000000E+01
0.5696265200000000E+00 2  0.1777985340000000E+01  0.1958597600000000E+00
-0.2317443900000000E+00
0.2381265000000000E+00 1 -0.1624868022000000E+02
       &END POTENTIAL
     &END KIND
     &TOPOLOGY
       NUMBER_OF_ATOMS  212
       MULTIPLE_UNIT_CELL  1 1 1
     &END TOPOLOGY
   &END SUBSYS
 &END FORCE_EVAL
