 # Version information for this restart file 
 # current date 2019-06-30 09:36:02.027
 # current working dir /scratch/rzk/rzk/GaN-carbene/443-adatoms-both-2x2/05-2DissMethanol/01-Combine0304-0202
 # Program compiled at                              Sun Apr  7 00:48:11 EDT 2019
 # Program compiled on                          beluga2.int.ets1.calculquebec.ca
 # Program compiled for                        Beluga-Linux-x86-64-intel-openmpi
 # Source code revision number                                         svn:18619
 &GLOBAL
   PRINT_LEVEL  MEDIUM
   PROJECT_NAME TEST
   RUN_TYPE  GEO_OPT
 &END GLOBAL
 &MOTION
   &GEO_OPT
     MAX_ITER  500
     STEP_START_VAL  144
   &END GEO_OPT
 &END MOTION
 &FORCE_EVAL
   METHOD  QS
   STRESS_TENSOR  ANALYTICAL
   &DFT
     BASIS_SET_FILE_NAME BASIS_MOLOPT
     POTENTIAL_FILE_NAME GTH_POTENTIALS
     UKS  T
     SURFACE_DIPOLE_CORRECTION  T
     SURF_DIP_DIR  Z
     &SCF
       MAX_SCF  80
       EPS_SCF     5.0000000000000004E-06
       &OT  T
         PRECONDITIONER  FULL_ALL
       &END OT
       &OUTER_SCF  T
         OPTIMIZER  NONE
         EPS_SCF     5.0000000000000004E-06
         MAX_SCF  4
       &END OUTER_SCF
       &PRINT
         &RESTART  OFF
           BACKUP_COPIES  1
           &EACH
             JUST_ENERGY  0
             QS_SCF  0
             MD  20
           &END EACH
         &END RESTART
       &END PRINT
     &END SCF
     &QS
       EPS_DEFAULT     1.0000000000000000E-14
       METHOD  GPW
     &END QS
     &MGRID
       NGRIDS  5
       CUTOFF     1.2000000000000000E+03
     &END MGRID
     &XC
       DENSITY_CUTOFF     1.0000000000000000E-10
       GRADIENT_CUTOFF     1.0000000000000000E-10
       TAU_CUTOFF     1.0000000000000000E-10
       &XC_FUNCTIONAL  NO_SHORTCUT
         &PBE  T
         &END PBE
       &END XC_FUNCTIONAL
       &VDW_POTENTIAL
         POTENTIAL_TYPE  PAIR_POTENTIAL
         &PAIR_POTENTIAL
           R_CUTOFF     1.0000000000000005E+01
           TYPE  DFTD3
           PARAMETER_FILE_NAME dftd3.dat
           REFERENCE_FUNCTIONAL PBE
           EPS_CN     9.9999999999999995E-07
           CALCULATE_C9_TERM  T
           REFERENCE_C9_TERM  T
           LONG_RANGE_CORRECTION  F
           VERBOSE_OUTPUT  F
         &END PAIR_POTENTIAL
       &END VDW_POTENTIAL
     &END XC
   &END DFT
   &SUBSYS
     &CELL
       A     1.2864472766435110E+01    0.0000000000000000E+00    0.0000000000000000E+00
       B    -6.4322363581020028E+00    1.1140960178524475E+01    0.0000000000000000E+00
       C     0.0000000000000000E+00    0.0000000000000000E+00    3.2000000000000000E+01
       MULTIPLE_UNIT_CELL  1 1 1
       &CELL_REF
         A     1.2982353780853531E+01    0.0000000000000000E+00    0.0000000000000000E+00
         B    -6.4911768904267628E+00    1.1243048175136114E+01    0.0000000000000000E+00
         C     0.0000000000000000E+00    0.0000000000000000E+00    3.2000000000000000E+01
         MULTIPLE_UNIT_CELL  1 1 1
       &END CELL_REF
     &END CELL
     &COORD
N    5.1233313106451288E-04    2.0543892877129446E+00    2.5030168720176875E+00
Ga   -3.9507102623086562E-03    9.3853887363701705E-02    2.8540447363189463E+00
N   -6.5497126618988925E-03    5.9669519550216432E-02    5.0082934500648921E+00
Ga   -4.5889055567093660E-03    1.8914544377678073E+00    5.7990899594330498E+00
N   -6.7510289465275231E-03    1.9003658249017172E+00    7.7945180091062145E+00
Ga   -4.7390534647777371E-03    5.6091617388689910E-02    8.4418349551174803E+00
N   -4.7666269433704646E-03    5.5168847553594920E-02    1.0413347264524290E+01
Ga   -4.9724076630249612E-03    1.8940432743880751E+00    1.1073144905862771E+01
N   -5.5092526020324830E-03    1.8751639035928471E+00    1.3061693967022595E+01
Ga   -6.9780516258531435E-03    5.7275451147093794E-02    1.3875696603649924E+01
N   -6.0738841204838225E-03    5.6995490351302282E-02    1.6066961344351892E+01
Ga   -5.8012176600376886E-03    2.1065272599797251E+00    1.6487523122775269E+01
Ga    3.1063876357287100E-02    3.7358762002801167E+00    1.3673584845300264E+00
N   -1.4733506333236364E+00    4.6351927101218244E+00    2.4716884721244075E+00
Ga   -1.6812205422423547E+00    2.7968755605576252E+00    3.2636566079188247E+00
N   -1.6151609304691912E+00    2.8445186415520083E+00    5.2410009026075137E+00
Ga   -1.6413832337778507E+00    4.7067833761701037E+00    5.8113714169804203E+00
N   -1.6247741254817458E+00    4.7050489925758221E+00    7.7995233722060942E+00
Ga   -1.6026693475989111E+00    2.8453485369920779E+00    8.4417568795950046E+00
N   -1.6023634209586295E+00    2.8478272387215058E+00    1.0430361156288445E+01
Ga   -1.6306310495091241E+00    4.7064607200196971E+00    1.1076307869973940E+01
N   -1.6462535260313615E+00    4.7164033094300910E+00    1.3063704997902519E+01
Ga   -1.6018464124489420E+00    2.8472213020679007E+00    1.3622718611485729E+01
N   -1.6285926764806384E+00    2.8324910175180396E+00    1.5578933714999614E+01
Ga   -1.4459911128537486E+00    4.6008799402136491E+00    1.6487817539188228E+01
N   -1.6384858339636582E-06    3.7725307442939822E+00    1.7634683074731345E+01
N   -3.2130277866680590E+00    7.6026994705656543E+00    2.5018038798388780E+00
Ga   -3.1969843642133484E+00    5.6035519450965747E+00    2.8502729133517328E+00
N   -3.2166421663284139E+00    5.6243903361130165E+00    5.0059712660373128E+00
Ga   -3.2286788360253023E+00    7.4473460975802546E+00    5.7985353738032002E+00
N   -3.2202636176579911E+00    7.4731400116036308E+00    7.7867360448483200E+00
Ga   -3.2233148258654012E+00    5.6263067222398595E+00    8.4474573501442158E+00
N   -3.2220654154541144E+00    5.6277265480662377E+00    1.0416370204994903E+01
Ga   -3.2235658577522481E+00    7.4660779718513384E+00    1.1074100499549568E+01
N   -3.2216685922102202E+00    7.4460325309336284E+00    1.3064122426763355E+01
Ga   -3.2215709170346214E+00    5.6239251909267294E+00    1.3877479644344346E+01
N   -3.2213491889819665E+00    5.6258636869893319E+00    1.6067654557042776E+01
Ga   -3.2214925142563189E+00    7.6663273862555217E+00    1.6475642923883250E+01
Ga   -3.2500306201305000E+00    9.3615935997832374E+00    1.4320625703363314E+00
N   -4.7276062373457046E+00    1.0212376057352424E+01    2.5125786190675092E+00
Ga   -4.9345334084309709E+00    8.3532372636961636E+00    3.2644213921603402E+00
N   -4.8306756743861463E+00    8.4092046679062982E+00    5.2290682698276312E+00
Ga   -4.8555208855330516E+00    1.0284974985738808E+01    5.7879904092011483E+00
N   -4.8380395575774111E+00    1.0273887223943177E+01    7.7829280482288645E+00
Ga   -4.8227880836138031E+00    8.4180015186177251E+00    8.4321929183594282E+00
N   -4.8181500758672069E+00    8.4183144959507974E+00    1.0422931116999161E+01
Ga   -4.8449227300736180E+00    1.0276860803077142E+01    1.1071076200616570E+01
N   -4.8616099307528122E+00    1.0287072889504062E+01    1.3062242192114601E+01
Ga   -4.8188587596058898E+00    8.4182199632327883E+00    1.3622913046938081E+01
N   -4.8493143107128960E+00    8.4008997394294891E+00    1.5582182021298692E+01
Ga   -4.6718417210126271E+00    1.0178340859425196E+01    1.6475100498205407E+01
N   -3.2216835986100611E+00    9.3412133848213497E+00    1.7591433467618415E+01
N    3.1948461109664383E+00    1.9306803428695847E+00    2.5903656908517299E+00
Ga    3.2059253751523946E+00    1.8432637321603693E-01    3.2693999412675088E+00
N    3.2135609467718380E+00    6.0042865180236014E-02    5.2337784056920906E+00
Ga    3.2092400874868696E+00    1.9226331887089196E+00    5.8720970825044505E+00
N    3.2130636552660126E+00    1.9134121907326074E+00    7.8446424258769190E+00
Ga    3.2086592750987610E+00    4.7256322854017555E-02    8.4368123979568832E+00
N    3.2107564333074379E+00    4.2340723579680328E-02    1.0426352713293626E+01
Ga    3.2107153738421621E+00    1.9116303290952286E+00    1.1030713483721488E+01
N    3.2111484882629946E+00    1.9121868271077933E+00    1.2997074888289193E+01
Ga    3.2107614173081083E+00    4.3997403879863721E-02    1.3622182370396372E+01
N    3.2108276907375344E+00    7.9314653285212283E-02    1.5581605625740883E+01
Ga    3.2110728850605321E+00    1.9174162853617835E+00    1.5859963273239336E+01
N    1.4704072045013645E+00    4.6383757293052756E+00    2.5143732185242080E+00
Ga    1.6845744182697564E+00    2.8125755079802843E+00    3.2949057579705854E+00
N    1.6029680595340408E+00    2.8464490726517502E+00    5.2573920595478496E+00
Ga    1.6531622844645277E+00    4.7211767462617988E+00    5.8246862120885279E+00
N    1.6013775141242854E+00    4.7002965241671699E+00    7.8236927505550993E+00
Ga    1.5915509845151372E+00    2.8445698477074348E+00    8.4449496932605577E+00
N    1.5920008449396148E+00    2.8445933532548597E+00    1.0434139369092472E+01
Ga    1.6196160695975457E+00    4.7061343480480371E+00    1.1073043500548026E+01
N    1.6350660520451672E+00    4.7164104361895616E+00    1.3063344391888128E+01
Ga    1.5911944124847446E+00    2.8474039766420223E+00    1.3622862273552851E+01
N    1.6166481578305250E+00    2.8310620916772744E+00    1.5580294096458948E+01
Ga    1.4398071992780055E+00    4.6040905963496987E+00    1.6487703913004164E+01
N   -4.8685198881287962E-03    7.4717366260956313E+00    2.6886516001576806E+00
Ga    7.7465254231004520E-03    5.6194156492299641E+00    3.3404705854189762E+00
N   -7.7361143175306533E-03    5.6401477247908716E+00    5.2660184555528318E+00
Ga    2.3411311928344276E-04    7.4789483138720589E+00    5.9079518123970471E+00
N   -4.3365520390475564E-03    7.4861565992226398E+00    7.8614638858270141E+00
Ga   -7.0828563498946673E-03    5.6115759051329217E+00    8.4561444334138098E+00
N   -8.2780117970744256E-03    5.6154404492662504E+00    1.0440146744388873E+01
Ga   -6.8396513028124231E-03    7.4840517767900065E+00    1.1035608705404487E+01
N   -5.8655165746168665E-03    7.4841150910917396E+00    1.3000196321177219E+01
Ga   -5.2491328475713153E-03    5.6126826063323740E+00    1.3623887276922831E+01
N   -7.2613597628375850E-03    5.6439545127276149E+00    1.5581059190492839E+01
Ga   -1.4834738302060095E-03    7.4816234589713986E+00    1.5860426239030120E+01
N   -1.7122580656563413E+00    1.0206292327389091E+01    2.5086425465882938E+00
Ga   -1.5967803739932158E+00    8.4014048140882984E+00    3.3218337549088139E+00
N   -1.5996343583889854E+00    8.4062637777365925E+00    5.2476132908223621E+00
Ga   -1.5901088046728249E+00    1.0292703092116883E+01    5.8046930182720846E+00
N   -1.6042535420927180E+00    1.0273020063742671E+01    7.7907375616569112E+00
Ga   -1.6263698789555423E+00    8.4192526374877623E+00    8.4470050021036265E+00
N   -1.6258831844633677E+00    8.4189703476314985E+00    1.0431623243493776E+01
Ga   -1.5985526176501579E+00    1.0279009922897989E+01    1.1074235770786414E+01
N   -1.5804321591779793E+00    1.0287856352732607E+01    1.3064140673922893E+01
Ga   -1.6245094424840973E+00    8.4184930515240293E+00    1.3623477943991926E+01
N   -1.5933868104767657E+00    8.4008019743904896E+00    1.5582682994688382E+01
Ga   -1.7711498918243487E+00    1.0178299017330673E+01    1.6475378949378019E+01
N    6.4270818514036234E+00    2.0379364632673935E+00    2.5334829696418377E+00
Ga    6.4292544608660851E+00    6.4953475321321785E-02    2.8836686101184679E+00
N    6.4289042572361508E+00    5.6565275342700692E-02    5.0173019350708401E+00
Ga    6.4208888901577366E+00    1.8953112597491111E+00    5.7982275737919933E+00
N    6.4258345485403323E+00    1.9010178469413397E+00    7.7904803162002327E+00
Ga    6.4270423852374510E+00    5.8054058583656490E-02    8.4463106391904237E+00
N    6.4269841908878700E+00    5.6010378360013886E-02    1.0415298132162050E+01
Ga    6.4280119956343675E+00    1.8957068985649703E+00    1.1073840432994553E+01
N    6.4280850947921078E+00    1.8754425339736795E+00    1.3061918240262038E+01
Ga    6.4294553843799438E+00    5.7908242694730112E-02    1.3877802995616422E+01
N    6.4282641212993887E+00    5.7189620799100345E-02    1.6067623227198524E+01
Ga    6.4279696163434554E+00    2.1074181364111353E+00    1.6488459035452866E+01
Ga    6.4669436858254539E+00    3.7422957353256385E+00    1.4883147303800104E+00
N    4.9242603247001648E+00    4.6377701441571473E+00    2.4158989208030293E+00
Ga    4.6980206530757576E+00    2.8135778919676682E+00    3.2737793553815786E+00
N    4.8178186657831175E+00    2.8503557833532107E+00    5.2331789834919125E+00
Ga    4.7753636156402486E+00    4.7251555346851708E+00    5.8168943849755657E+00
N    4.8207041772903567E+00    4.6979955693294491E+00    7.8180142596049986E+00
Ga    4.8299212677147647E+00    2.8460324298335378E+00    8.4482205200780740E+00
N    4.8304720910533518E+00    2.8449820033697821E+00    1.0435272783272501E+01
Ga    4.8042272417388547E+00    4.7075663978657181E+00    1.1071749278682724E+01
N    4.7879965025759672E+00    4.7166003446861415E+00    1.3062342579853413E+01
Ga    4.8311071886161114E+00    2.8476418674194268E+00    1.3622629316999323E+01
N    4.8054373736259635E+00    2.8310510947024068E+00    1.5580052494610316E+01
Ga    4.9828710816337924E+00    4.6039544182391934E+00    1.6487893720733449E+01
N    6.4220226478129554E+00    3.7730537953040550E+00    1.7635045768785943E+01
N    3.2043283328456016E+00    7.6019019787153850E+00    2.4137926551342939E+00
N    3.2120995016331824E+00    5.6309858240280724E+00    5.1458848335911673E+00
Ga    3.2191832731507715E+00    7.4271419608020839E+00    5.8288872533570864E+00
N    3.2098156809747835E+00    7.4876095772312787E+00    7.8221108558267751E+00
Ga    3.2119596462828808E+00    5.6260797754038014E+00    8.4442988887754922E+00
N    3.2114697600061612E+00    5.6273743632065125E+00    1.0420185891649501E+01
Ga    3.2129868083301401E+00    7.4651176168403293E+00    1.1074319213596738E+01
N    3.2116317755290082E+00    7.4470323913645808E+00    1.3063751227539861E+01
Ga    3.2116798192787797E+00    5.6262926624144844E+00    1.3875267390995523E+01
N    3.2112466725006104E+00    5.6269555929586614E+00    1.6066831445975279E+01
Ga    3.2112670195730599E+00    7.6727031336800984E+00    1.6488130031866085E+01
Ga    3.2363465444128376E+00    9.3902726776033187E+00    1.4452691900067707E+00
N    1.7079577141219169E+00    1.0195099733513022E+01    2.5179184149351257E+00
Ga    1.6026932579117628E+00    8.3686976217096660E+00    3.3169951067104422E+00
N    1.5981209915113457E+00    8.4020800620394098E+00    5.2413788747754273E+00
Ga    1.5796985904225673E+00    1.0284137477297806E+01    5.8061560339503195E+00
N    1.5918812620467400E+00    1.0272616038418825E+01    7.7926120726495691E+00
Ga    1.6151357632692236E+00    8.4220635201750262E+00    8.4593434930134404E+00
N    1.6118224437527851E+00    8.4205817654933348E+00    1.0441082170514804E+01
Ga    1.5877218118465253E+00    1.0280045361209813E+01    1.1076853787180514E+01
N    1.5709820981439111E+00    1.0288427026332936E+01    1.3063669559110538E+01
Ga    1.6149798848322889E+00    8.4191447334999907E+00    1.3624186399427765E+01
N    1.5870443144516129E+00    8.4055866481967350E+00    1.5581183785037991E+01
Ga    1.7714452801354643E+00    1.0173021430396822E+01    1.6488474244948620E+01
N    3.2115868333254824E+00    9.3350027013724084E+00    1.7635287065854509E+01
N    9.6528465401631447E+00    1.9178044382614570E+00    2.6066054891070132E+00
Ga    9.6515527775184342E+00    1.7847155604357845E-01    3.2906265313098224E+00
N    9.6418390379264256E+00    5.5972586431454668E-02    5.2476716259866132E+00
Ga    9.6514479670634703E+00    1.9168132279913423E+00    5.8769107659126414E+00
N    9.6433385144457908E+00    1.9124969557858393E+00    7.8462862553412824E+00
Ga    9.6455758628978945E+00    4.4475503295273104E-02    8.4372546530613661E+00
N    9.6432369153686022E+00    4.2569515464154370E-02    1.0426655778650787E+01
Ga    9.6425834922617053E+00    1.9128655183339283E+00    1.1026597481479103E+01
N    9.6428248910840484E+00    1.9127715195423518E+00    1.2995249744953595E+01
Ga    9.6438684307808238E+00    4.3429566422019006E-02    1.3623614337850187E+01
N    9.6436253611423961E+00    7.4559316343616761E-02    1.5579442293905720E+01
Ga    9.6434115240454119E+00    1.9132931671165667E+00    1.5854991578677080E+01
N    7.9296182190840536E+00    4.6346330855103428E+00    2.5236691122792010E+00
Ga    8.1476530242309657E+00    2.7830054352447244E+00    3.3001940447002260E+00
N    8.0386889388782627E+00    2.8402440947867160E+00    5.2535332157671917E+00
Ga    8.0532302708005936E+00    4.7165999714538147E+00    5.7920939575861601E+00
N    8.0453669086988473E+00    4.7069742552071361E+00    7.7867219823488201E+00
Ga    8.0246837383357867E+00    2.8486340131334043E+00    8.4347574530960241E+00
N    8.0238414506951283E+00    2.8483718255432464E+00    1.0425395292953565E+01
Ga    8.0503975697189087E+00    4.7066796455157345E+00    1.1073827941059353E+01
N    8.0678288000249978E+00    4.7162568293914182E+00    1.3061913690683308E+01
Ga    8.0239017989098276E+00    2.8479169791746619E+00    1.3623357399622771E+01
N    8.0510685479655866E+00    2.8326481734124993E+00    1.5579335410978283E+01
Ga    7.8676138206790549E+00    4.6008696010265817E+00    1.6488610509697544E+01
N    6.4205638396687892E+00    7.4794428942638680E+00    2.5751800522469028E+00
Ga    6.3978053984453629E+00    5.7384987216052048E+00    3.2673549597273235E+00
N    6.4205074912594107E+00    5.6235474028235162E+00    5.2272392856908638E+00
Ga    6.4191704814919222E+00    7.4796447387734828E+00    5.8610809259411560E+00
N    6.4252356030671089E+00    7.4833017972317171E+00    7.8344057152254178E+00
Ga    6.4291320009978650E+00    5.6160961698552256E+00    8.4445301776783186E+00
N    6.4301320336864496E+00    5.6160734598668283E+00    1.0432430759253853E+01
Ga    6.4289638214608580E+00    7.4840992076078541E+00    1.1030722248042863E+01
N    6.4280929094382824E+00    7.4839296774048343E+00    1.2996711873034556E+01
Ga    6.4278626936935650E+00    5.6133754960365261E+00    1.3623199780683844E+01
N    6.4295829937135291E+00    5.6442072781978743E+00    1.5580405814359471E+01
Ga    6.4235014124917686E+00    7.4816132313053947E+00    1.5860788765999965E+01
N    4.7143236877442085E+00    1.0208146387744760E+01    2.5184627247543765E+00
Ga    4.9044601840989648E+00    8.3337941155859436E+00    3.2653521060843702E+00
N    4.8086714940545523E+00    8.4095550621015551E+00    5.2262380856147335E+00
Ga    4.8467447698805284E+00    1.0278172245639958E+01    5.7931494698410368E+00
N    4.8301091172778339E+00    1.0273391263009289E+01    7.7871332786432479E+00
Ga    4.8122997300196086E+00    8.4208648623071714E+00    8.4468292798222020E+00
N    4.8113919364311171E+00    8.4198433763785125E+00    1.0433548761081536E+01
Ga    4.8353343777634095E+00    1.0278306070662719E+01    1.1073591395934978E+01
N    4.8512464101206829E+00    1.0287900517232902E+01    1.3061578791656807E+01
Ga    4.8083354116752055E+00    8.4191778607174825E+00    1.3623434075140755E+01
N    4.8353310042534874E+00    8.4057216274290116E+00    1.5580516506795533E+01
Ga    4.6513240568224630E+00    1.0173019660792692E+01    1.6488231127061638E+01
O    7.1742270132294050E-01    3.8555762672477760E+00   -3.7303025073098328E-01
H   -7.7248433125627581E-03    7.4573138797593392E+00    1.6621512273517836E+00
C    1.1447530167491891E+00    2.5925704644453682E+00   -9.3371891901451187E-01
H    1.8448813821137033E+00    2.0627538535370817E+00   -2.6454523784110734E-01
H    2.8471702846072866E-01    1.9360866664991927E+00   -1.1350323825873387E+00
H    1.6506585918735059E+00    2.8022796433559578E+00   -1.8876478274306323E+00
Ga    3.1692443178918897E+00    5.5913817217022688E+00    2.2645017205494025E+00
O    2.8260178201208603E+00    5.4666598914675175E+00    1.3579223721165826E-01
H    2.0527801437798088E+00    4.8302844497088593E+00   -6.1875425034990314E-02
C    3.8961553530726865E+00    5.2529549750717726E+00   -8.0504871536056322E-01
H    3.5347048475967315E+00    5.4231685961032490E+00   -1.8285763430259394E+00
H    4.6897202203245874E+00    5.9741093757747485E+00   -5.7164431263398185E-01
H    4.2999488174291667E+00    4.2313085576384655E+00   -7.2159313621370236E-01
     &END COORD
     &KIND C
       BASIS_SET DZVP-MOLOPT-SR-GTH-q4
       POTENTIAL GTH-PBE-q4
       &POTENTIAL
2 2
0.3384712400000000E+00 2 -0.8803673979999999E+01  0.1339210850000000E+01
2
0.3025757500000000E+00 1  0.9622486650000001E+01
0.2915069400000000E+00 0
       &END POTENTIAL
     &END KIND
     &KIND O
       BASIS_SET DZVP-MOLOPT-SR-GTH-q6
       POTENTIAL GTH-PBE-q6
       &POTENTIAL
2 4
0.2445543000000000E+00 2 -0.1666721480000000E+02  0.2487311320000000E+01
2
0.2209559200000000E+00 1  0.1833745811000000E+02
0.2113324700000000E+00 0
       &END POTENTIAL
     &END KIND
     &KIND H
       BASIS_SET DZVP-MOLOPT-SR-GTH-q1
       POTENTIAL GTH-PBE-q1
       &POTENTIAL
1
0.2000000000000000E+00 2 -0.4178900440000000E+01  0.7244633100000000E+00
0
       &END POTENTIAL
     &END KIND
     &KIND N
       BASIS_SET DZVP-MOLOPT-SR-GTH
       POTENTIAL GTH-PBE-q5
       &POTENTIAL
2 3
0.2837905100000000E+00 2 -0.1241522559000000E+02  0.1868095920000000E+01
2
0.2554050000000000E+00 1  0.1363026257000000E+02
0.2454945300000000E+00 0
       &END POTENTIAL
     &END KIND
     &KIND Ga
       BASIS_SET DZVP-MOLOPT-SR-GTH
       POTENTIAL GTH-PBE-q13
       &POTENTIAL
2 1 10
0.4900000000000000E+00 0
3
0.4167772300000000E+00 3  0.1047568975000000E+02 -0.4921768140000000E+01  0.8707055900000000E+00
0.7770178090000000E+01 -0.2248152160000000E+01
0.1784415450000000E+01
0.5696265200000000E+00 2  0.1777985340000000E+01  0.1958597600000000E+00
-0.2317443900000000E+00
0.2381265000000000E+00 1 -0.1624868022000000E+02
       &END POTENTIAL
     &END KIND
     &TOPOLOGY
       NUMBER_OF_ATOMS  212
       MULTIPLE_UNIT_CELL  1 1 1
     &END TOPOLOGY
   &END SUBSYS
 &END FORCE_EVAL
