 # Version information for this restart file 
 # current date 2019-06-29 06:37:17.238
 # current working dir /scratch/rzk/rzk/GaN-carbene/443-adatoms-both-2x2/05-2DissMethanol/01-Combine0304-0202
 # Program compiled at                              Sun Apr  7 00:48:11 EDT 2019
 # Program compiled on                          beluga2.int.ets1.calculquebec.ca
 # Program compiled for                        Beluga-Linux-x86-64-intel-openmpi
 # Source code revision number                                         svn:18619
 &GLOBAL
   PRINT_LEVEL  MEDIUM
   PROJECT_NAME TEST
   RUN_TYPE  GEO_OPT
 &END GLOBAL
 &MOTION
   &GEO_OPT
     MAX_ITER  500
     STEP_START_VAL  131
   &END GEO_OPT
 &END MOTION
 &FORCE_EVAL
   METHOD  QS
   STRESS_TENSOR  ANALYTICAL
   &DFT
     BASIS_SET_FILE_NAME BASIS_MOLOPT
     POTENTIAL_FILE_NAME GTH_POTENTIALS
     UKS  T
     SURFACE_DIPOLE_CORRECTION  T
     SURF_DIP_DIR  Z
     &SCF
       MAX_SCF  80
       EPS_SCF     5.0000000000000004E-06
       &OT  T
         PRECONDITIONER  FULL_ALL
       &END OT
       &OUTER_SCF  T
         OPTIMIZER  NONE
         EPS_SCF     5.0000000000000004E-06
         MAX_SCF  4
       &END OUTER_SCF
       &PRINT
         &RESTART  OFF
           BACKUP_COPIES  1
           &EACH
             JUST_ENERGY  0
             QS_SCF  0
             MD  20
           &END EACH
         &END RESTART
       &END PRINT
     &END SCF
     &QS
       EPS_DEFAULT     1.0000000000000000E-14
       METHOD  GPW
     &END QS
     &MGRID
       NGRIDS  5
       CUTOFF     1.2000000000000000E+03
     &END MGRID
     &XC
       DENSITY_CUTOFF     1.0000000000000000E-10
       GRADIENT_CUTOFF     1.0000000000000000E-10
       TAU_CUTOFF     1.0000000000000000E-10
       &XC_FUNCTIONAL  NO_SHORTCUT
         &PBE  T
         &END PBE
       &END XC_FUNCTIONAL
       &VDW_POTENTIAL
         POTENTIAL_TYPE  PAIR_POTENTIAL
         &PAIR_POTENTIAL
           R_CUTOFF     1.0000000000000004E+01
           TYPE  DFTD3
           PARAMETER_FILE_NAME dftd3.dat
           REFERENCE_FUNCTIONAL PBE
           EPS_CN     9.9999999999999995E-07
           CALCULATE_C9_TERM  T
           REFERENCE_C9_TERM  T
           LONG_RANGE_CORRECTION  F
           VERBOSE_OUTPUT  F
         &END PAIR_POTENTIAL
       &END VDW_POTENTIAL
     &END XC
   &END DFT
   &SUBSYS
     &CELL
       A     1.2864472766435110E+01    0.0000000000000000E+00    0.0000000000000000E+00
       B    -6.4322363581020028E+00    1.1140960178524473E+01    0.0000000000000000E+00
       C     0.0000000000000000E+00    0.0000000000000000E+00    3.2000000000000000E+01
       MULTIPLE_UNIT_CELL  1 1 1
       &CELL_REF
         A     1.2982353780853531E+01    0.0000000000000000E+00    0.0000000000000000E+00
         B    -6.4911768904267628E+00    1.1243048175136114E+01    0.0000000000000000E+00
         C     0.0000000000000000E+00    0.0000000000000000E+00    3.2000000000000000E+01
         MULTIPLE_UNIT_CELL  1 1 1
       &END CELL_REF
     &END CELL
     &COORD
N   -7.8813826899694350E-03    2.0692994198922539E+00    2.5044698043376195E+00
Ga    1.5635969936324153E-02    9.7876959962762508E-02    2.8227061821537007E+00
N   -2.2714054810336084E-02    6.8195296595026433E-02    5.0104641833542809E+00
Ga   -1.9760892317289714E-02    1.9003003447405815E+00    5.7908800564414831E+00
N   -1.9192963154152903E-02    1.9033074787213433E+00    7.7931186000540498E+00
Ga   -1.3099950752225149E-02    5.8740862827562891E-02    8.4403227601839248E+00
N   -1.0862412463329058E-02    5.0169616868194988E-02    1.0418110932412704E+01
Ga   -7.1477609532175313E-03    1.8877486970057511E+00    1.1077394630349568E+01
N   -3.8405190386279239E-04    1.8700431605031005E+00    1.3070806827989781E+01
Ga    1.1146723308140949E-02    4.2929027927333829E-02    1.3877542005168873E+01
N    2.8859446648178719E-02    6.0307870702056718E-02    1.6055835511160510E+01
Ga   -1.6251547883045780E-02    2.0926789744205307E+00    1.6509826895374850E+01
Ga    5.2209107836311774E-02    3.7459622829304529E+00    1.3506454903780050E+00
N   -1.4775912562613323E+00    4.6450698522304918E+00    2.4600800908055938E+00
Ga   -1.6902734737189422E+00    2.8118496711891634E+00    3.2419137279584112E+00
N   -1.6255740121002185E+00    2.8513148349330284E+00    5.2312492397868056E+00
Ga   -1.6550282881058200E+00    4.7101766983814652E+00    5.8038109815496046E+00
N   -1.6328293495231092E+00    4.7028694198697156E+00    7.7987858314129070E+00
Ga   -1.6115919975106576E+00    2.8442739099857048E+00    8.4395094688212478E+00
N   -1.6087034194103416E+00    2.8386589071228063E+00    1.0434977159842360E+01
Ga   -1.6350736926225540E+00    4.7021014581684595E+00    1.1067133154195897E+01
N   -1.6371613000490473E+00    4.7108028687306120E+00    1.3055355313824970E+01
Ga   -1.6002090954222707E+00    2.8438200567424885E+00    1.3603399322348652E+01
N   -1.6413741895534473E+00    2.8283186895419639E+00    1.5551070526816105E+01
Ga   -1.4183464864054829E+00    4.5529524706975071E+00    1.6507911790347819E+01
N   -1.4762443555119142E-03    3.7120614877873517E+00    1.7639977264254867E+01
N   -3.2291875352483741E+00    7.6003641645923672E+00    2.4983400116786036E+00
Ga   -3.2060707483069111E+00    5.6378193709088595E+00    2.8162771555728909E+00
N   -3.2294720130125802E+00    5.6256770100354663E+00    5.0121593917034790E+00
Ga   -3.2410831345646955E+00    7.4547467198298945E+00    5.7844875452147990E+00
N   -3.2280867216026783E+00    7.4735697237327789E+00    7.7877188366878816E+00
Ga   -3.2304157549779293E+00    5.6273288880621983E+00    8.4411298682970912E+00
N   -3.2293402142954526E+00    5.6210304817402674E+00    1.0413748828301353E+01
Ga   -3.2271101973628258E+00    7.4607919298257830E+00    1.1070105674935377E+01
N   -3.2142715311946843E+00    7.4489579570543887E+00    1.3051890072189821E+01
Ga   -3.2082259877105339E+00    5.6334014767386629E+00    1.3848649098392858E+01
N   -3.1985733754944059E+00    5.6392725237032186E+00    1.6056604189945098E+01
Ga   -3.2268566980955993E+00    7.7076811187544196E+00    1.6522569610784792E+01
Ga   -3.2683169293516556E+00    9.3799937240140832E+00    1.2298558821449361E+00
N   -4.7452525215435228E+00    1.0224051602599671E+01    2.5152478944563383E+00
Ga   -4.9139522703241916E+00    8.3780361636271437E+00    3.2272185266032629E+00
N   -4.8457736806953244E+00    8.4140784955781758E+00    5.2241522399471654E+00
Ga   -4.8664769854312002E+00    1.0287722559709014E+01    5.7756378923303853E+00
N   -4.8498945628024597E+00    1.0274801395132858E+01    7.7853544053622823E+00
Ga   -4.8314649610836478E+00    8.4189574127319329E+00    8.4253747347729675E+00
N   -4.8241493673796549E+00    8.4109090770186903E+00    1.0420735833138005E+01
Ga   -4.8486613592443479E+00    1.0268412338701935E+01    1.1071919633497149E+01
N   -4.8503691293626465E+00    1.0279893624845094E+01    1.3057778757961355E+01
Ga   -4.8120651377544386E+00    8.4133537191282617E+00    1.3607462302417861E+01
N   -4.8460091191435186E+00    8.3843243428608680E+00    1.5548192772254524E+01
Ga   -4.6335521347379549E+00    1.0129164984233904E+01    1.6525715419948725E+01
N   -3.2337922191344526E+00    9.3111054274963045E+00    1.7734118759224252E+01
N    3.1770378906344088E+00    1.9296421818329987E+00    2.6029028221373305E+00
Ga    3.1891235050403139E+00    1.5617313631208776E-01    3.2398083074412019E+00
N    3.1987181530364959E+00    6.9080932502410430E-02    5.2331497552395048E+00
Ga    3.1925762928809469E+00    1.9220336183481828E+00    5.8658085111518927E+00
N    3.2035820523943963E+00    1.9164858479729741E+00    7.8458461171609786E+00
Ga    3.1959861123457185E+00    4.7831484284218843E-02    8.4288995725080547E+00
N    3.2046896051130154E+00    3.6214615324691009E-02    1.0422459430529113E+01
Ga    3.2048169007088334E+00    1.9018751721321210E+00    1.1028728603409299E+01
N    3.2170874803444729E+00    1.9074621172498767E+00    1.2998999388111571E+01
Ga    3.2190316026254906E+00    3.6101377507039838E-02    1.3632056164793438E+01
N    3.2268565692286577E+00    7.2924807740220615E-02    1.5583383113491928E+01
Ga    3.2130257321501188E+00    1.9099908500844867E+00    1.5856933823528198E+01
N    1.4650451003647464E+00    4.6581837137105824E+00    2.5351572516220653E+00
Ga    1.6716841080148213E+00    2.8165703022411988E+00    3.2955090454940663E+00
N    1.5898958263705965E+00    2.8518511006375453E+00    5.2618191452822618E+00
Ga    1.6331559256740937E+00    4.7275843737347687E+00    5.8075605439683686E+00
N    1.5918570343743847E+00    4.7037320376766703E+00    7.8170306290699036E+00
Ga    1.5800926736063965E+00    2.8442886367994982E+00    8.4371134365234646E+00
N    1.5889564682835100E+00    2.8364060714238497E+00    1.0432067872259800E+01
Ga    1.6146749192524490E+00    4.6979482230558913E+00    1.1064129961776695E+01
N    1.6330976041742229E+00    4.7077921540505177E+00    1.3056186302342041E+01
Ga    1.6000179746135834E+00    2.8429245961168879E+00    1.3621950860251514E+01
N    1.6316778279138613E+00    2.8380350228750921E+00    1.5583756530952181E+01
Ga    1.4098606447270008E+00    4.5683659790050326E+00    1.6508559594399205E+01
N   -2.6023827605903042E-02    7.4911974940528179E+00    2.6891571665608986E+00
Ga   -1.5288559421173601E-02    5.6388879584272864E+00    3.3308352240928967E+00
N   -2.5059569071706513E-02    5.6506060201985910E+00    5.2642698456989514E+00
Ga   -2.4359212433424954E-02    7.4880033573109746E+00    5.9004523684658521E+00
N   -1.2149758212592761E-02    7.4890477671336377E+00    7.8606354539021925E+00
Ga   -1.7697605969674467E-02    5.6126806291007831E+00    8.4466896253964840E+00
N   -1.1565897404834909E-02    5.6121513205719848E+00    1.0436185699938115E+01
Ga   -1.2930655216624473E-02    7.4781107712854347E+00    1.1037586292260519E+01
N    5.9740801031355720E-04    7.4794183944376584E+00    1.3003678988497045E+01
Ga    2.9847253257536579E-04    5.6157555762255598E+00    1.3619570302875003E+01
N    1.1845572306039222E-03    5.6355850578559661E+00    1.5582158024859986E+01
Ga    7.2952081793639318E-03    7.4850132384068733E+00    1.5851016094172126E+01
N   -1.7225350225373499E+00    1.0224982988762275E+01    2.5120274562489886E+00
Ga   -1.6454339150222412E+00    8.4283632678241887E+00    3.2860101675890210E+00
N   -1.6136575376100584E+00    8.4148597332838122E+00    5.2365867008480054E+00
Ga   -1.6097440088929642E+00    1.0295611832501127E+01    5.7955522671221198E+00
N   -1.6118276598337260E+00    1.0274521416446307E+01    7.7957475728762367E+00
Ga   -1.6357870903462641E+00    8.4184934614274933E+00    8.4417616966023594E+00
N   -1.6295998625344548E+00    8.4118411583401311E+00    1.0429068990479792E+01
Ga   -1.6042510686554312E+00    1.0270906209745027E+01    1.1066179061349279E+01
N   -1.5821634429808267E+00    1.0279901382532611E+01    1.3047347185271555E+01
Ga   -1.6170113869313196E+00    8.4176767613949082E+00    1.3621259659855923E+01
N   -1.5842358655396456E+00    8.3956887463217669E+00    1.5566996745430624E+01
Ga   -1.8259380747959257E+00    1.0125260330583982E+01    1.6521117859007294E+01
N    6.4130782183995851E+00    2.0499271791528315E+00    2.5438413115551484E+00
Ga    6.3844133119611755E+00    6.8587625047016224E-02    2.8659576023697015E+00
N    6.4171328064363600E+00    6.4507706844768545E-02    5.0219493807327957E+00
Ga    6.4080222220735674E+00    1.9006676447997752E+00    5.7977576662871124E+00
N    6.4166770730867171E+00    1.9036345869858451E+00    7.7948620527121468E+00
Ga    6.4171582103773286E+00    5.9692586880529371E-02    8.4460199858433231E+00
N    6.4229864423916556E+00    5.4041126389609763E-02    1.0419736352169519E+01
Ga    6.4229410660009449E+00    1.8893072055808147E+00    1.1076543267271830E+01
N    6.4293314928712064E+00    1.8652174384865974E+00    1.3078010479793848E+01
Ga    6.4189520898957726E+00    3.2349449884720292E-02    1.3860653549585473E+01
N    6.4273332709916744E+00    4.7817564681281712E-02    1.6074407832725239E+01
Ga    6.4174572094736808E+00    1.9974055141957456E+00    1.6408959198775985E+01
Ga    6.4457698676621842E+00    3.7516631446971442E+00    1.5102744184142178E+00
N    4.9143142718345887E+00    4.6435363566973802E+00    2.4423731558324229E+00
Ga    4.6756108110701273E+00    2.8111560987963617E+00    3.2773946064868849E+00
N    4.8030926341602722E+00    2.8549519891641237E+00    5.2419145108117702E+00
Ga    4.7647600978972049E+00    4.7293604103935216E+00    5.8111867855415067E+00
N    4.8095023024221950E+00    4.6977002485541766E+00    7.8180305182162586E+00
Ga    4.8184932690343754E+00    2.8437176211208679E+00    8.4478898457947516E+00
N    4.8254338344652412E+00    2.8383107796068141E+00    1.0441877997319621E+01
Ga    4.7989855065125449E+00    4.7004729086882353E+00    1.1070805672833048E+01
N    4.7901930560183095E+00    4.7083882672894060E+00    1.3073180654271512E+01
Ga    4.8332207874701449E+00    2.8424073305432627E+00    1.3595760776909779E+01
N    4.8115430858802695E+00    2.8329072452533364E+00    1.5575194816432621E+01
Ga    4.9191832182137363E+00    4.6130350308635553E+00    1.6409568925735126E+01
N    6.4219710682476912E+00    3.7206346523379028E+00    1.7466348483814858E+01
N    3.1874648831262995E+00    7.6147408956641369E+00    2.4419386139076398E+00
N    3.1997180820092774E+00    5.6417428992761831E+00    5.1445546877218309E+00
Ga    3.2062812984931042E+00    7.4402770571468331E+00    5.8263341004601301E+00
N    3.1986810350758010E+00    7.4909383094901303E+00    7.8233226220377139E+00
Ga    3.2010008004074044E+00    5.6277742086456124E+00    8.4413928910034173E+00
N    3.2089773592020485E+00    5.6224746520088740E+00    1.0422383867180903E+01
Ga    3.2095878027868001E+00    7.4588937199877394E+00    1.1079712335229521E+01
N    3.2137194259862349E+00    7.4437970540640856E+00    1.3075837117880535E+01
Ga    3.2050670978390210E+00    5.6199231339197429E+00    1.3860664215006906E+01
N    3.2154685743929821E+00    5.6230239743665091E+00    1.6064203503963128E+01
Ga    3.2017954580349293E+00    7.6438983785684727E+00    1.6479671414126081E+01
Ga    3.2136030829821522E+00    9.3963209019164502E+00    1.5123411406389964E+00
N    1.6962089674324254E+00    1.0206916466155644E+01    2.5339633052093276E+00
Ga    1.5704764966904829E+00    8.3762502428046961E+00    3.3287529808851248E+00
N    1.5826474170724119E+00    8.4135287474581926E+00    5.2523086283450899E+00
Ga    1.5650783089929123E+00    1.0296449225405551E+01    5.8088690058727614E+00
N    1.5832342371885662E+00    1.0275823283272839E+01    7.7980453132571359E+00
Ga    1.6034358504935013E+00    8.4245548059834547E+00    8.4581336751128369E+00
N    1.6078068011553688E+00    8.4141795143620755E+00    1.0448120971623499E+01
Ga    1.5809945249678810E+00    1.0273930376852574E+01    1.1078821455147551E+01
N    1.5724766138661557E+00    1.0283581689930212E+01    1.3070192986784726E+01
Ga    1.6156352066184141E+00    8.4159536579037244E+00    1.3617626732785276E+01
N    1.5985042618435235E+00    8.4016829495543099E+00    1.5568376201726515E+01
Ga    1.7638240197039563E+00    1.0145365146382479E+01    1.6485834708032645E+01
N    3.2321887895568717E+00    9.3131773126264790E+00    1.7632274193938283E+01
N    9.6400873411057084E+00    1.9304880929106112E+00    2.6030825650914791E+00
Ga    9.6412945528380583E+00    2.0176921217892443E-01    3.2915165123135597E+00
N    9.6303293987227399E+00    6.2671206288634804E-02    5.2493114199373503E+00
Ga    9.6442146348380486E+00    1.9291066626288582E+00    5.8673109919020190E+00
N    9.6325374000754351E+00    1.9137344340357021E+00    7.8428570803235509E+00
Ga    9.6363345218487009E+00    4.7806889541341428E-02    8.4370889674233478E+00
N    9.6376069310564283E+00    3.5477810650121122E-02    1.0434042824020667E+01
Ga    9.6351194979606820E+00    1.9051462541832827E+00    1.1027950258340745E+01
N    9.6379946388285962E+00    1.9043824695007117E+00    1.3002656325959988E+01
Ga    9.6423057389845788E+00    3.7320346234864896E-02    1.3635743510915876E+01
N    9.6416093306720843E+00    6.0618642396639145E-02    1.5602190489928180E+01
Ga    9.6614012897951440E+00    1.9087542751728279E+00    1.5877656875087384E+01
N    7.9146669984427049E+00    4.6397219953209570E+00    2.5251444775990461E+00
Ga    8.1380758152405903E+00    2.7909262858739323E+00    3.2960064485972742E+00
N    8.0241082639359416E+00    2.8459730473199678E+00    5.2541004963820779E+00
Ga    8.0464323732394831E+00    4.7236955354427979E+00    5.7906256869816151E+00
N    8.0344808315741219E+00    4.7039035211560929E+00    7.7924013341623555E+00
Ga    8.0162893259849533E+00    2.8467896442478824E+00    8.4351676293453508E+00
N    8.0163271136028982E+00    2.8402817742382038E+00    1.0432091735907575E+01
Ga    8.0460722636781554E+00    4.6997635061536132E+00    1.1065306230629556E+01
N    8.0679472586448782E+00    4.7075272281733342E+00    1.3065459311790992E+01
Ga    8.0243643997001346E+00    2.8398411722668588E+00    1.3606465411230380E+01
N    8.0540141357822996E+00    2.8229422777650202E+00    1.5590472503541237E+01
Ga    7.9245248766073493E+00    4.6159288845103079E+00    1.6402881913226043E+01
N    6.4132009307936322E+00    7.4912482296049303E+00    2.5792572555629785E+00
Ga    6.3927346234324611E+00    5.7553747259702703E+00    3.2683935485432922E+00
N    6.4080777468849242E+00    5.6282562097028102E+00    5.2349342028068468E+00
Ga    6.4149845659009159E+00    7.4875644532001484E+00    5.8562547364187374E+00
N    6.4117682701674124E+00    7.4823608150720755E+00    7.8373624258671395E+00
Ga    6.4200241706835728E+00    5.6149745895660539E+00    8.4420944411760335E+00
N    6.4227779585782550E+00    5.6081525195066106E+00    1.0434809926462501E+01
Ga    6.4270923731353093E+00    7.4764432815031645E+00    1.1029163602415396E+01
N    6.4275329069540970E+00    7.4722805922400584E+00    1.2997101869795532E+01
Ga    6.4272273763919330E+00    5.6128228777858489E+00    1.3603983414068017E+01
N    6.4270438965583701E+00    5.6302494781355676E+00    1.5589664431019703E+01
Ga    6.4394541243838210E+00    7.4897298236835619E+00    1.5869769879443814E+01
N    4.6979466116995932E+00    1.0220506472333168E+01    2.5222879547969916E+00
Ga    4.9057157543521512E+00    8.3441835532999562E+00    3.2692578405460666E+00
N    4.7978114304867097E+00    8.4185576374564057E+00    5.2339726179319976E+00
Ga    4.8384735835329264E+00    1.0288273359976383E+01    5.7939344674239681E+00
N    4.8167698576135773E+00    1.0275406402595983E+01    7.7926608764750362E+00
Ga    4.8031088013885901E+00    8.4230509422078459E+00    8.4475063991577350E+00
N    4.8069859973335527E+00    8.4116546862266119E+00    1.0440285181076780E+01
Ga    4.8320313893449915E+00    1.0270314853090330E+01    1.1076721892592392E+01
N    4.8523248625025550E+00    1.0281021543780930E+01    1.3073536044127756E+01
Ga    4.8150980185646040E+00    8.4087086964191062E+00    1.3629348882711270E+01
N    4.8344955201834843E+00    8.3919515512487397E+00    1.5593027468809668E+01
Ga    4.6834111662582831E+00    1.0166326120048302E+01    1.6484301164140579E+01
O    8.1980589444714602E-01    3.8414503713112289E+00   -3.4720369624834280E-01
H   -1.2402366443106261E-02    7.4867771974810164E+00    1.6601294758327496E+00
C    1.1980499821135813E+00    2.5540376657438069E+00   -8.8961996223847961E-01
H    1.9366330178309441E+00    2.0338276276596114E+00   -2.6357155557937734E-01
H    3.3461228793503278E-01    1.8983681940723578E+00   -1.0140949778004571E+00
H    1.6411276486178248E+00    2.7361211284785303E+00   -1.8768782110253714E+00
Ga    3.1600478265374723E+00    5.6012563926833394E+00    2.2878413666137156E+00
O    2.9053265846133018E+00    5.5242299216626112E+00    1.4391272684195530E-01
H    2.1721370402113891E+00    4.8669472288849107E+00   -6.7419570242899352E-02
C    4.0617208370964253E+00    5.2012839716838952E+00   -6.9971253784046905E-01
H    3.7908750804996316E+00    5.2665866374905805E+00   -1.7643005314163203E+00
H    4.8464632435202830E+00    5.9143214950522394E+00   -4.5876190305517262E-01
H    4.4480330025231769E+00    4.1760332700041261E+00   -4.8227533284206203E-01
     &END COORD
     &KIND C
       BASIS_SET DZVP-MOLOPT-SR-GTH-q4
       POTENTIAL GTH-PBE-q4
       &POTENTIAL
 2 2
  0.3384712400000000E+00 2 -0.8803673979999999E+01  0.1339210850000000E+01
 2
  0.3025757500000000E+00 1  0.9622486650000001E+01
  0.2915069400000000E+00 0
         # Potential name:  GTH-PBE-Q4  for symbol:  C
         # Potential read from the potential filename: GTH_POTENTIALS
       &END POTENTIAL
     &END KIND
     &KIND O
       BASIS_SET DZVP-MOLOPT-SR-GTH-q6
       POTENTIAL GTH-PBE-q6
       &POTENTIAL
 2 4
  0.2445543000000000E+00 2 -0.1666721480000000E+02  0.2487311320000000E+01
 2
  0.2209559200000000E+00 1  0.1833745811000000E+02
  0.2113324700000000E+00 0
         # Potential name:  GTH-PBE-Q6  for symbol:  O
         # Potential read from the potential filename: GTH_POTENTIALS
       &END POTENTIAL
     &END KIND
     &KIND H
       BASIS_SET DZVP-MOLOPT-SR-GTH-q1
       POTENTIAL GTH-PBE-q1
       &POTENTIAL
 1
  0.2000000000000000E+00 2 -0.4178900440000000E+01  0.7244633100000000E+00
 0
         # Potential name:  GTH-PBE-Q1  for symbol:  H
         # Potential read from the potential filename: GTH_POTENTIALS
       &END POTENTIAL
     &END KIND
     &KIND N
       BASIS_SET DZVP-MOLOPT-SR-GTH
       POTENTIAL GTH-PBE-q5
       &POTENTIAL
 2 3
  0.2837905100000000E+00 2 -0.1241522559000000E+02  0.1868095920000000E+01
 2
  0.2554050000000000E+00 1  0.1363026257000000E+02
  0.2454945300000000E+00 0
         # Potential name:  GTH-PBE-Q5  for symbol:  N
         # Potential read from the potential filename: GTH_POTENTIALS
       &END POTENTIAL
     &END KIND
     &KIND Ga
       BASIS_SET DZVP-MOLOPT-SR-GTH
       POTENTIAL GTH-PBE-q13
       &POTENTIAL
 2 1 10
  0.4900000000000000E+00 0
 3
  0.4167772300000000E+00 3  0.1047568975000000E+02 -0.4921768140000000E+01  0.8707055900000000E+00
  0.7770178090000000E+01 -0.2248152160000000E+01
  0.1784415450000000E+01
  0.5696265200000000E+00 2  0.1777985340000000E+01  0.1958597600000000E+00
 -0.2317443900000000E+00
  0.2381265000000000E+00 1 -0.1624868022000000E+02
         # Potential name:  GTH-PBE-Q13  for symbol:  GA
         # Potential read from the potential filename: GTH_POTENTIALS
       &END POTENTIAL
     &END KIND
     &TOPOLOGY
       NUMBER_OF_ATOMS  212
       MULTIPLE_UNIT_CELL  1 1 1
     &END TOPOLOGY
   &END SUBSYS
 &END FORCE_EVAL
