 # Version information for this restart file 
 # current date 2019-06-28 21:25:01.269
 # current working dir /scratch/rzk/rzk/GaN-carbene/443-adatoms-both-2x2/05-2DissMethanol/01-Combine0304-0202
 # Program compiled at                              Sun Apr  7 00:48:11 EDT 2019
 # Program compiled on                          beluga2.int.ets1.calculquebec.ca
 # Program compiled for                        Beluga-Linux-x86-64-intel-openmpi
 # Source code revision number                                         svn:18619
 &GLOBAL
   PRINT_LEVEL  MEDIUM
   PROJECT_NAME TEST
   RUN_TYPE  GEO_OPT
 &END GLOBAL
 &MOTION
   &GEO_OPT
     MAX_ITER  500
     STEP_START_VAL  30
   &END GEO_OPT
 &END MOTION
 &FORCE_EVAL
   METHOD  QS
   STRESS_TENSOR  ANALYTICAL
   &DFT
     BASIS_SET_FILE_NAME BASIS_MOLOPT
     POTENTIAL_FILE_NAME GTH_POTENTIALS
     UKS  T
     SURFACE_DIPOLE_CORRECTION  T
     SURF_DIP_DIR  Z
     &SCF
       MAX_SCF  80
       EPS_SCF     5.0000000000000004E-06
       &OT  T
         PRECONDITIONER  FULL_ALL
       &END OT
       &OUTER_SCF  T
         OPTIMIZER  NONE
         EPS_SCF     5.0000000000000004E-06
         MAX_SCF  4
       &END OUTER_SCF
       &PRINT
         &RESTART  OFF
           BACKUP_COPIES  1
           &EACH
             JUST_ENERGY  0
             QS_SCF  0
             MD  20
           &END EACH
         &END RESTART
       &END PRINT
     &END SCF
     &QS
       EPS_DEFAULT     1.0000000000000000E-14
       METHOD  GPW
     &END QS
     &MGRID
       NGRIDS  5
       CUTOFF     1.2000000000000000E+03
     &END MGRID
     &XC
       DENSITY_CUTOFF     1.0000000000000000E-10
       GRADIENT_CUTOFF     1.0000000000000000E-10
       TAU_CUTOFF     1.0000000000000000E-10
       &XC_FUNCTIONAL  NO_SHORTCUT
         &PBE  T
         &END PBE
       &END XC_FUNCTIONAL
       &VDW_POTENTIAL
         POTENTIAL_TYPE  PAIR_POTENTIAL
         &PAIR_POTENTIAL
           R_CUTOFF     1.0000000000000004E+01
           TYPE  DFTD3
           PARAMETER_FILE_NAME dftd3.dat
           REFERENCE_FUNCTIONAL PBE
           EPS_CN     9.9999999999999995E-07
           CALCULATE_C9_TERM  T
           REFERENCE_C9_TERM  T
           LONG_RANGE_CORRECTION  F
           VERBOSE_OUTPUT  F
         &END PAIR_POTENTIAL
       &END VDW_POTENTIAL
     &END XC
   &END DFT
   &SUBSYS
     &CELL
       A     1.2864472766435110E+01    0.0000000000000000E+00    0.0000000000000000E+00
       B    -6.4322363581020028E+00    1.1140960178524473E+01    0.0000000000000000E+00
       C     0.0000000000000000E+00    0.0000000000000000E+00    3.2000000000000000E+01
       MULTIPLE_UNIT_CELL  1 1 1
       &CELL_REF
         A     1.2982353780853531E+01    0.0000000000000000E+00    0.0000000000000000E+00
         B    -6.4911768904267628E+00    1.1243048175136114E+01    0.0000000000000000E+00
         C     0.0000000000000000E+00    0.0000000000000000E+00    3.2000000000000000E+01
         MULTIPLE_UNIT_CELL  1 1 1
       &END CELL_REF
     &END CELL
     &COORD
N    2.8352723857894124E-03    2.0471323724898021E+00    2.4975619580249426E+00
Ga    3.9380138331792667E-03    9.4258941299153076E-02    2.8477212419759450E+00
N   -2.0228199787517588E-03    5.4815786421586840E-02    5.0115001934940482E+00
Ga   -1.1115779183493099E-03    1.8874728174841080E+00    5.7933481476651449E+00
N   -3.5149181838451714E-03    1.9001665751637518E+00    7.7899129704455534E+00
Ga    1.0792377305099953E-04    5.6667968476207975E-02    8.4399595952181006E+00
N   -1.8382062396522969E-03    5.6356107989303558E-02    1.0410575084848400E+01
Ga   -2.2327860788098255E-03    1.8960974410878872E+00    1.1066117858679270E+01
N   -2.5051068121081190E-03    1.8764787260913733E+00    1.3055113463504719E+01
Ga   -2.3834790088798404E-03    5.7456478441577141E-02    1.3868528805486212E+01
N   -1.8291638123795809E-03    5.6646719159783740E-02    1.6057997367559686E+01
Ga   -2.5315862769428165E-03    2.1080634719078084E+00    1.6478553456304176E+01
Ga    3.2282514588286043E-02    3.7374515938010799E+00    1.3374066295742599E+00
N   -1.4719250336576875E+00    4.6282068245866990E+00    2.4698087043233747E+00
Ga   -1.6716354655418015E+00    2.7918495633971299E+00    3.2550712828227688E+00
N   -1.6115016329226100E+00    2.8390920929629568E+00    5.2368782498245761E+00
Ga   -1.6397460082643962E+00    4.7007518919473812E+00    5.8059111372611607E+00
N   -1.6213320068676258E+00    4.7028426530788092E+00    7.7956153993949515E+00
Ga   -1.6002680629138137E+00    2.8441162020494093E+00    8.4360417536532246E+00
N   -1.6008843904422756E+00    2.8478457530625407E+00    1.0425586018649335E+01
Ga   -1.6282948394051275E+00    4.7061425227131064E+00    1.1069966855442397E+01
N   -1.6439374380173080E+00    4.7176227034646070E+00    1.3057705467122604E+01
Ga   -1.5999569944706744E+00    2.8478168504185555E+00    1.3614978554662956E+01
N   -1.6321115428297159E+00    2.8285656623998796E+00    1.5570242450003438E+01
Ga   -1.4403255626840858E+00    4.5997753180112548E+00    1.6479298107861005E+01
N   -7.4208285120970566E-03    3.7657302710611793E+00    1.7608922841029933E+01
N   -3.2095316245938177E+00    7.5928522566959042E+00    2.4984938323267247E+00
Ga   -3.1875537806756102E+00    5.5948518190742291E+00    2.8346864359186110E+00
N   -3.2125823121611590E+00    5.6197018896004094E+00    5.0055539636319129E+00
Ga   -3.2264351282803698E+00    7.4406968193690863E+00    5.7980057935337888E+00
N   -3.2183372077042369E+00    7.4710724085918141E+00    7.7871423260177259E+00
Ga   -3.2202398051877519E+00    5.6241745665541352E+00    8.4436113617096140E+00
N   -3.2201968842200448E+00    5.6274882249759237E+00    1.0412569268343562E+01
Ga   -3.2220022699149458E+00    7.4655356402899304E+00    1.1070981083309162E+01
N   -3.2196138562735910E+00    7.4469274463797719E+00    1.3058359512917004E+01
Ga   -3.2189650297429626E+00    5.6266061527137232E+00    1.3871858542825214E+01
N   -3.2180549618989072E+00    5.6267375458643247E+00    1.6058818792871111E+01
Ga   -3.2189434635365446E+00    7.6754032239325101E+00    1.6477222158900325E+01
Ga   -3.2422374122677393E+00    9.3553319466652489E+00    1.4211081358803304E+00
N   -4.7225250342741374E+00    1.0202900576812731E+01    2.5102766808714772E+00
Ga   -4.9264939422008869E+00    8.3461270086748556E+00    3.2591218652681713E+00
N   -4.8248304920828318E+00    8.4051501523852892E+00    5.2274099328130132E+00
Ga   -4.8517220845674656E+00    1.0279668114337058E+01    5.7869604938280705E+00
N   -4.8350885691308205E+00    1.0271548491358093E+01    7.7822056447597170E+00
Ga   -4.8186980728553808E+00    8.4168065298458963E+00    8.4330681074649991E+00
N   -4.8166580069122817E+00    8.4184324332858758E+00    1.0422582812871028E+01
Ga   -4.8424483486368626E+00    1.0277896370466859E+01    1.1067402677331058E+01
N   -4.8586749371443458E+00    1.0287821470123056E+01    1.3056167401508372E+01
Ga   -4.8167085027241736E+00    8.4189955327111328E+00    1.3616642474481718E+01
N   -4.8484136195806800E+00    8.3999936989952815E+00    1.5572463281755535E+01
Ga   -4.6611268740407157E+00    1.0173440445107698E+01    1.6476474973983951E+01
N   -3.2251538948782832E+00    9.3372134085722340E+00    1.7603881037835617E+01
N    3.2023818942446769E+00    1.9173690894527560E+00    2.5919234767957922E+00
Ga    3.2098571542276306E+00    1.7217051200890751E-01    3.2672636370276158E+00
N    3.2178620054994220E+00    5.1532372637010972E-02    5.2334573764088672E+00
Ga    3.2111222726870694E+00    1.9136182316191768E+00    5.8639401893548690E+00
N    3.2155030847960515E+00    1.9106647692555341E+00    7.8372601071646244E+00
Ga    3.2116333918410938E+00    4.5531631425470086E-02    8.4323082955058908E+00
N    3.2123980409953155E+00    4.2981743118097694E-02    1.0421434801410181E+01
Ga    3.2124628815650711E+00    1.9133773968756052E+00    1.1020163221293876E+01
N    3.2144225486531055E+00    1.9139708997728053E+00    1.2986326174835105E+01
Ga    3.2131981985380889E+00    4.6016942633213938E-02    1.3615669232047878E+01
N    3.2157633689877616E+00    7.9469910317285133E-02    1.5571400798276812E+01
Ga    3.2159128793779370E+00    1.9148897902442377E+00    1.5855084093816755E+01
N    1.4720301252760710E+00    4.6269318563488557E+00    2.5094282287967409E+00
Ga    1.6804475759398483E+00    2.7956064448034383E+00    3.2775162142478167E+00
N    1.6082535639741273E+00    2.8393775588495282E+00    5.2477997531211757E+00
Ga    1.6555687268883601E+00    4.7131977214007996E+00    5.8006141586976661E+00
N    1.6117256768365349E+00    4.7023976417283651E+00    7.7997663055570703E+00
Ga    1.5958537247357387E+00    2.8449971691652407E+00    8.4308507560037356E+00
N    1.5940447032292624E+00    2.8471246957274694E+00    1.0422180476809810E+01
Ga    1.6212777530379914E+00    4.7056438121661639E+00    1.1065291373572865E+01
N    1.6372770776910135E+00    4.7172000962121698E+00    1.3054305880032445E+01
Ga    1.5953307282751925E+00    2.8478382870269758E+00    1.3614070212574862E+01
N    1.6268886930389788E+00    2.8313313666405207E+00    1.5569314718147396E+01
Ga    1.4300408908022932E+00    4.5966637662187670E+00    1.6480886896090986E+01
N   -2.3377949000575491E-03    7.4644013527734359E+00    2.6975299938086583E+00
Ga    1.6289549566817106E-03    5.6051415417475523E+00    3.3342212582327679E+00
N   -3.7817200863620179E-03    5.6353299596958921E+00    5.2630809672856254E+00
Ga   -1.9666587257688825E-03    7.4719201672299267E+00    5.9109880012097973E+00
N   -3.2421885090934736E-03    7.4828852710006091E+00    7.8632392797230528E+00
Ga   -2.3768697933782969E-03    5.6077817989464265E+00    8.4463524808201811E+00
N   -4.7154161785186686E-03    5.6136695073627783E+00    1.0430964837357859E+01
Ga   -5.2543948247789872E-03    7.4831089209925841E+00    1.1027217273181188E+01
N   -3.1033358055492658E-03    7.4852662350343593E+00    1.2990789438563207E+01
Ga   -2.7022237769435105E-03    5.6146826492455588E+00    1.3615126955544609E+01
N   -3.7703134004468783E-04    5.6499485309042825E+00    1.5569982838718644E+01
Ga    5.5263691108623696E-04    7.4846890915273683E+00    1.5853794640431778E+01
N   -1.7065295303498600E+00    1.0194916622897594E+01    2.5104872747913451E+00
Ga   -1.5977709434250309E+00    8.3903022587370018E+00    3.3248700532216042E+00
N   -1.5980866144623553E+00    8.4001370109071374E+00    5.2512452824685303E+00
Ga   -1.5861841002856489E+00    1.0286853222870818E+01    5.8042691035212419E+00
N   -1.6007269716457291E+00    1.0270848681436453E+01    7.7910132854672849E+00
Ga   -1.6254013658169417E+00    8.4173467239333188E+00    8.4462617644993738E+00
N   -1.6248641668746648E+00    8.4190132791718959E+00    1.0429317570758304E+01
Ga   -1.5979117791475923E+00    1.0279651419120764E+01    1.1069046665005814E+01
N   -1.5791968312379023E+00    1.0288465999135502E+01    1.3056640767319985E+01
Ga   -1.6221603685855637E+00    8.4193743166767145E+00    1.3617169520692295E+01
N   -1.5894430379927436E+00    8.4027963357680520E+00    1.5572729030772075E+01
Ga   -1.7834997098592829E+00    1.0169420344570879E+01    1.6479062313958579E+01
N    6.4347643979459948E+00    2.0248582956297696E+00    2.5311347098476551E+00
Ga    6.4314860927487532E+00    5.5707769263376908E-02    2.8782210936894326E+00
N    6.4329776193366355E+00    4.9951526733775481E-02    5.0187252233857800E+00
Ga    6.4273921699085967E+00    1.8882568093092618E+00    5.7948465174890558E+00
N    6.4293299507011863E+00    1.8998060669281271E+00    7.7871169609955277E+00
Ga    6.4285159662842082E+00    5.7638434921301988E-02    8.4452296185751852E+00
N    6.4281344869592534E+00    5.7150819369980795E-02    1.0413002876366606E+01
Ga    6.4284353131652496E+00    1.8981045281008551E+00    1.1066127039688290E+01
N    6.4292982752592049E+00    1.8773695845968312E+00    1.3055751240305460E+01
Ga    6.4287430264276564E+00    5.7369190397382593E-02    1.3866987752815351E+01
N    6.4282484145868084E+00    5.5501180879865726E-02    1.6060140628157228E+01
Ga    6.4294402595510816E+00    2.0942112396485664E+00    1.6473374306960647E+01
Ga    6.4619023558562514E+00    3.7326701965465396E+00    1.4957771488275424E+00
N    4.9410339142750788E+00    4.6234125749046768E+00    2.4725826970784337E+00
Ga    4.7074547771467872E+00    2.7898535265236233E+00    3.2777882981117652E+00
N    4.8217004084498365E+00    2.8404374610928844E+00    5.2357523441018667E+00
Ga    4.7824390687482525E+00    4.7194997802374399E+00    5.7905348972679889E+00
N    4.8168086640049648E+00    4.7010777687349528E+00    7.7927135825334339E+00
Ga    4.8312319148237588E+00    2.8467012263743405E+00    8.4320724277146102E+00
N    4.8322217345279830E+00    2.8475309300312510E+00    1.0422212576218911E+01
Ga    4.8062834418338953E+00    4.7069551757089654E+00    1.1063772130617773E+01
N    4.7893841089761127E+00    4.7172590474054186E+00    1.3054763168288583E+01
Ga    4.8319480377818538E+00    2.8486541291495313E+00    1.3614272878644050E+01
N    4.8090907308151722E+00    2.8342577068813446E+00    1.5574863205998895E+01
Ga    4.9771846281584029E+00    4.6083123857505406E+00    1.6473005584604490E+01
N    6.4239275624413272E+00    3.7671439235729998E+00    1.7616961116909156E+01
N    3.2138240457865748E+00    7.6173453934117692E+00    2.5034674583674166E+00
N    3.2157974664868174E+00    5.6282774155495021E+00    5.0501225453246583E+00
Ga    3.2217751174019980E+00    7.4248399621001546E+00    5.8119921554675358E+00
N    3.2120165468320834E+00    7.4774637004658207E+00    7.8040613521801365E+00
Ga    3.2149888179306840E+00    5.6234745493869260E+00    8.4398069728658829E+00
N    3.2133230900739571E+00    5.6272103641616606E+00    1.0411786622771443E+01
Ga    3.2148210337042005E+00    7.4653194524008679E+00    1.1067262096371433E+01
N    3.2134912567464506E+00    7.4472797688492305E+00    1.3056024414640751E+01
Ga    3.2124006678312380E+00    5.6261900733504611E+00    1.3864306377525883E+01
N    3.2114067660743126E+00    5.6253637579793372E+00    1.6059840392034378E+01
Ga    3.2136401524772897E+00    7.6638933003455811E+00    1.6472326404192760E+01
Ga    3.2452941214511841E+00    9.3693158215353272E+00    1.4803293844591772E+00
N    1.7098596888204411E+00    1.0193124204602894E+01    2.5233152969834820E+00
Ga    1.5884112926323608E+00    8.3811583568383181E+00    3.3375007967572690E+00
N    1.5948640790739197E+00    8.3999894976848228E+00    5.2583271885346230E+00
Ga    1.5815189821865456E+00    1.0283789496916171E+01    5.8138508899976120E+00
N    1.5949596431454729E+00    1.0271095025062328E+01    7.7976826645669348E+00
Ga    1.6179319484619223E+00    8.4179119239617286E+00    8.4526538053037559E+00
N    1.6149771093827712E+00    8.4199992458203994E+00    1.0433899469335273E+01
Ga    1.5894400297912770E+00    1.0280473571666818E+01    1.1070407839112681E+01
N    1.5729857140115824E+00    1.0288945772554113E+01    1.3057817770506109E+01
Ga    1.6166790562294959E+00    8.4191789963896202E+00    1.3614571533903732E+01
N    1.5930753764443781E+00    8.4050243980332660E+00    1.5574263714459391E+01
Ga    1.7640367983838388E+00    1.0177606826670823E+01    1.6472724331311813E+01
N    3.2095318000514008E+00    9.3364732496184484E+00    1.7614868914317288E+01
N    9.6593895533759291E+00    1.9097546916266666E+00    2.6066170249714724E+00
Ga    9.6559838669091480E+00    1.7527389679326871E-01    3.2961130182850580E+00
N    9.6446455680148588E+00    5.0157347460002381E-02    5.2522869394614302E+00
Ga    9.6552070603332858E+00    1.9143326595072570E+00    5.8718678408401184E+00
N    9.6453356268751715E+00    1.9116998894814505E+00    7.8432473072819198E+00
Ga    9.6475692916372946E+00    4.5884270910021847E-02    8.4378289558671238E+00
N    9.6449848154395674E+00    4.3708331900757610E-02    1.0425223065959521E+01
Ga    9.6439093749171843E+00    1.9141571452069770E+00    1.1021986954194288E+01
N    9.6435487916254949E+00    1.9134866602959753E+00    1.2989181003896231E+01
Ga    9.6467385700317543E+00    4.4251503811055533E-02    1.3614623920321039E+01
N    9.6466337190807323E+00    7.1909986012577448E-02    1.5573951931012505E+01
Ga    9.6438238291980678E+00    1.9116022488805933E+00    1.5851474606108466E+01
N    7.9388414511289396E+00    4.6273085113320649E+00    2.5146087713305518E+00
Ga    8.1547221766984741E+00    2.7764387897921625E+00    3.2942712680195556E+00
N    8.0416727046279686E+00    2.8361510620180188E+00    5.2480545541789088E+00
Ga    8.0620768606104267E+00    4.7112772025220826E+00    5.7886310747096346E+00
N    8.0480513661046817E+00    4.7044061468185641E+00    7.7838071664038129E+00
Ga    8.0275581849051711E+00    2.8474734227502099E+00    8.4306072388809419E+00
N    8.0251953439490382E+00    2.8490840262180823E+00    1.0420847089558226E+01
Ga    8.0514734864410169E+00    4.7074169132766501E+00    1.1067279613965276E+01
N    8.0689809121208249E+00    4.7172248350967898E+00    1.3056239736242135E+01
Ga    8.0257196846597179E+00    2.8493582734835279E+00    1.3615837197942191E+01
N    8.0513203061618128E+00    2.8338373027234809E+00    1.5575709555131366E+01
Ga    7.8781470526163666E+00    4.6065943159210416E+00    1.6473383627198896E+01
N    6.4217004808337936E+00    7.4736241824363958E+00    2.5809725529630962E+00
Ga    6.4224203044728840E+00    5.7315094925820000E+00    3.2725517201588703E+00
N    6.4298720116631891E+00    5.6228681778428440E+00    5.2315116266556219E+00
Ga    6.4315784814409245E+00    7.4774286825627359E+00    5.8652071975304967E+00
N    6.4304678701782576E+00    7.4820830997825833E+00    7.8365219774428168E+00
Ga    6.4302307439188509E+00    5.6134847465768152E+00    8.4326669571340318E+00
N    6.4301671853777211E+00    5.6147954356567125E+00    1.0422938216960706E+01
Ga    6.4290367298353264E+00    7.4830440867688592E+00    1.1023276800275164E+01
N    6.4285477826356328E+00    7.4834009359310691E+00    1.2990410952810359E+01
Ga    6.4292839551123402E+00    5.6135513681064539E+00    1.3615216165876690E+01
N    6.4296479554132180E+00    5.6422778710888837E+00    1.5575142857482151E+01
Ga    6.4270464111199370E+00    7.4822113457995520E+00    1.5851615824390521E+01
N    4.7246412707580836E+00    1.0207593114237152E+01    2.5289405834481595E+00
Ga    4.9259390881777554E+00    8.3468755838945867E+00    3.2930784756802325E+00
N    4.8193410387106654E+00    8.4093428510834620E+00    5.2471923951177324E+00
Ga    4.8524895740064791E+00    1.0281420265717722E+01    5.8020896471919237E+00
N    4.8322805674164950E+00    1.0273912918130813E+01    7.7924807280670825E+00
Ga    4.8141386946497358E+00    8.4176570321183828E+00    8.4372819321595198E+00
N    4.8114147954700339E+00    8.4192390158390467E+00    1.0425509322688928E+01
Ga    4.8379769838314104E+00    1.0278546795036533E+01    1.1066705489852865E+01
N    4.8536269341560416E+00    1.0288077600421804E+01    1.3055164250588062E+01
Ga    4.8100904808562159E+00    8.4197467853421788E+00    1.3614460513355034E+01
N    4.8355234026528269E+00    8.4045440818667760E+00    1.5573932611946438E+01
Ga    4.6625548777140411E+00    1.0176697525264375E+01    1.6472201081799028E+01
O    4.7013643956311485E-01    3.7813624086310753E+00   -4.5172698739350425E-01
H   -2.6886280745729882E-03    7.4525714829829228E+00    1.6710511989215300E+00
C    7.6935557880896255E-01    2.4934067579588493E+00   -1.0277412190067072E+00
H    1.7718384468593764E+00    2.1409675203150438E+00   -7.2586509021405643E-01
H    3.9753569047999170E-02    1.7192307059653151E+00   -7.3403535472349524E-01
H    7.3698663415671939E-01    2.5968242065457821E+00   -2.1228098420665109E+00
Ga    3.1796449914402798E+00    5.6038288065092674E+00    2.5244202838926171E+00
O    3.0153347691959391E+00    5.7438465298180539E+00    2.4221393954928969E-01
H    2.4809726785167134E+00    5.0096366150465714E+00   -1.3927173127067496E-01
C    4.2096667071110909E+00    6.0081822848204514E+00   -5.2710503132403241E-01
H    4.1718499274771457E+00    7.0346166773363192E+00   -9.1934604083655169E-01
H    5.0822870030716629E+00    5.9285901104587460E+00    1.3931562911391313E-01
H    4.3141158244351780E+00    5.3039187925646223E+00   -1.3613396248518992E+00
     &END COORD
     &KIND C
       BASIS_SET DZVP-MOLOPT-SR-GTH-q4
       POTENTIAL GTH-PBE-q4
       &POTENTIAL
 2 2
  0.3384712400000000E+00 2 -0.8803673979999999E+01  0.1339210850000000E+01
 2
  0.3025757500000000E+00 1  0.9622486650000001E+01
  0.2915069400000000E+00 0
         # Potential name:  GTH-PBE-Q4  for symbol:  C
         # Potential read from the potential filename: GTH_POTENTIALS
       &END POTENTIAL
     &END KIND
     &KIND O
       BASIS_SET DZVP-MOLOPT-SR-GTH-q6
       POTENTIAL GTH-PBE-q6
       &POTENTIAL
 2 4
  0.2445543000000000E+00 2 -0.1666721480000000E+02  0.2487311320000000E+01
 2
  0.2209559200000000E+00 1  0.1833745811000000E+02
  0.2113324700000000E+00 0
         # Potential name:  GTH-PBE-Q6  for symbol:  O
         # Potential read from the potential filename: GTH_POTENTIALS
       &END POTENTIAL
     &END KIND
     &KIND H
       BASIS_SET DZVP-MOLOPT-SR-GTH-q1
       POTENTIAL GTH-PBE-q1
       &POTENTIAL
 1
  0.2000000000000000E+00 2 -0.4178900440000000E+01  0.7244633100000000E+00
 0
         # Potential name:  GTH-PBE-Q1  for symbol:  H
         # Potential read from the potential filename: GTH_POTENTIALS
       &END POTENTIAL
     &END KIND
     &KIND N
       BASIS_SET DZVP-MOLOPT-SR-GTH
       POTENTIAL GTH-PBE-q5
       &POTENTIAL
 2 3
  0.2837905100000000E+00 2 -0.1241522559000000E+02  0.1868095920000000E+01
 2
  0.2554050000000000E+00 1  0.1363026257000000E+02
  0.2454945300000000E+00 0
         # Potential name:  GTH-PBE-Q5  for symbol:  N
         # Potential read from the potential filename: GTH_POTENTIALS
       &END POTENTIAL
     &END KIND
     &KIND Ga
       BASIS_SET DZVP-MOLOPT-SR-GTH
       POTENTIAL GTH-PBE-q13
       &POTENTIAL
 2 1 10
  0.4900000000000000E+00 0
 3
  0.4167772300000000E+00 3  0.1047568975000000E+02 -0.4921768140000000E+01  0.8707055900000000E+00
  0.7770178090000000E+01 -0.2248152160000000E+01
  0.1784415450000000E+01
  0.5696265200000000E+00 2  0.1777985340000000E+01  0.1958597600000000E+00
 -0.2317443900000000E+00
  0.2381265000000000E+00 1 -0.1624868022000000E+02
         # Potential name:  GTH-PBE-Q13  for symbol:  GA
         # Potential read from the potential filename: GTH_POTENTIALS
       &END POTENTIAL
     &END KIND
     &TOPOLOGY
       NUMBER_OF_ATOMS  212
       MULTIPLE_UNIT_CELL  1 1 1
     &END TOPOLOGY
   &END SUBSYS
 &END FORCE_EVAL
