 # Version information for this restart file 
 # current date 2019-06-28 20:20:56.954
 # current working dir /scratch/rzk/rzk/GaN-carbene/443-adatoms-both-2x2/05-2DissMethanol/01-Combine0304-0202
 # Program compiled at                              Sun Apr  7 00:48:11 EDT 2019
 # Program compiled on                          beluga2.int.ets1.calculquebec.ca
 # Program compiled for                        Beluga-Linux-x86-64-intel-openmpi
 # Source code revision number                                         svn:18619
 &GLOBAL
   PRINT_LEVEL  MEDIUM
   PROJECT_NAME TEST
   RUN_TYPE  GEO_OPT
 &END GLOBAL
 &MOTION
   &GEO_OPT
     MAX_ITER  500
     STEP_START_VAL  16
   &END GEO_OPT
 &END MOTION
 &FORCE_EVAL
   METHOD  QS
   STRESS_TENSOR  ANALYTICAL
   &DFT
     BASIS_SET_FILE_NAME BASIS_MOLOPT
     POTENTIAL_FILE_NAME GTH_POTENTIALS
     UKS  T
     SURFACE_DIPOLE_CORRECTION  T
     SURF_DIP_DIR  Z
     &SCF
       MAX_SCF  80
       EPS_SCF     5.0000000000000004E-06
       &OT  T
         PRECONDITIONER  FULL_ALL
       &END OT
       &OUTER_SCF  T
         OPTIMIZER  NONE
         EPS_SCF     5.0000000000000004E-06
         MAX_SCF  4
       &END OUTER_SCF
       &PRINT
         &RESTART  OFF
           BACKUP_COPIES  1
           &EACH
             JUST_ENERGY  0
             QS_SCF  0
             MD  20
           &END EACH
         &END RESTART
       &END PRINT
     &END SCF
     &QS
       EPS_DEFAULT     1.0000000000000000E-14
       METHOD  GPW
     &END QS
     &MGRID
       NGRIDS  5
       CUTOFF     1.2000000000000000E+03
     &END MGRID
     &XC
       DENSITY_CUTOFF     1.0000000000000000E-10
       GRADIENT_CUTOFF     1.0000000000000000E-10
       TAU_CUTOFF     1.0000000000000000E-10
       &XC_FUNCTIONAL  NO_SHORTCUT
         &PBE  T
         &END PBE
       &END XC_FUNCTIONAL
       &VDW_POTENTIAL
         POTENTIAL_TYPE  PAIR_POTENTIAL
         &PAIR_POTENTIAL
           R_CUTOFF     1.0000000000000004E+01
           TYPE  DFTD3
           PARAMETER_FILE_NAME dftd3.dat
           REFERENCE_FUNCTIONAL PBE
           EPS_CN     9.9999999999999995E-07
           CALCULATE_C9_TERM  T
           REFERENCE_C9_TERM  T
           LONG_RANGE_CORRECTION  F
           VERBOSE_OUTPUT  F
         &END PAIR_POTENTIAL
       &END VDW_POTENTIAL
     &END XC
   &END DFT
   &SUBSYS
     &CELL
       A     1.2864472766435110E+01    0.0000000000000000E+00    0.0000000000000000E+00
       B    -6.4322363581020028E+00    1.1140960178524473E+01    0.0000000000000000E+00
       C     0.0000000000000000E+00    0.0000000000000000E+00    3.2000000000000000E+01
       MULTIPLE_UNIT_CELL  1 1 1
       &CELL_REF
         A     1.2982353780853531E+01    0.0000000000000000E+00    0.0000000000000000E+00
         B    -6.4911768904267628E+00    1.1243048175136114E+01    0.0000000000000000E+00
         C     0.0000000000000000E+00    0.0000000000000000E+00    3.2000000000000000E+01
         MULTIPLE_UNIT_CELL  1 1 1
       &END CELL_REF
     &END CELL
     &COORD
N   -8.0253092793568653E-03    2.0455420507898814E+00    2.5054227602027805E+00
Ga   -5.9303584755899435E-03    9.6368833900532316E-02    2.8486038605207464E+00
N   -4.0687980055177375E-03    5.1730503731545086E-02    5.0123126601858896E+00
Ga    7.4180754295063848E-04    1.8852798029674047E+00    5.7928000168897222E+00
N   -1.4356137827045497E-03    1.8935123031880079E+00    7.7904555577180803E+00
Ga    6.4124343261633154E-04    4.9874417645817855E-02    8.4412212301012559E+00
N   -1.0033922748507241E-03    4.6939025219984797E-02    1.0412821854501651E+01
Ga   -1.1733046554165440E-03    1.8863157625149791E+00    1.1069873571002642E+01
N   -1.5729516363213400E-03    1.8663067584272175E+00    1.3060332871484198E+01
Ga   -9.7292497399920237E-04    4.7242114099602141E-02    1.3874930250983697E+01
N   -2.5046003559573995E-03    4.5740399746236657E-02    1.6064191827394506E+01
Ga   -2.1683206451746100E-03    2.0945223474304191E+00    1.6483204479489888E+01
Ga   -4.4945448016543509E-02    3.7177772811055974E+00    1.3140039285448653E+00
N   -1.4851555159977412E+00    4.6281334921994555E+00    2.4852532384182346E+00
Ga   -1.6788445747707101E+00    2.7911887243938596E+00    3.2735704835979105E+00
N   -1.6139796185164419E+00    2.8372595729259995E+00    5.2489464290899406E+00
Ga   -1.6359179954083767E+00    4.7029842554921064E+00    5.8029587156725384E+00
N   -1.6189168598037860E+00    4.6988080092201212E+00    7.7938117812225842E+00
Ga   -1.5976525536053550E+00    2.8387906449518576E+00    8.4364924766497573E+00
N   -1.5987316779374017E+00    2.8391278719530177E+00    1.0427369586565353E+01
Ga   -1.6263362112416224E+00    4.6973405710537977E+00    1.1072577798839177E+01
N   -1.6426535528545947E+00    4.7075775889837024E+00    1.3061900478914621E+01
Ga   -1.5991077113977530E+00    2.8379503150768275E+00    1.3620753960704606E+01
N   -1.6304162396688755E+00    2.8200588076559319E+00    1.5577818648848364E+01
Ga   -1.4444665194567043E+00    4.5923709313868857E+00    1.6484149697115114E+01
N   -7.7930409898940740E-03    3.7560499905186684E+00    1.7612317706616057E+01
N   -3.2133848258524225E+00    7.5982781377070472E+00    2.5008784914618909E+00
Ga   -3.1925084178925940E+00    5.5945860794525357E+00    2.8460706187962637E+00
N   -3.2160108202596578E+00    5.6193023262517237E+00    5.0087398093128792E+00
Ga   -3.2261048570118729E+00    7.4412184692039975E+00    5.7966971765510884E+00
N   -3.2172586316168972E+00    7.4658879916055598E+00    7.7854833536317667E+00
Ga   -3.2176360132277719E+00    5.6190926469654503E+00    8.4445441997924036E+00
N   -3.2181471062665250E+00    5.6183809988808342E+00    1.0414180203762818E+01
Ga   -3.2198822580401170E+00    7.4564753901425833E+00    1.1072476785875052E+01
N   -3.2180977258866208E+00    7.4368097592223386E+00    1.3061257241149018E+01
Ga   -3.2178936056150547E+00    5.6169100285428364E+00    1.3876349978499679E+01
N   -3.2196765365614652E+00    5.6169590622741401E+00    1.6065200677579380E+01
Ga   -3.2191894477877958E+00    7.6652605647563137E+00    1.6483995649844779E+01
Ga   -3.2481752343439405E+00    9.3548389723571095E+00    1.4433961145311736E+00
N   -4.7275880458441044E+00    1.0204827010796240E+01    2.5097556586552794E+00
Ga   -4.9343751960163775E+00    8.3485430304335217E+00    3.2639781778840238E+00
N   -4.8275706046780069E+00    8.4032871831415470E+00    5.2283882141147568E+00
Ga   -4.8532133038028142E+00    1.0278369250691602E+01    5.7871498960359880E+00
N   -4.8347523290418932E+00    1.0265503361196277E+01    7.7827639876125172E+00
Ga   -4.8172185089017372E+00    8.4112122756941385E+00    8.4343085410866756E+00
N   -4.8149200768964411E+00    8.4091711259363198E+00    1.0424029292131314E+01
Ga   -4.8410307556273331E+00    1.0268504310354210E+01    1.1069500039466636E+01
N   -4.8576904807855463E+00    1.0277941210437879E+01    1.3059248846221573E+01
Ga   -4.8151578268993349E+00    8.4091282357842427E+00    1.3621088995936223E+01
N   -4.8464517731361330E+00    8.3909978663116132E+00    1.5577488343605427E+01
Ga   -4.6618545337543935E+00    1.0163836491013690E+01    1.6483308755578914E+01
N   -3.2254782088442182E+00    9.3278242807805434E+00    1.7612089167294947E+01
N    3.1990956280267246E+00    1.9241594921108451E+00    2.5893073309018448E+00
Ga    3.2032330468737795E+00    1.7970457768012726E-01    3.2667136467015472E+00
N    3.2156132745976462E+00    5.2223909954150778E-02    5.2313231722365154E+00
Ga    3.2051981970426611E+00    1.9136272757997781E+00    5.8667267969397559E+00
N    3.2143682040950838E+00    1.9046634112481071E+00    7.8398619220391295E+00
Ga    3.2117348749673029E+00    3.8899025565019570E-02    8.4329812732899487E+00
N    3.2137757059089518E+00    3.3807813138938797E-02    1.0422645943180052E+01
Ga    3.2136517066683150E+00    1.9036847201250922E+00    1.1023930104301014E+01
N    3.2149761740467815E+00    1.9035480098233999E+00    1.2990985687851824E+01
Ga    3.2144561741152220E+00    3.5120079676559751E-02    1.3620390663334188E+01
N    3.2154525272147541E+00    6.8596231907201655E-02    1.5576713167447338E+01
Ga    3.2156120188747601E+00    1.9044113911417342E+00    1.5861099035898263E+01
N    1.4674349398929332E+00    4.6171102413617380E+00    2.4632143409022147E+00
Ga    1.6682853568723863E+00    2.8030289136096114E+00    3.2602077675547969E+00
N    1.6067142602857258E+00    2.8396984362236442E+00    5.2380126208633637E+00
Ga    1.6514166666973449E+00    4.7099633898914535E+00    5.7982403117458734E+00
N    1.6124106171656611E+00    4.6961285579565635E+00    7.7975240895715219E+00
Ga    1.5959633386175875E+00    2.8391933687957254E+00    8.4349545063375384E+00
N    1.5950626053176524E+00    2.8383214570064297E+00    1.0425932486216967E+01
Ga    1.6224114674201835E+00    4.6966985451249563E+00    1.1071211649209589E+01
N    1.6387355875383289E+00    4.7074650773885720E+00    1.3060772739528964E+01
Ga    1.5961359746379160E+00    2.8382125718606828E+00    1.3619850123274782E+01
N    1.6259979601173611E+00    2.8219986271266477E+00    1.5576831635094258E+01
Ga    1.4337317895330282E+00    4.5888374325284227E+00    1.6485496277802323E+01
N    3.2907522700403253E-03    7.4684668763333679E+00    2.6881032221345929E+00
Ga    8.1142388415559822E-03    5.6018447277440773E+00    3.3097813183972580E+00
N   -8.7699272169516462E-04    5.6343421979766859E+00    5.2459627046958266E+00
Ga   -7.4874763572060682E-04    7.4676198579026059E+00    5.9057152244463218E+00
N   -2.1064299328511834E-03    7.4760015379402711E+00    7.8591585437832396E+00
Ga   -2.9004496837409309E-04    5.6019753606259481E+00    8.4475226309558860E+00
N   -2.6377205385526054E-03    5.6046682979881730E+00    1.0432700080229422E+01
Ga   -3.5977280977944892E-03    7.4741610232696738E+00    1.1029741412392525E+01
N   -2.2678411706488480E-03    7.4748770153810291E+00    1.2994989803765183E+01
Ga   -1.5168406159478947E-03    5.6044650757086893E+00    1.3621244256627763E+01
N   -7.0347594256544980E-04    5.6390899996428763E+00    1.5577930698841907E+01
Ga   -8.3352672725665866E-04    7.4748532392568423E+00    1.5861634695567638E+01
N   -1.7131374571261289E+00    1.0197394501172861E+01    2.5074008515224788E+00
Ga   -1.5915788241982538E+00    8.3895958980711640E+00    3.3188562814330029E+00
N   -1.5965882137492542E+00    8.3984975823480337E+00    5.2452007373318015E+00
Ga   -1.5881255999379718E+00    1.0285113389364943E+01    5.8017152305037207E+00
N   -1.6011603502593592E+00    1.0264512422693347E+01    7.7884547854326147E+00
Ga   -1.6232519155933676E+00    8.4106748036792549E+00    8.4439268836869381E+00
N   -1.6229550234731491E+00    8.4095962272555198E+00    1.0428524751647945E+01
Ga   -1.5971028935345457E+00    1.0269352212087725E+01    1.1071621233439409E+01
N   -1.5778893821323894E+00    1.0278176196088575E+01    1.3060354704422716E+01
Ga   -1.6210752467015290E+00    8.4094025822656278E+00    1.3621823322807160E+01
N   -1.5906595525313729E+00    8.3929541959780867E+00    1.5578167295911747E+01
Ga   -1.7830147926348485E+00    1.0160059129567033E+01    1.6485737698836804E+01
N    6.4282425676319876E+00    2.0324160237528783E+00    2.5389864738487398E+00
Ga    6.4278192425028120E+00    6.2517714930432108E-02    2.8788708488956560E+00
N    6.4302792869713690E+00    5.0944262833634235E-02    5.0191880398690234E+00
Ga    6.4244476479067298E+00    1.8864747683347236E+00    5.8013358758840967E+00
N    6.4291674488040984E+00    1.8931311421122337E+00    7.7920218432409900E+00
Ga    6.4278764976116021E+00    4.9915966033501631E-02    8.4474100981661664E+00
N    6.4290973866423435E+00    4.7021952077856824E-02    1.0415793533982308E+01
Ga    6.4295402612335915E+00    1.8878530926924668E+00    1.1069801782507014E+01
N    6.4304593073323373E+00    1.8671125273015363E+00    1.3060115983848057E+01
Ga    6.4299741733586027E+00    4.7330623215712082E-02    1.3872888706947798E+01
N    6.4283460702821484E+00    4.6083776565212557E-02    1.6066206126673450E+01
Ga    6.4296852517729004E+00    2.0868394252184697E+00    1.6481376130348558E+01
Ga    6.4555378850488374E+00    3.7454387590884073E+00    1.5158045268108129E+00
N    4.9347383352056609E+00    4.6287384102077098E+00    2.4844911041848583E+00
Ga    4.7005644066100905E+00    2.7945168363546982E+00    3.2893487665767500E+00
N    4.8183680224009624E+00    2.8400737969771717E+00    5.2452972505233779E+00
Ga    4.7796601250388822E+00    4.7176336363167355E+00    5.7996480858935486E+00
N    4.8164698865101245E+00    4.6954598533410525E+00    7.7985958720425232E+00
Ga    4.8303498124094757E+00    2.8397576849439261E+00    8.4367038547707232E+00
N    4.8330983481380390E+00    2.8381685073369978E+00    1.0426600786381421E+01
Ga    4.8080235269827405E+00    4.6977996695531514E+00    1.1068466347376972E+01
N    4.7912790029348793E+00    4.7069674038924365E+00    1.3059329456059494E+01
Ga    4.8331057133896662E+00    2.8383054773978063E+00    1.3619369345498596E+01
N    4.8083847513929658E+00    2.8241415624258428E+00    1.5579896390052870E+01
Ga    4.9796467823857995E+00    4.5976136129016512E+00    1.6481261600777835E+01
N    6.4231644480268439E+00    3.7570342866097151E+00    1.7625435548005587E+01
N    3.2077206706836416E+00    7.6242986197448124E+00    2.4973688308303332E+00
N    3.2137534494682698E+00    5.6258684600565605E+00    5.0416621974299858E+00
Ga    3.2217723893865764E+00    7.4244597016800702E+00    5.8109264272730012E+00
N    3.2140785008421298E+00    7.4705169712786770E+00    7.8032388852715258E+00
Ga    3.2142358367116475E+00    5.6173893889326569E+00    8.4449173416709193E+00
N    3.2145963333824765E+00    5.6180928810617052E+00    1.0416657327680550E+01
Ga    3.2158863378677927E+00    7.4561436162459032E+00    1.1072974969595114E+01
N    3.2145104925384089E+00    7.4378507086663506E+00    1.3062276424549657E+01
Ga    3.2145244756140783E+00    5.6165688260101110E+00    1.3871580252443854E+01
N    3.2129762190872126E+00    5.6162914070106575E+00    1.6066149058175455E+01
Ga    3.2143301250331873E+00    7.6571148187518592E+00    1.6482148419652624E+01
Ga    3.2347897516890254E+00    9.3843148284484084E+00    1.4627703316779270E+00
N    1.7034025554220973E+00    1.0200658150215151E+01    2.5248770311537361E+00
Ga    1.5901681168432107E+00    8.3878094277756716E+00    3.3373636672006715E+00
N    1.5954890664721424E+00    8.4001926624997498E+00    5.2586812852977340E+00
Ga    1.5797184603576140E+00    1.0282874634873822E+01    5.8148269501608869E+00
N    1.5950559983536954E+00    1.0265760630461459E+01    7.7989054609190278E+00
Ga    1.6188930836234856E+00    8.4106296291118987E+00    8.4519700456639484E+00
N    1.6167209512610674E+00    8.4100385258870940E+00    1.0435211182222387E+01
Ga    1.5905943890042624E+00    1.0270102935324333E+01    1.1073751842256252E+01
N    1.5741566880238675E+00    1.0278524719647045E+01    1.3062451212931931E+01
Ga    1.6171392187038589E+00    8.4092401776256942E+00    1.3621592019999271E+01
N    1.5920379060154610E+00    8.3946025985092732E+00    1.5581574444558088E+01
Ga    1.7651965510627619E+00    1.0167490282960689E+01    1.6482374594139408E+01
N    3.2084663316161257E+00    9.3274866880592757E+00    1.7625672284074735E+01
N    9.6547922698519049E+00    1.9141747893310839E+00    2.6145994037843843E+00
Ga    9.6518417976366582E+00    1.7722326939498659E-01    3.2974023443586207E+00
N    9.6431932703377630E+00    4.9724152405833680E-02    5.2541933533095602E+00
Ga    9.6533629951633824E+00    1.9111500977752651E+00    5.8806187518831035E+00
N    9.6466242518524030E+00    1.9049070034082201E+00    7.8494974189819215E+00
Ga    9.6487705716121202E+00    3.8159053854162517E-02    8.4417486279153753E+00
N    9.6465683753656091E+00    3.3895078669468823E-02    1.0429306927506296E+01
Ga    9.6458535376579206E+00    1.9050216849948685E+00    1.1025125843125728E+01
N    9.6450205956330937E+00    1.9034986423288740E+00    1.2993627772860641E+01
Ga    9.6471522088963404E+00    3.4568498096985006E-02    1.3621131352942006E+01
N    9.6467286218423638E+00    6.3220049367402109E-02    1.5580571264760446E+01
Ga    9.6443886347498680E+00    1.9027838870303200E+00    1.5858889529204877E+01
N    7.9320624121546395E+00    4.6319586489971396E+00    2.5298813963902682E+00
Ga    8.1505000131438727E+00    2.7773900146142441E+00    3.3041788815438800E+00
N    8.0400653785415344E+00    2.8342188329196234E+00    5.2573763395837929E+00
Ga    8.0605948496294282E+00    4.7093884941864914E+00    5.7973876625756731E+00
N    8.0493858793781907E+00    4.6984757292169430E+00    7.7898170972232839E+00
Ga    8.0284165370534275E+00    2.8403075793170265E+00    8.4356175206266002E+00
N    8.0263310823173200E+00    2.8396648442189676E+00    1.0425393792517196E+01
Ga    8.0533715676524071E+00    4.6983553821207256E+00    1.1070403435399532E+01
N    8.0704872873154549E+00    4.7072962555813547E+00    1.3060516312549884E+01
Ga    8.0270751769766502E+00    2.8390960492839517E+00    1.3620460475694037E+01
N    8.0522597594880541E+00    2.8242572600007856E+00    1.5580483913593525E+01
Ga    7.8749472454235994E+00    4.5949601748043181E+00    1.6481557333824252E+01
N    6.4162813157755538E+00    7.4743270471746532E+00    2.5824396162575822E+00
Ga    6.4157687228552023E+00    5.7369575104169170E+00    3.2891482033251154E+00
N    6.4267225673955624E+00    5.6219069770325083E+00    5.2443961875865170E+00
Ga    6.4280628026527191E+00    7.4780671879504776E+00    5.8709729557251960E+00
N    6.4308617840450566E+00    7.4770291570738330E+00    7.8410462174161104E+00
Ga    6.4308747707632481E+00    5.6077951161793917E+00    8.4372648090453044E+00
N    6.4317734115598792E+00    5.6060385446496390E+00    1.0427098430789984E+01
Ga    6.4310712167277853E+00    7.4742463519877633E+00    1.1026899559612771E+01
N    6.4298383936485992E+00    7.4736571391921309E+00    1.2994503771462687E+01
Ga    6.4308652231136456E+00    5.6037647703124556E+00    1.3620528472151511E+01
N    6.4303619739888349E+00    5.6333842267650471E+00    1.5580120983909994E+01
Ga    6.4286543599918984E+00    7.4729309054831168E+00    1.5858498111952052E+01
N    4.7180521605152306E+00    1.0210298669928514E+01    2.5264233954198101E+00
Ga    4.9159289521857881E+00    8.3514354259875834E+00    3.2860802148997763E+00
N    4.8178403791574027E+00    8.4067565703456637E+00    5.2441691539926749E+00
Ga    4.8507121624720702E+00    1.0277792133030047E+01    5.8019394981497934E+00
N    4.8327832441061522E+00    1.0266860901204543E+01    7.7935443964925808E+00
Ga    4.8144910969334243E+00    8.4114923896675418E+00    8.4421510455663498E+00
N    4.8126758475828000E+00    8.4102073915045867E+00    1.0430109336907252E+01
Ga    4.8392897557194763E+00    1.0269411574792807E+01    1.1072066854505136E+01
N    4.8546651179566931E+00    1.0278333086915847E+01    1.3061573733262666E+01
Ga    4.8114701912460784E+00    8.4098502843121423E+00    1.3621355984060072E+01
N    4.8368644304681627E+00    8.3945602172026614E+00    1.5580801676668024E+01
Ga    4.6593786586866051E+00    1.0165043591218318E+01    1.6481820162418813E+01
O    4.0480331485481490E-02    3.7130563232115832E+00   -5.0798487040195406E-01
H    1.6373061430115524E-02    7.4687045356149122E+00    1.6613073265679041E+00
C    6.4834306639972006E-01    2.5685173801768508E+00   -1.1215493766090889E+00
H    1.7107769714030661E+00    2.4509737946442676E+00   -8.4136493734967333E-01
H    1.3391239460875842E-01    1.6257466764720001E+00   -8.6754514091030399E-01
H    5.9107929043749086E-01    2.7097217974567265E+00   -2.2121083539068529E+00
Ga    3.1727125471294357E+00    5.6146897315833728E+00    2.5575047485533386E+00
O    3.0973837641060489E+00    5.6957655861914249E+00    2.6218931250997635E-01
H    2.9801753507023929E+00    4.7591358005952022E+00    1.1484801124652999E-02
C    4.2322788503063933E+00    6.2602736035112647E+00   -4.5026324535961937E-01
H    3.9841169101411853E+00    7.3089335121530086E+00   -6.7092186414087518E-01
H    5.1403522141078071E+00    6.2383092631067392E+00    1.7296566876177769E-01
H    4.3967926720370558E+00    5.7272895707876854E+00   -1.3931380556913278E+00
     &END COORD
     &KIND C
       BASIS_SET DZVP-MOLOPT-SR-GTH-q4
       POTENTIAL GTH-PBE-q4
       &POTENTIAL
 2 2
  0.3384712400000000E+00 2 -0.8803673979999999E+01  0.1339210850000000E+01
 2
  0.3025757500000000E+00 1  0.9622486650000001E+01
  0.2915069400000000E+00 0
         # Potential name:  GTH-PBE-Q4  for symbol:  C
         # Potential read from the potential filename: GTH_POTENTIALS
       &END POTENTIAL
     &END KIND
     &KIND O
       BASIS_SET DZVP-MOLOPT-SR-GTH-q6
       POTENTIAL GTH-PBE-q6
       &POTENTIAL
 2 4
  0.2445543000000000E+00 2 -0.1666721480000000E+02  0.2487311320000000E+01
 2
  0.2209559200000000E+00 1  0.1833745811000000E+02
  0.2113324700000000E+00 0
         # Potential name:  GTH-PBE-Q6  for symbol:  O
         # Potential read from the potential filename: GTH_POTENTIALS
       &END POTENTIAL
     &END KIND
     &KIND H
       BASIS_SET DZVP-MOLOPT-SR-GTH-q1
       POTENTIAL GTH-PBE-q1
       &POTENTIAL
 1
  0.2000000000000000E+00 2 -0.4178900440000000E+01  0.7244633100000000E+00
 0
         # Potential name:  GTH-PBE-Q1  for symbol:  H
         # Potential read from the potential filename: GTH_POTENTIALS
       &END POTENTIAL
     &END KIND
     &KIND N
       BASIS_SET DZVP-MOLOPT-SR-GTH
       POTENTIAL GTH-PBE-q5
       &POTENTIAL
 2 3
  0.2837905100000000E+00 2 -0.1241522559000000E+02  0.1868095920000000E+01
 2
  0.2554050000000000E+00 1  0.1363026257000000E+02
  0.2454945300000000E+00 0
         # Potential name:  GTH-PBE-Q5  for symbol:  N
         # Potential read from the potential filename: GTH_POTENTIALS
       &END POTENTIAL
     &END KIND
     &KIND Ga
       BASIS_SET DZVP-MOLOPT-SR-GTH
       POTENTIAL GTH-PBE-q13
       &POTENTIAL
 2 1 10
  0.4900000000000000E+00 0
 3
  0.4167772300000000E+00 3  0.1047568975000000E+02 -0.4921768140000000E+01  0.8707055900000000E+00
  0.7770178090000000E+01 -0.2248152160000000E+01
  0.1784415450000000E+01
  0.5696265200000000E+00 2  0.1777985340000000E+01  0.1958597600000000E+00
 -0.2317443900000000E+00
  0.2381265000000000E+00 1 -0.1624868022000000E+02
         # Potential name:  GTH-PBE-Q13  for symbol:  GA
         # Potential read from the potential filename: GTH_POTENTIALS
       &END POTENTIAL
     &END KIND
     &TOPOLOGY
       NUMBER_OF_ATOMS  212
       MULTIPLE_UNIT_CELL  1 1 1
     &END TOPOLOGY
   &END SUBSYS
 &END FORCE_EVAL
