 # Version information for this restart file 
 # current date 2019-07-03 07:04:45.411
 # current working dir /lustre04/scratch/rzk/rzk/GaN-carbene/443-adatoms-both-2x2/08-CH3O-H2O-H2C-H/03-Use-0401
 # Program compiled at                              Sun Apr  7 00:48:11 EDT 2019
 # Program compiled on                          beluga2.int.ets1.calculquebec.ca
 # Program compiled for                        Beluga-Linux-x86-64-intel-openmpi
 # Source code revision number                                         svn:18619
 &GLOBAL
   PRINT_LEVEL  MEDIUM
   PROJECT_NAME TEST
   RUN_TYPE  GEO_OPT
 &END GLOBAL
 &MOTION
   &GEO_OPT
     MAX_ITER  500
     STEP_START_VAL  2
   &END GEO_OPT
 &END MOTION
 &FORCE_EVAL
   METHOD  QS
   STRESS_TENSOR  ANALYTICAL
   &DFT
     BASIS_SET_FILE_NAME BASIS_MOLOPT
     POTENTIAL_FILE_NAME GTH_POTENTIALS
     UKS  T
     SURFACE_DIPOLE_CORRECTION  T
     SURF_DIP_DIR  Z
     &SCF
       MAX_SCF  80
       EPS_SCF     5.0000000000000004E-06
       &OT  T
         PRECONDITIONER  FULL_ALL
       &END OT
       &OUTER_SCF  T
         OPTIMIZER  NONE
         EPS_SCF     5.0000000000000004E-06
         MAX_SCF  4
       &END OUTER_SCF
       &PRINT
         &RESTART  OFF
           BACKUP_COPIES  1
           &EACH
             JUST_ENERGY  0
             QS_SCF  0
             MD  20
           &END EACH
         &END RESTART
       &END PRINT
     &END SCF
     &QS
       EPS_DEFAULT     1.0000000000000000E-14
       METHOD  GPW
     &END QS
     &MGRID
       NGRIDS  5
       CUTOFF     1.2000000000000000E+03
     &END MGRID
     &XC
       DENSITY_CUTOFF     1.0000000000000000E-10
       GRADIENT_CUTOFF     1.0000000000000000E-10
       TAU_CUTOFF     1.0000000000000000E-10
       &XC_FUNCTIONAL  NO_SHORTCUT
         &PBE  T
         &END PBE
       &END XC_FUNCTIONAL
       &VDW_POTENTIAL
         POTENTIAL_TYPE  PAIR_POTENTIAL
         &PAIR_POTENTIAL
           R_CUTOFF     1.0000000000000004E+01
           TYPE  DFTD3
           PARAMETER_FILE_NAME dftd3.dat
           REFERENCE_FUNCTIONAL PBE
           EPS_CN     9.9999999999999995E-07
           CALCULATE_C9_TERM  T
           REFERENCE_C9_TERM  T
           LONG_RANGE_CORRECTION  F
           VERBOSE_OUTPUT  F
         &END PAIR_POTENTIAL
       &END VDW_POTENTIAL
     &END XC
   &END DFT
   &SUBSYS
     &CELL
       A     1.2864472766435110E+01    0.0000000000000000E+00    0.0000000000000000E+00
       B    -6.4322363581020028E+00    1.1140960178524473E+01    0.0000000000000000E+00
       C     0.0000000000000000E+00    0.0000000000000000E+00    3.2000000000000000E+01
       MULTIPLE_UNIT_CELL  1 1 1
       &CELL_REF
         A     1.2982353780853531E+01    0.0000000000000000E+00    0.0000000000000000E+00
         B    -6.4911768904267628E+00    1.1243048175136114E+01    0.0000000000000000E+00
         C     0.0000000000000000E+00    0.0000000000000000E+00    3.2000000000000000E+01
         MULTIPLE_UNIT_CELL  1 1 1
       &END CELL_REF
     &END CELL
     &COORD
N    6.6808229643669614E-02    1.9789127323768012E+00    2.4657079087949998E+00
Ga    8.3812669008268448E-02    8.3774984937696889E-03    2.8483614421061714E+00
N    8.5358610368301183E-02   -2.4735831440747744E-02    5.0175581672070546E+00
Ga    8.6195641002865919E-02    1.7943902506616489E+00    5.8093026514391859E+00
N    7.4827749583595490E-02    1.8161596619174216E+00    7.7961863294390037E+00
Ga    7.7944319978734786E-02   -3.1387378872028006E-02    8.4442773016784969E+00
N    7.7876415954903327E-02   -3.1744381094651740E-02    1.0411599423150800E+01
Ga    8.1032791061004208E-02    1.8066993016348629E+00    1.1078853219125476E+01
N    7.9409670610320171E-02    1.7894285506216137E+00    1.3064672868012346E+01
Ga    7.9736245853546453E-02   -2.9966882281794636E-02    1.3883261823387228E+01
N    7.9530022350305721E-02   -3.0113806849126078E-02    1.6069854543993507E+01
Ga    7.9651091934039034E-02    2.0153869884992690E+00    1.6493449542589641E+01
Ga    8.7682221805691477E-02    3.7449555493299509E+00    1.3313287204316941E+00
N   -1.4194602855884439E+00    4.5254585422338769E+00    2.5306958878994319E+00
Ga   -1.5033807968400617E+00    2.7513084830269814E+00    3.3248928374623863E+00
N   -1.5547977612257888E+00    2.7359206426005982E+00    5.2517287234033283E+00
Ga   -1.5594589607763072E+00    4.6258893527481355E+00    5.8108144934381745E+00
N   -1.5400778639000436E+00    4.6123827720763293E+00    7.7951687432963910E+00
Ga   -1.5132943962479291E+00    2.7612205612862279E+00    8.4583123814550252E+00
N   -1.5159261187459723E+00    2.7613145133888257E+00    1.0436038222100381E+01
Ga   -1.5438599133180093E+00    4.6209636641499383E+00    1.1077727453022492E+01
N   -1.5612687056244758E+00    4.6310026999330178E+00    1.3062120991269730E+01
Ga   -1.5185278643850939E+00    2.7615008647893129E+00    1.3627200655427874E+01
N   -1.5445809068914458E+00    2.7464185841367108E+00    1.5581754267327709E+01
Ga   -1.3607435127744647E+00    4.5128965148982134E+00    1.6492681845031107E+01
N    7.9338849943522055E-02    3.6771324108493770E+00    1.7633752628074937E+01
N   -3.1609610162382356E+00    7.5211849917602533E+00    2.5293327496668030E+00
Ga   -3.0959358790590099E+00    5.5363045187221678E+00    2.8536052385023356E+00
N   -3.1372579792065536E+00    5.5400769453889724E+00    5.0192393097446244E+00
Ga   -3.1428678991914816E+00    7.3611684131968511E+00    5.8051535030656938E+00
N   -3.1431046916842691E+00    7.3884529078840364E+00    7.7892982538427287E+00
Ga   -3.1383457523844727E+00    5.5393913029379238E+00    8.4474710048924262E+00
N   -3.1375405145124273E+00    5.5405455751650177E+00    1.0412358797489524E+01
Ga   -3.1368858810865690E+00    7.3796751475389719E+00    1.1078222111242647E+01
N   -3.1365179815235762E+00    7.3595612019670558E+00    1.3062160039057398E+01
Ga   -3.1337290321306015E+00    5.5419777151383096E+00    1.3876956876113690E+01
N   -3.1427777737352121E+00    5.5368106860677262E+00    1.6064573590455389E+01
Ga   -3.1384577121719865E+00    7.5922389170357807E+00    1.6493459122934183E+01
Ga   -3.1035784771128414E+00    9.2490369745553416E+00    1.4036730383485163E+00
N   -4.6413028572134056E+00    1.0105170062182875E+01    2.4812296282393818E+00
Ga   -4.7911832760671480E+00    8.3195006848977489E+00    3.2873841174008911E+00
N   -4.7796818694475114E+00    8.3076350492248654E+00    5.2182505954509315E+00
Ga   -4.7746594130388313E+00    1.0201250552902657E+01    5.8021794021726070E+00
N   -4.7556265353408458E+00    1.0181336075679431E+01    7.7892647306995526E+00
Ga   -4.7326408682300825E+00    8.3350184662648648E+00    8.4575294277991269E+00
N   -4.7330147665481368E+00    8.3333936358595579E+00    1.0434103442487293E+01
Ga   -4.7610915961668532E+00    1.0193336306577770E+01    1.1079103148676584E+01
N   -4.7767113754021109E+00    1.0200973050460528E+01    1.3064591292275638E+01
Ga   -4.7340632549549904E+00    8.3311993996979474E+00    1.3628011729787811E+01
N   -4.7602865444729288E+00    8.3162474119857706E+00    1.5582408012541665E+01
Ga   -4.5809023238126159E+00    1.0088221193006758E+01    1.6494390256544374E+01
N   -3.1420110815340814E+00    9.2570681001947257E+00    1.7634725345336850E+01
N    3.2901588412172518E+00    1.8294861712294535E+00    2.6275753017711319E+00
Ga    3.2903442145479112E+00    7.6296558710824178E-02    3.2771167307222275E+00
N    3.2918801336475161E+00   -3.5641714108685593E-02    5.2438312889320571E+00
Ga    3.2897870085714414E+00    1.8290245909525702E+00    5.8726701277356277E+00
N    3.2952834828910902E+00    1.8258561532494644E+00    7.8448397323940338E+00
Ga    3.2935898821456631E+00   -4.0767695969400247E-02    8.4436952937379637E+00
N    3.2936800268670687E+00   -4.4289631072687470E-02    1.0427959299671951E+01
Ga    3.2943597838136838E+00    1.8257994688284629E+00    1.1029809085532117E+01
N    3.2947047360457082E+00    1.8259748301684515E+00    1.2991962384787076E+01
Ga    3.2968009478532299E+00   -4.1995754037946441E-02    1.3627741444204046E+01
N    3.2962169552408058E+00   -1.1204368144682932E-02    1.5582534955461805E+01
Ga    3.2932808420702910E+00    1.8256177004995411E+00    1.5866439510849890E+01
N    1.5644291316790426E+00    4.5399005149573561E+00    2.5407037070835603E+00
Ga    1.7575557882616375E+00    2.7165037784419908E+00    3.2653188383879019E+00
N    1.6824033792650446E+00    2.7508194826822088E+00    5.2471773107428596E+00
Ga    1.7173736953840026E+00    4.6185636728066495E+00    5.8098294701451714E+00
N    1.6972341210525783E+00    4.6166251975639065E+00    7.7997045552105764E+00
Ga    1.6775417824870913E+00    2.7595317354620379E+00    8.4443687094718740E+00
N    1.6749925262774124E+00    2.7602233290615659E+00    1.0429184660282003E+01
Ga    1.7031549821784908E+00    4.6195319749512880E+00    1.1074455439815631E+01
N    1.7203960024729745E+00    4.6312804969189614E+00    1.3060693287028030E+01
Ga    1.6777527213535675E+00    2.7619667693047139E+00    1.3627165791120053E+01
N    1.7040609939948876E+00    2.7464445127823884E+00    1.5582070958305783E+01
Ga    1.5203514819711548E+00    4.5128202282505363E+00    1.6492828087532089E+01
N    7.9096224715536512E-02    7.3861702791397095E+00    2.6574533344989364E+00
Ga    8.6836841901010542E-02    5.5655064717234861E+00    3.3176506940838775E+00
N    7.5707237687728135E-02    5.5469595227345829E+00    5.2624483068135550E+00
Ga    8.7024050331561409E-02    7.3951120225797435E+00    5.8992031901445605E+00
N    7.9732915397634288E-02    7.3968439313657379E+00    7.8572024560814580E+00
Ga    8.0712819287201532E-02    5.5247496006407593E+00    8.4485479133257044E+00
N    7.8426908962954692E-02    5.5270099439303921E+00    1.0431103254336994E+01
Ga    8.0042636304961223E-02    7.3973976658288603E+00    1.1032571435110915E+01
N    7.9998253383389548E-02    7.3977526862312324E+00    1.2997577823588950E+01
Ga    7.9934444275180941E-02    5.5267296173155191E+00    1.3627164794978716E+01
N    7.9879515170696150E-02    5.5582298559874301E+00    1.5583036972420000E+01
Ga    8.0211408829830230E-02    7.3975883625182730E+00    1.5862301262002729E+01
N   -1.6410760590749025E+00    1.0110142753699799E+01    2.5286736027953407E+00
Ga   -1.4827945830304405E+00    8.2934625779136955E+00    3.3141646953990920E+00
N   -1.5233822186665815E+00    8.3169412466667438E+00    5.2520648048954932E+00
Ga   -1.5044740236650533E+00    1.0201538895787349E+01    5.8125480995158654E+00
N   -1.5205641250074000E+00    1.0186366353477840E+01    7.7989986992554075E+00
Ga   -1.5405519815297817E+00    8.3319965678169385E+00    8.4489156552183591E+00
N   -1.5411243825835934E+00    8.3313993889129634E+00    1.0430484799783780E+01
Ga   -1.5145999345126233E+00    1.0191980120105015E+01    1.1074982505643057E+01
N   -1.4954372979867090E+00    1.0201236466466636E+01    1.3060605661680890E+01
Ga   -1.5402376264393007E+00    8.3329598646389798E+00    1.3627637908429318E+01
N   -1.5128636855097224E+00    8.3169999319008365E+00    1.5583435071369971E+01
Ga   -1.6982535643066969E+00    1.0087145430860351E+01    1.6493546971496254E+01
N    6.5276135167363494E+00    1.9555511684379976E+00    2.5060593539681153E+00
Ga    6.5136004882884464E+00   -4.8098878600158032E-02    2.8601464833039079E+00
N    6.5077772428466902E+00   -2.9367232887881262E-02    5.0269469140022416E+00
Ga    6.5059692241428966E+00    1.7892619060320638E+00    5.8094092568431712E+00
N    6.5159915118318903E+00    1.8186961970523168E+00    7.7946834910118712E+00
Ga    6.5129634215858632E+00   -3.0763485929896781E-02    8.4482133735684446E+00
N    6.5129969347265853E+00   -3.0865548149372951E-02    1.0414280689454641E+01
Ga    6.5106096057209459E+00    1.8078520650456913E+00    1.1074514160084448E+01
N    6.5124193630692346E+00    1.7888342576770710E+00    1.3059649197850817E+01
Ga    6.5122718897572325E+00   -3.3023245913765251E-02    1.3875754286064609E+01
N    6.5122645482072929E+00   -2.2373917422148889E-02    1.6064852309639345E+01
Ga    6.5122121573657816E+00    2.0101181606391125E+00    1.6472438086318927E+01
Ga    6.4841578431088847E+00    3.6909432158894608E+00    1.3903562109428902E+00
N    5.0136545050209973E+00    4.5742937918054078E+00    2.5140981811672698E+00
Ga    4.8050263267771678E+00    2.7095739411869699E+00    3.2823122895636412E+00
N    4.9104373891486084E+00    2.7587992943011432E+00    5.2468333726605527E+00
Ga    4.8707660550113738E+00    4.6291637011000235E+00    5.8017702324072760E+00
N    4.9014727493104209E+00    4.6204548271797528E+00    7.7892016005637306E+00
Ga    4.9121699556668137E+00    2.7610704527375822E+00    8.4424240650817346E+00
N    4.9150312607027846E+00    2.7617377491139328E+00    1.0428071584129018E+01
Ga    4.8870079211171831E+00    4.6206949772689550E+00    1.1074680169593895E+01
N    4.8714270588636799E+00    4.6313318738787599E+00    1.3059944646669868E+01
Ga    4.9126483967381596E+00    2.7600965708427805E+00    1.3617583643275061E+01
N    4.8826263579069051E+00    2.7430805153979070E+00    1.5572675036250278E+01
Ga    5.0626921457367917E+00    4.5209015917117190E+00    1.6472553552371700E+01
N    6.5122061445536250E+00    3.6839884269931651E+00    1.7598616228951133E+01
N    3.3022991009245541E+00    7.4982543808581541E+00    2.5267347655019088E+00
N    3.2960364509144693E+00    5.5337866283507697E+00    5.0343203740406945E+00
Ga    3.2932520797285343E+00    7.3571820311314937E+00    5.7883159813726097E+00
N    3.3008348860216659E+00    7.3912715549295216E+00    7.7800993432937844E+00
Ga    3.2970287570997567E+00    5.5419015654636077E+00    8.4452872598794304E+00
N    3.2963886477377278E+00    5.5424786773995329E+00    1.0412894339324371E+01
Ga    3.2963966781835046E+00    7.3803076178406686E+00    1.1077304364502817E+01
N    3.2961197263786453E+00    7.3604999726532316E+00    1.3061678988608557E+01
Ga    3.2933166868394523E+00    5.5422633942126218E+00    1.3875803327949725E+01
N    3.3025798399075099E+00    5.5369625265997833E+00    1.6065017154458531E+01
Ga    3.2980355248928510E+00    7.5924524193646574E+00    1.6493838658328766E+01
Ga    3.3407264835046413E+00    9.1903514371835016E+00    1.1693368663140682E+00
N    1.8064375075946808E+00    1.0126484968495360E+01    2.4773628992793655E+00
Ga    1.6708451159528168E+00    8.3071551936507007E+00    3.2636600120737911E+00
N    1.6806584514977900E+00    8.3240912674196235E+00    5.2259685792504218E+00
Ga    1.6518200034990236E+00    1.0197025989759025E+01    5.8039233768695757E+00
N    1.6823325784418610E+00    1.0187529945045972E+01    7.7908481936872080E+00
Ga    1.7014449923208224E+00    8.3316053595070034E+00    8.4454178012123755E+00
N    1.7005141067315239E+00    8.3324475474905366E+00    1.0428176763765132E+01
Ga    1.6732493339678769E+00    1.0191082864745598E+01    1.1076469321579156E+01
N    1.6558080239252460E+00    1.0201368025594556E+01    1.3061035263539107E+01
Ga    1.7000010513050214E+00    8.3329773437339671E+00    1.3627620627662205E+01
N    1.6729882180372715E+00    8.3172606419432071E+00    1.5583214812017255E+01
Ga    1.8579435163272822E+00    1.0086934196133994E+01    1.6493812789546848E+01
N    3.3015504485156559E+00    9.2575131037836229E+00    1.7635118595814411E+01
N    9.7349322660986441E+00    1.8069126277230234E+00    2.6989105875708419E+00
Ga    9.7300297521805437E+00   -7.5430998388670109E-02    3.3052827679945795E+00
N    9.7262114920854561E+00   -9.6459376692024472E-03    5.2394353779743907E+00
Ga    9.7317268082981236E+00    1.8186712202135149E+00    5.9329380676030512E+00
N    9.7274845849017062E+00    1.8257042365616709E+00    7.8731332754137178E+00
Ga    9.7294953471389078E+00   -4.9792582862381328E-02    8.4507898495144325E+00
N    9.7299007817135887E+00   -4.5518632530712567E-02    1.0430406138755778E+01
Ga    9.7295999431211069E+00    1.8249911279758071E+00    1.1031020866527502E+01
N    9.7292532478675184E+00    1.8253046769289192E+00    1.2991744378578973E+01
Ga    9.7274346807298215E+00   -4.2132199392333591E-02    1.3628388071478254E+01
N    9.7277999605351813E+00   -1.1179428873266053E-02    1.5582642238067404E+01
Ga    9.7311251025062795E+00    1.8254429142970872E+00    1.5867299229862184E+01
N    8.0204914201412798E+00    4.5525891088998716E+00    2.5101299457671322E+00
Ga    8.1254163654963261E+00    2.7477133651179728E+00    3.3272470230025823E+00
N    8.1443173567893297E+00    2.7424987551240068E+00    5.2478184893598439E+00
Ga    8.1532401227988291E+00    4.6341332136519977E+00    5.8004768841540937E+00
N    8.1235769509542735E+00    4.6160849577355290E+00    7.7833001591543800E+00
Ga    8.1050525094949144E+00    2.7632641782186371E+00    8.4561306471848692E+00
N    8.1089056433539906E+00    2.7626907184032254E+00    1.0434686412828460E+01
Ga    8.1362553185398170E+00    4.6217242020083260E+00    1.1077986924616495E+01
N    8.1529661858701541E+00    4.6310719905878166E+00    1.3061327759870711E+01
Ga    8.1116077211560018E+00    2.7598915638254522E+00    1.3617912783505131E+01
N    8.1419784931679793E+00    2.7430849312428101E+00    1.5572734376010470E+01
Ga    7.9617349706444935E+00    4.5208921584260748E+00    1.6472604985669012E+01
N    6.4855408850606020E+00    7.4032830144576458E+00    2.5421083186872964E+00
Ga    6.5041839062202191E+00    5.5751135145041761E+00    3.3065863379990033E+00
N    6.5156159860687346E+00    5.5739189593500456E+00    5.2307255177002041E+00
Ga    6.5060173672027766E+00    7.4002311305024540E+00    5.9316260242842578E+00
N    6.5109288064123776E+00    7.3971410002013007E+00    7.8689710145634129E+00
Ga    6.5107351595319782E+00    5.5238538044746130E+00    8.4571216530987066E+00
N    6.5129103165800935E+00    5.5281258770161257E+00    1.0434651177534253E+01
Ga    6.5114761998803941E+00    7.3998390146605493E+00    1.1031587217120238E+01
N    6.5114418904184390E+00    7.3992653139272209E+00    1.2991850496935019E+01
Ga    6.5119554605006682E+00    5.5310272535177756E+00    1.3618235936746814E+01
N    6.5123100096747688E+00    5.5659838517842104E+00    1.5572958662355170E+01
Ga    6.5121173424530019E+00    7.4010008720816174E+00    1.5867669312008539E+01
N    4.8142914062288398E+00    1.0142917708071852E+01    2.4923018117328244E+00
Ga    4.8819978220926235E+00    8.3396126284632786E+00    3.2854632045590186E+00
N    4.9322058502862438E+00    8.3139519476954522E+00    5.2226246987972011E+00
Ga    4.9420846944567733E+00    1.0204745645156716E+01    5.7882320426051352E+00
N    4.9108201577646344E+00    1.0183532368521877E+01    7.7770763841049275E+00
Ga    4.8880191843808634E+00    8.3353184026640683E+00    8.4524253642737079E+00
N    4.8919728260696553E+00    8.3345065378248542E+00    1.0430578828108857E+01
Ga    4.9203652722565678E+00    1.0191889395236911E+01    1.1080918460291862E+01
N    4.9355705265670888E+00    1.0200978233143362E+01    1.3065210280653252E+01
Ga    4.8931166839869258E+00    8.3315059186125069E+00    1.3628740430993110E+01
N    4.9199441037099332E+00    8.3163269021843540E+00    1.5582949787347077E+01
Ga    4.7402451289749425E+00    1.0088265152844651E+01    1.6494730171099118E+01
O   -2.1346191204278546E-02    3.9972533259225762E+00   -4.6128114670153531E-01
H   -1.9640138544401795E-01    5.9851133088816129E+00   -3.4422972228651771E-01
C    1.1278019232430234E+00    3.6057362974983569E+00   -1.2333779173764974E+00
H    2.0817656710482706E+00    3.9441139266393059E+00   -7.9040076178186813E-01
H    1.1590580041363718E+00    2.5148525770859296E+00   -1.3541341147868386E+00
H    1.0323422936412596E+00    4.0862802160707687E+00   -2.2172411935790541E+00
Ga    3.2444409404120389E+00    5.5307253760733968E+00    2.8655621182499789E+00
O   -1.6949954087164254E-01    6.9301731203526664E+00   -1.6546972539389426E-02
H    1.9362152100652608E-02    7.2731897850825113E+00    1.5896595637888968E+00
C    6.2463482690493937E+00    7.4256389709243997E+00    1.1635047497340532E+00
H    6.4975305143872149E+00    8.3415306046315063E+00    5.4883886360775824E-01
H    9.7380420886191246E+00    1.8175595666646160E+00    1.6475095932492718E+00
H    5.5853989491666418E+00    6.6313167657615439E+00    6.8974590119393087E-01
     &END COORD
     &KIND C
       BASIS_SET DZVP-MOLOPT-SR-GTH-q4
       POTENTIAL GTH-PBE-q4
       &POTENTIAL
 2 2
  0.3384712400000000E+00 2 -0.8803673979999999E+01  0.1339210850000000E+01
 2
  0.3025757500000000E+00 1  0.9622486650000001E+01
  0.2915069400000000E+00 0
         # Potential name:  GTH-PBE-Q4  for symbol:  C
         # Potential read from the potential filename: GTH_POTENTIALS
       &END POTENTIAL
     &END KIND
     &KIND O
       BASIS_SET DZVP-MOLOPT-SR-GTH-q6
       POTENTIAL GTH-PBE-q6
       &POTENTIAL
 2 4
  0.2445543000000000E+00 2 -0.1666721480000000E+02  0.2487311320000000E+01
 2
  0.2209559200000000E+00 1  0.1833745811000000E+02
  0.2113324700000000E+00 0
         # Potential name:  GTH-PBE-Q6  for symbol:  O
         # Potential read from the potential filename: GTH_POTENTIALS
       &END POTENTIAL
     &END KIND
     &KIND H
       BASIS_SET DZVP-MOLOPT-SR-GTH-q1
       POTENTIAL GTH-PBE-q1
       &POTENTIAL
 1
  0.2000000000000000E+00 2 -0.4178900440000000E+01  0.7244633100000000E+00
 0
         # Potential name:  GTH-PBE-Q1  for symbol:  H
         # Potential read from the potential filename: GTH_POTENTIALS
       &END POTENTIAL
     &END KIND
     &KIND N
       BASIS_SET DZVP-MOLOPT-SR-GTH
       POTENTIAL GTH-PBE-q5
       &POTENTIAL
 2 3
  0.2837905100000000E+00 2 -0.1241522559000000E+02  0.1868095920000000E+01
 2
  0.2554050000000000E+00 1  0.1363026257000000E+02
  0.2454945300000000E+00 0
         # Potential name:  GTH-PBE-Q5  for symbol:  N
         # Potential read from the potential filename: GTH_POTENTIALS
       &END POTENTIAL
     &END KIND
     &KIND Ga
       BASIS_SET DZVP-MOLOPT-SR-GTH
       POTENTIAL GTH-PBE-q13
       &POTENTIAL
 2 1 10
  0.4900000000000000E+00 0
 3
  0.4167772300000000E+00 3  0.1047568975000000E+02 -0.4921768140000000E+01  0.8707055900000000E+00
  0.7770178090000000E+01 -0.2248152160000000E+01
  0.1784415450000000E+01
  0.5696265200000000E+00 2  0.1777985340000000E+01  0.1958597600000000E+00
 -0.2317443900000000E+00
  0.2381265000000000E+00 1 -0.1624868022000000E+02
         # Potential name:  GTH-PBE-Q13  for symbol:  GA
         # Potential read from the potential filename: GTH_POTENTIALS
       &END POTENTIAL
     &END KIND
     &TOPOLOGY
       NUMBER_OF_ATOMS  212
       MULTIPLE_UNIT_CELL  1 1 1
     &END TOPOLOGY
   &END SUBSYS
 &END FORCE_EVAL
