 # Version information for this restart file 
 # current date 2019-07-03 13:26:09.180
 # current working dir /lustre04/scratch/rzk/rzk/GaN-carbene/443-adatoms-both-2x2/08-CH3O-H2O-H2C-H/03-Use-0401
 # Program compiled at                              Sun Apr  7 00:48:11 EDT 2019
 # Program compiled on                          beluga2.int.ets1.calculquebec.ca
 # Program compiled for                        Beluga-Linux-x86-64-intel-openmpi
 # Source code revision number                                         svn:18619
 &GLOBAL
   PRINT_LEVEL  MEDIUM
   PROJECT_NAME TEST
   RUN_TYPE  GEO_OPT
 &END GLOBAL
 &MOTION
   &GEO_OPT
     MAX_ITER  500
     STEP_START_VAL  117
   &END GEO_OPT
 &END MOTION
 &FORCE_EVAL
   METHOD  QS
   STRESS_TENSOR  ANALYTICAL
   &DFT
     BASIS_SET_FILE_NAME BASIS_MOLOPT
     POTENTIAL_FILE_NAME GTH_POTENTIALS
     UKS  T
     SURFACE_DIPOLE_CORRECTION  T
     SURF_DIP_DIR  Z
     &SCF
       MAX_SCF  80
       EPS_SCF     5.0000000000000004E-06
       &OT  T
         PRECONDITIONER  FULL_ALL
       &END OT
       &OUTER_SCF  T
         OPTIMIZER  NONE
         EPS_SCF     5.0000000000000004E-06
         MAX_SCF  4
       &END OUTER_SCF
       &PRINT
         &RESTART  OFF
           BACKUP_COPIES  1
           &EACH
             JUST_ENERGY  0
             QS_SCF  0
             MD  20
           &END EACH
         &END RESTART
       &END PRINT
     &END SCF
     &QS
       EPS_DEFAULT     1.0000000000000000E-14
       METHOD  GPW
     &END QS
     &MGRID
       NGRIDS  5
       CUTOFF     1.2000000000000000E+03
     &END MGRID
     &XC
       DENSITY_CUTOFF     1.0000000000000000E-10
       GRADIENT_CUTOFF     1.0000000000000000E-10
       TAU_CUTOFF     1.0000000000000000E-10
       &XC_FUNCTIONAL  NO_SHORTCUT
         &PBE  T
         &END PBE
       &END XC_FUNCTIONAL
       &VDW_POTENTIAL
         POTENTIAL_TYPE  PAIR_POTENTIAL
         &PAIR_POTENTIAL
           R_CUTOFF     1.0000000000000004E+01
           TYPE  DFTD3
           PARAMETER_FILE_NAME dftd3.dat
           REFERENCE_FUNCTIONAL PBE
           EPS_CN     9.9999999999999995E-07
           CALCULATE_C9_TERM  T
           REFERENCE_C9_TERM  T
           LONG_RANGE_CORRECTION  F
           VERBOSE_OUTPUT  F
         &END PAIR_POTENTIAL
       &END VDW_POTENTIAL
     &END XC
   &END DFT
   &SUBSYS
     &CELL
       A     1.2864472766435110E+01    0.0000000000000000E+00    0.0000000000000000E+00
       B    -6.4322363581020028E+00    1.1140960178524473E+01    0.0000000000000000E+00
       C     0.0000000000000000E+00    0.0000000000000000E+00    3.2000000000000000E+01
       MULTIPLE_UNIT_CELL  1 1 1
       &CELL_REF
         A     1.2982353780853531E+01    0.0000000000000000E+00    0.0000000000000000E+00
         B    -6.4911768904267628E+00    1.1243048175136114E+01    0.0000000000000000E+00
         C     0.0000000000000000E+00    0.0000000000000000E+00    3.2000000000000000E+01
         MULTIPLE_UNIT_CELL  1 1 1
       &END CELL_REF
     &END CELL
     &COORD
N    1.1170424127747025E-01    1.9515901230603536E+00    2.5154715555647096E+00
Ga    1.3398522703763543E-01   -1.6236113683293946E-02    2.8702183927479896E+00
N    1.3125968135189384E-01   -3.5664368340859579E-02    5.0489831992599017E+00
Ga    1.1905211471217289E-01    1.7835559774111822E+00    5.8084475979901624E+00
N    1.0878981474811567E-01    1.8006593427383977E+00    7.8049325689329692E+00
Ga    1.0707669186850158E-01   -4.9391778063462836E-02    8.4338274287263051E+00
N    1.0924721400772877E-01   -4.9227135958512649E-02    1.0410586585655892E+01
Ga    1.1135189452770455E-01    1.7902904250363090E+00    1.1064371639489144E+01
N    1.1118997525421803E-01    1.7714399992233489E+00    1.3059252451571000E+01
Ga    1.1134600798764337E-01   -4.8174605045893062E-02    1.3871601498935943E+01
N    1.1111688502435693E-01   -4.7827327434855280E-02    1.6062380610598005E+01
Ga    1.1149705102833175E-01    1.9989034586163881E+00    1.6484901854257664E+01
Ga    1.3489201284926550E-01    3.6622748653859687E+00    1.3344994269480577E+00
N   -1.3781102371335974E+00    4.5292644646494198E+00    2.5027636848478498E+00
Ga   -1.4950210987773322E+00    2.7305718367883061E+00    3.3093864418027259E+00
N   -1.5100789151606595E+00    2.7324972484840617E+00    5.2528863821350651E+00
Ga   -1.5248770785476202E+00    4.6107993797033080E+00    5.8087783578688796E+00
N   -1.5054788817014237E+00    4.5992136971934059E+00    7.8002054294475585E+00
Ga   -1.4883646133699600E+00    2.7409795552021494E+00    8.4364963128362529E+00
N   -1.4874080896487045E+00    2.7434537937732557E+00    1.0429344632333951E+01
Ga   -1.5115533647478767E+00    4.6029588978743980E+00    1.1062893557323802E+01
N   -1.5274298781662015E+00    4.6128529807207244E+00    1.3055460969516847E+01
Ga   -1.4850758429370539E+00    2.7443242437700825E+00    1.3615132096951474E+01
N   -1.5197648652137259E+00    2.7321096507104765E+00    1.5574636660069068E+01
Ga   -1.3177959142902445E+00    4.4937281787988654E+00    1.6486369740930336E+01
N    1.1142530372978332E-01    3.6559101606843183E+00    1.7628558840471456E+01
N   -3.0919693981236525E+00    7.5113685599571660E+00    2.5033740093813450E+00
Ga   -3.0856688661816025E+00    5.5282644605221956E+00    2.8601511115553571E+00
N   -3.0983681399058849E+00    5.5254645364115476E+00    5.0359780381371424E+00
Ga   -3.0984892445824439E+00    7.3428151945630562E+00    5.8036792558239467E+00
N   -3.1062326292839293E+00    7.3715326771697578E+00    7.7933670648730544E+00
Ga   -3.1063722057266441E+00    5.5225353078279671E+00    8.4371629022697388E+00
N   -3.1058773206758836E+00    5.5232611386595902E+00    1.0411608040376930E+01
Ga   -3.1050281291804938E+00    7.3633186244625231E+00    1.1062881805569182E+01
N   -3.1044645025197508E+00    7.3445291232314913E+00    1.3055054074286597E+01
Ga   -3.0952339572805752E+00    5.5286503755270600E+00    1.3855860107582654E+01
N   -3.0938336474871648E+00    5.5296097257298946E+00    1.6061687405041983E+01
Ga   -3.1025830459053791E+00    7.5866616127511843E+00    1.6488140863478087E+01
Ga   -3.0997823445896588E+00    9.3247313299621517E+00    1.3132501580027707E+00
N   -4.5902989270875958E+00    1.0110541051310236E+01    2.4955318941826450E+00
Ga   -4.6587979879168397E+00    8.3578550133495284E+00    3.3171700026774609E+00
N   -4.7279587719635945E+00    8.3005419198225727E+00    5.2395833350194447E+00
Ga   -4.7354641055910180E+00    1.0193424804892823E+01    5.8114267141205671E+00
N   -4.7208125808797181E+00    1.0166464575066668E+01    7.8025260965011896E+00
Ga   -4.7059931844701772E+00    8.3135995243504599E+00    8.4339889222474085E+00
N   -4.7039801224261488E+00    8.3128674968027312E+00    1.0425721412793310E+01
Ga   -4.7291817553642126E+00    1.0174203119231160E+01    1.1063757805770280E+01
N   -4.7451367294868945E+00    1.0183165170569714E+01    1.3058437249306325E+01
Ga   -4.7009790429880294E+00    8.3149678658264961E+00    1.3616316797882366E+01
N   -4.7294139682810235E+00    8.2911413768560429E+00    1.5575056719626570E+01
Ga   -4.5469933302918593E+00    1.0069790558290054E+01    1.6486580209219358E+01
N   -3.1130684893675866E+00    9.2419409043938163E+00    1.7630884812933687E+01
N    3.3195209841790740E+00    1.8101169349170729E+00    2.6463772850123037E+00
Ga    3.3327099023858571E+00    5.2308769212955609E-02    3.2805763262030307E+00
N    3.3300454350064967E+00   -5.1883174824308230E-02    5.2593762947858336E+00
Ga    3.3294265814270090E+00    1.8113735811451901E+00    5.8587175105923119E+00
N    3.3298205058260471E+00    1.8100541525403753E+00    7.8459528720699518E+00
Ga    3.3293257787102637E+00   -5.5733346338998915E-02    8.4338465159800933E+00
N    3.3271312710324423E+00   -6.0021258904863102E-02    1.0429364173583444E+01
Ga    3.3281518992360679E+00    1.8090146515759598E+00    1.1021238007368204E+01
N    3.3304238970969844E+00    1.8108467430848874E+00    1.2995189735105189E+01
Ga    3.3282471016564537E+00   -6.1409617499873857E-02    1.3614686933669637E+01
N    3.3340609211228398E+00   -2.5067178848991539E-02    1.5573994418232269E+01
Ga    3.3260518036084910E+00    1.8082749082787866E+00    1.5853968775804553E+01
N    1.5990642317891384E+00    4.5264875833909608E+00    2.5258689427116878E+00
Ga    1.7925871426047784E+00    2.6963440334899396E+00    3.2769482802330545E+00
N    1.7183669800355890E+00    2.7387980204403704E+00    5.2631252529989343E+00
Ga    1.7444095836094156E+00    4.5998213691183487E+00    5.8134193810027215E+00
N    1.7256054134283285E+00    4.6006710672977764E+00    7.8083564609138589E+00
Ga    1.7122539718849203E+00    2.7410934899060382E+00    8.4353557853640950E+00
N    1.7092703842418153E+00    2.7427712442039245E+00    1.0431007174128130E+01
Ga    1.7350069928166294E+00    4.6034518653267034E+00    1.1059465941574674E+01
N    1.7504532485909845E+00    4.6132594465484127E+00    1.3053494610501819E+01
Ga    1.7077639912756923E+00    2.7451198026863670E+00    1.3614471361823053E+01
N    1.7422088307386707E+00    2.7323344157099609E+00    1.5574239163862185E+01
Ga    1.5407508079304633E+00    4.4937396304072177E+00    1.6485877326597901E+01
N    1.0323506805527405E-01    7.3727245801633732E+00    2.6703384416363183E+00
Ga    1.1985985591981876E-01    5.5238051697314843E+00    3.3182953396696031E+00
N    1.0978389929580820E-01    5.5379644737539921E+00    5.2600923855152129E+00
Ga    1.2444456545905946E-01    7.3893070267259517E+00    5.8775450691353557E+00
N    1.1447679798033721E-01    7.3824712391469536E+00    7.8465807775077154E+00
Ga    1.1203767660162922E-01    5.5136304572632238E+00    8.4381879300224245E+00
N    1.1030402782218876E-01    5.5116925386374804E+00    1.0429192388652343E+01
Ga    1.1353072028988956E-01    7.3811097033612096E+00    1.1019454501243372E+01
N    1.1246632086638357E-01    7.3808163865905394E+00    1.2989313666051711E+01
Ga    1.1199115177073962E-01    5.5118295555878429E+00    1.3613201080207098E+01
N    1.1138043388055147E-01    5.5427593432566509E+00    1.5571558665840351E+01
Ga    1.1150939893659748E-01    7.3797649571189554E+00    1.5851290368642132E+01
N   -1.6192742550027213E+00    1.0095843924307990E+01    2.4990128959745452E+00
Ga   -1.4872813570531191E+00    8.3128886733653715E+00    3.3039944612453418E+00
N   -1.4845165628682730E+00    8.3029288575425788E+00    5.2486819459933409E+00
Ga   -1.4709261255918737E+00    1.0185412899958141E+01    5.8079927879604663E+00
N   -1.4868894352353872E+00    1.0167753063522809E+01    7.8029492164911192E+00
Ga   -1.5046960498023065E+00    8.3149100147826474E+00    8.4362379838207939E+00
N   -1.5075533484975832E+00    8.3131268951861639E+00    1.0427243382415718E+01
Ga   -1.4806883672669957E+00    1.0173862452485722E+01    1.1059567978480176E+01
N   -1.4650200600523149E+00    1.0182357076083026E+01    1.3053434646096415E+01
Ga   -1.5063179559991646E+00    8.3144980900036281E+00    1.3613969058264676E+01
N   -1.4792998883752979E+00    8.2980698709658576E+00    1.5571870611007265E+01
Ga   -1.6742225649818918E+00    1.0060243779929921E+01    1.6487247681543771E+01
N    6.5374948657825023E+00    1.9202785085384142E+00    2.5155196862240539E+00
Ga    6.5262973471607681E+00   -5.1636446580290374E-02    2.8650073261852289E+00
N    6.5316338143688153E+00   -4.5403109345079865E-02    5.0396318406209621E+00
Ga    6.5394771809661210E+00    1.7772998943835228E+00    5.7941526095999398E+00
N    6.5469742198622791E+00    1.8005890351689720E+00    7.7939009444664142E+00
Ga    6.5500849780702239E+00   -4.9298105508755616E-02    8.4296863305651435E+00
N    6.5466911202489237E+00   -4.7989840945553745E-02    1.0408725910398894E+01
Ga    6.5447409401997438E+00    1.7905265089567743E+00    1.1059090786723729E+01
N    6.5443338719617836E+00    1.7704870570945181E+00    1.3060266509201711E+01
Ga    6.5441700294070726E+00   -5.8595330212364120E-02    1.3852924297352768E+01
N    6.5438555915769419E+00   -6.0462419150815204E-02    1.6060815581316263E+01
Ga    6.5435105971910916E+00    1.9407220969065979E+00    1.6425922529068608E+01
Ga    6.4675103091678272E+00    3.5809274557648840E+00    1.2153709985787386E+00
N    5.0179984156609132E+00    4.5292477559613866E+00    2.4971544318022696E+00
Ga    4.8507315006986413E+00    2.6879516340634280E+00    3.2574139501336230E+00
N    4.9419946395097325E+00    2.7410348986880941E+00    5.2449444131310408E+00
Ga    4.9035438784581356E+00    4.6014773227302959E+00    5.8038443200333285E+00
N    4.9325316002628323E+00    4.6011940949592409E+00    7.7976147645523355E+00
Ga    4.9461961699141339E+00    2.7411346171941684E+00    8.4306854960065412E+00
N    4.9479416866475505E+00    2.7446199374525158E+00    1.0428810240933807E+01
Ga    4.9199674573032395E+00    4.6045432905244681E+00    1.1058721154016379E+01
N    4.9026268441594141E+00    4.6145195533669732E+00    1.3059744432970861E+01
Ga    4.9472349788947216E+00    2.7443422141521072E+00    1.3605062549155225E+01
N    4.9293346036339720E+00    2.7344677290165658E+00    1.5583688910802060E+01
Ga    5.0494223056692364E+00    4.5288032445196302E+00    1.6426031457595972E+01
N    6.5433621212956474E+00    3.6658883925519397E+00    1.7547505751596844E+01
N    3.3091326393209526E+00    7.4112417596452849E+00    2.4863737879091614E+00
N    3.3241889067439496E+00    5.5043393884565033E+00    5.0598639911967984E+00
Ga    3.3165800666797276E+00    7.3377613398993171E+00    5.7697340933972034E+00
N    3.3296211965248657E+00    7.3745993573087043E+00    7.7715142995819848E+00
Ga    3.3286684181051975E+00    5.5275719984862031E+00    8.4308353561305580E+00
N    3.3289703594747362E+00    5.5260160568398256E+00    1.0408787960134564E+01
Ga    3.3282788381027357E+00    7.3650886609155330E+00    1.1058810588791669E+01
N    3.3275584442341031E+00    7.3454544086958657E+00    1.3052056645685253E+01
Ga    3.3183577789951699E+00    5.5289073833791704E+00    1.3852334262619811E+01
N    3.3164907974971345E+00    5.5299032567743511E+00    1.6060837359973675E+01
Ga    3.3252190785516387E+00    7.5863159654166523E+00    1.6488241152543559E+01
Ga    3.0708769180359159E+00    9.3734518074888200E+00    6.9897242627536327E-01
N    1.7709027360543861E+00    1.0131511801886441E+01    2.4654044720110297E+00
Ga    1.7340744711216167E+00    8.3192397583326194E+00    3.2047049257163018E+00
N    1.7106901919273878E+00    8.3042192564315211E+00    5.1927862440183352E+00
Ga    1.6931090671893445E+00    1.0181309051804110E+01    5.7622550937420529E+00
N    1.7148421366373126E+00    1.0169052620582988E+01    7.7711681937629109E+00
Ga    1.7339646792730294E+00    8.3188088571552736E+00    8.4239513671051913E+00
N    1.7321976734815032E+00    8.3153165019247677E+00    1.0418848305212336E+01
Ga    1.7069261489832015E+00    1.0173039616449913E+01    1.1058898037209541E+01
N    1.6895587068164060E+00    1.0182098865150682E+01    1.3052363249345181E+01
Ga    1.7304099542551605E+00    8.3145076818401655E+00    1.3614205343003665E+01
N    1.7023752572004660E+00    8.2982652800728616E+00    1.5571752021727058E+01
Ga    1.8967740894418255E+00    1.0060124930287268E+01    1.6487867523645839E+01
N    3.3356366448949162E+00    9.2417390612639334E+00    1.7631600238852759E+01
N    9.7619540934853859E+00    1.8190672386235047E+00    2.6566231573362931E+00
Ga    9.7575396338723994E+00   -6.4980534837742479E-02    3.1974568687525475E+00
N    9.7591862010036099E+00   -3.7121749350938801E-02    5.1868597079708998E+00
Ga    9.7564523557585101E+00    1.7957073256905884E+00    5.8674450138753658E+00
N    9.7582184612433842E+00    1.8070276099049989E+00    7.8396436985615585E+00
Ga    9.7593403632673859E+00   -6.3083397942969063E-02    8.4220047744370863E+00
N    9.7613781909492001E+00   -6.0940451358667505E-02    1.0418852455293079E+01
Ga    9.7598364195352723E+00    1.8070781071679600E+00    1.1019102027861544E+01
N    9.7571574713392479E+00    1.8097837436472961E+00    1.2992746222738553E+01
Ga    9.7593798977451307E+00   -6.1436808918540427E-02    1.3615846620482664E+01
N    9.7531330703596009E+00   -2.5015119133498829E-02    1.5574540944239899E+01
Ga    9.7613376769963143E+00    1.8080889979370096E+00    1.5856101594958766E+01
N    8.0702714537308360E+00    4.5391249169766308E+00    2.5095528910993203E+00
Ga    8.1518648774476929E+00    2.7326863954013025E+00    3.2772847212139959E+00
N    8.1615807692901612E+00    2.7324703780403237E+00    5.2294211414067648E+00
Ga    8.1865562672734349E+00    4.6105171816964976E+00    5.7887146727826382E+00
N    8.1577934449582710E+00    4.6006216471395076E+00    7.7837880738396645E+00
Ga    8.1415068394297414E+00    2.7425838260639321E+00    8.4302349795967082E+00
N    8.1419577579198759E+00    2.7456736246093647E+00    1.0426124859822785E+01
Ga    8.1677722493229989E+00    4.6038846901737998E+00    1.1062813959036024E+01
N    8.1849589784707852E+00    4.6140260671455895E+00    1.3062094472424002E+01
Ga    8.1409167086586596E+00    2.7434941308121892E+00    1.3606179829299347E+01
N    8.1584155915299394E+00    2.7341313438496719E+00    1.5584424292234578E+01
Ga    8.0374086678636942E+00    4.5287000017805763E+00    1.6426636722799600E+01
N    6.7111834330014846E+00    7.2918389165909581E+00    2.4574195130907541E+00
Ga    6.5257528099421913E+00    5.4464680444118345E+00    3.2846177646717596E+00
N    6.5424084369423214E+00    5.5398210787099469E+00    5.2177126562014084E+00
Ga    6.5319545415351472E+00    7.3831476073400761E+00    5.8577884620165426E+00
N    6.5396426393387239E+00    7.3810295750611381E+00    7.8266906782410119E+00
Ga    6.5438542315329027E+00    5.5136684110631826E+00    8.4317771388349936E+00
N    6.5455079657827966E+00    5.5123248094216004E+00    1.0425667550180435E+01
Ga    6.5420548689162556E+00    7.3812161171006121E+00    1.1020838227238686E+01
N    6.5428137752128075E+00    7.3777855058999560E+00    1.2993208113717579E+01
Ga    6.5432487015291354E+00    5.5109792817476437E+00    1.3606517712094560E+01
N    6.5435643981072902E+00    5.5307509020504959E+00    1.5584406713019561E+01
Ga    6.5434689904675416E+00    7.3818500655890782E+00    1.5856552225140673E+01
N    4.9042657361644801E+00    1.0165197667826869E+01    2.4837002662852288E+00
Ga    4.7059659334007993E+00    8.4416756641229078E+00    3.2452518198543578E+00
N    4.9464552974522205E+00    8.3028929868078212E+00    5.1768993052616441E+00
Ga    4.9699118540260487E+00    1.0198829610345538E+01    5.7640975669972390E+00
N    4.9423025576438828E+00    1.0167890803707671E+01    7.7679260899564477E+00
Ga    4.9224922384033620E+00    8.3175599898507500E+00    8.4224305335758434E+00
N    4.9258590932126012E+00    8.3155013044282899E+00    1.0417555761904591E+01
Ga    4.9505182229389479E+00    1.0173596816736781E+01    1.1063712131995381E+01
N    4.9671258905590578E+00    1.0182946657987451E+01    1.3057781116686256E+01
Ga    4.9230262768561222E+00    8.3149441084640259E+00    1.3616666705059920E+01
N    4.9517643836108114E+00    8.2912626337767428E+00    1.5575101925169967E+01
Ga    4.7697101091373453E+00    1.0069624044870762E+01    1.6487234768057323E+01
O    1.1099219556633512E-01    3.7552236934948113E+00   -4.7584985633477750E-01
H   -2.7563264165928163E+00    8.6022318894896070E+00   -8.9380948474884958E-01
C    1.3120354969836887E+00    3.3245065727606558E+00   -1.1431646061914209E+00
H    2.2023789121610999E+00    3.8762775142828656E+00   -7.9829788742421426E-01
H    1.5008823578192831E+00    2.2474495969726371E+00   -1.0075635409357637E+00
H    1.1766527073816557E+00    3.5218497042042496E+00   -2.2163381656356202E+00
Ga    3.3005146881384322E+00    5.4979249796990421E+00    2.8935315947531275E+00
O   -3.3676286408677125E+00    9.2341454459086965E+00   -4.8095399329674893E-01
H    6.8695455746455233E-02    7.3357074713224346E+00    1.6445590746818219E+00
C    6.4705487662554813E+00    7.4521666375794462E+00    1.1986289241604389E+00
H    6.8385203521419209E+00    8.3314240460568882E+00    6.5012423485607063E-01
H    9.7808613594755371E+00    1.8636383594634425E+00    1.6306980854327091E+00
H    5.8675874404649706E+00    6.7200434460051204E+00    6.4201257320656790E-01
     &END COORD
     &KIND C
       BASIS_SET DZVP-MOLOPT-SR-GTH-q4
       POTENTIAL GTH-PBE-q4
       &POTENTIAL
 2 2
  0.3384712400000000E+00 2 -0.8803673979999999E+01  0.1339210850000000E+01
 2
  0.3025757500000000E+00 1  0.9622486650000001E+01
  0.2915069400000000E+00 0
         # Potential name:  GTH-PBE-Q4  for symbol:  C
         # Potential read from the potential filename: GTH_POTENTIALS
       &END POTENTIAL
     &END KIND
     &KIND O
       BASIS_SET DZVP-MOLOPT-SR-GTH-q6
       POTENTIAL GTH-PBE-q6
       &POTENTIAL
 2 4
  0.2445543000000000E+00 2 -0.1666721480000000E+02  0.2487311320000000E+01
 2
  0.2209559200000000E+00 1  0.1833745811000000E+02
  0.2113324700000000E+00 0
         # Potential name:  GTH-PBE-Q6  for symbol:  O
         # Potential read from the potential filename: GTH_POTENTIALS
       &END POTENTIAL
     &END KIND
     &KIND H
       BASIS_SET DZVP-MOLOPT-SR-GTH-q1
       POTENTIAL GTH-PBE-q1
       &POTENTIAL
 1
  0.2000000000000000E+00 2 -0.4178900440000000E+01  0.7244633100000000E+00
 0
         # Potential name:  GTH-PBE-Q1  for symbol:  H
         # Potential read from the potential filename: GTH_POTENTIALS
       &END POTENTIAL
     &END KIND
     &KIND N
       BASIS_SET DZVP-MOLOPT-SR-GTH
       POTENTIAL GTH-PBE-q5
       &POTENTIAL
 2 3
  0.2837905100000000E+00 2 -0.1241522559000000E+02  0.1868095920000000E+01
 2
  0.2554050000000000E+00 1  0.1363026257000000E+02
  0.2454945300000000E+00 0
         # Potential name:  GTH-PBE-Q5  for symbol:  N
         # Potential read from the potential filename: GTH_POTENTIALS
       &END POTENTIAL
     &END KIND
     &KIND Ga
       BASIS_SET DZVP-MOLOPT-SR-GTH
       POTENTIAL GTH-PBE-q13
       &POTENTIAL
 2 1 10
  0.4900000000000000E+00 0
 3
  0.4167772300000000E+00 3  0.1047568975000000E+02 -0.4921768140000000E+01  0.8707055900000000E+00
  0.7770178090000000E+01 -0.2248152160000000E+01
  0.1784415450000000E+01
  0.5696265200000000E+00 2  0.1777985340000000E+01  0.1958597600000000E+00
 -0.2317443900000000E+00
  0.2381265000000000E+00 1 -0.1624868022000000E+02
         # Potential name:  GTH-PBE-Q13  for symbol:  GA
         # Potential read from the potential filename: GTH_POTENTIALS
       &END POTENTIAL
     &END KIND
     &TOPOLOGY
       NUMBER_OF_ATOMS  212
       MULTIPLE_UNIT_CELL  1 1 1
     &END TOPOLOGY
   &END SUBSYS
 &END FORCE_EVAL
