 # Version information for this restart file 
 # current date 2019-07-03 07:25:34.927
 # current working dir /lustre04/scratch/rzk/rzk/GaN-carbene/443-adatoms-both-2x2/08-CH3O-H2O-H2C-H/03-Use-0401
 # Program compiled at                              Sun Apr  7 00:48:11 EDT 2019
 # Program compiled on                          beluga2.int.ets1.calculquebec.ca
 # Program compiled for                        Beluga-Linux-x86-64-intel-openmpi
 # Source code revision number                                         svn:18619
 &GLOBAL
   PRINT_LEVEL  MEDIUM
   PROJECT_NAME TEST
   RUN_TYPE  GEO_OPT
 &END GLOBAL
 &MOTION
   &GEO_OPT
     MAX_ITER  500
     STEP_START_VAL  3
   &END GEO_OPT
 &END MOTION
 &FORCE_EVAL
   METHOD  QS
   STRESS_TENSOR  ANALYTICAL
   &DFT
     BASIS_SET_FILE_NAME BASIS_MOLOPT
     POTENTIAL_FILE_NAME GTH_POTENTIALS
     UKS  T
     SURFACE_DIPOLE_CORRECTION  T
     SURF_DIP_DIR  Z
     &SCF
       MAX_SCF  80
       EPS_SCF     5.0000000000000004E-06
       &OT  T
         PRECONDITIONER  FULL_ALL
       &END OT
       &OUTER_SCF  T
         OPTIMIZER  NONE
         EPS_SCF     5.0000000000000004E-06
         MAX_SCF  4
       &END OUTER_SCF
       &PRINT
         &RESTART  OFF
           BACKUP_COPIES  1
           &EACH
             JUST_ENERGY  0
             QS_SCF  0
             MD  20
           &END EACH
         &END RESTART
       &END PRINT
     &END SCF
     &QS
       EPS_DEFAULT     1.0000000000000000E-14
       METHOD  GPW
     &END QS
     &MGRID
       NGRIDS  5
       CUTOFF     1.2000000000000000E+03
     &END MGRID
     &XC
       DENSITY_CUTOFF     1.0000000000000000E-10
       GRADIENT_CUTOFF     1.0000000000000000E-10
       TAU_CUTOFF     1.0000000000000000E-10
       &XC_FUNCTIONAL  NO_SHORTCUT
         &PBE  T
         &END PBE
       &END XC_FUNCTIONAL
       &VDW_POTENTIAL
         POTENTIAL_TYPE  PAIR_POTENTIAL
         &PAIR_POTENTIAL
           R_CUTOFF     1.0000000000000004E+01
           TYPE  DFTD3
           PARAMETER_FILE_NAME dftd3.dat
           REFERENCE_FUNCTIONAL PBE
           EPS_CN     9.9999999999999995E-07
           CALCULATE_C9_TERM  T
           REFERENCE_C9_TERM  T
           LONG_RANGE_CORRECTION  F
           VERBOSE_OUTPUT  F
         &END PAIR_POTENTIAL
       &END VDW_POTENTIAL
     &END XC
   &END DFT
   &SUBSYS
     &CELL
       A     1.2864472766435110E+01    0.0000000000000000E+00    0.0000000000000000E+00
       B    -6.4322363581020028E+00    1.1140960178524473E+01    0.0000000000000000E+00
       C     0.0000000000000000E+00    0.0000000000000000E+00    3.2000000000000000E+01
       MULTIPLE_UNIT_CELL  1 1 1
       &CELL_REF
         A     1.2982353780853531E+01    0.0000000000000000E+00    0.0000000000000000E+00
         B    -6.4911768904267628E+00    1.1243048175136114E+01    0.0000000000000000E+00
         C     0.0000000000000000E+00    0.0000000000000000E+00    3.2000000000000000E+01
         MULTIPLE_UNIT_CELL  1 1 1
       &END CELL_REF
     &END CELL
     &COORD
N    7.1201107267215000E-02    1.9823630264766094E+00    2.4724565960556517E+00
Ga    8.2129070750110847E-02    1.5868114190897366E-02    2.8555064124115179E+00
N    8.8633736562080317E-02   -2.3220128929720554E-02    5.0207392699454880E+00
Ga    9.0609681349852450E-02    1.7947858116200182E+00    5.8156913077110381E+00
N    7.6201470089283560E-02    1.8153633433238787E+00    7.7994164789204374E+00
Ga    7.9521763640570703E-02   -3.1834987033122306E-02    8.4465343975177660E+00
N    7.8159135674302091E-02   -3.2204424819732298E-02    1.0411753058172705E+01
Ga    8.2103425821393600E-02    1.8070475605681842E+00    1.1080929198232139E+01
N    7.9943915233115864E-02    1.7881970439781099E+00    1.3064264881627876E+01
Ga    8.0129067912728821E-02   -2.9895089323003467E-02    1.3886885031659819E+01
N    7.9651512260214261E-02   -3.0168579447062908E-02    1.6070059775291256E+01
Ga    7.9722833680417035E-02    2.0174959445217304E+00    1.6492709600595532E+01
Ga    9.1425124090947427E-02    3.7570255215834925E+00    1.3238830360982619E+00
N   -1.4155275865457078E+00    4.5295412374143762E+00    2.5318842779099215E+00
Ga   -1.4908550640430429E+00    2.7569311486667347E+00    3.3346520744927797E+00
N   -1.5471100952475083E+00    2.7392020691499614E+00    5.2571856078223105E+00
Ga   -1.5571595261719171E+00    4.6289362471191167E+00    5.8147173285570313E+00
N   -1.5394958553349924E+00    4.6141708108278161E+00    7.7964948443398256E+00
Ga   -1.5130617685154439E+00    2.7623192865922213E+00    8.4600148597987079E+00
N   -1.5150751029730467E+00    2.7626012451766315E+00    1.0436032662759926E+01
Ga   -1.5439827367361811E+00    4.6228340191447357E+00    1.1081201618877781E+01
N   -1.5619654849319331E+00    4.6318248823094752E+00    1.3063880571585862E+01
Ga   -1.5181084578025357E+00    2.7612031199488301E+00    1.3627641427489671E+01
N   -1.5441094593543201E+00    2.7454869062646385E+00    1.5580813067550803E+01
Ga   -1.3605202897912989E+00    4.5132104373173823E+00    1.6491237438998112E+01
N    7.9418511100309827E-02    3.6783856899636382E+00    1.7634900973328879E+01
N   -3.1748502623492363E+00    7.5140985717329380E+00    2.5250006817597925E+00
Ga   -3.0937730861427677E+00    5.5300424183927053E+00    2.8607893777009132E+00
N   -3.1346003243538996E+00    5.5402588534507835E+00    5.0225273442109648E+00
Ga   -3.1394510980321084E+00    7.3599127966349442E+00    5.8026340523594397E+00
N   -3.1440145040358844E+00    7.3900524334768214E+00    7.7851991163673295E+00
Ga   -3.1375157613459308E+00    5.5410912120719029E+00    8.4472295658396064E+00
N   -3.1377570554450411E+00    5.5409531807237764E+00    1.0410114553418508E+01
Ga   -3.1355148814521874E+00    7.3787166801189930E+00    1.1082042343218340E+01
N   -3.1363894621474175E+00    7.3587887948662942E+00    1.3063848318097468E+01
Ga   -3.1366874031981014E+00    5.5404031238317994E+00    1.3885207448284978E+01
N   -3.1408058729704655E+00    5.5380875378093117E+00    1.6065990938148325E+01
Ga   -3.1380770730588368E+00    7.5924775779984115E+00    1.6491986693569263E+01
Ga   -3.0744802715336021E+00    9.2488750885323494E+00    1.3627456156034856E+00
N   -4.6427300461848615E+00    1.0105245877299266E+01    2.4625174233975451E+00
Ga   -4.7789785281962098E+00    8.3410602430327874E+00    3.2865508844467004E+00
N   -4.7823866007584357E+00    8.3077330477733096E+00    5.2120076555259702E+00
Ga   -4.7733632978259681E+00    1.0205252357371888E+01    5.8043381854778531E+00
N   -4.7550163509152030E+00    1.0179469917181731E+01    7.7884281399009589E+00
Ga   -4.7305100190456937E+00    8.3351817790770255E+00    8.4626181206844073E+00
N   -4.7321316283169734E+00    8.3331391569252684E+00    1.0435152930158772E+01
Ga   -4.7602241203357707E+00    1.0193842941976154E+01    1.1081649852983311E+01
N   -4.7774254319566021E+00    1.0201625468038465E+01    1.3064175873828873E+01
Ga   -4.7341746024304383E+00    8.3316033247111303E+00    1.3628560198301175E+01
N   -4.7608489679553099E+00    8.3170903133170313E+00    1.5581266186735201E+01
Ga   -4.5789451364272065E+00    1.0087113431553554E+01    1.6493626624107662E+01
N   -3.1408454514182740E+00    9.2565591332402573E+00    1.7635753735255008E+01
N    3.2909249990643090E+00    1.8289501764824760E+00    2.6272426105986151E+00
Ga    3.2953537894543832E+00    7.0892290781896503E-02    3.2685289303317715E+00
N    3.2915760481780616E+00   -3.8067339296531021E-02    5.2387788758904668E+00
Ga    3.2910050390482124E+00    1.8277123568684315E+00    5.8667975401031418E+00
N    3.2956992118098696E+00    1.8258302105123643E+00    7.8391374443743027E+00
Ga    3.2950465118709777E+00   -3.9978846365453513E-02    8.4431138839147923E+00
N    3.2938013710245353E+00   -4.4468805992425448E-02    1.0425765286645040E+01
Ga    3.2944655362533224E+00    1.8260285941293095E+00    1.1030211182850739E+01
N    3.2947239128398169E+00    1.8258683532423761E+00    1.2989805726692452E+01
Ga    3.2965463697344251E+00   -4.1625258841964802E-02    1.3628168271632781E+01
N    3.2952674535633877E+00   -1.1141447548666075E-02    1.5581354326586579E+01
Ga    3.2948081741639426E+00    1.8264071351163700E+00    1.5864294543764297E+01
N    1.5646110868311964E+00    4.5418358323009347E+00    2.5381533994660628E+00
Ga    1.7595188155174675E+00    2.7163169365799615E+00    3.2650305455374391E+00
N    1.6833471487492135E+00    2.7509750456438087E+00    5.2469047974890861E+00
Ga    1.7124599483488756E+00    4.6165239246764962E+00    5.8118899823533887E+00
N    1.6967769288065209E+00    4.6172427752761198E+00    7.7995775645182901E+00
Ga    1.6797817962528525E+00    2.7603858151200265E+00    8.4445867218762558E+00
N    1.6752622051587245E+00    2.7611004876869609E+00    1.0427426586884966E+01
Ga    1.7036859426577315E+00    4.6203995460203524E+00    1.1076466193257779E+01
N    1.7211465270546187E+00    4.6315738709714145E+00    1.3061226030135481E+01
Ga    1.6780995226450159E+00    2.7616952420057652E+00    1.3627545570307831E+01
N    1.7037286753431120E+00    2.7455928813246877E+00    1.5581017505491207E+01
Ga    1.5201760097719432E+00    4.5131732856883113E+00    1.6491291590233121E+01
N    7.0393296026347682E-02    7.3857736036645836E+00    2.6444879924997289E+00
Ga    8.8021273243051881E-02    5.5740618238533575E+00    3.3170548353213971E+00
N    7.5801532287584586E-02    5.5490846618026124E+00    5.2623197166263864E+00
Ga    8.5753336490039106E-02    7.3962952003638387E+00    5.8970027015540083E+00
N    7.9610083413278104E-02    7.3970426555914770E+00    7.8543513004351402E+00
Ga    8.1479296880779942E-02    5.5263623938532271E+00    8.4492487716660101E+00
N    7.8632895579663506E-02    5.5271845360108252E+00    1.0430095565373851E+01
Ga    8.0073880248905230E-02    7.3972350999796079E+00    1.1033647685156458E+01
N    8.0059762467563175E-02    7.3978708534263200E+00    1.2996290824186262E+01
Ga    8.0292879703655673E-02    5.5274294462818752E+00    1.3627769410521564E+01
N    7.9978852005488571E-02    5.5593471127080996E+00    1.5581316257692755E+01
Ga    8.0099299110890060E-02    7.3975732938166274E+00    1.5862224226348586E+01
N   -1.6323028170597584E+00    1.0115437776923462E+01    2.5281572499866987E+00
Ga   -1.4860705129194458E+00    8.2960168114276645E+00    3.3048008180586317E+00
N   -1.5239843900609358E+00    8.3164298004275601E+00    5.2465281710058633E+00
Ga   -1.5053431586379209E+00    1.0199999896866670E+01    5.8098119118749310E+00
N   -1.5208717606750990E+00    1.0185333049509318E+01    7.7961682428489798E+00
Ga   -1.5397002749583357E+00    8.3318093136224434E+00    8.4488706170934051E+00
N   -1.5412037625224000E+00    8.3308357563795141E+00    1.0429109609014382E+01
Ga   -1.5144899225838766E+00    1.0191492166594170E+01    1.1077279152683831E+01
N   -1.4952306438864813E+00    1.0201468488168922E+01    1.3061471214764904E+01
Ga   -1.5395457906845795E+00    8.3327447914775608E+00    1.3628305923013549E+01
N   -1.5118676631505670E+00    8.3164517359049999E+00    1.5581606872715421E+01
Ga   -1.6980766771940301E+00    1.0086739769636301E+01    1.6491911218589177E+01
N    6.5243103029544809E+00    1.9542392396544250E+00    2.5038707332766235E+00
Ga    6.5215201168361059E+00   -4.6699018941969629E-02    2.8568128155926109E+00
N    6.5068704342604917E+00   -3.0740127798550485E-02    5.0275263854783168E+00
Ga    6.5030832337336832E+00    1.7861655314422054E+00    5.8118526450546826E+00
N    6.5146937760240240E+00    1.8178294540861950E+00    7.7950410596175699E+00
Ga    6.5118702095117023E+00   -3.1575203330884705E-02    8.4495730029050566E+00
N    6.5126436384102435E+00   -3.0954387932898956E-02    1.0413843352422884E+01
Ga    6.5095403892676122E+00    1.8079883796966734E+00    1.1077296874867036E+01
N    6.5119998603635763E+00    1.7893485849930315E+00    1.3058427670823168E+01
Ga    6.5119796613628846E+00   -2.9445628985005318E-02    1.3882507811880391E+01
N    6.5121816701241144E+00   -2.4855728373498663E-02    1.6065677576205008E+01
Ga    6.5120125144060719E+00    2.0192043630661258E+00    1.6482094416677764E+01
Ga    6.4773839332217475E+00    3.6763479594792545E+00    1.3378698965651217E+00
N    5.0098237664599559E+00    4.5740652952630771E+00    2.4997858719484967E+00
Ga    4.8099154660728480E+00    2.7069848478084606E+00    3.2725922950272186E+00
N    4.9126297363398770E+00    2.7605088511527036E+00    5.2394465364912772E+00
Ga    4.8661132108923892E+00    4.6256697818354251E+00    5.8066333424821073E+00
N    4.9017565749253844E+00    4.6212547881059542E+00    7.7898587954571488E+00
Ga    4.9111955459767458E+00    2.7606522903563762E+00    8.4415068707406498E+00
N    4.9147065107569219E+00    2.7624563990049209E+00    1.0424386748031884E+01
Ga    4.8859997346224242E+00    4.6203629310931724E+00    1.1077706827827349E+01
N    4.8716619125877934E+00    4.6309976922363090E+00    1.3058405161486059E+01
Ga    4.9128418553883266E+00    2.7603789524594364E+00    1.3622335763952780E+01
N    4.8820166600065864E+00    2.7427081941612963E+00    1.5572525297888802E+01
Ga    5.0705239163253495E+00    4.5161705739064164E+00    1.6482239503004998E+01
N    6.5121203754837547E+00    3.6839611267469614E+00    1.7602188360924892E+01
N    3.3014158823309696E+00    7.4876379808284614E+00    2.5355730825944116E+00
N    3.2935015321831149E+00    5.5303754268257252E+00    5.0398098030531902E+00
Ga    3.2833976019116067E+00    7.3535877553577986E+00    5.7899077968435400E+00
N    3.3012444587006300E+00    7.3916428586266649E+00    7.7787104334312049E+00
Ga    3.2963037437599949E+00    5.5420835626282399E+00    8.4440121889615707E+00
N    3.2966953443429041E+00    5.5426897534638044E+00    1.0409584390070302E+01
Ga    3.2951104096520765E+00    7.3787021018768479E+00    1.1081097438033588E+01
N    3.2960260739668135E+00    7.3597515005401144E+00    1.3063260893161987E+01
Ga    3.2964434123094621E+00    5.5401698691807795E+00    1.3882839267356045E+01
N    3.3005045385559830E+00    5.5381975198550295E+00    1.6065910242311595E+01
Ga    3.2976544635101064E+00    7.5921879720321721E+00    1.6492099404227812E+01
Ga    3.3367432434177937E+00    9.1687003538291520E+00    1.1177900620450045E+00
N    1.8048476389337342E+00    1.0121624251595575E+01    2.4704928481383144E+00
Ga    1.6622702049708269E+00    8.3066915547737707E+00    3.2462496417702376E+00
N    1.6780040279621551E+00    8.3228877426036316E+00    5.2157340467360198E+00
Ga    1.6483601784746944E+00    1.0193746209071339E+01    5.8063636904225095E+00
N    1.6809480028582671E+00    1.0185960663714900E+01    7.7919293330246111E+00
Ga    1.7003858932195839E+00    8.3303564936774421E+00    8.4456966405050835E+00
N    1.7008416350752169E+00    8.3314301898223828E+00    1.0426958098629845E+01
Ga    1.6718600348309276E+00    1.0189991015472975E+01    1.1079599289994235E+01
N    1.6552115159993122E+00    1.0201283174234554E+01    1.3062602192160455E+01
Ga    1.6993454025871808E+00    8.3324389778670316E+00    1.3628654122270218E+01
N    1.6720096434031615E+00    8.3166554292118420E+00    1.5581803674440188E+01
Ga    1.8573793917482615E+00    1.0086750081931939E+01    1.6492056903117657E+01
N    3.3004199823358289E+00    9.2569185825315579E+00    1.7635506460447246E+01
N    9.7320147317193619E+00    1.8166169696246661E+00    2.6994924029321696E+00
Ga    9.7262453729808271E+00   -8.7767215651874092E-02    3.2959604061828731E+00
N    9.7263099612640982E+00   -1.8807242658429226E-02    5.2329173237546689E+00
Ga    9.7310742302437472E+00    1.8181202753677732E+00    5.9188713730357030E+00
N    9.7274463070279449E+00    1.8254786283336089E+00    7.8642508266135529E+00
Ga    9.7278761201999995E+00   -5.0542705062549896E-02    8.4527775400693592E+00
N    9.7299625513633945E+00   -4.6912293486985911E-02    1.0430568911993962E+01
Ga    9.7296043982402569E+00    1.8251405268396454E+00    1.1033608572373407E+01
N    9.7292877395302764E+00    1.8251065930780264E+00    1.2991706588486650E+01
Ga    9.7276825240358065E+00   -4.2258285664022573E-02    1.3629216930235104E+01
N    9.7287165434210472E+00   -1.1153700328959810E-02    1.5581965099705549E+01
Ga    9.7296297210275444E+00    1.8263239026388958E+00    1.5865181977924900E+01
N    8.0112088688407148E+00    4.5639034175665367E+00    2.5061698713484106E+00
Ga    8.1060929848892531E+00    2.7564527697660028E+00    3.3281256497881833E+00
N    8.1362056530943541E+00    2.7481014816402598E+00    5.2464542992936476E+00
Ga    8.1606422280312714E+00    4.6358936561379585E+00    5.8074132775996468E+00
N    8.1232352994076873E+00    4.6179741758149317E+00    7.7857743800755168E+00
Ga    8.1038601347733596E+00    2.7628987503153875E+00    8.4568481775281494E+00
N    8.1082222480168227E+00    2.7637301314308536E+00    1.0432821603346072E+01
Ga    8.1369645312447982E+00    4.6223996798269766E+00    1.1082385295787640E+01
N    8.1528709559849748E+00    4.6312800525619711E+00    1.3061030281225936E+01
Ga    8.1108018989078321E+00    2.7601890406877199E+00    1.3622853955847221E+01
N    8.1424782958550654E+00    2.7426067341697506E+00    1.5572884675558294E+01
Ga    7.9536676739592513E+00    4.5162557783519004E+00    1.6482285316717178E+01
N    6.4719454720744372E+00    7.3951292368743946E+00    2.4759764387575567E+00
Ga    6.4908181625727819E+00    5.5424026576938337E+00    3.3157381274789124E+00
N    6.5160790619560327E+00    5.5732538146739001E+00    5.2300645570338631E+00
Ga    6.5109242760076906E+00    7.3984351321616133E+00    5.9344359203240709E+00
N    6.5112473456438300E+00    7.3973421055134567E+00    7.8677398326039629E+00
Ga    6.5099511618305810E+00    5.5223385864485959E+00    8.4605965869230602E+00
N    6.5127326223399322E+00    5.5276348156554320E+00    1.0433426733321635E+01
Ga    6.5113934890991922E+00    7.3995818361799630E+00    1.1035036903919988E+01
N    6.5113778957343635E+00    7.3994115390709192E+00    1.2991768336064885E+01
Ga    6.5116754709334730E+00    5.5302769275572663E+00    1.3623229433737967E+01
N    6.5121546890232072E+00    5.5667079195729352E+00    1.5573000430371771E+01
Ga    6.5122551425997992E+00    7.3992672199665463E+00    1.5865672939583714E+01
N    4.8222487342843747E+00    1.0137020292743562E+01    2.5012575629922513E+00
Ga    4.8413136317372976E+00    8.3603026743723916E+00    3.3142758649928457E+00
N    4.9346342961152070E+00    8.3124555511064475E+00    5.2331086186033913E+00
Ga    4.9463982385050071E+00    1.0212680959690150E+01    5.7969089501856539E+00
N    4.9122621085300571E+00    1.0181744778583134E+01    7.7806936971773411E+00
Ga    4.8859577121585307E+00    8.3341559698657015E+00    8.4569069829266770E+00
N    4.8908749019208138E+00    8.3340754836500608E+00    1.0431070637205037E+01
Ga    4.9208994925661127E+00    1.0191830728784813E+01    1.1084717882297170E+01
N    4.9367799655506355E+00    1.0201306872288431E+01    1.3065794441105190E+01
Ga    4.8932207072196725E+00    8.3315347448394750E+00    1.3629749997593919E+01
N    4.9205545901939649E+00    8.3170032349739991E+00    1.5582271555221029E+01
Ga    4.7387686313275870E+00    1.0087339813138289E+01    1.6493778662869136E+01
O   -2.9731374799678297E-02    3.9590260106720443E+00   -4.7145435744535197E-01
H   -2.0016585031615911E-01    6.0470977876368437E+00   -3.1669982216823506E-01
C    1.1312725140430162E+00    3.5990117427241088E+00   -1.2426634736278035E+00
H    2.0753631298553290E+00    3.9436666861185952E+00   -7.8330115017063251E-01
H    1.1793497754529856E+00    2.5077035043904217E+00   -1.3723124295368370E+00
H    1.0318789030480058E+00    4.0794027875052272E+00   -2.2258662171533969E+00
Ga    3.2435421721332705E+00    5.5283655574163584E+00    2.8785753661148004E+00
O   -1.6891365789644106E-01    6.9693328381158306E+00    6.0496441081129497E-02
H    2.4055990550826314E-02    7.2521770067030271E+00    1.5585058529302811E+00
C    6.2354626651377076E+00    7.4355676470602718E+00    1.1981253490650359E+00
H    6.5213463025983991E+00    8.3226989657613597E+00    6.0014244432015607E-01
H    9.7365984341341019E+00    1.8213818618883313E+00    1.6498805379167985E+00
H    5.6181688998089960E+00    6.6426547514310244E+00    7.2047186589467527E-01
     &END COORD
     &KIND C
       BASIS_SET DZVP-MOLOPT-SR-GTH-q4
       POTENTIAL GTH-PBE-q4
       &POTENTIAL
 2 2
  0.3384712400000000E+00 2 -0.8803673979999999E+01  0.1339210850000000E+01
 2
  0.3025757500000000E+00 1  0.9622486650000001E+01
  0.2915069400000000E+00 0
         # Potential name:  GTH-PBE-Q4  for symbol:  C
         # Potential read from the potential filename: GTH_POTENTIALS
       &END POTENTIAL
     &END KIND
     &KIND O
       BASIS_SET DZVP-MOLOPT-SR-GTH-q6
       POTENTIAL GTH-PBE-q6
       &POTENTIAL
 2 4
  0.2445543000000000E+00 2 -0.1666721480000000E+02  0.2487311320000000E+01
 2
  0.2209559200000000E+00 1  0.1833745811000000E+02
  0.2113324700000000E+00 0
         # Potential name:  GTH-PBE-Q6  for symbol:  O
         # Potential read from the potential filename: GTH_POTENTIALS
       &END POTENTIAL
     &END KIND
     &KIND H
       BASIS_SET DZVP-MOLOPT-SR-GTH-q1
       POTENTIAL GTH-PBE-q1
       &POTENTIAL
 1
  0.2000000000000000E+00 2 -0.4178900440000000E+01  0.7244633100000000E+00
 0
         # Potential name:  GTH-PBE-Q1  for symbol:  H
         # Potential read from the potential filename: GTH_POTENTIALS
       &END POTENTIAL
     &END KIND
     &KIND N
       BASIS_SET DZVP-MOLOPT-SR-GTH
       POTENTIAL GTH-PBE-q5
       &POTENTIAL
 2 3
  0.2837905100000000E+00 2 -0.1241522559000000E+02  0.1868095920000000E+01
 2
  0.2554050000000000E+00 1  0.1363026257000000E+02
  0.2454945300000000E+00 0
         # Potential name:  GTH-PBE-Q5  for symbol:  N
         # Potential read from the potential filename: GTH_POTENTIALS
       &END POTENTIAL
     &END KIND
     &KIND Ga
       BASIS_SET DZVP-MOLOPT-SR-GTH
       POTENTIAL GTH-PBE-q13
       &POTENTIAL
 2 1 10
  0.4900000000000000E+00 0
 3
  0.4167772300000000E+00 3  0.1047568975000000E+02 -0.4921768140000000E+01  0.8707055900000000E+00
  0.7770178090000000E+01 -0.2248152160000000E+01
  0.1784415450000000E+01
  0.5696265200000000E+00 2  0.1777985340000000E+01  0.1958597600000000E+00
 -0.2317443900000000E+00
  0.2381265000000000E+00 1 -0.1624868022000000E+02
         # Potential name:  GTH-PBE-Q13  for symbol:  GA
         # Potential read from the potential filename: GTH_POTENTIALS
       &END POTENTIAL
     &END KIND
     &TOPOLOGY
       NUMBER_OF_ATOMS  212
       MULTIPLE_UNIT_CELL  1 1 1
     &END TOPOLOGY
   &END SUBSYS
 &END FORCE_EVAL
