 # Version information for this restart file 
 # current date 2019-07-03 07:36:50.622
 # current working dir /lustre04/scratch/rzk/rzk/GaN-carbene/443-adatoms-both-2x2/08-CH3O-H2O-H2C-H/03-Use-0401
 # Program compiled at                              Sun Apr  7 00:48:11 EDT 2019
 # Program compiled on                          beluga2.int.ets1.calculquebec.ca
 # Program compiled for                        Beluga-Linux-x86-64-intel-openmpi
 # Source code revision number                                         svn:18619
 &GLOBAL
   PRINT_LEVEL  MEDIUM
   PROJECT_NAME TEST
   RUN_TYPE  GEO_OPT
 &END GLOBAL
 &MOTION
   &GEO_OPT
     MAX_ITER  500
     STEP_START_VAL  4
   &END GEO_OPT
 &END MOTION
 &FORCE_EVAL
   METHOD  QS
   STRESS_TENSOR  ANALYTICAL
   &DFT
     BASIS_SET_FILE_NAME BASIS_MOLOPT
     POTENTIAL_FILE_NAME GTH_POTENTIALS
     UKS  T
     SURFACE_DIPOLE_CORRECTION  T
     SURF_DIP_DIR  Z
     &SCF
       MAX_SCF  80
       EPS_SCF     5.0000000000000004E-06
       &OT  T
         PRECONDITIONER  FULL_ALL
       &END OT
       &OUTER_SCF  T
         OPTIMIZER  NONE
         EPS_SCF     5.0000000000000004E-06
         MAX_SCF  4
       &END OUTER_SCF
       &PRINT
         &RESTART  OFF
           BACKUP_COPIES  1
           &EACH
             JUST_ENERGY  0
             QS_SCF  0
             MD  20
           &END EACH
         &END RESTART
       &END PRINT
     &END SCF
     &QS
       EPS_DEFAULT     1.0000000000000000E-14
       METHOD  GPW
     &END QS
     &MGRID
       NGRIDS  5
       CUTOFF     1.2000000000000000E+03
     &END MGRID
     &XC
       DENSITY_CUTOFF     1.0000000000000000E-10
       GRADIENT_CUTOFF     1.0000000000000000E-10
       TAU_CUTOFF     1.0000000000000000E-10
       &XC_FUNCTIONAL  NO_SHORTCUT
         &PBE  T
         &END PBE
       &END XC_FUNCTIONAL
       &VDW_POTENTIAL
         POTENTIAL_TYPE  PAIR_POTENTIAL
         &PAIR_POTENTIAL
           R_CUTOFF     1.0000000000000004E+01
           TYPE  DFTD3
           PARAMETER_FILE_NAME dftd3.dat
           REFERENCE_FUNCTIONAL PBE
           EPS_CN     9.9999999999999995E-07
           CALCULATE_C9_TERM  T
           REFERENCE_C9_TERM  T
           LONG_RANGE_CORRECTION  F
           VERBOSE_OUTPUT  F
         &END PAIR_POTENTIAL
       &END VDW_POTENTIAL
     &END XC
   &END DFT
   &SUBSYS
     &CELL
       A     1.2864472766435110E+01    0.0000000000000000E+00    0.0000000000000000E+00
       B    -6.4322363581020028E+00    1.1140960178524473E+01    0.0000000000000000E+00
       C     0.0000000000000000E+00    0.0000000000000000E+00    3.2000000000000000E+01
       MULTIPLE_UNIT_CELL  1 1 1
       &CELL_REF
         A     1.2982353780853531E+01    0.0000000000000000E+00    0.0000000000000000E+00
         B    -6.4911768904267628E+00    1.1243048175136114E+01    0.0000000000000000E+00
         C     0.0000000000000000E+00    0.0000000000000000E+00    3.2000000000000000E+01
         MULTIPLE_UNIT_CELL  1 1 1
       &END CELL_REF
     &END CELL
     &COORD
N    7.6250365111314999E-02    1.9816861746273293E+00    2.4842687020906826E+00
Ga    7.7538511883846625E-02    2.0896305103320040E-02    2.8576734442235505E+00
N    8.9860198666136273E-02   -2.1660852863241046E-02    5.0270289546396878E+00
Ga    9.2235929313220985E-02    1.7980121397452935E+00    5.8179233713104885E+00
N    7.8452749117221526E-02    1.8145133135928055E+00    7.8039682607071006E+00
Ga    8.0595741893074932E-02   -3.2095683430094661E-02    8.4489482473698647E+00
N    7.8827690051100505E-02   -3.2302424946655799E-02    1.0415188318123572E+01
Ga    8.2136731349849432E-02    1.8080263790322257E+00    1.1079221800547032E+01
N    8.0394142289732254E-02    1.7872912550789699E+00    1.3063844211042371E+01
Ga    8.0313319486265661E-02   -2.9650980996087671E-02    1.3888431095648796E+01
N    7.9262661364572495E-02   -3.0186407396367639E-02    1.6069380801522506E+01
Ga    7.9748497716541356E-02    2.0176615910765969E+00    1.6492696172316474E+01
Ga    8.3645727393708458E-02    3.7516082417708994E+00    1.3281910044373295E+00
N   -1.4120458545508916E+00    4.5402345275072671E+00    2.5312913396356853E+00
Ga   -1.5028242878008715E+00    2.7521627313615951E+00    3.3298026854540002E+00
N   -1.5380913347344334E+00    2.7446202807522280E+00    5.2611357726878909E+00
Ga   -1.5542837458395065E+00    4.6282926748473798E+00    5.8174919300070096E+00
N   -1.5389706573598245E+00    4.6166387482115860E+00    7.8007837769362931E+00
Ga   -1.5154385798413725E+00    2.7613154285486377E+00    8.4549796803594646E+00
N   -1.5155253915507803E+00    2.7629481599752101E+00    1.0435120294394068E+01
Ga   -1.5436652490519429E+00    4.6230577679405771E+00    1.1080595718692065E+01
N   -1.5617873119634544E+00    4.6321048430572764E+00    1.3064795901707329E+01
Ga   -1.5168849394965487E+00    2.7613136322333749E+00    1.3626175531281769E+01
N   -1.5451949857704155E+00    2.7467555475124112E+00    1.5580728405222235E+01
Ga   -1.3581668273146190E+00    4.5142071164315460E+00    1.6491659854685654E+01
N    7.9503600285693352E-02    3.6780658436079063E+00    1.7634120788096066E+01
N   -3.1708778485937130E+00    7.5054825147136928E+00    2.5175439034424643E+00
Ga   -3.0995232538913307E+00    5.5206382721507454E+00    2.8683999385578014E+00
N   -3.1323003379356935E+00    5.5392178908348200E+00    5.0293940569700544E+00
Ga   -3.1368543020008435E+00    7.3591740422064511E+00    5.8000370321651520E+00
N   -3.1430109422254402E+00    7.3903596068348936E+00    7.7841971408243085E+00
Ga   -3.1370270011542445E+00    5.5423664040907399E+00    8.4483214871420724E+00
N   -3.1375056047695664E+00    5.5415450293980113E+00    1.0412746306955725E+01
Ga   -3.1347324577524822E+00    7.3785876755196087E+00    1.1082438091739020E+01
N   -3.1361714439007109E+00    7.3588892022065071E+00    1.3065356476008089E+01
Ga   -3.1361187264977817E+00    5.5405712191568899E+00    1.3888082989773393E+01
N   -3.1328055084621398E+00    5.5425645847078275E+00    1.6068415123235052E+01
Ga   -3.1359040030606855E+00    7.5933097516526784E+00    1.6492146550433187E+01
Ga   -3.0629151184810230E+00    9.2517046285486639E+00    1.3469412388274067E+00
N   -4.6438300684272411E+00    1.0118270104883743E+01    2.4532534819941914E+00
Ga   -4.7546508558890155E+00    8.3666647546835158E+00    3.2951435011408914E+00
N   -4.7773812746554896E+00    8.3117885346523437E+00    5.2194270309566129E+00
Ga   -4.7718700230865974E+00    1.0208768950680618E+01    5.8047419039552199E+00
N   -4.7543151604401199E+00    1.0179933610965985E+01    7.7897362649108093E+00
Ga   -4.7298817955985077E+00    8.3348564245183159E+00    8.4603857715059174E+00
N   -4.7318304356907559E+00    8.3326747169865936E+00    1.0435501941133616E+01
Ga   -4.7593497167793695E+00    1.0193848199604371E+01    1.1080926333939187E+01
N   -4.7779521561416507E+00    1.0202268201937581E+01    1.3064321996426946E+01
Ga   -4.7333587966160167E+00    8.3326301201760131E+00    1.3627518024519922E+01
N   -4.7600793018537981E+00    8.3155520552778803E+00    1.5581577603090727E+01
Ga   -4.5794249231578501E+00    1.0087471543483280E+01    1.6493267605901593E+01
N   -3.1411280994822826E+00    9.2568585399414509E+00    1.7633767464001501E+01
N    3.2897573558972213E+00    1.8290589001093021E+00    2.6258736465228045E+00
Ga    3.2995162793481598E+00    6.9795476998938955E-02    3.2614276271259643E+00
N    3.2924053628021799E+00   -4.0242581915481551E-02    5.2346847783100552E+00
Ga    3.2918851737737356E+00    1.8256963644759114E+00    5.8601975297690458E+00
N    3.2962183128947107E+00    1.8254105476474483E+00    7.8357652516499670E+00
Ga    3.2962706190236823E+00   -3.9608766844934744E-02    8.4408385673077344E+00
N    3.2942798220706853E+00   -4.3901356836927280E-02    1.0425841232180488E+01
Ga    3.2949195414429395E+00    1.8263324431711787E+00    1.1029749946781815E+01
N    3.2957726478818592E+00    1.8263506766077457E+00    1.2991995455504469E+01
Ga    3.2962236463063510E+00   -4.2368494657548557E-02    1.3626954148280104E+01
N    3.2970165634032420E+00   -1.0862278550814744E-02    1.5581473079915936E+01
Ga    3.2956898011241611E+00    1.8268541263016855E+00    1.5863838736510390E+01
N    1.5641866601702883E+00    4.5469116622048213E+00    2.5297146426675976E+00
Ga    1.7593645512772793E+00    2.7159279124795961E+00    3.2632246900059019E+00
N    1.6857775239466162E+00    2.7519328443258835E+00    5.2472546879258850E+00
Ga    1.7092461280776075E+00    4.6144571007830981E+00    5.8132781572160468E+00
N    1.6961273590975616E+00    4.6175475325515594E+00    7.8019152194139556E+00
Ga    1.6816524914528939E+00    2.7600548435076946E+00    8.4438171772840604E+00
N    1.6763846863673018E+00    2.7615222518380320E+00    1.0428592878460833E+01
Ga    1.7037248028923997E+00    4.6208305642216283E+00    1.1075717916889676E+01
N    1.7212352347592370E+00    4.6314912687438650E+00    1.3061642895499611E+01
Ga    1.6772971736368620E+00    2.7619155427751765E+00    1.3625967411281836E+01
N    1.7050497549384152E+00    2.7467460501253544E+00    1.5580725122958480E+01
Ga    1.5179509473559618E+00    4.5142790144247149E+00    1.6491696656410546E+01
N    6.8435367931611132E-02    7.3841021144173853E+00    2.6525457311002780E+00
Ga    8.7783326939626441E-02    5.5741410510428322E+00    3.3226608618560531E+00
N    7.6955132066767934E-02    5.5514593009549804E+00    5.2665343177802963E+00
Ga    8.4290658443233815E-02    7.3979326683125999E+00    5.8941376608013725E+00
N    7.9545689955419399E-02    7.3977498684831460E+00    7.8530664295459118E+00
Ga    8.1437491415085980E-02    5.5281267379747359E+00    8.4492810024934357E+00
N    7.8995256266135488E-02    5.5276774028310030E+00    1.0431728784841802E+01
Ga    8.0079528260217442E-02    7.3971485438626594E+00    1.1032642606233129E+01
N    7.9866741805261501E-02    7.3978189506167338E+00    1.2995489413108567E+01
Ga    8.0594961025867468E-02    5.5281567460290066E+00    1.3626325959284305E+01
N    7.9966477632938793E-02    5.5603134823549878E+00    1.5579496009501476E+01
Ga    7.9879671418772488E-02    7.3974954103844892E+00    1.5863178257938415E+01
N   -1.6240482871587083E+00    1.0116638630824310E+01    2.5253334839504196E+00
Ga   -1.4875711215587555E+00    8.2986908587330266E+00    3.3027642113801221E+00
N   -1.5244112920240527E+00    8.3166659279946114E+00    5.2448181412324635E+00
Ga   -1.5057749436761103E+00    1.0199489830435269E+01    5.8056926152134984E+00
N   -1.5207691775041043E+00    1.0184539759952200E+01    7.7945039380072112E+00
Ga   -1.5392683504976810E+00    8.3319039546459610E+00    8.4474225171617849E+00
N   -1.5409477100963600E+00    8.3305190684584165E+00    1.0429665114349254E+01
Ga   -1.5144817583504002E+00    1.0191044579426617E+01    1.1076792792175626E+01
N   -1.4957093178074448E+00    1.0201315613166736E+01    1.3062322286841091E+01
Ga   -1.5387125860687301E+00    8.3324745754139737E+00    1.3627140278563694E+01
N   -1.5112614726858222E+00    8.3160889784603302E+00    1.5580063120885086E+01
Ga   -1.6975466072444623E+00    1.0084549769506189E+01    1.6491912265221227E+01
N    6.5179894240361165E+00    1.9516482459712967E+00    2.5085130662000510E+00
Ga    6.5287034427736028E+00   -4.0181416807830113E-02    2.8557111291807091E+00
N    6.5068380390258040E+00   -3.1072320966072084E-02    5.0311650927724125E+00
Ga    6.5027763157197036E+00    1.7882706908772208E+00    5.8107893537082429E+00
N    6.5127383265976730E+00    1.8163909842136576E+00    7.7968490333580700E+00
Ga    6.5115943487536923E+00   -3.2373292198878002E-02    8.4493509088589676E+00
N    6.5121673039576828E+00   -3.1205665199807716E-02    1.0415633289782429E+01
Ga    6.5095047756550297E+00    1.8083648747419121E+00    1.1076772727673751E+01
N    6.5116005542353239E+00    1.7889798201641507E+00    1.3060758940659534E+01
Ga    6.5118402883474023E+00   -2.9794317392037365E-02    1.3884186992975998E+01
N    6.5124816096301004E+00   -3.4232420785379920E-02    1.6067329864976887E+01
Ga    6.5120219612114063E+00    2.0082018859267228E+00    1.6477666465559331E+01
Ga    6.4777536446944390E+00    3.6623432115739636E+00    1.3162571839188726E+00
N    4.9995709653481004E+00    4.5618274368614546E+00    2.4916265669913402E+00
Ga    4.8131367075037534E+00    2.6999604335361966E+00    3.2667153540958984E+00
N    4.9112807590894771E+00    2.7599217030896019E+00    5.2368861710789298E+00
Ga    4.8643160197268571E+00    4.6207356852653003E+00    5.8103319279368035E+00
N    4.9003489085929841E+00    4.6205216778754625E+00    7.7936735867449691E+00
Ga    4.9105674392903236E+00    2.7592397035626410E+00    8.4398821321061881E+00
N    4.9142202566628912E+00    2.7626104329680814E+00    1.0424559992081516E+01
Ga    4.8855806666653887E+00    4.6201515751725566E+00    1.1077513748495406E+01
N    4.8709278054661169E+00    4.6311246422490822E+00    1.3060622202856010E+01
Ga    4.9140272700340519E+00    2.7611898602938236E+00    1.3624614923198779E+01
N    4.8866097087242890E+00    2.7452926236263715E+00    1.5579991216475998E+01
Ga    5.0608814679338305E+00    4.5215810417648639E+00    1.6477872286286207E+01
N    6.5119006026909565E+00    3.6838202529146384E+00    1.7590688436997208E+01
N    3.2979312078935297E+00    7.4790061593670094E+00    2.5356681354013788E+00
N    3.2916350963217651E+00    5.5286767741663283E+00    5.0450954985385614E+00
Ga    3.2766821207022248E+00    7.3524814560862373E+00    5.7941925779356973E+00
N    3.2986764489286351E+00    7.3911894769577371E+00    7.7827040860325960E+00
Ga    3.2956672007960814E+00    5.5420777673627875E+00    8.4439272450740628E+00
N    3.2965700983445818E+00    5.5425851285262526E+00    1.0410747082933332E+01
Ga    3.2944212409982367E+00    7.3779905920304873E+00    1.1081027634624185E+01
N    3.2958569561368449E+00    7.3594707866036506E+00    1.3064242345087015E+01
Ga    3.2960125321887137E+00    5.5400850376441433E+00    1.3884928551248569E+01
N    3.2923651146697868E+00    5.5431007259613025E+00    1.6067513037154914E+01
Ga    3.2956262156005356E+00    7.5944448232779616E+00    1.6493007364692016E+01
Ga    3.3247248116035557E+00    9.1738541473723281E+00    1.0988456356824992E+00
N    1.7929590488356146E+00    1.0118662049549956E+01    2.4713341671782016E+00
Ga    1.6593945735432742E+00    8.3126275964739555E+00    3.2391505100587237E+00
N    1.6753167858383167E+00    8.3200832531014886E+00    5.2131865095804892E+00
Ga    1.6505201641157485E+00    1.0191643241444787E+01    5.8032697305474139E+00
N    1.6793276476539825E+00    1.0184076801579538E+01    7.7922208458961340E+00
Ga    1.6986672912299581E+00    8.3305690652147977E+00    8.4462417432818242E+00
N    1.7005261146849784E+00    8.3307736477832659E+00    1.0428954315715313E+01
Ga    1.6715712324816860E+00    1.0189627641421353E+01    1.1079170544428262E+01
N    1.6551498727385296E+00    1.0200905148917652E+01    1.3063605389253681E+01
Ga    1.6985062406641214E+00    8.3318269958865763E+00    1.3627403421209818E+01
N    1.6707477921807627E+00    8.3159326355274708E+00    1.5579907890099474E+01
Ga    1.8583099841149273E+00    1.0083921670293165E+01    1.6492821685792507E+01
N    3.3005014104571155E+00    9.2570297127017902E+00    1.7636204767417567E+01
N    9.7298102816556895E+00    1.8259262746074743E+00    2.6871355900013927E+00
Ga    9.7221076382145046E+00   -7.1404407325201841E-02    3.2763564904361639E+00
N    9.7269096118109228E+00   -2.8450493086796275E-02    5.2277324936511764E+00
Ga    9.7304149737076937E+00    1.8174682436855567E+00    5.8952084019802768E+00
N    9.7271146280592138E+00    1.8246600284915484E+00    7.8530443698761268E+00
Ga    9.7262537330233290E+00   -4.8429284501424127E-02    8.4491269596261045E+00
N    9.7294181294045288E+00   -4.6586651521665419E-02    1.0430559439999463E+01
Ga    9.7292730911079932E+00    1.8254896865637942E+00    1.1033345533979615E+01
N    9.7282196648386119E+00    1.8258778280058838E+00    1.2994371496146202E+01
Ga    9.7280166275429423E+00   -4.3100684939380553E-02    1.3627849753551024E+01
N    9.7271085646366569E+00   -1.0361363010022506E-02    1.5581649561025539E+01
Ga    9.7287600565611942E+00    1.8269896427378260E+00    1.5864154170294658E+01
N    8.0065686389799442E+00    4.5688270693070656E+00    2.5106513339141632E+00
Ga    8.1121696626154627E+00    2.7515192003712592E+00    3.3203012955677655E+00
N    8.1279663613060418E+00    2.7529913601106526E+00    5.2472553956113872E+00
Ga    8.1619461666136566E+00    4.6328764319871176E+00    5.8108724600878032E+00
N    8.1246548982284050E+00    4.6195219144073656E+00    7.7906834373935228E+00
Ga    8.1054009616447296E+00    2.7610622699308398E+00    8.4512272132700232E+00
N    8.1081730438110107E+00    2.7637411185634808E+00    1.0431134164620691E+01
Ga    8.1371477612289773E+00    4.6220683358577039E+00    1.1082321273539161E+01
N    8.1535131801049623E+00    4.6317937946415366E+00    1.3063782992870628E+01
Ga    8.1092564926158293E+00    2.7609312061502664E+00    1.3625234793424607E+01
N    8.1377252602322088E+00    2.7452938566492997E+00    1.5580441954513059E+01
Ga    7.9629980539711438E+00    4.5214679166199234E+00    1.6477964337715768E+01
N    6.4919852836698855E+00    7.3803578883124477E+00    2.4858159318523820E+00
Ga    6.4785035560695050E+00    5.5082684739850851E+00    3.3252383594453332E+00
N    6.5142855543895442E+00    5.5683546480843562E+00    5.2391648661205634E+00
Ga    6.5143690987601319E+00    7.3976667671151937E+00    5.9237009323392886E+00
N    6.5120632839784598E+00    7.3972893550870209E+00    7.8632899498829349E+00
Ga    6.5100612616341502E+00    5.5227202227759848E+00    8.4581898690878585E+00
N    6.5123768815866816E+00    5.5274383263004898E+00    1.0433452139662318E+01
Ga    6.5113129663861438E+00    7.3990203664813814E+00    1.1035674864031694E+01
N    6.5115670975195110E+00    7.3982076451773819E+00    1.2994978755901334E+01
Ga    6.5114481565560380E+00    5.5283912369961712E+00    1.3625717896787426E+01
N    6.5121724600477480E+00    5.5612344978017934E+00    1.5580642632160563E+01
Ga    6.5124817600821219E+00    7.3981456504343228E+00    1.5864988426065041E+01
N    4.8312794078959191E+00    1.0130164586752457E+01    2.5109180341084194E+00
Ga    4.8216735908076584E+00    8.3707393594168114E+00    3.3326447298461854E+00
N    4.9307252118453704E+00    8.3122198215529863E+00    5.2448018987991549E+00
Ga    4.9450287004821512E+00    1.0217211705285775E+01    5.8027928868052472E+00
N    4.9134931040116285E+00    1.0182429387046257E+01    7.7872024168140266E+00
Ga    4.8861767699117911E+00    8.3331753495044012E+00    8.4541374906204307E+00
N    4.8906567067580582E+00    8.3330630262655898E+00    1.0431344483757499E+01
Ga    4.9204202625193920E+00    1.0191782931399109E+01    1.1083604784783233E+01
N    4.9379078510162113E+00    1.0201747904922490E+01    1.3065867167629282E+01
Ga    4.8924632844178468E+00    8.3322324398910119E+00    1.3628588164855982E+01
N    4.9205588534802738E+00    8.3151605015113557E+00    1.5582035853536729E+01
Ga    4.7378210922591926E+00    1.0086843830201728E+01    1.6494309851907865E+01
O   -2.9365501507864520E-02    3.9486563318115206E+00   -4.7003172187286724E-01
H   -2.0178168340884953E-01    6.0804268116841671E+00   -2.7969521923355173E-01
C    1.1310769748763585E+00    3.5953812546197703E+00   -1.2454801124991219E+00
H    2.0702216022786830E+00    3.9428813422860070E+00   -7.8171630907044731E-01
H    1.1930923604553019E+00    2.5047795392919134E+00   -1.3849122740410977E+00
H    1.0330563810932896E+00    4.0726118033058007E+00   -2.2303132974111057E+00
Ga    3.2496256081310704E+00    5.5240946653906455E+00    2.8866751070337289E+00
O   -1.7456194254425786E-01    6.9952426240629251E+00    5.9752584487810831E-02
H    2.2218161019682599E-02    7.2368102833258305E+00    1.5558447507537745E+00
C    6.2311063665609652E+00    7.4431835761856666E+00    1.1878768946410203E+00
H    6.5229118362744378E+00    8.3134801809928547E+00    6.0021182941513929E-01
H    9.7376349498030592E+00    1.8185155733922651E+00    1.6540997422913581E+00
H    5.6309742151682478E+00    6.6588513071305417E+00    7.2696659585986867E-01
     &END COORD
     &KIND C
       BASIS_SET DZVP-MOLOPT-SR-GTH-q4
       POTENTIAL GTH-PBE-q4
       &POTENTIAL
 2 2
  0.3384712400000000E+00 2 -0.8803673979999999E+01  0.1339210850000000E+01
 2
  0.3025757500000000E+00 1  0.9622486650000001E+01
  0.2915069400000000E+00 0
         # Potential name:  GTH-PBE-Q4  for symbol:  C
         # Potential read from the potential filename: GTH_POTENTIALS
       &END POTENTIAL
     &END KIND
     &KIND O
       BASIS_SET DZVP-MOLOPT-SR-GTH-q6
       POTENTIAL GTH-PBE-q6
       &POTENTIAL
 2 4
  0.2445543000000000E+00 2 -0.1666721480000000E+02  0.2487311320000000E+01
 2
  0.2209559200000000E+00 1  0.1833745811000000E+02
  0.2113324700000000E+00 0
         # Potential name:  GTH-PBE-Q6  for symbol:  O
         # Potential read from the potential filename: GTH_POTENTIALS
       &END POTENTIAL
     &END KIND
     &KIND H
       BASIS_SET DZVP-MOLOPT-SR-GTH-q1
       POTENTIAL GTH-PBE-q1
       &POTENTIAL
 1
  0.2000000000000000E+00 2 -0.4178900440000000E+01  0.7244633100000000E+00
 0
         # Potential name:  GTH-PBE-Q1  for symbol:  H
         # Potential read from the potential filename: GTH_POTENTIALS
       &END POTENTIAL
     &END KIND
     &KIND N
       BASIS_SET DZVP-MOLOPT-SR-GTH
       POTENTIAL GTH-PBE-q5
       &POTENTIAL
 2 3
  0.2837905100000000E+00 2 -0.1241522559000000E+02  0.1868095920000000E+01
 2
  0.2554050000000000E+00 1  0.1363026257000000E+02
  0.2454945300000000E+00 0
         # Potential name:  GTH-PBE-Q5  for symbol:  N
         # Potential read from the potential filename: GTH_POTENTIALS
       &END POTENTIAL
     &END KIND
     &KIND Ga
       BASIS_SET DZVP-MOLOPT-SR-GTH
       POTENTIAL GTH-PBE-q13
       &POTENTIAL
 2 1 10
  0.4900000000000000E+00 0
 3
  0.4167772300000000E+00 3  0.1047568975000000E+02 -0.4921768140000000E+01  0.8707055900000000E+00
  0.7770178090000000E+01 -0.2248152160000000E+01
  0.1784415450000000E+01
  0.5696265200000000E+00 2  0.1777985340000000E+01  0.1958597600000000E+00
 -0.2317443900000000E+00
  0.2381265000000000E+00 1 -0.1624868022000000E+02
         # Potential name:  GTH-PBE-Q13  for symbol:  GA
         # Potential read from the potential filename: GTH_POTENTIALS
       &END POTENTIAL
     &END KIND
     &TOPOLOGY
       NUMBER_OF_ATOMS  212
       MULTIPLE_UNIT_CELL  1 1 1
     &END TOPOLOGY
   &END SUBSYS
 &END FORCE_EVAL
