 # Version information for this restart file 
 # current date 2019-07-03 10:13:54.220
 # current working dir /lustre04/scratch/rzk/rzk/GaN-carbene/443-adatoms-both-2x2/08-CH3O-H2O-H2C-H/03-Use-0401
 # Program compiled at                              Sun Apr  7 00:48:11 EDT 2019
 # Program compiled on                          beluga2.int.ets1.calculquebec.ca
 # Program compiled for                        Beluga-Linux-x86-64-intel-openmpi
 # Source code revision number                                         svn:18619
 &GLOBAL
   PRINT_LEVEL  MEDIUM
   PROJECT_NAME TEST
   RUN_TYPE  GEO_OPT
 &END GLOBAL
 &MOTION
   &GEO_OPT
     MAX_ITER  500
     STEP_START_VAL  34
   &END GEO_OPT
 &END MOTION
 &FORCE_EVAL
   METHOD  QS
   STRESS_TENSOR  ANALYTICAL
   &DFT
     BASIS_SET_FILE_NAME BASIS_MOLOPT
     POTENTIAL_FILE_NAME GTH_POTENTIALS
     UKS  T
     SURFACE_DIPOLE_CORRECTION  T
     SURF_DIP_DIR  Z
     &SCF
       MAX_SCF  80
       EPS_SCF     5.0000000000000004E-06
       &OT  T
         PRECONDITIONER  FULL_ALL
       &END OT
       &OUTER_SCF  T
         OPTIMIZER  NONE
         EPS_SCF     5.0000000000000004E-06
         MAX_SCF  4
       &END OUTER_SCF
       &PRINT
         &RESTART  OFF
           BACKUP_COPIES  1
           &EACH
             JUST_ENERGY  0
             QS_SCF  0
             MD  20
           &END EACH
         &END RESTART
       &END PRINT
     &END SCF
     &QS
       EPS_DEFAULT     1.0000000000000000E-14
       METHOD  GPW
     &END QS
     &MGRID
       NGRIDS  5
       CUTOFF     1.2000000000000000E+03
     &END MGRID
     &XC
       DENSITY_CUTOFF     1.0000000000000000E-10
       GRADIENT_CUTOFF     1.0000000000000000E-10
       TAU_CUTOFF     1.0000000000000000E-10
       &XC_FUNCTIONAL  NO_SHORTCUT
         &PBE  T
         &END PBE
       &END XC_FUNCTIONAL
       &VDW_POTENTIAL
         POTENTIAL_TYPE  PAIR_POTENTIAL
         &PAIR_POTENTIAL
           R_CUTOFF     1.0000000000000004E+01
           TYPE  DFTD3
           PARAMETER_FILE_NAME dftd3.dat
           REFERENCE_FUNCTIONAL PBE
           EPS_CN     9.9999999999999995E-07
           CALCULATE_C9_TERM  T
           REFERENCE_C9_TERM  T
           LONG_RANGE_CORRECTION  F
           VERBOSE_OUTPUT  F
         &END PAIR_POTENTIAL
       &END VDW_POTENTIAL
     &END XC
   &END DFT
   &SUBSYS
     &CELL
       A     1.2864472766435110E+01    0.0000000000000000E+00    0.0000000000000000E+00
       B    -6.4322363581020028E+00    1.1140960178524473E+01    0.0000000000000000E+00
       C     0.0000000000000000E+00    0.0000000000000000E+00    3.2000000000000000E+01
       MULTIPLE_UNIT_CELL  1 1 1
       &CELL_REF
         A     1.2982353780853531E+01    0.0000000000000000E+00    0.0000000000000000E+00
         B    -6.4911768904267628E+00    1.1243048175136114E+01    0.0000000000000000E+00
         C     0.0000000000000000E+00    0.0000000000000000E+00    3.2000000000000000E+01
         MULTIPLE_UNIT_CELL  1 1 1
       &END CELL_REF
     &END CELL
     &COORD
N    7.8881868524905696E-02    1.9704412110345844E+00    2.4850029348563476E+00
Ga    1.1244174699362107E-01   -9.8685426620058834E-03    2.8281053070480362E+00
N    1.1298965411799371E-01   -1.5218936845015518E-02    5.0418066714119840E+00
Ga    1.0802332534288978E-01    1.7994353568553063E+00    5.7909680536733408E+00
N    1.0177433903913365E-01    1.8119087565736780E+00    7.7953256321506368E+00
Ga    9.4559831867926922E-02   -3.5633148599331817E-02    8.4338436579240046E+00
N    9.9736871199060509E-02   -4.4002812571317114E-02    1.0417523993813880E+01
Ga    1.0565158792675874E-01    1.7950232920987574E+00    1.1069998576010184E+01
N    1.0146126934428458E-01    1.7701597296096998E+00    1.3069035271976380E+01
Ga    9.8799848395341672E-02   -4.7831973550934367E-02    1.3878744637661848E+01
N    9.3715043094874786E-02   -5.1769605033286613E-02    1.6084838135810720E+01
Ga    9.1130458120844027E-02    2.0004124555860248E+00    1.6511396029273939E+01
Ga    9.1168883460993902E-02    3.6607409889039206E+00    1.3101076196199113E+00
N   -1.4196496584659013E+00    4.5380482422393582E+00    2.4862720767252173E+00
Ga   -1.5144071762503832E+00    2.7476612447110602E+00    3.3078525256889084E+00
N   -1.5215149144578710E+00    2.7524068423634716E+00    5.2449872566787734E+00
Ga   -1.5238651128380230E+00    4.6298730798575098E+00    5.8087896219151300E+00
N   -1.5057723532857192E+00    4.6095791145568201E+00    7.8052144014922353E+00
Ga   -1.4902141723384497E+00    2.7498839060595288E+00    8.4360086385487314E+00
N   -1.4948077141061220E+00    2.7445957465544026E+00    1.0431867606600598E+01
Ga   -1.5153434904577814E+00    4.6021477568666320E+00    1.1070979876106637E+01
N   -1.5355743976722165E+00    4.6074610823721978E+00    1.3065234606016613E+01
Ga   -1.4961757315056383E+00    2.7392458099117003E+00    1.3627548945094881E+01
N   -1.5386205288626382E+00    2.7231758267710071E+00    1.5586192278483965E+01
Ga   -1.3323945494244303E+00    4.4860056882778450E+00    1.6500495856924964E+01
N    8.9178323456733197E-02    3.6595451624390933E+00    1.7651813408362990E+01
N   -3.1212887377268874E+00    7.4833526985415979E+00    2.6873056401956483E+00
Ga   -3.1163701515968643E+00    5.5115833668696146E+00    2.9413374490645370E+00
N   -3.1201172832253579E+00    5.5330005384987571E+00    5.0805594376160084E+00
Ga   -3.1487948500834162E+00    7.3507293646803973E+00    5.8514119964851217E+00
N   -3.1265438496049693E+00    7.3810992213595581E+00    7.8285143353475615E+00
Ga   -3.1110169106708740E+00    5.5251187703890432E+00    8.4501958972779256E+00
N   -3.1080404442220679E+00    5.5252139945356316E+00    1.0425291009082226E+01
Ga   -3.1121316673156421E+00    7.3688553855705035E+00    1.1063080402283131E+01
N   -3.1150592595291853E+00    7.3423228382488581E+00    1.3060961224611868E+01
Ga   -3.1076561403901839E+00    5.5228838678458292E+00    1.3850243656466450E+01
N   -3.1132242575029490E+00    5.5243336658612483E+00    1.6068482108637685E+01
Ga   -3.1207473134917967E+00    7.5736330042663003E+00    1.6482882999955248E+01
Ga   -2.6621420025617324E+00    8.9572336358775946E+00    1.3828867473641169E+00
N   -4.6162237908820654E+00    1.0090224475057409E+01    2.4157710533706895E+00
Ga   -4.7080687039428772E+00    8.4096448487451170E+00    3.3281292462616054E+00
N   -4.7616915862475073E+00    8.3267642601037863E+00    5.2568942685535314E+00
Ga   -4.7568018009109672E+00    1.0223809765923541E+01    5.8170882910251933E+00
N   -4.7303222203482509E+00    1.0182942000816340E+01    7.8120102789855101E+00
Ga   -4.7264234325808321E+00    8.3306881589565513E+00    8.4471543516155467E+00
N   -4.7139961187482617E+00    8.3190597157716883E+00    1.0438705998070633E+01
Ga   -4.7391007376380712E+00    1.0179958206581324E+01    1.1071220169682132E+01
N   -4.7576658641108258E+00    1.0182198303039156E+01    1.3070166404253296E+01
Ga   -4.7117641006147544E+00    8.3127495412460348E+00    1.3621671414176214E+01
N   -4.7478431083879897E+00    8.2871987435184931E+00    1.5584169737366915E+01
Ga   -4.5775277075940002E+00    1.0071495170080425E+01    1.6488739983204464E+01
N   -3.1306378151419665E+00    9.2365543858658192E+00    1.7620243967297043E+01
N    3.2881605240504936E+00    1.8172522172588903E+00    2.6104210777336028E+00
Ga    3.2746902955061179E+00    3.4769564091778879E-02    3.1987984884422014E+00
N    3.2982405637859582E+00   -3.0365173468138298E-02    5.2181473859406706E+00
Ga    3.3057744258729862E+00    1.8280754520613456E+00    5.8270904175402718E+00
N    3.3168664833131740E+00    1.8237820983379280E+00    7.8279509238824518E+00
Ga    3.3094190258140319E+00   -3.1860515575457306E-02    8.4460080459398164E+00
N    3.3151550886417858E+00   -4.9322693153916949E-02    1.0440905497581051E+01
Ga    3.3155345103328582E+00    1.8205944242113412E+00    1.1027581638127026E+01
N    3.3160741872237685E+00    1.8099126916952994E+00    1.3003950355162134E+01
Ga    3.3159044932980346E+00   -6.2082477047098177E-02    1.3620321616489420E+01
N    3.3158779807349004E+00   -2.9949806810479467E-02    1.5584430279702302E+01
Ga    3.3113585530051330E+00    1.8050844907880625E+00    1.5863713594842222E+01
N    1.5603633230556675E+00    4.5480828912244773E+00    2.4851650157172767E+00
Ga    1.7637314850175787E+00    2.7194988422895143E+00    3.2438434405209033E+00
N    1.7006510154788728E+00    2.7652174099415063E+00    5.2362393648573109E+00
Ga    1.7140053636235077E+00    4.6276243475161918E+00    5.7885714939097719E+00
N    1.7092084031267365E+00    4.6156144864058035E+00    7.7925991983036020E+00
Ga    1.7029289191892316E+00    2.7558206255494908E+00    8.4199726921070202E+00
N    1.7000418415678538E+00    2.7498466329742315E+00    1.0427676415620244E+01
Ga    1.7315719974168555E+00    4.6062885490781857E+00    1.1062747224735309E+01
N    1.7441562503672738E+00    4.6113115741956419E+00    1.3060473105294289E+01
Ga    1.6964504513500007E+00    2.7423584322134587E+00    1.3629683409887827E+01
N    1.7235619958561212E+00    2.7242158167350166E+00    1.5589475751952232E+01
Ga    1.5161492193269452E+00    4.4880728601965609E+00    1.6502757888114381E+01
N   -8.3639338313671926E-03    7.4287304787972452E+00    2.5826249546639009E+00
Ga    7.3379859831240124E-02    5.5911030285611165E+00    3.2358259290344833E+00
N    8.7361551676451335E-02    5.5730271110450218E+00    5.2193135078244355E+00
Ga    1.3214960965138178E-01    7.3942047471044479E+00    5.9120485232867246E+00
N    1.1082924564314577E-01    7.3928513964854368E+00    7.8742718340877476E+00
Ga    1.0702031669976522E-01    5.5212943411381135E+00    8.4521698523607398E+00
N    1.0519750534405560E-01    5.5156730174998971E+00    1.0442825731146886E+01
Ga    1.0559472706814488E-01    7.3848576552238443E+00    1.1027517327245118E+01
N    1.0033208183414941E-01    7.3797584031522385E+00    1.2999187484700357E+01
Ga    1.0261606570368792E-01    5.5090193957422207E+00    1.3621121248435131E+01
N    9.2491475181115820E-02    5.5392642596810777E+00    1.5579533543801048E+01
Ga    9.4118510101305106E-02    7.3769204057786215E+00    1.5854105594482107E+01
N   -1.6170513992979960E+00    1.0086124977067762E+01    2.6174511956037367E+00
Ga   -1.4615882743286628E+00    8.2996176957021639E+00    3.5154884429700122E+00
N   -1.5096163395011797E+00    8.3239581843617110E+00    5.3958009613734292E+00
Ga   -1.5080541019240907E+00    1.0238036424500034E+01    5.8402636788379008E+00
N   -1.5044636040624928E+00    1.0195407427996166E+01    7.8292793364764401E+00
Ga   -1.5165005448594870E+00    8.3315988019454341E+00    8.4423989781015827E+00
N   -1.5146564574450228E+00    8.3218525804234957E+00    1.0434497312557188E+01
Ga   -1.4901915234648482E+00    1.0183602739048609E+01    1.1059627611480257E+01
N   -1.4764672459012942E+00    1.0183799973054363E+01    1.3059053292078742E+01
Ga   -1.5189124404417091E+00    8.3153594500325934E+00    1.3614612729230940E+01
N   -1.4990858233442703E+00    8.2964488167819521E+00    1.5577421587381757E+01
Ga   -1.6854027921616670E+00    1.0059429905038495E+01    1.6483056625391271E+01
N    6.5035962173382433E+00    1.9293017470031635E+00    2.5234491159929222E+00
Ga    6.5193944805073327E+00   -3.3490970614860907E-02    2.9114606102967948E+00
N    6.5136399063741415E+00   -2.6001947329746356E-02    5.0736198655613505E+00
Ga    6.5251684480995875E+00    1.8005804549972446E+00    5.8002499894455370E+00
N    6.5404578998767695E+00    1.8184820745252728E+00    7.8019215511254538E+00
Ga    6.5437221421377787E+00   -3.0939519069269245E-02    8.4377050804579667E+00
N    6.5419452114244390E+00   -4.0737506331169189E-02    1.0420344941877428E+01
Ga    6.5342705866775379E+00    1.7981301051249894E+00    1.1061119217302739E+01
N    6.5307253983277231E+00    1.7724554205514287E+00    1.3061358920393809E+01
Ga    6.5332953539609475E+00   -5.5495543098829460E-02    1.3843805956409163E+01
N    6.5253828024467104E+00   -6.3426154979840943E-02    1.6067929892925189E+01
Ga    6.5246733065469060E+00    1.9352541462023694E+00    1.6428806970998135E+01
Ga    6.4371186723061564E+00    3.5944526375968806E+00    1.2149120387558907E+00
N    4.9869403572169491E+00    4.5577667767187009E+00    2.5027276542267862E+00
Ga    4.8172075781566877E+00    2.6947175518403301E+00    3.2443499257967248E+00
N    4.9257557117730890E+00    2.7569447051171965E+00    5.2370592495018933E+00
Ga    4.8743384105926433E+00    4.6166246982010497E+00    5.7990244336191257E+00
N    4.9168415834266304E+00    4.6111960253114255E+00    7.7959161157028110E+00
Ga    4.9302647641561359E+00    2.7528456708360509E+00    8.4253144934732074E+00
N    4.9367049974442807E+00    2.7481976826417389E+00    1.0429832273009122E+01
Ga    4.9140522946311069E+00    4.6089493787630547E+00    1.1054968016144976E+01
N    4.8918577105382726E+00    4.6135466238080536E+00    1.3057184112766363E+01
Ga    4.9335325062101152E+00    2.7436827093593683E+00    1.3612188842171197E+01
N    4.9116367905442226E+00    2.7293067639324891E+00    1.5585342356056554E+01
Ga    5.0227303265983876E+00    4.5277699656074288E+00    1.6430775359894813E+01
N    6.5189232402186512E+00    3.6624653518824068E+00    1.7545303600039585E+01
N    3.2622476305087660E+00    7.4293156986052340E+00    2.4688728601670857E+00
N    3.2987199051538973E+00    5.5246567817682779E+00    5.0487491571411640E+00
Ga    3.2821058615033505E+00    7.3654856506408235E+00    5.7452651379565420E+00
N    3.3135046413272726E+00    7.3908000813559562E+00    7.7581224636611159E+00
Ga    3.3134302787783074E+00    5.5414382199739949E+00    8.4195056194216598E+00
N    3.3218890708644362E+00    5.5332661140228847E+00    1.0401824162128809E+01
Ga    3.3231363978501953E+00    7.3670621893402988E+00    1.1064937886305056E+01
N    3.3189368413806588E+00    7.3415522199123693E+00    1.3058392481339681E+01
Ga    3.3114278711526084E+00    5.5245441996578171E+00    1.3851465690482422E+01
N    3.2979535891462888E+00    5.5258511600867601E+00    1.6066597132747738E+01
Ga    3.3054316257295318E+00    7.5847437744555615E+00    1.6497033274733074E+01
Ga    3.0041208975625704E+00    9.4543858151223468E+00    6.7869629728138914E-01
N    1.7405839561329781E+00    1.0162694086781704E+01    2.4537921786558310E+00
Ga    1.6412605901096600E+00    8.3314947636045140E+00    3.1221980864298757E+00
N    1.6741835144008981E+00    8.3292140475191054E+00    5.1558207477250191E+00
Ga    1.6725318499337118E+00    1.0191284847401047E+01    5.7715013257533947E+00
N    1.7086544922541045E+00    1.0179406299930029E+01    7.7856930844731149E+00
Ga    1.7302626426540915E+00    8.3317178143660886E+00    8.4428498576759115E+00
N    1.7270828980911186E+00    8.3195389154858841E+00    1.0434645471171450E+01
Ga    1.7017087821135646E+00    1.0180008966433402E+01    1.1062800381407035E+01
N    1.6796750852789706E+00    1.0181300173621480E+01    1.3056246488224737E+01
Ga    1.7194175973727091E+00    8.3124778500232228E+00    1.3617995690643186E+01
N    1.6842703134504944E+00    8.2968852539276874E+00    1.5575556312949855E+01
Ga    1.8808788215323453E+00    1.0054614909736733E+01    1.6497399163578340E+01
N    3.3112039420261117E+00    9.2357021961919763E+00    1.7646083141365033E+01
N    9.7366352628451800E+00    1.8365209153863657E+00    2.6561605363514786E+00
Ga    9.7344266718346653E+00   -5.0171208208329550E-02    3.1970469338553098E+00
N    9.7339161099876090E+00   -1.9052273735067137E-02    5.1747317094886638E+00
Ga    9.7456915903352286E+00    1.8159251021991079E+00    5.8647341088433258E+00
N    9.7538190313460085E+00    1.8201656655002350E+00    7.8338723037380094E+00
Ga    9.7554678440236700E+00   -5.1843169260166348E-02    8.4249540204835380E+00
N    9.7586127050954197E+00   -5.4068732126391156E-02    1.0421675303840548E+01
Ga    9.7551142358333802E+00    1.8113497376896928E+00    1.1023864128779708E+01
N    9.7469762108092155E+00    1.8056187499813836E+00    1.2997268388520553E+01
Ga    9.7493821900490065E+00   -6.4366014420880413E-02    1.3624006189113780E+01
N    9.7369284456336693E+00   -3.0354796246707019E-02    1.5582252725323295E+01
Ga    9.7387919157395739E+00    1.8030655721284283E+00    1.5861735581815598E+01
N    8.0458032514166735E+00    4.5531073487445068E+00    2.5310630151234719E+00
Ga    8.1221957498698636E+00    2.7504452296562003E+00    3.2787256606955397E+00
N    8.1453165573757111E+00    2.7471242559368663E+00    5.2295382729809337E+00
Ga    8.1638247357556111E+00    4.6187371946571236E+00    5.8054155182385427E+00
N    8.1481420683555186E+00    4.6106895819726770E+00    7.7986982163718990E+00
Ga    8.1362702623437464E+00    2.7543860771138724E+00    8.4396696031702714E+00
N    8.1384691861233129E+00    2.7495460203919611E+00    1.0432478047696957E+01
Ga    8.1610870574114038E+00    4.6088798531322297E+00    1.1067013746694947E+01
N    8.1741980474515952E+00    4.6112774794130820E+00    1.3065576482098846E+01
Ga    8.1283871439483519E+00    2.7405565736528090E+00    1.3610846335452262E+01
N    8.1383881982191220E+00    2.7274964806446071E+00    1.5584503141261798E+01
Ga    8.0186948218148846E+00    4.5222164610866571E+00    1.6429048091118332E+01
N    6.6899780635107859E+00    7.2959081727704511E+00    2.5091702978345261E+00
Ga    6.4939872011019588E+00    5.4698019001077105E+00    3.3051918079923563E+00
N    6.5191511590150535E+00    5.5564934624127122E+00    5.2412801202433856E+00
Ga    6.4942409072105329E+00    7.4029459531051023E+00    5.8684228167275938E+00
N    6.5198452724712226E+00    7.3967805740623920E+00    7.8371545505073579E+00
Ga    6.5301219188825170E+00    5.5252785502570001E+00    8.4318614519467037E+00
N    6.5404893832556272E+00    5.5179131996276025E+00    1.0429639691325088E+01
Ga    6.5334330540388921E+00    7.3833443164027868E+00    1.1025441839605335E+01
N    6.5337497950453507E+00    7.3759387269137111E+00    1.2998954165187071E+01
Ga    6.5325383976750686E+00    5.5074169406142470E+00    1.3613347735388958E+01
N    6.5254654673506076E+00    5.5244879334057257E+00    1.5586219732365930E+01
Ga    6.5248090685879303E+00    7.3726938746014579E+00    1.5863522650498629E+01
N    4.8662796397843415E+00    1.0184825620284059E+01    2.4733030583438902E+00
Ga    4.6479254667124490E+00    8.4611042184911760E+00    3.2294201566527607E+00
N    4.9180288116188660E+00    8.3225367620957194E+00    5.1680840657955800E+00
Ga    4.9526761866314839E+00    1.0216310904120892E+01    5.7488671299184935E+00
N    4.9325954654611177E+00    1.0181203794504805E+01    7.7618230997221289E+00
Ga    4.9054713662395537E+00    8.3323521330383112E+00    8.4241663226192660E+00
N    4.9165848739017965E+00    8.3224616741146544E+00    1.0422164278452861E+01
Ga    4.9453026979505834E+00    1.0178754257918953E+01    1.1072450648401713E+01
N    4.9579070272751062E+00    1.0181053865287106E+01    1.3067720687345609E+01
Ga    4.9151877417840426E+00    8.3123854132081938E+00    1.3625569234673897E+01
N    4.9366061460572555E+00    8.2887879183213489E+00    1.5584995117927075E+01
Ga    4.7496947362160684E+00    1.0064588663869831E+01    1.6504912458458399E+01
O   -2.0937893760894936E-02    3.7262046383710299E+00   -5.0691227867304811E-01
H   -1.8007592891335307E+00    7.2243108787088710E+00    1.5587940242090478E-01
C    1.1929070107088566E+00    3.5156861481828785E+00   -1.2504654918971538E+00
H    2.0684169941813644E+00    4.0016901623753443E+00   -7.8474453695260826E-01
H    1.4216951198957049E+00    2.4440320528592707E+00   -1.3752676738870004E+00
H    1.0538329409229132E+00    3.9568370786637814E+00   -2.2476998095863214E+00
Ga    3.2544531881001406E+00    5.5145588473914406E+00    2.8758451475057267E+00
O   -1.4265879079030162E+00    8.0472774240001801E+00    5.0849075626909512E-01
H   -4.9969293701957940E-01    7.5867761118827488E+00    1.5886822848794844E+00
C    6.3151662399161639E+00    7.4672837957738816E+00    1.2836234707621108E+00
H    6.6024694095660497E+00    8.3783929375095969E+00    7.2656537025952606E-01
H    9.7711670921108968E+00    1.8960949066532655E+00    1.6324093239330817E+00
H    5.6746122489891322E+00    6.7180205585751986E+00    7.8823427285500580E-01
     &END COORD
     &KIND C
       BASIS_SET DZVP-MOLOPT-SR-GTH-q4
       POTENTIAL GTH-PBE-q4
       &POTENTIAL
 2 2
  0.3384712400000000E+00 2 -0.8803673979999999E+01  0.1339210850000000E+01
 2
  0.3025757500000000E+00 1  0.9622486650000001E+01
  0.2915069400000000E+00 0
         # Potential name:  GTH-PBE-Q4  for symbol:  C
         # Potential read from the potential filename: GTH_POTENTIALS
       &END POTENTIAL
     &END KIND
     &KIND O
       BASIS_SET DZVP-MOLOPT-SR-GTH-q6
       POTENTIAL GTH-PBE-q6
       &POTENTIAL
 2 4
  0.2445543000000000E+00 2 -0.1666721480000000E+02  0.2487311320000000E+01
 2
  0.2209559200000000E+00 1  0.1833745811000000E+02
  0.2113324700000000E+00 0
         # Potential name:  GTH-PBE-Q6  for symbol:  O
         # Potential read from the potential filename: GTH_POTENTIALS
       &END POTENTIAL
     &END KIND
     &KIND H
       BASIS_SET DZVP-MOLOPT-SR-GTH-q1
       POTENTIAL GTH-PBE-q1
       &POTENTIAL
 1
  0.2000000000000000E+00 2 -0.4178900440000000E+01  0.7244633100000000E+00
 0
         # Potential name:  GTH-PBE-Q1  for symbol:  H
         # Potential read from the potential filename: GTH_POTENTIALS
       &END POTENTIAL
     &END KIND
     &KIND N
       BASIS_SET DZVP-MOLOPT-SR-GTH
       POTENTIAL GTH-PBE-q5
       &POTENTIAL
 2 3
  0.2837905100000000E+00 2 -0.1241522559000000E+02  0.1868095920000000E+01
 2
  0.2554050000000000E+00 1  0.1363026257000000E+02
  0.2454945300000000E+00 0
         # Potential name:  GTH-PBE-Q5  for symbol:  N
         # Potential read from the potential filename: GTH_POTENTIALS
       &END POTENTIAL
     &END KIND
     &KIND Ga
       BASIS_SET DZVP-MOLOPT-SR-GTH
       POTENTIAL GTH-PBE-q13
       &POTENTIAL
 2 1 10
  0.4900000000000000E+00 0
 3
  0.4167772300000000E+00 3  0.1047568975000000E+02 -0.4921768140000000E+01  0.8707055900000000E+00
  0.7770178090000000E+01 -0.2248152160000000E+01
  0.1784415450000000E+01
  0.5696265200000000E+00 2  0.1777985340000000E+01  0.1958597600000000E+00
 -0.2317443900000000E+00
  0.2381265000000000E+00 1 -0.1624868022000000E+02
         # Potential name:  GTH-PBE-Q13  for symbol:  GA
         # Potential read from the potential filename: GTH_POTENTIALS
       &END POTENTIAL
     &END KIND
     &TOPOLOGY
       NUMBER_OF_ATOMS  212
       MULTIPLE_UNIT_CELL  1 1 1
     &END TOPOLOGY
   &END SUBSYS
 &END FORCE_EVAL
