 # Version information for this restart file 
 # current date 2019-07-03 10:20:48.424
 # current working dir /lustre04/scratch/rzk/rzk/GaN-carbene/443-adatoms-both-2x2/08-CH3O-H2O-H2C-H/03-Use-0401
 # Program compiled at                              Sun Apr  7 00:48:11 EDT 2019
 # Program compiled on                          beluga2.int.ets1.calculquebec.ca
 # Program compiled for                        Beluga-Linux-x86-64-intel-openmpi
 # Source code revision number                                         svn:18619
 &GLOBAL
   PRINT_LEVEL  MEDIUM
   PROJECT_NAME TEST
   RUN_TYPE  GEO_OPT
 &END GLOBAL
 &MOTION
   &GEO_OPT
     MAX_ITER  500
     STEP_START_VAL  36
   &END GEO_OPT
 &END MOTION
 &FORCE_EVAL
   METHOD  QS
   STRESS_TENSOR  ANALYTICAL
   &DFT
     BASIS_SET_FILE_NAME BASIS_MOLOPT
     POTENTIAL_FILE_NAME GTH_POTENTIALS
     UKS  T
     SURFACE_DIPOLE_CORRECTION  T
     SURF_DIP_DIR  Z
     &SCF
       MAX_SCF  80
       EPS_SCF     5.0000000000000004E-06
       &OT  T
         PRECONDITIONER  FULL_ALL
       &END OT
       &OUTER_SCF  T
         OPTIMIZER  NONE
         EPS_SCF     5.0000000000000004E-06
         MAX_SCF  4
       &END OUTER_SCF
       &PRINT
         &RESTART  OFF
           BACKUP_COPIES  1
           &EACH
             JUST_ENERGY  0
             QS_SCF  0
             MD  20
           &END EACH
         &END RESTART
       &END PRINT
     &END SCF
     &QS
       EPS_DEFAULT     1.0000000000000000E-14
       METHOD  GPW
     &END QS
     &MGRID
       NGRIDS  5
       CUTOFF     1.2000000000000000E+03
     &END MGRID
     &XC
       DENSITY_CUTOFF     1.0000000000000000E-10
       GRADIENT_CUTOFF     1.0000000000000000E-10
       TAU_CUTOFF     1.0000000000000000E-10
       &XC_FUNCTIONAL  NO_SHORTCUT
         &PBE  T
         &END PBE
       &END XC_FUNCTIONAL
       &VDW_POTENTIAL
         POTENTIAL_TYPE  PAIR_POTENTIAL
         &PAIR_POTENTIAL
           R_CUTOFF     1.0000000000000004E+01
           TYPE  DFTD3
           PARAMETER_FILE_NAME dftd3.dat
           REFERENCE_FUNCTIONAL PBE
           EPS_CN     9.9999999999999995E-07
           CALCULATE_C9_TERM  T
           REFERENCE_C9_TERM  T
           LONG_RANGE_CORRECTION  F
           VERBOSE_OUTPUT  F
         &END PAIR_POTENTIAL
       &END VDW_POTENTIAL
     &END XC
   &END DFT
   &SUBSYS
     &CELL
       A     1.2864472766435110E+01    0.0000000000000000E+00    0.0000000000000000E+00
       B    -6.4322363581020028E+00    1.1140960178524473E+01    0.0000000000000000E+00
       C     0.0000000000000000E+00    0.0000000000000000E+00    3.2000000000000000E+01
       MULTIPLE_UNIT_CELL  1 1 1
       &CELL_REF
         A     1.2982353780853531E+01    0.0000000000000000E+00    0.0000000000000000E+00
         B    -6.4911768904267628E+00    1.1243048175136114E+01    0.0000000000000000E+00
         C     0.0000000000000000E+00    0.0000000000000000E+00    3.2000000000000000E+01
         MULTIPLE_UNIT_CELL  1 1 1
       &END CELL_REF
     &END CELL
     &COORD
N    7.7363568901153285E-02    1.9650524172324721E+00    2.4914869847653494E+00
Ga    1.0924836966201264E-01   -8.3050808928351125E-03    2.8395316448256755E+00
N    1.0989879216418912E-01   -1.6862752841569476E-02    5.0448556881057396E+00
Ga    1.0418819085615599E-01    1.8003761634719435E+00    5.7962941208185113E+00
N    9.8291841593122251E-02    1.8141402044747310E+00    7.7977776271911754E+00
Ga    9.1553454557133096E-02   -3.4738968249480771E-02    8.4327354743916771E+00
N    9.7039361582228617E-02   -4.1678253273682977E-02    1.0413868599819006E+01
Ga    1.0273121224861836E-01    1.7976282774546588E+00    1.1065778993303871E+01
N    9.9959928408662774E-02    1.7727640226862444E+00    1.3062987263385290E+01
Ga    9.7364166664004187E-02   -4.5406900210463348E-02    1.3873596871982311E+01
N    9.3656544193022745E-02   -4.9376169631298192E-02    1.6073883540311204E+01
Ga    9.3084178091456832E-02    2.0023707909340351E+00    1.6502859528729569E+01
Ga    8.7331370631565680E-02    3.6688262383436268E+00    1.3124380627460630E+00
N   -1.4187011506394553E+00    4.5359410813568282E+00    2.4944120878660705E+00
Ga   -1.5173079811194445E+00    2.7438637727143487E+00    3.3095501598512680E+00
N   -1.5275823912844999E+00    2.7506974853162776E+00    5.2498060347144690E+00
Ga   -1.5314918867419083E+00    4.6290931424009178E+00    5.8116511561588107E+00
N   -1.5136197680055901E+00    4.6124682135997626E+00    7.8052320387923420E+00
Ga   -1.4958300209469659E+00    2.7522679993649994E+00    8.4354173901265312E+00
N   -1.4971988433482568E+00    2.7482018753782254E+00    1.0430296650300054E+01
Ga   -1.5195509412055654E+00    4.6053709283879236E+00    1.1068797770994868E+01
N   -1.5380889846626811E+00    4.6106948600831510E+00    1.3061424622978782E+01
Ga   -1.4967584121437889E+00    2.7427399187872923E+00    1.3623754595497628E+01
N   -1.5374895123398991E+00    2.7265164934155357E+00    1.5580872233275345E+01
Ga   -1.3297061758239572E+00    4.4870814967981856E+00    1.6498540900778231E+01
N    9.1547011997404532E-02    3.6578814179615873E+00    1.7647154935802490E+01
N   -3.1224870720257982E+00    7.4880236998916789E+00    2.6779248564409883E+00
Ga   -3.1181715367018614E+00    5.5101555098706161E+00    2.9335598332858170E+00
N   -3.1242963756457196E+00    5.5339494764078623E+00    5.0748442218014063E+00
Ga   -3.1517952823300068E+00    7.3519992208446947E+00    5.8448068711196788E+00
N   -3.1322604238866556E+00    7.3816622758415109E+00    7.8239130337474334E+00
Ga   -3.1186828415685759E+00    5.5279787321534757E+00    8.4497480179794753E+00
N   -3.1140276092937920E+00    5.5274825824732892E+00    1.0423481830395373E+01
Ga   -3.1163276632678860E+00    7.3702909462666515E+00    1.1063843298763684E+01
N   -3.1167967851113052E+00    7.3443881720375659E+00    1.3059206468403913E+01
Ga   -3.1070044093986033E+00    5.5261244754882162E+00    1.3853618986804172E+01
N   -3.1100152740697919E+00    5.5257484539323052E+00    1.6068442640530733E+01
Ga   -3.1188143564836741E+00    7.5760793287181114E+00    1.6482930994437123E+01
Ga   -2.6956914379092436E+00    8.9846300282367650E+00    1.3842490578983229E+00
N   -4.6211645506589836E+00    1.0098645086079438E+01    2.4285670247069842E+00
Ga   -4.7141797187006214E+00    8.4041991759824768E+00    3.3200715377411485E+00
N   -4.7662556881442493E+00    8.3243871803218941E+00    5.2515610295990642E+00
Ga   -4.7581408153638591E+00    1.0218142151198531E+01    5.8167977372129664E+00
N   -4.7342619577150513E+00    1.0181627488664281E+01    7.8104362977295265E+00
Ga   -4.7303186768656005E+00    8.3300442620614312E+00    8.4485053554561329E+00
N   -4.7182540263996557E+00    8.3209431406582102E+00    1.0438007363466861E+01
Ga   -4.7427890188565298E+00    1.0182394392334523E+01    1.1069152611443599E+01
N   -4.7588482322775967E+00    1.0184420055391666E+01    1.3066019472374100E+01
Ga   -4.7134525799718556E+00    8.3146413473279548E+00    1.3618979858002628E+01
N   -4.7453226071355363E+00    8.2878726711717476E+00    1.5580301165185348E+01
Ga   -4.5747898728137777E+00    1.0072377011025347E+01    1.6482983761148322E+01
N   -3.1309769287749516E+00    9.2392339198897080E+00    1.7619219490288039E+01
N    3.2911900636778149E+00    1.8148363704682979E+00    2.6216244448691253E+00
Ga    3.2772959817835621E+00    3.4381530530525561E-02    3.2117992417926153E+00
N    3.2990982568318841E+00   -3.6412167716494803E-02    5.2262970406186451E+00
Ga    3.3036284756549716E+00    1.8243840135323772E+00    5.8351718466014937E+00
N    3.3144146934967509E+00    1.8227152065974386E+00    7.8330820654662290E+00
Ga    3.3075953706613426E+00   -3.3881975806376190E-02    8.4465524779706129E+00
N    3.3122693410403192E+00   -4.8300342600611619E-02    1.0439845692722642E+01
Ga    3.3145176255132704E+00    1.8214998323488745E+00    1.1027018622654666E+01
N    3.3169626470760267E+00    1.8132908426944765E+00    1.3002291587078959E+01
Ga    3.3145581630761356E+00   -5.9336469096727511E-02    1.3617961655612570E+01
N    3.3175385086803626E+00   -2.7971161412979978E-02    1.5580574401876884E+01
Ga    3.3094718233647105E+00    1.8063255398727469E+00    1.5860484732977444E+01
N    1.5611473699908589E+00    4.5425969571115887E+00    2.4944690907368687E+00
Ga    1.7628751734678760E+00    2.7123463568507074E+00    3.2464939119972480E+00
N    1.6981146765727124E+00    2.7601279694091869E+00    5.2395191014150422E+00
Ga    1.7128297075574561E+00    4.6215244744309016E+00    5.7933460242621138E+00
N    1.7071775793585466E+00    4.6150398537103268E+00    7.7954866021160107E+00
Ga    1.7006507309148873E+00    2.7557186551907424E+00    8.4239421513566004E+00
N    1.6985277435021215E+00    2.7515645513778262E+00    1.0427364593272852E+01
Ga    1.7271347208916112E+00    4.6085900824464296E+00    1.1062190428332549E+01
N    1.7413999569863843E+00    4.6139551484409767E+00    1.3057999690495242E+01
Ga    1.6950511138999227E+00    2.7456729213474000E+00    1.3624388831364845E+01
N    1.7250061441459843E+00    2.7273957184078736E+00    1.5582725331695331E+01
Ga    1.5166541914529217E+00    4.4887232988407453E+00    1.6499517443197369E+01
N    1.3766883485064945E-02    7.4194867147654699E+00    2.6060863915185202E+00
Ga    7.9055396917566648E-02    5.5781928778534713E+00    3.2528675738763928E+00
N    8.4918425791964902E-02    5.5673427482524209E+00    5.2258844836926279E+00
Ga    1.2872095722916516E-01    7.3935915631129001E+00    5.9098889921806954E+00
N    1.0663741049390933E-01    7.3930338240601863E+00    7.8728391732830332E+00
Ga    1.0206171190632865E-01    5.5218900888894744E+00    8.4506104327952105E+00
N    1.0120294809802907E-01    5.5174561173955645E+00    1.0439678594476302E+01
Ga    1.0126714394266882E-01    7.3872615840090647E+00    1.1025661361107115E+01
N    9.8570646955119509E-02    7.3817803593100191E+00    1.2995263871159315E+01
Ga    1.0074466789727937E-01    5.5109140485630386E+00    1.3618289526288374E+01
N    9.3587860225811975E-02    5.5407275461775898E+00    1.5575681671360988E+01
Ga    9.4630866011630566E-02    7.3773932214156055E+00    1.5850718964103795E+01
N   -1.6141378942039157E+00    1.0085234498169592E+01    2.6171616808011677E+00
Ga   -1.4642390423503644E+00    8.2977336769755485E+00    3.4968172132332422E+00
N   -1.5117049402979961E+00    8.3197843076878133E+00    5.3833528574928673E+00
Ga   -1.5059234862078810E+00    1.0231186919645262E+01    5.8407975805779060E+00
N   -1.5063423542033796E+00    1.0193279794192142E+01    7.8284367592503150E+00
Ga   -1.5207274582588794E+00    8.3301430660107805E+00    8.4411319570054495E+00
N   -1.5195484857854002E+00    8.3226687183913075E+00    1.0432943308988708E+01
Ga   -1.4939134682082775E+00    1.0183882971669584E+01    1.1061088472413903E+01
N   -1.4780628727968466E+00    1.0185535401871016E+01    1.3057757601569241E+01
Ga   -1.5201672624419507E+00    8.3165577608763250E+00    1.3613988711091146E+01
N   -1.4979152105825806E+00    8.2974256303425538E+00    1.5575066904975673E+01
Ga   -1.6849546404624023E+00    1.0060643441048397E+01    1.6482301450500611E+01
N    6.5051865931150523E+00    1.9251455973380267E+00    2.5291260827723319E+00
Ga    6.5213083362356290E+00   -3.6734663738055118E-02    2.9074601477195077E+00
N    6.5120966558536155E+00   -2.9059422727030215E-02    5.0700298940937900E+00
Ga    6.5220223833777764E+00    1.7960690985425900E+00    5.8065175080327300E+00
N    6.5360378301006898E+00    1.8168167853506305E+00    7.8054240913383932E+00
Ga    6.5397871647285868E+00   -3.1832755821841204E-02    8.4426252616057162E+00
N    6.5373876299640639E+00   -3.8630143436578328E-02    1.0421187693575268E+01
Ga    6.5318875344831939E+00    1.8006310780879802E+00    1.1064416050481682E+01
N    6.5303288758686060E+00    1.7750139368550344E+00    1.3065243062355989E+01
Ga    6.5316916206228717E+00   -5.4884696324607934E-02    1.3848098861756457E+01
N    6.5269271765018884E+00   -6.2342893227433034E-02    1.6066922475118893E+01
Ga    6.5260047226443474E+00    1.9360804210641556E+00    1.6430016867525740E+01
Ga    6.4328691297064866E+00    3.6003752369204594E+00    1.2177978816719772E+00
N    4.9853467691675215E+00    4.5486891837775305E+00    2.5103502920140648E+00
Ga    4.8197234940221696E+00    2.6899041936037329E+00    3.2558286450544878E+00
N    4.9224704650550750E+00    2.7545461818327523E+00    5.2448403567003163E+00
Ga    4.8728659418314688E+00    4.6161704002165838E+00    5.8027395096977950E+00
N    4.9133593564752056E+00    4.6130418340701924E+00    7.7984727193093200E+00
Ga    4.9277334981537262E+00    2.7536829427641201E+00    8.4287373796007472E+00
N    4.9349307910653684E+00    2.7513349425619551E+00    1.0431196985166151E+01
Ga    4.9089866750432956E+00    4.6108259918066050E+00    1.1059880221830726E+01
N    4.8902188130461406E+00    4.6157401820607751E+00    1.3062865456578637E+01
Ga    4.9331359997622961E+00    2.7465590879625870E+00    1.3614245426835893E+01
N    4.9130259125676572E+00    2.7316497885710458E+00    1.5590885174060830E+01
Ga    5.0244081364838502E+00    4.5299238294720396E+00    1.6431014591011937E+01
N    6.5215650374485383E+00    3.6648012228700706E+00    1.7551924685393647E+01
N    3.2693444802342095E+00    7.4262034215677559E+00    2.4707290704244014E+00
N    3.2961081630396589E+00    5.5235393555703070E+00    5.0509970414934013E+00
Ga    3.2785990104949372E+00    7.3624279911376371E+00    5.7545231161123445E+00
N    3.3088460420461043E+00    7.3902210848783616E+00    7.7649332455866498E+00
Ga    3.3101112035639630E+00    5.5419884516321574E+00    8.4236248134618794E+00
N    3.3182137479728140E+00    5.5342105936539854E+00    1.0405632622723942E+01
Ga    3.3187548249205703E+00    7.3692600465687086E+00    1.1065609101771313E+01
N    3.3166118081246263E+00    7.3443983554746275E+00    1.3057478515391697E+01
Ga    3.3072221880461474E+00    5.5280666344769296E+00    1.3854988260701369E+01
N    3.2977900584833431E+00    5.5280823435360427E+00    1.6066844303314024E+01
Ga    3.3067300828452253E+00    7.5868797708519775E+00    1.6494112296695992E+01
Ga    3.0320590956660869E+00    9.4360741230459251E+00    6.8125266173347898E-01
N    1.7470847732930621E+00    1.0157765029345880E+01    2.4542338890449331E+00
Ga    1.6607000890421382E+00    8.3297167875553857E+00    3.1303930222433056E+00
N    1.6751128126570989E+00    8.3252592979279871E+00    5.1630972765546153E+00
Ga    1.6713219405487121E+00    1.0188376212749406E+01    5.7730739137652067E+00
N    1.7028842892793155E+00    1.0180127035475854E+01    7.7840489037239289E+00
Ga    1.7247654534459724E+00    8.3322263293433529E+00    8.4439949072161049E+00
N    1.7227175457304107E+00    8.3227176819886015E+00    1.0433824668944458E+01
Ga    1.6982811256258799E+00    1.0182436871226091E+01    1.1065335581404108E+01
N    1.6777051522917459E+00    1.0184160302033574E+01    1.3056542214923331E+01
Ga    1.7174514698244603E+00    8.3148829898585799E+00    1.3616727024678182E+01
N    1.6843732533468765E+00    8.2972904714129676E+00    1.5572977048929500E+01
Ga    1.8824254376771261E+00    1.0055426437879269E+01    1.6494413997796400E+01
N    3.3145493968581601E+00    9.2377908756524612E+00    1.7640438397084026E+01
N    9.7344061989175490E+00    1.8356772356238464E+00    2.6616649873983378E+00
Ga    9.7315928103188156E+00   -5.0743149725521387E-02    3.2016014863317808E+00
N    9.7323883728055698E+00   -1.9796135876246401E-02    5.1829659476816641E+00
Ga    9.7399102742983192E+00    1.8145531227514418E+00    5.8682282404339210E+00
N    9.7484742653738543E+00    1.8214761480891029E+00    7.8385862127917143E+00
Ga    9.7498079887071309E+00   -4.9645045287628045E-02    8.4256292132267578E+00
N    9.7529464790011939E+00   -5.1288177741540146E-02    1.0422229237330960E+01
Ga    9.7514739247015321E+00    1.8145236259554016E+00    1.1024525539135460E+01
N    9.7446828880666718E+00    1.8100070762394749E+00    1.2997679767736253E+01
Ga    9.7477274020919253E+00   -6.1203362992940033E-02    1.3622021197704290E+01
N    9.7367839532468441E+00   -2.7523360213699687E-02    1.5578832688367887E+01
Ga    9.7429999810703940E+00    1.8048269785590101E+00    1.5859621225779316E+01
N    8.0419101328059401E+00    4.5514799147357747E+00    2.5335186140868462E+00
Ga    8.1193598589063161E+00    2.7460698384613691E+00    3.2838368590718123E+00
N    8.1407575776699037E+00    2.7467611291719223E+00    5.2358802182369146E+00
Ga    8.1588773273447863E+00    4.6193346954364198E+00    5.8072903688499879E+00
N    8.1417586499351291E+00    4.6116036043329744E+00    7.7996337514719842E+00
Ga    8.1316169620240668E+00    2.7546365723548552E+00    8.4413274347964595E+00
N    8.1338576439626458E+00    2.7524429847291612E+00    1.0434278885525282E+01
Ga    8.1570616142789643E+00    4.6105350224281629E+00    1.1069466601949348E+01
N    8.1726759620335887E+00    4.6140366513550513E+00    1.3068707117543585E+01
Ga    8.1278350185963379E+00    2.7439100055780314E+00    1.3613779367101644E+01
N    8.1396319451149068E+00    2.7305746710760945E+00    1.5590309844888857E+01
Ga    8.0220902022489735E+00    4.5254048733390242E+00    1.6430648326500680E+01
N    6.6836342192799796E+00    7.2943725836282098E+00    2.4833912118916883E+00
Ga    6.4931589191103445E+00    5.4669167518065134E+00    3.3027546298545412E+00
N    6.5158009141932602E+00    5.5566675643916961E+00    5.2371366185672406E+00
Ga    6.4938738356538144E+00    7.4018948873084147E+00    5.8701291642737052E+00
N    6.5171143487667713E+00    7.3955588919819313E+00    7.8384637215412720E+00
Ga    6.5251782679977399E+00    5.5253149037759925E+00    8.4373159360435181E+00
N    6.5350195998210099E+00    5.5189801872544946E+00    1.0432376785310309E+01
Ga    6.5282959332654169E+00    7.3859819264416426E+00    1.1025901187673556E+01
N    6.5310708537603697E+00    7.3771031574434049E+00    1.2998994739091454E+01
Ga    6.5309774027512510E+00    5.5096733036375829E+00    1.3614698791352499E+01
N    6.5273738979821347E+00    5.5259742427016354E+00    1.5591366245720302E+01
Ga    6.5266764792853591E+00    7.3771229385625201E+00    1.5860936119558810E+01
N    4.8678316154893091E+00    1.0180184257943726E+01    2.4828785401521083E+00
Ga    4.6485694583866115E+00    8.4600412888660923E+00    3.2449938342786138E+00
N    4.9143777026940043E+00    8.3218412027368736E+00    5.1777274249128684E+00
Ga    4.9489349838477095E+00    1.0217460682254398E+01    5.7565344825811273E+00
N    4.9282246998798609E+00    1.0182665415499576E+01    7.7667459787195368E+00
Ga    4.9010939292681437E+00    8.3326942409581299E+00    8.4254392434802643E+00
N    4.9121278539342610E+00    8.3238833103120591E+00    1.0421958380499140E+01
Ga    4.9406358751097752E+00    1.0181244791838980E+01    1.1068880344433490E+01
N    4.9557173138653123E+00    1.0183647867318825E+01    1.3062772143217874E+01
Ga    4.9125256161840785E+00    8.3149733375550348E+00    1.3622895077582433E+01
N    4.9375192546432727E+00    8.2890797254564301E+00    1.5580456698314039E+01
Ga    4.7503465140075276E+00    1.0065557672249678E+01    1.6497535177922799E+01
O   -2.0312110402599930E-02    3.7466635640172639E+00   -5.0015433276901777E-01
H   -1.7028623346716483E+00    7.1546451444842383E+00    1.2344263577329977E-01
C    1.1882488103840918E+00    3.5228704251179783E+00   -1.2464433763909930E+00
H    2.0702335755069146E+00    3.9995824148885397E+00   -7.8572601391949493E-01
H    1.4054829393464396E+00    2.4484872908221433E+00   -1.3682168166777278E+00
H    1.0509959213628113E+00    3.9618596078777970E+00   -2.2456775028666085E+00
Ga    3.2582615014201894E+00    5.5117431597222843E+00    2.8829807214133463E+00
O   -1.3354256174260419E+00    8.0108068515665654E+00    4.2862996081739096E-01
H   -3.6721883926741788E-01    7.5659063841533580E+00    1.6159164552370446E+00
C    6.3171071975057700E+00    7.4661686153854649E+00    1.2563806084025926E+00
H    6.6086160773738536E+00    8.3821152785553430E+00    7.0748989110005511E-01
H    9.7595842082379480E+00    1.8869154269262560E+00    1.6364540779222592E+00
H    5.6784530149615993E+00    6.7259377113363028E+00    7.4992409190068721E-01
     &END COORD
     &KIND C
       BASIS_SET DZVP-MOLOPT-SR-GTH-q4
       POTENTIAL GTH-PBE-q4
       &POTENTIAL
 2 2
  0.3384712400000000E+00 2 -0.8803673979999999E+01  0.1339210850000000E+01
 2
  0.3025757500000000E+00 1  0.9622486650000001E+01
  0.2915069400000000E+00 0
         # Potential name:  GTH-PBE-Q4  for symbol:  C
         # Potential read from the potential filename: GTH_POTENTIALS
       &END POTENTIAL
     &END KIND
     &KIND O
       BASIS_SET DZVP-MOLOPT-SR-GTH-q6
       POTENTIAL GTH-PBE-q6
       &POTENTIAL
 2 4
  0.2445543000000000E+00 2 -0.1666721480000000E+02  0.2487311320000000E+01
 2
  0.2209559200000000E+00 1  0.1833745811000000E+02
  0.2113324700000000E+00 0
         # Potential name:  GTH-PBE-Q6  for symbol:  O
         # Potential read from the potential filename: GTH_POTENTIALS
       &END POTENTIAL
     &END KIND
     &KIND H
       BASIS_SET DZVP-MOLOPT-SR-GTH-q1
       POTENTIAL GTH-PBE-q1
       &POTENTIAL
 1
  0.2000000000000000E+00 2 -0.4178900440000000E+01  0.7244633100000000E+00
 0
         # Potential name:  GTH-PBE-Q1  for symbol:  H
         # Potential read from the potential filename: GTH_POTENTIALS
       &END POTENTIAL
     &END KIND
     &KIND N
       BASIS_SET DZVP-MOLOPT-SR-GTH
       POTENTIAL GTH-PBE-q5
       &POTENTIAL
 2 3
  0.2837905100000000E+00 2 -0.1241522559000000E+02  0.1868095920000000E+01
 2
  0.2554050000000000E+00 1  0.1363026257000000E+02
  0.2454945300000000E+00 0
         # Potential name:  GTH-PBE-Q5  for symbol:  N
         # Potential read from the potential filename: GTH_POTENTIALS
       &END POTENTIAL
     &END KIND
     &KIND Ga
       BASIS_SET DZVP-MOLOPT-SR-GTH
       POTENTIAL GTH-PBE-q13
       &POTENTIAL
 2 1 10
  0.4900000000000000E+00 0
 3
  0.4167772300000000E+00 3  0.1047568975000000E+02 -0.4921768140000000E+01  0.8707055900000000E+00
  0.7770178090000000E+01 -0.2248152160000000E+01
  0.1784415450000000E+01
  0.5696265200000000E+00 2  0.1777985340000000E+01  0.1958597600000000E+00
 -0.2317443900000000E+00
  0.2381265000000000E+00 1 -0.1624868022000000E+02
         # Potential name:  GTH-PBE-Q13  for symbol:  GA
         # Potential read from the potential filename: GTH_POTENTIALS
       &END POTENTIAL
     &END KIND
     &TOPOLOGY
       NUMBER_OF_ATOMS  212
       MULTIPLE_UNIT_CELL  1 1 1
     &END TOPOLOGY
   &END SUBSYS
 &END FORCE_EVAL
