 # Version information for this restart file 
 # current date 2019-07-03 10:17:04.556
 # current working dir /lustre04/scratch/rzk/rzk/GaN-carbene/443-adatoms-both-2x2/08-CH3O-H2O-H2C-H/03-Use-0401
 # Program compiled at                              Sun Apr  7 00:48:11 EDT 2019
 # Program compiled on                          beluga2.int.ets1.calculquebec.ca
 # Program compiled for                        Beluga-Linux-x86-64-intel-openmpi
 # Source code revision number                                         svn:18619
 &GLOBAL
   PRINT_LEVEL  MEDIUM
   PROJECT_NAME TEST
   RUN_TYPE  GEO_OPT
 &END GLOBAL
 &MOTION
   &GEO_OPT
     MAX_ITER  500
     STEP_START_VAL  35
   &END GEO_OPT
 &END MOTION
 &FORCE_EVAL
   METHOD  QS
   STRESS_TENSOR  ANALYTICAL
   &DFT
     BASIS_SET_FILE_NAME BASIS_MOLOPT
     POTENTIAL_FILE_NAME GTH_POTENTIALS
     UKS  T
     SURFACE_DIPOLE_CORRECTION  T
     SURF_DIP_DIR  Z
     &SCF
       MAX_SCF  80
       EPS_SCF     5.0000000000000004E-06
       &OT  T
         PRECONDITIONER  FULL_ALL
       &END OT
       &OUTER_SCF  T
         OPTIMIZER  NONE
         EPS_SCF     5.0000000000000004E-06
         MAX_SCF  4
       &END OUTER_SCF
       &PRINT
         &RESTART  OFF
           BACKUP_COPIES  1
           &EACH
             JUST_ENERGY  0
             QS_SCF  0
             MD  20
           &END EACH
         &END RESTART
       &END PRINT
     &END SCF
     &QS
       EPS_DEFAULT     1.0000000000000000E-14
       METHOD  GPW
     &END QS
     &MGRID
       NGRIDS  5
       CUTOFF     1.2000000000000000E+03
     &END MGRID
     &XC
       DENSITY_CUTOFF     1.0000000000000000E-10
       GRADIENT_CUTOFF     1.0000000000000000E-10
       TAU_CUTOFF     1.0000000000000000E-10
       &XC_FUNCTIONAL  NO_SHORTCUT
         &PBE  T
         &END PBE
       &END XC_FUNCTIONAL
       &VDW_POTENTIAL
         POTENTIAL_TYPE  PAIR_POTENTIAL
         &PAIR_POTENTIAL
           R_CUTOFF     1.0000000000000004E+01
           TYPE  DFTD3
           PARAMETER_FILE_NAME dftd3.dat
           REFERENCE_FUNCTIONAL PBE
           EPS_CN     9.9999999999999995E-07
           CALCULATE_C9_TERM  T
           REFERENCE_C9_TERM  T
           LONG_RANGE_CORRECTION  F
           VERBOSE_OUTPUT  F
         &END PAIR_POTENTIAL
       &END VDW_POTENTIAL
     &END XC
   &END DFT
   &SUBSYS
     &CELL
       A     1.2864472766435110E+01    0.0000000000000000E+00    0.0000000000000000E+00
       B    -6.4322363581020028E+00    1.1140960178524473E+01    0.0000000000000000E+00
       C     0.0000000000000000E+00    0.0000000000000000E+00    3.2000000000000000E+01
       MULTIPLE_UNIT_CELL  1 1 1
       &CELL_REF
         A     1.2982353780853531E+01    0.0000000000000000E+00    0.0000000000000000E+00
         B    -6.4911768904267628E+00    1.1243048175136114E+01    0.0000000000000000E+00
         C     0.0000000000000000E+00    0.0000000000000000E+00    3.2000000000000000E+01
         MULTIPLE_UNIT_CELL  1 1 1
       &END CELL_REF
     &END CELL
     &COORD
N    7.9028935421978141E-02    1.9681746093183956E+00    2.4884883724678617E+00
Ga    1.0940478044195526E-01   -7.0513286105233072E-03    2.8359408394771277E+00
N    1.1215894869729333E-01   -1.6578584030701990E-02    5.0439083760831229E+00
Ga    1.0641405727117841E-01    1.7993078496539743E+00    5.7950583823696444E+00
N    9.9306866957176734E-02    1.8126381244095964E+00    7.7977895450362675E+00
Ga    9.2242256529687969E-02   -3.5501235998865670E-02    8.4340717550191595E+00
N    9.7204676162088818E-02   -4.2565247495400783E-02    1.0416112141188240E+01
Ga    1.0287909465766513E-01    1.7966459140791304E+00    1.1068572190441790E+01
N    9.9305785579421532E-02    1.7725021020776768E+00    1.3066325193620676E+01
Ga    9.6927640687096944E-02   -4.5750577928460871E-02    1.3876029358884207E+01
N    9.2492702570164148E-02   -4.9208572794009697E-02    1.6079180370783586E+01
Ga    9.0983188630167078E-02    2.0028474578357529E+00    1.6505883619943564E+01
Ga    8.9117316872780419E-02    3.6698016434471734E+00    1.3122289650783807E+00
N   -1.4174853456995733E+00    4.5359231357953753E+00    2.4930160911285992E+00
Ga   -1.5154921672735344E+00    2.7446118229438650E+00    3.3095094877159976E+00
N   -1.5243153056868954E+00    2.7503632414922974E+00    5.2482302230973952E+00
Ga   -1.5283829863121094E+00    4.6283671236886077E+00    5.8108540457920119E+00
N   -1.5110311672314962E+00    4.6104441594691457E+00    7.8060447846056435E+00
Ga   -1.4939976620251831E+00    2.7507945314000328E+00    8.4366576540926079E+00
N   -1.4973351892093647E+00    2.7467560729433016E+00    1.0431757386477138E+01
Ga   -1.5189270715933079E+00    4.6043666025859409E+00    1.1070165740303629E+01
N   -1.5382187084529726E+00    4.6100283996746878E+00    1.3063492723744815E+01
Ga   -1.4980264613524752E+00    2.7419595469267297E+00    1.3625954036237500E+01
N   -1.5396080394764191E+00    2.7260912694213020E+00    1.5583395335201976E+01
Ga   -1.3316175868269096E+00    4.4876268227162202E+00    1.6498850447800692E+01
N    8.9330099488368980E-02    3.6596956915567400E+00    1.7649514937840088E+01
N   -3.1230944608104712E+00    7.4861803741791588E+00    2.6748512896534939E+00
Ga   -3.1160329825126984E+00    5.5103184145458801E+00    2.9329319219213876E+00
N   -3.1221840750300203E+00    5.5331672296484351E+00    5.0757721123644846E+00
Ga   -3.1488020436117603E+00    7.3508362934873288E+00    5.8467255889738894E+00
N   -3.1300317394223374E+00    7.3811526103558718E+00    7.8253151133238106E+00
Ga   -3.1159484605197565E+00    5.5263182901950536E+00    8.4499394707656972E+00
N   -3.1125645513991773E+00    5.5268490386100266E+00    1.0424417168419552E+01
Ga   -3.1156370507340916E+00    7.3699238916901963E+00    1.1064135816476272E+01
N   -3.1173749043104739E+00    7.3443563050543732E+00    1.3060485388376270E+01
Ga   -3.1086208660042085E+00    5.5256220403956346E+00    1.3852483241451951E+01
N   -3.1122061491063109E+00    5.5264988518620033E+00    1.6069395521317915E+01
Ga   -3.1207599206322167E+00    7.5771971293723865E+00    1.6483438810305426E+01
Ga   -2.7006235852411464E+00    8.9907036326677137E+00    1.3897027634565473E+00
N   -4.6185006744756558E+00    1.0095091394605360E+01    2.4250313511340296E+00
Ga   -4.7117576043478246E+00    8.4041666466752183E+00    3.3249518015591990E+00
N   -4.7638605938251271E+00    8.3245296202444248E+00    5.2539043591687058E+00
Ga   -4.7576289442650381E+00    1.0220058692320730E+01    5.8177657300823116E+00
N   -4.7330936474232148E+00    1.0181583710171607E+01    7.8114582382206690E+00
Ga   -4.7288335752293733E+00    8.3297704898810494E+00    8.4483195353533826E+00
N   -4.7173358742905105E+00    8.3202184118015303E+00    1.0438528688250070E+01
Ga   -4.7421266916049820E+00    1.0181463569088667E+01    1.1070559564929473E+01
N   -4.7594044468476877E+00    1.0184093025617194E+01    1.3068133552296537E+01
Ga   -4.7140338421971277E+00    8.3146697557025036E+00    1.3621103238075406E+01
N   -4.7478383738320735E+00    8.2887412830375577E+00    1.5582490695520072E+01
Ga   -4.5765588400145285E+00    1.0072898451734467E+01    1.6486042875052508E+01
N   -3.1318539516608670E+00    9.2392625838875979E+00    1.7621022504966792E+01
N    3.2904226562508980E+00    1.8159329472441224E+00    2.6158916913286880E+00
Ga    3.2782772665215667E+00    3.7279155375699743E-02    3.2100794568783990E+00
N    3.2993423908635928E+00   -3.4788280298666582E-02    5.2240001312919961E+00
Ga    3.3050847818387528E+00    1.8258393261125099E+00    5.8325086729408335E+00
N    3.3149372776682533E+00    1.8227066808711798E+00    7.8315470738285997E+00
Ga    3.3078775873225212E+00   -3.3504937378478643E-02    8.4464621000245454E+00
N    3.3123297692046152E+00   -4.8564643675269616E-02    1.0440424519026497E+01
Ga    3.3136967347451143E+00    1.8213032798655722E+00    1.1028029862707386E+01
N    3.3153780275865405E+00    1.8125493353386222E+00    1.3003553126479133E+01
Ga    3.3137935013135107E+00   -5.9598637424456001E-02    1.3619888779305207E+01
N    3.3156300892871093E+00   -2.7448304806805619E-02    1.5582678125935633E+01
Ga    3.3094196231598514E+00    1.8068240638874680E+00    1.5862265016109468E+01
N    1.5612538704527319E+00    4.5446805359933702E+00    2.4935339321710055E+00
Ga    1.7639831985327299E+00    2.7155338437749195E+00    3.2458421262118864E+00
N    1.6997480111161076E+00    2.7616064757223184E+00    5.2389566456736638E+00
Ga    1.7135577930960606E+00    4.6234656161039993E+00    5.7932538134810354E+00
N    1.7075561162420925E+00    4.6147113533837629E+00    7.7960219535373074E+00
Ga    1.7009580204177914E+00    2.7552721873862809E+00    8.4231010798354866E+00
N    1.6979519610320482E+00    2.7508689299790841E+00    1.0428323168005502E+01
Ga    1.7276698598708295E+00    4.6077212087379786E+00    1.1063020875026197E+01
N    1.7411844164430328E+00    4.6134438892775833E+00    1.3059498305912218E+01
Ga    1.6946302762237060E+00    2.7448007985948215E+00    1.3627336746825485E+01
N    1.7236446953883686E+00    2.7269257445550341E+00    1.5585935999515122E+01
Ga    1.5147879166597746E+00    4.4894341526365968E+00    1.6500283651762054E+01
N    7.7057166616546005E-03    7.4198694094958855E+00    2.5933124425652014E+00
Ga    7.7513834806858542E-02    5.5863593540689909E+00    3.2484912165652515E+00
N    8.6022574023020826E-02    5.5683460769395152E+00    5.2264692627269538E+00
Ga    1.2865582669547071E-01    7.3936677169976903E+00    5.9103492335775805E+00
N    1.0725730599054514E-01    7.3928332388830942E+00    7.8736531765456572E+00
Ga    1.0329987198468271E-01    5.5214266078715610E+00    8.4513344966597614E+00
N    1.0168926294745233E-01    5.5169184435748004E+00    1.0441356981910836E+01
Ga    1.0181783809594554E-01    7.3862311934161164E+00    1.1027124873585651E+01
N    9.7903561560032909E-02    7.3816484316975330E+00    1.2997311107325894E+01
Ga    1.0022931750144529E-01    5.5110922462555285E+00    1.3620012559501836E+01
N    9.1894276093722110E-02    5.5416514500645135E+00    1.5577456355983900E+01
Ga    9.3122253091537419E-02    7.3786153678351578E+00    1.5851828736839208E+01
N   -1.6149208062813838E+00    1.0086950169205792E+01    2.6156192928384505E+00
Ga   -1.4595475817703045E+00    8.2949254828482690E+00    3.4940870407836022E+00
N   -1.5111838476978985E+00    8.3212075814309578E+00    5.3818870240928645E+00
Ga   -1.5058359868371054E+00    1.0231795739431314E+01    5.8404370093545745E+00
N   -1.5060443126451792E+00    1.0193457952933494E+01    7.8289860852562771E+00
Ga   -1.5196736837882312E+00    8.3303192580532830E+00    8.4425109331648169E+00
N   -1.5186774498381779E+00    8.3225228329074437E+00    1.0434098602486323E+01
Ga   -1.4937196761219351E+00    1.0184057986891723E+01    1.1061031889914824E+01
N   -1.4789220167714012E+00    1.0185524326159689E+01    1.3058855575850275E+01
Ga   -1.5208792403101856E+00    8.3168776844940737E+00    1.3614991178872936E+01
N   -1.4994871083362280E+00    8.2981593505922753E+00    1.5576421137665101E+01
Ga   -1.6870552090829356E+00    1.0060811618127666E+01    1.6483157698850604E+01
N    6.5053653555229340E+00    1.9266060781672429E+00    2.5269770363464774E+00
Ga    6.5230066801071152E+00   -3.5530860353007288E-02    2.9081907059609184E+00
N    6.5132569314397841E+00   -2.9005584560636181E-02    5.0721008186052288E+00
Ga    6.5238362991256791E+00    1.7968522479906119E+00    5.8042620033782830E+00
N    6.5375065612832133E+00    1.8172589728961230E+00    7.8047066588929850E+00
Ga    6.5407974738482020E+00   -3.1639374851983551E-02    8.4409509447184892E+00
N    6.5379520982841708E+00   -3.9325730328008249E-02    1.0421515837358445E+01
Ga    6.5315671255184400E+00    1.7997486442674262E+00    1.1063931908331632E+01
N    6.5291048636676612E+00    1.7748085650130208E+00    1.3064474408561933E+01
Ga    6.5309733056077039E+00   -5.4347669847998006E-02    1.3846600115770402E+01
N    6.5250667998006167E+00   -6.2076542405175843E-02    1.6068449198525222E+01
Ga    6.5242438103996117E+00    1.9361927324735222E+00    1.6429408348989185E+01
Ga    6.4367716465793965E+00    3.5983113944892406E+00    1.2157776370704074E+00
N    4.9863722653773435E+00    4.5521538903644103E+00    2.5075699913314557E+00
Ga    4.8196197243606251E+00    2.6913003370838431E+00    3.2506865943639029E+00
N    4.9246510393335292E+00    2.7547704510408013E+00    5.2418587625497821E+00
Ga    4.8735852518192146E+00    4.6154369161272015E+00    5.8023279131501839E+00
N    4.9145291721291349E+00    4.6115437884711978E+00    7.7985525021865110E+00
Ga    4.9283204483329621E+00    2.7527899295256053E+00    8.4281694356542562E+00
N    4.9344609244232984E+00    2.7500947292727891E+00    1.0431428825120539E+01
Ga    4.9102561195996985E+00    4.6101323331782842E+00    1.1058768464109352E+01
N    4.8899500239387912E+00    4.6154777048222844E+00    1.3061156808565560E+01
Ga    4.9318987503960097E+00    2.7460199292413763E+00    1.3614759426629513E+01
N    4.9112194964997835E+00    2.7317784702695800E+00    1.5589582502568929E+01
Ga    5.0221185157683186E+00    4.5303745024724389E+00    1.6430768048103317E+01
N    6.5194885497543122E+00    3.6647641242120725E+00    1.7549224944924919E+01
N    3.2672968200358299E+00    7.4282084287189205E+00    2.4732683768666393E+00
N    3.2974658382673603E+00    5.5232758169685621E+00    5.0519732921656573E+00
Ga    3.2805976841082312E+00    7.3630582592368485E+00    5.7528841731021574E+00
N    3.3105767375674358E+00    7.3899269679582851E+00    7.7638765624777086E+00
Ga    3.3111160203563643E+00    5.5410826536410287E+00    8.4232884989850358E+00
N    3.3187767967092472E+00    5.5337991022045045E+00    1.0404890419978310E+01
Ga    3.3194615110011125E+00    7.3685102593495007E+00    1.1065985409926979E+01
N    3.3164392835726839E+00    7.3440677594696107E+00    1.3058336427932064E+01
Ga    3.3079250926597945E+00    5.5272804165973666E+00    1.3853254096277041E+01
N    3.2963278018092019E+00    5.5284386945889912E+00    1.6067480511466407E+01
Ga    3.3048796486690013E+00    7.5878982719194070E+00    1.6495145446348701E+01
Ga    3.0094921535457222E+00    9.4260286779592395E+00    6.8705177173225718E-01
N    1.7452703980516995E+00    1.0155992317640129E+01    2.4571260841196918E+00
Ga    1.6496776499928039E+00    8.3267520976434390E+00    3.1326510308992677E+00
N    1.6752994259106624E+00    8.3268189240356989E+00    5.1643526599955729E+00
Ga    1.6722740125207229E+00    1.0189445524402860E+01    5.7747001634680215E+00
N    1.7051165164781572E+00    1.0179484165068097E+01    7.7870097246591508E+00
Ga    1.7261808649192099E+00    8.3314092082757565E+00    8.4444437174604445E+00
N    1.7232396715724410E+00    8.3213144545506204E+00    1.0434996787589153E+01
Ga    1.6982557722167158E+00    1.0181568756965707E+01    1.1064875346467087E+01
N    1.6772935114080865E+00    1.0183619381346482E+01    1.3056941227631855E+01
Ga    1.7168366108837094E+00    8.3145147277414679E+00    1.3617689591298022E+01
N    1.6829260943709701E+00    8.2982611316608264E+00    1.5574211854459307E+01
Ga    1.8810391141487646E+00    1.0056008811774417E+01    1.6495516435478503E+01
N    3.3119336058678086E+00    9.2382536880860400E+00    1.7643536806039371E+01
N    9.7359453556162840E+00    1.8342440794565928E+00    2.6592208758412927E+00
Ga    9.7344165845446007E+00   -5.2719286437986075E-02    3.2004909710005984E+00
N    9.7333727523258364E+00   -2.0526107936852927E-02    5.1800129181068808E+00
Ga    9.7428388562183894E+00    1.8142499603982041E+00    5.8675542965680947E+00
N    9.7503287460612142E+00    1.8204672951335377E+00    7.8371096771075743E+00
Ga    9.7518294050435781E+00   -5.0961393978834944E-02    8.4270417435935165E+00
N    9.7544024131263338E+00   -5.2275852766923550E-02    1.0423107763665898E+01
Ga    9.7517854219220190E+00    1.8136134639510668E+00    1.1025144768984982E+01
N    9.7441557823061178E+00    1.8090198019375556E+00    1.2998071296790966E+01
Ga    9.7471421837687391E+00   -6.1571647656240736E-02    1.3623363367704993E+01
N    9.7355744873351551E+00   -2.7280469287064471E-02    1.5580409554821486E+01
Ga    9.7396425464980254E+00    1.8052654496814473E+00    1.5860422383673416E+01
N    8.0427254417086260E+00    4.5521701883602219E+00    2.5319854258016137E+00
Ga    8.1214732020099749E+00    2.7474888164620910E+00    3.2820879579199462E+00
N    8.1430504897298572E+00    2.7464456621540756E+00    5.2334053832169243E+00
Ga    8.1616661485025102E+00    4.6188206123555187E+00    5.8064359673846688E+00
N    8.1439062850005026E+00    4.6108997624999848E+00    7.7994950055821652E+00
Ga    8.1330434873031638E+00    2.7543888060087345E+00    8.4413744530459915E+00
N    8.1346016858193764E+00    2.7515208750629689E+00    1.0434080933845944E+01
Ga    8.1577492160498579E+00    4.6102112418453416E+00    1.1069278782389134E+01
N    8.1720133262357297E+00    4.6136266995853532E+00    1.3068127649503989E+01
Ga    8.1266548027469874E+00    2.7432892852687050E+00    1.3613846341540581E+01
N    8.1377651802006401E+00    2.7304312655083876E+00    1.5588866822605022E+01
Ga    8.0200085509466579E+00    4.5255452667824203E+00    1.6429852227788960E+01
N    6.6838828113540218E+00    7.2976953770717223E+00    2.4932874280346180E+00
Ga    6.4926308705266402E+00    5.4696537403775141E+00    3.3037018662068287E+00
N    6.5173671694237205E+00    5.5559756194189136E+00    5.2391251831181691E+00
Ga    6.4940744865556717E+00    7.4012269940281286E+00    5.8708981096019830E+00
N    6.5179224845362720E+00    7.3956981338535224E+00    7.8388874223056417E+00
Ga    6.5269007687886953E+00    5.5248088483317188E+00    8.4358029365224603E+00
N    6.5364133090469370E+00    5.5186611497257898E+00    1.0431910603238395E+01
Ga    6.5297529107063843E+00    7.3848974904311913E+00    1.1026591995017682E+01
N    6.5312230577206298E+00    7.3771912090612890E+00    1.2999545915001306E+01
Ga    6.5304948714848035E+00    5.5095664290549466E+00    1.3615670294722612E+01
N    6.5253421883450979E+00    5.5265998582165272E+00    1.5590288644005112E+01
Ga    6.5247666570933589E+00    7.3763517959089118E+00    1.5862436000960004E+01
N    4.8692622067813041E+00    1.0180070595684048E+01    2.4816246265100905E+00
Ga    4.6535061652757967E+00    8.4571524229689334E+00    3.2391462155692623E+00
N    4.9167083556467732E+00    8.3213995167694730E+00    5.1758174412161697E+00
Ga    4.9509226841864029E+00    1.0216358516439970E+01    5.7542096121360258E+00
N    4.9296997701131939E+00    1.0181568954375576E+01    7.7656396694175962E+00
Ga    4.9025602899867113E+00    8.3322468066871256E+00    8.4264008700578277E+00
N    4.9131799272715453E+00    8.3234590553726822E+00    1.0423121686627768E+01
Ga    4.9417716368207731E+00    1.0180420067891605E+01    1.1071516114497920E+01
N    4.9553733146711147E+00    1.0183214518440922E+01    1.3065652150592822E+01
Ga    4.9127442107645134E+00    8.3145236207219195E+00    1.3624680032490694E+01
N    4.9362266757173598E+00    8.2899599236347221E+00    1.5582727679980904E+01
Ga    4.7485871809912981E+00    1.0066301592072426E+01    1.6500350612280510E+01
O   -2.1087212781944795E-02    3.7504093421475009E+00   -5.0165807956657460E-01
H   -1.6700011493188143E+00    7.1626047109678863E+00    1.0409349143715951E-01
C    1.1872070186903672E+00    3.5234147829323170E+00   -1.2468395755237804E+00
H    2.0703919695908635E+00    3.9987009972831289E+00   -7.8618086795481612E-01
H    1.4031713307188105E+00    2.4490408057719955E+00   -1.3715761709263754E+00
H    1.0510697489109335E+00    3.9649353826875959E+00   -2.2450095390153031E+00
Ga    3.2563582074737938E+00    5.5127304705399531E+00    2.8822197456262195E+00
O   -1.3210692706588132E+00    8.0002547194116520E+00    4.5231297763083755E-01
H   -4.2769298071074641E-01    7.5704983043505205E+00    1.5759332736469758E+00
C    6.3162902837878265E+00    7.4638181934541441E+00    1.2645436554553102E+00
H    6.6137600535347509E+00    8.3783165985155001E+00    7.1195594815112362E-01
H    9.7659536141294510E+00    1.8897438872443735E+00    1.6346015548194914E+00
H    5.6796690052255325E+00    6.7177455230447070E+00    7.6284678066035838E-01
     &END COORD
     &KIND C
       BASIS_SET DZVP-MOLOPT-SR-GTH-q4
       POTENTIAL GTH-PBE-q4
       &POTENTIAL
 2 2
  0.3384712400000000E+00 2 -0.8803673979999999E+01  0.1339210850000000E+01
 2
  0.3025757500000000E+00 1  0.9622486650000001E+01
  0.2915069400000000E+00 0
         # Potential name:  GTH-PBE-Q4  for symbol:  C
         # Potential read from the potential filename: GTH_POTENTIALS
       &END POTENTIAL
     &END KIND
     &KIND O
       BASIS_SET DZVP-MOLOPT-SR-GTH-q6
       POTENTIAL GTH-PBE-q6
       &POTENTIAL
 2 4
  0.2445543000000000E+00 2 -0.1666721480000000E+02  0.2487311320000000E+01
 2
  0.2209559200000000E+00 1  0.1833745811000000E+02
  0.2113324700000000E+00 0
         # Potential name:  GTH-PBE-Q6  for symbol:  O
         # Potential read from the potential filename: GTH_POTENTIALS
       &END POTENTIAL
     &END KIND
     &KIND H
       BASIS_SET DZVP-MOLOPT-SR-GTH-q1
       POTENTIAL GTH-PBE-q1
       &POTENTIAL
 1
  0.2000000000000000E+00 2 -0.4178900440000000E+01  0.7244633100000000E+00
 0
         # Potential name:  GTH-PBE-Q1  for symbol:  H
         # Potential read from the potential filename: GTH_POTENTIALS
       &END POTENTIAL
     &END KIND
     &KIND N
       BASIS_SET DZVP-MOLOPT-SR-GTH
       POTENTIAL GTH-PBE-q5
       &POTENTIAL
 2 3
  0.2837905100000000E+00 2 -0.1241522559000000E+02  0.1868095920000000E+01
 2
  0.2554050000000000E+00 1  0.1363026257000000E+02
  0.2454945300000000E+00 0
         # Potential name:  GTH-PBE-Q5  for symbol:  N
         # Potential read from the potential filename: GTH_POTENTIALS
       &END POTENTIAL
     &END KIND
     &KIND Ga
       BASIS_SET DZVP-MOLOPT-SR-GTH
       POTENTIAL GTH-PBE-q13
       &POTENTIAL
 2 1 10
  0.4900000000000000E+00 0
 3
  0.4167772300000000E+00 3  0.1047568975000000E+02 -0.4921768140000000E+01  0.8707055900000000E+00
  0.7770178090000000E+01 -0.2248152160000000E+01
  0.1784415450000000E+01
  0.5696265200000000E+00 2  0.1777985340000000E+01  0.1958597600000000E+00
 -0.2317443900000000E+00
  0.2381265000000000E+00 1 -0.1624868022000000E+02
         # Potential name:  GTH-PBE-Q13  for symbol:  GA
         # Potential read from the potential filename: GTH_POTENTIALS
       &END POTENTIAL
     &END KIND
     &TOPOLOGY
       NUMBER_OF_ATOMS  212
       MULTIPLE_UNIT_CELL  1 1 1
     &END TOPOLOGY
   &END SUBSYS
 &END FORCE_EVAL
