 # Version information for this restart file 
 # current date 2019-07-03 13:24:11.575
 # current working dir /lustre04/scratch/rzk/rzk/GaN-carbene/443-adatoms-both-2x2/08-CH3O-H2O-H2C-H/03-Use-0401
 # Program compiled at                              Sun Apr  7 00:48:11 EDT 2019
 # Program compiled on                          beluga2.int.ets1.calculquebec.ca
 # Program compiled for                        Beluga-Linux-x86-64-intel-openmpi
 # Source code revision number                                         svn:18619
 &GLOBAL
   PRINT_LEVEL  MEDIUM
   PROJECT_NAME TEST
   RUN_TYPE  GEO_OPT
 &END GLOBAL
 &MOTION
   &GEO_OPT
     MAX_ITER  500
     STEP_START_VAL  116
   &END GEO_OPT
 &END MOTION
 &FORCE_EVAL
   METHOD  QS
   STRESS_TENSOR  ANALYTICAL
   &DFT
     BASIS_SET_FILE_NAME BASIS_MOLOPT
     POTENTIAL_FILE_NAME GTH_POTENTIALS
     UKS  T
     SURFACE_DIPOLE_CORRECTION  T
     SURF_DIP_DIR  Z
     &SCF
       MAX_SCF  80
       EPS_SCF     5.0000000000000004E-06
       &OT  T
         PRECONDITIONER  FULL_ALL
       &END OT
       &OUTER_SCF  T
         OPTIMIZER  NONE
         EPS_SCF     5.0000000000000004E-06
         MAX_SCF  4
       &END OUTER_SCF
       &PRINT
         &RESTART  OFF
           BACKUP_COPIES  1
           &EACH
             JUST_ENERGY  0
             QS_SCF  0
             MD  20
           &END EACH
         &END RESTART
       &END PRINT
     &END SCF
     &QS
       EPS_DEFAULT     1.0000000000000000E-14
       METHOD  GPW
     &END QS
     &MGRID
       NGRIDS  5
       CUTOFF     1.2000000000000000E+03
     &END MGRID
     &XC
       DENSITY_CUTOFF     1.0000000000000000E-10
       GRADIENT_CUTOFF     1.0000000000000000E-10
       TAU_CUTOFF     1.0000000000000000E-10
       &XC_FUNCTIONAL  NO_SHORTCUT
         &PBE  T
         &END PBE
       &END XC_FUNCTIONAL
       &VDW_POTENTIAL
         POTENTIAL_TYPE  PAIR_POTENTIAL
         &PAIR_POTENTIAL
           R_CUTOFF     1.0000000000000004E+01
           TYPE  DFTD3
           PARAMETER_FILE_NAME dftd3.dat
           REFERENCE_FUNCTIONAL PBE
           EPS_CN     9.9999999999999995E-07
           CALCULATE_C9_TERM  T
           REFERENCE_C9_TERM  T
           LONG_RANGE_CORRECTION  F
           VERBOSE_OUTPUT  F
         &END PAIR_POTENTIAL
       &END VDW_POTENTIAL
     &END XC
   &END DFT
   &SUBSYS
     &CELL
       A     1.2864472766435110E+01    0.0000000000000000E+00    0.0000000000000000E+00
       B    -6.4322363581020028E+00    1.1140960178524473E+01    0.0000000000000000E+00
       C     0.0000000000000000E+00    0.0000000000000000E+00    3.2000000000000000E+01
       MULTIPLE_UNIT_CELL  1 1 1
       &CELL_REF
         A     1.2982353780853531E+01    0.0000000000000000E+00    0.0000000000000000E+00
         B    -6.4911768904267628E+00    1.1243048175136114E+01    0.0000000000000000E+00
         C     0.0000000000000000E+00    0.0000000000000000E+00    3.2000000000000000E+01
         MULTIPLE_UNIT_CELL  1 1 1
       &END CELL_REF
     &END CELL
     &COORD
N    1.1173210902212848E-01    1.9516362868763508E+00    2.5154457488214250E+00
Ga    1.3397410179009750E-01   -1.6115281618562703E-02    2.8701087209681275E+00
N    1.3123606032585394E-01   -3.5760202887222620E-02    5.0487146764230371E+00
Ga    1.1912194029956318E-01    1.7834906784199032E+00    5.8083620119562527E+00
N    1.0879253455698569E-01    1.8006835331662068E+00    7.8048069504749789E+00
Ga    1.0713105670017155E-01   -4.9335162012422752E-02    8.4338074400745811E+00
N    1.0926352822388612E-01   -4.9297173096863683E-02    1.0410539502732854E+01
Ga    1.1138907607023914E-01    1.7902054677749706E+00    1.1064364768580308E+01
N    1.1123375757784373E-01    1.7713360702095275E+00    1.3059222985889868E+01
Ga    1.1140841288093070E-01   -4.8318500510062749E-02    1.3871783571096021E+01
N    1.1113746530091091E-01   -4.7744015649155307E-02    1.6062363822384778E+01
Ga    1.1154897441966276E-01    1.9990384652290942E+00    1.6485128146908266E+01
Ga    1.3487321458205026E-01    3.6624097222313172E+00    1.3345582486978462E+00
N   -1.3781182065843147E+00    4.5293693559221788E+00    2.5027246845874855E+00
Ga   -1.4949435732776455E+00    2.7306208812055481E+00    3.3092874448459995E+00
N   -1.5100326867648155E+00    2.7324066557898754E+00    5.2528173735657342E+00
Ga   -1.5248156818517975E+00    4.6107132787521472E+00    5.8086920749396755E+00
N   -1.5054918873085419E+00    4.5992031336138144E+00    7.8000688841713099E+00
Ga   -1.4883681209193720E+00    2.7409789887424600E+00    8.4364656761163292E+00
N   -1.4873784820328404E+00    2.7433848962572518E+00    1.0429264012649540E+01
Ga   -1.5115363927423255E+00    4.6028976175307292E+00    1.1062899325926391E+01
N   -1.5274139865281033E+00    4.6128570433206724E+00    1.3055437405485483E+01
Ga   -1.4850352851812498E+00    2.7442721794980836E+00    1.3615174050816618E+01
N   -1.5197196665573964E+00    2.7321471445898475E+00    1.5574658625880680E+01
Ga   -1.3176783329426125E+00    4.4937287568814508E+00    1.6486544320504649E+01
N    1.1146254184912885E-01    3.6559530624288255E+00    1.7628863894081995E+01
N   -3.0919846726176154E+00    7.5113575367981325E+00    2.5033220097861908E+00
Ga   -3.0856577164482659E+00    5.5282869387393685E+00    2.8603656729781730E+00
N   -3.0983578234708067E+00    5.5254695666579128E+00    5.0359918184302153E+00
Ga   -3.0986131691417422E+00    7.3428667691894116E+00    5.8036594280761022E+00
N   -3.1062367718908459E+00    7.3714958397330674E+00    7.7932690658720256E+00
Ga   -3.1063803945867976E+00    5.5225491631248618E+00    8.4371918392574781E+00
N   -3.1058669154667338E+00    5.5232462845684553E+00    1.0411589697318172E+01
Ga   -3.1050398173797582E+00    7.3633128442979103E+00    1.1062968747590212E+01
N   -3.1044592492745138E+00    7.3445788410176389E+00    1.3055065235497914E+01
Ga   -3.0952450950088091E+00    5.5287259645708371E+00    1.3855989462010710E+01
N   -3.0937513131161758E+00    5.5295440021079676E+00    1.6061771615055328E+01
Ga   -3.1025449190140493E+00    7.5866700958472801E+00    1.6488206747711619E+01
Ga   -3.1002132740299104E+00    9.3249714904732137E+00    1.3133449055836581E+00
N   -4.5902883784272799E+00    1.0110496259775644E+01    2.4956754669307868E+00
Ga   -4.6589076044435149E+00    8.3577131307270740E+00    3.3172980711198234E+00
N   -4.7280259928235804E+00    8.3006763086302779E+00    5.2396007194209258E+00
Ga   -4.7354539199312233E+00    1.0193550142736568E+01    5.8114651395907710E+00
N   -4.7208370372312078E+00    1.0166443220597410E+01    7.8024830232585503E+00
Ga   -4.7059123362052091E+00    8.3136076589514296E+00    8.4340192513889711E+00
N   -4.7039757674721674E+00    8.3128836843065947E+00    1.0425711633368813E+01
Ga   -4.7291506286233629E+00    1.0174195298139537E+01    1.1063824083552154E+01
N   -4.7450863437677278E+00    1.0183111678359726E+01    1.3058451670908354E+01
Ga   -4.7010350261475500E+00    8.3149247494004843E+00    1.3616381709057359E+01
N   -4.7293073100137955E+00    8.2911144904137810E+00    1.5575042763910908E+01
Ga   -4.5469102586832486E+00    1.0069690117652199E+01    1.6486719623745937E+01
N   -3.1129241118411914E+00    9.2419590973457861E+00    1.7631035258156707E+01
N    3.3194702389460340E+00    1.8102568898495475E+00    2.6463258273684329E+00
Ga    3.3328967895711181E+00    5.2449639746751438E-02    3.2805314506109138E+00
N    3.3299763817568522E+00   -5.1866584521237408E-02    5.2592705616481910E+00
Ga    3.3293443347875598E+00    1.8113765353766256E+00    5.8586752869386860E+00
N    3.3298176669263846E+00    1.8100554771324386E+00    7.8458362269417687E+00
Ga    3.3293487740585754E+00   -5.5757519549453308E-02    8.4337633188056582E+00
N    3.3271531169707913E+00   -6.0085968956002475E-02    1.0429270462369356E+01
Ga    3.3282106417034822E+00    1.8089301081895801E+00    1.1021189530186916E+01
N    3.3305380228197414E+00    1.8108439942115411E+00    1.2995132869362047E+01
Ga    3.3282597116515187E+00   -6.1435253059911904E-02    1.3614746634660300E+01
N    3.3341200234552644E+00   -2.5098030349038559E-02    1.5574036631503983E+01
Ga    3.3261188135387094E+00    1.8082493302720948E+00    1.5854036890144835E+01
N    1.5990377845098471E+00    4.5266277459015436E+00    2.5257761104658556E+00
Ga    1.7925155360536098E+00    2.6964459076500069E+00    3.2768557129456624E+00
N    1.7183110666639507E+00    2.7387952599973624E+00    5.2629899384971113E+00
Ga    1.7444782778667796E+00    4.5997515165230194E+00    5.8132731604027965E+00
N    1.7255629269198542E+00    4.6006271089226747E+00    7.8081931146495114E+00
Ga    1.7122916058487814E+00    2.7410673668332994E+00    8.4353300211990536E+00
N    1.7093089024951791E+00    2.7426879818574026E+00    1.0430942850237516E+01
Ga    1.7350479254013422E+00    4.6034024129330335E+00    1.1059456157961714E+01
N    1.7505348559703842E+00    4.6132579311099517E+00    1.3053439188475528E+01
Ga    1.7078139325978814E+00    2.7450861526307002E+00    1.3614482611240962E+01
N    1.7422864615454245E+00    2.7323610197044723E+00    1.5574235610045646E+01
Ga    1.5407200461825021E+00    4.4937268847410028E+00    1.6486075093026919E+01
N    1.0303512104443510E-01    7.3728071196876073E+00    2.6700760179621450E+00
Ga    1.1983062980787082E-01    5.5238702501399084E+00    3.3183383383801064E+00
N    1.0982790768001724E-01    5.5379237347860730E+00    5.2601137169548444E+00
Ga    1.2445190873620623E-01    7.3892599696987133E+00    5.8775316091066143E+00
N    1.1443250369673617E-01    7.3824263166915030E+00    7.8464903766746135E+00
Ga    1.1203789866191288E-01    5.5135764313788842E+00    8.4382069449644153E+00
N    1.1031765724494311E-01    5.5116514346098127E+00    1.0429179201422741E+01
Ga    1.1354929716655343E-01    7.3811072619052274E+00    1.1019380644652891E+01
N    1.1249920987659992E-01    7.3808352718011569E+00    1.2989202741699300E+01
Ga    1.1205855954663431E-01    5.5118659050309811E+00    1.3613242788802186E+01
N    1.1143338029320467E-01    5.5428102513830364E+00    1.5571572509750540E+01
Ga    1.1154855643928646E-01    7.3798663750676230E+00    1.5851243465643385E+01
N   -1.6192108542732071E+00    1.0095821667954585E+01    2.4989637797722173E+00
Ga   -1.4872933762089318E+00    8.3129496583930997E+00    3.3042184406794597E+00
N   -1.4845626172536004E+00    8.3029552930544668E+00    5.2488427868596084E+00
Ga   -1.4710034957884059E+00    1.0185529979262133E+01    5.8079581145741637E+00
N   -1.4868947188749719E+00    1.0167722413501037E+01    7.8028265824446583E+00
Ga   -1.5047532110992465E+00    8.3149282418696693E+00    8.4362232275413636E+00
N   -1.5075729508321223E+00    8.3131035002474558E+00    1.0427227502689849E+01
Ga   -1.4806599565380392E+00    1.0173830280467985E+01    1.1059568519604731E+01
N   -1.4649962156836545E+00    1.0182347086101846E+01    1.3053404975132329E+01
Ga   -1.5062743461121277E+00    8.3144952824175675E+00    1.3614024376827333E+01
N   -1.4793066789236320E+00    8.2981087000931417E+00    1.5571857042726940E+01
Ga   -1.6740748406811494E+00    1.0060275313519833E+01    1.6487348412658498E+01
N    6.5375507460100319E+00    1.9204237783139229E+00    2.5154174640491709E+00
Ga    6.5262870458369271E+00   -5.1548304919521851E-02    2.8649570060826628E+00
N    6.5315770607074155E+00   -4.5298035321153597E-02    5.0395148708179134E+00
Ga    6.5394196361832977E+00    1.7773734458563664E+00    5.7940915479172359E+00
N    6.5469386447442695E+00    1.8005739831923111E+00    7.7937661417313127E+00
Ga    6.5500337658774299E+00   -4.9323903048890123E-02    8.4296440467957776E+00
N    6.5467069116056269E+00   -4.8037059479553543E-02    1.0408663277616713E+01
Ga    6.5447680601386420E+00    1.7904511274384849E+00    1.1059086136468464E+01
N    6.5443820579714282E+00    1.7704364316755825E+00    1.3060284941373245E+01
Ga    6.5441718032052343E+00   -5.8661919725170514E-02    1.3853102094838166E+01
N    6.5439421998418146E+00   -6.0388406708655605E-02    1.6060764109599649E+01
Ga    6.5435991641450553E+00    1.9406749153977525E+00    1.6425887943798674E+01
Ga    6.4674569357427085E+00    3.5811127268395220E+00    1.2158084180419200E+00
N    5.0180486488123508E+00    4.5293386484306781E+00    2.4970754854226151E+00
Ga    4.8507123245500949E+00    2.6879543654327520E+00    3.2574133113598664E+00
N    4.9419431389873303E+00    2.7410884973166145E+00    5.2448669917079274E+00
Ga    4.9034340468348194E+00    4.6014698728205934E+00    5.8038241101480716E+00
N    4.9325401156021478E+00    4.6012160861681171E+00    7.7975127462238811E+00
Ga    4.9461975529571642E+00    2.7411006477526763E+00    8.4306269725702414E+00
N    4.9479932064396843E+00    2.7445749369333203E+00    1.0428730235004386E+01
Ga    4.9200088277543355E+00    4.6044839354373526E+00    1.1058747821834137E+01
N    4.9027380700764569E+00    4.6144975346353885E+00    1.3059752241643057E+01
Ga    4.9473192227325278E+00    2.7443541663104583E+00    1.3605126403253983E+01
N    4.9293617314841152E+00    2.7344671374749527E+00    1.5583779512143927E+01
Ga    5.0495434272117228E+00    4.5288864089526895E+00    1.6425946145407128E+01
N    6.5434305068424647E+00    3.6658816962272356E+00    1.7547301133080961E+01
N    3.3090026660433618E+00    7.4112955588178817E+00    2.4862819497287449E+00
N    3.3241990998647601E+00    5.5043335565761868E+00    5.0596871138110240E+00
Ga    3.3165438830209655E+00    7.3377162549775381E+00    5.7695234797525972E+00
N    3.3295515162074025E+00    7.3746055873059655E+00    7.7713101808627858E+00
Ga    3.3286105266261075E+00    5.5275151521324331E+00    8.4307859084653689E+00
N    3.3290259562859910E+00    5.5260070981558718E+00    1.0408727330960570E+01
Ga    3.3283142040071256E+00    7.3651075618839741E+00    1.1058860291910836E+01
N    3.3276500653983820E+00    7.3455042779410560E+00    1.3052028850960578E+01
Ga    3.3184553132340624E+00    5.5289726741570773E+00    1.3852413896597698E+01
N    3.3165498109578033E+00    5.5298991877346850E+00    1.6060925472086353E+01
Ga    3.3253512213532681E+00    7.5864547151840238E+00    1.6488339601720316E+01
Ga    3.0719496764601897E+00    9.3732663044580296E+00    6.9913820151610473E-01
N    1.7707834752438312E+00    1.0131571681270822E+01    2.4652456167824410E+00
Ga    1.7339309900093511E+00    8.3193281694717847E+00    3.2046259843666927E+00
N    1.7106480962497173E+00    8.3042020226627002E+00    5.1926635110075363E+00
Ga    1.6931279528301113E+00    1.0181333468512667E+01    5.7620077629847533E+00
N    1.7147626057852101E+00    1.0169014935832685E+01    7.7709277651297670E+00
Ga    1.7338805974113256E+00    8.3188346292606052E+00    8.4239250319462418E+00
N    1.7322396674904899E+00    8.3153132778617920E+00    1.0418783445104406E+01
Ga    1.7069287319427724E+00    1.0173027083208648E+01    1.1058921423602094E+01
N    1.6895740658517933E+00    1.0182121947649957E+01    1.3052350055068823E+01
Ga    1.7304611117682347E+00    8.3145053840146712E+00    1.3614182028557865E+01
N    1.7024674185503244E+00    8.2982969644446811E+00    1.5571680574541016E+01
Ga    1.8968538912988970E+00    1.0060133996963385E+01    1.6487964508283969E+01
N    3.3356332501513126E+00    9.2417782512100288E+00    1.7632051527858557E+01
N    9.7620152609180533E+00    1.8190303778510384E+00    2.6565959576516933E+00
Ga    9.7573165279748046E+00   -6.5016559575546598E-02    3.1972969160412528E+00
N    9.7592616671691541E+00   -3.7187757743698480E-02    5.1867124106126514E+00
Ga    9.7564184762413770E+00    1.7956496720165418E+00    5.8673625417224029E+00
N    9.7581960968343697E+00    1.8070519647227106E+00    7.8395389644401643E+00
Ga    9.7592273089100434E+00   -6.3089538393531541E-02    8.4219455978833206E+00
N    9.7613718733612256E+00   -6.0985887544706706E-02    1.0418765981980640E+01
Ga    9.7598590515460319E+00    1.8070183093139875E+00    1.1019101016489888E+01
N    9.7571165946884246E+00    1.8098055555030550E+00    1.2992702316177477E+01
Ga    9.7594564288065513E+00   -6.1456924527883469E-02    1.3615848347773440E+01
N    9.7532036203084598E+00   -2.5006842208967560E-02    1.5574507998713685E+01
Ga    9.7613801415171437E+00    1.8080938513775953E+00    1.5856228908400261E+01
N    8.0702160725238556E+00    4.5391419708997027E+00    2.5095235749885836E+00
Ga    8.1519657806442023E+00    2.7326307400755145E+00    3.2773171669471637E+00
N    8.1615268579877149E+00    2.7324845088428309E+00    5.2293804693935924E+00
Ga    8.1865281657166431E+00    4.6105102993750675E+00    5.7887136024476362E+00
N    8.1578116888173362E+00    4.6006021155418679E+00    7.7837027495728428E+00
Ga    8.1414205566549658E+00    2.7425449830182651E+00    8.4302178044415346E+00
N    8.1419741909870922E+00    2.7456255166275163E+00    1.0426075704455116E+01
Ga    8.1677968380529489E+00    4.6038368434975769E+00    1.1062847767026936E+01
N    8.1849380434654631E+00    4.6140089943067304E+00    1.3062106556651440E+01
Ga    8.1409145948077715E+00    2.7435119859015376E+00    1.3606257505800503E+01
N    8.1585083174379509E+00    2.7341516028225699E+00    1.5584482978227982E+01
Ga    8.0374830093269853E+00    4.5287542749878007E+00    1.6426552301550483E+01
N    6.7107749867662640E+00    7.2919927704954155E+00    2.4575312417835429E+00
Ga    6.5257368258106903E+00    5.4465131973264684E+00    3.2847780231667945E+00
N    6.5423497307009404E+00    5.5398110685042639E+00    5.2177415201625728E+00
Ga    6.5319396622882451E+00    7.3832114134956219E+00    5.8577932005599456E+00
N    6.5396743696602746E+00    7.3810371453432664E+00    7.8266780827415579E+00
Ga    6.5438787241119467E+00    5.5136251594897727E+00    8.4317728975028885E+00
N    6.5455364089128532E+00    5.5123188785301149E+00    1.0425639279560988E+01
Ga    6.5420829783709804E+00    7.3812127997043611E+00    1.1020914494424442E+01
N    6.5428459473436913E+00    7.3777142404014127E+00    1.2993163859311897E+01
Ga    6.5432904477438685E+00    5.5110214087048108E+00    1.3606581801138153E+01
N    6.5436755957666852E+00    5.5308308847550149E+00    1.5584410681727356E+01
Ga    6.5435806375670342E+00    7.3818786319503413E+00    1.5856565153940897E+01
N    4.9042528854566498E+00    1.0165135078497009E+01    2.4838549154753320E+00
Ga    4.7057125291422812E+00    8.4415901360253773E+00    3.2453841813931672E+00
N    4.9464367173410135E+00    8.3029588555064038E+00    5.1768826425873753E+00
Ga    4.9698999084120450E+00    1.0198881140602801E+01    5.7641890382496692E+00
N    4.9423034281558609E+00    1.0167914777736872E+01    7.7679419150055855E+00
Ga    4.9224644288077748E+00    8.3175450565882922E+00    8.4223856601374081E+00
N    4.9258944230385966E+00    8.3154727531296189E+00    1.0417494713140787E+01
Ga    4.9505227959397438E+00    1.0173570182987795E+01    1.1063742914763072E+01
N    4.9671834812094451E+00    1.0182900715930447E+01    1.3057775458913646E+01
Ga    4.9231551020344408E+00    8.3149119349424989E+00    1.3616691606224570E+01
N    4.9518806039419783E+00    8.2912262327068902E+00    1.5575025062040353E+01
Ga    4.7696969964071538E+00    1.0069502735526552E+01    1.6487382899058307E+01
O    1.1106576883168753E-01    3.7552906326365969E+00   -4.7582631959580496E-01
H   -2.7559073706200645E+00    8.6020225210949040E+00   -8.9348870776136924E-01
C    1.3120166825791018E+00    3.3244730435404017E+00   -1.1431204892589728E+00
H    2.2024447000087077E+00    3.8760678268758495E+00   -7.9824487386768472E-01
H    1.5008085064619638E+00    2.2474195164926414E+00   -1.0073284225847305E+00
H    1.1767421616136433E+00    3.5217925380837971E+00   -2.2162723418340113E+00
Ga    3.3005014703817093E+00    5.4980515811837574E+00    2.8934945309098774E+00
O   -3.3677320311043704E+00    9.2337707935164186E+00   -4.8092315008579190E-01
H    6.8089740126614132E-02    7.3357073031976228E+00    1.6442838656466694E+00
C    6.4700598086706584E+00    7.4521464599665501E+00    1.1987262181468650E+00
H    6.8379866706585108E+00    8.3315161830569160E+00    6.5027713225935135E-01
H    9.7808689921218424E+00    1.8635276132746901E+00    1.6307243435712655E+00
H    5.8670718588323236E+00    6.7200516691398100E+00    6.4229406718255988E-01
     &END COORD
     &KIND C
       BASIS_SET DZVP-MOLOPT-SR-GTH-q4
       POTENTIAL GTH-PBE-q4
       &POTENTIAL
 2 2
  0.3384712400000000E+00 2 -0.8803673979999999E+01  0.1339210850000000E+01
 2
  0.3025757500000000E+00 1  0.9622486650000001E+01
  0.2915069400000000E+00 0
         # Potential name:  GTH-PBE-Q4  for symbol:  C
         # Potential read from the potential filename: GTH_POTENTIALS
       &END POTENTIAL
     &END KIND
     &KIND O
       BASIS_SET DZVP-MOLOPT-SR-GTH-q6
       POTENTIAL GTH-PBE-q6
       &POTENTIAL
 2 4
  0.2445543000000000E+00 2 -0.1666721480000000E+02  0.2487311320000000E+01
 2
  0.2209559200000000E+00 1  0.1833745811000000E+02
  0.2113324700000000E+00 0
         # Potential name:  GTH-PBE-Q6  for symbol:  O
         # Potential read from the potential filename: GTH_POTENTIALS
       &END POTENTIAL
     &END KIND
     &KIND H
       BASIS_SET DZVP-MOLOPT-SR-GTH-q1
       POTENTIAL GTH-PBE-q1
       &POTENTIAL
 1
  0.2000000000000000E+00 2 -0.4178900440000000E+01  0.7244633100000000E+00
 0
         # Potential name:  GTH-PBE-Q1  for symbol:  H
         # Potential read from the potential filename: GTH_POTENTIALS
       &END POTENTIAL
     &END KIND
     &KIND N
       BASIS_SET DZVP-MOLOPT-SR-GTH
       POTENTIAL GTH-PBE-q5
       &POTENTIAL
 2 3
  0.2837905100000000E+00 2 -0.1241522559000000E+02  0.1868095920000000E+01
 2
  0.2554050000000000E+00 1  0.1363026257000000E+02
  0.2454945300000000E+00 0
         # Potential name:  GTH-PBE-Q5  for symbol:  N
         # Potential read from the potential filename: GTH_POTENTIALS
       &END POTENTIAL
     &END KIND
     &KIND Ga
       BASIS_SET DZVP-MOLOPT-SR-GTH
       POTENTIAL GTH-PBE-q13
       &POTENTIAL
 2 1 10
  0.4900000000000000E+00 0
 3
  0.4167772300000000E+00 3  0.1047568975000000E+02 -0.4921768140000000E+01  0.8707055900000000E+00
  0.7770178090000000E+01 -0.2248152160000000E+01
  0.1784415450000000E+01
  0.5696265200000000E+00 2  0.1777985340000000E+01  0.1958597600000000E+00
 -0.2317443900000000E+00
  0.2381265000000000E+00 1 -0.1624868022000000E+02
         # Potential name:  GTH-PBE-Q13  for symbol:  GA
         # Potential read from the potential filename: GTH_POTENTIALS
       &END POTENTIAL
     &END KIND
     &TOPOLOGY
       NUMBER_OF_ATOMS  212
       MULTIPLE_UNIT_CELL  1 1 1
     &END TOPOLOGY
   &END SUBSYS
 &END FORCE_EVAL
