 # Version information for this restart file 
 # current date 2019-07-03 12:51:33.470
 # current working dir /lustre04/scratch/rzk/rzk/GaN-carbene/443-adatoms-both-2x2/08-CH3O-H2O-H2C-H/03-Use-0401
 # Program compiled at                              Sun Apr  7 00:48:11 EDT 2019
 # Program compiled on                          beluga2.int.ets1.calculquebec.ca
 # Program compiled for                        Beluga-Linux-x86-64-intel-openmpi
 # Source code revision number                                         svn:18619
 &GLOBAL
   PRINT_LEVEL  MEDIUM
   PROJECT_NAME TEST
   RUN_TYPE  GEO_OPT
 &END GLOBAL
 &MOTION
   &GEO_OPT
     MAX_ITER  500
     STEP_START_VAL  100
   &END GEO_OPT
 &END MOTION
 &FORCE_EVAL
   METHOD  QS
   STRESS_TENSOR  ANALYTICAL
   &DFT
     BASIS_SET_FILE_NAME BASIS_MOLOPT
     POTENTIAL_FILE_NAME GTH_POTENTIALS
     UKS  T
     SURFACE_DIPOLE_CORRECTION  T
     SURF_DIP_DIR  Z
     &SCF
       MAX_SCF  80
       EPS_SCF     5.0000000000000004E-06
       &OT  T
         PRECONDITIONER  FULL_ALL
       &END OT
       &OUTER_SCF  T
         OPTIMIZER  NONE
         EPS_SCF     5.0000000000000004E-06
         MAX_SCF  4
       &END OUTER_SCF
       &PRINT
         &RESTART  OFF
           BACKUP_COPIES  1
           &EACH
             JUST_ENERGY  0
             QS_SCF  0
             MD  20
           &END EACH
         &END RESTART
       &END PRINT
     &END SCF
     &QS
       EPS_DEFAULT     1.0000000000000000E-14
       METHOD  GPW
     &END QS
     &MGRID
       NGRIDS  5
       CUTOFF     1.2000000000000000E+03
     &END MGRID
     &XC
       DENSITY_CUTOFF     1.0000000000000000E-10
       GRADIENT_CUTOFF     1.0000000000000000E-10
       TAU_CUTOFF     1.0000000000000000E-10
       &XC_FUNCTIONAL  NO_SHORTCUT
         &PBE  T
         &END PBE
       &END XC_FUNCTIONAL
       &VDW_POTENTIAL
         POTENTIAL_TYPE  PAIR_POTENTIAL
         &PAIR_POTENTIAL
           R_CUTOFF     1.0000000000000004E+01
           TYPE  DFTD3
           PARAMETER_FILE_NAME dftd3.dat
           REFERENCE_FUNCTIONAL PBE
           EPS_CN     9.9999999999999995E-07
           CALCULATE_C9_TERM  T
           REFERENCE_C9_TERM  T
           LONG_RANGE_CORRECTION  F
           VERBOSE_OUTPUT  F
         &END PAIR_POTENTIAL
       &END VDW_POTENTIAL
     &END XC
   &END DFT
   &SUBSYS
     &CELL
       A     1.2864472766435110E+01    0.0000000000000000E+00    0.0000000000000000E+00
       B    -6.4322363581020028E+00    1.1140960178524473E+01    0.0000000000000000E+00
       C     0.0000000000000000E+00    0.0000000000000000E+00    3.2000000000000000E+01
       MULTIPLE_UNIT_CELL  1 1 1
       &CELL_REF
         A     1.2982353780853531E+01    0.0000000000000000E+00    0.0000000000000000E+00
         B    -6.4911768904267628E+00    1.1243048175136114E+01    0.0000000000000000E+00
         C     0.0000000000000000E+00    0.0000000000000000E+00    3.2000000000000000E+01
         MULTIPLE_UNIT_CELL  1 1 1
       &END CELL_REF
     &END CELL
     &COORD
N    1.1008462010612151E-01    1.9512406036711796E+00    2.5171651504895203E+00
Ga    1.3235946676755395E-01   -1.6926344669532540E-02    2.8713097345933125E+00
N    1.2927251027810654E-01   -3.5934718558731350E-02    5.0503393383527344E+00
Ga    1.1706009814954155E-01    1.7833417936242231E+00    5.8103239938525926E+00
N    1.0657203288701458E-01    1.8007161544056900E+00    7.8068965474843788E+00
Ga    1.0485519007257546E-01   -4.9388554090576714E-02    8.4355846966832289E+00
N    1.0715076562663177E-01   -4.8893420772618511E-02    1.0412442094037365E+01
Ga    1.0935072893318046E-01    1.7907422209425461E+00    1.1066306613398151E+01
N    1.0928648540281111E-01    1.7719231247699099E+00    1.3061424203085583E+01
Ga    1.0893504271121965E-01   -4.7134588197054843E-02    1.3873409706847525E+01
N    1.0906719425654614E-01   -4.7058049198699110E-02    1.6065511243042181E+01
Ga    1.0979054654941170E-01    2.0015065170172370E+00    1.6489885005965355E+01
Ga    1.3350490685397054E-01    3.6627912685136597E+00    1.3371898866088421E+00
N   -1.3792640659997517E+00    4.5287318945250536E+00    2.5060067398767423E+00
Ga   -1.4966557694648068E+00    2.7301596272816466E+00    3.3119631362746582E+00
N   -1.5120923570069631E+00    2.7322318016961278E+00    5.2551316062267350E+00
Ga   -1.5268079767046587E+00    4.6106198918152757E+00    5.8108947366755199E+00
N   -1.5075684360369115E+00    4.5993076336311560E+00    7.8025653683482927E+00
Ga   -1.4905881162639691E+00    2.7410678858702116E+00    8.4387179463922237E+00
N   -1.4893957091165613E+00    2.7437066022565628E+00    1.0431590241807433E+01
Ga   -1.5132794317230571E+00    4.6030502620400569E+00    1.1065189552020952E+01
N   -1.5290490805389678E+00    4.6130698553148672E+00    1.3057824784808806E+01
Ga   -1.4869435299427283E+00    2.7447081596926832E+00    1.3618090431843298E+01
N   -1.5215883774796717E+00    2.7325088045023112E+00    1.5577291126059645E+01
Ga   -1.3181786623969705E+00    4.4934869417112795E+00    1.6491375367402494E+01
N    1.0973958462134104E-01    3.6571224740218602E+00    1.7634077330630568E+01
N   -3.0926759380046720E+00    7.5099068341493389E+00    2.5067137219523592E+00
Ga   -3.0866874217536062E+00    5.5272190081149200E+00    2.8626898385768320E+00
N   -3.1002619531294848E+00    5.5250210194347371E+00    5.0384435255577769E+00
Ga   -3.1001050514877440E+00    7.3427547143778060E+00    5.8051903532151234E+00
N   -3.1083010414458232E+00    7.3715675085535217E+00    7.7953276958705446E+00
Ga   -3.1085482467331405E+00    5.5225826253010686E+00    8.4392362682685178E+00
N   -3.1077310201619461E+00    5.5231915026573937E+00    1.0413764145889722E+01
Ga   -3.1069753023733004E+00    7.3632925765507489E+00    1.1064509584014463E+01
N   -3.1061357853165568E+00    7.3444697194627233E+00    1.3057223697671333E+01
Ga   -3.0967058414777506E+00    5.5281062086157648E+00    1.3857629057573781E+01
N   -3.0954510874776502E+00    5.5300471553274679E+00    1.6064795127216897E+01
Ga   -3.1042502791758313E+00    7.5846972753317177E+00    1.6488346217329966E+01
Ga   -3.1003185365261929E+00    9.3204366890362209E+00    1.3149275526215232E+00
N   -4.5916382533811788E+00    1.0109363921680488E+01    2.4951149666074652E+00
Ga   -4.6601450882274440E+00    8.3570219045809502E+00    3.3180050705482911E+00
N   -4.7297183738479092E+00    8.3004229115541150E+00    5.2407266056988950E+00
Ga   -4.7373560370102759E+00    1.0193116299386178E+01    5.8128720844487365E+00
N   -4.7230100889756459E+00    1.0166535164154462E+01    7.8042258642246729E+00
Ga   -4.7082775468260252E+00    8.3135687568174443E+00    8.4355301362147479E+00
N   -4.7060897646711641E+00    8.3128277139627453E+00    1.0427574323240783E+01
Ga   -4.7312195385373466E+00    1.0174374963712170E+01    1.1065207563477362E+01
N   -4.7472336954879815E+00    1.0183617106715458E+01    1.3060554985188979E+01
Ga   -4.7027534266419959E+00    8.3150785499354658E+00    1.3618021963610676E+01
N   -4.7309597576075690E+00    8.2915842121917436E+00    1.5577425012081576E+01
Ga   -4.5513248020849799E+00    1.0071842544819633E+01    1.6486814266188308E+01
N   -3.1152832326479114E+00    9.2427756755907726E+00    1.7629239318027771E+01
N    3.3179254716993478E+00    1.8095509127526790E+00    2.6489387152674162E+00
Ga    3.3306230033776525E+00    5.1264356547668678E-02    3.2817341967856035E+00
N    3.3281251212115346E+00   -5.2225489963369828E-02    5.2608708734523617E+00
Ga    3.3278754453449384E+00    1.8108746375289682E+00    5.8603025244069604E+00
N    3.3278583156926302E+00    1.8100555063241910E+00    7.8478642301790389E+00
Ga    3.3272191097146142E+00   -5.5659912973640230E-02    8.4356657593865343E+00
N    3.3251134945364687E+00   -5.9751803021094500E-02    1.0431387098170241E+01
Ga    3.3260394935939575E+00    1.8094918060277156E+00    1.1023102359731023E+01
N    3.3286241516278410E+00    1.8113231994879766E+00    1.2997494781634536E+01
Ga    3.3265846542066928E+00   -6.0942875733142630E-02    1.3616443741566835E+01
N    3.3325786427800397E+00   -2.4711781034814650E-02    1.5576402474473809E+01
Ga    3.3242833068851625E+00    1.8092071838891448E+00    1.5856280172843308E+01
N    1.5977532988421825E+00    4.5259299393420473E+00    2.5284246941707447E+00
Ga    1.7912225546192870E+00    2.6958909082124971E+00    3.2794131720618585E+00
N    1.7166146983725896E+00    2.7384290992717948E+00    5.2653100111511106E+00
Ga    1.7428354035548910E+00    4.5995486518466215E+00    5.8156277691885787E+00
N    1.7237384076908397E+00    4.6007107034633981E+00    7.8106107378738088E+00
Ga    1.7102522902241168E+00    2.7410419753958264E+00    8.4371701138152364E+00
N    1.7071469199142202E+00    2.7431449456549184E+00    1.0432969099977296E+01
Ga    1.7330522690694150E+00    4.6037103751295447E+00    1.1061709684125844E+01
N    1.7484680459073694E+00    4.6137588374272873E+00    1.3056018461669387E+01
Ga    1.7056722146310266E+00    2.7457255394160369E+00    1.3617412846523774E+01
N    1.7405767811157316E+00    2.7328647967531476E+00    1.5576826491604047E+01
Ga    1.5379602034993993E+00    4.4938349362210435E+00    1.6491045136392831E+01
N    1.0246282810801029E-01    7.3724616533919907E+00    2.6733427140862465E+00
Ga    1.1880611029485495E-01    5.5234862808542617E+00    3.3211495256361463E+00
N    1.0807774263939693E-01    5.5378459801618458E+00    5.2627162995416006E+00
Ga    1.2301479863032216E-01    7.3895843405224229E+00    5.8795416577027373E+00
N    1.1267130973596023E-01    7.3825965170402581E+00    7.8490000616749347E+00
Ga    1.1006791281551435E-01    5.5137971195608992E+00    8.4403443937465461E+00
N    1.0841263039488218E-01    5.5117736724659716E+00    1.0431392245064172E+01
Ga    1.1180505847551687E-01    7.3812015654406435E+00    1.1021568298747354E+01
N    1.1082162294344233E-01    7.3811562343916473E+00    1.2991470194703050E+01
Ga    1.1003729736013786E-01    5.5122747899136204E+00    1.3616480714952118E+01
N    1.0954645809794343E-01    5.5435825944730244E+00    1.5574421609632122E+01
Ga    1.0993296778574718E-01    7.3801205177130837E+00    1.5854164995087659E+01
N   -1.6210941243663626E+00    1.0095251421364789E+01    2.5014278793746696E+00
Ga   -1.4884020074562998E+00    8.3123582521872645E+00    3.3066576147660629E+00
N   -1.4860783782361839E+00    8.3029252301284124E+00    5.2511564108827828E+00
Ga   -1.4726318150484063E+00    1.0185419359765124E+01    5.8097228362774160E+00
N   -1.4888939953788529E+00    1.0167935492932202E+01    7.8050863772693981E+00
Ga   -1.5066357233264234E+00    8.3150831930057905E+00    8.4381974657563266E+00
N   -1.5094195289379420E+00    8.3131654025545245E+00    1.0429302315605904E+01
Ga   -1.4825583400008537E+00    1.0174110245124707E+01    1.1061246522867860E+01
N   -1.4665168530118327E+00    1.0182753022747116E+01    1.3055576230903757E+01
Ga   -1.5076796068252523E+00    8.3145844178952881E+00    1.3615812193731994E+01
N   -1.4812491151152807E+00    8.2988797240004715E+00    1.5574183400329229E+01
Ga   -1.6740079509288537E+00    1.0061945246358421E+01    1.6487456187488974E+01
N    6.5359745976049988E+00    1.9194793669521417E+00    2.5180975478594032E+00
Ga    6.5247207940008760E+00   -5.2005034551906339E-02    2.8678361151401242E+00
N    6.5297366395999328E+00   -4.5546929552858134E-02    5.0422983502050434E+00
Ga    6.5373493244371703E+00    1.7768266699625883E+00    5.7963720649854640E+00
N    6.5449941063595993E+00    1.8005795002021117E+00    7.7961214786866879E+00
Ga    6.5481595174425777E+00   -4.9215861001004411E-02    8.4316941696587513E+00
N    6.5450612142634537E+00   -4.7840096895803777E-02    1.0410899652936328E+01
Ga    6.5428884500401994E+00    1.7909128743768179E+00    1.1060868510887323E+01
N    6.5426865235496772E+00    1.7707511673166179E+00    1.3062304160935815E+01
Ga    6.5430241104411522E+00   -5.7998094577184911E-02    1.3854289163559555E+01
N    6.5423016711605060E+00   -5.9807683297257275E-02    1.6064126930362569E+01
Ga    6.5419036066053122E+00    1.9418174237312920E+00    1.6428770019763025E+01
Ga    6.4680811840175050E+00    3.5789542596396644E+00    1.2169778316080735E+00
N    5.0164770424892406E+00    4.5287998077199090E+00    2.4993537228167910E+00
Ga    4.8491943219691462E+00    2.6876826177894282E+00    3.2592623701636136E+00
N    4.9402933623713325E+00    2.7406711202933329E+00    5.2469054534164172E+00
Ga    4.9021588173793473E+00    4.6010260407776800E+00    5.8054683903360376E+00
N    4.9306199810152576E+00    4.6010994638132825E+00    7.7994942042046000E+00
Ga    4.9441970417726395E+00    2.7411638459153354E+00    8.4324919055981642E+00
N    4.9459291023603349E+00    2.7448629349542211E+00    1.0430713043247815E+01
Ga    4.9180021555054649E+00    4.6047309558182512E+00    1.1060705709378489E+01
N    4.9005066226896332E+00    4.6149708347917349E+00    1.3062128267438805E+01
Ga    4.9457425809126461E+00    2.7447167523159388E+00    1.3607548574600827E+01
N    4.9282015526032028E+00    2.7350751517116474E+00    1.5586299023301839E+01
Ga    5.0466832048621661E+00    4.5300098505746158E+00    1.6429000111545520E+01
N    6.5409738010406784E+00    3.6675108523706395E+00    1.7550114523170038E+01
N    3.3080177616158730E+00    7.4107680094841495E+00    2.4882974920318817E+00
N    3.3226403205573165E+00    5.5041402130407731E+00    5.0621477982289234E+00
Ga    3.3148910040682957E+00    7.3376174527943636E+00    5.7719452486545819E+00
N    3.3279010156539091E+00    7.3744756576098620E+00    7.7737130972081312E+00
Ga    3.3269872757204455E+00    5.5275454991616755E+00    8.4328011723322227E+00
N    3.3269861244968602E+00    5.5261725958647485E+00    1.0410899702234984E+01
Ga    3.3263516776968292E+00    7.3651267407488747E+00    1.1060991301503792E+01
N    3.3255484012833301E+00    7.3456999837054573E+00    1.3054625140465175E+01
Ga    3.3160276510698754E+00    5.5292134476993269E+00    1.3855300122054773E+01
N    3.3143815348011607E+00    5.5307053387266665E+00    1.6064511117231916E+01
Ga    3.3232968326818906E+00    7.5865569023439754E+00    1.6491413536339675E+01
Ga    3.0767216517889215E+00    9.3760718987268774E+00    7.0086459903935128E-01
N    1.7694930708968060E+00    1.0131895908161269E+01    2.4681589084502686E+00
Ga    1.7328500685490857E+00    8.3197535583155169E+00    3.2062308901672507E+00
N    1.7094306888947943E+00    8.3042102748235500E+00    5.1950507943071429E+00
Ga    1.6909977868147785E+00    1.0181417154484164E+01    5.7639884248926654E+00
N    1.7129451597833329E+00    1.0169206439391818E+01    7.7732377180412726E+00
Ga    1.7323095114277274E+00    8.3189025416374189E+00    8.4256643319959021E+00
N    1.7304663417872956E+00    8.3154094434028973E+00    1.0420958813113661E+01
Ga    1.7053801863326714E+00    1.0173028364004058E+01    1.1060961147272247E+01
N    1.6879477477934082E+00    1.0182306602956654E+01    1.3054646750377449E+01
Ga    1.7284628804451054E+00    8.3149136503357024E+00    1.3617226065811874E+01
N    1.7004596187875984E+00    8.2989680315777328E+00    1.5574657254212429E+01
Ga    1.8950967757475725E+00    1.0060691533730367E+01    1.6490726688600379E+01
N    3.3336825921221567E+00    9.2423457274097256E+00    1.7634432479289345E+01
N    9.7602969084292432E+00    1.8189607244361450E+00    2.6593297038850729E+00
Ga    9.7551821137544383E+00   -6.4814171786777133E-02    3.2003162603550042E+00
N    9.7573216600110211E+00   -3.6941964043372598E-02    5.1895100458862942E+00
Ga    9.7544487826310355E+00    1.7957087302957315E+00    5.8699337959427682E+00
N    9.7560792253353892E+00    1.8071019533890003E+00    7.8422149747543166E+00
Ga    9.7573722952792874E+00   -6.3089188133542792E-02    8.4236888478958640E+00
N    9.7595956922717342E+00   -6.0733724911562023E-02    1.0420911373639624E+01
Ga    9.7578878591767992E+00    1.8072422983383414E+00    1.1021263521130960E+01
N    9.7553697907770083E+00    1.8099470571369414E+00    1.2995121298455050E+01
Ga    9.7575265002543965E+00   -6.1116306729521154E-02    1.3618562070368533E+01
N    9.7512277071819842E+00   -2.4582138890036201E-02    1.5577236680895355E+01
Ga    9.7597272976097447E+00    1.8085428167190982E+00    1.5858280556985520E+01
N    8.0696624538024597E+00    4.5376054785260767E+00    2.5117081953523912E+00
Ga    8.1498619486293649E+00    2.7317267583266904E+00    3.2806169980620234E+00
N    8.1596340708933681E+00    2.7321123957944788E+00    5.2322701045933506E+00
Ga    8.1845868248442919E+00    4.6102171218537755E+00    5.7911246587398670E+00
N    8.1556766656826216E+00    4.6006484668109389E+00    7.7861283065245690E+00
Ga    8.1393771898528708E+00    2.7426381182766848E+00    8.4322057476933843E+00
N    8.1400800480664390E+00    2.7458500013631482E+00    1.0428162812348310E+01
Ga    8.1657382136477672E+00    4.6039033929993751E+00    1.1064640119204594E+01
N    8.1833382472636877E+00    4.6141593756143680E+00    1.3064188893938409E+01
Ga    8.1392857209169414E+00    2.7436601510895668E+00    1.3608763961544190E+01
N    8.1562921307801766E+00    2.7347472060689575E+00    1.5587061460678454E+01
Ga    8.0359488168305955E+00    4.5293162320703901E+00    1.6429461233088507E+01
N    6.7131959605453808E+00    7.2889521407768063E+00    2.4574752022312105E+00
Ga    6.5250161234611790E+00    5.4455148239271631E+00    3.2857144089732002E+00
N    6.5409691204342675E+00    5.5394553331571048E+00    5.2191350049627481E+00
Ga    6.5304823408614840E+00    7.3826718924593546E+00    5.8591269597813804E+00
N    6.5376223399528008E+00    7.3808696178808466E+00    7.8281317305773257E+00
Ga    6.5416710728169081E+00    5.5136942252408012E+00    8.4335120840412987E+00
N    6.5434682892132621E+00    5.5123972805461960E+00    1.0427544188878821E+01
Ga    6.5398973428606295E+00    7.3811784783294669E+00    1.1022693684226752E+01
N    6.5408512556335916E+00    7.3778763457262837E+00    1.2995619285698222E+01
Ga    6.5415559727199151E+00    5.5107690856875360E+00    1.3609082065260054E+01
N    6.5419628825612746E+00    5.5307799171405856E+00    1.5587076804762345E+01
Ga    6.5414068954976932E+00    7.3821290196297182E+00    1.5858812667730051E+01
N    4.9017137363513630E+00    1.0165083414015221E+01    2.4845334289291343E+00
Ga    4.7038597328901606E+00    8.4422978281540040E+00    3.2475248982347842E+00
N    4.9448180544139282E+00    8.3027981354813143E+00    5.1786492667303330E+00
Ga    4.9679363408832682E+00    1.0198802570195339E+01    5.7659205651960423E+00
N    4.9402475005048494E+00    1.0167862255842232E+01    7.7696921021691132E+00
Ga    4.9206690878674548E+00    8.3175148342612690E+00    8.4240182247611131E+00
N    4.9238847169179660E+00    8.3156456179909561E+00    1.0419413238583035E+01
Ga    4.9485154146561605E+00    1.0173711194260472E+01    1.1065619232334248E+01
N    4.9652375209394508E+00    1.0183277878751218E+01    1.3059967638567189E+01
Ga    4.9208905582338032E+00    8.3153173386514680E+00    1.3619300833732952E+01
N    4.9498719598411389E+00    8.2916995327622498E+00    1.5577810466421093E+01
Ga    4.7678297360903406E+00    1.0070111441023990E+01    1.6490148185287300E+01
O    1.0436742581574308E-01    3.7677350573748827E+00   -4.7238610202953846E-01
H   -2.7663467640401267E+00    8.5465866030478566E+00   -8.7364807847093229E-01
C    1.3073948555382422E+00    3.3576399838320614E+00   -1.1490078548967617E+00
H    2.1928354105899763E+00    3.9131267521814252E+00   -7.9879457373366825E-01
H    1.5063410577121805E+00    2.2806243013659500E+00   -1.0289231210710232E+00
H    1.1670159936460738E+00    3.5688682463367569E+00   -2.2188200795913744E+00
Ga    3.2991449813730305E+00    5.4971654272878050E+00    2.8958475530053440E+00
O   -3.3546939911458926E+00    9.2108828930042570E+00   -4.8024819086473014E-01
H    6.8609747461295681E-02    7.3354930112490928E+00    1.6475529770734494E+00
C    6.4709355023551938E+00    7.4494865693142511E+00    1.1991577164824763E+00
H    6.8374207811130763E+00    8.3292002030550254E+00    6.5051072233417828E-01
H    9.7784030094994918E+00    1.8634319842391922E+00    1.6334167805117106E+00
H    5.8689838811999886E+00    6.7164262090082065E+00    6.4274360521201246E-01
     &END COORD
     &KIND C
       BASIS_SET DZVP-MOLOPT-SR-GTH-q4
       POTENTIAL GTH-PBE-q4
       &POTENTIAL
 2 2
  0.3384712400000000E+00 2 -0.8803673979999999E+01  0.1339210850000000E+01
 2
  0.3025757500000000E+00 1  0.9622486650000001E+01
  0.2915069400000000E+00 0
         # Potential name:  GTH-PBE-Q4  for symbol:  C
         # Potential read from the potential filename: GTH_POTENTIALS
       &END POTENTIAL
     &END KIND
     &KIND O
       BASIS_SET DZVP-MOLOPT-SR-GTH-q6
       POTENTIAL GTH-PBE-q6
       &POTENTIAL
 2 4
  0.2445543000000000E+00 2 -0.1666721480000000E+02  0.2487311320000000E+01
 2
  0.2209559200000000E+00 1  0.1833745811000000E+02
  0.2113324700000000E+00 0
         # Potential name:  GTH-PBE-Q6  for symbol:  O
         # Potential read from the potential filename: GTH_POTENTIALS
       &END POTENTIAL
     &END KIND
     &KIND H
       BASIS_SET DZVP-MOLOPT-SR-GTH-q1
       POTENTIAL GTH-PBE-q1
       &POTENTIAL
 1
  0.2000000000000000E+00 2 -0.4178900440000000E+01  0.7244633100000000E+00
 0
         # Potential name:  GTH-PBE-Q1  for symbol:  H
         # Potential read from the potential filename: GTH_POTENTIALS
       &END POTENTIAL
     &END KIND
     &KIND N
       BASIS_SET DZVP-MOLOPT-SR-GTH
       POTENTIAL GTH-PBE-q5
       &POTENTIAL
 2 3
  0.2837905100000000E+00 2 -0.1241522559000000E+02  0.1868095920000000E+01
 2
  0.2554050000000000E+00 1  0.1363026257000000E+02
  0.2454945300000000E+00 0
         # Potential name:  GTH-PBE-Q5  for symbol:  N
         # Potential read from the potential filename: GTH_POTENTIALS
       &END POTENTIAL
     &END KIND
     &KIND Ga
       BASIS_SET DZVP-MOLOPT-SR-GTH
       POTENTIAL GTH-PBE-q13
       &POTENTIAL
 2 1 10
  0.4900000000000000E+00 0
 3
  0.4167772300000000E+00 3  0.1047568975000000E+02 -0.4921768140000000E+01  0.8707055900000000E+00
  0.7770178090000000E+01 -0.2248152160000000E+01
  0.1784415450000000E+01
  0.5696265200000000E+00 2  0.1777985340000000E+01  0.1958597600000000E+00
 -0.2317443900000000E+00
  0.2381265000000000E+00 1 -0.1624868022000000E+02
         # Potential name:  GTH-PBE-Q13  for symbol:  GA
         # Potential read from the potential filename: GTH_POTENTIALS
       &END POTENTIAL
     &END KIND
     &TOPOLOGY
       NUMBER_OF_ATOMS  212
       MULTIPLE_UNIT_CELL  1 1 1
     &END TOPOLOGY
   &END SUBSYS
 &END FORCE_EVAL
