 # Version information for this restart file 
 # current date 2019-07-03 12:53:23.274
 # current working dir /lustre04/scratch/rzk/rzk/GaN-carbene/443-adatoms-both-2x2/08-CH3O-H2O-H2C-H/03-Use-0401
 # Program compiled at                              Sun Apr  7 00:48:11 EDT 2019
 # Program compiled on                          beluga2.int.ets1.calculquebec.ca
 # Program compiled for                        Beluga-Linux-x86-64-intel-openmpi
 # Source code revision number                                         svn:18619
 &GLOBAL
   PRINT_LEVEL  MEDIUM
   PROJECT_NAME TEST
   RUN_TYPE  GEO_OPT
 &END GLOBAL
 &MOTION
   &GEO_OPT
     MAX_ITER  500
     STEP_START_VAL  101
   &END GEO_OPT
 &END MOTION
 &FORCE_EVAL
   METHOD  QS
   STRESS_TENSOR  ANALYTICAL
   &DFT
     BASIS_SET_FILE_NAME BASIS_MOLOPT
     POTENTIAL_FILE_NAME GTH_POTENTIALS
     UKS  T
     SURFACE_DIPOLE_CORRECTION  T
     SURF_DIP_DIR  Z
     &SCF
       MAX_SCF  80
       EPS_SCF     5.0000000000000004E-06
       &OT  T
         PRECONDITIONER  FULL_ALL
       &END OT
       &OUTER_SCF  T
         OPTIMIZER  NONE
         EPS_SCF     5.0000000000000004E-06
         MAX_SCF  4
       &END OUTER_SCF
       &PRINT
         &RESTART  OFF
           BACKUP_COPIES  1
           &EACH
             JUST_ENERGY  0
             QS_SCF  0
             MD  20
           &END EACH
         &END RESTART
       &END PRINT
     &END SCF
     &QS
       EPS_DEFAULT     1.0000000000000000E-14
       METHOD  GPW
     &END QS
     &MGRID
       NGRIDS  5
       CUTOFF     1.2000000000000000E+03
     &END MGRID
     &XC
       DENSITY_CUTOFF     1.0000000000000000E-10
       GRADIENT_CUTOFF     1.0000000000000000E-10
       TAU_CUTOFF     1.0000000000000000E-10
       &XC_FUNCTIONAL  NO_SHORTCUT
         &PBE  T
         &END PBE
       &END XC_FUNCTIONAL
       &VDW_POTENTIAL
         POTENTIAL_TYPE  PAIR_POTENTIAL
         &PAIR_POTENTIAL
           R_CUTOFF     1.0000000000000004E+01
           TYPE  DFTD3
           PARAMETER_FILE_NAME dftd3.dat
           REFERENCE_FUNCTIONAL PBE
           EPS_CN     9.9999999999999995E-07
           CALCULATE_C9_TERM  T
           REFERENCE_C9_TERM  T
           LONG_RANGE_CORRECTION  F
           VERBOSE_OUTPUT  F
         &END PAIR_POTENTIAL
       &END VDW_POTENTIAL
     &END XC
   &END DFT
   &SUBSYS
     &CELL
       A     1.2864472766435110E+01    0.0000000000000000E+00    0.0000000000000000E+00
       B    -6.4322363581020028E+00    1.1140960178524473E+01    0.0000000000000000E+00
       C     0.0000000000000000E+00    0.0000000000000000E+00    3.2000000000000000E+01
       MULTIPLE_UNIT_CELL  1 1 1
       &CELL_REF
         A     1.2982353780853531E+01    0.0000000000000000E+00    0.0000000000000000E+00
         B    -6.4911768904267628E+00    1.1243048175136114E+01    0.0000000000000000E+00
         C     0.0000000000000000E+00    0.0000000000000000E+00    3.2000000000000000E+01
         MULTIPLE_UNIT_CELL  1 1 1
       &END CELL_REF
     &END CELL
     &COORD
N    1.1017575747086221E-01    1.9512105262787438E+00    2.5170359056349536E+00
Ga    1.3249481509878919E-01   -1.6920156419757339E-02    2.8714082080457941E+00
N    1.2947751967286564E-01   -3.5912529559078255E-02    5.0503901381968026E+00
Ga    1.1727046756768039E-01    1.7833711991223278E+00    5.8102659478873520E+00
N    1.0679834487240392E-01    1.8007994834490064E+00    7.8068655032109788E+00
Ga    1.0507041158073210E-01   -4.9273412552455514E-02    8.4355880649804149E+00
N    1.0729331518141207E-01   -4.8892441157789679E-02    1.0412445406535092E+01
Ga    1.0946978572451990E-01    1.7907191343380002E+00    1.1066278331072583E+01
N    1.0923874766063729E-01    1.7718985139236880E+00    1.3061374883299214E+01
Ga    1.0892807083168646E-01   -4.7269344458176876E-02    1.3873394808632431E+01
N    1.0886889927575641E-01   -4.7125721873351074E-02    1.6065167029362225E+01
Ga    1.0958855700143551E-01    2.0012195595033972E+00    1.6489440148790916E+01
Ga    1.3374078663128972E-01    3.6627799404791292E+00    1.3371466627478894E+00
N   -1.3792809743721341E+00    4.5287375482230487E+00    2.5058753067869302E+00
Ga   -1.4964996758524720E+00    2.7301236641800766E+00    3.3117854061653658E+00
N   -1.5118842249888156E+00    2.7321836382668705E+00    5.2551114800922374E+00
Ga   -1.5265631648272304E+00    4.6105484258125289E+00    5.8108066690014430E+00
N   -1.5073576385428398E+00    4.5993099845684355E+00    7.8024861365827922E+00
Ga   -1.4903905567264719E+00    2.7410996282023832E+00    8.4386901777394812E+00
N   -1.4892836357939316E+00    2.7437025551131762E+00    1.0431542047698708E+01
Ga   -1.5131974447269119E+00    4.6030590314246105E+00    1.1065161064011400E+01
N   -1.5291038754032167E+00    4.6130380481293871E+00    1.3057805137155389E+01
Ga   -1.4869743882005049E+00    2.7446794047296881E+00    1.3617999603126151E+01
N   -1.5217243598969021E+00    2.7324613187531401E+00    1.5577232666130227E+01
Ga   -1.3184583140221922E+00    4.4934521153289184E+00    1.6491008268001636E+01
N    1.0953157088846467E-01    3.6568954922602286E+00    1.7633664198569392E+01
N   -3.0927111466367920E+00    7.5100423442611435E+00    2.5066508378031713E+00
Ga   -3.0867168008814323E+00    5.5273134804893624E+00    2.8627921383102630E+00
N   -3.1001229007833686E+00    5.5250362903859873E+00    5.0384527510216746E+00
Ga   -3.1000091617710734E+00    7.3427521999220335E+00    5.8052475689938987E+00
N   -3.1080970611414491E+00    7.3715794672811974E+00    7.7953401503661857E+00
Ga   -3.1083511252612204E+00    5.5225610306818247E+00    8.4392472343803053E+00
N   -3.1076392979352327E+00    5.5232441105509231E+00    1.0413794166672883E+01
Ga   -3.1068958604909076E+00    7.3633359114265069E+00    1.1064568598342346E+01
N   -3.1061789097041692E+00    7.3445246133399964E+00    1.3057240673713162E+01
Ga   -3.0967992740585237E+00    5.5281846349933552E+00    1.3857750569570950E+01
N   -3.0956009582475250E+00    5.5298797784311207E+00    1.6064667581036762E+01
Ga   -3.1044790721164834E+00    7.5847548965765972E+00    1.6488399530929456E+01
Ga   -3.1007390731001130E+00    9.3203837062019250E+00    1.3150256072326327E+00
N   -4.5914755194205101E+00    1.0109435710625169E+01    2.4955647629013260E+00
Ga   -4.6602486913149122E+00    8.3569768217523190E+00    3.3183764588843441E+00
N   -4.7296543570652858E+00    8.3004180886620382E+00    5.2410089125308623E+00
Ga   -4.7371689297809514E+00    1.0193230890962687E+01    5.8129000622538056E+00
N   -4.7227879525418031E+00    1.0166570981436593E+01    7.8042425130813191E+00
Ga   -4.7080665216133148E+00    8.3136079687245292E+00    8.4355575240816485E+00
N   -4.7059663510414023E+00    8.3129165829394456E+00    1.0427598306529630E+01
Ga   -4.7311020007905791E+00    1.0174428878550888E+01    1.1065253621932326E+01
N   -4.7471898771445140E+00    1.0183572110345320E+01    1.3060549696305928E+01
Ga   -4.7028567915320982E+00    8.3150653472033600E+00    1.3617980902153782E+01
N   -4.7311262079135989E+00    8.2915030493145583E+00    1.5577320752752001E+01
Ga   -4.5514133304537383E+00    1.0071646161807957E+01    1.6486827523618270E+01
N   -3.1154638846294169E+00    9.2427047422565778E+00    1.7629647111104717E+01
N    3.3179755828529798E+00    1.8095564621589988E+00    2.6488579463924689E+00
Ga    3.3309246015931868E+00    5.1330535758439939E-02    3.2817164540725181E+00
N    3.3283100739454432E+00   -5.2216657412229889E-02    5.2609139408779351E+00
Ga    3.3279546948086489E+00    1.8109563095623118E+00    5.8602619415459083E+00
N    3.3280622837805205E+00    1.8100989149816860E+00    7.8478153862729858E+00
Ga    3.3274370478130320E+00   -5.5618084232355106E-02    8.4356365816514547E+00
N    3.3252770377942213E+00   -5.9723838909067135E-02    1.0431376910465680E+01
Ga    3.3262023058487005E+00    1.8094820845586270E+00    1.1023137756311366E+01
N    3.3285454644693404E+00    1.8113037468998106E+00    1.2997494178805308E+01
Ga    3.3265295357611144E+00   -6.0950179501982150E-02    1.3616394296531043E+01
N    3.3323292028717346E+00   -2.4807677630109541E-02    1.5576307760413572E+01
Ga    3.3239896361883878E+00    1.8090321920683801E+00    1.5856331766653335E+01
N    1.5978066966872806E+00    4.5260102818450285E+00    2.5283896113330178E+00
Ga    1.7911798790965381E+00    2.6958829918066605E+00    3.2792811499214674E+00
N    1.7167230212558571E+00    2.7384834086807754E+00    5.2652350928395411E+00
Ga    1.7429918328190068E+00    4.5995468787092548E+00    5.8155897594453201E+00
N    1.7239007517613687E+00    4.6007283788154387E+00    7.8105898099425897E+00
Ga    1.7104505604168949E+00    2.7410915223954109E+00    8.4371880031843691E+00
N    1.7073319351020293E+00    2.7431015134017160E+00    1.0432997168140750E+01
Ga    1.7331957829393509E+00    4.6037039221596459E+00    1.1061742220630764E+01
N    1.7484767755775616E+00    4.6136962348975210E+00    1.3056024976019122E+01
Ga    1.7056378705910726E+00    2.7456590475698173E+00    1.3617319862850650E+01
N    1.7403265169506577E+00    2.7328095525309219E+00    1.5576787357056110E+01
Ga    1.5378729538965119E+00    4.4937638950912824E+00    1.6490672621686432E+01
N    1.0234636313787773E-01    7.3726086762499996E+00    2.6729728355830726E+00
Ga    1.1875806306773184E-01    5.5235852008949555E+00    3.3209757115818741E+00
N    1.0828361855563229E-01    5.5378651329252229E+00    5.2626433703504469E+00
Ga    1.2318161606902260E-01    7.3894877565639820E+00    5.8797479445639951E+00
N    1.1284095575401841E-01    7.3826234278493450E+00    7.8490469043187145E+00
Ga    1.1024929287221245E-01    5.5137521374545395E+00    8.4403996300772484E+00
N    1.0852899019844765E-01    5.5118116475059127E+00    1.0431464723736749E+01
Ga    1.1190767523409058E-01    7.3812196882657934E+00    1.1021579635881237E+01
N    1.1079519591084248E-01    7.3810804398578380E+00    1.2991557652493881E+01
Ga    1.1002933896911760E-01    5.5121614525600258E+00    1.3616373152841541E+01
N    1.0940250587942928E-01    5.5434576165837646E+00    1.5574395057835213E+01
Ga    1.0973056404968617E-01    7.3800778246090513E+00    1.5853956046152881E+01
N   -1.6209709273002622E+00    1.0095182205289770E+01    2.5011318018403217E+00
Ga   -1.4883202994993221E+00    8.3123955938088585E+00    3.3066803436633867E+00
N   -1.4859015478813311E+00    8.3028682563742908E+00    5.2512127998006708E+00
Ga   -1.4724240794394143E+00    1.0185471353677364E+01    5.8096805380898733E+00
N   -1.4886799033289349E+00    1.0167966112207152E+01    7.8050142841299506E+00
Ga   -1.5064713970934189E+00    8.3151197966407455E+00    8.4382130436089113E+00
N   -1.5093174317553191E+00    8.3132236203900369E+00    1.0429360493353009E+01
Ga   -1.4824195489970520E+00    1.0174140880037474E+01    1.1061329025356891E+01
N   -1.4665864724802522E+00    1.0182728836358363E+01    1.3055609470987022E+01
Ga   -1.5077608724946001E+00    8.3146059764196885E+00    1.3615781874024604E+01
N   -1.4814309196924076E+00    8.2987694592172954E+00    1.5574148260599740E+01
Ga   -1.6742932846179723E+00    1.0061849204387348E+01    1.6487477439033633E+01
N    6.5361473350838137E+00    1.9194444295887565E+00    2.5180152078051310E+00
Ga    6.5248234529434219E+00   -5.2029112039944411E-02    2.8674724576859574E+00
N    6.5299830198850968E+00   -4.5484238483213632E-02    5.0422104661998102E+00
Ga    6.5375950470022977E+00    1.7768674505773192E+00    5.7963615203818382E+00
N    6.5451524808942985E+00    1.8006311473727730E+00    7.7961112890267588E+00
Ga    6.5483628638450551E+00   -4.9162683396241129E-02    8.4317157741911988E+00
N    6.5451320212735364E+00   -4.7790143806721738E-02    1.0410924340001406E+01
Ga    6.5430051343275313E+00    1.7909187384213334E+00    1.1060958398615277E+01
N    6.5426507507562643E+00    1.7707484141459464E+00    1.3062396004116268E+01
Ga    6.5428978148055661E+00   -5.8049535226984278E-02    1.3854510102765795E+01
N    6.5421528809999394E+00   -5.9855885538202563E-02    1.6063857756537491E+01
Ga    6.5417232957168467E+00    1.9417289481220976E+00    1.6428688627723474E+01
Ga    6.4679999926021807E+00    3.5788078334495412E+00    1.2171406221870340E+00
N    5.0165767278032574E+00    4.5285982010290402E+00    2.4992477718449395E+00
Ga    4.8493292758950401E+00    2.6874903841236968E+00    3.2592760651011710E+00
N    4.9404531345115252E+00    2.7406904649657342E+00    5.2469630131013165E+00
Ga    4.9022248103358717E+00    4.6010231656775140E+00    5.8056106324115229E+00
N    4.9307961629520678E+00    4.6011366076900568E+00    7.7995713934996287E+00
Ga    4.9443998653648364E+00    2.7411911880806854E+00    8.4325549822466908E+00
N    4.9460841582074124E+00    2.7448556325766078E+00    1.0430780113742687E+01
Ga    4.9181394919643973E+00    4.6047197942879388E+00    1.1060821513037252E+01
N    4.9005860032931396E+00    4.6148573633456538E+00    1.3062235083374524E+01
Ga    4.9456281411888368E+00    2.7446145557218964E+00    1.3607555747430833E+01
N    4.9278048504620582E+00    2.7348972647508085E+00    1.5586305964216129E+01
Ga    5.0467304527235157E+00    4.5298205075028655E+00    1.6428953468521048E+01
N    6.5408794435096027E+00    3.6672536924480683E+00    1.7550055598396710E+01
N    3.3080291711186018E+00    7.4107404683098794E+00    2.4884616711474759E+00
N    3.3228024059361174E+00    5.5041318616557451E+00    5.0621968343403037E+00
Ga    3.3150459721445849E+00    7.3376601350528716E+00    5.7718442762122368E+00
N    3.3279982280721523E+00    7.3745496053531969E+00    7.7736529703437274E+00
Ga    3.3270996843002192E+00    5.5275778060077148E+00    8.4328742580325979E+00
N    3.3271637875598872E+00    5.5261832431462130E+00    1.0410980975472109E+01
Ga    3.3264846938932680E+00    7.3651820582397853E+00    1.1061017412642169E+01
N    3.3255406249656705E+00    7.3457234754499074E+00    1.3054610210695726E+01
Ga    3.3160877608601664E+00    5.5291888803608469E+00    1.3855307739864747E+01
N    3.3142850978727569E+00    5.5305459377204933E+00    1.6064296110577217E+01
Ga    3.3231728766175710E+00    7.5864793387448159E+00    1.6491242405336809E+01
Ga    3.0754359564548848E+00    9.3761941377234681E+00    7.0101082071823639E-01
N    1.7695475158041081E+00    1.0131840791064766E+01    2.4680838575325525E+00
Ga    1.7329031354755797E+00    8.3196594831908115E+00    3.2064529639310466E+00
N    1.7094607461374689E+00    8.3042504094660110E+00    5.1950985257055153E+00
Ga    1.6912869778332487E+00    1.0181456678327043E+01    5.7639721503447889E+00
N    1.7130824168583345E+00    1.0169234768113281E+01    7.7731820300128822E+00
Ga    1.7324488264134579E+00    8.3189927598970108E+00    8.4257548741557926E+00
N    1.7305566908214665E+00    8.3154677281825791E+00    1.0421016811687760E+01
Ga    1.7054262383221397E+00    1.0173111623546333E+01    1.1060998643194301E+01
N    1.6878828443800180E+00    1.0182316006309771E+01    1.3054644054519251E+01
Ga    1.7284375777258296E+00    8.3149083382550852E+00    1.3617074140981913E+01
N    1.7003059928980608E+00    8.2988473975241099E+00    1.5574535440473428E+01
Ga    1.8949138736509612E+00    1.0060610105795762E+01    1.6490559949276832E+01
N    3.3335090953450428E+00    9.2422584129378418E+00    1.7634379089583422E+01
N    9.7604315005933540E+00    1.8187936357273493E+00    2.6593063260011403E+00
Ga    9.7554829364161275E+00   -6.4902786670410814E-02    3.2002842038375827E+00
N    9.7575773874023124E+00   -3.6943075313414730E-02    5.1895002687180014E+00
Ga    9.7546557276458756E+00    1.7957184981924346E+00    5.8699390329482330E+00
N    9.7562813691276027E+00    1.8071811653357241E+00    7.8421466643185118E+00
Ga    9.7575141716079905E+00   -6.2991459051914972E-02    8.4237237892288768E+00
N    9.7596336040492773E+00   -6.0679816035630343E-02    1.0420898266745461E+01
Ga    9.7579836793608035E+00    1.8072815526994572E+00    1.1021243436421702E+01
N    9.7553607498387862E+00    1.8099688177475570E+00    1.2995103285847270E+01
Ga    9.7574577662135482E+00   -6.1112076085439573E-02    1.3618422091267441E+01
N    9.7510962580191602E+00   -2.4678789275294922E-02    1.5577117361825776E+01
Ga    9.7596241064634022E+00    1.8084066549002147E+00    1.5858323709591202E+01
N    8.0695660085801055E+00    4.5375476212391357E+00    2.5117054016796749E+00
Ga    8.1500965603789091E+00    2.7316436225615743E+00    3.2805371977771745E+00
N    8.1598038172750602E+00    2.7321368535058514E+00    5.2322715362629904E+00
Ga    8.1847421370351743E+00    4.6102034610257565E+00    5.7911138114897112E+00
N    8.1558653472230702E+00    4.6006349967267672E+00    7.7861069699352896E+00
Ga    8.1395499097014348E+00    2.7426410291286749E+00    8.4322452036150803E+00
N    8.1401883288277954E+00    2.7458674123072728E+00    1.0428180112707258E+01
Ga    8.1658651106535611E+00    4.6039264663429753E+00    1.1064685133230419E+01
N    8.1832588501702563E+00    4.6141124908559688E+00    1.3064257047246345E+01
Ga    8.1392569959239705E+00    2.7436219927068479E+00    1.3608737671046843E+01
N    8.1563163178561915E+00    2.7345981591417905E+00    1.5587036380811950E+01
Ga    8.0356830497254901E+00    4.5291762587530799E+00    1.6429428085214344E+01
N    6.7124482599546091E+00    7.2892779572687170E+00    2.4575577953619456E+00
Ga    6.5249609415741654E+00    5.4454664395792314E+00    3.2858418412531494E+00
N    6.5410182502261849E+00    5.5394142433607838E+00    5.2192039243631640E+00
Ga    6.5304814548176386E+00    7.3826848910882443E+00    5.8592189112906414E+00
N    6.5378091964850658E+00    7.3808924491128973E+00    7.8282738515933294E+00
Ga    6.5418955581404550E+00    5.5136900744913158E+00    8.4336065447595114E+00
N    6.5436073685841700E+00    5.5124328012197026E+00    1.0427638704767219E+01
Ga    6.5400010952222116E+00    7.3812426529795747E+00    1.1022696676462322E+01
N    6.5407975777913911E+00    7.3779130551201693E+00    1.2995556123705581E+01
Ga    6.5415201937910403E+00    5.5108638041253633E+00    1.3609030355243460E+01
N    6.5418277890620953E+00    5.5308887209532474E+00    1.5587010837964653E+01
Ga    6.5412578583759551E+00    7.3821455715396294E+00    1.5858906502889267E+01
N    4.9020297697827075E+00    1.0165069716653086E+01    2.4848900078663894E+00
Ga    4.7039657598804467E+00    8.4422669487606399E+00    3.2475097745682566E+00
N    4.9449623302587922E+00    8.3028997447656714E+00    5.1787596673570180E+00
Ga    4.9681434610730690E+00    1.0198857880606687E+01    5.7659967614296042E+00
N    4.9404426866857829E+00    1.0167956199828520E+01    7.7698008881840392E+00
Ga    4.9208165291889410E+00    8.3175950509194951E+00    8.4240383159367838E+00
N    4.9240019237421357E+00    8.3156737340383557E+00    1.0419444837889742E+01
Ga    4.9486029337322588E+00    1.0173770673569139E+01    1.1065560489576487E+01
N    4.9651567189177515E+00    1.0183268909771204E+01    1.3059928814486149E+01
Ga    4.9209035280292630E+00    8.3153074476029598E+00    1.3619204531915514E+01
N    4.9497056000489454E+00    8.2916237599449722E+00    1.5577696938066454E+01
Ga    4.7676610207642920E+00    1.0069991316659213E+01    1.6489987482422574E+01
O    1.0435557947836144E-01    3.7669502069117557E+00   -4.7252329390099512E-01
H   -2.7695234531812987E+00    8.5491254549300688E+00   -8.7539196781568329E-01
C    1.3075287654172352E+00    3.3573877247037620E+00   -1.1490841026142367E+00
H    2.1931784866215978E+00    3.9127880055605733E+00   -7.9903114020916621E-01
H    1.5067190144364679E+00    2.2804360684055411E+00   -1.0288782224498316E+00
H    1.1671528057386664E+00    3.5682875148455393E+00   -2.2190691234045317E+00
Ga    3.2992590726263322E+00    5.4971849240929451E+00    2.8958857601234818E+00
O   -3.3575737851113234E+00    9.2128711891112438E+00   -4.7993461907814250E-01
H    6.8151008086125842E-02    7.3357694573631331E+00    1.6472026737944010E+00
C    6.4712252056790094E+00    7.4492211374606558E+00    1.1990902746253753E+00
H    6.8381908171821175E+00    8.3286865434310311E+00    6.5036818291059417E-01
H    9.7784783612794328E+00    1.8632975422757592E+00    1.6334421915808768E+00
H    5.8692633586421845E+00    6.7163607147569522E+00    6.4256872512289853E-01
     &END COORD
     &KIND C
       BASIS_SET DZVP-MOLOPT-SR-GTH-q4
       POTENTIAL GTH-PBE-q4
       &POTENTIAL
 2 2
  0.3384712400000000E+00 2 -0.8803673979999999E+01  0.1339210850000000E+01
 2
  0.3025757500000000E+00 1  0.9622486650000001E+01
  0.2915069400000000E+00 0
         # Potential name:  GTH-PBE-Q4  for symbol:  C
         # Potential read from the potential filename: GTH_POTENTIALS
       &END POTENTIAL
     &END KIND
     &KIND O
       BASIS_SET DZVP-MOLOPT-SR-GTH-q6
       POTENTIAL GTH-PBE-q6
       &POTENTIAL
 2 4
  0.2445543000000000E+00 2 -0.1666721480000000E+02  0.2487311320000000E+01
 2
  0.2209559200000000E+00 1  0.1833745811000000E+02
  0.2113324700000000E+00 0
         # Potential name:  GTH-PBE-Q6  for symbol:  O
         # Potential read from the potential filename: GTH_POTENTIALS
       &END POTENTIAL
     &END KIND
     &KIND H
       BASIS_SET DZVP-MOLOPT-SR-GTH-q1
       POTENTIAL GTH-PBE-q1
       &POTENTIAL
 1
  0.2000000000000000E+00 2 -0.4178900440000000E+01  0.7244633100000000E+00
 0
         # Potential name:  GTH-PBE-Q1  for symbol:  H
         # Potential read from the potential filename: GTH_POTENTIALS
       &END POTENTIAL
     &END KIND
     &KIND N
       BASIS_SET DZVP-MOLOPT-SR-GTH
       POTENTIAL GTH-PBE-q5
       &POTENTIAL
 2 3
  0.2837905100000000E+00 2 -0.1241522559000000E+02  0.1868095920000000E+01
 2
  0.2554050000000000E+00 1  0.1363026257000000E+02
  0.2454945300000000E+00 0
         # Potential name:  GTH-PBE-Q5  for symbol:  N
         # Potential read from the potential filename: GTH_POTENTIALS
       &END POTENTIAL
     &END KIND
     &KIND Ga
       BASIS_SET DZVP-MOLOPT-SR-GTH
       POTENTIAL GTH-PBE-q13
       &POTENTIAL
 2 1 10
  0.4900000000000000E+00 0
 3
  0.4167772300000000E+00 3  0.1047568975000000E+02 -0.4921768140000000E+01  0.8707055900000000E+00
  0.7770178090000000E+01 -0.2248152160000000E+01
  0.1784415450000000E+01
  0.5696265200000000E+00 2  0.1777985340000000E+01  0.1958597600000000E+00
 -0.2317443900000000E+00
  0.2381265000000000E+00 1 -0.1624868022000000E+02
         # Potential name:  GTH-PBE-Q13  for symbol:  GA
         # Potential read from the potential filename: GTH_POTENTIALS
       &END POTENTIAL
     &END KIND
     &TOPOLOGY
       NUMBER_OF_ATOMS  212
       MULTIPLE_UNIT_CELL  1 1 1
     &END TOPOLOGY
   &END SUBSYS
 &END FORCE_EVAL
