 # Version information for this restart file 
 # current date 2019-07-03 13:22:18.576
 # current working dir /lustre04/scratch/rzk/rzk/GaN-carbene/443-adatoms-both-2x2/08-CH3O-H2O-H2C-H/03-Use-0401
 # Program compiled at                              Sun Apr  7 00:48:11 EDT 2019
 # Program compiled on                          beluga2.int.ets1.calculquebec.ca
 # Program compiled for                        Beluga-Linux-x86-64-intel-openmpi
 # Source code revision number                                         svn:18619
 &GLOBAL
   PRINT_LEVEL  MEDIUM
   PROJECT_NAME TEST
   RUN_TYPE  GEO_OPT
 &END GLOBAL
 &MOTION
   &GEO_OPT
     MAX_ITER  500
     STEP_START_VAL  115
   &END GEO_OPT
 &END MOTION
 &FORCE_EVAL
   METHOD  QS
   STRESS_TENSOR  ANALYTICAL
   &DFT
     BASIS_SET_FILE_NAME BASIS_MOLOPT
     POTENTIAL_FILE_NAME GTH_POTENTIALS
     UKS  T
     SURFACE_DIPOLE_CORRECTION  T
     SURF_DIP_DIR  Z
     &SCF
       MAX_SCF  80
       EPS_SCF     5.0000000000000004E-06
       &OT  T
         PRECONDITIONER  FULL_ALL
       &END OT
       &OUTER_SCF  T
         OPTIMIZER  NONE
         EPS_SCF     5.0000000000000004E-06
         MAX_SCF  4
       &END OUTER_SCF
       &PRINT
         &RESTART  OFF
           BACKUP_COPIES  1
           &EACH
             JUST_ENERGY  0
             QS_SCF  0
             MD  20
           &END EACH
         &END RESTART
       &END PRINT
     &END SCF
     &QS
       EPS_DEFAULT     1.0000000000000000E-14
       METHOD  GPW
     &END QS
     &MGRID
       NGRIDS  5
       CUTOFF     1.2000000000000000E+03
     &END MGRID
     &XC
       DENSITY_CUTOFF     1.0000000000000000E-10
       GRADIENT_CUTOFF     1.0000000000000000E-10
       TAU_CUTOFF     1.0000000000000000E-10
       &XC_FUNCTIONAL  NO_SHORTCUT
         &PBE  T
         &END PBE
       &END XC_FUNCTIONAL
       &VDW_POTENTIAL
         POTENTIAL_TYPE  PAIR_POTENTIAL
         &PAIR_POTENTIAL
           R_CUTOFF     1.0000000000000004E+01
           TYPE  DFTD3
           PARAMETER_FILE_NAME dftd3.dat
           REFERENCE_FUNCTIONAL PBE
           EPS_CN     9.9999999999999995E-07
           CALCULATE_C9_TERM  T
           REFERENCE_C9_TERM  T
           LONG_RANGE_CORRECTION  F
           VERBOSE_OUTPUT  F
         &END PAIR_POTENTIAL
       &END VDW_POTENTIAL
     &END XC
   &END DFT
   &SUBSYS
     &CELL
       A     1.2864472766435110E+01    0.0000000000000000E+00    0.0000000000000000E+00
       B    -6.4322363581020028E+00    1.1140960178524473E+01    0.0000000000000000E+00
       C     0.0000000000000000E+00    0.0000000000000000E+00    3.2000000000000000E+01
       MULTIPLE_UNIT_CELL  1 1 1
       &CELL_REF
         A     1.2982353780853531E+01    0.0000000000000000E+00    0.0000000000000000E+00
         B    -6.4911768904267628E+00    1.1243048175136114E+01    0.0000000000000000E+00
         C     0.0000000000000000E+00    0.0000000000000000E+00    3.2000000000000000E+01
         MULTIPLE_UNIT_CELL  1 1 1
       &END CELL_REF
     &END CELL
     &COORD
N    1.1180710091506026E-01    1.9515750033829000E+00    2.5156422571355934E+00
Ga    1.3415740227667763E-01   -1.6303635205043687E-02    2.8701693448864409E+00
N    1.3120308923192830E-01   -3.5777658063142176E-02    5.0492913299171045E+00
Ga    1.1904210518793422E-01    1.7834859622215109E+00    5.8087157320827112E+00
N    1.0865245756281358E-01    1.8005984401751072E+00    7.8052140753740584E+00
Ga    1.0693254494552114E-01   -4.9474176286117486E-02    8.4339497018223692E+00
N    1.0895435625847331E-01   -4.9243581683843483E-02    1.0410723135655900E+01
Ga    1.1109734265348019E-01    1.7902507536389740E+00    1.1064498472988960E+01
N    1.1095263007458078E-01    1.7714433209493614E+00    1.3059440616115909E+01
Ga    1.1109785526272555E-01   -4.8192469927247690E-02    1.3871766040015267E+01
N    1.1103652237041611E-01   -4.7745488474246249E-02    1.6062663946050289E+01
Ga    1.1139798372012893E-01    1.9990449888979749E+00    1.6485047939223218E+01
Ga    1.3495609943659589E-01    3.6623738347253241E+00    1.3345544794946262E+00
N   -1.3779841455961459E+00    4.5292605122716649E+00    2.5031088069335481E+00
Ga   -1.4947950258822851E+00    2.7306351545967238E+00    3.3098274861902244E+00
N   -1.5100995645346911E+00    2.7324099849016106E+00    5.2532433842231319E+00
Ga   -1.5248919703619828E+00    4.6107353786560532E+00    5.8090567100834649E+00
N   -1.5057065212148522E+00    4.5991846179168734E+00    7.8004992666281243E+00
Ga   -1.4885166998353239E+00    2.7409171733445437E+00    8.4366708147740841E+00
N   -1.4876520975530652E+00    2.7434407670220864E+00    1.0429558609227840E+01
Ga   -1.5118513562495466E+00    4.6029618634506138E+00    1.1063037734618479E+01
N   -1.5276442354617223E+00    4.6128286276021058E+00    1.3055606441533749E+01
Ga   -1.4853221959582614E+00    2.7443337888200316E+00    1.3615204192198441E+01
N   -1.5199433800154383E+00    2.7321339550204349E+00    1.5574717365043840E+01
Ga   -1.3177365092577489E+00    4.4936751603736331E+00    1.6486376855768757E+01
N    1.1135050248199413E-01    3.6559431309577386E+00    1.7628559929844211E+01
N   -3.0919836174629967E+00    7.5113691854360507E+00    2.5035121333937771E+00
Ga   -3.0855054832512332E+00    5.5281363297993558E+00    2.8604386960587798E+00
N   -3.0984210461828559E+00    5.5254018061826198E+00    5.0364632539032712E+00
Ga   -3.0985837995527499E+00    7.3428188690950824E+00    5.8040239542163086E+00
N   -3.1064634627295953E+00    7.3714797090453290E+00    7.7937034859853611E+00
Ga   -3.1065996057534258E+00    5.5225201335289382E+00    8.4373922977137266E+00
N   -3.1061513960217395E+00    5.5232501423704354E+00    1.0411786184993053E+01
Ga   -3.1052994504165641E+00    7.3633403052469255E+00    1.1062972406895415E+01
N   -3.1046771403297422E+00    7.3445572725996371E+00    1.3055145546397226E+01
Ga   -3.0954499853686208E+00    5.5286655742076105E+00    1.3855877475780453E+01
N   -3.0937667948122596E+00    5.5296739689810952E+00    1.6061764907333302E+01
Ga   -3.1026702855409258E+00    7.5869439274002932E+00    1.6488405002493344E+01
Ga   -3.0994596960283980E+00    9.3248533844388248E+00    1.3132460770822538E+00
N   -4.5901404888390935E+00    1.0110458735274969E+01    2.4955673718134488E+00
Ga   -4.6588715575275987E+00    8.3578034908883456E+00    3.3173100571232386E+00
N   -4.7279895754533694E+00    8.3004937225432407E+00    5.2397980203147156E+00
Ga   -4.7354823875000074E+00    1.0193333142468335E+01    5.8117520736598403E+00
N   -4.7209990675282389E+00    1.0166375255993330E+01    7.8028197891081819E+00
Ga   -4.7061900950915252E+00    8.3135594447886607E+00    8.4342475171080320E+00
N   -4.7042916381161533E+00    8.3128465144504755E+00    1.0425942313913961E+01
Ga   -4.7294360750186124E+00    1.0174205658216895E+01    1.1063815892852752E+01
N   -4.7453785655519738E+00    1.0183191182815422E+01    1.3058519304548099E+01
Ga   -4.7012260214663462E+00    8.3149569215665320E+00    1.3616348050161935E+01
N   -4.7295673925507158E+00    8.2911083728657324E+00    1.5575083428275400E+01
Ga   -4.5468542058331458E+00    1.0069666790519308E+01    1.6486954575469127E+01
N   -3.1130760141096050E+00    9.2419201716663490E+00    1.7631313967166179E+01
N    3.3196126423694565E+00    1.8101273427038718E+00    2.6466312955226088E+00
Ga    3.3326545483639642E+00    5.2335442176454749E-02    3.2809525986705443E+00
N    3.3299616071665961E+00   -5.1907450844233094E-02    5.2597323856438027E+00
Ga    3.3294060387496414E+00    1.8113293237360180E+00    5.8589612479097193E+00
N    3.3296297070449294E+00    1.8100462123159096E+00    7.8462170353248268E+00
Ga    3.3291518820384440E+00   -5.5772527334799295E-02    8.4339690719892264E+00
N    3.3268543594079705E+00   -5.9997018857541148E-02    1.0429506804796587E+01
Ga    3.3278973947665884E+00    1.8090147752586072E+00    1.1021226588773928E+01
N    3.3302408849452347E+00    1.8109139501270237E+00    1.2995250615555701E+01
Ga    3.3280495238119485E+00   -6.1384504528411848E-02    1.3614764032618670E+01
N    3.3340213899131084E+00   -2.4992253617808935E-02    1.5574067823428344E+01
Ga    3.3260620651466350E+00    1.8083188654202385E+00    1.5853979236492673E+01
N    1.5990807814692634E+00    4.5264853376502980E+00    2.5260715396302276E+00
Ga    1.7926859109043141E+00    2.6963781230796191E+00    3.2771770497292931E+00
N    1.7183271922981722E+00    2.7387467251403343E+00    5.2633916533333691E+00
Ga    1.7443225679909182E+00    4.5997631583522542E+00    5.8136535581887960E+00
N    1.7253890128306715E+00    4.6006310187252764E+00    7.8086416181877700E+00
Ga    1.7121031200572048E+00    2.7410470210178786E+00    8.4356133851081978E+00
N    1.7089813274754115E+00    2.7427905622881217E+00    1.0431257791023436E+01
Ga    1.7347378525186432E+00    4.6034802578487781E+00    1.1059611067845012E+01
N    1.7501783724817597E+00    4.6132485128132501E+00    1.3053673357074858E+01
Ga    1.7075380971739620E+00    2.7451145247875877E+00    1.3614592564572366E+01
N    1.7422188780885499E+00    2.7323500728088428E+00    1.5574370468522401E+01
Ga    1.5405265057999011E+00    4.4936955665937832E+00    1.6485938317936437E+01
N    1.0319460886507099E-01    7.3727766196431057E+00    2.6704195438461551E+00
Ga    1.1991701984488512E-01    5.5238419348052243E+00    3.3186074862719552E+00
N    1.0971839436835450E-01    5.5379888397110397E+00    5.2603672542607622E+00
Ga    1.2431867348462323E-01    7.3893620499262518E+00    5.8777247259454768E+00
N    1.1422690784128448E-01    7.3824559227516424E+00    7.8468171308102006E+00
Ga    1.1181045228690936E-01    5.5136421857234366E+00    8.4383982945434290E+00
N    1.1001544151235493E-01    5.5116843776495559E+00    1.0429413665268587E+01
Ga    1.1323187403269738E-01    7.3811659943505576E+00    1.1019490005670043E+01
N    1.1229649477276077E-01    7.3808062847144784E+00    1.2989316561392378E+01
Ga    1.1172237849412979E-01    5.5118906753606112E+00    1.3613241777265165E+01
N    1.1129979994948179E-01    5.5428022072934633E+00    1.5571548001341354E+01
Ga    1.1144186209360382E-01    7.3797339868937284E+00    1.5851406931839833E+01
N   -1.6192552417349477E+00    1.0095870847493401E+01    2.4995035252305002E+00
Ga   -1.4873030212403913E+00    8.3128460689798711E+00    3.3044399225345735E+00
N   -1.4846517441033993E+00    8.3028973235117220E+00    5.2490438260746242E+00
Ga   -1.4710127856745756E+00    1.0185408650639385E+01    5.8081860362065765E+00
N   -1.4871012939802206E+00    1.0167753809257537E+01    7.8031477941635137E+00
Ga   -1.5049472010867788E+00    8.3149743162914316E+00    8.4363451859815424E+00
N   -1.5078436855298123E+00    8.3131193771765819E+00    1.0427355028265739E+01
Ga   -1.4809664742982855E+00    1.0173855260665389E+01    1.1059589578056620E+01
N   -1.4652273769324808E+00    1.0182340742513166E+01    1.3053499413438450E+01
Ga   -1.5064329622897561E+00    8.3144299228268199E+00    1.3614055705046059E+01
N   -1.4793020124537632E+00    8.2980097267758062E+00    1.5571905891240696E+01
Ga   -1.6744713036816929E+00    1.0060081768889480E+01    1.6487563778668019E+01
N    6.5376323555857470E+00    1.9202132686054985E+00    2.5157468897974815E+00
Ga    6.5263931720441022E+00   -5.1764088184505154E-02    2.8654527384170971E+00
N    6.5315242551390220E+00   -4.5448096517034416E-02    5.0398607104349571E+00
Ga    6.5394091270477661E+00    1.7771870654492372E+00    5.7943010285310823E+00
N    6.5467898598608469E+00    1.8005545801274614E+00    7.7940763978702066E+00
Ga    6.5498236614801417E+00   -4.9333518528136014E-02    8.4296538786274482E+00
N    6.5464386331991742E+00   -4.7981669682247645E-02    1.0408741241228389E+01
Ga    6.5444818253164874E+00    1.7905300830856308E+00    1.1059073494284124E+01
N    6.5441416903847607E+00    1.7704782602382478E+00    1.3060299007180557E+01
Ga    6.5439935890743994E+00   -5.8644195520443053E-02    1.3853043938339294E+01
N    6.5437906249621234E+00   -6.0641806880063029E-02    1.6061051512380576E+01
Ga    6.5434911795839197E+00    1.9403960677680638E+00    1.6425876404284523E+01
Ga    6.4675054636435210E+00    3.5810686872436484E+00    1.2154309104132044E+00
N    5.0181116032209170E+00    4.5292210218645419E+00    2.4974656547746283E+00
Ga    4.8508354593491454E+00    2.6879227465231885E+00    3.2577246215092046E+00
N    4.9419999266077737E+00    2.7409699064605992E+00    5.2452318742636654E+00
Ga    4.9035106296476743E+00    4.6013769034029552E+00    5.8041075407883680E+00
N    4.9323658028642994E+00    4.6011896587711387E+00    7.7978705936766950E+00
Ga    4.9459964432842121E+00    2.7411061068835805E+00    8.4307428448913999E+00
N    4.9476827117550144E+00    2.7446733488859176E+00    1.0428905525119017E+01
Ga    4.9196675018399940E+00    4.6045939471239725E+00    1.1058758045204916E+01
N    4.9023836277257189E+00    4.6145549027336630E+00    1.3059807484027177E+01
Ga    4.9470981446663522E+00    2.7443813091876268E+00    1.3605082106035926E+01
N    4.9294474007627755E+00    2.7345598664233184E+00    1.5583884404183632E+01
Ga    5.0492664841056252E+00    4.5288984382704784E+00    1.6425991270162470E+01
N    6.5433939381805795E+00    3.6657961256732219E+00    1.7547578836416939E+01
N    3.3091720703266421E+00    7.4110888190274693E+00    2.4865834261643895E+00
N    3.3241539762493506E+00    5.5042716259338773E+00    5.0602264954727865E+00
Ga    3.3164823864690969E+00    7.3377565233110751E+00    5.7698595714338978E+00
N    3.3294408151677994E+00    7.3745884369002166E+00    7.7716541730496997E+00
Ga    3.3284668116227230E+00    5.5275861686322463E+00    8.4309220688296644E+00
N    3.3286650757274772E+00    5.5260645286993642E+00    1.0408921067981305E+01
Ga    3.3279889683553510E+00    7.3651256939170127E+00    1.1058911722174901E+01
N    3.3273124953436684E+00    7.3455261098787306E+00    1.3052194914198541E+01
Ga    3.3181136274778957E+00    5.5289679431698779E+00    1.3852426642134663E+01
N    3.3162613447167213E+00    5.5299432383069211E+00    1.6060936055445097E+01
Ga    3.3251660918870014E+00    7.5865238045316188E+00    1.6488267069655205E+01
Ga    3.0699104636478487E+00    9.3743615855867723E+00    6.9888209676751889E-01
N    1.7711258668925594E+00    1.0131465428868593E+01    2.4654411052586944E+00
Ga    1.7341429581983885E+00    8.3190708751741802E+00    3.2047376135277879E+00
N    1.7105942645506387E+00    8.3041457154019298E+00    5.1928697413422595E+00
Ga    1.6929871920787853E+00    1.0181268743372749E+01    5.7622063655076818E+00
N    1.7146139863766907E+00    1.0169063259904105E+01    7.7712322511021341E+00
Ga    1.7337504696079347E+00    8.3188236124386066E+00    8.4239255905139956E+00
N    1.7319347982387323E+00    8.3153372011249349E+00    1.0418902308891308E+01
Ga    1.7066470361993387E+00    1.0173037823817424E+01    1.1058979320755265E+01
N    1.6893746007529649E+00    1.0182099731547707E+01    1.3052509464451761E+01
Ga    1.7301390920629660E+00    8.3145122095750637E+00    1.3614323729719153E+01
N    1.7022501027051542E+00    8.2982238812652618E+00    1.5571845302366730E+01
Ga    1.8968404875125888E+00    1.0060058552880180E+01    1.6487920934496614E+01
N    3.3356027254124347E+00    9.2417666059450525E+00    1.7631692159290800E+01
N    9.7622226250666255E+00    1.8191607255249409E+00    2.6567783215580634E+00
Ga    9.7576755879980333E+00   -6.5018365514824289E-02    3.1975760861608475E+00
N    9.7591530592277245E+00   -3.7208730721155811E-02    5.1870321418320673E+00
Ga    9.7563737202008287E+00    1.7955779139715224E+00    5.8675963788273737E+00
N    9.7580497202673619E+00    1.8069705355891588E+00    7.8398612977928099E+00
Ga    9.7591275049276724E+00   -6.3179781381290198E-02    8.4219657049486258E+00
N    9.7611226322667068E+00   -6.0973101956039978E-02    1.0418952729259860E+01
Ga    9.7595721188493076E+00    1.8070475880747743E+00    1.1019163538488154E+01
N    9.7569247409787039E+00    1.8098004621253072E+00    1.2992855703554181E+01
Ga    9.7591594461791278E+00   -6.1406236494103421E-02    1.3615952469671090E+01
N    9.7530125015905575E+00   -2.4898434879317359E-02    1.5574639547830692E+01
Ga    9.7611843842272368E+00    1.8081657600544183E+00    1.5856080531441561E+01
N    8.0704410956078210E+00    4.5392356808179111E+00    2.5098520760102496E+00
Ga    8.1519811985697004E+00    2.7326814606090504E+00    3.2775129741994649E+00
N    8.1615304953930679E+00    2.7323840700944735E+00    5.2296572706830622E+00
Ga    8.1864627661907825E+00    4.6103734215323708E+00    5.7890817836324233E+00
N    8.1576137846341084E+00    4.6005305614489398E+00    7.7841031301305446E+00
Ga    8.1412899895744033E+00    2.7424840257596999E+00    8.4302824130053118E+00
N    8.1417138230381276E+00    2.7456762922463107E+00    1.0426229642257111E+01
Ga    8.1674805438007034E+00    4.6038995051213369E+00    1.1062853116376241E+01
N    8.1847157172082117E+00    4.6140263443613865E+00    1.3062123826929271E+01
Ga    8.1407083315739026E+00    2.7435226933147070E+00    1.3606174145947049E+01
N    8.1581772711745035E+00    2.7342308301281459E+00    1.5584577560641167E+01
Ga    8.0375275754970570E+00    4.5288405451705662E+00    1.6426552826179858E+01
N    6.7108720128116932E+00    7.2918536427376424E+00    2.4578635229364361E+00
Ga    6.5258640132246759E+00    5.4464502301670370E+00    3.2849952278490862E+00
N    6.5423891144133375E+00    5.5397097114350986E+00    5.2180764988434634E+00
Ga    6.5319638591526621E+00    7.3830901324517217E+00    5.8580469775092698E+00
N    6.5394936650158444E+00    7.3809864279981712E+00    7.8269176581498892E+00
Ga    6.5436488142297113E+00    5.5136490909946225E+00    8.4319106050247736E+00
N    6.5452223273394337E+00    5.5123394335185329E+00    1.0425791388071481E+01
Ga    6.5417502235369023E+00    7.3812307523154423E+00    1.1020888017586762E+01
N    6.5425359033521930E+00    7.3777621306463788E+00    1.2993278764635269E+01
Ga    6.5430419000317244E+00    5.5109762988169209E+00    1.3606504510970938E+01
N    6.5434651353060085E+00    5.5306107478683595E+00    1.5584550653109469E+01
Ga    6.5433666601243941E+00    7.3818104996891494E+00    1.5856478398215124E+01
N    4.9044036314297914E+00    1.0165097254104314E+01    2.4837133892331447E+00
Ga    4.7062245228250861E+00    8.4413766333334621E+00    3.2453000760314032E+00
N    4.9464455640993137E+00    8.3027756391090275E+00    5.1770494330616268E+00
Ga    4.9698158201443938E+00    1.0198709887438643E+01    5.7643066861018850E+00
N    4.9421536912877793E+00    1.0167820085760273E+01    7.7681114078209701E+00
Ga    4.9222938901918738E+00    8.3174762905705446E+00    8.4224503235925834E+00
N    4.9255762380198673E+00    8.3154849573418268E+00    1.0417656569306347E+01
Ga    4.9502487236905823E+00    1.0173557500769267E+01    1.1063796037179625E+01
N    4.9668636098399572E+00    1.0182960802633048E+01    1.3057901123931600E+01
Ga    4.9227974517988642E+00    8.3149830713342663E+00    1.3616726827077272E+01
N    4.9517033630186527E+00    8.2912411772420871E+00    1.5575145329278573E+01
Ga    4.7695635836206058E+00    1.0069624656446884E+01    1.6487315344431167E+01
O    1.1076769623513094E-01    3.7560098539489579E+00   -4.7576183513921105E-01
H   -2.7570249838468448E+00    8.6002553613661181E+00   -8.9324971752881155E-01
C    1.3120611937698796E+00    3.3267987448177112E+00   -1.1436672024289396E+00
H    2.2019518122799702E+00    3.8790403824532098E+00   -7.9834759581279147E-01
H    1.5017702039037299E+00    2.2496637638242691E+00   -1.0089356040777904E+00
H    1.1764365131603425E+00    3.5249419572962113E+00   -2.2167749607350062E+00
Ga    3.3006202555411432E+00    5.4979034389130819E+00    2.8937972567173800E+00
O   -3.3671648992106404E+00    9.2337915011736467E+00   -4.8111078761096754E-01
H    6.8444434272129359E-02    7.3355610029998726E+00    1.6446603153290902E+00
C    6.4700163295456115E+00    7.4521243467932905E+00    1.1990475097492315E+00
H    6.8376588532285005E+00    8.3315513986589167E+00    6.5049023395875738E-01
H    9.7813562741198687E+00    1.8638506541296749E+00    1.6307701639807670E+00
H    5.8669121215692579E+00    6.7198448546532870E+00    6.4267962029569858E-01
     &END COORD
     &KIND C
       BASIS_SET DZVP-MOLOPT-SR-GTH-q4
       POTENTIAL GTH-PBE-q4
       &POTENTIAL
 2 2
  0.3384712400000000E+00 2 -0.8803673979999999E+01  0.1339210850000000E+01
 2
  0.3025757500000000E+00 1  0.9622486650000001E+01
  0.2915069400000000E+00 0
         # Potential name:  GTH-PBE-Q4  for symbol:  C
         # Potential read from the potential filename: GTH_POTENTIALS
       &END POTENTIAL
     &END KIND
     &KIND O
       BASIS_SET DZVP-MOLOPT-SR-GTH-q6
       POTENTIAL GTH-PBE-q6
       &POTENTIAL
 2 4
  0.2445543000000000E+00 2 -0.1666721480000000E+02  0.2487311320000000E+01
 2
  0.2209559200000000E+00 1  0.1833745811000000E+02
  0.2113324700000000E+00 0
         # Potential name:  GTH-PBE-Q6  for symbol:  O
         # Potential read from the potential filename: GTH_POTENTIALS
       &END POTENTIAL
     &END KIND
     &KIND H
       BASIS_SET DZVP-MOLOPT-SR-GTH-q1
       POTENTIAL GTH-PBE-q1
       &POTENTIAL
 1
  0.2000000000000000E+00 2 -0.4178900440000000E+01  0.7244633100000000E+00
 0
         # Potential name:  GTH-PBE-Q1  for symbol:  H
         # Potential read from the potential filename: GTH_POTENTIALS
       &END POTENTIAL
     &END KIND
     &KIND N
       BASIS_SET DZVP-MOLOPT-SR-GTH
       POTENTIAL GTH-PBE-q5
       &POTENTIAL
 2 3
  0.2837905100000000E+00 2 -0.1241522559000000E+02  0.1868095920000000E+01
 2
  0.2554050000000000E+00 1  0.1363026257000000E+02
  0.2454945300000000E+00 0
         # Potential name:  GTH-PBE-Q5  for symbol:  N
         # Potential read from the potential filename: GTH_POTENTIALS
       &END POTENTIAL
     &END KIND
     &KIND Ga
       BASIS_SET DZVP-MOLOPT-SR-GTH
       POTENTIAL GTH-PBE-q13
       &POTENTIAL
 2 1 10
  0.4900000000000000E+00 0
 3
  0.4167772300000000E+00 3  0.1047568975000000E+02 -0.4921768140000000E+01  0.8707055900000000E+00
  0.7770178090000000E+01 -0.2248152160000000E+01
  0.1784415450000000E+01
  0.5696265200000000E+00 2  0.1777985340000000E+01  0.1958597600000000E+00
 -0.2317443900000000E+00
  0.2381265000000000E+00 1 -0.1624868022000000E+02
         # Potential name:  GTH-PBE-Q13  for symbol:  GA
         # Potential read from the potential filename: GTH_POTENTIALS
       &END POTENTIAL
     &END KIND
     &TOPOLOGY
       NUMBER_OF_ATOMS  212
       MULTIPLE_UNIT_CELL  1 1 1
     &END TOPOLOGY
   &END SUBSYS
 &END FORCE_EVAL
