 # Version information for this restart file 
 # current date 2019-07-03 06:51:51.175
 # current working dir /lustre04/scratch/rzk/rzk/GaN-carbene/443-adatoms-both-2x2/08-CH3O-H2O-H2C-H/03-Use-0401
 # Program compiled at                              Sun Apr  7 00:48:11 EDT 2019
 # Program compiled on                          beluga2.int.ets1.calculquebec.ca
 # Program compiled for                        Beluga-Linux-x86-64-intel-openmpi
 # Source code revision number                                         svn:18619
 &GLOBAL
   PRINT_LEVEL  MEDIUM
   PROJECT_NAME TEST
   RUN_TYPE  GEO_OPT
 &END GLOBAL
 &MOTION
   &GEO_OPT
     MAX_ITER  500
     STEP_START_VAL  1
   &END GEO_OPT
 &END MOTION
 &FORCE_EVAL
   METHOD  QS
   STRESS_TENSOR  ANALYTICAL
   &DFT
     BASIS_SET_FILE_NAME BASIS_MOLOPT
     POTENTIAL_FILE_NAME GTH_POTENTIALS
     UKS  T
     SURFACE_DIPOLE_CORRECTION  T
     SURF_DIP_DIR  Z
     &SCF
       MAX_SCF  80
       EPS_SCF     5.0000000000000004E-06
       &OT  T
         PRECONDITIONER  FULL_ALL
       &END OT
       &OUTER_SCF  T
         OPTIMIZER  NONE
         EPS_SCF     5.0000000000000004E-06
         MAX_SCF  4
       &END OUTER_SCF
       &PRINT
         &RESTART  OFF
           BACKUP_COPIES  1
           &EACH
             JUST_ENERGY  0
             QS_SCF  0
             MD  20
           &END EACH
         &END RESTART
       &END PRINT
     &END SCF
     &QS
       EPS_DEFAULT     1.0000000000000000E-14
       METHOD  GPW
     &END QS
     &MGRID
       NGRIDS  5
       CUTOFF     1.2000000000000000E+03
     &END MGRID
     &XC
       DENSITY_CUTOFF     1.0000000000000000E-10
       GRADIENT_CUTOFF     1.0000000000000000E-10
       TAU_CUTOFF     1.0000000000000000E-10
       &XC_FUNCTIONAL  NO_SHORTCUT
         &PBE  T
         &END PBE
       &END XC_FUNCTIONAL
       &VDW_POTENTIAL
         POTENTIAL_TYPE  PAIR_POTENTIAL
         &PAIR_POTENTIAL
           R_CUTOFF     1.0000000000000004E+01
           TYPE  DFTD3
           PARAMETER_FILE_NAME dftd3.dat
           REFERENCE_FUNCTIONAL PBE
           EPS_CN     9.9999999999999995E-07
           CALCULATE_C9_TERM  T
           REFERENCE_C9_TERM  T
           LONG_RANGE_CORRECTION  F
           VERBOSE_OUTPUT  F
         &END PAIR_POTENTIAL
       &END VDW_POTENTIAL
     &END XC
   &END DFT
   &SUBSYS
     &CELL
       A     1.2864472766435110E+01    0.0000000000000000E+00    0.0000000000000000E+00
       B    -6.4322363581020028E+00    1.1140960178524473E+01    0.0000000000000000E+00
       C     0.0000000000000000E+00    0.0000000000000000E+00    3.2000000000000000E+01
       MULTIPLE_UNIT_CELL  1 1 1
       &CELL_REF
         A     1.2982353780853531E+01    0.0000000000000000E+00    0.0000000000000000E+00
         B    -6.4911768904267628E+00    1.1243048175136114E+01    0.0000000000000000E+00
         C     0.0000000000000000E+00    0.0000000000000000E+00    3.2000000000000000E+01
         MULTIPLE_UNIT_CELL  1 1 1
       &END CELL_REF
     &END CELL
     &COORD
N    7.1131309409639493E-02    1.9736058268214804E+00    2.4686082649751198E+00
Ga    7.9464862689111418E-02    4.6650956585051143E-03    2.8390446087247145E+00
N    8.0862452464418352E-02   -2.5904120468376635E-02    5.0175752406834482E+00
Ga    8.2421776983590406E-02    1.7961079934458259E+00    5.8008741743020220E+00
N    7.6366474538513349E-02    1.8157358482847081E+00    7.7970438641661861E+00
Ga    7.6493027814405881E-02   -3.0895944510978691E-02    8.4422676657436710E+00
N    7.8317075278027143E-02   -3.1033965316405725E-02    1.0415574956278203E+01
Ga    7.8645482205720207E-02    1.8082291352561048E+00    1.1073619580200795E+01
N    7.9457576276242628E-02    1.7899592351036051E+00    1.3065476372634432E+01
Ga    7.9321949075460252E-02   -2.9909192837724339E-02    1.3880702126006558E+01
N    7.9578101818476812E-02   -2.9978975962482779E-02    1.6070128731401851E+01
Ga    7.9591226777893043E-02    2.0144188322832339E+00    1.6494066931692906E+01
Ga    6.6130689166459658E-02    3.7124751891505472E+00    1.3533093965966752E+00
N   -1.4181527762188586E+00    4.5386786326188204E+00    2.5243435518023820E+00
Ga   -1.5534993231911802E+00    2.7275675020819241E+00    3.2999985214134235E+00
N   -1.5475338245139505E+00    2.7420838569548804E+00    5.2560824490083657E+00
Ga   -1.5588133128335599E+00    4.6211934660155931E+00    5.8088847494917557E+00
N   -1.5400659026821051E+00    4.6136691868556259E+00    7.7999596466352328E+00
Ga   -1.5172907728350562E+00    2.7577170062238685E+00    8.4440155947296773E+00
N   -1.5184651812319849E+00    2.7601442342150477E+00    1.0431779103257547E+01
Ga   -1.5434989085519919E+00    4.6182720646418289E+00    1.1071884062297077E+01
N   -1.5593584567780439E+00    4.6301240600445039E+00    1.3061247264864752E+01
Ga   -1.5179159954346131E+00    2.7618402735947427E+00    1.3624797527411248E+01
N   -1.5477691340296409E+00    2.7492738922452435E+00    1.5582584425518212E+01
Ga   -1.3543270496568092E+00    4.5124745524590955E+00    1.6494891007367187E+01
N    7.9443632425318836E-02    3.6735590775896023E+00    1.7634545448233339E+01
N   -3.1391451086101854E+00    7.5239565910741186E+00    2.5297790408206815E+00
Ga   -3.1036393465935488E+00    5.5326346721367488E+00    2.8534511525297610E+00
N   -3.1378748738490012E+00    5.5384307062864284E+00    5.0216685475940270E+00
Ga   -3.1440948087737444E+00    7.3614910497587758E+00    5.8057473327205580E+00
N   -3.1393090101783137E+00    7.3867011581385080E+00    7.7951008736909557E+00
Ga   -3.1378155593132426E+00    5.5388088521643457E+00    8.4483617994490654E+00
N   -3.1376816558737066E+00    5.5400514962648302E+00    1.0418754614733272E+01
Ga   -3.1383521649142541E+00    7.3806011155346676E+00    1.1072947065916914E+01
N   -3.1364007568214167E+00    7.3616173597224774E+00    1.3061886416388591E+01
Ga   -3.1282627005351129E+00    5.5449168448108894E+00    1.3865845607714514E+01
N   -3.1348394027978999E+00    5.5413968746067246E+00    1.6066462955541105E+01
Ga   -3.1355456518948976E+00    7.5978158452498743E+00    1.6495728013144532E+01
Ga   -3.1364256672759558E+00    9.2483281640637394E+00    1.4610459453451070E+00
N   -4.6371042159334337E+00    1.0114353801966645E+01    2.4995719006848551E+00
Ga   -4.8200239567888774E+00    8.2930130457996825E+00    3.2943370671150336E+00
N   -4.7621981863945511E+00    8.3168297676958325E+00    5.2429081360030398E+00
Ga   -4.7763773798671219E+00    1.0201325827548299E+01    5.7982976943675757E+00
N   -4.7556097910215671E+00    1.0185504040432432E+01    7.7924304953678014E+00
Ga   -4.7359041459350859E+00    8.3340883622974538E+00    8.4432295977998137E+00
N   -4.7346650930939260E+00    8.3321612156758498E+00    1.0430846427187332E+01
Ga   -4.7612076942052859E+00    1.0191553806681444E+01    1.1074331236882781E+01
N   -4.7763587544229678E+00    1.0200774244587512E+01    1.3065949863481404E+01
Ga   -4.7334691557348743E+00    8.3315963682951253E+00    1.3626025397683037E+01
N   -4.7594049094457871E+00    8.3120264748858670E+00    1.5583597090024277E+01
Ga   -4.5818912375635392E+00    1.0088770620983892E+01    1.6494964598381564E+01
N   -3.1451278321241047E+00    9.2589691947478698E+00    1.7635645490457364E+01
N    3.2858962339259929E+00    1.8303251703696017E+00    2.6213398847892004E+00
Ga    3.2857786708771282E+00    8.6824139171946577E-02    3.2883407244594687E+00
N    3.2951142888323686E+00   -3.4325484648864632E-02    5.2514011841102120E+00
Ga    3.2871515820799271E+00    1.8283107843717616E+00    5.8750593446258934E+00
N    3.2954900912398255E+00    1.8253085794838098E+00    7.8501675056140865E+00
Ga    3.2924787193117444E+00   -4.1536117484028558E-02    8.4406664515621301E+00
N    3.2943926159047678E+00   -4.2989576522726225E-02    1.0431070618494632E+01
Ga    3.2953966382389690E+00    1.8266477064299786E+00    1.1028778295238842E+01
N    3.2967740791418878E+00    1.8272583048623217E+00    1.2998304439594083E+01
Ga    3.2964553575668591E+00   -4.2926633790784187E-02    1.3626274691827932E+01
N    3.3003858257715613E+00   -9.7671171600606267E-03    1.5583991138382052E+01
Ga    3.2922343691352767E+00    1.8251052373679211E+00    1.5865849317519471E+01
N    1.5667431885491183E+00    4.5432212881893141E+00    2.5300087756570715E+00
Ga    1.7543505880330770E+00    2.7164425431959596E+00    3.2659419054613914E+00
N    1.6852010488005882E+00    2.7531748488329901E+00    5.2497910774339607E+00
Ga    1.7212567994188246E+00    4.6196421303029931E+00    5.8089036153247910E+00
N    1.6968006814886945E+00    4.6159410632300935E+00    7.8034605940218862E+00
Ga    1.6760239212337791E+00    2.7573828680442065E+00    8.4410115116474582E+00
N    1.6761314339185793E+00    2.7598228445940558E+00    1.0432271758352776E+01
Ga    1.7023880524704689E+00    4.6192413666789198E+00    1.1071242534997872E+01
N    1.7188075054255796E+00    4.6305223197418837E+00    1.3061457310448468E+01
Ga    1.6766137596083610E+00    2.7623544941267779E+00    1.3625394679746345E+01
N    1.7073361816481338E+00    2.7492366856548176E+00    1.5583179922530093E+01
Ga    1.5140526736219251E+00    4.5124288785926145E+00    1.6495290355703069E+01
N    8.3275702696231274E-02    7.3836382053088405E+00    2.6841494032592461E+00
Ga    8.7173166505161048E-02    5.5474771677719303E+00    3.3274462938288538E+00
N    7.8569869777575921E-02    5.5490169210168405E+00    5.2684769935487186E+00
Ga    8.7111846070122192E-02    7.3940508309322128E+00    5.9034322330853026E+00
N    8.0002933663314693E-02    7.3979132439755224E+00    7.8623766338855798E+00
Ga    7.9084635541605053E-02    5.5244961415942351E+00    8.4455396372767133E+00
N    7.8501418001520232E-02    5.5270912214435439E+00    1.0433171066709379E+01
Ga    8.0214736790926958E-02    7.3972294883359746E+00    1.1030008791667420E+01
N    7.9806556173925097E-02    7.3975244248545931E+00    1.2998101407356195E+01
Ga    7.9723471569735332E-02    5.5275626444470554E+00    1.3624867328126520E+01
N    7.9933935736543185E-02    5.5591635160262003E+00    1.5582312943930441E+01
Ga    8.0286984725924451E-02    7.3976287036440711E+00    1.5860698832257658E+01
N   -1.6448304303519430E+00    1.0106106170517215E+01    2.5257519920760760E+00
Ga   -1.4844582879684753E+00    8.2942120814873199E+00    3.3309354467461540E+00
N   -1.5194543668944640E+00    8.3184846462857180E+00    5.2616500919944436E+00
Ga   -1.5022672618363082E+00    1.0204245555520711E+01    5.8112267051176456E+00
N   -1.5199970400415725E+00    1.0186662083820874E+01    7.8005180236404339E+00
Ga   -1.5412551604929623E+00    8.3322057722528768E+00    8.4470304169842194E+00
N   -1.5407080679141039E+00    8.3316664947595864E+00    1.0433088201566887E+01
Ga   -1.5145171287312851E+00    1.0191837845785752E+01    1.1071935481140864E+01
N   -1.4970062569535059E+00    1.0200285440558472E+01    1.3061623319080271E+01
Ga   -1.5394573052606291E+00    8.3322495806571766E+00    1.3625470695944875E+01
N   -1.5121296683756809E+00    8.3166928297890319E+00    1.5582834420526240E+01
Ga   -1.7016213065550689E+00    1.0081903488367947E+01    1.6496079144562593E+01
N    6.5183586586951430E+00    1.9468684642786038E+00    2.5179663259473846E+00
Ga    6.5123526227602948E+00   -4.3345438239977857E-02    2.8668814388294050E+00
N    6.5096741382430521E+00   -2.9364391355952413E-02    5.0272894908850452E+00
Ga    6.5089833579953993E+00    1.7944738711456334E+00    5.8065558202934726E+00
N    6.5143372906893688E+00    1.8174604112774011E+00    7.7988711495797567E+00
Ga    6.5143935175491885E+00   -3.0802931962087925E-02    8.4452992585107562E+00
N    6.5126831096447537E+00   -3.0130412853083672E-02    1.0417127551785562E+01
Ga    6.5128623057426855E+00    1.8092385425964297E+00    1.1070413717342975E+01
N    6.5122901688645216E+00    1.7875540279591142E+00    1.3065604163539843E+01
Ga    6.5125884188042056E+00   -3.9365501071418951E-02    1.3866155303516871E+01
N    6.5120467294060571E+00   -3.1511925651979147E-02    1.6066916266992333E+01
Ga    6.5122195394678419E+00    1.9801991958944571E+00    1.6447712921069929E+01
Ga    6.5016046271401731E+00    3.6906667216128044E+00    1.4844155128556620E+00
N    5.0077771910019697E+00    4.5600678104814678E+00    2.5258320390734816E+00
Ga    4.7969872509768816E+00    2.7023824596333283E+00    3.2936171091305679E+00
N    4.9039115908462181E+00    2.7552142065460186E+00    5.2569259761355722E+00
Ga    4.8738494568604844E+00    4.6288521788182537E+00    5.8040520756617644E+00
N    4.8983129664366016E+00    4.6176169055873846E+00    7.7986509430344535E+00
Ga    4.9125739671933939E+00    2.7593206178151197E+00    8.4410499097570106E+00
N    4.9156142667501523E+00    2.7616269821258665E+00    1.0433138943610363E+01
Ga    4.8890763486516624E+00    4.6213006630067852E+00    1.1070827994982309E+01
N    4.8701625244295608E+00    4.6320956621784211E+00    1.3066128680981645E+01
Ga    4.9141873236314764E+00    2.7611489283620223E+00    1.3613439794045906E+01
N    4.8898079882907908E+00    2.7471941524038432E+00    1.5582703440100651E+01
Ga    5.0366670144058832E+00    4.5357898209710923E+00    1.6447693472922555E+01
N    6.5119035630399615E+00    3.6837496857950804E+00    1.7577241798573009E+01
N    3.2950556436940155E+00    7.5030806911104895E+00    2.5076824931066914E+00
N    3.2970276427869853E+00    5.5375509960158906E+00    5.0280286341152953E+00
Ga    3.2985548193393868E+00    7.3620236886066390E+00    5.7923000093993684E+00
N    3.2969389822308548E+00    7.3904202254162099E+00    7.7889341224311339E+00
Ga    3.2964561867044457E+00    5.5422235824733832E+00    8.4453888925923248E+00
N    3.2965298448418410E+00    5.5414492102319093E+00    1.0418317668500613E+01
Ga    3.2979133680457617E+00    7.3816650280481753E+00    1.1071730415754931E+01
N    3.2959672777779794E+00    7.3620359743121648E+00    1.3061258008337434E+01
Ga    3.2877723697121359E+00    5.5456560960124053E+00    1.3865968752142429E+01
N    3.2944337886004256E+00    5.5414419905354642E+00    1.6066845864008851E+01
Ga    3.2953607131965166E+00    7.5982926263267005E+00    1.6496638429973054E+01
Ga    3.3356489634352848E+00    9.2395987420866152E+00    1.2698100851924923E+00
N    1.7890808880115481E+00    1.0126282343889159E+01    2.4885729448359930E+00
Ga    1.6803026783773110E+00    8.3124808589337125E+00    3.2829341055874166E+00
N    1.6772186392196571E+00    8.3201876708563969E+00    5.2366632949085856E+00
Ga    1.6598543820418197E+00    1.0198445888991550E+01    5.7978491372670247E+00
N    1.6814231301019660E+00    1.0186914231347021E+01    7.7910900284951028E+00
Ga    1.7013128753448419E+00    8.3337601124955007E+00    8.4446860296164434E+00
N    1.6999229322115565E+00    8.3328890801154269E+00    1.0431849130214342E+01
Ga    1.6753199045285216E+00    1.0192422442547381E+01    1.1071214213691061E+01
N    1.6571492294028103E+00    1.0200361462060076E+01    1.3060743782409121E+01
Ga    1.6991533507699530E+00    8.3323741259153419E+00    1.3625173987120762E+01
N    1.6723302360887344E+00    8.3168761868049668E+00    1.5582458013358295E+01
Ga    1.8617044572516779E+00    1.0081674860989596E+01    1.6496554852703444E+01
N    3.3043941369459882E+00    9.2592139649877030E+00    1.7636967481274350E+01
N    9.7379659537031422E+00    1.8104095099394961E+00    2.6645382498167529E+00
Ga    9.7317437261345177E+00   -9.0812745151972879E-03    3.2870846297234677E+00
N    9.7247130643425539E+00   -1.4673636782879201E-02    5.2462007665653418E+00
Ga    9.7331631291349741E+00    1.8188997607750621E+00    5.9131826265097676E+00
N    9.7271462567322899E+00    1.8247555815158130E+00    7.8689007624632872E+00
Ga    9.7304171418669192E+00   -4.5167980585292783E-02    8.4387721795145154E+00
N    9.7289829071178744E+00   -4.2459000167039768E-02    1.0427778484878488E+01
Ga    9.7285803243999407E+00    1.8256746695062236E+00    1.1026751149006197E+01
N    9.7270793991327604E+00    1.8269152743910866E+00    1.2995807156895687E+01
Ga    9.7277575181901863E+00   -4.2588767120783168E-02    1.3625858931843171E+01
N    9.7237694558367718E+00   -9.8262380992027547E-03    1.5583413377202687E+01
Ga    9.7320975513564267E+00    1.8248741647497404E+00    1.5865812471874181E+01
N    8.0250596317083502E+00    4.5508360891469559E+00    2.5208706087375266E+00
Ga    8.1818909868916769E+00    2.7172556567748432E+00    3.3130368029712520E+00
N    8.1380532205679099E+00    2.7435747166085154E+00    5.2573599008155778E+00
Ga    8.1448164009451531E+00    4.6286605668767633E+00    5.8008276690338842E+00
N    8.1269612910477189E+00    4.6153728661810378E+00    7.7933981810979978E+00
Ga    8.1100292628427653E+00    2.7601674737009811E+00    8.4439056582598155E+00
N    8.1096169559773355E+00    2.7617686367885113E+00    1.0432649158018164E+01
Ga    8.1345305373595203E+00    4.6200212704901515E+00    1.1071609450860558E+01
N    8.1537959748104605E+00    4.6316728507706131E+00    1.3065921977187893E+01
Ga    8.1104430292031253E+00    2.7608515171497783E+00    1.3613090450738239E+01
N    8.1345391700837215E+00    2.7471160564633155E+00    1.5582309298866120E+01
Ga    7.9872337066666832E+00    4.5354797669569082E+00    1.6447537001261125E+01
N    6.5041899797364993E+00    7.4169802350108354E+00    2.5909992963401711E+00
Ga    6.5081863307190062E+00    5.6328110152215292E+00    3.2914699222824866E+00
N    6.5114632116332167E+00    5.5604122630104209E+00    5.2422215304855300E+00
Ga    6.5042977110031810E+00    7.4018435203125463E+00    5.9058328517162773E+00
N    6.5108261145816879E+00    7.3976893274740254E+00    7.8632909504222539E+00
Ga    6.5122374006848265E+00    5.5284197699007738E+00    8.4442823317403874E+00
N    6.5127735935310360E+00    5.5283404687566806E+00    1.0433252261841513E+01
Ga    6.5112413885542209E+00    7.3984652407844536E+00    1.1027618305088797E+01
N    6.5116148581336990E+00    7.3967028379680997E+00    1.2996623646163794E+01
Ga    6.5121144704232625E+00    5.5294539093526334E+00    1.3613621447266180E+01
N    6.5121028330423174E+00    5.5575476930606396E+00    1.5582741429228017E+01
Ga    6.5119984221338063E+00    7.4021322905289528E+00    1.5866421883793400E+01
N    4.8146207867898054E+00    1.0141283248328449E+01    2.4903304250601028E+00
Ga    4.9365246388351878E+00    8.3086485174240554E+00    3.2630437693453094E+00
N    4.9174724913082137E+00    8.3177687037653794E+00    5.2308913021815631E+00
Ga    4.9331039019532597E+00    1.0198954828472301E+01    5.7826364652390039E+00
N    4.9108878895914776E+00    1.0186800864271493E+01    7.7817041230792308E+00
Ga    4.8921352987543898E+00    8.3361253074147310E+00    8.4392583656719609E+00
N    4.8938060166551098E+00    8.3331334777554602E+00    1.0428482595029143E+01
Ga    4.9182312030619704E+00    1.0191441764618665E+01    1.1073296515377027E+01
N    4.9353220412245911E+00    1.0200782210854703E+01    1.3064837974258250E+01
Ga    4.8925441738444064E+00    8.3320868477964432E+00    1.3626254734113427E+01
N    4.9190803467925308E+00    8.3121701288584706E+00    1.5583640000321374E+01
Ga    4.7406816315803164E+00    1.0088521701446968E+01    1.6495664245268376E+01
O   -2.0201317924379331E-03    4.0453782724569338E+00   -4.4499039453920958E-01
H   -1.9004358759149317E-01    5.9105606188582014E+00   -3.4797809319980672E-01
C    1.1333247130874540E+00    3.6266597026416587E+00   -1.2247651049056412E+00
H    2.0952949944063377E+00    3.9440862484641008E+00   -7.8925144362214150E-01
H    1.1226245634497101E+00    2.5320219530132704E+00   -1.3300067420993666E+00
H    1.0263291777326304E+00    4.0865244294830303E+00   -2.2178928756331140E+00
Ga    3.2533161943615765E+00    5.5316639370809781E+00    2.8530400241267420E+00
O   -1.8528057030106709E-01    6.8838238507288354E+00   -1.4109363414555343E-01
H    2.7234054089822921E-02    7.2973713162493272E+00    1.6364485878220310E+00
C    6.3636490293543932E+00    7.3647664967149886E+00    1.0298408220475088E+00
H    6.4072483946550065E+00    8.3368731380439929E+00    4.9985052067406566E-01
H    9.7444356243350470E+00    1.7908910488924776E+00    1.6438936058429552E+00
H    5.5538132277267280E+00    6.6944768897671123E+00    7.1814581281078105E-01
     &END COORD
     &KIND C
       BASIS_SET DZVP-MOLOPT-SR-GTH-q4
       POTENTIAL GTH-PBE-q4
       &POTENTIAL
 2 2
  0.3384712400000000E+00 2 -0.8803673979999999E+01  0.1339210850000000E+01
 2
  0.3025757500000000E+00 1  0.9622486650000001E+01
  0.2915069400000000E+00 0
         # Potential name:  GTH-PBE-Q4  for symbol:  C
         # Potential read from the potential filename: GTH_POTENTIALS
       &END POTENTIAL
     &END KIND
     &KIND O
       BASIS_SET DZVP-MOLOPT-SR-GTH-q6
       POTENTIAL GTH-PBE-q6
       &POTENTIAL
 2 4
  0.2445543000000000E+00 2 -0.1666721480000000E+02  0.2487311320000000E+01
 2
  0.2209559200000000E+00 1  0.1833745811000000E+02
  0.2113324700000000E+00 0
         # Potential name:  GTH-PBE-Q6  for symbol:  O
         # Potential read from the potential filename: GTH_POTENTIALS
       &END POTENTIAL
     &END KIND
     &KIND H
       BASIS_SET DZVP-MOLOPT-SR-GTH-q1
       POTENTIAL GTH-PBE-q1
       &POTENTIAL
 1
  0.2000000000000000E+00 2 -0.4178900440000000E+01  0.7244633100000000E+00
 0
         # Potential name:  GTH-PBE-Q1  for symbol:  H
         # Potential read from the potential filename: GTH_POTENTIALS
       &END POTENTIAL
     &END KIND
     &KIND N
       BASIS_SET DZVP-MOLOPT-SR-GTH
       POTENTIAL GTH-PBE-q5
       &POTENTIAL
 2 3
  0.2837905100000000E+00 2 -0.1241522559000000E+02  0.1868095920000000E+01
 2
  0.2554050000000000E+00 1  0.1363026257000000E+02
  0.2454945300000000E+00 0
         # Potential name:  GTH-PBE-Q5  for symbol:  N
         # Potential read from the potential filename: GTH_POTENTIALS
       &END POTENTIAL
     &END KIND
     &KIND Ga
       BASIS_SET DZVP-MOLOPT-SR-GTH
       POTENTIAL GTH-PBE-q13
       &POTENTIAL
 2 1 10
  0.4900000000000000E+00 0
 3
  0.4167772300000000E+00 3  0.1047568975000000E+02 -0.4921768140000000E+01  0.8707055900000000E+00
  0.7770178090000000E+01 -0.2248152160000000E+01
  0.1784415450000000E+01
  0.5696265200000000E+00 2  0.1777985340000000E+01  0.1958597600000000E+00
 -0.2317443900000000E+00
  0.2381265000000000E+00 1 -0.1624868022000000E+02
         # Potential name:  GTH-PBE-Q13  for symbol:  GA
         # Potential read from the potential filename: GTH_POTENTIALS
       &END POTENTIAL
     &END KIND
     &TOPOLOGY
       NUMBER_OF_ATOMS  212
       MULTIPLE_UNIT_CELL  1 1 1
     &END TOPOLOGY
   &END SUBSYS
 &END FORCE_EVAL
