 # Version information for this restart file 
 # current date 2019-07-03 12:55:46.925
 # current working dir /lustre04/scratch/rzk/rzk/GaN-carbene/443-adatoms-both-2x2/08-CH3O-H2O-H2C-H/03-Use-0401
 # Program compiled at                              Sun Apr  7 00:48:11 EDT 2019
 # Program compiled on                          beluga2.int.ets1.calculquebec.ca
 # Program compiled for                        Beluga-Linux-x86-64-intel-openmpi
 # Source code revision number                                         svn:18619
 &GLOBAL
   PRINT_LEVEL  MEDIUM
   PROJECT_NAME TEST
   RUN_TYPE  GEO_OPT
 &END GLOBAL
 &MOTION
   &GEO_OPT
     MAX_ITER  500
     STEP_START_VAL  102
   &END GEO_OPT
 &END MOTION
 &FORCE_EVAL
   METHOD  QS
   STRESS_TENSOR  ANALYTICAL
   &DFT
     BASIS_SET_FILE_NAME BASIS_MOLOPT
     POTENTIAL_FILE_NAME GTH_POTENTIALS
     UKS  T
     SURFACE_DIPOLE_CORRECTION  T
     SURF_DIP_DIR  Z
     &SCF
       MAX_SCF  80
       EPS_SCF     5.0000000000000004E-06
       &OT  T
         PRECONDITIONER  FULL_ALL
       &END OT
       &OUTER_SCF  T
         OPTIMIZER  NONE
         EPS_SCF     5.0000000000000004E-06
         MAX_SCF  4
       &END OUTER_SCF
       &PRINT
         &RESTART  OFF
           BACKUP_COPIES  1
           &EACH
             JUST_ENERGY  0
             QS_SCF  0
             MD  20
           &END EACH
         &END RESTART
       &END PRINT
     &END SCF
     &QS
       EPS_DEFAULT     1.0000000000000000E-14
       METHOD  GPW
     &END QS
     &MGRID
       NGRIDS  5
       CUTOFF     1.2000000000000000E+03
     &END MGRID
     &XC
       DENSITY_CUTOFF     1.0000000000000000E-10
       GRADIENT_CUTOFF     1.0000000000000000E-10
       TAU_CUTOFF     1.0000000000000000E-10
       &XC_FUNCTIONAL  NO_SHORTCUT
         &PBE  T
         &END PBE
       &END XC_FUNCTIONAL
       &VDW_POTENTIAL
         POTENTIAL_TYPE  PAIR_POTENTIAL
         &PAIR_POTENTIAL
           R_CUTOFF     1.0000000000000004E+01
           TYPE  DFTD3
           PARAMETER_FILE_NAME dftd3.dat
           REFERENCE_FUNCTIONAL PBE
           EPS_CN     9.9999999999999995E-07
           CALCULATE_C9_TERM  T
           REFERENCE_C9_TERM  T
           LONG_RANGE_CORRECTION  F
           VERBOSE_OUTPUT  F
         &END PAIR_POTENTIAL
       &END VDW_POTENTIAL
     &END XC
   &END DFT
   &SUBSYS
     &CELL
       A     1.2864472766435110E+01    0.0000000000000000E+00    0.0000000000000000E+00
       B    -6.4322363581020028E+00    1.1140960178524473E+01    0.0000000000000000E+00
       C     0.0000000000000000E+00    0.0000000000000000E+00    3.2000000000000000E+01
       MULTIPLE_UNIT_CELL  1 1 1
       &CELL_REF
         A     1.2982353780853531E+01    0.0000000000000000E+00    0.0000000000000000E+00
         B    -6.4911768904267628E+00    1.1243048175136114E+01    0.0000000000000000E+00
         C     0.0000000000000000E+00    0.0000000000000000E+00    3.2000000000000000E+01
         MULTIPLE_UNIT_CELL  1 1 1
       &END CELL_REF
     &END CELL
     &COORD
N    1.1010720881227336E-01    1.9511234235656838E+00    2.5151734739100826E+00
Ga    1.3259303015909155E-01   -1.6539731696120528E-02    2.8714690490838746E+00
N    1.3083178934918213E-01   -3.5808612353711869E-02    5.0496347460284801E+00
Ga    1.1866195579521646E-01    1.7836841881837984E+00    5.8087628178735269E+00
N    1.0912131549073456E-01    1.8014458671885965E+00    7.8054863710084641E+00
Ga    1.0751072205277887E-01   -4.8320556808642938E-02    8.4346324071700209E+00
N    1.0984568129447535E-01   -4.8959671349244165E-02    1.0411456972489082E+01
Ga    1.1185956489579550E-01    1.7904843079652644E+00    1.1065058715511348E+01
N    1.1062019954778558E-01    1.7716314643026114E+00    1.3059950536454517E+01
Ga    1.1077464536216995E-01   -4.8363523254993622E-02    1.3871702863302465E+01
N    1.0879301119022819E-01   -4.7658599425082757E-02    1.6061233891134339E+01
Ga    1.0953098028758740E-01    1.9996376643859393E+00    1.6485426614806418E+01
Ga    1.3484424409106552E-01    3.6634310895058984E+00    1.3358225447233383E+00
N   -1.3797637335129533E+00    4.5290562855486094E+00    2.5036297105267655E+00
Ga   -1.4960838827609995E+00    2.7300304948054608E+00    3.3091578831965336E+00
N   -1.5105069989227884E+00    2.7320573612662331E+00    5.2538181300034701E+00
Ga   -1.5247474818017435E+00    4.6102934516851590E+00    5.8090585614515140E+00
N   -1.5050940087227702E+00    4.5994612396055619E+00    7.8007903133161580E+00
Ga   -1.4880228380353031E+00    2.7415945420875913E+00    8.4376550478117931E+00
N   -1.4869857296411066E+00    2.7436543352021241E+00    1.0430358793470987E+01
Ga   -1.5111709370861008E+00    4.6030981923176020E+00    1.1064062389089601E+01
N   -1.5279243018913551E+00    4.6126297686946804E+00    1.3056866764124980E+01
Ga   -1.4854434941385752E+00    2.7442180567281085E+00    1.3616578829614793E+01
N   -1.5212600656693160E+00    2.7318158945810205E+00    1.5575803906194079E+01
Ga   -1.3189762731622674E+00    4.4927671435976544E+00    1.6487922906777520E+01
N    1.0926514653158650E-01    3.6551048995503397E+00    1.7630336168617831E+01
N   -3.0934774988033653E+00    7.5112270647711021E+00    2.5046252752253029E+00
Ga   -3.0874419085226630E+00    5.5281667797439011E+00    2.8620217606263090E+00
N   -3.0990735609033955E+00    5.5253109214713154E+00    5.0371848013178440E+00
Ga   -3.0994366795557080E+00    7.3428550589852923E+00    5.8045035058230194E+00
N   -3.1059157343006136E+00    7.3717489491210042E+00    7.7942585535711766E+00
Ga   -3.1060380106182888E+00    5.5225715920465062E+00    8.4382751341198272E+00
N   -3.1055782583126268E+00    5.5235998030080609E+00    1.0413017356544319E+01
Ga   -3.1048915432966639E+00    7.3635423478042670E+00    1.1064071262481743E+01
N   -3.1049361294405693E+00    7.3446292762941399E+00    1.3056367203719921E+01
Ga   -3.0960289094624671E+00    5.5284816703429422E+00    1.3857883202439011E+01
N   -3.0955417439318689E+00    5.5282135101374728E+00    1.6063081808522515E+01
Ga   -3.1049218374814758E+00    7.5842377612458920E+00    1.6486943512659700E+01
Ga   -3.1040687101700808E+00    9.3213189724378740E+00    1.3139417727106453E+00
N   -4.5909332796716864E+00    1.0109764574593379E+01    2.4967987131690990E+00
Ga   -4.6617069608653132E+00    8.3562358101066128E+00    3.3190119551297372E+00
N   -4.7293147429163040E+00    8.3004252143687989E+00    5.2413144414536088E+00
Ga   -4.7359518104694303E+00    1.0193819545318235E+01    5.8121091207390174E+00
N   -4.7205051716877753E+00    1.0166767341786752E+01    7.8032896882977498E+00
Ga   -4.7056404654198634E+00    8.3138582218359360E+00    8.4347050002427473E+00
N   -4.7036273136366678E+00    8.3134459722386591E+00    1.0426746303701002E+01
Ga   -4.7287753350894741E+00    1.0174644296133694E+01    1.1064574921571316E+01
N   -4.7451206440947900E+00    1.0182960753657271E+01    1.3059327167402412E+01
Ga   -4.7020619943601707E+00    8.3146946374977908E+00    1.3616187690322276E+01
N   -4.7308810880371182E+00    8.2908185073253922E+00    1.5575070398576710E+01
Ga   -4.5512087452145504E+00    1.0070284665411936E+01    1.6484901135311702E+01
N   -3.1155136668560184E+00    9.2421063744701790E+00    1.7630388052128207E+01
N    3.3173866488996562E+00    1.8095699405994545E+00    2.6474514569354093E+00
Ga    3.3326440110574440E+00    5.1867982980828946E-02    3.2809913360324980E+00
N    3.3293492199039125E+00   -5.2223418003049624E-02    5.2605625121656256E+00
Ga    3.3284302318850214E+00    1.8115098246106525E+00    5.8589711021091135E+00
N    3.3302638943340139E+00    1.8103968433623618E+00    7.8464663160779171E+00
Ga    3.3298017086854301E+00   -5.5385861469678131E-02    8.4344716354019482E+00
N    3.3278674343155283E+00   -5.9694785248223366E-02    1.0430327222873515E+01
Ga    3.3287998292388346E+00    1.8092142846786188E+00    1.1022566927633292E+01
N    3.3295687371917455E+00    1.8110896456213759E+00    1.2996443681407023E+01
Ga    3.3276972392365862E+00   -6.1022461997626690E-02    1.3614439200976204E+01
N    3.3318068829026051E+00   -2.5793163991795317E-02    1.5574081877201591E+01
Ga    3.3231436710373301E+00    1.8076004111357535E+00    1.5855548516417588E+01
N    1.5975916642887016E+00    4.5268669036187568E+00    2.5275500955007950E+00
Ga    1.7900363138820616E+00    2.6958272291775236E+00    3.2776245564875253E+00
N    1.7173361906841522E+00    2.7390222068209131E+00    5.2639546979109593E+00
Ga    1.7442388790671310E+00    4.5996972550093194E+00    5.8144633879382202E+00
N    1.7258556358866459E+00    4.6008820479859232E+00    7.8094750442273009E+00
Ga    1.7126383648642203E+00    2.7415175462379753E+00    8.4362824055374830E+00
N    1.7101540943457327E+00    2.7426222444589743E+00    1.0432228392873983E+01
Ga    1.7356674058514536E+00    4.6034686824841433E+00    1.1061019656200967E+01
N    1.7502628816134957E+00    4.6130178191096105E+00    1.3055207403195267E+01
Ga    1.7070639113247865E+00    2.7450000390978730E+00    1.3615790027853979E+01
N    1.7398715945326904E+00    2.7322000561904889E+00    1.5575426796542224E+01
Ga    1.5382661470774410E+00    4.4927810548052678E+00    1.6487546959885950E+01
N    1.0061847364160510E-01    7.3740840439674917E+00    2.6699176158458529E+00
Ga    1.1777718908055607E-01    5.5245375020778598E+00    3.3191701453465026E+00
N    1.0982325887957685E-01    5.5381293423082063E+00    5.2614528906720945E+00
Ga    1.2435489610935112E-01    7.3888416450765906E+00    5.8804534387911618E+00
N    1.1484426540987332E-01    7.3828594698341954E+00    7.8486207000478645E+00
Ga    1.1242508900592475E-01    5.5134533512758281E+00    8.4398087217522821E+00
N    1.1081464561487632E-01    5.5120027735343573E+00    1.0431107101740373E+01
Ga    1.1412485503630461E-01    7.3812425443690666E+00    1.1020678237229010E+01
N    1.1219219135292341E-01    7.3802741385569650E+00    1.2991264665919251E+01
Ga    1.1169811175357636E-01    5.5110617469027687E+00    1.3614874139635248E+01
N    1.0969219651475909E-01    5.5424613788731136E+00    1.5573383302771642E+01
Ga    1.0946867447867367E-01    7.3796019994331603E+00    1.5851387475691906E+01
N   -1.6207014176388916E+00    1.0095028105978963E+01    2.4991942590845855E+00
Ga   -1.4887278396076289E+00    8.3132078895574111E+00    3.3062423173723716E+00
N   -1.4847331675860020E+00    8.3024300909551663E+00    5.2510329684709784E+00
Ga   -1.4711387537112439E+00    1.0185762937901021E+01    5.8086497603379419E+00
N   -1.4863756994675581E+00    1.0168170114060056E+01    7.8037125932354199E+00
Ga   -1.5044869781240060E+00    8.3153239755766393E+00    8.4373997996907786E+00
N   -1.5071913576709062E+00    8.3134995148400375E+00    1.0428854976637560E+01
Ga   -1.4799982335847366E+00    1.0174168737009499E+01    1.1060968492666161E+01
N   -1.4654889006251082E+00    1.0182477116442627E+01    1.3054796641719348E+01
Ga   -1.5068302304639110E+00    8.3146210591991778E+00    1.3614064858093499E+01
N   -1.4815606159206192E+00    8.2979470761839718E+00    1.5572496779947903E+01
Ga   -1.6745836998602885E+00    1.0061449649115733E+01    1.6485696718065871E+01
N    6.5368409360570388E+00    1.9193012728561190E+00    2.5168500377768437E+00
Ga    6.5244842716651732E+00   -5.2155127946003674E-02    2.8646210348739563E+00
N    6.5317013017334382E+00   -4.4988326751023426E-02    5.0412364127284421E+00
Ga    6.5393023815423872E+00    1.7773073929089112E+00    5.7956695435407122E+00
N    6.5470596895627420E+00    1.8010320228222818E+00    7.7953734852143972E+00
Ga    6.5506491649911993E+00   -4.8841126164690947E-02    8.4312884002024617E+00
N    6.5470701837862393E+00   -4.7564315021502539E-02    1.0410407493752730E+01
Ga    6.5453294568597098E+00    1.7908379337998008E+00    1.1060874635996639E+01
N    6.5439728085310866E+00    1.7707337592318417E+00    1.3062272758928074E+01
Ga    6.5434161509426962E+00   -5.8267439332336059E-02    1.3855027228489309E+01
N    6.5424095546971195E+00   -5.9897258769998067E-02    1.6060978108912362E+01
Ga    6.5416266451225455E+00    1.9423582842746445E+00    1.6428112319667829E+01
Ga    6.4683258658452294E+00    3.5764635665243620E+00    1.2172547897750141E+00
N    5.0164317187627017E+00    4.5271626269151097E+00    2.4970394868078278E+00
Ga    4.8493481195060895E+00    2.6863594635681580E+00    3.2581080153910724E+00
N    4.9415522440192268E+00    2.7409019836465802E+00    5.2463817888366684E+00
Ga    4.9027594680605961E+00    4.6011883943562557E+00    5.8054495007458984E+00
N    4.9329440959392601E+00    4.6014234914125831E+00    7.7990231041155225E+00
Ga    4.9466423243966080E+00    2.7414264527317500E+00    8.4323090584932601E+00
N    4.9486017660760906E+00    2.7446353916475972E+00    1.0430531155754702E+01
Ga    4.9206364237089746E+00    4.6044805328578944E+00    1.1060983459783339E+01
N    4.9029068672975109E+00    4.6137168957783325E+00    1.3062219816022855E+01
Ga    4.9462892856320497E+00    2.7436705160539945E+00    1.3606966499431817E+01
N    4.9258763300329100E+00    2.7332258014757329E+00    1.5585287759031875E+01
Ga    5.0492008632881058E+00    4.5277351838415942E+00    1.6428691143575694E+01
N    6.5414176647429771E+00    3.6654894683343611E+00    1.7549570948510659E+01
N    3.3072423216329141E+00    7.4106822455125938E+00    2.4889473175096608E+00
N    3.3239351938918249E+00    5.5041164582048134E+00    5.0616744351381042E+00
Ga    3.3161888069876868E+00    7.3378324642153672E+00    5.7703213657847172E+00
N    3.3295161963522277E+00    7.3750548327795178E+00    7.7723421367195726E+00
Ga    3.3287821818641157E+00    5.5277433858866249E+00    8.4325040727048943E+00
N    3.3299499367922696E+00    5.5260708718642801E+00    1.0410721705744088E+01
Ga    3.3290042010964442E+00    7.3654027252479617E+00    1.1060336017116240E+01
N    3.3272305508867643E+00    7.3455030550367066E+00    1.3053654647831596E+01
Ga    3.3183205804854010E+00    5.5285401873548050E+00    1.3854533754679423E+01
N    3.3150878550586977E+00    5.5289944067737533E+00    1.6062324517452506E+01
Ga    3.3236141393358145E+00    7.5850303902711627E+00    1.6488695409043270E+01
Ga    3.0672874183364467E+00    9.3801797575899357E+00    7.0150102152640170E-01
N    1.7691048603625987E+00    1.0131956488163166E+01    2.4672413079764115E+00
Ga    1.7326054843061423E+00    8.3193326724502867E+00    3.2073286087675905E+00
N    1.7096669062912351E+00    8.3046531868280997E+00    5.1949536476308031E+00
Ga    1.6935132254868999E+00    1.0181769558060772E+01    5.7635913690344669E+00
N    1.7149314903834787E+00    1.0169393685744463E+01    7.7724302546182189E+00
Ga    1.7343380364773138E+00    8.3194565469634121E+00    8.4257710139727227E+00
N    1.7327493894374273E+00    8.3157052576792641E+00    1.0420761868834717E+01
Ga    1.7072372456384175E+00    1.0173509627115843E+01    1.1060380007385017E+01
N    1.6889607647008176E+00    1.0182282936013523E+01    1.3053788529472202E+01
Ga    1.7299552702433751E+00    8.3145972454909849E+00    1.3614721425456995E+01
N    1.7005639164913871E+00    8.2978676034676688E+00    1.5572514803245886E+01
Ga    1.8943196926839361E+00    1.0060221343957812E+01    1.6487913967513883E+01
N    3.3335119834913054E+00    9.2415394656592973E+00    1.7632303311817360E+01
N    9.7605699110953932E+00    1.8176911944011351E+00    2.6583729145796888E+00
Ga    9.7565903928248954E+00   -6.5039239874587554E-02    3.2000053552181038E+00
N    9.7594985249666397E+00   -3.6853402118575254E-02    5.1891954551970798E+00
Ga    9.7562288263853834E+00    1.7960338924668888E+00    5.8692155227116656E+00
N    9.7586160751654720E+00    1.8079218229125060E+00    7.8409057405028033E+00
Ga    9.7594380864778305E+00   -6.2193767754617227E-02    8.4233990027961738E+00
N    9.7614257448359414E+00   -6.0393118842622141E-02    1.0420179404884450E+01
Ga    9.7602291529043281E+00    1.8075136626205470E+00    1.1020335603372757E+01
N    9.7569185780334262E+00    1.8100507207904835E+00    1.2994152723218026E+01
Ga    9.7587094170099906E+00   -6.1257281304460030E-02    1.3616160154061376E+01
N    9.7515221203159292E+00   -2.5758632322671251E-02    1.5575115497833970E+01
Ga    9.7603721370188801E+00    1.8072234825500604E+00    1.5857852271397203E+01
N    8.0684686824497263E+00    4.5366589599458003E+00    2.5102897495741656E+00
Ga    8.1512928807570511E+00    2.7310831973685286E+00    3.2796878127268752E+00
N    8.1609562714717008E+00    2.7325124818898758E+00    5.2317660301168809E+00
Ga    8.1859004172260104E+00    4.6105361153012625E+00    5.7896442978686640E+00
N    8.1580857535311999E+00    4.6007089882630083E+00    7.7847056083001522E+00
Ga    8.1416638982908385E+00    2.7428798375631853E+00    8.4317154780853034E+00
N    8.1424133750229579E+00    2.7459288985825232E+00    1.0427558634102168E+01
Ga    8.1682858738870863E+00    4.6040174464015671E+00    1.1064270874302702E+01
N    8.1842246216318006E+00    4.6135013416242598E+00    1.3064030355887351E+01
Ga    8.1406247751322027E+00    2.7431424521139971E+00    1.3608142582379534E+01
N    8.1582323504295164E+00    2.7330144544356565E+00    1.5586088698469307E+01
Ga    8.0341332196827899E+00    4.5274181986478732E+00    1.6429336066720172E+01
N    6.7064538485739797E+00    7.2910419346323048E+00    2.4562914052178657E+00
Ga    6.5240833879851143E+00    5.4447860045645395E+00    3.2849303738964815E+00
N    6.5413487486680726E+00    5.5391381525218382E+00    5.2180915061791548E+00
Ga    6.5305896607736091E+00    7.3827401322799169E+00    5.8584881540994411E+00
N    6.5400009085476993E+00    7.3811173486705881E+00    7.8280236415442390E+00
Ga    6.5444506344195341E+00    5.5137111897368092E+00    8.4332666351829477E+00
N    6.5460424822390326E+00    5.5126139844693860E+00    1.0427431621451257E+01
Ga    6.5423837804035641E+00    7.3815616974764984E+00    1.1021974867496354E+01
N    6.5420539892645193E+00    7.3778418223586941E+00    1.2994136155743940E+01
Ga    6.5428281766100209E+00    5.5113150114706420E+00    1.3608035394565677E+01
N    6.5421588080370725E+00    5.5318342175285649E+00    1.5585528915038964E+01
Ga    6.5416459748126492E+00    7.3819966160019357E+00    1.5858626501170290E+01
N    4.9030986897437474E+00    1.0165174841035970E+01    2.4865937130442459E+00
Ga    4.7026705865184111E+00    8.4425178153896194E+00    3.2475740602694549E+00
N    4.9458615934377708E+00    8.3037846078578745E+00    5.1790686798808556E+00
Ga    4.9697401265054095E+00    1.0199309160200205E+01    5.7660759334178069E+00
N    4.9426492241733557E+00    1.0168668577032873E+01    7.7698882081420226E+00
Ga    4.9227632649196016E+00    8.3181054051329166E+00    8.4233596085990499E+00
N    4.9264447391022141E+00    8.3156991035402434E+00    1.0418833034114172E+01
Ga    4.9508720400823645E+00    1.0174051332554667E+01    1.1064214769386860E+01
N    4.9663438601159910E+00    1.0182914329599207E+01    1.3058697891915683E+01
Ga    4.9227343080625277E+00    8.3148608352732545E+00    1.3617310453272191E+01
N    4.9497825657131136E+00    8.2908135636865978E+00    1.5575781979953526E+01
Ga    4.7681445572433807E+00    1.0068996143679296E+01    1.6487280811998712E+01
O    1.0741493365513517E-01    3.7601156409124252E+00   -4.7474468217693266E-01
H   -2.7695245664999240E+00    8.5857319102580050E+00   -8.9293030753744529E-01
C    1.3101981235987328E+00    3.3424572017545300E+00   -1.1465102820455471E+00
H    2.2000293072140749E+00    3.8947918959919896E+00   -7.9988259093213065E-01
H    1.5049558451913707E+00    2.2654418429306791E+00   -1.0178293326634584E+00
H    1.1728983421435550E+00    3.5451242224146351E+00   -2.2192355141820195E+00
Ga    3.2995870674079377E+00    5.4976483656068824E+00    2.8951470670484740E+00
O   -3.3681191181033809E+00    9.2336391384529062E+00   -4.8094056701375526E-01
H    6.4413988543446293E-02    7.3384473420317509E+00    1.6441382544723919E+00
C    6.4640289840248446E+00    7.4513588286673036E+00    1.1988529454889354E+00
H    6.8293937807083553E+00    8.3320055969059297E+00    6.5082876436004222E-01
H    9.7770534515067720E+00    1.8618864664758363E+00    1.6327445729994856E+00
H    5.8592883496237640E+00    6.7212174918940519E+00    6.4280199391126525E-01
     &END COORD
     &KIND C
       BASIS_SET DZVP-MOLOPT-SR-GTH-q4
       POTENTIAL GTH-PBE-q4
       &POTENTIAL
 2 2
  0.3384712400000000E+00 2 -0.8803673979999999E+01  0.1339210850000000E+01
 2
  0.3025757500000000E+00 1  0.9622486650000001E+01
  0.2915069400000000E+00 0
         # Potential name:  GTH-PBE-Q4  for symbol:  C
         # Potential read from the potential filename: GTH_POTENTIALS
       &END POTENTIAL
     &END KIND
     &KIND O
       BASIS_SET DZVP-MOLOPT-SR-GTH-q6
       POTENTIAL GTH-PBE-q6
       &POTENTIAL
 2 4
  0.2445543000000000E+00 2 -0.1666721480000000E+02  0.2487311320000000E+01
 2
  0.2209559200000000E+00 1  0.1833745811000000E+02
  0.2113324700000000E+00 0
         # Potential name:  GTH-PBE-Q6  for symbol:  O
         # Potential read from the potential filename: GTH_POTENTIALS
       &END POTENTIAL
     &END KIND
     &KIND H
       BASIS_SET DZVP-MOLOPT-SR-GTH-q1
       POTENTIAL GTH-PBE-q1
       &POTENTIAL
 1
  0.2000000000000000E+00 2 -0.4178900440000000E+01  0.7244633100000000E+00
 0
         # Potential name:  GTH-PBE-Q1  for symbol:  H
         # Potential read from the potential filename: GTH_POTENTIALS
       &END POTENTIAL
     &END KIND
     &KIND N
       BASIS_SET DZVP-MOLOPT-SR-GTH
       POTENTIAL GTH-PBE-q5
       &POTENTIAL
 2 3
  0.2837905100000000E+00 2 -0.1241522559000000E+02  0.1868095920000000E+01
 2
  0.2554050000000000E+00 1  0.1363026257000000E+02
  0.2454945300000000E+00 0
         # Potential name:  GTH-PBE-Q5  for symbol:  N
         # Potential read from the potential filename: GTH_POTENTIALS
       &END POTENTIAL
     &END KIND
     &KIND Ga
       BASIS_SET DZVP-MOLOPT-SR-GTH
       POTENTIAL GTH-PBE-q13
       &POTENTIAL
 2 1 10
  0.4900000000000000E+00 0
 3
  0.4167772300000000E+00 3  0.1047568975000000E+02 -0.4921768140000000E+01  0.8707055900000000E+00
  0.7770178090000000E+01 -0.2248152160000000E+01
  0.1784415450000000E+01
  0.5696265200000000E+00 2  0.1777985340000000E+01  0.1958597600000000E+00
 -0.2317443900000000E+00
  0.2381265000000000E+00 1 -0.1624868022000000E+02
         # Potential name:  GTH-PBE-Q13  for symbol:  GA
         # Potential read from the potential filename: GTH_POTENTIALS
       &END POTENTIAL
     &END KIND
     &TOPOLOGY
       NUMBER_OF_ATOMS  212
       MULTIPLE_UNIT_CELL  1 1 1
     &END TOPOLOGY
   &END SUBSYS
 &END FORCE_EVAL
