 # Version information for this restart file 
 # current date 2019-07-03 12:49:38.356
 # current working dir /lustre04/scratch/rzk/rzk/GaN-carbene/443-adatoms-both-2x2/08-CH3O-H2O-H2C-H/03-Use-0401
 # Program compiled at                              Sun Apr  7 00:48:11 EDT 2019
 # Program compiled on                          beluga2.int.ets1.calculquebec.ca
 # Program compiled for                        Beluga-Linux-x86-64-intel-openmpi
 # Source code revision number                                         svn:18619
 &GLOBAL
   PRINT_LEVEL  MEDIUM
   PROJECT_NAME TEST
   RUN_TYPE  GEO_OPT
 &END GLOBAL
 &MOTION
   &GEO_OPT
     MAX_ITER  500
     STEP_START_VAL  99
   &END GEO_OPT
 &END MOTION
 &FORCE_EVAL
   METHOD  QS
   STRESS_TENSOR  ANALYTICAL
   &DFT
     BASIS_SET_FILE_NAME BASIS_MOLOPT
     POTENTIAL_FILE_NAME GTH_POTENTIALS
     UKS  T
     SURFACE_DIPOLE_CORRECTION  T
     SURF_DIP_DIR  Z
     &SCF
       MAX_SCF  80
       EPS_SCF     5.0000000000000004E-06
       &OT  T
         PRECONDITIONER  FULL_ALL
       &END OT
       &OUTER_SCF  T
         OPTIMIZER  NONE
         EPS_SCF     5.0000000000000004E-06
         MAX_SCF  4
       &END OUTER_SCF
       &PRINT
         &RESTART  OFF
           BACKUP_COPIES  1
           &EACH
             JUST_ENERGY  0
             QS_SCF  0
             MD  20
           &END EACH
         &END RESTART
       &END PRINT
     &END SCF
     &QS
       EPS_DEFAULT     1.0000000000000000E-14
       METHOD  GPW
     &END QS
     &MGRID
       NGRIDS  5
       CUTOFF     1.2000000000000000E+03
     &END MGRID
     &XC
       DENSITY_CUTOFF     1.0000000000000000E-10
       GRADIENT_CUTOFF     1.0000000000000000E-10
       TAU_CUTOFF     1.0000000000000000E-10
       &XC_FUNCTIONAL  NO_SHORTCUT
         &PBE  T
         &END PBE
       &END XC_FUNCTIONAL
       &VDW_POTENTIAL
         POTENTIAL_TYPE  PAIR_POTENTIAL
         &PAIR_POTENTIAL
           R_CUTOFF     1.0000000000000004E+01
           TYPE  DFTD3
           PARAMETER_FILE_NAME dftd3.dat
           REFERENCE_FUNCTIONAL PBE
           EPS_CN     9.9999999999999995E-07
           CALCULATE_C9_TERM  T
           REFERENCE_C9_TERM  T
           LONG_RANGE_CORRECTION  F
           VERBOSE_OUTPUT  F
         &END PAIR_POTENTIAL
       &END VDW_POTENTIAL
     &END XC
   &END DFT
   &SUBSYS
     &CELL
       A     1.2864472766435110E+01    0.0000000000000000E+00    0.0000000000000000E+00
       B    -6.4322363581020028E+00    1.1140960178524473E+01    0.0000000000000000E+00
       C     0.0000000000000000E+00    0.0000000000000000E+00    3.2000000000000000E+01
       MULTIPLE_UNIT_CELL  1 1 1
       &CELL_REF
         A     1.2982353780853531E+01    0.0000000000000000E+00    0.0000000000000000E+00
         B    -6.4911768904267628E+00    1.1243048175136114E+01    0.0000000000000000E+00
         C     0.0000000000000000E+00    0.0000000000000000E+00    3.2000000000000000E+01
         MULTIPLE_UNIT_CELL  1 1 1
       &END CELL_REF
     &END CELL
     &COORD
N    1.1006964018273660E-01    1.9513620787588484E+00    2.5174882326666030E+00
Ga    1.3268490489602841E-01   -1.6855555706497136E-02    2.8717023531523247E+00
N    1.2941616470289000E-01   -3.5962476528122948E-02    5.0510772966948174E+00
Ga    1.1723425449613352E-01    1.7831852478008523E+00    5.8109194219120175E+00
N    1.0646449300918560E-01    1.8004671290281471E+00    7.8075379139481456E+00
Ga    1.0478632604932409E-01   -4.9541748444073649E-02    8.4362288494708846E+00
N    1.0673124990542564E-01   -4.9076173475988590E-02    1.0413102783219383E+01
Ga    1.0882585618249292E-01    1.7905777725991023E+00    1.1066832467970988E+01
N    1.0858696891594243E-01    1.7720055733118494E+00    1.3061981025202464E+01
Ga    1.0839486978654336E-01   -4.7255094888921829E-02    1.3873725120719547E+01
N    1.0832170329506859E-01   -4.6560681950278883E-02    1.6066002178976611E+01
Ga    1.0900357643001087E-01    2.0019567235481239E+00    1.6490384161358062E+01
Ga    1.3321779919941915E-01    3.6628007085113041E+00    1.3375692734630089E+00
N   -1.3794029233657297E+00    4.5286608968591784E+00    2.5068135722467515E+00
Ga   -1.4965187823617794E+00    2.7301711951958727E+00    3.3127912732820359E+00
N   -1.5119370478855836E+00    2.7321475324833733E+00    5.2559285481190683E+00
Ga   -1.5266810580632588E+00    4.6106061957608002E+00    5.8114844997257427E+00
N   -1.5078217443429840E+00    4.5991433593962912E+00    7.8031007371862184E+00
Ga   -1.4905815163572598E+00    2.7409258197759834E+00    8.4392489950532017E+00
N   -1.4899382177650651E+00    2.7436088140626951E+00    1.0432109150600755E+01
Ga   -1.5139707427885842E+00    4.6031195351165328E+00    1.1065416686541207E+01
N   -1.5299324964873746E+00    4.6131765867879508E+00    1.3058211146176559E+01
Ga   -1.4877498933036837E+00    2.7447081512801050E+00    1.3618424572241807E+01
N   -1.5224836348364987E+00    2.7326322737086115E+00    1.5577713520677820E+01
Ga   -1.3188280447367435E+00    4.4935410823777984E+00    1.6491789622405982E+01
N    1.0894688107273426E-01    3.6574386067869589E+00    1.7635260036953824E+01
N   -3.0926997654303481E+00    7.5096762999428437E+00    2.5074328969278414E+00
Ga   -3.0868082903187939E+00    5.5268945697573066E+00    2.8637938156009470E+00
N   -3.1001797577196442E+00    5.5249611517935504E+00    5.0393124297852454E+00
Ga   -3.0999502649996491E+00    7.3426096303834205E+00    5.8058951201436830E+00
N   -3.1084834276547331E+00    7.3715266538699620E+00    7.7959136223380971E+00
Ga   -3.1086403593264582E+00    5.5226382136992251E+00    8.4398026848644268E+00
N   -3.1083802885594127E+00    5.5234130443165794E+00    1.0414280666822794E+01
Ga   -3.1075691202525815E+00    7.3635369341573069E+00    1.1065055796009638E+01
N   -3.1070849405169105E+00    7.3448362104470100E+00    1.3057678814679788E+01
Ga   -3.0977754349670747E+00    5.5286169538881085E+00    1.3857787915416131E+01
N   -3.0960944670426263E+00    5.5301834069592841E+00    1.6064888552266893E+01
Ga   -3.1050333227690996E+00    7.5851589225937106E+00    1.6489232237571095E+01
Ga   -3.0999387064609585E+00    9.3200288035826020E+00    1.3153855852300993E+00
N   -4.5915793769047806E+00    1.0109360536369127E+01    2.4962757356687533E+00
Ga   -4.6598004051790314E+00    8.3570732466049478E+00    3.3194271298099460E+00
N   -4.7294610702991822E+00    8.3003918852481018E+00    5.2417663560121950E+00
Ga   -4.7372053922994972E+00    1.0193192652579805E+01    5.8134774883943336E+00
N   -4.7231698738490797E+00    1.0166414659333274E+01    7.8048558589786348E+00
Ga   -4.7083241937284850E+00    8.3135663825567629E+00    8.4362170018700855E+00
N   -4.7065941635248070E+00    8.3129337334116542E+00    1.0428128827551724E+01
Ga   -4.7316449315918589E+00    1.0174321177423240E+01    1.1065938834394851E+01
N   -4.7478377929857194E+00    1.0183637894574941E+01    1.3061116157636130E+01
Ga   -4.7035159636299131E+00    8.3153820191852628E+00    1.3618687480613536E+01
N   -4.7316531111793827E+00    8.2919150422732528E+00    1.5578238298941288E+01
Ga   -4.5519571048208771E+00    1.0072009515760133E+01    1.6487678681618341E+01
N   -3.1161523465733199E+00    9.2429265198890409E+00    1.7630360869230380E+01
N    3.3180973292290905E+00    1.8095808021351931E+00    2.6492703949340211E+00
Ga    3.3308961181508674E+00    5.1218073851222783E-02    3.2819216200375414E+00
N    3.3281963742029967E+00   -5.2242857350628648E-02    5.2610954229860534E+00
Ga    3.3276108290826487E+00    1.8107942113006508E+00    5.8607379475697003E+00
N    3.3274226431453831E+00    1.8099082456742559E+00    7.8483859226383581E+00
Ga    3.3269379843939051E+00   -5.5821493098228238E-02    8.4361586323909847E+00
N    3.3245235240648601E+00   -5.9811559671213772E-02    1.0431858344352923E+01
Ga    3.3254325053043305E+00    1.8093026294529106E+00    1.1023560883044091E+01
N    3.3279274233511025E+00    1.8111582701535269E+00    1.2997903333503771E+01
Ga    3.3256681275161655E+00   -6.0948205276846419E-02    1.3617197371124151E+01
N    3.3318183743324066E+00   -2.4646889081259758E-02    1.5577263880705896E+01
Ga    3.3236493378137757E+00    1.8092995091456343E+00    1.5856743009176673E+01
N    1.5979961845861419E+00    4.5260147031912679E+00    2.5289444126478351E+00
Ga    1.7912823139553518E+00    2.6958646901885861E+00    3.2795825310868341E+00
N    1.7165475132970085E+00    2.7384571318080071E+00    5.2656300525274338E+00
Ga    1.7426193191004178E+00    4.5995200409714849E+00    5.8160065350193992E+00
N    1.7233235791169883E+00    4.6006051714207139E+00    7.8110341500960985E+00
Ga    1.7098972852353287E+00    2.7410326588898379E+00    8.4377972824579270E+00
N    1.7066312213583998E+00    2.7430874561976615E+00    1.0433527098241925E+01
Ga    1.7324185469745728E+00    4.6037048461093466E+00    1.1062125338970777E+01
N    1.7476576480442567E+00    4.6137023180701950E+00    1.3056427629223077E+01
Ga    1.7051432092058858E+00    2.7455831908582180E+00    1.3617756576204432E+01
N    1.7398951464292376E+00    2.7328027803878547E+00    1.5577229052377678E+01
Ga    1.5369677033198779E+00    4.4937556395920248E+00    1.6491286332054045E+01
N    1.0267504852152999E-01    7.3719239250625535E+00    2.6732413661585226E+00
Ga    1.1875974821680541E-01    5.5231739929729793E+00    3.3217179501948539E+00
N    1.0802597333789057E-01    5.5377483999786961E+00    5.2631335003135877E+00
Ga    1.2272616192158696E-01    7.3892617495457129E+00    5.8800284192772461E+00
N    1.1220104272828474E-01    7.3824071363856518E+00    7.8493432804385215E+00
Ga    1.0972040340371030E-01    5.5136525003668835E+00    8.4407922559737241E+00
N    1.0781893477968305E-01    5.5118937499225282E+00    1.0431815934658417E+01
Ga    1.1094866073709708E-01    7.3814177426916299E+00    1.1021828148717725E+01
N    1.0973088114472661E-01    7.3814411081812983E+00    1.2991876264648216E+01
Ga    1.0925514371337072E-01    5.5124515786439394E+00    1.3616668897825656E+01
N    1.0871752521901260E-01    5.5438260555629224E+00    1.5574727387638681E+01
Ga    1.0904799966953775E-01    7.3803792620168016E+00    1.5854738861516099E+01
N   -1.6211283247300723E+00    1.0094964453422907E+01    2.5013020623891089E+00
Ga   -1.4881234604608116E+00    8.3121148621841048E+00    3.3066772392560235E+00
N   -1.4860623005485314E+00    8.3026864439009103E+00    5.2511869009243979E+00
Ga   -1.4729373112750939E+00    1.0185057875484068E+01    5.8101645053914464E+00
N   -1.4892346536719363E+00    1.0167716643350595E+01    7.8055468562015742E+00
Ga   -1.5070017457808353E+00    8.3149477172797575E+00    8.4386940105191606E+00
N   -1.5101491700054066E+00    8.3133171505375678E+00    1.0429728198014562E+01
Ga   -1.4833026438971066E+00    1.0174098398618661E+01    1.1061762089470259E+01
N   -1.4675946427832918E+00    1.0182811264569557E+01    1.3056082575520888E+01
Ga   -1.5088584029585030E+00    8.3148470543678705E+00    1.3616476046999002E+01
N   -1.4821449878646953E+00    8.2991489167248709E+00    1.5574995412044490E+01
Ga   -1.6749756661978141E+00    1.0061982645140018E+01    1.6488495615521437E+01
N    6.5360871297290881E+00    1.9195342064968000E+00    2.5185640771510598E+00
Ga    6.5248605632357410E+00   -5.2305859551897253E-02    2.8671787734279413E+00
N    6.5295774626946734E+00   -4.5823876321150314E-02    5.0424748668975061E+00
Ga    6.5373667434752152E+00    1.7767965907013292E+00    5.7969019038307943E+00
N    6.5446345297522228E+00    1.8004159158534416E+00    7.7968410078821266E+00
Ga    6.5477115955120606E+00   -4.9501655616481517E-02    8.4320941923659820E+00
N    6.5442521110613878E+00   -4.7847331115570942E-02    1.0411329908148977E+01
Ga    6.5421088375022656E+00    1.7908219576984052E+00    1.1061353572387569E+01
N    6.5417003253204022E+00    1.7710182011749107E+00    1.3062748573365624E+01
Ga    6.5418454559811963E+00   -5.7885809766579817E-02    1.3854579711234019E+01
N    6.5414952510629654E+00   -5.9604357315871506E-02    1.6064307991745221E+01
Ga    6.5411392169283697E+00    1.9419493691116219E+00    1.6428971217148220E+01
Ga    6.4673113885258848E+00    3.5803629332379141E+00    1.2175552733426522E+00
N    5.0166604721872083E+00    4.5288957132168930E+00    2.5003170789916749E+00
Ga    4.8493574625747007E+00    2.6877214774194220E+00    3.2598574592315517E+00
N    4.9401233110631475E+00    2.7406146560869447E+00    5.2474937942926534E+00
Ga    4.9018636399255175E+00    4.6011527231178802E+00    5.8059303086522052E+00
N    4.9302576309982502E+00    4.6011893650668156E+00    7.8000909703916808E+00
Ga    4.9436722738992618E+00    2.7411313753558728E+00    8.4330215171148524E+00
N    4.9452652033959401E+00    2.7449059117284333E+00    1.0431305815756833E+01
Ga    4.9173546243654993E+00    4.6047747413387059E+00    1.1061200822161787E+01
N    4.8998518721975799E+00    4.6150182072050425E+00    1.3062483889392848E+01
Ga    4.9447046909236896E+00    2.7448512844736279E+00    1.3607969223984147E+01
N    4.9274897602574557E+00    2.7351245686529420E+00    1.5586650580329449E+01
Ga    5.0459875806063490E+00    4.5300231939858868E+00    1.6428961278775144E+01
N    6.5402215045716794E+00    3.6677008682019134E+00    1.7550956350573596E+01
N    3.3084151182427650E+00    7.4107663198175198E+00    2.4884740876488443E+00
N    3.3223302866182625E+00    5.5040738473323021E+00    5.0626834656763879E+00
Ga    3.3147252561211018E+00    7.3375332863343798E+00    5.7721736682126386E+00
N    3.3275564939437356E+00    7.3744747395548842E+00    7.7740167200775385E+00
Ga    3.3263748277251182E+00    5.5275431128244046E+00    8.4332942402750763E+00
N    3.3263652232070164E+00    5.5262683921289169E+00    1.0411436162221264E+01
Ga    3.3256421130609231E+00    7.3652959028203462E+00    1.1061386085905028E+01
N    3.3248367632815459E+00    7.3458742278401301E+00    1.3055008657813817E+01
Ga    3.3154354821533341E+00    5.5293096881233597E+00    1.3855413019995812E+01
N    3.3134543842308175E+00    5.5307716982359043E+00    1.6064242943088594E+01
Ga    3.3226337164648725E+00    7.5870402760797830E+00    1.6492098544065687E+01
Ga    3.0771230763416568E+00    9.3730778372509764E+00    7.0144133358772287E-01
N    1.7696480528654035E+00    1.0131311262525278E+01    2.4684849227196266E+00
Ga    1.7332337002965024E+00    8.3191004788059182E+00    3.2064167831648960E+00
N    1.7090761234136524E+00    8.3037979894069878E+00    5.1950790603116666E+00
Ga    1.6910505085565888E+00    1.0180999030944108E+01    5.7643125539849853E+00
N    1.7126039953599759E+00    1.0169000749809545E+01    7.7736720117732050E+00
Ga    1.7317918323829828E+00    8.3186867775595914E+00    8.4261098166551474E+00
N    1.7297205734345420E+00    8.3154362641924369E+00    1.0421319985512337E+01
Ga    1.7045549930578068E+00    1.0173075749098070E+01    1.1061291492116210E+01
N    1.6870815646922788E+00    1.0182459389467690E+01    1.3055129271310799E+01
Ga    1.7276592972570599E+00    8.3149101464982262E+00    1.3617486384429263E+01
N    1.6997255595148011E+00    8.2992537604022161E+00    1.5575197765255504E+01
Ga    1.8944832332217558E+00    1.0060878637942414E+01    1.6491754206116543E+01
N    3.3330253030650629E+00    9.2425539259968339E+00    1.7635381802173068E+01
N    9.7604963847721180E+00    1.8188194296861395E+00    2.6599746515102538E+00
Ga    9.7554767083773815E+00   -6.5324374675819960E-02    3.2002319440075238E+00
N    9.7573729491860597E+00   -3.7302083739020372E-02    5.1896546265315733E+00
Ga    9.7544985145061140E+00    1.7953785539261937E+00    5.8704132502549600E+00
N    9.7559508221091296E+00    1.8069391318186621E+00    7.8427492766986306E+00
Ga    9.7571121603034623E+00   -6.3328474256594075E-02    8.4241005140762226E+00
N    9.7589658957624703E+00   -6.0896975010748845E-02    1.0421323614967729E+01
Ga    9.7572376211513934E+00    1.8071612483507205E+00    1.1021528887142631E+01
N    9.7544441521089968E+00    1.8101079176861925E+00    1.2995457367983047E+01
Ga    9.7568285877060195E+00   -6.0966709265885440E-02    1.3618964949634245E+01
N    9.7504777993108469E+00   -2.4322002764465150E-02    1.5577855566593062E+01
Ga    9.7587246804965382E+00    1.8089352922108675E+00    1.5858875791484811E+01
N    8.0693660673934087E+00    4.5380523461601960E+00    2.5125888116247492E+00
Ga    8.1500313864207019E+00    2.7320847718068015E+00    3.2808911733210473E+00
N    8.1596893893384461E+00    2.7321197376579334E+00    5.2327843375961951E+00
Ga    8.1845841774699029E+00    4.6102599346022126E+00    5.7918710016719555E+00
N    8.1555238212304744E+00    4.6006011502367183E+00    7.7869027444616457E+00
Ga    8.1391266873831345E+00    2.7425058886146543E+00    8.4328533483289778E+00
N    8.1393447899231912E+00    2.7458739880465592E+00    1.0428787711608001E+01
Ga    8.1651158589283828E+00    4.6040795957063958E+00    1.1065106487112766E+01
N    8.1823040761787027E+00    4.6144039552479050E+00    1.3064592188830799E+01
Ga    8.1383212949957962E+00    2.7439118144073742E+00    1.3609023818786794E+01
N    8.1553499230711441E+00    2.7349801701586971E+00    1.5587269335858497E+01
Ga    8.0352036233463480E+00    4.5294570208120950E+00    1.6429543195958555E+01
N    6.7134083115596859E+00    7.2892589277649238E+00    2.4582523752987964E+00
Ga    6.5247815093448187E+00    5.4457284615520312E+00    3.2869334343234806E+00
N    6.5408310370358711E+00    5.5396037792139987E+00    5.2201962246150986E+00
Ga    6.5305203959012497E+00    7.3828437050919069E+00    5.8598316810837900E+00
N    6.5374543194731052E+00    7.3809574763545776E+00    7.8288225535181590E+00
Ga    6.5414105624470018E+00    5.5137331715631923E+00    8.4342672838541120E+00
N    6.5428319622981892E+00    5.5125738966121540E+00    1.0428242496904691E+01
Ga    6.5393844256816474E+00    7.3814628002634102E+00    1.1023200001139214E+01
N    6.5402820344235755E+00    7.3781567056183093E+00    1.2996043272676909E+01
Ga    6.5406166310476825E+00    5.5111982038807481E+00    1.3609423414645651E+01
N    6.5412153354719855E+00    5.5310211664393281E+00    1.5587488971224785E+01
Ga    6.5407307780567114E+00    7.3823828353599330E+00    1.5859126502365294E+01
N    4.9024270916259107E+00    1.0164575086172817E+01    2.4852113564612557E+00
Ga    4.7044037569336545E+00    8.4410907761274814E+00    3.2478064498124324E+00
N    4.9448416106035049E+00    8.3025503267690315E+00    5.1791330497930925E+00
Ga    4.9680813744581673E+00    1.0198554818100362E+01    5.7662909720121887E+00
N    4.9401536737579583E+00    1.0167792664795503E+01    7.7701927055107332E+00
Ga    4.9203048920405115E+00    8.3174545835972911E+00    8.4244981060881852E+00
N    4.9232725881584081E+00    8.3156398069191830E+00    1.0419915827878688E+01
Ga    4.9479500919411867E+00    1.0173680046838875E+01    1.1066087180181954E+01
N    4.9644778886051446E+00    1.0183345219098710E+01    1.3060462122860690E+01
Ga    4.9203098287852303E+00    8.3153982436910727E+00    1.3619572947278659E+01
N    4.9491781676823887E+00    8.2921267554996252E+00    1.5578277877867830E+01
Ga    4.7670868005279567E+00    1.0070444572644453E+01    1.6491002003256977E+01
O    1.0290247816749629E-01    3.7702853324088941E+00   -4.7176318135750800E-01
H   -2.7777193601355279E+00    8.5357799071829064E+00   -8.7059438081294904E-01
C    1.3061799950947710E+00    3.3648651728882162E+00   -1.1505129476555671E+00
H    2.1907542527332344E+00    3.9214864521607242E+00   -7.9947679595605436E-01
H    1.5079569219724342E+00    2.2879565653185217E+00   -1.0335909960288694E+00
H    1.1646765065089950E+00    3.5788290103032918E+00   -2.2195381483552605E+00
Ga    3.2995576745834883E+00    5.4974922116679474E+00    2.8967067137688374E+00
O   -3.3600952673902547E+00    9.2066351720000768E+00   -4.7894086596271968E-01
H    6.8652474584339498E-02    7.3346457434783545E+00    1.6474871049492048E+00
C    6.4759645855900976E+00    7.4479420305063586E+00    1.1986014174607458E+00
H    6.8455670483280437E+00    8.3260600370740807E+00    6.4955180445334548E-01
H    9.7788008477007349E+00    1.8633946861213242E+00    1.6340033916289045E+00
H    5.8757811836936842E+00    6.7140987651766944E+00    6.4135653152691485E-01
     &END COORD
     &KIND C
       BASIS_SET DZVP-MOLOPT-SR-GTH-q4
       POTENTIAL GTH-PBE-q4
       &POTENTIAL
 2 2
  0.3384712400000000E+00 2 -0.8803673979999999E+01  0.1339210850000000E+01
 2
  0.3025757500000000E+00 1  0.9622486650000001E+01
  0.2915069400000000E+00 0
         # Potential name:  GTH-PBE-Q4  for symbol:  C
         # Potential read from the potential filename: GTH_POTENTIALS
       &END POTENTIAL
     &END KIND
     &KIND O
       BASIS_SET DZVP-MOLOPT-SR-GTH-q6
       POTENTIAL GTH-PBE-q6
       &POTENTIAL
 2 4
  0.2445543000000000E+00 2 -0.1666721480000000E+02  0.2487311320000000E+01
 2
  0.2209559200000000E+00 1  0.1833745811000000E+02
  0.2113324700000000E+00 0
         # Potential name:  GTH-PBE-Q6  for symbol:  O
         # Potential read from the potential filename: GTH_POTENTIALS
       &END POTENTIAL
     &END KIND
     &KIND H
       BASIS_SET DZVP-MOLOPT-SR-GTH-q1
       POTENTIAL GTH-PBE-q1
       &POTENTIAL
 1
  0.2000000000000000E+00 2 -0.4178900440000000E+01  0.7244633100000000E+00
 0
         # Potential name:  GTH-PBE-Q1  for symbol:  H
         # Potential read from the potential filename: GTH_POTENTIALS
       &END POTENTIAL
     &END KIND
     &KIND N
       BASIS_SET DZVP-MOLOPT-SR-GTH
       POTENTIAL GTH-PBE-q5
       &POTENTIAL
 2 3
  0.2837905100000000E+00 2 -0.1241522559000000E+02  0.1868095920000000E+01
 2
  0.2554050000000000E+00 1  0.1363026257000000E+02
  0.2454945300000000E+00 0
         # Potential name:  GTH-PBE-Q5  for symbol:  N
         # Potential read from the potential filename: GTH_POTENTIALS
       &END POTENTIAL
     &END KIND
     &KIND Ga
       BASIS_SET DZVP-MOLOPT-SR-GTH
       POTENTIAL GTH-PBE-q13
       &POTENTIAL
 2 1 10
  0.4900000000000000E+00 0
 3
  0.4167772300000000E+00 3  0.1047568975000000E+02 -0.4921768140000000E+01  0.8707055900000000E+00
  0.7770178090000000E+01 -0.2248152160000000E+01
  0.1784415450000000E+01
  0.5696265200000000E+00 2  0.1777985340000000E+01  0.1958597600000000E+00
 -0.2317443900000000E+00
  0.2381265000000000E+00 1 -0.1624868022000000E+02
         # Potential name:  GTH-PBE-Q13  for symbol:  GA
         # Potential read from the potential filename: GTH_POTENTIALS
       &END POTENTIAL
     &END KIND
     &TOPOLOGY
       NUMBER_OF_ATOMS  212
       MULTIPLE_UNIT_CELL  1 1 1
     &END TOPOLOGY
   &END SUBSYS
 &END FORCE_EVAL
