 # Version information for this restart file 
 # current date 2019-07-03 10:10:44.562
 # current working dir /lustre04/scratch/rzk/rzk/GaN-carbene/443-adatoms-both-2x2/08-CH3O-H2O-H2C-H/03-Use-0401
 # Program compiled at                              Sun Apr  7 00:48:11 EDT 2019
 # Program compiled on                          beluga2.int.ets1.calculquebec.ca
 # Program compiled for                        Beluga-Linux-x86-64-intel-openmpi
 # Source code revision number                                         svn:18619
 &GLOBAL
   PRINT_LEVEL  MEDIUM
   PROJECT_NAME TEST
   RUN_TYPE  GEO_OPT
 &END GLOBAL
 &MOTION
   &GEO_OPT
     MAX_ITER  500
     STEP_START_VAL  33
   &END GEO_OPT
 &END MOTION
 &FORCE_EVAL
   METHOD  QS
   STRESS_TENSOR  ANALYTICAL
   &DFT
     BASIS_SET_FILE_NAME BASIS_MOLOPT
     POTENTIAL_FILE_NAME GTH_POTENTIALS
     UKS  T
     SURFACE_DIPOLE_CORRECTION  T
     SURF_DIP_DIR  Z
     &SCF
       MAX_SCF  80
       EPS_SCF     5.0000000000000004E-06
       &OT  T
         PRECONDITIONER  FULL_ALL
       &END OT
       &OUTER_SCF  T
         OPTIMIZER  NONE
         EPS_SCF     5.0000000000000004E-06
         MAX_SCF  4
       &END OUTER_SCF
       &PRINT
         &RESTART  OFF
           BACKUP_COPIES  1
           &EACH
             JUST_ENERGY  0
             QS_SCF  0
             MD  20
           &END EACH
         &END RESTART
       &END PRINT
     &END SCF
     &QS
       EPS_DEFAULT     1.0000000000000000E-14
       METHOD  GPW
     &END QS
     &MGRID
       NGRIDS  5
       CUTOFF     1.2000000000000000E+03
     &END MGRID
     &XC
       DENSITY_CUTOFF     1.0000000000000000E-10
       GRADIENT_CUTOFF     1.0000000000000000E-10
       TAU_CUTOFF     1.0000000000000000E-10
       &XC_FUNCTIONAL  NO_SHORTCUT
         &PBE  T
         &END PBE
       &END XC_FUNCTIONAL
       &VDW_POTENTIAL
         POTENTIAL_TYPE  PAIR_POTENTIAL
         &PAIR_POTENTIAL
           R_CUTOFF     1.0000000000000004E+01
           TYPE  DFTD3
           PARAMETER_FILE_NAME dftd3.dat
           REFERENCE_FUNCTIONAL PBE
           EPS_CN     9.9999999999999995E-07
           CALCULATE_C9_TERM  T
           REFERENCE_C9_TERM  T
           LONG_RANGE_CORRECTION  F
           VERBOSE_OUTPUT  F
         &END PAIR_POTENTIAL
       &END VDW_POTENTIAL
     &END XC
   &END DFT
   &SUBSYS
     &CELL
       A     1.2864472766435110E+01    0.0000000000000000E+00    0.0000000000000000E+00
       B    -6.4322363581020028E+00    1.1140960178524473E+01    0.0000000000000000E+00
       C     0.0000000000000000E+00    0.0000000000000000E+00    3.2000000000000000E+01
       MULTIPLE_UNIT_CELL  1 1 1
       &CELL_REF
         A     1.2982353780853531E+01    0.0000000000000000E+00    0.0000000000000000E+00
         B    -6.4911768904267628E+00    1.1243048175136114E+01    0.0000000000000000E+00
         C     0.0000000000000000E+00    0.0000000000000000E+00    3.2000000000000000E+01
         MULTIPLE_UNIT_CELL  1 1 1
       &END CELL_REF
     &END CELL
     &COORD
N    8.4020281461905849E-02    1.9680027978892687E+00    2.4869597478516257E+00
Ga    1.1083279484119098E-01   -7.9005019780226463E-03    2.8342306114922851E+00
N    1.1450428311487279E-01   -1.9097911970839626E-02    5.0444886735719621E+00
Ga    1.0772921135775262E-01    1.7967168611284758E+00    5.7950919173755828E+00
N    9.7915622894484716E-02    1.8104347862757886E+00    7.7995640651877842E+00
Ga    9.2104999546590516E-02   -3.6470568084192384E-02    8.4373893962318345E+00
N    9.5521120125260289E-02   -4.2495256804822218E-02    1.0419710631543683E+01
Ga    1.0050615384058563E-01    1.7964616931362232E+00    1.1072513313315008E+01
N    9.6506314440536645E-02    1.7732736674917222E+00    1.3071012766953270E+01
Ga    9.4723778451377902E-02   -4.5233178932552055E-02    1.3879637928079360E+01
N    8.8670905059889185E-02   -4.6764610662110455E-02    1.6083273253788054E+01
Ga    8.7820213322424664E-02    2.0040254954663106E+00    1.6508594521403243E+01
Ga    9.3215914751339127E-02    3.6722196121288122E+00    1.3179547481620644E+00
N   -1.4142836823820064E+00    4.5357410154220990E+00    2.4957652585395209E+00
Ga   -1.5123276868829096E+00    2.7430837584200596E+00    3.3090972446347768E+00
N   -1.5214420685044754E+00    2.7473561388507814E+00    5.2484599679926829E+00
Ga   -1.5248424489655186E+00    4.6244635180234122E+00    5.8098844336099820E+00
N   -1.5110849531830735E+00    4.6080169406015612E+00    7.8077566021671041E+00
Ga   -1.4953664132845985E+00    2.7489595999352234E+00    8.4393544526845243E+00
N   -1.4994757351489494E+00    2.7463190180499275E+00    1.0435159662638313E+01
Ga   -1.5206704993523092E+00    4.6041115001043655E+00    1.1072988416320378E+01
N   -1.5405641432116137E+00    4.6111215626316007E+00    1.3066927743846971E+01
Ga   -1.5013976417388568E+00    2.7428051836090774E+00    1.3627472950807480E+01
N   -1.5422654273308776E+00    2.7283273765789708E+00    1.5586737111189843E+01
Ga   -1.3370283489130652E+00    4.4917046368085147E+00    1.6498654178252448E+01
N    8.6181802862192167E-02    3.6633506741248398E+00    1.7649905997149997E+01
N   -3.1197413154673819E+00    7.4841802489933089E+00    2.6634308450837945E+00
Ga   -3.1113180374148284E+00    5.5061537180236009E+00    2.9278032167365944E+00
N   -3.1190057586029392E+00    5.5308724318996587E+00    5.0742071696183828E+00
Ga   -3.1449860911865928E+00    7.3485581304264826E+00    5.8474249234915963E+00
N   -3.1290188723373777E+00    7.3800330857302745E+00    7.8267727362381851E+00
Ga   -3.1146845781052268E+00    5.5248597591575725E+00    8.4512154174094700E+00
N   -3.1132797001008647E+00    5.5263652665523901E+00    1.0426234501444741E+01
Ga   -3.1170114038584540E+00    7.3696587989837328E+00    1.1066015444364067E+01
N   -3.1199837996211857E+00    7.3462313828683277E+00    1.3062794879125189E+01
Ga   -3.1124587754901705E+00    5.5273725522462884E+00    1.3852773427517684E+01
N   -3.1162241418335297E+00    5.5281539595277023E+00    1.6067926869597443E+01
Ga   -3.1241470936016458E+00    7.5775396086926348E+00    1.6486111291923436E+01
Ga   -2.7275364459128117E+00    9.0107511528521034E+00    1.3979463381212303E+00
N   -4.6118922958263324E+00    1.0090061010324991E+01    2.4245170863572816E+00
Ga   -4.7057974749949656E+00    8.3972190038733654E+00    3.3280285679967858E+00
N   -4.7590857534093836E+00    8.3224324363042523E+00    5.2541375426984231E+00
Ga   -4.7571029349471070E+00    1.0219026476678710E+01    5.8183127379494479E+00
N   -4.7336297733657391E+00    1.0180558462235050E+01    7.8126593044918158E+00
Ga   -4.7285322888489514E+00    8.3283223281018888E+00    8.4480034546649421E+00
N   -4.7182854999217820E+00    8.3201263931240881E+00    1.0439617957475303E+01
Ga   -4.7433654351576537E+00    1.0181223145498965E+01    1.1073210658166738E+01
N   -4.7616638067570376E+00    1.0185203920320209E+01    1.3071183694727965E+01
Ga   -4.7166730307727640E+00    8.3162809391004178E+00    1.3624148444625634E+01
N   -4.7504967349741642E+00    8.2923752173923084E+00    1.5586303756467425E+01
Ga   -4.5805202577089181E+00    1.0075729846744311E+01    1.6492112488183061E+01
N   -3.1338121828171346E+00    9.2408356169427908E+00    1.7623395782204287E+01
N    3.2898002491793847E+00    1.8173795501605627E+00    2.6128559448747559E+00
Ga    3.2819226699720732E+00    4.2024326066303894E-02    3.2110555967890453E+00
N    3.2992097045424069E+00   -3.4626725775327806E-02    5.2242747752330150E+00
Ga    3.3044624770385602E+00    1.8250754396463822E+00    5.8322895899723264E+00
N    3.3128199559740836E+00    1.8223715949474937E+00    7.8319124629378809E+00
Ga    3.3069803728283480E+00   -3.4269755235399199E-02    8.4469336435429412E+00
N    3.3105894015245130E+00   -4.8566792982155681E-02    1.0442192981192731E+01
Ga    3.3109542124234581E+00    1.8209876883048930E+00    1.1029380744857873E+01
N    3.3115863265220931E+00    1.8129179943800566E+00    1.3005484752395462E+01
Ga    3.3114991798646951E+00   -5.8732322751865421E-02    1.3622615756619089E+01
N    3.3122777571144359E+00   -2.6690840306769444E-02    1.5586251420524217E+01
Ga    3.3075655509341710E+00    1.8086234203826965E+00    1.5866402789901530E+01
N    1.5640576692566852E+00    4.5462623606771073E+00    2.4947207187476224E+00
Ga    1.7652073358361760E+00    2.7190803286832561E+00    3.2474424686652914E+00
N    1.7002586998913640E+00    2.7605860322790687E+00    5.2397113084994436E+00
Ga    1.7148202171593310E+00    4.6224584690508514E+00    5.7943046486829539E+00
N    1.7071562637016300E+00    4.6134007521358953E+00    7.7992069138545963E+00
Ga    1.6987831958912460E+00    2.7543513635811752E+00    8.4253492530645300E+00
N    1.6951557358645870E+00    2.7504382873410722E+00    1.0431484023329912E+01
Ga    1.7259653706741744E+00    4.6073316815885601E+00    1.1065702985719232E+01
N    1.7384203999663514E+00    4.6139732126897428E+00    1.3062329852368617E+01
Ga    1.6918264843781323E+00    2.7454942529434812E+00    1.3629525519611480E+01
N    1.7204508250802917E+00    2.7289507478698116E+00    1.5589530653083942E+01
Ga    1.5141719750574598E+00    4.4932967638192984E+00    1.6500485473704693E+01
N    5.7816426221075521E-03    7.4159578401068140E+00    2.5981904861519158E+00
Ga    7.8631958541219626E-02    5.5926219458528958E+00    3.2496172778344894E+00
N    8.7611445260625934E-02    5.5650425275680950E+00    5.2318080553543274E+00
Ga    1.2527485552457812E-01    7.3909740732493612E+00    5.9115862619455974E+00
N    1.0492284621815681E-01    7.3913093956083440E+00    7.8759537132370330E+00
Ga    1.0252573513494696E-01    5.5200841801662133E+00    8.4533624397677976E+00
N    1.0006326138872849E-01    5.5163085266912848E+00    1.0444757135049377E+01
Ga    1.0068461657020251E-01    7.3859860568627456E+00    1.1028311732030639E+01
N    9.6005960395428566E-02    7.3826838418144041E+00    1.3000228260653893E+01
Ga    9.7757291087676820E-02    5.5126856745300090E+00    1.3621484780142330E+01
N    8.9179828858272844E-02    5.5442506046786875E+00    1.5579838918692149E+01
Ga    9.0125368849563348E-02    7.3820077216582591E+00    1.5855687163325712E+01
N   -1.6144703875401070E+00    1.0088581593125966E+01    2.6102595551466914E+00
Ga   -1.4505547212625476E+00    8.2891362053234410E+00    3.4880572273613972E+00
N   -1.5125926361684758E+00    8.3220291314710213E+00    5.3795004600927436E+00
Ga   -1.5060743636338609E+00    1.0230666698983436E+01    5.8385768136547940E+00
N   -1.5074521992768366E+00    1.0192707665057791E+01    7.8291420779682497E+00
Ga   -1.5205569284354046E+00    8.3300108169337062E+00    8.4449988835631284E+00
N   -1.5197837848121589E+00    8.3225114875717985E+00    1.0437515368633068E+01
Ga   -1.4949189958558435E+00    1.0184471037384659E+01    1.1062120471747324E+01
N   -1.4817644502828502E+00    1.0186491380824240E+01    1.3060877677815862E+01
Ga   -1.5229242218069658E+00    8.3183245416224008E+00    1.3616833720621562E+01
N   -1.5032958427410237E+00    8.3011604630777729E+00    1.5578961926686528E+01
Ga   -1.6879988343313761E+00    1.0064197612466366E+01    1.6486420701100769E+01
N    6.5076598827257559E+00    1.9261097786984784E+00    2.5257687352554554E+00
Ga    6.5268207196950989E+00   -3.6659715163665105E-02    2.9097765948395682E+00
N    6.5137328397143524E+00   -2.9095393533744535E-02    5.0742434043674347E+00
Ga    6.5233571629319718E+00    1.7983556988394911E+00    5.7998556050385384E+00
N    6.5353767206682472E+00    1.8174267651683358E+00    7.8028326246744495E+00
Ga    6.5390408922062786E+00   -3.1843287082821123E-02    8.4386152385636262E+00
N    6.5362708540325238E+00   -3.9343488607199280E-02    1.0421594294683961E+01
Ga    6.5291456600514302E+00    1.7992359194883762E+00    1.1063056551894968E+01
N    6.5262145409937355E+00    1.7750274600097735E+00    1.3064170070896092E+01
Ga    6.5282977079046356E+00   -5.3002369976695697E-02    1.3846900248424998E+01
N    6.5230441785883881E+00   -5.9304692407702156E-02    1.6068096722080583E+01
Ga    6.5213808324050566E+00    1.9397968539590258E+00    1.6431322479310253E+01
Ga    6.4401017892446868E+00    3.5892957954936224E+00    1.2173149453417837E+00
N    4.9889476850187329E+00    4.5497787921436510E+00    2.5008392491520377E+00
Ga    4.8195920065998887E+00    2.6929054826466716E+00    3.2454414847720909E+00
N    4.9232872733377500E+00    2.7533505968363410E+00    5.2379107479227009E+00
Ga    4.8748449890237104E+00    4.6129839196123470E+00    5.8022392824360978E+00
N    4.9148662945857557E+00    4.6098940138269739E+00    7.7993621274758977E+00
Ga    4.9267546298187375E+00    2.7516294175898586E+00    8.4281220856468302E+00
N    4.9317466572209918E+00    2.7496262601008969E+00    1.0432015849451034E+01
Ga    4.9095718827101207E+00    4.6100022515499122E+00    1.1058039703406006E+01
N    4.8878308411180207E+00    4.6165215652665959E+00    1.3059935743485106E+01
Ga    4.9290199756062485E+00    2.7465419021442923E+00    1.3613328161452992E+01
N    4.9075834449631985E+00    2.7336047224778595E+00    1.5587278175686949E+01
Ga    5.0207487096691130E+00    4.5317193462114203E+00    1.6432998073827292E+01
N    6.5165106914805992E+00    3.6665988149418336E+00    1.7546214681203811E+01
N    3.2603269870245648E+00    7.4264162938115037E+00    2.4827039349431668E+00
N    3.3001269477421968E+00    5.5209031250010572E+00    5.0557702997736209E+00
Ga    3.2839786093273635E+00    7.3596968960544267E+00    5.7582404382118639E+00
N    3.3117087628665454E+00    7.3883871029281494E+00    7.7683788149824116E+00
Ga    3.3108703069712937E+00    5.5386752146043436E+00    8.4271284654502292E+00
N    3.3170201311542211E+00    5.5333392193175523E+00    1.0407596091908863E+01
Ga    3.3183872321133334E+00    7.3688929188573233E+00    1.1065947887549692E+01
N    3.3143940003772654E+00    7.3458420375319813E+00    1.3059586090771935E+01
Ga    3.3066738288004638E+00    5.5285368691719814E+00    1.3851526317473700E+01
N    3.2940220672213774E+00    5.5306324178354238E+00    1.6066471694927909E+01
Ga    3.3021839586056143E+00    7.5888331972718763E+00    1.6496839303799820E+01
Ga    2.9506333603317310E+00    9.3891190740983994E+00    6.9844604188794346E-01
N    1.7405295197516033E+00    1.0150413186879398E+01    2.4691392245544872E+00
Ga    1.6363070841983609E+00    8.3174010116443480E+00    3.1519975636760065E+00
N    1.6761242781889918E+00    8.3236818204112701E+00    5.1768869407799789E+00
Ga    1.6751050894613611E+00    1.0189560269040035E+01    5.7738611866715708E+00
N    1.7041879106548479E+00    1.0179047139265963E+01    7.7892812023818978E+00
Ga    1.7245123023423552E+00    8.3307084971883238E+00    8.4436641458423054E+00
N    1.7217904993146149E+00    8.3209418128280159E+00    1.0436440200409589E+01
Ga    1.6956178780100244E+00    1.0181120060735383E+01    1.1065023942706402E+01
N    1.6749378709496054E+00    1.0184603495398695E+01    1.3058937261504079E+01
Ga    1.7150501376844165E+00    8.3158348504800355E+00    1.3618404191471498E+01
N    1.6809232887720522E+00    8.3006189767577734E+00    1.5576188013635447E+01
Ga    1.8768214596904269E+00    1.0059340504485341E+01    1.6496680496253600E+01
N    3.3082442804120040E+00    9.2406176171045935E+00    1.7647016432816319E+01
N    9.7394346972812649E+00    1.8312326499386606E+00    2.6557670201283874E+00
Ga    9.7371931433952312E+00   -5.4966713280941180E-02    3.1946512269571636E+00
N    9.7359967824019904E+00   -2.2254926850575209E-02    5.1805766277430054E+00
Ga    9.7449245308157693E+00    1.8109167188501729E+00    5.8690913505310514E+00
N    9.7486462913016982E+00    1.8186635494501644E+00    7.8395745489660902E+00
Ga    9.7502962754088642E+00   -5.2973181364834969E-02    8.4296410011049545E+00
N    9.7530277478117480E+00   -5.3718328754837688E-02    1.0425913160090296E+01
Ga    9.7495926989483284E+00    1.8129782315111438E+00    1.1025733385343845E+01
N    9.7423961445828056E+00    1.8093936481198907E+00    1.2999391377479386E+01
Ga    9.7448910791210643E+00   -6.0439391476557143E-02    1.3623934159304419E+01
N    9.7334498056020333E+00   -2.5885233979143999E-02    1.5582814319368486E+01
Ga    9.7355182280114185E+00    1.8074609708430078E+00    1.5864204263449000E+01
N    8.0457024070341312E+00    4.5501917407095815E+00    2.5282618631531455E+00
Ga    8.1273713439778952E+00    2.7452777317277532E+00    3.2797094741295925E+00
N    8.1453551962901152E+00    2.7446407252513589E+00    5.2313457185894112E+00
Ga    8.1639112450795501E+00    4.6164513533915956E+00    5.8043456952175081E+00
N    8.1451320219018832E+00    4.6100894966189188E+00    7.7985754983474926E+00
Ga    8.1310888279754021E+00    2.7538098758177809E+00    8.4407506312510190E+00
N    8.1322111976506228E+00    2.7510645579037116E+00    1.0434605388026100E+01
Ga    8.1560351847261430E+00    4.6101752954678812E+00    1.1068805021446563E+01
N    8.1695909989959006E+00    4.6148333814384266E+00    1.3067852132048460E+01
Ga    8.1242245294201947E+00    2.7437233426519652E+00    1.3611913742506628E+01
N    8.1351818006956123E+00    2.7321804194204606E+00    1.5586345685170837E+01
Ga    8.0150715405158657E+00    4.5269536940174833E+00    1.6431630400939401E+01
N    6.6853882613369215E+00    7.2929538320914382E+00    2.4994528152924120E+00
Ga    6.4954583222651623E+00    5.4626552182744987E+00    3.3025975548375643E+00
N    6.5193586225320352E+00    5.5524171142458609E+00    5.2382739463100156E+00
Ga    6.4959029087645623E+00    7.3995975621309018E+00    5.8659539991986609E+00
N    6.5189281318929293E+00    7.3945713117857528E+00    7.8356759378332939E+00
Ga    6.5276999899330770E+00    5.5244379984905203E+00    8.4335543607986878E+00
N    6.5357353407275243E+00    5.5191033731104691E+00    1.0431280573771776E+01
Ga    6.5295774632124699E+00    7.3848984775905775E+00    1.1028336761180384E+01
N    6.5291262551712945E+00    7.3794051386618795E+00    1.3001464454201489E+01
Ga    6.5280455744444019E+00    5.5113757010367568E+00    1.3614868044986952E+01
N    6.5218038810938808E+00    5.5299699476434352E+00    1.5588381771708891E+01
Ga    6.5216674297775459E+00    7.3784049423415601E+00    1.5866433755871768E+01
N    4.8771357931014778E+00    1.0180159273656015E+01    2.4806134911632109E+00
Ga    4.6500098837241568E+00    8.4595228751256766E+00    3.2359124338527847E+00
N    4.9171185396720398E+00    8.3189689258832384E+00    5.1737346743210342E+00
Ga    4.9515146837200099E+00    1.0213381711484118E+01    5.7555418490540715E+00
N    4.9297738318084123E+00    1.0179625081259269E+01    7.7669726764580522E+00
Ga    4.9046293216856185E+00    8.3300730084857975E+00    8.4272868643873036E+00
N    4.9134025249666102E+00    8.3229473112328769E+00    1.0424951147636120E+01
Ga    4.9405190024060701E+00    1.0179577301235295E+01    1.1073716801061021E+01
N    4.9533445531512541E+00    1.0184477005720375E+01    1.3069274891527296E+01
Ga    4.9101904411642430E+00    8.3162060096262227E+00    1.3625890680840630E+01
N    4.9326824317137614E+00    8.2929958128175265E+00    1.5585546006455731E+01
Ga    4.7462049492053229E+00    1.0069036418526679E+01    1.6503953476900090E+01
O   -2.0180243908631813E-02    3.7688193152896781E+00   -4.9639671856767081E-01
H   -1.5507592891335307E+00    7.1681936364269285E+00    3.8086320441512653E-02
C    1.1835132156615578E+00    3.5312715747706265E+00   -1.2460035750734995E+00
H    2.0709699562650239E+00    3.9953769715740681E+00   -7.8491351667222631E-01
H    1.3854008112919172E+00    2.4553974954171491E+00   -1.3691634952106331E+00
H    1.0482591227857341E+00    3.9732936152781209E+00   -2.2435444784200289E+00
Ga    3.2576902474752587E+00    5.5134259147988658E+00    2.8814108910742657E+00
O   -1.2221521998608320E+00    7.9903313996954397E+00    4.5426222027430935E-01
H   -4.5651391098663807E-01    7.5794120050642695E+00    1.4993218893462030E+00
C    6.3380877658127002E+00    7.4593478249318519E+00    1.2675410632888402E+00
H    6.6335733682063633E+00    8.3661167221516859E+00    7.1283015224910262E-01
H    9.7708735284188393E+00    1.8914772904173687E+00    1.6325023842701265E+00
H    5.7036838618262555E+00    6.7153516244489575E+00    7.6202152323617522E-01
     &END COORD
     &KIND C
       BASIS_SET DZVP-MOLOPT-SR-GTH-q4
       POTENTIAL GTH-PBE-q4
       &POTENTIAL
 2 2
  0.3384712400000000E+00 2 -0.8803673979999999E+01  0.1339210850000000E+01
 2
  0.3025757500000000E+00 1  0.9622486650000001E+01
  0.2915069400000000E+00 0
         # Potential name:  GTH-PBE-Q4  for symbol:  C
         # Potential read from the potential filename: GTH_POTENTIALS
       &END POTENTIAL
     &END KIND
     &KIND O
       BASIS_SET DZVP-MOLOPT-SR-GTH-q6
       POTENTIAL GTH-PBE-q6
       &POTENTIAL
 2 4
  0.2445543000000000E+00 2 -0.1666721480000000E+02  0.2487311320000000E+01
 2
  0.2209559200000000E+00 1  0.1833745811000000E+02
  0.2113324700000000E+00 0
         # Potential name:  GTH-PBE-Q6  for symbol:  O
         # Potential read from the potential filename: GTH_POTENTIALS
       &END POTENTIAL
     &END KIND
     &KIND H
       BASIS_SET DZVP-MOLOPT-SR-GTH-q1
       POTENTIAL GTH-PBE-q1
       &POTENTIAL
 1
  0.2000000000000000E+00 2 -0.4178900440000000E+01  0.7244633100000000E+00
 0
         # Potential name:  GTH-PBE-Q1  for symbol:  H
         # Potential read from the potential filename: GTH_POTENTIALS
       &END POTENTIAL
     &END KIND
     &KIND N
       BASIS_SET DZVP-MOLOPT-SR-GTH
       POTENTIAL GTH-PBE-q5
       &POTENTIAL
 2 3
  0.2837905100000000E+00 2 -0.1241522559000000E+02  0.1868095920000000E+01
 2
  0.2554050000000000E+00 1  0.1363026257000000E+02
  0.2454945300000000E+00 0
         # Potential name:  GTH-PBE-Q5  for symbol:  N
         # Potential read from the potential filename: GTH_POTENTIALS
       &END POTENTIAL
     &END KIND
     &KIND Ga
       BASIS_SET DZVP-MOLOPT-SR-GTH
       POTENTIAL GTH-PBE-q13
       &POTENTIAL
 2 1 10
  0.4900000000000000E+00 0
 3
  0.4167772300000000E+00 3  0.1047568975000000E+02 -0.4921768140000000E+01  0.8707055900000000E+00
  0.7770178090000000E+01 -0.2248152160000000E+01
  0.1784415450000000E+01
  0.5696265200000000E+00 2  0.1777985340000000E+01  0.1958597600000000E+00
 -0.2317443900000000E+00
  0.2381265000000000E+00 1 -0.1624868022000000E+02
         # Potential name:  GTH-PBE-Q13  for symbol:  GA
         # Potential read from the potential filename: GTH_POTENTIALS
       &END POTENTIAL
     &END KIND
     &TOPOLOGY
       NUMBER_OF_ATOMS  212
       MULTIPLE_UNIT_CELL  1 1 1
     &END TOPOLOGY
   &END SUBSYS
 &END FORCE_EVAL
