 # Version information for this restart file 
 # current date 2019-05-28 05:23:31.519
 # current working dir /lustre03/project/6004141/rzk/GaN-carbene/334-native/08-2Methanol-Htransfer/02-NH-constraint/1.04
 # Program compiled at                              Sun Apr  7 00:48:11 EDT 2019
 # Program compiled on                          beluga2.int.ets1.calculquebec.ca
 # Program compiled for                        Beluga-Linux-x86-64-intel-openmpi
 # Source code revision number                                         svn:18619
 &GLOBAL
   PRINT_LEVEL  MEDIUM
   PROJECT_NAME TEST
   RUN_TYPE  GEO_OPT
 &END GLOBAL
 &MOTION
   &GEO_OPT
     MAX_ITER  500
     STEP_START_VAL  245
   &END GEO_OPT
   &CONSTRAINT
     &COLLECTIVE
       COLVAR  1
       INTERMOLECULAR  T
       TARGET     1.9653151782010687E+00
       &RESTRAINT
         K     1.0000000000000001E-01
       &END RESTRAINT
     &END COLLECTIVE
     &COLVAR_RESTART
           1.9653151782010687E+00
     &END COLVAR_RESTART
   &END CONSTRAINT
 &END MOTION
 &FORCE_EVAL
   METHOD  QS
   STRESS_TENSOR  ANALYTICAL
   &DFT
     BASIS_SET_FILE_NAME BASIS_MOLOPT
     POTENTIAL_FILE_NAME GTH_POTENTIALS
     &SCF
       MAX_SCF  100
       EPS_SCF     5.0000000000000004E-06
       &OT  T
         PRECONDITIONER  FULL_ALL
       &END OT
       &OUTER_SCF  T
         OPTIMIZER  NONE
         EPS_SCF     5.0000000000000004E-06
         MAX_SCF  4
       &END OUTER_SCF
       &PRINT
         &RESTART  OFF
           BACKUP_COPIES  1
           &EACH
             JUST_ENERGY  0
             QS_SCF  0
             MD  20
           &END EACH
         &END RESTART
       &END PRINT
     &END SCF
     &QS
       EPS_DEFAULT     1.0000000000000000E-14
       ALMO_SCF  F
       METHOD  GPW
     &END QS
     &MGRID
       NGRIDS  5
       CUTOFF     1.2000000000000000E+03
     &END MGRID
     &XC
       DENSITY_CUTOFF     1.0000000000000000E-10
       GRADIENT_CUTOFF     1.0000000000000000E-10
       TAU_CUTOFF     1.0000000000000000E-10
       &XC_FUNCTIONAL  NO_SHORTCUT
         &PBE  T
         &END PBE
       &END XC_FUNCTIONAL
       &VDW_POTENTIAL
         POTENTIAL_TYPE  PAIR_POTENTIAL
         &PAIR_POTENTIAL
           R_CUTOFF     1.0000000000000005E+01
           TYPE  DFTD3
           PARAMETER_FILE_NAME dftd3.dat
           REFERENCE_FUNCTIONAL PBE
           EPS_CN     9.9999999999999995E-07
           CALCULATE_C9_TERM  T
           REFERENCE_C9_TERM  T
           LONG_RANGE_CORRECTION  F
           VERBOSE_OUTPUT  F
         &END PAIR_POTENTIAL
       &END VDW_POTENTIAL
     &END XC
   &END DFT
   &SUBSYS
     &CELL
       A     9.7367653356401487E+00    0.0000000000000000E+00    0.0000000000000000E+00
       B    -4.8591341382960209E+00    8.4162672083210595E+00    0.0000000000000000E+00
       C     0.0000000000000000E+00    0.0000000000000000E+00    3.0744000000000000E+01
       MULTIPLE_UNIT_CELL  1 1 1
       &CELL_REF
         A     9.5580000000000052E+00    0.0000000000000000E+00    0.0000000000000000E+00
         B    -4.7790000000000026E+00    8.2774708093716640E+00    0.0000000000000000E+00
         C     0.0000000000000000E+00    0.0000000000000000E+00    3.0744000000000000E+01
         MULTIPLE_UNIT_CELL  1 1 1
       &END CELL_REF
     &END CELL
     &COORD
Ga    5.9732177529453027E-03    1.0798690529414892E-02   -5.4684189734744437E-01
N    7.9178011971519462E-03    1.8847638600676555E+00    6.0947022932341588E-01
Ga    7.2965850273547890E-03    1.8521602777346871E+00    2.6373232939221118E+00
N    4.0730234980255464E-03    8.2079499463839651E-03    3.2705135123232782E+00
Ga    4.0250178156877106E-03    8.8464364715913780E-03    5.2585693401342644E+00
N    7.8176316584645991E-03    1.8824335056036365E+00    5.8509901374305597E+00
Ga    7.1045288601836055E-03    1.8800703807164232E+00    7.8474727169693210E+00
N    1.8086361297260814E-03    7.2704127450569731E-03    8.4557517281707018E+00
Ga   -9.4387856331248753E-03    4.7551295472717560E-03    1.0453371799331881E+01
N    5.2121716778978054E-03    1.8834914364423680E+00    1.1045553105227727E+01
Ga    3.3408981179129274E-03    1.8873402585916728E+00    1.3031981381552043E+01
N    2.5251303060878404E-03    3.0606342336065032E-02    1.3665051677930753E+01
Ga   -1.4286910772254880E-02    5.2517584274259566E-02    1.5671725236280183E+01
N   -1.5584677529739518E-02    1.9542198060258400E+00    1.6234426194957230E+01
Ga   -7.9157910332100526E-02    1.9178929930611761E+00    1.8225144362714708E+01
N   -6.0201990037905252E-02    1.6325872165455324E-01    1.8869609757263408E+01
Ga   -1.6143833836078560E+00    2.8138942520840242E+00    3.2336465166151651E-01
N   -1.6170299525753080E+00    4.6832504120266716E+00    6.0890139822061773E-01
Ga   -1.5883178551497315E+00    4.6986934875057580E+00    2.6369901926504093E+00
N   -1.6154314617746213E+00    2.8134730758870807E+00    3.2326206767826449E+00
Ga   -1.6151974579830037E+00    2.8135010345011229E+00    5.2414677815220463E+00
N   -1.6144771817864889E+00    4.6850195455841659E+00    5.8490300767812755E+00
Ga   -1.6135872910627727E+00    4.6861035185428639E+00    7.8443279739157905E+00
N   -1.6159764763569020E+00    2.8152622593785446E+00    8.4480874897409208E+00
Ga   -1.6143194062275570E+00    2.8165106058108709E+00    1.0435731576330335E+01
N   -1.6132194626059773E+00    4.6929958444947451E+00    1.1043332700530499E+01
Ga   -1.5966822999226689E+00    4.6899871883479944E+00    1.3018599457542710E+01
N   -1.6207750645126811E+00    2.8325027299099323E+00    1.3619447779896861E+01
Ga   -1.6202913561105365E+00    2.8620861682120413E+00    1.5591048384790934E+01
N   -1.6449895190918198E+00    4.7188557738836954E+00    1.6324656723998505E+01
Ga   -1.7527428251341703E+00    4.8743237102925026E+00    1.8359493263065382E+01
N   -1.6974674386714659E+00    2.9453014310254990E+00    1.8788156325034532E+01
Ga   -3.2350324799193908E+00    5.6202243896765678E+00    3.2389078454085346E-01
N   -3.2274490953759871E+00    7.4897979638432348E+00    6.0878855699944234E-01
Ga   -3.2563239106675339E+00    7.5051471798998977E+00    2.6368369282474999E+00
N   -3.2351290124678460E+00    5.6191508503941305E+00    3.2308492068850896E+00
Ga   -3.2352065571029565E+00    5.6195048897679252E+00    5.2390657751808511E+00
N   -3.2306979043939856E+00    7.4896056378829758E+00    5.8496218993947569E+00
Ga   -3.2350802977366349E+00    7.4889825213904597E+00    7.8451948440868753E+00
N   -3.2368531775409335E+00    5.6181478523504174E+00    8.4523719871377097E+00
Ga   -3.2426076856963757E+00    5.6185921209812024E+00    1.0442438887160495E+01
N   -3.2384699981330338E+00    7.4883828784095119E+00    1.1054886027939837E+01
Ga   -3.2575100266913601E+00    7.5126852383441189E+00    1.3037653292821368E+01
N   -3.2379381337293784E+00    5.6160171499388385E+00    1.3673160119285868E+01
Ga   -3.0287944005718552E+00    5.7939829597138814E+00    1.5589019675764543E+01
N   -3.2801338365958617E+00    7.5148762969835134E+00    1.6315326390672659E+01
Ga   -3.3126089082098886E+00    7.6288196036856215E+00    1.8507881800648150E+01
N   -3.2081327995486539E+00    5.8242220149286767E+00    1.9108626402076410E+01
Ga    3.2506337874517386E+00    9.0009350874954812E-03    3.2326841264467338E-01
N    3.2481895508727283E+00    1.8782840561403096E+00    6.0904820922584446E-01
Ga    3.2764695168979947E+00    1.8935900621103319E+00    2.6371281228985088E+00
N    3.2500318199897182E+00    8.2124645498292716E-03    3.2321002815409248E+00
Ga    3.2499627032468998E+00    8.9730074788357383E-03    5.2407725760048045E+00
N    3.2502236847081276E+00    1.8788370767683966E+00    5.8518291264491449E+00
Ga    3.2493952542947753E+00    1.8792656512937795E+00    7.8487555368292927E+00
N    3.2475172827237562E+00    5.3237893267352905E-03    8.4489213872991833E+00
Ga    3.2446027595405997E+00    2.7906820779882505E-03    1.0436874546870557E+01
N    3.2418892194394004E+00    1.8762644409823759E+00    1.1034937535677148E+01
Ga    3.2160287572844970E+00    1.8689032654807054E+00    1.3010818003119013E+01
N    3.2346956948864900E+00    5.5877779664366047E-03    1.3654584605938334E+01
Ga    3.2199520023697836E+00   -1.6250813208540438E-02    1.5655758381456007E+01
N    3.1917095724565909E+00    1.8759696302027806E+00    1.6206866195663491E+01
Ga    2.9718186439248644E+00    1.7709857162707683E+00    1.8147935037913058E+01
N    3.2170304600130404E+00    1.2814141713119534E-01    1.8904300717270427E+01
Ga    1.6300373481117327E+00    2.8144562003099005E+00    3.2325602622676131E-01
N    1.6379437943026249E+00    4.6839093882225429E+00    6.0855498287660936E-01
Ga    1.6091206713769535E+00    4.6989586137447921E+00    2.6365438307307865E+00
N    1.6302975629172536E+00    2.8137873891013996E+00    3.2320260443192699E+00
Ga    1.6306384042212192E+00    2.8142019441553376E+00    5.2404869865596035E+00
N    1.6365746730397874E+00    4.6849485204412824E+00    5.8494386693829776E+00
Ga    1.6365891546705511E+00    4.6863267576188106E+00    7.8458519409300846E+00
N    1.6281884629981176E+00    2.8168545921464077E+00    8.4529451759190977E+00
Ga    1.6240001582572048E+00    2.8286874519562333E+00    1.0445654957311316E+01
N    1.6351588805949877E+00    4.6936830555626248E+00    1.1075436713909545E+01
Ga    1.6787760622858616E+00    4.7238564151892231E+00    1.3093987821817221E+01
N    1.6218212208435376E+00    2.8300925295331867E+00    1.3642254039312142E+01
Ga    1.5881585511000735E+00    2.8814727561295008E+00    1.5613043749797153E+01
N    1.5513011551772269E+00    4.6740863631878833E+00    1.6391954452691859E+01
Ga    1.5645682052745471E+00    4.8070893489832303E+00    1.8443154803618775E+01
N    1.5750547067277216E+00    2.8770953875911727E+00    1.8918492025665266E+01
Ga    1.1106043490521050E-02    5.6196784037346168E+00   -5.4645463249868242E-01
N    1.3937388609742949E-02    7.4956593620206347E+00    6.0865319940562790E-01
Ga    1.3369746281429820E-02    7.4629294539007240E+00    2.6366554740972661E+00
N    1.0715337339952587E-02    5.6190345028161479E+00    3.2701874657734709E+00
Ga    1.1525217589689128E-02    5.6197883217063218E+00    5.2582322654974281E+00
N    1.3881602811362883E-02    7.4938783118176930E+00    5.8506207744651988E+00
Ga    1.4919888650672831E-02    7.4908310286841893E+00    7.8471441604606742E+00
N    1.1664448871009377E-02    5.6178185537047653E+00    8.4508453837831237E+00
Ga    1.9675857368292575E-02    5.6212406999346349E+00    1.0445019075471871E+01
N    4.9781187109943191E-03    7.4900427021902614E+00    1.1052657586894460E+01
Ga    5.7711517194114978E-03    7.4863554733198665E+00    1.3043641279203635E+01
N    6.3537018659587541E-03    5.6198186928038094E+00    1.3681860623065406E+01
Ga    2.8013442976387061E-02    5.6535655107367768E+00    1.5680171957754084E+01
N   -1.0037532144001613E-02    7.5104180670198026E+00    1.6273892776244328E+01
Ga   -3.3290933151299044E-02    7.6958214576423476E+00    1.8338835706998353E+01
N   -6.7796388309669026E-02    5.7665245472411053E+00    1.8910096113258213E+01
Ga    6.4954984755102956E+00    9.3236122892672944E-03    3.2298236406451569E-01
N    6.5030906286205434E+00    1.8788321052158328E+00    6.0872700803339719E-01
Ga    6.4744283244147480E+00    1.8937437593975517E+00    2.6368795641598406E+00
N    6.4958774226505112E+00    8.1398012303440983E-03    3.2315384714729811E+00
Ga    6.4964526941240770E+00    8.4682048714000702E-03    5.2401826474466349E+00
N    6.5007656268701526E+00    1.8777429591865402E+00    5.8531757111902358E+00
Ga    6.4980055624158721E+00    1.8747564316234886E+00    7.8509440922128979E+00
N    6.4963392979680465E+00    3.5240466422693964E-03    8.4601832004033177E+00
Ga    6.5032413475945043E+00   -5.7748604277727614E-03    1.0458403420428134E+01
N    6.5022097777096741E+00    1.8768274871633277E+00    1.1032794752589197E+01
Ga    6.5135748845645143E+00    1.8580999043128283E+00    1.3009604396816664E+01
N    6.4848193839093549E+00   -2.0773567709023938E-03    1.3632002440698534E+01
Ga    6.4922837000838083E+00   -2.9461959826173039E-02    1.5625624452523509E+01
N    6.5228984930434200E+00    1.8669636225414434E+00    1.6122993680310756E+01
Ga    6.4476124336982963E+00    2.0010467342523874E+00    1.8071961392821390E+01
N    6.3687774539897282E+00    2.7995795878120650E-01    1.8816680445443019E+01
Ga    4.8758995518376897E+00    2.8146148907525377E+00   -5.4665483046110364E-01
N    4.8793923508589394E+00    4.6898973751639348E+00    6.0845057755660914E-01
Ga    4.8787082187925215E+00    4.6567189385037739E+00    2.6365250965681195E+00
N    4.8758248465244503E+00    2.8131030508074448E+00    3.2714320647736379E+00
Ga    4.8761425315400277E+00    2.8131608454651440E+00    5.2601233075375804E+00
N    4.8788280956619401E+00    4.6878643501023092E+00    5.8503470349254014E+00
Ga    4.8761046297141508E+00    4.6854115867386250E+00    7.8468688862660301E+00
N    4.8743310762634691E+00    2.8129081370518829E+00    8.4534330811188525E+00
Ga    4.8740978647477435E+00    2.8160623759174981E+00    1.0448055336335356E+01
N    4.8823993559882020E+00    4.6841012892249898E+00    1.1069019177892828E+01
Ga    4.8315257909087874E+00    4.7033077213927399E+00    1.3072301204635400E+01
N    4.8636336311745607E+00    2.7897393052601860E+00    1.3574299757563987E+01
Ga    4.8683323282511326E+00    2.6069163121797261E+00    1.5483005779718898E+01
N    4.7958849706202153E+00    4.1931037874318111E+00    1.6628816724920789E+01
Ga    4.7730396651082891E+00    5.1493865731931390E+00    1.9260128595386053E+01
N    5.0883398776170541E+00    3.8067455282369167E+00    1.7799548015427970E+01
Ga    3.2569891718844945E+00    5.6194765148010744E+00    3.2309815003363235E-01
N    3.2547538765605148E+00    7.4891383914810490E+00    6.0751803998939491E-01
Ga    3.2831920951494782E+00    7.5047901377099739E+00    2.6357204808108428E+00
N    3.2564975874313449E+00    5.6192802962756287E+00    3.2304895283944282E+00
Ga    3.2570824687643802E+00    5.6196206226516958E+00    5.2387497871819120E+00
N    3.2571159721051086E+00    7.4890694259314881E+00    5.8514470822437836E+00
Ga    3.2568395396967813E+00    7.4865363819318205E+00    7.8488917817378221E+00
N    3.2571216202383018E+00    5.6175429056205006E+00    8.4607273992513345E+00
Ga    3.2576006533132018E+00    5.6225240783208355E+00    1.0460889883577160E+01
N    3.2616081613930938E+00    7.4837005938334018E+00    1.1086761585566650E+01
Ga    3.2666237830151772E+00    7.4397384552116934E+00    1.3120745012125370E+01
N    3.2800603322406552E+00    5.6011921300235086E+00    1.3784515163247113E+01
Ga    3.2443269024433663E+00    5.6839306469428283E+00    1.6332852466914339E+01
N    3.2569012606485677E+00    7.6076381969983959E+00    1.6280261102750618E+01
Ga    3.1586567469613014E+00    7.7881169307241596E+00    1.8389737828197841E+01
N    3.1822172885375264E+00    5.8417165290560522E+00    1.8449138023929631E+01
O    1.7775033060796677E+00    4.0794086801272682E+00    2.0965018867995088E+01
H   -9.3244250992392488E-02    5.7929619731972259E+00    1.9937727793717418E+01
C    1.5422568087610169E+00    2.7947518994165104E+00    2.0417175649434053E+01
H   -1.7657972467912961E+00    2.8034100108610884E+00    1.9808085853014454E+01
H    2.2772791092410829E+00    2.0556244499598186E+00    2.0773052446985158E+01
H    5.4531526242045369E-01    2.4664832065022391E+00    2.0749657512808035E+01
O    4.3563746771359639E+00    4.0757416041141141E+00    2.0740519172942054E+01
H    2.7855750218991497E+00    4.1558966587547195E+00    2.1038676288309485E+01
C    5.3888644447010652E+00    3.5362962717764668E+00    2.1576419081474306E+01
H    5.6029728810392561E+00    2.4898405006850499E+00    2.1299416970715580E+01
H    6.3173025248044015E+00    4.1262080203200959E+00    2.1500287111145568E+01
H    5.0579940254595863E+00    3.5560709622918387E+00    2.2625442310851231E+01
     &END COORD
     &KIND C
       BASIS_SET DZVP-MOLOPT-SR-GTH-q4
       POTENTIAL GTH-PBE-q4
       &POTENTIAL
 2 2
  0.3384712400000000E+00 2 -0.8803673979999999E+01  0.1339210850000000E+01
 2
  0.3025757500000000E+00 1  0.9622486650000001E+01
  0.2915069400000000E+00 0
         # Potential name:  GTH-PBE-Q4  for symbol:  C
         # Potential read from the potential filename: GTH_POTENTIALS
       &END POTENTIAL
     &END KIND
     &KIND O
       BASIS_SET DZVP-MOLOPT-SR-GTH-q6
       POTENTIAL GTH-PBE-q6
       &POTENTIAL
 2 4
  0.2445543000000000E+00 2 -0.1666721480000000E+02  0.2487311320000000E+01
 2
  0.2209559200000000E+00 1  0.1833745811000000E+02
  0.2113324700000000E+00 0
         # Potential name:  GTH-PBE-Q6  for symbol:  O
         # Potential read from the potential filename: GTH_POTENTIALS
       &END POTENTIAL
     &END KIND
     &KIND H
       BASIS_SET DZVP-MOLOPT-SR-GTH-q1
       POTENTIAL GTH-PBE-q1
       &POTENTIAL
 1
  0.2000000000000000E+00 2 -0.4178900440000000E+01  0.7244633100000000E+00
 0
         # Potential name:  GTH-PBE-Q1  for symbol:  H
         # Potential read from the potential filename: GTH_POTENTIALS
       &END POTENTIAL
     &END KIND
     &KIND N
       BASIS_SET DZVP-MOLOPT-SR-GTH-q5
       POTENTIAL GTH-PBE-q5
       &POTENTIAL
 2 3
  0.2837905100000000E+00 2 -0.1241522559000000E+02  0.1868095920000000E+01
 2
  0.2554050000000000E+00 1  0.1363026257000000E+02
  0.2454945300000000E+00 0
         # Potential name:  GTH-PBE-Q5  for symbol:  N
         # Potential read from the potential filename: GTH_POTENTIALS
       &END POTENTIAL
     &END KIND
     &KIND Ga
       BASIS_SET DZVP-MOLOPT-SR-GTH-q13
       POTENTIAL GTH-PBE-q13
       &POTENTIAL
 2 1 10
  0.4900000000000000E+00 0
 3
  0.4167772300000000E+00 3  0.1047568975000000E+02 -0.4921768140000000E+01  0.8707055900000000E+00
  0.7770178090000000E+01 -0.2248152160000000E+01
  0.1784415450000000E+01
  0.5696265200000000E+00 2  0.1777985340000000E+01  0.1958597600000000E+00
 -0.2317443900000000E+00
  0.2381265000000000E+00 1 -0.1624868022000000E+02
         # Potential name:  GTH-PBE-Q13  for symbol:  GA
         # Potential read from the potential filename: GTH_POTENTIALS
       &END POTENTIAL
     &END KIND
     &TOPOLOGY
       COORD_FILE_NAME ../start-first.xyz
       COORD_FILE_FORMAT  XYZ
       NUMBER_OF_ATOMS  156
       MULTIPLE_UNIT_CELL  1 1 1
     &END TOPOLOGY
     &COLVAR
       &DISTANCE
         ATOMS  32 148
       &END DISTANCE
       &PRINT
       &END PRINT
     &END COLVAR
   &END SUBSYS
 &END FORCE_EVAL
