 # Version information for this restart file 
 # current date 2019-05-28 05:24:11.798
 # current working dir /lustre03/project/6004141/rzk/GaN-carbene/334-native/08-2Methanol-Htransfer/02-NH-constraint/1.04
 # Program compiled at                              Sun Apr  7 00:48:11 EDT 2019
 # Program compiled on                          beluga2.int.ets1.calculquebec.ca
 # Program compiled for                        Beluga-Linux-x86-64-intel-openmpi
 # Source code revision number                                         svn:18619
 &GLOBAL
   PRINT_LEVEL  MEDIUM
   PROJECT_NAME TEST
   RUN_TYPE  GEO_OPT
 &END GLOBAL
 &MOTION
   &GEO_OPT
     MAX_ITER  500
     STEP_START_VAL  246
   &END GEO_OPT
   &CONSTRAINT
     &COLLECTIVE
       COLVAR  1
       INTERMOLECULAR  T
       TARGET     1.9653151782010687E+00
       &RESTRAINT
         K     1.0000000000000001E-01
       &END RESTRAINT
     &END COLLECTIVE
     &COLVAR_RESTART
           1.9653151782010687E+00
     &END COLVAR_RESTART
   &END CONSTRAINT
 &END MOTION
 &FORCE_EVAL
   METHOD  QS
   STRESS_TENSOR  ANALYTICAL
   &DFT
     BASIS_SET_FILE_NAME BASIS_MOLOPT
     POTENTIAL_FILE_NAME GTH_POTENTIALS
     &SCF
       MAX_SCF  100
       EPS_SCF     5.0000000000000004E-06
       &OT  T
         PRECONDITIONER  FULL_ALL
       &END OT
       &OUTER_SCF  T
         OPTIMIZER  NONE
         EPS_SCF     5.0000000000000004E-06
         MAX_SCF  4
       &END OUTER_SCF
       &PRINT
         &RESTART  OFF
           BACKUP_COPIES  1
           &EACH
             JUST_ENERGY  0
             QS_SCF  0
             MD  20
           &END EACH
         &END RESTART
       &END PRINT
     &END SCF
     &QS
       EPS_DEFAULT     1.0000000000000000E-14
       ALMO_SCF  F
       METHOD  GPW
     &END QS
     &MGRID
       NGRIDS  5
       CUTOFF     1.2000000000000000E+03
     &END MGRID
     &XC
       DENSITY_CUTOFF     1.0000000000000000E-10
       GRADIENT_CUTOFF     1.0000000000000000E-10
       TAU_CUTOFF     1.0000000000000000E-10
       &XC_FUNCTIONAL  NO_SHORTCUT
         &PBE  T
         &END PBE
       &END XC_FUNCTIONAL
       &VDW_POTENTIAL
         POTENTIAL_TYPE  PAIR_POTENTIAL
         &PAIR_POTENTIAL
           R_CUTOFF     1.0000000000000005E+01
           TYPE  DFTD3
           PARAMETER_FILE_NAME dftd3.dat
           REFERENCE_FUNCTIONAL PBE
           EPS_CN     9.9999999999999995E-07
           CALCULATE_C9_TERM  T
           REFERENCE_C9_TERM  T
           LONG_RANGE_CORRECTION  F
           VERBOSE_OUTPUT  F
         &END PAIR_POTENTIAL
       &END VDW_POTENTIAL
     &END XC
   &END DFT
   &SUBSYS
     &CELL
       A     9.7367653356401487E+00    0.0000000000000000E+00    0.0000000000000000E+00
       B    -4.8591341382960209E+00    8.4162672083210595E+00    0.0000000000000000E+00
       C     0.0000000000000000E+00    0.0000000000000000E+00    3.0744000000000000E+01
       MULTIPLE_UNIT_CELL  1 1 1
       &CELL_REF
         A     9.5580000000000052E+00    0.0000000000000000E+00    0.0000000000000000E+00
         B    -4.7790000000000026E+00    8.2774708093716640E+00    0.0000000000000000E+00
         C     0.0000000000000000E+00    0.0000000000000000E+00    3.0744000000000000E+01
         MULTIPLE_UNIT_CELL  1 1 1
       &END CELL_REF
     &END CELL
     &COORD
Ga    6.6197051816381212E-03    1.0759252688081040E-02   -5.4615590618437704E-01
N    8.4451726658905206E-03    1.8847050530240430E+00    6.1011853061066479E-01
Ga    7.7522815626015797E-03    1.8520622065789092E+00    2.6379369505000381E+00
N    4.6052713162396675E-03    8.1241724036751929E-03    3.2711627875819058E+00
Ga    4.5186129863346736E-03    8.6957660646640855E-03    5.2592193988849090E+00
N    8.2125438021153335E-03    1.8823010668832414E+00    5.8515971362977348E+00
Ga    7.5073856548204367E-03    1.8799512062269790E+00    7.8480251527365343E+00
N    2.2329885428172863E-03    7.1515704868310697E-03    8.4562952777137443E+00
Ga   -9.1711234706810876E-03    4.6786705964312180E-03    1.0453884513250399E+01
N    5.4262560955681636E-03    1.8833864654764898E+00    1.1046094176404704E+01
Ga    3.2376390415739930E-03    1.8874177380656110E+00    1.3032536957500307E+01
N    2.4479581833807933E-03    3.0741994110418343E-02    1.3665456963299143E+01
Ga   -1.4428091579346285E-02    5.3003530755774644E-02    1.5672133919675931E+01
N   -1.5738961442988246E-02    1.9547136538754466E+00    1.6234844936531129E+01
Ga   -7.9394135097888258E-02    1.9185421142325920E+00    1.8225492685719306E+01
N   -6.0402656169803837E-02    1.6387357735193328E-01    1.8869894597774728E+01
Ga   -1.6139399048800831E+00    2.8137199725028315E+00    3.2407118466614054E-01
N   -1.6165186409904062E+00    4.6830949139676701E+00    6.0945626957812327E-01
Ga   -1.5878729665868883E+00    4.6985895859940925E+00    2.6374979490805557E+00
N   -1.6149915846029992E+00    2.8133964495182289E+00    3.2332555172833635E+00
Ga   -1.6148273114129905E+00    2.8133947001530339E+00    5.2420378919428314E+00
N   -1.6140672361761557E+00    4.6848643249426072E+00    5.8496763875444460E+00
Ga   -1.6132377867657612E+00    4.6859671462008725E+00    7.8449508568525301E+00
N   -1.6155843852449947E+00    2.8151481912961662E+00    8.4487347538165238E+00
Ga   -1.6140631026018650E+00    2.8164219361108134E+00    1.0436413677653086E+01
N   -1.6129906608793498E+00    4.6929555007531496E+00    1.1043859750927096E+01
Ga   -1.5967907714722269E+00    4.6900491930878871E+00    1.3019085632318182E+01
N   -1.6209161372971430E+00    2.8326144698410718E+00    1.3620018513676815E+01
Ga   -1.6205451480744724E+00    2.8624883236707137E+00    1.5591613419322314E+01
N   -1.6453677871439065E+00    4.7191488820284855E+00    1.6325431058189164E+01
Ga   -1.7532578354353143E+00    4.8747472208288860E+00    1.8360518535684200E+01
N   -1.6977658238359810E+00    2.9456341973095665E+00    1.8788837844684018E+01
Ga   -3.2345167280984475E+00    5.6200971849265162E+00    3.2453465974549905E-01
N   -3.2268717717083062E+00    7.4897050351049472E+00    6.0939680902489701E-01
Ga   -3.2558360271739577E+00    7.5050326996204983E+00    2.6374155041668064E+00
N   -3.2346601069420493E+00    5.6190512454002981E+00    3.2314788601276629E+00
Ga   -3.2347744324753722E+00    5.6193278868239709E+00    5.2396504179789973E+00
N   -3.2302075908666792E+00    7.4894117974596881E+00    5.8502360001796365E+00
Ga   -3.2346379296253707E+00    7.4888396567617814E+00    7.8458007456316121E+00
N   -3.2364858398968974E+00    5.6180371238942168E+00    8.4530064006390102E+00
Ga   -3.2423709725684140E+00    5.6185449475822162E+00    1.0443024030774952E+01
N   -3.2381921043715902E+00    7.4883359895675596E+00    1.1055464347299530E+01
Ga   -3.2575246647892651E+00    7.5127797262454177E+00    1.3038207784042575E+01
N   -3.2380445079206548E+00    5.6161043653006537E+00    1.3673707099382735E+01
Ga   -3.0289847679834794E+00    5.7945295860592108E+00    1.5589688088065394E+01
N   -3.2803771466100704E+00    7.5154099613669008E+00    1.6315763702579840E+01
Ga   -3.3125953612386967E+00    7.6295635442759515E+00    1.8508515175338360E+01
N   -3.2081964195861143E+00    5.8251786513211776E+00    1.9109500112218896E+01
Ga    3.2512289194204049E+00    8.8969436056524562E-03    3.2386402240294354E-01
N    3.2487015193204476E+00    1.8781475123827398E+00    6.0974041490540698E-01
Ga    3.2769657653906852E+00    1.8935122418487860E+00    2.6378274214750426E+00
N    3.2505046795968791E+00    8.0953786515668823E-03    3.2327477695486464E+00
Ga    3.2504918817652011E+00    8.7901394006843075E-03    5.2414353187218721E+00
N    3.2506924902342162E+00    1.8786791519477781E+00    5.8525049098720894E+00
Ga    3.2497692181275104E+00    1.8791445313734421E+00    7.8494053434906688E+00
N    3.2479545115880217E+00    5.2241506214983488E-03    8.4495761682080754E+00
Ga    3.2449308890990114E+00    2.7271009213594129E-03    1.0437498114776151E+01
N    3.2421160311049775E+00    1.8762563067434121E+00    1.1035406627415126E+01
Ga    3.2159714143045428E+00    1.8690049391099397E+00    1.3011193587865680E+01
N    3.2346568314887887E+00    5.7593714041933768E-03    1.3655062012546319E+01
Ga    3.2196476817064150E+00   -1.5750778399810109E-02    1.5656273732558013E+01
N    3.1915301768513165E+00    1.8765851913192324E+00    1.6207380565530933E+01
Ga    2.9716839972296243E+00    1.7719910030494852E+00    1.8148529022369537E+01
N    3.2167153651621567E+00    1.2909238293401576E-01    1.8904505250544030E+01
Ga    1.6305747329195639E+00    2.8143708771861773E+00    3.2388121509137385E-01
N    1.6385353430571759E+00    4.6838088649347078E+00    6.0923754393191676E-01
Ga    1.6095965847537714E+00    4.6989126078208612E+00    2.6371177913199881E+00
N    1.6307677124541420E+00    2.8136801724175871E+00    3.2326752656922118E+00
Ga    1.6310918863485209E+00    2.8140236961416636E+00    5.2411288034671841E+00
N    1.6370159082841298E+00    4.6848103779749328E+00    5.8500495179649068E+00
Ga    1.6369335618977345E+00    4.6861484770957498E+00    7.8464761885180163E+00
N    1.6285519030376558E+00    2.8166933544591366E+00    8.4535543151769481E+00
Ga    1.6241913103849670E+00    2.8285945314701650E+00    1.0446209649300862E+01
N    1.6353184208782827E+00    4.6936358014687238E+00    1.1075856385667819E+01
Ga    1.6786460763322064E+00    4.7240005346816245E+00    1.3094308538850264E+01
N    1.6217234841620967E+00    2.8302506850987528E+00    1.3642623771510221E+01
Ga    1.5879840677254902E+00    2.8820205569796875E+00    1.5613394907641831E+01
N    1.5510374772103481E+00    4.6745703041263482E+00    1.6392617761755570E+01
Ga    1.5639828513250442E+00    4.8078553261543941E+00    1.8443733793281751E+01
N    1.5747744567244712E+00    2.8779362977474507E+00    1.8918794965150571E+01
Ga    1.1654961441775928E-02    5.6195794443679263E+00   -5.4596821468314416E-01
N    1.4502765031976785E-02    7.4955499243682739E+00    6.0934995172135942E-01
Ga    1.3861284824612092E-02    7.4628272979747132E+00    2.6372743393099993E+00
N    1.1148747494626798E-02    5.6189012668783986E+00    3.2708316102712245E+00
Ga    1.1945207635606475E-02    5.6196373115532996E+00    5.2588916858289467E+00
N    1.4431000471613191E-02    7.4937249692258447E+00    5.8512761372970816E+00
Ga    1.5340479090669464E-02    7.4907080463261595E+00    7.8477979956782118E+00
N    1.2029086081819487E-02    5.6176927841284288E+00    8.4514389045369871E+00
Ga    1.9899562722880505E-02    5.6211667330661941E+00    1.0445593325230323E+01
N    5.2689364116347663E-03    7.4899715001223166E+00    1.1053213436143224E+01
Ga    5.7682378684742993E-03    7.4864811164391494E+00    1.3044165593717370E+01
N    6.2044866829253191E-03    5.6199256239236881E+00    1.3682415385250003E+01
Ga    2.7576266536960825E-02    5.6539081170516363E+00    1.5680692839681699E+01
N   -1.0353611231237807E-02    7.5108308998825093E+00    1.6274506273777668E+01
Ga   -3.3753882361358248E-02    7.6964452735580196E+00    1.8339468132303320E+01
N   -6.8312222815165496E-02    5.7669798906725873E+00    1.8910831454625157E+01
Ga    6.4960290677678802E+00    9.2067891544068171E-03    3.2366138182408299E-01
N    6.5035285151487141E+00    1.8786927196215726E+00    6.0942720612495482E-01
Ga    6.4748305443117973E+00    1.8936865085038515E+00    2.6375304455972897E+00
N    6.4963657187858335E+00    8.0950100159390727E-03    3.2321648641948890E+00
Ga    6.4969212142362709E+00    8.4090799742206346E-03    5.2407910092937833E+00
N    6.5011895753913551E+00    1.8776488730033500E+00    5.8538897435730872E+00
Ga    6.4983691282945992E+00    1.8747580012042535E+00    7.8515751626282739E+00
N    6.4967609559550592E+00    3.4943660928526007E-03    8.4607725322225402E+00
Ga    6.5035272479524870E+00   -5.7860581926605986E-03    1.0458944225376339E+01
N    6.5023897170299279E+00    1.8768031523803677E+00    1.1033277971800169E+01
Ga    6.5135105944372711E+00    1.8581974726610000E+00    1.3010086757097929E+01
N    6.4847754958796342E+00   -1.9317750623998522E-03    1.3632517329999517E+01
Ga    6.4920319309540577E+00   -2.9053030142545698E-02    1.5626172853799252E+01
N    6.5226165213972322E+00    1.8674503449074804E+00    1.6123507207177326E+01
Ga    6.4472875976870752E+00    2.0015301533706391E+00    1.8072586958952986E+01
N    6.3684121432627530E+00    2.8036888823089717E-01    1.8817072472666432E+01
Ga    4.8764443848956827E+00    2.8144268498445602E+00   -5.4599769299636369E-01
N    4.8798991296717462E+00    4.6897655961859872E+00    6.0905578693660711E-01
Ga    4.8791794312046983E+00    4.6566525067209126E+00    2.6371253221726390E+00
N    4.8762529046474210E+00    2.8130770750182528E+00    3.2721745111536138E+00
Ga    4.8765874555068853E+00    2.8130558872778386E+00    5.2608898357927556E+00
N    4.8792199978188444E+00    4.6877794108345965E+00    5.8510231182998558E+00
Ga    4.8764409510584859E+00    4.6853553147697253E+00    7.8475182237965173E+00
N    4.8746655571408475E+00    2.8128546092101900E+00    8.4540502203721584E+00
Ga    4.8743321872402499E+00    2.8160649775713518E+00    1.0448621577678999E+01
N    4.8825793983145278E+00    4.6840854172046331E+00    1.1069516985741455E+01
Ga    4.8313735277247005E+00    4.7034556474848772E+00    1.3072701452350023E+01
N    4.8635489932383251E+00    2.7898737246030367E+00    1.3574644414223645E+01
Ga    4.8681039242132842E+00    2.6074233783675331E+00    1.5483376091164457E+01
N    4.7956289524738001E+00    4.1934132075263681E+00    1.6629508018951807E+01
Ga    4.7729385216890927E+00    5.1509517297822978E+00    1.9260665458085406E+01
N    5.0882814466157420E+00    3.8072573556338583E+00    1.7800207749829024E+01
Ga    3.2575604764530057E+00    5.6194166452237688E+00    3.2375656159052146E-01
N    3.2552806094113729E+00    7.4890808609665296E+00    6.0816403753096226E-01
Ga    3.2837125800690616E+00    7.5047605534603594E+00    2.6363040167214846E+00
N    3.2569855640577172E+00    5.6192436195344317E+00    3.2311226061190399E+00
Ga    3.2575248903727951E+00    5.6195280503394152E+00    5.2393614801087596E+00
N    3.2575429523760540E+00    7.4889846229019490E+00    5.8520679603982497E+00
Ga    3.2572631134713594E+00    7.4864729196660873E+00    7.8494499348069873E+00
N    3.2574262442844955E+00    5.6174611181919767E+00    8.4612838713333822E+00
Ga    3.2577565991850026E+00    5.6225268379377837E+00    1.0461380570005202E+01
N    3.2618409606117158E+00    7.4836742690949443E+00    1.1087194063561610E+01
Ga    3.2665939561241277E+00    7.4398341981761895E+00    1.3121241891039869E+01
N    3.2798446538583614E+00    5.6013055196112749E+00    1.3784793143536938E+01
Ga    3.2438731322304637E+00    5.6847736929875747E+00    1.6333940299503158E+01
N    3.2567103198405185E+00    7.6083379098869939E+00    1.6280610285577769E+01
Ga    3.1583464135465724E+00    7.7889894817219050E+00    1.8390386643460552E+01
N    3.1817551768558952E+00    5.8425483055780711E+00    1.8449513318666082E+01
O    1.7781157078066436E+00    4.0791582725592610E+00    2.0966014833486849E+01
H   -9.3963903932492182E-02    5.7934595003034364E+00    1.9938487908803726E+01
C    1.5416319552958351E+00    2.7951940244720670E+00    2.0417514528766713E+01
H   -1.7660300205195711E+00    2.8028162795242983E+00    1.9808699485628409E+01
H    2.2757318924518528E+00    2.0550305439509442E+00    2.0772807903792987E+01
H    5.4425955653540548E-01    2.4677558927010645E+00    2.0749751037235924E+01
O    4.3569036648933972E+00    4.0766798656385212E+00    2.0740954936904057E+01
H    2.7862994746162331E+00    4.1555873189334305E+00    2.1038722804753945E+01
C    5.3899973795334839E+00    3.5429025351263008E+00    2.1579657377398920E+01
H    5.6045433714333885E+00    2.4955644915563697E+00    2.1308173499615744E+01
H    6.3176088812630891E+00    4.1330694109770540E+00    2.1500177688508288E+01
H    5.0589991989378476E+00    3.5686758872653286E+00    2.2628210879725497E+01
     &END COORD
     &KIND C
       BASIS_SET DZVP-MOLOPT-SR-GTH-q4
       POTENTIAL GTH-PBE-q4
       &POTENTIAL
 2 2
  0.3384712400000000E+00 2 -0.8803673979999999E+01  0.1339210850000000E+01
 2
  0.3025757500000000E+00 1  0.9622486650000001E+01
  0.2915069400000000E+00 0
         # Potential name:  GTH-PBE-Q4  for symbol:  C
         # Potential read from the potential filename: GTH_POTENTIALS
       &END POTENTIAL
     &END KIND
     &KIND O
       BASIS_SET DZVP-MOLOPT-SR-GTH-q6
       POTENTIAL GTH-PBE-q6
       &POTENTIAL
 2 4
  0.2445543000000000E+00 2 -0.1666721480000000E+02  0.2487311320000000E+01
 2
  0.2209559200000000E+00 1  0.1833745811000000E+02
  0.2113324700000000E+00 0
         # Potential name:  GTH-PBE-Q6  for symbol:  O
         # Potential read from the potential filename: GTH_POTENTIALS
       &END POTENTIAL
     &END KIND
     &KIND H
       BASIS_SET DZVP-MOLOPT-SR-GTH-q1
       POTENTIAL GTH-PBE-q1
       &POTENTIAL
 1
  0.2000000000000000E+00 2 -0.4178900440000000E+01  0.7244633100000000E+00
 0
         # Potential name:  GTH-PBE-Q1  for symbol:  H
         # Potential read from the potential filename: GTH_POTENTIALS
       &END POTENTIAL
     &END KIND
     &KIND N
       BASIS_SET DZVP-MOLOPT-SR-GTH-q5
       POTENTIAL GTH-PBE-q5
       &POTENTIAL
 2 3
  0.2837905100000000E+00 2 -0.1241522559000000E+02  0.1868095920000000E+01
 2
  0.2554050000000000E+00 1  0.1363026257000000E+02
  0.2454945300000000E+00 0
         # Potential name:  GTH-PBE-Q5  for symbol:  N
         # Potential read from the potential filename: GTH_POTENTIALS
       &END POTENTIAL
     &END KIND
     &KIND Ga
       BASIS_SET DZVP-MOLOPT-SR-GTH-q13
       POTENTIAL GTH-PBE-q13
       &POTENTIAL
 2 1 10
  0.4900000000000000E+00 0
 3
  0.4167772300000000E+00 3  0.1047568975000000E+02 -0.4921768140000000E+01  0.8707055900000000E+00
  0.7770178090000000E+01 -0.2248152160000000E+01
  0.1784415450000000E+01
  0.5696265200000000E+00 2  0.1777985340000000E+01  0.1958597600000000E+00
 -0.2317443900000000E+00
  0.2381265000000000E+00 1 -0.1624868022000000E+02
         # Potential name:  GTH-PBE-Q13  for symbol:  GA
         # Potential read from the potential filename: GTH_POTENTIALS
       &END POTENTIAL
     &END KIND
     &TOPOLOGY
       COORD_FILE_NAME ../start-first.xyz
       COORD_FILE_FORMAT  XYZ
       NUMBER_OF_ATOMS  156
       MULTIPLE_UNIT_CELL  1 1 1
     &END TOPOLOGY
     &COLVAR
       &DISTANCE
         ATOMS  32 148
       &END DISTANCE
       &PRINT
       &END PRINT
     &END COLVAR
   &END SUBSYS
 &END FORCE_EVAL
