 # Version information for this restart file 
 # current date 2019-05-28 05:25:00.981
 # current working dir /lustre03/project/6004141/rzk/GaN-carbene/334-native/08-2Methanol-Htransfer/02-NH-constraint/1.04
 # Program compiled at                              Sun Apr  7 00:48:11 EDT 2019
 # Program compiled on                          beluga2.int.ets1.calculquebec.ca
 # Program compiled for                        Beluga-Linux-x86-64-intel-openmpi
 # Source code revision number                                         svn:18619
 &GLOBAL
   PRINT_LEVEL  MEDIUM
   PROJECT_NAME TEST
   RUN_TYPE  GEO_OPT
 &END GLOBAL
 &MOTION
   &GEO_OPT
     MAX_ITER  500
     STEP_START_VAL  247
   &END GEO_OPT
   &CONSTRAINT
     &COLLECTIVE
       COLVAR  1
       INTERMOLECULAR  T
       TARGET     1.9653151782010687E+00
       &RESTRAINT
         K     1.0000000000000001E-01
       &END RESTRAINT
     &END COLLECTIVE
     &COLVAR_RESTART
           1.9653151782010687E+00
     &END COLVAR_RESTART
   &END CONSTRAINT
 &END MOTION
 &FORCE_EVAL
   METHOD  QS
   STRESS_TENSOR  ANALYTICAL
   &DFT
     BASIS_SET_FILE_NAME BASIS_MOLOPT
     POTENTIAL_FILE_NAME GTH_POTENTIALS
     &SCF
       MAX_SCF  100
       EPS_SCF     5.0000000000000004E-06
       &OT  T
         PRECONDITIONER  FULL_ALL
       &END OT
       &OUTER_SCF  T
         OPTIMIZER  NONE
         EPS_SCF     5.0000000000000004E-06
         MAX_SCF  4
       &END OUTER_SCF
       &PRINT
         &RESTART  OFF
           BACKUP_COPIES  1
           &EACH
             JUST_ENERGY  0
             QS_SCF  0
             MD  20
           &END EACH
         &END RESTART
       &END PRINT
     &END SCF
     &QS
       EPS_DEFAULT     1.0000000000000000E-14
       ALMO_SCF  F
       METHOD  GPW
     &END QS
     &MGRID
       NGRIDS  5
       CUTOFF     1.2000000000000000E+03
     &END MGRID
     &XC
       DENSITY_CUTOFF     1.0000000000000000E-10
       GRADIENT_CUTOFF     1.0000000000000000E-10
       TAU_CUTOFF     1.0000000000000000E-10
       &XC_FUNCTIONAL  NO_SHORTCUT
         &PBE  T
         &END PBE
       &END XC_FUNCTIONAL
       &VDW_POTENTIAL
         POTENTIAL_TYPE  PAIR_POTENTIAL
         &PAIR_POTENTIAL
           R_CUTOFF     1.0000000000000005E+01
           TYPE  DFTD3
           PARAMETER_FILE_NAME dftd3.dat
           REFERENCE_FUNCTIONAL PBE
           EPS_CN     9.9999999999999995E-07
           CALCULATE_C9_TERM  T
           REFERENCE_C9_TERM  T
           LONG_RANGE_CORRECTION  F
           VERBOSE_OUTPUT  F
         &END PAIR_POTENTIAL
       &END VDW_POTENTIAL
     &END XC
   &END DFT
   &SUBSYS
     &CELL
       A     9.7367653356401487E+00    0.0000000000000000E+00    0.0000000000000000E+00
       B    -4.8591341382960209E+00    8.4162672083210595E+00    0.0000000000000000E+00
       C     0.0000000000000000E+00    0.0000000000000000E+00    3.0744000000000000E+01
       MULTIPLE_UNIT_CELL  1 1 1
       &CELL_REF
         A     9.5580000000000052E+00    0.0000000000000000E+00    0.0000000000000000E+00
         B    -4.7790000000000026E+00    8.2774708093716640E+00    0.0000000000000000E+00
         C     0.0000000000000000E+00    0.0000000000000000E+00    3.0744000000000000E+01
         MULTIPLE_UNIT_CELL  1 1 1
       &END CELL_REF
     &END CELL
     &COORD
Ga    6.5181696092416327E-03    1.0646903345525529E-02   -5.4643892398165217E-01
N    8.3834346916735591E-03    1.8845576808688576E+00    6.0982427261580729E-01
Ga    7.6410899398689841E-03    1.8519448016979572E+00    2.6377154776773351E+00
N    4.4767634437037265E-03    7.9834740078280602E-03    3.2708914872514661E+00
Ga    4.3277337342673104E-03    8.6208292550174637E-03    5.2589968806838829E+00
N    8.0065702435659931E-03    1.8822130598381002E+00    5.8514192594403092E+00
Ga    7.2994984767496525E-03    1.8799749655199649E+00    7.8478649801480413E+00
N    2.0774143617837970E-03    7.2056692434755978E-03    8.4562005920859065E+00
Ga   -9.2109957662708103E-03    4.7880552171612545E-03    1.0453822923446506E+01
N    5.3464416359859960E-03    1.8835277021607388E+00    1.1046104159790721E+01
Ga    3.3090981999723016E-03    1.8875814014584302E+00    1.3032579209229269E+01
N    2.4993717827744228E-03    3.0851521495694995E-02    1.3665494251575860E+01
Ga   -1.4343549329506888E-02    5.3137551323601463E-02    1.5672139317347492E+01
N   -1.5534431534382036E-02    1.9549224005513992E+00    1.6234723791284416E+01
Ga   -7.8993185226633844E-02    1.9187014192484038E+00    1.8225189772024478E+01
N   -6.0184769983826984E-02    1.6411017315374868E-01    1.8869733651551261E+01
Ga   -1.6140239909447534E+00    2.8135597931499130E+00    3.2377510944128146E-01
N   -1.6166140859188620E+00    4.6829245621314195E+00    6.0916794409476882E-01
Ga   -1.5880326757902812E+00    4.6984474312561657E+00    2.6372844140499714E+00
N   -1.6151412570363972E+00    2.8132458188866365E+00    3.2330493397830118E+00
Ga   -1.6150303558266150E+00    2.8133159427699845E+00    5.2418776716833069E+00
N   -1.6143003656639656E+00    4.6848051828600292E+00    5.8494729081003456E+00
Ga   -1.6134712954430530E+00    4.6860127851378959E+00    7.8447867722202380E+00
N   -1.6157899658111252E+00    2.8152164421836243E+00    8.4485915142297827E+00
Ga   -1.6141585443606770E+00    2.8165109063877209E+00    1.0436300976271539E+01
N   -1.6130930872772664E+00    4.6930323354459187E+00    1.1043860465694539E+01
Ga   -1.5967950309055257E+00    4.6901791552913048E+00    1.3019117827233458E+01
N   -1.6208992672430109E+00    2.8327175201115340E+00    1.3620123310315854E+01
Ga   -1.6204754782969075E+00    2.8626069415937319E+00    1.5591737572997351E+01
N   -1.6452576869211590E+00    4.7192593930703559E+00    1.6325598006322927E+01
Ga   -1.7529902523162717E+00    4.8745791686226410E+00    1.8360699459636404E+01
N   -1.6974579471486497E+00    2.9454908795310883E+00    1.8788885437623126E+01
Ga   -3.2345961804074141E+00    5.6199383309643620E+00    3.2420917119445347E-01
N   -3.2269220886952477E+00    7.4895554029543874E+00    6.0900183937207319E-01
Ga   -3.2559342194676919E+00    7.5049193696671566E+00    2.6370985165927756E+00
N   -3.2348206478614148E+00    5.6189374184161167E+00    3.2312549657213321E+00
Ga   -3.2349853587472697E+00    5.6192877090002398E+00    5.2394760791967707E+00
N   -3.2304037407815489E+00    7.4893691981157335E+00    5.8500463817447903E+00
Ga   -3.2348057024288894E+00    7.4888947997087669E+00    7.8456407786299751E+00
N   -3.2366752679829198E+00    5.6181159630503279E+00    8.4528740712188544E+00
Ga   -3.2424713910048584E+00    5.6186247172499373E+00    1.0442923344565962E+01
N   -3.2382278944190808E+00    7.4884172391752832E+00    1.1055451039980490E+01
Ga   -3.2574714400086178E+00    7.5128249115817463E+00    1.3038220488115119E+01
N   -3.2380868091237143E+00    5.6161441096750222E+00    1.3673803685307952E+01
Ga   -3.0290400174903707E+00    5.7944870937731840E+00    1.5589814948715691E+01
N   -3.2802853398268828E+00    7.5155332137470046E+00    1.6315752999056805E+01
Ga   -3.3124196404019512E+00    7.6296859085802389E+00    1.8508511679423531E+01
N   -3.2079683204600817E+00    5.8252570241279908E+00    1.9109706393456356E+01
Ga    3.2511909150183507E+00    8.7719626668366010E-03    3.2352210538866344E-01
N    3.2486628793070991E+00    1.8780315606692137E+00    6.0935218905393329E-01
Ga    3.2768403161922341E+00    1.8933613663036337E+00    2.6375561333752873E+00
N    3.2503746202942181E+00    7.9824383151656398E-03    3.2324984916028416E+00
Ga    3.2502957753718826E+00    8.7229467972488248E-03    5.2412253139328984E+00
N    3.2504624253968988E+00    1.8786307237637359E+00    5.8523095200887418E+00
Ga    3.2495688266724603E+00    1.8791964425386729E+00    7.8492355179363225E+00
N    3.2477798901084496E+00    5.2888503089167120E-03    8.4494183970047896E+00
Ga    3.2448439966240450E+00    2.8348524750718956E-03    1.0437379093190014E+01
N    3.2420309340245561E+00    1.8763486053542189E+00    1.1035387200891995E+01
Ga    3.2160098127599075E+00    1.8691308051144973E+00    1.3011194967238254E+01
N    3.2347039428339874E+00    5.8775385431354844E-03    1.3655104375648177E+01
Ga    3.2197829147861361E+00   -1.5557408704451542E-02    1.5656267045524107E+01
N    3.1915977398981838E+00    1.8768086898370486E+00    1.6207431174857501E+01
Ga    2.9717641388279024E+00    1.7722616616325439E+00    1.8148519168719481E+01
N    3.2168675597694532E+00    1.2927616294168767E-01    1.8904419655489157E+01
Ga    1.6305303038138601E+00    2.8142361519372723E+00    3.2356586897738088E-01
N    1.6384148348842549E+00    4.6836683494676823E+00    6.0893042297966893E-01
Ga    1.6094399130005106E+00    4.6987682389016365E+00    2.6368894197104527E+00
N    1.6306534784215083E+00    2.8135333623477767E+00    3.2324278804136855E+00
Ga    1.6308642215516731E+00    2.8139321570127218E+00    5.2409063238405196E+00
N    1.6367771440618319E+00    4.6847358266243635E+00    5.8498345239305634E+00
Ga    1.6366867088097654E+00    4.6862049456134081E+00    7.8462769038584419E+00
N    1.6283441972745185E+00    2.8167556214024296E+00    8.4534182652675103E+00
Ga    1.6240937114446099E+00    2.8287013243259542E+00    1.0446101164330592E+01
N    1.6351919080388615E+00    4.6937424942885340E+00    1.1075782850032681E+01
Ga    1.6786337154282498E+00    4.7241272793331612E+00    1.3094161279550780E+01
N    1.6218181241986853E+00    2.8304400088815234E+00    1.3642661484206354E+01
Ga    1.5881321289982897E+00    2.8823358980483951E+00    1.5613430733861943E+01
N    1.5512859652257891E+00    4.6748749482416416E+00    1.6392628764914253E+01
Ga    1.5642106954884796E+00    4.8080898457665695E+00    1.8443646818604218E+01
N    1.5749977390790733E+00    2.8783263443523111E+00    1.8918793609552704E+01
Ga    1.1556623225816942E-02    5.6193805300291011E+00   -5.4626329638732085E-01
N    1.4409507559873531E-02    7.4953785839994982E+00    6.0901202095994533E-01
Ga    1.3696140663547407E-02    7.4626835235457749E+00    2.6370166126099641E+00
N    1.0986191018198135E-02    5.6187709022983601E+00    3.2705903007981356E+00
Ga    1.1708813843711476E-02    5.6195394287840257E+00    5.2586873670388616E+00
N    1.4206938590900013E-02    7.4936507569621682E+00    5.8510492651256447E+00
Ga    1.5138914522108129E-02    7.4907671544849963E+00    7.8476154011611108E+00
N    1.1792457557524517E-02    5.6177524882660714E+00    8.4512762244645838E+00
Ga    1.9777817132815165E-02    5.6212484566766268E+00    1.0445420769181103E+01
N    5.2151216353026946E-03    7.4900507354480732E+00    1.1053158158045683E+01
Ga    5.7971909117635802E-03    7.4865365761958742E+00    1.3044132296545788E+01
N    6.2286780737839239E-03    5.6199762594421223E+00    1.3682471852462987E+01
Ga    2.7715792926900462E-02    5.6540386528706881E+00    1.5680756724537554E+01
N   -1.0211901690989547E-02    7.5109803508351325E+00    1.6274465237863325E+01
Ga   -3.3697137440107792E-02    7.6965957649623595E+00    1.8339249122812383E+01
N   -6.8133294836954961E-02    5.7671543622311905E+00    1.8910879381504550E+01
Ga    6.4959162134676331E+00    9.0534601123889342E-03    3.2338702992878260E-01
N    6.5034467077845930E+00    1.8785469696433759E+00    6.0918118701236967E-01
Ga    6.4746708649601974E+00    1.8935271694839977E+00    2.6373533122491373E+00
N    6.4961871259039929E+00    7.9429019481750615E-03    3.2319819558321625E+00
Ga    6.4967089606488377E+00    8.3343100146998327E-03    5.2406389052700488E+00
N    6.5009440759304953E+00    1.8776012307084979E+00    5.8536785770891919E+00
Ga    6.4981572758671042E+00    1.8748309607752129E+00    7.8514193637056753E+00
N    6.4965723314336277E+00    3.5633473723547058E-03    8.4606107183572128E+00
Ga    6.5034432714628929E+00   -5.6615621864502808E-03    1.0458794794039497E+01
N    6.5023130327684404E+00    1.8769180864371355E+00    1.1033267852972250E+01
Ga    6.5134791470732845E+00    1.8583404399510552E+00    1.3010121849107719E+01
N    6.4848113746352736E+00   -1.8197896033962523E-03    1.3632577413217959E+01
Ga    6.4921421201238161E+00   -2.8877900557308780E-02    1.5626215709407326E+01
N    6.5226799748931708E+00    1.8676237378295271E+00    1.6123663155393455E+01
Ga    6.4474218157237617E+00    2.0014863672493646E+00    1.8072636891717053E+01
N    6.3685081390289469E+00    2.8039772562733756E-01    1.8816960387041735E+01
Ga    4.8764562240619114E+00    2.8143244891848140E+00   -5.4619350862274363E-01
N    4.8798082752586707E+00    4.6896401657368436E+00    6.0877236469073603E-01
Ga    4.8790320944681955E+00    4.6565378154499966E+00    2.6369262558796236E+00
N    4.8760751277436638E+00    2.8129584163715866E+00    3.2719493631977961E+00
Ga    4.8763537414845253E+00    2.8130214326007108E+00    5.2607156728934941E+00
N    4.8789935136244580E+00    4.6877469171471056E+00    5.8508535678396720E+00
Ga    4.8762366117632725E+00    4.6854405133329022E+00    7.8473675217675991E+00
N    4.8744640400771182E+00    2.8129309264080908E+00    8.4539101374440939E+00
Ga    4.8742103286610252E+00    2.8161903035375038E+00    1.0448528637834098E+01
N    4.8824882958024061E+00    4.6842011265237380E+00    1.1069439027390768E+01
Ga    4.8313263751379010E+00    4.7035658117320498E+00    1.3072690104275859E+01
N    4.8635360299591328E+00    2.7900252745947789E+00    1.3574740695043710E+01
Ga    4.8681714768382811E+00    2.6077402329946704E+00    1.5483588214300365E+01
N    4.7957776379847799E+00    4.1940959795676687E+00    1.6629033935223834E+01
Ga    4.7732255326728597E+00    5.1507814620999417E+00    1.9260707684136300E+01
N    5.0882622548573710E+00    3.8076168711386025E+00    1.7799811252689928E+01
Ga    3.2574627598511694E+00    5.6192695155236851E+00    3.2351409743282650E-01
N    3.2551846584157937E+00    7.4889426180205616E+00    6.0788208652149489E-01
Ga    3.2835393744549140E+00    7.5046267509940821E+00    2.6360990894780847E+00
N    3.2568163943547561E+00    5.6191110920078282E+00    3.2309138040674865E+00
Ga    3.2572809071997919E+00    5.6194749747146622E+00    5.2391754788698446E+00
N    3.2573583279093103E+00    7.4889316871141665E+00    5.8518728922425742E+00
Ga    3.2570946500499236E+00    7.4865632395989756E+00    7.8492815992776306E+00
N    3.2571905139023087E+00    5.6175441428225268E+00    8.4611501631182051E+00
Ga    3.2576460127791536E+00    5.6226456132628906E+00    1.0461293597987725E+01
N    3.2617786955246415E+00    7.4838238421495271E+00    1.1087134731047687E+01
Ga    3.2666259970806122E+00    7.4399559630874839E+00    1.3121160052133096E+01
N    3.2798097401651964E+00    5.6014730027364417E+00    1.3784556725022780E+01
Ga    3.2440906280650026E+00    5.6850709770082908E+00    1.6334040025799553E+01
N    3.2568333880447162E+00    7.6085110260979043E+00    1.6280653728050233E+01
Ga    3.1585404223609870E+00    7.7890948778332296E+00    1.8390561609822065E+01
N    3.1820302079070211E+00    5.8427166459400137E+00    1.8449862134184094E+01
O    1.7783571897752510E+00    4.0797537607868657E+00    2.0965911807894866E+01
H   -9.3675418062470553E-02    5.7938675691947390E+00    1.9938492619254493E+01
C    1.5418266210847427E+00    2.7958397084394204E+00    2.0417569343896062E+01
H   -1.7653214924631053E+00    2.8024312585092859E+00    1.9808644553161628E+01
H    2.2758308104859388E+00    2.0557241061020166E+00    2.0773064206237162E+01
H    5.4442417479691396E-01    2.4686181202293693E+00    2.0749660029223744E+01
O    4.3575658817816105E+00    4.0753230257655035E+00    2.0740395329331811E+01
H    2.7864802138703899E+00    4.1557331178390671E+00    2.1038804538135111E+01
C    5.3909536333114900E+00    3.5418876916412563E+00    2.1579188725778192E+01
H    5.6058236685464147E+00    2.4944681144183498E+00    2.1307759422072934E+01
H    6.3183328770456049E+00    4.1324722860471264E+00    2.1499534887163193E+01
H    5.0600214901442584E+00    3.5676758232753278E+00    2.2627803900943292E+01
     &END COORD
     &KIND C
       BASIS_SET DZVP-MOLOPT-SR-GTH-q4
       POTENTIAL GTH-PBE-q4
       &POTENTIAL
 2 2
  0.3384712400000000E+00 2 -0.8803673979999999E+01  0.1339210850000000E+01
 2
  0.3025757500000000E+00 1  0.9622486650000001E+01
  0.2915069400000000E+00 0
         # Potential name:  GTH-PBE-Q4  for symbol:  C
         # Potential read from the potential filename: GTH_POTENTIALS
       &END POTENTIAL
     &END KIND
     &KIND O
       BASIS_SET DZVP-MOLOPT-SR-GTH-q6
       POTENTIAL GTH-PBE-q6
       &POTENTIAL
 2 4
  0.2445543000000000E+00 2 -0.1666721480000000E+02  0.2487311320000000E+01
 2
  0.2209559200000000E+00 1  0.1833745811000000E+02
  0.2113324700000000E+00 0
         # Potential name:  GTH-PBE-Q6  for symbol:  O
         # Potential read from the potential filename: GTH_POTENTIALS
       &END POTENTIAL
     &END KIND
     &KIND H
       BASIS_SET DZVP-MOLOPT-SR-GTH-q1
       POTENTIAL GTH-PBE-q1
       &POTENTIAL
 1
  0.2000000000000000E+00 2 -0.4178900440000000E+01  0.7244633100000000E+00
 0
         # Potential name:  GTH-PBE-Q1  for symbol:  H
         # Potential read from the potential filename: GTH_POTENTIALS
       &END POTENTIAL
     &END KIND
     &KIND N
       BASIS_SET DZVP-MOLOPT-SR-GTH-q5
       POTENTIAL GTH-PBE-q5
       &POTENTIAL
 2 3
  0.2837905100000000E+00 2 -0.1241522559000000E+02  0.1868095920000000E+01
 2
  0.2554050000000000E+00 1  0.1363026257000000E+02
  0.2454945300000000E+00 0
         # Potential name:  GTH-PBE-Q5  for symbol:  N
         # Potential read from the potential filename: GTH_POTENTIALS
       &END POTENTIAL
     &END KIND
     &KIND Ga
       BASIS_SET DZVP-MOLOPT-SR-GTH-q13
       POTENTIAL GTH-PBE-q13
       &POTENTIAL
 2 1 10
  0.4900000000000000E+00 0
 3
  0.4167772300000000E+00 3  0.1047568975000000E+02 -0.4921768140000000E+01  0.8707055900000000E+00
  0.7770178090000000E+01 -0.2248152160000000E+01
  0.1784415450000000E+01
  0.5696265200000000E+00 2  0.1777985340000000E+01  0.1958597600000000E+00
 -0.2317443900000000E+00
  0.2381265000000000E+00 1 -0.1624868022000000E+02
         # Potential name:  GTH-PBE-Q13  for symbol:  GA
         # Potential read from the potential filename: GTH_POTENTIALS
       &END POTENTIAL
     &END KIND
     &TOPOLOGY
       COORD_FILE_NAME ../start-first.xyz
       COORD_FILE_FORMAT  XYZ
       NUMBER_OF_ATOMS  156
       MULTIPLE_UNIT_CELL  1 1 1
     &END TOPOLOGY
     &COLVAR
       &DISTANCE
         ATOMS  32 148
       &END DISTANCE
       &PRINT
       &END PRINT
     &END COLVAR
   &END SUBSYS
 &END FORCE_EVAL
