 # Version information for this restart file 
 # current date 2019-07-19 20:57:48.420
 # current working dir /lustre04/scratch/rzk/rzk/GaN-carbene/443-adatoms-both-2x2/02-Methanol/04-H-NSur-Attempt2/02-RKS
 # Program compiled at                              Sun Apr  7 00:48:11 EDT 2019
 # Program compiled on                          beluga2.int.ets1.calculquebec.ca
 # Program compiled for                        Beluga-Linux-x86-64-intel-openmpi
 # Source code revision number                                         svn:18619
 &GLOBAL
   PRINT_LEVEL  MEDIUM
   PROJECT_NAME TEST
   RUN_TYPE  GEO_OPT
 &END GLOBAL
 &MOTION
   &GEO_OPT
     MAX_ITER  500
     STEP_START_VAL  171
   &END GEO_OPT
 &END MOTION
 &FORCE_EVAL
   METHOD  QS
   STRESS_TENSOR  ANALYTICAL
   &DFT
     BASIS_SET_FILE_NAME BASIS_MOLOPT
     POTENTIAL_FILE_NAME GTH_POTENTIALS
     UKS  F
     SURFACE_DIPOLE_CORRECTION  T
     SURF_DIP_DIR  Z
     &SCF
       MAX_SCF  80
       EPS_SCF     5.0000000000000004E-06
       &OT  T
         PRECONDITIONER  FULL_ALL
       &END OT
       &OUTER_SCF  T
         OPTIMIZER  NONE
         EPS_SCF     5.0000000000000004E-06
         MAX_SCF  4
       &END OUTER_SCF
       &PRINT
         &RESTART  OFF
           BACKUP_COPIES  1
           &EACH
             JUST_ENERGY  0
             QS_SCF  0
             MD  20
           &END EACH
         &END RESTART
       &END PRINT
     &END SCF
     &QS
       EPS_DEFAULT     1.0000000000000000E-14
       METHOD  GPW
     &END QS
     &MGRID
       NGRIDS  5
       CUTOFF     1.2000000000000000E+03
     &END MGRID
     &XC
       DENSITY_CUTOFF     1.0000000000000000E-10
       GRADIENT_CUTOFF     1.0000000000000000E-10
       TAU_CUTOFF     1.0000000000000000E-10
       &XC_FUNCTIONAL  NO_SHORTCUT
         &PBE  T
         &END PBE
       &END XC_FUNCTIONAL
       &VDW_POTENTIAL
         POTENTIAL_TYPE  PAIR_POTENTIAL
         &PAIR_POTENTIAL
           R_CUTOFF     1.0000000000000004E+01
           TYPE  DFTD3
           PARAMETER_FILE_NAME dftd3.dat
           REFERENCE_FUNCTIONAL PBE
           EPS_CN     9.9999999999999995E-07
           CALCULATE_C9_TERM  T
           REFERENCE_C9_TERM  T
           LONG_RANGE_CORRECTION  F
           VERBOSE_OUTPUT  F
         &END PAIR_POTENTIAL
       &END VDW_POTENTIAL
     &END XC
   &END DFT
   &SUBSYS
     &CELL
       A     1.2864472766435110E+01    0.0000000000000000E+00    0.0000000000000000E+00
       B    -6.4322363581020028E+00    1.1140960178524473E+01    0.0000000000000000E+00
       C     0.0000000000000000E+00    0.0000000000000000E+00    3.2000000000000000E+01
       MULTIPLE_UNIT_CELL  1 1 1
       &CELL_REF
         A     1.2982353780853531E+01    0.0000000000000000E+00    0.0000000000000000E+00
         B    -6.4911768904267628E+00    1.1243048175136114E+01    0.0000000000000000E+00
         C     0.0000000000000000E+00    0.0000000000000000E+00    3.2000000000000000E+01
         MULTIPLE_UNIT_CELL  1 1 1
       &END CELL_REF
     &END CELL
     &COORD
N    1.8338151270831049E-01    1.8432976513974391E+00    2.4658768600620498E+00
Ga    2.2433349925315701E-01   -1.5549945965489825E-01    2.7831511581213340E+00
N    1.8372308464924439E-01   -1.3230605995324574E-01    4.9605946312425768E+00
Ga    1.8318752899526644E-01    1.6915383476784502E+00    5.7463513664386445E+00
N    1.8184770367978473E-01    1.7128775104770835E+00    7.7394316634273128E+00
Ga    1.8421075082219088E-01   -1.3377036987519891E-01    8.3946243233881468E+00
N    1.8179289051222886E-01   -1.3471741993675765E-01    1.0364654521741986E+01
Ga    1.8205378183874352E-01    1.7040077974379388E+00    1.1022702646215487E+01
N    1.8167310505565065E-01    1.6840074904853179E+00    1.3010046063629989E+01
Ga    1.7966804637977393E-01   -1.3474107966022703E-01    1.3827488065147955E+01
N    1.8025053821229070E-01   -1.3631498107612725E-01    1.6016263254037280E+01
Ga    1.8062757655223852E-01    1.9132592140346052E+00    1.6440244983829416E+01
Ga    1.8582509708679323E-01    3.5475044856779521E+00    1.4061579036726306E+00
N   -1.3162679519606242E+00    4.4572505442252250E+00    2.4561828626997499E+00
Ga   -1.5232513626570099E+00    2.5943496392242058E+00    3.2288335008038627E+00
N   -1.4241489022177973E+00    2.6566492941640818E+00    5.1909408193820319E+00
Ga   -1.4612944129446848E+00    4.5239784029627401E+00    5.7554165008209344E+00
N   -1.4341516451936347E+00    4.5156932691159053E+00    7.7422463240959400E+00
Ga   -1.4151239694145290E+00    2.6560644667535374E+00    8.3886932909292895E+00
N   -1.4150996579289985E+00    2.6569194525774016E+00    1.0376229912516882E+01
Ga   -1.4422362730771880E+00    4.5144794807577853E+00    1.1026073501961736E+01
N   -1.4584195517251652E+00    4.5241827771920518E+00    1.3012194009830518E+01
Ga   -1.4147958279674062E+00    2.6552173784651512E+00    1.3574406945633966E+01
N   -1.4420460551489991E+00    2.6390466108305879E+00    1.5529499088624183E+01
Ga   -1.2590939816485383E+00    4.4069270448828819E+00    1.6440660348699481E+01
N    1.8608853294014274E-01    3.5784769595002670E+00    1.7587834762653870E+01
N   -3.0281305384701045E+00    7.4376278035346539E+00    2.4389592896522090E+00
Ga   -3.0433486794802564E+00    5.4754857367972178E+00    2.7901497029878755E+00
N   -3.0320837079499730E+00    5.4410865440771614E+00    4.9613899823600525E+00
Ga   -3.0410687384799258E+00    7.2662692340373329E+00    5.7551472379860735E+00
N   -3.0319340810635547E+00    7.2827670232032480E+00    7.7458810425964169E+00
Ga   -3.0343091710806163E+00    5.4382374495931840E+00    8.3999942174950952E+00
N   -3.0335497697590128E+00    5.4354271934426830E+00    1.0367420341170339E+01
Ga   -3.0357560874703466E+00    7.2744586504774285E+00    1.1026182188930912E+01
N   -3.0346374630602715E+00    7.2534518788917568E+00    1.3014793945015455E+01
Ga   -3.0347616196097857E+00    5.4317683472216673E+00    1.3829225886446691E+01
N   -3.0348000616397033E+00    5.4320681883921704E+00    1.6016809087997817E+01
Ga   -3.0349697914831761E+00    7.4739698955779525E+00    1.6426987098291754E+01
Ga   -3.0669019641745185E+00    9.1385449707863060E+00    1.2647071336802405E+00
N   -4.5173482958802840E+00    1.0007848262037976E+01    2.4481017651751231E+00
Ga   -4.7144229790886563E+00    8.1900807189045395E+00    3.2162809248901909E+00
N   -4.6410747011174696E+00    8.2215288468477006E+00    5.1959146587366849E+00
Ga   -4.6608523921440348E+00    1.0093612159038987E+01    5.7424999713361764E+00
N   -4.6516443713746209E+00    1.0085437922059528E+01    7.7413877488036054E+00
Ga   -4.6332883708883923E+00    8.2300480063413115E+00    8.3877459798884395E+00
N   -4.6309548440500885E+00    8.2271788032123769E+00    1.0377600879928442E+01
Ga   -4.6575678737689890E+00    1.0086394624643768E+01    1.1023095332737768E+01
N   -4.6752015307547268E+00    1.0095353846583473E+01    1.3012937899393133E+01
Ga   -4.6331277117681431E+00    8.2254996531133013E+00    1.3572482844378634E+01
N   -4.6632139838669939E+00    8.2071239792790802E+00    1.5530881721153552E+01
Ga   -4.4841986189500282E+00    9.9839102671220044E+00    1.6426634446961828E+01
N   -3.0352056660090376E+00    9.1472870138862188E+00    1.7543759776394506E+01
N    3.3988769526905540E+00    1.7142965569182580E+00    2.5606135082002002E+00
Ga    3.3988471209910482E+00   -5.5878479887969935E-02    3.2056658973642609E+00
N    3.4009324440490443E+00   -1.3056209603955674E-01    5.1912606979931466E+00
Ga    3.3975445814467231E+00    1.7159965867851210E+00    5.8198611847761939E+00
N    3.3976230735867166E+00    1.7243118086073215E+00    7.7928296796613772E+00
Ga    3.3966339411294748E+00   -1.4411901622341805E-01    8.3873929414221191E+00
N    3.3982269726524250E+00   -1.4785216243731336E-01    1.0377388629965294E+01
Ga    3.3978880813903807E+00    1.7218976541361717E+00    1.0976740650969610E+01
N    3.3975842656539683E+00    1.7210623471666260E+00    1.2942555333661698E+01
Ga    3.3974010994853141E+00   -1.4732099545548502E-01    1.3572544376143567E+01
N    3.3973566619211191E+00   -1.1344563076902849E-01    1.5531040915567504E+01
Ga    3.3976357363851530E+00    1.7240196548054876E+00    1.5813226029957933E+01
N    1.6805529816232705E+00    4.4579981825662607E+00    2.4631164143805591E+00
Ga    1.8926209245106516E+00    2.5855355560749498E+00    3.2320134146247477E+00
N    1.7893267162934332E+00    2.6568786003416367E+00    5.1937026344564856E+00
Ga    1.8216481621072262E+00    4.5206564399590885E+00    5.7585741420528249E+00
N    1.7984166312269090E+00    4.5161581189977582E+00    7.7437244988038634E+00
Ga    1.7808365883903507E+00    2.6552065358239076E+00    8.3882252687983030E+00
N    1.7783107122513471E+00    2.6572281615922817E+00    1.0375711064891529E+01
Ga    1.8057864673027773E+00    4.5141634610365076E+00    1.1026043537441732E+01
N    1.8220481271284559E+00    4.5243046683559971E+00    1.3012755551390727E+01
Ga    1.7786721033442427E+00    2.6546808445423791E+00    1.3574375305471694E+01
N    1.8033934565117256E+00    2.6378125078988242E+00    1.5530463263564661E+01
Ga    1.6251747250636621E+00    4.4096690703222405E+00    1.6440858817170337E+01
N    1.7099592334571520E-01    7.3033564497363876E+00    2.6415953691748584E+00
Ga    1.7672075323447009E-01    5.4654985956158981E+00    3.2766627665037253E+00
N    1.8266183219606194E-01    5.4540262185073578E+00    5.2014502289825018E+00
Ga    1.7524311960707573E-01    7.2996396748404839E+00    5.8589423318217158E+00
N    1.8268688516600171E-01    7.2940632216547749E+00    7.8109558781482011E+00
Ga    1.8195223939424929E-01    5.4227418794337305E+00    8.3996546176644156E+00
N    1.8184454269371950E-01    5.4217156775320774E+00    1.0381631732335908E+01
Ga    1.8192672093724363E-01    7.2920945235377896E+00    1.0981775126103233E+01
N    1.8200206883921388E-01    7.2908228122342438E+00    1.2945738123935730E+01
Ga    1.8150226743297529E-01    5.4210665131333027E+00    1.3575597649540171E+01
N    1.7968675977830786E-01    5.4505817952025177E+00    1.5531550887984572E+01
Ga    1.8517644217891457E-01    7.2881773731966071E+00    1.5813984514741120E+01
N   -1.5361068491664982E+00    1.0010625214830743E+01    2.4500008548409657E+00
Ga   -1.4405155749762262E+00    8.2408610754731217E+00    3.2675529542125341E+00
N   -1.4129539464366438E+00    8.2164356829291609E+00    5.2045297832825828E+00
Ga   -1.4041445204215446E+00    1.0103579206167060E+01    5.7532969334628783E+00
N   -1.4147908515294298E+00    1.0083971042467548E+01    7.7451581052487573E+00
Ga   -1.4397073077849905E+00    8.2311072422377762E+00    8.3991356927702441E+00
N   -1.4375722436987659E+00    8.2275190282114696E+00    1.0383404383677375E+01
Ga   -1.4115014634026692E+00    1.0087829501425011E+01    1.1026200041344323E+01
N   -1.3935785261399505E+00    1.0095648930718877E+01    1.3014886640192397E+01
Ga   -1.4366304027584935E+00    8.2255625108047283E+00    1.3573703439893224E+01
N   -1.4061511856880211E+00    8.2068961982899289E+00    1.5531873025171555E+01
Ga   -1.5858416901641514E+00    9.9838494710155601E+00    1.6427017012025825E+01
N    6.6155831100744980E+00    1.8497862579171827E+00    2.4740717304770383E+00
Ga    6.5777246022475415E+00   -1.4143307486157253E-01    2.8008110037531773E+00
N    6.6173484645064100E+00   -1.3172962037280306E-01    4.9685299412385202E+00
Ga    6.6156048033406414E+00    1.6966188776260100E+00    5.7524620227022778E+00
N    6.6153878425710193E+00    1.7121745452895543E+00    7.7440681125733972E+00
Ga    6.6135317762427954E+00   -1.3269262811721055E-01    8.3996659328558110E+00
N    6.6145686277571683E+00   -1.3533112703288511E-01    1.0367362225181378E+01
Ga    6.6142635832113932E+00    1.7049055601983030E+00    1.1023120794459333E+01
N    6.6140685901431215E+00    1.6839598282247952E+00    1.3010395075932674E+01
Ga    6.6161440041046324E+00   -1.3426558358569157E-01    1.3829253170170539E+01
N    6.6148939161537834E+00   -1.3617604235511879E-01    1.6016720191812514E+01
Ga    6.6144834132536925E+00    1.9139730523701457E+00    1.6439722757360073E+01
Ga    6.6126081927294438E+00    3.5850866343175301E+00    1.4627795586866139E+00
N    5.1148069869253767E+00    4.4483306301608891E+00    2.4815198011553932E+00
Ga    4.9025255334712572E+00    2.5857260601806722E+00    3.2423668780241988E+00
N    5.0057939870426136E+00    2.6520661114769961E+00    5.2013434446257882E+00
Ga    4.9861910772553815E+00    4.5211612785275248E+00    5.7541497919758378E+00
N    4.9956871387123201E+00    4.5150159857020542E+00    7.7444967165772285E+00
Ga    5.0148063205643361E+00    2.6565683779624467E+00    8.3886395969605960E+00
N    5.0174159641689569E+00    2.6567479235402085E+00    1.0376447337280913E+01
Ga    4.9917987739787479E+00    4.5150749147784328E+00    1.1023429954968867E+01
N    4.9739069663267612E+00    4.5244599546353115E+00    1.3011226730786410E+01
Ga    5.0168644126480499E+00    2.6550217461838992E+00    1.3573501373217121E+01
N    4.9916266402913276E+00    2.6379524399545020E+00    1.5529684295358255E+01
Ga    5.1701846690602871E+00    4.4099337672854775E+00    1.6439870405904646E+01
N    6.6089687944777831E+00    3.5791276995858667E+00    1.7586587098450149E+01
N    3.3893597708357639E+00    7.4184389638655057E+00    2.4645884549383901E+00
N    3.3980798039525384E+00    5.4393110805676557E+00    4.9673606929865839E+00
Ga    3.4043628504951235E+00    7.2630253344901661E+00    5.7602374621287229E+00
N    3.3960712712329451E+00    7.2833924917694732E+00    7.7450073854660682E+00
Ga    3.3990550043096661E+00    5.4365734730571385E+00    8.4005382399868171E+00
N    3.3975084673516340E+00    5.4356556867500290E+00    1.0367176205321986E+01
Ga    3.3996406222955522E+00    7.2745737611810597E+00    1.1026424730041787E+01
N    3.3981465538930689E+00    7.2541942907096262E+00    1.3012996065757644E+01
Ga    3.3983987029145597E+00    5.4340948050524833E+00    1.3829431923657618E+01
N    3.3978003600702134E+00    5.4334036240455470E+00    1.6016318637168126E+01
Ga    3.3978994829750850E+00    7.4804697972691212E+00    1.6440809957440628E+01
Ga    3.4318412009364128E+00    9.1688524464046672E+00    1.4121895941937646E+00
N    1.8939314417615818E+00    1.0014580774869705E+01    2.4590038166422734E+00
Ga    1.7652040805611988E+00    8.2172522299100255E+00    3.2785282541825453E+00
N    1.7774582029744526E+00    8.2169929475525674E+00    5.2030486893506200E+00
Ga    1.7625174558858931E+00    1.0105554914687145E+01    5.7587810116233653E+00
N    1.7813220030739576E+00    1.0083370634484837E+01    7.7447752829874021E+00
Ga    1.8026566851561683E+00    8.2298668485143143E+00    8.4008188857064141E+00
N    1.8019022934518316E+00    8.2276417340099499E+00    1.0382521326486078E+01
Ga    1.7753788187225619E+00    1.0087762643496269E+01    1.1026235165556267E+01
N    1.7579992796651269E+00    1.0095142197605645E+01    1.3012370586937188E+01
Ga    1.8009184475334565E+00    8.2262700729584477E+00    1.3575487878761953E+01
N    1.7737448870467321E+00    8.2116289169420540E+00    1.5531272953867601E+01
Ga    1.9583192586038034E+00    9.9792313613475692E+00    1.6440592273884196E+01
N    3.3980744893226071E+00    9.1419310228737238E+00    1.7587695782661012E+01
N    9.8306739691903555E+00    1.7261692748892743E+00    2.5514857873837538E+00
Ga    9.8344723741934814E+00   -1.5178952619813450E-02    3.2316816671646666E+00
N    9.8299603617996247E+00   -1.3357362192137320E-01    5.1930532326695467E+00
Ga    9.8326641246966044E+00    1.7248343382590092E+00    5.8230910517042469E+00
N    9.8316503454214335E+00    1.7235074114303899E+00    7.7921345733436214E+00
Ga    9.8330772240456241E+00   -1.4377421630310855E-01    8.3899512780275689E+00
N    9.8303207752700850E+00   -1.4745985920126520E-01    1.0377116070483121E+01
Ga    9.8305085146876330E+00    1.7219323643289868E+00    1.0978532163480798E+01
N    9.8302978310664759E+00    1.7206652806957989E+00    1.2945101818620875E+01
Ga    9.8306934842171962E+00   -1.4925219912647350E-01    1.3574407196892585E+01
N    9.8300650008487498E+00   -1.1887473226899313E-01    1.5529567497560615E+01
Ga    9.8297395421804001E+00    1.7199346609225030E+00    1.5806755638511820E+01
N    8.1161705306497307E+00    4.4500840786935578E+00    2.4748130533314745E+00
Ga    8.3243495448444840E+00    2.5960592707224022E+00    3.2402185946178910E+00
N    8.2255978714790583E+00    2.6530823104970849E+00    5.1990199646453963E+00
Ga    8.2492519242128175E+00    4.5255672410454126E+00    5.7508239965323904E+00
N    8.2340460250622396E+00    4.5149616075460433E+00    7.7429615480847760E+00
Ga    8.2136030072929120E+00    2.6578867056912796E+00    8.3890276230531811E+00
N    8.2119295706499607E+00    2.6564826570171602E+00    1.0376864242346871E+01
Ga    8.2369056594746013E+00    4.5153481155162520E+00    1.1023410755486166E+01
N    8.2541326099901902E+00    4.5244588564346300E+00    1.3010614228876149E+01
Ga    8.2106184592014593E+00    2.6558005538269804E+00    1.3573559682225342E+01
N    8.2373582759125235E+00    2.6392243496089156E+00    1.5528766973708782E+01
Ga    8.0539173415013057E+00    4.4071062605418980E+00    1.6439801067096521E+01
N    6.6231236950928754E+00    7.3010464404217963E+00    2.5690640900240260E+00
Ga    6.6205179260232985E+00    5.5622570833673972E+00    3.2453025021929229E+00
N    6.6150137203528532E+00    5.4397389084647854E+00    5.2035958793114787E+00
Ga    6.6208120488965871E+00    7.3001659603408209E+00    5.8223503619381027E+00
N    6.6135632782959881E+00    7.2946114876258576E+00    7.7944139972322972E+00
Ga    6.6149691205953554E+00    5.4272805625423608E+00    8.3884926556857558E+00
N    6.6142720313818764E+00    5.4222375253138608E+00    1.0376356634046157E+01
Ga    6.6140265253373043E+00    7.2920861409323976E+00    1.0976857939269292E+01
N    6.6135702084690315E+00    7.2910165203935433E+00    1.2942611481866793E+01
Ga    6.6143835038045511E+00    5.4217085449425033E+00    1.3573659449982104E+01
N    6.6155905031973443E+00    5.4507781663110899E+00    1.5529926568193767E+01
Ga    6.6101253114298837E+00    7.2881892437378175E+00    1.5813345138597658E+01
N    4.9054498553764034E+00    1.0022185204555878E+01    2.4694055304811320E+00
Ga    5.1151074091401521E+00    8.1705432816712698E+00    3.2366695697128969E+00
N    5.0024029667470424E+00    8.2238545668186340E+00    5.1974725228833805E+00
Ga    5.0366797844574398E+00    1.0097738675257203E+01    5.7483691319283023E+00
N    5.0160523714060297E+00    1.0085591285197845E+01    7.7409798737957152E+00
Ga    4.9987571382892808E+00    8.2293008417638234E+00    8.3893534027389265E+00
N    4.9942004417664068E+00    8.2274213759631181E+00    1.0376546505658705E+01
Ga    5.0217466960981643E+00    1.0086336218479863E+01    1.1023143984255491E+01
N    5.0379880103913992E+00    1.0094944453236323E+01    1.3010425825210351E+01
Ga    4.9956954577384032E+00    8.2264310615304250E+00    1.3574409316021692E+01
N    5.0217039453293166E+00    8.2118464302378307E+00    1.5530439113270157E+01
Ga    4.8374358866627416E+00    9.9792666703688013E+00    1.6440287336563177E+01
Ga    3.4080992891295550E+00    5.4339700262866986E+00    2.8194481325125991E+00
O   -2.9326963333073062E+00    9.1566144440303603E+00   -5.4515974740391793E-01
H    1.6431741382580120E-01    7.3087936446610406E+00    1.6152526350862129E+00
C   -2.7499564038349549E+00    1.0453881812693883E+01   -1.1350488608010771E+00
H   -3.6170155501433165E+00    1.1114099847714895E+01   -9.6921393222619179E-01
H   -1.8531880117162125E+00    1.0967397595305785E+01   -7.4953804299526972E-01
H   -2.6274143719645222E+00    1.0307271359882250E+01   -2.2178007730582561E+00
     &END COORD
     &KIND C
       BASIS_SET DZVP-MOLOPT-SR-GTH-q4
       POTENTIAL GTH-PBE-q4
       &POTENTIAL
 2 2
  0.3384712400000000E+00 2 -0.8803673979999999E+01  0.1339210850000000E+01
 2
  0.3025757500000000E+00 1  0.9622486650000001E+01
  0.2915069400000000E+00 0
         # Potential name:  GTH-PBE-Q4  for symbol:  C
         # Potential read from the potential filename: GTH_POTENTIALS
       &END POTENTIAL
     &END KIND
     &KIND O
       BASIS_SET DZVP-MOLOPT-SR-GTH-q6
       POTENTIAL GTH-PBE-q6
       &POTENTIAL
 2 4
  0.2445543000000000E+00 2 -0.1666721480000000E+02  0.2487311320000000E+01
 2
  0.2209559200000000E+00 1  0.1833745811000000E+02
  0.2113324700000000E+00 0
         # Potential name:  GTH-PBE-Q6  for symbol:  O
         # Potential read from the potential filename: GTH_POTENTIALS
       &END POTENTIAL
     &END KIND
     &KIND H
       BASIS_SET DZVP-MOLOPT-SR-GTH-q1
       POTENTIAL GTH-PBE-q1
       &POTENTIAL
 1
  0.2000000000000000E+00 2 -0.4178900440000000E+01  0.7244633100000000E+00
 0
         # Potential name:  GTH-PBE-Q1  for symbol:  H
         # Potential read from the potential filename: GTH_POTENTIALS
       &END POTENTIAL
     &END KIND
     &KIND N
       BASIS_SET DZVP-MOLOPT-SR-GTH
       POTENTIAL GTH-PBE-q5
       &POTENTIAL
 2 3
  0.2837905100000000E+00 2 -0.1241522559000000E+02  0.1868095920000000E+01
 2
  0.2554050000000000E+00 1  0.1363026257000000E+02
  0.2454945300000000E+00 0
         # Potential name:  GTH-PBE-Q5  for symbol:  N
         # Potential read from the potential filename: GTH_POTENTIALS
       &END POTENTIAL
     &END KIND
     &KIND Ga
       BASIS_SET DZVP-MOLOPT-SR-GTH
       POTENTIAL GTH-PBE-q13
       &POTENTIAL
 2 1 10
  0.4900000000000000E+00 0
 3
  0.4167772300000000E+00 3  0.1047568975000000E+02 -0.4921768140000000E+01  0.8707055900000000E+00
  0.7770178090000000E+01 -0.2248152160000000E+01
  0.1784415450000000E+01
  0.5696265200000000E+00 2  0.1777985340000000E+01  0.1958597600000000E+00
 -0.2317443900000000E+00
  0.2381265000000000E+00 1 -0.1624868022000000E+02
         # Potential name:  GTH-PBE-Q13  for symbol:  GA
         # Potential read from the potential filename: GTH_POTENTIALS
       &END POTENTIAL
     &END KIND
     &TOPOLOGY
       NUMBER_OF_ATOMS  206
       MULTIPLE_UNIT_CELL  1 1 1
     &END TOPOLOGY
   &END SUBSYS
 &END FORCE_EVAL
