 # Version information for this restart file 
 # current date 2019-07-19 20:59:09.455
 # current working dir /lustre04/scratch/rzk/rzk/GaN-carbene/443-adatoms-both-2x2/02-Methanol/04-H-NSur-Attempt2/02-RKS
 # Program compiled at                              Sun Apr  7 00:48:11 EDT 2019
 # Program compiled on                          beluga2.int.ets1.calculquebec.ca
 # Program compiled for                        Beluga-Linux-x86-64-intel-openmpi
 # Source code revision number                                         svn:18619
 &GLOBAL
   PRINT_LEVEL  MEDIUM
   PROJECT_NAME TEST
   RUN_TYPE  GEO_OPT
 &END GLOBAL
 &MOTION
   &GEO_OPT
     MAX_ITER  500
     STEP_START_VAL  172
   &END GEO_OPT
 &END MOTION
 &FORCE_EVAL
   METHOD  QS
   STRESS_TENSOR  ANALYTICAL
   &DFT
     BASIS_SET_FILE_NAME BASIS_MOLOPT
     POTENTIAL_FILE_NAME GTH_POTENTIALS
     UKS  F
     SURFACE_DIPOLE_CORRECTION  T
     SURF_DIP_DIR  Z
     &SCF
       MAX_SCF  80
       EPS_SCF     5.0000000000000004E-06
       &OT  T
         PRECONDITIONER  FULL_ALL
       &END OT
       &OUTER_SCF  T
         OPTIMIZER  NONE
         EPS_SCF     5.0000000000000004E-06
         MAX_SCF  4
       &END OUTER_SCF
       &PRINT
         &RESTART  OFF
           BACKUP_COPIES  1
           &EACH
             JUST_ENERGY  0
             QS_SCF  0
             MD  20
           &END EACH
         &END RESTART
       &END PRINT
     &END SCF
     &QS
       EPS_DEFAULT     1.0000000000000000E-14
       METHOD  GPW
     &END QS
     &MGRID
       NGRIDS  5
       CUTOFF     1.2000000000000000E+03
     &END MGRID
     &XC
       DENSITY_CUTOFF     1.0000000000000000E-10
       GRADIENT_CUTOFF     1.0000000000000000E-10
       TAU_CUTOFF     1.0000000000000000E-10
       &XC_FUNCTIONAL  NO_SHORTCUT
         &PBE  T
         &END PBE
       &END XC_FUNCTIONAL
       &VDW_POTENTIAL
         POTENTIAL_TYPE  PAIR_POTENTIAL
         &PAIR_POTENTIAL
           R_CUTOFF     1.0000000000000004E+01
           TYPE  DFTD3
           PARAMETER_FILE_NAME dftd3.dat
           REFERENCE_FUNCTIONAL PBE
           EPS_CN     9.9999999999999995E-07
           CALCULATE_C9_TERM  T
           REFERENCE_C9_TERM  T
           LONG_RANGE_CORRECTION  F
           VERBOSE_OUTPUT  F
         &END PAIR_POTENTIAL
       &END VDW_POTENTIAL
     &END XC
   &END DFT
   &SUBSYS
     &CELL
       A     1.2864472766435110E+01    0.0000000000000000E+00    0.0000000000000000E+00
       B    -6.4322363581020028E+00    1.1140960178524473E+01    0.0000000000000000E+00
       C     0.0000000000000000E+00    0.0000000000000000E+00    3.2000000000000000E+01
       MULTIPLE_UNIT_CELL  1 1 1
       &CELL_REF
         A     1.2982353780853531E+01    0.0000000000000000E+00    0.0000000000000000E+00
         B    -6.4911768904267628E+00    1.1243048175136114E+01    0.0000000000000000E+00
         C     0.0000000000000000E+00    0.0000000000000000E+00    3.2000000000000000E+01
         MULTIPLE_UNIT_CELL  1 1 1
       &END CELL_REF
     &END CELL
     &COORD
N    1.8381861249377662E-01    1.8421288082957550E+00    2.4664764739291294E+00
Ga    2.2391645728233361E-01   -1.5623318080917067E-01    2.7842281890711016E+00
N    1.8427372232589700E-01   -1.3306312422328792E-01    4.9614695836842255E+00
Ga    1.8364461832581697E-01    1.6906590206165346E+00    5.7468208631353974E+00
N    1.8230219962613850E-01    1.7127212799596230E+00    7.7398954398090654E+00
Ga    1.8451319569666894E-01   -1.3407037445272840E-01    8.3948274279495489E+00
N    1.8214531084976662E-01   -1.3428124077320405E-01    1.0364741098124910E+01
Ga    1.8247068425763224E-01    1.7043793980123674E+00    1.1022711746037414E+01
N    1.8191026180335262E-01    1.6848067105292717E+00    1.3009787663505467E+01
Ga    1.7992526548821516E-01   -1.3406781752945149E-01    1.3827054940063242E+01
N    1.7991923553612790E-01   -1.3534002461409383E-01    1.6015467507864233E+01
Ga    1.8033039161352615E-01    1.9146243400039793E+00    1.6439704223906215E+01
Ga    1.8603593010230660E-01    3.5459629621355293E+00    1.4054582576570716E+00
N   -1.3159719955772371E+00    4.4560129266274613E+00    2.4563494820251779E+00
Ga   -1.5225475678363276E+00    2.5933412135952483E+00    3.2292914873576914E+00
N   -1.4237851721438262E+00    2.6555126899144117E+00    5.1916643215846667E+00
Ga   -1.4611042419925302E+00    4.5230138747004869E+00    5.7552281112480790E+00
N   -1.4338347295866816E+00    4.5153966171068509E+00    7.7423959958408526E+00
Ga   -1.4147980991747899E+00    2.6556411553224524E+00    8.3892157114515840E+00
N   -1.4147236439676276E+00    2.6573962124165686E+00    1.0376577703807140E+01
Ga   -1.4418851108953632E+00    4.5151139100366509E+00    1.1025987652772599E+01
N   -1.4583037130105956E+00    4.5251798648166881E+00    1.3011855742266436E+01
Ga   -1.4144671162092479E+00    2.6561656625314449E+00    1.3573783848349278E+01
N   -1.4427496232850727E+00    2.6395715058501721E+00    1.5528639486914788E+01
Ga   -1.2590610397429551E+00    4.4073617505858653E+00    1.6440277514486247E+01
N    1.8510544993572214E-01    3.5789787468117953E+00    1.7588270474248660E+01
N   -3.0281980481348607E+00    7.4364773219816414E+00    2.4397358117901464E+00
Ga   -3.0432368719728622E+00    5.4742998645289811E+00    2.7906122792786299E+00
N   -3.0320555039374666E+00    5.4402047786399335E+00    4.9620214429681733E+00
Ga   -3.0412132148208579E+00    7.2654991254073540E+00    5.7552890008124606E+00
N   -3.0318385436277038E+00    7.2826891449564650E+00    7.7461192619325585E+00
Ga   -3.0342041262177624E+00    5.4381882555134959E+00    8.4001070184624425E+00
N   -3.0332800435936238E+00    5.4359264153755014E+00    1.0367589229795016E+01
Ga   -3.0354935996065340E+00    7.2751156250329165E+00    1.1025957329187113E+01
N   -3.0345455034059117E+00    7.2541885167004168E+00    1.3014383529145066E+01
Ga   -3.0345386021756502E+00    5.4327652331772303E+00    1.3828818591666154E+01
N   -3.0349458904375965E+00    5.4325679420944031E+00    1.6016207836384513E+01
Ga   -3.0354242650275634E+00    7.4746929678985410E+00    1.6426461993846516E+01
Ga   -3.0673485353205554E+00    9.1386831551464383E+00    1.2651799967086019E+00
N   -4.5172674455489830E+00    1.0006988952930451E+01    2.4490054981718372E+00
Ga   -4.7143051024680949E+00    8.1887005165165139E+00    3.2171908455761842E+00
N   -4.6411017473026348E+00    8.2210730504746685E+00    5.1967492768242440E+00
Ga   -4.6607787341920490E+00    1.0093083947355405E+01    5.7434082204268950E+00
N   -4.6512815277458976E+00    1.0085265070506052E+01    7.7420352607006064E+00
Ga   -4.6331642336940817E+00    8.2301370924206019E+00    8.3882333523729855E+00
N   -4.6308020780447237E+00    8.2275893350455931E+00    1.0377881574874577E+01
Ga   -4.6573033865637479E+00    1.0086877832743390E+01    1.1023004264782173E+01
N   -4.6749883844699740E+00    1.0095965696046958E+01    1.3012545473271741E+01
Ga   -4.6329862641835549E+00    8.2262928476867785E+00    1.3572165661494568E+01
N   -4.6637224731397096E+00    8.2076412071755556E+00    1.5530420334947332E+01
Ga   -4.4843614535221468E+00    9.9845267901007020E+00    1.6425906423881894E+01
N   -3.0357292420202846E+00    9.1477392385095104E+00    1.7543722824668713E+01
N    3.3989083327654215E+00    1.7133511249368336E+00    2.5615902772330177E+00
Ga    3.3993741734273204E+00   -5.6713468797040686E-02    3.2069455940303091E+00
N    3.4008876371409635E+00   -1.3115725899544711E-01    5.1923622773225642E+00
Ga    3.3980816628200685E+00    1.7154405715178536E+00    5.8205450459850310E+00
N    3.3982462447314821E+00    1.7243176948142613E+00    7.7935220875226374E+00
Ga    3.3968310932287764E+00   -1.4426608775318706E-01    8.3878266981744556E+00
N    3.3984995118572323E+00   -1.4724946701193772E-01    1.0377658465433910E+01
Ga    3.3983050190477444E+00    1.7223689337928476E+00    1.0977328390101448E+01
N    3.3974780212808788E+00    1.7216744738049958E+00    1.2942709801899699E+01
Ga    3.3974074173736510E+00   -1.4663391700940595E-01    1.3572234910316539E+01
N    3.3970118784104515E+00   -1.1269683123747000E-01    1.5530495435896501E+01
Ga    3.3971933520519459E+00    1.7244596925685873E+00    1.5813183113921777E+01
N    1.6808690396288382E+00    4.4570194597282358E+00    2.4627912185336829E+00
Ga    1.8925576238357045E+00    2.5850359593362908E+00    3.2323432250954540E+00
N    1.7897889596127927E+00    2.6559755885323360E+00    5.1942525947984937E+00
Ga    1.8222385676985287E+00    4.5199774331439508E+00    5.7580860669692244E+00
N    1.7989269996123418E+00    4.5161128516368150E+00    7.7437576384067821E+00
Ga    1.7812571629560778E+00    2.6549962440326937E+00    8.3889146868816109E+00
N    1.7787792677527750E+00    2.6578622821614823E+00    1.0376214645496553E+01
Ga    1.8063024757670936E+00    4.5147230145036028E+00    1.1026689134612981E+01
N    1.8219300988853027E+00    4.5249129141472135E+00    1.3012900056261287E+01
Ga    1.7788344758827226E+00    2.6555209135046862E+00    1.3574152901924034E+01
N    1.8033302020665576E+00    2.6382949565020182E+00    1.5529895436453465E+01
Ga    1.6238464038869134E+00    4.4095785386573718E+00    1.6440742168276973E+01
N    1.7089807155645823E-01    7.3027055331498882E+00    2.6413755863269506E+00
Ga    1.7717203904633677E-01    5.4644313100746293E+00    3.2759313813495443E+00
N    1.8292487555718479E-01    5.4532617017776204E+00    5.2013795231222337E+00
Ga    1.7548872145778277E-01    7.2991012752948414E+00    5.8584406636845596E+00
N    1.8301226109688001E-01    7.2940791314688402E+00    7.8107898491735037E+00
Ga    1.8225971809665137E-01    5.4227500239931743E+00    8.3999269478971694E+00
N    1.8241870433564994E-01    5.4221194161951969E+00    1.0381830295803057E+01
Ga    1.8209999447357730E-01    7.2926446358583705E+00    1.0981792830042377E+01
N    1.8181133535947944E-01    7.2913817534785768E+00    1.2945474860821488E+01
Ga    1.8173762734429161E-01    5.4217945788256872E+00    1.3575312501206835E+01
N    1.7938378473672448E-01    5.4514934388251088E+00    1.5531045000064100E+01
Ga    1.8469088259994945E-01    7.2888549952361341E+00    1.5813839584915300E+01
N   -1.5364338506715762E+00    1.0009862477676537E+01    2.4505633801473028E+00
Ga   -1.4405846887457754E+00    8.2400780034221466E+00    3.2678733366806134E+00
N   -1.4130734065483297E+00    8.2158698561081192E+00    5.2050792845106040E+00
Ga   -1.4039173751684810E+00    1.0103273545829609E+01    5.7532867784182660E+00
N   -1.4144568560031696E+00    1.0083950470860966E+01    7.7452719848640097E+00
Ga   -1.4395943205865296E+00    8.2311646966611267E+00    8.3991029078059078E+00
N   -1.4372942618496607E+00    8.2279723096528308E+00    1.0383324701928322E+01
Ga   -1.4113278605949824E+00    1.0088266705917857E+01    1.1026188332838760E+01
N   -1.3938539203149829E+00    1.0096110844060231E+01    1.3014622355414309E+01
Ga   -1.4366606998569622E+00    8.2262870469620832E+00    1.3573462266759458E+01
N   -1.4064479394724261E+00    8.2075261959417709E+00    1.5531590507522489E+01
Ga   -1.5867824553471597E+00    9.9843861632121786E+00    1.6426446433313977E+01
N    6.6158307069541733E+00    1.8486076043717456E+00    2.4745421136397758E+00
Ga    6.5777034937612582E+00   -1.4270734395129164E-01    2.8012934163056911E+00
N    6.6175828912823826E+00   -1.3228358191454917E-01    4.9689033385672081E+00
Ga    6.6159769545557250E+00    1.6960018939335728E+00    5.7526497448388731E+00
N    6.6158156232490972E+00    1.7121548358883454E+00    7.7443161175441215E+00
Ga    6.6139268854323365E+00   -1.3269786750718982E-01    8.3996705937923757E+00
N    6.6147069960937017E+00   -1.3492511430894930E-01    1.0367390936962479E+01
Ga    6.6144054415465252E+00    1.7053477118888722E+00    1.1023308178361354E+01
N    6.6137866233670186E+00    1.6844871768506058E+00    1.3010505172951241E+01
Ga    6.6157040681471315E+00   -1.3393417762767593E-01    1.3828769489980598E+01
N    6.6143332614926109E+00   -1.3563150165421098E-01    1.6016417869416877E+01
Ga    6.6138269227824562E+00    1.9141428444477502E+00    1.6439760665991486E+01
Ga    6.6130300543327145E+00    3.5838411763599476E+00    1.4630496387611589E+00
N    5.1150950846875327E+00    4.4472946045549868E+00    2.4816936719058678E+00
Ga    4.9027670944678885E+00    2.5849382294276473E+00    3.2428006949316845E+00
N    5.0061941502144691E+00    2.6514302603321371E+00    5.2018831890849277E+00
Ga    4.9867352792023620E+00    4.5205900310513245E+00    5.7541025655576048E+00
N    4.9962844662582411E+00    4.5149416434648959E+00    7.7447165669019347E+00
Ga    5.0154132051386346E+00    2.6566457811262221E+00    8.3893212885462720E+00
N    5.0175881795776389E+00    2.6573173956972003E+00    1.0376955877905990E+01
Ga    4.9921003632454726E+00    4.5155184213219650E+00    1.1024195364459757E+01
N    4.9739243778234279E+00    4.5249650775581527E+00    1.3011693111253345E+01
Ga    5.0165811271097462E+00    2.6555803735588541E+00    1.3573512660257231E+01
N    4.9912617744315151E+00    2.6384862854514566E+00    1.5529830535671652E+01
Ga    5.1696546718846044E+00    4.4103535047633908E+00    1.6440190884647585E+01
N    6.6089540961981612E+00    3.5795146722880498E+00    1.7586784915667661E+01
N    3.3896641200920903E+00    7.4175299223647082E+00    2.4641326453616914E+00
N    3.3987098612736548E+00    5.4387845746834911E+00    4.9674907051912323E+00
Ga    3.4051259380267291E+00    7.2624766275618917E+00    5.7599430772461453E+00
N    3.3966212238949032E+00    7.2835128527813513E+00    7.7450830720192423E+00
Ga    3.3997925890320024E+00    5.4366824854622600E+00    8.4009133604381265E+00
N    3.3979146315826121E+00    5.4359692949411995E+00    1.0367573534227635E+01
Ga    3.3999072676776154E+00    7.2748530066078434E+00    1.1026714785485410E+01
N    3.3980118355738917E+00    7.2547435698038143E+00    1.3013129648622092E+01
Ga    3.3982103727055479E+00    5.4345600526419489E+00    1.3829180419842091E+01
N    3.3972709272861761E+00    5.4336455074027290E+00    1.6016308819110296E+01
Ga    3.3974685429947677E+00    7.4808137693652190E+00    1.6440909492610931E+01
Ga    3.4325914925182639E+00    9.1683320834000011E+00    1.4110699536152218E+00
N    1.8942853529996559E+00    1.0013812327354191E+01    2.4589735668481332E+00
Ga    1.7656258447773991E+00    8.2164043541827141E+00    3.2778797750668165E+00
N    1.7780420284042886E+00    8.2165739039444396E+00    5.2030726125021634E+00
Ga    1.7628499549482244E+00    1.0105337834774447E+01    5.7586385495024004E+00
N    1.7818193848050528E+00    1.0083296520498553E+01    7.7447998827825524E+00
Ga    1.8031109547477306E+00    8.2298929119082498E+00    8.4009947948855199E+00
N    1.8022356751087776E+00    8.2277946537509781E+00    1.0382672893579123E+01
Ga    1.7754565203094750E+00    1.0088041778523849E+01    1.1025988289258802E+01
N    1.7577541630522864E+00    1.0095397373364358E+01    1.3012137559765526E+01
Ga    1.8006921515591594E+00    8.2265435537762919E+00    1.3575414894754644E+01
N    1.7734777444589627E+00    8.2122148108181356E+00    1.5531327778282067E+01
Ga    1.9573994180558911E+00    9.9798700482054929E+00    1.6440479511300463E+01
N    3.3974883235359994E+00    9.1427894028185257E+00    1.7586527963594939E+01
N    9.8312310451090337E+00    1.7250722437473698E+00    2.5521939193411045E+00
Ga    9.8349244290575104E+00   -1.6454579488252005E-02    3.2318822301759091E+00
N    9.8306407945701615E+00   -1.3432817929435772E-01    5.1934251252827526E+00
Ga    9.8330255078891575E+00    1.7239362817243808E+00    5.8237263065085765E+00
N    9.8319291840108463E+00    1.7232984349872102E+00    7.7926530736895021E+00
Ga    9.8337454389316878E+00   -1.4390920670960117E-01    8.3902384617120571E+00
N    9.8305479763638814E+00   -1.4726233109235312E-01    1.0377299813049111E+01
Ga    9.8306419852524769E+00    1.7222678354442369E+00    1.0978280629666468E+01
N    9.8302997360104367E+00    1.7213659308500378E+00    1.2945036615947453E+01
Ga    9.8304844873925905E+00   -1.4900710021909591E-01    1.3573936934039152E+01
N    9.8295186277045712E+00   -1.1862674206115460E-01    1.5529322560472568E+01
Ga    9.8292932061366116E+00    1.7203791689320074E+00    1.5806502392401272E+01
N    8.1163312099531755E+00    4.4487589105159442E+00    2.4753442288911405E+00
Ga    8.3246847781867661E+00    2.5947984310344920E+00    3.2406513890822151E+00
N    8.2260921823370801E+00    2.6521893537882919E+00    5.1996354151390687E+00
Ga    8.2492949662201980E+00    4.5247366097755899E+00    5.7509947418708665E+00
N    8.2342770828032457E+00    4.5146755427041230E+00    7.7432784045607610E+00
Ga    8.2139993635991040E+00    2.6577477262046592E+00    8.3895078327342247E+00
N    8.2121223935163155E+00    2.6569292914271827E+00    1.0377193108202150E+01
Ga    8.2370372925147901E+00    4.5158691330527283E+00    1.1023431200742982E+01
N    8.2543683801537213E+00    4.5253959876752319E+00    1.3010614809045649E+01
Ga    8.2101941311963884E+00    2.6565999976029571E+00    1.3573162995873139E+01
N    8.2367221864978433E+00    2.6398412568610397E+00    1.5528737751159932E+01
Ga    8.0539456448067508E+00    4.4079895213507321E+00    1.6439935344252493E+01
N    6.6232552646001785E+00    7.3000639011242354E+00    2.5690981198847780E+00
Ga    6.6206010597556313E+00    5.5612325540188907E+00    3.2453569479284421E+00
N    6.6153627097884318E+00    5.4393193153547710E+00    5.2038681234836606E+00
Ga    6.6210526111142531E+00    7.2995612315825209E+00    5.8230651145882062E+00
N    6.6138483884351444E+00    7.2944255679786369E+00    7.7950080443970693E+00
Ga    6.6154394012253830E+00    5.4272725074932655E+00    8.3891726315010970E+00
N    6.6143739745770560E+00    5.4226663035084686E+00    1.0376843141242636E+01
Ga    6.6142730785063018E+00    7.2924491498299870E+00    1.0977004077773094E+01
N    6.6136649290977694E+00    7.2916284132113853E+00    1.2942729780981242E+01
Ga    6.6142716989847994E+00    5.4222353818604336E+00    1.3573587248365129E+01
N    6.6151870259178152E+00    5.4513634177923462E+00    1.5530183876751861E+01
Ga    6.6098541262831478E+00    7.2889123882045350E+00    1.5813780454102163E+01
N    4.9057157093185593E+00    1.0021154374503404E+01    2.4697306980872611E+00
Ga    5.1152040921920525E+00    8.1697275844788209E+00    3.2362917239318478E+00
N    5.0030488077489670E+00    8.2233743440767597E+00    5.1973759891205358E+00
Ga    5.0373851215523286E+00    1.0097145855339859E+01    5.7485458205928675E+00
N    5.0164273501969179E+00    1.0085393045969854E+01    7.7411420742012425E+00
Ga    4.9993338505560141E+00    8.2294852538072014E+00    8.3899670171977370E+00
N    4.9943894426397204E+00    8.2276141578906401E+00    1.0376964579966712E+01
Ga    5.0221225752902914E+00    1.0086684458088351E+01    1.1022823175954219E+01
N    5.0380575722875767E+00    1.0095434040073119E+01    1.3010166926692467E+01
Ga    4.9955289614035703E+00    8.2268645713240360E+00    1.3574348794597801E+01
N    5.0212445316834602E+00    8.2123518631257824E+00    1.5530548395104457E+01
Ga    4.8373678650548841E+00    9.9799341335415725E+00    1.6440072359862562E+01
Ga    3.4082219718139406E+00    5.4331119258813025E+00    2.8186941243664396E+00
O   -2.9322671987427422E+00    9.1587149086885269E+00   -5.4508889201315891E-01
H    1.6437529994076183E-01    7.3089013171724782E+00    1.6147127444150009E+00
C   -2.7499070806710182E+00    1.0457586949524110E+01   -1.1318133088586455E+00
H   -3.6182461182468950E+00    1.1116794044162566E+01   -9.6582042643538912E-01
H   -1.8530534547579247E+00    1.0970983565341498E+01   -7.4494660163338156E-01
H   -2.6267315522053680E+00    1.0313287426595542E+01   -2.2144929392289940E+00
     &END COORD
     &KIND C
       BASIS_SET DZVP-MOLOPT-SR-GTH-q4
       POTENTIAL GTH-PBE-q4
       &POTENTIAL
 2 2
  0.3384712400000000E+00 2 -0.8803673979999999E+01  0.1339210850000000E+01
 2
  0.3025757500000000E+00 1  0.9622486650000001E+01
  0.2915069400000000E+00 0
         # Potential name:  GTH-PBE-Q4  for symbol:  C
         # Potential read from the potential filename: GTH_POTENTIALS
       &END POTENTIAL
     &END KIND
     &KIND O
       BASIS_SET DZVP-MOLOPT-SR-GTH-q6
       POTENTIAL GTH-PBE-q6
       &POTENTIAL
 2 4
  0.2445543000000000E+00 2 -0.1666721480000000E+02  0.2487311320000000E+01
 2
  0.2209559200000000E+00 1  0.1833745811000000E+02
  0.2113324700000000E+00 0
         # Potential name:  GTH-PBE-Q6  for symbol:  O
         # Potential read from the potential filename: GTH_POTENTIALS
       &END POTENTIAL
     &END KIND
     &KIND H
       BASIS_SET DZVP-MOLOPT-SR-GTH-q1
       POTENTIAL GTH-PBE-q1
       &POTENTIAL
 1
  0.2000000000000000E+00 2 -0.4178900440000000E+01  0.7244633100000000E+00
 0
         # Potential name:  GTH-PBE-Q1  for symbol:  H
         # Potential read from the potential filename: GTH_POTENTIALS
       &END POTENTIAL
     &END KIND
     &KIND N
       BASIS_SET DZVP-MOLOPT-SR-GTH
       POTENTIAL GTH-PBE-q5
       &POTENTIAL
 2 3
  0.2837905100000000E+00 2 -0.1241522559000000E+02  0.1868095920000000E+01
 2
  0.2554050000000000E+00 1  0.1363026257000000E+02
  0.2454945300000000E+00 0
         # Potential name:  GTH-PBE-Q5  for symbol:  N
         # Potential read from the potential filename: GTH_POTENTIALS
       &END POTENTIAL
     &END KIND
     &KIND Ga
       BASIS_SET DZVP-MOLOPT-SR-GTH
       POTENTIAL GTH-PBE-q13
       &POTENTIAL
 2 1 10
  0.4900000000000000E+00 0
 3
  0.4167772300000000E+00 3  0.1047568975000000E+02 -0.4921768140000000E+01  0.8707055900000000E+00
  0.7770178090000000E+01 -0.2248152160000000E+01
  0.1784415450000000E+01
  0.5696265200000000E+00 2  0.1777985340000000E+01  0.1958597600000000E+00
 -0.2317443900000000E+00
  0.2381265000000000E+00 1 -0.1624868022000000E+02
         # Potential name:  GTH-PBE-Q13  for symbol:  GA
         # Potential read from the potential filename: GTH_POTENTIALS
       &END POTENTIAL
     &END KIND
     &TOPOLOGY
       NUMBER_OF_ATOMS  206
       MULTIPLE_UNIT_CELL  1 1 1
     &END TOPOLOGY
   &END SUBSYS
 &END FORCE_EVAL
