 # Version information for this restart file 
 # current date 2019-05-27 19:47:16.672
 # current working dir /lustre03/project/6004141/rzk/GaN-carbene/334-native/08-2Methanol-Htransfer/01-Constraint/1.26
 # Program compiled at                              Sun Apr  7 00:48:11 EDT 2019
 # Program compiled on                          beluga2.int.ets1.calculquebec.ca
 # Program compiled for                        Beluga-Linux-x86-64-intel-openmpi
 # Source code revision number                                         svn:18619
 &GLOBAL
   PRINT_LEVEL  MEDIUM
   PROJECT_NAME TEST
   RUN_TYPE  GEO_OPT
 &END GLOBAL
 &MOTION
   &GEO_OPT
     MAX_ITER  500
     STEP_START_VAL  161
   &END GEO_OPT
   &CONSTRAINT
     &COLLECTIVE
       COLVAR  1
       INTERMOLECULAR  T
       TARGET     2.3810549274359101E+00
       &RESTRAINT
         K     1.0000000000000001E-01
       &END RESTRAINT
     &END COLLECTIVE
     &COLVAR_RESTART
           2.3810549274359101E+00
     &END COLVAR_RESTART
   &END CONSTRAINT
 &END MOTION
 &FORCE_EVAL
   METHOD  QS
   STRESS_TENSOR  ANALYTICAL
   &DFT
     BASIS_SET_FILE_NAME BASIS_MOLOPT
     POTENTIAL_FILE_NAME GTH_POTENTIALS
     &SCF
       MAX_SCF  100
       EPS_SCF     5.0000000000000004E-06
       &OT  T
         PRECONDITIONER  FULL_ALL
       &END OT
       &OUTER_SCF  T
         OPTIMIZER  NONE
         EPS_SCF     5.0000000000000004E-06
         MAX_SCF  4
       &END OUTER_SCF
       &PRINT
         &RESTART  OFF
           BACKUP_COPIES  1
           &EACH
             JUST_ENERGY  0
             QS_SCF  0
             MD  20
           &END EACH
         &END RESTART
       &END PRINT
     &END SCF
     &QS
       EPS_DEFAULT     1.0000000000000000E-14
       ALMO_SCF  F
       METHOD  GPW
     &END QS
     &MGRID
       NGRIDS  5
       CUTOFF     1.2000000000000000E+03
     &END MGRID
     &XC
       DENSITY_CUTOFF     1.0000000000000000E-10
       GRADIENT_CUTOFF     1.0000000000000000E-10
       TAU_CUTOFF     1.0000000000000000E-10
       &XC_FUNCTIONAL  NO_SHORTCUT
         &PBE  T
         &END PBE
       &END XC_FUNCTIONAL
       &VDW_POTENTIAL
         POTENTIAL_TYPE  PAIR_POTENTIAL
         &PAIR_POTENTIAL
           R_CUTOFF     1.0000000000000005E+01
           TYPE  DFTD3
           PARAMETER_FILE_NAME dftd3.dat
           REFERENCE_FUNCTIONAL PBE
           EPS_CN     9.9999999999999995E-07
           CALCULATE_C9_TERM  T
           REFERENCE_C9_TERM  T
           LONG_RANGE_CORRECTION  F
           VERBOSE_OUTPUT  F
         &END PAIR_POTENTIAL
       &END VDW_POTENTIAL
     &END XC
   &END DFT
   &SUBSYS
     &CELL
       A     9.7367653356401487E+00    0.0000000000000000E+00    0.0000000000000000E+00
       B    -4.8591341382960209E+00    8.4162672083210595E+00    0.0000000000000000E+00
       C     0.0000000000000000E+00    0.0000000000000000E+00    3.0744000000000000E+01
       MULTIPLE_UNIT_CELL  1 1 1
       &CELL_REF
         A     9.5580000000000052E+00    0.0000000000000000E+00    0.0000000000000000E+00
         B    -4.7790000000000026E+00    8.2774708093716640E+00    0.0000000000000000E+00
         C     0.0000000000000000E+00    0.0000000000000000E+00    3.0744000000000000E+01
         MULTIPLE_UNIT_CELL  1 1 1
       &END CELL_REF
     &END CELL
     &COORD
Ga    1.3461967363996552E-02   -1.4442764357141136E-02   -5.4682398701335677E-01
N    1.6156266451774755E-02    1.8606912869736318E+00    6.0837855239419480E-01
Ga    1.6665379249035057E-02    1.8291885453884824E+00    2.6374173036248312E+00
N    1.4325747744433587E-02   -1.4665080192574748E-02    3.2699968950325191E+00
Ga    1.6316090965502742E-02   -1.3470659389359287E-02    5.2586965725272803E+00
N    1.9241015514837017E-02    1.8610751821540834E+00    5.8478246300513321E+00
Ga    2.1295739368113194E-02    1.8591704301467298E+00    7.8443913470654270E+00
N    1.7557072357155808E-02   -1.2763353166672707E-02    8.4512459377487925E+00
Ga    2.3753891842387510E-02   -8.9679866940220680E-03    1.0447477076134900E+01
N    2.4467696863415531E-02    1.8595246004499411E+00    1.1060761302282231E+01
Ga    2.6877269033677900E-02    1.8590796858540330E+00    1.3067184759715799E+01
N    1.1409529211876105E-02   -1.2701431005768347E-02    1.3669158289322954E+01
Ga    1.7126650562110556E-02    1.6953265209655648E-03    1.5694335796852533E+01
N    4.8013265888171994E-02    1.8587860961426377E+00    1.6281208715137520E+01
Ga    4.4572852024107747E-02    1.8661168370333718E+00    1.8472224615302778E+01
N    2.5168443522744773E-02   -1.2139659719635019E-02    1.8931146754909690E+01
Ga   -1.6060485814983709E+00    2.7908187525948454E+00    3.2445679880963435E-01
N   -1.6079829339399643E+00    4.6604780471053111E+00    6.0839528822991473E-01
Ga   -1.5785352766172951E+00    4.6766768571942059E+00    2.6369431825873986E+00
N   -1.6057338067829288E+00    2.7912543617936936E+00    3.2311988990604168E+00
Ga   -1.6043057977392527E+00    2.7927989183516115E+00    5.2411350091411926E+00
N   -1.6034615399059313E+00    4.6630322603501249E+00    5.8511793491885884E+00
Ga   -1.6012399626573453E+00    4.6640158646413958E+00    7.8491873402198395E+00
N   -1.6008771632085803E+00    2.7913015613809851E+00    8.4491078682856529E+00
Ga   -1.5943645043379930E+00    2.7897026358230921E+00    1.0440528338657797E+01
N   -1.5972040574918176E+00    4.6640341905366247E+00    1.1039910991322731E+01
Ga   -1.5808473382066919E+00    4.6417324931980470E+00    1.3021571483589335E+01
N   -1.5936799642628205E+00    2.7939016875251808E+00    1.3654157384821412E+01
Ga   -1.5595738781628963E+00    2.7695420788851419E+00    1.5675303515780151E+01
N   -1.5901449725713555E+00    4.6709586910026202E+00    1.6218084044325000E+01
Ga   -1.6214628540699878E+00    4.6134644818433621E+00    1.8233795583605264E+01
N   -1.6040375408292096E+00    2.8095579466333938E+00    1.8753555330175214E+01
Ga   -3.2265242673461381E+00    5.5966991281259020E+00    3.2447221086405775E-01
N   -3.2194044197524541E+00    7.4664045136349140E+00    6.0784297103304030E-01
Ga   -3.2465394251624882E+00    7.4820066651406201E+00    2.6366940831906831E+00
N   -3.2249548527815319E+00    5.5968355927503177E+00    3.2306301941354216E+00
Ga   -3.2227126407785582E+00    5.5981408311865586E+00    5.2399643650481726E+00
N   -3.2179615945324196E+00    7.4680211321720344E+00    5.8503099706905752E+00
Ga   -3.2174839111574172E+00    7.4692545175600795E+00    7.8480747938720157E+00
N   -3.2237695571593896E+00    5.5982520559813373E+00    8.4560671776264016E+00
Ga   -3.2202848870187726E+00    5.6060358764161817E+00    1.0449948704142114E+01
N   -3.2177355063001976E+00    7.4729677840780564E+00    1.1063570358163632E+01
Ga   -3.2041263791537831E+00    7.5127688508031047E+00    1.3067300877613093E+01
N   -3.2209530149728618E+00    5.5906261358785878E+00    1.3620404174484472E+01
Ga   -3.0056688465277452E+00    5.7298872706277004E+00    1.5532689874618979E+01
N   -3.3066946090342246E+00    7.4016224996348381E+00    1.6297414008747968E+01
Ga   -3.2796756263303335E+00    7.4650440563254330E+00    1.8433121214399208E+01
N   -3.1038015249793207E+00    5.5992273362919320E+00    1.8965320804156004E+01
Ga    3.2591628001167212E+00   -1.4912353591701523E-02    3.2422022424824842E-01
N    3.2574016947062225E+00    1.8550251421264674E+00    6.0733218002141076E-01
Ga    3.2869261682199733E+00    1.8711209257547738E+00    2.6361098135541066E+00
N    3.2597309349132964E+00   -1.4130981089671511E-02    3.2303026385258624E+00
Ga    3.2614213011910693E+00   -1.3051305722728588E-02    5.2398221605891813E+00
N    3.2623626143148328E+00    1.8570919049237364E+00    5.8502207443230612E+00
Ga    3.2643351782015251E+00    1.8567160682856947E+00    7.8482632222400897E+00
N    3.2627068472649396E+00   -1.2977033902907116E-02    8.4570726443203430E+00
Ga    3.2656785126456955E+00   -1.1929637711353124E-02    1.0455947944796847E+01
N    3.2641574032810130E+00    1.8586088681087156E+00    1.1065522335536135E+01
Ga    3.2402221141369876E+00    1.8268196556462832E+00    1.3072419122417331E+01
N    3.2516132134146538E+00   -7.3905192257427534E-03    1.3745771667756401E+01
Ga    3.2337699367689670E+00   -7.5076906789998152E-04    1.6014776815868174E+01
N    3.2766091381555862E+00    1.9605705622639200E+00    1.6266019837404794E+01
Ga    3.2458716102148868E+00    1.9229880986291119E+00    1.8373673728526672E+01
N    3.2299878156221462E+00    1.2506992255967695E-02    1.8295537141157666E+01
Ga    1.6383218871713410E+00    2.7913035262698518E+00    3.2484624545881868E-01
N    1.6455494464803546E+00    4.6612835925718024E+00    6.0813570755573065E-01
Ga    1.6182846036152347E+00    4.6769277128028719E+00    2.6371072630637795E+00
N    1.6404565167017726E+00    2.7910987606797484E+00    3.2299505759748035E+00
Ga    1.6423262081703089E+00    2.7923229029004886E+00    5.2393643550818361E+00
N    1.6466886605095656E+00    4.6625321346962156E+00    5.8491049720424959E+00
Ga    1.6456642793846052E+00    4.6622314088776085E+00    7.8460917296861803E+00
N    1.6432644442608197E+00    2.7918347124915228E+00    8.4524680992192440E+00
Ga    1.6455683206739722E+00    2.7879165808350219E+00    1.0446454316793124E+01
N    1.6501820102556259E+00    4.6670980730856577E+00    1.1038643011598342E+01
Ga    1.6346488624980795E+00    4.6492122884576261E+00    1.3016343475580090E+01
N    1.6431403645254328E+00    2.8102652636887102E+00    1.3668316547518272E+01
Ga    1.6347035072852765E+00    2.8010479960872980E+00    1.5685069638770903E+01
N    1.6379821670197632E+00    4.6939237578266200E+00    1.6342830179644992E+01
Ga    1.5193155123858213E+00    4.5768320038527284E+00    1.8383123785634506E+01
N    1.6754538851409666E+00    2.8219959070307579E+00    1.8952326273029609E+01
Ga    1.8511703781370185E-02    5.5967016234878706E+00   -5.4637163798001798E-01
N    2.2389961210418818E-02    7.4713937570048907E+00    6.0825615976047764E-01
Ga    2.2779833744065132E-02    7.4396269181660051E+00    2.6369803946406973E+00
N    2.0155620335191391E-02    5.5963980386401913E+00    3.2708410451259780E+00
Ga    2.1424727676029737E-02    5.5980694743092894E+00    5.2597383814966348E+00
N    2.4784565392624004E-02    7.4726378036771246E+00    5.8492429550930858E+00
Ga    2.4971424790166945E-02    7.4723405541873626E+00    7.8467803432688781E+00
N    2.3809966933013547E-02    5.6000716938390758E+00    8.4511783889464631E+00
Ga    2.4066280953989525E-02    5.6113490425634618E+00    1.0447275354048385E+01
N    2.3180165884815748E-02    7.4739459545094027E+00    1.1074422905826928E+01
Ga   -3.3540141797005246E-03    7.4934613662042580E+00    1.3093198406744012E+01
N    2.9773985234052402E-02    5.5897110474725942E+00    1.3636563810722865E+01
Ga    3.0842854447764346E-02    5.6092373676826623E+00    1.5624346780654685E+01
N    6.9140119776207418E-02    7.4374494530411210E+00    1.6208269894245245E+01
Ga    4.5015584543529039E-02    7.5433834242811040E+00    1.8237125571841030E+01
N   -3.4594434067450115E-02    5.6358716016821901E+00    1.8805106819341983E+01
Ga    6.5037210403303405E+00   -1.4183708715560496E-02    3.2469401954440091E-01
N    6.5111727657629821E+00    1.8557690219721683E+00    6.0772906519685366E-01
Ga    6.4838271780018397E+00    1.8715902510425553E+00    2.6366977881366895E+00
N    6.5053087399053400E+00   -1.4104429565946817E-02    3.2301489728553796E+00
Ga    6.5066244331368708E+00   -1.2635171381826252E-02    5.2396698906890675E+00
N    6.5119558440024239E+00    1.8570157140173917E+00    5.8515764210960821E+00
Ga    6.5111082768436894E+00    1.8566378697455119E+00    7.8500851170398063E+00
N    6.5070765848917622E+00   -1.4479492649974245E-02    8.4566492837044862E+00
Ga    6.5018530701396111E+00   -1.5599849296634730E-02    1.0453425568588610E+01
N    6.5166509046778565E+00    1.8605603031131441E+00    1.1045630729738889E+01
Ga    6.5417638320743672E+00    1.8520301005499753E+00    1.3033334188631823E+01
N    6.5189145098247776E+00   -1.4158689721425304E-02    1.3649584233987520E+01
Ga    6.5162617124065108E+00   -1.6258128632424585E-02    1.5662498022425265E+01
N    6.5274686751068449E+00    1.8613152662820918E+00    1.6205483167397670E+01
Ga    6.5781072880046674E+00    1.8337544468829456E+00    1.8278138181403843E+01
N    6.4614114730413998E+00    2.0027311486619848E-02    1.8798853465312327E+01
Ga    4.8849912492571521E+00    2.7923945266735539E+00   -5.4658963155682949E-01
N    4.8880134569024705E+00    4.6664354167549176E+00    6.0868103266126539E-01
Ga    4.8886610121641674E+00    4.6347580622619047E+00    2.6374582519504188E+00
N    4.8856129415948777E+00    2.7909162953585138E+00    3.2702587056081636E+00
Ga    4.8876627469462779E+00    2.7917975174448855E+00    5.2590299800630129E+00
N    4.8910211371681349E+00    4.6664059439816832E+00    5.8487802449704036E+00
Ga    4.8927375379668572E+00    4.6637911314376179E+00    7.8450944103030560E+00
N    4.8875397047296492E+00    2.7928958402478656E+00    8.4558298445728006E+00
Ga    4.8858969793751275E+00    2.7889550581408695E+00    1.0452790911384918E+01
N    4.8886741379122505E+00    4.6682850267777471E+00    1.1055798917190321E+01
Ga    4.8872870050283090E+00    4.6636453494941756E+00    1.3032647573205942E+01
N    4.8955787000489552E+00    2.7949110008815192E+00    1.3617309653845105E+01
Ga    4.8998801985687575E+00    2.5526180191154424E+00    1.5538081451397819E+01
N    4.8397861765127104E+00    4.6277911579758877E+00    1.6397520988833449E+01
Ga    5.5915114220786162E+00    4.2780070745305148E+00    1.9671791038967164E+01
N    4.9598489299545134E+00    2.7818702715291184E+00    1.8784208099911474E+01
Ga    3.2653429795331257E+00    5.5960488392846939E+00    3.2460893070702157E-01
N    3.2632720761144052E+00    7.4658438337048043E+00    6.0771710834735537E-01
Ga    3.2929074115210097E+00    7.4819976744047585E+00    2.6366503443770761E+00
N    3.2660584163502517E+00    5.5966711320349729E+00    3.2307760835132355E+00
Ga    3.2676567704255874E+00    5.5980336882597497E+00    5.2404012154672257E+00
N    3.2679557379896069E+00    7.4687716008595135E+00    5.8493933468579762E+00
Ga    3.2697614574612177E+00    7.4706719567432911E+00    7.8464609805321714E+00
N    3.2698809113021468E+00    5.5976080318659758E+00    8.4463207834983915E+00
Ga    3.2703925916451957E+00    5.6012499079127576E+00    1.0432705004936595E+01
N    3.2753618090505006E+00    7.4680833287121091E+00    1.1045781669449292E+01
Ga    3.2810812592971357E+00    7.4940908593189217E+00    1.3028914125457378E+01
N    3.2631892302306027E+00    5.5993352297597783E+00    1.3660951604946693E+01
Ga    3.0277677715676483E+00    5.7556332604737328E+00    1.5579381281665764E+01
N    3.2743263779024967E+00    7.4750432384968883E+00    1.6318504706893215E+01
Ga    3.2665829400647346E+00    7.7214354085038943E+00    1.8407778054477294E+01
N    4.6430078711178417E+00    4.6986497869505870E+00    1.7562589136923627E+01
O    2.7464146167669679E+00    5.8435172525272918E+00    1.9685173532470433E+01
H   -1.3981007167636100E-01    5.6367514955481726E+00    1.9824300665950563E+01
C    2.0247169925082349E+00    6.3434176878531856E+00    2.0867278300319374E+01
H    1.4230991288925841E+00    7.2145423585923778E+00    2.0586355716869498E+01
H    1.4225989875303293E+00    5.5329309080546532E+00    2.1300697021715013E+01
H    2.7767268178331705E+00    6.6654706851286800E+00    2.1599649998286587E+01
O    4.3763260947368945E+00    4.7233285781172949E+00    2.1099298827170987E+01
H    3.6114428348019971E+00    5.2458419044251334E+00    2.0369222935567489E+01
C    3.6937279735024395E+00    3.6136591024534224E+00    2.1763085634401470E+01
H    2.8888980567616205E+00    3.2136685164547507E+00    2.1125016317294545E+01
H    4.4155883813667671E+00    2.8172295206073485E+00    2.1979968996862635E+01
H    3.2805483070685866E+00    3.9979550821397161E+00    2.2703733083294889E+01
     &END COORD
     &KIND C
       BASIS_SET DZVP-MOLOPT-SR-GTH-q4
       POTENTIAL GTH-PBE-q4
       &POTENTIAL
 2 2
  0.3384712400000000E+00 2 -0.8803673979999999E+01  0.1339210850000000E+01
 2
  0.3025757500000000E+00 1  0.9622486650000001E+01
  0.2915069400000000E+00 0
         # Potential name:  GTH-PBE-Q4  for symbol:  C
         # Potential read from the potential filename: GTH_POTENTIALS
       &END POTENTIAL
     &END KIND
     &KIND O
       BASIS_SET DZVP-MOLOPT-SR-GTH-q6
       POTENTIAL GTH-PBE-q6
       &POTENTIAL
 2 4
  0.2445543000000000E+00 2 -0.1666721480000000E+02  0.2487311320000000E+01
 2
  0.2209559200000000E+00 1  0.1833745811000000E+02
  0.2113324700000000E+00 0
         # Potential name:  GTH-PBE-Q6  for symbol:  O
         # Potential read from the potential filename: GTH_POTENTIALS
       &END POTENTIAL
     &END KIND
     &KIND H
       BASIS_SET DZVP-MOLOPT-SR-GTH-q1
       POTENTIAL GTH-PBE-q1
       &POTENTIAL
 1
  0.2000000000000000E+00 2 -0.4178900440000000E+01  0.7244633100000000E+00
 0
         # Potential name:  GTH-PBE-Q1  for symbol:  H
         # Potential read from the potential filename: GTH_POTENTIALS
       &END POTENTIAL
     &END KIND
     &KIND N
       BASIS_SET DZVP-MOLOPT-SR-GTH-q5
       POTENTIAL GTH-PBE-q5
       &POTENTIAL
 2 3
  0.2837905100000000E+00 2 -0.1241522559000000E+02  0.1868095920000000E+01
 2
  0.2554050000000000E+00 1  0.1363026257000000E+02
  0.2454945300000000E+00 0
         # Potential name:  GTH-PBE-Q5  for symbol:  N
         # Potential read from the potential filename: GTH_POTENTIALS
       &END POTENTIAL
     &END KIND
     &KIND Ga
       BASIS_SET DZVP-MOLOPT-SR-GTH-q13
       POTENTIAL GTH-PBE-q13
       &POTENTIAL
 2 1 10
  0.4900000000000000E+00 0
 3
  0.4167772300000000E+00 3  0.1047568975000000E+02 -0.4921768140000000E+01  0.8707055900000000E+00
  0.7770178090000000E+01 -0.2248152160000000E+01
  0.1784415450000000E+01
  0.5696265200000000E+00 2  0.1777985340000000E+01  0.1958597600000000E+00
 -0.2317443900000000E+00
  0.2381265000000000E+00 1 -0.1624868022000000E+02
         # Potential name:  GTH-PBE-Q13  for symbol:  GA
         # Potential read from the potential filename: GTH_POTENTIALS
       &END POTENTIAL
     &END KIND
     &TOPOLOGY
       COORD_FILE_NAME ../start-first.xyz
       COORD_FILE_FORMAT  XYZ
       NUMBER_OF_ATOMS  156
       MULTIPLE_UNIT_CELL  1 1 1
     &END TOPOLOGY
     &COLVAR
       &DISTANCE
         ATOMS  145 152
       &END DISTANCE
       &PRINT
       &END PRINT
     &END COLVAR
   &END SUBSYS
 &END FORCE_EVAL
