 # Version information for this restart file 
 # current date 2019-05-27 19:46:16.521
 # current working dir /lustre03/project/6004141/rzk/GaN-carbene/334-native/08-2Methanol-Htransfer/01-Constraint/1.26
 # Program compiled at                              Sun Apr  7 00:48:11 EDT 2019
 # Program compiled on                          beluga2.int.ets1.calculquebec.ca
 # Program compiled for                        Beluga-Linux-x86-64-intel-openmpi
 # Source code revision number                                         svn:18619
 &GLOBAL
   PRINT_LEVEL  MEDIUM
   PROJECT_NAME TEST
   RUN_TYPE  GEO_OPT
 &END GLOBAL
 &MOTION
   &GEO_OPT
     MAX_ITER  500
     STEP_START_VAL  160
   &END GEO_OPT
   &CONSTRAINT
     &COLLECTIVE
       COLVAR  1
       INTERMOLECULAR  T
       TARGET     2.3810549274359101E+00
       &RESTRAINT
         K     1.0000000000000001E-01
       &END RESTRAINT
     &END COLLECTIVE
     &COLVAR_RESTART
           2.3810549274359101E+00
     &END COLVAR_RESTART
   &END CONSTRAINT
 &END MOTION
 &FORCE_EVAL
   METHOD  QS
   STRESS_TENSOR  ANALYTICAL
   &DFT
     BASIS_SET_FILE_NAME BASIS_MOLOPT
     POTENTIAL_FILE_NAME GTH_POTENTIALS
     &SCF
       MAX_SCF  100
       EPS_SCF     5.0000000000000004E-06
       &OT  T
         PRECONDITIONER  FULL_ALL
       &END OT
       &OUTER_SCF  T
         OPTIMIZER  NONE
         EPS_SCF     5.0000000000000004E-06
         MAX_SCF  4
       &END OUTER_SCF
       &PRINT
         &RESTART  OFF
           BACKUP_COPIES  1
           &EACH
             JUST_ENERGY  0
             QS_SCF  0
             MD  20
           &END EACH
         &END RESTART
       &END PRINT
     &END SCF
     &QS
       EPS_DEFAULT     1.0000000000000000E-14
       ALMO_SCF  F
       METHOD  GPW
     &END QS
     &MGRID
       NGRIDS  5
       CUTOFF     1.2000000000000000E+03
     &END MGRID
     &XC
       DENSITY_CUTOFF     1.0000000000000000E-10
       GRADIENT_CUTOFF     1.0000000000000000E-10
       TAU_CUTOFF     1.0000000000000000E-10
       &XC_FUNCTIONAL  NO_SHORTCUT
         &PBE  T
         &END PBE
       &END XC_FUNCTIONAL
       &VDW_POTENTIAL
         POTENTIAL_TYPE  PAIR_POTENTIAL
         &PAIR_POTENTIAL
           R_CUTOFF     1.0000000000000005E+01
           TYPE  DFTD3
           PARAMETER_FILE_NAME dftd3.dat
           REFERENCE_FUNCTIONAL PBE
           EPS_CN     9.9999999999999995E-07
           CALCULATE_C9_TERM  T
           REFERENCE_C9_TERM  T
           LONG_RANGE_CORRECTION  F
           VERBOSE_OUTPUT  F
         &END PAIR_POTENTIAL
       &END VDW_POTENTIAL
     &END XC
   &END DFT
   &SUBSYS
     &CELL
       A     9.7367653356401487E+00    0.0000000000000000E+00    0.0000000000000000E+00
       B    -4.8591341382960209E+00    8.4162672083210595E+00    0.0000000000000000E+00
       C     0.0000000000000000E+00    0.0000000000000000E+00    3.0744000000000000E+01
       MULTIPLE_UNIT_CELL  1 1 1
       &CELL_REF
         A     9.5580000000000052E+00    0.0000000000000000E+00    0.0000000000000000E+00
         B    -4.7790000000000026E+00    8.2774708093716640E+00    0.0000000000000000E+00
         C     0.0000000000000000E+00    0.0000000000000000E+00    3.0744000000000000E+01
         MULTIPLE_UNIT_CELL  1 1 1
       &END CELL_REF
     &END CELL
     &COORD
Ga    1.4233761953387143E-02   -1.4227311632147778E-02   -5.4699482235868335E-01
N    1.7289080059665621E-02    1.8607372546606928E+00    6.0861372135484115E-01
Ga    1.8100587078907000E-02    1.8295463940284280E+00    2.6374523522589906E+00
N    1.5872454442980764E-02   -1.4323895162054198E-02    3.2701842211062804E+00
Ga    1.7997611623193872E-02   -1.3096065340774695E-02    5.2587164686680916E+00
N    2.0759371544893355E-02    1.8614847789100890E+00    5.8476355146320271E+00
Ga    2.2686684693060382E-02    1.8594218946671086E+00    7.8439108102557729E+00
N    1.9005984783508113E-02   -1.2592267575251769E-02    8.4508201948497845E+00
Ga    2.4886220134798194E-02   -8.8162494035001465E-03    1.0446832478823316E+01
N    2.5711823650802251E-02    1.8596628206697854E+00    1.1060176658766538E+01
Ga    2.7307847004097281E-02    1.8593562708801263E+00    1.3066391828785601E+01
N    1.1660009841705525E-02   -1.2339537515776763E-02    1.3668602262103501E+01
Ga    1.7293576973232101E-02    2.5437171997972621E-03    1.5693758675107270E+01
N    4.7535431563206290E-02    1.8598107947761611E+00    1.6280452498909042E+01
Ga    4.3960631743460932E-02    1.8678488787770824E+00    1.8472565483307321E+01
N    2.4304350846222740E-02   -1.0045862890929649E-02    1.8929109251270891E+01
Ga   -1.6049860564801488E+00    2.7907254996375390E+00    3.2458196304078868E-01
N   -1.6067799890144498E+00    4.6605043769764114E+00    6.0883492383050664E-01
Ga   -1.5768460277435885E+00    4.6770687774528126E+00    2.6368233549357876E+00
N   -1.6043109668646840E+00    2.7915757209654362E+00    3.2310752016472910E+00
Ga   -1.6027171315307294E+00    2.7931719737756611E+00    5.2407982804960733E+00
N   -1.6018954114916222E+00    4.6633503058149497E+00    5.8509662269840170E+00
Ga   -1.5998961245489516E+00    4.6641612130199563E+00    7.8487484139819950E+00
N   -1.5993363996824368E+00    2.7915914686562693E+00    8.4489523618629807E+00
Ga   -1.5929569068833933E+00    2.7900286830500902E+00    1.0440325178191918E+01
N   -1.5961885606369830E+00    4.6643855499074025E+00    1.1039563626817996E+01
Ga   -1.5808227098262235E+00    4.6424271616157915E+00    1.3021173453588599E+01
N   -1.5933213085785973E+00    2.7943344212634780E+00    1.3652972488555411E+01
Ga   -1.5596382280393291E+00    2.7703812292145673E+00    1.5673810515326506E+01
N   -1.5907336203571589E+00    4.6715105570341153E+00    1.6216993732318812E+01
Ga   -1.6223530673524618E+00    4.6157005194362561E+00    1.8232399192635192E+01
N   -1.6052004391513310E+00    2.8117477520933720E+00    1.8752793532606653E+01
Ga   -3.2254115172374136E+00    5.5969355742063609E+00    3.2469604503165900E-01
N   -3.2183776624948557E+00    7.4666998272168161E+00    6.0805541121458206E-01
Ga   -3.2450047610973640E+00    7.4824961346099599E+00    2.6366237589655648E+00
N   -3.2234597489802952E+00    5.5973761674503129E+00    3.2305324767473254E+00
Ga   -3.2210502651013839E+00    5.5986496062737112E+00    5.2396715815680404E+00
N   -3.2162549789857344E+00    7.4684622179827445E+00    5.8502338044288003E+00
Ga   -3.2159113502515275E+00    7.4694375852236012E+00    7.8476520696963794E+00
N   -3.2223632548853325E+00    5.5983586399757206E+00    8.4559517519724476E+00
Ga   -3.2191147306737298E+00    5.6062212781525513E+00    1.0449655730943309E+01
N   -3.2166349919463952E+00    7.4730007897035540E+00    1.1063131351291831E+01
Ga   -3.2037220068437682E+00    7.5129413016076141E+00    1.3066778721532129E+01
N   -3.2208925793983707E+00    5.5908961701858484E+00    1.3619909257728466E+01
Ga   -3.0067409882612353E+00    5.7302989702894660E+00    1.5532262685347499E+01
N   -3.3069055659531394E+00    7.4025721057133413E+00    1.6296879631760884E+01
Ga   -3.2809137422421348E+00    7.4665089839595984E+00    1.8432438185026651E+01
N   -3.1038234246236338E+00    5.6011198718156558E+00    1.8964865479979082E+01
Ga    3.2602370885167145E+00   -1.4656570768860800E-02    3.2439439174670059E-01
N    3.2585398506660259E+00    1.8553137839369029E+00    6.0768606916978984E-01
Ga    3.2884172754752550E+00    1.8715866518412640E+00    2.6360363899779120E+00
N    3.2612427679602427E+00   -1.3713641130082830E-02    3.2303673109773401E+00
Ga    3.2631256944722220E+00   -1.2643286050502547E-02    5.2396515318110817E+00
N    3.2639054144390593E+00    1.8574529475054400E+00    5.8500093161623381E+00
Ga    3.2658038943096535E+00    1.8567574836616048E+00    7.8478833667076975E+00
N    3.2641210341979678E+00   -1.2766729864696187E-02    8.4567921803319894E+00
Ga    3.2668106315940046E+00   -1.1798389381219413E-02    1.0455804566352075E+01
N    3.2651546682708297E+00    1.8588450285955851E+00    1.1064604126548273E+01
Ga    3.2402913645384936E+00    1.8269817039674752E+00    1.3071372207245687E+01
N    3.2520712751253891E+00   -7.0003696975843794E-03    1.3744133465139749E+01
Ga    3.2333550438363674E+00    1.0029376867236734E-04    1.6015628049248402E+01
N    3.2758189378978582E+00    1.9613870568179654E+00    1.6264125425469544E+01
Ga    3.2447857233449713E+00    1.9251735079916368E+00    1.8372281960844987E+01
N    3.2290256296601321E+00    1.4448872182704660E-02    1.8294873764155152E+01
Ga    1.6393262405934437E+00    2.7914996330770374E+00    3.2477624099964569E-01
N    1.6465958867662986E+00    4.6614672183200483E+00    6.0862223896893186E-01
Ga    1.6197364450151246E+00    4.6772900099705348E+00    2.6371371627673277E+00
N    1.6419802476185201E+00    2.7913824060591876E+00    3.2300615853631123E+00
Ga    1.6439420825978779E+00    2.7926425890932114E+00    5.2391468256529583E+00
N    1.6482918927103949E+00    4.6628188651070648E+00    5.8488890353612524E+00
Ga    1.6470672331279670E+00    4.6624050555761078E+00    7.8455645590760730E+00
N    1.6447299959411676E+00    2.7920718135492719E+00    8.4521305430232516E+00
Ga    1.6465777567962046E+00    2.7882388544253747E+00    1.0445765418765646E+01
N    1.6510505195801082E+00    4.6674276527725391E+00    1.1038115399065608E+01
Ga    1.6346326693720121E+00    4.6497300548410321E+00    1.3015684475208880E+01
N    1.6433892029988950E+00    2.8106825948163312E+00    1.3667438307639584E+01
Ga    1.6341132450807523E+00    2.8020937439410289E+00    1.5684360249452187E+01
N    1.6376180948916930E+00    4.6948623407989158E+00    1.6342273917480785E+01
Ga    1.5185054560099436E+00    4.5795097963561826E+00    1.8382830547118953E+01
N    1.6746445766494207E+00    2.8241937734302711E+00    1.8952133598358948E+01
Ga    1.9760833748126715E-02    5.5966270577288970E+00   -5.4595842609549305E-01
N    2.3412854175834785E-02    7.4714070251076476E+00    6.0860475272534897E-01
Ga    2.4324752923604885E-02    7.4399035049648568E+00    2.6368477059263320E+00
N    2.1702611137330789E-02    5.5968005377939205E+00    3.2711606825869497E+00
Ga    2.2993722216370461E-02    5.5985701122076792E+00    5.2598191847214757E+00
N    2.6410428498643196E-02    7.4731019673520018E+00    5.8491138658076549E+00
Ga    2.6458703301893541E-02    7.4727265591061593E+00    7.8466305426032470E+00
N    2.5207175850209863E-02    5.6002720818371099E+00    8.4507541558787196E+00
Ga    2.5149915904204276E-02    5.6115777100491329E+00    1.0446790605492589E+01
N    2.4398324003748743E-02    7.4742020938370723E+00    1.1073628627896076E+01
Ga   -3.1421282999466774E-03    7.4937318830930666E+00    1.3092535953436361E+01
N    2.9794836325522968E-02    5.5901178208063342E+00    1.3636094614630766E+01
Ga    3.0174914742433452E-02    5.6099677152026626E+00    1.5623574012560294E+01
N    6.8490366555080881E-02    7.4379753651075458E+00    1.6207764343201983E+01
Ga    4.4236101492983231E-02    7.5453267973141518E+00    1.8237071508007027E+01
N   -3.5760259746540568E-02    5.6381035586661756E+00    1.8805082095209773E+01
Ga    6.5046773227624426E+00   -1.4102188051743882E-02    3.2455944555741678E-01
N    6.5121103308043864E+00    1.8558825179545422E+00    6.0780961973065806E-01
Ga    6.4851465935317316E+00    1.8719014353374286E+00    2.6365120966581030E+00
N    6.5067791460694098E+00   -1.3725022794204024E-02    3.2302733350489716E+00
Ga    6.5080708030199075E+00   -1.2251688026054046E-02    5.2395622827332220E+00
N    6.5135857417863656E+00    1.8574038509455977E+00    5.8513999669137116E+00
Ga    6.5128531659482771E+00    1.8568143382742848E+00    7.8498245020491924E+00
N    6.5086046365480996E+00   -1.4248393403999382E-02    8.4562889069986849E+00
Ga    6.5031629866009393E+00   -1.5614225000300566E-02    1.0453062841199653E+01
N    6.5178562420670900E+00    1.8606321515248512E+00    1.1044807534109177E+01
Ga    6.5423711565529716E+00    1.8521438794733895E+00    1.3032424946948087E+01
N    6.5191883934509427E+00   -1.4003313405066551E-02    1.3648736773098287E+01
Ga    6.5154222963304864E+00   -1.5951376598209048E-02    1.5661575361459041E+01
N    6.5271981381347661E+00    1.8619335161418609E+00    1.6203377116895499E+01
Ga    6.5772941244495540E+00    1.8351909145576857E+00    1.8275657329178376E+01
N    6.4607459403042204E+00    2.2059957382147975E-02    1.8797081113480715E+01
Ga    4.8856910478445519E+00    2.7928117758734157E+00   -5.4646001416097645E-01
N    4.8890674062696542E+00    4.6666935701596319E+00    6.0893165129464721E-01
Ga    4.8900661440820805E+00    4.6352080877305077E+00    2.6373308514121687E+00
N    4.8870999423292316E+00    2.7913672939490755E+00    3.2704269845315257E+00
Ga    4.8892454317786926E+00    2.7921962470202568E+00    5.2591167852972935E+00
N    4.8926466159661963E+00    4.6669464748201763E+00    5.8485275523760007E+00
Ga    4.8942123679328233E+00    4.6640848561459141E+00    7.8445596150025141E+00
N    4.8890099637190998E+00    2.7930922365326922E+00    8.4553142259589791E+00
Ga    4.8870630611868258E+00    2.7890961978479152E+00    1.0452185680758548E+01
N    4.8895521967754609E+00    4.6683524671444010E+00    1.1055234684424063E+01
Ga    4.8875084891321210E+00    4.6641181952486805E+00    1.3032061003995771E+01
N    4.8958350270763793E+00    2.7949778691668232E+00    1.3615512878665514E+01
Ga    4.8991748967507460E+00    2.5520655087265580E+00    1.5535593399807626E+01
N    4.8426612539028264E+00    4.6289706630893752E+00    1.6393922565481880E+01
Ga    5.5923767545495151E+00    4.2793537997668478E+00    1.9671260829398356E+01
N    4.9590650541312717E+00    2.7850007599316360E+00    1.8778994562203223E+01
Ga    3.2663330794558552E+00    5.5962916466411166E+00    3.2435070176703584E-01
N    3.2642645717985519E+00    7.4661122822564634E+00    6.0786385406549048E-01
Ga    3.2943276980435452E+00    7.4824329058446164E+00    2.6365756185091862E+00
N    3.2676166472151587E+00    5.5971016667900200E+00    3.2308522474253545E+00
Ga    3.2691982938902617E+00    5.5984269964616349E+00    5.2402235155925858E+00
N    3.2694791755081503E+00    7.4691832177971920E+00    5.8491906472198183E+00
Ga    3.2711740562145124E+00    7.4708711299339017E+00    7.8460424900489247E+00
N    3.2712875282788332E+00    5.5977097512076064E+00    8.4460040372792893E+00
Ga    3.2713459772466709E+00    5.6013607078024741E+00    1.0432057243579594E+01
N    3.2765892815885707E+00    7.4682207228861301E+00    1.1045035963581469E+01
Ga    3.2816103441861411E+00    7.4944077380154681E+00    1.3028091242056739E+01
N    3.2629767957724942E+00    5.5997001950069878E+00    1.3660134418815577E+01
Ga    3.0266226491112298E+00    5.7566565943359986E+00    1.5578497270113798E+01
N    3.2740929407017632E+00    7.4759031356177434E+00    1.6317454630281659E+01
Ga    3.2662168280048403E+00    7.7235635312975202E+00    1.8405784068125637E+01
N    4.6421382695159910E+00    4.6983713197695192E+00    1.7558573467254750E+01
O    2.7466229401841433E+00    5.8450218076003431E+00    1.9682427217134901E+01
H   -1.4252732200809312E-01    5.6388883786886126E+00    1.9823851429880872E+01
C    2.0266631268796793E+00    6.3462227798267135E+00    2.0865164139183175E+01
H    1.4285068578638191E+00    7.2197494137896454E+00    2.0584123722557614E+01
H    1.4234513670252984E+00    5.5366507907601816E+00    2.1299257202980314E+01
H    2.7800564164847525E+00    6.6669320945719228E+00    2.1596097812630621E+01
O    4.3730125716188164E+00    4.7197720167611683E+00    2.1096329850023629E+01
H    3.6097977232814014E+00    5.2445397051004701E+00    2.0366225169258836E+01
C    3.6902371721759208E+00    3.6100014901423898E+00    2.1759200479788998E+01
H    2.8748348918127689E+00    3.2216844794273394E+00    2.1125690960873303E+01
H    4.4093863463994518E+00    2.8057251028697223E+00    2.1960766325734756E+01
H    3.2912567300221021E+00    3.9899664644384005E+00    2.2708349606223582E+01
     &END COORD
     &KIND C
       BASIS_SET DZVP-MOLOPT-SR-GTH-q4
       POTENTIAL GTH-PBE-q4
       &POTENTIAL
 2 2
  0.3384712400000000E+00 2 -0.8803673979999999E+01  0.1339210850000000E+01
 2
  0.3025757500000000E+00 1  0.9622486650000001E+01
  0.2915069400000000E+00 0
         # Potential name:  GTH-PBE-Q4  for symbol:  C
         # Potential read from the potential filename: GTH_POTENTIALS
       &END POTENTIAL
     &END KIND
     &KIND O
       BASIS_SET DZVP-MOLOPT-SR-GTH-q6
       POTENTIAL GTH-PBE-q6
       &POTENTIAL
 2 4
  0.2445543000000000E+00 2 -0.1666721480000000E+02  0.2487311320000000E+01
 2
  0.2209559200000000E+00 1  0.1833745811000000E+02
  0.2113324700000000E+00 0
         # Potential name:  GTH-PBE-Q6  for symbol:  O
         # Potential read from the potential filename: GTH_POTENTIALS
       &END POTENTIAL
     &END KIND
     &KIND H
       BASIS_SET DZVP-MOLOPT-SR-GTH-q1
       POTENTIAL GTH-PBE-q1
       &POTENTIAL
 1
  0.2000000000000000E+00 2 -0.4178900440000000E+01  0.7244633100000000E+00
 0
         # Potential name:  GTH-PBE-Q1  for symbol:  H
         # Potential read from the potential filename: GTH_POTENTIALS
       &END POTENTIAL
     &END KIND
     &KIND N
       BASIS_SET DZVP-MOLOPT-SR-GTH-q5
       POTENTIAL GTH-PBE-q5
       &POTENTIAL
 2 3
  0.2837905100000000E+00 2 -0.1241522559000000E+02  0.1868095920000000E+01
 2
  0.2554050000000000E+00 1  0.1363026257000000E+02
  0.2454945300000000E+00 0
         # Potential name:  GTH-PBE-Q5  for symbol:  N
         # Potential read from the potential filename: GTH_POTENTIALS
       &END POTENTIAL
     &END KIND
     &KIND Ga
       BASIS_SET DZVP-MOLOPT-SR-GTH-q13
       POTENTIAL GTH-PBE-q13
       &POTENTIAL
 2 1 10
  0.4900000000000000E+00 0
 3
  0.4167772300000000E+00 3  0.1047568975000000E+02 -0.4921768140000000E+01  0.8707055900000000E+00
  0.7770178090000000E+01 -0.2248152160000000E+01
  0.1784415450000000E+01
  0.5696265200000000E+00 2  0.1777985340000000E+01  0.1958597600000000E+00
 -0.2317443900000000E+00
  0.2381265000000000E+00 1 -0.1624868022000000E+02
         # Potential name:  GTH-PBE-Q13  for symbol:  GA
         # Potential read from the potential filename: GTH_POTENTIALS
       &END POTENTIAL
     &END KIND
     &TOPOLOGY
       COORD_FILE_NAME ../start-first.xyz
       COORD_FILE_FORMAT  XYZ
       NUMBER_OF_ATOMS  156
       MULTIPLE_UNIT_CELL  1 1 1
     &END TOPOLOGY
     &COLVAR
       &DISTANCE
         ATOMS  145 152
       &END DISTANCE
       &PRINT
       &END PRINT
     &END COLVAR
   &END SUBSYS
 &END FORCE_EVAL
