 # Version information for this restart file 
 # current date 2019-05-27 19:48:13.282
 # current working dir /lustre03/project/6004141/rzk/GaN-carbene/334-native/08-2Methanol-Htransfer/01-Constraint/1.26
 # Program compiled at                              Sun Apr  7 00:48:11 EDT 2019
 # Program compiled on                          beluga2.int.ets1.calculquebec.ca
 # Program compiled for                        Beluga-Linux-x86-64-intel-openmpi
 # Source code revision number                                         svn:18619
 &GLOBAL
   PRINT_LEVEL  MEDIUM
   PROJECT_NAME TEST
   RUN_TYPE  GEO_OPT
 &END GLOBAL
 &MOTION
   &GEO_OPT
     MAX_ITER  500
     STEP_START_VAL  162
   &END GEO_OPT
   &CONSTRAINT
     &COLLECTIVE
       COLVAR  1
       INTERMOLECULAR  T
       TARGET     2.3810549274359101E+00
       &RESTRAINT
         K     1.0000000000000001E-01
       &END RESTRAINT
     &END COLLECTIVE
     &COLVAR_RESTART
           2.3810549274359101E+00
     &END COLVAR_RESTART
   &END CONSTRAINT
 &END MOTION
 &FORCE_EVAL
   METHOD  QS
   STRESS_TENSOR  ANALYTICAL
   &DFT
     BASIS_SET_FILE_NAME BASIS_MOLOPT
     POTENTIAL_FILE_NAME GTH_POTENTIALS
     &SCF
       MAX_SCF  100
       EPS_SCF     5.0000000000000004E-06
       &OT  T
         PRECONDITIONER  FULL_ALL
       &END OT
       &OUTER_SCF  T
         OPTIMIZER  NONE
         EPS_SCF     5.0000000000000004E-06
         MAX_SCF  4
       &END OUTER_SCF
       &PRINT
         &RESTART  OFF
           BACKUP_COPIES  1
           &EACH
             JUST_ENERGY  0
             QS_SCF  0
             MD  20
           &END EACH
         &END RESTART
       &END PRINT
     &END SCF
     &QS
       EPS_DEFAULT     1.0000000000000000E-14
       ALMO_SCF  F
       METHOD  GPW
     &END QS
     &MGRID
       NGRIDS  5
       CUTOFF     1.2000000000000000E+03
     &END MGRID
     &XC
       DENSITY_CUTOFF     1.0000000000000000E-10
       GRADIENT_CUTOFF     1.0000000000000000E-10
       TAU_CUTOFF     1.0000000000000000E-10
       &XC_FUNCTIONAL  NO_SHORTCUT
         &PBE  T
         &END PBE
       &END XC_FUNCTIONAL
       &VDW_POTENTIAL
         POTENTIAL_TYPE  PAIR_POTENTIAL
         &PAIR_POTENTIAL
           R_CUTOFF     1.0000000000000005E+01
           TYPE  DFTD3
           PARAMETER_FILE_NAME dftd3.dat
           REFERENCE_FUNCTIONAL PBE
           EPS_CN     9.9999999999999995E-07
           CALCULATE_C9_TERM  T
           REFERENCE_C9_TERM  T
           LONG_RANGE_CORRECTION  F
           VERBOSE_OUTPUT  F
         &END PAIR_POTENTIAL
       &END VDW_POTENTIAL
     &END XC
   &END DFT
   &SUBSYS
     &CELL
       A     9.7367653356401487E+00    0.0000000000000000E+00    0.0000000000000000E+00
       B    -4.8591341382960209E+00    8.4162672083210595E+00    0.0000000000000000E+00
       C     0.0000000000000000E+00    0.0000000000000000E+00    3.0744000000000000E+01
       MULTIPLE_UNIT_CELL  1 1 1
       &CELL_REF
         A     9.5580000000000052E+00    0.0000000000000000E+00    0.0000000000000000E+00
         B    -4.7790000000000026E+00    8.2774708093716640E+00    0.0000000000000000E+00
         C     0.0000000000000000E+00    0.0000000000000000E+00    3.0744000000000000E+01
         MULTIPLE_UNIT_CELL  1 1 1
       &END CELL_REF
     &END CELL
     &COORD
Ga    1.3633224311563016E-02   -1.4696064889289585E-02   -5.4688363203349721E-01
N    1.6326515961191834E-02    1.8605073529499390E+00    6.0828015295907645E-01
Ga    1.6826612466971830E-02    1.8291337375880274E+00    2.6374009936975891E+00
N    1.4441335398631624E-02   -1.4736260018493491E-02    3.2699374438248863E+00
Ga    1.6360720922683498E-02   -1.3451049171550889E-02    5.2587099535741428E+00
N    1.9311687066660740E-02    1.8610885002945898E+00    5.8478087765771090E+00
Ga    2.1211332412220021E-02    1.8591996181804840E+00    7.8444463927350787E+00
N    1.7464349362494126E-02   -1.2741363986175399E-02    8.4512457675882704E+00
Ga    2.3587623573790538E-02   -8.9902570179041883E-03    1.0447533439488728E+01
N    2.4255018297847680E-02    1.8595094801999048E+00    1.1060731122705567E+01
Ga    2.6740442636489829E-02    1.8590502374128799E+00    1.3067170458615413E+01
N    1.1356020564816275E-02   -1.2733157949761735E-02    1.3669120223768592E+01
Ga    1.6909814418556157E-02    1.7491033095056844E-03    1.5694339015207916E+01
N    4.7960238468276781E-02    1.8588915609367498E+00    1.6281233785493782E+01
Ga    4.4433972111347177E-02    1.8662218371079631E+00    1.8472071347951285E+01
N    2.5136050936177986E-02   -1.2078807818281523E-02    1.8931598587738595E+01
Ga   -1.6058741093606435E+00    2.7906531418739497E+00    3.2431926377181886E-01
N   -1.6078504714727113E+00    4.6602820672301357E+00    6.0827488220743453E-01
Ga   -1.5784008983226963E+00    4.6765953943686460E+00    2.6369259947694825E+00
N   -1.6055769247188802E+00    2.7912085919945175E+00    3.2312420882915451E+00
Ga   -1.6042329660784960E+00    2.7928314219916790E+00    5.2412540082764645E+00
N   -1.6033942127574399E+00    4.6630957619330591E+00    5.8511491010689012E+00
Ga   -1.6013082151385123E+00    4.6640843718335478E+00    7.8492131048686611E+00
N   -1.6010133002511042E+00    2.7913255198130780E+00    8.4490298633700842E+00
Ga   -1.5945711147577566E+00    2.7896715936912049E+00    1.0440464128130598E+01
N   -1.5973374807946596E+00    4.6639669556180259E+00    1.1039884699356209E+01
Ga   -1.5808356982729443E+00    4.6416569391627673E+00    1.3021538739401604E+01
N   -1.5937789755756497E+00    2.7938884497676919E+00    1.3654195986475480E+01
Ga   -1.5597152295431229E+00    2.7696946567623280E+00    1.5675362065393426E+01
N   -1.5901500570788241E+00    4.6711881095560983E+00    1.6218210706596199E+01
Ga   -1.6214458798777613E+00    4.6136175514448086E+00    1.8233993964360138E+01
N   -1.6040695477721714E+00    2.8096409609458273E+00    1.8753683856103102E+01
Ga   -3.2263342441497276E+00    5.5964796262478140E+00    3.2432777877246710E-01
N   -3.2192047888691331E+00    7.4661911952552140E+00    6.0773187043712773E-01
Ga   -3.2463778165951802E+00    7.4819041950639988E+00    2.6366865273971034E+00
N   -3.2248008045332726E+00    5.5967230280670828E+00    3.2306611223813269E+00
Ga   -3.2226488252329255E+00    5.5981499150183378E+00    5.2400700674745648E+00
N   -3.2179262915857421E+00    7.4680395306531722E+00    5.8502472361298432E+00
Ga   -3.2175902210155920E+00    7.4692876527366279E+00    7.8480858906286199E+00
N   -3.2238761953329238E+00    5.5983133671260221E+00    8.4559872165476122E+00
Ga   -3.2204197541527178E+00    5.6060027010243108E+00    1.0449910449979591E+01
N   -3.2178826881831482E+00    7.4729899004912204E+00    1.1063505500435985E+01
Ga   -3.2042624203315504E+00    7.5127485782990817E+00    1.3067229652519663E+01
N   -3.2209720221783216E+00    5.5906559634601383E+00    1.3620391439420645E+01
Ga   -3.0056565285451531E+00    5.7300592424100003E+00    1.5532680757598554E+01
N   -3.3066416291246230E+00    7.4017653705176025E+00    1.6297357541776375E+01
Ga   -3.2794686300154425E+00    7.4655560032820292E+00    1.8433178993591614E+01
N   -3.1041645633904231E+00    5.5994882163127606E+00    1.8965245282682247E+01
Ga    3.2593785949657952E+00   -1.5152133747060377E-02    3.2407470474425953E-01
N    3.2575615582611124E+00    1.8547881157287667E+00    6.0720290058411241E-01
Ga    3.2870731421372796E+00    1.8710080224178556E+00    2.6360841161720159E+00
N    3.2598970987110580E+00   -1.4202687221410949E-02    3.2302871135569231E+00
Ga    3.2614804908841428E+00   -1.3039410317110837E-02    5.2398892756681272E+00
N    3.2623975286727456E+00    1.8571141160216615E+00    5.8502034945368964E+00
Ga    3.2642052242423056E+00    1.8567890108503045E+00    7.8482803701370614E+00
N    3.2626230674818162E+00   -1.2949204419592786E-02    8.4570413353717839E+00
Ga    3.2655479009575283E+00   -1.1958520524488092E-02    1.0455871232906217E+01
N    3.2639980930604371E+00    1.8585530957739469E+00    1.1065586106572153E+01
Ga    3.2402479649468119E+00    1.8268942408192248E+00    1.3072499865432194E+01
N    3.2515281886436123E+00   -7.4611757340489549E-03    1.3746128420880753E+01
Ga    3.2338260296024997E+00   -5.9121727048710808E-04    1.6013890255964714E+01
N    3.2766657455940837E+00    1.9606776741434964E+00    1.6266116849826282E+01
Ga    3.2458241533814918E+00    1.9229195248319073E+00    1.8373417086012942E+01
N    3.2301487664326594E+00    1.2612505540224927E-02    1.8295858206337066E+01
Ga    1.6385178699320668E+00    2.7910904052826289E+00    3.2477301446792156E-01
N    1.6457513060429896E+00    4.6610666104992156E+00    6.0796021644705323E-01
Ga    1.6184319133918257E+00    4.6768479084769909E+00    2.6370423075626510E+00
N    1.6406040630677605E+00    2.7910706073400613E+00    3.2299259966479177E+00
Ga    1.6423678539014477E+00    2.7923673037636267E+00    5.2394415259772122E+00
N    1.6466780258327873E+00    4.6625811366995400E+00    5.8490863004097848E+00
Ga    1.6455390789217776E+00    4.6622813837463539E+00    7.8461355540506297E+00
N    1.6431318383843811E+00    2.7918653471471950E+00    8.4524507470949288E+00
Ga    1.6453904069748362E+00    2.7878925131335190E+00    1.0446528009469993E+01
N    1.6500430968939837E+00    4.6670581839870806E+00    1.1038649042231238E+01
Ga    1.6346388922161474E+00    4.6492264981585354E+00    1.3016382657758170E+01
N    1.6430404014843474E+00    2.8102636992902341E+00    1.3668243342738132E+01
Ga    1.6347004379065542E+00    2.8011624651323217E+00    1.5685008807739605E+01
N    1.6378851277459223E+00    4.6940839632445819E+00    1.6342763189241182E+01
Ga    1.5192437056835810E+00    4.5768776975929990E+00    1.8383106960963577E+01
N    1.6754279095215820E+00    2.8220768077582798E+00    1.8952065950690542E+01
Ga    1.8615407391836848E-02    5.5963948321397785E+00   -5.4659697890989301E-01
N    2.2581683863895769E-02    7.4711859097915312E+00    6.0807627751944260E-01
Ga    2.2909483927173010E-02    7.4395580564110144E+00    2.6369696135124374E+00
N    2.0303301418478688E-02    5.5963343257750937E+00    3.2707377393707766E+00
Ga    2.1483123315531934E-02    5.5980923972939616E+00    5.2596900533705035E+00
N    2.4818277506999917E-02    7.4726367432553715E+00    5.8492011807785502E+00
Ga    2.4878238141227842E-02    7.4723388308940457E+00    7.8467259003133103E+00
N    2.3693990394861527E-02    5.6001321453165831E+00    8.4511991911075910E+00
Ga    2.3897159844347440E-02    5.6113377141733540E+00    1.0447303856066378E+01
N    2.3013015004666296E-02    7.4739058931969531E+00    1.1074481816245195E+01
Ga   -3.2711422080847013E-03    7.4934256210929666E+00    1.3093167962809829E+01
N    2.9732414702627146E-02    5.5897100388859542E+00    1.3636528215801819E+01
Ga    3.0890243118164882E-02    5.6094162088527719E+00    1.5624392360023304E+01
N    6.9203205973795034E-02    7.4377373602832035E+00    1.6208195354313169E+01
Ga    4.5042227082082109E-02    7.5435900021520554E+00    1.8236889902062515E+01
N   -3.4475264846188465E-02    5.6360609997240090E+00    1.8804976759991849E+01
Ga    6.5038815645858916E+00   -1.4391989244713009E-02    3.2458893121523263E-01
N    6.5113736201251884E+00    1.8555713050428224E+00    6.0766490310120358E-01
Ga    6.4840044996346418E+00    1.8714927153175562E+00    2.6367257757502602E+00
N    6.5054437308817246E+00   -1.4187619958749330E-02    3.2301297737987800E+00
Ga    6.5066990196914958E+00   -1.2625659341482588E-02    5.2397333326519293E+00
N    6.5119985927932351E+00    1.8570360156409873E+00    5.8515399153155681E+00
Ga    6.5109619463705455E+00    1.8566676272878839E+00    7.8500802590501628E+00
N    6.5069618298852108E+00   -1.4464208713468502E-02    8.4566413709788399E+00
Ga    6.5016804994701412E+00   -1.5596471084140270E-02    1.0453402062078768E+01
N    6.5165177040115649E+00    1.8605382762066602E+00    1.1045699113392603E+01
Ga    6.5416331625059385E+00    1.8520024599883911E+00    1.3033400181645275E+01
N    6.5189067888232399E+00   -1.4167380831802806E-02    1.3649607978276903E+01
Ga    6.5164508918527648E+00   -1.6063357816068581E-02    1.5662517196386307E+01
N    6.5274715231252936E+00    1.8614210449988136E+00    1.6205652049028512E+01
Ga    6.5781226583486658E+00    1.8339278094582852E+00    1.8278375421657660E+01
N    6.4614096127738643E+00    2.0199244124693143E-02    1.8799095689032679E+01
Ga    4.8852144903041905E+00    2.7921133105902407E+00   -5.4670177279962018E-01
N    4.8881949526352981E+00    4.6662402143269519E+00    6.0857835125092419E-01
Ga    4.8887992908083273E+00    4.6346990988757035E+00    2.6374929376098861E+00
N    4.8857520154979843E+00    2.7908415111300773E+00    3.2702140781996079E+00
Ga    4.8877121594302624E+00    2.7917973024196665E+00    5.2590342765565454E+00
N    4.8910519994882575E+00    4.6663892722045812E+00    5.8487564748855769E+00
Ga    4.8926255311608342E+00    4.6637997846874173E+00    7.8451442828118010E+00
N    4.8874246266964825E+00    2.7929113588033618E+00    8.4558659724301677E+00
Ga    4.8857516775582397E+00    2.7889121335569458E+00    1.0452872493302836E+01
N    4.8885530386413487E+00    4.6683039062491085E+00    1.1055759548933848E+01
Ga    4.8872499604386324E+00    4.6636015470447187E+00    1.3032608595333508E+01
N    4.8955282081481206E+00    2.7949721707353476E+00    1.3617463363355728E+01
Ga    4.8999944998455849E+00    2.5531698981903661E+00    1.5538480464700765E+01
N    4.8387935185379343E+00    4.6276410239412131E+00    1.6397948456613253E+01
Ga    5.5911176304356625E+00    4.2782368493777509E+00    1.9672105830770281E+01
N    4.9597552357022172E+00    2.7823795380247138E+00    1.8784167189222281E+01
Ga    3.2655211687740788E+00    5.5958256234245249E+00    3.2455605878846283E-01
N    3.2634473314062422E+00    7.4656226536009873E+00    6.0761291587004429E-01
Ga    3.2930258622414330E+00    7.4818971962030743E+00    2.6366176117589082E+00
N    3.2661505223389051E+00    5.5966003827789601E+00    3.2307854616231220E+00
Ga    3.2676830311918184E+00    5.5980535378783030E+00    5.2404955024490238E+00
N    3.2680252244122951E+00    7.4687856587547303E+00    5.8493722048573416E+00
Ga    3.2696803954186082E+00    7.4706939103999481E+00    7.8464871889709542E+00
N    3.2697539819592936E+00    5.5976485080889535E+00    8.4462709315441717E+00
Ga    3.2702201304429965E+00    5.6012467482285304E+00    1.0432715906905273E+01
N    3.2751885302779296E+00    7.4680539645670789E+00    1.1045820242609672E+01
Ga    3.2809783717773526E+00    7.4940130637802946E+00    1.3028944123605743E+01
N    3.2632749377695465E+00    5.5993171317220876E+00    1.3661001045533116E+01
Ga    3.0281262521182395E+00    5.7555995193848206E+00    1.5579477310829340E+01
N    3.2742396368051399E+00    7.4750587967525721E+00    1.6318711744143393E+01
Ga    3.2664558723690096E+00    7.7212604097449065E+00    1.8408152313713742E+01
N    4.6428268293974169E+00    4.6988003306741222E+00    1.7563270094269349E+01
O    2.7461302068368321E+00    5.8436341391082651E+00    1.9685930416186686E+01
H   -1.3927006683169477E-01    5.6370982838280925E+00    1.9824288503557852E+01
C    2.0239490784483669E+00    6.3433834739856723E+00    2.0867874893392120E+01
H    1.4221621096052026E+00    7.2143127917572407E+00    2.0587147696591288E+01
H    1.4216368124133278E+00    5.5330073263883657E+00    2.1300986499331518E+01
H    2.7754995334264514E+00    6.6651627523011818E+00    2.1600841182042078E+01
O    4.3766633544575804E+00    4.7239768175664407E+00    2.1100124081013959E+01
H    3.6114289705236153E+00    5.2465011312594445E+00    2.0369936862351270E+01
C    3.6942091252177738E+00    3.6137327613317431E+00    2.1763134312432079E+01
H    2.8901345560819536E+00    3.2133478142394702E+00    2.1124387865583760E+01
H    4.4162229224405944E+00    2.8173165204337605E+00    2.1980488888729113E+01
H    3.2799117195408249E+00    3.9978298456671526E+00    2.2703560664253164E+01
     &END COORD
     &KIND C
       BASIS_SET DZVP-MOLOPT-SR-GTH-q4
       POTENTIAL GTH-PBE-q4
       &POTENTIAL
 2 2
  0.3384712400000000E+00 2 -0.8803673979999999E+01  0.1339210850000000E+01
 2
  0.3025757500000000E+00 1  0.9622486650000001E+01
  0.2915069400000000E+00 0
         # Potential name:  GTH-PBE-Q4  for symbol:  C
         # Potential read from the potential filename: GTH_POTENTIALS
       &END POTENTIAL
     &END KIND
     &KIND O
       BASIS_SET DZVP-MOLOPT-SR-GTH-q6
       POTENTIAL GTH-PBE-q6
       &POTENTIAL
 2 4
  0.2445543000000000E+00 2 -0.1666721480000000E+02  0.2487311320000000E+01
 2
  0.2209559200000000E+00 1  0.1833745811000000E+02
  0.2113324700000000E+00 0
         # Potential name:  GTH-PBE-Q6  for symbol:  O
         # Potential read from the potential filename: GTH_POTENTIALS
       &END POTENTIAL
     &END KIND
     &KIND H
       BASIS_SET DZVP-MOLOPT-SR-GTH-q1
       POTENTIAL GTH-PBE-q1
       &POTENTIAL
 1
  0.2000000000000000E+00 2 -0.4178900440000000E+01  0.7244633100000000E+00
 0
         # Potential name:  GTH-PBE-Q1  for symbol:  H
         # Potential read from the potential filename: GTH_POTENTIALS
       &END POTENTIAL
     &END KIND
     &KIND N
       BASIS_SET DZVP-MOLOPT-SR-GTH-q5
       POTENTIAL GTH-PBE-q5
       &POTENTIAL
 2 3
  0.2837905100000000E+00 2 -0.1241522559000000E+02  0.1868095920000000E+01
 2
  0.2554050000000000E+00 1  0.1363026257000000E+02
  0.2454945300000000E+00 0
         # Potential name:  GTH-PBE-Q5  for symbol:  N
         # Potential read from the potential filename: GTH_POTENTIALS
       &END POTENTIAL
     &END KIND
     &KIND Ga
       BASIS_SET DZVP-MOLOPT-SR-GTH-q13
       POTENTIAL GTH-PBE-q13
       &POTENTIAL
 2 1 10
  0.4900000000000000E+00 0
 3
  0.4167772300000000E+00 3  0.1047568975000000E+02 -0.4921768140000000E+01  0.8707055900000000E+00
  0.7770178090000000E+01 -0.2248152160000000E+01
  0.1784415450000000E+01
  0.5696265200000000E+00 2  0.1777985340000000E+01  0.1958597600000000E+00
 -0.2317443900000000E+00
  0.2381265000000000E+00 1 -0.1624868022000000E+02
         # Potential name:  GTH-PBE-Q13  for symbol:  GA
         # Potential read from the potential filename: GTH_POTENTIALS
       &END POTENTIAL
     &END KIND
     &TOPOLOGY
       COORD_FILE_NAME ../start-first.xyz
       COORD_FILE_FORMAT  XYZ
       NUMBER_OF_ATOMS  156
       MULTIPLE_UNIT_CELL  1 1 1
     &END TOPOLOGY
     &COLVAR
       &DISTANCE
         ATOMS  145 152
       &END DISTANCE
       &PRINT
       &END PRINT
     &END COLVAR
   &END SUBSYS
 &END FORCE_EVAL
