 # Version information for this restart file 
 # current date 2019-07-04 09:08:43.899
 # current working dir /lustre04/scratch/rzk/rzk/GaN-carbene/443-adatoms-both-2x2/02-Methanol/04-H-NSur-Attempt2
 # Program compiled at                              Sun Apr  7 00:48:11 EDT 2019
 # Program compiled on                          beluga2.int.ets1.calculquebec.ca
 # Program compiled for                        Beluga-Linux-x86-64-intel-openmpi
 # Source code revision number                                         svn:18619
 &GLOBAL
   PRINT_LEVEL  MEDIUM
   PROJECT_NAME TEST
   RUN_TYPE  GEO_OPT
 &END GLOBAL
 &MOTION
   &GEO_OPT
     MAX_ITER  500
     STEP_START_VAL  125
   &END GEO_OPT
 &END MOTION
 &FORCE_EVAL
   METHOD  QS
   STRESS_TENSOR  ANALYTICAL
   &DFT
     BASIS_SET_FILE_NAME BASIS_MOLOPT
     POTENTIAL_FILE_NAME GTH_POTENTIALS
     UKS  T
     SURFACE_DIPOLE_CORRECTION  T
     SURF_DIP_DIR  Z
     &SCF
       MAX_SCF  80
       EPS_SCF     5.0000000000000004E-06
       &OT  T
         PRECONDITIONER  FULL_ALL
       &END OT
       &OUTER_SCF  T
         OPTIMIZER  NONE
         EPS_SCF     5.0000000000000004E-06
         MAX_SCF  4
       &END OUTER_SCF
       &PRINT
         &RESTART  OFF
           BACKUP_COPIES  1
           &EACH
             JUST_ENERGY  0
             QS_SCF  0
             MD  20
           &END EACH
         &END RESTART
       &END PRINT
     &END SCF
     &QS
       EPS_DEFAULT     1.0000000000000000E-14
       METHOD  GPW
     &END QS
     &MGRID
       NGRIDS  5
       CUTOFF     1.2000000000000000E+03
     &END MGRID
     &XC
       DENSITY_CUTOFF     1.0000000000000000E-10
       GRADIENT_CUTOFF     1.0000000000000000E-10
       TAU_CUTOFF     1.0000000000000000E-10
       &XC_FUNCTIONAL  NO_SHORTCUT
         &PBE  T
         &END PBE
       &END XC_FUNCTIONAL
       &VDW_POTENTIAL
         POTENTIAL_TYPE  PAIR_POTENTIAL
         &PAIR_POTENTIAL
           R_CUTOFF     1.0000000000000004E+01
           TYPE  DFTD3
           PARAMETER_FILE_NAME dftd3.dat
           REFERENCE_FUNCTIONAL PBE
           EPS_CN     9.9999999999999995E-07
           CALCULATE_C9_TERM  T
           REFERENCE_C9_TERM  T
           LONG_RANGE_CORRECTION  F
           VERBOSE_OUTPUT  F
         &END PAIR_POTENTIAL
       &END VDW_POTENTIAL
     &END XC
   &END DFT
   &SUBSYS
     &CELL
       A     1.2864472766435110E+01    0.0000000000000000E+00    0.0000000000000000E+00
       B    -6.4322363581020028E+00    1.1140960178524473E+01    0.0000000000000000E+00
       C     0.0000000000000000E+00    0.0000000000000000E+00    3.2000000000000000E+01
       MULTIPLE_UNIT_CELL  1 1 1
       &CELL_REF
         A     1.2982353780853531E+01    0.0000000000000000E+00    0.0000000000000000E+00
         B    -6.4911768904267628E+00    1.1243048175136114E+01    0.0000000000000000E+00
         C     0.0000000000000000E+00    0.0000000000000000E+00    3.2000000000000000E+01
         MULTIPLE_UNIT_CELL  1 1 1
       &END CELL_REF
     &END CELL
     &COORD
N    1.9779979909193868E-01    1.8980531464377381E+00    2.5219367070202767E+00
Ga    2.2536316489075015E-01   -1.0995090303139755E-01    2.8244785464601931E+00
N    1.9748768839252409E-01   -7.5229226941142327E-02    5.0183164803551081E+00
Ga    1.9505004653307301E-01    1.7450995385982462E+00    5.7980064415264776E+00
N    1.9139865570820383E-01    1.7707772608975421E+00    7.7963765629318136E+00
Ga    1.9153017549739182E-01   -7.7057532656167993E-02    8.4420656537675942E+00
N    1.8772698924422909E-01   -7.5032071702265210E-02    1.0418428253231331E+01
Ga    1.8777413628449130E-01    1.7633219713851853E+00    1.1070689352484392E+01
N    1.8539730326281789E-01    1.7451869999271521E+00    1.3064476200961161E+01
Ga    1.8586779295108499E-01   -7.4427554584159089E-02    1.3876949509990704E+01
N    1.8405438368251820E-01   -7.4535262746989003E-02    1.6068914218422496E+01
Ga    1.8371679939626906E-01    1.9759785867786896E+00    1.6497936838645234E+01
Ga    1.9929082070059220E-01    3.6040358638532060E+00    1.4793764111187739E+00
N   -1.3011054577211043E+00    4.5129761218845355E+00    2.5157568385210971E+00
Ga   -1.5112234470083867E+00    2.6438457248367713E+00    3.2858536716423803E+00
N   -1.4114858324431940E+00    2.7126827420570119E+00    5.2488909417808527E+00
Ga   -1.4488795621659978E+00    4.5803809237532729E+00    5.8045754081136263E+00
N   -1.4249954636238078E+00    4.5734609100550250E+00    7.7965829798326665E+00
Ga   -1.4067784401985015E+00    2.7131204995707838E+00    8.4354184054576589E+00
N   -1.4087543542914953E+00    2.7162739202066652E+00    1.0429734924324494E+01
Ga   -1.4346684006181476E+00    4.5741652870514979E+00    1.1069621890071124E+01
N   -1.4522743182235878E+00    4.5846163801612763E+00    1.3061144923484754E+01
Ga   -1.4110330788709842E+00    2.7168659946020406E+00    1.3623710785802709E+01
N   -1.4469861403830955E+00    2.7043172107698958E+00    1.5582027218767545E+01
Ga   -1.2426615801315577E+00    4.4644460461129869E+00    1.6499824186316747E+01
N    1.8351445635560301E-01    3.6291229160164868E+00    1.7644972737514863E+01
N   -3.0134989318075194E+00    7.4922179142732537E+00    2.4961710342887677E+00
Ga   -3.0303152604077979E+00    5.5317554205786728E+00    2.8409097625159427E+00
N   -3.0202955257587663E+00    5.4966707936803720E+00    5.0167597352823927E+00
Ga   -3.0292438904067387E+00    7.3233171637755738E+00    5.8027669127332278E+00
N   -3.0228245691674229E+00    7.3403224334890300E+00    7.7992760477897782E+00
Ga   -3.0252408945111253E+00    5.4961525784809435E+00    8.4467243159209140E+00
N   -3.0274045732067703E+00    5.4951360879727682E+00    1.0420256922667450E+01
Ga   -3.0292646493963034E+00    7.3364560626576694E+00    1.1068097501460006E+01
N   -3.0302290442660960E+00    7.3171888403352430E+00    1.3060772940331098E+01
Ga   -3.0206062332928822E+00    5.5009473647731131E+00    1.3860842795633873E+01
N   -3.0201654678707595E+00    5.5020861607911469E+00    1.6068039161838399E+01
Ga   -3.0306241278463535E+00    7.5581265538966962E+00    1.6495622746025642E+01
Ga   -3.0465526601836888E+00    9.1960385450374567E+00    1.3194661643478427E+00
N   -4.5027252238353892E+00    1.0063659598706321E+01    2.5004099189228621E+00
Ga   -4.7028813021357321E+00    8.2471594273632380E+00    3.2669982305474399E+00
N   -4.6284424758049356E+00    8.2786432339739875E+00    5.2508126119753804E+00
Ga   -4.6520621312174280E+00    1.0150971994795160E+01    5.7926062621020780E+00
N   -4.6423821404162293E+00    1.0143016385086449E+01    7.7973417250400940E+00
Ga   -4.6255291855793050E+00    8.2875750713048948E+00    8.4323664417109772E+00
N   -4.6253111431762894E+00    8.2870213012249589E+00    1.0429528186324497E+01
Ga   -4.6517780069502734E+00    1.0146202656595158E+01    1.1069264084300940E+01
N   -4.6706381329515994E+00    1.0155848611009366E+01    1.3064169578439701E+01
Ga   -4.6275207209568059E+00    8.2871915920967680E+00    1.3621892302773009E+01
N   -4.6567488486664628E+00    8.2636441855769416E+00    1.5580961802940744E+01
Ga   -4.4758822842828092E+00    1.0042326750983580E+01    1.6493695010096857E+01
N   -3.0418856639386163E+00    9.2142811170691132E+00    1.7638317415670777E+01
N    3.4129091354615064E+00    1.7684485188816708E+00    2.6194047882512934E+00
Ga    3.4117830971482461E+00   -2.2212256420559681E-03    3.2619497423381878E+00
N    3.4117893781609556E+00   -7.4293437863163017E-02    5.2502013951530611E+00
Ga    3.4095301334428796E+00    1.7723501680933718E+00    5.8714744661733071E+00
N    3.4071780755005725E+00    1.7824120415503379E+00    7.8496369010840583E+00
Ga    3.4050959836360515E+00   -8.6804602576876222E-02    8.4349081174788179E+00
N    3.4039314192531607E+00   -8.7251976808223525E-02    1.0431152935835064E+01
Ga    3.4036710144088520E+00    1.7809813956637046E+00    1.1025613547838988E+01
N    3.4036137793633450E+00    1.7831219176115591E+00    1.2999438189204966E+01
Ga    3.4014829903642418E+00   -8.8691726692166309E-02    1.3622159069671216E+01
N    3.4065154127190080E+00   -5.2606063501959323E-02    1.5581314575604587E+01
Ga    3.3979675270785674E+00    1.7808209191436100E+00    1.5862680233609094E+01
N    1.6941817124223009E+00    4.5119275757721464E+00    2.5198601908681568E+00
Ga    1.9071058504559979E+00    2.6391660777283388E+00    3.2889304763820104E+00
N    1.8011964220472210E+00    2.7126194042215896E+00    5.2517928373323910E+00
Ga    1.8349972011242677E+00    4.5776717341662962E+00    5.8093520443082651E+00
N    1.8072541006655281E+00    4.5731565481366685E+00    7.8000403295740917E+00
Ga    1.7893449015469787E+00    2.7127378639052631E+00    8.4375933720549945E+00
N    1.7851492814119430E+00    2.7160308749725028E+00    1.0431361390936660E+01
Ga    1.8103362596365951E+00    4.5742361609711795E+00    1.1069467395713945E+01
N    1.8236637820260393E+00    4.5849606698864225E+00    1.3061064111820002E+01
Ga    1.7814960985224730E+00    2.7171094371269451E+00    1.3623554695349950E+01
N    1.8146589824351682E+00    2.7045448356626052E+00    1.5582132642329322E+01
Ga    1.6097115450757338E+00    4.4639883152397308E+00    1.6500030659578119E+01
N    1.8932994775625867E-01    7.3624710665805786E+00    2.6942936134056201E+00
Ga    1.9416006882919884E-01    5.5291025858333525E+00    3.3310577261672831E+00
N    1.9520412583273353E-01    5.5105717327913410E+00    5.2570617009823843E+00
Ga    1.9316967308756317E-01    7.3596893133583707E+00    5.9037187061598049E+00
N    1.9291827646155710E-01    7.3521941503815169E+00    7.8617421951797439E+00
Ga    1.9095206075982749E-01    5.4818020847181277E+00    8.4452017050877206E+00
N    1.8798291502980052E-01    5.4826126185275745E+00    1.0433159930070451E+01
Ga    1.8829104508162900E-01    7.3527956449264789E+00    1.1027504160019520E+01
N    1.8579451380150644E-01    7.3521856276525730E+00    1.2996691319951337E+01
Ga    1.8545641375346464E-01    5.4834634196334457E+00    1.3623286139518964E+01
N    1.8419035299313691E-01    5.5153576911269164E+00    1.5580470238342649E+01
Ga    1.8368807143906488E-01    7.3518807571490052E+00    1.5859677029987866E+01
N   -1.5233760775316079E+00    1.0069113777148536E+01    2.5113108332814584E+00
Ga   -1.4215214746237768E+00    8.2970501412077287E+00    3.3195093411605803E+00
N   -1.4005065690932388E+00    8.2724908512922397E+00    5.2594264358257696E+00
Ga   -1.3910666062679944E+00    1.0160489760749840E+01    5.8026730571752276E+00
N   -1.4061987583984026E+00    1.0141706440843562E+01    7.8006238937408199E+00
Ga   -1.4296731041269781E+00    8.2884648269541632E+00    8.4430200286891637E+00
N   -1.4305340223638736E+00    8.2866295128191947E+00    1.0433053966708158E+01
Ga   -1.4066824292834055E+00    1.0146240299834689E+01    1.1067895271513120E+01
N   -1.3919337388649320E+00    1.0154547506568608E+01    1.3060565424643567E+01
Ga   -1.4329705897202749E+00    8.2865205344219639E+00    1.3621737193312130E+01
N   -1.4069419716595306E+00    8.2708533728176903E+00    1.5579625142762968E+01
Ga   -1.6025263288924232E+00    1.0032496917158756E+01    1.6495677665502164E+01
N    6.6286103583095217E+00    1.9045257538796609E+00    2.5295884801711583E+00
Ga    6.6029619829786350E+00   -9.4666491169423800E-02    2.8467677725740330E+00
N    6.6271879099844213E+00   -7.4128904100246154E-02    5.0287934895612594E+00
Ga    6.6268434478295228E+00    1.7510725514108705E+00    5.8036346917243939E+00
N    6.6242756600863579E+00    1.7709649560126672E+00    7.8015104475307542E+00
Ga    6.6240260796378827E+00   -7.5837822484083134E-02    8.4450416680650147E+00
N    6.6211630575857878E+00   -7.5605605317544067E-02    1.0419980485982668E+01
Ga    6.6207405644289459E+00    1.7639266698480640E+00    1.1066690918031812E+01
N    6.6179166251033319E+00    1.7433383176805162E+00    1.3067236295274480E+01
Ga    6.6174701916334628E+00   -8.6316490810141103E-02    1.3858649028740938E+01
N    6.6160124353809504E+00   -8.8393333507614885E-02    1.6067887783197456E+01
Ga    6.6158069950851859E+00    1.9118781261829274E+00    1.6431000001618056E+01
Ga    6.6282368272795837E+00    3.6395402896909093E+00    1.5264524567940674E+00
N    5.1280217336163005E+00    4.5022704111273901E+00    2.5366584434604111E+00
Ga    4.9167965180842303E+00    2.6405824234068964E+00    3.2967580927493465E+00
N    5.0176114501708025E+00    2.7082906619640390E+00    5.2584642542886106E+00
Ga    4.9957824555974089E+00    4.5785210410008226E+00    5.8044214979323980E+00
N    5.0055103921649247E+00    4.5722462289048016E+00    7.8012766612397435E+00
Ga    5.0238930700299322E+00    2.7147863886655363E+00    8.4376367270584378E+00
N    5.0236426130590557E+00    2.7166858132600216E+00    1.0433862368754490E+01
Ga    4.9972931472107840E+00    4.5762730183850513E+00    1.1066815033709323E+01
N    4.9764722393223018E+00    4.5863291600018741E+00    1.3067469059900967E+01
Ga    5.0200353761338565E+00    2.7160971382320414E+00    1.3612382508641732E+01
N    5.0020776788426309E+00    2.7063543911133729E+00    1.5590599142810248E+01
Ga    5.1197928700710023E+00    4.5019093295202417E+00    1.6431231294269157E+01
N    6.6168387768783781E+00    3.6398890210615300E+00    1.7552235342504478E+01
N    3.4049044848629562E+00    7.4678934001613531E+00    2.5094945734202376E+00
N    3.4100340852816284E+00    5.4924405053596361E+00    5.0259598844310265E+00
Ga    3.4166976868929750E+00    7.3221521919364640E+00    5.8009369664921850E+00
N    3.4058392703254206E+00    7.3417554094270159E+00    7.7960053196092574E+00
Ga    3.4080016371171920E+00    5.4963705053032212E+00    8.4462286117192971E+00
N    3.4037837544763465E+00    5.4959244647233305E+00    1.0419996028481448E+01
Ga    3.4058131228438491E+00    7.3367349127468735E+00    1.1068535237414041E+01
N    3.4014192067120383E+00    7.3173800415531725E+00    1.3061158547816339E+01
Ga    3.3915906518478218E+00    5.5006481458599632E+00    1.3860040236874596E+01
N    3.3883076487150872E+00    5.5017680306502514E+00    1.6068591457377572E+01
Ga    3.3979136293757981E+00    7.5554492468413086E+00    1.6492909863652390E+01
Ga    3.4472247615580525E+00    9.2274810979100543E+00    1.3542745271257881E+00
N    1.9035280567826520E+00    1.0075097986468496E+01    2.5059640344475338E+00
Ga    1.7984703143123744E+00    8.2836299153110957E+00    3.3084385497263891E+00
N    1.7906256954612236E+00    8.2735993832283246E+00    5.2468461998035938E+00
Ga    1.7768068821490841E+00    1.0160559239558062E+01    5.7998867380960819E+00
N    1.7911756033879735E+00    1.0141057552293184E+01    7.7960268724816117E+00
Ga    1.8127719589994602E+00    8.2884108548761777E+00    8.4437446371345555E+00
N    1.8080273248329459E+00    8.2872569796379700E+00    1.0432951770624564E+01
Ga    1.7831755508742151E+00    1.0146686716570487E+01    1.1068350755426991E+01
N    1.7636310792683298E+00    1.0154375803908723E+01    1.3060922054442257E+01
Ga    1.8036535457625706E+00    8.2863639595131779E+00    1.3621726644155226E+01
N    1.7752540928715910E+00    8.2707822698799234E+00    1.5579958060473709E+01
Ga    1.9670111829435000E+00    1.0033765626668513E+01    1.6492637626761464E+01
N    3.4095612695144291E+00    9.2146975536784872E+00    1.7633136102743705E+01
N    9.8450954135749296E+00    1.7780276685419854E+00    2.6109645024844998E+00
Ga    9.8471404730145533E+00    1.9272903936104386E-02    3.2600510924887969E+00
N    9.8420107838543220E+00   -7.7164205539749273E-02    5.2388098040003070E+00
Ga    9.8441900998738667E+00    1.7751729477076381E+00    5.8682030424911629E+00
N    9.8405174473709351E+00    1.7809710846685163E+00    7.8450604942802524E+00
Ga    9.8427705051444505E+00   -8.7080854216172510E-02    8.4338103344034767E+00
N    9.8375023078922386E+00   -8.7354935750044049E-02    1.0429431453610752E+01
Ga    9.8374430907343484E+00    1.7811566409576869E+00    1.1024928759253266E+01
N    9.8317696672564843E+00    1.7826941064784483E+00    1.2998918710937149E+01
Ga    9.8339442365814662E+00   -8.8725548289982498E-02    1.3622524272177589E+01
N    9.8253803188963893E+00   -5.2935862148400022E-02    1.5582351423128321E+01
Ga    9.8342261003871414E+00    1.7810301590674515E+00    1.5863454098955117E+01
N    8.1303790877513276E+00    4.5049787753504242E+00    2.5335324358954354E+00
Ga    8.3393567818181449E+00    2.6455533134722358E+00    3.2943518410976962E+00
N    8.2366981745644772E+00    2.7088324596527769E+00    5.2555526602849616E+00
Ga    8.2597894269037155E+00    4.5814571214862472E+00    5.7994747295101430E+00
N    8.2429997495974057E+00    4.5726182411399865E+00    7.7978409582386652E+00
Ga    8.2234474604631611E+00    2.7153718771742978E+00    8.4354904698603956E+00
N    8.2182615886115880E+00    2.7166154978960808E+00    1.0432105477247710E+01
Ga    8.2434232187027412E+00    4.5758798939465377E+00    1.1067158441538426E+01
N    8.2592787724744383E+00    4.5862527087550289E+00    1.3067831479151153E+01
Ga    8.2151452318641685E+00    2.7161967102043101E+00    1.3612642233480544E+01
N    8.2300493534848460E+00    2.7059444054945776E+00    1.5591153756459255E+01
Ga    8.1133031972295413E+00    4.5027001993925619E+00    1.6431135550185481E+01
N    6.6342460927839921E+00    7.3589785867431221E+00    2.6288705438489481E+00
Ga    6.6302640307657121E+00    5.6212471494554306E+00    3.2977664731400664E+00
N    6.6261031180732157E+00    5.4952616852244169E+00    5.2588831827102407E+00
Ga    6.6279911000212834E+00    7.3596973201875704E+00    5.8636890694973562E+00
N    6.6225220727782679E+00    7.3522692937192851E+00    7.8448968880435377E+00
Ga    6.6239618813116188E+00    5.4865912471220648E+00    8.4338763428430994E+00
N    6.6208373825718052E+00    5.4827072140323585E+00    1.0431452678215447E+01
Ga    6.6205381805035239E+00    7.3534319425444874E+00    1.1023638938093010E+01
N    6.6173030216248980E+00    7.3496857443379939E+00    1.2998275032007744E+01
Ga    6.6177156820339711E+00    5.4832814249455541E+00    1.3612551275323009E+01
N    6.6158066934912343E+00    5.5022808243152994E+00    1.5591261545595115E+01
Ga    6.6164537064143971E+00    7.3538162672006591E+00    1.5863698590330372E+01
N    4.9195583495556781E+00    1.0078014390705842E+01    2.5113756099213789E+00
Ga    5.1092921942690595E+00    8.2349968844724888E+00    3.2630791478836807E+00
N    5.0144840533276449E+00    8.2799373802604705E+00    5.2417213706429813E+00
Ga    5.0461400617530536E+00    1.0152495166615488E+01    5.7880219654313922E+00
N    5.0252241619782225E+00    1.0143108897860486E+01    7.7917992305725106E+00
Ga    5.0077432964033921E+00    8.2881923277620810E+00    8.4322789071797093E+00
N    5.0018618175738130E+00    8.2874603637742617E+00    1.0428753259588715E+01
Ga    5.0278357946162986E+00    1.0146198837524794E+01    1.1070030208669344E+01
N    5.0417706523814756E+00    1.0155886985518441E+01    1.3064983907807928E+01
Ga    4.9980342914467046E+00    8.2873987937530753E+00    1.3622426247077485E+01
N    5.0240137037845765E+00    8.2633158881325119E+00    1.5582377578085305E+01
Ga    4.8462130344677306E+00    1.0043923936949771E+01    1.6491069760920507E+01
Ga    3.4224410146903468E+00    5.5026803719137831E+00    2.8646846841715212E+00
O   -2.8295268987996969E+00    9.2178541204352289E+00   -4.8065743410888123E-01
H    1.7677840776457845E-01    7.3638950916309938E+00    1.6674262620800369E+00
C   -2.6293910905828448E+00    1.0516350718847667E+01   -1.0671297147531325E+00
H   -2.1929328160176058E+00    1.1248737090656405E+01   -3.6653608961949341E-01
H   -1.9381507671381395E+00    1.0406094265671868E+01   -1.9166244750160029E+00
H   -3.5801091374427569E+00    1.0927326026730995E+01   -1.4421388937649986E+00
     &END COORD
     &KIND C
       BASIS_SET DZVP-MOLOPT-SR-GTH-q4
       POTENTIAL GTH-PBE-q4
       &POTENTIAL
 2 2
  0.3384712400000000E+00 2 -0.8803673979999999E+01  0.1339210850000000E+01
 2
  0.3025757500000000E+00 1  0.9622486650000001E+01
  0.2915069400000000E+00 0
         # Potential name:  GTH-PBE-Q4  for symbol:  C
         # Potential read from the potential filename: GTH_POTENTIALS
       &END POTENTIAL
     &END KIND
     &KIND O
       BASIS_SET DZVP-MOLOPT-SR-GTH-q6
       POTENTIAL GTH-PBE-q6
       &POTENTIAL
 2 4
  0.2445543000000000E+00 2 -0.1666721480000000E+02  0.2487311320000000E+01
 2
  0.2209559200000000E+00 1  0.1833745811000000E+02
  0.2113324700000000E+00 0
         # Potential name:  GTH-PBE-Q6  for symbol:  O
         # Potential read from the potential filename: GTH_POTENTIALS
       &END POTENTIAL
     &END KIND
     &KIND H
       BASIS_SET DZVP-MOLOPT-SR-GTH-q1
       POTENTIAL GTH-PBE-q1
       &POTENTIAL
 1
  0.2000000000000000E+00 2 -0.4178900440000000E+01  0.7244633100000000E+00
 0
         # Potential name:  GTH-PBE-Q1  for symbol:  H
         # Potential read from the potential filename: GTH_POTENTIALS
       &END POTENTIAL
     &END KIND
     &KIND N
       BASIS_SET DZVP-MOLOPT-SR-GTH
       POTENTIAL GTH-PBE-q5
       &POTENTIAL
 2 3
  0.2837905100000000E+00 2 -0.1241522559000000E+02  0.1868095920000000E+01
 2
  0.2554050000000000E+00 1  0.1363026257000000E+02
  0.2454945300000000E+00 0
         # Potential name:  GTH-PBE-Q5  for symbol:  N
         # Potential read from the potential filename: GTH_POTENTIALS
       &END POTENTIAL
     &END KIND
     &KIND Ga
       BASIS_SET DZVP-MOLOPT-SR-GTH
       POTENTIAL GTH-PBE-q13
       &POTENTIAL
 2 1 10
  0.4900000000000000E+00 0
 3
  0.4167772300000000E+00 3  0.1047568975000000E+02 -0.4921768140000000E+01  0.8707055900000000E+00
  0.7770178090000000E+01 -0.2248152160000000E+01
  0.1784415450000000E+01
  0.5696265200000000E+00 2  0.1777985340000000E+01  0.1958597600000000E+00
 -0.2317443900000000E+00
  0.2381265000000000E+00 1 -0.1624868022000000E+02
         # Potential name:  GTH-PBE-Q13  for symbol:  GA
         # Potential read from the potential filename: GTH_POTENTIALS
       &END POTENTIAL
     &END KIND
     &TOPOLOGY
       NUMBER_OF_ATOMS  206
       MULTIPLE_UNIT_CELL  1 1 1
     &END TOPOLOGY
   &END SUBSYS
 &END FORCE_EVAL
