 # Version information for this restart file 
 # current date 2019-07-04 09:11:31.130
 # current working dir /lustre04/scratch/rzk/rzk/GaN-carbene/443-adatoms-both-2x2/02-Methanol/04-H-NSur-Attempt2
 # Program compiled at                              Sun Apr  7 00:48:11 EDT 2019
 # Program compiled on                          beluga2.int.ets1.calculquebec.ca
 # Program compiled for                        Beluga-Linux-x86-64-intel-openmpi
 # Source code revision number                                         svn:18619
 &GLOBAL
   PRINT_LEVEL  MEDIUM
   PROJECT_NAME TEST
   RUN_TYPE  GEO_OPT
 &END GLOBAL
 &MOTION
   &GEO_OPT
     MAX_ITER  500
     STEP_START_VAL  126
   &END GEO_OPT
 &END MOTION
 &FORCE_EVAL
   METHOD  QS
   STRESS_TENSOR  ANALYTICAL
   &DFT
     BASIS_SET_FILE_NAME BASIS_MOLOPT
     POTENTIAL_FILE_NAME GTH_POTENTIALS
     UKS  T
     SURFACE_DIPOLE_CORRECTION  T
     SURF_DIP_DIR  Z
     &SCF
       MAX_SCF  80
       EPS_SCF     5.0000000000000004E-06
       &OT  T
         PRECONDITIONER  FULL_ALL
       &END OT
       &OUTER_SCF  T
         OPTIMIZER  NONE
         EPS_SCF     5.0000000000000004E-06
         MAX_SCF  4
       &END OUTER_SCF
       &PRINT
         &RESTART  OFF
           BACKUP_COPIES  1
           &EACH
             JUST_ENERGY  0
             QS_SCF  0
             MD  20
           &END EACH
         &END RESTART
       &END PRINT
     &END SCF
     &QS
       EPS_DEFAULT     1.0000000000000000E-14
       METHOD  GPW
     &END QS
     &MGRID
       NGRIDS  5
       CUTOFF     1.2000000000000000E+03
     &END MGRID
     &XC
       DENSITY_CUTOFF     1.0000000000000000E-10
       GRADIENT_CUTOFF     1.0000000000000000E-10
       TAU_CUTOFF     1.0000000000000000E-10
       &XC_FUNCTIONAL  NO_SHORTCUT
         &PBE  T
         &END PBE
       &END XC_FUNCTIONAL
       &VDW_POTENTIAL
         POTENTIAL_TYPE  PAIR_POTENTIAL
         &PAIR_POTENTIAL
           R_CUTOFF     1.0000000000000004E+01
           TYPE  DFTD3
           PARAMETER_FILE_NAME dftd3.dat
           REFERENCE_FUNCTIONAL PBE
           EPS_CN     9.9999999999999995E-07
           CALCULATE_C9_TERM  T
           REFERENCE_C9_TERM  T
           LONG_RANGE_CORRECTION  F
           VERBOSE_OUTPUT  F
         &END PAIR_POTENTIAL
       &END VDW_POTENTIAL
     &END XC
   &END DFT
   &SUBSYS
     &CELL
       A     1.2864472766435110E+01    0.0000000000000000E+00    0.0000000000000000E+00
       B    -6.4322363581020028E+00    1.1140960178524473E+01    0.0000000000000000E+00
       C     0.0000000000000000E+00    0.0000000000000000E+00    3.2000000000000000E+01
       MULTIPLE_UNIT_CELL  1 1 1
       &CELL_REF
         A     1.2982353780853531E+01    0.0000000000000000E+00    0.0000000000000000E+00
         B    -6.4911768904267628E+00    1.1243048175136114E+01    0.0000000000000000E+00
         C     0.0000000000000000E+00    0.0000000000000000E+00    3.2000000000000000E+01
         MULTIPLE_UNIT_CELL  1 1 1
       &END CELL_REF
     &END CELL
     &COORD
N    1.9709175762198963E-01    1.8981000444366192E+00    2.5218147556227306E+00
Ga    2.2442815776464334E-01   -1.0992516072875616E-01    2.8244083627654897E+00
N    1.9705734403660197E-01   -7.5173612762200123E-02    5.0181772738982593E+00
Ga    1.9465882437574317E-01    1.7451313286496577E+00    5.7978457791203502E+00
N    1.9131561451201506E-01    1.7707557943204257E+00    7.7962450450373311E+00
Ga    1.9139995947115790E-01   -7.7064895310955270E-02    8.4421541167406389E+00
N    1.8790021214482383E-01   -7.5083936852215344E-02    1.0418455472675626E+01
Ga    1.8801376501286990E-01    1.7632777836631575E+00    1.1070699181908928E+01
N    1.8588604278438034E-01    1.7452533055316948E+00    1.3064422095126419E+01
Ga    1.8657818216486508E-01   -7.4238192096383965E-02    1.3876925291439516E+01
N    1.8482681009645593E-01   -7.4351812346937579E-02    1.6068982169887292E+01
Ga    1.8434177352728498E-01    1.9763074943353836E+00    1.6498280011018178E+01
Ga    1.9872202285205026E-01    3.6042971162494366E+00    1.4793287217035447E+00
N   -1.3017981650016481E+00    4.5132646984513576E+00    2.5157751326159441E+00
Ga   -1.5118472056242802E+00    2.6440371865776475E+00    3.2855734681653228E+00
N   -1.4118305707906802E+00    2.7127560806752293E+00    5.2485695707208970E+00
Ga   -1.4492142882763550E+00    4.5804344145703748E+00    5.8043976167090285E+00
N   -1.4250704945614552E+00    4.5734452799943242E+00    7.7964072927029955E+00
Ga   -1.4068054780320052E+00    2.7131224362889319E+00    8.4353576764874809E+00
N   -1.4085350328202986E+00    2.7161995424732965E+00    1.0429649354829506E+01
Ga   -1.4344276246747363E+00    4.5740404084905402E+00    1.1069645225032669E+01
N   -1.4516624949796335E+00    4.5844116823034042E+00    1.3061126817023899E+01
Ga   -1.4105034723939991E+00    2.7167134553463166E+00    1.3623851728789745E+01
N   -1.4463322386708675E+00    2.7040834582970432E+00    1.5581829695779822E+01
Ga   -1.2419344763939750E+00    4.4642942005572595E+00    1.6500006560459845E+01
N    1.8411012392401563E-01    3.6293584217433184E+00    1.7645803453359513E+01
N   -3.0142618769505298E+00    7.4923250302952891E+00    2.4966070364330655E+00
Ga   -3.0308525640679784E+00    5.5319986143601323E+00    2.8410477192650405E+00
N   -3.0207389899666515E+00    5.4967092190979745E+00    5.0166367255971496E+00
Ga   -3.0295394925613799E+00    7.3233198164366122E+00    5.8027534083595542E+00
N   -3.0229522145134196E+00    7.3402856942709267E+00    7.7992440236593747E+00
Ga   -3.0252767869933228E+00    5.4961346905117168E+00    8.4467386200145622E+00
N   -3.0271562416733437E+00    5.4950286527460390E+00    1.0420238714343967E+01
Ga   -3.0290461855049950E+00    7.3363281433928762E+00    1.1068171158300860E+01
N   -3.0297471593335330E+00    7.3171020315418325E+00    1.3060876918045329E+01
Ga   -3.0199781622101267E+00    5.5007558806649044E+00    1.3860796701573751E+01
N   -3.0193777195207816E+00    5.5020186066187957E+00    1.6067707359726484E+01
Ga   -3.0298991721324895E+00    7.5581131096921466E+00    1.6495976119473809E+01
Ga   -3.0476838380171514E+00    9.1959132879479917E+00    1.3199177938956148E+00
N   -4.5033692503741767E+00    1.0063678073673259E+01    2.5005738390506180E+00
Ga   -4.7036120901453078E+00    8.2473020743002579E+00    3.2674738829944534E+00
N   -4.6288723438940798E+00    8.2787009864311063E+00    5.2509828360718167E+00
Ga   -4.6525312132738383E+00    1.0151086601027313E+01    5.7927766791071704E+00
N   -4.6425417571554908E+00    1.0142992214942966E+01    7.7974364908197993E+00
Ga   -4.6256097880626914E+00    8.2875183240568067E+00    8.4325150052146203E+00
N   -4.6251144580523320E+00    8.2869139109733450E+00    1.0429637093141846E+01
Ga   -4.6515522136392518E+00    1.0146113170378264E+01    1.1069329625936325E+01
N   -4.6701183555218417E+00    1.0155739022792947E+01    1.3064248806283885E+01
Ga   -4.6270106858316904E+00    8.2871205795310701E+00    1.3622058311640393E+01
N   -4.6561538895283778E+00    8.2636843629084886E+00    1.5581033505230719E+01
Ga   -4.4749972288442841E+00    1.0042178399215885E+01    1.6494164785831853E+01
N   -3.0410028739977850E+00    9.2141245182218778E+00    1.7639164374400210E+01
N    3.4122470740326194E+00    1.7684884937869167E+00    2.6195016327913767E+00
Ga    3.4110909352570262E+00   -2.1576926002355931E-03    3.2621150441708813E+00
N    3.4113372075751802E+00   -7.4312120622046757E-02    5.2502889444521736E+00
Ga    3.4091632770276004E+00    1.7723821404379336E+00    5.8715074745235043E+00
N    3.4070995034462812E+00    1.7823882380988147E+00    7.8496386662865882E+00
Ga    3.4050022755165221E+00   -8.6842716929072791E-02    8.4349833188031749E+00
N    3.4041307079299252E+00   -8.7319348053442145E-02    1.0431173515843120E+01
Ga    3.4039425404401360E+00    1.7809462265209572E+00    1.1025698854141918E+01
N    3.4040129581809291E+00    1.7829962511510928E+00    1.2999384421917579E+01
Ga    3.4019676188236638E+00   -8.8736808514550902E-02    1.3622321860657021E+01
N    3.4070963413139257E+00   -5.2682296273332395E-02    1.5581367556236218E+01
Ga    3.3984148986643348E+00    1.7807335576477807E+00    1.5862414244483345E+01
N    1.6936854376836143E+00    4.5121609473314974E+00    2.5198771046870374E+00
Ga    1.9064127894187677E+00    2.6392582588787832E+00    3.2887927142955373E+00
N    1.8007668319221641E+00    2.7126511072254647E+00    5.2516152667599192E+00
Ga    1.8346608400999354E+00    4.5777423528791292E+00    5.8092235760263637E+00
N    1.8072226040693726E+00    4.5731260084315162E+00    7.7999361340157352E+00
Ga    1.7892905529966185E+00    2.7127081533390132E+00    8.4375796297254304E+00
N    1.7853412468568552E+00    2.7159405250795121E+00    1.0431315924185558E+01
Ga    1.8106302057440933E+00    4.5740976152054911E+00    1.1069460235615812E+01
N    1.8239371196716505E+00    4.5846977068332064E+00    1.3060983460807694E+01
Ga    1.7820116856860064E+00    2.7169283193386367E+00    1.3623676285282842E+01
N    1.8152446639189563E+00    2.7043393854276450E+00    1.5581939266670728E+01
Ga    1.6100900718373967E+00    4.4637355878422849E+00    1.6500153491644209E+01
N    1.8868032907155760E-01    7.3627038014962229E+00    2.6937480997757879E+00
Ga    1.9354875700243196E-01    5.5292757874608656E+00    3.3308361163268332E+00
N    1.9481581686896884E-01    5.5106572218747889E+00    5.2567859503507233E+00
Ga    1.9274499818013568E-01    7.3597416010334999E+00    5.9037624923605385E+00
N    1.9277273068615194E-01    7.3521583233511292E+00    7.8617329188790723E+00
Ga    1.9092115014598951E-01    5.4817323713361352E+00    8.4451441788438206E+00
N    1.8821758831825922E-01    5.4824819643946272E+00    1.0433112035859976E+01
Ga    1.8853914897307317E-01    7.3526837564283838E+00    1.1027517271299677E+01
N    1.8622436600256120E-01    7.3519956998451033E+00    1.2996603392381148E+01
Ga    1.8595339714265768E-01    5.4832967454343509E+00    1.3623394730683454E+01
N    1.8485045807141870E-01    5.5153369503615819E+00    1.5580311215905184E+01
Ga    1.8411347514291496E-01    7.3516235822557334E+00    1.5859745827780147E+01
N   -1.5240023151107247E+00    1.0069281834744743E+01    2.5113798194813515E+00
Ga   -1.4221445662535028E+00    8.2972385968374578E+00    3.3192652580783850E+00
N   -1.4008974255060773E+00    8.2724929733161066E+00    5.2592777356691345E+00
Ga   -1.3913913787859613E+00    1.0160485979692622E+01    5.8026844857521889E+00
N   -1.4063120432222966E+00    1.0141685651342023E+01    7.8006231890639031E+00
Ga   -1.4298121580716530E+00    8.2884409281957350E+00    8.4430349251716041E+00
N   -1.4303505099516580E+00    8.2865569178699499E+00    1.0433075930037880E+01
Ga   -1.4064460795715443E+00    1.0146202841065749E+01    1.1067932430282273E+01
N   -1.3915760864537876E+00    1.0154409454053397E+01    1.3060610088813521E+01
Ga   -1.4324647494294436E+00    8.2864386885417058E+00    1.3621899827978078E+01
N   -1.4062533795669292E+00    8.2709041255762994E+00    1.5579671505915313E+01
Ga   -1.6020184799851165E+00    1.0032395226895549E+01    1.6495919345236356E+01
N    6.6279401494923214E+00    1.9046687504495958E+00    2.5295883508189938E+00
Ga    6.6024763616087769E+00   -9.4768367824115601E-02    2.8464684060390466E+00
N    6.6267509036460517E+00   -7.4036613338245419E-02    5.0286755582132150E+00
Ga    6.6264969033376540E+00    1.7510495276315052E+00    5.8036818344265200E+00
N    6.6242343746935077E+00    1.7709661761054800E+00    7.8015164415244467E+00
Ga    6.6239629176789769E+00   -7.5853965133904827E-02    8.4450366464048443E+00
N    6.6213804827984966E+00   -7.5651689472637729E-02    1.0419929871289469E+01
Ga    6.6210086124969223E+00    1.7639097939181760E+00    1.1066724534846966E+01
N    6.6183684467863628E+00    1.7432828501816546E+00    1.3067115043853986E+01
Ga    6.6177448413398725E+00   -8.6219073061999732E-02    1.3858452851211942E+01
N    6.6165292755444893E+00   -8.8315000136792318E-02    1.6067725990896001E+01
Ga    6.6163007616943288E+00    1.9121668825570284E+00    1.6430822218561577E+01
Ga    6.6274093868255308E+00    3.6397829332787706E+00    1.5272062788900382E+00
N    5.1273867907018174E+00    4.5024910434472716E+00    2.5368777416914621E+00
Ga    4.9159993281267740E+00    2.6406492095750194E+00    3.2968672668267254E+00
N    5.0172426761042130E+00    2.7083327756081998E+00    5.2584993952334962E+00
Ga    4.9954409349464672E+00    4.5785310152497205E+00    5.8045656914841759E+00
N    5.0054976372093032E+00    4.5722055639604626E+00    7.8013371989144611E+00
Ga    5.0238882065269950E+00    2.7147652821718604E+00    8.4377327161178552E+00
N    5.0238725364426831E+00    2.7165953873204245E+00    1.0433836106184286E+01
Ga    4.9975748458050431E+00    4.5761607196486542E+00    1.1066896826415210E+01
N    4.9769030040296105E+00    4.5861914581584609E+00    1.3067371476215166E+01
Ga    5.0204692135731142E+00    2.7159414653110794E+00    1.3612271976408952E+01
N    5.0027211818877158E+00    2.7062169799205376E+00    1.5590366707065833E+01
Ga    5.1205598588425012E+00    4.5014927235842030E+00    1.6431092918723767E+01
N    6.6177798848511511E+00    3.6400524059025550E+00    1.7552864842614518E+01
N    3.4043372622197916E+00    7.4681699322110857E+00    2.5093144290809200E+00
N    3.4097209975312301E+00    5.4925081061277519E+00    5.0258868490770574E+00
Ga    3.4163214448424828E+00    7.3221601876871656E+00    5.8009569748400036E+00
N    3.4057812499230691E+00    7.3416948514506961E+00    7.7960048418287791E+00
Ga    3.4080132017595912E+00    5.4963129380131317E+00    8.4462516586586656E+00
N    3.4040286421494685E+00    5.4958092347330210E+00    1.0419983474618027E+01
Ga    3.4060822436823832E+00    7.3365830525390177E+00    1.1068587914125096E+01
N    3.4018545382330911E+00    7.3172425521949638E+00    1.3061295656903701E+01
Ga    3.3919392812167355E+00    5.5002052273137956E+00    1.3859729778363315E+01
N    3.3888116297815754E+00    5.5015543897818402E+00    1.6068263027963496E+01
Ga    3.3983580202802615E+00    7.5547013633750195E+00    1.6492115469649878E+01
Ga    3.4463585883100940E+00    9.2275894624496519E+00    1.3535771988889957E+00
N    1.9030328271560031E+00    1.0075107269269166E+01    2.5056386350661399E+00
Ga    1.7978788677108835E+00    8.2837129305491430E+00    3.3083976573686300E+00
N    1.7902346234382582E+00    8.2736470180517916E+00    5.2468430565762141E+00
Ga    1.7763627754702782E+00    1.0160660539970428E+01    5.7997859212212477E+00
N    1.7910652440372916E+00    1.0141051635691941E+01    7.7959446085743167E+00
Ga    1.8127423325269743E+00    8.2883846262458043E+00    8.4437330286530088E+00
N    1.8082665542276004E+00    8.2871882953162697E+00    1.0432956286062341E+01
Ga    1.7834071573153321E+00    1.0146671494769013E+01    1.1068377035251501E+01
N    1.7640857152242126E+00    1.0154292438582781E+01    1.3061044529247599E+01
Ga    1.8039946995188956E+00    8.2862221970159720E+00    1.3621487480171700E+01
N    1.7757962929294189E+00    8.2707985863108799E+00    1.5579997378136063E+01
Ga    1.9668983933564825E+00    1.0034060563880796E+01    1.6491803516462888E+01
N    3.4102148416572624E+00    9.2147565192138448E+00    1.7631557805756430E+01
N    9.8445104002006296E+00    1.7781641368781360E+00    2.6107265565923439E+00
Ga    9.8466423967180319E+00    1.9430637189456017E-02    3.2600257566010282E+00
N    9.8416300012753251E+00   -7.7058594487998427E-02    5.2387966266138335E+00
Ga    9.8438780120474707E+00    1.7752816424392230E+00    5.8681372462522789E+00
N    9.8404609112305987E+00    1.7810108455772662E+00    7.8449995294487680E+00
Ga    9.8427178935455331E+00   -8.7098345354234330E-02    8.4337569700389174E+00
N    9.8377221323441955E+00   -8.7386976305575334E-02    1.0429370479206602E+01
Ga    9.8376891848129606E+00    1.7811243052497565E+00    1.1024982899099577E+01
N    9.8323150228115086E+00    1.7826224474133519E+00    1.2998916011447610E+01
Ga    9.8344120388536584E+00   -8.8684906657736567E-02    1.3622328643405037E+01
N    9.8259013857906723E+00   -5.3023364763742385E-02    1.5582494662483692E+01
Ga    9.8349954894544211E+00    1.7811698365911202E+00    1.5863359477179067E+01
N    8.1297184236772129E+00    4.5051619023727572E+00    2.5336027906943266E+00
Ga    8.3388882739747423E+00    2.6455945084533710E+00    3.2942638463726475E+00
N    8.2363422919348217E+00    2.7089107257145382E+00    5.2554257862388623E+00
Ga    8.2594521330896722E+00    4.5815370664313244E+00    5.7995496408138401E+00
N    8.2429483250712963E+00    4.5726195647763888E+00    7.7978419779816051E+00
Ga    8.2234340795147158E+00    2.7153827788698615E+00    8.4355844158903004E+00
N    8.2185218700061924E+00    2.7165432288061084E+00    1.0432099002871441E+01
Ga    8.2436889687647916E+00    4.5757761708156455E+00    1.1067252799648138E+01
N    8.2598199954657971E+00    4.5861654448775431E+00    1.3067791907186646E+01
Ga    8.2156207722218326E+00    2.7160633819451716E+00    1.3612566899070057E+01
N    8.2304917250442955E+00    2.7057374594957815E+00    1.5591070473775869E+01
Ga    8.1140444898860675E+00    4.5025992276624400E+00    1.6431052803493529E+01
N    6.6336289741095307E+00    7.3591768547953356E+00    2.6289938685234038E+00
Ga    6.6296731808292728E+00    5.6215707311007037E+00    3.2979245520007368E+00
N    6.6257352806782066E+00    5.4953204391648498E+00    5.2589346316261540E+00
Ga    6.6275718376306898E+00    7.3597144346624512E+00    5.8638560064223348E+00
N    6.6224137968057022E+00    7.3522121001126832E+00    7.8450153022059483E+00
Ga    6.6239508965624179E+00    5.4865254727452246E+00    8.4340692781190185E+00
N    6.6210929334647952E+00    5.4826136267328476E+00    1.0431558312040652E+01
Ga    6.6207675338401071E+00    7.3533033926836344E+00    1.1023749297691241E+01
N    6.6177944953009131E+00    7.3495717689348039E+00    1.2998375736500265E+01
Ga    6.6181773698873174E+00    5.4830672941234031E+00    1.3612441552905517E+01
N    6.6162713320265469E+00    5.5020488462814860E+00    1.5591233928135969E+01
Ga    6.6172370707837729E+00    7.3537281081077559E+00    1.5863763140284656E+01
N    4.9188214989487662E+00    1.0078120251971097E+01    2.5109755252130679E+00
Ga    5.1086497339803403E+00    8.2352943887690397E+00    3.2631643579358962E+00
N    5.0140867554861952E+00    8.2799975168487805E+00    5.2418308239990550E+00
Ga    5.0457939326035222E+00    1.0152554263148595E+01    5.7879619325028928E+00
N    5.0251548369318479E+00    1.0143075508760862E+01    7.7917323495886723E+00
Ga    5.0076682220716222E+00    8.2881676392080195E+00    8.4323681641339423E+00
N    5.0020601876419040E+00    8.2874024030915034E+00    1.0428837433059996E+01
Ga    5.0280594585816072E+00    1.0146135781249546E+01    1.1070094503713014E+01
N    5.0422594754244887E+00    1.0155820670284767E+01    1.3065140613403729E+01
Ga    4.9985812739023494E+00    8.2872561189319622E+00    1.3622210133381211E+01
N    5.0245383935757646E+00    8.2632634950869104E+00    1.5582540115265386E+01
Ga    4.8476136922057833E+00    1.0044391077757316E+01    1.6490412757599007E+01
Ga    3.4219505543667101E+00    5.5032110470688522E+00    2.8647609202881315E+00
O   -2.8309693947799150E+00    9.2176718443491605E+00   -4.8028755182757504E-01
H    1.7662005665125316E-01    7.3639842542879883E+00    1.6669528812076690E+00
C   -2.6303784795353082E+00    1.0516097463734333E+01   -1.0665495796395297E+00
H   -2.1936852248291854E+00    1.1248088353066587E+01   -3.6604323145492695E-01
H   -1.9392564711045606E+00    1.0405464318111884E+01   -1.9157515344834424E+00
H   -3.5804557444949041E+00    1.0927279832846185E+01   -1.4419520359585514E+00
     &END COORD
     &KIND C
       BASIS_SET DZVP-MOLOPT-SR-GTH-q4
       POTENTIAL GTH-PBE-q4
       &POTENTIAL
 2 2
  0.3384712400000000E+00 2 -0.8803673979999999E+01  0.1339210850000000E+01
 2
  0.3025757500000000E+00 1  0.9622486650000001E+01
  0.2915069400000000E+00 0
         # Potential name:  GTH-PBE-Q4  for symbol:  C
         # Potential read from the potential filename: GTH_POTENTIALS
       &END POTENTIAL
     &END KIND
     &KIND O
       BASIS_SET DZVP-MOLOPT-SR-GTH-q6
       POTENTIAL GTH-PBE-q6
       &POTENTIAL
 2 4
  0.2445543000000000E+00 2 -0.1666721480000000E+02  0.2487311320000000E+01
 2
  0.2209559200000000E+00 1  0.1833745811000000E+02
  0.2113324700000000E+00 0
         # Potential name:  GTH-PBE-Q6  for symbol:  O
         # Potential read from the potential filename: GTH_POTENTIALS
       &END POTENTIAL
     &END KIND
     &KIND H
       BASIS_SET DZVP-MOLOPT-SR-GTH-q1
       POTENTIAL GTH-PBE-q1
       &POTENTIAL
 1
  0.2000000000000000E+00 2 -0.4178900440000000E+01  0.7244633100000000E+00
 0
         # Potential name:  GTH-PBE-Q1  for symbol:  H
         # Potential read from the potential filename: GTH_POTENTIALS
       &END POTENTIAL
     &END KIND
     &KIND N
       BASIS_SET DZVP-MOLOPT-SR-GTH
       POTENTIAL GTH-PBE-q5
       &POTENTIAL
 2 3
  0.2837905100000000E+00 2 -0.1241522559000000E+02  0.1868095920000000E+01
 2
  0.2554050000000000E+00 1  0.1363026257000000E+02
  0.2454945300000000E+00 0
         # Potential name:  GTH-PBE-Q5  for symbol:  N
         # Potential read from the potential filename: GTH_POTENTIALS
       &END POTENTIAL
     &END KIND
     &KIND Ga
       BASIS_SET DZVP-MOLOPT-SR-GTH
       POTENTIAL GTH-PBE-q13
       &POTENTIAL
 2 1 10
  0.4900000000000000E+00 0
 3
  0.4167772300000000E+00 3  0.1047568975000000E+02 -0.4921768140000000E+01  0.8707055900000000E+00
  0.7770178090000000E+01 -0.2248152160000000E+01
  0.1784415450000000E+01
  0.5696265200000000E+00 2  0.1777985340000000E+01  0.1958597600000000E+00
 -0.2317443900000000E+00
  0.2381265000000000E+00 1 -0.1624868022000000E+02
         # Potential name:  GTH-PBE-Q13  for symbol:  GA
         # Potential read from the potential filename: GTH_POTENTIALS
       &END POTENTIAL
     &END KIND
     &TOPOLOGY
       NUMBER_OF_ATOMS  206
       MULTIPLE_UNIT_CELL  1 1 1
     &END TOPOLOGY
   &END SUBSYS
 &END FORCE_EVAL
