 # Version information for this restart file 
 # current date 2019-05-23 14:53:46.364
 # current working dir /lustre03/project/6004141/rzk/GaN-carbene/03-Carbene/01-GaC
 # Program compiled at                              Sun Apr  7 00:48:11 EDT 2019
 # Program compiled on                          beluga2.int.ets1.calculquebec.ca
 # Program compiled for                        Beluga-Linux-x86-64-intel-openmpi
 # Source code revision number                                         svn:18619
 &GLOBAL
   PRINT_LEVEL  MEDIUM
   PROJECT_NAME TEST
   RUN_TYPE  GEO_OPT
 &END GLOBAL
 &MOTION
   &GEO_OPT
     MAX_ITER  500
     STEP_START_VAL  45
   &END GEO_OPT
 &END MOTION
 &FORCE_EVAL
   METHOD  QS
   STRESS_TENSOR  ANALYTICAL
   &DFT
     BASIS_SET_FILE_NAME BASIS_MOLOPT
     POTENTIAL_FILE_NAME GTH_POTENTIALS
     &SCF
       MAX_SCF  100
       EPS_SCF     5.0000000000000004E-06
       &OT  T
         PRECONDITIONER  FULL_ALL
       &END OT
       &OUTER_SCF  T
         OPTIMIZER  NONE
         EPS_SCF     5.0000000000000004E-06
         MAX_SCF  10
       &END OUTER_SCF
       &PRINT
         &RESTART  OFF
           BACKUP_COPIES  1
           &EACH
             JUST_ENERGY  0
             QS_SCF  0
             MD  20
           &END EACH
         &END RESTART
       &END PRINT
     &END SCF
     &QS
       EPS_DEFAULT     1.0000000000000000E-14
       ALMO_SCF  F
       METHOD  GPW
     &END QS
     &MGRID
       NGRIDS  5
       CUTOFF     1.2000000000000000E+03
     &END MGRID
     &XC
       DENSITY_CUTOFF     1.0000000000000000E-10
       GRADIENT_CUTOFF     1.0000000000000000E-10
       TAU_CUTOFF     1.0000000000000000E-10
       &XC_FUNCTIONAL  NO_SHORTCUT
         &PBE  T
         &END PBE
       &END XC_FUNCTIONAL
       &VDW_POTENTIAL
         POTENTIAL_TYPE  PAIR_POTENTIAL
         &PAIR_POTENTIAL
           R_CUTOFF     1.0000000000000005E+01
           TYPE  DFTD3
           PARAMETER_FILE_NAME dftd3.dat
           REFERENCE_FUNCTIONAL PBE
           EPS_CN     9.9999999999999995E-07
           CALCULATE_C9_TERM  T
           REFERENCE_C9_TERM  T
           LONG_RANGE_CORRECTION  F
           VERBOSE_OUTPUT  F
         &END PAIR_POTENTIAL
       &END VDW_POTENTIAL
     &END XC
   &END DFT
   &SUBSYS
     &CELL
       A     9.7367653356401487E+00    0.0000000000000000E+00    0.0000000000000000E+00
       B    -4.8591341382960209E+00    8.4162672083210595E+00    0.0000000000000000E+00
       C     0.0000000000000000E+00    0.0000000000000000E+00    3.0744000000000000E+01
       MULTIPLE_UNIT_CELL  1 1 1
       &CELL_REF
         A     9.5580000000000052E+00    0.0000000000000000E+00    0.0000000000000000E+00
         B    -4.7790000000000026E+00    8.2774708093716640E+00    0.0000000000000000E+00
         C     0.0000000000000000E+00    0.0000000000000000E+00    3.0744000000000000E+01
         MULTIPLE_UNIT_CELL  1 1 1
       &END CELL_REF
     &END CELL
     &COORD
Ga    2.3608252236812861E-02   -1.4680510067311725E-02   -5.7610106917865722E-01
N    2.6397925635433341E-02    1.8588951859707348E+00    5.6143706419117834E-01
Ga    2.6004617036019795E-02    1.8282424635446699E+00    2.5932166067008451E+00
N    2.3024970323230916E-02   -1.5719620248384445E-02    3.2243519073242299E+00
Ga    2.3972945335603658E-02   -1.4843400176240935E-02    5.2150919527751034E+00
N    2.6878138835980555E-02    1.8597117948247297E+00    5.8030808570797117E+00
Ga    2.6599780045484946E-02    1.8576450315554252E+00    7.8020945393492065E+00
N    2.4794358871744367E-02   -1.5701995939309040E-02    8.4046322639120561E+00
Ga    2.6414178557022515E-02   -1.4927865389501698E-02    1.0401997956116217E+01
N    2.5212012498191168E-02    1.8563333454270123E+00    1.1007517892000564E+01
Ga    1.6883035939739829E-02    1.8544103072033646E+00    1.3000925560568538E+01
N    2.5590484800182788E-02   -1.2229930922135772E-02    1.3622994529063494E+01
Ga    1.6570830164681020E-02   -1.3974297714833795E-02    1.5633655046608489E+01
N    1.3654671510381135E-02    1.8606550116821012E+00    1.6233021241886419E+01
Ga    1.6739824656454756E-02    1.8974981426659567E+00    1.8333517665004106E+01
N    2.0482815705389890E-02    1.1591937342409655E-02    1.8665440522771654E+01
Ga   -1.5962660755037901E+00    2.7905200370215550E+00    2.7785706133625060E-01
N   -1.5974003387307736E+00    4.6600094406360260E+00    5.6211769537266632E-01
Ga   -1.5689767717645151E+00    4.6756764298494558E+00    2.5922396374275398E+00
N   -1.5965088298324535E+00    2.7899604475063664E+00    3.1838737278902283E+00
Ga   -1.5956443624664636E+00    2.7909350525418350E+00    5.1948896242559117E+00
N   -1.5954540349117343E+00    4.6607177052283246E+00    5.8034582354061586E+00
Ga   -1.5948825335950769E+00    4.6606581465478660E+00    7.8025190191224549E+00
N   -1.5963517063218087E+00    2.7895296516847186E+00    8.4066732424084520E+00
Ga   -1.5973021007773207E+00    2.7897566450318849E+00    1.0402640942313285E+01
N   -1.5913188178977962E+00    4.6614090691204684E+00    1.1004850978580746E+01
Ga   -1.5948759791882678E+00    4.6588877830895967E+00    1.2998647061963046E+01
N   -1.5989854447263807E+00    2.7916505220714871E+00    1.3616666887533395E+01
Ga   -1.6048909096057657E+00    2.7911120329594197E+00    1.5623863932119839E+01
N   -1.5687249294558148E+00    4.6727160493939603E+00    1.6197187465055560E+01
Ga   -1.6924259365090726E+00    4.6089291015317437E+00    1.8193029051868930E+01
N   -1.5985157608656586E+00    2.8078586086378303E+00    1.8749364935214881E+01
Ga   -3.2162522700603140E+00    5.5952543543067028E+00    2.7778186066819527E-01
N   -3.2104241504435929E+00    7.4661605542730953E+00    5.6104998659456984E-01
Ga   -3.2374900801128739E+00    7.4807675904295472E+00    2.5928943461403584E+00
N   -3.2161441579671290E+00    5.5953028886292220E+00    3.1838100920890620E+00
Ga   -3.2151125574546695E+00    5.5958520624004615E+00    5.1947655496163643E+00
N   -3.2098413733336217E+00    7.4661755482167029E+00    5.8024296551923848E+00
Ga   -3.2108046785009168E+00    7.4661729341978695E+00    7.8010817425733130E+00
N   -3.2149846088436518E+00    5.5965848849425397E+00    8.4084106695173091E+00
Ga   -3.2130125743273630E+00    5.5986746740799669E+00    1.0405131472064815E+01
N   -3.2110777925084455E+00    7.4701511701245229E+00    1.1015273955523622E+01
Ga   -3.2093023824746862E+00    7.4736206589140108E+00    1.3014579502582357E+01
N   -3.2057018116947278E+00    5.6008073488250849E+00    1.3614253107387707E+01
Ga   -3.2021499575262817E+00    5.6098703084900228E+00    1.5618340103706934E+01
N   -3.2285828287447371E+00    7.4835378132981560E+00    1.6211407665811262E+01
Ga   -3.2261938884072254E+00    7.4978310368442136E+00    1.8291576126205101E+01
N   -3.2281418314646837E+00    5.6163479837595007E+00    1.8606934821517243E+01
Ga    3.2698579329995723E+00   -1.5578628752284092E-02    2.7760563969000396E-01
N    3.2671961709354931E+00    1.8541770014686429E+00    5.6132757862462279E-01
Ga    3.2957849005604865E+00    1.8700247298242321E+00    2.5916326419199791E+00
N    3.2689331528530872E+00   -1.5564350885396393E-02    3.1834705731006872E+00
Ga    3.2700110933752149E+00   -1.4872762968373022E-02    5.1943837669595441E+00
N    3.2700800619491281E+00    1.8552786074413941E+00    5.8032378715944741E+00
Ga    3.2715174316453033E+00    1.8553065768217301E+00    7.8023570125426485E+00
N    3.2693190628829338E+00   -1.5364583136525438E-02    8.4072346417544956E+00
Ga    3.2698981434501109E+00   -1.4206318856980012E-02    1.0403267901533233E+01
N    3.2730534455793614E+00    1.8552429073818926E+00    1.1012812958982822E+01
Ga    3.2764902884134450E+00    1.8519719686069662E+00    1.3011507260996650E+01
N    3.2772544692475907E+00   -1.6804870432876796E-02    1.3632129240831732E+01
Ga    3.2774531952569670E+00   -2.0839528676817803E-02    1.5642739509554563E+01
N    3.2492115114806719E+00    1.8648275004662762E+00    1.6191637340350365E+01
Ga    3.2520044205965202E+00    1.8611161424290590E+00    1.8272098568582585E+01
N    3.2737079093286408E+00   -4.7449106749835723E-03    1.8617780589268296E+01
Ga    1.6489180247096185E+00    2.7910291415595698E+00    2.7770097043450348E-01
N    1.6552825041851371E+00    4.6606010566416343E+00    5.6202395741833844E-01
Ga    1.6271563825437874E+00    4.6757885343234893E+00    2.5921487711238176E+00
N    1.6491202345984495E+00    2.7900248355785355E+00    3.1839708324882463E+00
Ga    1.6500033193167225E+00    2.7909976942000227E+00    5.1950624904931493E+00
N    1.6556985016828678E+00    4.6606326929265620E+00    5.8044321594938175E+00
Ga    1.6551937462370938E+00    4.6603111709764038E+00    7.8039313962834429E+00
N    1.6500742078047657E+00    2.7887851959084111E+00    8.4077868549875312E+00
Ga    1.6510470441648057E+00    2.7878189659673596E+00    1.0403800872515538E+01
N    1.6539399608697942E+00    4.6611988247169904E+00    1.1000424283430261E+01
Ga    1.6539063307881918E+00    4.6587589155872466E+00    1.2990093020815202E+01
N    1.6432966572886847E+00    2.7859293505770282E+00    1.3597262949659848E+01
Ga    1.6312357107028788E+00    2.7712311500884841E+00    1.5586656888892554E+01
N    1.6414889086291149E+00    4.6676733440188514E+00    1.6143806819519696E+01
Ga    1.9192218348636372E+00    4.5139851432032820E+00    1.8068564415487824E+01
N    1.6534777093202213E+00    2.8026634256368452E+00    1.8747020087873253E+01
Ga    2.9367129489307496E-02    5.5959621358843723E+00   -5.9215224137238365E-01
N    3.2512378026828125E-02    7.4700853860007230E+00    5.6205930252893388E-01
Ga    3.2225429625976139E-02    7.4379842386550665E+00    2.5921628089662101E+00
N    2.9435265874125274E-02    5.5950685074623596E+00    3.2256263483967302E+00
Ga    3.0495792271705225E-02    5.5958219259401965E+00    5.2161877244973924E+00
N    3.3073176447470563E-02    7.4706397621279583E+00    5.8031529464209237E+00
Ga    3.2992095004691357E-02    7.4691140578240072E+00    7.8021496740724192E+00
N    3.0280657753088035E-02    5.5955353508250596E+00    8.4028578391199318E+00
Ga    3.0677761779926139E-02    5.5965398660848038E+00    1.0399597801883248E+01
N    3.3651453774590910E-02    7.4684553015296569E+00    1.1004735151085979E+01
Ga    3.2974527367939738E-02    7.4730978493341720E+00    1.2998400894924188E+01
N    3.2619112547200367E-02    5.5969346838352401E+00    1.3588484574588636E+01
Ga    2.5323422788780275E-02    5.5993383663035239E+00    1.5567355822885135E+01
N    3.6544740247286531E-02    7.4433969629074479E+00    1.6224015544656595E+01
Ga    5.7227917497610942E-02    7.5786365973653087E+00    1.8228484792422158E+01
N   -1.7396934567922334E-01    5.7088575777104316E+00    1.9011077125173117E+01
Ga    6.5132794363355506E+00   -1.4973496299883675E-02    2.7764785338546016E-01
N    6.5213085588872399E+00    1.8547915946221849E+00    5.6170372081548259E-01
Ga    6.4928113278853292E+00    1.8701152445546394E+00    2.5919788725299910E+00
N    6.5144164517056193E+00   -1.5655583253976767E-02    3.1836984788272331E+00
Ga    6.5151626067680866E+00   -1.5064947705159567E-02    5.1947172456976096E+00
N    6.5203908316768793E+00    1.8552679840650310E+00    5.8029041755231834E+00
Ga    6.5186261343130329E+00    1.8552836022091690E+00    7.8019368726675209E+00
N    6.5155256137880437E+00   -1.5318556847123150E-02    8.4069736800950015E+00
Ga    6.5164894664155533E+00   -1.3543093960383397E-02    1.0403084321932168E+01
N    6.5193712108417268E+00    1.8553771591174666E+00    1.1013127518159521E+01
Ga    6.5157492974464608E+00    1.8541841540815815E+00    1.3013746929488711E+01
N    6.5126614034497843E+00   -2.0007102712368479E-02    1.3617918985854804E+01
Ga    6.5147046237557431E+00   -2.6006314595215130E-02    1.5623903784916306E+01
N    6.5120951429194900E+00    1.8453875122140888E+00    1.6204924478799583E+01
Ga    6.5420592866834184E+00    1.8640042006678164E+00    1.8294605988713702E+01
N    6.5388120790157789E+00   -1.7463140255325582E-03    1.8705788567785589E+01
Ga    4.8952001382497299E+00    2.7907121295263440E+00   -5.8949382060410405E-01
N    4.8978449072706853E+00    4.6654823340560965E+00    5.6185353206999256E-01
Ga    4.8974597839589169E+00    4.6332417854648487E+00    2.5920703889113859E+00
N    4.8945163452173173E+00    2.7897572733161948E+00    3.2244481480134328E+00
Ga    4.8954640249701464E+00    2.7907579963866791E+00    5.2147351814829426E+00
N    4.8985751194283615E+00    4.6650188926353655E+00    5.8042103501992974E+00
Ga    4.8990079164751856E+00    4.6627929697975867E+00    7.8039304971708301E+00
N    4.8954864262803444E+00    2.7895601387220306E+00    8.4074170388960745E+00
Ga    4.8972175003698792E+00    2.7894747071780239E+00    1.0407024125768402E+01
N    4.9034140539622717E+00    4.6621106653912872E+00    1.1009850138199271E+01
Ga    4.9091479137905223E+00    4.6566383740653237E+00    1.3007084447370636E+01
N    4.8954105517433542E+00    2.7879908236596620E+00    1.3612222395797717E+01
Ga    4.8927949534582957E+00    2.7893066730581739E+00    1.5624990425495334E+01
N    4.8969276901123369E+00    4.6790486806530245E+00    1.6154070311456440E+01
Ga    4.8921657397525538E+00    4.7011814005961678E+00    1.8219242621266119E+01
N    4.8973117098446570E+00    2.8113640395671733E+00    1.8530914206707049E+01
Ga    3.2750996317292929E+00    5.5947010158492354E+00    2.7760807872964521E-01
N    3.2743714206645644E+00    7.4655599726507820E+00    5.6079731815672562E-01
Ga    3.3016611126269320E+00    7.4805562578421654E+00    2.5926743583086691E+00
N    3.2749677679343825E+00    5.5952615118593663E+00    3.1840891089556509E+00
Ga    3.2758176347924008E+00    5.5958068656614435E+00    5.1952093154521961E+00
N    3.2761399169488050E+00    7.4660207322741385E+00    5.8034702149117150E+00
Ga    3.2773838807969424E+00    7.4658912240428155E+00    7.8025791121910544E+00
N    3.2770388275378401E+00    5.5956127002445042E+00    8.4093529804156866E+00
Ga    3.2800785690108216E+00    5.5966629853891963E+00    1.0406240136822916E+01
N    3.2805816870297964E+00    7.4702317202512205E+00    1.1008497583423061E+01
Ga    3.2797502649945418E+00    7.4757222531433243E+00    1.3003409365847311E+01
N    3.2795166953384229E+00    5.5951796824708380E+00    1.3583531233324267E+01
Ga    3.2812885936599341E+00    5.6170946158767912E+00    1.5566750471540001E+01
N    3.2796620292105128E+00    7.4595563706403762E+00    1.6200317729893911E+01
Ga    3.2815926295010525E+00    7.4856306237561796E+00    1.8272802818617951E+01
N    3.2730217373160655E+00    5.6105570753182104E+00    1.8706731762113606E+01
C    1.8227299356047166E-01    5.4640914222202728E+00    2.0222884995551407E+01
H    8.3954186484771620E-01    6.1530187185552387E+00    2.0773098066513636E+01
H   -1.3639890942458194E-01    4.5423369884778726E+00    2.0731662692255746E+01
     &END COORD
     &KIND C
       BASIS_SET DZVP-MOLOPT-SR-GTH-q4
       POTENTIAL GTH-PBE-q4
       &POTENTIAL
 2 2
  0.3384712400000000E+00 2 -0.8803673979999999E+01  0.1339210850000000E+01
 2
  0.3025757500000000E+00 1  0.9622486650000001E+01
  0.2915069400000000E+00 0
         # Potential name:  GTH-PBE-Q4  for symbol:  C
         # Potential read from the potential filename: GTH_POTENTIALS
       &END POTENTIAL
     &END KIND
     &KIND H
       BASIS_SET DZVP-MOLOPT-SR-GTH-q1
       POTENTIAL GTH-PBE-q1
       &POTENTIAL
 1
  0.2000000000000000E+00 2 -0.4178900440000000E+01  0.7244633100000000E+00
 0
         # Potential name:  GTH-PBE-Q1  for symbol:  H
         # Potential read from the potential filename: GTH_POTENTIALS
       &END POTENTIAL
     &END KIND
     &KIND N
       BASIS_SET DZVP-MOLOPT-SR-GTH-q5
       POTENTIAL GTH-PBE-q5
       &POTENTIAL
 2 3
  0.2837905100000000E+00 2 -0.1241522559000000E+02  0.1868095920000000E+01
 2
  0.2554050000000000E+00 1  0.1363026257000000E+02
  0.2454945300000000E+00 0
         # Potential name:  GTH-PBE-Q5  for symbol:  N
         # Potential read from the potential filename: GTH_POTENTIALS
       &END POTENTIAL
     &END KIND
     &KIND Ga
       BASIS_SET DZVP-MOLOPT-SR-GTH-q13
       POTENTIAL GTH-PBE-q13
       &POTENTIAL
 2 1 10
  0.4900000000000000E+00 0
 3
  0.4167772300000000E+00 3  0.1047568975000000E+02 -0.4921768140000000E+01  0.8707055900000000E+00
  0.7770178090000000E+01 -0.2248152160000000E+01
  0.1784415450000000E+01
  0.5696265200000000E+00 2  0.1777985340000000E+01  0.1958597600000000E+00
 -0.2317443900000000E+00
  0.2381265000000000E+00 1 -0.1624868022000000E+02
         # Potential name:  GTH-PBE-Q13  for symbol:  GA
         # Potential read from the potential filename: GTH_POTENTIALS
       &END POTENTIAL
     &END KIND
     &TOPOLOGY
       NUMBER_OF_ATOMS  147
       MULTIPLE_UNIT_CELL  1 1 1
     &END TOPOLOGY
   &END SUBSYS
 &END FORCE_EVAL
