 # Version information for this restart file 
 # current date 2019-05-23 14:52:57.285
 # current working dir /lustre03/project/6004141/rzk/GaN-carbene/03-Carbene/01-GaC
 # Program compiled at                              Sun Apr  7 00:48:11 EDT 2019
 # Program compiled on                          beluga2.int.ets1.calculquebec.ca
 # Program compiled for                        Beluga-Linux-x86-64-intel-openmpi
 # Source code revision number                                         svn:18619
 &GLOBAL
   PRINT_LEVEL  MEDIUM
   PROJECT_NAME TEST
   RUN_TYPE  GEO_OPT
 &END GLOBAL
 &MOTION
   &GEO_OPT
     MAX_ITER  500
     STEP_START_VAL  44
   &END GEO_OPT
 &END MOTION
 &FORCE_EVAL
   METHOD  QS
   STRESS_TENSOR  ANALYTICAL
   &DFT
     BASIS_SET_FILE_NAME BASIS_MOLOPT
     POTENTIAL_FILE_NAME GTH_POTENTIALS
     &SCF
       MAX_SCF  100
       EPS_SCF     5.0000000000000004E-06
       &OT  T
         PRECONDITIONER  FULL_ALL
       &END OT
       &OUTER_SCF  T
         OPTIMIZER  NONE
         EPS_SCF     5.0000000000000004E-06
         MAX_SCF  10
       &END OUTER_SCF
       &PRINT
         &RESTART  OFF
           BACKUP_COPIES  1
           &EACH
             JUST_ENERGY  0
             QS_SCF  0
             MD  20
           &END EACH
         &END RESTART
       &END PRINT
     &END SCF
     &QS
       EPS_DEFAULT     1.0000000000000000E-14
       ALMO_SCF  F
       METHOD  GPW
     &END QS
     &MGRID
       NGRIDS  5
       CUTOFF     1.2000000000000000E+03
     &END MGRID
     &XC
       DENSITY_CUTOFF     1.0000000000000000E-10
       GRADIENT_CUTOFF     1.0000000000000000E-10
       TAU_CUTOFF     1.0000000000000000E-10
       &XC_FUNCTIONAL  NO_SHORTCUT
         &PBE  T
         &END PBE
       &END XC_FUNCTIONAL
       &VDW_POTENTIAL
         POTENTIAL_TYPE  PAIR_POTENTIAL
         &PAIR_POTENTIAL
           R_CUTOFF     1.0000000000000005E+01
           TYPE  DFTD3
           PARAMETER_FILE_NAME dftd3.dat
           REFERENCE_FUNCTIONAL PBE
           EPS_CN     9.9999999999999995E-07
           CALCULATE_C9_TERM  T
           REFERENCE_C9_TERM  T
           LONG_RANGE_CORRECTION  F
           VERBOSE_OUTPUT  F
         &END PAIR_POTENTIAL
       &END VDW_POTENTIAL
     &END XC
   &END DFT
   &SUBSYS
     &CELL
       A     9.7367653356401487E+00    0.0000000000000000E+00    0.0000000000000000E+00
       B    -4.8591341382960209E+00    8.4162672083210595E+00    0.0000000000000000E+00
       C     0.0000000000000000E+00    0.0000000000000000E+00    3.0744000000000000E+01
       MULTIPLE_UNIT_CELL  1 1 1
       &CELL_REF
         A     9.5580000000000052E+00    0.0000000000000000E+00    0.0000000000000000E+00
         B    -4.7790000000000026E+00    8.2774708093716640E+00    0.0000000000000000E+00
         C     0.0000000000000000E+00    0.0000000000000000E+00    3.0744000000000000E+01
         MULTIPLE_UNIT_CELL  1 1 1
       &END CELL_REF
     &END CELL
     &COORD
Ga    2.4227201330892595E-02   -1.5007882312896943E-02   -5.7644931796893517E-01
N    2.6997849913272698E-02    1.8585701186845085E+00    5.6138607041715993E-01
Ga    2.6446329581184123E-02    1.8280434947179316E+00    2.5929210422714855E+00
N    2.3443467088017114E-02   -1.5930053032897865E-02    3.2242501936152110E+00
Ga    2.4243252215990479E-02   -1.4969041828552736E-02    5.2150658977482873E+00
N    2.7170855517889263E-02    1.8596195901759700E+00    5.8031333284185385E+00
Ga    2.6783284627266309E-02    1.8576170087919341E+00    7.8021146472038980E+00
N    2.4950648962774977E-02   -1.5739733476721047E-02    8.4047446238684849E+00
Ga    2.6502410737933382E-02   -1.4931266417489876E-02    1.0402029462568859E+01
N    2.5227261730552505E-02    1.8562895836727493E+00    1.1007747231436513E+01
Ga    1.6741486341864464E-02    1.8545889250199916E+00    1.3001225718519008E+01
N    2.5487280969521475E-02   -1.2183944931108954E-02    1.3623349795576507E+01
Ga    1.5917186608425362E-02   -1.3452181731535067E-02    1.5634078558034227E+01
N    1.3036828360641772E-02    1.8610418720836881E+00    1.6233126847891796E+01
Ga    1.6631994407148333E-02    1.8969693617373791E+00    1.8333450116606876E+01
N    2.0237257523859572E-02    1.1642483089679093E-02    1.8665833358706781E+01
Ga   -1.5955603847653379E+00    2.7901726836978415E+00    2.7766127998796242E-01
N   -1.5966855484731921E+00    4.6597645821907285E+00    5.6165694182092663E-01
Ga   -1.5685142527868339E+00    4.6754494645090352E+00    2.5921274109202090E+00
N   -1.5960659810188054E+00    2.7897773450714776E+00    3.1837028049381915E+00
Ga   -1.5953061322354805E+00    2.7907980249880091E+00    5.1947648221627771E+00
N   -1.5951706549800819E+00    4.6606235703525059E+00    5.8033991395108666E+00
Ga   -1.5947452316809172E+00    4.6606754149024336E+00    7.8025411980114647E+00
N   -1.5961839404284472E+00    2.7895107641087096E+00    8.4068193094552495E+00
Ga   -1.5972939681311216E+00    2.7898417055965483E+00    1.0402739163546958E+01
N   -1.5914778290469003E+00    4.6613909329339585E+00    1.1004967079801903E+01
Ga   -1.5951016589847136E+00    4.6587298244958388E+00    1.2998676829065634E+01
N   -1.5991852374239084E+00    2.7916906114312292E+00    1.3616561216612228E+01
Ga   -1.6053752508786212E+00    2.7910886974897098E+00    1.5623613013816655E+01
N   -1.5695309545676837E+00    4.6726606206085766E+00    1.6197265513346910E+01
Ga   -1.6930317122982377E+00    4.6089977092669008E+00    1.8193014707561463E+01
N   -1.5983260379217656E+00    2.8079707892981585E+00    1.8748998410437089E+01
Ga   -3.2156272428963146E+00    5.5950267508956699E+00    2.7759072947626318E-01
N   -3.2098464463608716E+00    7.4658587058068298E+00    5.6101626121058124E-01
Ga   -3.2370501682766113E+00    7.4805436844543340E+00    2.5925990518985089E+00
N   -3.2156823632154126E+00    5.5950930546468154E+00    3.1836244786935679E+00
Ga   -3.2148120318008266E+00    5.5957919175564310E+00    5.1946155190664074E+00
N   -3.2095373347097707E+00    7.4660394202373608E+00    5.8025154767945182E+00
Ga   -3.2106081873077397E+00    7.4661107305892740E+00    7.8011270302162137E+00
N   -3.2148374124162222E+00    5.5965381483741838E+00    8.4086100069990923E+00
Ga   -3.2130231071398758E+00    5.5986866059975275E+00    1.0405203504230343E+01
N   -3.2111066240793393E+00    7.4701767430881505E+00    1.1015336390098318E+01
Ga   -3.2095355402377583E+00    7.4737693320903489E+00    1.3014527139498380E+01
N   -3.2059480250529808E+00    5.6009693587978315E+00    1.3614383485853297E+01
Ga   -3.2027808227119214E+00    5.6097900270784553E+00    1.5618627013892773E+01
N   -3.2291598361084639E+00    7.4835814559174390E+00    1.6211677719992203E+01
Ga   -3.2262699850672800E+00    7.4976767815980487E+00    1.8292317812646303E+01
N   -3.2281708433450396E+00    5.6163766362259713E+00    1.8607619568941566E+01
Ga    3.2703831821621208E+00   -1.5963060283445643E-02    2.7742084110323045E-01
N    3.2677750223722541E+00    1.8538475812782049E+00    5.6113027771032298E-01
Ga    3.2961415392120648E+00    1.8697374629265895E+00    2.5917001573031961E+00
N    3.2693746827149930E+00   -1.5827422110844300E-02    3.1833069748383416E+00
Ga    3.2702597237379467E+00   -1.5041741718078639E-02    5.1942624034853555E+00
N    3.2702332576174049E+00    1.8551219197789384E+00    5.8032801290376366E+00
Ga    3.2716338400846032E+00    1.8552610997323775E+00    7.8024362924787276E+00
N    3.2694816030014073E+00   -1.5367413193627976E-02    8.4074018045853229E+00
Ga    3.2699230151390450E+00   -1.4167376500442306E-02    1.0403352412846408E+01
N    3.2730882294316639E+00    1.8553348099191500E+00    1.1012948512869031E+01
Ga    3.2762944931266498E+00    1.8521451782805036E+00    1.3011639719977776E+01
N    3.2768157226094443E+00   -1.6673159764908907E-02    1.3632157055230348E+01
Ga    3.2771528297149777E+00   -2.0360961015567867E-02    1.5642917628594466E+01
N    3.2484881774855991E+00    1.8650511472166613E+00    1.6192401822779999E+01
Ga    3.2519448610001578E+00    1.8618888414710375E+00    1.8272439025572325E+01
N    3.2739897037654790E+00   -4.0580066264711417E-03    1.8616714780191316E+01
Ga    1.6494477824593496E+00    2.7906640199273678E+00    2.7748320052567188E-01
N    1.6557871826237056E+00    4.6603311414311861E+00    5.6150922559036431E-01
Ga    1.6275737295746799E+00    4.6755628832093539E+00    2.5919589911355359E+00
N    1.6495236594351652E+00    2.7898565794328798E+00    3.1837783739567187E+00
Ga    1.6502169035472916E+00    2.7908966297219604E+00    5.1949075082512577E+00
N    1.6559365765928198E+00    4.6605311916273751E+00    5.8044243137991511E+00
Ga    1.6553314825843899E+00    4.6603306825505149E+00    7.8039977837765671E+00
N    1.6502103838420055E+00    2.7887872684244801E+00    8.4079340363914614E+00
Ga    1.6510768761374262E+00    2.7878941678925715E+00    1.0403916424331438E+01
N    1.6539822451401871E+00    4.6612916248941136E+00    1.1000563507882610E+01
Ga    1.6535599850462694E+00    4.6587142317443533E+00    1.2990257410226071E+01
N    1.6431667883059144E+00    2.7860210851453209E+00    1.3597538507385584E+01
Ga    1.6306729228503110E+00    2.7715921114052922E+00    1.5586867952367347E+01
N    1.6409918360041640E+00    4.6679040127713618E+00    1.6144233675440024E+01
Ga    1.9184926684613635E+00    4.5147089483841647E+00    1.8068879114710498E+01
N    1.6531030015066526E+00    2.8031522805707292E+00    1.8745980729376811E+01
Ga    2.9944076289019479E-02    5.5956185754316330E+00   -5.9166821420752880E-01
N    3.3099776867424560E-02    7.4696135031126056E+00    5.6157768576362754E-01
Ga    3.2671998883255914E-02    7.4377348546607038E+00    2.5920313844683975E+00
N    2.9879406380608178E-02    5.5948393997158430E+00    3.2254204287658066E+00
Ga    3.0799422696293023E-02    5.5957086954096456E+00    5.2159520619895954E+00
N    3.3370683573944654E-02    7.4705272153825373E+00    5.8031344065861710E+00
Ga    3.3138846665339249E-02    7.4691276014421488E+00    7.8022083398751683E+00
N    3.0378481560779491E-02    5.5955771475880534E+00    8.4029942592835969E+00
Ga    3.0561392338647669E-02    5.5966750828423963E+00    1.0399736829245095E+01
N    3.3550185360435164E-02    7.4686525129920218E+00    1.1005013560216625E+01
Ga    3.2680042510717489E-02    7.4732168056263593E+00    1.2998757533959848E+01
N    3.2200539410686381E-02    5.5969659274180623E+00    1.3588402554973518E+01
Ga    2.4800277728728351E-02    5.5996502351989035E+00    1.5567382104706942E+01
N    3.5786166481902193E-02    7.4433398644169051E+00    1.6224141331432239E+01
Ga    5.7616142028235319E-02    7.5788294721461860E+00    1.8228069626382570E+01
N   -1.7399845508542566E-01    5.7089012901618688E+00    1.9010446354668218E+01
Ga    6.5139406543124609E+00   -1.5356166634108550E-02    2.7744041348878212E-01
N    6.5219591354118878E+00    1.8544506925652897E+00    5.6155406016671894E-01
Ga    6.4933383571761327E+00    1.8698485260434194E+00    2.5920498819047868E+00
N    6.5148172890186640E+00   -1.5906399781765210E-02    3.1835098015575136E+00
Ga    6.5154672958394384E+00   -1.5221174987130577E-02    5.1945445139581130E+00
N    6.5207399585467467E+00    1.8550911112735731E+00    5.8029799649564087E+00
Ga    6.5188200792268693E+00    1.8552018967288217E+00    7.8020297783471362E+00
N    6.5156597411707002E+00   -1.5342743859444511E-02    8.4072234138638766E+00
Ga    6.5164447020710314E+00   -1.3527983846080472E-02    1.0403321064852809E+01
N    6.5193437309032651E+00    1.8554494494880123E+00    1.1013343679097440E+01
Ga    6.5154096569996431E+00    1.8543703040114294E+00    1.3014136743970438E+01
N    6.5124555440731342E+00   -1.9978359522213263E-02    1.3617927057081420E+01
Ga    6.5140817253800600E+00   -2.5587565709671155E-02    1.5624055880735909E+01
N    6.5118560929883831E+00    1.8454964725410397E+00    1.6204900018641140E+01
Ga    6.5421700422555933E+00    1.8643565196901233E+00    1.8294024136722289E+01
N    6.5388940100059427E+00   -1.0435449361509543E-03    1.8705215172895972E+01
Ga    4.8959072130578267E+00    2.7903259214528782E+00   -5.8985367280400580E-01
N    4.8984389078957982E+00    4.6651895117455258E+00    5.6164028805625910E-01
Ga    4.8979040224330586E+00    4.6331007350911131E+00    2.5921262405489283E+00
N    4.8949452840010297E+00    2.7895259515497570E+00    3.2244261457636716E+00
Ga    4.8957306653154600E+00    2.7906403785251688E+00    5.2147641665644864E+00
N    4.8988088757507899E+00    4.6650363854464540E+00    5.8042252223127910E+00
Ga    4.8991651928618891E+00    4.6628565116708529E+00    7.8039693802230214E+00
N    4.8956538756489305E+00    2.7895729804177170E+00    8.4074674856630711E+00
Ga    4.8972159835501259E+00    2.7895512178432327E+00    1.0407155748760667E+01
N    4.9034037265115655E+00    4.6621057779313322E+00    1.1010098629652479E+01
Ga    4.9088877903753607E+00    4.6565221748847652E+00    1.3007286837524848E+01
N    4.8950073624006887E+00    2.7880785698082637E+00    1.3612846240595434E+01
Ga    4.8926177369824480E+00    2.7893554607345790E+00    1.5625895472669660E+01
N    4.8960835803794733E+00    4.6795328897005621E+00    1.6155061154346480E+01
Ga    4.8921432498420883E+00    4.7012448692761453E+00    1.8220316673201204E+01
N    4.8976482521423161E+00    2.8113766718262192E+00    1.8530673784345094E+01
Ga    3.2756930796281747E+00    5.5944873598450426E+00    2.7741402827079226E-01
N    3.2749738086053082E+00    7.4652666670921954E+00    5.6073902129562769E-01
Ga    3.3020819747565731E+00    7.4803355596197081E+00    2.5923782584121060E+00
N    3.2753329436955769E+00    5.5950483193946692E+00    3.1838905719585564E+00
Ga    3.2760352572607201E+00    5.5957534419992516E+00    5.1950462687246688E+00
N    3.2763549693041587E+00    7.4659134813088048E+00    5.8035508318057447E+00
Ga    3.2775074038217653E+00    7.4658753000118896E+00    7.8026056612306816E+00
N    3.2771892635478705E+00    5.5956352867739900E+00    8.4094820153147829E+00
Ga    3.2801464405495513E+00    5.5967069398291578E+00    1.0406318396340623E+01
N    3.2806531911037480E+00    7.4702913852418158E+00    1.1008636469276487E+01
Ga    3.2795493004757854E+00    7.4758386413356908E+00    1.3003618356898095E+01
N    3.2792470461606045E+00    5.5952720502004194E+00    1.3583635825440910E+01
Ga    3.2803593802847257E+00    5.6172114627718148E+00    1.5566789650971417E+01
N    3.2790730654001234E+00    7.4594734447435069E+00    1.6199903685575812E+01
Ga    3.2811866839801027E+00    7.4860119729352252E+00    1.8272410614981990E+01
N    3.2727334484120121E+00    5.6109061628349659E+00    1.8705914963321813E+01
C    1.8096775733229764E-01    5.4645589146631162E+00    2.0222745044186460E+01
H    8.3693565570108519E-01    6.1539649311499049E+00    2.0773804021441585E+01
H   -1.3917390950820699E-01    4.5436112413761602E+00    2.0731717015196033E+01
     &END COORD
     &KIND C
       BASIS_SET DZVP-MOLOPT-SR-GTH-q4
       POTENTIAL GTH-PBE-q4
       &POTENTIAL
 2 2
  0.3384712400000000E+00 2 -0.8803673979999999E+01  0.1339210850000000E+01
 2
  0.3025757500000000E+00 1  0.9622486650000001E+01
  0.2915069400000000E+00 0
         # Potential name:  GTH-PBE-Q4  for symbol:  C
         # Potential read from the potential filename: GTH_POTENTIALS
       &END POTENTIAL
     &END KIND
     &KIND H
       BASIS_SET DZVP-MOLOPT-SR-GTH-q1
       POTENTIAL GTH-PBE-q1
       &POTENTIAL
 1
  0.2000000000000000E+00 2 -0.4178900440000000E+01  0.7244633100000000E+00
 0
         # Potential name:  GTH-PBE-Q1  for symbol:  H
         # Potential read from the potential filename: GTH_POTENTIALS
       &END POTENTIAL
     &END KIND
     &KIND N
       BASIS_SET DZVP-MOLOPT-SR-GTH-q5
       POTENTIAL GTH-PBE-q5
       &POTENTIAL
 2 3
  0.2837905100000000E+00 2 -0.1241522559000000E+02  0.1868095920000000E+01
 2
  0.2554050000000000E+00 1  0.1363026257000000E+02
  0.2454945300000000E+00 0
         # Potential name:  GTH-PBE-Q5  for symbol:  N
         # Potential read from the potential filename: GTH_POTENTIALS
       &END POTENTIAL
     &END KIND
     &KIND Ga
       BASIS_SET DZVP-MOLOPT-SR-GTH-q13
       POTENTIAL GTH-PBE-q13
       &POTENTIAL
 2 1 10
  0.4900000000000000E+00 0
 3
  0.4167772300000000E+00 3  0.1047568975000000E+02 -0.4921768140000000E+01  0.8707055900000000E+00
  0.7770178090000000E+01 -0.2248152160000000E+01
  0.1784415450000000E+01
  0.5696265200000000E+00 2  0.1777985340000000E+01  0.1958597600000000E+00
 -0.2317443900000000E+00
  0.2381265000000000E+00 1 -0.1624868022000000E+02
         # Potential name:  GTH-PBE-Q13  for symbol:  GA
         # Potential read from the potential filename: GTH_POTENTIALS
       &END POTENTIAL
     &END KIND
     &TOPOLOGY
       NUMBER_OF_ATOMS  147
       MULTIPLE_UNIT_CELL  1 1 1
     &END TOPOLOGY
   &END SUBSYS
 &END FORCE_EVAL
