 # Version information for this restart file 
 # current date 2019-05-23 14:54:34.907
 # current working dir /lustre03/project/6004141/rzk/GaN-carbene/03-Carbene/01-GaC
 # Program compiled at                              Sun Apr  7 00:48:11 EDT 2019
 # Program compiled on                          beluga2.int.ets1.calculquebec.ca
 # Program compiled for                        Beluga-Linux-x86-64-intel-openmpi
 # Source code revision number                                         svn:18619
 &GLOBAL
   PRINT_LEVEL  MEDIUM
   PROJECT_NAME TEST
   RUN_TYPE  GEO_OPT
 &END GLOBAL
 &MOTION
   &GEO_OPT
     MAX_ITER  500
     STEP_START_VAL  46
   &END GEO_OPT
 &END MOTION
 &FORCE_EVAL
   METHOD  QS
   STRESS_TENSOR  ANALYTICAL
   &DFT
     BASIS_SET_FILE_NAME BASIS_MOLOPT
     POTENTIAL_FILE_NAME GTH_POTENTIALS
     &SCF
       MAX_SCF  100
       EPS_SCF     5.0000000000000004E-06
       &OT  T
         PRECONDITIONER  FULL_ALL
       &END OT
       &OUTER_SCF  T
         OPTIMIZER  NONE
         EPS_SCF     5.0000000000000004E-06
         MAX_SCF  10
       &END OUTER_SCF
       &PRINT
         &RESTART  OFF
           BACKUP_COPIES  1
           &EACH
             JUST_ENERGY  0
             QS_SCF  0
             MD  20
           &END EACH
         &END RESTART
       &END PRINT
     &END SCF
     &QS
       EPS_DEFAULT     1.0000000000000000E-14
       ALMO_SCF  F
       METHOD  GPW
     &END QS
     &MGRID
       NGRIDS  5
       CUTOFF     1.2000000000000000E+03
     &END MGRID
     &XC
       DENSITY_CUTOFF     1.0000000000000000E-10
       GRADIENT_CUTOFF     1.0000000000000000E-10
       TAU_CUTOFF     1.0000000000000000E-10
       &XC_FUNCTIONAL  NO_SHORTCUT
         &PBE  T
         &END PBE
       &END XC_FUNCTIONAL
       &VDW_POTENTIAL
         POTENTIAL_TYPE  PAIR_POTENTIAL
         &PAIR_POTENTIAL
           R_CUTOFF     1.0000000000000005E+01
           TYPE  DFTD3
           PARAMETER_FILE_NAME dftd3.dat
           REFERENCE_FUNCTIONAL PBE
           EPS_CN     9.9999999999999995E-07
           CALCULATE_C9_TERM  T
           REFERENCE_C9_TERM  T
           LONG_RANGE_CORRECTION  F
           VERBOSE_OUTPUT  F
         &END PAIR_POTENTIAL
       &END VDW_POTENTIAL
     &END XC
   &END DFT
   &SUBSYS
     &CELL
       A     9.7367653356401487E+00    0.0000000000000000E+00    0.0000000000000000E+00
       B    -4.8591341382960209E+00    8.4162672083210595E+00    0.0000000000000000E+00
       C     0.0000000000000000E+00    0.0000000000000000E+00    3.0744000000000000E+01
       MULTIPLE_UNIT_CELL  1 1 1
       &CELL_REF
         A     9.5580000000000052E+00    0.0000000000000000E+00    0.0000000000000000E+00
         B    -4.7790000000000026E+00    8.2774708093716640E+00    0.0000000000000000E+00
         C     0.0000000000000000E+00    0.0000000000000000E+00    3.0744000000000000E+01
         MULTIPLE_UNIT_CELL  1 1 1
       &END CELL_REF
     &END CELL
     &COORD
Ga    2.3547422276573554E-02   -1.4637578815964544E-02   -5.7654702860351448E-01
N    2.6361576641583926E-02    1.8589444216853888E+00    5.6161373185153207E-01
Ga    2.5980348735252737E-02    1.8282409184781812E+00    2.5934127620419249E+00
N    2.2994715269596590E-02   -1.5691972189189524E-02    3.2245012733270011E+00
Ga    2.3966082403973625E-02   -1.4832998985812361E-02    5.2151587347037180E+00
N    2.6874587777133814E-02    1.8597161164307610E+00    5.8031080144432448E+00
Ga    2.6631278789159225E-02    1.8576494659666227E+00    7.8021155297247038E+00
N    2.4843351105712667E-02   -1.5709372556330183E-02    8.4045929101507362E+00
Ga    2.6460740629724117E-02   -1.4944203794181113E-02    1.0401980981159836E+01
N    2.5287553459874688E-02    1.8563227529512341E+00    1.1007453488578969E+01
Ga    1.6937738012383310E-02    1.8543189693202455E+00    1.3000864554689882E+01
N    2.5620118385545825E-02   -1.2382378546375226E-02    1.3622969988516301E+01
Ga    1.6457485216921908E-02   -1.3972997484666539E-02    1.5633561872745979E+01
N    1.3625073397591649E-02    1.8605933185467309E+00    1.6232850913237460E+01
Ga    1.6904989376093773E-02    1.8974721966416781E+00    1.8333337893370654E+01
N    2.0614172358281297E-02    1.1466878910787731E-02    1.8665264468016435E+01
Ga   -1.5962735791907299E+00    2.7905711099316020E+00    2.7794125477979215E-01
N   -1.5975203491979808E+00    4.6600073931884047E+00    5.6229610076809955E-01
Ga   -1.5690254441515490E+00    4.6756799459370768E+00    2.5923085000958603E+00
N   -1.5965586837539076E+00    2.7899589327665364E+00    3.1839708430904943E+00
Ga   -1.5956640907852764E+00    2.7909588473337297E+00    5.1949711552761997E+00
N   -1.5954382574652419E+00    4.6607142144314615E+00    5.8035032295094489E+00
Ga   -1.5948117815972589E+00    4.6606228416573430E+00    7.8025273219716667E+00
N   -1.5963199676695283E+00    2.7895078794137729E+00    8.4066493526843473E+00
Ga   -1.5972424746259744E+00    2.7896989986231189E+00    1.0402657493169382E+01
N   -1.5912231069066667E+00    4.6614261461339606E+00    1.1004829764261993E+01
Ga   -1.5949287931458083E+00    4.6589822806453078E+00    1.2998656708319217E+01
N   -1.5989340017353293E+00    2.7916338821608129E+00    1.3616478786415430E+01
Ga   -1.6048752571915266E+00    2.7910891851592159E+00    1.5623702074933730E+01
N   -1.5688675287141143E+00    4.6726809274051302E+00    1.6197201861622414E+01
Ga   -1.6923624047672017E+00    4.6088465251398629E+00    1.8193105586105560E+01
N   -1.5983396615877483E+00    2.8078817741155881E+00    1.8749644587804912E+01
Ga   -3.2162804886866425E+00    5.5953128239963865E+00    2.7787015272893040E-01
N   -3.2104582595190476E+00    7.4661986646494372E+00    5.6123448710643931E-01
Ga   -3.2375452294688629E+00    7.4808070710847838E+00    2.5930944804805067E+00
N   -3.2161954633770677E+00    5.5953076761712186E+00    3.1838981671161255E+00
Ga   -3.2151055060810747E+00    5.5958199434222502E+00    5.1948505635830502E+00
N   -3.2098487918606202E+00    7.4661825894135303E+00    5.8024193767479639E+00
Ga   -3.2107659206773205E+00    7.4661675905258562E+00    7.8010673140199289E+00
N   -3.2149399080034446E+00    5.5965786959171053E+00    8.4083177112707865E+00
Ga   -3.2129644390895775E+00    5.5986555993583806E+00    1.0405084069604641E+01
N   -3.2109795944875015E+00    7.4701136008619624E+00    1.1015310161476702E+01
Ga   -3.2092515571812990E+00    7.4734670222555710E+00    1.3014614322331692E+01
N   -3.2057406777673285E+00    5.6007651234235878E+00    1.3614461458180219E+01
Ga   -3.2023141398575667E+00    5.6097260004331275E+00    1.5618505445693518E+01
N   -3.2287211770326056E+00    7.4835673267598608E+00    1.6211595863304456E+01
Ga   -3.2261147825145149E+00    7.4974672073001516E+00    1.8291992106256963E+01
N   -3.2280513187998894E+00    5.6162048280979464E+00    1.8607600348752378E+01
Ga    3.2698150765504796E+00   -1.5562629802768988E-02    2.7768892814039703E-01
N    3.2672241609909234E+00    1.8542662940882639E+00    5.6128354831149641E-01
Ga    3.2957695716260718E+00    1.8700658374276180E+00    2.5916910445902404E+00
N    3.2689022267313770E+00   -1.5512533206466750E-02    3.1835584861830908E+00
Ga    3.2700412154706866E+00   -1.4864114563879564E-02    5.1944619277279092E+00
N    3.2701299875336827E+00    1.8552967690009856E+00    5.8032272845335804E+00
Ga    3.2715885793746722E+00    1.8552991005980357E+00    7.8023200071306720E+00
N    3.2693593022333354E+00   -1.5379937436161624E-02    8.4071667588760643E+00
Ga    3.2699563369745626E+00   -1.4228831498398653E-02    1.0403222413463759E+01
N    3.2731284386557471E+00    1.8551817327127975E+00    1.1012863184797254E+01
Ga    3.2765370559608313E+00    1.8518936747337009E+00    1.3011569602511845E+01
N    3.2772312067806260E+00   -1.6857281495296951E-02    1.3632453669041155E+01
Ga    3.2774713897363568E+00   -2.0839918094640104E-02    1.5643043788770241E+01
N    3.2491898845518294E+00    1.8650359277432871E+00    1.6191686168494478E+01
Ga    3.2519984259019092E+00    1.8611753324008380E+00    1.8272234177247572E+01
N    3.2735448870963371E+00   -4.7658219911398333E-03    1.8617510990515612E+01
Ga    1.6488390794522767E+00    2.7910976785362291E+00    2.7777724463692438E-01
N    1.6552995200213636E+00    4.6606062529901662E+00    5.6221584299466287E-01
Ga    1.6271590173103738E+00    4.6757979129404230E+00    2.5922329034098852E+00
N    1.6491190926578114E+00    2.7900225784702126E+00    3.1840743330916501E+00
Ga    1.6500303936456904E+00    2.7910100270313958E+00    5.1951534551222931E+00
N    1.6557161821550577E+00    4.6606250791188009E+00    5.8044661955133998E+00
Ga    1.6552477275956892E+00    4.6602882406703507E+00    7.8039184182993111E+00
N    1.6501473706106764E+00    2.7887636211511784E+00    8.4077474887969714E+00
Ga    1.6511275047372171E+00    2.7877830058180226E+00    1.0403778133937223E+01
N    1.6539824417348166E+00    4.6611891159550831E+00    1.1000404013363703E+01
Ga    1.6538895966654645E+00    4.6587268877519081E+00    1.2990057964699842E+01
N    1.6433648611796323E+00    2.7858651482602066E+00    1.3597219527904178E+01
Ga    1.6310924248932908E+00    2.7713669908956584E+00    1.5586582273615063E+01
N    1.6413277549724705E+00    4.6676901509146678E+00    1.6143601469521673E+01
Ga    1.9192427647702706E+00    4.5140238490506883E+00    1.8068410447512427E+01
N    1.6534767795050103E+00    2.8027069290414146E+00    1.8746931121095589E+01
Ga    2.9348109422516002E-02    5.5960003250932226E+00   -5.9259827842143487E-01
N    3.2474532574880290E-02    7.4702173781445111E+00    5.6224333823053407E-01
Ga    3.2201307939247630E-02    7.4380356080350456E+00    2.5922365222423021E+00
N    2.9406252488166217E-02    5.5950927140459497E+00    3.2256701627704127E+00
Ga    3.0503116961157692E-02    5.5958136466942667E+00    5.2162797873148685E+00
N    3.3064637405197883E-02    7.4706215649620074E+00    5.8031908421187373E+00
Ga    3.3049588740887925E-02    7.4690710415426560E+00    7.8021469449862382E+00
N    3.0358549899745950E-02    5.5954918311750159E+00    8.4028179455407201E+00
Ga    3.0784048642901934E-02    5.5964856140043464E+00    1.0399551601968898E+01
N    3.3739263383017352E-02    7.4683770813577794E+00    1.1004674374468674E+01
Ga    3.2895963345294613E-02    7.4730218997837703E+00    1.2998310366916419E+01
N    3.2609964837393486E-02    5.5968932377472109E+00    1.3588481219874565E+01
Ga    2.5127515696339531E-02    5.5993070852356839E+00    1.5567291356546740E+01
N    3.6528576388319967E-02    7.4432168168294677E+00    1.6223992285013484E+01
Ga    5.7197706710310950E-02    7.5785517107812437E+00    1.8228437167121537E+01
N   -1.7397683067872921E-01    5.7090466004653262E+00    1.9011374364460753E+01
Ga    6.5132500273304981E+00   -1.4969942338637431E-02    2.7773822730477360E-01
N    6.5211818724108346E+00    1.8548800654523843E+00    5.6164511444131704E-01
Ga    6.4927660679312575E+00    1.8701459852134039E+00    2.5920259926108584E+00
N    6.5143859821177070E+00   -1.5599370922584923E-02    3.1838092781858593E+00
Ga    6.5151336796647206E+00   -1.5055748483760923E-02    5.1948271054709556E+00
N    6.5203563241369862E+00    1.8553015854586676E+00    5.8028915352954256E+00
Ga    6.5186531957690868E+00    1.8552946284821707E+00    7.8019115328941959E+00
N    6.5155793000399784E+00   -1.5321925279314195E-02    8.4068982959340985E+00
Ga    6.5165671645020113E+00   -1.3538079926934347E-02    1.0403011272310394E+01
N    6.5193957783461913E+00    1.8553451604779125E+00    1.1013074278312594E+01
Ga    6.5157584215475790E+00    1.8541859471988695E+00    1.3013621097485151E+01
N    6.5126541538007325E+00   -2.0028670269488440E-02    1.3617692954576860E+01
Ga    6.5143610542635608E+00   -2.5952536503165556E-02    1.5623522732279111E+01
N    6.5119520928278654E+00    1.8454119308616221E+00    1.6204661385826441E+01
Ga    6.5421538879242522E+00    1.8643022052935576E+00    1.8294509313168767E+01
N    6.5388788620665563E+00   -1.5719843598570647E-03    1.8705745207242245E+01
Ga    4.8951216125296932E+00    2.7907622073900198E+00   -5.8843434542117934E-01
N    4.8977855932023049E+00    4.6654441698155269E+00    5.6180722530036842E-01
Ga    4.8974189701642539E+00    4.6332527501746634E+00    2.5921236595084904E+00
N    4.8944899024634108E+00    2.7897879111434385E+00    3.2244218414819374E+00
Ga    4.8954671812961719E+00    2.7907576730709986E+00    5.2147451021331310E+00
N    4.8985956042385963E+00    4.6649548754560817E+00    5.8042114908829534E+00
Ga    4.8990524306635876E+00    4.6627411885334240E+00    7.8039065186435979E+00
N    4.8955243153640300E+00    2.7895337293812128E+00    8.4074001028932308E+00
Ga    4.8972825126509845E+00    2.7894621360370913E+00    1.0406970939452359E+01
N    4.9034503660682462E+00    4.6621259662527033E+00    1.1009817328613549E+01
Ga    4.9092263097789512E+00    4.6567278033641033E+00    1.3007050503366852E+01
N    4.8954704138606280E+00    2.7880729761786478E+00    1.3612187216664157E+01
Ga    4.8927010368024719E+00    2.7894817657028632E+00    1.5624862696038756E+01
N    4.8966845615347072E+00    4.6790274447923652E+00    1.6153975358346795E+01
Ga    4.8923522225865597E+00    4.7012777925629434E+00    1.8219075783274960E+01
N    4.8972917362800334E+00    2.8114969416347426E+00    1.8530412242303086E+01
Ga    3.2750085566316356E+00    5.5947608026994482E+00    2.7767156044630209E-01
N    3.2743253536918546E+00    7.4655890613457743E+00    5.6099591686671302E-01
Ga    3.3016494302103121E+00    7.4805859836740636E+00    2.5928907338817266E+00
N    3.2749736442564243E+00    5.5952713956506299E+00    3.1841971628154311E+00
Ga    3.2758304429219498E+00    5.5957724854581441E+00    5.1953101525646357E+00
N    3.2761512498483913E+00    7.4660146477443448E+00    5.8034812207410100E+00
Ga    3.2774269128418188E+00    7.4658723610953635E+00    7.8025915254752283E+00
N    3.2770955411590403E+00    5.5955838040144110E+00    8.4093043991793213E+00
Ga    3.2801224298754130E+00    5.5966618242374526E+00    1.0406185499263039E+01
N    3.2806100083750280E+00    7.4702160658644772E+00    1.1008412523064225E+01
Ga    3.2797790235964066E+00    7.4756908288885855E+00    1.3003222841674662E+01
N    3.2795433682522841E+00    5.5951664893618087E+00    1.3583505235359425E+01
Ga    3.2811860841566727E+00    5.6169437615391695E+00    1.5566665956284590E+01
N    3.2791999712871642E+00    7.4595885116998684E+00    1.6199987120407730E+01
Ga    3.2816250455332279E+00    7.4853966738379532E+00    1.8272654220536499E+01
N    3.2731864950710898E+00    5.6105365148484330E+00    1.8706794733063695E+01
C    1.8238442067077407E-01    5.4642403521595693E+00    2.0223180142812968E+01
H    8.4000758065321901E-01    6.1530466718646313E+00    2.0773275645364226E+01
H   -1.3577783467467675E-01    4.5421148327046437E+00    2.0731804777106454E+01
     &END COORD
     &KIND C
       BASIS_SET DZVP-MOLOPT-SR-GTH-q4
       POTENTIAL GTH-PBE-q4
       &POTENTIAL
 2 2
  0.3384712400000000E+00 2 -0.8803673979999999E+01  0.1339210850000000E+01
 2
  0.3025757500000000E+00 1  0.9622486650000001E+01
  0.2915069400000000E+00 0
         # Potential name:  GTH-PBE-Q4  for symbol:  C
         # Potential read from the potential filename: GTH_POTENTIALS
       &END POTENTIAL
     &END KIND
     &KIND H
       BASIS_SET DZVP-MOLOPT-SR-GTH-q1
       POTENTIAL GTH-PBE-q1
       &POTENTIAL
 1
  0.2000000000000000E+00 2 -0.4178900440000000E+01  0.7244633100000000E+00
 0
         # Potential name:  GTH-PBE-Q1  for symbol:  H
         # Potential read from the potential filename: GTH_POTENTIALS
       &END POTENTIAL
     &END KIND
     &KIND N
       BASIS_SET DZVP-MOLOPT-SR-GTH-q5
       POTENTIAL GTH-PBE-q5
       &POTENTIAL
 2 3
  0.2837905100000000E+00 2 -0.1241522559000000E+02  0.1868095920000000E+01
 2
  0.2554050000000000E+00 1  0.1363026257000000E+02
  0.2454945300000000E+00 0
         # Potential name:  GTH-PBE-Q5  for symbol:  N
         # Potential read from the potential filename: GTH_POTENTIALS
       &END POTENTIAL
     &END KIND
     &KIND Ga
       BASIS_SET DZVP-MOLOPT-SR-GTH-q13
       POTENTIAL GTH-PBE-q13
       &POTENTIAL
 2 1 10
  0.4900000000000000E+00 0
 3
  0.4167772300000000E+00 3  0.1047568975000000E+02 -0.4921768140000000E+01  0.8707055900000000E+00
  0.7770178090000000E+01 -0.2248152160000000E+01
  0.1784415450000000E+01
  0.5696265200000000E+00 2  0.1777985340000000E+01  0.1958597600000000E+00
 -0.2317443900000000E+00
  0.2381265000000000E+00 1 -0.1624868022000000E+02
         # Potential name:  GTH-PBE-Q13  for symbol:  GA
         # Potential read from the potential filename: GTH_POTENTIALS
       &END POTENTIAL
     &END KIND
     &TOPOLOGY
       NUMBER_OF_ATOMS  147
       MULTIPLE_UNIT_CELL  1 1 1
     &END TOPOLOGY
   &END SUBSYS
 &END FORCE_EVAL
