#p

comment

0 1
  N        -0.0254811798        2.0499330602        2.5097987685
 Ga        -0.0214362036        0.0731530925        2.8655012352
  N        -0.0168135555        0.0610116973        5.0071432268
 Ga        -0.0160874466        1.8895294547        5.7961666534
  N        -0.0130074717        1.9015204933        7.7878836336
 Ga        -0.0119983263        0.0562892636        8.4387317136
  N        -0.0110549499        0.0556938168       10.4093495528
 Ga        -0.0101037277        1.8963126363       11.0646305924
  N        -0.0088088699        1.8765630183       13.0552197026
 Ga        -0.0088399361        0.0587173157       13.8661505846
  N        -0.0072312157        0.0561800569       16.0627459894
 Ga        -0.0098056596        2.1150668672       16.4930080249
 Ga        -0.0359555418        3.7739766108        1.5155623630
  N        -1.5131529951        4.6388772005        2.5127648111
 Ga        -1.7260750036        2.7886007899        3.2984303017
  N        -1.6289601745        2.8437995663        5.2549697998
 Ga        -1.6476679376        4.7168647230        5.7992958342
  N        -1.6312881098        4.7058872226        7.7910465148
 Ga        -1.6112934282        2.8475436385        8.4313745116
  N        -1.6073036401        2.8476335669       10.4212367548
 Ga        -1.6325409399        4.7060882007       11.0662179602
  N        -1.6483845958        4.7159160186       13.0561208852
 Ga        -1.6051868738        2.8474494721       13.6201538455
  N        -1.6350628804        2.8286308643       15.5752492523
 Ga        -1.4449385458        4.5952750457       16.4912168790
  N        -0.0092882731        3.7724194382       17.6275842867
  N        -3.2334662746        7.6100810059        2.5151551757
 Ga        -3.2262138719        5.6290147588        2.8525702489
  N        -3.2308864013        5.6292314547        5.0073243192
 Ga        -3.2329670328        7.4584037493        5.7922756271
  N        -3.2300538430        7.4727065030        7.7859149290
 Ga        -3.2291068918        5.6276795316        8.4414421106
  N        -3.2271153104        5.6256015507       10.4109084651
 Ga        -3.2273938918        7.4651449112       11.0641063119
  N        -3.2249828841        7.4456467939       13.0524518392
 Ga        -3.2221514549        5.6256955831       13.8661568771
  N        -3.2253499300        5.6287553574       16.0612753845
 Ga        -3.2274209431        7.6678875180       16.4697087936
 Ga        -3.2289541578        9.3394204975        1.4549358727
  N        -4.7412991325       10.2176292680        2.5022521775
 Ga        -4.9403688829        8.3646500606        3.2691677837
  N        -4.8411763822        8.4156624472        5.2347341267
 Ga        -4.8629059777       10.2864652977        5.7892044564
  N        -4.8467218247       10.2747569185        7.7831687578
 Ga        -4.8281652075        8.4177512279        8.4296618813
  N        -4.8245764270        8.4178253853       10.4201859102
 Ga        -4.8505345585       10.2768942940       11.0638316619
  N        -4.8651939292       10.2869574319       13.0535792959
 Ga        -4.8226445983        8.4165689576       13.6102472807
  N        -4.8477156148        8.3998472058       15.5664712538
 Ga        -4.6790923729       10.1743067833       16.4699346252
  N        -3.2282930904        9.3457738333       17.6142486922
  N         3.1854531471        1.9243983978        2.5803716907
 Ga         3.1932652008        0.1769640542        3.2647167143
  N         3.1996027079        0.0629269921        5.2312504445
 Ga         3.1986461973        1.9153010564        5.8688313390
  N         3.2031562072        1.9130003200        7.8385969711
 Ga         3.2021258916        0.0459423144        8.4314773826
  N         3.2042713453        0.0432447264       10.4205747307
 Ga         3.2041028655        1.9135377726       11.0198038103
  N         3.2062040302        1.9134207402       12.9864885031
 Ga         3.2073128847        0.0446268070       13.6119419356
  N         3.2074417840        0.0716281899       15.5724731884
 Ga         3.2055741289        1.9107242520       15.8568340775
  N         1.4683269290        4.6414000855        2.5006995011
 Ga         1.6795957192        2.7937722829        3.2884148425
  N         1.5945750955        2.8444441874        5.2466834944
 Ga         1.6157006023        4.7167561184        5.7964244237
  N         1.6057764856        4.7059888953        7.7886076408
 Ga         1.5855637631        2.8480197565        8.4297800901
  N         1.5859520907        2.8481625424       10.4196382885
 Ga         1.6120206496        4.7057961999       11.0673432735
  N         1.6309254813        4.7159075278       13.0577915527
 Ga         1.5876352401        2.8473622221       13.6217166762
  N         1.6170465207        2.8289823342       15.5780132975
 Ga         1.4266941071        4.5962880285       16.4933190336
  N        -0.0202716264        7.4898786782        2.6037137272
 Ga        -0.0182060101        5.7478459018        3.2935326247
  N        -0.0164399572        5.6360072222        5.2520305666
 Ga        -0.0162684958        7.4890552831        5.8750133546
  N        -0.0127776433        7.4866039069        7.8444694539
 Ga        -0.0122841639        5.6170892337        8.4325465367
  N        -0.0101210836        5.6135472799       10.4225107040
 Ga        -0.0098760877        7.4824572550       11.0218130634
  N        -0.0082162812        7.4821591190       12.9897338781
 Ga        -0.0087702380        5.6120452008       13.6231691188
  N        -0.0086919056        5.6473324696       15.5806235945
 Ga        -0.0093074931        7.4829419672       15.8517274889
  N        -1.7326701857       10.2168344660        2.5126432741
 Ga        -1.5303170412        8.3654098340        3.2815168035
  N        -1.6236847082        8.4170379934        5.2441490839
 Ga        -1.6012418898       10.2886734206        5.7944724309
  N        -1.6125585413       10.2759254981        7.7879627293
 Ga        -1.6317573740        8.4185172526        8.4325144592
  N        -1.6302760155        8.4174067507       10.4220756265
 Ga        -1.6049679016       10.2764599287       11.0628268933
  N        -1.5851525886       10.2868373757       13.0520250408
 Ga        -1.6275839601        8.4168746303       13.6110721806
  N        -1.6035075433        8.4005938412       15.5689930293
 Ga        -1.7772001500       10.1735513543       16.4680847562
  N         6.4103590969        2.0413980632        2.5164771641
 Ga         6.4123396741        0.0610684934        2.8579845957
  N         6.4168630779        0.0592670249        5.0137294285
 Ga         6.4136415540        1.8867200719        5.7962404135
  N         6.4178021564        1.9021398649        7.7884919786
 Ga         6.4193104051        0.0561452975        8.4414814671
  N         6.4219993787        0.0550008974       10.4112918392
 Ga         6.4215220294        1.8958577391       11.0638923298
  N         6.4233324087        1.8755715715       13.0542668290
 Ga         6.4238451287        0.0555257220       13.8600690753
  N         6.4220776590        0.0573806905       16.0589953146
 Ga         6.4209616343        2.1039965543       16.4724639958
 Ga         6.4185959001        3.7767339435        1.4857874391
  N         4.9075347006        4.6433667389        2.5109563148
 Ga         4.6989359633        2.7881181163        3.2734922529
  N         4.8044939745        2.8421230572        5.2355606762
 Ga         4.7819834735        4.7138212667        5.7908725145
  N         4.8007560790        4.7037274242        7.7842278935
 Ga         4.8198074622        2.8473445590        8.4320362055
  N         4.8240041736        2.8479107779       10.4213486356
 Ga         4.7985013490        4.7066590555       11.0670666484
  N         4.7828554672        4.7161205512       13.0579602990
 Ga         4.8253537693        2.8461874831       13.6136099734
  N         4.7960444096        2.8286323074       15.5721982545
 Ga         4.9717957035        4.6055765311       16.4734151712
  N         6.4229254220        3.7772094110       17.5956981387
  N         3.1935625264        7.6111618851        2.5121749805
 Ga         3.1830969681        5.6281070251        2.8520366272
  N         3.1980006521        5.6295100528        5.0041136218
 Ga         3.2015692603        7.4576067302        5.7932238153
  N         3.2041519573        7.4719941566        7.7865789826
 Ga         3.2040628195        5.6269360371        8.4412715930
  N         3.2056369207        5.6258724239       10.4117215140
 Ga         3.2069122666        7.4647904709       11.0687083010
  N         3.2073222491        7.4462553345       13.0584588050
 Ga         3.2049508868        5.6261601608       13.8713458927
  N         3.2082084533        5.6276597104       16.0663224010
 Ga         3.2060373529        7.6700943081       16.4797678986
 Ga         3.1897794285        9.3485817792        1.4723270830
  N         1.6930790412       10.2150099726        2.5182607724
 Ga         1.4891519465        8.3627417401        3.2841218440
  N         1.5916789894        8.4155197796        5.2451681616
 Ga         1.5685985535       10.2861097415        5.7997100221
  N         1.5863592690       10.2744501111        7.7917663113
 Ga         1.6066679270        8.4171261574        8.4351878513
  N         1.6101028933        8.4170284248       10.4245026188
 Ga         1.5843054200       10.2761472825       11.0662101800
  N         1.5680086968       10.2865111163       13.0562394599
 Ga         1.6100749859        8.4171254613       13.6171605222
  N         1.5848142298        8.4008061483       15.5748339342
 Ga         1.7579644672       10.1722553701       16.4768076722
  N         3.2094074510        9.3470732200       17.6246079902
  N         9.6301592183        1.9205441132        2.6051705727
 Ga         9.6287808169        0.1754977802        3.2816952736
  N         9.6325663757        0.0601545043        5.2439430696
 Ga         9.6315024916        1.9148118477        5.8758893197
  N         9.6340460778        1.9122669743        7.8445868001
 Ga         9.6371011066        0.0447045699        8.4351834123
  N         9.6389894719        0.0424077599       10.4239466368
 Ga         9.6389311377        1.9127965782       11.0216274175
  N         9.6399253456        1.9126343518       12.9889617230
 Ga         9.6394364545        0.0443828430       13.6191201466
  N         9.6378221192        0.0717324959       15.5804450862
 Ga         9.6410623239        1.9117643362       15.8584193740
  N         7.9156528112        4.6426003918        2.5201595624
 Ga         8.1190870842        2.7878267216        3.2867038587
  N         8.0235094117        2.8429864041        5.2466090752
 Ga         8.0497128149        4.7159059200        5.7947951635
  N         8.0370719809        4.7047822059        7.7871780549
 Ga         8.0169522263        2.8473691358        8.4331539502
  N         8.0184982185        2.8474653032       10.4223396221
 Ga         8.0441349729        4.7065042284       11.0655516861
  N         8.0635832923        4.7160462693       13.0563931995
 Ga         8.0211352500        2.8464923739       13.6148476785
  N         8.0487745298        2.8285234028       15.5746948155
 Ga         7.8719376024        4.6066827272       16.4714694313
  N         6.4130432708        7.4895194844        2.5946848294
 Ga         6.4116264192        5.7490677203        3.2801985704
  N         6.4153389615        5.6304562421        5.2406148954
 Ga         6.4165380714        7.4879072160        5.8643516645
  N         6.4189981205        7.4840446413        7.8362481422
 Ga         6.4186575928        5.6160494586        8.4299324318
  N         6.4208147066        5.6133774162       10.4209148231
 Ga         6.4210753413        7.4829257740       11.0201494372
  N         6.4222461277        7.4826831874       12.9875600924
 Ga         6.4234550064        5.6140022889       13.6167491271
  N         6.4221552981        5.6494597277       15.5767595441
 Ga         6.4235812255        7.4855672558       15.8551631630
  N         4.6980387348       10.2159991698        2.5108110593
 Ga         4.9029072853        8.3618381733        3.2719283514
  N         4.8088847166        8.4147176148        5.2363571026
 Ga         4.8330489598       10.2846805255        5.7939664688
  N         4.8217643778       10.2740730382        7.7866693757
 Ga         4.8023449373        8.4170868360        8.4318909041
  N         4.8023228403        8.4176114133       10.4221034050
 Ga         4.8293629104       10.2761906599       11.0670497654
  N         4.8467126266       10.2866963502       13.0581177518
 Ga         4.8047161751        8.4169879663       13.6189228147
  N         4.8285348353        8.3999471891       15.5772523039
 Ga         4.6583144170       10.1748664882       16.4775259526
  O         0.1916836221        3.4410171999       -0.5438013778
  H         0.7389610157        4.1489640474       -0.9326294278
  C         0.7740277841        2.1288688531       -0.8912978015
  H         1.8404179394        2.1031626897       -0.6403869413
  H         0.2390239595        1.3943317391       -0.2787672546
  H         0.5930209889        1.9512701354       -1.9572090973

