 # Version information for this restart file 
 # current date 2019-06-24 13:22:34.847
 # current working dir /scratch/rzk/rzk/GaN-carbene/443-adatoms-both-2x2/02-Methanol/01-O-GaTop
 # Program compiled at                              Sun Apr  7 00:48:11 EDT 2019
 # Program compiled on                          beluga2.int.ets1.calculquebec.ca
 # Program compiled for                        Beluga-Linux-x86-64-intel-openmpi
 # Source code revision number                                         svn:18619
 &GLOBAL
   PRINT_LEVEL  MEDIUM
   PROJECT_NAME TEST
   RUN_TYPE  GEO_OPT
 &END GLOBAL
 &MOTION
   &GEO_OPT
     MAX_ITER  500
     STEP_START_VAL  43
   &END GEO_OPT
 &END MOTION
 &FORCE_EVAL
   METHOD  QS
   STRESS_TENSOR  ANALYTICAL
   &DFT
     BASIS_SET_FILE_NAME BASIS_MOLOPT
     POTENTIAL_FILE_NAME GTH_POTENTIALS
     UKS  T
     SURFACE_DIPOLE_CORRECTION  T
     SURF_DIP_DIR  Z
     &SCF
       MAX_SCF  80
       EPS_SCF     5.0000000000000004E-06
       &OT  T
         PRECONDITIONER  FULL_ALL
       &END OT
       &OUTER_SCF  T
         OPTIMIZER  NONE
         EPS_SCF     5.0000000000000004E-06
         MAX_SCF  4
       &END OUTER_SCF
       &PRINT
         &RESTART  OFF
           BACKUP_COPIES  1
           &EACH
             JUST_ENERGY  0
             QS_SCF  0
             MD  20
           &END EACH
         &END RESTART
       &END PRINT
     &END SCF
     &QS
       EPS_DEFAULT     1.0000000000000000E-14
       METHOD  GPW
     &END QS
     &MGRID
       NGRIDS  5
       CUTOFF     1.2000000000000000E+03
     &END MGRID
     &XC
       DENSITY_CUTOFF     1.0000000000000000E-10
       GRADIENT_CUTOFF     1.0000000000000000E-10
       TAU_CUTOFF     1.0000000000000000E-10
       &XC_FUNCTIONAL  NO_SHORTCUT
         &PBE  T
         &END PBE
       &END XC_FUNCTIONAL
       &VDW_POTENTIAL
         POTENTIAL_TYPE  PAIR_POTENTIAL
         &PAIR_POTENTIAL
           R_CUTOFF     1.0000000000000004E+01
           TYPE  DFTD3
           PARAMETER_FILE_NAME dftd3.dat
           REFERENCE_FUNCTIONAL PBE
           EPS_CN     9.9999999999999995E-07
           CALCULATE_C9_TERM  T
           REFERENCE_C9_TERM  T
           LONG_RANGE_CORRECTION  F
           VERBOSE_OUTPUT  F
         &END PAIR_POTENTIAL
       &END VDW_POTENTIAL
     &END XC
   &END DFT
   &SUBSYS
     &CELL
       A     1.2864472766435110E+01    0.0000000000000000E+00    0.0000000000000000E+00
       B    -6.4322363581020028E+00    1.1140960178524473E+01    0.0000000000000000E+00
       C     0.0000000000000000E+00    0.0000000000000000E+00    3.2000000000000000E+01
       MULTIPLE_UNIT_CELL  1 1 1
       &CELL_REF
         A     1.2982353780853531E+01    0.0000000000000000E+00    0.0000000000000000E+00
         B    -6.4911768904267628E+00    1.1243048175136114E+01    0.0000000000000000E+00
         C     0.0000000000000000E+00    0.0000000000000000E+00    3.2000000000000000E+01
         MULTIPLE_UNIT_CELL  1 1 1
       &END CELL_REF
     &END CELL
     &COORD
N   -2.7513157233554134E-02    2.0509590248410183E+00    2.5133278340002549E+00
Ga   -2.0092853155638062E-02    6.9437611594311166E-02    2.8609888755890114E+00
N   -1.6713767325883352E-02    6.0998858308238070E-02    5.0079942292188768E+00
Ga   -1.5774593344231286E-02    1.8896676271942774E+00    5.7909321726773433E+00
N   -1.2972749630836371E-02    1.9006535620172327E+00    7.7862151913111068E+00
Ga   -1.1616745190915793E-02    5.5121055971277672E-02    8.4346756473248909E+00
N   -1.1636599979214587E-02    5.5436976581495857E-02    1.0409232978598515E+01
Ga   -9.9073930710857384E-03    1.8968716443584563E+00    1.1057735783651017E+01
N   -7.9414463236462847E-03    1.8775958084189781E+00    1.3053148135419619E+01
Ga   -1.0370973303536044E-02    6.2693822569332369E-02    1.3861436733296154E+01
N   -1.1885346995598695E-02    6.0099912590807797E-02    1.6065607490068913E+01
Ga   -7.0250253401789777E-03    2.1293378961494187E+00    1.6503927662971929E+01
Ga   -3.8032712718286579E-02    3.7743242856643882E+00    1.5217094042866257E+00
N   -1.5161956049201228E+00    4.6419028404353764E+00    2.5159886288482927E+00
Ga   -1.7286358426335477E+00    2.7889778490512489E+00    3.2985922416534841E+00
N   -1.6293753133031379E+00    2.8443804713914234E+00    5.2569829685061995E+00
Ga   -1.6474094745208132E+00    4.7179958348161657E+00    5.7961475560529081E+00
N   -1.6308694784657751E+00    4.7059922067914659E+00    7.7913837970780584E+00
Ga   -1.6112786231065548E+00    2.8468849929017250E+00    8.4250551909849385E+00
N   -1.6079483011089233E+00    2.8467888414867146E+00    1.0420657011242916E+01
Ga   -1.6317023816076599E+00    4.7054477228929112E+00    1.1060976395633469E+01
N   -1.6466164416099622E+00    4.7152399927353139E+00    1.3054907652773069E+01
Ga   -1.6042528659873303E+00    2.8472469992781835E+00    1.3616969911932392E+01
N   -1.6376386345675349E+00    2.8303460891116612E+00    1.5573918468717903E+01
Ga   -1.4273823995770856E+00    4.5916715097511069E+00    1.6504241374804192E+01
N   -1.6146372327276285E-02    3.7651075251466524E+00    1.7652196113871636E+01
N   -3.2331493705622685E+00    7.6121549878721035E+00    2.5194807016966720E+00
Ga   -3.2293978502787519E+00    5.6347115184885430E+00    2.8511995639152423E+00
N   -3.2319397092057467E+00    5.6295836913327184E+00    5.0118642881341708E+00
Ga   -3.2334574694480498E+00    7.4594442477889231E+00    5.7915534099113239E+00
N   -3.2304320279188006E+00    7.4722430158891804E+00    7.7893278216605593E+00
Ga   -3.2289646412383450E+00    5.6276684643319852E+00    8.4395313893556327E+00
N   -3.2267875558227561E+00    5.6254876462589642E+00    1.0412553377999220E+01
Ga   -3.2273354407660819E+00    7.4645946986535741E+00    1.1063215088292482E+01
N   -3.2253337866407801E+00    7.4450535882274558E+00    1.3057935406781150E+01
Ga   -3.2202705674649521E+00    5.6206889807333553E+00    1.3861041248437743E+01
N   -3.2227552835926594E+00    5.6203619366930795E+00    1.6064705245809741E+01
Ga   -3.2220166922733697E+00    7.6439838823062773E+00    1.6454838655332754E+01
Ga   -3.2261819286404285E+00    9.3370498128593962E+00    1.4390324086395281E+00
N   -4.7415970414389657E+00    1.0217918775454027E+01    2.5007991928193603E+00
Ga   -4.9369914594619040E+00    8.3682180155816326E+00    3.2674069166377886E+00
N   -4.8409882388769798E+00    8.4158602713263875E+00    5.2373651460483499E+00
Ga   -4.8618772152742817E+00    1.0286055845057097E+01    5.7856554804321014E+00
N   -4.8464306148761960E+00    1.0273852686608391E+01    7.7844589227471861E+00
Ga   -4.8287352126971248E+00    8.4170943656740356E+00    8.4266736141939305E+00
N   -4.8254188912575122E+00    8.4172512053197970E+00    1.0423836470960074E+01
Ga   -4.8514221869966931E+00    1.0277279163754043E+01    1.1060671887085853E+01
N   -4.8664340106647401E+00    1.0287933402657711E+01    1.3056519226915100E+01
Ga   -4.8231724589072371E+00    8.4180099957711683E+00    1.3609373350643422E+01
N   -4.8471548713269144E+00    8.4038358806044275E+00    1.5577082789368447E+01
Ga   -4.6903365430324024E+00    1.0190137312061422E+01    1.6456231853810472E+01
N   -3.2354073335511440E+00    9.3311907808086278E+00    1.7581951957631198E+01
N    3.1846099546781126E+00    1.9254625461390902E+00    2.5880716175503324E+00
Ga    3.1921690792695401E+00    1.7293687660442422E-01    3.2597526326705699E+00
N    3.1994263786914661E+00    6.3064655194735544E-02    5.2314351767514120E+00
Ga    3.1986648164893019E+00    1.9141309678335161E+00    5.8630735042436006E+00
N    3.2027940993232549E+00    1.9120584636124678E+00    7.8376722642426122E+00
Ga    3.2016559375607083E+00    4.5840526547679984E-02    8.4281999322735928E+00
N    3.2039185949749536E+00    4.2843868734101238E-02    1.0422839400398331E+01
Ga    3.2036763946772022E+00    1.9132459481272182E+00    1.1016834443560702E+01
N    3.2087785115036986E+00    1.9136065936333166E+00    1.2988240509516928E+01
Ga    3.2068097067584573E+00    4.5168784380471963E-02    1.3605748716129332E+01
N    3.2123397919357286E+00    7.1801135496853213E-02    1.5571299193113806E+01
Ga    3.2084864078665363E+00    1.9136520382142153E+00    1.5853927110772299E+01
N    1.4674688886356957E+00    4.6448045640188598E+00    2.5021932065041246E+00
Ga    1.6787540711480244E+00    2.7957530942503261E+00    3.2879532390775457E+00
N    1.5946831179787146E+00    2.8455992036970539E+00    5.2480478500606509E+00
Ga    1.6159565003625238E+00    4.7177572719862253E+00    5.7925315817526348E+00
N    1.6062261229554902E+00    4.7064723262371526E+00    7.7879688198739485E+00
Ga    1.5859965204601365E+00    2.8476682579538060E+00    8.4228153193717006E+00
N    1.5862324396483733E+00    2.8479506696193555E+00    1.0417785312091763E+01
Ga    1.6121603191003817E+00    4.7053571908961631E+00    1.1062352735705886E+01
N    1.6311527721884227E+00    4.7153181009748630E+00    1.3056372641683584E+01
Ga    1.5880722019547491E+00    2.8483293283545592E+00    1.3617117052814942E+01
N    1.6229581499159647E+00    2.8311060658245140E+00    1.5573018436846812E+01
Ga    1.4064609816389011E+00    4.5883058915355104E+00    1.6505658709944672E+01
N   -2.0993582325844241E-02    7.4973298184262562E+00    2.6167560662479787E+00
Ga   -1.8564933162416117E-02    5.7529502712453509E+00    3.2923816585093899E+00
N   -1.6113596724955478E-02    5.6381838219188589E+00    5.2536491309825362E+00
Ga   -1.6060162162657831E-02    7.4914633796984393E+00    5.8737453211544057E+00
N   -1.2223068853195448E-02    7.4871252185773844E+00    7.8478312285612750E+00
Ga   -1.1688798941029767E-02    5.6171934273748141E+00    8.4286020865132461E+00
N   -9.6557990950080861E-03    5.6131566190927327E+00    1.0422872896743716E+01
Ga   -9.0559506378925236E-03    7.4816090364204610E+00    1.1020083111999575E+01
N   -6.3917727413688530E-03    7.4849079003162995E+00    1.2991590680947079E+01
Ga   -7.0348379916980348E-03    5.6133841512419584E+00    1.3616994128791132E+01
N   -7.0042591887250092E-03    5.6518188836707530E+00    1.5570680142407978E+01
Ga   -8.9714408535468450E-03    7.4820295268632595E+00    1.5856762587998636E+01
N   -1.7334708050078624E+00    1.0218452506315508E+01    2.5147874986022494E+00
Ga   -1.5348337739974633E+00    8.3717707439112061E+00    3.2849596166920070E+00
N   -1.6238705379692620E+00    8.4182399062590179E+00    5.2504397249235435E+00
Ga   -1.6020232744676457E+00    1.0289478062812252E+01    5.7944589276765859E+00
N   -1.6127707435033660E+00    1.0275630006148234E+01    7.7917875246227259E+00
Ga   -1.6320875260982837E+00    8.4181665076016259E+00    8.4310037495100314E+00
N   -1.6301435765001799E+00    8.4167196627073686E+00    1.0425806018392695E+01
Ga   -1.6049859976607286E+00    1.0275973531431296E+01    1.1060037839662133E+01
N   -1.5856471464412041E+00    1.0287005958507878E+01    1.3054757929223818E+01
Ga   -1.6257161957385011E+00    8.4168474980943593E+00    1.3607561632983474E+01
N   -1.6006782751360840E+00    8.4080698966149523E+00    1.5572379317515304E+01
Ga   -1.7703285167683616E+00    1.0180722225010824E+01    1.6454009322575825E+01
N    6.4096277054603510E+00    2.0410402578561553E+00    2.5177773706177096E+00
Ga    6.4108031528225675E+00    5.8988939271229265E-02    2.8567190444167694E+00
N    6.4182711393198701E+00    5.8324929175962548E-02    5.0202306073372629E+00
Ga    6.4129909889511314E+00    1.8849304263046243E+00    5.7978958653130679E+00
N    6.4177919522428839E+00    1.9006970439686819E+00    7.7924051121098259E+00
Ga    6.4195626154008378E+00    5.4235765264490761E-02    8.4409843738083108E+00
N    6.4230556786523723E+00    5.3686735308106123E-02    1.0414714943001039E+01
Ga    6.4215960175615647E+00    1.8956690191142032E+00    1.1058513584428860E+01
N    6.4232972651228168E+00    1.8778064877656944E+00    1.3054503575143242E+01
Ga    6.4250726680776689E+00    5.6951510107407469E-02    1.3848195572398621E+01
N    6.4232040997944466E+00    5.6386722747354914E-02    1.6062348368235046E+01
Ga    6.4259509449746748E+00    2.0956887486600477E+00    1.6467960406860719E+01
Ga    6.4197335598990133E+00    3.7773578223263637E+00    1.4792022863500371E+00
N    4.9071300800591313E+00    4.6441792129659243E+00    2.5111559749718961E+00
Ga    4.7012913339271494E+00    2.7893104914915412E+00    3.2715164450990137E+00
N    4.8051706348678449E+00    2.8414434526516406E+00    5.2371368244419561E+00
Ga    4.7820597275942669E+00    4.7126585735845437E+00    5.7895592601960209E+00
N    4.8004922530682208E+00    4.7025355661824237E+00    7.7861496077298540E+00
Ga    4.8185342173811829E+00    2.8458193146938751E+00    8.4284809635841551E+00
N    4.8237032701303679E+00    2.8473338015434746E+00    1.0422126144666032E+01
Ga    4.7976817070591231E+00    4.7061841310774435E+00    1.1063231283571469E+01
N    4.7831341200789863E+00    4.7162096218982894E+00    1.3059015255208026E+01
Ga    4.8265859795182298E+00    2.8483715442603095E+00    1.3612360353949892E+01
N    4.8042157767613585E+00    2.8335780197144413E+00    1.5580711100487875E+01
Ga    4.9641922224760426E+00    4.6161183445954199E+00    1.6471198308395266E+01
N    6.4157302806033059E+00    3.7717885988083624E+00    1.7598349813656153E+01
N    3.1925931700721786E+00    7.6118188910726206E+00    2.5128684306380884E+00
Ga    3.1843982050947344E+00    5.6315363557934690E+00    2.8474192307778807E+00
N    3.1989340995683886E+00    5.6297555716037211E+00    5.0060094322757935E+00
Ga    3.2029537573708700E+00    7.4574276014930003E+00    5.7925748841417484E+00
N    3.2050350864991395E+00    7.4715017124910821E+00    7.7899452840917469E+00
Ga    3.2044351280249392E+00    5.6267033738901375E+00    8.4396008937555802E+00
N    3.2057202817585302E+00    5.6265510482620034E+00    1.0413135520819923E+01
Ga    3.2071057308590132E+00    7.4639764068755596E+00    1.1070185941856021E+01
N    3.2084095274882651E+00    7.4452179109954075E+00    1.3065350761008050E+01
Ga    3.2029781175424867E+00    5.6224965016935506E+00    1.3870538573142927E+01
N    3.2017967261085949E+00    5.6230177012824312E+00    1.6069574790671268E+01
Ga    3.2080344725513350E+00    7.6548234530858439E+00    1.6476923992099486E+01
Ga    3.1861356341096889E+00    9.3484064245349909E+00    1.4602720038906860E+00
N    1.6923182195301532E+00    1.0216556830888875E+01    2.5204094952461902E+00
Ga    1.4926214553306230E+00    8.3672977040750833E+00    3.2869441555725305E+00
N    1.5935784775252735E+00    8.4162036839811787E+00    5.2506832405353574E+00
Ga    1.5697909313594813E+00    1.0286070600954766E+01    5.8022288732852498E+00
N    1.5878221228873488E+00    1.0273509922150710E+01    7.7972275389711374E+00
Ga    1.6077468052198183E+00    8.4159312668870658E+00    8.4347614943018900E+00
N    1.6113468814624812E+00    8.4164190131590342E+00    1.0429414145308073E+01
Ga    1.5852518503149624E+00    1.0275149509461819E+01    1.1065171269848022E+01
N    1.5699268187962874E+00    1.0285873560807481E+01    1.3060262945881000E+01
Ga    1.6112488565619809E+00    8.4169306662870902E+00    1.3619516026720644E+01
N    1.5835617913187334E+00    8.4072238889688879E+00    1.5586244163081776E+01
Ga    1.7576572678336442E+00    1.0181630168144240E+01    1.6474511796719490E+01
N    3.2033221756948449E+00    9.3325750866391157E+00    1.7610418404449515E+01
N    9.6264554740248478E+00    1.9202437454293819E+00    2.6160251972777031E+00
Ga    9.6288963887578554E+00    1.7104262238616866E-01    3.2801454810496420E+00
N    9.6337389809600413E+00    5.8576486625441911E-02    5.2463732424864702E+00
Ga    9.6314091071621846E+00    1.9132418168927858E+00    5.8715319459500419E+00
N    9.6344198647525694E+00    1.9107958050105702E+00    7.8451190547480616E+00
Ga    9.6385997592149870E+00    4.4235202287499782E-02    8.4330472605042708E+00
N    9.6396028375666827E+00    4.1638989723617729E-02    1.0427859162596908E+01
Ga    9.6391731926924500E+00    1.9117557933263456E+00    1.1018962920518183E+01
N    9.6381744743934892E+00    1.9112904530760972E+00    1.2991986489531092E+01
Ga    9.6418092867926362E+00    4.3604068265007331E-02    1.3615935118475292E+01
N    9.6397936599259513E+00    7.3427882475265410E-02    1.5580047568596797E+01
Ga    9.6397576877085047E+00    1.9152824016659724E+00    1.5854060693208236E+01
N    7.9151087914425551E+00    4.6427433880371600E+00    2.5236466025707305E+00
Ga    8.1136509117346289E+00    2.7888747032683692E+00    3.2901264232985126E+00
N    8.0222431296699295E+00    2.8424344109472308E+00    5.2521670198134762E+00
Ga    8.0497474914013427E+00    4.7156304265929938E+00    5.7956156181734269E+00
N    8.0373545921743510E+00    4.7038632626507368E+00    7.7902772716656719E+00
Ga    8.0178845312222009E+00    2.8460157044324403E+00    8.4295641445834963E+00
N    8.0191451871998911E+00    2.8464248400931322E+00    1.0423458366558373E+01
Ga    8.0443555950896535E+00    4.7058111945504066E+00    1.1060938410338311E+01
N    8.0630312452669557E+00    4.7161513644120721E+00    1.3056034451221533E+01
Ga    8.0210627483881343E+00    2.8484040005883187E+00    1.3610713010306839E+01
N    8.0449525633862589E+00    2.8363635653710815E+00    1.5575724806590596E+01
Ga    7.8765015189376157E+00    4.6098791362221005E+00    1.6470407618575155E+01
N    6.4133765047854041E+00    7.4895829845669013E+00    2.6069941822693834E+00
Ga    6.4110187039002176E+00    5.7468827228702102E+00    3.2814147121009052E+00
N    6.4152168575062491E+00    5.6290430171898311E+00    5.2446770221687169E+00
Ga    6.4166926577513745E+00    7.4883646491836640E+00    5.8591308982063364E+00
N    6.4186449530197915E+00    7.4832118714946096E+00    7.8370721459317849E+00
Ga    6.4184778225441335E+00    5.6154216946639730E+00    8.4261179945680595E+00
N    6.4204349116363355E+00    5.6125472445536886E+00    1.0422116278674002E+01
Ga    6.4200405043129081E+00    7.4818742743379705E+00    1.1018471186518800E+01
N    6.4211356746218691E+00    7.4829397068856736E+00    1.2993241094206995E+01
Ga    6.4237645997778809E+00    5.6129549266481868E+00    1.3612047085274668E+01
N    6.4265758374423179E+00    5.6444786769960826E+00    1.5576366673974469E+01
Ga    6.4243810046881835E+00    7.4828251577750873E+00    1.5858259764827418E+01
N    4.6983144233551135E+00    1.0217299984593406E+01    2.5084415887544793E+00
Ga    4.8999295030994068E+00    8.3645907779557263E+00    3.2689215061315440E+00
N    4.8083787456244504E+00    8.4150127344388803E+00    5.2377882919806735E+00
Ga    4.8341228297946905E+00    1.0283909559555159E+01    5.7922971176275420E+00
N    4.8218236568441455E+00    1.0272697626087396E+01    7.7889259957031785E+00
Ga    4.8028780084964211E+00    8.4162745036707793E+00    8.4298817217816850E+00
N    4.8017930170514465E+00    8.4173889622457523E+00    1.0426283072354387E+01
Ga    4.8298800302661187E+00    1.0276079442276954E+01    1.1065288955752981E+01
N    4.8481432406376896E+00    1.0286930745544185E+01    1.3060813251595659E+01
Ga    4.8043793099171452E+00    8.4192889792757235E+00    1.3619569745951635E+01
N    4.8332642700616493E+00    8.4066350217389392E+00    1.5585012700983846E+01
Ga    4.6588568167032385E+00    1.0182084144539099E+01    1.6477445292039739E+01
O    1.8936073454932734E-01    3.4378692735005809E+00   -5.3745255936316161E-01
H    7.2961467021846682E-01    4.1442542044308093E+00   -9.4007345044547519E-01
C    7.7038731216839995E-01    2.1282751203978973E+00   -8.9574874700584517E-01
H    1.8460372271948979E+00    2.0989739389924900E+00   -6.4871450474681369E-01
H    2.4386499095372427E-01    1.3912711359365006E+00   -2.7738191271796619E-01
H    5.8248127490922508E-01    1.9592979461040976E+00   -1.9631464366156737E+00
     &END COORD
     &KIND C
       BASIS_SET DZVP-MOLOPT-SR-GTH-q4
       POTENTIAL GTH-PBE-q4
       &POTENTIAL
 2 2
  0.3384712400000000E+00 2 -0.8803673979999999E+01  0.1339210850000000E+01
 2
  0.3025757500000000E+00 1  0.9622486650000001E+01
  0.2915069400000000E+00 0
         # Potential name:  GTH-PBE-Q4  for symbol:  C
         # Potential read from the potential filename: GTH_POTENTIALS
       &END POTENTIAL
     &END KIND
     &KIND O
       BASIS_SET DZVP-MOLOPT-SR-GTH-q6
       POTENTIAL GTH-PBE-q6
       &POTENTIAL
 2 4
  0.2445543000000000E+00 2 -0.1666721480000000E+02  0.2487311320000000E+01
 2
  0.2209559200000000E+00 1  0.1833745811000000E+02
  0.2113324700000000E+00 0
         # Potential name:  GTH-PBE-Q6  for symbol:  O
         # Potential read from the potential filename: GTH_POTENTIALS
       &END POTENTIAL
     &END KIND
     &KIND H
       BASIS_SET DZVP-MOLOPT-SR-GTH-q1
       POTENTIAL GTH-PBE-q1
       &POTENTIAL
 1
  0.2000000000000000E+00 2 -0.4178900440000000E+01  0.7244633100000000E+00
 0
         # Potential name:  GTH-PBE-Q1  for symbol:  H
         # Potential read from the potential filename: GTH_POTENTIALS
       &END POTENTIAL
     &END KIND
     &KIND N
       BASIS_SET DZVP-MOLOPT-SR-GTH
       POTENTIAL GTH-PBE-q5
       &POTENTIAL
 2 3
  0.2837905100000000E+00 2 -0.1241522559000000E+02  0.1868095920000000E+01
 2
  0.2554050000000000E+00 1  0.1363026257000000E+02
  0.2454945300000000E+00 0
         # Potential name:  GTH-PBE-Q5  for symbol:  N
         # Potential read from the potential filename: GTH_POTENTIALS
       &END POTENTIAL
     &END KIND
     &KIND Ga
       BASIS_SET DZVP-MOLOPT-SR-GTH
       POTENTIAL GTH-PBE-q13
       &POTENTIAL
 2 1 10
  0.4900000000000000E+00 0
 3
  0.4167772300000000E+00 3  0.1047568975000000E+02 -0.4921768140000000E+01  0.8707055900000000E+00
  0.7770178090000000E+01 -0.2248152160000000E+01
  0.1784415450000000E+01
  0.5696265200000000E+00 2  0.1777985340000000E+01  0.1958597600000000E+00
 -0.2317443900000000E+00
  0.2381265000000000E+00 1 -0.1624868022000000E+02
         # Potential name:  GTH-PBE-Q13  for symbol:  GA
         # Potential read from the potential filename: GTH_POTENTIALS
       &END POTENTIAL
     &END KIND
     &TOPOLOGY
       NUMBER_OF_ATOMS  206
       MULTIPLE_UNIT_CELL  1 1 1
     &END TOPOLOGY
   &END SUBSYS
 &END FORCE_EVAL
