 # Version information for this restart file 
 # current date 2019-06-25 11:54:59.157
 # current working dir /scratch/rzk/rzk/GaN-carbene/443-adatoms-both-2x2/02-Methanol/01-O-GaTop
 # Program compiled at                              Sun Apr  7 00:48:11 EDT 2019
 # Program compiled on                          beluga2.int.ets1.calculquebec.ca
 # Program compiled for                        Beluga-Linux-x86-64-intel-openmpi
 # Source code revision number                                         svn:18619
 &GLOBAL
   PRINT_LEVEL  MEDIUM
   PROJECT_NAME TEST
   RUN_TYPE  GEO_OPT
 &END GLOBAL
 &MOTION
   &GEO_OPT
     MAX_ITER  500
     STEP_START_VAL  218
   &END GEO_OPT
 &END MOTION
 &FORCE_EVAL
   METHOD  QS
   STRESS_TENSOR  ANALYTICAL
   &DFT
     BASIS_SET_FILE_NAME BASIS_MOLOPT
     POTENTIAL_FILE_NAME GTH_POTENTIALS
     UKS  T
     SURFACE_DIPOLE_CORRECTION  T
     SURF_DIP_DIR  Z
     &SCF
       MAX_SCF  80
       EPS_SCF     5.0000000000000004E-06
       &OT  T
         PRECONDITIONER  FULL_ALL
       &END OT
       &OUTER_SCF  T
         OPTIMIZER  NONE
         EPS_SCF     5.0000000000000004E-06
         MAX_SCF  4
       &END OUTER_SCF
       &PRINT
         &RESTART  OFF
           BACKUP_COPIES  1
           &EACH
             JUST_ENERGY  0
             QS_SCF  0
             MD  20
           &END EACH
         &END RESTART
       &END PRINT
     &END SCF
     &QS
       EPS_DEFAULT     1.0000000000000000E-14
       METHOD  GPW
     &END QS
     &MGRID
       NGRIDS  5
       CUTOFF     1.2000000000000000E+03
     &END MGRID
     &XC
       DENSITY_CUTOFF     1.0000000000000000E-10
       GRADIENT_CUTOFF     1.0000000000000000E-10
       TAU_CUTOFF     1.0000000000000000E-10
       &XC_FUNCTIONAL  NO_SHORTCUT
         &PBE  T
         &END PBE
       &END XC_FUNCTIONAL
       &VDW_POTENTIAL
         POTENTIAL_TYPE  PAIR_POTENTIAL
         &PAIR_POTENTIAL
           R_CUTOFF     1.0000000000000007E+01
           TYPE  DFTD3
           PARAMETER_FILE_NAME dftd3.dat
           REFERENCE_FUNCTIONAL PBE
           EPS_CN     9.9999999999999995E-07
           CALCULATE_C9_TERM  T
           REFERENCE_C9_TERM  T
           LONG_RANGE_CORRECTION  F
           VERBOSE_OUTPUT  F
         &END PAIR_POTENTIAL
       &END VDW_POTENTIAL
     &END XC
   &END DFT
   &SUBSYS
     &CELL
       A     1.2864472766435110E+01    0.0000000000000000E+00    0.0000000000000000E+00
       B    -6.4322363581020028E+00    1.1140960178524477E+01    0.0000000000000000E+00
       C     0.0000000000000000E+00    0.0000000000000000E+00    3.2000000000000000E+01
       MULTIPLE_UNIT_CELL  1 1 1
       &CELL_REF
         A     1.2982353780853531E+01    0.0000000000000000E+00    0.0000000000000000E+00
         B    -6.4911768904267628E+00    1.1243048175136114E+01    0.0000000000000000E+00
         C     0.0000000000000000E+00    0.0000000000000000E+00    3.2000000000000000E+01
         MULTIPLE_UNIT_CELL  1 1 1
       &END CELL_REF
     &END CELL
     &COORD
N   -3.6062768663806033E-02    2.0288890493942877E+00    2.5469901347078223E+00
Ga   -3.0539914057533344E-02    5.3241763739114135E-02    2.8780554111886625E+00
N   -3.4205763317662646E-02    4.7691919826825420E-02    5.0295017785134393E+00
Ga   -3.5586529757695461E-02    1.8748672402388931E+00    5.8148975687519542E+00
N   -3.3984162712121693E-02    1.8923877361278503E+00    7.8096005491612299E+00
Ga   -3.2876251505684587E-02    4.6378689555577834E-02    8.4536393840830257E+00
N   -3.2733719437453054E-02    4.7058986916507277E-02    1.0426666006298232E+01
Ga   -3.3560237696361739E-02    1.8871963816664901E+00    1.1076600731854853E+01
N   -3.2793263316822412E-02    1.8681603616376987E+00    1.3070328699603831E+01
Ga   -3.3458105720506490E-02    4.7825589762609914E-02    1.3873925932571826E+01
N   -3.3632891606947317E-02    4.7465797401923200E-02    1.6074550105586564E+01
Ga   -3.2320910748327152E-02    2.0879298630434779E+00    1.6486404749179279E+01
Ga   -3.1782231482776084E-02    3.7319978525829707E+00    1.5228388177971381E+00
N   -1.5174875518967370E+00    4.6135573579300999E+00    2.5128210233321742E+00
Ga   -1.7376932271563978E+00    2.7711923788628097E+00    3.3129720817040713E+00
N   -1.6458588793362836E+00    2.8308407690751740E+00    5.2719956189112969E+00
Ga   -1.6646843760252499E+00    4.7040970164576095E+00    5.8114915832382676E+00
N   -1.6513554274085984E+00    4.6955401205501976E+00    7.8077279015128225E+00
Ga   -1.6326784379386794E+00    2.8386747765809370E+00    8.4471104293238568E+00
N   -1.6309446403023384E+00    2.8392162222458603E+00    1.0439830189485837E+01
Ga   -1.6563980979281610E+00    4.6985902647838014E+00    1.1076305992794914E+01
N   -1.6728722424999367E+00    4.7088611339948701E+00    1.3070023084399958E+01
Ga   -1.6296527431338370E+00    2.8401227810006802E+00    1.3626288395375260E+01
N   -1.6576946313742345E+00    2.8238485529534469E+00    1.5589008490356656E+01
Ga   -1.4807696081446502E+00    4.5985589128835249E+00    1.6486497509735543E+01
N   -3.9171384117082590E-02    3.7570823479812181E+00    1.7619631142780065E+01
N   -3.2476652608759129E+00    7.5935741934090366E+00    2.5264920687582046E+00
Ga   -3.2408298700627438E+00    5.6154483073506833E+00    2.8505649524505339E+00
N   -3.2443551452785311E+00    5.6137476668813555E+00    5.0185666993405675E+00
Ga   -3.2482632465528587E+00    7.4447294643348902E+00    5.7999933740511374E+00
N   -3.2497070177286465E+00    7.4628106509836432E+00    7.7993882171788549E+00
Ga   -3.2500033331301683E+00    5.6186735150882416E+00    8.4519489292360390E+00
N   -3.2497150360455893E+00    5.6185577735080230E+00    1.0425564098747861E+01
Ga   -3.2497836309090622E+00    7.4582083332059321E+00    1.1075334434152001E+01
N   -3.2488871517843223E+00    7.4389592425049491E+00    1.3069366258258301E+01
Ga   -3.2494246738574346E+00    5.6186115887382337E+00    1.3872812829957223E+01
N   -3.2490989426610692E+00    5.6177690418575317E+00    1.6074656302193109E+01
Ga   -3.2485099520176801E+00    7.6565905671318513E+00    1.6484122225090118E+01
Ga   -3.2460481455369834E+00    9.3238945247098357E+00    1.4490222833121182E+00
N   -4.7531678815685856E+00    1.0202172423560013E+01    2.5222106901052221E+00
Ga   -4.9483729235599299E+00    8.3495528545368369E+00    3.2833598965715147E+00
N   -4.8575992447374130E+00    8.4021712489966909E+00    5.2521340089793602E+00
Ga   -4.8802883464433648E+00    1.0273080858185830E+01    5.8039353145806434E+00
N   -4.8669087580373773E+00    1.0265518632296978E+01    7.8015221893159108E+00
Ga   -4.8470884927806850E+00    8.4084266421114080E+00    8.4417167385400091E+00
N   -4.8465606425096466E+00    8.4096234553872087E+00    1.0435909134127757E+01
Ga   -4.8721642793144539E+00    1.0267941342000739E+01    1.1076524270134072E+01
N   -4.8886912022377400E+00    1.0278866214198365E+01    1.3070312003372692E+01
Ga   -4.8457007145994000E+00    8.4102681869567988E+00    1.3626139131625528E+01
N   -4.8735243789353309E+00    8.3940509014157083E+00    1.5588849303494277E+01
Ga   -4.6992750936730818E+00    1.0170327803093461E+01    1.6484368457143308E+01
N   -3.2560252192501955E+00    9.3275685790820528E+00    1.7615209038927123E+01
N    3.1674926087211568E+00    1.9087130248909558E+00    2.6043890497947597E+00
Ga    3.1804290704207383E+00    1.5389636200629805E-01    3.2846071426782895E+00
N    3.1826014971022745E+00    5.2211428120705436E-02    5.2518014915522695E+00
Ga    3.1847455535605218E+00    1.9011526708159205E+00    5.8931168626033941E+00
N    3.1840153057609588E+00    1.9032339143643768E+00    7.8630505929569852E+00
Ga    3.1825160377207284E+00    3.4373973122859364E-02    8.4465712035590279E+00
N    3.1825158522231480E+00    3.4573107891461168E-02    1.0438765131725450E+01
Ga    3.1823846212787759E+00    1.9044979153050381E+00    1.1032617126280348E+01
N    3.1837210815535277E+00    1.9050257489893616E+00    1.3004138849816542E+01
Ga    3.1837638068808713E+00    3.5520831654759111E-02    1.3625901507780792E+01
N    3.1856298767849140E+00    6.7485738895009056E-02    1.5587328053472827E+01
Ga    3.1840366816932475E+00    1.9052884663073220E+00    1.5868325959120412E+01
N    1.4700754709965909E+00    4.6249364589386186E+00    2.5314426431642936E+00
Ga    1.6668009976008324E+00    2.7826448357627211E+00    3.3275986119878382E+00
N    1.5791298601360089E+00    2.8303269980566896E+00    5.2790173583020588E+00
Ga    1.5968692536343736E+00    4.7058067216973098E+00    5.8145134019034712E+00
N    1.5845571537417751E+00    4.6961037415889839E+00    7.8089919266932410E+00
Ga    1.5648292003150193E+00    2.8382320505909946E+00    8.4470842058180029E+00
N    1.5635770990812996E+00    2.8394948293318887E+00    1.0439382670166994E+01
Ga    1.5898024458146911E+00    4.6988391580523148E+00    1.1076075413127253E+01
N    1.6070901132194411E+00    4.7087640561285564E+00    1.3069386921432830E+01
Ga    1.5646170220916829E+00    2.8401024484602848E+00    1.3626143565877715E+01
N    1.5933473679352343E+00    2.8255926527563036E+00    1.5587711490933710E+01
Ga    1.4106295555522261E+00    4.5953003195180919E+00    1.6487403854305455E+01
N   -3.4794037565871065E-02    7.4715508614734381E+00    2.6194921744404636E+00
Ga   -2.4700015902154936E-02    5.7263161869206511E+00    3.2979983333662704E+00
N   -3.3473114405457534E-02    5.6204095039886077E+00    5.2630048118557475E+00
Ga   -3.5828593497637881E-02    7.4742856737009591E+00    5.8849042267651441E+00
N   -3.3735089926163364E-02    7.4753642193375827E+00    7.8583113489124035E+00
Ga   -3.4224693041121780E-02    5.6077564642635096E+00    8.4469671623339586E+00
N   -3.3395205827364792E-02    5.6057111878926156E+00    1.0439163109725065E+01
Ga   -3.4159081793128446E-02    7.4754425907705313E+00    1.1031970091621444E+01
N   -3.2980636535746087E-02    7.4757733055798381E+00    1.3003601994864532E+01
Ga   -3.2535780985743938E-02    5.6061860685935585E+00    1.3625924897917104E+01
N   -3.0589364329665882E-02    5.6381492801528994E+00    1.5587380941648798E+01
Ga   -3.2222994003865947E-02    7.4759689890522907E+00    1.5867926594512378E+01
N   -1.7486266560351216E+00    1.0200817401260691E+01    2.5273763117552455E+00
Ga   -1.5488681027738753E+00    8.3484229057746457E+00    3.2876962857247802E+00
N   -1.6396213139218996E+00    8.4028479536659884E+00    5.2552810314407576E+00
Ga   -1.6181390985082673E+00    1.0273884284267238E+01    5.8036131563727968E+00
N   -1.6331819945196231E+00    1.0265531666658070E+01    7.8020723781627010E+00
Ga   -1.6523552840623643E+00    8.4088117404063727E+00    8.4427421108184824E+00
N   -1.6531439274474311E+00    8.4099905031826765E+00    1.0436423391200385E+01
Ga   -1.6265296845235255E+00    1.0268632060770086E+01    1.1075311011578069E+01
N   -1.6091119446645985E+00    1.0278887947446785E+01    1.3068927798137446E+01
Ga   -1.6515528362197789E+00    8.4104921452201697E+00    1.3625869092042533E+01
N   -1.6235161053046403E+00    8.3960605317301908E+00    1.5587489844529401E+01
Ga   -1.8041987245416016E+00    1.0166425933029503E+01    1.6485047442491798E+01
N    6.3949923409569340E+00    2.0251387568730230E+00    2.5301577039833720E+00
Ga    6.3931188886568364E+00    4.5128805770418556E-02    2.8647414286852579E+00
N    6.3995500829408547E+00    4.6884161776169726E-02    5.0280998313172676E+00
Ga    6.3970404841877500E+00    1.8747710566048736E+00    5.8059243970877157E+00
N    6.3976431545212975E+00    1.8939586474035397E+00    7.8033243609913292E+00
Ga    6.3972585987845338E+00    4.7577145392157336E-02    8.4513367229912806E+00
N    6.3987591040858254E+00    4.7932907083486777E-02    1.0425291622599785E+01
Ga    6.3989148131338061E+00    1.8873765789928296E+00    1.1076497219483091E+01
N    6.3995314844601738E+00    1.8683968199883856E+00    1.3070223767900085E+01
Ga    6.3989069084634416E+00    4.7652857009785200E-02    1.3872655051830186E+01
N    6.3989705027014345E+00    4.6779229180371369E-02    1.6074881838799264E+01
Ga    6.3999576535349645E+00    2.0843840323052412E+00    1.6482848293624649E+01
Ga    6.4036898286304238E+00    3.7609031514954094E+00    1.4847984748373315E+00
N    4.8925690748734301E+00    4.6265087256445376E+00    2.5286870975007809E+00
Ga    4.6888993473954059E+00    2.7738072077273488E+00    3.2885637151102349E+00
N    4.7856953261655697E+00    2.8293765433938303E+00    5.2529776919496873E+00
Ga    4.7684570138034053E+00    4.7014654603987136E+00    5.8065568344681768E+00
N    4.7812423757852649E+00    4.6942325510762846E+00    7.8025431467311614E+00
Ga    4.8012290089049845E+00    2.8385315820008987E+00    8.4477165096068791E+00
N    4.8019374351963560E+00    2.8396952934560065E+00    1.0439590181186192E+01
Ga    4.7769811124516321E+00    4.6988535459084000E+00    1.1076721759396289E+01
N    4.7600747191172106E+00    4.7087426974625126E+00    1.3070422127368808E+01
Ga    4.8027640726121366E+00    2.8400533939019392E+00    1.3626157063900727E+01
N    4.7761914104246515E+00    2.8246756528960719E+00    1.5589913721075678E+01
Ga    4.9475599389462372E+00    4.6009648277042530E+00    1.6482935063091936E+01
N    6.3924858247455481E+00    3.7574550786971872E+00    1.7616349687493024E+01
N    3.1817633197497961E+00    7.5964145568655717E+00    2.5391681473137933E+00
Ga    3.1742520021332563E+00    5.6139052494944357E+00    2.8915418964836497E+00
N    3.1833099237481095E+00    5.6182751407901943E+00    5.0318328554783420E+00
Ga    3.1834777807723773E+00    7.4482362848270611E+00    5.8100870924612202E+00
N    3.1829137586360918E+00    7.4638425500932168E+00    7.8051034423932535E+00
Ga    3.1835453134483003E+00    5.6181596061477999E+00    8.4536598931785765E+00
N    3.1838592402423851E+00    5.6183125884925031E+00    1.0426514304529311E+01
Ga    3.1830208826775990E+00    7.4582182211037686E+00    1.1076251748360484E+01
N    3.1834091372390705E+00    7.4391510521581656E+00    1.3069936473367143E+01
Ga    3.1827049265318683E+00    5.6187456118921766E+00    1.3873182306532023E+01
N    3.1820970192709499E+00    5.6181080823440643E+00    1.6074845051536943E+01
Ga    3.1838244533609106E+00    7.6576777350148362E+00    1.6485873096036112E+01
Ga    3.1811846857788493E+00    9.3306932360845725E+00    1.5097115194283808E+00
N    1.6800232663227870E+00    1.0198370054663984E+01    2.5350302043787454E+00
Ga    1.4712998255709253E+00    8.3454000268979307E+00    3.2999545185431209E+00
N    1.5731907182065132E+00    8.4021846220378205E+00    5.2620007593103759E+00
Ga    1.5485526820321680E+00    1.0274292167595906E+01    5.8098880245633433E+00
N    1.5646651844522159E+00    1.0265473654279353E+01    7.8059745283139765E+00
Ga    1.5836773251233507E+00    8.4089650402900489E+00    8.4458603287188261E+00
N    1.5856898319169452E+00    8.4096333631673126E+00    1.0438391565590834E+01
Ga    1.5597812327477287E+00    1.0268714311114941E+01    1.1076076997872899E+01
N    1.5433721802514093E+00    1.0279093847659853E+01    1.3069892664393503E+01
Ga    1.5862863294837546E+00    8.4104732793757524E+00    1.3626325158551206E+01
N    1.5596176506130557E+00    8.3946587594072373E+00    1.5589299533458602E+01
Ga    1.7349592914121437E+00    1.0169076679286546E+01    1.6486105738343074E+01
N    3.1770765190665426E+00    9.3271816345578014E+00    1.7621082652384199E+01
N    9.6168389860387098E+00    1.9054150058538588E+00    2.6217456124073921E+00
Ga    9.6133651871629535E+00    1.6288750595670493E-01    3.3002476245720986E+00
N    9.6144962988394340E+00    4.8504226083403656E-02    5.2625580862119197E+00
Ga    9.6126679331467972E+00    1.9041063514687422E+00    5.8903985180857354E+00
N    9.6134080080770978E+00    1.9035726994736335E+00    7.8617227193005013E+00
Ga    9.6142131999753637E+00    3.5446485068443757E-02    8.4471083866193801E+00
N    9.6150628106594027E+00    3.4800044065559768E-02    1.0439136757917129E+01
Ga    9.6140899676540119E+00    1.9047422905105413E+00    1.1032550081121673E+01
N    9.6149583103480047E+00    1.9050703410348824E+00    1.3004496079019248E+01
Ga    9.6157244763208709E+00    3.5422233109729348E-02    1.3626034849061618E+01
N    9.6173402490760083E+00    6.6639352687165976E-02    1.5587763285868997E+01
Ga    9.6158538206649542E+00    1.9050443411793365E+00    1.5866729320226368E+01
N    7.9028931113092442E+00    4.6264219873345178E+00    2.5302643073683568E+00
Ga    8.1030256297690837E+00    2.7747349584696228E+00    3.2949907098151456E+00
N    8.0068698331176940E+00    2.8302758668230292E+00    5.2589565138662193E+00
Ga    8.0343813804429853E+00    4.7032194043244528E+00    5.8028881627946012E+00
N    8.0171729267881613E+00    4.6950978853014700E+00    7.8009899867497934E+00
Ga    7.9957895029556099E+00    2.8388719397991982E+00    8.4449340685391157E+00
N    7.9951623308794231E+00    2.8398408397022115E+00    1.0437853373821445E+01
Ga    8.0215927905638384E+00    4.6989297306529592E+00    1.1075313786039167E+01
N    8.0389138891317469E+00    4.7085078599549046E+00    1.3068902829828268E+01
Ga    7.9965552714392869E+00    2.8402354121460216E+00    1.3625913391943623E+01
N    8.0238296790543089E+00    2.8261478045776633E+00    1.5588604959155468E+01
Ga    7.8461886673217753E+00    4.5972686809837375E+00    1.6483467591476895E+01
N    6.4007017325350528E+00    7.4746897497474940E+00    2.6155855671319803E+00
Ga    6.4003883715387344E+00    5.7303477860217615E+00    3.2906256011219766E+00
N    6.3997993152355228E+00    5.6182487986573850E+00    5.2555273154626487E+00
Ga    6.4019323347700290E+00    7.4746772332556644E+00    5.8802337805013147E+00
N    6.3992153114775983E+00    7.4745868187755606E+00    7.8542343730125630E+00
Ga    6.3995304506276156E+00    5.6066958284605990E+00    8.4421374294092519E+00
N    6.3990251817615285E+00    5.6054785801416305E+00    1.0435714040662901E+01
Ga    6.3989801319307205E+00    7.4748575781196962E+00    1.1031024027415430E+01
N    6.3996158816187192E+00    7.4751705312870182E+00    1.3003260463951426E+01
Ga    6.3999713817083128E+00    5.6061282360485496E+00    1.3625875229518563E+01
N    6.4014295994615011E+00    5.6369577706225105E+00    1.5588307949318073E+01
Ga    6.3997777226485457E+00    7.4758584690716869E+00    1.5867400735014437E+01
N    4.6841506375770736E+00    1.0199425337639735E+01    2.5357523598774576E+00
Ga    4.8933182429060054E+00    8.3450404574403407E+00    3.2970673798820265E+00
N    4.7930467688162413E+00    8.4021882496874802E+00    5.2596468947815982E+00
Ga    4.8153535313465188E+00    1.0273655365525702E+01    5.8096743660794248E+00
N    4.8001753743110402E+00    1.0265372635867379E+01    7.8052867255501379E+00
Ga    4.7820004644881653E+00    8.4083744716121238E+00    8.4446056845795923E+00
N    4.7800404849948963E+00    8.4097230365079731E+00    1.0437246323338750E+01
Ga    4.8059422880269915E+00    1.0268644179807737E+01    1.1076126704038865E+01
N    4.8229171622330833E+00    1.0278839151864906E+01    1.3069353425751229E+01
Ga    4.7809197963639107E+00    8.4104013723598054E+00    1.3625969549899983E+01
N    4.8083705886572625E+00    8.3959534575295027E+00    1.5587879376970358E+01
Ga    4.6274655660578610E+00    1.0166054247490997E+01    1.6486577373773262E+01
O    1.0550396059943583E+00    3.4663008557449073E+00   -2.6430035059500007E-01
H    1.8148096312624704E+00    4.0135189537152591E+00    3.5024178864112653E-02
C    1.5608661901188430E+00    2.0840308278723580E+00   -4.5228717593650725E-01
H    2.2123613489653011E+00    1.8095789288912538E+00    3.9433164758579919E-01
H    6.7946854326932582E-01    1.4364171173242068E+00   -4.8198628584388786E-01
H    2.0927635129134052E+00    2.0543837084673369E+00   -1.4098145653466467E+00
     &END COORD
     &KIND C
       BASIS_SET DZVP-MOLOPT-SR-GTH-q4
       POTENTIAL GTH-PBE-q4
       &POTENTIAL
2 2
0.3384712400000000E+00 2 -0.8803673979999999E+01  0.1339210850000000E+01
2
0.3025757500000000E+00 1  0.9622486650000001E+01
0.2915069400000000E+00 0
       &END POTENTIAL
     &END KIND
     &KIND O
       BASIS_SET DZVP-MOLOPT-SR-GTH-q6
       POTENTIAL GTH-PBE-q6
       &POTENTIAL
2 4
0.2445543000000000E+00 2 -0.1666721480000000E+02  0.2487311320000000E+01
2
0.2209559200000000E+00 1  0.1833745811000000E+02
0.2113324700000000E+00 0
       &END POTENTIAL
     &END KIND
     &KIND H
       BASIS_SET DZVP-MOLOPT-SR-GTH-q1
       POTENTIAL GTH-PBE-q1
       &POTENTIAL
1
0.2000000000000000E+00 2 -0.4178900440000000E+01  0.7244633100000000E+00
0
       &END POTENTIAL
     &END KIND
     &KIND N
       BASIS_SET DZVP-MOLOPT-SR-GTH
       POTENTIAL GTH-PBE-q5
       &POTENTIAL
2 3
0.2837905100000000E+00 2 -0.1241522559000000E+02  0.1868095920000000E+01
2
0.2554050000000000E+00 1  0.1363026257000000E+02
0.2454945300000000E+00 0
       &END POTENTIAL
     &END KIND
     &KIND Ga
       BASIS_SET DZVP-MOLOPT-SR-GTH
       POTENTIAL GTH-PBE-q13
       &POTENTIAL
2 1 10
0.4900000000000000E+00 0
3
0.4167772300000000E+00 3  0.1047568975000000E+02 -0.4921768140000000E+01  0.8707055900000000E+00
0.7770178090000000E+01 -0.2248152160000000E+01
0.1784415450000000E+01
0.5696265200000000E+00 2  0.1777985340000000E+01  0.1958597600000000E+00
-0.2317443900000000E+00
0.2381265000000000E+00 1 -0.1624868022000000E+02
       &END POTENTIAL
     &END KIND
     &TOPOLOGY
       NUMBER_OF_ATOMS  206
       MULTIPLE_UNIT_CELL  1 1 1
     &END TOPOLOGY
   &END SUBSYS
 &END FORCE_EVAL
