 # Version information for this restart file 
 # current date 2019-06-25 11:56:55.339
 # current working dir /scratch/rzk/rzk/GaN-carbene/443-adatoms-both-2x2/02-Methanol/01-O-GaTop
 # Program compiled at                              Sun Apr  7 00:48:11 EDT 2019
 # Program compiled on                          beluga2.int.ets1.calculquebec.ca
 # Program compiled for                        Beluga-Linux-x86-64-intel-openmpi
 # Source code revision number                                         svn:18619
 &GLOBAL
   PRINT_LEVEL  MEDIUM
   PROJECT_NAME TEST
   RUN_TYPE  GEO_OPT
 &END GLOBAL
 &MOTION
   &GEO_OPT
     MAX_ITER  500
     STEP_START_VAL  219
   &END GEO_OPT
 &END MOTION
 &FORCE_EVAL
   METHOD  QS
   STRESS_TENSOR  ANALYTICAL
   &DFT
     BASIS_SET_FILE_NAME BASIS_MOLOPT
     POTENTIAL_FILE_NAME GTH_POTENTIALS
     UKS  T
     SURFACE_DIPOLE_CORRECTION  T
     SURF_DIP_DIR  Z
     &SCF
       MAX_SCF  80
       EPS_SCF     5.0000000000000004E-06
       &OT  T
         PRECONDITIONER  FULL_ALL
       &END OT
       &OUTER_SCF  T
         OPTIMIZER  NONE
         EPS_SCF     5.0000000000000004E-06
         MAX_SCF  4
       &END OUTER_SCF
       &PRINT
         &RESTART  OFF
           BACKUP_COPIES  1
           &EACH
             JUST_ENERGY  0
             QS_SCF  0
             MD  20
           &END EACH
         &END RESTART
       &END PRINT
     &END SCF
     &QS
       EPS_DEFAULT     1.0000000000000000E-14
       METHOD  GPW
     &END QS
     &MGRID
       NGRIDS  5
       CUTOFF     1.2000000000000000E+03
     &END MGRID
     &XC
       DENSITY_CUTOFF     1.0000000000000000E-10
       GRADIENT_CUTOFF     1.0000000000000000E-10
       TAU_CUTOFF     1.0000000000000000E-10
       &XC_FUNCTIONAL  NO_SHORTCUT
         &PBE  T
         &END PBE
       &END XC_FUNCTIONAL
       &VDW_POTENTIAL
         POTENTIAL_TYPE  PAIR_POTENTIAL
         &PAIR_POTENTIAL
           R_CUTOFF     1.0000000000000007E+01
           TYPE  DFTD3
           PARAMETER_FILE_NAME dftd3.dat
           REFERENCE_FUNCTIONAL PBE
           EPS_CN     9.9999999999999995E-07
           CALCULATE_C9_TERM  T
           REFERENCE_C9_TERM  T
           LONG_RANGE_CORRECTION  F
           VERBOSE_OUTPUT  F
         &END PAIR_POTENTIAL
       &END VDW_POTENTIAL
     &END XC
   &END DFT
   &SUBSYS
     &CELL
       A     1.2864472766435110E+01    0.0000000000000000E+00    0.0000000000000000E+00
       B    -6.4322363581020028E+00    1.1140960178524477E+01    0.0000000000000000E+00
       C     0.0000000000000000E+00    0.0000000000000000E+00    3.2000000000000000E+01
       MULTIPLE_UNIT_CELL  1 1 1
       &CELL_REF
         A     1.2982353780853531E+01    0.0000000000000000E+00    0.0000000000000000E+00
         B    -6.4911768904267628E+00    1.1243048175136114E+01    0.0000000000000000E+00
         C     0.0000000000000000E+00    0.0000000000000000E+00    3.2000000000000000E+01
         MULTIPLE_UNIT_CELL  1 1 1
       &END CELL_REF
     &END CELL
     &COORD
N   -3.6279883773859135E-02    2.0291505992826488E+00    2.5469964224372785E+00
Ga   -3.0627525248642734E-02    5.3108121896302943E-02    2.8781321398967692E+00
N   -3.4355032427495380E-02    4.7619240456070563E-02    5.0296151524941717E+00
Ga   -3.5657736806619683E-02    1.8745617628245328E+00    5.8152014524855575E+00
N   -3.4041951789834914E-02    1.8924780651020385E+00    7.8096500900209529E+00
Ga   -3.2901103660122145E-02    4.6463335442973250E-02    8.4531590666634546E+00
N   -3.2782029807747387E-02    4.7038497570769201E-02    1.0426310485979061E+01
Ga   -3.3690611661670984E-02    1.8872570508235753E+00    1.1076374540181094E+01
N   -3.2810114925227507E-02    1.8683750247104434E+00    1.3070025932975918E+01
Ga   -3.3763163826847770E-02    4.7895755010914476E-02    1.3873872128007404E+01
N   -3.4176685541475113E-02    4.7229195007768711E-02    1.6074274958081396E+01
Ga   -3.2428309523662109E-02    2.0892308018046579E+00    1.6486251259749896E+01
Ga   -3.1868265594760317E-02    3.7320716048164413E+00    1.5215362079632793E+00
N   -1.5172312035897551E+00    4.6132515436970936E+00    2.5130807560350328E+00
Ga   -1.7380294295005263E+00    2.7710572194948528E+00    3.3132686643026639E+00
N   -1.6457278938483060E+00    2.8309435757904207E+00    5.2724291641308998E+00
Ga   -1.6649501962778279E+00    4.7042945401729099E+00    5.8119609282983680E+00
N   -1.6513415474381279E+00    4.6954812486289379E+00    7.8079360208505149E+00
Ga   -1.6327504200635190E+00    2.8386927821894998E+00    8.4470212806137113E+00
N   -1.6309561505915215E+00    2.8392939488032973E+00    1.0439623149367774E+01
Ga   -1.6565777951920460E+00    4.6985117964349579E+00    1.1076481800486505E+01
N   -1.6725884870277006E+00    4.7088076364754903E+00    1.3069782513661911E+01
Ga   -1.6300472873258218E+00    2.8403124541919316E+00    1.3626309365202228E+01
N   -1.6589436641736790E+00    2.8233933539468632E+00    1.5588429602737492E+01
Ga   -1.4800750579090045E+00    4.5978692862399431E+00    1.6486256763842494E+01
N   -3.9076364552725625E-02    3.7576587796078638E+00    1.7619325907991453E+01
N   -3.2477216238549476E+00    7.5939112361950638E+00    2.5267706971746984E+00
Ga   -3.2407235868699709E+00    5.6158007002096726E+00    2.8506561068615430E+00
N   -3.2444109535316912E+00    5.6136709890503607E+00    5.0189770526020592E+00
Ga   -3.2483434578722963E+00    7.4444481789304824E+00    5.8002752529812538E+00
N   -3.2497643720629963E+00    7.4627314029917580E+00    7.7994174549928550E+00
Ga   -3.2501965174743899E+00    5.6185151227823082E+00    8.4515412622073729E+00
N   -3.2496549977323728E+00    5.6185486694510072E+00    1.0425263120234476E+01
Ga   -3.2498006815983658E+00    7.4581601448372421E+00    1.1075491422582184E+01
N   -3.2488502905378720E+00    7.4386662146909988E+00    1.3069301675117613E+01
Ga   -3.2487867894938680E+00    5.6184950273044398E+00    1.3872528384278125E+01
N   -3.2493117615865579E+00    5.6181189974036867E+00    1.6073763047454914E+01
Ga   -3.2478938489881415E+00    7.6572662966362923E+00    1.6483644320012438E+01
Ga   -3.2459870832126345E+00    9.3238452498968005E+00    1.4474797818592777E+00
N   -4.7531066790796750E+00    1.0202071636734640E+01    2.5225466238975862E+00
Ga   -4.9484468822812877E+00    8.3494056756873363E+00    3.2832910037152123E+00
N   -4.8574802227427316E+00    8.4022276881062190E+00    5.2522509019233130E+00
Ga   -4.8805699705644514E+00    1.0273074226669589E+01    5.8040831648401774E+00
N   -4.8669734333404726E+00    1.0265466509137363E+01    7.8014989286000986E+00
Ga   -4.8471235196660407E+00    8.4082812524363870E+00    8.4415230797401133E+00
N   -4.8464886072349334E+00    8.4095899016019491E+00    1.0435565066616093E+01
Ga   -4.8719918962176356E+00    1.0267899305564658E+01    1.1076327936558412E+01
N   -4.8889715929013144E+00    1.0279141502073790E+01    1.3069827439322360E+01
Ga   -4.8452245525020583E+00    8.4104677401155907E+00    1.3625807767613693E+01
N   -4.8738567322247182E+00    8.3930359155531189E+00    1.5588756902369223E+01
Ga   -4.6986606160000459E+00    1.0169759180934832E+01    1.6484009452927499E+01
N   -3.2559292309302363E+00    9.3278159734382875E+00    1.7615396658220444E+01
N    3.1673898807385399E+00    1.9087488227821077E+00    2.6039072055024377E+00
Ga    3.1803927919901143E+00    1.5394546603568804E-01    3.2846181600778706E+00
N    3.1825428918432803E+00    5.1907101757362829E-02    5.2520495906223035E+00
Ga    3.1847433941190482E+00    1.9010736288942671E+00    5.8932863396367221E+00
N    3.1840030411845639E+00    1.9033079022430524E+00    7.8630726727750995E+00
Ga    3.1825141703011641E+00    3.4428527077871807E-02    8.4463095582552299E+00
N    3.1825297872806670E+00    3.4497483624558067E-02    1.0438266213523105E+01
Ga    3.1825019445093345E+00    1.9043794950871615E+00    1.1032301153011852E+01
N    3.1838296378615936E+00    1.9049280440183949E+00    1.3003686731487374E+01
Ga    3.1837386302420980E+00    3.5321001203986291E-02    1.3625748668433317E+01
N    3.1863025419466418E+00    6.7742565729612694E-02    1.5587476275699037E+01
Ga    3.1844489793274184E+00    1.9056809242575266E+00    1.5867841495026545E+01
N    1.4697135644243096E+00    4.6248509157982847E+00    2.5314098285059488E+00
Ga    1.6668041410428165E+00    2.7826513263058592E+00    3.3276114974259823E+00
N    1.5788745367635988E+00    2.8304810102041076E+00    5.2793304428120882E+00
Ga    1.5970001033400727E+00    4.7060518289360145E+00    5.8149071858493828E+00
N    1.5845095690000066E+00    4.6960701700457141E+00    7.8090489876559568E+00
Ga    1.5648309529222719E+00    2.8382869057166986E+00    8.4468587124317427E+00
N    1.5634938991442811E+00    2.8395197478594434E+00    1.0439214331052840E+01
Ga    1.5898274275018054E+00    4.6988603824302517E+00    1.1076129155660732E+01
N    1.6067199504306509E+00    4.7086329554563227E+00    1.3069147118034989E+01
Ga    1.5648513396755623E+00    2.8401612420865936E+00    1.3626113829003826E+01
N    1.5939628000607067E+00    2.8252353395047400E+00    1.5587042379862112E+01
Ga    1.4096701786613139E+00    4.5947725804415889E+00    1.6487198539622135E+01
N   -3.4914761085862459E-02    7.4714813193520282E+00    2.6193807665638711E+00
Ga   -2.4755036723834313E-02    5.7266239531036209E+00    3.2980498167006713E+00
N   -3.3525403680126083E-02    5.6201987194445984E+00    5.2632414088269686E+00
Ga   -3.5915017747234566E-02    7.4743096310557871E+00    5.8848148506785254E+00
N   -3.3779639748590280E-02    7.4752802502866782E+00    7.8580604887036154E+00
Ga   -3.4215699770737927E-02    5.6076640878875796E+00    8.4467185574653225E+00
N   -3.3519146685390071E-02    5.6056419037946927E+00    1.0439007983758570E+01
Ga   -3.4278394415889035E-02    7.4754749528360582E+00    1.1031880451264742E+01
N   -3.2932952225300280E-02    7.4758949867087257E+00    1.3003006706780726E+01
Ga   -3.2706374922169962E-02    5.6065302744639283E+00    1.3625864826461198E+01
N   -3.1037880546975236E-02    5.6387771829480249E+00    1.5586827774058184E+01
Ga   -3.2013787309150388E-02    7.4762515530570548E+00    1.5866824591588573E+01
N   -1.7488603668691323E+00    1.0200659897214560E+01    2.5277533036239914E+00
Ga   -1.5488094145255269E+00    8.3482269301785532E+00    3.2875778477452697E+00
N   -1.6398799256930150E+00    8.4028592644996891E+00    5.2553759596771581E+00
Ga   -1.6178796576612953E+00    1.0273904317091478E+01    5.8037796914299049E+00
N   -1.6331473567615540E+00    1.0265537598159977E+01    7.8020833273023955E+00
Ga   -1.6524313380452447E+00    8.4087352480680337E+00    8.4424285755379813E+00
N   -1.6531945413978404E+00    8.4099353346124612E+00    1.0435991385598275E+01
Ga   -1.6267416759164988E+00    1.0268558925651654E+01    1.1075481894832174E+01
N   -1.6091039024599785E+00    1.0278922567942832E+01    1.3068834946607803E+01
Ga   -1.6515993866154355E+00    8.4103626888419107E+00    1.3625518181567575E+01
N   -1.6231405965643184E+00    8.3958266354992102E+00    1.5586890585037873E+01
Ga   -1.8043792859317536E+00    1.0165413804315184E+01    1.6484926264356460E+01
N    6.3949247152275523E+00    2.0249825665432608E+00    2.5303921146336843E+00
Ga    6.3930878018834951E+00    4.4617122460083716E-02    2.8649115309855104E+00
N    6.3996633207827491E+00    4.6841588800945598E-02    5.0281603473763727E+00
Ga    6.3969963539504251E+00    1.8744858830089992E+00    5.8063961409835363E+00
N    6.3976398136687544E+00    1.8940442884840603E+00    7.8034663304447687E+00
Ga    6.3971951206254039E+00    4.7831593434636055E-02    8.4508849994352815E+00
N    6.3987474960441935E+00    4.7810265870864947E-02    1.0425035687182305E+01
Ga    6.3988650564235199E+00    1.8875178001745736E+00    1.1076214864430989E+01
N    6.3992219989398311E+00    1.8682211914772218E+00    1.3070234863798847E+01
Ga    6.3991931407760809E+00    4.7017395125334073E-02    1.3871999539453649E+01
N    6.3989645449371322E+00    4.6541921616294016E-02    1.6074383579259312E+01
Ga    6.4007054592700019E+00    2.0828851752824216E+00    1.6481517318171342E+01
Ga    6.4036110283781555E+00    3.7608420687753634E+00    1.4829326539471446E+00
N    4.8923449231968821E+00    4.6265715998175487E+00    2.5288903790014907E+00
Ga    4.6888118604787064E+00    2.7737524696977585E+00    3.2884718017504482E+00
N    4.7857976503884805E+00    2.8294706305062141E+00    5.2531978463342766E+00
Ga    4.7682562616843844E+00    4.7015970020988513E+00    5.8070541457843863E+00
N    4.7812397461808382E+00    4.6942067601179698E+00    7.8026795783925627E+00
Ga    4.8013334295782188E+00    2.8386297883751768E+00    8.4474378034406374E+00
N    4.8019423654908566E+00    2.8396520322912568E+00    1.0439233818923087E+01
Ga    4.7768941651386525E+00    4.6986832559044283E+00    1.1076362376213625E+01
N    4.7595416735469760E+00    4.7086883647108779E+00    1.3070198331806859E+01
Ga    4.8025540888277334E+00    2.8401318222115184E+00    1.3626238997575634E+01
N    4.7774875302470736E+00    2.8245845390313278E+00    1.5590196991851611E+01
Ga    4.9458194848306221E+00    4.6016511558838422E+00    1.6481774067566562E+01
N    6.3921538335164581E+00    3.7577816611185484E+00    1.7616997754371248E+01
N    3.1816705820946645E+00    7.5970168132143021E+00    2.5396403101605616E+00
Ga    3.1737769898092218E+00    5.6141434717888421E+00    2.8917983213202052E+00
N    3.1832769658536311E+00    5.6183210571592630E+00    5.0320306808200703E+00
Ga    3.1833045911357081E+00    7.4480562137148416E+00    5.8101890330793378E+00
N    3.1828829416582360E+00    7.4638048960441230E+00    7.8050228589648905E+00
Ga    3.1835985261664010E+00    5.6179642623884414E+00    8.4531478568966847E+00
N    3.1837562324646069E+00    5.6183497151450190E+00    1.0426084425995469E+01
Ga    3.1828466656307333E+00    7.4580657694163612E+00    1.1076245221619326E+01
N    3.1830425423714606E+00    7.4390931050441145E+00    1.3069520876759766E+01
Ga    3.1819520613715122E+00    5.6190106569218861E+00    1.3872654052811681E+01
N    3.1818616925707448E+00    5.6186673891620167E+00    1.6074365141307844E+01
Ga    3.1838187344528537E+00    7.6579997730002658E+00    1.6485945623504250E+01
Ga    3.1810006239045170E+00    9.3306716469462447E+00    1.5115943605615538E+00
N    1.6805344461738423E+00    1.0198016490077000E+01    2.5355979531052766E+00
Ga    1.4705466080574274E+00    8.3450146280698565E+00    3.3003565520938247E+00
N    1.5733057827471697E+00    8.4022103908512644E+00    5.2621224104206181E+00
Ga    1.5482957318973396E+00    1.0274215637257306E+01    5.8099404562488637E+00
N    1.5647008810917895E+00    1.0265434128116771E+01    7.8059784643391241E+00
Ga    1.5835707648270498E+00    8.4087825241108565E+00    8.4456643317495761E+00
N    1.5856883093133567E+00    8.4096635724995839E+00    1.0438142339054771E+01
Ga    1.5597800906462322E+00    1.0268689699614125E+01    1.1076153934532728E+01
N    1.5433464988736634E+00    1.0278797350738223E+01    1.3069416894888702E+01
Ga    1.5861433207758260E+00    8.4104517600943574E+00    1.3626323605523092E+01
N    1.5598319017488571E+00    8.3951881207710919E+00    1.5589085539432240E+01
Ga    1.7351837012546796E+00    1.0168937933457453E+01    1.6486364806534173E+01
N    3.1767081876750876E+00    9.3272011082589135E+00    1.7622717460772343E+01
N    9.6167102278375332E+00    1.9055023847138812E+00    2.6212803869763182E+00
Ga    9.6133024977788839E+00    1.6349301010938436E-01    3.3007589793004004E+00
N    9.6144412981550129E+00    4.8313499649489652E-02    5.2628897188774095E+00
Ga    9.6125953252657172E+00    1.9041661284729186E+00    5.8905642221431220E+00
N    9.6133192642163312E+00    1.9036128073963974E+00    7.8617516419993958E+00
Ga    9.6141521798456377E+00    3.5627952852747224E-02    8.4470903536385045E+00
N    9.6149770598748514E+00    3.4707049118401889E-02    1.0438943454202322E+01
Ga    9.6140629096656678E+00    1.9048102551014583E+00    1.1032317450697837E+01
N    9.6147875252152026E+00    1.9047820898989141E+00    1.3004104280659647E+01
Ga    9.6153758414263564E+00    3.5068232803134661E-02    1.3625946610012255E+01
N    9.6169825012905559E+00    6.6462173148796960E-02    1.5587389303309736E+01
Ga    9.6150743848182554E+00    1.9048561127518111E+00    1.5866890820030331E+01
N    7.9028108069052783E+00    4.6263977839166159E+00    2.5303779834909648E+00
Ga    8.1029603517379485E+00    2.7748311463665494E+00    3.2948437299963040E+00
N    8.0067115993938689E+00    2.8303616082151328E+00    5.2591515490446934E+00
Ga    8.0344838871240523E+00    4.7033946946939995E+00    5.8034422111078472E+00
N    8.0170309702404641E+00    4.6949865710898715E+00    7.8011833606824501E+00
Ga    7.9956066764714446E+00    2.8389534499004689E+00    8.4447704564761779E+00
N    7.9951641636620252E+00    2.8398118191286357E+00    1.0437603259139726E+01
Ga    8.0216668357479399E+00    4.6988174577180990E+00    1.1075205030394157E+01
N    8.0390722211887002E+00    4.7085888071613438E+00    1.3069000342025925E+01
Ga    7.9964924435073037E+00    2.8402166981483128E+00    1.3625427682725741E+01
N    8.0232529261272134E+00    2.8263374469885658E+00    1.5587747075076408E+01
Ga    7.8483681645959757E+00    4.5973912869387696E+00    1.6482170587109014E+01
N    6.4007074649253486E+00    7.4745696098138801E+00    2.6153609412869612E+00
Ga    6.4004395296281009E+00    5.7303226822460207E+00    3.2904412283922064E+00
N    6.3997189435277919E+00    5.6181114290082865E+00    5.2556434634099940E+00
Ga    6.4020320266512076E+00    7.4746182342652894E+00    5.8802649461293912E+00
N    6.3991835559989783E+00    7.4744615695260634E+00    7.8540956604429777E+00
Ga    6.3994922954552118E+00    5.6064874120512265E+00    8.4418747208588094E+00
N    6.3990371926612406E+00    5.6054246264970287E+00    1.0435543272744209E+01
Ga    6.3991616884040612E+00    7.4748087589711432E+00    1.1030743737175628E+01
N    6.3994030918490887E+00    7.4750949604284562E+00    1.3003290230253755E+01
Ga    6.3997600725734536E+00    5.6054681787890699E+00    1.3625463083637399E+01
N    6.4019666143082139E+00    5.6357996318864592E+00    1.5588347914883595E+01
Ga    6.3990594224381052E+00    7.4754485969913773E+00    1.5866740817610568E+01
N    4.6835476238548122E+00    1.0199102137963365E+01    2.5361758167201049E+00
Ga    4.8938384482887543E+00    8.3446937118723952E+00    3.2975198908128047E+00
N    4.7928327233311014E+00    8.4021572955211106E+00    5.2599239365051531E+00
Ga    4.8154596178709212E+00    1.0273638365424860E+01    5.8096555733205246E+00
N    4.8000134461155879E+00    1.0265316732094231E+01    7.8051789042671578E+00
Ga    4.7820696659533848E+00    8.4081772568213964E+00    8.4443783389344187E+00
N    4.7799097302346265E+00    8.4097267144861760E+00    1.0437116742487131E+01
Ga    4.8058509516330448E+00    1.0268762557885674E+01    1.1076053577029617E+01
N    4.8227879266276652E+00    1.0278929454424325E+01    1.3068922549494372E+01
Ga    4.7800575381521790E+00    8.4105984441263093E+00    1.3625620210668966E+01
N    4.8080638232291619E+00    8.3959044862638219E+00    1.5587150760810356E+01
Ga    4.6272467416207181E+00    1.0165784723329310E+01    1.6486681476228387E+01
O    1.0552920958480441E+00    3.4667536361159770E+00   -2.6544076571583464E-01
H    1.8148432071380869E+00    4.0137888158186961E+00    3.4841895380986025E-02
C    1.5613385560634332E+00    2.0843419913972117E+00   -4.5168618705537095E-01
H    2.2131400259448517E+00    1.8091071275631136E+00    3.9440059946627704E-01
H    6.7983247277005976E-01    1.4367943883765153E+00   -4.8287159948149833E-01
H    2.0924745922943733E+00    2.0551099874432328E+00   -1.4097640763782806E+00
     &END COORD
     &KIND C
       BASIS_SET DZVP-MOLOPT-SR-GTH-q4
       POTENTIAL GTH-PBE-q4
       &POTENTIAL
2 2
0.3384712400000000E+00 2 -0.8803673979999999E+01  0.1339210850000000E+01
2
0.3025757500000000E+00 1  0.9622486650000001E+01
0.2915069400000000E+00 0
       &END POTENTIAL
     &END KIND
     &KIND O
       BASIS_SET DZVP-MOLOPT-SR-GTH-q6
       POTENTIAL GTH-PBE-q6
       &POTENTIAL
2 4
0.2445543000000000E+00 2 -0.1666721480000000E+02  0.2487311320000000E+01
2
0.2209559200000000E+00 1  0.1833745811000000E+02
0.2113324700000000E+00 0
       &END POTENTIAL
     &END KIND
     &KIND H
       BASIS_SET DZVP-MOLOPT-SR-GTH-q1
       POTENTIAL GTH-PBE-q1
       &POTENTIAL
1
0.2000000000000000E+00 2 -0.4178900440000000E+01  0.7244633100000000E+00
0
       &END POTENTIAL
     &END KIND
     &KIND N
       BASIS_SET DZVP-MOLOPT-SR-GTH
       POTENTIAL GTH-PBE-q5
       &POTENTIAL
2 3
0.2837905100000000E+00 2 -0.1241522559000000E+02  0.1868095920000000E+01
2
0.2554050000000000E+00 1  0.1363026257000000E+02
0.2454945300000000E+00 0
       &END POTENTIAL
     &END KIND
     &KIND Ga
       BASIS_SET DZVP-MOLOPT-SR-GTH
       POTENTIAL GTH-PBE-q13
       &POTENTIAL
2 1 10
0.4900000000000000E+00 0
3
0.4167772300000000E+00 3  0.1047568975000000E+02 -0.4921768140000000E+01  0.8707055900000000E+00
0.7770178090000000E+01 -0.2248152160000000E+01
0.1784415450000000E+01
0.5696265200000000E+00 2  0.1777985340000000E+01  0.1958597600000000E+00
-0.2317443900000000E+00
0.2381265000000000E+00 1 -0.1624868022000000E+02
       &END POTENTIAL
     &END KIND
     &TOPOLOGY
       NUMBER_OF_ATOMS  206
       MULTIPLE_UNIT_CELL  1 1 1
     &END TOPOLOGY
   &END SUBSYS
 &END FORCE_EVAL
