 # Version information for this restart file 
 # current date 2019-06-25 11:58:40.134
 # current working dir /scratch/rzk/rzk/GaN-carbene/443-adatoms-both-2x2/02-Methanol/01-O-GaTop
 # Program compiled at                              Sun Apr  7 00:48:11 EDT 2019
 # Program compiled on                          beluga2.int.ets1.calculquebec.ca
 # Program compiled for                        Beluga-Linux-x86-64-intel-openmpi
 # Source code revision number                                         svn:18619
 &GLOBAL
   PRINT_LEVEL  MEDIUM
   PROJECT_NAME TEST
   RUN_TYPE  GEO_OPT
 &END GLOBAL
 &MOTION
   &GEO_OPT
     MAX_ITER  500
     STEP_START_VAL  220
   &END GEO_OPT
 &END MOTION
 &FORCE_EVAL
   METHOD  QS
   STRESS_TENSOR  ANALYTICAL
   &DFT
     BASIS_SET_FILE_NAME BASIS_MOLOPT
     POTENTIAL_FILE_NAME GTH_POTENTIALS
     UKS  T
     SURFACE_DIPOLE_CORRECTION  T
     SURF_DIP_DIR  Z
     &SCF
       MAX_SCF  80
       EPS_SCF     5.0000000000000004E-06
       &OT  T
         PRECONDITIONER  FULL_ALL
       &END OT
       &OUTER_SCF  T
         OPTIMIZER  NONE
         EPS_SCF     5.0000000000000004E-06
         MAX_SCF  4
       &END OUTER_SCF
       &PRINT
         &RESTART  OFF
           BACKUP_COPIES  1
           &EACH
             JUST_ENERGY  0
             QS_SCF  0
             MD  20
           &END EACH
         &END RESTART
       &END PRINT
     &END SCF
     &QS
       EPS_DEFAULT     1.0000000000000000E-14
       METHOD  GPW
     &END QS
     &MGRID
       NGRIDS  5
       CUTOFF     1.2000000000000000E+03
     &END MGRID
     &XC
       DENSITY_CUTOFF     1.0000000000000000E-10
       GRADIENT_CUTOFF     1.0000000000000000E-10
       TAU_CUTOFF     1.0000000000000000E-10
       &XC_FUNCTIONAL  NO_SHORTCUT
         &PBE  T
         &END PBE
       &END XC_FUNCTIONAL
       &VDW_POTENTIAL
         POTENTIAL_TYPE  PAIR_POTENTIAL
         &PAIR_POTENTIAL
           R_CUTOFF     1.0000000000000007E+01
           TYPE  DFTD3
           PARAMETER_FILE_NAME dftd3.dat
           REFERENCE_FUNCTIONAL PBE
           EPS_CN     9.9999999999999995E-07
           CALCULATE_C9_TERM  T
           REFERENCE_C9_TERM  T
           LONG_RANGE_CORRECTION  F
           VERBOSE_OUTPUT  F
         &END PAIR_POTENTIAL
       &END VDW_POTENTIAL
     &END XC
   &END DFT
   &SUBSYS
     &CELL
       A     1.2864472766435110E+01    0.0000000000000000E+00    0.0000000000000000E+00
       B    -6.4322363581020028E+00    1.1140960178524477E+01    0.0000000000000000E+00
       C     0.0000000000000000E+00    0.0000000000000000E+00    3.2000000000000000E+01
       MULTIPLE_UNIT_CELL  1 1 1
       &CELL_REF
         A     1.2982353780853531E+01    0.0000000000000000E+00    0.0000000000000000E+00
         B    -6.4911768904267628E+00    1.1243048175136114E+01    0.0000000000000000E+00
         C     0.0000000000000000E+00    0.0000000000000000E+00    3.2000000000000000E+01
         MULTIPLE_UNIT_CELL  1 1 1
       &END CELL_REF
     &END CELL
     &COORD
N   -3.6217273607582916E-02    2.0289933996914518E+00    2.5469347775448936E+00
Ga   -3.0842153834898856E-02    5.3123423660855700E-02    2.8780100636105730E+00
N   -3.4267710821597096E-02    4.7709689385279752E-02    5.0295740119765355E+00
Ga   -3.5644952508039673E-02    1.8747382661710119E+00    5.8150019333623950E+00
N   -3.4004446911547005E-02    1.8923902771078998E+00    7.8096527583975819E+00
Ga   -3.2930370095431920E-02    4.6354246138885037E-02    8.4534835094588665E+00
N   -3.2834631157997514E-02    4.7057304324099582E-02    1.0426569844350496E+01
Ga   -3.3567812258911124E-02    1.8872002700471648E+00    1.1076475533767731E+01
N   -3.2845950050748793E-02    1.8683424181537354E+00    1.3070143149836474E+01
Ga   -3.3716542264657610E-02    4.7979067428498723E-02    1.3873804515325775E+01
N   -3.3811269120035410E-02    4.7324816388469561E-02    1.6074334543457947E+01
Ga   -3.2269707437716469E-02    2.0884677663912754E+00    1.6486081275963240E+01
Ga   -3.1802159368254708E-02    3.7320129983431305E+00    1.5222250623866778E+00
N   -1.5174484792688083E+00    4.6134006381401225E+00    2.5128097039035890E+00
Ga   -1.7377843246992446E+00    2.7710942987049147E+00    3.3131185266249754E+00
N   -1.6458584407954129E+00    2.8308642619695412E+00    5.2722560000032077E+00
Ga   -1.6648728697802968E+00    4.7041600720354593E+00    5.8116589307871305E+00
N   -1.6513600346872994E+00    4.6955368623152101E+00    7.8078115263497985E+00
Ga   -1.6327250056875269E+00    2.8386964424161061E+00    8.4471394915953919E+00
N   -1.6309366916532451E+00    2.8392305937675184E+00    1.0439841750526778E+01
Ga   -1.6564378935337691E+00    4.6986227401725840E+00    1.1076211227780075E+01
N   -1.6726267887079618E+00    4.7087328941283424E+00    1.3069809636286791E+01
Ga   -1.6298786742741278E+00    2.8401192767239070E+00    1.3626409393807842E+01
N   -1.6581023180117020E+00    2.8237075783738592E+00    1.5588809345628800E+01
Ga   -1.4805753025933652E+00    4.5982338565309187E+00    1.6486072124987068E+01
N   -3.9171743617697104E-02    3.7574644122647016E+00    1.7619254445275477E+01
N   -3.2477251294737708E+00    7.5935834908352540E+00    2.5265413289468812E+00
Ga   -3.2407503708573491E+00    5.6155727012014154E+00    2.8505424887641420E+00
N   -3.2444174577927609E+00    5.6136456395553882E+00    5.0187427542587448E+00
Ga   -3.2483205304583618E+00    7.4444762354199012E+00    5.8000895203283251E+00
N   -3.2497337114696632E+00    7.4627746497007807E+00    7.7993857250608833E+00
Ga   -3.2501192722660028E+00    5.6186121191059257E+00    8.4518006000404444E+00
N   -3.2497288374403506E+00    5.6185538835489606E+00    1.0425483512384702E+01
Ga   -3.2497234669008361E+00    7.4582389228113062E+00    1.1075207123000409E+01
N   -3.2489625367739690E+00    7.4389120134695812E+00    1.3069223692261540E+01
Ga   -3.2490038652838864E+00    5.6185500840539460E+00    1.3872340142853915E+01
N   -3.2492767083625660E+00    5.6181312244485984E+00    1.6073980820540587E+01
Ga   -3.2480427767797910E+00    7.6573313397228491E+00    1.6484172968683019E+01
Ga   -3.2460238635244938E+00    9.3238527743647790E+00    1.4482525685479581E+00
N   -4.7532566126699720E+00    1.0202181017029663E+01    2.5223169820803188E+00
Ga   -4.9484146693810862E+00    8.3495460848737562E+00    3.2831839242964009E+00
N   -4.8575490926473872E+00    8.4021886651761761E+00    5.2521811805715410E+00
Ga   -4.8804608726790253E+00    1.0273127883301440E+01    5.8040118859878307E+00
N   -4.8669518458461081E+00    1.0265496571980428E+01    7.8015605293098540E+00
Ga   -4.8471082557794842E+00    8.4083459593953904E+00    8.4416920459765734E+00
N   -4.8465538421589249E+00    8.4095751389030422E+00    1.0435813366236845E+01
Ga   -4.8720866569505201E+00    1.0267955108776791E+01    1.1076267717088696E+01
N   -4.8888416898950382E+00    1.0278963524657634E+01    1.3070026125951200E+01
Ga   -4.8456245485993463E+00    8.4103231002240850E+00    1.3625936513968366E+01
N   -4.8734508811200223E+00    8.3934283387064976E+00    1.5588794534568391E+01
Ga   -4.6989283079028032E+00    1.0169874202182200E+01    1.6484296245567915E+01
N   -3.2561148473822183E+00    9.3280358729483339E+00    1.7616085701559538E+01
N    3.1674720485746146E+00    1.9087925076300281E+00    2.6042195242268495E+00
Ga    3.1803561106921876E+00    1.5387720731067348E-01    3.2844357365247290E+00
N    3.1825773842909153E+00    5.2070467810380126E-02    5.2518474160587738E+00
Ga    3.1847928316312935E+00    1.9011429694509945E+00    5.8931097719515710E+00
N    3.1840153103822453E+00    1.9032479393257860E+00    7.8630144858609663E+00
Ga    3.1825407930183309E+00    3.4350514837595492E-02    8.4464638587681069E+00
N    3.1825636824731856E+00    3.4519738757825401E-02    1.0438547405373537E+01
Ga    3.1823857899828147E+00    1.9043986963639858E+00    1.1032392055013281E+01
N    3.1836496381809036E+00    1.9049203045770806E+00    1.3003881541371646E+01
Ga    3.1836858964802177E+00    3.5392563214386691E-02    1.3625827545730468E+01
N    3.1860366585941327E+00    6.7490352168308509E-02    1.5587604362752177E+01
Ga    3.1840317377023837E+00    1.9055319494244238E+00    1.5867948731458162E+01
N    1.4699558511723783E+00    4.6249201933406425E+00    2.5313515292757671E+00
Ga    1.6666715021773093E+00    2.7826338872382492E+00    3.3275093875761197E+00
N    1.5790108815149082E+00    2.8303684154373041E+00    5.2791549608281674E+00
Ga    1.5969417688464214E+00    4.7058947621452587E+00    5.8146763740915439E+00
N    1.5845306959789005E+00    4.6960989864202718E+00    7.8090363792882505E+00
Ga    1.5648333647366430E+00    2.8382592794526134E+00    8.4470446147758675E+00
N    1.5635211291319127E+00    2.8395245397939988E+00    1.0439369561264732E+01
Ga    1.5897544696197272E+00    4.6988414994640157E+00    1.1076007322040519E+01
N    1.6068249791343912E+00    4.7086453714751331E+00    1.3069202097877481E+01
Ga    1.5646503964644369E+00    2.8400849934857866E+00    1.3626144892846380E+01
N    1.5934232606321299E+00    2.8254020831958377E+00    1.5587321316356451E+01
Ga    1.4102752714981546E+00    4.5949373885083702E+00    1.6486939189280438E+01
N   -3.4868596085414628E-02    7.4714708203067515E+00    2.6196387413320288E+00
Ga   -2.4729604585269450E-02    5.7263143656707607E+00    3.2979661358488110E+00
N   -3.3533747102992569E-02    5.6202870370464382E+00    5.2631499498268290E+00
Ga   -3.5908527037744824E-02    7.4742682833033882E+00    5.8849883015634310E+00
N   -3.3760962690753869E-02    7.4753384387401969E+00    7.8583218803445423E+00
Ga   -3.4238126513272987E-02    5.6077553196543963E+00    8.4469294134976654E+00
N   -3.3413776816855131E-02    5.6057780653630616E+00    1.0439190695260077E+01
Ga   -3.4263753451327573E-02    7.4755169519762577E+00    1.1031821961599997E+01
N   -3.2954411943993248E-02    7.4757649172773784E+00    1.3003257153013450E+01
Ga   -3.2619209510612798E-02    5.6063551471942503E+00    1.3626062342823408E+01
N   -3.0918939660869817E-02    5.6382037650438859E+00    1.5587304670334165E+01
Ga   -3.2067580956929770E-02    7.4759333889426465E+00    1.5867280755704286E+01
N   -1.7486388552889454E+00    1.0200838931109795E+01    2.5274727616381369E+00
Ga   -1.5489408103633699E+00    8.3483992807369454E+00    3.2874968059843828E+00
N   -1.6397752718409224E+00    8.4028649848978887E+00    5.2553126006208579E+00
Ga   -1.6179638726166716E+00    1.0273969264686658E+01    5.8037339182271275E+00
N   -1.6331402091570344E+00    1.0265541611234370E+01    7.8021145788306647E+00
Ga   -1.6523801270695719E+00    8.4087863899896664E+00    8.4426119015960808E+00
N   -1.6531304943537051E+00    8.4099790122743610E+00    1.0436222234422139E+01
Ga   -1.6266170360680716E+00    1.0268560966284969E+01    1.1075235927543508E+01
N   -1.6092069913876907E+00    1.0278921988516862E+01    1.3068771411678659E+01
Ga   -1.6515838809840424E+00    8.4104112203766377E+00    1.3625507285039534E+01
N   -1.6233437027173823E+00    8.3957907016359474E+00    1.5587009567639196E+01
Ga   -1.8043474884584609E+00    1.0165562308696748E+01    1.6485208407986619E+01
N    6.3949435564455763E+00    2.0249311496600821E+00    2.5302164107653806E+00
Ga    6.3933376333090282E+00    4.4764194388420102E-02    2.8648439623310478E+00
N    6.3995619738633822E+00    4.6938383234903895E-02    5.0281703853920003E+00
Ga    6.3970207229055394E+00    1.8746400654076663E+00    5.8061251056597891E+00
N    6.3976241044166251E+00    1.8939508231130964E+00    7.8034126877763761E+00
Ga    6.3972578843544214E+00    4.7652787182106741E-02    8.4511872294701842E+00
N    6.3987018755721712E+00    4.7842818389141874E-02    1.0425196100776704E+01
Ga    6.3988592349656521E+00    1.8873170707953781E+00    1.1076193852791311E+01
N    6.3993396586190254E+00    1.8682514528122345E+00    1.3070078361972778E+01
Ga    6.3991040843901290E+00    4.7269075515408203E-02    1.3872159389567040E+01
N    6.3987676010600145E+00    4.6689691685377260E-02    1.6074328339116747E+01
Ga    6.4004670191553199E+00    2.0835119525097743E+00    1.6482091590139767E+01
Ga    6.4036269296770358E+00    3.7608512532002760E+00    1.4843644087681380E+00
N    4.8923055361561891E+00    4.6265931694547202E+00    2.5287162746150353E+00
Ga    4.6889362196398512E+00    2.7738196916431268E+00    3.2884504968064570E+00
N    4.7857873145882559E+00    2.8294112661219954E+00    5.2530410985169116E+00
Ga    4.7683461225107662E+00    4.7014799357943602E+00    5.8067515256764750E+00
N    4.7812429260165450E+00    4.6942113352508077E+00    7.8026246917758897E+00
Ga    4.8013058568087450E+00    2.8385718312662633E+00    8.4476577313383903E+00
N    4.8019405716353729E+00    2.8396348078354046E+00    1.0439527164824138E+01
Ga    4.7768837635845349E+00    4.6987880234814430E+00    1.1076315425159441E+01
N    4.7597406498090384E+00    4.7087764755845951E+00    1.3070171669241853E+01
Ga    4.8025860554648476E+00    2.8400523548465602E+00    1.3625938793237813E+01
N    4.7767865729269374E+00    2.8243777537236214E+00    1.5589824935828185E+01
Ga    4.9465200765184907E+00    4.6014070991520875E+00    1.6482112251082384E+01
N    6.3922479881532404E+00    3.7577965680228793E+00    1.7616364995327924E+01
N    3.1817207962948379E+00    7.5966895321902674E+00    2.5395070075610451E+00
Ga    3.1739556851111113E+00    5.6142383332801211E+00    2.8916775460620601E+00
N    3.1832898108229117E+00    5.6181972177251893E+00    5.0319758065243727E+00
Ga    3.1833883195105903E+00    7.4480997403987752E+00    5.8101481834406785E+00
N    3.1828744293377071E+00    7.4638209175277952E+00    7.8051594896408760E+00
Ga    3.1835863220986771E+00    5.6181240721666770E+00    8.4534968362497036E+00
N    3.1837247731559395E+00    5.6183439061338847E+00    1.0426412931412363E+01
Ga    3.1829083297597256E+00    7.4581966007074918E+00    1.1076016945574917E+01
N    3.1832206477728908E+00    7.4391035588557601E+00    1.3069494288311088E+01
Ga    3.1821687281427398E+00    5.6189722333188969E+00    1.3872783772690276E+01
N    3.1820321226105528E+00    5.6183392365472722E+00    1.6074424458893841E+01
Ga    3.1839105225028010E+00    7.6581676553906313E+00    1.6485922706656126E+01
Ga    3.1810635629083293E+00    9.3307066964077983E+00    1.5100371006992548E+00
N    1.6802787303003157E+00    1.0198216712377111E+01    2.5354291005358847E+00
Ga    1.4710741924423054E+00    8.3453056341562171E+00    3.3001469637687042E+00
N    1.5731397062235997E+00    8.4021724495244001E+00    5.2622008074785054E+00
Ga    1.5484005461303354E+00    1.0274320139365557E+01    5.8099827003585336E+00
N    1.5646280342707317E+00    1.0265453306681824E+01    7.8060965655735419E+00
Ga    1.5836277434439625E+00    8.4089109462857845E+00    8.4458220610953934E+00
N    1.5856318802910840E+00    8.4096113432436823E+00    1.0438363836040839E+01
Ga    1.5597179964387045E+00    1.0268681983317723E+01    1.1075842973513687E+01
N    1.5433669967033870E+00    1.0278954114147293E+01    1.3069402766290372E+01
Ga    1.5862609099415246E+00    8.4104771778964889E+00    1.3626288300902235E+01
N    1.5596236264974481E+00    8.3948269815854921E+00    1.5589051345459282E+01
Ga    1.7350291089896186E+00    1.0168869441925260E+01    1.6486213713815005E+01
N    3.1768931801313109E+00    9.3275324178509695E+00    1.7621703709030555E+01
N    9.6167194558017499E+00    1.9055192390714792E+00    2.6217333116222137E+00
Ga    9.6133456476320731E+00    1.6307984734277400E-01    3.3005602980283397E+00
N    9.6144579751887846E+00    4.8549615253759615E-02    5.2628812536724618E+00
Ga    9.6125581542723371E+00    1.9041979319139728E+00    5.8905924823184685E+00
N    9.6133432258024367E+00    1.9035680724151502E+00    7.8618972817468533E+00
Ga    9.6141418199902677E+00    3.5435779163154768E-02    8.4471272578422223E+00
N    9.6150149284901492E+00    3.4680450299102009E-02    1.0439084156066361E+01
Ga    9.6140189592326486E+00    1.9046956264714110E+00    1.1032290529229812E+01
N    9.6149343261563871E+00    1.9048796038029550E+00    1.3004124986146270E+01
Ga    9.6155367454357936E+00    3.5215620145859314E-02    1.3626076422079880E+01
N    9.6171313490173365E+00    6.6573919764458894E-02    1.5587685842742420E+01
Ga    9.6155948978915227E+00    1.9049462498252310E+00    1.5866862567435996E+01
N    7.9029542190464417E+00    4.6264557946200346E+00    2.5302568135708232E+00
Ga    8.1028778073125896E+00    2.7748080278027745E+00    3.2949209486795907E+00
N    8.0067539193564770E+00    2.8303333371219024E+00    5.2590819147060168E+00
Ga    8.0344385009589967E+00    4.7032665236683124E+00    5.8030801967199102E+00
N    8.0170824264686722E+00    4.6950437371650278E+00    7.8010615403834604E+00
Ga    7.9956564502397649E+00    2.8389015259551416E+00    8.4449330796281856E+00
N    7.9950776652983171E+00    2.8398279015443992E+00    1.0437813369342534E+01
Ga    8.0215931617185667E+00    4.6988769447994665E+00    1.1075110691029753E+01
N    8.0389317076147666E+00    4.7085897432557360E+00    1.3068856354071334E+01
Ga    7.9965673279961313E+00    2.8401524440590453E+00    1.3625371202202166E+01
N    8.0236662543670114E+00    2.8261122364226572E+00    1.5587810609134838E+01
Ga    7.8474936178846830E+00    4.5972714307015847E+00    1.6482686138311099E+01
N    6.4006849712179008E+00    7.4745365928177225E+00    2.6156216186219146E+00
Ga    6.4003802049731098E+00    5.7302086232128291E+00    3.2904901790140455E+00
N    6.3997704611648505E+00    5.6180990419216670E+00    5.2555999048385598E+00
Ga    6.4019986055860620E+00    7.4745420489519869E+00    5.8803369686155467E+00
N    6.3992011916833951E+00    7.4745139737039459E+00    7.8542855594440297E+00
Ga    6.3995014038399507E+00    5.6065981013845319E+00    8.4421400719975939E+00
N    6.3990209155638373E+00    5.6054820718765175E+00    1.0435754568844430E+01
Ga    6.3989767672730400E+00    7.4748893707133641E+00    1.1030758858018679E+01
N    6.3994753161578775E+00    7.4751311158191749E+00    1.3003036747961096E+01
Ga    6.3998120308543704E+00    5.6059246496240975E+00    1.3625545437273123E+01
N    6.4018498207049745E+00    5.6364092049322911E+00    1.5588209520674891E+01
Ga    6.3993475615969642E+00    7.4756817703636980E+00    1.5867201948320094E+01
N    4.6837951100660078E+00    1.0199237768444508E+01    2.5361284891284823E+00
Ga    4.8934676588664230E+00    8.3449448187059154E+00    3.2973094873235413E+00
N    4.7930434298043005E+00    8.4021207319719800E+00    5.2599384547356989E+00
Ga    4.8153865677077592E+00    1.0273670209909529E+01    5.8096951966701944E+00
N    4.8001089727266013E+00    1.0265344775225309E+01    7.8053474779028154E+00
Ga    4.7819933416606286E+00    8.4082877513845631E+00    8.4445569110929934E+00
N    4.7799305505835994E+00    8.4097330729229949E+00    1.0437229166567379E+01
Ga    4.8058499842701865E+00    1.0268644042339394E+01    1.1076000597110543E+01
N    4.8228211891025072E+00    1.0278870432321254E+01    1.3069065990863800E+01
Ga    4.7804869328658333E+00    8.4104539563837175E+00    1.3625718083500525E+01
N    4.8082476538916774E+00    8.3958293035327962E+00    1.5587242372384507E+01
Ga    4.6274139292094851E+00    1.0165677493524990E+01    1.6486661601087739E+01
O    1.0552866766978282E+00    3.4664904191971240E+00   -2.6483687095750535E-01
H    1.8147359732664581E+00    4.0138784598736619E+00    3.4866108795668434E-02
C    1.5611554996407453E+00    2.0841627733802244E+00   -4.5208366275591672E-01
H    2.2127365235334904E+00    1.8093301758125950E+00    3.9427429078561360E-01
H    6.7971591938481901E-01    1.4367147348010687E+00   -4.8241564024279049E-01
H    2.0927181073632788E+00    2.0549216310016516E+00   -1.4097919926493410E+00
     &END COORD
     &KIND C
       BASIS_SET DZVP-MOLOPT-SR-GTH-q4
       POTENTIAL GTH-PBE-q4
       &POTENTIAL
2 2
0.3384712400000000E+00 2 -0.8803673979999999E+01  0.1339210850000000E+01
2
0.3025757500000000E+00 1  0.9622486650000001E+01
0.2915069400000000E+00 0
       &END POTENTIAL
     &END KIND
     &KIND O
       BASIS_SET DZVP-MOLOPT-SR-GTH-q6
       POTENTIAL GTH-PBE-q6
       &POTENTIAL
2 4
0.2445543000000000E+00 2 -0.1666721480000000E+02  0.2487311320000000E+01
2
0.2209559200000000E+00 1  0.1833745811000000E+02
0.2113324700000000E+00 0
       &END POTENTIAL
     &END KIND
     &KIND H
       BASIS_SET DZVP-MOLOPT-SR-GTH-q1
       POTENTIAL GTH-PBE-q1
       &POTENTIAL
1
0.2000000000000000E+00 2 -0.4178900440000000E+01  0.7244633100000000E+00
0
       &END POTENTIAL
     &END KIND
     &KIND N
       BASIS_SET DZVP-MOLOPT-SR-GTH
       POTENTIAL GTH-PBE-q5
       &POTENTIAL
2 3
0.2837905100000000E+00 2 -0.1241522559000000E+02  0.1868095920000000E+01
2
0.2554050000000000E+00 1  0.1363026257000000E+02
0.2454945300000000E+00 0
       &END POTENTIAL
     &END KIND
     &KIND Ga
       BASIS_SET DZVP-MOLOPT-SR-GTH
       POTENTIAL GTH-PBE-q13
       &POTENTIAL
2 1 10
0.4900000000000000E+00 0
3
0.4167772300000000E+00 3  0.1047568975000000E+02 -0.4921768140000000E+01  0.8707055900000000E+00
0.7770178090000000E+01 -0.2248152160000000E+01
0.1784415450000000E+01
0.5696265200000000E+00 2  0.1777985340000000E+01  0.1958597600000000E+00
-0.2317443900000000E+00
0.2381265000000000E+00 1 -0.1624868022000000E+02
       &END POTENTIAL
     &END KIND
     &TOPOLOGY
       NUMBER_OF_ATOMS  206
       MULTIPLE_UNIT_CELL  1 1 1
     &END TOPOLOGY
   &END SUBSYS
 &END FORCE_EVAL
