 # Version information for this restart file 
 # current date 2019-05-27 21:10:43.473
 # current working dir /lustre03/project/6004141/rzk/GaN-carbene/334-native/08-2Methanol-Htransfer/02-NH-constraint/3.04
 # Program compiled at                              Sun Apr  7 00:48:11 EDT 2019
 # Program compiled on                          beluga2.int.ets1.calculquebec.ca
 # Program compiled for                        Beluga-Linux-x86-64-intel-openmpi
 # Source code revision number                                         svn:18619
 &GLOBAL
   PRINT_LEVEL  MEDIUM
   PROJECT_NAME TEST
   RUN_TYPE  GEO_OPT
 &END GLOBAL
 &MOTION
   &GEO_OPT
     MAX_ITER  500
     STEP_START_VAL  43
   &END GEO_OPT
   &CONSTRAINT
     &COLLECTIVE
       COLVAR  1
       INTERMOLECULAR  T
       TARGET     5.7447674439723544E+00
       &RESTRAINT
         K     1.0000000000000001E-01
       &END RESTRAINT
     &END COLLECTIVE
     &COLVAR_RESTART
           5.7447674439723544E+00
     &END COLVAR_RESTART
   &END CONSTRAINT
 &END MOTION
 &FORCE_EVAL
   METHOD  QS
   STRESS_TENSOR  ANALYTICAL
   &DFT
     BASIS_SET_FILE_NAME BASIS_MOLOPT
     POTENTIAL_FILE_NAME GTH_POTENTIALS
     &SCF
       MAX_SCF  100
       EPS_SCF     5.0000000000000004E-06
       &OT  T
         PRECONDITIONER  FULL_ALL
       &END OT
       &OUTER_SCF  T
         OPTIMIZER  NONE
         EPS_SCF     5.0000000000000004E-06
         MAX_SCF  4
       &END OUTER_SCF
       &PRINT
         &RESTART  OFF
           BACKUP_COPIES  1
           &EACH
             JUST_ENERGY  0
             QS_SCF  0
             MD  20
           &END EACH
         &END RESTART
       &END PRINT
     &END SCF
     &QS
       EPS_DEFAULT     1.0000000000000000E-14
       ALMO_SCF  F
       METHOD  GPW
     &END QS
     &MGRID
       NGRIDS  5
       CUTOFF     1.2000000000000000E+03
     &END MGRID
     &XC
       DENSITY_CUTOFF     1.0000000000000000E-10
       GRADIENT_CUTOFF     1.0000000000000000E-10
       TAU_CUTOFF     1.0000000000000000E-10
       &XC_FUNCTIONAL  NO_SHORTCUT
         &PBE  T
         &END PBE
       &END XC_FUNCTIONAL
       &VDW_POTENTIAL
         POTENTIAL_TYPE  PAIR_POTENTIAL
         &PAIR_POTENTIAL
           R_CUTOFF     1.0000000000000005E+01
           TYPE  DFTD3
           PARAMETER_FILE_NAME dftd3.dat
           REFERENCE_FUNCTIONAL PBE
           EPS_CN     9.9999999999999995E-07
           CALCULATE_C9_TERM  T
           REFERENCE_C9_TERM  T
           LONG_RANGE_CORRECTION  F
           VERBOSE_OUTPUT  F
         &END PAIR_POTENTIAL
       &END VDW_POTENTIAL
     &END XC
   &END DFT
   &SUBSYS
     &CELL
       A     9.7367653356401487E+00    0.0000000000000000E+00    0.0000000000000000E+00
       B    -4.8591341382960209E+00    8.4162672083210595E+00    0.0000000000000000E+00
       C     0.0000000000000000E+00    0.0000000000000000E+00    3.0744000000000000E+01
       MULTIPLE_UNIT_CELL  1 1 1
       &CELL_REF
         A     9.5580000000000052E+00    0.0000000000000000E+00    0.0000000000000000E+00
         B    -4.7790000000000026E+00    8.2774708093716640E+00    0.0000000000000000E+00
         C     0.0000000000000000E+00    0.0000000000000000E+00    3.0744000000000000E+01
         MULTIPLE_UNIT_CELL  1 1 1
       &END CELL_REF
     &END CELL
     &COORD
Ga    9.6716361643299823E-04   -2.5500582977936590E-02   -5.3703398524170975E-01
N    3.7322720961882527E-03    1.8490014441321609E+00    6.0043890896707119E-01
Ga    3.3761070330320100E-03    1.8188113804368846E+00    2.6325174909732283E+00
N    2.3887193935760454E-04   -2.4559254320439913E-02    3.2632058038751954E+00
Ga    8.2056751332734560E-04   -2.3347027932933927E-02    5.2535051669580701E+00
N    3.8960627539275081E-03    1.8513239644125905E+00    5.8411858811962620E+00
Ga    5.2467439159435397E-03    1.8488640488260339E+00    7.8401771372196212E+00
N    4.2592493862438985E-03   -2.3892109652631544E-02    8.4408955140564821E+00
Ga    7.2562378766962560E-03   -2.4488221987460382E-02    1.0438115060912084E+01
N    5.8376122464669101E-03    1.8477726821421545E+00    1.1040838381220917E+01
Ga    1.3488569729799999E-02    1.8446765253922393E+00    1.3034639420795729E+01
N    2.2257964013798037E-02   -2.7470717553411492E-02    1.3628977137372075E+01
Ga    4.0854919912760773E-02   -5.0962702572284593E-02    1.5622239554007706E+01
N    3.3010288717230413E-02    1.8322853001356800E+00    1.6199580643535850E+01
Ga    5.9056186126375358E-02    1.8146187874438440E+00    1.8253743322822604E+01
N    4.9675141737401042E-02   -5.7535726403106141E-02    1.8656957518894330E+01
Ga   -1.6194469751160789E+00    2.7801372927552404E+00    3.1898946968482600E-01
N   -1.6202272026665718E+00    4.6499862397884062E+00    6.0147140386560283E-01
Ga   -1.5921813982956197E+00    4.6664283886984581E+00    2.6321604658698212E+00
N   -1.6189743237213583E+00    2.7808014059678938E+00    3.2223715107051216E+00
Ga   -1.6184600048114506E+00    2.7822146420897149E+00    5.2335011434627559E+00
N   -1.6181831740706358E+00    4.6522155755950489E+00    5.8397428150023210E+00
Ga   -1.6168320940107648E+00    4.6519045083674602E+00    7.8378431756065217E+00
N   -1.6173991891213728E+00    2.7817051198528535E+00    8.4440594635504400E+00
Ga   -1.6166820279805385E+00    2.7830765898578762E+00    1.0439419180310109E+01
N   -1.6173971884200238E+00    4.6531392667019640E+00    1.1047003525471613E+01
Ga   -1.6204380799596765E+00    4.6523033422152347E+00    1.3044100272231631E+01
N   -1.6035355641516604E+00    2.7835474797607049E+00    1.3662615811291520E+01
Ga   -1.5995283513229992E+00    2.7950946312495666E+00    1.5671748254408536E+01
N   -1.5896058723675850E+00    4.6604508233158137E+00    1.6303400460890416E+01
Ga   -1.4944378868057144E+00    4.6542748103096985E+00    1.8384136685240353E+01
N   -1.5317608106395642E+00    2.7553382130790678E+00    1.8707228946617867E+01
Ga   -3.2395219830231707E+00    5.5851488034040182E+00    3.1953653048354541E-01
N   -3.2328407086767852E+00    7.4562583427307425E+00    6.0094335933570253E-01
Ga   -3.2604726107392086E+00    7.4718825601076544E+00    2.6328150015275167E+00
N   -3.2389834764857288E+00    5.5864143792138314E+00    3.2227464118616886E+00
Ga   -3.2386478753225298E+00    5.5872453668756723E+00    5.2339399839061400E+00
N   -3.2326652146332968E+00    7.4576624700828935E+00    5.8392915878286065E+00
Ga   -3.2333802773025049E+00    7.4576724614394729E+00    7.8375148189839150E+00
N   -3.2373805815872294E+00    5.5868577375972910E+00    8.4405448645606533E+00
Ga   -3.2367087930407878E+00    5.5848145757661785E+00    1.0434817635249740E+01
N   -3.2284519667307103E+00    7.4539871273054468E+00    1.1044198530582042E+01
Ga   -3.2194284544548970E+00    7.4480290550155868E+00    1.3041545901194029E+01
N   -3.2379914294939285E+00    5.5808344346333589E+00    1.3680613410658692E+01
Ga   -3.2184011912653734E+00    5.5760437868126251E+00    1.5717030733846588E+01
N   -3.1973201447620347E+00    7.4404142045584152E+00    1.6275031283899889E+01
Ga   -3.1845614580158701E+00    7.4027079698954754E+00    1.8336425886954718E+01
N   -3.1302964236874060E+00    5.5467749796254182E+00    1.8882184258155970E+01
Ga    3.2472219354401068E+00   -2.4795553927650663E-02    3.1948453878555166E-01
N    3.2450670907412889E+00    1.8448055356929394E+00    6.0206255226543604E-01
Ga    3.2733548034807312E+00    1.8613822218939964E+00    2.6323501776798834E+00
N    3.2462780301892153E+00   -2.4369796351486495E-02    3.2225337306274406E+00
Ga    3.2473948830045232E+00   -2.3106512071674030E-02    5.2339268542781756E+00
N    3.2475632169510704E+00    1.8471479129930994E+00    5.8402289233043962E+00
Ga    3.2490379597518335E+00    1.8470844569912497E+00    7.8388027198655079E+00
N    3.2468070351415745E+00   -2.3841401584437327E-02    8.4402112941358052E+00
Ga    3.2498280659149015E+00   -2.4621065476683475E-02    1.0433982879918201E+01
N    3.2560347212526408E+00    1.8455840228294740E+00    1.1041547482078521E+01
Ga    3.2639565397106054E+00    1.8393698433549759E+00    1.3037820991935734E+01
N    3.2552397721747339E+00   -2.8497822999775251E-02    1.3657425858639410E+01
Ga    3.2653691964533098E+00   -3.3746012071988185E-02    1.5667441715782818E+01
N    3.2912402734988775E+00    1.8313083949796347E+00    1.6251171677541834E+01
Ga    3.3382782745820143E+00    1.8289810276062874E+00    1.8291537756231939E+01
N    3.3108304416253929E+00   -6.2654702325139588E-02    1.8736410782426994E+01
Ga    1.6266708159111583E+00    2.7807791231621586E+00    3.1900383682114519E-01
N    1.6327326055149609E+00    4.6506351438576585E+00    6.0172170751250598E-01
Ga    1.6049458900568347E+00    4.6665288009193837E+00    2.6325157674899389E+00
N    1.6262288585361453E+00    2.7809338859239054E+00    3.2231232961065115E+00
Ga    1.6272278729204810E+00    2.7826940647641782E+00    5.2347177218596110E+00
N    1.6323299536272020E+00    4.6524595065784915E+00    5.8426738065520381E+00
Ga    1.6321885432810288E+00    4.6521708912093347E+00    7.8428614637169520E+00
N    1.6283207091350718E+00    2.7798360935989845E+00    8.4425768957117668E+00
Ga    1.6306379079234410E+00    2.7789384947205926E+00    1.0437832308946147E+01
N    1.6270761417522179E+00    4.6500060060306376E+00    1.1032759351617935E+01
Ga    1.6237251564369388E+00    4.6500776912006421E+00    1.3026631281937112E+01
N    1.6389566359572405E+00    2.7719350554342559E+00    1.3631304270540163E+01
Ga    1.6689996817546895E+00    2.7621615575694300E+00    1.5624467144642537E+01
N    1.6239561319616351E+00    4.6449548517254158E+00    1.6123591794878596E+01
Ga    1.6966219043828010E+00    4.6087295825799943E+00    1.8105123263956344E+01
N    1.6929416804752619E+00    2.7585946516550237E+00    1.8589679753925630E+01
Ga    6.8459375009446138E-03    5.5856710726345975E+00   -5.4992236237291203E-01
N    1.0003787421366504E-02    7.4603218966430340E+00    6.0167093458305554E-01
Ga    9.7833402486474878E-03    7.4297045232508889E+00    2.6324809570040411E+00
N    6.6493585598754804E-03    5.5862648592707149E+00    3.2634799553733358E+00
Ga    7.7885522434048282E-03    5.5875374056877716E+00    5.2535340621559925E+00
N    1.0726485727886852E-02    7.4621047896432993E+00    5.8410821394995747E+00
Ga    1.1216885009020910E-02    7.4602843232591454E+00    7.8402247594976222E+00
N    6.1605151436337777E-03    5.5866249156820809E+00    8.4393548991588325E+00
Ga    5.9283991584941163E-03    5.5859725489148104E+00    1.0435727125951873E+01
N    1.2904186768691756E-02    7.4595556973916501E+00    1.1033995420875723E+01
Ga    1.3202093842290603E-02    7.4631397289015764E+00    1.3025695570527779E+01
N    8.2817816583573680E-04    5.5925587097555587E+00    1.3623506943654737E+01
Ga    1.6703215755624660E-03    5.5813560162797256E+00    1.5618097359649941E+01
N    4.1802189991541353E-02    7.4501843244078065E+00    1.6249107144681005E+01
Ga    6.7451657323603600E-02    7.4087183726300383E+00    1.8333729194888694E+01
N    1.8075689422287111E-01    5.5512591921495611E+00    1.8870589359179924E+01
Ga    6.4907928142931599E+00   -2.4339606744368688E-02    3.1890818095178092E-01
N    6.4980779764060390E+00    1.8451870928105210E+00    6.0194788144609668E-01
Ga    6.4699255864624732E+00    1.8613010843653290E+00    2.6322080104035699E+00
N    6.4920202844891035E+00   -2.4320806226335253E-02    3.2232775894225965E+00
Ga    6.4929409728894019E+00   -2.3044141078198979E-02    5.2349833522674576E+00
N    6.4978295715112351E+00    1.8476099386064682E+00    5.8407196175141198E+00
Ga    6.4972279897414440E+00    1.8478833201677849E+00    7.8392587720109947E+00
N    6.4927594000246307E+00   -2.1781070943717944E-02    8.4432818828109752E+00
Ga    6.4953609748891390E+00   -1.8301796529599765E-02    1.0439084927574170E+01
N    6.4976774331580582E+00    1.8536355803308204E+00    1.1048324078449514E+01
Ga    6.5018780000840612E+00    1.8592479136749562E+00    1.3046847703873757E+01
N    6.4909978237843680E+00   -1.4050227828512906E-02    1.3622931196377728E+01
Ga    6.5078397998955717E+00   -8.6392021339375021E-03    1.5622969673070841E+01
N    6.5149459319744016E+00    1.8563458507015032E+00    1.6243203170460035E+01
Ga    6.5793712896175514E+00    1.8292431668762634E+00    1.8295721394932787E+01
N    6.5787740988647263E+00   -7.6025744264868661E-02    1.8655430527331802E+01
Ga    4.8722028126475285E+00    2.7817801568770553E+00   -5.4937340700973070E-01
N    4.8750897900687509E+00    4.6552970322260512E+00    6.0307682231270543E-01
Ga    4.8745666080124073E+00    4.6243229559078047E+00    2.6330647497792392E+00
N    4.8720233790266043E+00    2.7809935401619272E+00    3.2637588416440351E+00
Ga    4.8727637732030882E+00    2.7827936170258352E+00    5.2533323415231399E+00
N    4.8752421793847844E+00    4.6568250829636808E+00    5.8412904313061960E+00
Ga    4.8746727723053107E+00    4.6553952667210883E+00    7.8404528470586747E+00
N    4.8732986096031414E+00    2.7819053432724856E+00    8.4403271192352065E+00
Ga    4.8764875138657704E+00    2.7843132726577298E+00    1.0437359800210730E+01
N    4.8808711564828213E+00    4.6534657939717672E+00    1.1043898179556727E+01
Ga    4.8807137986069087E+00    4.6549830179575151E+00    1.3044241265735350E+01
N    4.8749754658219127E+00    2.7867481569710923E+00    1.3657701279337683E+01
Ga    4.8806274232913083E+00    2.7803910649632417E+00    1.5679819963266178E+01
N    4.8440207980446583E+00    4.6705711056768591E+00    1.6137573241764056E+01
Ga    4.9642126750022308E+00    4.6083946633215289E+00    1.9105961421485599E+01
N    4.9603574602835367E+00    2.7226073856970245E+00    1.8821528787587805E+01
Ga    3.2528657494619053E+00    5.5845768564921725E+00    3.1927730147913952E-01
N    3.2516019383406141E+00    7.4555955518078800E+00    6.0063182582118746E-01
Ga    3.2792079694842928E+00    7.4717109668322044E+00    2.6325750312287508E+00
N    3.2521351466977602E+00    5.5866889347671780E+00    3.2237317488960540E+00
Ga    3.2527225810752318E+00    5.5879169830157265E+00    5.2355138807155344E+00
N    3.2535245544072637E+00    7.4580441206012509E+00    5.8430973792355987E+00
Ga    3.2555230499273202E+00    7.4580056395948757E+00    7.8433885889378629E+00
N    3.2535924792868789E+00    5.5872255257628334E+00    8.4465543142219808E+00
Ga    3.2552799097906524E+00    5.5875633969758631E+00    1.0445627900634408E+01
N    3.2591801886488230E+00    7.4646711088745938E+00    1.1034201664832363E+01
Ga    3.2596029577275845E+00    7.4688674402915849E+00    1.3029109673136977E+01
N    3.2454898672274837E+00    5.5914746131810320E+00    1.3586356682834726E+01
Ga    3.2469472453127741E+00    5.6009295552610103E+00    1.5581930851972816E+01
N    3.2744115187020286E+00    7.4712757356618820E+00    1.6127903818966139E+01
Ga    3.3342046953464264E+00    7.4466562092214295E+00    1.8133772784900255E+01
N    3.4393632420243812E+00    5.4955535422464346E+00    1.8327865392140311E+01
O    1.5711485374228007E+00    5.0651462912353580E+00    2.1201549194840297E+01
H    9.9650352736971504E-01    5.3904208162162135E+00    2.0419996356148296E+01
C    8.7598261167712455E-01    3.9273448286390229E+00    2.1748485792410062E+01
H    4.5489467003374046E-01    3.2948696620707660E+00    2.0947560986459923E+01
H    1.5904612381550103E+00    3.3272655813840482E+00    2.2327366813643394E+01
H    6.2550371699107959E-02    4.2584878081734709E+00    2.2413266703349571E+01
O    4.1991298909539481E+00    4.8144871565204097E+00    2.1037813331250383E+01
H    3.1768136689198632E+00    4.9105419331880720E+00    2.1039522963905071E+01
C    4.5965904468897714E+00    3.8391966544819791E+00    2.2035707835190028E+01
H    4.3189880933250953E+00    2.8216058199324623E+00    2.1725659167528299E+01
H    5.6865482432792218E+00    3.9007346274148116E+00    2.2139168551219043E+01
H    4.1243146859441495E+00    4.0941616769414386E+00    2.2992798381964779E+01
     &END COORD
     &KIND C
       BASIS_SET DZVP-MOLOPT-SR-GTH-q4
       POTENTIAL GTH-PBE-q4
       &POTENTIAL
 2 2
  0.3384712400000000E+00 2 -0.8803673979999999E+01  0.1339210850000000E+01
 2
  0.3025757500000000E+00 1  0.9622486650000001E+01
  0.2915069400000000E+00 0
         # Potential name:  GTH-PBE-Q4  for symbol:  C
         # Potential read from the potential filename: GTH_POTENTIALS
       &END POTENTIAL
     &END KIND
     &KIND O
       BASIS_SET DZVP-MOLOPT-SR-GTH-q6
       POTENTIAL GTH-PBE-q6
       &POTENTIAL
 2 4
  0.2445543000000000E+00 2 -0.1666721480000000E+02  0.2487311320000000E+01
 2
  0.2209559200000000E+00 1  0.1833745811000000E+02
  0.2113324700000000E+00 0
         # Potential name:  GTH-PBE-Q6  for symbol:  O
         # Potential read from the potential filename: GTH_POTENTIALS
       &END POTENTIAL
     &END KIND
     &KIND H
       BASIS_SET DZVP-MOLOPT-SR-GTH-q1
       POTENTIAL GTH-PBE-q1
       &POTENTIAL
 1
  0.2000000000000000E+00 2 -0.4178900440000000E+01  0.7244633100000000E+00
 0
         # Potential name:  GTH-PBE-Q1  for symbol:  H
         # Potential read from the potential filename: GTH_POTENTIALS
       &END POTENTIAL
     &END KIND
     &KIND N
       BASIS_SET DZVP-MOLOPT-SR-GTH-q5
       POTENTIAL GTH-PBE-q5
       &POTENTIAL
 2 3
  0.2837905100000000E+00 2 -0.1241522559000000E+02  0.1868095920000000E+01
 2
  0.2554050000000000E+00 1  0.1363026257000000E+02
  0.2454945300000000E+00 0
         # Potential name:  GTH-PBE-Q5  for symbol:  N
         # Potential read from the potential filename: GTH_POTENTIALS
       &END POTENTIAL
     &END KIND
     &KIND Ga
       BASIS_SET DZVP-MOLOPT-SR-GTH-q13
       POTENTIAL GTH-PBE-q13
       &POTENTIAL
 2 1 10
  0.4900000000000000E+00 0
 3
  0.4167772300000000E+00 3  0.1047568975000000E+02 -0.4921768140000000E+01  0.8707055900000000E+00
  0.7770178090000000E+01 -0.2248152160000000E+01
  0.1784415450000000E+01
  0.5696265200000000E+00 2  0.1777985340000000E+01  0.1958597600000000E+00
 -0.2317443900000000E+00
  0.2381265000000000E+00 1 -0.1624868022000000E+02
         # Potential name:  GTH-PBE-Q13  for symbol:  GA
         # Potential read from the potential filename: GTH_POTENTIALS
       &END POTENTIAL
     &END KIND
     &TOPOLOGY
       COORD_FILE_NAME ../start-first.xyz
       COORD_FILE_FORMAT  XYZ
       NUMBER_OF_ATOMS  156
       MULTIPLE_UNIT_CELL  1 1 1
     &END TOPOLOGY
     &COLVAR
       &DISTANCE
         ATOMS  32 148
       &END DISTANCE
       &PRINT
       &END PRINT
     &END COLVAR
   &END SUBSYS
 &END FORCE_EVAL
