 # Version information for this restart file 
 # current date 2019-05-27 21:11:31.506
 # current working dir /lustre03/project/6004141/rzk/GaN-carbene/334-native/08-2Methanol-Htransfer/02-NH-constraint/3.04
 # Program compiled at                              Sun Apr  7 00:48:11 EDT 2019
 # Program compiled on                          beluga2.int.ets1.calculquebec.ca
 # Program compiled for                        Beluga-Linux-x86-64-intel-openmpi
 # Source code revision number                                         svn:18619
 &GLOBAL
   PRINT_LEVEL  MEDIUM
   PROJECT_NAME TEST
   RUN_TYPE  GEO_OPT
 &END GLOBAL
 &MOTION
   &GEO_OPT
     MAX_ITER  500
     STEP_START_VAL  44
   &END GEO_OPT
   &CONSTRAINT
     &COLLECTIVE
       COLVAR  1
       INTERMOLECULAR  T
       TARGET     5.7447674439723544E+00
       &RESTRAINT
         K     1.0000000000000001E-01
       &END RESTRAINT
     &END COLLECTIVE
     &COLVAR_RESTART
           5.7447674439723544E+00
     &END COLVAR_RESTART
   &END CONSTRAINT
 &END MOTION
 &FORCE_EVAL
   METHOD  QS
   STRESS_TENSOR  ANALYTICAL
   &DFT
     BASIS_SET_FILE_NAME BASIS_MOLOPT
     POTENTIAL_FILE_NAME GTH_POTENTIALS
     &SCF
       MAX_SCF  100
       EPS_SCF     5.0000000000000004E-06
       &OT  T
         PRECONDITIONER  FULL_ALL
       &END OT
       &OUTER_SCF  T
         OPTIMIZER  NONE
         EPS_SCF     5.0000000000000004E-06
         MAX_SCF  4
       &END OUTER_SCF
       &PRINT
         &RESTART  OFF
           BACKUP_COPIES  1
           &EACH
             JUST_ENERGY  0
             QS_SCF  0
             MD  20
           &END EACH
         &END RESTART
       &END PRINT
     &END SCF
     &QS
       EPS_DEFAULT     1.0000000000000000E-14
       ALMO_SCF  F
       METHOD  GPW
     &END QS
     &MGRID
       NGRIDS  5
       CUTOFF     1.2000000000000000E+03
     &END MGRID
     &XC
       DENSITY_CUTOFF     1.0000000000000000E-10
       GRADIENT_CUTOFF     1.0000000000000000E-10
       TAU_CUTOFF     1.0000000000000000E-10
       &XC_FUNCTIONAL  NO_SHORTCUT
         &PBE  T
         &END PBE
       &END XC_FUNCTIONAL
       &VDW_POTENTIAL
         POTENTIAL_TYPE  PAIR_POTENTIAL
         &PAIR_POTENTIAL
           R_CUTOFF     1.0000000000000005E+01
           TYPE  DFTD3
           PARAMETER_FILE_NAME dftd3.dat
           REFERENCE_FUNCTIONAL PBE
           EPS_CN     9.9999999999999995E-07
           CALCULATE_C9_TERM  T
           REFERENCE_C9_TERM  T
           LONG_RANGE_CORRECTION  F
           VERBOSE_OUTPUT  F
         &END PAIR_POTENTIAL
       &END VDW_POTENTIAL
     &END XC
   &END DFT
   &SUBSYS
     &CELL
       A     9.7367653356401487E+00    0.0000000000000000E+00    0.0000000000000000E+00
       B    -4.8591341382960209E+00    8.4162672083210595E+00    0.0000000000000000E+00
       C     0.0000000000000000E+00    0.0000000000000000E+00    3.0744000000000000E+01
       MULTIPLE_UNIT_CELL  1 1 1
       &CELL_REF
         A     9.5580000000000052E+00    0.0000000000000000E+00    0.0000000000000000E+00
         B    -4.7790000000000026E+00    8.2774708093716640E+00    0.0000000000000000E+00
         C     0.0000000000000000E+00    0.0000000000000000E+00    3.0744000000000000E+01
         MULTIPLE_UNIT_CELL  1 1 1
       &END CELL_REF
     &END CELL
     &COORD
Ga    8.6740856010369526E-04   -2.4310776997475473E-02   -5.3695845616235083E-01
N    3.6435771902593632E-03    1.8499688531517648E+00    6.0058179629380548E-01
Ga    3.3569846662079594E-03    1.8196391901192064E+00    2.6327233064645568E+00
N    2.5355472412008721E-04   -2.3840796171570589E-02    3.2633612267275183E+00
Ga    8.0688350072900090E-04   -2.2899043380368682E-02    5.2536726346137108E+00
N    3.9051074404919187E-03    1.8518387323032286E+00    5.8411687400041421E+00
Ga    5.2658942742314216E-03    1.8492531430653076E+00    7.8402676632419981E+00
N    4.1891742736117473E-03   -2.3488267951758734E-02    8.4409268089347140E+00
Ga    7.1714737916700258E-03   -2.4164489504294916E-02    1.0438391662350565E+01
N    5.8632477028637466E-03    1.8481458573230138E+00    1.1041084907036582E+01
Ga    1.3371951820629864E-02    1.8448110094179655E+00    1.3034903445457925E+01
N    2.1825423929144109E-02   -2.7315639677380033E-02    1.3629360536750450E+01
Ga    4.0494512854008131E-02   -5.0883538736523855E-02    1.5622548896050205E+01
N    3.3341888525140993E-02    1.8322250958772517E+00    1.6200359212745578E+01
Ga    5.8641374879503584E-02    1.8149528043050902E+00    1.8255018411574024E+01
N    4.9559231484844639E-02   -5.7599943292626375E-02    1.8657013109202634E+01
Ga   -1.6194789092473689E+00    2.7812052164078938E+00    3.1901110770015900E-01
N   -1.6202625316134780E+00    4.6511044652884461E+00    6.0152697735998795E-01
Ga   -1.5921495791169022E+00    4.6672904279848195E+00    2.6322092804364892E+00
N   -1.6190467808378763E+00    2.7816062985833545E+00    3.2225071829145575E+00
Ga   -1.6185211632824770E+00    2.7827372403848054E+00    5.2336225203200515E+00
N   -1.6182063134049123E+00    4.6526746409790505E+00    5.8398072833159196E+00
Ga   -1.6168187728201941E+00    4.6523431810586606E+00    7.8379678753670223E+00
N   -1.6173358905743267E+00    2.7821541892682808E+00    8.4441338879655490E+00
Ga   -1.6166268525081871E+00    2.7835411974152446E+00    1.0439653129198021E+01
N   -1.6175598185675186E+00    4.6536170000684800E+00    1.1047294672184281E+01
Ga   -1.6208205333717227E+00    4.6524215260105226E+00    1.3044490367325356E+01
N   -1.6036441827773009E+00    2.7835265424126447E+00    1.3663027416300940E+01
Ga   -1.5995951598059290E+00    2.7952702885284877E+00    1.5672211648595921E+01
N   -1.5900440732914567E+00    4.6607615756122369E+00    1.6303582042055883E+01
Ga   -1.4949450446611323E+00    4.6542220021559837E+00    1.8384415420047503E+01
N   -1.5320457706614217E+00    2.7555201364354125E+00    1.8708620057334876E+01
Ga   -3.2395784655438722E+00    5.5863588173356495E+00    3.1945552770652230E-01
N   -3.2329729362008344E+00    7.4573794606469681E+00    6.0099613718184663E-01
Ga   -3.2604643920871910E+00    7.4726334040185414E+00    2.6329344274128985E+00
N   -3.2390093076687103E+00    5.5871622651000807E+00    3.2228559201863907E+00
Ga   -3.2386754458547307E+00    5.5877291322282812E+00    5.2340354104191329E+00
N   -3.2326709234093123E+00    7.4581244814782988E+00    5.8393919858318855E+00
Ga   -3.2334038235019653E+00    7.4580452409836839E+00    7.8376276108486795E+00
N   -3.2374196989471038E+00    5.5872425635301965E+00    8.4406617945186184E+00
Ga   -3.2368803832174216E+00    5.5852085746388260E+00    1.0434999932582812E+01
N   -3.2285677782934963E+00    7.4543063982064739E+00    1.1044547720348175E+01
Ga   -3.2198055858434698E+00    7.4480579559873652E+00    1.3042167255654721E+01
N   -3.2383992069682734E+00    5.5809272480418972E+00    1.3680919551278233E+01
Ga   -3.2187800328541445E+00    5.5759947388225202E+00    1.5717463069086582E+01
N   -3.1977075173830678E+00    7.4403861227281691E+00    1.6275226895561062E+01
Ga   -3.1843999076887521E+00    7.4029547775373690E+00    1.8336477177976239E+01
N   -3.1307534201945435E+00    5.5471482069386591E+00    1.8881964821557681E+01
Ga    3.2470983327010621E+00   -2.3825234007184067E-02    3.1945192415322682E-01
N    3.2449688389355145E+00    1.8458060268737257E+00    6.0200696301606293E-01
Ga    3.2733225587809041E+00    1.8622186172658399E+00    2.6322647312676355E+00
N    3.2462411690260806E+00   -2.3582488353196013E-02    3.2226137454653934E+00
Ga    3.2473401903992962E+00   -2.2582546472011498E-02    5.2339738326472016E+00
N    3.2476001304478714E+00    1.8476311414070854E+00    5.8402516618867386E+00
Ga    3.2490968357777703E+00    1.8474610504007760E+00    7.8388395370300303E+00
N    3.2467798538649877E+00   -2.3456173918300734E-02    8.4404316043023577E+00
Ga    3.2497346191844341E+00   -2.4284431537581329E-02    1.0434277181699679E+01
N    3.2559967026658243E+00    1.8459366358514806E+00    1.1041862712018942E+01
Ga    3.2637129082103091E+00    1.8393674041253423E+00    1.3038228169294426E+01
N    3.2548543433217847E+00   -2.8392291955088262E-02    1.3657832292172234E+01
Ga    3.2651744862237870E+00   -3.3593483057335935E-02    1.5667872902364728E+01
N    3.2912833493403193E+00    1.8313854444150350E+00    1.6251003029354433E+01
Ga    3.3382508233603723E+00    1.8293764604794753E+00    1.8291218264370361E+01
N    3.3105083411650464E+00   -6.2230331212963945E-02    1.8736739685363208E+01
Ga    1.6265396963224299E+00    2.7818238600550340E+00    3.1902027480275053E-01
N    1.6326508045386015E+00    4.6517211766720736E+00    6.0184242383135189E-01
Ga    1.6048772633697013E+00    4.6674202950859867E+00    2.6325710862443383E+00
N    1.6262254109258443E+00    2.7817835849201593E+00    3.2232979642539785E+00
Ga    1.6272777745152898E+00    2.7832632210360950E+00    5.2348917310020360E+00
N    1.6324068691342839E+00    4.6529971158094181E+00    5.8427935551231807E+00
Ga    1.6322179035502478E+00    4.6526523053222713E+00    7.8430466069787474E+00
N    1.6284067427232560E+00    2.7802680923581140E+00    8.4425829846506151E+00
Ga    1.6306539405913831E+00    2.7793596158464804E+00    1.0437928996738588E+01
N    1.6268792559976823E+00    4.6503802801110607E+00    1.1033087280136199E+01
Ga    1.6234090705894291E+00    4.6502513449038423E+00    1.3027011159585928E+01
N    1.6387962712577435E+00    2.7719375866340181E+00    1.3631608693172129E+01
Ga    1.6690197198331802E+00    2.7623196537961441E+00    1.5624616072057421E+01
N    1.6234970631579382E+00    4.6448596803929920E+00    1.6124015527821211E+01
Ga    1.6963716348292148E+00    4.6088213030430918E+00    1.8105543481566908E+01
N    1.6928694025241355E+00    2.7586926720462084E+00    1.8590054367643688E+01
Ga    6.8285540913854432E-03    5.5867679231117400E+00   -5.4973236663252611E-01
N    9.9478098669966934E-03    7.4613364791446202E+00    6.0170697825905506E-01
Ga    9.7461680277572960E-03    7.4304254153860532E+00    2.6325065730240578E+00
N    6.6307924793049568E-03    5.5870332530099347E+00    3.2638077116698927E+00
Ga    7.8122831694458139E-03    5.5880355197122835E+00    5.2538026661330424E+00
N    1.0649477390843870E-02    7.4626529283068610E+00    5.8410956888438124E+00
Ga    1.1207447182673410E-02    7.4607559320164185E+00    7.8402622883223581E+00
N    6.1787706092311821E-03    5.5871035124631874E+00    8.4394624773713502E+00
Ga    5.7771893797160974E-03    5.5865168465604382E+00    1.0436069850557878E+01
N    1.2852349677269974E-02    7.4600252020557170E+00    1.1034483447045240E+01
Ga    1.2791624315182253E-02    7.4631955148842843E+00    1.3026336812926205E+01
N    3.4762864326575045E-04    5.5926174082101481E+00    1.3623998096084263E+01
Ga    1.2110887495755856E-03    5.5813349861949693E+00    1.5618621477477683E+01
N    4.1396565740567194E-02    7.4502320017762704E+00    1.6249484859296530E+01
Ga    6.7077634943018175E-02    7.4087471470887305E+00    1.8334290210163179E+01
N    1.8046925811393069E-01    5.5511748131925307E+00    1.8870573488543418E+01
Ga    6.4907770632729687E+00   -2.3321022425382507E-02    3.1891560443922740E-01
N    6.4980126100343538E+00    1.8462396184599319E+00    6.0191572220332401E-01
Ga    6.4698517677026883E+00    1.8621523898998584E+00    2.6321189533755796E+00
N    6.4919731338593110E+00   -2.3484257996025541E-02    3.2233676833729357E+00
Ga    6.4929145126134209E+00   -2.2477782171869413E-02    5.2350706261852649E+00
N    6.4978122551976663E+00    1.8481329535762403E+00    5.8407868221298003E+00
Ga    6.4972889582621534E+00    1.8483125922645660E+00    7.8393617196829304E+00
N    6.4926987876419693E+00   -2.1346820502015619E-02    8.4433332953467026E+00
Ga    6.4952381801910439E+00   -1.7917769367222863E-02    1.0439305460171848E+01
N    6.4976665848616983E+00    1.8540042999532691E+00    1.1048555139604199E+01
Ga    6.5017209875038260E+00    1.8591404649189338E+00    1.3047205455849129E+01
N    6.4906006930874671E+00   -1.4060406764345196E-02    1.3623387179176087E+01
Ga    6.5074903755537772E+00   -8.8355885176418705E-03    1.5623389086160644E+01
N    6.5149127927699357E+00    1.8561266146627013E+00    1.6243728912543805E+01
Ga    6.5793603212000198E+00    1.8290853502252056E+00    1.8296166796636189E+01
N    6.5788497746134196E+00   -7.6481306125184709E-02    1.8655580258153652E+01
Ga    4.8721492672536106E+00    2.7827005677420789E+00   -5.4967308829201600E-01
N    4.8749905522774410E+00    4.6564018065831361E+00    6.0287908709332294E-01
Ga    4.8745119826612084E+00    4.6251257773865690E+00    2.6328330303649703E+00
N    4.8719755049964313E+00    2.7818011802834230E+00    3.2637805196820113E+00
Ga    4.8727566429601747E+00    2.7833590147367353E+00    5.2534010688043162E+00
N    4.8752445339913830E+00    4.6573212663019179E+00    5.8413156682093632E+00
Ga    4.8746439508534367E+00    4.6558494079234984E+00    7.8405178371638975E+00
N    4.8733416052531160E+00    2.7823535325849389E+00    8.4404157200798942E+00
Ga    4.8764480044733860E+00    2.7847154225086994E+00    1.0437526650032339E+01
N    4.8806457753511294E+00    4.6538690461808594E+00    1.1044458106488898E+01
Ga    4.8802890068276481E+00    4.6551726871730272E+00    1.3044787707718786E+01
N    4.8748872149364635E+00    2.7866579442409787E+00    1.3658133091080172E+01
Ga    4.8808571232039171E+00    2.7800181521998772E+00    1.5680020981944521E+01
N    4.8436742694017818E+00    4.6704167600803643E+00    1.6138151862691828E+01
Ga    4.9638860506839810E+00    4.6080693269117647E+00    1.9105933348981150E+01
N    4.9601915618646526E+00    2.7222261013362772E+00    1.8822229661515141E+01
Ga    3.2527517251401807E+00    5.5857945195005740E+00    3.1920857103420941E-01
N    3.2516116640928452E+00    7.4567366491833518E+00    6.0069874604989792E-01
Ga    3.2791640759510616E+00    7.4725086813009396E+00    2.6327014970615767E+00
N    3.2520949672342270E+00    5.5874777950375032E+00    3.2238392800585163E+00
Ga    3.2527470702455794E+00    5.5884399532187796E+00    5.2356025265601174E+00
N    3.2534645153742847E+00    7.4585430272767477E+00    5.8431516244455164E+00
Ga    3.2554654903205096E+00    7.4584137933581758E+00    7.8435135684491719E+00
N    3.2536243745113449E+00    5.5876570000019745E+00    8.4466747076091586E+00
Ga    3.2550806710264601E+00    5.5880034410385075E+00    1.0445891192509668E+01
N    3.2589875380555999E+00    7.4650271124434555E+00    1.1034511733441928E+01
Ga    3.2590825467276838E+00    7.4689284994225611E+00    1.3029603823208552E+01
N    3.2450466013332830E+00    5.5915363712954100E+00    1.3586943829796370E+01
Ga    3.2464053507230486E+00    5.6006385927362885E+00    1.5582507623963174E+01
N    3.2740910448523879E+00    7.4710527346984037E+00    1.6128049043374943E+01
Ga    3.3342323023538110E+00    7.4462271037732277E+00    1.8133568644170083E+01
N    3.4389663483018942E+00    5.4954205282891362E+00    1.8328295996356673E+01
O    1.5713048280355777E+00    5.0661485244310018E+00    2.1200846733255148E+01
H    9.9570674040077556E-01    5.3907017678545248E+00    2.0419799637163191E+01
C    8.7720779108269531E-01    3.9293012220700319E+00    2.1751000136144071E+01
H    4.4686409703217722E-01    3.3012288932774241E+00    2.0953433987554298E+01
H    1.5935541934236976E+00    3.3246691806406168E+00    2.2320745607757221E+01
H    7.2190219017167809E-02    4.2612482359390729E+00    2.2423537646857159E+01
O    4.1988672292712828E+00    4.8127184660596996E+00    2.1038048178590774E+01
H    3.1769520017385866E+00    4.9112492027077943E+00    2.1038772643370226E+01
C    4.5920854959024009E+00    3.8328444394548113E+00    2.2032801437154497E+01
H    4.3095477775157729E+00    2.8177321804236404E+00    2.1720153268218450E+01
H    5.6820850751211154E+00    3.8889552988738796E+00    2.2135546741715782E+01
H    4.1215358582460189E+00    4.0871662730687035E+00    2.2990915403095261E+01
     &END COORD
     &KIND C
       BASIS_SET DZVP-MOLOPT-SR-GTH-q4
       POTENTIAL GTH-PBE-q4
       &POTENTIAL
 2 2
  0.3384712400000000E+00 2 -0.8803673979999999E+01  0.1339210850000000E+01
 2
  0.3025757500000000E+00 1  0.9622486650000001E+01
  0.2915069400000000E+00 0
         # Potential name:  GTH-PBE-Q4  for symbol:  C
         # Potential read from the potential filename: GTH_POTENTIALS
       &END POTENTIAL
     &END KIND
     &KIND O
       BASIS_SET DZVP-MOLOPT-SR-GTH-q6
       POTENTIAL GTH-PBE-q6
       &POTENTIAL
 2 4
  0.2445543000000000E+00 2 -0.1666721480000000E+02  0.2487311320000000E+01
 2
  0.2209559200000000E+00 1  0.1833745811000000E+02
  0.2113324700000000E+00 0
         # Potential name:  GTH-PBE-Q6  for symbol:  O
         # Potential read from the potential filename: GTH_POTENTIALS
       &END POTENTIAL
     &END KIND
     &KIND H
       BASIS_SET DZVP-MOLOPT-SR-GTH-q1
       POTENTIAL GTH-PBE-q1
       &POTENTIAL
 1
  0.2000000000000000E+00 2 -0.4178900440000000E+01  0.7244633100000000E+00
 0
         # Potential name:  GTH-PBE-Q1  for symbol:  H
         # Potential read from the potential filename: GTH_POTENTIALS
       &END POTENTIAL
     &END KIND
     &KIND N
       BASIS_SET DZVP-MOLOPT-SR-GTH-q5
       POTENTIAL GTH-PBE-q5
       &POTENTIAL
 2 3
  0.2837905100000000E+00 2 -0.1241522559000000E+02  0.1868095920000000E+01
 2
  0.2554050000000000E+00 1  0.1363026257000000E+02
  0.2454945300000000E+00 0
         # Potential name:  GTH-PBE-Q5  for symbol:  N
         # Potential read from the potential filename: GTH_POTENTIALS
       &END POTENTIAL
     &END KIND
     &KIND Ga
       BASIS_SET DZVP-MOLOPT-SR-GTH-q13
       POTENTIAL GTH-PBE-q13
       &POTENTIAL
 2 1 10
  0.4900000000000000E+00 0
 3
  0.4167772300000000E+00 3  0.1047568975000000E+02 -0.4921768140000000E+01  0.8707055900000000E+00
  0.7770178090000000E+01 -0.2248152160000000E+01
  0.1784415450000000E+01
  0.5696265200000000E+00 2  0.1777985340000000E+01  0.1958597600000000E+00
 -0.2317443900000000E+00
  0.2381265000000000E+00 1 -0.1624868022000000E+02
         # Potential name:  GTH-PBE-Q13  for symbol:  GA
         # Potential read from the potential filename: GTH_POTENTIALS
       &END POTENTIAL
     &END KIND
     &TOPOLOGY
       COORD_FILE_NAME ../start-first.xyz
       COORD_FILE_FORMAT  XYZ
       NUMBER_OF_ATOMS  156
       MULTIPLE_UNIT_CELL  1 1 1
     &END TOPOLOGY
     &COLVAR
       &DISTANCE
         ATOMS  32 148
       &END DISTANCE
       &PRINT
       &END PRINT
     &END COLVAR
   &END SUBSYS
 &END FORCE_EVAL
