 # Version information for this restart file 
 # current date 2019-05-27 21:12:12.803
 # current working dir /lustre03/project/6004141/rzk/GaN-carbene/334-native/08-2Methanol-Htransfer/02-NH-constraint/3.04
 # Program compiled at                              Sun Apr  7 00:48:11 EDT 2019
 # Program compiled on                          beluga2.int.ets1.calculquebec.ca
 # Program compiled for                        Beluga-Linux-x86-64-intel-openmpi
 # Source code revision number                                         svn:18619
 &GLOBAL
   PRINT_LEVEL  MEDIUM
   PROJECT_NAME TEST
   RUN_TYPE  GEO_OPT
 &END GLOBAL
 &MOTION
   &GEO_OPT
     MAX_ITER  500
     STEP_START_VAL  45
   &END GEO_OPT
   &CONSTRAINT
     &COLLECTIVE
       COLVAR  1
       INTERMOLECULAR  T
       TARGET     5.7447674439723544E+00
       &RESTRAINT
         K     1.0000000000000001E-01
       &END RESTRAINT
     &END COLLECTIVE
     &COLVAR_RESTART
           5.7447674439723544E+00
     &END COLVAR_RESTART
   &END CONSTRAINT
 &END MOTION
 &FORCE_EVAL
   METHOD  QS
   STRESS_TENSOR  ANALYTICAL
   &DFT
     BASIS_SET_FILE_NAME BASIS_MOLOPT
     POTENTIAL_FILE_NAME GTH_POTENTIALS
     &SCF
       MAX_SCF  100
       EPS_SCF     5.0000000000000004E-06
       &OT  T
         PRECONDITIONER  FULL_ALL
       &END OT
       &OUTER_SCF  T
         OPTIMIZER  NONE
         EPS_SCF     5.0000000000000004E-06
         MAX_SCF  4
       &END OUTER_SCF
       &PRINT
         &RESTART  OFF
           BACKUP_COPIES  1
           &EACH
             JUST_ENERGY  0
             QS_SCF  0
             MD  20
           &END EACH
         &END RESTART
       &END PRINT
     &END SCF
     &QS
       EPS_DEFAULT     1.0000000000000000E-14
       ALMO_SCF  F
       METHOD  GPW
     &END QS
     &MGRID
       NGRIDS  5
       CUTOFF     1.2000000000000000E+03
     &END MGRID
     &XC
       DENSITY_CUTOFF     1.0000000000000000E-10
       GRADIENT_CUTOFF     1.0000000000000000E-10
       TAU_CUTOFF     1.0000000000000000E-10
       &XC_FUNCTIONAL  NO_SHORTCUT
         &PBE  T
         &END PBE
       &END XC_FUNCTIONAL
       &VDW_POTENTIAL
         POTENTIAL_TYPE  PAIR_POTENTIAL
         &PAIR_POTENTIAL
           R_CUTOFF     1.0000000000000005E+01
           TYPE  DFTD3
           PARAMETER_FILE_NAME dftd3.dat
           REFERENCE_FUNCTIONAL PBE
           EPS_CN     9.9999999999999995E-07
           CALCULATE_C9_TERM  T
           REFERENCE_C9_TERM  T
           LONG_RANGE_CORRECTION  F
           VERBOSE_OUTPUT  F
         &END PAIR_POTENTIAL
       &END VDW_POTENTIAL
     &END XC
   &END DFT
   &SUBSYS
     &CELL
       A     9.7367653356401487E+00    0.0000000000000000E+00    0.0000000000000000E+00
       B    -4.8591341382960209E+00    8.4162672083210595E+00    0.0000000000000000E+00
       C     0.0000000000000000E+00    0.0000000000000000E+00    3.0744000000000000E+01
       MULTIPLE_UNIT_CELL  1 1 1
       &CELL_REF
         A     9.5580000000000052E+00    0.0000000000000000E+00    0.0000000000000000E+00
         B    -4.7790000000000026E+00    8.2774708093716640E+00    0.0000000000000000E+00
         C     0.0000000000000000E+00    0.0000000000000000E+00    3.0744000000000000E+01
         MULTIPLE_UNIT_CELL  1 1 1
       &END CELL_REF
     &END CELL
     &COORD
Ga    9.3509727963698443E-04   -2.4137141601965565E-02   -5.3811291106790349E-01
N    3.7232779735718929E-03    1.8499499811093343E+00    6.0073958498134605E-01
Ga    3.4239389245756474E-03    1.8197475590428800E+00    2.6328839065799299E+00
N    3.2272448650910767E-04   -2.3810191840213952E-02    3.2635566088414039E+00
Ga    8.4077668838578663E-04   -2.2900295015565768E-02    5.2538363478867822E+00
N    3.9302098997785083E-03    1.8518728388561543E+00    5.8411367300726029E+00
Ga    5.3042242550634597E-03    1.8493247634708287E+00    7.8402327411307899E+00
N    4.2374832584575273E-03   -2.3435330038424147E-02    8.4409509751792093E+00
Ga    7.2150136451844408E-03   -2.4135585958857567E-02    1.0438505478236365E+01
N    5.8799702540890987E-03    1.8483060256702757E+00    1.1041194736928361E+01
Ga    1.3354606069617660E-02    1.8446973144381587E+00    1.3035099282996253E+01
N    2.1666238013440291E-02   -2.7501370507594863E-02    1.3629672017294562E+01
Ga    4.0495393213195029E-02   -5.1120475378112200E-02    1.5622841110566236E+01
N    3.3579405367297831E-02    1.8319916701295631E+00    1.6200750254561108E+01
Ga    5.8463878063307217E-02    1.8146650407406149E+00    1.8255591208227816E+01
N    4.9361604398195508E-02   -5.8065555677996775E-02    1.8656846139968707E+01
Ga   -1.6193702806107397E+00    2.7813796169964049E+00    3.1883686604372469E-01
N   -1.6200978884542281E+00    4.6512917093964932E+00    6.0167940443990109E-01
Ga   -1.5920857578358114E+00    4.6673594545942061E+00    2.6321719294231896E+00
N   -1.6190461635294398E+00    2.7817143581161075E+00    3.2226561132298968E+00
Ga   -1.6185490946351526E+00    2.7827594606918669E+00    5.2337262657415620E+00
N   -1.6182094163926672E+00    4.6526858188390579E+00    5.8398965032082231E+00
Ga   -1.6168346964537015E+00    4.6524835377747422E+00    7.8380004784415238E+00
N   -1.6173060808161934E+00    2.7823082963082677E+00    8.4441201172086835E+00
Ga   -1.6166747937920591E+00    2.7836942695183460E+00    1.0439636662628024E+01
N   -1.6176598958363519E+00    4.6537867019452746E+00    1.1047343050810305E+01
Ga   -1.6211498268507469E+00    4.6523357489336172E+00    1.3044545901192254E+01
N   -1.6037525013828349E+00    2.7833611580600275E+00    1.3663156969477654E+01
Ga   -1.5994298590565001E+00    2.7951509646859920E+00    1.5672161370661337E+01
N   -1.5903596132387141E+00    4.6606149760749194E+00    1.6303410424084689E+01
Ga   -1.4951102056078849E+00    4.6537704703953615E+00    1.8384145408915924E+01
N   -1.5320564701765995E+00    2.7552523822716921E+00    1.8710032153848129E+01
Ga   -3.2394771370775697E+00    5.5864597018602273E+00    3.1916693637293808E-01
N   -3.2329761389761442E+00    7.4574954276479959E+00    6.0107954872408598E-01
Ga   -3.2603885039292768E+00    7.4726365871559324E+00    2.6330096704861656E+00
N   -3.2389248719685155E+00    5.5871576891141954E+00    3.2229889318194371E+00
Ga   -3.2387001357252019E+00    5.5877390445306219E+00    5.2341366993732814E+00
N   -3.2326458605835668E+00    7.4581689644348081E+00    5.8394166446902220E+00
Ga   -3.2333325948645455E+00    7.4581467545436286E+00    7.8375530687308697E+00
N   -3.2374667107495232E+00    5.5873863270364934E+00    8.4407250427447167E+00
Ga   -3.2370242072843816E+00    5.5854527891804926E+00    1.0435019089684111E+01
N   -3.2285665054225650E+00    7.4544247236677039E+00    1.1044701159438857E+01
Ga   -3.2198639791939128E+00    7.4479437676583311E+00    1.3042315445816369E+01
N   -3.2386296757169988E+00    5.5809984600357758E+00    1.3681120496445237E+01
Ga   -3.2191522762997749E+00    5.5757351426186093E+00    1.5717640459789161E+01
N   -3.1976657150092485E+00    7.4400474810677917E+00    1.6275739586187193E+01
Ga   -3.1839556775178561E+00    7.4029200063883787E+00    1.8336935977081563E+01
N   -3.1311658464664420E+00    5.5467306123136009E+00    1.8881132263586192E+01
Ga    3.2472094403641290E+00   -2.3829385863601626E-02    3.1919066515187133E-01
N    3.2451241756032183E+00    1.8459028038846732E+00    6.0197122589936092E-01
Ga    3.2734134834633593E+00    1.8623211027073847E+00    2.6322063183207249E+00
N    3.2463141613338600E+00   -2.3532335975353522E-02    3.2227301851063319E+00
Ga    3.2473315211905200E+00   -2.2474970862446163E-02    5.2340384729933218E+00
N    3.2476847915133624E+00    1.8476782878514240E+00    5.8403143874291974E+00
Ga    3.2492120332692807E+00    1.8475002273986458E+00    7.8387536183425590E+00
N    3.2467681245198574E+00   -2.3337568115054590E-02    8.4405325089685803E+00
Ga    3.2496323697100808E+00   -2.4147846093892363E-02    1.0434332073117101E+01
N    3.2560500495859728E+00    1.8459894388630316E+00    1.1041970634953918E+01
Ga    3.2638592524895871E+00    1.8390380233878427E+00    1.3038315155391880E+01
N    3.2545635662549328E+00   -2.8584713731312127E-02    1.3658184599895689E+01
Ga    3.2650885765805224E+00   -3.3875575441206986E-02    1.5668120334623861E+01
N    3.2914885530960776E+00    1.8311447776881391E+00    1.6251105283198033E+01
Ga    3.3383614624504516E+00    1.8295031235435635E+00    1.8291282572354167E+01
N    3.3105492126418912E+00   -6.1974970752734081E-02    1.8737458472006832E+01
Ga    1.6266076302784571E+00    2.7819706728152886E+00    3.1883980142148438E-01
N    1.6326536792142825E+00    4.6518872553762449E+00    6.0202135619845343E-01
Ga    1.6049469857626748E+00    4.6675056731250457E+00    2.6325291995332591E+00
N    1.6263172407138822E+00    2.7819053947415697E+00    3.2234985191848788E+00
Ga    1.6273823459684507E+00    2.7832993686845691E+00    5.2350620341274183E+00
N    1.6324915629549954E+00    4.6530606885228796E+00    5.8428635851572981E+00
Ga    1.6322611884288707E+00    4.6528148608442335E+00    7.8430383369837360E+00
N    1.6285662063120439E+00    2.7804376224618417E+00    8.4425570405655428E+00
Ga    1.6308020198531281E+00    2.7795350024071399E+00    1.0437910065012975E+01
N    1.6267958216690113E+00    4.6505946928580126E+00    1.1033146040015506E+01
Ga    1.6233294493541444E+00    4.6502166275865617E+00    1.3027027839407031E+01
N    1.6389136600410292E+00    2.7717455065279379E+00    1.3631731972400646E+01
Ga    1.6690640043902936E+00    2.7622107602249679E+00    1.5624588799062600E+01
N    1.6234549174762722E+00    4.6445452443161850E+00    1.6123839856489170E+01
Ga    1.6963629738966270E+00    4.6087715953936410E+00    1.8105244800902028E+01
N    1.6927193614809599E+00    2.7586310998295587E+00    1.8590111343183512E+01
Ga    6.9270879455401238E-03    5.5868146841788384E+00   -5.4993739497101002E-01
N    1.0030899866297731E-02    7.4612877569639808E+00    6.0183454829451943E-01
Ga    9.7907225755048087E-03    7.4304283032561758E+00    2.6324930119120573E+00
N    6.6883056789136391E-03    5.5870478466383773E+00    3.2640568068937790E+00
Ga    7.8435375316237097E-03    5.5880679651750667E+00    5.2540212601656551E+00
N    1.0617443789624852E-02    7.4627426492371134E+00    5.8411546646542183E+00
Ga    1.1195118743045204E-02    7.4609980561965985E+00    7.8402311072446746E+00
N    6.2187015626692958E-03    5.5873036081145662E+00    8.4394501848235972E+00
Ga    5.7096262493290563E-03    5.5867322942848672E+00    1.0436124077459123E+01
N    1.2782235877272769E-02    7.4601753734927989E+00    1.1034593854860869E+01
Ga    1.2458057522542776E-02    7.4631131789443854E+00    1.3026529956936804E+01
N    6.0551429617601026E-05    5.5923990818494689E+00    1.3624094372262133E+01
Ga    9.2458863803766118E-04    5.5811336021260001E+00    1.5618679768861343E+01
N    4.1341833307895669E-02    7.4498970831758689E+00    1.6249883174163141E+01
Ga    6.6913089291342570E-02    7.4087101641132094E+00    1.8334645904688507E+01
N    1.8020057017763383E-01    5.5507872408348558E+00    1.8869970616541806E+01
Ga    6.4908278310417131E+00   -2.3308708449380895E-02    3.1869369380552454E-01
N    6.4980127323296077E+00    1.8463707787953756E+00    6.0189489940187979E-01
Ga    6.4698269577594827E+00    1.8622728227002165E+00    2.6320559162138690E+00
N    6.4919580065974358E+00   -2.3400421370293547E-02    3.2235094846439356E+00
Ga    6.4929202187357209E+00   -2.2351694850614043E-02    5.2351841313953891E+00
N    6.4978194049667524E+00    1.8482217744350122E+00    5.8408331241838853E+00
Ga    6.4973238092275798E+00    1.8484610675211195E+00    7.8393058759515206E+00
N    6.4927136291485361E+00   -2.1171754305466483E-02    8.4432721589855912E+00
Ga    6.4951710230596449E+00   -1.7731769678109389E-02    1.0439272711796827E+01
N    6.4977594626500368E+00    1.8540990907578290E+00    1.1048555348808044E+01
Ga    6.5017224105134517E+00    1.8589141240687681E+00    1.3047107046074176E+01
N    6.4904302514103964E+00   -1.4257312817269784E-02    1.3623619193789928E+01
Ga    6.5073547102796736E+00   -9.3250031026055249E-03    1.5623522887433488E+01
N    6.5151165820788544E+00    1.8558033324992873E+00    1.6243766677433520E+01
Ga    6.5799737560596281E+00    1.8285895768868803E+00    1.8296126525330692E+01
N    6.5790893364351541E+00   -7.7047553224951174E-02    1.8656147946205813E+01
Ga    4.8722399904713303E+00    2.7827194754808482E+00   -5.4984358118369558E-01
N    4.8750608952537684E+00    4.6564068501287990E+00    6.0270384709359270E-01
Ga    4.8745588085458973E+00    4.6251338792576835E+00    2.6326239735208423E+00
N    4.8719999592335625E+00    2.7818864624482957E+00    3.2638756273480682E+00
Ga    4.8727774839380436E+00    2.7834175609222793E+00    5.2534789496126510E+00
N    4.8752532183296644E+00    4.6573416066742155E+00    5.8413620740740537E+00
Ga    4.8746437716557320E+00    4.6559530149864434E+00    7.8404869665157131E+00
N    4.8734024398903433E+00    2.7824632268582294E+00    8.4404965194807406E+00
Ga    4.8765070405937143E+00    2.7848546446051126E+00    1.0437590766089304E+01
N    4.8805766293234250E+00    4.6540264985068127E+00    1.1044754911882203E+01
Ga    4.8801700461093613E+00    4.6549634628853163E+00    1.3045080379280924E+01
N    4.8750632825429587E+00    2.7862827634035345E+00    1.3658403092807657E+01
Ga    4.8811563305106764E+00    2.7797052570309546E+00    1.5679940577853605E+01
N    4.8435347427326105E+00    4.6701277413124123E+00    1.6138482924316151E+01
Ga    4.9637929581519131E+00    4.6075017402605178E+00    1.9105460305451324E+01
N    4.9606136926816706E+00    2.7217142925445588E+00    1.8822338439723143E+01
Ga    3.2527987737546242E+00    5.5859164365758094E+00    3.1892495657142078E-01
N    3.2517906681711555E+00    7.4568840052514602E+00    6.0078358871827364E-01
Ga    3.2791943793717557E+00    7.4725348783457175E+00    2.6327838783691737E+00
N    3.2521382382529249E+00    5.5874888601394810E+00    3.2239653096388321E+00
Ga    3.2528125911930852E+00    5.5884543541163829E+00    5.2356658933033566E+00
N    3.2534676231275252E+00    7.4585710097107532E+00    5.8431449173088108E+00
Ga    3.2554772351689856E+00    7.4585311811497723E+00    7.8434969414327975E+00
N    3.2536158744782551E+00    5.5877657249837354E+00    8.4467279399942417E+00
Ga    3.2550956167178406E+00    5.5881818908767640E+00    1.0445948237567128E+01
N    3.2588934896033157E+00    7.4651834076375367E+00    1.1034514232049826E+01
Ga    3.2588506255762941E+00    7.4688188628961072E+00    1.3029575366557404E+01
N    3.2448908437081467E+00    5.5914912016637679E+00    1.3587226602634205E+01
Ga    3.2462645648533726E+00    5.6001075684129553E+00    1.5582578134980524E+01
N    3.2740690049240273E+00    7.4706183243272397E+00    1.6127943665831371E+01
Ga    3.3342877114021547E+00    7.4457810811543563E+00    1.8133095267066530E+01
N    3.4390817238656139E+00    5.4950788474562282E+00    1.8327850925936829E+01
O    1.5712380036731244E+00    5.0658554232238737E+00    2.1199655603236170E+01
H    9.9524907480032943E-01    5.3903001709881222E+00    2.0418740052586632E+01
C    8.7819632155102323E-01    3.9287834449942713E+00    2.1750537486949767E+01
H    4.4824869962212743E-01    3.2998280530924728E+00    2.0953850230531248E+01
H    1.5950367292522827E+00    3.3252911387392627E+00    2.2320409293477294E+01
H    7.3412157206165118E-02    4.2608583676130349E+00    2.2422713776180846E+01
O    4.1990450884797745E+00    4.8130551669972164E+00    2.1037442656454875E+01
H    3.1771898091001947E+00    4.9113675862884367E+00    2.1037421735060057E+01
C    4.5912276864206003E+00    3.8333258151400695E+00    2.2032738986350804E+01
H    4.3085121642721518E+00    2.8183049034333441E+00    2.1720474766212813E+01
H    5.6811306234460268E+00    3.8889780475638576E+00    2.2136054552759891E+01
H    4.1202389991757693E+00    4.0879482075433096E+00    2.2990562593793708E+01
     &END COORD
     &KIND C
       BASIS_SET DZVP-MOLOPT-SR-GTH-q4
       POTENTIAL GTH-PBE-q4
       &POTENTIAL
 2 2
  0.3384712400000000E+00 2 -0.8803673979999999E+01  0.1339210850000000E+01
 2
  0.3025757500000000E+00 1  0.9622486650000001E+01
  0.2915069400000000E+00 0
         # Potential name:  GTH-PBE-Q4  for symbol:  C
         # Potential read from the potential filename: GTH_POTENTIALS
       &END POTENTIAL
     &END KIND
     &KIND O
       BASIS_SET DZVP-MOLOPT-SR-GTH-q6
       POTENTIAL GTH-PBE-q6
       &POTENTIAL
 2 4
  0.2445543000000000E+00 2 -0.1666721480000000E+02  0.2487311320000000E+01
 2
  0.2209559200000000E+00 1  0.1833745811000000E+02
  0.2113324700000000E+00 0
         # Potential name:  GTH-PBE-Q6  for symbol:  O
         # Potential read from the potential filename: GTH_POTENTIALS
       &END POTENTIAL
     &END KIND
     &KIND H
       BASIS_SET DZVP-MOLOPT-SR-GTH-q1
       POTENTIAL GTH-PBE-q1
       &POTENTIAL
 1
  0.2000000000000000E+00 2 -0.4178900440000000E+01  0.7244633100000000E+00
 0
         # Potential name:  GTH-PBE-Q1  for symbol:  H
         # Potential read from the potential filename: GTH_POTENTIALS
       &END POTENTIAL
     &END KIND
     &KIND N
       BASIS_SET DZVP-MOLOPT-SR-GTH-q5
       POTENTIAL GTH-PBE-q5
       &POTENTIAL
 2 3
  0.2837905100000000E+00 2 -0.1241522559000000E+02  0.1868095920000000E+01
 2
  0.2554050000000000E+00 1  0.1363026257000000E+02
  0.2454945300000000E+00 0
         # Potential name:  GTH-PBE-Q5  for symbol:  N
         # Potential read from the potential filename: GTH_POTENTIALS
       &END POTENTIAL
     &END KIND
     &KIND Ga
       BASIS_SET DZVP-MOLOPT-SR-GTH-q13
       POTENTIAL GTH-PBE-q13
       &POTENTIAL
 2 1 10
  0.4900000000000000E+00 0
 3
  0.4167772300000000E+00 3  0.1047568975000000E+02 -0.4921768140000000E+01  0.8707055900000000E+00
  0.7770178090000000E+01 -0.2248152160000000E+01
  0.1784415450000000E+01
  0.5696265200000000E+00 2  0.1777985340000000E+01  0.1958597600000000E+00
 -0.2317443900000000E+00
  0.2381265000000000E+00 1 -0.1624868022000000E+02
         # Potential name:  GTH-PBE-Q13  for symbol:  GA
         # Potential read from the potential filename: GTH_POTENTIALS
       &END POTENTIAL
     &END KIND
     &TOPOLOGY
       COORD_FILE_NAME ../start-first.xyz
       COORD_FILE_FORMAT  XYZ
       NUMBER_OF_ATOMS  156
       MULTIPLE_UNIT_CELL  1 1 1
     &END TOPOLOGY
     &COLVAR
       &DISTANCE
         ATOMS  32 148
       &END DISTANCE
       &PRINT
       &END PRINT
     &END COLVAR
   &END SUBSYS
 &END FORCE_EVAL
