 # Version information for this restart file 
 # current date 2019-07-04 09:06:28.979
 # current working dir /lustre04/scratch/rzk/rzk/GaN-carbene/443-adatoms-both-2x2/02-Methanol/04-H-NSur-Attempt2
 # Program compiled at                              Sun Apr  7 00:48:11 EDT 2019
 # Program compiled on                          beluga2.int.ets1.calculquebec.ca
 # Program compiled for                        Beluga-Linux-x86-64-intel-openmpi
 # Source code revision number                                         svn:18619
 &GLOBAL
   PRINT_LEVEL  MEDIUM
   PROJECT_NAME TEST
   RUN_TYPE  GEO_OPT
 &END GLOBAL
 &MOTION
   &GEO_OPT
     MAX_ITER  500
     STEP_START_VAL  124
   &END GEO_OPT
 &END MOTION
 &FORCE_EVAL
   METHOD  QS
   STRESS_TENSOR  ANALYTICAL
   &DFT
     BASIS_SET_FILE_NAME BASIS_MOLOPT
     POTENTIAL_FILE_NAME GTH_POTENTIALS
     UKS  T
     SURFACE_DIPOLE_CORRECTION  T
     SURF_DIP_DIR  Z
     &SCF
       MAX_SCF  80
       EPS_SCF     5.0000000000000004E-06
       &OT  T
         PRECONDITIONER  FULL_ALL
       &END OT
       &OUTER_SCF  T
         OPTIMIZER  NONE
         EPS_SCF     5.0000000000000004E-06
         MAX_SCF  4
       &END OUTER_SCF
       &PRINT
         &RESTART  OFF
           BACKUP_COPIES  1
           &EACH
             JUST_ENERGY  0
             QS_SCF  0
             MD  20
           &END EACH
         &END RESTART
       &END PRINT
     &END SCF
     &QS
       EPS_DEFAULT     1.0000000000000000E-14
       METHOD  GPW
     &END QS
     &MGRID
       NGRIDS  5
       CUTOFF     1.2000000000000000E+03
     &END MGRID
     &XC
       DENSITY_CUTOFF     1.0000000000000000E-10
       GRADIENT_CUTOFF     1.0000000000000000E-10
       TAU_CUTOFF     1.0000000000000000E-10
       &XC_FUNCTIONAL  NO_SHORTCUT
         &PBE  T
         &END PBE
       &END XC_FUNCTIONAL
       &VDW_POTENTIAL
         POTENTIAL_TYPE  PAIR_POTENTIAL
         &PAIR_POTENTIAL
           R_CUTOFF     1.0000000000000004E+01
           TYPE  DFTD3
           PARAMETER_FILE_NAME dftd3.dat
           REFERENCE_FUNCTIONAL PBE
           EPS_CN     9.9999999999999995E-07
           CALCULATE_C9_TERM  T
           REFERENCE_C9_TERM  T
           LONG_RANGE_CORRECTION  F
           VERBOSE_OUTPUT  F
         &END PAIR_POTENTIAL
       &END VDW_POTENTIAL
     &END XC
   &END DFT
   &SUBSYS
     &CELL
       A     1.2864472766435110E+01    0.0000000000000000E+00    0.0000000000000000E+00
       B    -6.4322363581020028E+00    1.1140960178524473E+01    0.0000000000000000E+00
       C     0.0000000000000000E+00    0.0000000000000000E+00    3.2000000000000000E+01
       MULTIPLE_UNIT_CELL  1 1 1
       &CELL_REF
         A     1.2982353780853531E+01    0.0000000000000000E+00    0.0000000000000000E+00
         B    -6.4911768904267628E+00    1.1243048175136114E+01    0.0000000000000000E+00
         C     0.0000000000000000E+00    0.0000000000000000E+00    3.2000000000000000E+01
         MULTIPLE_UNIT_CELL  1 1 1
       &END CELL_REF
     &END CELL
     &COORD
N    2.0055214609647887E-01    1.8990749601246273E+00    2.5232342725212242E+00
Ga    2.2892517618067210E-01   -1.0770822510446823E-01    2.8260758001163904E+00
N    1.9915636509405246E-01   -7.4427658947208555E-02    5.0199099485550249E+00
Ga    1.9679471991578498E-01    1.7463406059982594E+00    5.7991231853050049E+00
N    1.9161154284193774E-01    1.7716781023577237E+00    7.7974412535906845E+00
Ga    1.9185187124210482E-01   -7.5976041245346279E-02    8.4432609793461548E+00
N    1.8650790978776602E-01   -7.4211813826459777E-02    1.0419535871580806E+01
Ga    1.8642250795424628E-01    1.7643804261442471E+00    1.1071514217314371E+01
N    1.8288982378701243E-01    1.7462508708784732E+00    1.3064965816971869E+01
Ga    1.8359919564137078E-01   -7.2889017324871588E-02    1.3877467577284849E+01
N    1.8135964882666444E-01   -7.3271111436413530E-02    1.6069755625553778E+01
Ga    1.8079660832800215E-01    1.9799853359122763E+00    1.6501845048021831E+01
Ga    2.0228114519071749E-01    3.6048570983613888E+00    1.4765555627150371E+00
N   -1.2985342731064471E+00    4.5137557579449181E+00    2.5168198298891449E+00
Ga   -1.5076990744315339E+00    2.6453888352342179E+00    3.2869688373781081E+00
N   -1.4098089273532182E+00    2.7135570154788344E+00    5.2503864045334767E+00
Ga   -1.4473342279226715E+00    4.5812260485102314E+00    5.8057945680358962E+00
N   -1.4248198669623695E+00    4.5743577627156489E+00    7.7977213877017615E+00
Ga   -1.4066789590038709E+00    2.7140830516588919E+00    8.4366521845057889E+00
N   -1.4101143205836131E+00    2.7170532774492626E+00    1.0430737374748533E+01
Ga   -1.4360878736933811E+00    4.5750412515166223E+00    1.1070491267039614E+01
N   -1.4548713214156574E+00    4.5855947629647487E+00    1.3061910442157730E+01
Ga   -1.4136230217000714E+00    2.7178195710314412E+00    1.3625072819825006E+01
N   -1.4499484180139850E+00    2.7049658535958301E+00    1.5583154585541013E+01
Ga   -1.2440672038164140E+00    4.4642607922975284E+00    1.6504351780974254E+01
N    1.8047790731445368E-01    3.6306995485486397E+00    1.7650852486696134E+01
N   -3.0107968355879264E+00    7.4932221519017173E+00    2.4977562040163943E+00
Ga   -3.0274137004409170E+00    5.5322754723136436E+00    2.8428123939031122E+00
N   -3.0186292833435382E+00    5.4976009582461138E+00    5.0188036383684427E+00
Ga   -3.0280376991568065E+00    7.3240546594255660E+00    5.8041582864553822E+00
N   -3.0225970071995016E+00    7.3410634386331743E+00    7.8005823271533439E+00
Ga   -3.0251598951852490E+00    5.4967625551058683E+00    8.4479397951079225E+00
N   -3.0288617953880905E+00    5.4960029049618111E+00    1.0421365736634206E+01
Ga   -3.0306645983176312E+00    7.3372083658115637E+00    1.1069204546488503E+01
N   -3.0327915720536733E+00    7.3181210717576457E+00    1.3061915577747547E+01
Ga   -3.0230322647435046E+00    5.5017359712896940E+00    1.3862325720377402E+01
N   -3.0229012319497999E+00    5.5032015025599890E+00    1.6069461092908487E+01
Ga   -3.0341339581888023E+00    7.5594094282421134E+00    1.6498105616324999E+01
Ga   -3.0425744536956301E+00    9.1974603841876501E+00    1.3216393295132063E+00
N   -4.5001561476086573E+00    1.0064733496033581E+01    2.5011818135984241E+00
Ga   -4.7000427183564959E+00    8.2480883771790783E+00    3.2681726622269469E+00
N   -4.6268590574257216E+00    8.2796226425229396E+00    5.2521723062677506E+00
Ga   -4.6503840814557975E+00    1.0151806942671547E+01    5.7936936849467209E+00
N   -4.6420955825838064E+00    1.0143827031197405E+01    7.7983788607255589E+00
Ga   -4.6253555755233826E+00    8.2884320514908776E+00    8.4334984794127301E+00
N   -4.6266524642900162E+00    8.2879180085953248E+00    1.0430597254423274E+01
Ga   -4.6530428270307818E+00    1.0147151273883967E+01    1.1070293040133679E+01
N   -4.6730148185494036E+00    1.0156798682381387E+01    1.3065073775937528E+01
Ga   -4.6304465864569329E+00    8.2880094329634204E+00    1.3622858002543108E+01
N   -4.6601207587282669E+00    8.2647368271176394E+00    1.5581772007438861E+01
Ga   -4.4784718353279773E+00    1.0043044226838283E+01    1.6495591388898514E+01
N   -3.0451089854391173E+00    9.2153572988902681E+00    1.7641129792916757E+01
N    3.4153693809025731E+00    1.7696317036310645E+00    2.6214516577205105E+00
Ga    3.4142072725393002E+00   -8.6432400973900959E-04    3.2637078924638785E+00
N    3.4134173416770324E+00   -7.3091456483142525E-02    5.2518835083194553E+00
Ga    3.4110983176732526E+00    1.7736730813521560E+00    5.8724543561627502E+00
N    3.4075274521725789E+00    1.7834564739319925E+00    7.8506589153267887E+00
Ga    3.4052222706359694E+00   -8.5715965814352771E-02    8.4360048493739086E+00
N    3.4027189167459890E+00   -8.6248809602185686E-02    1.0432165010096446E+01
Ga    3.4023132210722804E+00    1.7820829234404765E+00    1.1026554477852681E+01
N    3.4012946767073911E+00    1.7843655184962401E+00    1.3000150827785859E+01
Ga    3.3988589574017301E+00   -8.7293271815869863E-02    1.3623041704048724E+01
N    3.4032630670954300E+00   -5.1725536977250797E-02    1.5582053274109850E+01
Ga    3.3944437215918257E+00    1.7817805790672092E+00    1.5863694722512628E+01
N    1.6969627862597452E+00    4.5130492177293231E+00    2.5211242313915774E+00
Ga    1.9091486904437314E+00    2.6406942716524604E+00    3.2900259499833990E+00
N    1.8030865015340483E+00    2.7135521093477233E+00    5.2531342862563992E+00
Ga    1.8363827516158673E+00    4.5784530267135075E+00    5.8102499881181311E+00
N    1.8074504097505795E+00    4.5742034521022195E+00    7.8009670833401055E+00
Ga    1.7894401037369823E+00    2.7137509984533827E+00    8.4386585027545582E+00
N    1.7839749413779487E+00    2.7169216926246449E+00    1.0432160816024581E+01
Ga    1.8088618977944895E+00    4.5751560146929267E+00    1.1070277860011331E+01
N    1.8213767504779310E+00    4.5860191842941678E+00    1.3061692485301707E+01
Ga    1.7788839847806932E+00    2.7180823786213102E+00    1.3624792300944691E+01
N    1.8114230576315991E+00    2.7055088129021030E+00    1.5583013491395501E+01
Ga    1.6048153358005341E+00    4.4634437385619457E+00    1.6504478757703840E+01
N    1.9119439673726482E-01    7.3629247427892679E+00    2.6963988767742211E+00
Ga    1.9651549726618769E-01    5.5290174015446762E+00    3.3322901485800429E+00
N    1.9685135627762673E-01    5.5113608199984121E+00    5.2585421042162475E+00
Ga    1.9466757037029925E-01    7.3600460876579916E+00    5.9047947862534045E+00
N    1.9346699454332353E-01    7.3530632312283002E+00    7.8627800977028874E+00
Ga    1.9095208989494580E-01    5.4825040805493090E+00    8.4464197528884615E+00
N    1.8666946143718247E-01    5.4836624866622072E+00    1.0434206071690927E+01
Ga    1.8698208351394030E-01    7.3537157474769126E+00    1.1028526287963054E+01
N    1.8362806904908371E-01    7.3533305431868499E+00    1.2998079401313836E+01
Ga    1.8288249858096620E-01    5.4841063134192485E+00    1.3624673428050452E+01
N    1.8144144040372651E-01    5.5162585354895253E+00    1.5581868293753901E+01
Ga    1.8028701477801881E-01    7.3525269735643572E+00    1.5860979651304858E+01
N   -1.5206576320757856E+00    1.0070071213517576E+01    2.5136890142257520E+00
Ga   -1.4191819080054162E+00    8.2977845090405786E+00    3.3225661487309144E+00
N   -1.3989294940450101E+00    8.2735049592789931E+00    5.2618863948015697E+00
Ga   -1.3897430031640536E+00    1.0161575362886433E+01    5.8039229971433350E+00
N   -1.4057566175986362E+00    1.0142659692220741E+01    7.8018109316941651E+00
Ga   -1.4294490241514044E+00    8.2892295903487092E+00    8.4441571092284722E+00
N   -1.4317490037579634E+00    8.2875301275143460E+00    1.0434176103589079E+01
Ga   -1.4080963320361526E+00    1.0147152766581771E+01    1.1068900252288623E+01
N   -1.3944170245967098E+00    1.0155613083050900E+01    1.3061477507955207E+01
Ga   -1.4356560431106646E+00    8.2875107272947286E+00    1.3622694010027136E+01
N   -1.4101558650218819E+00    8.2719871488031522E+00    1.5580787046308494E+01
Ga   -1.6066695577573402E+00    1.0033303303040393E+01    1.6498114145563264E+01
N    6.6314825779410258E+00    1.9053111224207786E+00    2.5309497428190362E+00
Ga    6.6047163868707557E+00   -9.2953167674339227E-02    2.8499998827667010E+00
N    6.6291124230484595E+00   -7.3239462898781624E-02    5.0303423462840930E+00
Ga    6.6285023822347693E+00    1.7524524212826440E+00    5.8045206214358052E+00
N    6.6245669346113205E+00    1.7719415160144938E+00    7.8024181369288712E+00
Ga    6.6242089385766789E+00   -7.4720491241329512E-02    8.4463504033272727E+00
N    6.6199683504811020E+00   -7.4662455015670814E-02    1.0421219835804306E+01
Ga    6.6193704729442668E+00    1.7648919445643179E+00    1.1067773618428577E+01
N    6.6153360097266161E+00    1.7445878927213900E+00    1.3068239686807885E+01
Ga    6.6146516142450471E+00   -8.5030088293371456E-02    1.3858661333839763E+01
N    6.6126395624443735E+00   -8.7380051026514943E-02    1.6069266263751867E+01
Ga    6.6124361014026567E+00    1.9132995805621358E+00    1.6431568514166194E+01
Ga    6.6313522367555731E+00    3.6399899123953952E+00    1.5251906153097097E+00
N    5.1307730289955860E+00    4.5031853981600438E+00    2.5370803992921216E+00
Ga    4.9196943260801431E+00    2.6419728238752347E+00    3.2975634488199845E+00
N    5.0193732620163685E+00    2.7093041963948896E+00    5.2594717520406480E+00
Ga    4.9974306245128659E+00    4.5795187587049604E+00    5.8050587296938918E+00
N    5.0056899711093710E+00    4.5732956682145520E+00    7.8019975361379430E+00
Ga    5.0239243402590148E+00    2.7158536997192209E+00    8.4386828013043882E+00
N    5.0225769947817147E+00    2.7177435019999034E+00    1.0434928710814285E+01
Ga    4.9958682561424164E+00    4.5772635342363799E+00    1.1067885728172358E+01
N    4.9742205808303606E+00    4.5870802078861779E+00    1.3068664044704168E+01
Ga    5.0173658521500117E+00    2.7169256253143552E+00    1.3613685468295643E+01
N    4.9986461371253110E+00    2.7069917672469614E+00    1.5591465129161527E+01
Ga    5.1166079692194346E+00    4.5025237846113377E+00    1.6431879417562776E+01
N    6.6148801824830636E+00    3.6418854486859198E+00    1.7552408895919100E+01
N    3.4073059760265827E+00    7.4690976598019523E+00    2.5106650352948856E+00
N    3.4117775959055150E+00    5.4935302685913570E+00    5.0272109617837941E+00
Ga    3.4184181795277575E+00    7.3228739538002250E+00    5.8020148309173303E+00
N    3.4061113512397441E+00    7.3426811547916948E+00    7.7969630282028923E+00
Ga    3.4079947512716124E+00    5.4970871233990612E+00    8.4473026173043220E+00
N    3.4025918315465153E+00    5.4969299859503877E+00    1.0421040006369736E+01
Ga    3.4045471047963258E+00    7.3375487342930121E+00    1.1069537071417075E+01
N    3.3989823092328857E+00    7.3182473493791642E+00    1.3062384099097390E+01
Ga    3.3889898937108112E+00    5.5010926497975987E+00    1.3860675703773026E+01
N    3.3852806943552074E+00    5.5023445341491044E+00    1.6070377982166512E+01
Ga    3.3950141152435869E+00    7.5534770085577811E+00    1.6491159407144909E+01
Ga    3.4495327381497618E+00    9.2277530358879876E+00    1.3630225988577482E+00
N    1.9063295012166475E+00    1.0075673063212410E+01    2.5074179107864532E+00
Ga    1.7995100734643030E+00    8.2837312738682201E+00    3.3106596047366685E+00
N    1.7923109956367556E+00    8.2745521772730513E+00    5.2484307741601750E+00
Ga    1.7785414929436836E+00    1.0161524733367216E+01    5.8012898323404007E+00
N    1.7915792148631897E+00    1.0141920926038564E+01    7.7971295996734922E+00
Ga    1.8129357868706262E+00    8.2892604358755868E+00    8.4450575141183215E+00
N    1.8069782882816152E+00    8.2882600620227738E+00    1.0434211409250354E+01
Ga    1.7818714976123931E+00    1.0147649503395101E+01    1.1069304903079244E+01
N    1.7611453730992013E+00    1.0155330851468189E+01    1.3062044845067348E+01
Ga    1.8013510073737029E+00    8.2873873278193297E+00    1.3622494429581314E+01
N    1.7726573741328284E+00    8.2717144966710325E+00    1.5581409346769753E+01
Ga    1.9616857741043339E+00    1.0035909287758003E+01    1.6490841181987214E+01
N    3.4071936022959162E+00    9.2160496101605105E+00    1.7629175847086316E+01
N    9.8479693366478571E+00    1.7792959196132259E+00    2.6128532622144953E+00
Ga    9.8495919988238114E+00    2.1304748563882467E-02    3.2622984746954931E+00
N    9.8437997244334543E+00   -7.6397390663815651E-02    5.2403053923805576E+00
Ga    9.8458380252913429E+00    1.7764696220198903E+00    5.8692874623075459E+00
N    9.8407543489045075E+00    1.7817175131087091E+00    7.8459756218288712E+00
Ga    9.8429666553855437E+00   -8.6011215932300988E-02    8.4353152187944413E+00
N    9.8363976026324274E+00   -8.6456006374624139E-02    1.0430756607958772E+01
Ga    9.8360791342682035E+00    1.7821715129722295E+00    1.1026104211733998E+01
N    9.8290438008791874E+00    1.7834503577944374E+00    1.3000053426191817E+01
Ga    9.8313712281389147E+00   -8.7737653750200068E-02    1.3623347490865145E+01
N    9.8221122690930347E+00   -5.2534342159757094E-02    1.5583870563910134E+01
Ga    9.8312061128705928E+00    1.7821100614308489E+00    1.5864664715970639E+01
N    8.1331830461785160E+00    4.5057799522688526E+00    2.5345034386914516E+00
Ga    8.3418804825761104E+00    2.6469846809680013E+00    3.2957188335116423E+00
N    8.2383760414999969E+00    2.7098521106341908E+00    5.2568907598683356E+00
Ga    8.2612701972388010E+00    4.5824378078927674E+00    5.8006597461304414E+00
N    8.2430524135842198E+00    4.5734382477726054E+00    7.7989665475025047E+00
Ga    8.2236234334944651E+00    2.7162695468508504E+00    8.4366854850663096E+00
N    8.2169481463013732E+00    2.7175942735167160E+00    1.0433266503033655E+01
Ga    8.2420705477280851E+00    4.5768508629724058E+00    1.1068468523323089E+01
N    8.2565346444073953E+00    4.5870557913508474E+00    1.3069333531114271E+01
Ga    8.2124952262814581E+00    2.7170623777080514E+00    1.3613924390598619E+01
N    8.2269199629021710E+00    2.7062835300945851E+00    1.5592331081207766E+01
Ga    8.1114835479591001E+00    4.5042597979351839E+00    1.6431676965686762E+01
N    6.6371061638050461E+00    7.3596345475540250E+00    2.6300113692477987E+00
Ga    6.6328956388704228E+00    5.6213579648162684E+00    3.2984413196635307E+00
N    6.6277568857302303E+00    5.4959862046776928E+00    5.2596491365798013E+00
Ga    6.6297746453332103E+00    7.3601952760719671E+00    5.8644072202223470E+00
N    6.6227039099282896E+00    7.3531069997696594E+00    7.8456701433984914E+00
Ga    6.6239865361859103E+00    5.4873827739248027E+00    8.4349865845080814E+00
N    6.6195780055145592E+00    5.4836268543041422E+00    1.0432546354466435E+01
Ga    6.6191649321437085E+00    7.3543039630851910E+00    1.1024907572205805E+01
N    6.6144228828851324E+00    7.3505397996742241E+00    1.2999421949069376E+01
Ga    6.6151336178989775E+00    5.4842445457390694E+00    1.3613979809361689E+01
N    6.6123392629836832E+00    5.5035274042828091E+00    1.5592595915291625E+01
Ga    6.6133990147486728E+00    7.3545864899857456E+00    1.5865284438688169E+01
N    4.9220873069167110E+00    1.0078811672687079E+01    2.5126304550420135E+00
Ga    5.1129216027032651E+00    8.2351563248556499E+00    3.2653238067408963E+00
N    5.0161363705857518E+00    8.2809091723649182E+00    5.2429784315968408E+00
Ga    5.0479618954857743E+00    1.0153431284786301E+01    5.7896342918472037E+00
N    5.0254666722365462E+00    1.0143963758513717E+01    7.7930616503938799E+00
Ga    5.0079013014806826E+00    8.2890393798224089E+00    8.4334952189536718E+00
N    5.0007254813061408E+00    8.2884230107558690E+00    1.0429836709839497E+01
Ga    5.0266092872162726E+00    1.0147142404092802E+01    1.1071209757146905E+01
N    5.0392676427268563E+00    1.0156826587567075E+01    1.3066380391266627E+01
Ga    4.9954806521447681E+00    8.2883111697623324E+00    1.3623300255098036E+01
N    5.0204567843924215E+00    8.2640747367468865E+00    1.5583821189335328E+01
Ga    4.8460759036598615E+00    1.0046348781903641E+01    1.6488879825443476E+01
Ga    3.4246114975982191E+00    5.5019419031250250E+00    2.8658097335585309E+00
O   -2.8167755619649473E+00    9.2172639107813126E+00   -4.7831377739829128E-01
H    1.7618326294633677E-01    7.3652524165981337E+00    1.6695141673853113E+00
C   -2.6213117073156988E+00    1.0516253261612290E+01   -1.0657146600715059E+00
H   -2.1583573854182450E+00    1.1242107628042259E+01   -3.7328240198213664E-01
H   -1.9527726566611610E+00    1.0402604137052545E+01   -1.9356499090102153E+00
H   -3.5786257140792235E+00    1.0938088059750768E+01   -1.4146484373642563E+00
     &END COORD
     &KIND C
       BASIS_SET DZVP-MOLOPT-SR-GTH-q4
       POTENTIAL GTH-PBE-q4
       &POTENTIAL
 2 2
  0.3384712400000000E+00 2 -0.8803673979999999E+01  0.1339210850000000E+01
 2
  0.3025757500000000E+00 1  0.9622486650000001E+01
  0.2915069400000000E+00 0
         # Potential name:  GTH-PBE-Q4  for symbol:  C
         # Potential read from the potential filename: GTH_POTENTIALS
       &END POTENTIAL
     &END KIND
     &KIND O
       BASIS_SET DZVP-MOLOPT-SR-GTH-q6
       POTENTIAL GTH-PBE-q6
       &POTENTIAL
 2 4
  0.2445543000000000E+00 2 -0.1666721480000000E+02  0.2487311320000000E+01
 2
  0.2209559200000000E+00 1  0.1833745811000000E+02
  0.2113324700000000E+00 0
         # Potential name:  GTH-PBE-Q6  for symbol:  O
         # Potential read from the potential filename: GTH_POTENTIALS
       &END POTENTIAL
     &END KIND
     &KIND H
       BASIS_SET DZVP-MOLOPT-SR-GTH-q1
       POTENTIAL GTH-PBE-q1
       &POTENTIAL
 1
  0.2000000000000000E+00 2 -0.4178900440000000E+01  0.7244633100000000E+00
 0
         # Potential name:  GTH-PBE-Q1  for symbol:  H
         # Potential read from the potential filename: GTH_POTENTIALS
       &END POTENTIAL
     &END KIND
     &KIND N
       BASIS_SET DZVP-MOLOPT-SR-GTH
       POTENTIAL GTH-PBE-q5
       &POTENTIAL
 2 3
  0.2837905100000000E+00 2 -0.1241522559000000E+02  0.1868095920000000E+01
 2
  0.2554050000000000E+00 1  0.1363026257000000E+02
  0.2454945300000000E+00 0
         # Potential name:  GTH-PBE-Q5  for symbol:  N
         # Potential read from the potential filename: GTH_POTENTIALS
       &END POTENTIAL
     &END KIND
     &KIND Ga
       BASIS_SET DZVP-MOLOPT-SR-GTH
       POTENTIAL GTH-PBE-q13
       &POTENTIAL
 2 1 10
  0.4900000000000000E+00 0
 3
  0.4167772300000000E+00 3  0.1047568975000000E+02 -0.4921768140000000E+01  0.8707055900000000E+00
  0.7770178090000000E+01 -0.2248152160000000E+01
  0.1784415450000000E+01
  0.5696265200000000E+00 2  0.1777985340000000E+01  0.1958597600000000E+00
 -0.2317443900000000E+00
  0.2381265000000000E+00 1 -0.1624868022000000E+02
         # Potential name:  GTH-PBE-Q13  for symbol:  GA
         # Potential read from the potential filename: GTH_POTENTIALS
       &END POTENTIAL
     &END KIND
     &TOPOLOGY
       NUMBER_OF_ATOMS  206
       MULTIPLE_UNIT_CELL  1 1 1
     &END TOPOLOGY
   &END SUBSYS
 &END FORCE_EVAL
