#p

i =       10, E =     -8504.8245377662

0 1
 N                  0.09172896    2.11045257    2.57154460
 Ga                 0.08825241    0.16057360    3.01756352
 N                  0.09100928    0.13153206    5.11355933
 Ga                 0.06389754    1.95241602    5.87541611
 N                  0.07298842    1.97093277    7.85706883
 Ga                 0.06609304    0.11669510    8.49235285
 N                  0.07117241    0.12000298   10.46165345
 Ga                 0.06918076    1.95850085   11.12336878
 N                  0.07181387    1.94068760   13.10928357
 Ga                 0.07347941    0.12179228   13.92570766
 N                  0.07288336    0.12234236   16.11240968
 Ga                 0.07266602    2.17420482   16.53551818
 Ga                 0.10835016    3.82675457    1.43520857
 N                 -1.39511996    4.69261298    2.52811652
 Ga                -1.60685840    2.83919212    3.31282307
 N                 -1.53449383    2.90650399    5.28788390
 Ga                -1.56806467    4.77174869    5.85229387
 N                 -1.54501996    4.76967869    7.84068114
 Ga                -1.53249071    2.91181837    8.49007611
 N                 -1.52544907    2.91401906   10.47600299
 Ga                -1.55233566    4.77283761   11.12135768
 N                 -1.56775221    4.78263909   13.10821977
 Ga                -1.52549846    2.91272299   13.67000662
 N                 -1.55074079    2.89670023   15.62536346
 Ga                -1.37066003    4.66854750   16.53555971
 N                  0.06684170    3.83819270   17.68118960
 N                 -3.13461403    7.66353841    2.55904244
 Ga                -3.12150829    5.67529650    2.88207026
 N                 -3.13832691    5.68728235    5.04795141
 Ga                -3.14880866    7.51158419    5.83939874
 N                 -3.14267129    7.53638075    7.82987940
 Ga                -3.14497134    5.69114567    8.49036122
 N                 -3.14410207    5.69226687   10.45894949
 Ga                -3.14519993    7.52997934   11.12048250
 N                 -3.14393793    7.51205357   13.10727621
 Ga                -3.14393043    5.69248159   13.92637552
 N                 -3.14371986    5.69224425   16.11156116
 Ga                -3.14386200    7.74066019   16.53718357
 Ga                -3.17744275    9.39716701    1.42463902
 N                 -4.64058552   10.29188127    2.58661529
 Ga                -4.85586458    8.43275049    3.30611234
 N                 -4.74926481    8.47977516    5.27760744
 Ga                -4.77927294   10.34070083    5.87096369
 N                 -4.75658660   10.33797266    7.85173641
 Ga                -4.74671643    8.47630378    8.47967120
 N                 -4.74097657    8.48101834   10.46801046
 Ga                -4.77072362   10.33889287   11.12219983
 N                 -4.78464807   10.35136394   13.10825233
 Ga                -4.74164672    8.48284914   13.67106749
 N                 -4.76852315    8.46962015   15.62595157
 Ga                -4.58180606   10.23673584   16.53700601
 N                 -3.14408993    9.40033092   17.68282275
 N                  3.27789739    1.97207105    2.65972624
 Ga                 3.28982679    0.13738650    3.39099604
 N                  3.28980960    0.13593033    5.31585466
 Ga                 3.28678188    1.97485930    5.98162015
 N                  3.28990810    1.97638448    7.92780209
 Ga                 3.28731490    0.10333375    8.51226708
 N                  3.28841986    0.10737340   10.48995068
 Ga                 3.28921639    1.97846626   11.08700404
 N                  3.28879209    1.97837348   13.04906788
 Ga                 3.28854538    0.10647894   13.67182064
 N                  3.28854638    0.14038951   15.62599187
 Ga                 3.28901162    1.97890649   15.90079078
 N                  1.56508057    4.69362326    2.61774883
 Ga                 1.68902549    2.88626689    3.39022089
 N                  1.70019532    2.89499480    5.32183263
 Ga                 1.70439360    4.77704423    5.88111125
 N                  1.68750362    4.76693325    7.85623407
 Ga                 1.66623204    2.91292683    8.51116499
 N                  1.66950071    2.91349434   10.48936743
 Ga                 1.69639678    4.77615459   11.12304385
 N                  1.71319014    4.78357704   13.10875093
 Ga                 1.66784592    2.91432801   13.67169720
 N                  1.69655493    2.89813509   15.62594827
 Ga                 1.51126055    4.66570286   16.53621455
 N                  0.07889826    7.54881406    2.70223629
 Ga                 0.07543541    5.71143774    3.38141876
 N                  0.07133450    5.70673340    5.31070810
 Ga                 0.09834746    7.56271023    5.92231541
 N                  0.07763399    7.55333328    7.88632484
 Ga                 0.06850836    5.68477296    8.49085810
 N                  0.07148335    5.68042248   10.47494489
 Ga                 0.07371849    7.54927618   11.07650889
 N                  0.07292658    7.54912782   13.03992065
 Ga                 0.07268040    5.67981677   13.67135003
 N                  0.07427593    5.71100372   15.62642030
 Ga                 0.06980855    7.54794798   15.90778714
 N                 -1.64897200   10.28289375    2.57050446
 Ga                -1.51003275    8.47288252    3.35643183
 N                 -1.52270644    8.47466946    5.28963576
 Ga                -1.50422601   10.35153422    5.87927450
 N                 -1.53185712   10.33574095    7.85651545
 Ga                -1.54551533    8.47702503    8.49109681
 N                 -1.54685698    8.48110430   10.47484888
 Ga                -1.51689691   10.34056544   11.12369847
 N                 -1.50218985   10.35199787   13.10920877
 Ga                -1.54640729    8.48326577   13.67152311
 N                 -1.51893660    8.46959780   15.62640513
 Ga                -1.70586124   10.23671492   16.53731314
 N                  6.48225445    2.10958953    2.56190592
 Ga                 6.52189265    0.11273911    2.95737838
 N                  6.48051330    0.13446007    5.11273661
 Ga                 6.51501709    1.94841257    5.86947172
 N                  6.50519165    1.97274711    7.85260514
 Ga                 6.51155231    0.11784501    8.49118773
 N                  6.50599175    0.12054694   10.46068857
 Ga                 6.50865256    1.95919930   11.12292101
 N                  6.50577020    1.94063109   13.10880671
 Ga                 6.50402850    0.12233935   13.92689372
 N                  6.50414861    0.12248096   16.11281818
 Ga                 6.50448371    2.17464919   16.53552602
 Ga                 6.47832430    3.85929299    1.56695004
 N                  5.01026922    4.69945427    2.64140822
 Ga                 4.85794270    2.86957194    3.39164765
 N                  4.87846371    2.89359263    5.31405683
 Ga                 4.88205660    4.78026891    5.87102177
 N                  4.88961389    4.76531700    7.84976931
 Ga                 4.91263306    2.91426810    8.51005022
 N                  4.90870371    2.91379539   10.48830258
 Ga                 4.88384729    4.77739380   11.12003483
 N                  4.86527642    4.78379969   13.10664375
 Ga                 4.90980617    2.91470860   13.67081941
 N                  4.88102688    2.89850316   15.62511177
 Ga                 5.06613029    4.66578155   16.53606010
 N                  6.51018102    3.83854741   17.68104894
 N                  3.28350845    7.52642158    2.58280074
 N                  3.29019800    5.67259136    5.11240998
 Ga                 3.29308075    7.54164119    5.81430046
 N                  3.28813231    7.54194552    7.81530596
 Ga                 3.29041395    5.70100006    8.49050934
 N                  3.28919162    5.69447517   10.45896957
 Ga                 3.29017035    7.53219791   11.12079203
 N                  3.28902818    7.51156793   13.10881068
 Ga                 3.28949827    5.69079825   13.92635787
 N                  3.28871616    5.69145072   16.11278396
 Ga                 3.28869466    7.73286545   16.52145258
 Ga                 3.27802195    9.40640236    1.48244535
 N                  1.71452222   10.34666100    2.56010256
 Ga                 1.70209133    8.56534334    3.20766879
 N                  1.67700751    8.46600226    5.20291307
 Ga                 1.65611747   10.33864845    5.81678589
 N                  1.66863906   10.33184673    7.82264725
 Ga                 1.69602398    8.48571069    8.48595881
 N                  1.69326442    8.48292009   10.47268574
 Ga                 1.66780578   10.34331074   11.11837529
 N                  1.64870173   10.35285937   13.10771538
 Ga                 1.69125537    8.48362577   13.66853752
 N                  1.66122253    8.46659786   15.62611434
 Ga                 1.83927979   10.24301362   16.52175130
 N                  3.28877416    9.40614338   17.64143803
 N                  9.74657216    1.93791774    2.63863418
 Ga                 9.66829529    0.14519438    3.29537311
 N                  9.71832743    0.12002313    5.28162286
 Ga                 9.72379167    1.96734852    5.90554556
 N                  9.71943377    1.97790191    7.88300819
 Ga                 9.71954740    0.10605999    8.46913444
 N                  9.72033096    0.10795017   10.46420612
 Ga                 9.72067310    1.97630539   11.07273445
 N                  9.72070911    1.97750919   13.03794104
 Ga                 9.72110324    0.10961561   13.66842598
 N                  9.72084457    0.14463366   15.62619671
 Ga                 9.72081013    1.98224358   15.90725440
 N                  8.00209552    4.70406248    2.56221850
 Ga                 8.22945409    2.82767248    3.29971318
 N                  8.11304011    2.90187618    5.26909698
 Ga                 8.14111487    4.77372817    5.83399608
 N                  8.12425034    4.76836978    7.82906927
 Ga                 8.10897665    2.91454461    8.48846242
 N                  8.10265022    2.91470885   10.47458417
 Ga                 8.12743962    4.77377295   11.11909274
 N                  8.14460843    4.78286125   13.10660959
 Ga                 8.10262312    2.91330964   13.66967098
 N                  8.12803192    2.89695101   15.62506641
 Ga                 7.94771179    4.66872339   16.53550771
 N                  6.49514818    7.56756049    2.62209471
 Ga                 6.50241702    5.84092664    3.34341511
 N                  6.50642863    5.69835563    5.29763201
 Ga                 6.47865025    7.57202749    5.88260387
 N                  6.49788229    7.55489482    7.86471114
 Ga                 6.50990654    5.68881141    8.47525113
 N                  6.50653551    5.68142598   10.46519126
 Ga                 6.50427864    7.54886650   11.07193387
 N                  6.50440980    7.54894683   13.03667823
 Ga                 6.50497027    5.68042921   13.67059133
 N                  6.50303119    5.71115014   15.62571177
 Ga                 6.50750977    7.54788470   15.90817709
 N                  4.86418294   10.37968041    2.52973056
 Ga                 4.94954199    8.51180758    3.15541920
 N                  4.88360473    8.48657516    5.18928122
 Ga                 4.91076599   10.33769902    5.82049303
 N                  4.90686461   10.33519629    7.82408726
 Ga                 4.88491232    8.48478133    8.47792315
 N                  4.88500020    8.48258900   10.46787621
 Ga                 4.90914661   10.34198530   11.11657100
 N                  4.92843206   10.35259530   13.10658095
 Ga                 4.88695607    8.48357517   13.66778096
 N                  4.91621101    8.46656956   15.62557854
 Ga                 4.73787631   10.24293527   16.52152571
 O                  0.75187560    3.70755599   -0.28533883
 H                  2.55786820    3.38902722    0.18457731
 C                  0.16606441    2.73857012   -1.17214312
 H                  0.03255264    1.75490375   -0.68877900
 H                 -0.81237612    3.07597496   -1.54602114
 H                  0.84413629    2.61395254   -2.02830211
 Ga                 3.27049906    5.60428982    3.04635935
 O                  3.44899261    3.06499250    0.47109252
 H                  0.01333267    7.50731831    1.67839908
 C                  3.28490244    1.84332129    1.16518710
 H                  4.13608725    1.20273663    0.88732797
 H                  6.55010218    7.56016882    1.55983614
 H                  2.35080692    1.34527710    0.85900407

