 # Version information for this restart file 
 # current date 2019-07-18 06:56:29.207
 # current working dir /lustre04/scratch/rzk/rzk/GaN-carbene/443-adatoms-both-2x2/09-BondBreaking-CH/02-0401-CH-to-NTop-PES/Phase03-Relax-H..NSur
 # Program compiled at                              Sun Apr  7 00:48:11 EDT 2019
 # Program compiled on                          beluga2.int.ets1.calculquebec.ca
 # Program compiled for                        Beluga-Linux-x86-64-intel-openmpi
 # Source code revision number                                         svn:18619
 &GLOBAL
   PRINT_LEVEL  MEDIUM
   PROJECT_NAME TEST
   RUN_TYPE  GEO_OPT
 &END GLOBAL
 &MOTION
   &GEO_OPT
     MAX_ITER  500
     STEP_START_VAL  61
   &END GEO_OPT
 &END MOTION
 &FORCE_EVAL
   METHOD  QS
   STRESS_TENSOR  ANALYTICAL
   &DFT
     BASIS_SET_FILE_NAME BASIS_MOLOPT
     POTENTIAL_FILE_NAME GTH_POTENTIALS
     UKS  T
     SURFACE_DIPOLE_CORRECTION  T
     SURF_DIP_DIR  Z
     &SCF
       MAX_SCF  80
       EPS_SCF     5.0000000000000004E-06
       &OT  T
         PRECONDITIONER  FULL_ALL
       &END OT
       &OUTER_SCF  T
         OPTIMIZER  NONE
         EPS_SCF     5.0000000000000004E-06
         MAX_SCF  4
       &END OUTER_SCF
       &PRINT
         &RESTART  OFF
           BACKUP_COPIES  1
           &EACH
             JUST_ENERGY  0
             QS_SCF  0
             MD  20
           &END EACH
         &END RESTART
       &END PRINT
     &END SCF
     &QS
       EPS_DEFAULT     1.0000000000000000E-14
       METHOD  GPW
     &END QS
     &MGRID
       NGRIDS  5
       CUTOFF     1.2000000000000000E+03
     &END MGRID
     &XC
       DENSITY_CUTOFF     1.0000000000000000E-10
       GRADIENT_CUTOFF     1.0000000000000000E-10
       TAU_CUTOFF     1.0000000000000000E-10
       &XC_FUNCTIONAL  NO_SHORTCUT
         &PBE  T
         &END PBE
       &END XC_FUNCTIONAL
       &VDW_POTENTIAL
         POTENTIAL_TYPE  PAIR_POTENTIAL
         &PAIR_POTENTIAL
           R_CUTOFF     1.0000000000000009E+01
           TYPE  DFTD3
           PARAMETER_FILE_NAME dftd3.dat
           REFERENCE_FUNCTIONAL PBE
           EPS_CN     9.9999999999999995E-07
           CALCULATE_C9_TERM  T
           REFERENCE_C9_TERM  T
           LONG_RANGE_CORRECTION  F
           VERBOSE_OUTPUT  F
         &END PAIR_POTENTIAL
       &END VDW_POTENTIAL
     &END XC
   &END DFT
   &SUBSYS
     &CELL
       A     1.2864472766435110E+01    0.0000000000000000E+00    0.0000000000000000E+00
       B    -6.4322363581020028E+00    1.1140960178524477E+01    0.0000000000000000E+00
       C     0.0000000000000000E+00    0.0000000000000000E+00    3.2000000000000000E+01
       MULTIPLE_UNIT_CELL  1 1 1
       &CELL_REF
         A     1.2982353780853531E+01    0.0000000000000000E+00    0.0000000000000000E+00
         B    -6.4911768904267628E+00    1.1243048175136114E+01    0.0000000000000000E+00
         C     0.0000000000000000E+00    0.0000000000000000E+00    3.2000000000000000E+01
         MULTIPLE_UNIT_CELL  1 1 1
       &END CELL_REF
     &END CELL
     &COORD
N    8.2269823140993334E-02    2.1089583139459482E+00    2.5686000702624989E+00
Ga    5.9956658328769258E-02    1.3943631682969773E-01    2.9197012420522377E+00
N    7.5491728297461105E-02    1.2356938271572111E-01    5.0908577929852061E+00
Ga    6.7844618589677941E-02    1.9483939612957224E+00    5.8553367865099100E+00
N    7.6053436006628880E-02    1.9685822451472639E+00    7.8527219237433474E+00
Ga    7.3176474968675173E-02    1.2095145533606602E-01    8.4948486751266383E+00
N    7.4287328308304437E-02    1.2055993376605872E-01    1.0469498064704757E+01
Ga    7.2070221387057529E-02    1.9592373018181650E+00    1.1123162586468023E+01
N    7.4038146366125310E-02    1.9400701619833183E+00    1.3119268506081243E+01
Ga    7.3510100016849156E-02    1.1481166883509979E-01    1.3924126596647085E+01
N    7.2764965596657002E-02    1.1511072908783630E-01    1.6122131022202169E+01
Ga    7.5061339307647329E-02    2.1355059550797493E+00    1.6513982627365515E+01
Ga    9.3561948347011079E-02    3.8339413018243609E+00    1.4240229063582910E+00
N   -1.3964547830520588E+00    4.7012982079382128E+00    2.5376858171904231E+00
Ga   -1.6121687374487352E+00    2.8570411816934604E+00    3.3141722868063317E+00
N   -1.5304046075193012E+00    2.9103453762153064E+00    5.2989590318485273E+00
Ga   -1.5643185570578315E+00    4.7709630952055964E+00    5.8651391916791180E+00
N   -1.5419297026364489E+00    4.7691947184800139E+00    7.8591255581832495E+00
Ga   -1.5288713762638544E+00    2.9083386149262322E+00    8.4861599797308962E+00
N   -1.5238368008733849E+00    2.9117458684000352E+00    1.0483038903760033E+01
Ga   -1.5501648437035369E+00    4.7706722528291587E+00    1.1120976030573747E+01
N   -1.5661449227487860E+00    4.7825206536789810E+00    1.3116864460004532E+01
Ga   -1.5230260576871413E+00    2.9133786237316870E+00    1.3669977178911058E+01
N   -1.5480148153416171E+00    2.9023094591038130E+00    1.5639040223215007E+01
Ga   -1.3903518251456597E+00    4.6831618270312045E+00    1.6514279352759711E+01
N    6.8560174506282989E-02    3.8263320851897382E+00    1.7641784435421375E+01
N   -3.1362669648097330E+00    7.6553295932705030E+00    2.5590936429507369E+00
Ga   -3.1310935832454394E+00    5.6702137396123140E+00    2.8995349450122943E+00
N   -3.1322713054540143E+00    5.6894695626592986E+00    5.0840505606559026E+00
Ga   -3.1400158243141418E+00    7.5078560747490775E+00    5.8542181632978716E+00
N   -3.1416973673064414E+00    7.5401057920651597E+00    7.8472652476155265E+00
Ga   -3.1432642700946771E+00    5.6912391902493136E+00    8.4972714210053208E+00
N   -3.1428945011816594E+00    5.6928066882605766E+00    1.0471327540974606E+01
Ga   -3.1425874804360676E+00    7.5317942541968730E+00    1.1124582998757193E+01
N   -3.1420763973653871E+00    7.5139178804644287E+00    1.3114605445134293E+01
Ga   -3.1437018412846793E+00    5.6971189788261505E+00    1.3915456648006041E+01
N   -3.1442893095875939E+00    5.6962918333848300E+00    1.6121456572971873E+01
Ga   -3.1418558186684384E+00    7.7563472629914498E+00    1.6552776886894161E+01
Ga   -3.1357679868863211E+00    9.3966527393639474E+00    1.2886144237466197E+00
N   -4.6547366826629979E+00    1.0281411432782733E+01    2.5589759578133977E+00
Ga   -4.7525095634927297E+00    8.4768272799450202E+00    3.3411819264893374E+00
N   -4.7557858338408572E+00    8.4722068603646399E+00    5.2886480144164043E+00
Ga   -4.7838018463632483E+00    1.0352969835691139E+01    5.8555694850879556E+00
N   -4.7561089503288008E+00    1.0337590343571652E+01    7.8475173192503087E+00
Ga   -4.7391273605977418E+00    8.4828586035255871E+00    8.4945135582676965E+00
N   -4.7392117872155195E+00    8.4836722606198869E+00    1.0483816442367944E+01
Ga   -4.7664248099803537E+00    1.0342482267271032E+01    1.1125606128008835E+01
N   -4.7813693437341884E+00    1.0351906195634616E+01    1.3116029623050759E+01
Ga   -4.7392932423577570E+00    8.4835572733509270E+00    1.3676945663461428E+01
N   -4.7671917231211465E+00    8.4648698204764212E+00    1.5634045666279476E+01
Ga   -4.5758987134399822E+00    1.0233158441477324E+01    1.6552010488606403E+01
N   -3.1463200531836097E+00    9.4068727511092796E+00    1.7697354991187531E+01
N    3.2790787002420196E+00    1.9726673843417037E+00    2.6341177384369532E+00
Ga    3.2903180140049066E+00    1.3155705379136154E-01    3.3482436600322063E+00
N    3.2908689940619729E+00    1.3239673956013664E-01    5.2916626062094974E+00
Ga    3.2948705209728808E+00    1.9768603082978367E+00    5.9493589914142921E+00
N    3.2916405167146703E+00    1.9768886647361441E+00    7.9117817721193129E+00
Ga    3.2903605626783756E+00    1.0743166437191838E-01    8.4988306436780139E+00
N    3.2899404041165714E+00    1.0838163874489447E-01    1.0487410939843720E+01
Ga    3.2903617404751770E+00    1.9779888504190763E+00    1.1082809333762441E+01
N    3.2899925176791505E+00    1.9797076889688610E+00    1.3053575362156458E+01
Ga    3.2907677194231888E+00    1.0745236221542726E-01    1.3677932079389942E+01
N    3.2908136730386217E+00    1.4393631953960437E-01    1.5634144448954707E+01
Ga    3.2907358327476115E+00    1.9767433964606509E+00    1.5913583203736723E+01
N    1.5635671929275925E+00    4.7089205349499270E+00    2.6017398644692555E+00
Ga    1.6995508466135618E+00    2.8928094253749892E+00    3.3664687321006626E+00
N    1.7007568141583920E+00    2.8968730839423595E+00    5.3074064185354288E+00
Ga    1.7150197468099242E+00    4.7794794758545525E+00    5.8652566175690630E+00
N    1.6900875362869858E+00    4.7663590634154298E+00    7.8569038136718392E+00
Ga    1.6697616084749434E+00    2.9108821589422496E+00    8.4992537704426496E+00
N    1.6709489611355446E+00    2.9124623318974114E+00    1.0489521041061611E+01
Ga    1.6979805398946772E+00    4.7726064179328427E+00    1.1123570907324366E+01
N    1.7147592801745584E+00    4.7829357737018476E+00    1.3117882492691312E+01
Ga    1.6705036565986779E+00    2.9140214796607853E+00    1.3671179504031075E+01
N    1.6975256980999365E+00    2.9032041122710122E+00    1.5638592324668252E+01
Ga    1.5341058856992653E+00    4.6799264804569800E+00    1.6514777912140499E+01
N    7.5303328003273537E-02    7.5492670876388237E+00    2.7450420263960451E+00
Ga    7.2356975202967910E-02    5.7016521822918707E+00    3.3892055998767003E+00
N    7.2767211246454008E-02    5.7080844435679294E+00    5.3239404446738288E+00
Ga    7.6337218667279716E-02    7.5556009526360217E+00    5.9509801855800619E+00
N    7.4035065640056116E-02    7.5509828189865793E+00    7.9132136160319666E+00
Ga    7.3301026494074023E-02    5.6789693890479800E+00    8.4986398758534474E+00
N    7.4330362117980636E-02    5.6794049777728235E+00    1.0488731261380316E+01
Ga    7.4114534899364648E-02    7.5495455598952326E+00    1.1081956296911994E+01
N    7.3782240971253299E-02    7.5477280638227873E+00    1.3051184944168124E+01
Ga    7.4208306722103753E-02    5.6801310388740172E+00    1.3670448914752891E+01
N    7.5136549836632899E-02    5.7070880691508439E+00    1.5636940899057050E+01
Ga    7.3667404663029956E-02    7.5518394969352673E+00    1.5911025141087269E+01
N   -1.6293142338052706E+00    1.0279947710958185E+01    2.5602434697980914E+00
Ga   -1.5287522194933296E+00    8.4799956880156362E+00    3.3479953970624963E+00
N   -1.5248148775887886E+00    8.4741891494808748E+00    5.2940378180915335E+00
Ga   -1.4992242434125831E+00    1.0354462897092011E+01    5.8576964598280581E+00
N   -1.5279667490597955E+00    1.0338092868691611E+01    7.8492365738641769E+00
Ga   -1.5460497984658275E+00    8.4843830872777009E+00    8.4980104428692638E+00
N   -1.5455503497005088E+00    8.4840390171061681E+00    1.0486394155892667E+01
Ga   -1.5176071452755961E+00    1.0343390217581707E+01    1.1125932087816798E+01
N   -1.5020015057643203E+00    1.0352348412844073E+01    1.3116204233701101E+01
Ga   -1.5451060604096756E+00    8.4843779336085401E+00    1.3677375646612818E+01
N   -1.5168200823469018E+00    8.4653525479611478E+00    1.5633320931866542E+01
Ga   -1.7109712923714495E+00    1.0231279567656955E+01    1.6552425253681651E+01
N    6.4903806115995053E+00    2.0930352918229391E+00    2.5504954945182101E+00
Ga    6.5190435877934032E+00    1.3089256815608183E-01    2.9187448058067518E+00
N    6.5063042262036390E+00    1.2123012582586740E-01    5.0916315301176560E+00
Ga    6.5098331692977247E+00    1.9518738619633647E+00    5.8410406505024914E+00
N    6.5028427976102563E+00    1.9703131952290673E+00    7.8430056571488320E+00
Ga    6.5072956736292511E+00    1.2377074032638699E-01    8.4925544409462326E+00
N    6.5056928088771855E+00    1.2171531949956425E-01    1.0468005107918682E+01
Ga    6.5083368081564537E+00    1.9599710043064158E+00    1.1122820598104935E+01
N    6.5068975016973285E+00    1.9404696778997814E+00    1.3118236145148295E+01
Ga    6.5068080416279077E+00    1.1658163679061803E-01    1.3926399384723771E+01
N    6.5058362287780902E+00    1.1640459705686183E-01    1.6121876768722391E+01
Ga    6.5074486512297813E+00    2.1424596574390149E+00    1.6520119950204453E+01
Ga    6.4884535307703013E+00    3.8266506133307434E+00    1.2922898312154918E+00
N    5.0024448779415369E+00    4.7226202389386280E+00    2.5920418299617132E+00
Ga    4.8794462134495467E+00    2.9003217971387376E+00    3.3224528550314720E+00
N    4.8791829293630737E+00    2.8974610345747300E+00    5.2775914846935184E+00
Ga    4.8692711128298498E+00    4.7775715833415369E+00    5.8488999876575694E+00
N    4.8914609346754707E+00    4.7652612869375233E+00    7.8455467295495742E+00
Ga    4.9122564123597279E+00    2.9121608143816031E+00    8.4969963447032910E+00
N    4.9094614272744614E+00    2.9129278909562193E+00    1.0487692341816588E+01
Ga    4.8836958886713413E+00    4.7729320605693895E+00    1.1122755362925480E+01
N    4.8666087414963961E+00    4.7829218680049452E+00    1.3116539422049721E+01
Ga    4.9105676631117321E+00    2.9138813844117655E+00    1.3671767682246180E+01
N    4.8820978627119098E+00    2.9020687750891554E+00    1.5637993331496762E+01
Ga    5.0496371852360680E+00    4.6786555702304717E+00    1.6520777866039090E+01
N    6.5021473763952002E+00    3.8256968414510570E+00    1.7647054358962595E+01
N    3.2876697398629111E+00    7.6533151526163286E+00    2.5624665094544841E+00
N    3.2880421856637891E+00    5.6913777898690734E+00    5.0998434319675088E+00
Ga    3.2909062990218936E+00    7.5144958661565031E+00    5.8571659451513085E+00
N    3.2903195172127981E+00    7.5404423439686150E+00    7.8508622404941466E+00
Ga    3.2925562937969723E+00    5.6913737986774846E+00    8.4960020657643334E+00
N    3.2908064402566497E+00    5.6919589124499979E+00    1.0470009510235924E+01
Ga    3.2907109515771751E+00    7.5320607119151601E+00    1.1123470318364650E+01
N    3.2905157929948956E+00    7.5132533877635037E+00    1.3113955096899705E+01
Ga    3.2914264110455504E+00    5.6977232894042684E+00    1.3917143315876219E+01
N    3.2899118491680364E+00    5.6967980569288450E+00    1.6122371831255510E+01
Ga    3.2908930680277666E+00    7.7556658328462280E+00    1.6549883954268594E+01
Ga    3.2865471219056070E+00    9.4606208863445431E+00    1.2896326102120210E+00
N    1.7765205078273933E+00    1.0274753925495544E+01    2.5658231719170423E+00
Ga    1.6901386176161854E+00    8.4813382277056419E+00    3.3448556387032466E+00
N    1.6726753413620545E+00    8.4705762585735371E+00    5.2946142619976246E+00
Ga    1.6611055921800102E+00    1.0354914119875218E+01    5.8504740864866589E+00
N    1.6728592247730658E+00    1.0337126923795786E+01    7.8490109448277332E+00
Ga    1.6941100923969925E+00    8.4865595072666817E+00    8.4982792616961422E+00
N    1.6932637127292280E+00    8.4839114272951761E+00    1.0487323749553427E+01
Ga    1.6678948298279184E+00    1.0344817169882896E+01    1.1122404688483584E+01
N    1.6507787081145440E+00    1.0352767971594027E+01    1.3114703831318705E+01
Ga    1.6938573825017595E+00    8.4844847417090250E+00    1.3675367746658500E+01
N    1.6655199314144138E+00    8.4642946742421774E+00    1.5633441471721698E+01
Ga    1.8539452084169319E+00    1.0235178675899560E+01    1.6548876638157719E+01
N    3.2850124607689652E+00    9.4077454644899614E+00    1.7692469903997015E+01
N    9.7235469555574490E+00    1.9830560697961612E+00    2.6774660423536991E+00
Ga    9.7208064716045701E+00    2.1533431163693204E-01    3.2966980072396677E+00
N    9.7226233011641998E+00    1.1723773251498310E-01    5.2879380310676316E+00
Ga    9.7179857985017986E+00    1.9789621994639961E+00    5.8957805762780753E+00
N    9.7206482225831738E+00    1.9783438819546775E+00    7.8860708285910990E+00
Ga    9.7223582515373792E+00    1.1408938568335868E-01    8.4822168458690435E+00
N    9.7222831438886015E+00    1.0958478163441600E-01    1.0479179729439560E+01
Ga    9.7213420603159921E+00    1.9776910520372182E+00    1.1076599434991611E+01
N    9.7223356455159884E+00    1.9796942787049912E+00    1.3049856729934675E+01
Ga    9.7229171649518360E+00    1.0798209967643302E-01    1.3675459671683830E+01
N    9.7246724216964253E+00    1.4430270841457318E-01    1.5632995629840835E+01
Ga    9.7227616795114855E+00    1.9772732487906823E+00    1.5914232164004325E+01
N    8.0194221511896426E+00    4.7186757843335023E+00    2.5566587989234555E+00
Ga    8.1849254304826111E+00    2.8674701638122913E+00    3.2795978701031747E+00
N    8.1076781817766488E+00    2.9095718755888114E+00    5.2785607791964670E+00
Ga    8.1477448933591532E+00    4.7709349784771948E+00    5.8452364323559385E+00
N    8.1238725158705112E+00    4.7695823371728991E+00    7.8456782591123240E+00
Ga    8.1063043042337188E+00    2.9104781960187531E+00    8.4808956040778778E+00
N    8.1030462930856579E+00    2.9123484137081159E+00    1.0479034702128066E+01
Ga    8.1287136102618991E+00    4.7703834903233888E+00    1.1119600139825002E+01
N    8.1457571141499336E+00    4.7821850666458960E+00    1.3114530212975604E+01
Ga    8.1035023558832044E+00    2.9139160979175576E+00    1.3671070648920750E+01
N    8.1320703826415990E+00    2.9028865143084190E+00    1.5636552974319937E+01
Ga    7.9597330999521416E+00    4.6760852863455993E+00    1.6521107206834042E+01
N    6.5071577711700241E+00    7.5511176077431408E+00    2.7317610733320912E+00
Ga    6.5193320989177650E+00    5.6924731287229902E+00    3.3527937104128238E+00
N    6.5099744668756134E+00    5.7064065014087468E+00    5.3002794618765625E+00
Ga    6.5059235267718316E+00    7.5506578212589011E+00    5.9400264589633327E+00
N    6.5063572338213609E+00    7.5495221918058366E+00    7.9046107414374687E+00
Ga    6.5083955358196643E+00    5.6774973015590096E+00    8.4894719664307630E+00
N    6.5059160414372075E+00    5.6790668196573479E+00    1.0481874869861251E+01
Ga    6.5059192591376211E+00    7.5485560361789608E+00    1.1079082702149211E+01
N    6.5060971072748535E+00    7.5477042097063247E+00    1.3048557540981225E+01
Ga    6.5069725367057147E+00    5.6802850065305970E+00    1.3671247998889745E+01
N    6.5072196675839482E+00    5.7086006003354575E+00    1.5635444983857212E+01
Ga    6.5062940597135501E+00    7.5514424150957202E+00    1.5911689471636958E+01
N    4.8036154936829938E+00    1.0277330304906123E+01    2.5647835652473683E+00
Ga    4.8922239401482113E+00    8.4788822216739863E+00    3.3388088677950782E+00
N    4.9088481986187240E+00    8.4698518254060051E+00    5.2897284464773993E+00
Ga    4.9199899922549957E+00    1.0353996685891662E+01    5.8478346990182875E+00
N    4.9076396796065298E+00    1.0337049471580098E+01    7.8469498946161842E+00
Ga    4.8876741186596897E+00    8.4857177388485461E+00    8.4947211109285803E+00
N    4.8872377736340162E+00    8.4836105223706060E+00    1.0484327843208272E+01
Ga    4.9116709407751538E+00    1.0343645509254257E+01    1.1121847310444277E+01
N    4.9295921524365687E+00    1.0352201664796860E+01    1.3113643279242369E+01
Ga    4.8871296377190427E+00    8.4845197919966058E+00    1.3675256027634170E+01
N    4.9155739707261432E+00    8.4660918908762586E+00    1.5632259183087124E+01
Ga    4.7215812790562355E+00    1.0231381535394823E+01    1.6549559374722904E+01
O    7.1726938318221201E-01    3.7076049504111954E+00   -3.0160576768200775E-01
H    2.4934703936770952E+00    3.3768103549372452E+00    1.5711996587478436E-01
C    1.4624682606519174E-01    2.7180961909483985E+00   -1.1782964849063049E+00
H    1.7146371012285246E-02    1.7430590190262107E+00   -6.7937583420466507E-01
H   -8.3034539785561778E-01    3.0456566201459672E+00   -1.5662792478750223E+00
H    8.3482798757626564E-01    2.5891536508845401E+00   -2.0259536573360477E+00
Ga    3.2834517247877999E+00    5.6819805609240088E+00    2.9161345602153870E+00
O    3.3920404068902830E+00    3.0761244690535747E+00    4.4968468884438584E-01
H    7.6511339007630977E-02    7.5275935652826709E+00    1.7181919755747252E+00
C    3.2657969285977777E+00    1.8486230688539340E+00    1.1360590706623646E+00
H    4.1286157739453264E+00    1.2275929224113267E+00    8.4597905274417651E-01
H    6.5062326766454461E+00    7.5426439670478098E+00    1.7048504488628264E+00
H    2.3399796282951475E+00    1.3278920952265083E+00    8.3918434615361870E-01
     &END COORD
     &KIND C
       BASIS_SET DZVP-MOLOPT-SR-GTH-q4
       POTENTIAL GTH-PBE-q4
       &POTENTIAL
2 2
0.3384712400000000E+00 2 -0.8803673979999999E+01  0.1339210850000000E+01
2
0.3025757500000000E+00 1  0.9622486650000001E+01
0.2915069400000000E+00 0
       &END POTENTIAL
     &END KIND
     &KIND O
       BASIS_SET DZVP-MOLOPT-SR-GTH-q6
       POTENTIAL GTH-PBE-q6
       &POTENTIAL
2 4
0.2445543000000000E+00 2 -0.1666721480000000E+02  0.2487311320000000E+01
2
0.2209559200000000E+00 1  0.1833745811000000E+02
0.2113324700000000E+00 0
       &END POTENTIAL
     &END KIND
     &KIND H
       BASIS_SET DZVP-MOLOPT-SR-GTH-q1
       POTENTIAL GTH-PBE-q1
       &POTENTIAL
1
0.2000000000000000E+00 2 -0.4178900440000000E+01  0.7244633100000000E+00
0
       &END POTENTIAL
     &END KIND
     &KIND N
       BASIS_SET DZVP-MOLOPT-SR-GTH
       POTENTIAL GTH-PBE-q5
       &POTENTIAL
2 3
0.2837905100000000E+00 2 -0.1241522559000000E+02  0.1868095920000000E+01
2
0.2554050000000000E+00 1  0.1363026257000000E+02
0.2454945300000000E+00 0
       &END POTENTIAL
     &END KIND
     &KIND Ga
       BASIS_SET DZVP-MOLOPT-SR-GTH
       POTENTIAL GTH-PBE-q13
       &POTENTIAL
2 1 10
0.4900000000000000E+00 0
3
0.4167772300000000E+00 3  0.1047568975000000E+02 -0.4921768140000000E+01  0.8707055900000000E+00
0.7770178090000000E+01 -0.2248152160000000E+01
0.1784415450000000E+01
0.5696265200000000E+00 2  0.1777985340000000E+01  0.1958597600000000E+00
-0.2317443900000000E+00
0.2381265000000000E+00 1 -0.1624868022000000E+02
       &END POTENTIAL
     &END KIND
     &TOPOLOGY
       NUMBER_OF_ATOMS  212
       MULTIPLE_UNIT_CELL  1 1 1
     &END TOPOLOGY
     &COLVAR
       &DISTANCE
         ATOMS  127 211
       &END DISTANCE
       &PRINT
       &END PRINT
     &END COLVAR
   &END SUBSYS
 &END FORCE_EVAL
