 # Version information for this restart file 
 # current date 2019-07-18 07:04:06.570
 # current working dir /lustre04/scratch/rzk/rzk/GaN-carbene/443-adatoms-both-2x2/09-BondBreaking-CH/02-0401-CH-to-NTop-PES/Phase03-Relax-H..NSur
 # Program compiled at                              Sun Apr  7 00:48:11 EDT 2019
 # Program compiled on                          beluga2.int.ets1.calculquebec.ca
 # Program compiled for                        Beluga-Linux-x86-64-intel-openmpi
 # Source code revision number                                         svn:18619
 &GLOBAL
   PRINT_LEVEL  MEDIUM
   PROJECT_NAME TEST
   RUN_TYPE  GEO_OPT
 &END GLOBAL
 &MOTION
   &GEO_OPT
     MAX_ITER  500
     STEP_START_VAL  63
   &END GEO_OPT
 &END MOTION
 &FORCE_EVAL
   METHOD  QS
   STRESS_TENSOR  ANALYTICAL
   &DFT
     BASIS_SET_FILE_NAME BASIS_MOLOPT
     POTENTIAL_FILE_NAME GTH_POTENTIALS
     UKS  T
     SURFACE_DIPOLE_CORRECTION  T
     SURF_DIP_DIR  Z
     &SCF
       MAX_SCF  80
       EPS_SCF     5.0000000000000004E-06
       &OT  T
         PRECONDITIONER  FULL_ALL
       &END OT
       &OUTER_SCF  T
         OPTIMIZER  NONE
         EPS_SCF     5.0000000000000004E-06
         MAX_SCF  4
       &END OUTER_SCF
       &PRINT
         &RESTART  OFF
           BACKUP_COPIES  1
           &EACH
             JUST_ENERGY  0
             QS_SCF  0
             MD  20
           &END EACH
         &END RESTART
       &END PRINT
     &END SCF
     &QS
       EPS_DEFAULT     1.0000000000000000E-14
       METHOD  GPW
     &END QS
     &MGRID
       NGRIDS  5
       CUTOFF     1.2000000000000000E+03
     &END MGRID
     &XC
       DENSITY_CUTOFF     1.0000000000000000E-10
       GRADIENT_CUTOFF     1.0000000000000000E-10
       TAU_CUTOFF     1.0000000000000000E-10
       &XC_FUNCTIONAL  NO_SHORTCUT
         &PBE  T
         &END PBE
       &END XC_FUNCTIONAL
       &VDW_POTENTIAL
         POTENTIAL_TYPE  PAIR_POTENTIAL
         &PAIR_POTENTIAL
           R_CUTOFF     1.0000000000000009E+01
           TYPE  DFTD3
           PARAMETER_FILE_NAME dftd3.dat
           REFERENCE_FUNCTIONAL PBE
           EPS_CN     9.9999999999999995E-07
           CALCULATE_C9_TERM  T
           REFERENCE_C9_TERM  T
           LONG_RANGE_CORRECTION  F
           VERBOSE_OUTPUT  F
         &END PAIR_POTENTIAL
       &END VDW_POTENTIAL
     &END XC
   &END DFT
   &SUBSYS
     &CELL
       A     1.2864472766435110E+01    0.0000000000000000E+00    0.0000000000000000E+00
       B    -6.4322363581020028E+00    1.1140960178524477E+01    0.0000000000000000E+00
       C     0.0000000000000000E+00    0.0000000000000000E+00    3.2000000000000000E+01
       MULTIPLE_UNIT_CELL  1 1 1
       &CELL_REF
         A     1.2982353780853531E+01    0.0000000000000000E+00    0.0000000000000000E+00
         B    -6.4911768904267628E+00    1.1243048175136114E+01    0.0000000000000000E+00
         C     0.0000000000000000E+00    0.0000000000000000E+00    3.2000000000000000E+01
         MULTIPLE_UNIT_CELL  1 1 1
       &END CELL_REF
     &END CELL
     &COORD
N    8.2107998371536178E-02    2.1087397654852573E+00    2.5693972502389917E+00
Ga    5.9211435023987638E-02    1.3914267771385475E-01    2.9201275141664715E+00
N    7.5832437534454747E-02    1.2386406312807159E-01    5.0916671349214448E+00
Ga    6.7837519728415022E-02    1.9487241814456171E+00    5.8552591135472545E+00
N    7.6374915570867383E-02    1.9686497746163492E+00    7.8531480795581139E+00
Ga    7.3361453957749109E-02    1.2090739598949903E-01    8.4944566504028938E+00
N    7.4631675606597878E-02    1.2054160576887013E-01    1.0469650462012630E+01
Ga    7.2306644794837643E-02    1.9593876507907657E+00    1.1122789061470591E+01
N    7.4173251079909783E-02    1.9401511958175433E+00    1.3119128371199809E+01
Ga    7.3334194093574487E-02    1.1557439580600019E-01    1.3924577886489265E+01
N    7.3005765374713413E-02    1.1520240468073092E-01    1.6122701552576576E+01
Ga    7.4847881488603649E-02    2.1364871841216964E+00    1.6516017683291501E+01
Ga    9.3036685065537014E-02    3.8333900199327644E+00    1.4251467420975126E+00
N   -1.3966890465305248E+00    4.7010062943744417E+00    2.5383567609417836E+00
Ga   -1.6123004191761188E+00    2.8567396923631696E+00    3.3147740022546062E+00
N   -1.5304391798742556E+00    2.9104466021430642E+00    5.2996213598074986E+00
Ga   -1.5641711178321074E+00    4.7709690274364194E+00    5.8649725601485034E+00
N   -1.5417492808965683E+00    4.7692466860145419E+00    7.8593701042548947E+00
Ga   -1.5287186058803528E+00    2.9083588191157088E+00    8.4858125360285275E+00
N   -1.5236080669535437E+00    2.9117677651295000E+00    1.0483100555890177E+01
Ga   -1.5498996100484697E+00    4.7707323867631874E+00    1.1120461972434240E+01
N   -1.5659556817284137E+00    4.7825087588969968E+00    1.3116623407061555E+01
Ga   -1.5229172092852006E+00    2.9134475437418543E+00    1.3670078993662019E+01
N   -1.5475906823511147E+00    2.9025204113252148E+00    1.5639027925629092E+01
Ga   -1.3892160223002366E+00    4.6824213636031855E+00    1.6516291188378180E+01
N    6.8764467468996601E-02    3.8263000630802053E+00    1.7643542652513890E+01
N   -3.1362587464532830E+00    7.6552778300454190E+00    2.5593926049667277E+00
Ga   -3.1307041597799388E+00    5.6703496402025131E+00    2.8993872435239836E+00
N   -3.1320995255460171E+00    5.6893544221205659E+00    5.0845283311340355E+00
Ga   -3.1399572013468471E+00    7.5079205404988629E+00    5.8537411195744689E+00
N   -3.1415326907342016E+00    7.5402176402089358E+00    7.8473742488282765E+00
Ga   -3.1430624545318655E+00    5.6913307157362079E+00    8.4968634258969633E+00
N   -3.1427815990076056E+00    5.6928910001333346E+00    1.0471383264006970E+01
Ga   -3.1424256765945970E+00    7.5317644013956615E+00    1.1124228849545354E+01
N   -3.1420059613177815E+00    7.5137651829897729E+00    1.3115216805435672E+01
Ga   -3.1429363719367380E+00    5.6966214790009202E+00    1.3915762192337368E+01
N   -3.1437436546159470E+00    5.6961996247266491E+00    1.6122442281926496E+01
Ga   -3.1418354754414977E+00    7.7534740137728901E+00    1.6551874275031018E+01
Ga   -3.1356494054517254E+00    9.3969259843461952E+00    1.2900725387327869E+00
N   -4.6546359641215540E+00    1.0281853210208398E+01    2.5596645846220225E+00
Ga   -4.7522217727017741E+00    8.4771045382848023E+00    3.3412977100067125E+00
N   -4.7555624667537284E+00    8.4723192068012612E+00    5.2889289489527984E+00
Ga   -4.7835116122813597E+00    1.0352995903052589E+01    5.8552193477852530E+00
N   -4.7558024359653084E+00    1.0337720856688952E+01    7.8477430598668914E+00
Ga   -4.7389281098621261E+00    8.4829690524402093E+00    8.4940300297804328E+00
N   -4.7390011934768248E+00    8.4837188454348276E+00    1.0484063576760969E+01
Ga   -4.7661772095244626E+00    1.0342450349619918E+01    1.1125432045734906E+01
N   -4.7814279840810308E+00    1.0351994629589051E+01    1.3116923405408503E+01
Ga   -4.7391542333984100E+00    8.4835289067908608E+00    1.3677037218399340E+01
N   -4.7663890528424790E+00    8.4649962016885656E+00    1.5635453027747653E+01
Ga   -4.5783778067033429E+00    1.0234312209922134E+01    1.6551410073127322E+01
N   -3.1468097037107681E+00    9.4064156686040121E+00    1.7695791029207236E+01
N    3.2788737764376936E+00    1.9732030978958981E+00    2.6347606563872161E+00
Ga    3.2903781612869434E+00    1.3228013756651752E-01    3.3484800976277023E+00
N    3.2910768880773946E+00    1.3291789044496208E-01    5.2921764773947606E+00
Ga    3.2951418834081223E+00    1.9773245202483409E+00    5.9494096997328239E+00
N    3.2920122209288336E+00    1.9770022365082780E+00    7.9121648447788697E+00
Ga    3.2906001500607753E+00    1.0752815853581821E-01    8.4985726038479417E+00
N    3.2901120800059158E+00    1.0841952058769547E-01    1.0487787241923261E+01
Ga    3.2906824802200387E+00    1.9779722803978426E+00    1.1082721865297589E+01
N    3.2904367878059597E+00    1.9795747971484856E+00    1.3054468615120788E+01
Ga    3.2909341117531952E+00    1.0736914889004844E-01    1.3678013859534996E+01
N    3.2913610781969314E+00    1.4325804224134925E-01    1.5635908049898466E+01
Ga    3.2906641931134515E+00    1.9771455724726397E+00    1.5914890414721771E+01
N    1.5632674179549555E+00    4.7087564167848406E+00    2.6022186713934010E+00
Ga    1.6993811209612286E+00    2.8928727094109474E+00    3.3669252664176805E+00
N    1.7008761002747947E+00    2.8969594248954307E+00    5.3079841432336723E+00
Ga    1.7150150709503718E+00    4.7796547803569327E+00    5.8649640404261074E+00
N    1.6904019045936447E+00    4.7664802360581398E+00    7.8570871354611649E+00
Ga    1.6701504773810483E+00    2.9110161409189752E+00    8.4990449479242063E+00
N    1.6714015240465854E+00    2.9124471661296858E+00    1.0489813562726521E+01
Ga    1.6982226386121477E+00    4.7727006515223600E+00    1.1123256012141157E+01
N    1.7150086609078183E+00    4.7830482379290986E+00    1.3117902370729002E+01
Ga    1.6706183943484592E+00    2.9141200679604258E+00    1.3671440554798627E+01
N    1.6974639704408960E+00    2.9032197010085761E+00    1.5638966092053193E+01
Ga    1.5333303161178866E+00    4.6797071030359820E+00    1.6516786779431005E+01
N    7.5108085961730742E-02    7.5489691942184445E+00    2.7456687113092761E+00
Ga    7.2247060587717488E-02    5.7013638341537245E+00    3.3895333734888151E+00
N    7.2719971235568628E-02    5.7080054294122338E+00    5.3243903745191030E+00
Ga    7.6261378038555205E-02    7.5554008516015871E+00    5.9507810479112644E+00
N    7.4204094912855872E-02    7.5511351705755576E+00    7.9134253743839631E+00
Ga    7.3534133164906632E-02    5.6791087226031980E+00    8.4981624832612255E+00
N    7.4623348020611574E-02    5.6794606590518901E+00    1.0488775146503023E+01
Ga    7.4200877519542810E-02    7.5494820773022182E+00    1.1081734183800465E+01
N    7.3817972342570287E-02    7.5479940353032120E+00    1.3051898661689963E+01
Ga    7.4323524497170182E-02    5.6800132248751547E+00    1.3670566292733428E+01
N    7.5083678153128358E-02    5.7069924795731266E+00    1.5637184512195555E+01
Ga    7.4245433522956358E-02    7.5514585762026547E+00    1.5912298178275359E+01
N   -1.6293240039194015E+00    1.0280433151440981E+01    2.5611923566393329E+00
Ga   -1.5288323032577915E+00    8.4802037039114744E+00    3.3481613891372164E+00
N   -1.5247706245858701E+00    8.4742487441526517E+00    5.2945030520620158E+00
Ga   -1.4990436355189456E+00    1.0354577061055823E+01    5.8574456258777889E+00
N   -1.5277748132070461E+00    1.0338218852918024E+01    7.8495929131910671E+00
Ga   -1.5458505684010209E+00    8.4844418833480564E+00    8.4975494982533881E+00
N   -1.5454551897494935E+00    8.4840695961405430E+00    1.0486619351245141E+01
Ga   -1.5174792004564421E+00    1.0343354741610701E+01    1.1125604888806611E+01
N   -1.5015756944644525E+00    1.0352528236041806E+01    1.3116883899591041E+01
Ga   -1.5450635714261562E+00    8.4844036678499783E+00    1.3677429861559483E+01
N   -1.5172163340418108E+00    8.4658270097873238E+00    1.5634824649591005E+01
Ga   -1.7088896233100186E+00    1.0232137642470370E+01    1.6552091981648111E+01
N    6.4900972695399570E+00    2.0928087690625174E+00    2.5516695952080801E+00
Ga    6.5198106799364091E+00    1.3020602762551048E-01    2.9194892886721111E+00
N    6.5065000574971723E+00    1.2168537930351658E-01    5.0928757129408577E+00
Ga    6.5102304470652808E+00    1.9521673648931932E+00    5.8412487104217323E+00
N    6.5029712072346895E+00    1.9704892055956216E+00    7.8436297511316342E+00
Ga    6.5076179425305476E+00    1.2380190530409714E-01    8.4922466587550289E+00
N    6.5058082300647682E+00    1.2181984484157229E-01    1.0468304939714278E+01
Ga    6.5086233561581750E+00    1.9601813029169262E+00    1.1122480285496378E+01
N    6.5071191023643653E+00    1.9404820257640565E+00    1.3118553284943792E+01
Ga    6.5075108878653669E+00    1.1669774890522026E-01    1.3926226581925276E+01
N    6.5063952283943900E+00    1.1612989607761479E-01    1.6122666604671405E+01
Ga    6.5075541503854568E+00    2.1411006593314252E+00    1.6519591044112374E+01
Ga    6.4886951045962507E+00    3.8254706420401736E+00    1.2937188913549609E+00
N    5.0025444744002625E+00    4.7223076222960030E+00    2.5924004593355914E+00
Ga    4.8789444604701000E+00    2.9002901525193816E+00    3.3227767860222039E+00
N    4.8796600789577731E+00    2.8976930859501859E+00    5.2778201213389764E+00
Ga    4.8697880893576384E+00    4.7778998811544264E+00    5.8485587682443834E+00
N    4.8918049804907460E+00    4.7653323292541945E+00    7.8456786489202957E+00
Ga    4.9124578792311437E+00    2.9123783427600682E+00    8.4969816501385171E+00
N    4.9096461755351752E+00    2.9131072609146957E+00    1.0488259355317826E+01
Ga    4.8840047859656943E+00    4.7731261007448174E+00    1.1122709653045170E+01
N    4.8667117971406091E+00    4.7830754747153161E+00    1.3117266260065408E+01
Ga    4.9108989395337854E+00    2.9140355486216056E+00    1.3671874502000602E+01
N    4.8827237065501041E+00    2.9017926894925985E+00    1.5638877750108522E+01
Ga    5.0477132379329515E+00    4.6797311172178322E+00    1.6520066022615179E+01
N    6.5018007090688252E+00    3.8261299264436528E+00    1.7644865083553896E+01
N    3.2873446181964980E+00    7.6525879359935178E+00    2.5627194599678513E+00
N    3.2883446320033984E+00    5.6910628034118469E+00    5.1002849486775581E+00
Ga    3.2912492428646409E+00    7.5145910479112601E+00    5.8564200884189503E+00
N    3.2905337902322809E+00    7.5404676821500667E+00    7.8508537046291256E+00
Ga    3.2929127781122451E+00    5.6915867248724332E+00    8.4954387972138239E+00
N    3.2911919275355097E+00    5.6919071320869996E+00    1.0469938997015372E+01
Ga    3.2910370093479950E+00    7.5320123255066775E+00    1.1123032940235001E+01
N    3.2907014680629274E+00    7.5133135972588647E+00    1.3114269177341443E+01
Ga    3.2911211252367214E+00    5.6977239731796265E+00    1.3917571095299033E+01
N    3.2899319278553798E+00    5.6968470720529778E+00    1.6122539121480663E+01
Ga    3.2904927694763657E+00    7.7545908484384070E+00    1.6550084040799852E+01
Ga    3.2860297997974830E+00    9.4600889462712825E+00    1.2852242244333700E+00
N    1.7761203604003084E+00    1.0274628391869225E+01    2.5663900190783071E+00
Ga    1.6906227369829472E+00    8.4814026542595471E+00    3.3447707737930279E+00
N    1.6725391048358826E+00    8.4703992232101513E+00    5.2952888040968196E+00
Ga    1.6614313650160581E+00    1.0354973122717698E+01    5.8501032379539541E+00
N    1.6730229944186956E+00    1.0337110112053585E+01    7.8493370628810695E+00
Ga    1.6944460681676616E+00    8.4865606208417415E+00    8.4977353320678972E+00
N    1.6934412698074870E+00    8.4837742134063934E+00    1.0487524108917761E+01
Ga    1.6682479900582055E+00    1.0344804541352511E+01    1.1121838293266018E+01
N    1.6510375966163136E+00    1.0352779054786016E+01    1.3114850627993693E+01
Ga    1.6940434473687414E+00    8.4845298894934338E+00    1.3675367346491081E+01
N    1.6654823385137860E+00    8.4645413774315053E+00    1.5633573158162887E+01
Ga    1.8540696306842936E+00    1.0234709156678596E+01    1.6549563079163939E+01
N    3.2855441423767098E+00    9.4070835073854990E+00    1.7693357204253523E+01
N    9.7236244252066264E+00    1.9826335257478291E+00    2.6785089783351794E+00
Ga    9.7210188568755225E+00    2.1412181597891061E-01    3.2963412181473442E+00
N    9.7228475090081972E+00    1.1751811682703345E-01    5.2885654813551879E+00
Ga    9.7179695061088207E+00    1.9790938207509057E+00    5.8955073024098459E+00
N    9.7207859265621508E+00    1.9782989066020431E+00    7.8863526790152054E+00
Ga    9.7225987758001899E+00    1.1388860952859527E-01    8.4816652978037474E+00
N    9.7225558800754026E+00    1.0960978519548661E-01    1.0479191031363152E+01
Ga    9.7215001217759731E+00    1.9777393827717795E+00    1.1076115191848972E+01
N    9.7224020309356636E+00    1.9797928920619920E+00    1.3049966476722521E+01
Ga    9.7230549567440594E+00    1.0829812599140937E-01    1.3675388216776774E+01
N    9.7245169567958865E+00    1.4405789518813444E-01    1.5633462630542560E+01
Ga    9.7234060776812505E+00    1.9772600623539520E+00    1.5914906867541584E+01
N    8.0198192237789332E+00    4.7185859269889674E+00    2.5569648242715255E+00
Ga    8.1852104218478363E+00    2.8671381998675769E+00    3.2799033238585209E+00
N    8.1076670194135243E+00    2.9099764612659560E+00    5.2788348066805204E+00
Ga    8.1479843380899251E+00    4.7711834403343509E+00    5.8449911901260050E+00
N    8.1240249939264100E+00    4.7696938487150442E+00    7.8458677281151505E+00
Ga    8.1065590335073701E+00    2.9105812245732094E+00    8.4806270663981529E+00
N    8.1032002220237427E+00    2.9125015833727574E+00    1.0479269581857448E+01
Ga    8.1288549568699100E+00    4.7704852890955358E+00    1.1119271054573423E+01
N    8.1460214116022680E+00    4.7823173324157313E+00    1.3114996492496219E+01
Ga    8.1038651461704081E+00    2.9138965456725279E+00    1.3671100830420226E+01
N    8.1317573107325849E+00    2.9027625084117359E+00    1.5637378443485266E+01
Ga    7.9611888070958559E+00    4.6768202928896274E+00    1.6520501453104682E+01
N    6.5072480078814747E+00    7.5514660056194645E+00    2.7319948162654701E+00
Ga    6.5193780871582714E+00    5.6925296065946771E+00    3.3522643609537570E+00
N    6.5103986792626820E+00    5.7061444139086142E+00    5.2997018438615475E+00
Ga    6.5062001910012182E+00    7.5504310566353974E+00    5.9391830040074094E+00
N    6.5066242472436091E+00    7.5495944581329049E+00    7.9044565143927326E+00
Ga    6.5086268489826304E+00    5.6776369450289570E+00    8.4891672299453145E+00
N    6.5060841587702276E+00    5.6791090914201652E+00    1.0482151769835289E+01
Ga    6.5062083841902361E+00    7.5484492834305854E+00    1.1078961739232781E+01
N    6.5065131470926314E+00    7.5477650586091753E+00    1.3049345951874018E+01
Ga    6.5071491433450470E+00    5.6803985527771488E+00    1.3671250419526160E+01
N    6.5074538057977795E+00    5.7085568507633218E+00    1.5636414343968740E+01
Ga    6.5061571166811563E+00    7.5515581471828233E+00    1.5913244617054829E+01
N    4.8040247696274010E+00    1.0277590414041768E+01    2.5648242494026379E+00
Ga    4.8913180385098025E+00    8.4794662445404594E+00    3.3383477867711830E+00
N    4.9092393722845724E+00    8.4698327482643663E+00    5.2899784947731119E+00
Ga    4.9201530168359549E+00    1.0353955955585105E+01    5.8472370389603885E+00
N    4.9079550880229270E+00    1.0337073967045413E+01    7.8470932915900402E+00
Ga    4.8877711055269319E+00    8.4857685781211156E+00    8.4940415232190727E+00
N    4.8876451141943065E+00    8.4834673560518681E+00    1.0484400101872435E+01
Ga    4.9118368956810841E+00    1.0343577943647297E+01    1.1121347144522723E+01
N    4.9297903228150792E+00    1.0352263366132432E+01    1.3113998419592329E+01
Ga    4.8874672184562282E+00    8.4844233051154081E+00    1.3675276739540831E+01
N    4.9155563154801563E+00    8.4661251070557508E+00    1.5632704302568099E+01
Ga    4.7221901862394704E+00    1.0231736164587069E+01    1.6550304918664317E+01
O    7.1486153196410651E-01    3.7072092611083254E+00   -3.0083539827587885E-01
H    2.4902102587877493E+00    3.3757801949729416E+00    1.5790699286189797E-01
C    1.4400623084047809E-01    2.7170434357333804E+00   -1.1773055635389500E+00
H    1.4908519562248758E-02    1.7426690219962684E+00   -6.7814848833801056E-01
H   -8.3209899057502246E-01    3.0439214071490075E+00   -1.5657759714935404E+00
H    8.3230385480304558E-01    2.5873761054394535E+00   -2.0245016180252544E+00
Ga    3.2832174565181793E+00    5.6825026326483670E+00    2.9161229324277049E+00
O    3.3891884874193772E+00    3.0764705869203191E+00    4.5046600529105257E-01
H    7.6137737370658029E-02    7.5273948760426528E+00    1.7192054618587320E+00
C    3.2650728925529444E+00    1.8486239710293559E+00    1.1368145946434627E+00
H    4.1283443475956849E+00    1.2291098586745228E+00    8.4654801665435209E-01
H    6.5069062305385090E+00    7.5433811376372502E+00    1.7052373361855104E+00
H    2.3404414696512923E+00    1.3268523249473638E+00    8.4083689635211067E-01
     &END COORD
     &KIND C
       BASIS_SET DZVP-MOLOPT-SR-GTH-q4
       POTENTIAL GTH-PBE-q4
       &POTENTIAL
2 2
0.3384712400000000E+00 2 -0.8803673979999999E+01  0.1339210850000000E+01
2
0.3025757500000000E+00 1  0.9622486650000001E+01
0.2915069400000000E+00 0
       &END POTENTIAL
     &END KIND
     &KIND O
       BASIS_SET DZVP-MOLOPT-SR-GTH-q6
       POTENTIAL GTH-PBE-q6
       &POTENTIAL
2 4
0.2445543000000000E+00 2 -0.1666721480000000E+02  0.2487311320000000E+01
2
0.2209559200000000E+00 1  0.1833745811000000E+02
0.2113324700000000E+00 0
       &END POTENTIAL
     &END KIND
     &KIND H
       BASIS_SET DZVP-MOLOPT-SR-GTH-q1
       POTENTIAL GTH-PBE-q1
       &POTENTIAL
1
0.2000000000000000E+00 2 -0.4178900440000000E+01  0.7244633100000000E+00
0
       &END POTENTIAL
     &END KIND
     &KIND N
       BASIS_SET DZVP-MOLOPT-SR-GTH
       POTENTIAL GTH-PBE-q5
       &POTENTIAL
2 3
0.2837905100000000E+00 2 -0.1241522559000000E+02  0.1868095920000000E+01
2
0.2554050000000000E+00 1  0.1363026257000000E+02
0.2454945300000000E+00 0
       &END POTENTIAL
     &END KIND
     &KIND Ga
       BASIS_SET DZVP-MOLOPT-SR-GTH
       POTENTIAL GTH-PBE-q13
       &POTENTIAL
2 1 10
0.4900000000000000E+00 0
3
0.4167772300000000E+00 3  0.1047568975000000E+02 -0.4921768140000000E+01  0.8707055900000000E+00
0.7770178090000000E+01 -0.2248152160000000E+01
0.1784415450000000E+01
0.5696265200000000E+00 2  0.1777985340000000E+01  0.1958597600000000E+00
-0.2317443900000000E+00
0.2381265000000000E+00 1 -0.1624868022000000E+02
       &END POTENTIAL
     &END KIND
     &TOPOLOGY
       NUMBER_OF_ATOMS  212
       MULTIPLE_UNIT_CELL  1 1 1
     &END TOPOLOGY
     &COLVAR
       &DISTANCE
         ATOMS  127 211
       &END DISTANCE
       &PRINT
       &END PRINT
     &END COLVAR
   &END SUBSYS
 &END FORCE_EVAL
