 # Version information for this restart file 
 # current date 2019-07-18 07:00:43.189
 # current working dir /lustre04/scratch/rzk/rzk/GaN-carbene/443-adatoms-both-2x2/09-BondBreaking-CH/02-0401-CH-to-NTop-PES/Phase03-Relax-H..NSur
 # Program compiled at                              Sun Apr  7 00:48:11 EDT 2019
 # Program compiled on                          beluga2.int.ets1.calculquebec.ca
 # Program compiled for                        Beluga-Linux-x86-64-intel-openmpi
 # Source code revision number                                         svn:18619
 &GLOBAL
   PRINT_LEVEL  MEDIUM
   PROJECT_NAME TEST
   RUN_TYPE  GEO_OPT
 &END GLOBAL
 &MOTION
   &GEO_OPT
     MAX_ITER  500
     STEP_START_VAL  62
   &END GEO_OPT
 &END MOTION
 &FORCE_EVAL
   METHOD  QS
   STRESS_TENSOR  ANALYTICAL
   &DFT
     BASIS_SET_FILE_NAME BASIS_MOLOPT
     POTENTIAL_FILE_NAME GTH_POTENTIALS
     UKS  T
     SURFACE_DIPOLE_CORRECTION  T
     SURF_DIP_DIR  Z
     &SCF
       MAX_SCF  80
       EPS_SCF     5.0000000000000004E-06
       &OT  T
         PRECONDITIONER  FULL_ALL
       &END OT
       &OUTER_SCF  T
         OPTIMIZER  NONE
         EPS_SCF     5.0000000000000004E-06
         MAX_SCF  4
       &END OUTER_SCF
       &PRINT
         &RESTART  OFF
           BACKUP_COPIES  1
           &EACH
             JUST_ENERGY  0
             QS_SCF  0
             MD  20
           &END EACH
         &END RESTART
       &END PRINT
     &END SCF
     &QS
       EPS_DEFAULT     1.0000000000000000E-14
       METHOD  GPW
     &END QS
     &MGRID
       NGRIDS  5
       CUTOFF     1.2000000000000000E+03
     &END MGRID
     &XC
       DENSITY_CUTOFF     1.0000000000000000E-10
       GRADIENT_CUTOFF     1.0000000000000000E-10
       TAU_CUTOFF     1.0000000000000000E-10
       &XC_FUNCTIONAL  NO_SHORTCUT
         &PBE  T
         &END PBE
       &END XC_FUNCTIONAL
       &VDW_POTENTIAL
         POTENTIAL_TYPE  PAIR_POTENTIAL
         &PAIR_POTENTIAL
           R_CUTOFF     1.0000000000000009E+01
           TYPE  DFTD3
           PARAMETER_FILE_NAME dftd3.dat
           REFERENCE_FUNCTIONAL PBE
           EPS_CN     9.9999999999999995E-07
           CALCULATE_C9_TERM  T
           REFERENCE_C9_TERM  T
           LONG_RANGE_CORRECTION  F
           VERBOSE_OUTPUT  F
         &END PAIR_POTENTIAL
       &END VDW_POTENTIAL
     &END XC
   &END DFT
   &SUBSYS
     &CELL
       A     1.2864472766435110E+01    0.0000000000000000E+00    0.0000000000000000E+00
       B    -6.4322363581020028E+00    1.1140960178524477E+01    0.0000000000000000E+00
       C     0.0000000000000000E+00    0.0000000000000000E+00    3.2000000000000000E+01
       MULTIPLE_UNIT_CELL  1 1 1
       &CELL_REF
         A     1.2982353780853531E+01    0.0000000000000000E+00    0.0000000000000000E+00
         B    -6.4911768904267628E+00    1.1243048175136114E+01    0.0000000000000000E+00
         C     0.0000000000000000E+00    0.0000000000000000E+00    3.2000000000000000E+01
         MULTIPLE_UNIT_CELL  1 1 1
       &END CELL_REF
     &END CELL
     &COORD
N    8.2247545421547302E-02    2.1089096032356167E+00    2.5691092461109752E+00
Ga    5.8893990317399808E-02    1.3910611633242381E-01    2.9200015169361868E+00
N    7.5787223330733261E-02    1.2378111701321751E-01    5.0915348571636754E+00
Ga    6.7878215896038541E-02    1.9486025388520811E+00    5.8552662270639857E+00
N    7.6211023933920166E-02    1.9686086083902816E+00    7.8530847374294650E+00
Ga    7.3191118733671706E-02    1.2098242208637831E-01    8.4946516251996353E+00
N    7.4372078492906391E-02    1.2050440069471625E-01    1.0469731125337745E+01
Ga    7.2167394154718706E-02    1.9593334999779515E+00    1.1122895447474933E+01
N    7.4132313070889924E-02    1.9400686381110430E+00    1.3119146449655503E+01
Ga    7.3201601505406319E-02    1.1506709344018887E-01    1.3924009886060814E+01
N    7.2662116252293338E-02    1.1524420276015368E-01    1.6122252540696870E+01
Ga    7.4990549304310095E-02    2.1363989495937186E+00    1.6515459990765642E+01
Ga    9.3333915722102409E-02    3.8336691522871735E+00    1.4246456693125347E+00
N   -1.3966154221878593E+00    4.7010779981479596E+00    2.5379682189884987E+00
Ga   -1.6123949714180961E+00    2.8567304239750317E+00    3.3145033028964193E+00
N   -1.5303609834745340E+00    2.9104646362382187E+00    5.2995430747937720E+00
Ga   -1.5642455401536501E+00    4.7709988159818231E+00    5.8650011557663841E+00
N   -1.5418568256222995E+00    4.7692097617974554E+00    7.8593616070401220E+00
Ga   -1.5288201839723019E+00    2.9083604381156598E+00    8.4859047134468089E+00
N   -1.5237930643543904E+00    2.9117562242691166E+00    1.0483190376942961E+01
Ga   -1.5500377263021765E+00    4.7707238003545962E+00    1.1120665245488995E+01
N   -1.5659739973464664E+00    4.7826442863816130E+00    1.3116677547082247E+01
Ga   -1.5230561081114267E+00    2.9134654809570604E+00    1.3669555681059018E+01
N   -1.5478126894558362E+00    2.9023272888544254E+00    1.5638652687716903E+01
Ga   -1.3893472898658334E+00    4.6825920553455047E+00    1.6515642823143626E+01
N    6.8583263861683147E-02    3.8262465850937697E+00    1.7643294537240976E+01
N   -3.1362106431351715E+00    7.6553661840496465E+00    2.5590566425574282E+00
Ga   -3.1309409783587507E+00    5.6701002693877651E+00    2.8993540239021995E+00
N   -3.1321328481835202E+00    5.6894462365208049E+00    5.0842745475646991E+00
Ga   -3.1398842933516335E+00    7.5078449136918444E+00    5.8538952844766321E+00
N   -3.1416358287445862E+00    7.5401367925754901E+00    7.8474341630187388E+00
Ga   -3.1431837707031711E+00    5.6912015821995041E+00    8.4969478410814503E+00
N   -3.1429100830748853E+00    5.6927775074114892E+00    1.0471409976726541E+01
Ga   -3.1424337055650899E+00    7.5316872488514006E+00    1.1124434110914180E+01
N   -3.1420236667909656E+00    7.5139228898999884E+00    1.3115006820755962E+01
Ga   -3.1433322325580635E+00    5.6968920585670055E+00    1.3915271365267564E+01
N   -3.1438033471531011E+00    5.6962344471652626E+00    1.6121794800380989E+01
Ga   -3.1416597896496787E+00    7.7546900393724005E+00    1.6552590757787691E+01
Ga   -3.1354975168529555E+00    9.3969830956293752E+00    1.2905683756557151E+00
N   -4.6544976751473275E+00    1.0281706989473541E+01    2.5593650810183446E+00
Ga   -4.7523554533388932E+00    8.4769271602304208E+00    3.3415697223892900E+00
N   -4.7555665475721582E+00    8.4723600461410076E+00    5.2890978300829445E+00
Ga   -4.7836993732360940E+00    1.0353123905225807E+01    5.8554474294881027E+00
N   -4.7560273250545917E+00    1.0337678394211027E+01    7.8478347276163580E+00
Ga   -4.7390822683405451E+00    8.4828699708505333E+00    8.4942006193922932E+00
N   -4.7391564551845633E+00    8.4836209922575492E+00    1.0484085045763880E+01
Ga   -4.7663140780260616E+00    1.0342498732829732E+01    1.1125551915769401E+01
N   -4.7814334824053439E+00    1.0351912575902084E+01    1.3116604149046923E+01
Ga   -4.7391852030334363E+00    8.4835239539251468E+00    1.3676994486136250E+01
N   -4.7665362007007230E+00    8.4650973390407813E+00    1.5635065148623438E+01
Ga   -4.5773492307090660E+00    1.0233864139793356E+01    1.6552114896993906E+01
N   -3.1467516218083702E+00    9.4065914227441372E+00    1.7696640301987184E+01
N    3.2790128390215254E+00    1.9728950373284120E+00    2.6344916441381563E+00
Ga    3.2904657404501956E+00    1.3208317132887337E-01    3.3487967990592833E+00
N    3.2910142139034950E+00    1.3266811964445710E-01    5.2923646443378223E+00
Ga    3.2950456348167543E+00    1.9771479836486017E+00    5.9494294184794070E+00
N    3.2918567140857768E+00    1.9769983405112292E+00    7.9121645609068976E+00
Ga    3.2904665985062826E+00    1.0752071822681138E-01    8.4986929593697553E+00
N    3.2900791234045061E+00    1.0837461864817761E-01    1.0487745255996153E+01
Ga    3.2905578753043039E+00    1.9780393765602378E+00    1.1082679956929285E+01
N    3.2903161710674818E+00    1.9795791453907667E+00    1.3054140224255198E+01
Ga    3.2908402789420377E+00    1.0726066043663814E-01    1.3678076334527939E+01
N    3.2911697205667854E+00    1.4323304499005957E-01    1.5635448986830745E+01
Ga    3.2905772710108390E+00    1.9767792536114497E+00    1.5914543356179237E+01
N    1.5634594095407943E+00    4.7088681332273250E+00    2.6020934502925761E+00
Ga    1.6995150670238974E+00    2.8929274644275362E+00    3.3668277461777758E+00
N    1.7008892032245824E+00    2.8969119422464455E+00    5.3079679231975962E+00
Ga    1.7149891915124587E+00    4.7795644577616665E+00    5.8650473970225878E+00
N    1.6902897592052475E+00    4.7664497774766676E+00    7.8571339467639536E+00
Ga    1.6699134379599725E+00    2.9109693847983764E+00    8.4991176330460885E+00
N    1.6711714623062011E+00    2.9125020633683789E+00    1.0489794394336830E+01
Ga    1.6981390548035060E+00    4.7727176389632220E+00    1.1123345810923491E+01
N    1.7149883101293146E+00    4.7832059855764415E+00    1.3117833566382066E+01
Ga    1.6705224947613950E+00    2.9142441256476315E+00    1.3670968682319995E+01
N    1.6975215938059574E+00    2.9030941053620931E+00    1.5638464809607946E+01
Ga    1.5332210703299760E+00    4.6795493359310720E+00    1.6516126194194094E+01
N    7.5140245704793426E-02    7.5490505207513712E+00    2.7456680378195237E+00
Ga    7.2254929221367253E-02    5.7014671517617259E+00    3.3894098653399678E+00
N    7.2724934110440523E-02    5.7080649231426959E+00    5.3243719635079580E+00
Ga    7.6345889753221152E-02    7.5555188015583488E+00    5.9509480821905223E+00
N    7.4170018505600954E-02    7.5510035606502743E+00    7.9135499672712717E+00
Ga    7.3377470337324169E-02    5.6789702427372859E+00    8.4983911493314910E+00
N    7.4484826065772267E-02    5.6794061699163434E+00    1.0488875462096070E+01
Ga    7.4220627573346173E-02    7.5494769433105500E+00    1.1081840517246215E+01
N    7.3918891566458936E-02    7.5480434024088572E+00    1.3051655142070802E+01
Ga    7.4302246877798003E-02    5.6802065712251615E+00    1.3670299778998031E+01
N    7.5080433918035400E-02    5.7072488890208506E+00    1.5636913645744716E+01
Ga    7.3756086252011896E-02    7.5516812098357899E+00    1.5911681584990498E+01
N   -1.6292568763938642E+00    1.0280367874249288E+01    2.5609226078833602E+00
Ga   -1.5286276525544131E+00    8.4801305122073494E+00    3.3483844619623091E+00
N   -1.5247846105508054E+00    8.4742672326729558E+00    5.2945965445942988E+00
Ga   -1.4990231146078767E+00    1.0354553418817758E+01    5.8576385434379157E+00
N   -1.5278481520612666E+00    1.0338163246095752E+01    7.8496529079122972E+00
Ga   -1.5458992141154668E+00    8.4843472650822669E+00    8.4977918676767921E+00
N   -1.5454687614616123E+00    8.4840459183003674E+00    1.0486670903186118E+01
Ga   -1.5174330626599026E+00    1.0343372219499846E+01    1.1125850818561034E+01
N   -1.5017545522568558E+00    1.0352379890410683E+01    1.3116744564330672E+01
Ga   -1.5450543978056481E+00    8.4843202337498695E+00    1.3677455900315433E+01
N   -1.5172067598234162E+00    8.4658005388334416E+00    1.5634258225406104E+01
Ga   -1.7098515277588040E+00    1.0231539714071728E+01    1.6552716025837761E+01
N    6.4901210123301913E+00    2.0927573497957783E+00    2.5511248104331292E+00
Ga    6.5200496242056865E+00    1.3043309636951361E-01    2.9191310163908000E+00
N    6.5063432580101157E+00    1.2151291444740042E-01    5.0924506207187115E+00
Ga    6.5100616290281375E+00    1.9520689502296167E+00    5.8409797171676594E+00
N    6.5029334139643753E+00    1.9704469977971741E+00    7.8433847270403856E+00
Ga    6.5075283193512083E+00    1.2383529103283017E-01    8.4923896028688048E+00
N    6.5058188919395548E+00    1.2178489280012854E-01    1.0468277858540096E+01
Ga    6.5085503253171817E+00    1.9600440034948978E+00    1.1122690820169934E+01
N    6.5069968219945808E+00    1.9405203602061687E+00    1.3118468811233452E+01
Ga    6.5074643069990428E+00    1.1657022564166128E-01    1.3925795624087765E+01
N    6.5062804705886839E+00    1.1605752010624966E-01    1.6122155221981863E+01
Ga    6.5077250782324718E+00    2.1415552780704292E+00    1.6519962016035983E+01
Ga    6.4884118391828709E+00    3.8256993109823938E+00    1.2926254091682270E+00
N    5.0025303565531285E+00    4.7223859128908980E+00    2.5920433665927032E+00
Ga    4.8793242426321948E+00    2.9004412021635937E+00    3.3224924936475180E+00
N    4.8794324290789808E+00    2.8975444386084681E+00    5.2777730845011490E+00
Ga    4.8696086998495156E+00    4.7776878637670617E+00    5.8484172779534580E+00
N    4.8916406373358710E+00    4.7653381946775912E+00    7.8455710153861897E+00
Ga    4.9124304075538312E+00    2.9123185718651263E+00    8.4968602920818750E+00
N    4.9096714437263946E+00    2.9130715195951713E+00    1.0488043686568133E+01
Ga    4.8838155783134241E+00    4.7730546250097614E+00    1.1122756900787714E+01
N    4.8666208410165401E+00    4.7831693573987950E+00    1.3116905175235436E+01
Ga    4.9108400584728038E+00    2.9141879242119515E+00    1.3671561693830213E+01
N    4.8825341503714927E+00    2.9018120762703408E+00    1.5638482486526550E+01
Ga    5.0483669885587252E+00    4.6794000900457533E+00    1.6520357499806490E+01
N    6.5018338405770182E+00    3.8259745396664337E+00    1.7646052540598877E+01
N    3.2873193023851122E+00    7.6530091983657087E+00    2.5630900195485231E+00
N    3.2882045842552654E+00    5.6912158682766600E+00    5.1001564461797679E+00
Ga    3.2909963718603943E+00    7.5146775796495664E+00    5.8565524895166092E+00
N    3.2904401839072714E+00    7.5404177346601875E+00    7.8509204231724352E+00
Ga    3.2927551976121605E+00    5.6914502159770626E+00    8.4957141716915245E+00
N    3.2910577012068729E+00    5.6919448399824919E+00    1.0470063031911460E+01
Ga    3.2908416798460327E+00    7.5319801913350686E+00    1.1123294839298230E+01
N    3.2906149837198733E+00    7.5134333135399061E+00    1.3114067644655691E+01
Ga    3.2913709141087120E+00    5.6980640180825732E+00    1.3916930281355691E+01
N    3.2896113928012611E+00    5.6970388538398922E+00    1.6122195807556182E+01
Ga    3.2906734435388008E+00    7.7550242032742132E+00    1.6549814693127075E+01
Ga    3.2860919951143646E+00    9.4601498116305383E+00    1.2856013974160871E+00
N    1.7763159841047507E+00    1.0274684930083781E+01    2.5663481725998878E+00
Ga    1.6905483254873697E+00    8.4815651650874813E+00    3.3446595438026998E+00
N    1.6724723622090640E+00    8.4704639639314383E+00    5.2950896938459158E+00
Ga    1.6613074505824896E+00    1.0354929377883192E+01    5.8500066818349321E+00
N    1.6729651267674668E+00    1.0337108330610096E+01    7.8492066572369765E+00
Ga    1.6942873188120353E+00    8.4865737651754021E+00    8.4980139514991251E+00
N    1.6934005704276094E+00    8.4838705119630227E+00    1.0487612624716659E+01
Ga    1.6680653658167597E+00    1.0344815960346617E+01    1.1122232677688197E+01
N    1.6511035512899788E+00    1.0352577794895671E+01    1.3114841273348409E+01
Ga    1.6941211339609852E+00    8.4844984071252529E+00    1.3675196383485355E+01
N    1.6654711267493576E+00    8.4645335888747475E+00    1.5633536383291464E+01
Ga    1.8540510784810824E+00    1.0234911237333920E+01    1.6549266913118664E+01
N    3.2853265390700299E+00    9.4073378045760894E+00    1.7692959307461624E+01
N    9.7235632671223460E+00    1.9826630962117775E+00    2.6780426645193303E+00
Ga    9.7209189519240340E+00    2.1435789501577765E-01    3.2962250322217699E+00
N    9.7227093092023775E+00    1.1735526520559769E-01    5.2884303904531809E+00
Ga    9.7179870333200533E+00    1.9789354765510345E+00    5.8954135543752813E+00
N    9.7207093890925744E+00    1.9783189249036366E+00    7.8862676047636340E+00
Ga    9.7224910270708271E+00    1.1400392123376646E-01    8.4818691742054373E+00
N    9.7223658381099511E+00    1.0955980730792715E-01    1.0479312828114898E+01
Ga    9.7213422419056066E+00    1.9776813740521382E+00    1.1076212698058399E+01
N    9.7223057972829743E+00    1.9795615220692224E+00    1.3049851957956005E+01
Ga    9.7229749677257047E+00    1.0803377366350039E-01    1.3675355797328418E+01
N    9.7245652117541717E+00    1.4403289760861396E-01    1.5633397660467367E+01
Ga    9.7230651679432185E+00    1.9772267910473276E+00    1.5914764699743207E+01
N    8.0196901015368276E+00    4.7185373783062845E+00    2.5563896783327005E+00
Ga    8.1850551225025328E+00    2.8671742569305780E+00    3.2794649795829511E+00
N    8.1076365728822672E+00    2.9098249099333988E+00    5.2787369615186988E+00
Ga    8.1479440229306928E+00    4.7710527878634004E+00    5.8448226250071045E+00
N    8.1239207410940040E+00    4.7696368604179682E+00    7.8457110196124464E+00
Ga    8.1064615182018951E+00    2.9105688290343386E+00    8.4806203746715560E+00
N    8.1030849921432218E+00    2.9124372339491660E+00    1.0479202323484985E+01
Ga    8.1287771157371527E+00    4.7703643322687030E+00    1.1119457241970325E+01
N    8.1457710382723718E+00    4.7823475243698139E+00    1.3114801501512908E+01
Ga    8.1037516722187029E+00    2.9139487575668279E+00    1.3670840957817846E+01
N    8.1318596150917397E+00    2.9027647467489528E+00    1.5636847640796365E+01
Ga    7.9607308216045078E+00    4.6763936934084969E+00    1.6520753307766665E+01
N    6.5072107297750055E+00    7.5513465954667573E+00    2.7318646179040713E+00
Ga    6.5194448185096530E+00    5.6923021622963601E+00    3.3521243482165444E+00
N    6.5102800477370542E+00    5.7062533865514435E+00    5.2998536019064151E+00
Ga    6.5060209295825908E+00    7.5505498412539573E+00    5.9393392238512401E+00
N    6.5064188530794631E+00    7.5494993653437339E+00    7.9045544979265880E+00
Ga    6.5085465221212147E+00    5.6774723280409694E+00    8.4891722031841663E+00
N    6.5059918097589300E+00    5.6789962614049170E+00    1.0482044777169541E+01
Ga    6.5059450856004117E+00    7.5484008115440062E+00    1.1079057365039375E+01
N    6.5061994032716379E+00    7.5478247332454140E+00    1.3049180909993900E+01
Ga    6.5069823937812545E+00    5.6803739366633916E+00    1.3671265391385708E+01
N    6.5074069124520140E+00    5.7085973300565565E+00    1.5636244354046516E+01
Ga    6.5062205772984569E+00    7.5515834646603572E+00    1.5912438035061760E+01
N    4.8036167868130111E+00    1.0277450938656564E+01    2.5650884768997617E+00
Ga    4.8913241657221240E+00    8.4794056623448046E+00    3.3383199120354230E+00
N    4.9090627023014255E+00    8.4698641183445069E+00    5.2900027462043955E+00
Ga    4.9200439899959054E+00    1.0354073755283661E+01    5.8472095412433944E+00
N    4.9078095617741946E+00    1.0337062489236986E+01    7.8470016833760443E+00
Ga    4.8876859289888701E+00    8.4857904682489202E+00    8.4943594120853803E+00
N    4.8873849146418209E+00    8.4835200293066606E+00    1.0484525268822088E+01
Ga    4.9116489933352891E+00    1.0343599100987721E+01    1.1121659209201971E+01
N    4.9295374567615466E+00    1.0352050434853513E+01    1.3113859581027095E+01
Ga    4.8870996663994566E+00    8.4844626533353900E+00    1.3675277627045032E+01
N    4.9154972325931290E+00    8.4662535927904461E+00    1.5632668675366041E+01
Ga    4.7219087380493727E+00    1.0231597678795145E+01    1.6549896176776965E+01
O    7.1607707487624817E-01    3.7072329683869816E+00   -3.0120712746697642E-01
H    2.4914659963355623E+00    3.3760387057189569E+00    1.5759932270924720E-01
C    1.4501445797096674E-01    2.7175743446413052E+00   -1.1779815069602360E+00
H    1.6105770266104689E-02    1.7431206734783384E+00   -6.7867461757441050E-01
H   -8.3124694602582216E-01    3.0448504364633981E+00   -1.5659344930782269E+00
H    8.3362734297621710E-01    2.5883790669058011E+00   -2.0251431969640823E+00
Ga    3.2834409877983939E+00    5.6826858308912467E+00    2.9160484615574060E+00
O    3.3904275837925666E+00    3.0763187473234583E+00    4.4998906891154961E-01
H    7.6126568858904203E-02    7.5275837560940433E+00    1.7189224810429897E+00
C    3.2653479172528774E+00    1.8487275013434858E+00    1.1364169886289057E+00
H    4.1281999325089949E+00    1.2283802209401398E+00    8.4631237638143209E-01
H    6.5068520360015150E+00    7.5433436791243587E+00    1.7050083194472818E+00
H    2.3403650855936822E+00    1.3270194512653850E+00    8.4019206007452119E-01
     &END COORD
     &KIND C
       BASIS_SET DZVP-MOLOPT-SR-GTH-q4
       POTENTIAL GTH-PBE-q4
       &POTENTIAL
2 2
0.3384712400000000E+00 2 -0.8803673979999999E+01  0.1339210850000000E+01
2
0.3025757500000000E+00 1  0.9622486650000001E+01
0.2915069400000000E+00 0
       &END POTENTIAL
     &END KIND
     &KIND O
       BASIS_SET DZVP-MOLOPT-SR-GTH-q6
       POTENTIAL GTH-PBE-q6
       &POTENTIAL
2 4
0.2445543000000000E+00 2 -0.1666721480000000E+02  0.2487311320000000E+01
2
0.2209559200000000E+00 1  0.1833745811000000E+02
0.2113324700000000E+00 0
       &END POTENTIAL
     &END KIND
     &KIND H
       BASIS_SET DZVP-MOLOPT-SR-GTH-q1
       POTENTIAL GTH-PBE-q1
       &POTENTIAL
1
0.2000000000000000E+00 2 -0.4178900440000000E+01  0.7244633100000000E+00
0
       &END POTENTIAL
     &END KIND
     &KIND N
       BASIS_SET DZVP-MOLOPT-SR-GTH
       POTENTIAL GTH-PBE-q5
       &POTENTIAL
2 3
0.2837905100000000E+00 2 -0.1241522559000000E+02  0.1868095920000000E+01
2
0.2554050000000000E+00 1  0.1363026257000000E+02
0.2454945300000000E+00 0
       &END POTENTIAL
     &END KIND
     &KIND Ga
       BASIS_SET DZVP-MOLOPT-SR-GTH
       POTENTIAL GTH-PBE-q13
       &POTENTIAL
2 1 10
0.4900000000000000E+00 0
3
0.4167772300000000E+00 3  0.1047568975000000E+02 -0.4921768140000000E+01  0.8707055900000000E+00
0.7770178090000000E+01 -0.2248152160000000E+01
0.1784415450000000E+01
0.5696265200000000E+00 2  0.1777985340000000E+01  0.1958597600000000E+00
-0.2317443900000000E+00
0.2381265000000000E+00 1 -0.1624868022000000E+02
       &END POTENTIAL
     &END KIND
     &TOPOLOGY
       NUMBER_OF_ATOMS  212
       MULTIPLE_UNIT_CELL  1 1 1
     &END TOPOLOGY
     &COLVAR
       &DISTANCE
         ATOMS  127 211
       &END DISTANCE
       &PRINT
       &END PRINT
     &END COLVAR
   &END SUBSYS
 &END FORCE_EVAL
