 # Version information for this restart file 
 # current date 2019-05-28 00:14:18.583
 # current working dir /lustre03/project/6004141/rzk/GaN-carbene/334-native/08-2Methanol-Htransfer/03-CO-constraint/1.84
 # Program compiled at                              Sun Apr  7 00:48:11 EDT 2019
 # Program compiled on                          beluga2.int.ets1.calculquebec.ca
 # Program compiled for                        Beluga-Linux-x86-64-intel-openmpi
 # Source code revision number                                         svn:18619
 &GLOBAL
   PRINT_LEVEL  MEDIUM
   PROJECT_NAME TEST
   RUN_TYPE  GEO_OPT
 &END GLOBAL
 &MOTION
   &GEO_OPT
     MAX_ITER  500
     STEP_START_VAL  119
   &END GEO_OPT
   &CONSTRAINT
     &COLLECTIVE
       COLVAR  1
       INTERMOLECULAR  T
       TARGET     3.4770960845095833E+00
       &RESTRAINT
         K     1.0000000000000001E-01
       &END RESTRAINT
     &END COLLECTIVE
     &COLVAR_RESTART
           3.4770960845095833E+00
     &END COLVAR_RESTART
   &END CONSTRAINT
 &END MOTION
 &FORCE_EVAL
   METHOD  QS
   STRESS_TENSOR  ANALYTICAL
   &DFT
     BASIS_SET_FILE_NAME BASIS_MOLOPT
     POTENTIAL_FILE_NAME GTH_POTENTIALS
     &SCF
       MAX_SCF  100
       EPS_SCF     5.0000000000000004E-06
       &OT  T
         PRECONDITIONER  FULL_ALL
       &END OT
       &OUTER_SCF  T
         OPTIMIZER  NONE
         EPS_SCF     5.0000000000000004E-06
         MAX_SCF  4
       &END OUTER_SCF
       &PRINT
         &RESTART  OFF
           BACKUP_COPIES  1
           &EACH
             JUST_ENERGY  0
             QS_SCF  0
             MD  20
           &END EACH
         &END RESTART
       &END PRINT
     &END SCF
     &QS
       EPS_DEFAULT     1.0000000000000000E-14
       ALMO_SCF  F
       METHOD  GPW
     &END QS
     &MGRID
       NGRIDS  5
       CUTOFF     1.2000000000000000E+03
     &END MGRID
     &XC
       DENSITY_CUTOFF     1.0000000000000000E-10
       GRADIENT_CUTOFF     1.0000000000000000E-10
       TAU_CUTOFF     1.0000000000000000E-10
       &XC_FUNCTIONAL  NO_SHORTCUT
         &PBE  T
         &END PBE
       &END XC_FUNCTIONAL
       &VDW_POTENTIAL
         POTENTIAL_TYPE  PAIR_POTENTIAL
         &PAIR_POTENTIAL
           R_CUTOFF     1.0000000000000005E+01
           TYPE  DFTD3
           PARAMETER_FILE_NAME dftd3.dat
           REFERENCE_FUNCTIONAL PBE
           EPS_CN     9.9999999999999995E-07
           CALCULATE_C9_TERM  T
           REFERENCE_C9_TERM  T
           LONG_RANGE_CORRECTION  F
           VERBOSE_OUTPUT  F
         &END PAIR_POTENTIAL
       &END VDW_POTENTIAL
     &END XC
   &END DFT
   &SUBSYS
     &CELL
       A     9.7367653356401487E+00    0.0000000000000000E+00    0.0000000000000000E+00
       B    -4.8591341382960209E+00    8.4162672083210595E+00    0.0000000000000000E+00
       C     0.0000000000000000E+00    0.0000000000000000E+00    3.0744000000000000E+01
       MULTIPLE_UNIT_CELL  1 1 1
       &CELL_REF
         A     9.5580000000000052E+00    0.0000000000000000E+00    0.0000000000000000E+00
         B    -4.7790000000000026E+00    8.2774708093716640E+00    0.0000000000000000E+00
         C     0.0000000000000000E+00    0.0000000000000000E+00    3.0744000000000000E+01
         MULTIPLE_UNIT_CELL  1 1 1
       &END CELL_REF
     &END CELL
     &COORD
Ga    1.3232149798566994E-02   -2.6978886474541094E-02   -5.4160303605739490E-01
N    1.6267485171073254E-02    1.8464427715971239E+00    6.0476220687512205E-01
Ga    1.5366073727631789E-02    1.8150828458660764E+00    2.6354828753387598E+00
N    1.2380293608537648E-02   -2.8408480603487458E-02    3.2671206489129974E+00
Ga    1.1862707649881161E-02   -2.7544507468791678E-02    5.2573307738649682E+00
N    1.4849118203820176E-02    1.8470120484153163E+00    5.8455789596163195E+00
Ga    1.5061976725519316E-02    1.8444671403472488E+00    7.8447150561982859E+00
N    1.3975254274875558E-02   -2.8516947420185349E-02    8.4458977894521663E+00
Ga    1.5431703843185478E-02   -2.8727927723348097E-02    1.0443570449866716E+01
N    1.3823902455055043E-02    1.8434662444455496E+00    1.1046956810101566E+01
Ga    2.0226366335630044E-02    1.8394987913456942E+00    1.3040816126221472E+01
N    2.9051189265104745E-02   -3.2387357652039907E-02    1.3637589323913588E+01
Ga    4.7533906215602197E-02   -5.5358230379893368E-02    1.5631098661148904E+01
N    4.1643119241846091E-02    1.8264092519899904E+00    1.6212182551552505E+01
Ga    6.9409628183160946E-02    1.8098119903731280E+00    1.8268072993802853E+01
N    5.8088164221672213E-02   -6.5457113133642511E-02    1.8663598565134222E+01
Ga   -1.6063161423024404E+00    2.7769597845021439E+00    3.2168247982159637E-01
N   -1.6071890776141817E+00    4.6470498117499348E+00    6.0420560151263369E-01
Ga   -1.5798461729309614E+00    4.6625067451229691E+00    2.6349991360423135E+00
N   -1.6069687657630569E+00    2.7771477462096894E+00    3.2262439724334913E+00
Ga   -1.6072942492070612E+00    2.7778459500290666E+00    5.2372264645396873E+00
N   -1.6072194306347662E+00    4.6477200697725216E+00    5.8442023391645339E+00
Ga   -1.6074263287970889E+00    4.6480090177298505E+00    7.8424799755388994E+00
N   -1.6079211938193090E+00    2.7776588339595576E+00    8.4494030091942189E+00
Ga   -1.6087293055325620E+00    2.7790772791591878E+00    1.0445271061688114E+01
N   -1.6096985165928364E+00    4.6490102564482347E+00    1.1054417743497231E+01
Ga   -1.6138529513143618E+00    4.6474594192393361E+00    1.3052580197771453E+01
N   -1.5965801946495084E+00    2.7779549389295117E+00    1.3668963791679348E+01
Ga   -1.5917695594044055E+00    2.7884127475517886E+00    1.5678052000609618E+01
N   -1.5831599674623245E+00    4.6543428263128082E+00    1.6306351237368421E+01
Ga   -1.4827725754083032E+00    4.6453353163619671E+00    1.8384848567638464E+01
N   -1.5270901598141822E+00    2.7466301259602450E+00    1.8712409351941442E+01
Ga   -3.2266656192576995E+00    5.5826436577700074E+00    3.2199260041611028E-01
N   -3.2201432998892274E+00    7.4531432012775181E+00    6.0421503534575649E-01
Ga   -3.2484303168309108E+00    7.4681957774531567E+00    2.6350958983324091E+00
N   -3.2267398678145929E+00    5.5824687359846230E+00    3.2259926458252983E+00
Ga   -3.2273221267522403E+00    5.5827985484371014E+00    5.2371782189922245E+00
N   -3.2216813500805439E+00    7.4533311589631648E+00    5.8434909768130154E+00
Ga   -3.2232181637177146E+00    7.4531901650960393E+00    7.8417873808717813E+00
N   -3.2281268856023004E+00    5.5826604842312753E+00    8.4462280773225142E+00
Ga   -3.2286572943955236E+00    5.5808452916975693E+00    1.0440999687293454E+01
N   -3.2207235013182531E+00    7.4498132442873324E+00    1.1051520717917620E+01
Ga   -3.2127878342948009E+00    7.4429029474240354E+00    1.3049506463774931E+01
N   -3.2321122257276000E+00    5.5761113832277553E+00    1.3689178824923745E+01
Ga   -3.2128965950287753E+00    5.5710275175117765E+00    1.5725891458007480E+01
N   -3.1891943569649381E+00    7.4353609068415203E+00    1.6286660346306260E+01
Ga   -3.1731370629637436E+00    7.3947860637429086E+00    1.8347982762776958E+01
N   -3.1207545219656398E+00    5.5366060349605375E+00    1.8885176177236680E+01
Ga    3.2594845077682897E+00   -2.8131082329455472E-02    3.2201974354003421E-01
N    3.2578575900624669E+00    1.8417667466108407E+00    6.0436887970640163E-01
Ga    3.2854762604280885E+00    1.8574580112929533E+00    2.6346735698435824E+00
N    3.2584432232479261E+00   -2.8365991913505476E-02    3.2256979533751498E+00
Ga    3.2584978236599755E+00   -2.7494653895048210E-02    5.2369577292321665E+00
N    3.2587078150219573E+00    1.8427272633697778E+00    5.8441603836652236E+00
Ga    3.2590320008927884E+00    1.8424817835295542E+00    7.8427375347241695E+00
N    3.2562307080947939E+00   -2.7984553319733079E-02    8.4460200845016740E+00
Ga    3.2575523589599680E+00   -2.8809117032191658E-02    1.0440344522268214E+01
N    3.2639958074627251E+00    1.8412880919264991E+00    1.1048703436209415E+01
Ga    3.2709565095238080E+00    1.8338981839658850E+00    1.3045186824418728E+01
N    3.2620001076949769E+00   -3.3954973887269868E-02    1.3665362385705416E+01
Ga    3.2726155185335997E+00   -3.9946177897597183E-02    1.5675086096846828E+01
N    3.2979211662161276E+00    1.8247848912924394E+00    1.6259160528130266E+01
Ga    3.3485362145874435E+00    1.8214175057509763E+00    1.8295584306208021E+01
N    3.3198497846296777E+00   -6.9795118884150742E-02    1.8751557257991998E+01
Ga    1.6388837128446538E+00    2.7774742172635873E+00    3.2200612392453104E-01
N    1.6452103988893980E+00    4.6477551159820321E+00    6.0437222692709358E-01
Ga    1.6168309939059657E+00    4.6628556602820659E+00    2.6351966107775815E+00
N    1.6384546656421481E+00    2.7772355677091789E+00    3.2266771104156673E+00
Ga    1.6382241386507068E+00    2.7783176598925006E+00    5.2381867968666889E+00
N    1.6434583350097012E+00    4.6481055000637754E+00    5.8467952609663580E+00
Ga    1.6418055249147174E+00    4.6481187977436020E+00    7.8469585637198476E+00
N    1.6383698513176752E+00    2.7756949962875046E+00    8.4475726719852702E+00
Ga    1.6387924482824705E+00    2.7746458119714936E+00    1.0443069878376949E+01
N    1.6346861290334056E+00    4.6457774684830806E+00    1.1038527005787916E+01
Ga    1.6304406683115182E+00    4.6447037271674425E+00    1.3031930788928710E+01
N    1.6455490685378893E+00    2.7665033564707056E+00    1.3638617114880473E+01
Ga    1.6747974661963501E+00    2.7564767228783844E+00    1.5630890154519202E+01
N    1.6309412065820543E+00    4.6365191480624812E+00    1.6132490352641703E+01
Ga    1.7067586576774130E+00    4.5969500577243787E+00    1.8114360756326228E+01
N    1.7041067026207599E+00    2.7500798369969073E+00    1.8620639297515684E+01
Ga    1.9493027081217681E-02    5.5823559789289794E+00   -5.4448423365318943E-01
N    2.2767257516537815E-02    7.4569258523184709E+00    6.0403933262761900E-01
Ga    2.1999009026324921E-02    7.4256332656332056E+00    2.6349854393357766E+00
N    1.8705788032632172E-02    5.5823711209233284E+00    3.2672988619492589E+00
Ga    1.8814753552401441E-02    5.5831339223609229E+00    5.2575962073030880E+00
N    2.1606926999774040E-02    7.4578594348787508E+00    5.8453421140365363E+00
Ga    2.0597254982489151E-02    7.4564531283675990E+00    7.8446382619428707E+00
N    1.5624003295518116E-02    5.5826025778426587E+00    8.4445561132132880E+00
Ga    1.3421294469115937E-02    5.5818133820793827E+00    1.0441590334824429E+01
N    2.0732497065583548E-02    7.4552707608662896E+00    1.1040299811139985E+01
Ga    1.9836129879397639E-02    7.4577519057995332E+00    1.3032014577879343E+01
N    8.1856424490650125E-03    5.5873257024432856E+00    1.3630966480497003E+01
Ga    8.8588190235149005E-03    5.5757164113170496E+00    1.5625916912428579E+01
N    4.9286627224695186E-02    7.4440203673868526E+00    1.6256960677415332E+01
Ga    7.5334101845404400E-02    7.3985736344582840E+00    1.8343861364180903E+01
N    1.9050789458938117E-01    5.5399142524787655E+00    1.8877533507885605E+01
Ga    6.5038256786229907E+00   -2.7248540043895056E-02    3.2152965280037415E-01
N    6.5108516272440653E+00    1.8423608267427323E+00    6.0476937081850879E-01
Ga    6.4823615823235441E+00    1.8576118163574273E+00    2.6347615955112995E+00
N    6.5037974997482833E+00   -2.8124169929280584E-02    3.2267731838376981E+00
Ga    6.5040656885944905E+00   -2.7164391989498674E-02    5.2383844652652281E+00
N    6.5090015269804526E+00    1.8432800346979210E+00    5.8449539159885875E+00
Ga    6.5066731164108473E+00    1.8436606494476628E+00    7.8436305491736240E+00
N    6.5022970305818264E+00   -2.6001527735507669E-02    8.4482784905639789E+00
Ga    6.5033625381378179E+00   -2.2389272967069631E-02    1.0444550294458798E+01
N    6.5057878765443302E+00    1.8492241285170243E+00    1.1054752248058064E+01
Ga    6.5090390535574825E+00    1.8537147415271686E+00    1.3053511990798679E+01
N    6.4979649723095871E+00   -1.9868524168198298E-02    1.3628927160609869E+01
Ga    6.5141489483168193E+00   -1.5954309627953613E-02    1.5628359941715372E+01
N    6.5216720280728238E+00    1.8493010511934582E+00    1.6247143069602235E+01
Ga    6.5884041176174186E+00    1.8196230635012169E+00    1.8297120612950728E+01
N    6.5888786612208508E+00   -8.7104620207007225E-02    1.8661981631698641E+01
Ga    4.8858773561390247E+00    2.7782749191894376E+00   -5.4875943081438305E-01
N    4.8877950038866977E+00    4.6522926502068565E+00    6.0496805942737220E-01
Ga    4.8869705308137448E+00    4.6203325951411838E+00    2.6349126647965986E+00
N    4.8841074473065174E+00    2.7770576070840258E+00    3.2667903471908093E+00
Ga    4.8842164287217837E+00    2.7783146038389899E+00    5.2564736447182092E+00
N    4.8863305005918169E+00    4.6523960020287118E+00    5.8452624658136347E+00
Ga    4.8843137129155494E+00    4.6510264266098265E+00    7.8445606664205014E+00
N    4.8827817084131837E+00    2.7776079794098041E+00    8.4457007613290109E+00
Ga    4.8847351590502157E+00    2.7798708222856638E+00    1.0443205522302685E+01
N    4.8885400804420858E+00    4.6492902031218977E+00    1.1050575409569495E+01
Ga    4.8875321264197549E+00    4.6499786436532498E+00    1.3050762790362713E+01
N    4.8820804202214392E+00    2.7818147497182784E+00    1.3665205089442193E+01
Ga    4.8870836514263365E+00    2.7738425849161277E+00    1.5686086007331557E+01
N    4.8477912260022107E+00    4.6658741547186935E+00    1.6146680494199078E+01
Ga    4.9752930170386502E+00    4.5978661079708258E+00    1.9126840854736745E+01
N    4.9698609790738697E+00    2.7126250608570217E+00    1.8829823517634999E+01
Ga    3.2655774289370529E+00    5.5824835738870524E+00    3.2204632394377619E-01
N    3.2639682074806422E+00    7.4528480328441944E+00    6.0421958295212452E-01
Ga    3.2913010623311023E+00    7.4683413751236722E+00    2.6351605627086467E+00
N    3.2642467098188366E+00    5.5827329649329647E+00    3.2267658360022540E+00
Ga    3.2638862371585176E+00    5.5836276041799966E+00    5.2384893908460208E+00
N    3.2644784098511685E+00    7.4536804232287386E+00    5.8471087828466084E+00
Ga    3.2651515446796591E+00    7.4535365167864756E+00    7.8474787828479551E+00
N    3.2630211832900340E+00    5.5827985876657156E+00    8.4515136721501829E+00
Ga    3.2631798160532082E+00    5.5834011728896513E+00    1.0450674065470674E+01
N    3.2671687430550831E+00    7.4603563474970302E+00    1.1040171042922273E+01
Ga    3.2667669954891774E+00    7.4636247295401859E+00    1.3034884700904046E+01
N    3.2518048165771027E+00    5.5860892870197389E+00    1.3593011350753097E+01
Ga    3.2507450493562748E+00    5.5940805315338933E+00    1.5586940846171885E+01
N    3.2818846281607703E+00    7.4642005447544442E+00    1.6133143164951218E+01
Ga    3.3451620880290007E+00    7.4359409546529163E+00    1.8136819146497558E+01
N    3.4556621145089226E+00    5.4823566018024934E+00    1.8327289422510933E+01
O    1.6697320535572053E+00    5.1605906417511047E+00    2.1277541737848424E+01
H    1.0839404304823981E+00    5.4084719618280461E+00    2.0487995212449192E+01
C    9.9119146154142335E-01    3.6827893942874206E+00    2.1708293889618858E+01
H   -8.9554426773834864E-02    3.8309004196427550E+00    2.1648238486944724E+01
H    1.3587657419734576E+00    2.9538539925886860E+00    2.0976614132024846E+01
H    1.3515332788171537E+00    3.5251170606768483E+00    2.2725897767072400E+01
O    4.2290286754236845E+00    4.8192800722336155E+00    2.1042756668427099E+01
H    3.1957258950291427E+00    4.9591150048055761E+00    2.1063152073606204E+01
C    4.6055817691959868E+00    3.8398146109673994E+00    2.2041820286675609E+01
H    4.3144921197743757E+00    2.8259235530767937E+00    2.1732927403645174E+01
H    5.6952321100759820E+00    3.8823746658788907E+00    2.2155937706085343E+01
H    4.1297295730309349E+00    4.1017685705114610E+00    2.2995309677174571E+01
     &END COORD
     &KIND C
       BASIS_SET DZVP-MOLOPT-SR-GTH-q4
       POTENTIAL GTH-PBE-q4
       &POTENTIAL
 2 2
  0.3384712400000000E+00 2 -0.8803673979999999E+01  0.1339210850000000E+01
 2
  0.3025757500000000E+00 1  0.9622486650000001E+01
  0.2915069400000000E+00 0
         # Potential name:  GTH-PBE-Q4  for symbol:  C
         # Potential read from the potential filename: GTH_POTENTIALS
       &END POTENTIAL
     &END KIND
     &KIND O
       BASIS_SET DZVP-MOLOPT-SR-GTH-q6
       POTENTIAL GTH-PBE-q6
       &POTENTIAL
 2 4
  0.2445543000000000E+00 2 -0.1666721480000000E+02  0.2487311320000000E+01
 2
  0.2209559200000000E+00 1  0.1833745811000000E+02
  0.2113324700000000E+00 0
         # Potential name:  GTH-PBE-Q6  for symbol:  O
         # Potential read from the potential filename: GTH_POTENTIALS
       &END POTENTIAL
     &END KIND
     &KIND H
       BASIS_SET DZVP-MOLOPT-SR-GTH-q1
       POTENTIAL GTH-PBE-q1
       &POTENTIAL
 1
  0.2000000000000000E+00 2 -0.4178900440000000E+01  0.7244633100000000E+00
 0
         # Potential name:  GTH-PBE-Q1  for symbol:  H
         # Potential read from the potential filename: GTH_POTENTIALS
       &END POTENTIAL
     &END KIND
     &KIND N
       BASIS_SET DZVP-MOLOPT-SR-GTH-q5
       POTENTIAL GTH-PBE-q5
       &POTENTIAL
 2 3
  0.2837905100000000E+00 2 -0.1241522559000000E+02  0.1868095920000000E+01
 2
  0.2554050000000000E+00 1  0.1363026257000000E+02
  0.2454945300000000E+00 0
         # Potential name:  GTH-PBE-Q5  for symbol:  N
         # Potential read from the potential filename: GTH_POTENTIALS
       &END POTENTIAL
     &END KIND
     &KIND Ga
       BASIS_SET DZVP-MOLOPT-SR-GTH-q13
       POTENTIAL GTH-PBE-q13
       &POTENTIAL
 2 1 10
  0.4900000000000000E+00 0
 3
  0.4167772300000000E+00 3  0.1047568975000000E+02 -0.4921768140000000E+01  0.8707055900000000E+00
  0.7770178090000000E+01 -0.2248152160000000E+01
  0.1784415450000000E+01
  0.5696265200000000E+00 2  0.1777985340000000E+01  0.1958597600000000E+00
 -0.2317443900000000E+00
  0.2381265000000000E+00 1 -0.1624868022000000E+02
         # Potential name:  GTH-PBE-Q13  for symbol:  GA
         # Potential read from the potential filename: GTH_POTENTIALS
       &END POTENTIAL
     &END KIND
     &TOPOLOGY
       COORD_FILE_NAME ../start-first.xyz
       COORD_FILE_FORMAT  XYZ
       NUMBER_OF_ATOMS  156
       MULTIPLE_UNIT_CELL  1 1 1
     &END TOPOLOGY
     &COLVAR
       &DISTANCE
         ATOMS  145 147
       &END DISTANCE
       &PRINT
       &END PRINT
     &END COLVAR
   &END SUBSYS
 &END FORCE_EVAL
