 # Version information for this restart file 
 # current date 2019-05-28 00:15:10.743
 # current working dir /lustre03/project/6004141/rzk/GaN-carbene/334-native/08-2Methanol-Htransfer/03-CO-constraint/1.84
 # Program compiled at                              Sun Apr  7 00:48:11 EDT 2019
 # Program compiled on                          beluga2.int.ets1.calculquebec.ca
 # Program compiled for                        Beluga-Linux-x86-64-intel-openmpi
 # Source code revision number                                         svn:18619
 &GLOBAL
   PRINT_LEVEL  MEDIUM
   PROJECT_NAME TEST
   RUN_TYPE  GEO_OPT
 &END GLOBAL
 &MOTION
   &GEO_OPT
     MAX_ITER  500
     STEP_START_VAL  120
   &END GEO_OPT
   &CONSTRAINT
     &COLLECTIVE
       COLVAR  1
       INTERMOLECULAR  T
       TARGET     3.4770960845095833E+00
       &RESTRAINT
         K     1.0000000000000001E-01
       &END RESTRAINT
     &END COLLECTIVE
     &COLVAR_RESTART
           3.4770960845095833E+00
     &END COLVAR_RESTART
   &END CONSTRAINT
 &END MOTION
 &FORCE_EVAL
   METHOD  QS
   STRESS_TENSOR  ANALYTICAL
   &DFT
     BASIS_SET_FILE_NAME BASIS_MOLOPT
     POTENTIAL_FILE_NAME GTH_POTENTIALS
     &SCF
       MAX_SCF  100
       EPS_SCF     5.0000000000000004E-06
       &OT  T
         PRECONDITIONER  FULL_ALL
       &END OT
       &OUTER_SCF  T
         OPTIMIZER  NONE
         EPS_SCF     5.0000000000000004E-06
         MAX_SCF  4
       &END OUTER_SCF
       &PRINT
         &RESTART  OFF
           BACKUP_COPIES  1
           &EACH
             JUST_ENERGY  0
             QS_SCF  0
             MD  20
           &END EACH
         &END RESTART
       &END PRINT
     &END SCF
     &QS
       EPS_DEFAULT     1.0000000000000000E-14
       ALMO_SCF  F
       METHOD  GPW
     &END QS
     &MGRID
       NGRIDS  5
       CUTOFF     1.2000000000000000E+03
     &END MGRID
     &XC
       DENSITY_CUTOFF     1.0000000000000000E-10
       GRADIENT_CUTOFF     1.0000000000000000E-10
       TAU_CUTOFF     1.0000000000000000E-10
       &XC_FUNCTIONAL  NO_SHORTCUT
         &PBE  T
         &END PBE
       &END XC_FUNCTIONAL
       &VDW_POTENTIAL
         POTENTIAL_TYPE  PAIR_POTENTIAL
         &PAIR_POTENTIAL
           R_CUTOFF     1.0000000000000005E+01
           TYPE  DFTD3
           PARAMETER_FILE_NAME dftd3.dat
           REFERENCE_FUNCTIONAL PBE
           EPS_CN     9.9999999999999995E-07
           CALCULATE_C9_TERM  T
           REFERENCE_C9_TERM  T
           LONG_RANGE_CORRECTION  F
           VERBOSE_OUTPUT  F
         &END PAIR_POTENTIAL
       &END VDW_POTENTIAL
     &END XC
   &END DFT
   &SUBSYS
     &CELL
       A     9.7367653356401487E+00    0.0000000000000000E+00    0.0000000000000000E+00
       B    -4.8591341382960209E+00    8.4162672083210595E+00    0.0000000000000000E+00
       C     0.0000000000000000E+00    0.0000000000000000E+00    3.0744000000000000E+01
       MULTIPLE_UNIT_CELL  1 1 1
       &CELL_REF
         A     9.5580000000000052E+00    0.0000000000000000E+00    0.0000000000000000E+00
         B    -4.7790000000000026E+00    8.2774708093716640E+00    0.0000000000000000E+00
         C     0.0000000000000000E+00    0.0000000000000000E+00    3.0744000000000000E+01
         MULTIPLE_UNIT_CELL  1 1 1
       &END CELL_REF
     &END CELL
     &COORD
Ga    1.2890984799439679E-02   -2.6649524522498639E-02   -5.4000261749589618E-01
N    1.5785106953013116E-02    1.8468887007800203E+00    6.0486347326657863E-01
Ga    1.4900609530060486E-02    1.8156918975763110E+00    2.6356874010429454E+00
N    1.1944957769674283E-02   -2.7860383470132307E-02    3.2671915213864446E+00
Ga    1.1525490291452976E-02   -2.7121348973482444E-02    5.2574941311158678E+00
N    1.4522483515998155E-02    1.8475004827134183E+00    5.8457088977274658E+00
Ga    1.5012596054630081E-02    1.8447765719192049E+00    7.8449827085462234E+00
N    1.3894683659744032E-02   -2.8201074098848165E-02    8.4461120599628217E+00
Ga    1.5591283898070818E-02   -2.8579038982330437E-02    1.0443950928775315E+01
N    1.4112215890668698E-02    1.8435683810185257E+00    1.1047226654659511E+01
Ga    2.0453040984141337E-02    1.8396550409325634E+00    1.3041267709831645E+01
N    2.9288823065658765E-02   -3.2336620618576159E-02    1.3637540883582487E+01
Ga    4.7841896664543075E-02   -5.5191633518256726E-02    1.5631141773526382E+01
N    4.1989832504165943E-02    1.8266458804983667E+00    1.6212194669719004E+01
Ga    6.9661667333046920E-02    1.8101952625253035E+00    1.8268139021821149E+01
N    5.8321268199292918E-02   -6.5308025124010752E-02    1.8664161981295319E+01
Ga   -1.6067693452352929E+00    2.7775221560557410E+00    3.2191408699690516E-01
N   -1.6077688715641167E+00    4.6474877050073857E+00    6.0426553493793278E-01
Ga   -1.5802844817476760E+00    4.6632239325443159E+00    2.6349743871685707E+00
N   -1.6074215014230795E+00    2.7778205636962672E+00    3.2263193187124082E+00
Ga   -1.6076606848597677E+00    2.7783578102890667E+00    5.2373802238182092E+00
N   -1.6075549634759394E+00    4.6482167349294645E+00    5.8444062403731332E+00
Ga   -1.6074340252490222E+00    4.6482725731546202E+00    7.8428217379136331E+00
N   -1.6079306250775471E+00    2.7779209330184043E+00    8.4496466599836264E+00
Ga   -1.6084583329911579E+00    2.7792421638746236E+00    1.0445703428733852E+01
N   -1.6094550231094209E+00    4.6491818078617220E+00    1.1054575523692323E+01
Ga   -1.6133886541203635E+00    4.6476285287121808E+00    1.3052812369441389E+01
N   -1.5962116919750398E+00    2.7782230978352591E+00    1.3669135505526320E+01
Ga   -1.5912712605248798E+00    2.7887210725983640E+00    1.5678074055963771E+01
N   -1.5825260715290523E+00    4.6543599477790529E+00    1.6306733313505489E+01
Ga   -1.4821563303554293E+00    4.6454985815098215E+00    1.8385147369049307E+01
N   -1.5268437251306948E+00    2.7466440464852968E+00    1.8712773178954258E+01
Ga   -3.2271225884539505E+00    5.5829716550624040E+00    3.2208159023273447E-01
N   -3.2206097981086574E+00    7.4535319821006025E+00    6.0414433363788145E-01
Ga   -3.2489166945297718E+00    7.4686935636501115E+00    2.6351258154609787E+00
N   -3.2272130629163573E+00    5.5830487345072743E+00    3.2260722114304063E+00
Ga   -3.2276788861902914E+00    5.5832685081524298E+00    5.2373171954651427E+00
N   -3.2219847795144698E+00    7.4537342661479613E+00    5.8436683133987044E+00
Ga   -3.2232923000755491E+00    7.4534893865905065E+00    7.8421404728679027E+00
N   -3.2281314674180428E+00    5.5829024107022125E+00    8.4464585985051528E+00
Ga   -3.2283912848520688E+00    5.5809673871061802E+00    1.0441357409382077E+01
N   -3.2205313935836730E+00    7.4499395699003319E+00    1.1051588122578977E+01
Ga   -3.2124637212660323E+00    7.4431042263407248E+00    1.3049692033793518E+01
N   -3.2317050711107549E+00    5.5762491352660595E+00    1.3689133420528885E+01
Ga   -3.2120400388621921E+00    5.5711055033513102E+00    1.5725943145158585E+01
N   -3.1889767679563810E+00    7.4354572851824425E+00    1.6286422662176342E+01
Ga   -3.1728631341047082E+00    7.3952368749715838E+00    1.8347748246152253E+01
N   -3.1203834110955526E+00    5.5367747417217110E+00    1.8884961271332443E+01
Ga    3.2590543899539672E+00   -2.7663516946682419E-02    3.2228231575178651E-01
N    3.2573104855794610E+00    1.8422166956436239E+00    6.0451145464869771E-01
Ga    3.2849363381768169E+00    1.8580282972708195E+00    2.6347840730242793E+00
N    3.2578990973347843E+00   -2.7796293090643683E-02    3.2258344402052228E+00
Ga    3.2581338585826742E+00   -2.7041953736524592E-02    5.2371720364798664E+00
N    3.2584102959874959E+00    1.8431709774089731E+00    5.8443682762215268E+00
Ga    3.2589851878749201E+00    1.8427678638474834E+00    7.8431188047209730E+00
N    3.2562562111113960E+00   -2.7740284866677387E-02    8.4462160954884844E+00
Ga    3.2577884797046694E+00   -2.8754322662776388E-02    1.0440700930372817E+01
N    3.2642006159424639E+00    1.8414074509521821E+00    1.1048690380702791E+01
Ga    3.2712553765164061E+00    1.8339580953997365E+00    1.3045239762690105E+01
N    3.2623767897225266E+00   -3.3758483815518062E-02    1.3665410851647781E+01
Ga    3.2733978847370899E+00   -4.0238563873082472E-02    1.5675109687068495E+01
N    3.2986576136419021E+00    1.8248732863881458E+00    1.6258956048642030E+01
Ga    3.3485880883960619E+00    1.8214579903868588E+00    1.8295621061597647E+01
N    3.3202210254790221E+00   -6.9855988388452542E-02    1.8751516494433567E+01
Ga    1.6383934756522438E+00    2.7780348855396055E+00    3.2243079225789512E-01
N    1.6447201043455923E+00    4.6482068033093809E+00    6.0463154483368375E-01
Ga    1.6162163883581153E+00    4.6635145821148383E+00    2.6353145891532246E+00
N    1.6379691722728060E+00    2.7778708996235126E+00    3.2268158555732884E+00
Ga    1.6379237946038487E+00    2.7787911328505213E+00    5.2383543862539534E+00
N    1.6431395220942286E+00    4.6485629545901990E+00    5.8469855407465898E+00
Ga    1.6418111542562552E+00    4.6483765295033876E+00    7.8472780222265763E+00
N    1.6383341174392945E+00    2.7759555100242150E+00    8.4477441115587872E+00
Ga    1.6389723633296374E+00    2.7747980504937058E+00    1.0443357289945281E+01
N    1.6350092493490231E+00    4.6458827581424682E+00    1.1038739046254149E+01
Ga    1.6305817545510908E+00    4.6449799791882720E+00    1.3032216866182685E+01
N    1.6460484723102993E+00    2.7667475544659896E+00    1.3638667049721157E+01
Ga    1.6751822510877854E+00    2.7567096549312011E+00    1.5631191857503573E+01
N    1.6311647445270339E+00    4.6369245013564138E+00    1.6133222744811924E+01
Ga    1.7071688177353679E+00    4.5972320522412229E+00    1.8115425394249183E+01
N    1.7044136344075989E+00    2.7499961164020275E+00    1.8620927173558027E+01
Ga    1.8956905888238552E-02    5.5828409755538662E+00   -5.4464478675689521E-01
N    2.2260362254923324E-02    7.4575311311577961E+00    6.0422562631657872E-01
Ga    2.1441791563134530E-02    7.4261176507387399E+00    2.6350965013453047E+00
N    1.8179540248606931E-02    5.5829598375183478E+00    3.2675615813029286E+00
Ga    1.8465661322516824E-02    5.5836092682972440E+00    5.2577822280617879E+00
N    2.1253430792037242E-02    7.4582744094749023E+00    5.8455179228235039E+00
Ga    2.0572768577438959E-02    7.4567102218778833E+00    7.8449365185495319E+00
N    1.5655825157621928E-02    5.5828427529146829E+00    8.4447804727434121E+00
Ga    1.3681953787618530E-02    5.5819150591360707E+00    1.0441961882580696E+01
N    2.0972444854015924E-02    7.4553728597295246E+00    1.1040550894830936E+01
Ga    2.0126342356947585E-02    7.4576716638754084E+00    1.3032471899819130E+01
N    8.5185612839104898E-03    5.5873772370433574E+00    1.3631389008561351E+01
Ga    9.1240771412238741E-03    5.5760210059039714E+00    1.5626265671159894E+01
N    4.9913628373639649E-02    7.4441781566956511E+00    1.6257288397563602E+01
Ga    7.5313003445942162E-02    7.3987241818679212E+00    1.8343722828299860E+01
N    1.9093220741329225E-01    5.5402616157372968E+00    1.8877982928478716E+01
Ga    6.5033135772252706E+00   -2.6885419319903812E-02    3.2168392833726778E-01
N    6.5105113614831511E+00    1.8427336410895352E+00    6.0488953407301160E-01
Ga    6.4818926319974741E+00    1.8581896262044031E+00    2.6348710932434254E+00
N    6.5033101202040031E+00   -2.7596462495888551E-02    3.2268646884337482E+00
Ga    6.5036854680448082E+00   -2.6732998758808989E-02    5.2385709875153079E+00
N    6.5086856363520242E+00    1.8437214677756530E+00    5.8451656807346613E+00
Ga    6.5066553572710681E+00    1.8439683816098125E+00    7.8439856917974886E+00
N    6.5022972179994252E+00   -2.5736367482130339E-02    8.4484505296069639E+00
Ga    6.5035373312208575E+00   -2.2320342137731583E-02    1.0444839763531496E+01
N    6.5059936289151414E+00    1.8493243583434071E+00    1.1054918371863430E+01
Ga    6.5095140395287148E+00    1.8537760637259180E+00    1.3053866854253076E+01
N    6.4982681722796567E+00   -1.9876298023975489E-02    1.3629276235038203E+01
Ga    6.5144733793146390E+00   -1.6162791884171895E-02    1.5628757692111449E+01
N    6.5225789385852204E+00    1.8491504310088211E+00    1.6247471511306529E+01
Ga    6.5888736232302838E+00    1.8193908730974155E+00    1.8297195205470835E+01
N    6.5890292450894412E+00   -8.7393902191848311E-02    1.8661249607010021E+01
Ga    4.8853394857094701E+00    2.7785739041414934E+00   -5.4826108569336285E-01
N    4.8873457898454920E+00    4.6526887413216818E+00    6.0488267244961669E-01
Ga    4.8865397240132484E+00    4.6209400831387164E+00    2.6349139608194072E+00
N    4.8836045571700346E+00    2.7776594691000684E+00    3.2668747743452569E+00
Ga    4.8838835585807674E+00    2.7787936149457355E+00    5.2566868686021566E+00
N    4.8860640988858206E+00    4.6528620541294128E+00    5.8454635227806264E+00
Ga    4.8842998420730925E+00    4.6513184359418709E+00    7.8448775156475357E+00
N    4.8827840948859986E+00    2.7779135597015276E+00    8.4458744116058089E+00
Ga    4.8849539366520833E+00    2.7800224292617655E+00    1.0443524173548992E+01
N    4.8887517855099594E+00    4.6494355657097577E+00    1.1050754670037252E+01
Ga    4.8878814584232684E+00    4.6502493164775105E+00    1.3051090797814592E+01
N    4.8824204038675472E+00    2.7819395331972663E+00    1.3665159485809397E+01
Ga    4.8881838128940904E+00    2.7737524927808650E+00    1.5686239866095413E+01
N    4.8485524490172374E+00    4.6658537952318007E+00    1.6146425566931100E+01
Ga    4.9755588477877764E+00    4.5979129046432927E+00    1.9126363887501082E+01
N    4.9703541569668372E+00    2.7124277993763459E+00    1.8829399108178041E+01
Ga    3.2650452922487716E+00    5.5827338809492870E+00    3.2231875185566156E-01
N    3.2635124751393518E+00    7.4531925555983314E+00    6.0427626561050973E-01
Ga    3.2908647739283983E+00    7.4688140715020790E+00    2.6353368816291169E+00
N    3.2637711598196621E+00    5.5832223358937121E+00    3.2268548999826892E+00
Ga    3.2635801268204681E+00    5.5840254468566410E+00    5.2386235365510210E+00
N    3.2641254358484750E+00    7.4540698181383043E+00    5.8472511059076497E+00
Ga    3.2651125044531377E+00    7.4538048157572057E+00    7.8477347496848093E+00
N    3.2630591048544950E+00    5.5830694642548755E+00    8.4516890900934740E+00
Ga    3.2634009159023298E+00    5.5835226349602323E+00    1.0450989803126225E+01
N    3.2673650171933435E+00    7.4603995467420745E+00    1.1040381716984422E+01
Ga    3.2669957632887634E+00    7.4637287823694782E+00    1.3035251654487361E+01
N    3.2520821003371245E+00    5.5861414054044367E+00    1.3593296375302353E+01
Ga    3.2512713285120682E+00    5.5942631536425642E+00    1.5587545216746570E+01
N    3.2821418427634503E+00    7.4644777294852833E+00    1.6133398549542282E+01
Ga    3.3455995808332428E+00    7.4359375735073403E+00    1.8137069841119768E+01
N    3.4557646697905637E+00    5.4825870244471320E+00    1.8327921805322251E+01
O    1.6707295691162813E+00    5.1603179168519944E+00    2.1278050024428040E+01
H    1.0846549212206109E+00    5.4080550404810639E+00    2.0488751404343599E+01
C    9.9322906037379788E-01    3.6821726989504997E+00    2.1709235299636390E+01
H   -8.7574733153243725E-02    3.8303289263488489E+00    2.1653288707602744E+01
H    1.3579562534333547E+00    2.9542502475969670E+00    2.0975521507648672E+01
H    1.3571611249858635E+00    3.5230169721166273E+00    2.2725083316764934E+01
O    4.2301157716223656E+00    4.8185331475780862E+00    2.1042899968251195E+01
H    3.1971076857717806E+00    4.9587871898084890E+00    2.1063242706047163E+01
C    4.6063990975130924E+00    3.8382659717469703E+00    2.2041171711297771E+01
H    4.3168378706674444E+00    2.8247667823516225E+00    2.1730847129321802E+01
H    5.6953687141728633E+00    3.8817980385884332E+00    2.2156254014269351E+01
H    4.1297216898490161E+00    4.0986167389529689E+00    2.2994277124427960E+01
     &END COORD
     &KIND C
       BASIS_SET DZVP-MOLOPT-SR-GTH-q4
       POTENTIAL GTH-PBE-q4
       &POTENTIAL
 2 2
  0.3384712400000000E+00 2 -0.8803673979999999E+01  0.1339210850000000E+01
 2
  0.3025757500000000E+00 1  0.9622486650000001E+01
  0.2915069400000000E+00 0
         # Potential name:  GTH-PBE-Q4  for symbol:  C
         # Potential read from the potential filename: GTH_POTENTIALS
       &END POTENTIAL
     &END KIND
     &KIND O
       BASIS_SET DZVP-MOLOPT-SR-GTH-q6
       POTENTIAL GTH-PBE-q6
       &POTENTIAL
 2 4
  0.2445543000000000E+00 2 -0.1666721480000000E+02  0.2487311320000000E+01
 2
  0.2209559200000000E+00 1  0.1833745811000000E+02
  0.2113324700000000E+00 0
         # Potential name:  GTH-PBE-Q6  for symbol:  O
         # Potential read from the potential filename: GTH_POTENTIALS
       &END POTENTIAL
     &END KIND
     &KIND H
       BASIS_SET DZVP-MOLOPT-SR-GTH-q1
       POTENTIAL GTH-PBE-q1
       &POTENTIAL
 1
  0.2000000000000000E+00 2 -0.4178900440000000E+01  0.7244633100000000E+00
 0
         # Potential name:  GTH-PBE-Q1  for symbol:  H
         # Potential read from the potential filename: GTH_POTENTIALS
       &END POTENTIAL
     &END KIND
     &KIND N
       BASIS_SET DZVP-MOLOPT-SR-GTH-q5
       POTENTIAL GTH-PBE-q5
       &POTENTIAL
 2 3
  0.2837905100000000E+00 2 -0.1241522559000000E+02  0.1868095920000000E+01
 2
  0.2554050000000000E+00 1  0.1363026257000000E+02
  0.2454945300000000E+00 0
         # Potential name:  GTH-PBE-Q5  for symbol:  N
         # Potential read from the potential filename: GTH_POTENTIALS
       &END POTENTIAL
     &END KIND
     &KIND Ga
       BASIS_SET DZVP-MOLOPT-SR-GTH-q13
       POTENTIAL GTH-PBE-q13
       &POTENTIAL
 2 1 10
  0.4900000000000000E+00 0
 3
  0.4167772300000000E+00 3  0.1047568975000000E+02 -0.4921768140000000E+01  0.8707055900000000E+00
  0.7770178090000000E+01 -0.2248152160000000E+01
  0.1784415450000000E+01
  0.5696265200000000E+00 2  0.1777985340000000E+01  0.1958597600000000E+00
 -0.2317443900000000E+00
  0.2381265000000000E+00 1 -0.1624868022000000E+02
         # Potential name:  GTH-PBE-Q13  for symbol:  GA
         # Potential read from the potential filename: GTH_POTENTIALS
       &END POTENTIAL
     &END KIND
     &TOPOLOGY
       COORD_FILE_NAME ../start-first.xyz
       COORD_FILE_FORMAT  XYZ
       NUMBER_OF_ATOMS  156
       MULTIPLE_UNIT_CELL  1 1 1
     &END TOPOLOGY
     &COLVAR
       &DISTANCE
         ATOMS  145 147
       &END DISTANCE
       &PRINT
       &END PRINT
     &END COLVAR
   &END SUBSYS
 &END FORCE_EVAL
