 # Version information for this restart file 
 # current date 2019-05-28 00:15:59.516
 # current working dir /lustre03/project/6004141/rzk/GaN-carbene/334-native/08-2Methanol-Htransfer/03-CO-constraint/1.84
 # Program compiled at                              Sun Apr  7 00:48:11 EDT 2019
 # Program compiled on                          beluga2.int.ets1.calculquebec.ca
 # Program compiled for                        Beluga-Linux-x86-64-intel-openmpi
 # Source code revision number                                         svn:18619
 &GLOBAL
   PRINT_LEVEL  MEDIUM
   PROJECT_NAME TEST
   RUN_TYPE  GEO_OPT
 &END GLOBAL
 &MOTION
   &GEO_OPT
     MAX_ITER  500
     STEP_START_VAL  121
   &END GEO_OPT
   &CONSTRAINT
     &COLLECTIVE
       COLVAR  1
       INTERMOLECULAR  T
       TARGET     3.4770960845095833E+00
       &RESTRAINT
         K     1.0000000000000001E-01
       &END RESTRAINT
     &END COLLECTIVE
     &COLVAR_RESTART
           3.4770960845095833E+00
     &END COLVAR_RESTART
   &END CONSTRAINT
 &END MOTION
 &FORCE_EVAL
   METHOD  QS
   STRESS_TENSOR  ANALYTICAL
   &DFT
     BASIS_SET_FILE_NAME BASIS_MOLOPT
     POTENTIAL_FILE_NAME GTH_POTENTIALS
     &SCF
       MAX_SCF  100
       EPS_SCF     5.0000000000000004E-06
       &OT  T
         PRECONDITIONER  FULL_ALL
       &END OT
       &OUTER_SCF  T
         OPTIMIZER  NONE
         EPS_SCF     5.0000000000000004E-06
         MAX_SCF  4
       &END OUTER_SCF
       &PRINT
         &RESTART  OFF
           BACKUP_COPIES  1
           &EACH
             JUST_ENERGY  0
             QS_SCF  0
             MD  20
           &END EACH
         &END RESTART
       &END PRINT
     &END SCF
     &QS
       EPS_DEFAULT     1.0000000000000000E-14
       ALMO_SCF  F
       METHOD  GPW
     &END QS
     &MGRID
       NGRIDS  5
       CUTOFF     1.2000000000000000E+03
     &END MGRID
     &XC
       DENSITY_CUTOFF     1.0000000000000000E-10
       GRADIENT_CUTOFF     1.0000000000000000E-10
       TAU_CUTOFF     1.0000000000000000E-10
       &XC_FUNCTIONAL  NO_SHORTCUT
         &PBE  T
         &END PBE
       &END XC_FUNCTIONAL
       &VDW_POTENTIAL
         POTENTIAL_TYPE  PAIR_POTENTIAL
         &PAIR_POTENTIAL
           R_CUTOFF     1.0000000000000005E+01
           TYPE  DFTD3
           PARAMETER_FILE_NAME dftd3.dat
           REFERENCE_FUNCTIONAL PBE
           EPS_CN     9.9999999999999995E-07
           CALCULATE_C9_TERM  T
           REFERENCE_C9_TERM  T
           LONG_RANGE_CORRECTION  F
           VERBOSE_OUTPUT  F
         &END PAIR_POTENTIAL
       &END VDW_POTENTIAL
     &END XC
   &END DFT
   &SUBSYS
     &CELL
       A     9.7367653356401487E+00    0.0000000000000000E+00    0.0000000000000000E+00
       B    -4.8591341382960209E+00    8.4162672083210595E+00    0.0000000000000000E+00
       C     0.0000000000000000E+00    0.0000000000000000E+00    3.0744000000000000E+01
       MULTIPLE_UNIT_CELL  1 1 1
       &CELL_REF
         A     9.5580000000000052E+00    0.0000000000000000E+00    0.0000000000000000E+00
         B    -4.7790000000000026E+00    8.2774708093716640E+00    0.0000000000000000E+00
         C     0.0000000000000000E+00    0.0000000000000000E+00    3.0744000000000000E+01
         MULTIPLE_UNIT_CELL  1 1 1
       &END CELL_REF
     &END CELL
     &COORD
Ga    1.3022285307126976E-02   -2.6717223431552205E-02   -5.4041816398050768E-01
N    1.6001261391804092E-02    1.8467297602102666E+00    6.0487095462205109E-01
Ga    1.5040385488450563E-02    1.8155261671141905E+00    2.6357017796507716E+00
N    1.2087931691779068E-02   -2.8011148370778002E-02    3.2671953635764419E+00
Ga    1.1654145863761813E-02   -2.7244992986259951E-02    5.2574346386416755E+00
N    1.4644759864949187E-02    1.8473271668754201E+00    5.8457058844751728E+00
Ga    1.5060798714289293E-02    1.8446938062276750E+00    7.8449356071567546E+00
N    1.3971122587160784E-02   -2.8291138740215084E-02    8.4460556184179936E+00
Ga    1.5596221926785900E-02   -2.8563525901731116E-02    1.0443838257395402E+01
N    1.4033256599261584E-02    1.8436262256819302E+00    1.1047057929621575E+01
Ga    2.0462956168518499E-02    1.8396970390844001E+00    1.3040917868922199E+01
N    2.9199349550534014E-02   -3.2141020470867289E-02    1.3637574934956291E+01
Ga    4.7900069754697773E-02   -5.5134030657698549E-02    1.5631126089037600E+01
N    4.1896921998957025E-02    1.8268140213943038E+00    1.6212450061123185E+01
Ga    6.9706272953506634E-02    1.8101371723150146E+00    1.8268458560366113E+01
N    5.8274173432058859E-02   -6.5312963786004513E-02    1.8664125564819173E+01
Ga   -1.6065812165516919E+00    2.7773726714661402E+00    3.2181463779169012E-01
N   -1.6075502024689488E+00    4.6473744681493550E+00    6.0437004294538044E-01
Ga   -1.5801530438076397E+00    4.6629512246287286E+00    2.6350515985444236E+00
N   -1.6072659844712780E+00    2.7775743792302507E+00    3.2263680786886377E+00
Ga   -1.6075018520074789E+00    2.7781967672272851E+00    5.2373596433216028E+00
N   -1.6074333116227069E+00    4.6480465287124915E+00    5.8443982795428262E+00
Ga   -1.6073915850776364E+00    4.6482128702628964E+00    7.8427530378783814E+00
N   -1.6078889983691793E+00    2.7778680203692403E+00    8.4495658697011944E+00
Ga   -1.6085046807600563E+00    2.7792560904966379E+00    1.0445506103096525E+01
N   -1.6094695899351541E+00    4.6491666738394954E+00    1.1054500688282795E+01
Ga   -1.6135464822402799E+00    4.6476415127214388E+00    1.3052637812051401E+01
N   -1.5962349420273849E+00    2.7781598017920706E+00    1.3669090959588848E+01
Ga   -1.5914638148823559E+00    2.7887413971955173E+00    1.5678073851129392E+01
N   -1.5827454273014949E+00    4.6545610835302043E+00    1.6306503684760429E+01
Ga   -1.4824591646233316E+00    4.6454841646533884E+00    1.8384998806499549E+01
N   -1.5268964503493552E+00    2.7466713924815376E+00    1.8712602219183996E+01
Ga   -3.2269280493179640E+00    5.5828782221845801E+00    3.2195750291307751E-01
N   -3.2204361628202340E+00    7.4534560290236183E+00    6.0419306297648734E-01
Ga   -3.2487467535732524E+00    7.4685625631496464E+00    2.6352050121140129E+00
N   -3.2270506748733623E+00    5.5828943069137367E+00    3.2260820384203739E+00
Ga   -3.2275323677124717E+00    5.5831387179343350E+00    5.2373023683897477E+00
N   -3.2218886472644082E+00    7.4536211502982317E+00    5.8436534644333706E+00
Ga   -3.2232253646984845E+00    7.4534033141821823E+00    7.8420595756554308E+00
N   -3.2280782178640806E+00    5.5828558555295285E+00    8.4463905491328966E+00
Ga   -3.2284013780206973E+00    5.5810032985908098E+00    1.0441209279308699E+01
N   -3.2205515053068008E+00    7.4499614820256070E+00    1.1051586995501909E+01
Ga   -3.2125842420246693E+00    7.4431356773328492E+00    1.3049618620672510E+01
N   -3.2318425570066029E+00    5.5762808501251326E+00    1.3689100912252831E+01
Ga   -3.2123415561254309E+00    5.5712733390107054E+00    1.5725858158732558E+01
N   -3.1889586408025483E+00    7.4355484853721547E+00    1.6286367931996612E+01
Ga   -3.1730109378504774E+00    7.3951208314416563E+00    1.8347588643222778E+01
N   -3.1204032108789259E+00    5.5368504242610719E+00    1.8885018286378276E+01
Ga    3.2592668552751229E+00   -2.7771696152752878E-02    3.2212830903260453E-01
N    3.2575591380976157E+00    1.8421197351151692E+00    6.0456127204991339E-01
Ga    3.2851636794212586E+00    1.8578840524777103E+00    2.6348297804927761E+00
N    3.2580951925751944E+00   -2.7957150266188079E-02    3.2258087933927166E+00
Ga    3.2582565207208685E+00   -2.7197762136335221E-02    5.2371095911239429E+00
N    3.2585144978680267E+00    1.8430297407467169E+00    5.8443460038390533E+00
Ga    3.2590391471279125E+00    1.8426797935861190E+00    7.8430439758250410E+00
N    3.2562638319504105E+00   -2.7807070659188533E-02    8.4461583581756070E+00
Ga    3.2577430452524347E+00   -2.8721982397394138E-02    1.0440552205151901E+01
N    3.2641815308932700E+00    1.8414125567162998E+00    1.1048702038599936E+01
Ga    3.2711703770568872E+00    1.8340570262767246E+00    1.3045215302173967E+01
N    3.2622975055346832E+00   -3.3754806517022298E-02    1.3665289461292669E+01
Ga    3.2730672454273115E+00   -3.9961147982569070E-02    1.5674971570780507E+01
N    3.2983443968682549E+00    1.8248718377472326E+00    1.6259181971248914E+01
Ga    3.3486370214951666E+00    1.8215965732140447E+00    1.8295770313253644E+01
N    3.3200799625321724E+00   -6.9816892968646627E-02    1.8751603392277978E+01
Ga    1.6386130726631156E+00    2.7778939288958373E+00    3.2225091362488284E-01
N    1.6449635024110905E+00    4.6480846150895019E+00    6.0469133521511709E-01
Ga    1.6164765189791632E+00    4.6633113804728943E+00    2.6353414880004236E+00
N    1.6381360201513557E+00    2.7776493657174197E+00    3.2268037708673107E+00
Ga    1.6380100965971072E+00    2.7786392227247947E+00    5.2383146429256717E+00
N    1.6432604980327410E+00    4.6484270093663307E+00    5.8469605180660444E+00
Ga    1.6418175278646614E+00    4.6483237221219342E+00    7.8472140966361712E+00
N    1.6383846307217063E+00    2.7758973970263581E+00    8.4477088118199948E+00
Ga    1.6389692524128778E+00    2.7747941691103879E+00    1.0443289702027689E+01
N    1.6349136660290007E+00    4.6459219751495233E+00    1.1038653468834124E+01
Ga    1.6306355255127782E+00    4.6448719707691986E+00    1.3032082965289376E+01
N    1.6458272212680001E+00    2.7666743688775979E+00    1.3638765003256976E+01
Ga    1.6752358265629910E+00    2.7566636622911056E+00    1.5631100263389673E+01
N    1.6312028170111232E+00    4.6367297534126726E+00    1.6133021134159346E+01
Ga    1.7070994840203721E+00    4.5971809866090210E+00    1.8115078531767864E+01
N    1.7044220059783641E+00    2.7500822819541835E+00    1.8621014397461032E+01
Ga    1.9198207512634225E-02    5.5827205914282105E+00   -5.4501712743721975E-01
N    2.2486789516352211E-02    7.4573890264242308E+00    6.0427000034412903E-01
Ga    2.1690267130868295E-02    7.4260497911642105E+00    2.6350956671331236E+00
N    1.8362383531640096E-02    5.5828155153631380E+00    3.2674665285496802E+00
Ga    1.8579427432267551E-02    5.5834610226849906E+00    5.2577243613515341E+00
N    2.1386359308378861E-02    7.4581567458497053E+00    5.8455288781882819E+00
Ga    2.0591753089927327E-02    7.4566379065207684E+00    7.8449041333715153E+00
N    1.5668149556654125E-02    5.5827910149886257E+00    8.4447117960430358E+00
Ga    1.3618459634390602E-02    5.5819577387668069E+00    1.0441791981805109E+01
N    2.0917837358252863E-02    7.4553887934862431E+00    1.1040380684461814E+01
Ga    2.0068946417155249E-02    7.4578317155739056E+00    1.3032173168630299E+01
N    8.4832586415526118E-03    5.5874394040787827E+00    1.3631195849011146E+01
Ga    9.1865184665718483E-03    5.5759633787063656E+00    1.5626160895162565E+01
N    4.9576401662588837E-02    7.4442129842163585E+00    1.6257152708114887E+01
Ga    7.5373971980256957E-02    7.3986624924889348E+00    1.8343779973313072E+01
N    1.9075493483517814E-01    5.5400819983541663E+00    1.8877841661694525E+01
Ga    6.5035413000260647E+00   -2.6956689740079087E-02    3.2161708670571315E-01
N    6.5106513233585419E+00    1.8426586193956711E+00    6.0494489718986821E-01
Ga    6.4820962958990629E+00    1.8580126409460735E+00    2.6348919915685314E+00
N    6.5035160733827029E+00   -2.7714946535405235E-02    3.2269152000204180E+00
Ga    6.5038367025233548E+00   -2.6867998901325296E-02    5.2385447525584530E+00
N    6.5088212698706700E+00    1.8435863281258509E+00    5.8451472084577265E+00
Ga    6.5067015820400274E+00    1.8438841133566679E+00    7.8439177352409866E+00
N    6.5023079073278831E+00   -2.5801216502348626E-02    8.4484345714652882E+00
Ga    6.5035045097199200E+00   -2.2260425293300350E-02    1.0444765227348492E+01
N    6.5060209943694893E+00    1.8493672480844185E+00    1.1054821408502534E+01
Ga    6.5093443576571746E+00    1.8538677574622351E+00    1.3053645254881353E+01
N    6.4982140878083658E+00   -1.9781663133911959E-02    1.3629098449132263E+01
Ga    6.5143668645662585E+00   -1.5963406175218475E-02    1.5628574473843635E+01
N    6.5221520162744184E+00    1.8494343018142676E+00    1.6247219242872788E+01
Ga    6.5886886110451206E+00    1.8197123961799355E+00    1.8297027253270425E+01
N    6.5890619696471608E+00   -8.7168744053474190E-02    1.8661119698233158E+01
Ga    4.8856329499892297E+00    2.7785014795323506E+00   -5.4841534202655773E-01
N    4.8875389319865725E+00    4.6525735187782589E+00    6.0501118618544414E-01
Ga    4.8867055618741464E+00    4.6207446148585465E+00    2.6350015185739530E+00
N    4.8838335898708847E+00    2.7774636025152950E+00    3.2669316605222738E+00
Ga    4.8840123681932068E+00    2.7786477742470344E+00    5.2566662423095289E+00
N    4.8861598387712020E+00    4.6527310848893464E+00    5.8454462661597981E+00
Ga    4.8843530047976964E+00    4.6512455987776979E+00    7.8448323216939988E+00
N    4.8828251210155669E+00    2.7778298675648463E+00    8.4458427587689755E+00
Ga    4.8849448459288967E+00    2.7800065416531337E+00    1.0443439771091581E+01
N    4.8887580876247769E+00    4.6494571578893300E+00    1.1050621068854507E+01
Ga    4.8877858015859186E+00    4.6501784034298552E+00    1.3050855386769683E+01
N    4.8823258693137870E+00    2.7819493831879760E+00    1.3665197011751404E+01
Ga    4.8876897289203090E+00    2.7737998417048333E+00    1.5686182962404589E+01
N    4.8482930878464714E+00    4.6659067323253147E+00    1.6146594049144888E+01
Ga    4.9756041888940334E+00    4.5980982431822941E+00    1.9126502866732388E+01
N    4.9702256448408786E+00    2.7126947692375794E+00    1.8829581523075969E+01
Ga    3.2652802210781036E+00    5.5826748547205343E+00    3.2217018580142986E-01
N    3.2637646974836851E+00    7.4531296761531163E+00    6.0428344881532026E-01
Ga    3.2910039616321152E+00    7.4687130997053197E+00    2.6353554260180494E+00
N    3.2639725741653050E+00    5.5831329540406616E+00    3.2268695859794922E+00
Ga    3.2636879070615530E+00    5.5839333361565489E+00    5.2386066304528711E+00
N    3.2642684257436807E+00    7.4539713632751061E+00    5.8472450957704849E+00
Ga    3.2651444831227039E+00    7.4537576326571147E+00    7.8476971459240810E+00
N    3.2630758033782210E+00    5.5830128132529007E+00    8.4516462855095753E+00
Ga    3.2633631131389489E+00    5.5835676962027128E+00    1.0450902782668013E+01
N    3.2673366620034643E+00    7.4604842923343364E+00    1.1040241363567128E+01
Ga    3.2669724560871463E+00    7.4638197283489802E+00    1.3034994316327055E+01
N    3.2520457532259019E+00    5.5862588858184719E+00    1.3593160163302628E+01
Ga    3.2510869559600053E+00    5.5942373612300864E+00    1.5587241452858668E+01
N    3.2821523346141941E+00    7.4644643963525379E+00    1.6133084244755015E+01
Ga    3.3455597795071803E+00    7.4360853550139066E+00    1.8136721098026140E+01
N    3.4559251336146333E+00    5.4825106401137456E+00    1.8327361028460086E+01
O    1.6703144440759823E+00    5.1598134285859469E+00    2.1277786840353812E+01
H    1.0842707355599019E+00    5.4078424295030718E+00    2.0488554571649910E+01
C    9.9234952704671553E-01    3.6818525751123481E+00    2.1708649097175424E+01
H   -8.8494764196984169E-02    3.8305970414919344E+00    2.1652685513935651E+01
H    1.3569784404191896E+00    2.9539917601791794E+00    2.0974583775386890E+01
H    1.3565482787786769E+00    3.5223588676110289E+00    2.2724650061922624E+01
O    4.2296922679955307E+00    4.8190194707060590E+00    2.1042528451679932E+01
H    3.1965668155454763E+00    4.9588669542425867E+00    2.1062997898042244E+01
C    4.6060966111570298E+00    3.8389357251225316E+00    2.2041016411318218E+01
H    4.3158373701373858E+00    2.8252612401497879E+00    2.1731124162826486E+01
H    5.6954495042812061E+00    3.8821682108372815E+00    2.2155847495761414E+01
H    4.1295331879826227E+00    4.0997611976692516E+00    2.2994321339804170E+01
     &END COORD
     &KIND C
       BASIS_SET DZVP-MOLOPT-SR-GTH-q4
       POTENTIAL GTH-PBE-q4
       &POTENTIAL
 2 2
  0.3384712400000000E+00 2 -0.8803673979999999E+01  0.1339210850000000E+01
 2
  0.3025757500000000E+00 1  0.9622486650000001E+01
  0.2915069400000000E+00 0
         # Potential name:  GTH-PBE-Q4  for symbol:  C
         # Potential read from the potential filename: GTH_POTENTIALS
       &END POTENTIAL
     &END KIND
     &KIND O
       BASIS_SET DZVP-MOLOPT-SR-GTH-q6
       POTENTIAL GTH-PBE-q6
       &POTENTIAL
 2 4
  0.2445543000000000E+00 2 -0.1666721480000000E+02  0.2487311320000000E+01
 2
  0.2209559200000000E+00 1  0.1833745811000000E+02
  0.2113324700000000E+00 0
         # Potential name:  GTH-PBE-Q6  for symbol:  O
         # Potential read from the potential filename: GTH_POTENTIALS
       &END POTENTIAL
     &END KIND
     &KIND H
       BASIS_SET DZVP-MOLOPT-SR-GTH-q1
       POTENTIAL GTH-PBE-q1
       &POTENTIAL
 1
  0.2000000000000000E+00 2 -0.4178900440000000E+01  0.7244633100000000E+00
 0
         # Potential name:  GTH-PBE-Q1  for symbol:  H
         # Potential read from the potential filename: GTH_POTENTIALS
       &END POTENTIAL
     &END KIND
     &KIND N
       BASIS_SET DZVP-MOLOPT-SR-GTH-q5
       POTENTIAL GTH-PBE-q5
       &POTENTIAL
 2 3
  0.2837905100000000E+00 2 -0.1241522559000000E+02  0.1868095920000000E+01
 2
  0.2554050000000000E+00 1  0.1363026257000000E+02
  0.2454945300000000E+00 0
         # Potential name:  GTH-PBE-Q5  for symbol:  N
         # Potential read from the potential filename: GTH_POTENTIALS
       &END POTENTIAL
     &END KIND
     &KIND Ga
       BASIS_SET DZVP-MOLOPT-SR-GTH-q13
       POTENTIAL GTH-PBE-q13
       &POTENTIAL
 2 1 10
  0.4900000000000000E+00 0
 3
  0.4167772300000000E+00 3  0.1047568975000000E+02 -0.4921768140000000E+01  0.8707055900000000E+00
  0.7770178090000000E+01 -0.2248152160000000E+01
  0.1784415450000000E+01
  0.5696265200000000E+00 2  0.1777985340000000E+01  0.1958597600000000E+00
 -0.2317443900000000E+00
  0.2381265000000000E+00 1 -0.1624868022000000E+02
         # Potential name:  GTH-PBE-Q13  for symbol:  GA
         # Potential read from the potential filename: GTH_POTENTIALS
       &END POTENTIAL
     &END KIND
     &TOPOLOGY
       COORD_FILE_NAME ../start-first.xyz
       COORD_FILE_FORMAT  XYZ
       NUMBER_OF_ATOMS  156
       MULTIPLE_UNIT_CELL  1 1 1
     &END TOPOLOGY
     &COLVAR
       &DISTANCE
         ATOMS  145 147
       &END DISTANCE
       &PRINT
       &END PRINT
     &END COLVAR
   &END SUBSYS
 &END FORCE_EVAL
