 # Version information for this restart file 
 # current date 2019-05-27 19:31:41.946
 # current working dir /lustre03/project/6004141/rzk/GaN-carbene/334-native/08-2Methanol-Htransfer/01-Constraint/1.36
 # Program compiled at                              Sun Apr  7 00:48:11 EDT 2019
 # Program compiled on                          beluga2.int.ets1.calculquebec.ca
 # Program compiled for                        Beluga-Linux-x86-64-intel-openmpi
 # Source code revision number                                         svn:18619
 &GLOBAL
   PRINT_LEVEL  MEDIUM
   PROJECT_NAME TEST
   RUN_TYPE  GEO_OPT
 &END GLOBAL
 &MOTION
   &GEO_OPT
     MAX_ITER  500
     STEP_START_VAL  147
   &END GEO_OPT
   &CONSTRAINT
     &COLLECTIVE
       COLVAR  1
       INTERMOLECULAR  T
       TARGET     2.5700275407244746E+00
       &RESTRAINT
         K     1.0000000000000001E-01
       &END RESTRAINT
     &END COLLECTIVE
     &COLVAR_RESTART
           2.5700275407244746E+00
     &END COLVAR_RESTART
   &END CONSTRAINT
 &END MOTION
 &FORCE_EVAL
   METHOD  QS
   STRESS_TENSOR  ANALYTICAL
   &DFT
     BASIS_SET_FILE_NAME BASIS_MOLOPT
     POTENTIAL_FILE_NAME GTH_POTENTIALS
     &SCF
       MAX_SCF  100
       EPS_SCF     5.0000000000000004E-06
       &OT  T
         PRECONDITIONER  FULL_ALL
       &END OT
       &OUTER_SCF  T
         OPTIMIZER  NONE
         EPS_SCF     5.0000000000000004E-06
         MAX_SCF  4
       &END OUTER_SCF
       &PRINT
         &RESTART  OFF
           BACKUP_COPIES  1
           &EACH
             JUST_ENERGY  0
             QS_SCF  0
             MD  20
           &END EACH
         &END RESTART
       &END PRINT
     &END SCF
     &QS
       EPS_DEFAULT     1.0000000000000000E-14
       ALMO_SCF  F
       METHOD  GPW
     &END QS
     &MGRID
       NGRIDS  5
       CUTOFF     1.2000000000000000E+03
     &END MGRID
     &XC
       DENSITY_CUTOFF     1.0000000000000000E-10
       GRADIENT_CUTOFF     1.0000000000000000E-10
       TAU_CUTOFF     1.0000000000000000E-10
       &XC_FUNCTIONAL  NO_SHORTCUT
         &PBE  T
         &END PBE
       &END XC_FUNCTIONAL
       &VDW_POTENTIAL
         POTENTIAL_TYPE  PAIR_POTENTIAL
         &PAIR_POTENTIAL
           R_CUTOFF     1.0000000000000005E+01
           TYPE  DFTD3
           PARAMETER_FILE_NAME dftd3.dat
           REFERENCE_FUNCTIONAL PBE
           EPS_CN     9.9999999999999995E-07
           CALCULATE_C9_TERM  T
           REFERENCE_C9_TERM  T
           LONG_RANGE_CORRECTION  F
           VERBOSE_OUTPUT  F
         &END PAIR_POTENTIAL
       &END VDW_POTENTIAL
     &END XC
   &END DFT
   &SUBSYS
     &CELL
       A     9.7367653356401487E+00    0.0000000000000000E+00    0.0000000000000000E+00
       B    -4.8591341382960209E+00    8.4162672083210595E+00    0.0000000000000000E+00
       C     0.0000000000000000E+00    0.0000000000000000E+00    3.0744000000000000E+01
       MULTIPLE_UNIT_CELL  1 1 1
       &CELL_REF
         A     9.5580000000000052E+00    0.0000000000000000E+00    0.0000000000000000E+00
         B    -4.7790000000000026E+00    8.2774708093716640E+00    0.0000000000000000E+00
         C     0.0000000000000000E+00    0.0000000000000000E+00    3.0744000000000000E+01
         MULTIPLE_UNIT_CELL  1 1 1
       &END CELL_REF
     &END CELL
     &COORD
Ga    3.7792687813594412E-02   -3.4994004234838838E-02   -5.4578835822983141E-01
N    3.9565169208019835E-02    1.8389653779454240E+00    6.0970858460079735E-01
Ga    3.8895319446529353E-02    1.8074647899717209E+00    2.6388671328817779E+00
N    3.5811395287146462E-02   -3.6219391372265181E-02    3.2711913248545970E+00
Ga    3.6511576565468579E-02   -3.4671504036747243E-02    5.2601603662287708E+00
N    3.9370968441147979E-02    1.8397627902659985E+00    5.8490554059220958E+00
Ga    3.9234376266824349E-02    1.8377380900973037E+00    7.8459513100097169E+00
N    3.5480125570871358E-02   -3.4073769064682069E-02    8.4526141195529991E+00
Ga    4.0627753933312999E-02   -3.0051486243364345E-02    1.0449106781077775E+01
N    4.0914118512588221E-02    1.8382266556251354E+00    1.1062725610732917E+01
Ga    4.2253957310792969E-02    1.8372967002515666E+00    1.3069640236461582E+01
N    2.6923442489078991E-02   -3.3798804012579529E-02    1.3672516441749147E+01
Ga    2.9535032070736777E-02   -1.8110414663387701E-02    1.5699746682738922E+01
N    6.1789468264590301E-02    1.8401336973599824E+00    1.6285353549004697E+01
Ga    5.8491674316281897E-02    1.8466192568179447E+00    1.8475441957405458E+01
N    3.7853345659723876E-02   -3.2787879624707320E-02    1.8933490274254851E+01
Ga   -1.5827451386974736E+00    2.7688163480507075E+00    3.2578050349319221E-01
N   -1.5848680557583745E+00    4.6387218005065707E+00    6.0864726993602858E-01
Ga   -1.5567300699843747E+00    4.6549912627157610E+00    2.6379299467138413E+00
N   -1.5840913376125179E+00    2.7696221202583109E+00    3.2319433650299172E+00
Ga   -1.5839917020763210E+00    2.7711461859640498E+00    5.2422125810903966E+00
N   -1.5835666571440310E+00    4.6415814256382548E+00    5.8520664140869698E+00
Ga   -1.5829150241321517E+00    4.6429278524218551E+00    7.8503727068357287E+00
N   -1.5828807159408522E+00    2.7700510810798069E+00    8.4505588467639647E+00
Ga   -1.5782036742353598E+00    2.7678381990836853E+00    1.0442184974682336E+01
N   -1.5807579447501572E+00    4.6423512845917703E+00    1.1040986800069009E+01
Ga   -1.5650622117904003E+00    4.6201437314925604E+00    1.3022537363327288E+01
N   -1.5784475737578296E+00    2.7729629803229821E+00    1.3656230386502219E+01
Ga   -1.5450476346203512E+00    2.7510000590317008E+00    1.5677544239693194E+01
N   -1.5741866208141668E+00    4.6527368417593005E+00    1.6219369118770089E+01
Ga   -1.5986695738125352E+00    4.5956553680162617E+00    1.8234348105444070E+01
N   -1.5921081645954112E+00    2.7920357497262196E+00    1.8756355571767262E+01
Ga   -3.2036002758761950E+00    5.5750337061783766E+00    3.2594768021238785E-01
N   -3.1961965020433607E+00    7.4448793760387746E+00    6.0871427186179305E-01
Ga   -3.2250074006931784E+00    7.4609920472502056E+00    2.6377941049588669E+00
N   -3.2035397966582391E+00    5.5751812026859859E+00    3.2310947601340660E+00
Ga   -3.2029919613684785E+00    5.5766808495965963E+00    5.2408787975197653E+00
N   -3.1980069481928348E+00    7.4466135067285366E+00    5.8513453906917743E+00
Ga   -3.1994828789071659E+00    7.4479500743924572E+00    7.8494420647969800E+00
N   -3.2056960321678369E+00    5.5770750302396586E+00    8.4572287827792660E+00
Ga   -3.2039496190829171E+00    5.5845707209283653E+00    1.0451209899656037E+01
N   -3.2011554461731664E+00    7.4518189700970456E+00    1.1064946853638901E+01
Ga   -3.1882867402252213E+00    7.4925966037230296E+00    1.3069074195058812E+01
N   -3.2046879659306660E+00    5.5699815174714562E+00    1.3620954181705923E+01
Ga   -2.9876572039632086E+00    5.7130025594676539E+00    1.5532202822983468E+01
N   -3.2924924825197595E+00    7.3822585613749894E+00    1.6299628497319738E+01
Ga   -3.2655141588120387E+00    7.4472932558289404E+00    1.8437147430854139E+01
N   -3.0784460417970525E+00    5.5832404320379814E+00    1.8976712642822900E+01
Ga    3.2824222983935258E+00   -3.6354200509335612E-02    3.2514137560928130E-01
N    3.2804676196193356E+00    1.8332744519942379E+00    6.0853027988132669E-01
Ga    3.3083991855978581E+00    1.8495485543378249E+00    2.6376182584959174E+00
N    3.2812983058816161E+00   -3.5615855420870118E-02    3.2312912059710972E+00
Ga    3.2813452559535787E+00   -3.3930855606157995E-02    5.2410656194687801E+00
N    3.2822467706180136E+00    1.8357663066292595E+00    5.8515563862383289E+00
Ga    3.2826440345311609E+00    1.8354228708559779E+00    7.8496996682418834E+00
N    3.2808594660209818E+00   -3.4331525927748061E-02    8.4583755135938503E+00
Ga    3.2825013103474472E+00   -3.3019013068977907E-02    1.0457369018089574E+01
N    3.2806976790462925E+00    1.8372991624155335E+00    1.1067178636025885E+01
Ga    3.2555808298238795E+00    1.8051953406688466E+00    1.3074188200548512E+01
N    3.2674495496525400E+00   -2.8413632354231177E-02    1.3748004480890165E+01
Ga    3.2479908935855479E+00   -2.0046924708649997E-02    1.6020468366788471E+01
N    3.2914694439055143E+00    1.9431624003193972E+00    1.6270461094520872E+01
Ga    3.2591849760809875E+00    1.9036400103830071E+00    1.8378412699693794E+01
N    3.2438597596764041E+00   -6.8743129907845391E-03    1.8295435379551776E+01
Ga    1.6617876961170175E+00    2.7692910693643169E+00    3.2589588854683732E-01
N    1.6688767626052108E+00    4.6391984985485344E+00    6.0892450079906157E-01
Ga    1.6401483723258730E+00    4.6551736535309471E+00    2.6380802690369745E+00
N    1.6620591955800723E+00    2.7697078239302515E+00    3.2312687329289216E+00
Ga    1.6626438666980063E+00    2.7709265381343742E+00    5.2409668113315604E+00
N    1.6666442947104514E+00    4.6411867425954805E+00    5.8502639226144462E+00
Ga    1.6636441804893740E+00    4.6416966345814261E+00    7.8476161662672590E+00
N    1.6612383860190894E+00    2.7707232762699285E+00    8.4534759294380333E+00
Ga    1.6624584200083485E+00    2.7658775807542555E+00    1.0447644844736644E+01
N    1.6669784417300189E+00    4.6450498367521620E+00    1.1039828549611984E+01
Ga    1.6499579073332908E+00    4.6271485525768288E+00    1.3017431038364464E+01
N    1.6584997352867237E+00    2.7887682000281986E+00    1.3670916116902577E+01
Ga    1.6485751938170261E+00    2.7829382663316524E+00    1.5688674185697701E+01
N    1.6548565075410149E+00    4.6747735151402212E+00    1.6344909017027383E+01
Ga    1.5482469298473907E+00    4.5666601092352259E+00    1.8389783474527292E+01
N    1.6898770449836833E+00    2.8059564512664408E+00    1.8954578084991301E+01
Ga    4.2887314987696150E-02    5.5748991082774406E+00   -5.4564158338950530E-01
N    4.5533037128910922E-02    7.4497305185662137E+00    6.0869956231676980E-01
Ga    4.4537092344806843E-02    7.4184202434088560E+00    2.6380854794297126E+00
N    4.1762318989384560E-02    5.5749777016145163E+00    3.2714521548316662E+00
Ga    4.1727530163307949E-02    5.5766811624634176E+00    5.2607180363267458E+00
N    4.4665641354331022E-02    7.4513872871929543E+00    5.8501458125632935E+00
Ga    4.3336947456190877E-02    7.4512186838816907E+00    7.8479070718435375E+00
N    4.1705624463409474E-02    5.5790668190284194E+00    8.4526078162128826E+00
Ga    4.1073878936818742E-02    5.5894741010070215E+00    1.0448820655048770E+01
N    3.9919868091955781E-02    7.4523028699047940E+00    1.1076391785513836E+01
Ga    1.3150943098624480E-02    7.4722208904278347E+00    1.3095950080521140E+01
N    4.5679335733933388E-02    5.5681759720305735E+00    1.3638137427598163E+01
Ga    4.7472547651767151E-02    5.5891930684475621E+00    1.5626575041422804E+01
N    8.3500209890504135E-02    7.4177603039276514E+00    1.6210201169678335E+01
Ga    5.9298625206088466E-02    7.5229966375227564E+00    1.8240092676650569E+01
N   -1.6752338102146137E-02    5.6157230141398848E+00    1.8807130032739760E+01
Ga    6.5270641814534924E+00   -3.5959684195518940E-02    3.2553067929851393E-01
N    6.5340874348731095E+00    1.8340449071369480E+00    6.0829745854392991E-01
Ga    6.5054134149934413E+00    1.8499007085845633E+00    2.6376121776744235E+00
N    6.5269972530899860E+00   -3.5617717754693752E-02    3.2308085202002967E+00
Ga    6.5268866448401184E+00   -3.3797768218278158E-02    5.2406904161688130E+00
N    6.5319104029344457E+00    1.8356894078667665E+00    5.8525608832410709E+00
Ga    6.5296247372576337E+00    1.8351953217761441E+00    7.8512494710791199E+00
N    6.5251222314020607E+00   -3.5680742119966503E-02    8.4580607146065017E+00
Ga    6.5185315976412648E+00   -3.6873440482359063E-02    1.0454966039607450E+01
N    6.5326121139741140E+00    1.8393013552543072E+00    1.1047565657023668E+01
Ga    6.5568461058608936E+00    1.8308160783641287E+00    1.3035496974076894E+01
N    6.5347162863495347E+00   -3.4757765066232904E-02    1.3653518223035997E+01
Ga    6.5322266331357106E+00   -3.5768128417100226E-02    1.5668729966086619E+01
N    6.5416471561341263E+00    1.8432579172176613E+00    1.6208054080732978E+01
Ga    6.5944464353143424E+00    1.8089086952776410E+00    1.8280484954833021E+01
N    6.4766443597767678E+00   -1.1802497518588358E-03    1.8796048828137430E+01
Ga    4.9073537239997025E+00    2.7691092411093048E+00   -5.4606066878417781E-01
N    4.9109778059004245E+00    4.6440615151688416E+00    6.0889479643432165E-01
Ga    4.9100431213879610E+00    4.6126524528552286E+00    2.6382313541298683E+00
N    4.9071933038815096E+00    2.7691760564299708E+00    3.2712689166345332E+00
Ga    4.9074437066772356E+00    2.7702435395642642E+00    5.2602404296504819E+00
N    4.9106839185828388E+00    4.6448758284607470E+00    5.8497967036425598E+00
Ga    4.9107910212874284E+00    4.6429878820547117E+00    7.8464445504725946E+00
N    4.9057826149793060E+00    2.7717642766657766E+00    8.4569345469417190E+00
Ga    4.9020714792847082E+00    2.7674585627700568E+00    1.0453945315804235E+01
N    4.9051593418669910E+00    4.6469610514686330E+00    1.1057137923217796E+01
Ga    4.9032604560594342E+00    4.6433621720828304E+00    1.3033864132488249E+01
N    4.9107134935201149E+00    2.7744866640817500E+00    1.3618858491207698E+01
Ga    4.9137938004390262E+00    2.5302116108428758E+00    1.5538819432413995E+01
N    4.8648646853151281E+00    4.6115724676717287E+00    1.6400880674279804E+01
Ga    5.6279212048567926E+00    4.2446579668983846E+00    1.9657606766461669E+01
N    4.9754849441963040E+00    2.7482841952624559E+00    1.8802661068336327E+01
Ga    3.2886299118761766E+00    5.5742725982239021E+00    3.2571973225625495E-01
N    3.2868981743237735E+00    7.4442748394655904E+00    6.0814048514203289E-01
Ga    3.3147942871101925E+00    7.4605758228489121E+00    2.6375721578079148E+00
N    3.2875925655812788E+00    5.5751330687395591E+00    3.2313521466476005E+00
Ga    3.2876522981252361E+00    5.5765219974136810E+00    5.2413974169602611E+00
N    3.2879468988574323E+00    7.4473850946536038E+00    5.8502633157010919E+00
Ga    3.2876973701730177E+00    7.4497117660660530E+00    7.8477125095329248E+00
N    3.2878064739996984E+00    5.5768037923227052E+00    8.4478206113877974E+00
Ga    3.2870430866345317E+00    5.5799699507545713E+00    1.0434533733592621E+01
N    3.2919267698820258E+00    7.4470466208534853E+00    1.1047571902275001E+01
Ga    3.2964252480474907E+00    7.4741310531958716E+00    1.3030812213444211E+01
N    3.2788771834506436E+00    5.5786436165808393E+00    1.3660956246057996E+01
Ga    3.0382889756171401E+00    5.7394332452151096E+00    1.5577431264430899E+01
N    3.2892953989665838E+00    7.4532651002985046E+00    1.6323379427175212E+01
Ga    3.2794187642080264E+00    7.6812850993125963E+00    1.8423918387262415E+01
N    4.6666526696317483E+00    4.6885391990858123E+00    1.7562690943453223E+01
O    2.7777252921141460E+00    5.8291247338170207E+00    1.9639337601037710E+01
H   -1.2376307294722483E-01    5.6162446603948366E+00    1.9826215928129940E+01
C    2.0640024199033271E+00    6.3142039891012356E+00    2.0831916801968422E+01
H    1.4278084878492441E+00    7.1657143746078278E+00    2.0568036898941362E+01
H    1.4940464545382919E+00    5.4887316784843065E+00    2.1280441026147255E+01
H    2.8165673309158716E+00    6.6646429417511897E+00    2.1551004098606036E+01
O    4.3958513781721837E+00    4.6940592123096021E+00    2.1108137915931941E+01
H    3.6857037961424748E+00    5.1902999739336240E+00    2.0421451031109910E+01
C    3.7024782614175686E+00    3.5777122408745110E+00    2.1757518386405188E+01
H    2.8907672622994589E+00    3.2014381840980533E+00    2.1114358248026910E+01
H    4.4217189733622408E+00    2.7724280803434374E+00    2.1944316346906074E+01
H    3.3046335204129296E+00    3.9482544949594267E+00    2.2709772479629926E+01
     &END COORD
     &KIND C
       BASIS_SET DZVP-MOLOPT-SR-GTH-q4
       POTENTIAL GTH-PBE-q4
       &POTENTIAL
 2 2
  0.3384712400000000E+00 2 -0.8803673979999999E+01  0.1339210850000000E+01
 2
  0.3025757500000000E+00 1  0.9622486650000001E+01
  0.2915069400000000E+00 0
         # Potential name:  GTH-PBE-Q4  for symbol:  C
         # Potential read from the potential filename: GTH_POTENTIALS
       &END POTENTIAL
     &END KIND
     &KIND O
       BASIS_SET DZVP-MOLOPT-SR-GTH-q6
       POTENTIAL GTH-PBE-q6
       &POTENTIAL
 2 4
  0.2445543000000000E+00 2 -0.1666721480000000E+02  0.2487311320000000E+01
 2
  0.2209559200000000E+00 1  0.1833745811000000E+02
  0.2113324700000000E+00 0
         # Potential name:  GTH-PBE-Q6  for symbol:  O
         # Potential read from the potential filename: GTH_POTENTIALS
       &END POTENTIAL
     &END KIND
     &KIND H
       BASIS_SET DZVP-MOLOPT-SR-GTH-q1
       POTENTIAL GTH-PBE-q1
       &POTENTIAL
 1
  0.2000000000000000E+00 2 -0.4178900440000000E+01  0.7244633100000000E+00
 0
         # Potential name:  GTH-PBE-Q1  for symbol:  H
         # Potential read from the potential filename: GTH_POTENTIALS
       &END POTENTIAL
     &END KIND
     &KIND N
       BASIS_SET DZVP-MOLOPT-SR-GTH-q5
       POTENTIAL GTH-PBE-q5
       &POTENTIAL
 2 3
  0.2837905100000000E+00 2 -0.1241522559000000E+02  0.1868095920000000E+01
 2
  0.2554050000000000E+00 1  0.1363026257000000E+02
  0.2454945300000000E+00 0
         # Potential name:  GTH-PBE-Q5  for symbol:  N
         # Potential read from the potential filename: GTH_POTENTIALS
       &END POTENTIAL
     &END KIND
     &KIND Ga
       BASIS_SET DZVP-MOLOPT-SR-GTH-q13
       POTENTIAL GTH-PBE-q13
       &POTENTIAL
 2 1 10
  0.4900000000000000E+00 0
 3
  0.4167772300000000E+00 3  0.1047568975000000E+02 -0.4921768140000000E+01  0.8707055900000000E+00
  0.7770178090000000E+01 -0.2248152160000000E+01
  0.1784415450000000E+01
  0.5696265200000000E+00 2  0.1777985340000000E+01  0.1958597600000000E+00
 -0.2317443900000000E+00
  0.2381265000000000E+00 1 -0.1624868022000000E+02
         # Potential name:  GTH-PBE-Q13  for symbol:  GA
         # Potential read from the potential filename: GTH_POTENTIALS
       &END POTENTIAL
     &END KIND
     &TOPOLOGY
       COORD_FILE_NAME ../start-first.xyz
       COORD_FILE_FORMAT  XYZ
       NUMBER_OF_ATOMS  156
       MULTIPLE_UNIT_CELL  1 1 1
     &END TOPOLOGY
     &COLVAR
       &DISTANCE
         ATOMS  145 152
       &END DISTANCE
       &PRINT
       &END PRINT
     &END COLVAR
   &END SUBSYS
 &END FORCE_EVAL
