 # Version information for this restart file 
 # current date 2019-05-27 19:30:53.653
 # current working dir /lustre03/project/6004141/rzk/GaN-carbene/334-native/08-2Methanol-Htransfer/01-Constraint/1.36
 # Program compiled at                              Sun Apr  7 00:48:11 EDT 2019
 # Program compiled on                          beluga2.int.ets1.calculquebec.ca
 # Program compiled for                        Beluga-Linux-x86-64-intel-openmpi
 # Source code revision number                                         svn:18619
 &GLOBAL
   PRINT_LEVEL  MEDIUM
   PROJECT_NAME TEST
   RUN_TYPE  GEO_OPT
 &END GLOBAL
 &MOTION
   &GEO_OPT
     MAX_ITER  500
     STEP_START_VAL  146
   &END GEO_OPT
   &CONSTRAINT
     &COLLECTIVE
       COLVAR  1
       INTERMOLECULAR  T
       TARGET     2.5700275407244746E+00
       &RESTRAINT
         K     1.0000000000000001E-01
       &END RESTRAINT
     &END COLLECTIVE
     &COLVAR_RESTART
           2.5700275407244746E+00
     &END COLVAR_RESTART
   &END CONSTRAINT
 &END MOTION
 &FORCE_EVAL
   METHOD  QS
   STRESS_TENSOR  ANALYTICAL
   &DFT
     BASIS_SET_FILE_NAME BASIS_MOLOPT
     POTENTIAL_FILE_NAME GTH_POTENTIALS
     &SCF
       MAX_SCF  100
       EPS_SCF     5.0000000000000004E-06
       &OT  T
         PRECONDITIONER  FULL_ALL
       &END OT
       &OUTER_SCF  T
         OPTIMIZER  NONE
         EPS_SCF     5.0000000000000004E-06
         MAX_SCF  4
       &END OUTER_SCF
       &PRINT
         &RESTART  OFF
           BACKUP_COPIES  1
           &EACH
             JUST_ENERGY  0
             QS_SCF  0
             MD  20
           &END EACH
         &END RESTART
       &END PRINT
     &END SCF
     &QS
       EPS_DEFAULT     1.0000000000000000E-14
       ALMO_SCF  F
       METHOD  GPW
     &END QS
     &MGRID
       NGRIDS  5
       CUTOFF     1.2000000000000000E+03
     &END MGRID
     &XC
       DENSITY_CUTOFF     1.0000000000000000E-10
       GRADIENT_CUTOFF     1.0000000000000000E-10
       TAU_CUTOFF     1.0000000000000000E-10
       &XC_FUNCTIONAL  NO_SHORTCUT
         &PBE  T
         &END PBE
       &END XC_FUNCTIONAL
       &VDW_POTENTIAL
         POTENTIAL_TYPE  PAIR_POTENTIAL
         &PAIR_POTENTIAL
           R_CUTOFF     1.0000000000000005E+01
           TYPE  DFTD3
           PARAMETER_FILE_NAME dftd3.dat
           REFERENCE_FUNCTIONAL PBE
           EPS_CN     9.9999999999999995E-07
           CALCULATE_C9_TERM  T
           REFERENCE_C9_TERM  T
           LONG_RANGE_CORRECTION  F
           VERBOSE_OUTPUT  F
         &END PAIR_POTENTIAL
       &END VDW_POTENTIAL
     &END XC
   &END DFT
   &SUBSYS
     &CELL
       A     9.7367653356401487E+00    0.0000000000000000E+00    0.0000000000000000E+00
       B    -4.8591341382960209E+00    8.4162672083210595E+00    0.0000000000000000E+00
       C     0.0000000000000000E+00    0.0000000000000000E+00    3.0744000000000000E+01
       MULTIPLE_UNIT_CELL  1 1 1
       &CELL_REF
         A     9.5580000000000052E+00    0.0000000000000000E+00    0.0000000000000000E+00
         B    -4.7790000000000026E+00    8.2774708093716640E+00    0.0000000000000000E+00
         C     0.0000000000000000E+00    0.0000000000000000E+00    3.0744000000000000E+01
         MULTIPLE_UNIT_CELL  1 1 1
       &END CELL_REF
     &END CELL
     &COORD
Ga    3.8153607108689022E-02   -3.4835602186131742E-02   -5.4568964176534263E-01
N    3.9950203154527970E-02    1.8390101102412928E+00    6.0986831825221122E-01
Ga    3.9347953816164585E-02    1.8075787442708284E+00    2.6391451191297173E+00
N    3.6136937504433718E-02   -3.6144468408823231E-02    3.2713007130301679E+00
Ga    3.6728623096366549E-02   -3.4639452702870936E-02    5.2602722725541691E+00
N    3.9624113920230228E-02    1.8399051330808118E+00    5.8491620154223565E+00
Ga    3.9520085491805378E-02    1.8381736560302997E+00    7.8460312677019601E+00
N    3.5714548236461745E-02   -3.3559270871759493E-02    8.4526236418573006E+00
Ga    4.0707171229907475E-02   -2.9073291670155970E-02    1.0448941249241475E+01
N    4.1019000322845132E-02    1.8391865468080115E+00    1.1062829392751013E+01
Ga    4.2016297332534321E-02    1.8380419080285839E+00    1.3069483944787230E+01
N    2.6776079411935074E-02   -3.3029436844709756E-02    1.3672538757274307E+01
Ga    2.9123408620954118E-02   -1.7555943570616597E-02    1.5699679530040962E+01
N    6.1446691294853487E-02    1.8406420825464416E+00    1.6285196812479462E+01
Ga    5.8571397531508890E-02    1.8464879143261896E+00    1.8475357615740155E+01
N    3.7616774540063472E-02   -3.2896135289870371E-02    1.8933954798430612E+01
Ga   -1.5823539147081505E+00    2.7688281470206388E+00    3.2593716056358701E-01
N   -1.5845667904133953E+00    4.6388235166152798E+00    6.0867132333233964E-01
Ga   -1.5563617546609585E+00    4.6551040270637873E+00    2.6380140079710297E+00
N   -1.5836947085206661E+00    2.7697225570414621E+00    3.2319195914599441E+00
Ga   -1.5837302644139142E+00    2.7713030697351844E+00    5.2422155595434203E+00
N   -1.5832649059953929E+00    4.6416269265083105E+00    5.8521872711404770E+00
Ga   -1.5827080562302522E+00    4.6433671532913525E+00    7.8504190164035501E+00
N   -1.5826237451968219E+00    2.7705054777651719E+00    8.4508337026615727E+00
Ga   -1.5781771022743347E+00    2.7687670585000492E+00    1.0442250843414062E+01
N   -1.5807382397115488E+00    4.6434009630668065E+00    1.1040984219180404E+01
Ga   -1.5651528752862811E+00    4.6210091186839604E+00    1.3022544394317372E+01
N   -1.5786290733231068E+00    2.7738076866417316E+00    1.3656328179942767E+01
Ga   -1.5453467266193768E+00    2.7517283534798112E+00    1.5677741410824037E+01
N   -1.5742957090207190E+00    4.6536668676805641E+00    1.6219165261488012E+01
Ga   -1.5987529526642765E+00    4.5961839978143253E+00    1.8234234557981353E+01
N   -1.5920947046186367E+00    2.7924439590820023E+00    1.8755368164337572E+01
Ga   -3.2033513398748026E+00    5.5750920995724611E+00    3.2611524854771579E-01
N   -3.1958780347089690E+00    7.4448715035861683E+00    6.0883843816870831E-01
Ga   -3.2247235703204007E+00    7.4611046619766892E+00    2.6380432500909867E+00
N   -3.2031879063862339E+00    5.5752623667269177E+00    3.2311245953792325E+00
Ga   -3.2027194264661816E+00    5.5766661374486084E+00    5.2409302158530986E+00
N   -3.1977422292982776E+00    7.4466816793191466E+00    5.8513698676841868E+00
Ga   -3.1992003266576194E+00    7.4484325991347902E+00    7.8494322894925945E+00
N   -3.2054957948456844E+00    5.5776441835420369E+00    8.4572440736399983E+00
Ga   -3.2038956610841072E+00    5.5856790581661686E+00    1.0451076145854097E+01
N   -3.2009625266776323E+00    7.4529389740694896E+00    1.1064991593272632E+01
Ga   -3.1883265070544140E+00    7.4935003793496957E+00    1.3069155389164978E+01
N   -3.2047622716303534E+00    5.5709059931281439E+00    1.3620855379255607E+01
Ga   -2.9879139687870415E+00    5.7137641121513374E+00    1.5532249342344276E+01
N   -3.2929978602484602E+00    7.3828264958943421E+00    1.6300033126435459E+01
Ga   -3.2655764210646794E+00    7.4476947783039682E+00    1.8437833409776172E+01
N   -3.0779004666823613E+00    5.5835991907243399E+00    1.8977736816943661E+01
Ga    3.2827566921925211E+00   -3.6358560918546612E-02    3.2525991459992926E-01
N    3.2806952881859925E+00    1.8332562648869177E+00    6.0861524374506815E-01
Ga    3.3086214104865173E+00    1.8497513829000787E+00    2.6377470949436428E+00
N    3.2815879746939394E+00   -3.5370217005525124E-02    3.2313143229349031E+00
Ga    3.2815379412180139E+00   -3.3721204673151220E-02    5.2410431484922562E+00
N    3.2824763409777926E+00    1.8359843460474230E+00    5.8514992008089752E+00
Ga    3.2830364504088538E+00    1.8359697605032634E+00    7.8495658117039691E+00
N    3.2811189703796053E+00   -3.3656078091650179E-02    8.4584042930205925E+00
Ga    3.2826074037447448E+00   -3.1806964947492765E-02    1.0457228143047427E+01
N    3.2809172455448778E+00    1.8384538193012485E+00    1.1067375771761435E+01
Ga    3.2554803800783301E+00    1.8060053754985339E+00    1.3074393048131251E+01
N    3.2673393009786849E+00   -2.7699052871849133E-02    1.3748275247320123E+01
Ga    3.2480015230921970E+00   -1.9837089686642082E-02    1.6021667566556609E+01
N    3.2909991814572850E+00    1.9434286123044169E+00    1.6270372193968029E+01
Ga    3.2591720658634440E+00    1.9039415251461684E+00    1.8378427436981632E+01
N    3.2440504637071594E+00   -6.7420517727516454E-03    1.8295354162397736E+01
Ga    1.6621553978829331E+00    2.7693203772127841E+00    3.2596359443240730E-01
N    1.6691608240241766E+00    4.6391921557922915E+00    6.0903628269791910E-01
Ga    1.6404288723068012E+00    4.6553521625264453E+00    2.6381920981397786E+00
N    1.6623711777461956E+00    2.7699425331794432E+00    3.2314284724591298E+00
Ga    1.6628635261649753E+00    2.7712071163278096E+00    5.2410667192278071E+00
N    1.6668586341343596E+00    4.6414286433430405E+00    5.8502486475085904E+00
Ga    1.6638122310368897E+00    4.6422152118611981E+00    7.8475901090761830E+00
N    1.6615783606225449E+00    2.7712712429212250E+00    8.4534765298248136E+00
Ga    1.6627103993254364E+00    2.7669434236586112E+00    1.0447511874952399E+01
N    1.6670571119893183E+00    4.6460999979330158E+00    1.1039745977238571E+01
Ga    1.6499891836533167E+00    4.6281109138326668E+00    1.3017303137444562E+01
N    1.6582675138671783E+00    2.7896038652279347E+00    1.3670769030540470E+01
Ga    1.6481056564879573E+00    2.7834322346854403E+00    1.5688484552091062E+01
N    1.6546536053925498E+00    4.6750881200058982E+00    1.6344515555810368E+01
Ga    1.5479372431044027E+00    4.5663644675425834E+00    1.8390031993873610E+01
N    1.6898737309660186E+00    2.8058011476081939E+00    1.8954851385260444E+01
Ga    4.3289296058201913E-02    5.5748102159407775E+00   -5.4546882993299073E-01
N    4.5927228830842416E-02    7.4497921912408014E+00    6.0865915202720722E-01
Ga    4.4884683841769003E-02    7.4186832718796945E+00    2.6382141467936897E+00
N    4.2032589742017401E-02    5.5752525427543000E+00    3.2715059501549693E+00
Ga    4.1930416040982112E-02    5.5769321437017290E+00    5.2607639395054768E+00
N    4.4856971230199362E-02    7.4516286550607358E+00    5.8501990345144099E+00
Ga    4.3496385740112491E-02    7.4518068411494003E+00    7.8479066520002858E+00
N    4.1908205047715121E-02    5.5795944212491770E+00    8.4526464152916265E+00
Ga    4.1100618794396068E-02    5.5905159749129476E+00    1.0448488431730677E+01
N    3.9961142863101332E-02    7.4533538334008913E+00    1.1076356991609844E+01
Ga    1.2945900994847544E-02    7.4729374911334157E+00    1.3095852219332038E+01
N    4.5536531741831955E-02    5.5690450949312789E+00    1.3638042068609458E+01
Ga    4.7410585806432308E-02    5.5896753202261671E+00    1.5626753713370650E+01
N    8.3592460896293533E-02    7.4182695491170412E+00    1.6210577532252543E+01
Ga    5.9764490637327077E-02    7.5232548163744539E+00    1.8240839560148423E+01
N   -1.6609784895268705E-02    5.6158803775676063E+00    1.8807105511060040E+01
Ga    6.5274136349777576E+00   -3.5949498463741882E-02    3.2547700440095273E-01
N    6.5344882905597581E+00    1.8340620557960958E+00    6.0823804954962690E-01
Ga    6.5058173364389749E+00    1.8499844775823184E+00    2.6375944790594517E+00
N    6.5273374372993711E+00   -3.5422484278582154E-02    3.2307733689690106E+00
Ga    6.5271532513479471E+00   -3.3554900125806336E-02    5.2406740839919346E+00
N    6.5322337746269250E+00    1.8359137200687905E+00    5.8525498048920168E+00
Ga    6.5299362822806994E+00    1.8357235179207687E+00    7.8512928109222875E+00
N    6.5253819293773425E+00   -3.5117467056738863E-02    8.4580367861642642E+00
Ga    6.5185905781732103E+00   -3.5783753998821867E-02    1.0454821894756019E+01
N    6.5325537530641107E+00    1.8404035172074127E+00    1.1047791197127140E+01
Ga    6.5565458705763664E+00    1.8316661525653235E+00    1.3035798203596134E+01
N    6.5345348260019236E+00   -3.4062769736023922E-02    1.3653471105180060E+01
Ga    6.5322064731280181E+00   -3.5355922337371670E-02    1.5668592113993693E+01
N    6.5414003241630141E+00    1.8434275124013981E+00    1.6207897334685583E+01
Ga    6.5947968281997715E+00    1.8089659688200959E+00    1.8280034718438554E+01
N    6.4768946000378804E+00   -7.3307014580174454E-04    1.8797031895890875E+01
Ga    4.9076686113410251E+00    2.7688985169762987E+00   -5.4608081351406623E-01
N    4.9112813143989564E+00    4.6440866236708294E+00    6.0890574183406698E-01
Ga    4.9103895856344320E+00    4.6127301399468195E+00    2.6381870547359600E+00
N    4.9076273610474077E+00    2.7692906101006463E+00    3.2711706499081807E+00
Ga    4.9077397219708994E+00    2.7703993289334714E+00    5.2599466101167502E+00
N    4.9108796878147398E+00    4.6450389045503639E+00    5.8496731065270389E+00
Ga    4.9110600236537936E+00    4.6433784023289810E+00    7.8463517312304196E+00
N    4.9060587007745848E+00    2.7723282000465517E+00    8.4569146198960539E+00
Ga    4.9021857775208959E+00    2.7685453076424529E+00    1.0453930493492297E+01
N    4.9051976054093780E+00    4.6481788362766663E+00    1.1057232507893184E+01
Ga    4.9031437577844859E+00    4.6443639831631289E+00    1.3033934872739655E+01
N    4.9104305072478311E+00    2.7753747268858198E+00    1.3619055438228926E+01
Ga    4.9135072263133566E+00    2.5310794833377170E+00    1.5539188141221011E+01
N    4.8659570560779892E+00    4.6112369976319707E+00    1.6400456549187403E+01
Ga    5.6288933264401635E+00    4.2443943831570587E+00    1.9657850079541088E+01
N    4.9758375170142042E+00    2.7490185949770667E+00    1.8801522512046962E+01
Ga    3.2889460173953844E+00    5.5743055718266366E+00    3.2585935780987058E-01
N    3.2872486421758209E+00    7.4443283626063863E+00    6.0807838865236974E-01
Ga    3.3151499630075048E+00    7.4607633826331696E+00    2.6375668851527854E+00
N    3.2879138605134073E+00    5.5752621665634399E+00    3.2311959472254239E+00
Ga    3.2878646253352457E+00    5.5766414386832084E+00    5.2413390490480491E+00
N    3.2881310430232924E+00    7.4475216141697187E+00    5.8500980450692053E+00
Ga    3.2879166134610931E+00    7.4501856433344607E+00    7.8476477500409976E+00
N    3.2880042857798570E+00    5.5773844589077175E+00    8.4477050803387286E+00
Ga    3.2870984125667149E+00    5.5810686917573484E+00    1.0434159191644939E+01
N    3.2919082844025813E+00    7.4480510663255455E+00    1.1047554541166122E+01
Ga    3.2962760983523594E+00    7.4747786695378640E+00    1.3030722370768402E+01
N    3.2787390673548398E+00    5.5795569775033531E+00    1.3661155037808726E+01
Ga    3.0384967134991832E+00    5.7397822035291295E+00    1.5577968401056570E+01
N    3.2891448158536400E+00    7.4537637960992704E+00    1.6323640584424375E+01
Ga    3.2794432950045183E+00    7.6810517592669072E+00    1.8424400428560045E+01
N    4.6664733349384857E+00    4.6874412431211967E+00    1.7562143213069614E+01
O    2.7770417105693221E+00    5.8284318399689798E+00    1.9638954515651239E+01
H   -1.2288194103911129E-01    5.6155429655752442E+00    1.9826224623753980E+01
C    2.0643385069154387E+00    6.3116354666469601E+00    2.0833220573289559E+01
H    1.4318912447391450E+00    7.1669242265371258E+00    2.0572820250613400E+01
H    1.4908497074510862E+00    5.4868011142333186E+00    2.1278189529963079E+01
H    2.8185239805402347E+00    6.6552580833480297E+00    2.1553557531732285E+01
O    4.3958288328518957E+00    4.6932571643935042E+00    2.1106833624886441E+01
H    3.6855598687506852E+00    5.1890709389111107E+00    2.0419809440421368E+01
C    3.7031029173438337E+00    3.5762812421599595E+00    2.1756345091246232E+01
H    2.8856439392449373E+00    3.2060388813009726E+00    2.1116400414817846E+01
H    4.4201703042557714E+00    2.7674111064035132E+00    2.1933779177173424E+01
H    3.3137347668100428E+00    3.9441547769744694E+00    2.2713520800056262E+01
     &END COORD
     &KIND C
       BASIS_SET DZVP-MOLOPT-SR-GTH-q4
       POTENTIAL GTH-PBE-q4
       &POTENTIAL
 2 2
  0.3384712400000000E+00 2 -0.8803673979999999E+01  0.1339210850000000E+01
 2
  0.3025757500000000E+00 1  0.9622486650000001E+01
  0.2915069400000000E+00 0
         # Potential name:  GTH-PBE-Q4  for symbol:  C
         # Potential read from the potential filename: GTH_POTENTIALS
       &END POTENTIAL
     &END KIND
     &KIND O
       BASIS_SET DZVP-MOLOPT-SR-GTH-q6
       POTENTIAL GTH-PBE-q6
       &POTENTIAL
 2 4
  0.2445543000000000E+00 2 -0.1666721480000000E+02  0.2487311320000000E+01
 2
  0.2209559200000000E+00 1  0.1833745811000000E+02
  0.2113324700000000E+00 0
         # Potential name:  GTH-PBE-Q6  for symbol:  O
         # Potential read from the potential filename: GTH_POTENTIALS
       &END POTENTIAL
     &END KIND
     &KIND H
       BASIS_SET DZVP-MOLOPT-SR-GTH-q1
       POTENTIAL GTH-PBE-q1
       &POTENTIAL
 1
  0.2000000000000000E+00 2 -0.4178900440000000E+01  0.7244633100000000E+00
 0
         # Potential name:  GTH-PBE-Q1  for symbol:  H
         # Potential read from the potential filename: GTH_POTENTIALS
       &END POTENTIAL
     &END KIND
     &KIND N
       BASIS_SET DZVP-MOLOPT-SR-GTH-q5
       POTENTIAL GTH-PBE-q5
       &POTENTIAL
 2 3
  0.2837905100000000E+00 2 -0.1241522559000000E+02  0.1868095920000000E+01
 2
  0.2554050000000000E+00 1  0.1363026257000000E+02
  0.2454945300000000E+00 0
         # Potential name:  GTH-PBE-Q5  for symbol:  N
         # Potential read from the potential filename: GTH_POTENTIALS
       &END POTENTIAL
     &END KIND
     &KIND Ga
       BASIS_SET DZVP-MOLOPT-SR-GTH-q13
       POTENTIAL GTH-PBE-q13
       &POTENTIAL
 2 1 10
  0.4900000000000000E+00 0
 3
  0.4167772300000000E+00 3  0.1047568975000000E+02 -0.4921768140000000E+01  0.8707055900000000E+00
  0.7770178090000000E+01 -0.2248152160000000E+01
  0.1784415450000000E+01
  0.5696265200000000E+00 2  0.1777985340000000E+01  0.1958597600000000E+00
 -0.2317443900000000E+00
  0.2381265000000000E+00 1 -0.1624868022000000E+02
         # Potential name:  GTH-PBE-Q13  for symbol:  GA
         # Potential read from the potential filename: GTH_POTENTIALS
       &END POTENTIAL
     &END KIND
     &TOPOLOGY
       COORD_FILE_NAME ../start-first.xyz
       COORD_FILE_FORMAT  XYZ
       NUMBER_OF_ATOMS  156
       MULTIPLE_UNIT_CELL  1 1 1
     &END TOPOLOGY
     &COLVAR
       &DISTANCE
         ATOMS  145 152
       &END DISTANCE
       &PRINT
       &END PRINT
     &END COLVAR
   &END SUBSYS
 &END FORCE_EVAL
