 # Version information for this restart file 
 # current date 2019-05-27 19:32:30.611
 # current working dir /lustre03/project/6004141/rzk/GaN-carbene/334-native/08-2Methanol-Htransfer/01-Constraint/1.36
 # Program compiled at                              Sun Apr  7 00:48:11 EDT 2019
 # Program compiled on                          beluga2.int.ets1.calculquebec.ca
 # Program compiled for                        Beluga-Linux-x86-64-intel-openmpi
 # Source code revision number                                         svn:18619
 &GLOBAL
   PRINT_LEVEL  MEDIUM
   PROJECT_NAME TEST
   RUN_TYPE  GEO_OPT
 &END GLOBAL
 &MOTION
   &GEO_OPT
     MAX_ITER  500
     STEP_START_VAL  148
   &END GEO_OPT
   &CONSTRAINT
     &COLLECTIVE
       COLVAR  1
       INTERMOLECULAR  T
       TARGET     2.5700275407244746E+00
       &RESTRAINT
         K     1.0000000000000001E-01
       &END RESTRAINT
     &END COLLECTIVE
     &COLVAR_RESTART
           2.5700275407244746E+00
     &END COLVAR_RESTART
   &END CONSTRAINT
 &END MOTION
 &FORCE_EVAL
   METHOD  QS
   STRESS_TENSOR  ANALYTICAL
   &DFT
     BASIS_SET_FILE_NAME BASIS_MOLOPT
     POTENTIAL_FILE_NAME GTH_POTENTIALS
     &SCF
       MAX_SCF  100
       EPS_SCF     5.0000000000000004E-06
       &OT  T
         PRECONDITIONER  FULL_ALL
       &END OT
       &OUTER_SCF  T
         OPTIMIZER  NONE
         EPS_SCF     5.0000000000000004E-06
         MAX_SCF  4
       &END OUTER_SCF
       &PRINT
         &RESTART  OFF
           BACKUP_COPIES  1
           &EACH
             JUST_ENERGY  0
             QS_SCF  0
             MD  20
           &END EACH
         &END RESTART
       &END PRINT
     &END SCF
     &QS
       EPS_DEFAULT     1.0000000000000000E-14
       ALMO_SCF  F
       METHOD  GPW
     &END QS
     &MGRID
       NGRIDS  5
       CUTOFF     1.2000000000000000E+03
     &END MGRID
     &XC
       DENSITY_CUTOFF     1.0000000000000000E-10
       GRADIENT_CUTOFF     1.0000000000000000E-10
       TAU_CUTOFF     1.0000000000000000E-10
       &XC_FUNCTIONAL  NO_SHORTCUT
         &PBE  T
         &END PBE
       &END XC_FUNCTIONAL
       &VDW_POTENTIAL
         POTENTIAL_TYPE  PAIR_POTENTIAL
         &PAIR_POTENTIAL
           R_CUTOFF     1.0000000000000005E+01
           TYPE  DFTD3
           PARAMETER_FILE_NAME dftd3.dat
           REFERENCE_FUNCTIONAL PBE
           EPS_CN     9.9999999999999995E-07
           CALCULATE_C9_TERM  T
           REFERENCE_C9_TERM  T
           LONG_RANGE_CORRECTION  F
           VERBOSE_OUTPUT  F
         &END PAIR_POTENTIAL
       &END VDW_POTENTIAL
     &END XC
   &END DFT
   &SUBSYS
     &CELL
       A     9.7367653356401487E+00    0.0000000000000000E+00    0.0000000000000000E+00
       B    -4.8591341382960209E+00    8.4162672083210595E+00    0.0000000000000000E+00
       C     0.0000000000000000E+00    0.0000000000000000E+00    3.0744000000000000E+01
       MULTIPLE_UNIT_CELL  1 1 1
       &CELL_REF
         A     9.5580000000000052E+00    0.0000000000000000E+00    0.0000000000000000E+00
         B    -4.7790000000000026E+00    8.2774708093716640E+00    0.0000000000000000E+00
         C     0.0000000000000000E+00    0.0000000000000000E+00    3.0744000000000000E+01
         MULTIPLE_UNIT_CELL  1 1 1
       &END CELL_REF
     &END CELL
     &COORD
Ga    3.7774090272659148E-02   -3.4789591417111368E-02   -5.4569605670959953E-01
N    3.9609331397551843E-02    1.8391827458737804E+00    6.0974343807623999E-01
Ga    3.8967750187818687E-02    1.8075616038201623E+00    2.6388111686592306E+00
N    3.5912809564375398E-02   -3.6115301162208790E-02    3.2712017208027384E+00
Ga    3.6649949351368769E-02   -3.4600069288341306E-02    5.2601424791457960E+00
N    3.9498439222671634E-02    1.8398009444446783E+00    5.8490449123115917E+00
Ga    3.9288377286921125E-02    1.8377317297434788E+00    7.8459265270221366E+00
N    3.5545738226070399E-02   -3.4086638452589489E-02    8.4525088690216457E+00
Ga    4.0630246296355345E-02   -3.0148426600717960E-02    1.0449014793665773E+01
N    4.0916967564761451E-02    1.8381603696969093E+00    1.1062563425030225E+01
Ga    4.2295758653767501E-02    1.8372631728672770E+00    1.3069539695746387E+01
N    2.6960275738552000E-02   -3.3866413972096256E-02    1.3672383864489866E+01
Ga    2.9511712111535287E-02   -1.8249246728448812E-02    1.5699658266496265E+01
N    6.1875018791008436E-02    1.8399690294468483E+00    1.6285294714412078E+01
Ga    5.8289783578055088E-02    1.8465298649440929E+00    1.8475540104216364E+01
N    3.7730293282217241E-02   -3.2861611250077173E-02    1.8933358435849804E+01
Ga   -1.5827261075605994E+00    2.7689827105248224E+00    3.2582674370732428E-01
N   -1.5848360809803801E+00    4.6388540055623517E+00    6.0869705760657000E-01
Ga   -1.5566224866396769E+00    4.6550901114404635E+00    2.6379307326984853E+00
N   -1.5839976646710272E+00    2.7697058948904019E+00    3.2319946395828829E+00
Ga   -1.5838628598587543E+00    2.7711793981091959E+00    5.2422449527619230E+00
N   -1.5834368514290751E+00    4.6416530079667790E+00    5.8520279453897919E+00
Ga   -1.5828246954419580E+00    4.6429432723469217E+00    7.8503161764093745E+00
N   -1.5828302318702965E+00    2.7700746568435552E+00    8.4503865101820814E+00
Ga   -1.5781749807819401E+00    2.7677864248310593E+00    1.0442020835248313E+01
N   -1.5806773298679957E+00    4.6422691344619729E+00    1.1040856729774763E+01
Ga   -1.5650000054344433E+00    4.6200994971893650E+00    1.3022395889108301E+01
N   -1.5784031994316741E+00    2.7729236721418133E+00    1.3656168555270259E+01
Ga   -1.5449919731017447E+00    2.7508339767954704E+00    1.5677514362967228E+01
N   -1.5741490657636485E+00    4.6525370033933928E+00    1.6219397523529860E+01
Ga   -1.5987731714970734E+00    4.5955036171250789E+00    1.8234367666484854E+01
N   -1.5922610389803096E+00    2.7918167735487924E+00    1.8756222817476704E+01
Ga   -3.2035533579070110E+00    5.5751872267441618E+00    3.2597486402793452E-01
N   -3.1961302818778039E+00    7.4450483626614385E+00    6.0873589863781086E-01
Ga   -3.2249030349214283E+00    7.4610924095513420E+00    2.6377489020778104E+00
N   -3.2034401286154028E+00    5.5752692097536958E+00    3.2311234098508308E+00
Ga   -3.2028523285636346E+00    5.5767539082824511E+00    5.2408876402337405E+00
N   -3.1978730648014349E+00    7.4466792019499657E+00    5.8513357057432280E+00
Ga   -3.1994204157977344E+00    7.4479566268266018E+00    7.8494225413262093E+00
N   -3.2056017630914666E+00    5.5770675566472443E+00    8.4571292371652547E+00
Ga   -3.2038928401927267E+00    5.5844714809193965E+00    1.0451103526112128E+01
N   -3.2011647891015582E+00    7.4517268315945149E+00    1.1064755621497731E+01
Ga   -3.1882959379720210E+00    7.4925245004700267E+00    1.3068824177497504E+01
N   -3.2046341888105121E+00    5.5699211415280061E+00    1.3620821078304788E+01
Ga   -2.9875019457201351E+00    5.7128887774290575E+00    1.5531991288910101E+01
N   -3.2924491189752123E+00    7.3821049866521076E+00    1.6299599447133467E+01
Ga   -3.2656228194553991E+00    7.4470988085942444E+00    1.8437171387093727E+01
N   -3.0785970548511079E+00    5.5830949563041887E+00    1.8976689935263988E+01
Ga    3.2824505850383452E+00   -3.6141686865952642E-02    3.2520215248211654E-01
N    3.2805042384710603E+00    1.8334604338817113E+00    6.0858572000496702E-01
Ga    3.3085415095645061E+00    1.8496467231265576E+00    2.6375890659300683E+00
N    3.2814237045468149E+00   -3.5558335063062725E-02    3.2313260782013296E+00
Ga    3.2815109862407836E+00   -3.3890201457576194E-02    5.2411107946047339E+00
N    3.2824014761917133E+00    1.8358004566352928E+00    5.8515884435590122E+00
Ga    3.2826900338654150E+00    1.8354157959766586E+00    7.8497264928335593E+00
N    3.2809191895985084E+00   -3.4371818503832641E-02    8.4582558005767421E+00
Ga    3.2825097643353374E+00   -3.3129516449237117E-02    1.0457234763608426E+01
N    3.2806882081989248E+00    1.8371705844388617E+00    1.1066994115951282E+01
Ga    3.2556504729668974E+00    1.8051894153136432E+00    1.3073964394687959E+01
N    3.2674835846739940E+00   -2.8449609588804745E-02    1.3747936895834863E+01
Ga    3.2479657996413871E+00   -2.0036814001956105E-02    1.6020115122826788E+01
N    3.2915896355733634E+00    1.9431021862781399E+00    1.6270490072793887E+01
Ga    3.2590610979577690E+00    1.9034960972500408E+00    1.8378475407803474E+01
N    3.2437399594088148E+00   -6.9621791183438961E-03    1.8295333219175451E+01
Ga    1.6618304148082055E+00    2.7694915297775728E+00    3.2597092950252371E-01
N    1.6689565919810083E+00    4.6393886969880329E+00    6.0897339892519287E-01
Ga    1.6402845988656973E+00    4.6552369509972049E+00    2.6380817757260409E+00
N    1.6621714829313403E+00    2.7697543617470588E+00    3.2312838148042342E+00
Ga    1.6627961209761406E+00    2.7709179781721889E+00    5.2409688277770128E+00
N    1.6667906843375810E+00    4.6411848796595923E+00    5.8502710576981798E+00
Ga    1.6637372188787338E+00    4.6416793646495123E+00    7.8475857846738180E+00
N    1.6612693845857958E+00    2.7707015757988835E+00    8.4533941408576858E+00
Ga    1.6624522689248391E+00    2.7657659853063410E+00    1.0447558984893668E+01
N    1.6670349970398068E+00    4.6449440075333905E+00    1.1039701696553760E+01
Ga    1.6500419369227051E+00    4.6270442456363030E+00    1.3017311631646514E+01
N    1.6585752032765233E+00    2.7886832334990350E+00    1.3670862607102643E+01
Ga    1.6486857617931916E+00    2.7827825160763395E+00    1.5688686720161281E+01
N    1.6550111627412203E+00    4.6746700646797468E+00    1.6344963611960129E+01
Ga    1.5481153281858941E+00    4.5665083474060690E+00    1.8389720942131316E+01
N    1.6897232919214640E+00    2.8058299069124102E+00    1.8954537056065750E+01
Ga    4.2921865881291453E-02    5.5751130549663799E+00   -5.4558096731936823E-01
N    4.5550832438974259E-02    7.4499416841550241E+00    6.0876530500302561E-01
Ga    4.4663441440328064E-02    7.4185003438435979E+00    2.6380623293548360E+00
N    4.1910009823585948E-02    5.5750384406791440E+00    3.2714749962253071E+00
Ga    4.1882862881212665E-02    5.5766945196646276E+00    5.2607404364510693E+00
N    4.4834938366635831E-02    7.4514076512496370E+00    5.8501508407119616E+00
Ga    4.3434143572045440E-02    7.4511986962516765E+00    7.8478936126229746E+00
N    4.1788673147828304E-02    5.5790604879248615E+00    8.4524868732552125E+00
Ga    4.1165491503199980E-02    5.5893748971545065E+00    1.0448742523122007E+01
N    3.9939694290734337E-02    7.4522140878193106E+00    1.1076251829993366E+01
Ga    1.3253442041135205E-02    7.4721518452643085E+00    1.3095788712998850E+01
N    4.5798810259219662E-02    5.5680510821847324E+00    1.3638073637118319E+01
Ga    4.7601940138180886E-02    5.5890471749901600E+00    1.5626505279077266E+01
N    8.3504880840007720E-02    7.4176215957257874E+00    1.6210077254268768E+01
Ga    5.9119489172089618E-02    7.5228933991163434E+00    1.8240010791369194E+01
N   -1.6789246896210513E-02    5.6156196388282700E+00    1.8807107999622136E+01
Ga    6.5270955615200048E+00   -3.5750709645051428E-02    3.2559275661951148E-01
N    6.5341276545163707E+00    1.8342205892329646E+00    6.0834200578463982E-01
Ga    6.5054819176726335E+00    1.8500156079097199E+00    2.6376051782605709E+00
N    6.5271153812247089E+00   -3.5527336963858125E-02    3.2308647991052108E+00
Ga    6.5270216549309286E+00   -3.3771085217521347E-02    5.2407113320189582E+00
N    6.5320220518300625E+00    1.8357032628393877E+00    5.8525769248591422E+00
Ga    6.5296684834984564E+00    1.8351807445971287E+00    7.8512235050743868E+00
N    6.5251769500705770E+00   -3.5689778423979489E-02    8.4579839561070962E+00
Ga    6.5185771210981400E+00   -3.6975050808375653E-02    1.0454877174325995E+01
N    6.5326586104322892E+00    1.8392154042772719E+00    1.1047399585746945E+01
Ga    6.5569308243595277E+00    1.8307686124876432E+00    1.3035296312166169E+01
N    6.5347902621172649E+00   -3.4796283012575903E-02    1.3653370368359310E+01
Ga    6.5322891257682958E+00   -3.5878031022760548E-02    1.5668659231069274E+01
N    6.5416803265078967E+00    1.8432085429989225E+00    1.6207977467348336E+01
Ga    6.5941521586812790E+00    1.8087839906674810E+00    1.8280364421521647E+01
N    6.4764684457933974E+00   -1.2944505783578342E-03    1.8795761807621869E+01
Ga    4.9073354395665998E+00    2.7693679860823832E+00   -5.4604089382349108E-01
N    4.9110149387075790E+00    4.6442732231204031E+00    6.0893681485451978E-01
Ga    4.9101349495207005E+00    4.6127153095174247E+00    2.6382311710553878E+00
N    4.9072751421650596E+00    2.7692567772759555E+00    3.2713227051368858E+00
Ga    4.9075847106706894E+00    2.7702741084436826E+00    5.2603273772303796E+00
N    4.9108458406490660E+00    4.6449006365146568E+00    5.8498303790406814E+00
Ga    4.9108805127937485E+00    4.6430132078272299E+00    7.8464274747583769E+00
N    4.9058445182296007E+00    2.7717581562915288E+00    8.4568434750717607E+00
Ga    4.9020797185190217E+00    2.7673545030728905E+00    1.0453790261339428E+01
N    4.9052209470851293E+00    4.6468095828513940E+00    1.1056974947341574E+01
Ga    4.9033220220417428E+00    4.6432756300295628E+00    1.3033690619320454E+01
N    4.9107881815268550E+00    2.7744425777971604E+00    1.3618746433376996E+01
Ga    4.9138650235243739E+00    2.5301410281932490E+00    1.5538697455537998E+01
N    4.8644982323728847E+00    4.6113501583632495E+00    1.6400913744633137E+01
Ga    5.6277667268305009E+00    4.2444435339663107E+00    1.9657809920822341E+01
N    4.9752526456644066E+00    2.7482674450232536E+00    1.8802537420663629E+01
Ga    3.2886695781718522E+00    5.5744606981385338E+00    3.2579655328181062E-01
N    3.2868999277698396E+00    7.4444426214805679E+00    6.0820566237167017E-01
Ga    3.3148862608400069E+00    7.4606703524763045E+00    2.6375676006263076E+00
N    3.2877188055297935E+00    5.5752229335396120E+00    3.2314374025806316E+00
Ga    3.2878055917500748E+00    5.5765563589787961E+00    5.2414400969134558E+00
N    3.2880915017987360E+00    7.4474175537563472E+00    5.8503075812731851E+00
Ga    3.2877680516558812E+00    7.4497235446954324E+00    7.8477040733632357E+00
N    3.2878983247593081E+00    5.5767710170765188E+00    8.4477234078032879E+00
Ga    3.2871018794374902E+00    5.5798374664563326E+00    1.0434463610481707E+01
N    3.2919724626125739E+00    7.4469444904198925E+00    1.1047425653354104E+01
Ga    3.2964870275669571E+00    7.4740521736852035E+00    1.3030664104369057E+01
N    3.2789806203058114E+00    5.5785034649508454E+00    1.3660770272877444E+01
Ga    3.0383685090243282E+00    5.7392970084991521E+00    1.5577147085564162E+01
N    3.2892837872643534E+00    7.4530739460063131E+00    1.6323286415311340E+01
Ga    3.2792230613719253E+00    7.6810816260555530E+00    1.8423990960755862E+01
N    4.6666208952298209E+00    4.6885120119898263E+00    1.7562737347606944E+01
O    2.7775306177725341E+00    5.8292715622893096E+00    1.9639581795161668E+01
H   -1.2401397360238443E-01    5.6162296336989570E+00    1.9826228596028454E+01
C    2.0635894052662125E+00    6.3146240715171951E+00    2.0831887806577697E+01
H    1.4270612164711916E+00    7.1657402238958712E+00    2.0567426776113237E+01
H    1.4938862619065751E+00    5.4890778084260825E+00    2.1280824948952507E+01
H    2.8161253888964466E+00    6.6657134866663599E+00    2.1550893115766616E+01
O    4.3956954767617074E+00    4.6938642032418576E+00    2.1108413725194108E+01
H    3.6855222739533882E+00    5.1905233072995731E+00    2.0421649991948929E+01
C    3.7019274696241333E+00    3.5777081991518682E+00    2.1757495139451084E+01
H    2.8907252787182705E+00    3.2010937734824561E+00    2.1113892182554572E+01
H    4.4212380652423136E+00    2.7722489477069217E+00    2.1945197833189990E+01
H    3.3031311838125750E+00    3.9486350801636605E+00    2.2709143183902142E+01
     &END COORD
     &KIND C
       BASIS_SET DZVP-MOLOPT-SR-GTH-q4
       POTENTIAL GTH-PBE-q4
       &POTENTIAL
 2 2
  0.3384712400000000E+00 2 -0.8803673979999999E+01  0.1339210850000000E+01
 2
  0.3025757500000000E+00 1  0.9622486650000001E+01
  0.2915069400000000E+00 0
         # Potential name:  GTH-PBE-Q4  for symbol:  C
         # Potential read from the potential filename: GTH_POTENTIALS
       &END POTENTIAL
     &END KIND
     &KIND O
       BASIS_SET DZVP-MOLOPT-SR-GTH-q6
       POTENTIAL GTH-PBE-q6
       &POTENTIAL
 2 4
  0.2445543000000000E+00 2 -0.1666721480000000E+02  0.2487311320000000E+01
 2
  0.2209559200000000E+00 1  0.1833745811000000E+02
  0.2113324700000000E+00 0
         # Potential name:  GTH-PBE-Q6  for symbol:  O
         # Potential read from the potential filename: GTH_POTENTIALS
       &END POTENTIAL
     &END KIND
     &KIND H
       BASIS_SET DZVP-MOLOPT-SR-GTH-q1
       POTENTIAL GTH-PBE-q1
       &POTENTIAL
 1
  0.2000000000000000E+00 2 -0.4178900440000000E+01  0.7244633100000000E+00
 0
         # Potential name:  GTH-PBE-Q1  for symbol:  H
         # Potential read from the potential filename: GTH_POTENTIALS
       &END POTENTIAL
     &END KIND
     &KIND N
       BASIS_SET DZVP-MOLOPT-SR-GTH-q5
       POTENTIAL GTH-PBE-q5
       &POTENTIAL
 2 3
  0.2837905100000000E+00 2 -0.1241522559000000E+02  0.1868095920000000E+01
 2
  0.2554050000000000E+00 1  0.1363026257000000E+02
  0.2454945300000000E+00 0
         # Potential name:  GTH-PBE-Q5  for symbol:  N
         # Potential read from the potential filename: GTH_POTENTIALS
       &END POTENTIAL
     &END KIND
     &KIND Ga
       BASIS_SET DZVP-MOLOPT-SR-GTH-q13
       POTENTIAL GTH-PBE-q13
       &POTENTIAL
 2 1 10
  0.4900000000000000E+00 0
 3
  0.4167772300000000E+00 3  0.1047568975000000E+02 -0.4921768140000000E+01  0.8707055900000000E+00
  0.7770178090000000E+01 -0.2248152160000000E+01
  0.1784415450000000E+01
  0.5696265200000000E+00 2  0.1777985340000000E+01  0.1958597600000000E+00
 -0.2317443900000000E+00
  0.2381265000000000E+00 1 -0.1624868022000000E+02
         # Potential name:  GTH-PBE-Q13  for symbol:  GA
         # Potential read from the potential filename: GTH_POTENTIALS
       &END POTENTIAL
     &END KIND
     &TOPOLOGY
       COORD_FILE_NAME ../start-first.xyz
       COORD_FILE_FORMAT  XYZ
       NUMBER_OF_ATOMS  156
       MULTIPLE_UNIT_CELL  1 1 1
     &END TOPOLOGY
     &COLVAR
       &DISTANCE
         ATOMS  145 152
       &END DISTANCE
       &PRINT
       &END PRINT
     &END COLVAR
   &END SUBSYS
 &END FORCE_EVAL
