 # Version information for this restart file 
 # current date 2019-05-23 13:36:22.969
 # current working dir /lustre03/project/6004141/rzk/GaN-carbene/03-Carbene/02-NC
 # Program compiled at                              Sun Apr  7 00:48:11 EDT 2019
 # Program compiled on                          beluga2.int.ets1.calculquebec.ca
 # Program compiled for                        Beluga-Linux-x86-64-intel-openmpi
 # Source code revision number                                         svn:18619
 &GLOBAL
   PRINT_LEVEL  MEDIUM
   PROJECT_NAME TEST
   RUN_TYPE  GEO_OPT
 &END GLOBAL
 &MOTION
   &GEO_OPT
     MAX_ITER  500
     STEP_START_VAL  21
   &END GEO_OPT
 &END MOTION
 &FORCE_EVAL
   METHOD  QS
   STRESS_TENSOR  ANALYTICAL
   &DFT
     BASIS_SET_FILE_NAME BASIS_MOLOPT
     POTENTIAL_FILE_NAME GTH_POTENTIALS
     &SCF
       MAX_SCF  100
       EPS_SCF     5.0000000000000004E-06
       &OT  T
         PRECONDITIONER  FULL_ALL
       &END OT
       &OUTER_SCF  T
         OPTIMIZER  NONE
         EPS_SCF     5.0000000000000004E-06
         MAX_SCF  10
       &END OUTER_SCF
       &PRINT
         &RESTART  OFF
           BACKUP_COPIES  1
           &EACH
             JUST_ENERGY  0
             QS_SCF  0
             MD  20
           &END EACH
         &END RESTART
       &END PRINT
     &END SCF
     &QS
       EPS_DEFAULT     1.0000000000000000E-14
       ALMO_SCF  F
       METHOD  GPW
     &END QS
     &MGRID
       NGRIDS  5
       CUTOFF     1.2000000000000000E+03
     &END MGRID
     &XC
       DENSITY_CUTOFF     1.0000000000000000E-10
       GRADIENT_CUTOFF     1.0000000000000000E-10
       TAU_CUTOFF     1.0000000000000000E-10
       &XC_FUNCTIONAL  NO_SHORTCUT
         &PBE  T
         &END PBE
       &END XC_FUNCTIONAL
       &VDW_POTENTIAL
         POTENTIAL_TYPE  PAIR_POTENTIAL
         &PAIR_POTENTIAL
           R_CUTOFF     1.0000000000000005E+01
           TYPE  DFTD3
           PARAMETER_FILE_NAME dftd3.dat
           REFERENCE_FUNCTIONAL PBE
           EPS_CN     9.9999999999999995E-07
           CALCULATE_C9_TERM  T
           REFERENCE_C9_TERM  T
           LONG_RANGE_CORRECTION  F
           VERBOSE_OUTPUT  F
         &END PAIR_POTENTIAL
       &END VDW_POTENTIAL
     &END XC
   &END DFT
   &SUBSYS
     &CELL
       A     9.7367653356401487E+00    0.0000000000000000E+00    0.0000000000000000E+00
       B    -4.8591341382960209E+00    8.4162672083210595E+00    0.0000000000000000E+00
       C     0.0000000000000000E+00    0.0000000000000000E+00    3.0744000000000000E+01
       MULTIPLE_UNIT_CELL  1 1 1
       &CELL_REF
         A     9.5580000000000052E+00    0.0000000000000000E+00    0.0000000000000000E+00
         B    -4.7790000000000026E+00    8.2774708093716640E+00    0.0000000000000000E+00
         C     0.0000000000000000E+00    0.0000000000000000E+00    3.0744000000000000E+01
         MULTIPLE_UNIT_CELL  1 1 1
       &END CELL_REF
     &END CELL
     &COORD
Ga    5.8048240103340538E-04   -2.2960519176927047E-03   -5.8937480004164711E-01
N    3.2701274950094322E-03    1.8709552344919569E+00    5.6028923533684638E-01
Ga    2.7880123500994623E-03    1.8405049355385781E+00    2.5910794520174010E+00
N   -1.3759164332310586E-04   -2.7596718468083886E-03    3.2236117656231387E+00
Ga    1.4838660258851066E-04   -1.5697477248980938E-03    5.2138313226241220E+00
N    3.0228240163162794E-03    1.8729415529939824E+00    5.8021991367962009E+00
Ga    2.1031377821195494E-03    1.8713131283816213E+00    7.8015136345942322E+00
N   -6.0482928603921909E-04   -2.5489423849121614E-03    8.4039677543474856E+00
Ga   -1.9627848763499670E-03   -4.2877467876051411E-03    1.0402048087705912E+01
N    1.0224531337647798E-03    1.8707345887830518E+00    1.0997730297914323E+01
Ga   -1.4975754403243528E-03    1.8719073097750776E+00    1.2986954762943395E+01
N   -2.9501670959924493E-03   -3.4303616214270364E-03    1.3579069690705740E+01
Ga    1.3985383867204394E-02   -1.4682996289833827E-02    1.5561264886837458E+01
N    1.1303746602080564E-02    1.8794297255976375E+00    1.6142144040820217E+01
Ga   -2.6536404402817054E-01    1.7107912636239828E+00    1.8065758795336144E+01
N    1.2229425792728787E-02   -7.5386692734341560E-03    1.8711248771205906E+01
Ga   -1.6186036831074246E+00    2.8025268159320169E+00    2.7591651730354616E-01
N   -1.6215965592918302E+00    4.6720693221800778E+00    5.6037684049944192E-01
Ga   -1.5926254875880439E+00    4.6883524235389356E+00    2.5899118823034413E+00
N   -1.6199375442602417E+00    2.8027835273119073E+00    3.1821095050870909E+00
Ga   -1.6192717334041999E+00    2.8037857402034985E+00    5.1927989445329494E+00
N   -1.6191685332301338E+00    4.6743022584799130E+00    5.8010825858134183E+00
Ga   -1.6184228348930649E+00    4.6749187866152395E+00    7.7997271947653424E+00
N   -1.6207983889971298E+00    2.8044665140424856E+00    8.4057293189139077E+00
Ga   -1.6228823622699533E+00    2.8058774049148858E+00    1.0401540127539661E+01
N   -1.6162461438657778E+00    4.6788940045220162E+00    1.1005355542166587E+01
Ga   -1.6139803941724093E+00    4.6866262120860096E+00    1.2998568245611080E+01
N   -1.6209131417348559E+00    2.8130119387154715E+00    1.3595854760030818E+01
Ga   -1.6277770014220829E+00    2.8326641340172598E+00    1.5585041899823329E+01
N   -1.6087483396531244E+00    4.6875724190786014E+00    1.6231481458561749E+01
Ga   -1.5788716499644468E+00    4.6682642641468872E+00    1.8331820197356006E+01
N   -1.6121290672510487E+00    2.7973728733805645E+00    1.8747246696053981E+01
Ga   -3.2395862208054909E+00    5.6089876124293925E+00    2.7576514100036814E-01
N   -3.2339240998277048E+00    7.4791510179432876E+00    5.5991180515730132E-01
Ga   -3.2612180732982927E+00    7.4940678319583141E+00    2.5906601195486827E+00
N   -3.2395092380667991E+00    5.6082645698683988E+00    3.1816797372712831E+00
Ga   -3.2391268055042302E+00    5.6097697465786647E+00    5.1921564419468584E+00
N   -3.2337942378344837E+00    7.4795264096249827E+00    5.8017229703089024E+00
Ga   -3.2353526666542827E+00    7.4794451148445953E+00    7.8007669215424364E+00
N   -3.2400604228420549E+00    5.6084557170612328E+00    8.4055505347639663E+00
Ga   -3.2409086321872822E+00    5.6088231304046321E+00    1.0401197358149597E+01
N   -3.2357627323192633E+00    7.4796136907519370E+00    1.1004904043085409E+01
Ga   -3.2305876909154003E+00    7.4762977192142266E+00    1.2998838393455971E+01
N   -3.2385905833349762E+00    5.6076092412871485E+00    1.3620149073597174E+01
Ga   -3.2352992519305666E+00    5.6173353687749907E+00    1.5630754682688231E+01
N   -3.2435987506588733E+00    7.4892462066730561E+00    1.6190986360576012E+01
Ga   -3.2252444643527998E+00    7.4717243404904696E+00    1.8260527133012133E+01
N   -3.2179478937932586E+00    5.6006751566770392E+00    1.8662960295018252E+01
Ga    3.2458595782208230E+00   -3.2244687348424264E-03    2.7591364118546191E-01
N    3.2445966934568351E+00    1.8670737707843625E+00    5.5885428876575671E-01
Ga    3.2724896524221343E+00    1.8827651844916369E+00    2.5897908342693436E+00
N    3.2456133518837311E+00   -2.4441904096440831E-03    3.1820405348968155E+00
Ga    3.2457652299578870E+00   -1.2366844441298824E-03    5.1927476324494721E+00
N    3.2463758549681359E+00    1.8688147703668134E+00    5.8011846636260493E+00
Ga    3.2468496092545904E+00    1.8688673963739320E+00    7.7999138710362983E+00
N    3.2455562825306306E+00   -1.9420875966755487E-03    8.4048005546678137E+00
Ga    3.2463998931001186E+00   -1.8596107768642299E-03    1.0400822330681951E+01
N    3.2492980259803228E+00    1.8711269473160763E+00    1.1001903742339509E+01
Ga    3.2531380064369584E+00    1.8688316634030240E+00    1.2995031511779835E+01
N    3.2421504319469072E+00    3.6663969844987145E-03    1.3610361900233185E+01
Ga    3.2360354270189444E+00    5.9789987967378841E-03    1.5614257254249992E+01
N    3.2251580853481028E+00    1.8819577548702122E+00    1.6216452098701645E+01
Ga    3.3363693411129156E+00    1.7937119944035240E+00    1.8217261894132413E+01
N    3.2447313032652021E+00   -3.0405454962974983E-02    1.8696350535290627E+01
Ga    1.6250996672307136E+00    2.8030534017177726E+00    2.7632263393634199E-01
N    1.6333593618432800E+00    4.6726608183352880E+00    5.6086649123786214E-01
Ga    1.6043711390885487E+00    4.6884931648705184E+00    2.5903780111394688E+00
N    1.6260581578283517E+00    2.8027275853600289E+00    3.1822559470756340E+00
Ga    1.6261897702321340E+00    2.8037222238603108E+00    5.1929801500759529E+00
N    1.6317900737334030E+00    4.6742298555048460E+00    5.8010216888608710E+00
Ga    1.6301257591551062E+00    4.6746081394862236E+00    7.7998376315821272E+00
N    1.6257003784849438E+00    2.8038109940826907E+00    8.4038463601703004E+00
Ga    1.6259456028790997E+00    2.8048562343001371E+00    1.0398932496079016E+01
N    1.6273208979277829E+00    4.6764547866038679E+00    1.1002609311886175E+01
Ga    1.6263209584012031E+00    4.6795017219728736E+00    1.2996108689274719E+01
N    1.6247027271806764E+00    2.8019866608909125E+00    1.3586223005843353E+01
Ga    1.6292222625458095E+00    2.8071047175335520E+00    1.5564714945836531E+01
N    1.6248041988550490E+00    4.6498368998635131E+00    1.6199402543353187E+01
Ga    1.6305907612267747E+00    4.7847179334623133E+00    1.8198015289135142E+01
N    1.8375469728984892E+00    2.9200235298996278E+00    1.9014181830613005E+01
Ga    6.7029663240757873E-03    5.6086876266507728E+00   -5.9382161702371183E-01
N    9.4936027718157193E-03    7.4841034097232253E+00    5.6044367879743751E-01
Ga    8.9849209464948569E-03    7.4515359861823978E+00    2.5899636012404756E+00
N    6.0435123045755835E-03    5.6081789554130195E+00    3.2231538154622981E+00
Ga    6.6663375172866498E-03    5.6096377056727080E+00    5.2130185238764319E+00
N    9.6764776575146497E-03    7.4844212870732703E+00    5.8010476663100015E+00
Ga    9.3608038677924048E-03    7.4828596282207576E+00    7.7998537051187764E+00
N    6.1107978189448063E-03    5.6098090550247601E+00    8.4014402959364052E+00
Ga    6.2827153560097394E-03    5.6127658726090699E+00    1.0398563716335104E+01
N    7.4423880438193027E-03    7.4814866860375204E+00    1.1010378492247566E+01
Ga    8.1457026128278400E-03    7.4829021927418227E+00    1.3010731334114977E+01
N    8.7753697214086289E-03    5.6109430343514930E+00    1.3614506571111251E+01
Ga    9.7354415948131458E-03    5.6187315598914660E+00    1.5622425736183512E+01
N    1.5196370985266563E-03    7.4943718471836540E+00    1.6196695414622461E+01
Ga    4.5623307903156331E-03    7.4572604025905491E+00    1.8284627315814536E+01
N    2.1424615334451107E-02    5.6032648410404375E+00    1.8745332720081890E+01
Ga    6.4912903376630249E+00   -2.7194909482294062E-03    2.7559195616949567E-01
N    6.4977331236040383E+00    1.8677060929863711E+00    5.5848160293347149E-01
Ga    6.4697459659733942E+00    1.8830136606483492E+00    2.5894100259803907E+00
N    6.4912663739520422E+00   -2.3354283684474371E-03    3.1816670837898613E+00
Ga    6.4919951984970687E+00   -1.2448592357067766E-03    5.1921869070785256E+00
N    6.4969730643667418E+00    1.8685310361230989E+00    5.8014165421734223E+00
Ga    6.4952891560782708E+00    1.8685799117459403E+00    7.8001463771515764E+00
N    6.4907984143140300E+00   -1.3249278417103213E-03    8.4084499111597601E+00
Ga    6.4897653412214291E+00   -9.4477791928419428E-04    1.0406287086359251E+01
N    6.4920316340510444E+00    1.8721638305122057E+00    1.1010771058440854E+01
Ga    6.4879922096079969E+00    1.8700888803642728E+00    1.3009210778487166E+01
N    6.4891590119478026E+00   -8.4527298557055948E-05    1.3607857776358905E+01
Ga    6.4907392088171703E+00    3.2205852035310754E-03    1.5619650361091725E+01
N    6.5137498408540369E+00    1.8864464647977395E+00    1.6190534196299904E+01
Ga    6.5094497749120759E+00    1.8865643890948374E+00    1.8271632888534000E+01
N    6.5078330178174033E+00   -1.3783871761862309E-02    1.8530839834627653E+01
Ga    4.8717010185915131E+00    2.8033260360581505E+00   -5.8289570462807239E-01
N    4.8747867359123287E+00    4.6776081876723987E+00    5.5885278654168080E-01
Ga    4.8743299615131139E+00    4.6462748687868789E+00    2.5897330916664116E+00
N    4.8714251994292468E+00    2.8026297442174650E+00    3.2218580996629331E+00
Ga    4.8719703103603678E+00    2.8038571559897330E+00    5.2121306244641064E+00
N    4.8748582597484686E+00    4.6785409238518447E+00    5.8004100486765138E+00
Ga    4.8742409705100016E+00    4.6767470517003300E+00    7.7986876939524370E+00
N    4.8715992000007287E+00    2.8040398626152774E+00    8.4017806594275939E+00
Ga    4.8722695220105789E+00    2.8051805279633157E+00    1.0398839234520793E+01
N    4.8754524028086763E+00    4.6741789764073749E+00    1.1013889581395865E+01
Ga    4.8775642048880563E+00    4.6700522322337319E+00    1.3013108339830373E+01
N    4.8659366536379896E+00    2.7987852175182346E+00    1.3632052446123872E+01
Ga    4.8629754332048218E+00    2.8005200871733460E+00    1.5641842197482994E+01
N    4.8965454042094976E+00    4.6833794748984214E+00    1.6212000874522339E+01
Ga    4.9058213207686308E+00    4.6735441744400532E+00    1.8293390936367331E+01
N    4.8798873605567437E+00    2.7948972594810648E+00    1.8614057085519978E+01
Ga    3.2522332588643552E+00    5.6084186661143480E+00    2.7595493921548542E-01
N    3.2519395391025552E+00    7.4785690055850589E+00    5.5965346453443232E-01
Ga    3.2790842913679317E+00    7.4938502567229293E+00    2.5904924032525409E+00
N    3.2520422437398206E+00    5.6082634216385641E+00    3.1819649141305550E+00
Ga    3.2524123554516668E+00    5.6097857080567097E+00    5.1925676286071187E+00
N    3.2520922253993949E+00    7.4795953940804658E+00    5.8024168026312042E+00
Ga    3.2521713865849966E+00    7.4793191397464662E+00    7.8017935330584942E+00
N    3.2523303197322830E+00    5.6080740431442724E+00    8.4060382045856556E+00
Ga    3.2531568346696553E+00    5.6077118467120881E+00    1.0402552170228740E+01
N    3.2524106243988391E+00    7.4777411147699864E+00    1.1007527226133872E+01
Ga    3.2446051795267277E+00    7.4738030416885550E+00    1.3004434966482634E+01
N    3.2505818090347800E+00    5.5981544890000903E+00    1.3614023260661019E+01
Ga    3.2563020901151574E+00    5.5915426110118815E+00    1.5619037484043014E+01
N    3.2690924144613329E+00    7.4764128269307193E+00    1.6149511316667589E+01
Ga    3.2907208146239841E+00    7.4670996886754430E+00    1.8214936334621363E+01
N    3.2737415983322462E+00    5.6092563858859581E+00    1.8605528581920694E+01
C    1.4749958630169910E+00    2.7224914912084981E+00    2.0231991114304442E+01
H    1.7740232763651289E+00    1.8124702280111524E+00    2.0771534841491100E+01
H    8.3326987408129927E-01    3.4436744417578971E+00    2.0758054207129486E+01
     &END COORD
     &KIND C
       BASIS_SET DZVP-MOLOPT-SR-GTH-q4
       POTENTIAL GTH-PBE-q4
       &POTENTIAL
 2 2
  0.3384712400000000E+00 2 -0.8803673979999999E+01  0.1339210850000000E+01
 2
  0.3025757500000000E+00 1  0.9622486650000001E+01
  0.2915069400000000E+00 0
         # Potential name:  GTH-PBE-Q4  for symbol:  C
         # Potential read from the potential filename: GTH_POTENTIALS
       &END POTENTIAL
     &END KIND
     &KIND H
       BASIS_SET DZVP-MOLOPT-SR-GTH-q1
       POTENTIAL GTH-PBE-q1
       &POTENTIAL
 1
  0.2000000000000000E+00 2 -0.4178900440000000E+01  0.7244633100000000E+00
 0
         # Potential name:  GTH-PBE-Q1  for symbol:  H
         # Potential read from the potential filename: GTH_POTENTIALS
       &END POTENTIAL
     &END KIND
     &KIND N
       BASIS_SET DZVP-MOLOPT-SR-GTH-q5
       POTENTIAL GTH-PBE-q5
       &POTENTIAL
 2 3
  0.2837905100000000E+00 2 -0.1241522559000000E+02  0.1868095920000000E+01
 2
  0.2554050000000000E+00 1  0.1363026257000000E+02
  0.2454945300000000E+00 0
         # Potential name:  GTH-PBE-Q5  for symbol:  N
         # Potential read from the potential filename: GTH_POTENTIALS
       &END POTENTIAL
     &END KIND
     &KIND Ga
       BASIS_SET DZVP-MOLOPT-SR-GTH-q13
       POTENTIAL GTH-PBE-q13
       &POTENTIAL
 2 1 10
  0.4900000000000000E+00 0
 3
  0.4167772300000000E+00 3  0.1047568975000000E+02 -0.4921768140000000E+01  0.8707055900000000E+00
  0.7770178090000000E+01 -0.2248152160000000E+01
  0.1784415450000000E+01
  0.5696265200000000E+00 2  0.1777985340000000E+01  0.1958597600000000E+00
 -0.2317443900000000E+00
  0.2381265000000000E+00 1 -0.1624868022000000E+02
         # Potential name:  GTH-PBE-Q13  for symbol:  GA
         # Potential read from the potential filename: GTH_POTENTIALS
       &END POTENTIAL
     &END KIND
     &TOPOLOGY
       NUMBER_OF_ATOMS  147
       MULTIPLE_UNIT_CELL  1 1 1
     &END TOPOLOGY
   &END SUBSYS
 &END FORCE_EVAL
