 # Version information for this restart file 
 # current date 2019-05-23 13:35:26.017
 # current working dir /lustre03/project/6004141/rzk/GaN-carbene/03-Carbene/02-NC
 # Program compiled at                              Sun Apr  7 00:48:11 EDT 2019
 # Program compiled on                          beluga2.int.ets1.calculquebec.ca
 # Program compiled for                        Beluga-Linux-x86-64-intel-openmpi
 # Source code revision number                                         svn:18619
 &GLOBAL
   PRINT_LEVEL  MEDIUM
   PROJECT_NAME TEST
   RUN_TYPE  GEO_OPT
 &END GLOBAL
 &MOTION
   &GEO_OPT
     MAX_ITER  500
     STEP_START_VAL  20
   &END GEO_OPT
 &END MOTION
 &FORCE_EVAL
   METHOD  QS
   STRESS_TENSOR  ANALYTICAL
   &DFT
     BASIS_SET_FILE_NAME BASIS_MOLOPT
     POTENTIAL_FILE_NAME GTH_POTENTIALS
     &SCF
       MAX_SCF  100
       EPS_SCF     5.0000000000000004E-06
       &OT  T
         PRECONDITIONER  FULL_ALL
       &END OT
       &OUTER_SCF  T
         OPTIMIZER  NONE
         EPS_SCF     5.0000000000000004E-06
         MAX_SCF  10
       &END OUTER_SCF
       &PRINT
         &RESTART  OFF
           BACKUP_COPIES  1
           &EACH
             JUST_ENERGY  0
             QS_SCF  0
             MD  20
           &END EACH
         &END RESTART
       &END PRINT
     &END SCF
     &QS
       EPS_DEFAULT     1.0000000000000000E-14
       ALMO_SCF  F
       METHOD  GPW
     &END QS
     &MGRID
       NGRIDS  5
       CUTOFF     1.2000000000000000E+03
     &END MGRID
     &XC
       DENSITY_CUTOFF     1.0000000000000000E-10
       GRADIENT_CUTOFF     1.0000000000000000E-10
       TAU_CUTOFF     1.0000000000000000E-10
       &XC_FUNCTIONAL  NO_SHORTCUT
         &PBE  T
         &END PBE
       &END XC_FUNCTIONAL
       &VDW_POTENTIAL
         POTENTIAL_TYPE  PAIR_POTENTIAL
         &PAIR_POTENTIAL
           R_CUTOFF     1.0000000000000005E+01
           TYPE  DFTD3
           PARAMETER_FILE_NAME dftd3.dat
           REFERENCE_FUNCTIONAL PBE
           EPS_CN     9.9999999999999995E-07
           CALCULATE_C9_TERM  T
           REFERENCE_C9_TERM  T
           LONG_RANGE_CORRECTION  F
           VERBOSE_OUTPUT  F
         &END PAIR_POTENTIAL
       &END VDW_POTENTIAL
     &END XC
   &END DFT
   &SUBSYS
     &CELL
       A     9.7367653356401487E+00    0.0000000000000000E+00    0.0000000000000000E+00
       B    -4.8591341382960209E+00    8.4162672083210595E+00    0.0000000000000000E+00
       C     0.0000000000000000E+00    0.0000000000000000E+00    3.0744000000000000E+01
       MULTIPLE_UNIT_CELL  1 1 1
       &CELL_REF
         A     9.5580000000000052E+00    0.0000000000000000E+00    0.0000000000000000E+00
         B    -4.7790000000000026E+00    8.2774708093716640E+00    0.0000000000000000E+00
         C     0.0000000000000000E+00    0.0000000000000000E+00    3.0744000000000000E+01
         MULTIPLE_UNIT_CELL  1 1 1
       &END CELL_REF
     &END CELL
     &COORD
Ga    5.5558899083392498E-04   -2.4249317487665214E-03   -5.8678391220126880E-01
N    3.2769002459407293E-03    1.8715776513810169E+00    5.6027638520218148E-01
Ga    2.7946654586521562E-03    1.8402815829678021E+00    2.5908814436230427E+00
N   -1.5221902754638709E-04   -2.8496417915731924E-03    3.2235960284402791E+00
Ga    2.0887612041350567E-04   -1.5720796768084646E-03    5.2142213846005729E+00
N    3.0283164153534969E-03    1.8728828340714596E+00    5.8024659002221934E+00
Ga    2.2218490775030796E-03    1.8714163951536407E+00    7.8015202845422333E+00
N   -3.7853707825267666E-04   -2.4272022146676077E-03    8.4036337775674568E+00
Ga   -1.7169115601576505E-03   -4.1331088487357778E-03    1.0401419762438447E+01
N    1.0445188985278738E-03    1.8706518797557696E+00    1.0997470626654804E+01
Ga   -1.5165837483119931E-03    1.8717137651506011E+00    1.2986775580919689E+01
N   -3.0378310903452273E-03   -3.6989360045405202E-03    1.3578900930016724E+01
Ga    1.3980065306782323E-02   -1.4767323152052281E-02    1.5561235643304689E+01
N    1.0904610763216509E-02    1.8795334452588355E+00    1.6140840876790413E+01
Ga   -2.6357725671898197E-01    1.7107722282162277E+00    1.8065983838931675E+01
N    1.1146855416816615E-02   -7.8873566645008154E-03    1.8710820616164170E+01
Ga   -1.6188400691703073E+00    2.8025375182709049E+00    2.7649602326030659E-01
N   -1.6208866813564384E+00    4.6724172921858207E+00    5.6045380409988310E-01
Ga   -1.5927429619935063E+00    4.6882016731697709E+00    2.5908390302673356E+00
N   -1.6197748754215096E+00    2.8024931224909104E+00    3.1824952708610090E+00
Ga   -1.6191229795262250E+00    2.8036558118844161E+00    5.1932304507273637E+00
N   -1.6192553512506138E+00    4.6742222789733505E+00    5.8010659129921347E+00
Ga   -1.6184541428015133E+00    4.6749546723239401E+00    7.7995967286751773E+00
N   -1.6207041030639711E+00    2.8045594962626477E+00    8.4053487204243922E+00
Ga   -1.6226352133244393E+00    2.8060513623896273E+00    1.0400938907475942E+01
N   -1.6158729777447860E+00    4.6787163379604459E+00    1.1005072167646103E+01
Ga   -1.6136967966738591E+00    4.6865578839996900E+00    1.2998588292571808E+01
N   -1.6209786666846675E+00    2.8129000473620271E+00    1.3595895026981838E+01
Ga   -1.6277940294933815E+00    2.8331756555361176E+00    1.5584899239817048E+01
N   -1.6091763780277606E+00    4.6884053402090480E+00    1.6231350271796412E+01
Ga   -1.5793400379396363E+00    4.6683302423920514E+00    1.8331778188647750E+01
N   -1.6122098523113464E+00    2.7971322311915405E+00    1.8744795137383978E+01
Ga   -3.2396494729037402E+00    5.6086454630153320E+00    2.7639016409096140E-01
N   -3.2333737250981662E+00    7.4786994704406897E+00    5.5988996454779172E-01
Ga   -3.2613307426314009E+00    7.4940273053306212E+00    2.5904921395846223E+00
N   -3.2395581253269259E+00    5.6084272651167364E+00    3.1821293264922850E+00
Ga   -3.2390393127364780E+00    5.6099666061461892E+00    5.1925836159036347E+00
N   -3.2336964211844146E+00    7.4795739695520842E+00    5.8020507873053901E+00
Ga   -3.2351795595582602E+00    7.4795133046323947E+00    7.8007668440679572E+00
N   -3.2399826055347427E+00    5.6085949456926398E+00    8.4057448423907282E+00
Ga   -3.2408945061363497E+00    5.6088803185837124E+00    1.0401418450723272E+01
N   -3.2357315984511996E+00    7.4800196332198974E+00    1.1004306155092914E+01
Ga   -3.2306082202171296E+00    7.4764488391066264E+00    1.2998435823497791E+01
N   -3.2386813456033279E+00    5.6071450411623625E+00    1.3619557512484802E+01
Ga   -3.2358036682732405E+00    5.6176926201947763E+00    1.5630830470205256E+01
N   -3.2439463606034318E+00    7.4894988224250465E+00    1.6191902202227656E+01
Ga   -3.2260026310585408E+00    7.4722053379238700E+00    1.8261795693883371E+01
N   -3.2177133259333854E+00    5.6007451631931158E+00    1.8661890228639088E+01
Ga    3.2460170905017245E+00   -3.1613969762533476E-03    2.7643317310374704E-01
N    3.2441907688326634E+00    1.8667617438425865E+00    5.6002554157444462E-01
Ga    3.2724511661682203E+00    1.8826570047885305E+00    2.5907097755202040E+00
N    3.2454004126399605E+00   -2.6854892928871478E-03    3.1824308305638658E+00
Ga    3.2457339170607336E+00   -1.3982317635076562E-03    5.1931159893309040E+00
N    3.2465622061845782E+00    1.8687857296247439E+00    5.8011450062008469E+00
Ga    3.2471314637476620E+00    1.8690743967169801E+00    7.7997191653429070E+00
N    3.2457320797433233E+00   -1.6954239634793253E-03    8.4044830363445051E+00
Ga    3.2463626126970833E+00   -1.6581503253968700E-03    1.0400262998235110E+01
N    3.2495680227291079E+00    1.8711809791787830E+00    1.1001466819890171E+01
Ga    3.2531856364450267E+00    1.8685777623736357E+00    1.2994673465548596E+01
N    3.2422627745914347E+00    3.5380336496142308E-03    1.3609691721875848E+01
Ga    3.2359009312215425E+00    5.4753450577879823E-03    1.5613658335013817E+01
N    3.2250606757395248E+00    1.8814837694081381E+00    1.6216092106156413E+01
Ga    3.3358665887787393E+00    1.7933873736557113E+00    1.8216610025831457E+01
N    3.2438936672325829E+00   -2.9630348541004364E-02    1.8697791417385112E+01
Ga    1.6253378364154540E+00    2.8030504638820029E+00    2.7683624526497780E-01
N    1.6326482491246643E+00    4.6729646005553445E+00    5.6089250627269538E-01
Ga    1.6044547999216612E+00    4.6882864251035539E+00    2.5912698084912535E+00
N    1.6258047053394544E+00    2.8024564767048483E+00    3.1827428384829357E+00
Ga    1.6260668355397268E+00    2.8036377274677129E+00    5.1935232837901983E+00
N    1.6319637107116653E+00    4.6742557546250456E+00    5.8010184050130436E+00
Ga    1.6303668097903274E+00    4.6747968131332378E+00    7.7996981544991977E+00
N    1.6259904528192097E+00    2.8039772370800602E+00    8.4037264753474705E+00
Ga    1.6261143243728626E+00    2.8049851326201991E+00    1.0398611585049265E+01
N    1.6272206904365270E+00    4.6767759507697173E+00    1.1002392602092197E+01
Ga    1.6260663752705578E+00    4.6797222124484330E+00    1.2996011895617574E+01
N    1.6246794032821750E+00    2.8020414730618191E+00    1.3585952353964197E+01
Ga    1.6287167370886435E+00    2.8074851463866812E+00    1.5564917272609307E+01
N    1.6240670986281247E+00    4.6503365190738233E+00    1.6200440989879773E+01
Ga    1.6299582086865496E+00    4.7845679856541823E+00    1.8198685744825966E+01
N    1.8346494690059809E+00    2.9181157109948730E+00    1.9012141188437528E+01
Ga    6.6539824377609517E-03    5.6085908620241405E+00   -5.9011136441085699E-01
N    9.4995612158005165E-03    7.4831940322641657E+00    5.6047139601849649E-01
Ga    9.0184355741471395E-03    7.4515475097222978E+00    2.5908560134182874E+00
N    6.0474658733324785E-03    5.6080595315201798E+00    3.2234230389729004E+00
Ga    6.6906176021603730E-03    5.6095727311323609E+00    5.2134387667584434E+00
N    9.7311641853837262E-03    7.4844145175259884E+00    5.8010339277730836E+00
Ga    9.4424384228960854E-03    7.4829624441069562E+00    7.7996671472889139E+00
N    6.1967559500213029E-03    5.6098633998731309E+00    8.4009637500909129E+00
Ga    6.2516029950945452E-03    5.6128569171416620E+00    1.0397794599113892E+01
N    7.2443103654880776E-03    7.4815847853589084E+00    1.1009708059422517E+01
Ga    7.9287946349864066E-03    7.4830660129664217E+00    1.3009841318533603E+01
N    8.8042012919140253E-03    5.6115640721379574E+00    1.3614951829300578E+01
Ga    9.8969952432022383E-03    5.6192188062394193E+00    1.5623126549774561E+01
N    1.1412191349104283E-03    7.4951380579402258E+00    1.6197447880122141E+01
Ga    3.1376430003479017E-03    7.4581912794174547E+00    1.8285243198805919E+01
N    2.0965528249868158E-02    5.6038291428385518E+00    1.8744957959801848E+01
Ga    6.4911004652974906E+00   -2.6814485197126431E-03    2.7610154830045580E-01
N    6.4981033639183083E+00    1.8673614062449033E+00    5.5959242152596922E-01
Ga    6.4697056093838281E+00    1.8828690699855455E+00    2.5902172218676816E+00
N    6.4915422455111864E+00   -2.5422496441928062E-03    3.1821786932017821E+00
Ga    6.4921913715928410E+00   -1.3735520151047663E-03    5.1927698536169880E+00
N    6.4968922129942062E+00    1.8685618245335902E+00    5.8015064494497235E+00
Ga    6.4953382429994315E+00    1.8687811866150346E+00    7.8001773224217210E+00
N    6.4907717047824889E+00   -1.1986063274182434E-03    8.4082932933891694E+00
Ga    6.4897588451440633E+00   -7.0618245733711801E-04    1.0405971781210088E+01
N    6.4923519390071887E+00    1.8726190978256991E+00    1.1010134177231476E+01
Ga    6.4879182855866251E+00    1.8703806839483845E+00    1.3008350511954720E+01
N    6.4892291497350829E+00    3.4951123807015988E-04    1.3607404404022427E+01
Ga    6.4907712417735040E+00    3.5599263010608669E-03    1.5619396945463164E+01
N    6.5127499226561216E+00    1.8875790686203000E+00    1.6189887563840266E+01
Ga    6.5087230753304413E+00    1.8867268384021310E+00    1.8270578829712569E+01
N    6.5067251893247828E+00   -1.3674743949024291E-02    1.8528713073818825E+01
Ga    4.8716618396201126E+00    2.8032825802938603E+00   -5.8660387925115676E-01
N    4.8747969573229790E+00    4.6778635583818780E+00    5.6000253863006311E-01
Ga    4.8743400705066939E+00    4.6461617816873755E+00    2.5905882428217089E+00
N    4.8714502050153428E+00    2.8025359957777560E+00    3.2227579446109180E+00
Ga    4.8720404010726890E+00    2.8039100087630611E+00    5.2126953196025037E+00
N    4.8748797314362085E+00    4.6786306950308454E+00    5.8004723446865123E+00
Ga    4.8743713836603311E+00    4.6770462150176790E+00    7.7986421147142329E+00
N    4.8716862524304307E+00    2.8044270492497541E+00    8.4016597172586440E+00
Ga    4.8723087542317254E+00    2.8054981181235239E+00    1.0398575075394195E+01
N    4.8750840973432723E+00    4.6743074085508090E+00    1.1013315415915526E+01
Ga    4.8768707474546007E+00    4.6700459274403610E+00    1.3012758768094960E+01
N    4.8660238706819792E+00    2.7986567426696047E+00    1.3630763391154632E+01
Ga    4.8625957880248549E+00    2.8018361089257517E+00    1.5640854402646447E+01
N    4.8955329436028787E+00    4.6840146627490480E+00    1.6210977571774301E+01
Ga    4.9049563605109956E+00    4.6742875024690100E+00    1.8292967867903872E+01
N    4.8790836000111986E+00    2.7947708728429208E+00    1.8613559032371807E+01
Ga    3.2522846839714967E+00    5.6080565637512523E+00    2.7654533183410690E-01
N    3.2513351559700414E+00    7.4781301974015797E+00    5.5962416056796960E-01
Ga    3.2791878588691783E+00    7.4938432342824370E+00    2.5902907628042580E+00
N    3.2520742345447733E+00    5.6084554430939164E+00    3.1823584821404096E+00
Ga    3.2524223588844694E+00    5.6100091534540137E+00    5.1929285563155219E+00
N    3.2522136547928278E+00    7.4796054281120403E+00    5.8028524724098052E+00
Ga    3.2523094524738112E+00    7.4794095470282738E+00    7.8019954828485654E+00
N    3.2525094762444944E+00    5.6081678560154344E+00    8.4058812892878638E+00
Ga    3.2531905266287264E+00    5.6077833166003144E+00    1.0402194239651369E+01
N    3.2526143577630360E+00    7.4778366733116064E+00    1.1006996031745997E+01
Ga    3.2446476793970067E+00    7.4738215474246408E+00    1.3003755376397040E+01
N    3.2500805081301736E+00    5.5985281100682514E+00    1.3613946447747548E+01
Ga    3.2559160255574167E+00    5.5921514155601413E+00    1.5619345490195427E+01
N    3.2693221518253934E+00    7.4768823755756566E+00    1.6150609903126874E+01
Ga    3.2893971437153944E+00    7.4669104864102493E+00    1.8215265283871847E+01
N    3.2725485414153823E+00    5.6090993334136643E+00    1.8606042054546283E+01
C    1.4769615810954584E+00    2.7213686277391398E+00    2.0231713950986151E+01
H    1.7787155580893332E+00    1.8121946191654870E+00    2.0771493073974618E+01
H    8.3438402243206222E-01    3.4411346696008831E+00    2.0758638784653467E+01
     &END COORD
     &KIND C
       BASIS_SET DZVP-MOLOPT-SR-GTH-q4
       POTENTIAL GTH-PBE-q4
       &POTENTIAL
 2 2
  0.3384712400000000E+00 2 -0.8803673979999999E+01  0.1339210850000000E+01
 2
  0.3025757500000000E+00 1  0.9622486650000001E+01
  0.2915069400000000E+00 0
         # Potential name:  GTH-PBE-Q4  for symbol:  C
         # Potential read from the potential filename: GTH_POTENTIALS
       &END POTENTIAL
     &END KIND
     &KIND H
       BASIS_SET DZVP-MOLOPT-SR-GTH-q1
       POTENTIAL GTH-PBE-q1
       &POTENTIAL
 1
  0.2000000000000000E+00 2 -0.4178900440000000E+01  0.7244633100000000E+00
 0
         # Potential name:  GTH-PBE-Q1  for symbol:  H
         # Potential read from the potential filename: GTH_POTENTIALS
       &END POTENTIAL
     &END KIND
     &KIND N
       BASIS_SET DZVP-MOLOPT-SR-GTH-q5
       POTENTIAL GTH-PBE-q5
       &POTENTIAL
 2 3
  0.2837905100000000E+00 2 -0.1241522559000000E+02  0.1868095920000000E+01
 2
  0.2554050000000000E+00 1  0.1363026257000000E+02
  0.2454945300000000E+00 0
         # Potential name:  GTH-PBE-Q5  for symbol:  N
         # Potential read from the potential filename: GTH_POTENTIALS
       &END POTENTIAL
     &END KIND
     &KIND Ga
       BASIS_SET DZVP-MOLOPT-SR-GTH-q13
       POTENTIAL GTH-PBE-q13
       &POTENTIAL
 2 1 10
  0.4900000000000000E+00 0
 3
  0.4167772300000000E+00 3  0.1047568975000000E+02 -0.4921768140000000E+01  0.8707055900000000E+00
  0.7770178090000000E+01 -0.2248152160000000E+01
  0.1784415450000000E+01
  0.5696265200000000E+00 2  0.1777985340000000E+01  0.1958597600000000E+00
 -0.2317443900000000E+00
  0.2381265000000000E+00 1 -0.1624868022000000E+02
         # Potential name:  GTH-PBE-Q13  for symbol:  GA
         # Potential read from the potential filename: GTH_POTENTIALS
       &END POTENTIAL
     &END KIND
     &TOPOLOGY
       NUMBER_OF_ATOMS  147
       MULTIPLE_UNIT_CELL  1 1 1
     &END TOPOLOGY
   &END SUBSYS
 &END FORCE_EVAL
